c F1 random 3-CNF cnfgen RandomKCNF(3,125,533,seed=18) m/n=4.26
p cnf 125 533
-16 -24 85 0
-26 63 -122 0
-38 59 -114 0
-16 89 116 0
-22 26 -31 0
-28 39 -92 0
-29 -52 -125 0
-35 77 -106 0
62 -73 119 0
-25 27 -83 0
62 66 -74 0
-44 69 -109 0
-19 20 62 0
-12 70 -83 0
75 102 105 0
-52 62 -105 0
-17 -35 54 0
-43 44 -94 0
70 -90 111 0
-21 79 -99 0
-2 -13 -71 0
-62 -72 79 0
23 -29 -110 0
8 -64 100 0
68 110 -125 0
10 21 -122 0
14 -48 -76 0
-12 35 -78 0
-53 90 -107 0
56 -103 -119 0
-12 28 -36 0
-18 87 89 0
-42 -97 108 0
-10 -29 91 0
93 98 -125 0
-69 -111 -119 0
40 59 87 0
-3 11 51 0
28 -32 36 0
-17 -30 121 0
55 -68 -87 0
18 -64 -115 0
-8 68 -78 0
-38 89 103 0
82 85 112 0
39 108 -125 0
9 71 -107 0
-32 70 -81 0
-25 -27 -62 0
18 -39 -56 0
-90 -95 120 0
5 84 -85 0
-9 -12 64 0
9 -62 114 0
-2 -43 44 0
5 37 119 0
20 45 79 0
-17 72 104 0
31 -86 -102 0
-42 -71 -89 0
37 -46 -122 0
47 -54 -104 0
20 -87 -119 0
30 -37 60 0
-34 -40 -114 0
-63 108 -118 0
-3 74 -90 0
6 -67 77 0
-51 99 -100 0
-79 -91 -113 0
-26 -72 -110 0
32 74 116 0
-66 -75 -97 0
-46 -55 -87 0
76 -85 92 0
3 -5 41 0
-42 72 -121 0
-39 106 110 0
-29 39 -123 0
9 -27 -53 0
41 44 101 0
80 87 101 0
-1 17 71 0
66 -79 -108 0
-18 -29 44 0
49 -70 -112 0
-59 88 -117 0
-6 12 67 0
-87 96 -120 0
4 15 82 0
-35 -39 43 0
-44 51 114 0
-30 68 79 0
-34 86 123 0
-3 66 -120 0
-10 44 -108 0
24 -81 87 0
-27 39 70 0
-18 -103 121 0
-7 -20 -92 0
65 -90 -124 0
28 -47 -68 0
-45 50 -93 0
50 -70 99 0
21 -47 -106 0
40 55 -123 0
1 91 -118 0
32 -56 -79 0
-6 72 -121 0
24 45 118 0
77 86 102 0
-6 -44 -113 0
17 -63 118 0
-11 -20 110 0
-48 -80 105 0
-10 -26 -33 0
-54 -59 75 0
-64 -88 115 0
23 -98 -111 0
-6 72 90 0
7 22 -125 0
-4 9 -22 0
-32 99 121 0
-20 -107 125 0
-1 -118 124 0
-26 -108 -112 0
-15 -28 -109 0
-36 -53 114 0
5 -16 87 0
66 -75 88 0
14 16 94 0
-33 -79 99 0
-13 24 -105 0
27 -46 -56 0
25 -48 96 0
-20 67 -104 0
-53 76 84 0
-3 -65 -90 0
16 51 104 0
16 38 -41 0
-14 -88 119 0
4 -15 90 0
9 72 -110 0
17 -44 52 0
-24 -50 60 0
23 28 78 0
19 -35 -56 0
6 13 -44 0
18 -119 120 0
47 -63 -64 0
-34 -101 111 0
50 56 -67 0
-7 -28 -42 0
-6 101 118 0
7 87 -123 0
-2 -60 112 0
-30 -33 -89 0
31 84 105 0
46 84 85 0
40 -62 -90 0
-3 -101 116 0
87 113 -122 0
89 107 -118 0
-12 88 98 0
-57 -62 -93 0
-33 -73 -92 0
-20 -28 96 0
-69 -89 121 0
40 -69 119 0
-56 60 124 0
37 -87 -113 0
-13 -53 -110 0
25 33 -81 0
-4 38 42 0
37 -55 66 0
73 87 111 0
-15 106 124 0
15 -90 111 0
-67 -89 94 0
-14 51 74 0
22 35 59 0
14 21 -125 0
-3 5 71 0
-17 -90 -121 0
-45 -78 -98 0
-78 -94 -98 0
53 -97 -116 0
57 114 117 0
-28 42 -61 0
13 43 88 0
-20 -31 108 0
-30 -71 -85 0
-25 41 -80 0
4 76 -97 0
81 -105 -124 0
36 -44 -66 0
-57 -62 101 0
42 -83 119 0
-4 -12 -95 0
28 38 104 0
2 114 122 0
6 53 -67 0
-29 -40 -110 0
1 -5 40 0
74 91 -95 0
-2 -25 -89 0
6 34 57 0
22 -49 -71 0
52 -83 -123 0
-2 37 -48 0
-10 65 -69 0
51 -74 124 0
-19 -65 -89 0
-44 74 -94 0
-43 -52 -66 0
37 -65 106 0
22 28 67 0
-73 84 112 0
2 -31 -62 0
-14 -28 -119 0
39 107 -114 0
74 92 116 0
5 19 -35 0
58 90 115 0
-35 46 -105 0
33 -58 -94 0
113 120 122 0
-31 49 97 0
-53 -61 79 0
31 -56 -122 0
-92 99 101 0
-67 -108 122 0
-7 104 125 0
-78 81 -120 0
21 -86 121 0
-20 -66 80 0
-4 34 -97 0
-8 79 -95 0
45 -46 112 0
33 -49 -76 0
-13 -93 -119 0
16 -21 52 0
-39 -68 103 0
6 -84 108 0
52 79 -103 0
34 -61 -73 0
-24 65 -93 0
-9 -65 99 0
-4 18 98 0
36 75 122 0
-39 40 -99 0
-2 4 75 0
-46 -49 -83 0
15 106 107 0
55 -64 -96 0
18 -75 98 0
36 -65 -69 0
7 64 -112 0
-59 70 119 0
-45 50 -107 0
22 -77 -91 0
-30 36 -117 0
2 86 -111 0
-1 7 60 0
45 91 -93 0
-67 -93 -114 0
-82 -84 109 0
-54 -83 -84 0
47 -67 -80 0
-23 -89 125 0
10 96 122 0
46 -84 -124 0
52 -67 124 0
9 -37 -79 0
10 -56 71 0
33 46 49 0
3 49 -96 0
19 -35 60 0
-56 -63 -117 0
31 39 -45 0
25 94 -117 0
-15 -64 -81 0
27 -40 120 0
-92 -94 -101 0
-62 -64 114 0
-29 76 -117 0
24 46 -54 0
13 24 124 0
17 -91 125 0
55 -80 122 0
-42 -113 -116 0
6 42 -103 0
-31 51 125 0
-10 11 87 0
72 75 97 0
-15 61 105 0
23 -77 89 0
45 79 -111 0
-18 -64 -90 0
-46 -86 124 0
-37 48 107 0
6 -73 -99 0
9 14 62 0
-32 53 56 0
33 -46 110 0
-11 -13 -70 0
22 -46 111 0
-78 82 92 0
43 -56 -72 0
39 59 112 0
-43 46 120 0
-58 -98 -112 0
100 -107 -120 0
61 -74 -76 0
82 -101 -108 0
-47 -97 118 0
42 53 -89 0
2 -9 32 0
15 -41 115 0
47 -54 56 0
-14 37 -84 0
-56 68 78 0
49 57 98 0
26 85 104 0
80 -104 105 0
46 -97 -125 0
50 -79 -90 0
-55 -65 97 0
17 91 111 0
-2 -48 -83 0
98 -101 105 0
6 -41 -70 0
-16 -108 -109 0
-9 -30 -123 0
-14 15 77 0
66 108 112 0
-8 40 -60 0
-48 88 -113 0
5 83 -110 0
1 13 -35 0
-13 -17 -118 0
-61 67 -70 0
-24 -52 121 0
-6 67 -83 0
-33 -60 -68 0
-14 36 94 0
-21 81 -85 0
-7 38 118 0
93 -96 122 0
-27 68 83 0
-51 64 86 0
-16 -51 117 0
-12 -55 -77 0
-12 -24 65 0
-14 -18 -65 0
8 -39 69 0
-32 71 -115 0
57 60 -90 0
-31 -38 -48 0
11 66 -101 0
-25 -51 -73 0
18 -79 112 0
-23 40 -82 0
-48 67 68 0
28 -77 -96 0
-92 94 95 0
-10 -96 -113 0
30 -45 67 0
1 -17 -36 0
27 62 -75 0
25 108 -112 0
22 83 92 0
-1 58 -99 0
50 -55 71 0
42 80 -107 0
-109 110 122 0
43 65 -122 0
14 25 -81 0
-30 -36 109 0
78 85 -92 0
5 -68 90 0
-19 -60 86 0
21 -36 -91 0
-1 -3 58 0
34 -36 100 0
24 -26 -42 0
-26 -104 -118 0
-8 59 -92 0
-89 -93 -120 0
35 -59 -95 0
11 -38 -43 0
-20 -67 116 0
52 -96 -104 0
-40 78 -109 0
41 80 -94 0
9 -70 -108 0
33 73 121 0
48 -70 -123 0
2 -11 -91 0
-69 81 99 0
-65 -112 114 0
56 87 91 0
-8 16 -97 0
-57 88 101 0
73 112 118 0
-12 88 -96 0
-37 44 62 0
31 -55 58 0
37 77 -96 0
-12 -36 96 0
-8 47 -87 0
-4 -64 114 0
-7 22 69 0
-44 46 58 0
81 112 -113 0
-29 -51 118 0
52 57 -119 0
35 57 -79 0
-1 -105 107 0
31 -48 125 0
38 53 -103 0
41 -48 81 0
68 86 120 0
1 35 63 0
-9 34 -111 0
47 -81 82 0
31 -57 123 0
-19 -25 68 0
-1 -49 -106 0
9 -36 93 0
-71 74 -125 0
3 51 -54 0
44 -51 -100 0
31 39 -60 0
14 -30 111 0
80 88 94 0
-1 -59 -111 0
3 32 -115 0
47 99 125 0
30 37 -50 0
106 -113 -123 0
12 -17 51 0
-8 23 25 0
-5 -55 -103 0
23 66 -98 0
-33 81 92 0
-56 -92 -116 0
-1 -42 -84 0
3 17 89 0
-34 65 -99 0
27 87 -124 0
-17 -31 37 0
36 -88 -102 0
31 -41 92 0
5 -110 120 0
62 -72 118 0
-14 103 112 0
19 -65 109 0
18 47 75 0
-40 72 -114 0
51 55 -110 0
3 114 -119 0
20 22 -44 0
-24 -65 109 0
-13 101 -124 0
73 -74 -122 0
-17 -52 57 0
47 -49 -81 0
39 -58 109 0
-14 40 -97 0
17 -45 -81 0
-43 55 -100 0
29 -86 117 0
55 -111 -121 0
-48 80 94 0
-8 28 -103 0
87 -107 113 0
-77 112 123 0
17 57 119 0
66 -91 101 0
-53 -107 118 0
-31 47 117 0
72 -87 114 0
-39 -48 62 0
20 38 39 0
28 -33 91 0
2 -77 89 0
3 10 75 0
24 -53 -69 0
-15 -50 -66 0
-64 -78 -97 0
-51 55 -59 0
-94 97 -123 0
21 96 -107 0
9 -30 64 0
-28 51 -80 0
5 -52 65 0
26 37 56 0
-92 117 120 0
78 -100 110 0
15 -24 116 0
-64 -119 123 0
-5 -11 -87 0
5 91 -115 0
8 -61 109 0
64 -66 -118 0
-107 -113 -115 0
-3 -99 -105 0
-53 56 -72 0
-19 -41 -114 0
-22 -78 -93 0
-44 -63 -78 0
47 88 -121 0
-13 75 -114 0
3 36 -122 0
3 -16 -18 0
-49 -95 122 0
15 -31 91 0
40 49 86 0
-24 34 -56 0
12 -33 -73 0
66 -67 73 0
-19 -79 82 0
38 -71 100 0
-24 -33 -96 0
34 66 -72 0
18 -43 98 0
62 -96 125 0
-4 13 45 0
21 -74 -90 0
-7 -30 -100 0
-24 66 120 0
-1 29 104 0
