c F1 random 3-CNF cnfgen RandomKCNF(3,125,533,seed=12) m/n=4.26
p cnf 125 533
-35 61 -85 0
-2 -48 62 0
1 -72 -85 0
21 44 116 0
-10 -66 88 0
3 8 -118 0
-15 57 -122 0
72 80 113 0
-11 -65 -105 0
50 62 78 0
-85 -101 -125 0
-50 89 -111 0
-31 43 47 0
-49 106 110 0
29 -55 87 0
14 78 99 0
-5 -36 -90 0
45 -78 -82 0
-27 -37 -44 0
-22 -31 123 0
25 96 -99 0
-99 103 118 0
2 65 102 0
47 65 -70 0
-86 101 113 0
-65 -68 -101 0
-34 88 -122 0
38 -79 -112 0
-66 111 -121 0
4 33 67 0
-35 72 114 0
26 -56 61 0
54 -56 76 0
-45 -72 75 0
3 89 91 0
-10 115 -117 0
-13 91 -102 0
-35 102 120 0
-69 77 90 0
42 -46 53 0
-12 -88 93 0
-85 -87 98 0
-4 -27 63 0
-8 -77 86 0
13 42 -114 0
36 -47 -109 0
29 -67 118 0
50 -60 -65 0
7 -101 -110 0
57 67 -87 0
45 -94 -98 0
-47 81 115 0
29 -62 -103 0
-6 -55 -103 0
-77 -81 -120 0
17 -19 -34 0
-55 -80 -85 0
-49 -64 99 0
-22 27 -101 0
-7 -67 114 0
40 110 -111 0
2 6 104 0
-26 92 104 0
40 70 -100 0
64 -69 88 0
1 -68 -84 0
-38 -60 -82 0
-4 67 115 0
-63 97 -110 0
-52 71 124 0
8 -30 45 0
8 104 108 0
15 73 -88 0
-27 -59 -81 0
31 -51 103 0
-88 98 -102 0
16 -63 119 0
-16 -26 -30 0
-52 -97 -106 0
-98 -111 113 0
-80 82 114 0
35 -44 -50 0
33 44 -54 0
23 -47 -71 0
-40 -43 -48 0
-10 23 -80 0
-47 79 -80 0
-43 44 -85 0
10 -69 83 0
-12 63 -104 0
9 30 37 0
16 36 -82 0
-40 96 -123 0
-51 -57 -60 0
92 97 -116 0
-65 -85 -92 0
4 -18 -40 0
-38 87 -124 0
-23 -41 -74 0
7 -19 107 0
32 40 68 0
-71 -100 -107 0
12 77 120 0
-49 -68 111 0
17 27 -117 0
-5 69 -70 0
24 -67 -80 0
-3 -50 64 0
-10 -70 118 0
-48 65 109 0
-10 -43 102 0
-36 39 53 0
-37 -84 -112 0
11 16 84 0
9 20 78 0
-71 106 -115 0
-3 -19 -85 0
42 -90 97 0
-37 56 97 0
-3 -120 -123 0
-13 -63 -79 0
-6 42 -73 0
-72 80 112 0
31 41 118 0
9 -79 -123 0
-6 35 -100 0
-7 -41 44 0
29 80 -111 0
64 104 -115 0
-50 69 100 0
-22 -76 88 0
-15 26 84 0
-10 -33 -80 0
-12 56 67 0
109 117 124 0
-22 70 90 0
-30 61 94 0
-12 110 117 0
64 -119 125 0
-68 -81 111 0
-21 51 -71 0
6 58 -77 0
72 99 111 0
2 -16 -94 0
-12 27 72 0
9 -38 102 0
43 108 123 0
-2 -11 -35 0
16 -46 93 0
-56 -90 -113 0
14 -47 -117 0
-30 -42 -90 0
1 -16 44 0
-21 -30 -57 0
9 -12 89 0
-89 -96 -109 0
31 94 124 0
-41 51 64 0
9 53 -103 0
-1 -41 -49 0
-10 40 44 0
-31 44 55 0
18 27 -54 0
7 14 -102 0
-12 69 110 0
56 80 124 0
-72 -97 119 0
-18 -23 -81 0
13 -24 -95 0
15 97 -118 0
7 -8 66 0
-22 -40 122 0
16 -43 111 0
-8 -61 -114 0
55 -64 -110 0
17 -26 -81 0
22 -93 -125 0
68 77 94 0
24 106 -107 0
-72 104 -113 0
21 -56 -85 0
-23 41 88 0
70 119 -121 0
-53 -92 -123 0
-59 81 121 0
16 82 85 0
26 69 98 0
50 -56 -57 0
6 23 -45 0
-14 -35 86 0
-27 51 88 0
-21 -27 119 0
21 81 98 0
-19 -74 -100 0
-16 -50 65 0
-19 -29 -87 0
-16 -87 122 0
-27 31 89 0
5 -52 -125 0
6 -20 -30 0
6 45 89 0
-36 76 103 0
48 63 -105 0
-41 47 -99 0
-91 98 111 0
-18 -38 61 0
9 89 97 0
-19 96 -99 0
15 -110 -120 0
62 71 -87 0
-26 54 124 0
70 -77 -110 0
-38 -111 -116 0
17 19 35 0
42 78 80 0
-23 -59 101 0
40 -70 -105 0
-54 -63 -74 0
-40 60 -91 0
-23 -74 121 0
45 -66 -69 0
-19 21 -103 0
-18 -29 -116 0
1 -12 -123 0
14 -33 -95 0
-36 57 116 0
-76 77 107 0
-16 -58 111 0
-18 -66 -114 0
50 74 82 0
-60 -72 -94 0
74 -87 -101 0
5 44 81 0
12 22 34 0
62 -112 120 0
-1 -35 101 0
-2 44 66 0
-45 -100 -123 0
-3 -59 -77 0
-4 -20 -68 0
53 -65 -119 0
80 84 -115 0
-8 -28 72 0
14 36 -78 0
7 68 -99 0
-3 -10 -49 0
13 -116 -124 0
66 -81 -84 0
-22 -72 73 0
64 -100 -108 0
-2 15 -80 0
34 -40 107 0
-44 -72 91 0
-52 -83 108 0
-11 33 72 0
1 44 -60 0
-1 71 -98 0
9 -74 111 0
-44 -58 -110 0
4 23 56 0
10 47 -49 0
57 59 -81 0
-34 47 59 0
13 -38 -104 0
19 -88 119 0
32 -47 73 0
5 86 -111 0
-33 -62 -66 0
-30 67 109 0
10 101 -120 0
44 -45 55 0
-5 -76 78 0
-35 58 118 0
-62 74 99 0
-41 90 122 0
-14 -70 124 0
45 88 108 0
-43 -95 -118 0
74 108 122 0
-56 107 121 0
-75 96 114 0
-50 59 -66 0
2 19 41 0
48 -82 -122 0
57 -95 -101 0
-10 66 83 0
-13 21 -39 0
40 -50 106 0
36 -40 65 0
2 13 -43 0
18 -20 -47 0
16 -77 94 0
7 16 -103 0
7 -17 88 0
-24 59 70 0
-19 -88 119 0
3 -9 -83 0
33 53 104 0
29 -30 57 0
45 80 -104 0
-97 103 -117 0
-12 -17 -117 0
15 40 -60 0
-79 -84 106 0
4 14 -36 0
54 60 104 0
27 -92 -116 0
-37 -88 116 0
3 -23 -75 0
11 19 -121 0
-33 -43 -48 0
15 -37 -115 0
44 -76 -81 0
7 20 51 0
90 100 119 0
5 -85 -99 0
-9 112 125 0
37 40 -88 0
-14 114 -119 0
22 -26 -92 0
-27 -61 -91 0
2 -47 107 0
-6 32 76 0
-26 -68 -118 0
-24 32 -117 0
33 -39 -86 0
-33 -56 93 0
85 -91 -111 0
-25 -94 98 0
-7 -33 -74 0
33 -68 71 0
-49 -66 83 0
-31 70 91 0
64 86 114 0
-4 -40 68 0
2 27 -77 0
-13 -42 -44 0
20 43 -82 0
-9 -78 -90 0
29 86 -111 0
69 109 -114 0
-26 -53 107 0
18 47 116 0
51 75 -79 0
72 85 92 0
-33 63 89 0
-16 25 47 0
25 27 35 0
47 48 -123 0
-57 -84 -105 0
71 81 -114 0
-21 -53 92 0
-56 -104 -106 0
5 -37 119 0
14 78 103 0
13 -19 -83 0
13 -98 -106 0
-8 12 -15 0
52 78 82 0
-20 115 123 0
21 -53 64 0
1 26 -120 0
-12 -19 78 0
-19 -71 -123 0
-23 62 112 0
13 -16 81 0
-33 40 110 0
34 58 -103 0
19 -65 -84 0
-65 -108 -124 0
12 -96 -109 0
-3 42 -111 0
-32 113 118 0
18 -37 -90 0
-10 40 118 0
13 52 -54 0
-37 -41 -112 0
22 54 -122 0
35 -87 -107 0
21 80 100 0
14 -78 -93 0
30 108 -125 0
58 -65 -92 0
81 83 -115 0
-5 14 -30 0
-2 -59 -86 0
46 56 75 0
-5 17 -85 0
74 116 120 0
-8 -85 -89 0
-14 85 125 0
18 -85 -93 0
-47 -68 -70 0
-30 -93 117 0
-18 -36 53 0
6 21 -71 0
11 -26 -89 0
2 -38 104 0
4 40 -123 0
89 107 119 0
-13 78 82 0
-39 89 111 0
25 43 102 0
9 26 117 0
-42 113 115 0
35 38 -102 0
-7 -34 78 0
-25 -65 -118 0
10 12 26 0
23 35 -78 0
-9 -33 77 0
50 69 -71 0
-10 -98 108 0
84 96 -100 0
31 58 -99 0
52 -99 -106 0
-4 -12 -86 0
-5 -43 94 0
-49 66 114 0
-1 -32 34 0
29 -49 50 0
-38 -65 91 0
-43 -51 108 0
13 88 97 0
46 93 114 0
-33 -95 113 0
-57 103 116 0
-26 -78 -96 0
-28 54 107 0
-12 16 -51 0
-60 82 -89 0
-42 -76 92 0
12 -48 -103 0
79 109 112 0
-3 -46 -48 0
-37 38 -97 0
59 -92 114 0
15 -66 -75 0
-61 111 119 0
-37 75 89 0
43 -78 -90 0
-28 -31 -67 0
84 88 118 0
5 -33 -99 0
38 53 115 0
4 36 45 0
-27 -47 113 0
15 53 -77 0
-46 -76 -110 0
-6 -21 67 0
3 -60 -93 0
25 -70 -116 0
75 115 -122 0
-33 -84 117 0
57 -68 78 0
58 -106 -110 0
25 29 100 0
-12 18 43 0
52 -54 -121 0
-6 72 -91 0
33 58 -98 0
-85 92 102 0
36 89 120 0
-27 -28 -82 0
-40 99 118 0
26 64 81 0
-15 51 100 0
4 -28 -42 0
16 74 114 0
28 -97 -103 0
-74 -87 -106 0
30 -59 -105 0
31 -86 -111 0
65 91 109 0
29 37 -115 0
-10 -11 -34 0
-3 -75 95 0
-32 -43 -114 0
43 -50 52 0
-38 77 86 0
-4 42 87 0
-37 94 123 0
9 -22 123 0
100 113 -125 0
-55 -110 120 0
42 -111 117 0
-32 -55 96 0
-30 -39 106 0
9 -11 58 0
-20 36 -55 0
89 99 -103 0
-1 21 73 0
-7 57 -123 0
53 -74 -91 0
-32 -110 -111 0
16 17 -28 0
18 63 -68 0
35 -63 -105 0
-27 -43 101 0
-35 -96 123 0
-33 -53 -92 0
26 -66 125 0
-4 8 -67 0
-22 -25 -40 0
-24 -52 -85 0
22 32 122 0
-22 58 71 0
14 32 -51 0
3 -42 57 0
-34 -107 114 0
37 56 -58 0
-21 -68 -85 0
-15 -70 113 0
12 84 85 0
-23 -92 -99 0
-23 56 110 0
12 -116 -124 0
-9 20 -120 0
-49 -67 -104 0
-87 -99 110 0
-9 28 67 0
42 -86 98 0
-4 -43 49 0
14 88 -95 0
59 105 -114 0
66 80 120 0
-33 -42 84 0
-15 105 107 0
53 -64 -67 0
40 -64 -113 0
61 -79 -107 0
10 -52 -93 0
1 43 52 0
