c F1 random 3-CNF cnfgen RandomKCNF(3,200,852,seed=14) m/n=4.26
p cnf 200 852
28 -158 -180 0
-19 -75 -188 0
101 -102 176 0
-67 81 92 0
-142 170 171 0
-18 32 167 0
-53 -71 98 0
-29 165 176 0
125 -132 -192 0
-56 -125 160 0
-23 32 72 0
42 106 -190 0
-44 -123 -176 0
-112 118 -125 0
-61 -101 122 0
-37 -126 146 0
104 -109 -181 0
-68 92 121 0
-121 144 -161 0
-9 26 50 0
-73 -130 151 0
9 38 199 0
65 68 129 0
-85 -155 175 0
144 153 -190 0
-63 -99 -126 0
-9 -64 -157 0
23 27 68 0
-37 -55 -178 0
33 98 -140 0
-95 -139 181 0
24 57 114 0
-5 57 -172 0
-69 120 -121 0
16 165 -175 0
14 30 166 0
12 -79 174 0
-2 116 -120 0
-21 64 70 0
2 92 -186 0
-76 -98 115 0
-36 65 -73 0
-7 -18 -166 0
-65 109 154 0
97 -122 184 0
57 -61 195 0
24 64 117 0
-155 -173 -176 0
18 58 -191 0
-52 118 -177 0
-56 -122 -194 0
13 -80 137 0
71 79 122 0
-8 -134 -175 0
76 95 163 0
54 130 198 0
-80 -104 152 0
-64 -90 -143 0
-4 -11 29 0
51 52 -77 0
73 -114 153 0
113 155 198 0
-53 140 152 0
-34 94 161 0
24 191 198 0
-35 -122 -143 0
-17 131 -165 0
-43 70 -117 0
-11 116 138 0
52 97 -137 0
-43 -131 180 0
-18 -46 -193 0
-49 143 -180 0
-63 78 183 0
-31 168 179 0
-37 -53 55 0
3 -59 60 0
62 -71 144 0
14 59 -71 0
-71 -129 163 0
13 -127 192 0
-165 183 -188 0
-32 127 -164 0
-84 -109 -137 0
18 -138 168 0
-42 -49 -64 0
-100 127 -182 0
61 -147 181 0
131 -147 -155 0
-85 -117 -183 0
-68 -181 -192 0
-5 33 -48 0
125 167 -186 0
-6 14 36 0
46 99 -178 0
-11 33 84 0
5 28 186 0
39 -105 -144 0
-108 146 -156 0
6 -7 14 0
4 153 -159 0
6 -11 -83 0
-48 -64 -73 0
50 125 -174 0
60 70 123 0
-86 100 173 0
-111 -135 -151 0
88 140 -199 0
10 131 137 0
16 -20 -85 0
98 -147 -189 0
-32 -34 50 0
-32 77 -184 0
-69 -129 163 0
-11 155 -190 0
-30 97 -100 0
23 -76 166 0
-28 83 -125 0
75 -76 -142 0
66 123 -173 0
70 -121 -195 0
72 82 184 0
69 153 -159 0
-52 -155 -182 0
26 -81 -106 0
29 -60 -107 0
-8 -146 -188 0
-111 -121 -191 0
-47 102 -120 0
-98 -105 188 0
11 74 123 0
6 9 197 0
-31 61 141 0
-10 -56 177 0
-8 -146 179 0
25 44 127 0
-81 123 194 0
-68 95 -126 0
-62 -76 196 0
-10 -49 113 0
6 -154 -181 0
124 166 185 0
96 107 -136 0
-75 -103 182 0
2 16 -100 0
9 63 -141 0
38 67 -120 0
28 -83 142 0
-41 -107 156 0
-75 133 -191 0
8 -17 187 0
-28 113 191 0
-39 150 200 0
-12 60 172 0
20 35 162 0
-45 -88 146 0
13 -47 146 0
-71 103 -187 0
82 -116 125 0
10 -136 -188 0
-7 54 -108 0
9 15 34 0
26 132 -193 0
-30 68 -161 0
159 -161 190 0
120 124 -167 0
1 28 29 0
13 -97 121 0
-41 102 -188 0
-44 -114 -170 0
-31 154 -166 0
16 -140 -147 0
84 -99 -131 0
3 75 -192 0
100 142 176 0
77 -137 178 0
-5 63 -170 0
-56 94 -126 0
39 133 -196 0
123 -154 193 0
-17 -43 -174 0
49 -65 -127 0
-58 92 150 0
-31 -55 194 0
29 -34 42 0
-95 -176 195 0
151 180 -188 0
-33 197 199 0
-98 -174 177 0
70 166 -200 0
-26 -34 67 0
-41 -119 159 0
9 -29 67 0
2 -80 -180 0
113 121 131 0
19 -72 155 0
-12 -18 137 0
78 102 176 0
-27 -138 194 0
58 -80 172 0
-60 69 -102 0
65 -77 182 0
-147 157 -199 0
187 -193 200 0
-11 -45 -119 0
30 73 92 0
-94 -145 181 0
170 -178 189 0
-3 38 -87 0
-107 -142 -189 0
-76 91 -126 0
50 96 -115 0
-115 -116 175 0
-50 76 -159 0
75 -170 -187 0
72 -122 197 0
-12 133 -134 0
-94 114 138 0
-58 -95 -126 0
43 -51 -138 0
-12 -27 53 0
114 130 156 0
-10 31 131 0
8 46 -59 0
20 38 144 0
15 148 197 0
51 102 129 0
18 -63 171 0
-19 35 -78 0
38 -100 -122 0
-94 -120 172 0
101 -136 198 0
-66 -151 179 0
-79 104 129 0
2 165 -200 0
-36 -127 132 0
-39 42 186 0
-43 -67 102 0
90 91 97 0
-81 94 200 0
-101 114 -127 0
69 -96 164 0
47 -96 -154 0
55 -70 123 0
11 -120 176 0
29 172 -177 0
49 -86 -103 0
23 26 142 0
12 -114 -171 0
-73 88 118 0
48 76 -119 0
-30 90 98 0
20 -159 -183 0
59 182 -193 0
29 -101 185 0
-49 -95 148 0
-4 -80 -112 0
-44 49 199 0
3 32 155 0
64 132 187 0
-57 118 -191 0
-63 -137 197 0
99 113 -163 0
18 -30 -52 0
-61 -84 116 0
-6 -125 -192 0
75 -105 -113 0
3 -49 155 0
-5 -56 -111 0
-74 98 -193 0
93 -127 -167 0
48 -68 93 0
-47 -157 -196 0
-57 65 184 0
21 121 164 0
29 72 94 0
26 -32 -92 0
-45 64 185 0
-47 131 -193 0
14 56 -181 0
-14 -26 -78 0
-61 124 153 0
-34 64 -154 0
132 136 148 0
103 133 135 0
-27 76 196 0
40 73 -187 0
75 87 -98 0
56 -143 162 0
33 128 193 0
47 -84 -97 0
-20 66 185 0
103 -109 137 0
-105 109 -175 0
-27 -173 -200 0
37 122 -183 0
34 -39 172 0
-21 35 -172 0
58 114 125 0
-91 116 127 0
-103 -106 196 0
50 54 -151 0
-55 141 143 0
31 -116 -180 0
-55 -62 65 0
-51 -76 -183 0
162 174 -192 0
-55 57 -72 0
78 -111 181 0
-48 50 -140 0
-18 24 -113 0
-92 -160 166 0
-39 77 142 0
-24 102 105 0
-136 -137 -158 0
25 48 -139 0
29 -65 -166 0
-33 35 -71 0
72 97 115 0
-76 117 177 0
-69 -112 -153 0
-84 120 -186 0
46 -85 114 0
14 -115 197 0
86 152 -168 0
-4 -75 191 0
-84 139 -169 0
-11 -26 -35 0
82 -101 -159 0
146 -149 -156 0
100 -135 -143 0
49 -56 131 0
54 -58 -188 0
-37 -95 150 0
-94 -99 152 0
-38 115 147 0
26 41 -152 0
-4 19 -183 0
1 48 130 0
-137 143 154 0
-96 -118 -171 0
-79 81 142 0
12 77 190 0
-20 56 -150 0
36 -88 141 0
-74 84 123 0
29 33 -198 0
165 173 198 0
69 -153 160 0
-118 -158 -192 0
140 -166 -169 0
-87 -92 166 0
-3 64 -136 0
-10 51 155 0
22 -157 -200 0
155 177 -184 0
-16 -41 193 0
39 -127 182 0
-98 -131 -165 0
27 105 187 0
52 -124 147 0
115 139 -177 0
12 -170 -199 0
17 -130 -144 0
9 -166 177 0
51 -72 128 0
31 -95 -126 0
-41 84 -116 0
48 57 193 0
-15 -38 125 0
21 -108 131 0
-10 -120 194 0
-23 -57 156 0
67 -76 134 0
63 -127 144 0
3 52 66 0
34 82 178 0
-17 -46 60 0
76 -128 -136 0
10 61 -119 0
-35 172 -182 0
28 -68 -112 0
-43 73 -82 0
-48 -78 128 0
46 -87 -168 0
-20 -134 -200 0
67 106 117 0
-122 -169 198 0
21 107 121 0
-56 65 147 0
45 -58 130 0
-8 60 -95 0
41 -63 162 0
-43 76 187 0
-54 -161 -170 0
-29 -67 133 0
79 -105 171 0
34 113 194 0
36 -94 181 0
-14 -91 -146 0
-35 -113 164 0
1 97 143 0
39 -62 -101 0
-36 -93 -101 0
-25 -74 -127 0
-3 -7 136 0
-37 -52 -78 0
47 54 159 0
-68 -81 193 0
-12 98 -152 0
2 58 -61 0
11 -48 -67 0
55 111 197 0
-6 -39 -82 0
85 -86 -103 0
-34 57 -102 0
-28 79 191 0
-31 -97 161 0
84 -126 -154 0
40 -87 150 0
-136 163 -189 0
-66 -93 -136 0
-32 -129 133 0
52 69 -77 0
-26 45 -142 0
8 -61 -149 0
-10 17 -155 0
-76 162 174 0
6 38 131 0
103 -112 124 0
-1 -25 145 0
-76 -101 127 0
56 72 162 0
-76 104 -136 0
-32 45 -159 0
-98 130 -194 0
-11 -21 -111 0
78 -129 -150 0
70 -138 -175 0
60 -69 118 0
-36 -137 -142 0
-18 79 -107 0
13 80 -143 0
-97 -116 -145 0
37 -86 -99 0
4 7 43 0
-4 -40 179 0
-13 41 -83 0
81 -134 189 0
-34 -93 126 0
104 -141 -192 0
17 -18 -74 0
18 42 -77 0
-184 187 192 0
33 91 154 0
-62 -67 177 0
-51 78 -191 0
1 5 70 0
-6 -22 -101 0
35 -36 67 0
71 101 155 0
-7 107 -153 0
-65 -103 -153 0
-8 83 200 0
86 138 180 0
2 -12 151 0
-41 93 127 0
-72 97 -178 0
41 -48 110 0
56 179 187 0
-54 94 -135 0
-32 -124 -138 0
32 -89 -105 0
-12 30 -145 0
40 106 190 0
-9 148 149 0
28 85 99 0
47 -160 -168 0
13 -88 -94 0
95 103 -131 0
-11 -177 195 0
-2 -172 -181 0
61 109 -134 0
19 -23 -76 0
32 -153 -163 0
-120 -135 -179 0
-54 -127 -146 0
14 -44 -141 0
15 35 72 0
66 -82 -190 0
-14 24 -66 0
-91 98 -150 0
-23 47 88 0
-55 -61 122 0
-50 133 -134 0
19 94 -190 0
74 90 97 0
-48 117 -147 0
78 -80 91 0
-28 76 154 0
-91 133 -161 0
88 -146 -170 0
-40 -57 185 0
-2 129 -165 0
9 103 -132 0
38 -130 -154 0
20 -64 -100 0
32 -76 -100 0
-18 58 -151 0
-36 -105 194 0
-9 49 122 0
-50 94 106 0
-23 -37 183 0
-36 86 -183 0
-55 -111 154 0
-55 97 193 0
43 -92 130 0
-69 -163 183 0
79 181 -196 0
-128 -185 190 0
-91 107 -177 0
93 -97 180 0
15 -20 -45 0
72 160 176 0
-29 -68 178 0
-81 133 157 0
93 101 -161 0
155 156 -190 0
146 -167 -200 0
24 -127 -179 0
-36 -89 165 0
-147 152 190 0
-112 130 -196 0
58 -112 -160 0
-71 123 124 0
82 -102 -199 0
148 149 192 0
-105 -115 -172 0
-53 107 -157 0
5 -16 72 0
67 -78 131 0
18 -27 -70 0
14 -95 111 0
-52 -156 187 0
-45 80 121 0
-9 -144 -196 0
-11 -42 -122 0
20 -45 -48 0
116 134 -144 0
81 116 -190 0
112 113 -146 0
-6 -62 197 0
-26 67 -186 0
-27 -111 -200 0
-55 -59 -190 0
89 -121 127 0
84 119 -171 0
8 85 -96 0
8 82 -182 0
-45 -166 -177 0
24 59 76 0
-92 -172 184 0
129 150 -180 0
8 -85 131 0
122 187 -194 0
5 -166 190 0
-27 -132 -145 0
37 49 -195 0
19 -126 -160 0
-31 117 -143 0
66 -119 143 0
6 18 187 0
10 -127 -192 0
-58 -102 198 0
23 32 -105 0
19 -46 71 0
143 173 190 0
36 -60 129 0
78 -82 143 0
80 110 179 0
-33 -143 199 0
-78 -162 177 0
62 148 171 0
6 -23 -174 0
-60 76 173 0
-89 165 198 0
-96 142 -178 0
41 97 140 0
-24 -176 -184 0
91 193 195 0
-112 -135 -171 0
-30 82 -109 0
32 -148 157 0
-23 139 145 0
23 -182 -183 0
-149 -179 -191 0
-136 157 -179 0
125 -159 161 0
138 -146 182 0
26 105 -197 0
41 -148 156 0
49 -57 -187 0
-119 -130 145 0
-19 52 -118 0
-123 -126 142 0
-61 -121 125 0
2 -134 157 0
-28 -80 -98 0
-32 -73 -189 0
-59 -60 63 0
-60 -61 -153 0
3 -182 184 0
-12 115 -136 0
7 -40 198 0
43 -114 115 0
82 -105 188 0
51 -116 -157 0
77 -128 134 0
22 -150 -173 0
-34 173 -199 0
60 -136 -167 0
113 144 -199 0
-23 84 -198 0
-66 -98 121 0
-118 153 -162 0
-35 95 -144 0
-109 -129 -188 0
19 57 100 0
32 -40 -175 0
-9 -22 161 0
-69 -143 -196 0
136 -144 -179 0
7 -163 -197 0
100 159 181 0
-7 107 -152 0
-2 59 110 0
2 89 191 0
-12 -28 -92 0
-93 -139 190 0
-69 -166 -192 0
41 78 -130 0
30 -52 -53 0
11 31 38 0
24 -120 195 0
-21 -130 -146 0
-1 -38 137 0
-22 50 71 0
110 -119 -129 0
41 -57 97 0
-17 -36 194 0
-55 -129 171 0
-26 -40 -195 0
100 116 117 0
-69 -124 -161 0
22 -105 -150 0
-82 101 161 0
-25 124 -146 0
114 134 -162 0
47 72 150 0
38 47 -60 0
100 109 -132 0
29 -46 196 0
11 -95 189 0
59 77 -81 0
-29 78 -181 0
4 18 -113 0
-22 -139 190 0
-50 103 -191 0
-38 44 182 0
69 -139 -154 0
-4 58 -89 0
45 -75 189 0
51 67 -148 0
54 99 187 0
-57 59 -192 0
-105 155 177 0
-76 -122 154 0
75 -119 -197 0
-30 -63 106 0
-79 85 121 0
13 134 148 0
-23 -35 55 0
33 79 -165 0
-35 -164 -183 0
10 -14 60 0
50 -101 134 0
88 -120 177 0
-34 122 -134 0
118 169 190 0
-29 49 171 0
-17 -29 -181 0
9 -108 194 0
134 175 -178 0
-9 -29 -160 0
-88 118 -122 0
-72 88 182 0
13 142 195 0
-24 149 162 0
-152 -173 -198 0
36 75 -138 0
22 -70 77 0
39 -102 186 0
-7 -38 176 0
-1 -35 -172 0
54 -57 97 0
15 18 -125 0
-30 -88 -96 0
-127 -178 196 0
133 136 188 0
-63 -81 101 0
-13 24 -27 0
-22 -111 -145 0
-14 158 164 0
-10 11 -187 0
-55 108 168 0
93 119 -149 0
144 -176 185 0
62 82 93 0
52 -67 130 0
32 45 156 0
-49 53 136 0
-52 77 125 0
-6 69 135 0
69 -74 -149 0
37 -101 -169 0
-25 58 82 0
34 138 -146 0
-26 101 134 0
-9 -62 -125 0
-42 70 106 0
72 137 -196 0
37 -44 123 0
88 -97 106 0
48 56 93 0
99 -123 -133 0
-16 -137 -170 0
-12 -85 -156 0
-41 185 -197 0
29 113 171 0
-24 -80 128 0
-132 137 176 0
2 -33 97 0
90 152 179 0
67 75 -170 0
-24 -51 190 0
-17 -78 -194 0
40 -85 -200 0
-48 -83 139 0
54 146 -165 0
73 -109 161 0
59 118 132 0
7 -130 170 0
-112 -146 -180 0
-85 -102 169 0
-39 70 -177 0
31 -61 -175 0
-47 128 159 0
-26 70 -94 0
-32 -55 75 0
135 -140 152 0
66 151 160 0
3 26 -188 0
33 -133 190 0
79 -131 -196 0
5 -73 139 0
-21 -24 163 0
98 146 -153 0
-14 79 -141 0
39 53 -175 0
-55 137 148 0
22 -54 -130 0
-26 81 92 0
-8 18 35 0
8 -169 -175 0
-42 163 -185 0
-81 -82 -94 0
-36 134 -136 0
-13 -175 195 0
-25 -37 111 0
80 174 188 0
-57 -103 -125 0
-71 121 -189 0
26 -172 -200 0
9 104 150 0
-34 44 124 0
-22 69 112 0
42 -136 144 0
-74 82 96 0
45 -103 -181 0
5 126 198 0
-9 -20 -147 0
-61 -142 -175 0
12 50 -65 0
-10 63 151 0
-16 153 -185 0
-4 105 181 0
-73 -145 -163 0
117 -163 175 0
43 -103 -200 0
-47 103 128 0
56 -130 -170 0
-90 -101 -102 0
-34 51 -72 0
-33 55 -120 0
-70 -104 -197 0
87 -114 146 0
8 -90 163 0
9 -50 188 0
-77 -141 -144 0
9 -57 -158 0
-91 -101 -122 0
-20 -64 -186 0
62 87 91 0
-24 -115 -148 0
86 -101 185 0
37 -179 184 0
12 135 -167 0
79 150 196 0
-1 108 -136 0
75 -116 -149 0
53 83 191 0
22 165 -182 0
-21 -143 149 0
-4 -7 -89 0
-7 117 -148 0
32 -72 -119 0
83 96 176 0
-11 30 120 0
8 -49 -72 0
-16 76 200 0
-1 -129 194 0
50 141 155 0
67 149 -195 0
83 102 186 0
116 -125 -189 0
87 90 171 0
-19 54 199 0
-29 91 190 0
90 -184 199 0
-65 110 112 0
138 171 -198 0
-66 -130 158 0
-29 -73 -135 0
-24 125 183 0
5 -27 110 0
-73 -163 169 0
-6 195 -200 0
80 105 194 0
-97 140 -177 0
52 93 141 0
-58 164 -183 0
-51 -133 193 0
