c F1 random 3-CNF cnfgen RandomKCNF(3,150,639,seed=17) m/n=4.26
p cnf 150 639
-78 -107 134 0
29 72 -139 0
-65 -108 129 0
16 36 142 0
32 -85 -139 0
21 -122 -130 0
5 -96 111 0
96 -123 149 0
30 -55 143 0
17 69 -71 0
79 -82 90 0
-70 148 149 0
-5 -90 120 0
51 -67 80 0
-36 -135 -145 0
47 51 65 0
-13 -79 138 0
-24 -42 -108 0
20 123 139 0
68 -137 148 0
-57 -101 125 0
-56 -59 118 0
-8 94 -148 0
44 -143 -149 0
-45 -55 -78 0
24 28 133 0
115 -116 -119 0
4 68 -76 0
55 -85 87 0
4 -8 -133 0
-7 26 53 0
32 103 110 0
-68 -69 -138 0
-2 104 135 0
73 -83 84 0
-63 -127 138 0
-19 -64 66 0
33 94 -124 0
-22 112 113 0
-43 -82 -137 0
17 44 -61 0
-83 139 -141 0
63 -65 127 0
32 -86 127 0
63 97 -132 0
-19 -74 87 0
-39 -69 79 0
27 66 112 0
-95 -112 140 0
-53 79 104 0
-16 -146 -150 0
-67 78 -109 0
-49 54 55 0
19 -98 117 0
114 124 150 0
-59 -101 -112 0
-62 84 86 0
3 -122 -127 0
26 -48 -128 0
-34 41 51 0
32 75 -113 0
-67 -80 137 0
8 73 -138 0
76 90 124 0
-96 -115 -123 0
-3 30 -57 0
21 -30 143 0
-37 51 -119 0
5 -25 28 0
-77 78 -80 0
-1 23 -99 0
83 -118 138 0
77 120 137 0
10 -40 -83 0
22 -28 -98 0
68 -106 148 0
-57 -60 -85 0
-26 53 -55 0
14 94 112 0
-2 -14 -67 0
12 99 -137 0
-45 83 -92 0
114 115 147 0
36 -117 130 0
-2 -45 98 0
50 52 -72 0
39 -84 -122 0
67 115 121 0
64 -80 -128 0
-67 83 -116 0
42 69 132 0
9 30 -92 0
54 59 84 0
-9 -118 -126 0
120 134 139 0
-17 43 73 0
48 -74 -86 0
-60 -126 -145 0
-44 -56 -146 0
-16 80 -140 0
2 10 -78 0
30 -55 129 0
82 -122 -127 0
56 58 108 0
19 -106 -135 0
-45 -75 137 0
68 -71 -83 0
3 -100 -116 0
-3 -15 55 0
-67 -93 131 0
-7 9 -64 0
9 -89 -101 0
74 130 -146 0
4 94 -150 0
-10 23 81 0
66 77 -132 0
-25 -68 109 0
15 -40 -77 0
24 29 43 0
-60 -95 134 0
-18 111 138 0
85 -101 -126 0
8 -30 -51 0
47 -50 148 0
-52 56 -69 0
-38 132 137 0
-77 -124 -141 0
52 -64 -132 0
43 -77 -100 0
5 -58 -69 0
-76 -96 -120 0
-10 -42 -56 0
-42 61 84 0
45 50 -56 0
16 63 -81 0
-6 -56 65 0
-21 -66 -83 0
55 -62 -83 0
-9 15 44 0
-17 88 -148 0
9 -72 -91 0
-7 45 131 0
21 -44 -129 0
14 64 85 0
2 -6 37 0
8 -84 139 0
37 45 -109 0
-52 -59 84 0
-55 64 141 0
-109 117 127 0
-44 70 102 0
41 -51 133 0
-36 -41 47 0
67 -79 -100 0
47 78 140 0
-134 -148 -149 0
47 106 -109 0
12 68 -123 0
97 -140 143 0
29 118 -137 0
-4 -67 -81 0
-1 -79 -139 0
32 41 -65 0
33 -82 130 0
22 -43 -87 0
-52 54 -109 0
-1 -119 -126 0
-38 -77 97 0
55 64 -78 0
70 -105 -112 0
53 -60 111 0
-42 51 84 0
-45 -90 -122 0
10 -56 -118 0
-38 -57 -73 0
-4 -51 70 0
33 -74 107 0
-22 -70 148 0
107 -112 131 0
5 -26 81 0
-64 -94 -116 0
18 30 124 0
-24 95 -106 0
-68 -78 -120 0
-26 -79 -91 0
-10 27 81 0
115 -120 -138 0
2 41 -133 0
67 -91 -144 0
81 -84 103 0
-13 -106 -139 0
-57 -102 115 0
-21 54 109 0
-68 111 136 0
14 102 -126 0
1 95 113 0
-5 -78 107 0
-110 122 -145 0
-1 61 -63 0
-94 -108 149 0
-5 15 115 0
20 29 60 0
105 -123 -144 0
-42 74 109 0
53 140 148 0
21 -45 -115 0
5 88 -97 0
-23 95 142 0
56 -104 122 0
21 102 -123 0
-26 57 68 0
108 128 -136 0
81 104 120 0
63 119 145 0
-63 71 119 0
63 -88 -119 0
106 111 -121 0
-8 -61 -146 0
5 58 -136 0
-131 -141 143 0
-44 -63 -119 0
-48 89 -112 0
-20 -44 150 0
-36 -127 -141 0
8 54 -97 0
34 -35 47 0
-78 -91 -96 0
40 -46 -147 0
-45 -107 125 0
-12 30 37 0
-24 -113 129 0
76 -92 -118 0
12 -20 -94 0
-45 56 91 0
-50 61 -83 0
56 -93 133 0
-84 -98 -127 0
2 -28 -64 0
20 28 -86 0
15 -53 -71 0
6 40 -72 0
61 63 -125 0
-108 120 140 0
59 75 -141 0
10 50 122 0
-65 -80 111 0
20 -91 -139 0
4 -51 142 0
87 92 110 0
44 65 148 0
22 42 -115 0
59 -74 -150 0
73 -103 126 0
15 77 121 0
-51 99 -110 0
29 42 -144 0
39 42 -100 0
-4 -54 110 0
5 68 116 0
12 32 140 0
12 -17 62 0
-7 32 33 0
33 -44 118 0
-44 -59 -75 0
31 80 128 0
19 -115 -121 0
1 -73 -76 0
-111 124 -135 0
30 -112 119 0
-11 17 86 0
-13 -47 -138 0
103 106 139 0
-13 -32 -120 0
24 -46 78 0
-40 -66 137 0
46 48 85 0
-69 79 122 0
63 65 71 0
-73 -98 126 0
-77 -79 84 0
48 -52 -96 0
6 13 -69 0
-1 16 147 0
25 26 50 0
61 116 147 0
-61 -64 124 0
25 -29 -60 0
-49 136 143 0
-7 -48 -63 0
-16 19 -150 0
-13 -23 -127 0
15 85 -139 0
46 -57 147 0
11 57 68 0
60 73 -100 0
-34 79 -96 0
-54 -96 -104 0
-48 58 -63 0
26 -134 -137 0
90 106 129 0
-28 70 98 0
52 -134 139 0
-37 110 120 0
40 71 121 0
26 -40 86 0
47 52 -102 0
-29 47 125 0
71 -142 150 0
-14 -15 50 0
-68 111 128 0
-32 -79 -135 0
-26 -72 -88 0
-85 96 -124 0
-42 53 -125 0
-38 -40 147 0
-1 91 -107 0
49 69 104 0
15 45 74 0
-94 142 -150 0
-65 108 111 0
-10 88 -102 0
-49 -64 145 0
35 -77 -122 0
-70 -108 122 0
-31 139 140 0
72 82 145 0
44 69 138 0
55 -70 -142 0
-19 -95 -109 0
-8 -81 -99 0
29 78 -139 0
-75 -91 -138 0
-21 -107 -145 0
130 148 149 0
56 -84 116 0
17 31 82 0
-20 22 89 0
-11 -39 49 0
26 -35 -105 0
2 -27 28 0
-97 132 -138 0
52 -130 -149 0
-49 -79 145 0
38 91 149 0
-70 75 -84 0
36 107 138 0
-66 87 104 0
4 -10 -24 0
7 12 -113 0
-22 -64 -107 0
-82 117 120 0
-12 18 136 0
95 -97 -129 0
-23 -76 105 0
-106 -128 135 0
-35 -94 149 0
-94 109 110 0
-73 -114 -123 0
74 101 -103 0
-28 42 -148 0
54 -70 132 0
-43 -55 -120 0
-72 -99 138 0
12 -93 146 0
21 -29 98 0
-20 -88 -112 0
-66 -110 -136 0
60 89 97 0
3 79 -121 0
29 76 133 0
6 -54 117 0
20 113 137 0
-2 87 133 0
10 89 -132 0
60 86 92 0
43 61 -90 0
-34 97 114 0
-7 -83 147 0
13 -37 143 0
-13 47 91 0
-60 -101 -102 0
-76 -85 -132 0
-35 54 66 0
33 67 125 0
-40 -123 140 0
-43 -48 -105 0
-107 113 -139 0
87 93 -116 0
26 60 -113 0
-26 -69 85 0
-41 -49 -133 0
6 -29 -95 0
46 65 142 0
-19 45 99 0
-22 -77 108 0
-58 141 -145 0
55 118 148 0
36 -57 -143 0
6 -58 100 0
92 -94 120 0
-41 -128 -137 0
-79 118 -143 0
-3 18 -145 0
24 44 103 0
-23 -81 108 0
58 -129 -133 0
8 -19 64 0
8 78 -137 0
-33 56 85 0
-67 115 -132 0
56 110 -115 0
-24 51 60 0
-16 47 -105 0
-38 -116 147 0
41 -79 102 0
11 -25 -68 0
15 -63 -76 0
-17 103 -119 0
4 74 141 0
25 106 -148 0
-69 76 -96 0
32 36 -93 0
49 -102 113 0
-18 21 117 0
8 -44 -88 0
-51 52 -136 0
-27 -41 123 0
15 -101 109 0
-61 -94 -129 0
32 -59 122 0
62 -80 95 0
-95 -111 -114 0
7 42 75 0
-23 -32 -51 0
43 71 78 0
24 48 140 0
-11 -52 -100 0
-2 24 -148 0
4 76 -90 0
-28 47 142 0
36 80 99 0
-1 94 114 0
23 -85 -135 0
46 56 -132 0
40 63 -139 0
-15 52 -139 0
-22 78 -148 0
83 92 -114 0
-29 94 150 0
-84 98 101 0
23 101 -109 0
47 85 -93 0
-12 39 -148 0
56 114 138 0
53 93 -108 0
-36 70 -118 0
-75 142 -148 0
87 -90 96 0
-46 49 -124 0
-1 46 63 0
-55 -109 -110 0
29 -45 120 0
61 116 -137 0
-33 91 -122 0
-12 -45 -68 0
-41 71 -102 0
29 92 -147 0
-9 103 130 0
-5 -68 148 0
17 79 -128 0
-114 129 142 0
93 99 150 0
-22 -39 150 0
41 56 -120 0
25 -100 135 0
30 -63 -98 0
28 42 -59 0
-11 85 -116 0
-106 -113 -136 0
-21 110 129 0
-9 -69 115 0
13 84 -101 0
-17 26 -56 0
3 -35 -74 0
-27 -79 120 0
-2 97 146 0
-79 -99 130 0
-59 -80 115 0
78 -111 -145 0
18 109 126 0
45 -59 98 0
-45 -106 134 0
33 -96 -102 0
27 -72 -84 0
-91 134 -140 0
34 -58 -115 0
-101 -130 -136 0
-33 -77 -120 0
-20 -51 -121 0
-60 122 132 0
-94 117 118 0
31 -43 -103 0
19 62 75 0
34 -36 -101 0
18 -37 -111 0
100 -114 136 0
-29 33 -104 0
-25 -56 89 0
11 44 103 0
22 -24 -71 0
-30 -64 126 0
-80 99 -125 0
27 -125 -130 0
15 -97 111 0
41 -61 -82 0
-14 -26 -116 0
-16 -46 48 0
-81 -126 128 0
-38 -60 -85 0
-34 -86 128 0
68 -87 135 0
-12 -17 -132 0
-18 22 -148 0
35 -49 -118 0
24 47 102 0
47 -54 123 0
31 -57 -66 0
27 -85 126 0
60 113 -144 0
26 -40 -54 0
-53 -55 -129 0
79 -128 -145 0
-39 -49 -109 0
8 22 -47 0
-13 68 118 0
37 -72 -150 0
-7 -71 98 0
-80 123 140 0
15 140 146 0
82 -112 -128 0
-9 81 139 0
67 92 -109 0
-31 76 139 0
-14 -79 -115 0
-9 71 -109 0
-33 59 -141 0
24 -40 -100 0
11 -94 -99 0
109 124 142 0
-41 -93 -132 0
72 110 112 0
23 34 97 0
98 138 -146 0
-15 -18 -52 0
8 31 -50 0
61 -113 114 0
4 16 102 0
-22 56 -144 0
24 53 -134 0
31 87 -128 0
-10 -86 103 0
29 72 -76 0
31 -70 -139 0
13 21 54 0
-12 -37 92 0
104 114 -131 0
32 -88 132 0
-103 114 127 0
26 -66 -96 0
-48 -121 142 0
-98 -112 -150 0
44 98 110 0
-43 66 132 0
-34 63 95 0
41 100 124 0
-44 65 74 0
-56 58 -148 0
-11 -126 130 0
-2 49 103 0
-24 -99 138 0
-55 141 147 0
-41 -92 -118 0
12 94 -131 0
72 120 127 0
-46 54 -115 0
-20 109 -119 0
18 -26 68 0
-56 90 -139 0
8 15 52 0
-3 -84 -100 0
-26 -61 123 0
18 -85 132 0
-4 -52 -61 0
-41 50 150 0
-31 -110 -118 0
5 -86 -146 0
4 -77 -81 0
-89 -120 -145 0
4 -34 -50 0
-32 47 -95 0
27 -64 130 0
-42 52 -98 0
33 85 -101 0
-17 -69 -114 0
-11 92 -140 0
-3 68 112 0
-43 94 150 0
42 104 -124 0
-31 -62 75 0
-17 23 -133 0
-40 -42 -148 0
-76 83 84 0
-1 12 -28 0
44 59 81 0
39 -47 -85 0
9 31 -62 0
14 17 132 0
27 96 112 0
45 -104 -129 0
-35 127 -149 0
46 -70 148 0
-32 -44 -146 0
35 -54 -92 0
102 124 -146 0
-56 -65 144 0
-15 -55 150 0
36 -86 -121 0
41 108 -139 0
-7 -58 134 0
16 64 -128 0
5 27 141 0
-114 -115 117 0
5 59 -81 0
3 -6 -96 0
79 94 129 0
16 60 95 0
35 56 79 0
-20 22 -134 0
30 44 -61 0
