c F1 random 3-CNF cnfgen RandomKCNF(3,250,1065,seed=15) m/n=4.26
p cnf 250 1065
3 54 248 0
5 -15 226 0
-30 -87 -120 0
59 -68 -89 0
-58 79 -237 0
108 -126 -216 0
-81 -113 146 0
126 242 246 0
45 -137 -158 0
39 220 -228 0
-13 -19 120 0
-46 140 243 0
-43 -80 -212 0
87 -114 -223 0
-30 -37 -174 0
4 -67 216 0
11 -116 229 0
-128 -145 211 0
16 -122 129 0
-152 -194 200 0
-3 -15 -157 0
-15 -89 -159 0
-8 -141 211 0
-172 -229 235 0
-37 -64 -65 0
-63 -176 -234 0
1 -91 155 0
45 -165 -219 0
220 -224 229 0
-81 88 -118 0
149 202 238 0
119 168 -182 0
60 -95 104 0
-176 -182 -213 0
8 -70 -87 0
16 48 120 0
53 -65 166 0
-59 227 228 0
-58 95 -108 0
38 -146 -193 0
120 -153 236 0
-71 109 237 0
86 104 116 0
-118 157 -174 0
-116 -119 -227 0
104 114 -207 0
-116 -123 234 0
55 -57 218 0
-103 -175 -179 0
-46 -66 240 0
78 -177 227 0
-67 148 -237 0
62 -131 169 0
63 -168 -203 0
-57 -74 -158 0
-191 208 -244 0
-91 -98 -206 0
25 -86 171 0
173 189 246 0
-136 -178 180 0
-62 65 128 0
-125 206 216 0
-144 239 244 0
16 67 -197 0
-85 -101 -217 0
-93 108 -168 0
191 -216 228 0
-43 172 236 0
16 -23 -160 0
-40 51 92 0
-14 90 -134 0
8 -38 -129 0
37 -57 177 0
-57 -185 -204 0
13 -31 -197 0
81 -233 245 0
4 -133 -241 0
-37 -193 248 0
98 135 -160 0
44 90 159 0
27 76 95 0
-76 149 -226 0
6 64 -179 0
-22 110 -124 0
-15 144 -202 0
86 153 -169 0
-94 -113 -177 0
18 37 71 0
18 -56 104 0
56 -92 111 0
-109 141 186 0
2 37 -193 0
-47 -82 250 0
30 -182 244 0
202 207 -233 0
-73 -78 -142 0
118 215 224 0
-80 -86 -97 0
-45 -80 136 0
2 -95 -98 0
66 163 247 0
-18 237 -249 0
-60 132 214 0
38 48 -193 0
-52 197 -218 0
155 230 244 0
134 157 229 0
66 156 -231 0
33 75 235 0
82 151 190 0
38 -68 138 0
54 -96 138 0
14 18 -226 0
133 149 -196 0
44 130 -223 0
-29 -45 205 0
118 -149 -184 0
-36 -59 97 0
72 -77 -159 0
-90 -127 -237 0
-127 170 240 0
-86 -129 -159 0
75 -85 -146 0
67 -105 118 0
-8 36 -103 0
-58 -175 -245 0
-49 -212 237 0
62 206 214 0
-81 -159 160 0
-45 131 -239 0
82 -148 198 0
4 165 -224 0
62 -106 216 0
48 -212 242 0
27 -144 -232 0
62 155 -218 0
132 214 -248 0
118 -130 -190 0
-146 -174 -207 0
10 20 66 0
-10 141 239 0
65 114 -198 0
69 -161 219 0
-205 228 233 0
-45 -57 -164 0
67 -152 -182 0
-80 131 -174 0
-25 67 112 0
42 103 -146 0
-86 109 -227 0
103 -225 241 0
118 131 -186 0
107 -176 237 0
1 45 -197 0
53 -120 247 0
123 193 207 0
-55 92 195 0
-16 57 189 0
-56 175 -233 0
-61 158 192 0
7 99 -244 0
76 229 237 0
-36 -88 127 0
-31 126 180 0
-117 128 248 0
38 115 -125 0
-35 46 -133 0
-126 196 -243 0
-102 134 -171 0
-3 75 -151 0
-88 101 217 0
12 -130 -216 0
-166 195 205 0
67 182 -223 0
93 -158 -193 0
7 -34 230 0
89 -175 -217 0
54 -228 234 0
71 114 215 0
-18 -163 238 0
-13 -111 227 0
-55 58 -69 0
-58 -66 -170 0
20 77 -86 0
25 -66 226 0
46 94 240 0
70 174 175 0
84 -201 -246 0
-24 -125 139 0
12 -197 227 0
-43 -78 143 0
-127 -153 -156 0
31 -239 250 0
37 59 206 0
109 -166 -193 0
58 78 156 0
42 73 208 0
-23 -61 121 0
37 -89 -242 0
-58 143 236 0
-87 119 -175 0
-69 150 -228 0
-19 38 -42 0
19 -100 210 0
-3 24 207 0
-30 66 -70 0
-135 172 235 0
-12 68 -245 0
-70 -91 -98 0
-25 182 235 0
-4 41 -232 0
186 -189 -205 0
-103 147 -155 0
-75 191 246 0
153 -213 -248 0
15 -161 165 0
156 -192 232 0
110 -167 -233 0
-143 179 -227 0
22 -135 -160 0
-51 177 -184 0
-47 142 -149 0
58 -83 158 0
-61 91 113 0
-16 -18 202 0
-100 131 -245 0
81 134 -176 0
3 -151 208 0
41 -80 -186 0
-53 112 217 0
10 42 241 0
-109 -115 181 0
-90 120 -151 0
-25 -121 -203 0
-63 -153 209 0
-18 -41 62 0
-80 101 160 0
-4 171 -225 0
-19 -164 230 0
-55 90 228 0
72 -215 -229 0
-145 -206 -249 0
-11 -109 194 0
83 119 -152 0
44 -105 226 0
-62 91 180 0
-33 -139 -209 0
11 69 -238 0
-88 -109 -129 0
21 -203 246 0
-33 -56 -112 0
-104 148 -185 0
-12 139 -145 0
89 -102 209 0
-31 -32 198 0
14 -76 -159 0
45 -55 250 0
-21 45 225 0
-100 -172 -198 0
-5 -195 -215 0
32 -64 -115 0
1 222 230 0
26 -179 -185 0
-13 33 -87 0
-173 -224 230 0
-166 -196 221 0
82 -127 -141 0
29 121 -238 0
-85 -122 240 0
24 -39 -183 0
106 -183 234 0
83 -124 156 0
-43 154 163 0
49 86 212 0
90 -146 239 0
139 -156 -245 0
-22 -101 157 0
211 -233 -240 0
-38 100 -229 0
-116 144 -219 0
125 166 -207 0
-3 39 127 0
70 97 -206 0
-35 133 189 0
-62 76 -188 0
28 46 166 0
17 69 -180 0
-139 203 224 0
-13 -125 -201 0
-23 28 -107 0
59 142 -241 0
-29 163 -203 0
103 166 -246 0
-142 -193 241 0
-12 -167 -241 0
-1 114 -218 0
46 -52 -181 0
-111 -151 -192 0
18 -209 -238 0
12 -122 147 0
111 165 -233 0
-121 -216 -221 0
-36 -75 125 0
19 -24 -38 0
56 -173 -209 0
68 -77 -194 0
-40 -147 186 0
-2 12 -233 0
130 -194 205 0
45 -58 -68 0
-51 -182 243 0
-192 -204 219 0
34 115 122 0
-118 165 182 0
-7 -34 136 0
70 110 -218 0
-232 238 240 0
15 37 -126 0
-27 -100 -152 0
-45 47 -57 0
61 224 240 0
-45 138 168 0
-129 -173 -195 0
32 196 205 0
-55 176 -200 0
-53 -139 -228 0
-30 -120 -184 0
16 -144 157 0
52 -55 -221 0
32 -101 178 0
155 -224 -247 0
28 47 247 0
-49 189 247 0
93 158 -214 0
-1 -42 103 0
55 -67 -239 0
-131 -144 -148 0
50 55 -85 0
54 -95 -222 0
-99 -152 227 0
69 74 -127 0
-73 -118 218 0
71 114 218 0
6 -34 228 0
94 -145 227 0
-124 199 -201 0
-76 -144 -156 0
22 81 97 0
121 148 161 0
34 131 -176 0
-21 -42 148 0
-108 149 245 0
123 228 249 0
-77 -183 223 0
-35 -204 221 0
87 -100 150 0
-141 -144 183 0
53 121 222 0
-116 131 237 0
74 -132 179 0
101 -196 214 0
-16 50 181 0
-36 -102 105 0
-78 94 133 0
-29 46 -217 0
136 165 227 0
77 87 -191 0
-42 -100 -105 0
-5 -71 -160 0
-15 45 211 0
-99 150 214 0
10 131 225 0
-5 109 -250 0
-67 -215 250 0
9 -70 -247 0
-81 122 158 0
47 -77 -174 0
-14 -46 180 0
56 193 -232 0
-66 -182 229 0
-97 219 246 0
-58 125 -166 0
89 -112 -189 0
46 -205 -249 0
-31 159 -189 0
-88 95 -122 0
43 133 -173 0
-91 -105 -139 0
27 77 -140 0
-90 214 -249 0
-120 -143 144 0
-44 72 -109 0
9 131 219 0
55 156 -205 0
33 70 -129 0
33 117 181 0
83 -152 172 0
149 202 231 0
30 -44 -67 0
41 127 -184 0
80 -81 -146 0
41 134 152 0
25 63 236 0
102 -193 205 0
-40 -130 141 0
-61 -159 -220 0
3 37 -229 0
-88 149 -154 0
-68 -76 -210 0
-66 174 -209 0
-19 109 182 0
-13 -79 -224 0
1 -152 -236 0
-130 175 192 0
-53 -75 -202 0
-38 -98 163 0
33 61 233 0
-71 227 -238 0
-39 64 92 0
50 117 -160 0
7 237 -250 0
98 101 129 0
-91 -107 -195 0
-13 -18 -244 0
7 33 -245 0
-46 -59 -95 0
-116 -139 -144 0
-46 -194 -247 0
-45 -141 184 0
-53 95 -215 0
-9 55 202 0
48 133 -148 0
113 148 245 0
40 -49 -136 0
16 -183 220 0
-20 -56 -64 0
65 -145 175 0
52 87 -114 0
172 -198 224 0
-56 -128 130 0
90 91 196 0
-100 204 213 0
-10 -99 -120 0
-96 97 -191 0
76 88 132 0
45 76 -146 0
29 151 218 0
69 97 -228 0
38 -52 -65 0
59 98 101 0
42 62 -75 0
-119 -162 228 0
-78 97 -110 0
28 -55 162 0
33 149 200 0
21 -79 -194 0
6 -36 -153 0
-53 104 213 0
115 116 -150 0
92 106 246 0
-4 -18 -207 0
-169 -171 -240 0
27 98 147 0
40 -166 -198 0
-101 188 -228 0
55 94 247 0
-7 -35 225 0
9 39 112 0
-8 47 -101 0
111 143 -165 0
-126 -180 -207 0
-147 202 219 0
80 -88 -149 0
-12 13 -100 0
-9 -42 -234 0
37 117 201 0
30 186 -245 0
88 -202 250 0
108 110 -183 0
25 -159 -160 0
32 -45 144 0
-25 -112 174 0
3 92 -110 0
-37 -188 -245 0
-69 148 153 0
114 -154 -169 0
128 -142 -153 0
143 174 -232 0
142 165 -247 0
-12 -26 -207 0
-26 -163 174 0
-189 215 -241 0
-82 221 224 0
-3 118 -143 0
-2 32 -221 0
29 70 245 0
-54 71 -239 0
-58 -76 110 0
181 -203 235 0
-2 9 232 0
-101 -212 -244 0
-97 121 217 0
-11 -60 -191 0
53 81 -242 0
14 -22 -175 0
-47 65 147 0
-44 -47 -158 0
-76 84 -154 0
-58 -116 -135 0
81 -104 -228 0
5 50 228 0
-102 -132 139 0
-30 -94 108 0
-4 -72 173 0
-117 133 -249 0
-56 154 -178 0
-19 -188 -203 0
37 -83 88 0
-11 -80 -99 0
-10 -14 20 0
4 -43 -121 0
-85 174 -237 0
-14 -41 -233 0
-20 200 -233 0
-112 -208 225 0
-102 176 199 0
80 -85 161 0
-23 80 -169 0
21 -24 -154 0
67 107 196 0
47 186 202 0
33 -114 248 0
-30 78 84 0
-85 -91 153 0
99 220 231 0
-54 -80 -232 0
85 104 -239 0
2 64 75 0
-45 -176 247 0
131 -149 229 0
-180 203 -231 0
-71 83 120 0
-75 -158 -237 0
-21 65 178 0
-87 163 -196 0
59 79 231 0
180 -215 -221 0
194 -211 -241 0
-19 -164 -185 0
2 -38 -65 0
44 -59 -66 0
-111 -159 242 0
65 111 -135 0
95 132 217 0
45 57 118 0
-75 -120 -206 0
67 145 244 0
69 205 -240 0
-116 -164 -179 0
3 -9 -180 0
97 -195 -246 0
44 -211 -229 0
-60 -90 -221 0
-79 121 -204 0
-19 -27 232 0
-41 -123 -136 0
48 -195 204 0
65 169 214 0
-48 -89 149 0
-116 -248 250 0
-21 -121 191 0
-152 221 222 0
29 -40 107 0
-19 -112 154 0
15 132 -185 0
53 -107 192 0
-1 -93 121 0
121 179 -235 0
-30 49 -159 0
-164 -216 -219 0
-48 60 -237 0
-84 98 -101 0
22 83 -235 0
-6 -144 -179 0
-5 -59 -142 0
48 99 185 0
-41 -86 186 0
155 206 -221 0
-14 -114 -246 0
-79 133 -218 0
-102 210 245 0
-177 222 234 0
50 -158 -223 0
41 106 -191 0
-7 171 242 0
-7 -104 -195 0
-33 57 58 0
11 -39 -232 0
145 155 186 0
7 191 210 0
-146 -189 -223 0
78 -120 224 0
84 191 -202 0
58 102 110 0
63 -175 -189 0
61 134 156 0
-9 -91 161 0
-11 64 192 0
48 74 -191 0
-10 -12 185 0
38 -137 -239 0
98 142 237 0
-10 87 189 0
-86 97 -244 0
99 -129 170 0
-20 -183 -221 0
57 146 -208 0
-45 136 247 0
173 -189 -209 0
-71 -144 -180 0
67 144 -153 0
50 57 -155 0
-82 -122 229 0
17 -54 -198 0
43 135 -140 0
-16 146 -246 0
-19 52 111 0
36 51 -165 0
-118 -125 -219 0
-176 -212 238 0
47 -136 210 0
-18 146 182 0
-119 -147 -171 0
91 -139 -146 0
40 94 -124 0
-70 -74 128 0
-72 -76 94 0
-76 -103 -155 0
59 65 121 0
48 127 236 0
6 116 239 0
12 -16 -179 0
84 -87 -179 0
-57 131 -151 0
-20 112 248 0
54 118 -157 0
-55 -72 -250 0
129 136 158 0
-10 52 -216 0
91 -103 -175 0
-7 -110 -236 0
-19 20 -231 0
64 -113 -159 0
-20 -201 235 0
48 -152 -212 0
176 -223 -240 0
61 63 -73 0
-76 143 193 0
122 150 237 0
102 -178 225 0
62 -232 238 0
3 -80 -144 0
22 77 183 0
-40 -146 213 0
-32 -53 241 0
-1 13 -157 0
-42 116 -250 0
-37 63 82 0
46 71 94 0
25 29 131 0
-128 145 -212 0
102 -153 -187 0
-51 92 -227 0
29 174 -189 0
-133 153 -207 0
47 -168 -181 0
28 -49 160 0
-5 69 -235 0
-60 -127 -145 0
6 66 207 0
-34 105 112 0
152 160 -165 0
4 -94 124 0
-2 -75 -116 0
13 156 160 0
-55 111 239 0
-1 26 -232 0
42 -56 57 0
-37 144 228 0
23 -42 -246 0
-141 -155 -227 0
45 -64 192 0
-67 160 225 0
43 186 218 0
49 -109 241 0
-42 123 238 0
-129 -218 -229 0
-130 150 198 0
20 -89 131 0
20 -62 -213 0
-67 -119 -222 0
93 -123 -137 0
-39 207 -241 0
26 -78 107 0
-127 137 142 0
-55 105 -180 0
133 148 229 0
-10 71 162 0
2 -14 -213 0
145 202 228 0
-71 -139 -246 0
-15 -120 -135 0
15 122 -216 0
-114 -129 167 0
87 94 230 0
-61 -91 -200 0
50 119 131 0
12 -20 75 0
-43 50 -65 0
-38 46 157 0
-86 89 210 0
-20 80 223 0
-12 -78 -121 0
-21 -51 182 0
-22 48 -228 0
88 -173 192 0
-168 -201 -206 0
-38 88 -125 0
-1 94 -202 0
-175 219 -229 0
7 136 229 0
-40 -65 94 0
69 -222 232 0
30 -106 -190 0
-186 -228 -242 0
-102 -179 248 0
39 -82 149 0
-94 179 247 0
35 -103 -236 0
51 102 -215 0
-13 -56 192 0
-5 -57 60 0
-13 114 135 0
191 220 233 0
35 -134 -202 0
29 -138 -240 0
-92 -208 228 0
26 -76 -139 0
-98 -117 166 0
44 105 -197 0
-104 132 -151 0
-32 57 243 0
-22 24 246 0
-84 154 203 0
112 -116 248 0
9 -224 -242 0
90 -185 -218 0
134 175 -209 0
-208 -238 -242 0
12 240 -247 0
69 99 -103 0
-101 -191 205 0
-35 76 -234 0
-33 -130 242 0
2 -73 -181 0
-75 -169 -170 0
43 228 240 0
59 104 120 0
33 -62 -206 0
-44 101 -157 0
-82 122 -152 0
6 87 202 0
-53 -64 241 0
-124 196 244 0
166 -215 247 0
-101 126 -218 0
-9 67 -106 0
87 219 -230 0
-176 187 -225 0
-151 -173 -250 0
-11 -146 -152 0
85 -148 149 0
-53 -76 -200 0
26 -109 198 0
47 48 -244 0
-18 -124 -159 0
-31 -80 171 0
-65 92 199 0
13 -235 -241 0
78 -230 242 0
81 -111 -171 0
38 129 151 0
25 -56 -107 0
-13 -76 144 0
-38 143 243 0
-16 46 194 0
-167 -209 -245 0
66 -180 -181 0
-28 89 179 0
-55 -84 -144 0
192 216 233 0
155 -162 214 0
-11 42 106 0
86 -190 224 0
-65 85 -232 0
-97 -98 -139 0
-174 -194 -238 0
186 -211 -218 0
-30 56 156 0
15 115 -216 0
-19 41 131 0
143 -213 -232 0
132 -158 247 0
131 -160 202 0
-36 -136 215 0
41 -160 178 0
146 217 -223 0
-96 156 164 0
-58 -153 240 0
18 -177 181 0
85 110 -160 0
140 207 -231 0
-4 108 177 0
5 -16 -135 0
-25 232 235 0
66 207 211 0
-164 -224 242 0
-53 -83 197 0
-175 228 240 0
15 201 218 0
55 146 230 0
-88 90 247 0
-9 -88 -214 0
-84 189 213 0
-6 154 -215 0
10 -47 98 0
-61 88 -105 0
155 210 246 0
-14 43 104 0
100 -181 -195 0
51 71 94 0
46 150 238 0
-27 146 -227 0
45 120 -186 0
-2 16 83 0
-42 -198 228 0
19 -131 -175 0
-123 -137 161 0
48 78 186 0
193 199 209 0
156 193 232 0
-140 199 212 0
15 96 -110 0
-147 -148 182 0
-27 139 -168 0
-42 68 122 0
-30 -215 220 0
53 160 173 0
6 203 -248 0
35 -43 -177 0
-36 -146 177 0
37 43 -154 0
51 172 227 0
-103 190 208 0
-3 -72 -102 0
-9 98 -100 0
80 152 170 0
1 138 150 0
-142 192 242 0
-11 -103 -110 0
-49 -84 -138 0
35 -211 -225 0
-90 -194 -235 0
54 59 -73 0
6 91 144 0
-62 -158 -244 0
33 -99 -211 0
-30 -31 -110 0
21 108 214 0
95 125 220 0
31 -75 114 0
-37 -90 126 0
-1 -92 236 0
-57 -81 100 0
52 -143 219 0
91 102 -156 0
22 147 -209 0
-102 177 -197 0
75 -84 174 0
28 87 -174 0
84 -165 -182 0
12 58 117 0
-173 -213 243 0
-99 -128 210 0
-2 160 -192 0
-37 71 133 0
150 -181 221 0
63 71 -94 0
46 80 224 0
-103 115 -162 0
14 102 -202 0
30 -85 -172 0
-21 -144 240 0
38 -58 -228 0
100 186 248 0
-110 -133 -206 0
-160 177 -207 0
-9 70 -217 0
106 186 229 0
-116 207 -221 0
-7 133 -148 0
-118 150 -239 0
-49 -143 146 0
-84 -96 -154 0
-58 -60 -105 0
148 -167 184 0
55 -57 58 0
122 147 -207 0
-64 227 -239 0
-87 -182 -203 0
15 -105 130 0
-20 -48 -60 0
-67 -77 -121 0
-6 -124 207 0
132 195 -201 0
76 -82 -170 0
69 -84 -187 0
68 89 173 0
-225 231 -236 0
-219 -231 -239 0
-88 152 215 0
-46 -114 -116 0
-56 114 239 0
-3 58 238 0
56 60 162 0
-75 -180 -232 0
-29 -121 177 0
24 29 110 0
-104 131 204 0
-183 -205 206 0
25 -89 -203 0
192 -206 -209 0
10 139 -227 0
-42 70 165 0
-28 107 158 0
173 176 -242 0
-225 228 -241 0
42 -118 121 0
-40 -153 190 0
-94 101 172 0
-196 -208 -240 0
90 193 -198 0
140 147 148 0
167 -228 -241 0
-140 163 -197 0
46 -173 -180 0
-92 156 -244 0
-69 -107 -237 0
-134 -148 174 0
147 -166 -168 0
9 -94 141 0
106 152 -218 0
15 -164 -169 0
103 -201 -230 0
-95 165 176 0
-60 126 227 0
44 134 -156 0
-45 177 209 0
99 -117 -124 0
40 87 -239 0
34 38 225 0
49 86 119 0
103 214 -234 0
42 -130 154 0
98 100 -246 0
85 -95 -188 0
-37 85 -108 0
-50 79 193 0
20 135 247 0
-37 77 97 0
7 192 -203 0
111 155 178 0
103 111 144 0
-3 209 238 0
-4 183 191 0
38 96 -234 0
94 -114 168 0
-164 -169 223 0
8 -63 84 0
-21 -200 -245 0
-6 -80 219 0
-38 157 247 0
-25 -68 -114 0
-83 121 209 0
40 -181 -241 0
-112 154 -201 0
-153 -175 177 0
39 188 193 0
54 -83 250 0
-8 -95 244 0
-9 -35 135 0
79 -137 -202 0
82 -192 221 0
36 62 95 0
152 -155 210 0
-21 50 -201 0
36 89 223 0
-40 -91 173 0
-112 -141 240 0
-170 -179 -221 0
-12 33 -108 0
-19 59 -163 0
133 -162 -196 0
66 90 213 0
-99 199 208 0
-25 -104 207 0
-111 -207 230 0
-4 248 250 0
169 -184 233 0
-39 78 -118 0
-83 203 242 0
-53 131 -167 0
-77 -89 168 0
101 -166 182 0
2 90 -102 0
-74 -138 201 0
-130 189 237 0
-14 -122 173 0
122 239 242 0
49 -68 -103 0
-47 196 -217 0
-55 56 -161 0
-187 -196 205 0
-6 -157 -188 0
-59 72 184 0
-106 167 -217 0
102 126 -141 0
15 -74 -214 0
92 -157 -165 0
-65 88 -190 0
-8 18 -248 0
-90 159 -193 0
-113 147 180 0
16 -231 240 0
-162 -199 244 0
122 139 212 0
-118 -154 -210 0
-99 -190 -216 0
8 81 -140 0
-110 -112 173 0
-80 175 -188 0
35 -36 218 0
155 -163 -169 0
115 -191 -203 0
37 -89 -203 0
-62 -100 119 0
99 -144 171 0
18 -77 -233 0
-127 178 223 0
130 139 201 0
62 -138 -178 0
39 -131 -154 0
131 -162 -188 0
33 57 120 0
-73 78 -194 0
