c F1 random 3-CNF cnfgen RandomKCNF(3,225,959,seed=15) m/n=4.26
p cnf 225 959
3 54 134 0
5 -15 207 0
-30 -87 -120 0
59 -68 -89 0
-58 79 -187 0
108 -126 -216 0
-81 -113 146 0
5 126 215 0
158 -177 -201 0
26 -39 220 0
-19 -120 186 0
-46 129 140 0
-43 -80 -212 0
87 -114 -223 0
-30 -37 -174 0
4 -67 216 0
-11 16 -116 0
-124 145 224 0
-21 122 -216 0
66 178 185 0
-86 -167 -193 0
-15 -159 -181 0
-8 -141 211 0
-90 158 172 0
-64 -65 128 0
-81 -151 176 0
91 -155 180 0
45 -165 -219 0
-33 220 -224 0
-88 118 -189 0
2 149 -202 0
41 -168 -215 0
60 -104 143 0
-176 -182 -213 0
8 -70 -87 0
16 48 120 0
53 -65 166 0
41 -59 -83 0
58 -108 190 0
-45 -123 -129 0
44 -111 -153 0
64 -114 -190 0
44 104 -167 0
-8 -87 -114 0
-100 -117 207 0
-43 -81 -172 0
120 147 182 0
-44 142 -195 0
-83 -85 175 0
70 -107 223 0
-42 -70 148 0
115 131 -169 0
31 133 -168 0
-57 -110 -158 0
-161 -167 174 0
-83 -98 -206 0
85 86 -171 0
58 173 189 0
-136 -178 180 0
-62 65 128 0
-125 206 216 0
-137 144 218 0
16 67 -197 0
-85 -101 -217 0
-93 108 -168 0
146 -191 216 0
43 112 172 0
-12 -23 -160 0
-40 51 138 0
-14 90 -134 0
8 -38 -129 0
37 -57 177 0
-57 -185 -204 0
13 -31 -197 0
81 -194 196 0
-4 -63 133 0
73 -102 193 0
172 -190 -214 0
44 46 -51 0
48 95 -175 0
-35 111 145 0
35 -133 -166 0
22 -86 124 0
118 -165 -186 0
43 -153 -155 0
-102 -113 149 0
37 71 175 0
18 -56 104 0
56 -92 111 0
-109 141 186 0
2 37 -193 0
-47 -82 133 0
-26 30 182 0
-33 -73 -127 0
95 118 215 0
-80 -86 -97 0
-45 -80 136 0
2 -95 -98 0
20 66 163 0
93 -196 211 0
77 175 206 0
38 191 -193 0
-52 197 -218 0
39 155 164 0
-27 45 156 0
33 75 110 0
82 151 190 0
38 -68 138 0
54 -96 138 0
14 18 -135 0
133 149 -196 0
44 130 -223 0
-29 -45 205 0
118 -149 -184 0
-36 -59 97 0
72 -77 -159 0
-90 -110 -127 0
51 -115 -170 0
-65 75 -91 0
-105 109 -118 0
20 -36 -133 0
185 -201 219 0
-67 -144 175 0
84 118 224 0
37 -172 -199 0
-11 45 -101 0
82 -148 198 0
4 165 -224 0
62 -106 216 0
-33 48 212 0
-8 97 144 0
4 118 -214 0
118 -130 -190 0
-146 -174 -207 0
10 20 66 0
10 70 -141 0
48 -114 -198 0
-44 165 -189 0
36 60 -130 0
67 -90 -103 0
-80 131 -174 0
-25 67 112 0
42 103 -146 0
-86 109 -217 0
-59 103 -225 0
131 140 -160 0
-18 107 176 0
-15 -37 45 0
-30 137 -213 0
50 208 -213 0
55 109 195 0
57 109 189 0
111 -175 208 0
114 130 158 0
-2 -10 99 0
-21 -25 132 0
-110 140 141 0
99 126 -180 0
-117 129 152 0
38 115 -125 0
-35 46 -133 0
-126 175 -196 0
-102 134 -171 0
-3 75 -151 0
-88 101 217 0
12 -130 -216 0
-166 195 205 0
67 182 -223 0
93 -158 -193 0
7 -34 195 0
89 -175 -217 0
-51 54 -189 0
7 71 215 0
67 -95 163 0
-79 139 -167 0
-55 58 -186 0
-58 -66 -170 0
20 77 -86 0
25 -66 213 0
46 94 190 0
70 174 175 0
-39 -84 201 0
-125 -139 222 0
-12 33 -197 0
-43 -143 150 0
-127 -153 -156 0
-31 54 188 0
37 143 206 0
109 -166 -193 0
58 78 156 0
42 73 208 0
-23 -61 121 0
37 -89 -209 0
58 82 -143 0
-36 -118 -119 0
6 86 198 0
69 -133 -148 0
-19 27 210 0
3 83 -207 0
30 -66 -67 0
140 178 -221 0
-12 161 -185 0
-70 -91 -98 0
25 122 182 0
41 -121 199 0
-67 -122 147 0
-75 108 191 0
153 -171 -213 0
15 -161 165 0
-39 156 -192 0
137 -167 -221 0
66 -143 179 0
-47 -146 160 0
-29 72 -136 0
2 -117 158 0
-64 91 -105 0
24 39 -173 0
-55 -95 139 0
68 81 -176 0
3 -151 208 0
41 -80 -186 0
-53 112 217 0
10 42 -63 0
-115 -181 217 0
-90 120 -151 0
-25 -121 -203 0
-63 -153 209 0
-18 -41 62 0
-80 101 160 0
-4 171 -225 0
-19 91 164 0
72 90 -129 0
-47 -209 -215 0
77 -109 -200 0
-26 -69 136 0
-23 44 -111 0
-27 -62 180 0
-2 -33 -209 0
11 69 -166 0
-88 -109 -129 0
-2 21 203 0
-56 -112 -113 0
80 -216 221 0
-139 145 -173 0
89 -102 209 0
-31 -32 198 0
14 -76 -159 0
45 -55 197 0
-21 45 225 0
-100 -172 -198 0
-5 -195 -215 0
32 -64 -115 0
1 27 222 0
-56 70 -211 0
13 -73 -158 0
-27 -97 210 0
82 -127 -141 0
29 -43 -121 0
-106 122 175 0
24 -153 -183 0
-1 106 -183 0
-60 124 156 0
98 131 -163 0
46 49 -157 0
62 100 -132 0
101 -106 -157 0
-27 -46 -211 0
-38 -57 -87 0
-44 -144 212 0
-59 79 162 0
79 148 -191 0
-7 45 -70 0
58 -200 215 0
120 -147 188 0
39 46 166 0
-38 -42 69 0
52 -133 -168 0
-71 101 213 0
99 -148 216 0
33 -175 185 0
-14 -107 163 0
-45 -134 -153 0
-12 -53 -167 0
-1 114 -218 0
46 -52 -181 0
-111 -151 -192 0
-5 -18 209 0
4 -85 122 0
-7 -118 -221 0
75 -90 -125 0
12 38 164 0
56 -85 -86 0
68 -77 -194 0
-40 -147 186 0
2 -12 69 0
-31 125 144 0
26 -82 -110 0
-32 -205 223 0
34 115 122 0
-118 165 182 0
-7 -34 136 0
70 110 -218 0
20 -66 144 0
15 -20 -139 0
-27 -131 -140 0
-45 47 -57 0
43 61 224 0
92 138 -165 0
-99 142 175 0
-32 46 -55 0
-53 -84 -139 0
-30 -73 184 0
144 -157 168 0
52 -55 -221 0
32 -101 178 0
-55 -155 224 0
47 51 197 0
107 178 -209 0
-41 -42 190 0
1 76 -86 0
-15 -68 -199 0
-50 55 85 0
69 95 -222 0
-99 -118 152 0
69 74 -127 0
-73 -118 218 0
71 114 218 0
-1 6 -34 0
145 -146 208 0
-124 199 -201 0
-76 -144 -156 0
22 81 97 0
121 148 161 0
34 131 -176 0
-21 -42 148 0
91 108 -149 0
-44 -52 -204 0
-35 -59 185 0
87 -100 150 0
-141 -144 183 0
53 121 222 0
-116 131 198 0
74 -132 179 0
101 -196 214 0
-16 50 181 0
-36 -102 105 0
-78 94 133 0
-29 46 -217 0
29 136 -165 0
77 87 -191 0
-42 -100 -105 0
-5 -71 -160 0
-15 45 211 0
-99 150 214 0
10 131 225 0
5 -71 -109 0
71 -81 140 0
-35 -67 -112 0
39 94 -158 0
-11 -174 217 0
-46 -180 186 0
56 188 -193 0
-66 -182 203 0
97 103 219 0
78 -125 -166 0
89 -187 -189 0
-33 -46 205 0
98 -159 -189 0
88 -122 124 0
63 -133 -173 0
-78 -91 139 0
12 -77 -140 0
94 -199 -203 0
-116 143 -144 0
44 -92 109 0
13 62 131 0
-33 59 123 0
-33 86 129 0
-55 169 -172 0
54 149 202 0
30 -44 -67 0
41 127 -184 0
80 -81 -146 0
41 134 152 0
25 63 216 0
102 -193 205 0
-40 -130 141 0
-61 -159 -220 0
3 -37 -55 0
-52 -92 -133 0
-71 -175 -212 0
-66 174 -209 0
-19 109 182 0
-13 -79 -224 0
-1 -21 -152 0
-1 -24 -53 0
-38 -107 -163 0
33 36 61 0
-46 -71 101 0
-39 186 214 0
50 117 -160 0
-7 -13 -38 0
25 98 -129 0
-91 -126 195 0
-18 -156 -159 0
7 -20 -33 0
-46 -59 -175 0
-116 -139 -144 0
-46 -182 -194 0
-45 -141 184 0
-53 95 -215 0
-9 55 202 0
48 133 -148 0
37 113 148 0
40 -136 -177 0
16 -183 220 0
-20 -56 -64 0
65 -145 175 0
52 87 -114 0
172 -198 224 0
-56 -128 130 0
90 91 196 0
-100 204 213 0
-10 -99 -120 0
-96 97 -191 0
76 88 132 0
45 76 -146 0
29 151 218 0
69 97 -202 0
38 -52 -65 0
59 98 101 0
42 62 -75 0
-99 119 -162 0
78 -110 128 0
-24 55 162 0
149 177 200 0
21 -79 -194 0
6 -36 -153 0
-53 104 213 0
115 116 -150 0
53 92 106 0
-18 -92 -207 0
-177 -178 -195 0
27 55 147 0
-14 -101 -198 0
-52 -200 224 0
21 55 153 0
-207 -215 225 0
9 39 112 0
-8 47 -101 0
111 143 -165 0
-126 -180 -207 0
-147 202 219 0
80 -88 -149 0
-12 13 -100 0
-9 -42 -103 0
29 37 201 0
27 -131 -213 0
62 -78 -202 0
6 -165 214 0
-35 -159 201 0
-12 45 144 0
-112 -165 174 0
3 92 -110 0
-37 -118 -188 0
-25 40 -108 0
-86 166 -218 0
97 143 -174 0
55 -142 165 0
-12 -180 -207 0
-26 -163 174 0
-160 189 -215 0
-82 221 224 0
-3 118 -143 0
-2 32 -221 0
29 47 70 0
-51 -71 -89 0
58 72 -84 0
-2 9 56 0
-101 -135 -212 0
-97 121 217 0
-11 -60 -191 0
53 -62 81 0
14 -175 -181 0
-47 65 147 0
-44 -47 -158 0
-76 84 -154 0
-58 -116 -135 0
-13 -81 104 0
5 -6 -42 0
-30 -40 -105 0
41 -72 -89 0
-35 117 -133 0
-56 154 -178 0
-19 -188 -203 0
37 -83 88 0
-11 -80 -99 0
-10 -14 20 0
4 -43 -121 0
85 -88 174 0
-14 -184 -202 0
20 -108 -200 0
66 -78 -208 0
-44 -62 174 0
-9 114 -169 0
50 100 152 0
-87 -106 196 0
20 54 192 0
49 -147 152 0
21 -112 -223 0
73 168 -215 0
-91 -153 186 0
99 150 220 0
-54 -80 -117 0
58 -85 -191 0
2 64 161 0
-45 -176 180 0
-60 131 -149 0
-62 -71 -90 0
43 -183 -209 0
-170 -214 -225 0
-21 144 178 0
-87 163 -196 0
33 59 79 0
-72 157 -210 0
-19 -113 -210 0
2 -38 -65 0
44 -59 -66 0
-83 111 -159 0
111 135 -151 0
95 132 217 0
45 57 118 0
-75 -120 -206 0
67 145 174 0
34 -69 -205 0
-93 118 179 0
-40 76 -93 0
44 -84 -211 0
-60 -90 -221 0
-79 121 -204 0
-19 -27 163 0
-41 -123 -136 0
48 -195 204 0
65 169 214 0
-48 -89 149 0
99 112 -116 0
88 -99 191 0
29 31 -107 0
-19 -32 112 0
15 132 -185 0
53 -107 192 0
-1 -93 121 0
9 -121 179 0
30 -112 -179 0
-83 137 153 0
-51 -83 -120 0
82 -196 -222 0
-22 53 -63 0
68 107 -208 0
73 99 104 0
5 -86 -186 0
183 187 190 0
-14 -81 -114 0
-79 133 -218 0
102 114 -210 0
19 -43 -50 0
41 106 -191 0
7 108 171 0
-100 -104 160 0
33 58 74 0
-5 -39 199 0
27 48 195 0
-28 -146 -197 0
78 -120 224 0
84 191 -202 0
58 102 110 0
63 -175 -189 0
61 134 156 0
-9 -91 161 0
-11 64 192 0
48 74 -191 0
-10 -12 185 0
38 -137 -189 0
28 98 142 0
-87 163 220 0
-86 97 -180 0
99 -129 170 0
-20 -183 -221 0
57 146 -208 0
45 96 136 0
-76 -151 -157 0
-80 -141 204 0
153 -178 216 0
42 -50 -155 0
-122 -152 183 0
17 -54 -198 0
43 135 -140 0
16 -66 146 0
-19 111 132 0
36 51 -165 0
-118 -125 -219 0
-176 -212 218 0
47 -136 210 0
-18 146 182 0
-119 -147 -171 0
91 -139 -146 0
40 94 -124 0
-70 -74 128 0
-72 -76 94 0
-76 -103 -155 0
59 65 121 0
48 58 127 0
116 158 176 0
12 -16 -179 0
84 -87 -179 0
-57 131 -151 0
20 81 112 0
-44 -45 118 0
-122 132 193 0
-10 52 -57 0
91 -103 -175 0
-7 -110 -184 0
-19 20 -137 0
64 -113 -159 0
-20 73 201 0
-27 -157 194 0
-71 146 153 0
36 -73 -151 0
27 -72 143 0
-30 50 -225 0
-15 54 -62 0
-3 -26 -144 0
22 47 183 0
-97 146 158 0
53 72 92 0
-45 87 -153 0
-8 -81 195 0
37 104 -204 0
46 94 141 0
25 29 131 0
-128 145 -212 0
102 -153 -187 0
51 -92 112 0
-4 -5 224 0
47 -81 -168 0
28 -49 160 0
-5 69 -147 0
-60 -127 -145 0
6 66 207 0
-34 105 112 0
152 160 -165 0
4 -94 124 0
-2 -75 -116 0
13 156 160 0
55 92 111 0
26 -75 214 0
56 -57 222 0
37 121 144 0
-27 -42 -77 0
45 113 -192 0
-39 67 225 0
43 186 218 0
-45 49 109 0
42 117 -123 0
-108 150 198 0
20 -89 131 0
20 -62 -213 0
-67 -119 -222 0
93 -123 -137 0
39 -95 -207 0
26 -78 158 0
-127 137 142 0
-55 105 -180 0
133 148 196 0
-10 71 162 0
2 -14 -213 0
34 145 -202 0
-69 -181 208 0
-109 -120 -135 0
15 -21 -144 0
67 -91 -129 0
5 150 199 0
-91 -188 -200 0
50 119 131 0
12 -20 75 0
-43 50 -65 0
-38 46 157 0
-86 89 210 0
-20 80 223 0
-12 -78 -121 0
-21 -51 182 0
22 -48 -113 0
173 -192 199 0
-168 -201 -206 0
-38 88 -125 0
-1 94 -202 0
120 -175 219 0
42 177 -186 0
-40 -94 202 0
-58 69 -222 0
-30 -58 -190 0
-85 -117 -179 0
144 -179 198 0
-48 134 -149 0
53 -115 179 0
134 -163 -168 0
51 102 -215 0
-13 -56 192 0
-5 -57 60 0
-13 114 135 0
191 203 220 0
35 -134 -202 0
29 -138 -177 0
-86 92 -208 0
-26 -64 -139 0
-98 -166 179 0
44 105 -197 0
-104 132 -151 0
32 57 105 0
22 118 -150 0
121 203 -220 0
112 -180 187 0
9 -190 -224 0
90 -185 -218 0
134 175 -209 0
-107 112 208 0
-61 -100 -207 0
-7 -48 -143 0
107 180 -224 0
73 -133 200 0
106 130 -164 0
-60 -85 -138 0
-109 138 169 0
-40 -59 63 0
12 134 217 0
20 -85 -96 0
-5 -75 122 0
-81 162 202 0
5 39 -203 0
-9 104 124 0
-31 166 -215 0
-101 161 -182 0
-9 67 -106 0
45 -87 -219 0
-18 -111 -176 0
-11 -146 -152 0
85 -148 149 0
-53 -76 -200 0
26 -109 198 0
47 48 -177 0
-18 -124 -159 0
-31 -80 171 0
-65 92 199 0
-13 -29 -151 0
38 -123 -181 0
-64 -164 193 0
52 -62 151 0
-28 56 -79 0
-95 146 164 0
19 106 143 0
-20 -30 -74 0
66 -180 -181 0
-28 89 179 0
-55 -84 -144 0
11 192 216 0
-139 174 -184 0
11 42 -78 0
-13 190 -224 0
65 -120 -220 0
-69 -98 -139 0
-125 147 -181 0
30 -90 205 0
-15 46 185 0
-19 41 112 0
-3 -143 213 0
-143 195 211 0
59 -88 -188 0
24 -41 160 0
146 217 -223 0
-96 156 164 0
-58 -153 160 0
18 -177 181 0
85 110 -160 0
140 202 -207 0
-4 108 177 0
5 -16 -135 0
-25 182 193 0
66 207 211 0
-76 164 224 0
-83 -136 157 0
-175 202 212 0
15 201 218 0
7 55 -146 0
90 118 156 0
-88 -141 -173 0
-84 189 213 0
-6 154 -215 0
10 -47 98 0
-61 88 -105 0
40 155 210 0
14 104 -125 0
142 -195 -208 0
51 71 94 0
46 150 195 0
27 -116 -146 0
45 -47 205 0
16 83 127 0
68 109 198 0
-116 -132 -169 0
65 157 -219 0
14 35 220 0
13 156 193 0
-140 199 212 0
15 96 -110 0
-147 -148 182 0
-27 139 -168 0
-42 68 122 0
-30 -215 220 0
53 160 173 0
6 144 -203 0
35 -43 -177 0
-36 -146 177 0
37 43 -154 0
51 172 222 0
-103 190 208 0
-3 -72 -102 0
-9 98 -100 0
80 152 170 0
1 138 150 0
93 142 -192 0
-11 -103 -192 0
-49 -84 -138 0
35 -211 -225 0
-90 -91 194 0
34 -59 -73 0
6 9 144 0
-108 -151 158 0
-26 -99 211 0
-31 -110 -133 0
21 62 -214 0
125 133 220 0
31 -75 114 0
-37 -90 126 0
-1 70 -92 0
-57 81 106 0
20 -107 -150 0
4 -137 157 0
130 134 -154 0
-102 177 -197 0
75 -84 174 0
28 87 -174 0
84 -165 -182 0
12 58 117 0
-173 -213 220 0
-99 -128 210 0
-2 160 -192 0
-37 71 133 0
150 -181 221 0
63 71 -94 0
46 80 224 0
-103 115 -162 0
14 102 -202 0
30 -85 -172 0
-21 111 144 0
-21 -58 -132 0
10 -55 -154 0
-87 -144 189 0
-9 70 -106 0
23 106 -186 0
-30 108 -147 0
-36 -193 -197 0
183 -203 205 0
-76 146 -192 0
-84 122 -154 0
-58 -185 -196 0
148 -167 184 0
55 -57 58 0
122 147 -207 0
64 -90 -153 0
-148 -182 -211 0
15 -105 130 0
-20 -48 -60 0
-67 -77 -121 0
-6 -124 207 0
132 195 -201 0
76 -82 -170 0
69 -84 -187 0
68 89 173 0
-18 -117 -225 0
-124 -152 215 0
-21 -46 -116 0
-158 198 -224 0
87 147 197 0
58 119 135 0
60 63 -203 0
-71 89 -105 0
-24 61 75 0
-21 -26 224 0
-64 -183 205 0
25 -89 -203 0
192 -206 -209 0
10 -19 -139 0
42 95 219 0
65 107 158 0
-22 85 -225 0
42 -118 121 0
-40 -153 190 0
-94 101 172 0
-163 -196 -208 0
90 193 -198 0
140 147 148 0
-12 -167 -197 0
15 91 -180 0
-67 92 -156 0
-69 -107 -191 0
-134 -148 174 0
147 -166 -168 0
9 -94 141 0
106 152 -218 0
15 -164 -169 0
103 -201 -209 0
-95 165 176 0
60 67 126 0
63 -134 156 0
42 -70 -212 0
-10 -124 -216 0
38 -40 154 0
29 34 -225 0
36 49 -119 0
24 -194 211 0
-5 130 -154 0
3 -100 -186 0
-18 -85 -188 0
37 -67 108 0
-79 169 202 0
20 135 184 0
-37 77 97 0
7 192 -203 0
111 155 178 0
103 111 144 0
3 121 209 0
-135 138 191 0
38 96 -135 0
94 -114 168 0
-164 -169 223 0
8 -63 84 0
-21 -120 200 0
-65 80 219 0
14 -127 -157 0
-25 -86 -120 0
29 50 -93 0
-84 112 -154 0
-153 -175 177 0
39 188 193 0
54 -83 136 0
-8 77 95 0
-35 114 -135 0
-31 -202 -217 0
-49 157 -221 0
