c F1 random 3-CNF cnfgen RandomKCNF(3,175,746,seed=13) m/n=4.26
p cnf 175 746
48 67 75 0
34 48 -165 0
8 -33 111 0
-22 68 -116 0
-60 -92 -125 0
81 -164 -168 0
115 -142 -157 0
46 76 -138 0
-65 -96 -118 0
34 126 148 0
-19 -34 -94 0
1 12 -109 0
65 -114 -164 0
-52 90 162 0
55 128 -159 0
88 -146 150 0
29 43 143 0
110 -153 -165 0
24 135 -166 0
-32 78 -105 0
10 -94 -134 0
-40 128 144 0
9 76 -97 0
-56 67 -109 0
-63 74 -152 0
-10 -82 109 0
12 -18 154 0
-116 -124 142 0
75 112 136 0
29 -41 -95 0
75 -100 155 0
-26 -93 126 0
76 90 -137 0
33 43 140 0
23 -96 -123 0
13 -55 61 0
101 147 159 0
-36 -137 -158 0
-39 77 -140 0
8 14 -43 0
-24 86 -161 0
-11 -25 -29 0
69 100 -121 0
1 -78 -135 0
-58 -64 85 0
67 -105 -124 0
50 97 122 0
46 124 129 0
35 -79 151 0
55 110 167 0
40 -77 -159 0
6 58 -125 0
-3 -130 136 0
-14 135 156 0
-26 -38 95 0
-59 89 -175 0
33 35 46 0
-7 -131 -157 0
-128 147 -148 0
-72 87 135 0
84 -97 -149 0
-7 -77 -115 0
-16 21 145 0
-38 84 -137 0
3 76 144 0
-18 33 -168 0
5 41 48 0
-46 112 -145 0
29 -40 132 0
45 -133 -134 0
-63 -77 -108 0
55 72 73 0
13 31 -66 0
-26 27 127 0
108 -140 148 0
85 94 -123 0
-23 26 -69 0
1 36 -162 0
39 -110 -112 0
50 85 90 0
-44 145 -162 0
32 106 -126 0
-6 -101 -102 0
21 -74 143 0
-13 -143 153 0
116 132 138 0
7 -62 -112 0
11 -90 -109 0
41 -113 -158 0
15 101 -104 0
-5 -10 -53 0
34 -117 -130 0
115 151 161 0
46 126 164 0
-53 -108 144 0
-11 -52 107 0
5 38 -40 0
-44 50 122 0
18 30 -120 0
46 50 -135 0
-53 116 -160 0
154 161 163 0
134 -147 149 0
103 -106 -159 0
-2 -28 116 0
48 -68 172 0
71 144 -156 0
62 -85 -113 0
-10 -26 36 0
-19 20 29 0
-125 146 -147 0
-5 -131 159 0
22 -105 153 0
31 -40 -147 0
-74 127 -172 0
-27 -50 148 0
20 -79 116 0
13 -110 -175 0
-32 54 -165 0
6 -121 167 0
-1 75 -111 0
13 -40 -95 0
-64 77 132 0
25 44 81 0
-73 -92 153 0
4 49 67 0
-27 -101 -107 0
-17 -66 144 0
32 112 124 0
30 53 86 0
89 103 -168 0
-21 -32 -175 0
100 -103 -108 0
-46 -67 -131 0
18 137 -140 0
-4 -158 -168 0
-107 133 149 0
55 102 168 0
-102 -162 172 0
-19 -104 -145 0
-2 -49 -94 0
-47 -96 -175 0
12 47 81 0
-67 76 -167 0
-23 -46 -147 0
26 -90 107 0
3 18 -62 0
-45 53 -61 0
28 111 -139 0
103 -150 -157 0
-17 -146 161 0
29 -123 155 0
76 -114 -164 0
-51 -67 -155 0
-40 69 97 0
-54 -109 -126 0
53 -100 -158 0
-3 -130 -146 0
20 109 -159 0
62 172 -175 0
-6 33 119 0
4 28 -47 0
-10 -77 149 0
60 76 -100 0
71 123 163 0
-8 27 172 0
-42 -70 -72 0
54 -59 -73 0
20 46 98 0
-120 -159 172 0
15 -22 -160 0
-26 -121 -166 0
7 -151 -152 0
-45 -75 -99 0
104 119 137 0
-44 62 120 0
-12 37 -84 0
-87 132 145 0
-3 -133 -149 0
40 65 -132 0
41 58 84 0
45 -122 158 0
67 110 148 0
57 -106 -120 0
76 -136 170 0
70 -106 -164 0
-61 116 -166 0
59 -68 -167 0
-46 -88 137 0
-96 101 -119 0
-12 25 31 0
-12 24 -162 0
71 110 139 0
88 -128 -161 0
32 70 -156 0
33 -46 -55 0
-52 67 -81 0
16 -26 93 0
8 -149 173 0
8 -135 137 0
30 -45 64 0
17 -86 -174 0
-56 -142 148 0
-13 77 -140 0
1 -13 149 0
-20 24 -167 0
-122 124 -174 0
-33 129 -166 0
28 -117 173 0
-120 125 149 0
-14 -65 -124 0
60 -72 -131 0
-39 82 160 0
51 93 132 0
32 72 -155 0
71 -77 -152 0
78 97 -153 0
4 -20 67 0
53 -121 131 0
44 -64 94 0
-93 99 127 0
13 67 131 0
-40 -100 -145 0
-59 -134 136 0
37 73 77 0
-37 -130 -158 0
-80 -134 168 0
13 -93 -159 0
-33 -74 -106 0
98 -130 -131 0
-155 -161 167 0
2 154 160 0
40 42 71 0
-13 -14 -54 0
8 -93 -98 0
-44 -157 168 0
-22 -41 -164 0
102 136 154 0
23 -85 111 0
57 129 151 0
6 -66 157 0
-99 -124 -129 0
12 113 155 0
-12 79 174 0
-86 102 -167 0
-86 -117 -132 0
14 -73 -134 0
-46 -130 175 0
86 151 156 0
-6 89 -123 0
83 104 -130 0
25 -113 151 0
-69 -125 -154 0
14 -21 73 0
-114 -133 169 0
54 -58 -148 0
40 -61 -96 0
-31 -142 -167 0
49 54 104 0
-21 144 166 0
69 93 -155 0
41 -144 -174 0
41 154 169 0
57 -71 -104 0
-6 -72 94 0
54 95 170 0
-117 -169 171 0
-39 -62 -71 0
63 162 164 0
17 86 131 0
27 28 77 0
-30 -44 -144 0
-11 -72 171 0
-101 -165 -173 0
6 -48 -111 0
-75 81 -86 0
1 -21 77 0
-1 -30 -88 0
-102 123 161 0
4 14 -113 0
26 113 121 0
39 -46 -88 0
58 102 -106 0
75 -106 146 0
-10 -141 -164 0
-21 44 -132 0
-29 73 77 0
107 -116 -147 0
-33 -99 129 0
-29 54 151 0
50 126 -173 0
-53 -84 124 0
55 -80 112 0
-53 103 -150 0
-16 -107 169 0
79 -98 -110 0
29 41 129 0
16 58 109 0
33 -57 -64 0
-116 141 143 0
13 -116 -165 0
-43 -108 -140 0
18 49 -164 0
94 136 158 0
-31 92 110 0
17 -75 156 0
-18 34 -125 0
-8 55 -174 0
-32 -54 -118 0
-42 -67 -84 0
56 84 92 0
-22 -120 -153 0
-10 63 -82 0
-2 -110 -152 0
-25 -36 -140 0
-36 82 148 0
132 -138 141 0
-32 88 -131 0
-40 79 163 0
-2 -41 164 0
67 -76 83 0
-21 24 -110 0
87 -88 -171 0
-40 52 135 0
-27 81 -131 0
-77 123 125 0
72 -153 161 0
35 58 -117 0
-9 -136 -154 0
-46 -137 -162 0
-78 114 170 0
-54 115 -145 0
-39 45 145 0
1 58 -133 0
103 105 162 0
-90 -101 -107 0
27 123 163 0
70 -140 -164 0
-4 -11 -123 0
-35 78 128 0
-9 -110 -152 0
38 -39 -142 0
-33 -127 158 0
-5 42 160 0
84 127 -171 0
4 58 -88 0
114 144 -163 0
22 155 159 0
-45 -147 -165 0
90 -101 -132 0
96 129 166 0
-33 -44 -75 0
-33 -49 -142 0
34 54 141 0
-67 90 -91 0
-9 35 122 0
12 -31 -151 0
78 118 167 0
-73 -112 -171 0
61 -95 -138 0
14 15 -61 0
98 -114 -141 0
-4 160 -168 0
13 -131 -142 0
-43 63 110 0
117 -134 175 0
88 104 145 0
20 -106 151 0
35 -120 -135 0
9 -35 -56 0
-1 -54 -167 0
-106 150 -169 0
-63 -94 -101 0
14 -63 -135 0
117 -127 -146 0
54 100 -166 0
96 -138 -174 0
-54 67 -146 0
81 -168 -169 0
-32 -47 -140 0
-7 -29 -57 0
12 145 170 0
1 -6 153 0
30 -44 -168 0
77 100 -121 0
-16 93 151 0
96 130 164 0
60 114 140 0
20 40 156 0
10 53 74 0
29 -70 -157 0
34 43 59 0
88 145 -154 0
76 -79 -157 0
43 134 169 0
-44 90 -98 0
31 48 60 0
24 -105 159 0
32 -38 -159 0
-81 -98 124 0
20 32 -64 0
-104 122 171 0
-19 80 -170 0
28 141 156 0
-36 39 -99 0
10 73 -134 0
104 -107 120 0
54 61 -146 0
22 -38 -41 0
56 97 -174 0
-109 -122 -131 0
-14 23 -153 0
-119 125 -135 0
58 106 -159 0
-25 -107 -126 0
86 141 172 0
-44 -112 -140 0
-22 -37 129 0
-50 84 131 0
-31 -141 161 0
-31 -73 -103 0
-8 -43 65 0
34 40 -134 0
-42 -156 172 0
62 -71 -77 0
-21 151 -165 0
122 -155 172 0
11 -36 -55 0
-49 -53 58 0
-6 143 -148 0
-58 102 155 0
78 -93 120 0
3 -32 -81 0
27 -106 119 0
-37 60 -154 0
-100 130 -168 0
90 -129 136 0
78 100 130 0
73 101 -138 0
-72 135 -167 0
34 -52 174 0
-7 95 145 0
-8 -56 156 0
106 -145 -160 0
-8 -78 -142 0
82 127 -148 0
-21 37 67 0
-5 -154 157 0
8 -97 -112 0
-8 -14 115 0
-64 69 -92 0
18 108 -110 0
20 -109 -115 0
34 47 -143 0
-128 131 -140 0
-65 -96 128 0
-83 105 167 0
-56 105 131 0
4 131 -140 0
33 85 -174 0
18 112 -132 0
-4 -79 -119 0
-6 -38 130 0
-19 155 -168 0
-10 -156 -159 0
108 -129 165 0
59 147 171 0
84 -120 165 0
-8 -74 173 0
-5 -155 162 0
48 -64 103 0
14 34 -87 0
14 -139 -160 0
36 -107 125 0
12 -45 49 0
-88 -126 -131 0
-5 25 134 0
-40 72 -123 0
-21 107 122 0
-31 -105 146 0
-37 44 114 0
-3 -109 119 0
47 -49 -103 0
-97 141 -147 0
-6 91 167 0
-39 92 -145 0
-49 -85 95 0
-9 15 -101 0
10 -92 -169 0
24 52 123 0
36 -39 65 0
-11 -79 103 0
-37 -99 157 0
-77 153 161 0
-63 -91 169 0
-47 -48 129 0
108 -123 -131 0
52 -87 -133 0
-8 19 -53 0
-28 56 75 0
-55 86 125 0
38 84 -102 0
87 -97 -117 0
-51 99 -118 0
-35 -42 114 0
15 101 163 0
-15 -121 170 0
-100 125 -149 0
28 53 169 0
18 -44 80 0
20 134 -143 0
-35 -120 134 0
66 85 -140 0
108 -136 -158 0
16 -26 -76 0
78 142 -162 0
-41 -51 113 0
-28 -89 -157 0
-15 -51 68 0
-65 -116 124 0
17 -50 173 0
-120 -155 174 0
39 58 121 0
-47 92 119 0
31 -71 154 0
102 -106 -119 0
12 60 -134 0
27 -33 39 0
-67 118 137 0
20 -36 77 0
-11 -37 -118 0
70 -99 159 0
64 -133 -160 0
44 60 66 0
-33 -116 -130 0
15 -106 165 0
-110 115 -135 0
42 -75 117 0
57 74 -157 0
13 128 -156 0
-14 74 -154 0
-55 -155 -170 0
-16 86 -93 0
-22 -124 146 0
-34 -136 -145 0
-84 146 170 0
-23 91 129 0
13 -77 152 0
36 81 128 0
-21 -26 -30 0
47 81 -97 0
-72 86 87 0
36 73 -77 0
26 -35 101 0
8 -80 131 0
-8 56 -151 0
18 -164 168 0
-10 48 147 0
-12 51 -65 0
15 -112 128 0
37 73 175 0
28 -52 135 0
-62 69 -101 0
-37 117 168 0
-95 -106 -116 0
13 30 136 0
-65 -66 -85 0
23 135 136 0
15 29 66 0
37 -69 125 0
64 -128 140 0
14 -46 156 0
77 -139 151 0
-114 -115 167 0
76 -104 117 0
29 46 -49 0
-40 101 115 0
49 169 170 0
28 -46 -110 0
112 -133 -143 0
-62 94 141 0
19 56 136 0
-52 60 137 0
-16 107 113 0
-76 100 -120 0
-45 105 108 0
-34 60 141 0
-34 -108 -160 0
5 143 -160 0
34 164 168 0
-50 -95 105 0
20 35 -79 0
-76 123 160 0
-43 -101 142 0
64 -78 161 0
26 -41 -59 0
-74 95 -126 0
-14 17 -133 0
-38 93 -116 0
29 56 -133 0
59 -100 -110 0
128 -140 -162 0
119 161 163 0
10 47 -100 0
21 84 113 0
70 87 131 0
68 124 -173 0
61 144 -154 0
14 -110 150 0
77 87 112 0
8 103 -125 0
-115 -116 -167 0
-6 24 79 0
52 103 124 0
-13 -15 146 0
4 -32 67 0
-16 -121 -151 0
-47 113 170 0
35 -115 -122 0
-109 118 121 0
-86 119 132 0
-6 -133 -162 0
6 -7 27 0
7 49 -66 0
13 85 -121 0
-34 -148 151 0
23 159 165 0
16 63 -174 0
77 86 101 0
-24 -37 123 0
59 141 -146 0
-109 138 147 0
-61 62 107 0
-8 -25 42 0
-15 -57 -110 0
23 24 58 0
20 49 -61 0
-8 25 -145 0
-14 57 -118 0
87 -118 -166 0
-26 48 -116 0
-5 -15 26 0
-8 61 97 0
2 21 146 0
-3 77 158 0
-20 155 -164 0
72 -78 -175 0
70 103 -121 0
-28 56 57 0
88 123 147 0
-4 -76 -134 0
-68 91 100 0
21 -144 151 0
105 -137 154 0
-71 92 128 0
-33 -53 -148 0
75 91 -103 0
-14 78 101 0
-146 170 -172 0
106 -140 175 0
-25 60 136 0
79 105 -147 0
-18 59 65 0
-17 -41 42 0
4 -104 -113 0
-90 96 -137 0
-44 147 -173 0
109 -122 148 0
-67 110 -169 0
42 -76 148 0
88 103 169 0
45 56 168 0
-10 -27 175 0
-104 -117 120 0
-62 70 83 0
24 26 60 0
51 69 -118 0
-87 -101 164 0
-8 -86 -119 0
39 70 174 0
-97 -155 -161 0
-103 105 -126 0
-2 10 -82 0
19 -99 107 0
25 32 65 0
-116 126 145 0
97 124 -147 0
116 117 157 0
6 41 -82 0
-10 63 -139 0
-64 84 -85 0
-88 149 159 0
-4 75 -161 0
-61 90 -172 0
-56 -141 167 0
53 -84 127 0
28 100 127 0
33 -79 -133 0
-73 -92 114 0
29 94 143 0
-21 113 -142 0
-5 -47 90 0
43 -60 -172 0
-99 139 151 0
56 112 -117 0
57 -132 -143 0
-2 -10 -139 0
-98 -103 135 0
7 58 161 0
7 -38 -143 0
-48 -51 96 0
59 63 169 0
10 69 84 0
-6 -20 70 0
78 98 167 0
23 152 165 0
-39 -64 -75 0
-57 106 -155 0
-4 -8 -107 0
50 -97 -115 0
-20 -90 -96 0
68 -101 175 0
-84 -139 -159 0
122 124 -169 0
88 -141 153 0
-29 85 97 0
49 -125 -145 0
17 37 83 0
144 159 170 0
36 -99 101 0
-19 52 -94 0
-4 -73 -162 0
12 25 -122 0
-32 55 67 0
1 -153 168 0
-105 139 -151 0
-11 157 160 0
40 -75 -93 0
-6 88 136 0
-64 -83 -169 0
26 -33 -66 0
53 -126 -150 0
-56 -58 151 0
23 -80 -121 0
-5 17 -82 0
56 98 -151 0
