c F1 random 3-CNF cnfgen RandomKCNF(3,225,959,seed=0) m/n=4.26
p cnf 225 959
-99 195 -217 0
-104 -125 -131 0
56 -130 150 0
-25 159 -194 0
-19 -26 187 0
81 -91 -112 0
67 134 222 0
103 -185 -216 0
63 84 187 0
-37 62 206 0
-82 131 -225 0
75 -142 181 0
-141 -155 205 0
-99 153 -205 0
48 49 -211 0
18 23 122 0
-21 -180 216 0
-56 -174 -218 0
-127 165 -170 0
-30 125 157 0
5 70 -188 0
-44 86 204 0
38 201 219 0
7 32 -163 0
24 95 214 0
48 -50 184 0
16 -187 205 0
18 67 -214 0
47 -90 112 0
-26 153 -180 0
92 121 188 0
41 -174 -202 0
31 114 -153 0
-105 -146 -175 0
65 169 -215 0
21 -86 190 0
-62 -124 -196 0
152 -163 -219 0
107 192 213 0
41 86 -179 0
-97 182 -225 0
-146 180 224 0
17 -67 -115 0
144 155 -194 0
-80 84 -215 0
49 141 163 0
-103 107 174 0
4 184 194 0
31 -156 -167 0
-26 -47 177 0
6 -71 116 0
-134 168 210 0
5 72 218 0
-67 -143 175 0
-180 -192 -217 0
96 138 -224 0
3 75 -151 0
-86 87 -203 0
10 -159 200 0
-39 -75 150 0
30 76 -123 0
46 -134 -220 0
-77 85 214 0
-122 -124 144 0
-30 -123 180 0
78 86 -189 0
23 164 207 0
-16 57 192 0
-101 -133 -143 0
150 -183 202 0
57 -67 95 0
17 -30 92 0
-31 102 128 0
56 160 205 0
93 97 -118 0
-38 -104 -145 0
128 163 214 0
-88 -181 192 0
-38 135 -224 0
-76 150 184 0
11 133 223 0
-4 -11 77 0
-39 -205 -223 0
9 129 -136 0
-53 -75 -194 0
60 151 156 0
-78 -130 146 0
-68 -127 -221 0
16 99 208 0
-74 187 213 0
-37 107 124 0
91 -106 -208 0
-13 26 118 0
9 -154 159 0
-141 167 -180 0
-199 200 201 0
-120 157 -180 0
-33 -202 218 0
133 202 -221 0
96 -114 -194 0
20 162 -203 0
7 66 134 0
-161 -199 210 0
-38 110 145 0
-17 26 107 0
-111 115 -203 0
-84 185 -222 0
19 -32 -92 0
3 -46 213 0
37 54 153 0
-2 76 192 0
-37 48 -220 0
67 89 182 0
-86 -93 -122 0
21 -48 152 0
33 -38 97 0
-48 -61 -194 0
12 170 -221 0
19 -20 -180 0
107 -141 -190 0
22 -91 -164 0
-15 -136 164 0
-83 107 -187 0
24 76 -121 0
29 -143 -156 0
-48 108 197 0
88 -117 -134 0
-23 162 -164 0
-1 -179 213 0
-30 56 -77 0
121 -181 193 0
-104 140 196 0
11 -70 -172 0
-135 -149 182 0
-65 91 192 0
-10 -19 -203 0
31 136 221 0
-75 107 221 0
-27 -106 -137 0
96 114 146 0
-31 -98 179 0
-77 -144 -172 0
-56 -123 126 0
-37 77 114 0
-7 91 121 0
-21 176 -222 0
11 -30 -159 0
-37 59 187 0
-112 -118 184 0
-85 108 -166 0
-38 135 182 0
-48 -90 -114 0
57 -100 187 0
-13 151 182 0
22 -163 223 0
164 174 -191 0
-23 -157 -181 0
-14 -118 -162 0
66 -122 -181 0
11 -12 14 0
2 75 -168 0
-57 156 -175 0
50 87 -156 0
-83 -117 138 0
-12 49 134 0
89 135 -223 0
-173 -187 -189 0
66 89 -124 0
-3 -19 -142 0
-13 -106 -208 0
21 22 31 0
55 -106 -113 0
-11 47 64 0
-72 -216 -223 0
28 -74 -143 0
-119 -132 155 0
5 31 -158 0
56 -64 73 0
-32 99 -166 0
-59 173 184 0
-17 79 -133 0
74 123 161 0
-84 130 142 0
40 102 225 0
-53 196 201 0
34 -188 -209 0
-34 152 156 0
-92 -135 -153 0
4 -57 -143 0
81 -140 181 0
103 -155 -181 0
16 -54 99 0
88 -113 -221 0
42 -79 172 0
-39 162 -188 0
7 16 161 0
58 84 -168 0
35 -109 -170 0
37 -80 -92 0
-3 -98 105 0
-32 105 145 0
36 129 -160 0
61 213 216 0
44 191 -207 0
-27 154 222 0
-65 88 207 0
-23 92 -128 0
61 -92 -130 0
-70 127 -206 0
-74 136 -141 0
-10 117 -176 0
14 -89 127 0
-66 149 -175 0
65 99 -214 0
-63 151 207 0
85 192 217 0
-75 -89 -93 0
-104 154 201 0
37 -146 202 0
-3 -88 185 0
-18 109 141 0
17 164 -169 0
-69 -112 194 0
-110 -200 -210 0
-49 88 181 0
-40 -131 -193 0
10 106 -144 0
41 -136 -175 0
5 188 -189 0
48 -108 195 0
116 183 191 0
-17 -110 -113 0
-112 -194 199 0
8 -79 127 0
-99 -102 196 0
91 -120 -150 0
-7 102 211 0
-21 -145 222 0
18 -49 184 0
81 -216 -217 0
-33 -163 196 0
-38 104 153 0
33 35 -124 0
47 89 205 0
-52 -68 -209 0
-67 133 -201 0
10 40 -142 0
-19 50 -210 0
-41 134 -182 0
15 -143 198 0
21 -199 -209 0
-86 -116 146 0
6 35 82 0
50 -87 156 0
-80 179 204 0
-20 92 -214 0
-91 -155 -159 0
-8 -47 106 0
17 92 100 0
-6 46 -90 0
-117 -142 203 0
-14 -138 220 0
25 -133 -166 0
9 -26 121 0
1 87 97 0
41 -45 200 0
-124 161 174 0
-62 73 163 0
-42 -58 -91 0
-36 145 225 0
-2 150 176 0
-5 7 211 0
13 29 -199 0
-7 -108 202 0
36 -94 131 0
-34 105 -145 0
-63 112 -121 0
-62 124 -166 0
71 -96 135 0
-11 -71 157 0
137 219 -225 0
-7 -108 197 0
-118 155 183 0
88 -106 122 0
-37 -89 95 0
51 -66 -225 0
-11 -98 163 0
-69 106 -175 0
-29 34 35 0
-102 111 148 0
109 140 200 0
43 54 -59 0
-92 -160 189 0
-206 -215 219 0
-88 129 -161 0
-143 190 -191 0
-89 -100 -121 0
26 175 209 0
150 153 163 0
69 -177 188 0
3 -10 -204 0
-28 -82 -174 0
125 171 208 0
131 200 220 0
105 -133 -225 0
6 -68 151 0
-14 113 -145 0
-60 86 -130 0
-27 -69 -159 0
-47 59 -68 0
156 -213 219 0
-18 101 -123 0
59 -124 209 0
25 93 208 0
51 144 -151 0
-143 180 -194 0
-89 144 224 0
-59 -62 128 0
-3 91 127 0
79 -109 -147 0
38 -195 221 0
-124 -191 -199 0
34 -157 -213 0
121 -129 -223 0
-72 -92 111 0
-31 75 -123 0
-48 -63 191 0
-29 -99 -175 0
145 -159 -213 0
60 81 -125 0
-59 82 101 0
24 -68 105 0
-29 47 205 0
3 12 98 0
155 156 -211 0
-1 51 218 0
-59 -60 107 0
54 -98 112 0
-89 -150 -181 0
35 -153 165 0
27 70 183 0
-54 98 -147 0
31 -129 131 0
115 -121 -131 0
-33 66 -107 0
210 -211 221 0
-90 124 -199 0
-2 -142 186 0
-62 -65 110 0
-59 -73 113 0
134 176 -213 0
133 162 173 0
10 -86 -88 0
-49 106 174 0
-13 101 -202 0
-47 133 -139 0
-55 147 170 0
-125 155 216 0
12 -16 35 0
-28 -170 -176 0
50 -127 -176 0
-101 -113 -184 0
18 38 -57 0
119 -139 182 0
6 -54 -104 0
54 139 -163 0
80 98 -140 0
-4 -53 -193 0
6 22 -191 0
40 -67 -120 0
-57 -215 -225 0
-59 152 211 0
-40 81 -161 0
82 99 -112 0
35 156 171 0
64 -111 -181 0
-30 -89 99 0
139 -191 212 0
42 -127 -210 0
-26 36 -89 0
27 134 -147 0
9 -134 216 0
143 182 215 0
-52 -103 156 0
69 90 -185 0
-33 81 213 0
-84 -170 210 0
-4 22 157 0
-52 -71 183 0
-107 129 137 0
83 -119 152 0
-112 161 173 0
-3 164 -214 0
-82 141 168 0
133 -178 218 0
-100 108 -202 0
-81 -137 207 0
44 96 -109 0
8 -62 99 0
-33 47 -212 0
32 -106 -135 0
-69 104 111 0
-135 182 219 0
-39 57 205 0
65 140 142 0
-185 211 222 0
33 144 -195 0
205 -220 223 0
-16 -43 106 0
-99 135 137 0
23 137 220 0
-63 -191 -192 0
-89 -106 170 0
41 151 196 0
14 -195 219 0
116 -182 200 0
-38 -90 -154 0
-129 165 177 0
123 -188 -207 0
78 -113 -122 0
-85 -180 -208 0
-103 149 179 0
56 68 -111 0
-67 -88 111 0
-50 -187 203 0
5 -52 153 0
56 212 -224 0
69 157 208 0
-43 156 -213 0
-128 -190 211 0
111 150 201 0
-4 -137 153 0
-51 99 223 0
-39 128 169 0
14 112 155 0
80 85 -108 0
-36 -81 -169 0
70 -85 156 0
-28 -67 -132 0
-41 156 172 0
29 -150 -198 0
-26 -176 -187 0
-29 163 201 0
4 11 -156 0
99 -124 201 0
22 101 180 0
-8 13 -106 0
104 -105 214 0
33 144 165 0
-74 -121 148 0
3 104 176 0
40 73 164 0
-2 86 -190 0
17 -149 193 0
-65 -85 116 0
-21 -81 -113 0
110 133 142 0
-103 165 213 0
-9 37 40 0
-69 -135 -145 0
-103 -152 -209 0
60 -129 -199 0
88 132 203 0
-29 95 122 0
29 -130 133 0
-47 -88 -94 0
1 -108 -194 0
175 206 -217 0
-43 -135 -169 0
-7 55 -182 0
-81 84 -149 0
-61 -95 101 0
-55 -62 66 0
87 -154 160 0
-37 195 217 0
53 -115 123 0
-23 182 -206 0
70 -100 -132 0
6 81 188 0
-42 155 -213 0
-74 -129 -177 0
-173 191 218 0
-16 -41 -86 0
-107 -141 219 0
23 174 186 0
-150 169 219 0
6 -11 202 0
-151 209 223 0
41 72 76 0
-34 -59 -225 0
-38 158 189 0
-35 170 216 0
-5 -151 223 0
-190 194 -209 0
154 189 203 0
54 -190 211 0
38 -125 138 0
-45 -117 172 0
-164 167 188 0
-70 -90 126 0
74 101 -142 0
30 152 -167 0
37 67 109 0
-68 84 -113 0
-100 214 221 0
-9 -79 168 0
53 101 -120 0
-32 130 173 0
52 -60 -62 0
18 141 213 0
24 50 126 0
-134 -141 -148 0
121 -173 -205 0
53 197 -202 0
56 133 175 0
61 -117 -121 0
-85 101 189 0
95 128 212 0
62 -105 -220 0
-37 133 217 0
82 -83 131 0
-52 -76 -134 0
10 -37 113 0
-49 -135 213 0
-39 -150 225 0
-30 -36 41 0
-10 77 -215 0
26 127 166 0
175 -182 -221 0
-66 150 189 0
32 -161 174 0
4 37 58 0
18 -28 -72 0
-67 148 200 0
37 -116 -212 0
-66 105 -164 0
55 62 168 0
-55 -134 224 0
65 -108 -196 0
-25 -52 77 0
-68 166 -206 0
-7 -38 116 0
-162 -198 -199 0
146 157 216 0
-28 -69 215 0
-68 121 -125 0
45 69 -224 0
67 181 -182 0
80 -83 -160 0
33 165 -200 0
-121 185 -195 0
-110 -112 218 0
-23 143 206 0
-4 -135 206 0
101 -164 185 0
76 -173 -216 0
-32 135 143 0
-1 -24 87 0
-63 -96 172 0
4 103 116 0
-54 85 -186 0
-24 27 140 0
29 -176 215 0
43 -67 120 0
5 97 -144 0
-22 162 -197 0
-59 -99 186 0
109 -164 207 0
-73 -89 -132 0
-65 -184 191 0
-48 57 -119 0
-122 160 202 0
27 118 -187 0
85 155 -180 0
-106 -120 203 0
51 -53 146 0
-23 -169 185 0
-6 -21 110 0
-51 -76 -158 0
-10 -17 -23 0
98 -166 -201 0
-1 -103 -142 0
-40 -103 -173 0
-95 -121 141 0
-10 -89 -109 0
-17 59 -175 0
7 87 -160 0
18 199 225 0
46 -59 -167 0
-46 -75 102 0
28 -41 -123 0
-79 -188 205 0
-69 -151 210 0
-16 167 -196 0
80 -141 163 0
11 -109 204 0
15 76 80 0
40 -153 224 0
6 36 150 0
17 156 182 0
21 -111 -125 0
44 129 -187 0
109 187 218 0
64 -142 -187 0
-83 -136 144 0
24 -145 -178 0
-73 91 189 0
1 37 66 0
-30 126 -213 0
36 67 -210 0
83 192 -209 0
-38 65 162 0
159 -172 -177 0
-27 -71 197 0
-60 85 -164 0
70 -138 200 0
69 -186 -191 0
-2 174 199 0
65 95 -211 0
52 -146 -224 0
174 -178 209 0
8 -156 205 0
60 104 150 0
-117 -140 -225 0
30 -94 -198 0
48 -123 223 0
-49 -171 -223 0
-40 -42 -174 0
185 -189 212 0
41 -146 180 0
26 -40 -65 0
-108 -134 -166 0
-31 -65 -119 0
73 -97 185 0
-70 109 188 0
-22 107 143 0
-127 -174 -208 0
-114 135 143 0
-54 -92 156 0
-25 43 -57 0
81 -113 -217 0
88 126 -182 0
68 -101 131 0
36 -38 130 0
-7 12 126 0
36 -120 161 0
-34 -78 92 0
26 -27 -85 0
47 -94 -149 0
55 -104 -163 0
-111 -125 172 0
-53 110 -208 0
-19 -36 -208 0
-75 -205 208 0
-33 42 -119 0
-25 -40 138 0
23 -81 -170 0
30 -170 -183 0
-80 84 195 0
78 167 169 0
-21 62 122 0
-23 -97 -191 0
37 170 181 0
-31 39 -162 0
21 148 -149 0
104 -212 -217 0
87 -161 -196 0
42 46 -212 0
117 -173 -189 0
-78 202 205 0
45 90 128 0
-33 113 -196 0
-31 58 193 0
-61 -141 -158 0
-151 -164 -220 0
5 -160 176 0
129 -141 -182 0
-13 -29 -45 0
-82 156 -204 0
38 -127 134 0
1 22 144 0
15 80 83 0
59 -188 -195 0
-136 -159 167 0
11 101 -185 0
3 107 189 0
-34 -149 -163 0
-88 -116 -199 0
-69 -133 -208 0
-86 -103 172 0
-55 -183 -216 0
110 190 -212 0
44 49 -160 0
129 130 -216 0
-32 64 124 0
14 133 216 0
36 -38 -152 0
-25 26 -97 0
53 -134 -147 0
25 36 108 0
-46 -69 177 0
87 115 -182 0
-3 -16 49 0
85 -110 206 0
-124 127 -156 0
-16 -183 224 0
-23 71 144 0
-37 -189 220 0
-100 -203 -210 0
8 -104 220 0
-34 -207 -210 0
-40 126 -156 0
40 -107 207 0
148 207 -208 0
-132 194 -222 0
-34 87 211 0
24 -29 63 0
-8 -204 -220 0
-65 91 -152 0
111 -115 224 0
-134 -153 210 0
76 90 -145 0
-31 -52 208 0
66 -78 208 0
20 -171 -211 0
20 21 174 0
83 116 191 0
151 -156 -197 0
-16 55 138 0
13 153 -167 0
-52 169 194 0
96 -140 -217 0
-58 140 -203 0
-19 -85 91 0
-39 77 145 0
-153 165 -215 0
-60 -111 211 0
-45 147 177 0
12 172 -205 0
45 99 154 0
-11 -101 222 0
-7 -98 216 0
92 132 -208 0
127 132 -162 0
48 118 187 0
-31 -52 -76 0
-37 -47 204 0
98 -205 207 0
98 -202 -203 0
-33 -144 162 0
135 158 -165 0
58 125 147 0
-8 43 78 0
136 -159 -164 0
-4 196 202 0
-56 -132 -184 0
16 -199 221 0
-27 -87 -171 0
-15 76 -213 0
50 73 88 0
49 -97 176 0
7 -89 101 0
66 -182 206 0
-27 109 129 0
-32 74 -205 0
64 76 -218 0
-50 -92 -205 0
-27 -36 203 0
-17 -118 -197 0
-80 157 -211 0
12 -106 177 0
-18 29 -196 0
-28 109 161 0
-104 106 190 0
42 167 168 0
76 -92 125 0
48 88 -154 0
-27 39 132 0
144 -189 -191 0
74 86 158 0
-67 104 -163 0
67 -186 201 0
-10 -25 -172 0
-5 -66 114 0
-91 -188 -209 0
-5 -52 101 0
-31 140 -219 0
24 37 -214 0
-51 168 193 0
-58 -171 -196 0
-6 -17 118 0
42 116 186 0
43 147 -175 0
14 171 -197 0
-66 -80 -145 0
130 158 212 0
55 60 190 0
11 -144 -154 0
102 -116 167 0
-33 -77 157 0
118 -146 -147 0
79 -143 -170 0
-69 -132 179 0
-80 151 -209 0
88 191 -222 0
27 151 214 0
-5 80 192 0
-61 -128 -190 0
-52 -103 -191 0
-4 85 -195 0
-24 -40 -178 0
72 90 -209 0
67 120 122 0
-14 -142 -199 0
-15 93 -99 0
-12 -122 -139 0
-159 161 -195 0
-6 207 -213 0
-76 -158 178 0
-41 63 115 0
-13 -165 -224 0
154 -166 222 0
-4 118 174 0
-27 120 -179 0
15 -27 -36 0
-135 170 -199 0
-87 -124 150 0
13 -134 190 0
-98 174 210 0
30 184 -190 0
39 -184 -205 0
-47 111 115 0
-76 -93 173 0
2 16 -101 0
5 43 145 0
21 -36 -39 0
-5 74 95 0
-3 -95 151 0
-148 -174 176 0
-49 93 105 0
48 135 -215 0
144 149 -150 0
-66 68 -120 0
-25 93 -108 0
-46 -203 220 0
-69 96 -204 0
-41 -52 53 0
1 94 -196 0
105 146 -208 0
75 -160 177 0
158 -182 -223 0
-127 -154 -216 0
16 -46 80 0
116 -130 160 0
33 -66 -184 0
90 -123 222 0
-36 126 -179 0
-4 74 221 0
-57 204 -219 0
148 163 -185 0
-145 -170 -212 0
157 184 -205 0
-109 -169 212 0
-67 75 -128 0
52 -178 -207 0
-10 189 -213 0
109 -177 -222 0
39 -42 194 0
42 54 89 0
-33 -65 148 0
-16 72 -147 0
-67 86 183 0
-8 -88 -187 0
151 172 -206 0
-22 -108 171 0
-3 -11 33 0
-86 96 208 0
50 -142 -159 0
11 37 -225 0
54 -106 146 0
24 -27 87 0
44 -169 -189 0
51 -53 -220 0
56 -183 -202 0
-60 65 131 0
-28 -145 170 0
-10 -26 201 0
26 -73 160 0
25 -101 123 0
34 36 -61 0
123 -141 142 0
56 -160 209 0
-27 -76 184 0
-68 122 -167 0
41 -155 -172 0
68 100 -111 0
-29 -61 205 0
79 -115 223 0
75 -81 149 0
110 188 193 0
-14 -105 -160 0
-7 143 -165 0
71 -189 204 0
16 90 168 0
147 194 -214 0
26 72 212 0
40 142 -221 0
67 103 -155 0
20 218 -224 0
118 169 177 0
31 -196 -224 0
66 108 -156 0
40 127 -180 0
-99 -123 -150 0
164 198 -223 0
129 -137 -221 0
-62 -131 -221 0
-83 98 202 0
50 77 -78 0
42 -81 -137 0
-63 -218 -222 0
-17 -150 221 0
-31 -43 164 0
51 100 101 0
-86 -107 109 0
69 122 170 0
39 144 -158 0
-36 -109 130 0
20 69 164 0
4 -35 -184 0
78 -135 -187 0
158 198 207 0
-3 -168 221 0
-7 81 -222 0
-16 -97 111 0
56 162 214 0
-161 -183 -198 0
60 -153 -189 0
23 181 -205 0
-6 -123 -199 0
10 45 -183 0
181 -183 192 0
-7 -14 -59 0
-157 -186 -208 0
-18 34 96 0
-40 43 -87 0
-91 -161 186 0
-17 134 -206 0
19 -118 203 0
-48 98 -189 0
72 73 -109 0
81 140 205 0
-114 186 189 0
51 -73 185 0
-94 -132 178 0
-10 50 -160 0
-1 -11 76 0
43 -174 -178 0
-60 -196 -224 0
