c F1 random 3-CNF cnfgen RandomKCNF(3,150,639,seed=7) m/n=4.26
p cnf 150 639
39 83 102 0
15 94 150 0
18 108 -112 0
16 32 -145 0
12 -13 -57 0
-31 37 139 0
-49 147 149 0
-16 -53 -145 0
-117 -120 150 0
-21 -47 -63 0
19 -74 115 0
-39 88 126 0
-81 -143 -147 0
18 -117 -149 0
-16 -17 -80 0
-6 89 119 0
-16 56 127 0
101 102 -128 0
72 -103 -141 0
92 98 107 0
39 46 -60 0
47 68 -73 0
-95 137 145 0
-101 -117 -144 0
27 103 124 0
42 -54 113 0
1 27 -146 0
-7 19 -54 0
89 94 -122 0
-120 123 124 0
-27 68 88 0
53 93 -136 0
-24 67 -133 0
-58 137 139 0
59 -62 -103 0
-8 72 -121 0
90 94 115 0
-51 59 -121 0
1 89 -123 0
-46 -52 123 0
102 103 119 0
-8 33 -39 0
40 90 141 0
-27 36 135 0
-8 55 -65 0
67 108 -140 0
-118 133 150 0
-5 131 135 0
-37 39 45 0
-84 133 136 0
49 64 -71 0
-8 -17 144 0
-71 116 -131 0
52 -115 144 0
81 101 -114 0
19 55 -78 0
-36 37 65 0
42 102 -125 0
-87 104 -132 0
24 -82 -94 0
-5 -99 113 0
27 -29 -59 0
11 -47 -70 0
-39 -104 138 0
-15 47 -72 0
5 23 67 0
32 -68 -117 0
12 34 69 0
13 -47 -68 0
-53 75 -136 0
5 65 89 0
-49 130 -142 0
-28 -111 127 0
51 -59 -88 0
4 -14 -34 0
-15 -22 42 0
12 76 -118 0
-1 -68 -115 0
9 -63 80 0
1 -86 -98 0
52 64 -129 0
23 -37 103 0
60 77 -78 0
-39 84 127 0
110 130 132 0
8 -11 22 0
97 116 143 0
-1 68 126 0
-17 122 -135 0
-53 -60 -61 0
20 74 123 0
-38 66 85 0
-16 124 125 0
-75 -126 -133 0
31 -120 141 0
-5 75 -122 0
54 69 100 0
-37 68 -135 0
-29 -60 -94 0
-1 -7 -41 0
-37 -78 -107 0
-1 -31 -85 0
-4 -31 -51 0
17 -100 -101 0
13 71 -72 0
-39 -64 69 0
-8 96 110 0
13 -106 -116 0
13 -33 -141 0
-73 -77 -88 0
-62 78 124 0
-20 42 -54 0
86 110 116 0
24 -45 88 0
67 95 -146 0
99 -106 -135 0
-16 -87 128 0
56 -129 136 0
-99 -103 115 0
-9 -33 109 0
-19 -101 136 0
28 40 -58 0
11 22 142 0
10 -78 -146 0
-19 26 -29 0
1 -58 -67 0
-63 72 81 0
8 79 106 0
-21 108 -128 0
59 -95 -127 0
51 -93 102 0
-52 53 127 0
-57 68 -120 0
-48 58 125 0
14 55 -101 0
-14 -16 -48 0
-21 29 43 0
-9 -120 -135 0
44 85 114 0
-21 72 90 0
-80 92 98 0
-51 96 -122 0
-8 94 -122 0
-9 11 97 0
-17 -50 -66 0
-12 -68 -86 0
1 7 -17 0
-65 -99 120 0
-3 47 128 0
-82 84 118 0
-41 64 101 0
-124 140 -142 0
19 27 68 0
108 115 128 0
61 -107 -118 0
-69 -72 -146 0
51 64 113 0
40 -73 149 0
63 65 -102 0
-2 10 -27 0
11 76 96 0
49 -50 150 0
2 -67 115 0
10 88 95 0
10 -53 -66 0
48 80 96 0
124 -127 141 0
40 102 -141 0
-70 -73 105 0
-80 -92 146 0
-51 94 101 0
41 109 -112 0
94 118 148 0
-14 37 -142 0
-38 -44 130 0
18 -44 -134 0
33 -51 -78 0
14 23 -100 0
47 51 -122 0
-41 99 133 0
11 -50 64 0
-100 -117 -141 0
-64 -109 -150 0
46 113 -129 0
-61 115 -120 0
18 -28 -103 0
24 94 114 0
22 81 -131 0
7 17 35 0
43 74 -126 0
-41 -65 83 0
66 -123 129 0
10 82 -96 0
-42 72 -84 0
-13 -30 136 0
-65 -101 -138 0
-38 -95 148 0
46 -59 -114 0
80 81 150 0
-39 -75 111 0
34 59 126 0
-1 91 -146 0
-58 106 137 0
41 94 122 0
25 39 -116 0
3 -68 -103 0
64 127 133 0
-7 16 137 0
15 27 41 0
-52 106 -133 0
-13 17 -77 0
-21 112 120 0
27 60 -67 0
-14 -68 -69 0
22 56 -130 0
-41 52 -61 0
-62 -85 98 0
-7 60 -112 0
20 145 150 0
7 -28 29 0
8 11 36 0
17 -52 94 0
29 53 64 0
26 74 123 0
-76 -82 87 0
66 -73 -90 0
74 -122 129 0
-26 -112 133 0
56 -138 145 0
1 -112 135 0
2 -90 126 0
-89 127 -132 0
55 60 128 0
-27 -126 144 0
-23 102 -103 0
-53 68 -78 0
33 -60 -118 0
-40 116 -134 0
66 113 -149 0
61 -119 -130 0
-40 64 84 0
49 67 84 0
39 -51 -99 0
51 71 -112 0
53 100 -119 0
-57 -112 129 0
37 66 -104 0
59 108 147 0
-81 111 -117 0
-41 -63 -103 0
6 -105 117 0
28 -100 126 0
-42 52 -133 0
53 -122 -139 0
54 -106 117 0
-15 -65 -92 0
-4 -16 -20 0
28 -68 -149 0
-57 101 135 0
-18 34 50 0
-91 106 -120 0
-59 -69 -91 0
-1 -48 124 0
-78 -83 123 0
-40 78 93 0
-36 84 145 0
-19 54 76 0
-48 60 116 0
43 -104 137 0
55 -127 136 0
-31 68 143 0
122 -127 -143 0
-37 64 126 0
-42 -83 -120 0
96 108 -110 0
-6 8 -12 0
9 -37 125 0
-25 -87 94 0
-73 -88 112 0
-75 -91 -127 0
-53 89 -130 0
50 77 82 0
103 -104 -142 0
2 -12 28 0
97 129 140 0
11 45 118 0
-4 26 -108 0
67 -78 144 0
6 -82 111 0
-31 -108 148 0
-4 -40 100 0
22 55 -121 0
2 3 32 0
-5 34 -121 0
13 48 -94 0
-118 128 143 0
3 -4 -16 0
43 -80 -125 0
113 121 148 0
-42 -93 -107 0
-70 -86 146 0
-4 -39 86 0
-60 -97 100 0
-68 69 83 0
37 -74 -147 0
-22 -89 137 0
-15 -60 80 0
-3 66 -99 0
-17 -60 -102 0
49 52 130 0
-47 -75 93 0
-12 64 -127 0
-21 40 -119 0
6 72 133 0
125 -145 -146 0
25 -110 115 0
-47 52 87 0
-9 -14 -143 0
17 -31 -102 0
-23 60 -145 0
41 61 95 0
16 66 -91 0
15 124 -132 0
-2 51 -77 0
-66 83 -96 0
-44 98 124 0
4 50 120 0
-20 36 -96 0
-6 -20 116 0
30 -94 123 0
15 -47 116 0
69 106 108 0
-70 76 -147 0
-28 -82 126 0
15 -40 -132 0
-31 -52 -66 0
-25 -61 -62 0
15 42 -76 0
88 -130 131 0
-48 -74 135 0
56 71 105 0
45 59 134 0
45 71 127 0
52 79 -150 0
-15 -89 -133 0
-4 24 -105 0
-48 64 145 0
-2 -96 148 0
-31 -63 92 0
-28 75 127 0
6 23 63 0
27 65 80 0
-5 50 -67 0
25 27 -90 0
-32 120 127 0
32 36 104 0
102 119 -147 0
-10 108 -135 0
-62 -87 -103 0
-14 103 -144 0
-3 64 109 0
18 84 111 0
-36 102 108 0
9 69 -70 0
-4 32 134 0
-29 74 79 0
16 -69 132 0
32 -113 -131 0
71 74 -148 0
-57 117 -146 0
-78 -118 -141 0
8 63 -86 0
-4 102 150 0
-83 -84 -143 0
15 56 76 0
-16 -90 -113 0
28 -58 -134 0
-36 52 -91 0
33 69 -106 0
-31 -141 150 0
-29 -72 -107 0
-74 -75 -91 0
-2 -83 -128 0
48 -78 -138 0
-23 -60 149 0
53 84 110 0
-66 -128 -145 0
-100 -111 133 0
3 90 116 0
-96 105 129 0
-103 -108 125 0
-44 82 -93 0
-29 -45 -132 0
41 75 -135 0
16 -47 145 0
-1 3 -106 0
4 26 102 0
-128 142 146 0
32 38 106 0
-20 -26 -44 0
-4 16 149 0
44 -71 91 0
17 -90 -150 0
-6 14 -57 0
14 62 64 0
-2 -45 -81 0
18 -65 127 0
-80 103 106 0
-23 -44 45 0
-2 75 -102 0
-86 99 137 0
90 -109 142 0
73 -89 120 0
7 72 88 0
24 -51 -70 0
-41 62 -95 0
-54 -97 149 0
-34 -59 -116 0
64 104 137 0
-24 -132 139 0
38 -80 146 0
46 60 83 0
-93 129 144 0
-23 58 -80 0
-73 92 -104 0
-8 -46 94 0
-64 103 119 0
30 70 -75 0
11 -42 111 0
-11 98 142 0
-128 -134 -146 0
1 29 74 0
10 -29 82 0
-57 101 -107 0
-88 109 114 0
-33 110 132 0
45 67 -144 0
-16 -44 -64 0
24 52 -80 0
61 -62 124 0
35 77 -90 0
31 109 -141 0
-30 53 -104 0
12 -53 -125 0
-29 51 80 0
-84 -114 120 0
12 -19 -143 0
-22 85 -145 0
-49 112 -126 0
24 65 74 0
7 -8 -102 0
44 -48 -135 0
-48 92 -98 0
-35 95 142 0
-11 28 146 0
109 -127 128 0
37 -42 -59 0
-11 23 113 0
-1 9 -96 0
-15 -19 132 0
3 -46 -113 0
-2 114 -145 0
-22 -83 139 0
-16 -21 -103 0
-36 -95 124 0
49 57 -115 0
-107 143 -149 0
30 67 102 0
-29 57 141 0
65 -126 136 0
29 -139 147 0
35 113 -129 0
44 -101 140 0
-15 36 96 0
4 -11 -96 0
31 35 110 0
-44 91 -94 0
-32 -62 96 0
-26 91 92 0
63 -66 91 0
30 -113 149 0
19 -48 -67 0
-37 -65 138 0
-7 -39 88 0
-10 -20 47 0
59 -101 -115 0
56 80 136 0
-44 -93 -120 0
-2 -81 -91 0
-6 59 64 0
-37 70 -99 0
92 146 147 0
52 -110 -147 0
-19 -37 -61 0
-63 -90 131 0
-83 87 124 0
35 39 -90 0
-102 104 115 0
-37 -78 79 0
21 -49 -150 0
92 -110 -120 0
45 66 -71 0
6 -56 -61 0
52 73 129 0
13 15 -34 0
-2 35 -49 0
-8 55 -83 0
45 -87 104 0
-23 -86 -127 0
-4 7 -82 0
24 41 85 0
-24 -37 -136 0
89 -138 143 0
-9 -67 -123 0
-93 134 -136 0
3 -122 143 0
24 59 103 0
16 129 -140 0
39 46 -94 0
63 -114 -128 0
55 83 118 0
17 90 -103 0
58 -97 105 0
62 -68 112 0
-72 -84 109 0
-41 123 -146 0
23 -73 85 0
42 82 116 0
12 -93 113 0
7 29 77 0
-39 78 129 0
-24 -102 -119 0
9 86 150 0
10 -35 130 0
6 13 82 0
-35 125 135 0
38 -58 -139 0
20 56 -90 0
-4 46 68 0
-13 -51 -131 0
-3 -11 -84 0
-69 -103 -106 0
-39 -99 100 0
-2 -62 129 0
23 30 -51 0
-84 -114 143 0
-121 -122 131 0
-17 -91 -97 0
-19 -58 -140 0
90 123 134 0
94 135 -136 0
-40 45 62 0
-83 93 -98 0
40 -65 -97 0
78 -116 -134 0
-29 -75 115 0
2 -39 -133 0
-61 -95 -134 0
5 -52 143 0
-46 -79 -140 0
62 -68 113 0
-33 -52 109 0
94 -97 -114 0
66 -91 111 0
50 96 -149 0
-19 -21 -115 0
-7 -28 -128 0
46 -107 -122 0
35 126 132 0
-11 -103 -139 0
24 31 118 0
23 -27 128 0
52 -86 124 0
-13 -38 105 0
-2 -48 133 0
-66 -81 -99 0
14 -78 -79 0
66 79 139 0
-54 -96 138 0
-52 88 -94 0
-3 -18 137 0
-57 71 113 0
104 114 117 0
32 47 112 0
4 -47 128 0
55 76 137 0
26 120 133 0
-13 -58 -107 0
15 35 -40 0
-60 76 -150 0
67 84 141 0
-9 84 -101 0
24 -58 140 0
-48 86 111 0
32 -54 -91 0
5 90 -128 0
72 78 150 0
-59 70 121 0
1 -50 89 0
-45 -86 90 0
46 -85 94 0
25 117 -144 0
9 10 -119 0
-34 107 -148 0
42 -44 93 0
-39 78 123 0
-30 -40 62 0
63 84 -120 0
-51 73 94 0
62 129 137 0
14 28 126 0
40 -44 -68 0
29 75 133 0
60 63 132 0
11 26 -87 0
22 88 -119 0
9 105 106 0
-39 43 131 0
51 57 -85 0
-10 128 135 0
-13 51 -94 0
-42 127 -150 0
14 -78 -120 0
77 132 -137 0
-51 60 -62 0
-13 -101 -148 0
-23 -59 -104 0
2 77 -126 0
-77 106 -108 0
-22 -55 -140 0
9 -75 86 0
105 114 138 0
-11 -48 -97 0
39 -43 -93 0
79 82 -128 0
1 3 135 0
-65 117 -145 0
35 -65 -107 0
-69 -76 93 0
