c F1 random 3-CNF cnfgen RandomKCNF(3,150,639,seed=13) m/n=4.26
p cnf 150 639
48 67 75 0
19 -34 48 0
-4 33 111 0
68 -112 -116 0
-60 -125 -141 0
-31 -81 89 0
113 -114 138 0
-46 -92 -134 0
68 -72 102 0
-50 61 145 0
100 -111 119 0
-37 -58 128 0
65 -90 106 0
55 61 -128 0
88 -146 150 0
29 43 143 0
110 -140 -143 0
1 -24 135 0
69 -78 -105 0
-2 10 -82 0
-133 137 144 0
9 76 -97 0
-56 67 -109 0
63 -74 -110 0
-10 82 102 0
2 -12 -79 0
86 -100 -142 0
14 -36 38 0
-56 -78 79 0
-26 -33 -89 0
-12 -112 150 0
13 43 83 0
-23 39 -123 0
13 55 -68 0
50 101 147 0
-36 -95 137 0
67 -77 140 0
4 -8 43 0
-42 86 109 0
-25 -79 -104 0
-39 69 116 0
-67 71 137 0
-41 -96 -107 0
-40 119 -149 0
8 -49 122 0
2 -27 33 0
128 134 -147 0
6 -7 137 0
-14 110 -129 0
-6 25 -63 0
-14 57 88 0
-26 -38 95 0
59 -73 89 0
27 33 46 0
-92 -98 119 0
-72 -114 135 0
53 -84 -97 0
-7 -77 -115 0
-16 21 145 0
-38 84 -137 0
3 76 144 0
-18 33 -142 0
5 41 48 0
-46 112 -145 0
29 -40 132 0
45 -133 -134 0
-63 -77 -108 0
55 72 73 0
13 31 -66 0
-26 27 127 0
108 -140 148 0
85 94 -123 0
-23 26 -69 0
1 36 -134 0
39 -110 -112 0
50 85 90 0
44 -110 145 0
106 126 -142 0
-6 -101 -102 0
21 -74 143 0
-13 119 -143 0
12 37 143 0
-12 -112 128 0
-49 90 -118 0
-53 111 -146 0
-49 57 104 0
-5 -10 115 0
-23 -117 127 0
131 132 -137 0
30 -46 62 0
-10 120 123 0
71 128 135 0
5 -46 145 0
50 122 127 0
17 -30 120 0
15 -50 145 0
-37 85 116 0
62 -134 149 0
-63 -103 -106 0
-2 28 114 0
6 -68 119 0
-33 109 -149 0
5 70 103 0
8 85 114 0
-22 -46 94 0
-5 -120 131 0
-22 54 105 0
-20 -40 -147 0
-51 74 107 0
-99 138 148 0
-51 79 116 0
-19 -110 134 0
-3 -32 83 0
43 -85 -135 0
-1 35 -109 0
-40 43 -94 0
53 123 -132 0
15 -44 -64 0
74 103 133 0
17 67 141 0
-101 -107 -114 0
17 -73 109 0
27 63 124 0
44 -56 -86 0
-49 64 132 0
-84 -106 -120 0
-20 94 -146 0
76 97 123 0
-4 -86 -91 0
41 100 -133 0
27 -53 -129 0
-53 126 -134 0
-2 113 -115 0
-47 -71 -128 0
-12 47 68 0
-60 67 -76 0
-23 -46 -147 0
26 -90 107 0
3 18 -62 0
-45 53 -61 0
28 111 -139 0
-14 -103 150 0
66 80 -146 0
-10 -19 120 0
-51 -94 -128 0
69 -82 97 0
-22 -54 -126 0
53 -100 -110 0
-3 -130 -146 0
20 -21 109 0
-19 54 142 0
54 119 125 0
10 -47 -130 0
-10 115 -149 0
10 -60 -100 0
48 123 134 0
8 88 -140 0
-42 -72 82 0
54 -73 -144 0
20 46 98 0
66 120 121 0
19 -69 -122 0
7 -65 -122 0
-45 -75 -99 0
104 119 137 0
-44 62 120 0
-12 37 -84 0
-87 132 145 0
-3 -133 -149 0
40 65 -132 0
41 58 84 0
-33 45 -122 0
55 67 -148 0
-57 -62 -120 0
-16 -53 126 0
-83 92 -116 0
-33 59 -85 0
-46 -88 99 0
-96 101 -119 0
-12 25 31 0
12 -24 -117 0
32 71 -139 0
-11 -128 140 0
-33 46 70 0
-46 65 -148 0
-29 67 -115 0
16 62 85 0
8 -54 88 0
30 -45 64 0
17 -86 -137 0
-56 -142 148 0
-13 77 -140 0
1 -13 149 0
20 -24 -65 0
-39 78 -122 0
25 -116 138 0
-14 -93 -138 0
-5 63 -148 0
77 -119 124 0
-39 -73 118 0
5 93 132 0
-30 32 130 0
-71 126 -140 0
78 97 -98 0
4 -20 67 0
53 -121 131 0
44 -64 94 0
-93 99 127 0
13 67 131 0
-40 -100 -145 0
-59 -134 136 0
37 73 77 0
-37 -69 -130 0
-122 132 134 0
-24 -93 120 0
-74 -81 -150 0
-25 -74 118 0
2 -4 46 0
36 40 44 0
-13 -102 -147 0
-8 -50 98 0
30 90 -99 0
102 110 114 0
23 -85 111 0
9 57 -129 0
-6 48 -150 0
-85 95 -124 0
27 32 -150 0
26 -98 -149 0
-28 -74 -110 0
96 -106 134 0
83 -88 -149 0
6 56 -86 0
6 -120 -123 0
36 -104 130 0
113 -129 136 0
-69 -125 -147 0
14 -21 73 0
-96 114 133 0
-25 -58 148 0
40 -96 -132 0
-31 -89 -142 0
49 54 130 0
21 92 -144 0
-8 41 93 0
41 80 124 0
57 -71 -104 0
-6 -72 94 0
24 54 -95 0
35 92 -94 0
71 72 84 0
-33 136 140 0
-7 40 141 0
2 38 -54 0
72 -74 -103 0
-8 -101 -121 0
-6 -16 -48 0
75 -81 103 0
-1 14 77 0
-1 -82 -88 0
50 123 142 0
13 -113 -150 0
26 113 130 0
39 -46 -88 0
58 102 -106 0
75 -106 146 0
-10 -91 141 0
21 -92 -132 0
-29 77 149 0
107 -116 -147 0
-33 -99 129 0
29 54 126 0
-27 -37 126 0
-99 124 142 0
-26 80 -112 0
53 -77 150 0
89 -107 -114 0
-29 79 91 0
-3 40 49 0
11 53 60 0
-40 -76 103 0
13 -14 -116 0
-43 -108 -140 0
18 -26 -49 0
-18 46 -136 0
27 -91 131 0
-44 62 93 0
26 92 -96 0
17 -32 -107 0
-66 84 -92 0
-92 106 110 0
40 -41 -120 0
10 -82 93 0
-2 -110 -126 0
-25 -36 -140 0
-36 82 148 0
132 -138 141 0
-32 88 -131 0
40 79 103 0
-2 105 -146 0
-46 67 -76 0
21 -24 -78 0
-42 87 101 0
31 -51 -112 0
-57 -74 -77 0
-7 63 -137 0
-35 56 58 0
123 -136 -146 0
-46 -102 -137 0
-78 114 142 0
-54 115 -145 0
-39 45 145 0
1 58 -133 0
28 103 -105 0
-90 -101 119 0
52 -54 123 0
89 118 -142 0
-103 119 -128 0
41 124 -133 0
38 76 -86 0
-33 -83 127 0
5 42 -70 0
-41 64 -127 0
58 -59 -143 0
5 59 100 0
-45 -55 -130 0
90 -101 -132 0
55 96 129 0
-33 -44 -75 0
-33 -49 -142 0
34 54 141 0
-67 90 -91 0
-9 35 122 0
-7 -12 -31 0
50 -58 -118 0
-72 82 -131 0
51 84 126 0
-9 -15 -147 0
-36 -132 141 0
69 -141 143 0
-21 -122 -142 0
43 63 -75 0
48 -81 -134 0
15 60 -144 0
10 -53 102 0
35 78 125 0
54 -94 -117 0
-86 106 -150 0
-63 -94 -101 0
14 -63 -135 0
117 -127 -146 0
29 -54 -100 0
5 -83 -122 0
15 -75 -81 0
-32 -47 -140 0
-7 -29 -57 0
11 12 145 0
1 26 97 0
-54 -105 -147 0
-32 -57 77 0
-6 31 97 0
45 60 114 0
20 40 142 0
10 53 74 0
29 -70 -150 0
34 43 59 0
1 -88 -145 0
-36 79 82 0
-29 46 -98 0
26 60 105 0
17 44 -105 0
6 -32 -38 0
-81 -98 124 0
20 32 -64 0
104 117 -122 0
-9 19 113 0
32 -36 -54 0
55 -68 134 0
-45 -125 -137 0
28 98 131 0
-8 27 146 0
-41 52 -101 0
-14 -93 -131 0
14 -73 127 0
-67 -125 135 0
58 78 -106 0
-25 -107 -126 0
61 86 -141 0
-44 90 108 0
41 -70 -94 0
40 -50 -141 0
21 -73 -103 0
43 -65 -77 0
15 34 134 0
-42 -111 141 0
62 -71 -77 0
-21 -39 71 0
35 36 82 0
58 68 -79 0
62 -66 148 0
-58 84 102 0
78 -93 120 0
3 -32 -81 0
27 -106 119 0
37 -60 -85 0
-30 -114 142 0
-38 89 100 0
-25 73 146 0
-72 105 -135 0
-22 34 -52 0
7 13 81 0
-16 92 -111 0
-8 -75 -142 0
82 126 -127 0
-21 37 67 0
5 -98 -99 0
-2 -8 115 0
8 -109 -126 0
-33 -64 127 0
-5 -58 -110 0
-20 63 87 0
-25 -27 -136 0
-6 -123 -147 0
-13 -101 -112 0
-33 -36 56 0
41 131 134 0
33 84 -85 0
18 112 -132 0
-4 -79 -119 0
-6 -38 130 0
-19 31 -79 0
87 -108 117 0
42 59 -147 0
40 95 -120 0
28 -94 -111 0
-42 48 -64 0
8 34 87 0
14 -100 -139 0
36 -107 125 0
12 -45 49 0
-88 -126 -131 0
-5 25 134 0
-40 72 -123 0
-21 107 122 0
-31 -105 146 0
-37 44 114 0
-3 -109 119 0
47 -49 -103 0
-97 141 -147 0
6 91 93 0
91 -92 -145 0
-49 68 85 0
15 -93 101 0
-6 92 126 0
49 123 -130 0
36 -39 148 0
-11 -79 103 0
-37 90 -99 0
4 -121 142 0
10 77 -94 0
-51 -111 131 0
-52 84 -116 0
19 114 -132 0
52 75 -84 0
38 -51 -125 0
-8 -31 38 0
-36 -86 117 0
120 -127 -150 0
11 -80 85 0
77 91 -131 0
19 62 -144 0
-22 -100 -118 0
16 122 146 0
18 -35 63 0
9 107 143 0
65 -120 -134 0
3 66 -85 0
-37 -108 136 0
-21 -26 -76 0
-19 33 79 0
3 -91 -112 0
51 -95 -124 0
-6 -81 -116 0
17 49 -96 0
-29 120 121 0
31 58 121 0
92 119 -128 0
31 -42 -93 0
-58 92 106 0
6 42 116 0
14 -112 -140 0
46 119 135 0
-10 77 145 0
-11 -37 -118 0
-3 70 99 0
39 72 -117 0
-2 7 -12 0
-116 -141 149 0
12 -77 -130 0
112 -135 141 0
-7 75 -117 0
53 -57 145 0
49 -128 149 0
74 -98 129 0
-68 -80 -130 0
-11 -16 103 0
-83 134 140 0
-34 -136 -145 0
84 119 146 0
73 91 129 0
12 -77 79 0
48 59 128 0
-21 -142 -145 0
47 81 -97 0
-72 86 87 0
36 73 -77 0
26 -35 101 0
8 -80 131 0
-8 56 -148 0
17 18 93 0
29 111 -147 0
-12 -61 -87 0
15 -53 80 0
37 39 60 0
53 -101 -118 0
-37 -49 118 0
-48 -106 -116 0
13 30 125 0
-65 -66 -85 0
23 135 136 0
15 29 66 0
37 -69 125 0
64 -128 140 0
-14 16 -46 0
38 -86 -139 0
-62 -83 -137 0
52 89 144 0
-26 29 -64 0
71 101 141 0
-15 39 44 0
-64 81 -108 0
-62 94 97 0
19 56 136 0
-52 60 137 0
-16 107 113 0
-76 100 -120 0
-45 105 108 0
-34 60 141 0
-34 -94 108 0
51 -143 147 0
-25 -43 54 0
-34 94 126 0
-53 -63 -72 0
33 -62 -101 0
35 -64 78 0
26 -41 -59 0
-74 95 -126 0
-14 17 -133 0
-38 93 -116 0
29 56 -133 0
59 -100 -110 0
128 -140 -141 0
13 31 119 0
26 -100 150 0
84 113 146 0
70 87 131 0
46 -68 124 0
-25 -43 144 0
35 -77 -139 0
26 30 -112 0
103 129 -135 0
-115 -116 -139 0
-6 24 79 0
52 103 124 0
-13 -15 146 0
4 -32 67 0
-16 -121 -122 0
47 81 -136 0
-35 -45 -122 0
37 -118 -121 0
46 -47 -86 0
-129 130 131 0
7 22 -68 0
-7 15 -24 0
3 -85 140 0
-80 140 143 0
2 55 60 0
-20 -86 95 0
-18 50 136 0
53 95 116 0
-109 122 147 0
-61 62 107 0
-8 -25 42 0
-15 -57 -110 0
23 24 58 0
20 49 -61 0
-8 25 -145 0
-14 57 -118 0
87 -118 -137 0
-26 48 -116 0
-5 -15 26 0
-8 61 97 0
2 21 146 0
-3 77 144 0
-10 -20 -74 0
-58 -80 -115 0
4 49 87 0
-28 -30 113 0
-8 58 -134 0
-102 -109 -139 0
104 135 137 0
7 -65 144 0
-22 -125 -150 0
14 54 -69 0
-82 -91 111 0
-7 94 -101 0
-6 52 -146 0
-28 106 140 0
60 112 -136 0
11 -105 -147 0
18 59 112 0
-41 -42 133 0
4 -104 -113 0
-90 96 -137 0
44 -94 -147 0
-2 122 -148 0
-12 67 -108 0
-10 -30 75 0
32 57 130 0
24 142 148 0
-32 -84 -102 0
-2 118 -125 0
19 44 66 0
2 23 -142 0
-5 -10 -118 0
55 -69 -101 0
-68 72 127 0
-7 -24 -97 0
-103 105 -126 0
