c F1 random 3-CNF cnfgen RandomKCNF(3,75,320,seed=17) m/n=4.26
p cnf 75 320
-39 -54 67 0
15 36 -70 0
-33 -54 65 0
8 18 71 0
16 -43 -70 0
11 -61 -65 0
3 -48 56 0
48 -62 75 0
15 -28 72 0
9 35 -36 0
40 -41 45 0
-35 74 75 0
-3 -45 60 0
26 -34 40 0
-18 -68 -73 0
24 26 33 0
-7 -40 69 0
-12 -21 -54 0
10 62 70 0
34 -69 74 0
-29 -51 63 0
-28 -30 59 0
-4 47 -74 0
22 -72 -75 0
-23 -28 -39 0
12 14 67 0
58 -60 -65 0
2 34 -38 0
28 -43 44 0
2 -4 -67 0
-4 13 27 0
16 52 55 0
-34 -35 -69 0
-1 52 68 0
-16 37 42 0
37 -57 64 0
10 -40 -54 0
17 -28 65 0
-56 57 68 0
-22 -41 -69 0
9 22 -31 0
-42 70 -71 0
32 -33 64 0
16 -43 64 0
32 49 -66 0
-10 -37 44 0
-20 -35 40 0
14 33 56 0
-48 -56 70 0
-27 40 52 0
-8 -73 -75 0
-34 39 -55 0
-25 27 28 0
10 -49 59 0
57 62 75 0
-30 -51 -56 0
-31 42 43 0
2 -61 -64 0
13 -24 -64 0
-17 21 26 0
16 38 -57 0
-34 -40 69 0
4 37 -69 0
38 45 62 0
-48 -58 -62 0
-2 15 -29 0
11 -15 72 0
-19 26 -60 0
3 -13 14 0
39 -40 43 0
1 -50 -60 0
8 -59 -63 0
-10 16 20 0
-26 38 74 0
-8 -49 -63 0
-31 73 74 0
-30 -41 43 0
-13 27 -68 0
7 47 56 0
-1 -7 -34 0
6 50 -69 0
-23 42 -46 0
57 58 74 0
18 -59 65 0
-1 -23 49 0
25 26 -36 0
20 -42 -61 0
34 58 61 0
32 -40 -64 0
-34 42 -58 0
21 35 66 0
5 15 -46 0
27 30 42 0
-5 -59 -63 0
60 67 70 0
-9 22 37 0
24 -37 -43 0
-30 -63 -73 0
-22 -28 -73 0
-8 40 -70 0
1 5 -39 0
15 -28 65 0
41 -61 -64 0
28 29 54 0
10 -53 -68 0
-23 -38 69 0
34 -36 -42 0
2 -50 -58 0
-2 -8 28 0
-34 -47 66 0
-4 5 -32 0
5 -45 -51 0
37 65 -73 0
2 47 -75 0
-5 12 41 0
33 39 -66 0
-13 -34 55 0
8 -20 -39 0
12 15 22 0
-30 -48 67 0
-9 56 69 0
43 -51 -63 0
4 -15 -26 0
24 -25 74 0
-26 28 -35 0
-19 66 69 0
-39 -62 -71 0
26 -32 -66 0
22 -39 -50 0
3 -29 -35 0
-38 -48 -60 0
-5 -21 -28 0
-21 31 42 0
23 25 -28 0
8 32 -41 0
-3 -28 33 0
-11 -33 -42 0
28 -31 -42 0
-5 8 22 0
-9 44 -74 0
5 -36 -46 0
-4 23 66 0
11 -22 -65 0
7 32 43 0
1 -3 19 0
4 -42 70 0
19 23 -55 0
-26 -30 42 0
-28 32 71 0
-55 59 64 0
-22 35 51 0
21 -26 67 0
-18 -21 24 0
34 -40 -50 0
24 39 70 0
-67 -74 -75 0
24 53 -55 0
6 34 -62 0
49 -70 72 0
15 59 -69 0
-2 -34 -41 0
-1 -40 -70 0
16 21 -33 0
17 -41 65 0
11 -22 -44 0
-26 27 -55 0
-1 -60 -63 0
-19 -39 49 0
28 32 -39 0
35 -53 -56 0
27 -30 56 0
-21 26 42 0
-23 -45 -61 0
5 -28 -59 0
-19 -29 -37 0
-2 -26 35 0
17 -37 54 0
-11 -35 74 0
54 -56 66 0
3 -13 41 0
-32 -47 -58 0
9 15 62 0
-12 48 -53 0
-34 -39 -60 0
-13 -40 -46 0
-5 14 41 0
58 -60 -69 0
1 21 -67 0
34 -46 -72 0
41 -42 52 0
-7 -53 -70 0
-29 -51 58 0
-11 27 55 0
-34 56 68 0
7 51 -63 0
1 48 57 0
-3 -39 54 0
-55 61 -73 0
-1 31 -32 0
-47 -54 75 0
-3 8 58 0
10 15 30 0
53 -62 -72 0
-21 37 55 0
27 70 74 0
11 -23 -58 0
3 44 -49 0
-12 48 71 0
28 -52 61 0
11 51 -62 0
-13 29 34 0
54 64 -68 0
41 52 60 0
32 60 73 0
-32 36 60 0
32 -44 -60 0
53 56 -61 0
-4 -31 -73 0
3 29 -68 0
-66 -71 72 0
-22 -32 -60 0
-24 45 -56 0
-10 -22 75 0
-18 -64 -71 0
4 27 -49 0
17 -18 24 0
-39 -46 -48 0
20 -23 -74 0
-23 -54 63 0
-6 15 19 0
-12 -57 65 0
38 -46 -59 0
6 -10 -47 0
-23 28 46 0
-25 31 -42 0
28 -47 67 0
-42 -49 -64 0
1 -14 -32 0
10 14 -43 0
8 -27 -36 0
3 20 -36 0
31 32 -63 0
-54 60 70 0
30 38 -71 0
5 25 61 0
-33 -40 56 0
10 -46 -70 0
2 -26 71 0
44 46 55 0
22 33 74 0
11 21 -58 0
30 -37 -75 0
37 -52 63 0
8 39 61 0
-26 50 -55 0
15 21 -72 0
20 21 -50 0
-2 -27 55 0
3 34 58 0
6 16 70 0
6 -9 31 0
-4 16 17 0
17 -22 59 0
-22 -30 -38 0
16 40 64 0
10 -58 -61 0
1 -37 -38 0
-56 62 -68 0
15 -56 60 0
-6 9 43 0
-7 -24 -69 0
52 53 70 0
-7 -16 -60 0
12 -23 39 0
-20 -33 69 0
23 24 43 0
-35 40 61 0
32 33 36 0
-37 -49 63 0
-39 -40 42 0
24 -26 -48 0
3 7 -35 0
-1 8 74 0
4 13 25 0
23 58 -66 0
-31 32 45 0
-8 -15 30 0
6 25 50 0
-4 -49 69 0
8 -38 -75 0
-7 -12 47 0
1 -43 70 0
19 29 -48 0
7 11 -29 0
-5 8 -37 0
-12 36 -48 0
39 46 48 0
-2 56 67 0
-39 -63 71 0
10 -24 -49 0
5 14 -67 0
26 -55 60 0
4 36 61 0
-6 13 -20 0
21 51 69 0
3 -37 69 0
-11 12 -52 0
7 -8 -28 0
-6 -34 64 0
-16 -18 -68 0
-13 -36 -64 0
-60 -72 -75 0
-21 41 66 0
-13 44 63 0
34 -40 -74 0
1 -57 70 0
32 35 52 0
12 23 -37 0
57 -71 -75 0
33 47 54 0
