c F1 random 3-CNF cnfgen RandomKCNF(3,225,959,seed=10) m/n=4.26
p cnf 225 959
-9 110 147 0
-119 126 209 0
84 126 -134 0
12 -108 -221 0
-73 -108 212 0
-78 170 -176 0
-62 -197 221 0
2 61 -150 0
94 -138 -198 0
-17 112 121 0
10 -62 -106 0
156 169 210 0
96 99 146 0
43 -114 -207 0
-63 107 115 0
-31 -69 222 0
167 170 -211 0
-84 89 198 0
-12 -140 183 0
-21 68 -115 0
127 -173 -223 0
17 -128 -155 0
-35 -103 -108 0
-43 144 -180 0
10 -213 224 0
13 24 -90 0
125 -205 -214 0
-115 -129 -199 0
85 109 -167 0
9 -159 176 0
-30 76 -207 0
12 -23 153 0
-37 -123 172 0
21 -47 90 0
-25 -79 -176 0
143 -171 -191 0
30 161 -201 0
-105 157 224 0
109 198 -205 0
-66 93 -117 0
-76 -120 -178 0
-88 -114 -164 0
-115 123 -219 0
104 -185 206 0
-153 188 -217 0
-19 -83 -167 0
48 -62 156 0
143 203 210 0
-50 108 -146 0
52 -87 218 0
149 169 -178 0
84 102 221 0
-156 203 222 0
-131 138 -186 0
90 113 -148 0
-121 -157 181 0
-91 -109 -211 0
25 50 111 0
-49 -163 -164 0
13 -14 155 0
13 -46 149 0
-11 -78 218 0
-50 89 195 0
-104 -193 208 0
-45 46 -214 0
25 102 209 0
-109 -164 185 0
-89 134 -214 0
-4 41 171 0
-131 164 -196 0
-56 74 150 0
143 160 -221 0
-5 -9 208 0
-13 -92 187 0
-5 33 53 0
-64 99 158 0
2 8 32 0
18 -99 178 0
13 108 -160 0
-117 118 149 0
-103 -118 161 0
36 65 -68 0
4 -40 72 0
27 -138 -197 0
-1 -148 208 0
16 163 183 0
4 -55 -138 0
-7 39 -220 0
-77 119 218 0
8 -104 156 0
-87 130 172 0
100 -126 -152 0
-55 -127 134 0
-82 165 190 0
-14 118 -173 0
157 199 202 0
-3 9 -94 0
145 170 214 0
-94 -117 207 0
-33 192 196 0
-40 185 -215 0
-176 210 213 0
138 187 192 0
102 117 169 0
46 -117 -171 0
-54 -64 -162 0
-16 -40 -125 0
-2 84 -173 0
73 118 -183 0
-24 31 110 0
97 137 -210 0
124 -147 222 0
-105 193 -218 0
-6 -114 -118 0
-40 144 169 0
-121 -128 -147 0
115 -142 -192 0
48 -61 78 0
136 200 214 0
-43 108 195 0
-8 44 120 0
-5 -10 -37 0
-6 -108 162 0
11 40 66 0
-122 -132 -183 0
-110 -142 -200 0
-15 -28 -124 0
18 92 -121 0
-2 51 74 0
-42 -124 204 0
64 100 -203 0
-14 -210 225 0
169 191 200 0
44 -104 116 0
49 -106 -112 0
34 183 215 0
-21 49 185 0
-177 -183 -203 0
-45 150 -161 0
103 -119 131 0
16 -28 64 0
-72 -180 -185 0
35 90 210 0
116 -194 198 0
-35 42 -153 0
17 -44 -119 0
40 -164 197 0
-9 -14 -169 0
-148 -155 191 0
-86 119 -186 0
-75 168 -181 0
-81 -97 -161 0
30 43 71 0
-114 -195 -206 0
41 49 81 0
44 150 -196 0
-91 -119 -195 0
-19 51 168 0
-64 145 -190 0
75 -143 -173 0
120 -154 -179 0
-73 123 -126 0
-65 149 150 0
-83 100 -112 0
-24 -28 29 0
46 140 -175 0
42 88 164 0
-3 81 -88 0
-15 153 199 0
76 143 221 0
-128 -161 205 0
-37 43 -100 0
105 111 156 0
-71 179 -198 0
61 -88 98 0
147 214 223 0
34 53 -70 0
-16 -106 187 0
46 -55 161 0
-40 -76 224 0
33 -121 209 0
-127 -182 199 0
-12 76 123 0
91 110 135 0
12 -33 204 0
20 -77 -223 0
-86 -132 -156 0
4 -100 143 0
-18 -97 143 0
-13 -84 -150 0
-41 44 -89 0
-14 57 -81 0
-29 191 192 0
147 -222 225 0
-5 -91 -138 0
-115 160 217 0
-49 -76 -91 0
25 116 -179 0
-85 138 -173 0
6 -17 208 0
-13 -22 41 0
48 173 190 0
61 -106 -180 0
5 29 67 0
-97 196 -214 0
30 77 -155 0
-33 -124 215 0
14 -111 -112 0
37 -94 -193 0
53 -104 126 0
41 101 139 0
29 57 -71 0
103 129 168 0
13 -79 -109 0
-73 113 158 0
42 171 215 0
-37 -156 -158 0
89 135 154 0
-65 -102 -125 0
83 -92 -107 0
-6 -11 194 0
10 115 -194 0
20 44 152 0
-55 138 156 0
62 -120 133 0
166 -198 200 0
15 45 167 0
11 20 119 0
180 197 -210 0
20 113 214 0
-29 148 -164 0
49 -82 129 0
-115 -137 -211 0
1 -89 -197 0
-27 -105 -157 0
-20 42 77 0
-17 97 163 0
-12 -88 -214 0
-17 -133 -187 0
-3 64 -166 0
5 53 62 0
31 -68 121 0
-142 -150 169 0
-102 105 -109 0
1 -86 129 0
-31 112 -155 0
20 68 -205 0
78 90 -221 0
86 -110 194 0
31 -111 -158 0
84 86 203 0
-123 -136 -177 0
-34 39 -101 0
-210 -213 -222 0
4 -76 146 0
53 130 156 0
-24 -85 -121 0
32 94 181 0
-134 170 -212 0
-154 -155 186 0
-22 -118 -198 0
111 208 -211 0
-91 114 -126 0
59 160 -209 0
10 145 202 0
-87 126 -152 0
-3 -20 108 0
-59 -189 194 0
134 151 -192 0
-106 -186 209 0
20 23 133 0
149 186 -216 0
-82 -147 -188 0
17 -147 -199 0
-109 -116 166 0
-119 175 207 0
-8 35 187 0
4 -39 201 0
45 -116 154 0
15 25 -140 0
-20 86 189 0
-177 -194 -220 0
-119 -132 -221 0
-160 -213 -218 0
17 140 -162 0
34 -214 -216 0
-19 -36 112 0
61 107 126 0
-61 -108 -173 0
-40 -79 116 0
-12 101 172 0
7 104 -111 0
6 -99 173 0
82 -113 178 0
-103 -166 -176 0
11 117 -190 0
36 -157 -198 0
-46 -77 -221 0
-128 161 -216 0
15 -83 -108 0
29 114 -217 0
-18 57 -138 0
-51 131 -166 0
17 -194 -213 0
-53 107 -134 0
147 -202 215 0
3 -158 -205 0
130 169 209 0
102 105 208 0
-22 -26 86 0
69 102 107 0
152 178 205 0
100 -156 -186 0
-24 79 -148 0
83 190 221 0
-134 -147 154 0
128 167 -189 0
-58 90 -153 0
-16 -118 -166 0
-27 -69 -221 0
-116 124 199 0
45 -70 199 0
-105 -133 -153 0
14 -80 114 0
-60 75 -159 0
-4 42 43 0
-82 -117 -203 0
-3 -27 -83 0
69 -83 -107 0
16 -119 -158 0
-4 -102 168 0
-143 153 -178 0
-88 -153 -194 0
-9 -30 -181 0
42 -49 185 0
84 -113 152 0
-9 22 -143 0
-104 147 162 0
-44 -162 -207 0
-48 -86 219 0
-38 -142 -148 0
-21 152 192 0
13 114 -124 0
76 -202 -225 0
-45 -104 163 0
16 -24 76 0
-69 163 186 0
-93 -108 178 0
-36 -137 187 0
-141 -154 217 0
163 -194 -196 0
71 -112 -126 0
-173 -207 216 0
87 99 150 0
-53 -159 -173 0
93 113 197 0
93 149 195 0
-48 -212 -217 0
-27 66 -107 0
-26 -92 -180 0
82 183 -198 0
152 166 179 0
-83 115 -150 0
-69 -111 -179 0
55 107 200 0
-10 34 39 0
-74 120 149 0
2 36 210 0
-150 -163 179 0
-18 179 203 0
41 -93 -170 0
5 -28 -162 0
135 175 -177 0
-57 -101 -119 0
24 36 67 0
-14 -180 -201 0
50 -145 157 0
-40 79 -187 0
-28 -168 180 0
-43 129 -194 0
-59 -156 -170 0
51 -67 93 0
34 -177 194 0
-56 107 217 0
58 103 108 0
60 -99 120 0
-27 45 186 0
69 138 -207 0
91 149 158 0
36 -56 155 0
-101 -107 222 0
-93 127 215 0
58 155 194 0
-98 -126 225 0
31 -81 219 0
-16 54 180 0
113 117 214 0
-3 -17 -48 0
18 61 203 0
-28 -97 -188 0
71 141 147 0
-29 101 -173 0
-98 -136 177 0
36 202 218 0
-87 113 207 0
-107 -123 162 0
13 -143 -167 0
-32 -118 146 0
-4 -155 200 0
3 -34 216 0
-27 111 -184 0
81 94 -223 0
113 -117 -154 0
-139 -156 -223 0
-42 73 165 0
63 129 170 0
-21 -41 -43 0
-79 -128 184 0
36 -93 -188 0
-67 -165 170 0
70 131 189 0
72 -169 191 0
-19 27 215 0
88 -143 212 0
-115 167 195 0
112 -118 -192 0
46 -70 -174 0
146 -153 205 0
35 -69 -79 0
-71 -125 172 0
18 99 -196 0
-19 69 188 0
-25 47 -50 0
-45 183 204 0
-88 103 130 0
-2 71 -139 0
-3 129 204 0
-92 138 -198 0
42 -65 -141 0
-68 177 207 0
-104 123 -124 0
-33 129 186 0
-41 59 -67 0
3 10 -109 0
42 109 213 0
-6 -33 196 0
-84 -119 134 0
-35 -168 -225 0
127 153 187 0
71 124 -133 0
6 63 -103 0
22 -62 180 0
88 -121 -169 0
2 -50 -72 0
-58 91 128 0
-48 52 -156 0
-1 -11 20 0
-37 68 190 0
-45 -132 -140 0
-61 100 171 0
-63 65 96 0
-21 -28 -136 0
7 -106 175 0
96 -104 108 0
11 -63 80 0
30 122 -143 0
83 -93 147 0
161 -176 200 0
-68 69 -205 0
88 181 187 0
38 -96 138 0
15 -53 106 0
32 -125 222 0
-22 121 178 0
11 43 -53 0
-29 -173 -194 0
93 -199 -200 0
163 -176 -222 0
59 110 -159 0
33 80 -110 0
19 37 -223 0
-124 -128 -151 0
81 -88 -180 0
108 -110 215 0
154 170 -185 0
57 117 -199 0
-83 -145 147 0
35 -164 224 0
26 95 218 0
31 57 -204 0
-9 -156 -157 0
-118 -124 151 0
40 137 -195 0
-3 8 208 0
172 181 182 0
39 -126 -186 0
-77 -126 -135 0
58 69 -205 0
67 79 -148 0
5 142 -185 0
13 53 82 0
-42 69 -146 0
37 72 218 0
38 -84 -93 0
128 -193 213 0
15 -35 -132 0
-55 -170 209 0
-21 -23 -112 0
-79 -159 -195 0
-48 69 -108 0
-60 -153 -183 0
106 -135 -174 0
-119 132 -156 0
-60 103 144 0
-111 -166 -187 0
-43 180 -222 0
84 89 214 0
127 -162 206 0
62 -126 172 0
41 51 205 0
117 -147 223 0
-75 -120 -121 0
-26 -63 -172 0
15 -149 206 0
89 -103 191 0
-26 87 215 0
-108 142 -224 0
-33 60 153 0
53 -128 -155 0
-50 -75 -122 0
-105 156 193 0
39 -63 217 0
102 -108 200 0
86 -164 -170 0
2 -24 225 0
11 200 224 0
-24 -200 -204 0
-13 100 101 0
11 -29 -50 0
-44 106 124 0
31 76 -90 0
141 -178 -195 0
-15 -196 -209 0
56 67 -85 0
-82 -108 -211 0
-94 -132 192 0
-80 -190 194 0
29 38 186 0
-155 157 192 0
-43 -139 -218 0
45 -143 207 0
37 -99 114 0
111 138 -193 0
-5 -23 146 0
140 -171 213 0
-9 -10 34 0
4 9 -138 0
24 54 210 0
-13 -142 146 0
-35 -54 153 0
130 -192 200 0
-7 153 -200 0
44 54 80 0
-4 -59 171 0
-73 -103 219 0
15 84 169 0
90 -122 200 0
50 -112 -183 0
-23 -75 181 0
28 -70 135 0
32 140 -149 0
-8 -79 194 0
-5 -98 135 0
8 -10 178 0
-22 -137 169 0
-72 147 -220 0
-6 124 -151 0
-70 94 -189 0
36 48 145 0
-73 -174 219 0
-30 80 204 0
74 202 218 0
-57 128 -136 0
82 -121 186 0
40 -41 -64 0
59 -66 92 0
80 -195 206 0
15 -52 -221 0
-163 174 -182 0
-74 -186 198 0
-66 -75 158 0
-37 -183 -186 0
80 -106 188 0
-66 -84 90 0
-126 184 185 0
37 -65 -76 0
-38 -138 189 0
-94 -150 192 0
-94 -124 -130 0
-73 122 -134 0
-54 63 198 0
-74 -162 167 0
-64 -138 -146 0
183 202 -218 0
21 69 -79 0
-54 -140 150 0
-91 137 220 0
-164 221 -222 0
-15 -82 181 0
50 -183 -186 0
-24 74 -163 0
-54 150 155 0
2 -149 -198 0
-152 154 -204 0
47 -67 -181 0
-64 -153 -217 0
-3 -5 -124 0
-141 -191 208 0
-36 -81 158 0
46 97 -192 0
-92 188 -222 0
-13 -96 -158 0
146 180 209 0
-79 115 120 0
-25 116 158 0
-105 153 155 0
3 -27 -40 0
-106 -157 224 0
89 95 -222 0
143 162 199 0
-25 -27 -111 0
-6 35 127 0
33 -91 133 0
-31 49 181 0
-47 -113 -135 0
59 71 199 0
16 -145 -225 0
173 -200 -204 0
85 -93 185 0
-8 -153 -208 0
-95 -116 -134 0
84 93 -124 0
-23 135 -200 0
13 15 -97 0
7 56 169 0
-21 -132 -168 0
-63 76 -99 0
19 44 -72 0
-85 -175 -220 0
56 -67 -87 0
-33 -174 -205 0
-4 112 -153 0
-66 -84 -99 0
-1 -99 112 0
-51 169 225 0
126 -201 218 0
-12 46 118 0
-38 -90 164 0
-27 112 147 0
-79 214 -223 0
28 -71 -190 0
-49 59 178 0
135 -208 211 0
-53 57 -69 0
-17 -94 106 0
-16 -119 -187 0
-58 81 176 0
-33 98 107 0
-31 167 -180 0
57 72 118 0
-29 -33 -172 0
-60 -137 -218 0
-127 -157 -201 0
61 121 -164 0
71 -111 174 0
110 170 203 0
37 84 168 0
87 107 -194 0
83 87 101 0
-56 -76 -222 0
94 -183 -213 0
161 -195 -223 0
-89 93 -198 0
160 180 225 0
69 -121 191 0
-123 147 -170 0
105 -119 172 0
-69 -158 -198 0
20 -99 -126 0
-41 -129 -163 0
-113 139 -222 0
-157 -166 219 0
11 158 168 0
77 -115 -206 0
11 176 -180 0
26 -54 166 0
51 -179 -213 0
-20 -107 118 0
62 -145 -174 0
69 -130 -150 0
49 127 -195 0
42 45 -160 0
112 -114 -123 0
-57 -64 194 0
26 -48 60 0
-60 -141 150 0
71 96 -216 0
111 -114 -161 0
2 -69 -163 0
-38 107 -170 0
10 90 -177 0
105 108 -209 0
15 -177 -196 0
-70 -148 215 0
-1 -45 -50 0
-3 79 128 0
6 11 -165 0
-161 199 220 0
-2 38 -52 0
75 -150 208 0
182 -188 192 0
81 128 139 0
-4 -15 -70 0
-6 -10 12 0
2 76 125 0
38 -70 205 0
22 32 -93 0
-47 116 -189 0
15 -73 211 0
-6 56 187 0
-14 92 201 0
16 25 46 0
-65 168 -218 0
33 -197 208 0
125 -162 196 0
-36 -92 109 0
46 -90 182 0
-78 -142 216 0
-34 71 88 0
14 74 -188 0
-6 14 94 0
-103 126 -137 0
63 152 -166 0
-5 85 -172 0
103 182 -221 0
21 27 45 0
29 -69 -194 0
-39 -83 124 0
-51 85 167 0
100 -131 191 0
16 -122 -155 0
2 -112 153 0
-6 -47 -137 0
-82 -173 215 0
81 -104 -210 0
-42 -58 -139 0
21 26 -194 0
12 -63 -116 0
-162 184 -190 0
-3 -70 -116 0
-19 -125 -206 0
-75 -209 -211 0
119 -140 -206 0
43 130 -189 0
140 144 -177 0
-83 93 -111 0
-110 -128 -205 0
-33 64 181 0
75 -77 126 0
84 -139 -210 0
50 -80 -209 0
37 -89 -162 0
-84 -124 -143 0
-75 86 -93 0
-90 -133 -142 0
-30 -100 -119 0
-166 182 -188 0
26 90 -181 0
-16 -25 117 0
-64 -97 -125 0
-55 -81 106 0
119 129 -150 0
-39 -136 175 0
37 97 -151 0
57 90 147 0
-11 -18 93 0
-73 121 -133 0
2 -57 87 0
3 104 152 0
95 172 188 0
-50 65 95 0
-115 -164 -186 0
-7 168 -212 0
-32 -57 72 0
-28 -93 196 0
104 156 189 0
-19 111 159 0
-64 -88 176 0
-22 104 -139 0
-12 100 102 0
27 53 183 0
-12 41 222 0
-86 -148 195 0
-79 -80 189 0
-183 -190 218 0
-3 -175 183 0
-32 35 -138 0
-39 51 -134 0
-52 127 -167 0
27 51 -62 0
31 151 -214 0
51 134 -173 0
1 -54 -148 0
-57 -91 -213 0
-94 -116 -138 0
-11 35 -47 0
-52 -77 222 0
-4 99 187 0
160 199 202 0
20 -24 -136 0
16 -19 155 0
-153 -161 -215 0
-192 198 -200 0
107 126 -205 0
14 -20 -183 0
26 -60 -66 0
-39 122 -142 0
-79 185 -217 0
33 -95 -120 0
-57 -96 -216 0
-6 55 -89 0
-27 -55 -212 0
135 -142 185 0
-93 106 196 0
-18 51 -57 0
162 163 -213 0
117 -202 -214 0
-120 -215 221 0
58 112 -162 0
31 73 -219 0
-24 -41 -188 0
34 142 -203 0
5 76 -142 0
-21 85 -156 0
1 111 141 0
97 -141 173 0
-50 -203 -224 0
13 -121 200 0
-34 -37 -50 0
-7 -75 173 0
22 95 132 0
72 -107 175 0
-78 -181 218 0
-35 180 -223 0
-2 38 79 0
74 164 -168 0
-45 147 171 0
99 -205 208 0
-70 -177 196 0
66 -91 148 0
-47 -117 -192 0
21 45 -214 0
47 -94 -222 0
2 -77 180 0
-10 67 -184 0
89 118 173 0
82 107 -149 0
20 27 -145 0
-2 97 -216 0
10 -133 170 0
-80 -109 -138 0
9 29 -161 0
-10 70 -90 0
32 78 -197 0
101 144 160 0
41 68 -221 0
-13 -127 171 0
-10 -119 -200 0
24 -92 103 0
84 -135 -218 0
-41 42 -136 0
-27 112 215 0
56 150 -192 0
21 -44 105 0
31 -114 146 0
106 160 -185 0
13 -110 111 0
-29 79 100 0
-164 -195 -200 0
40 89 186 0
-70 98 116 0
147 -151 155 0
134 -143 -188 0
79 107 -150 0
-31 71 -140 0
-16 150 199 0
-5 -96 154 0
-18 65 -133 0
-65 -132 149 0
95 99 -104 0
-44 -59 -203 0
-123 -177 -194 0
73 -117 -158 0
84 154 184 0
41 138 -162 0
55 167 188 0
-91 -175 192 0
-5 162 216 0
22 -31 -147 0
-53 60 -202 0
-18 -190 205 0
-56 137 -205 0
-40 70 -213 0
-21 -64 183 0
5 -53 -129 0
-40 -65 224 0
-57 138 225 0
-66 -128 207 0
42 125 -176 0
-3 -140 -205 0
38 177 189 0
14 58 -212 0
5 -115 159 0
-30 183 189 0
-52 -147 -157 0
-5 -48 -94 0
83 88 -127 0
-26 -27 72 0
-176 -179 197 0
30 -85 -213 0
21 -54 -103 0
-27 -153 -154 0
-126 168 174 0
-9 -42 -105 0
135 -183 -196 0
-53 150 -184 0
-32 109 -213 0
-92 -201 216 0
10 -131 -208 0
39 62 182 0
33 -109 -135 0
-49 -118 205 0
-23 -42 145 0
15 -64 -151 0
43 198 -210 0
-33 128 -168 0
4 -75 199 0
-19 -163 -208 0
32 92 -144 0
39 44 217 0
-118 131 224 0
-38 -88 -203 0
-130 149 152 0
71 -100 199 0
-57 -161 214 0
80 149 -170 0
-74 122 196 0
-20 65 -66 0
-49 -155 156 0
