c F1 random 3-CNF cnfgen RandomKCNF(3,225,959,seed=3) m/n=4.26
p cnf 225 959
61 -140 -152 0
17 -149 -161 0
-50 -60 -142 0
39 164 -221 0
4 172 190 0
-8 -78 -200 0
-110 -183 202 0
25 94 -225 0
-56 -67 -173 0
-99 -130 214 0
-8 87 -175 0
139 146 -147 0
-17 -32 73 0
-18 89 205 0
-76 110 197 0
155 -158 -195 0
72 130 -142 0
2 20 -28 0
68 75 -157 0
-36 -81 -93 0
99 -134 -223 0
163 -184 -185 0
-67 78 -134 0
-6 81 149 0
-86 -161 -163 0
-72 156 181 0
-6 -95 -174 0
82 -152 154 0
-81 -95 -195 0
27 198 -209 0
-57 129 -168 0
48 112 -174 0
86 -173 214 0
21 -87 -190 0
31 58 -202 0
148 -207 -215 0
165 -207 212 0
-75 -108 -133 0
-75 -107 163 0
40 -52 -106 0
57 -144 -184 0
59 -88 140 0
12 63 -208 0
-4 13 148 0
62 -77 129 0
30 -88 -157 0
-16 201 208 0
32 137 210 0
71 203 -207 0
-147 161 -221 0
-64 69 -159 0
83 199 210 0
12 -13 32 0
-23 -183 219 0
-19 -81 -90 0
-49 -68 93 0
-1 33 143 0
-11 96 -118 0
-14 -96 -161 0
108 118 178 0
70 -138 178 0
-8 -34 -110 0
32 -119 177 0
82 145 -188 0
-37 61 199 0
-26 145 169 0
88 216 219 0
-124 -173 215 0
10 145 197 0
-16 141 142 0
47 -62 -166 0
-65 -95 -154 0
22 -97 129 0
-107 146 -177 0
-25 -39 -42 0
151 185 -220 0
-38 51 -193 0
-172 -181 219 0
-6 -69 79 0
45 -93 -146 0
-37 -199 222 0
120 -149 214 0
103 -201 220 0
61 166 -184 0
-49 62 199 0
160 -173 181 0
12 -81 222 0
22 187 -205 0
-10 -75 -214 0
-2 -8 -86 0
-20 -54 125 0
-31 82 -140 0
-29 113 -136 0
-95 -174 -198 0
28 -87 -194 0
16 76 184 0
95 117 168 0
-85 -166 185 0
80 118 124 0
-47 -184 194 0
69 70 99 0
70 -123 -130 0
104 -115 -139 0
-29 39 217 0
145 187 200 0
-107 146 172 0
102 205 221 0
-52 -65 223 0
-114 -206 -216 0
-80 -142 -150 0
8 49 154 0
-45 126 135 0
55 -136 201 0
73 145 -169 0
23 160 -203 0
60 -130 159 0
-83 85 87 0
154 215 -220 0
17 -53 207 0
28 -81 125 0
52 -181 -217 0
-18 122 -180 0
-6 -78 -119 0
-10 -47 -117 0
-93 115 136 0
-54 67 -206 0
41 50 137 0
104 129 150 0
-29 -44 156 0
-6 -16 -216 0
9 105 -181 0
11 102 127 0
25 100 -122 0
30 89 -160 0
-71 -120 202 0
-8 -69 -144 0
-15 24 175 0
8 27 175 0
10 124 -129 0
-52 -123 -194 0
-9 -98 169 0
-48 76 -218 0
-86 138 -141 0
92 -142 -214 0
-59 -113 -114 0
-44 -130 211 0
40 -44 182 0
174 -178 195 0
154 206 -216 0
-120 -188 223 0
19 -50 -103 0
21 29 116 0
37 40 166 0
-54 -57 74 0
46 120 160 0
7 154 -220 0
-22 28 120 0
-125 -165 -195 0
-29 -75 200 0
-2 -30 139 0
-50 88 -89 0
109 166 201 0
-16 90 -215 0
22 -65 113 0
53 -186 -192 0
-49 -95 -160 0
-9 121 151 0
8 -25 185 0
11 121 -164 0
-10 -111 126 0
74 192 -201 0
77 106 114 0
-125 -196 -208 0
-42 -80 111 0
-74 93 -219 0
-92 96 207 0
4 34 162 0
-1 -13 -53 0
9 126 142 0
71 87 -111 0
-64 -68 -80 0
-8 12 87 0
145 195 -207 0
-131 193 -213 0
5 -12 44 0
-118 -120 209 0
19 47 -76 0
-91 -114 -199 0
73 -116 136 0
-10 106 -134 0
70 -150 157 0
-33 72 -125 0
20 -96 -172 0
50 -80 -89 0
13 70 -81 0
-82 101 157 0
65 -106 107 0
21 52 189 0
-18 -73 -178 0
69 75 119 0
37 44 -125 0
102 166 -173 0
14 -47 195 0
34 167 211 0
55 -98 -137 0
7 47 72 0
-33 -38 76 0
2 -50 95 0
-17 91 -140 0
-6 -122 -190 0
-79 119 -138 0
-52 99 -214 0
-43 -216 220 0
14 -34 155 0
4 30 -147 0
-96 146 -176 0
-113 139 149 0
-83 -117 -130 0
-154 -180 -198 0
47 70 -77 0
-64 -166 -187 0
-34 116 -123 0
-14 -18 -159 0
-16 -61 219 0
20 94 -132 0
-31 -111 188 0
-77 -96 -130 0
96 -167 176 0
-1 57 83 0
-21 -36 -54 0
-8 -51 -138 0
185 -213 -215 0
-31 150 -175 0
36 74 79 0
22 -111 -154 0
2 -126 -214 0
-36 -53 -100 0
25 74 -164 0
-191 193 225 0
84 -109 -123 0
58 -83 150 0
14 133 165 0
-47 -60 -211 0
89 117 -170 0
-35 -88 -151 0
150 -197 221 0
-111 185 -220 0
56 219 -224 0
31 -102 129 0
-10 84 -194 0
175 214 -218 0
58 -94 -100 0
-14 68 89 0
57 78 114 0
54 -124 180 0
-45 -176 193 0
-78 114 161 0
-138 -202 221 0
-46 -69 149 0
-100 -129 -210 0
124 159 -195 0
87 -188 222 0
-38 -90 136 0
-96 115 -221 0
52 -163 -211 0
-83 106 -139 0
-144 -174 -189 0
47 -95 146 0
99 -145 214 0
82 -125 -186 0
-51 105 142 0
124 156 180 0
26 -31 -142 0
-17 -71 -102 0
31 59 -67 0
-38 -96 112 0
68 147 200 0
-67 89 203 0
35 181 -223 0
30 84 86 0
69 -126 -171 0
-110 -130 -191 0
-70 76 140 0
9 44 111 0
-54 -130 187 0
-143 145 161 0
41 -56 -190 0
39 -74 190 0
23 36 67 0
-2 -22 -179 0
46 68 -180 0
107 175 179 0
-87 -133 186 0
-12 55 -206 0
84 -171 -185 0
-2 61 205 0
41 -101 -107 0
30 -140 147 0
-7 104 151 0
-117 -131 146 0
-110 134 151 0
116 -129 204 0
-33 113 133 0
76 94 -135 0
18 -123 206 0
3 6 -122 0
-4 -13 -89 0
-77 126 -200 0
-23 145 161 0
50 61 -175 0
136 192 197 0
78 -132 173 0
93 -128 -174 0
-101 -144 -201 0
-8 -83 -155 0
-122 192 -202 0
-25 -68 -167 0
-52 185 193 0
-13 150 -157 0
26 -47 -82 0
-108 -111 -145 0
-11 -94 -210 0
57 70 135 0
-8 156 -197 0
-97 123 -129 0
15 102 166 0
145 176 -205 0
30 132 199 0
76 -141 -219 0
-38 -41 -56 0
114 -132 161 0
-82 88 152 0
22 -51 73 0
-57 219 224 0
78 86 -143 0
-1 130 165 0
72 -193 -210 0
-40 53 75 0
143 -161 -201 0
-15 -65 -137 0
-52 135 -213 0
23 -90 -171 0
89 -184 204 0
32 148 -156 0
44 -89 154 0
30 -82 -200 0
-6 -75 -143 0
44 124 197 0
-95 -217 -219 0
-51 -133 -217 0
93 -94 -179 0
-127 138 -145 0
19 79 184 0
45 -169 -222 0
21 93 -139 0
4 -157 225 0
-28 -165 -194 0
-3 118 204 0
24 171 196 0
-22 72 170 0
13 113 184 0
-84 -114 181 0
50 180 -221 0
-33 -180 -217 0
-35 -121 172 0
-43 -60 -195 0
-62 -134 -179 0
89 -193 -197 0
-19 -48 -99 0
111 131 -211 0
-2 -154 188 0
-118 -165 -167 0
190 -199 213 0
-19 -177 -218 0
-43 52 -183 0
1 -46 52 0
75 95 169 0
-78 84 -113 0
-46 -76 -201 0
-122 133 220 0
-10 52 -142 0
2 -46 211 0
-25 44 -84 0
131 163 182 0
-37 82 -174 0
-201 -210 221 0
-110 117 -172 0
6 -104 -216 0
32 79 94 0
-12 -105 191 0
-20 176 -217 0
-48 -95 110 0
-60 154 -179 0
-91 95 178 0
1 94 -189 0
-36 -50 68 0
-104 -193 -212 0
24 53 -97 0
-92 -203 -212 0
-144 166 -199 0
-20 -74 133 0
-50 178 188 0
-60 -96 134 0
31 167 -193 0
-9 -218 -219 0
33 -135 191 0
-122 -197 206 0
-42 174 220 0
-4 91 -210 0
-30 -111 -160 0
-78 91 -209 0
-19 -50 175 0
18 -68 -140 0
164 -195 -212 0
13 20 147 0
58 160 -168 0
44 137 -197 0
6 -117 129 0
98 107 202 0
-18 23 181 0
-23 48 -114 0
40 129 169 0
-72 125 165 0
-77 160 211 0
41 -159 161 0
61 198 201 0
81 -143 225 0
23 -76 113 0
31 104 -219 0
-26 33 -120 0
-30 61 214 0
8 20 -122 0
-86 -156 -210 0
-20 28 214 0
10 81 -92 0
-7 -31 221 0
-108 211 -219 0
-40 88 217 0
-83 -149 201 0
22 -66 100 0
-19 79 100 0
-57 -133 -186 0
178 204 208 0
-45 -62 -130 0
-102 -152 -207 0
-98 137 -203 0
-21 -28 -99 0
-25 -60 77 0
-28 -150 223 0
77 -113 -182 0
19 36 152 0
-106 -123 -134 0
4 -40 -201 0
27 63 -116 0
-29 -146 174 0
80 -93 -164 0
1 -85 193 0
2 -22 -65 0
-18 123 -162 0
-5 78 -218 0
40 64 112 0
30 64 -222 0
81 -115 203 0
-20 29 -88 0
-45 213 -215 0
86 96 -143 0
22 -88 215 0
-24 -34 -224 0
75 -129 134 0
27 50 -211 0
52 81 165 0
40 -180 -221 0
61 194 -203 0
-3 -63 184 0
-95 -96 -117 0
113 -148 200 0
-67 176 -179 0
-51 79 -183 0
30 -128 131 0
-13 16 86 0
67 -78 95 0
-39 81 -134 0
83 -109 225 0
-32 147 219 0
-5 -125 -132 0
-54 73 74 0
31 110 170 0
116 -130 -218 0
110 -160 180 0
-3 -97 -213 0
41 91 215 0
33 45 -202 0
-3 105 114 0
-84 -130 197 0
-55 -62 150 0
-128 -191 216 0
-23 87 -194 0
-112 -113 137 0
-8 141 148 0
-75 -114 -212 0
-22 72 -132 0
-58 71 110 0
-53 122 143 0
-6 -126 -143 0
-97 -155 -179 0
151 -163 182 0
47 -64 -150 0
-17 -50 -73 0
56 83 -181 0
-23 -81 152 0
34 -149 179 0
34 45 -225 0
-168 -215 220 0
-82 -140 -172 0
138 -148 -176 0
-33 74 -161 0
-93 119 154 0
-4 -110 -225 0
-75 92 -120 0
31 41 212 0
-73 -96 -218 0
2 198 -215 0
-117 -149 161 0
-83 -155 206 0
127 164 194 0
-18 -34 -199 0
-35 169 -202 0
-97 -168 180 0
-12 24 125 0
-6 97 -191 0
172 182 -219 0
-121 -162 196 0
31 -80 -154 0
64 -71 175 0
66 -122 -142 0
23 -169 -209 0
-86 -161 222 0
72 -78 94 0
40 -91 131 0
-146 164 -216 0
189 198 223 0
-22 194 196 0
-53 -143 -178 0
-61 94 -188 0
51 -97 -194 0
-1 -52 195 0
-16 88 200 0
120 -135 -188 0
-90 -93 -142 0
-48 -67 -97 0
5 19 113 0
-96 -126 216 0
-25 -123 -145 0
6 148 222 0
-94 109 -167 0
-74 135 182 0
-1 68 129 0
-47 100 -156 0
-10 11 207 0
86 158 -222 0
87 -156 191 0
70 121 203 0
-41 56 138 0
8 -99 -113 0
-38 -58 -164 0
-117 -188 -216 0
-14 -101 181 0
95 144 -219 0
52 194 -209 0
-36 177 -178 0
32 -137 167 0
-6 -130 214 0
-6 101 -131 0
-20 -116 -117 0
-56 126 136 0
22 23 -187 0
26 56 -62 0
-20 46 -73 0
11 -13 -95 0
-87 -139 219 0
141 -174 216 0
103 104 208 0
-34 -37 161 0
-27 45 -160 0
27 -194 217 0
-114 194 195 0
-70 -167 171 0
81 142 -218 0
48 -110 -172 0
41 179 -220 0
11 52 -130 0
-72 79 85 0
-51 -74 -178 0
82 -140 -175 0
50 -92 166 0
-18 -77 171 0
29 177 -201 0
49 -56 -218 0
151 204 -218 0
-12 -39 -217 0
-45 -113 192 0
48 67 -163 0
-91 -145 -182 0
-98 -167 191 0
-10 -97 121 0
44 115 154 0
57 -76 196 0
-48 -79 -194 0
-17 -43 -85 0
-9 -121 -204 0
28 188 -225 0
-42 -154 -218 0
31 -32 57 0
-101 107 165 0
-11 -154 157 0
67 126 141 0
21 -110 -138 0
-36 73 168 0
-35 64 127 0
-91 149 -177 0
-25 177 203 0
70 172 177 0
19 -43 -92 0
25 -39 46 0
73 97 145 0
16 -180 185 0
17 127 -140 0
-26 -34 196 0
7 -12 146 0
67 174 -207 0
113 156 -200 0
13 -172 202 0
121 129 -222 0
-61 -69 -173 0
-82 151 -205 0
-102 -121 -151 0
-19 173 -220 0
-43 -50 -121 0
-94 127 131 0
-17 50 96 0
42 63 138 0
74 203 -217 0
133 174 200 0
64 130 153 0
-151 -165 217 0
153 183 -184 0
-62 108 -193 0
-120 -132 -184 0
-30 57 164 0
19 34 124 0
114 -122 -139 0
11 -19 112 0
-46 -217 222 0
21 -103 -108 0
-55 -137 -212 0
93 110 210 0
-42 109 -114 0
38 -92 -197 0
-8 -77 -115 0
69 -88 111 0
-3 -25 115 0
-2 66 -129 0
-7 -82 196 0
146 -164 -193 0
-7 31 -134 0
8 73 175 0
-8 152 192 0
85 146 164 0
-70 -83 182 0
-53 -182 -220 0
-48 78 217 0
102 -118 -168 0
27 -118 -119 0
-95 -117 -153 0
60 94 154 0
-2 122 -169 0
9 14 -62 0
-90 131 -202 0
73 97 -112 0
4 -171 -214 0
-8 -173 -184 0
-17 102 146 0
-39 -117 123 0
-49 142 -209 0
-47 192 202 0
65 145 -153 0
30 93 105 0
102 187 197 0
55 -131 213 0
-112 209 213 0
-30 58 185 0
129 145 -206 0
51 -133 -199 0
1 15 223 0
20 -128 144 0
-8 107 -127 0
24 -134 156 0
83 -173 213 0
-54 75 -209 0
-85 -87 201 0
31 40 -105 0
166 169 215 0
-11 62 221 0
-45 92 -162 0
-84 99 -115 0
-65 169 194 0
18 112 -201 0
-86 99 208 0
6 13 -221 0
40 -212 220 0
-79 -208 -219 0
81 -139 -140 0
7 43 -137 0
46 -108 -219 0
76 -193 -203 0
-32 91 -189 0
146 -152 -171 0
-55 -174 205 0
-25 -44 117 0
170 -182 185 0
-32 37 105 0
21 84 -224 0
-90 97 110 0
-11 -50 223 0
75 112 173 0
16 46 85 0
-41 66 -217 0
88 -148 -209 0
-8 -47 -124 0
-17 -80 133 0
-34 203 -225 0
-6 -103 -194 0
71 -108 -138 0
64 -71 -166 0
-33 139 173 0
97 -165 204 0
-176 -177 -187 0
-71 -96 -178 0
87 105 -116 0
-48 136 198 0
56 -137 215 0
-24 126 -213 0
-59 133 -168 0
-41 71 82 0
-71 157 194 0
-74 -83 219 0
-13 -49 100 0
-36 -149 214 0
-98 -187 205 0
-38 52 -193 0
37 -85 -221 0
13 -41 -47 0
88 202 210 0
-82 -163 -217 0
34 -75 223 0
-5 79 -143 0
-76 102 -183 0
-62 169 221 0
-66 -147 -182 0
-22 56 -191 0
-90 159 218 0
-15 74 -155 0
52 87 93 0
118 -147 197 0
-95 99 -119 0
6 74 146 0
50 -62 87 0
25 -136 196 0
21 117 187 0
-68 151 -199 0
-23 -91 200 0
-49 -52 -121 0
17 -60 220 0
-39 101 123 0
57 106 -160 0
-12 177 217 0
-3 -21 -187 0
-99 -158 -167 0
78 92 215 0
-36 -112 -146 0
107 -189 -192 0
28 -49 -70 0
1 81 140 0
30 -39 100 0
66 132 -169 0
77 141 -199 0
-10 124 -173 0
-29 145 -206 0
-57 -68 208 0
38 -141 190 0
114 -120 -216 0
35 75 140 0
30 -83 -85 0
107 166 -221 0
121 196 -214 0
-2 -39 -202 0
7 -135 -201 0
22 63 167 0
43 -80 -86 0
-96 150 -159 0
167 172 -181 0
5 -7 19 0
-57 148 -156 0
-4 5 -15 0
-40 59 141 0
-35 -176 -198 0
179 183 -187 0
-47 85 222 0
-28 -34 -203 0
9 -109 136 0
-39 -78 -195 0
-132 -195 -198 0
77 184 220 0
-150 202 -222 0
204 -222 224 0
-25 36 -43 0
59 76 85 0
-137 -158 200 0
55 112 -212 0
133 -181 184 0
128 -177 216 0
-3 36 -224 0
-53 63 -209 0
-12 119 162 0
100 -217 -222 0
-16 -110 221 0
9 87 -100 0
-98 -172 -210 0
69 80 -204 0
105 -121 -165 0
-34 -207 -219 0
4 -54 103 0
-119 -170 200 0
-13 150 -193 0
76 125 -213 0
-57 136 -175 0
-41 -59 225 0
-73 -163 218 0
-33 83 145 0
110 117 -208 0
25 -134 -184 0
29 103 -172 0
-16 95 -145 0
-6 63 198 0
50 66 156 0
-38 136 215 0
-93 -145 180 0
-16 -91 -112 0
-4 10 -42 0
-54 114 144 0
-1 -135 -140 0
95 141 -220 0
-77 143 178 0
34 117 173 0
5 -13 -55 0
99 -123 -162 0
-92 104 -109 0
-15 -17 118 0
-137 -145 -209 0
22 -82 165 0
-41 111 -144 0
-60 125 -172 0
-49 137 -206 0
21 -147 -159 0
-34 -53 183 0
-11 -13 -55 0
-94 138 -157 0
-4 -51 -198 0
7 -25 -38 0
-29 111 199 0
24 -88 -216 0
82 93 -205 0
-92 -126 132 0
-54 -146 185 0
38 -58 143 0
-109 -222 223 0
-66 134 147 0
-113 133 186 0
62 76 220 0
3 64 217 0
-101 -188 -204 0
41 -153 -215 0
-91 -151 -167 0
-96 199 212 0
-29 30 -43 0
42 -73 94 0
-69 137 -147 0
151 -180 211 0
-76 -88 126 0
32 104 132 0
-23 66 -223 0
45 129 224 0
-113 198 215 0
-14 -68 116 0
80 176 221 0
-86 -121 137 0
88 -180 203 0
-24 199 -223 0
15 -198 213 0
-9 -78 -97 0
111 -179 -201 0
-86 92 128 0
-29 50 225 0
57 -86 210 0
131 -171 209 0
36 -120 213 0
12 52 -133 0
108 -140 -209 0
10 125 -156 0
33 122 187 0
81 -98 105 0
84 145 156 0
-84 170 181 0
33 -131 -171 0
-65 81 171 0
-13 60 97 0
9 -118 -138 0
-28 -170 200 0
181 217 -224 0
-63 -90 -192 0
42 81 164 0
-12 -100 217 0
31 -54 -129 0
-13 74 -122 0
-94 205 -207 0
-17 51 -145 0
-52 73 -184 0
14 -69 73 0
-124 -139 -174 0
-80 -95 -113 0
-38 -172 -197 0
41 -59 163 0
-81 -164 169 0
32 62 127 0
-109 131 206 0
80 110 -130 0
-62 -80 -172 0
9 84 -196 0
-85 -86 116 0
-12 75 -140 0
84 170 -186 0
-167 196 206 0
2 63 84 0
12 44 82 0
-50 -98 192 0
10 -131 -221 0
-68 -91 125 0
55 138 205 0
40 100 -191 0
7 155 197 0
-15 78 -216 0
-11 121 195 0
-68 -96 -225 0
-26 28 -215 0
82 102 -193 0
27 -110 151 0
11 -22 -127 0
-9 42 58 0
70 120 -153 0
