c F1 random 3-CNF cnfgen RandomKCNF(3,225,959,seed=12) m/n=4.26
p cnf 225 959
-69 122 -169 0
-3 -96 124 0
1 -143 -170 0
42 54 87 0
-132 -176 210 0
5 16 -210 0
-29 114 -170 0
42 143 160 0
-103 -108 -156 0
8 139 -165 0
-92 -93 222 0
-61 -65 86 0
-8 98 211 0
57 -110 173 0
27 156 198 0
-10 -71 -179 0
89 -155 -164 0
-54 -73 -87 0
-43 62 119 0
57 -192 -197 0
46 62 204 0
30 93 -159 0
-172 202 213 0
-129 -135 -201 0
68 -114 -176 0
-12 -158 -224 0
-55 -181 203 0
1 175 -178 0
36 -62 -108 0
-16 144 -146 0
-24 111 -151 0
-95 164 189 0
40 177 182 0
-52 107 -137 0
-49 70 80 0
-137 154 180 0
83 -92 105 0
-24 -176 185 0
-169 -174 195 0
-8 -54 125 0
-15 -153 171 0
25 -58 -84 0
-52 -72 218 0
-38 129 -133 0
100 -129 -156 0
13 -202 -219 0
113 134 -173 0
90 -188 -196 0
79 93 -162 0
58 -140 -206 0
-12 -110 -206 0
-73 -154 161 0
33 -67 -165 0
-109 -159 -169 0
-98 -127 197 0
-44 53 -202 0
-14 -134 223 0
80 220 -222 0
4 11 208 0
-51 184 208 0
80 140 -199 0
128 -138 176 0
2 -136 -167 0
-76 -120 -163 0
-8 133 184 0
-126 194 -220 0
-104 141 156 0
16 -60 90 0
15 207 215 0
29 145 -176 0
-53 -118 -162 0
62 -101 205 0
-176 196 -204 0
32 -125 154 0
-32 -51 -59 0
-104 -194 -212 0
-196 -208 221 0
-138 160 163 0
69 -88 -99 0
65 88 -108 0
45 -93 -141 0
-80 -86 -96 0
-19 45 -160 0
-94 158 -159 0
-86 87 -169 0
19 -138 166 0
-24 125 -208 0
18 59 73 0
32 71 -164 0
80 -118 -191 0
-100 -113 120 0
-62 -135 -152 0
35 79 -103 0
-75 100 -173 0
-46 -81 -148 0
14 -37 213 0
63 79 136 0
-142 -200 -213 0
24 50 -154 0
-66 136 221 0
54 196 -217 0
-9 137 -140 0
48 -134 -159 0
-6 -99 127 0
-20 -134 140 0
-96 130 217 0
-19 -86 204 0
-72 77 105 0
-74 -167 -223 0
22 32 168 0
17 39 155 0
-141 212 -221 0
-5 -38 -170 0
84 -180 193 0
-74 111 194 0
-6 -91 160 0
-96 -126 -157 0
11 -78 -145 0
-15 36 215 0
17 -23 -32 0
-12 69 -200 0
-14 -82 87 0
57 159 -221 0
42 -127 -207 0
49 87 -181 0
40 115 -184 0
46 -55 -66 0
116 -133 -176 0
44 52 217 0
-43 139 180 0
-60 121 187 0
23 118 -220 0
38 -71 -204 0
-21 42 -101 0
11 116 -154 0
143 197 221 0
3 -32 -188 0
-23 54 143 0
18 -76 204 0
3 86 216 0
-3 -69 -195 0
31 -92 185 0
-112 -180 -225 0
-28 84 -93 0
-66 -197 -200 0
-2 22 31 0
-59 -113 128 0
-24 41 -156 0
77 80 142 0
-51 -81 -224 0
45 183 -194 0
-21 -34 160 0
-71 82 -119 0
6 -87 -88 0
50 -61 69 0
53 184 -200 0
14 28 -204 0
-23 138 220 0
31 112 -160 0
48 123 -215 0
26 87 -110 0
30 114 -194 0
14 -15 132 0
-43 -80 140 0
32 -85 221 0
-16 -121 -165 0
110 -128 -219 0
34 -51 -161 0
-44 -60 185 0
38 54 212 0
-127 144 -208 0
42 -112 -170 0
-45 82 175 0
27 -139 -224 0
-73 -116 -145 0
17 169 178 0
129 138 139 0
7 -16 -137 0
-8 -113 160 0
16 -46 90 0
-69 -164 172 0
-54 101 176 0
-41 -54 186 0
41 161 196 0
-38 -147 -199 0
-32 -99 130 0
-38 -57 -174 0
-31 -174 207 0
-53 62 177 0
10 -104 -220 0
12 -39 -60 0
12 89 177 0
-72 152 206 0
96 126 -209 0
-81 93 -197 0
-182 196 221 0
-35 -76 121 0
17 178 193 0
-37 191 -197 0
29 -178 -219 0
124 142 -174 0
-52 107 184 0
139 -154 -219 0
-75 -118 222 0
38 70 224 0
84 156 160 0
-45 -118 201 0
79 -139 -210 0
-107 -125 -148 0
-79 119 -182 0
-45 -148 166 0
89 -132 -137 0
-37 42 -206 0
-36 -57 78 0
-23 -58 -210 0
-27 -55 -190 0
91 114 -157 0
-22 41 -144 0
9 -123 -139 0
-109 147 223 0
-59 -143 -187 0
68 -187 -212 0
9 88 161 0
23 43 67 0
124 -158 224 0
-2 -70 202 0
-3 87 131 0
-89 -167 -200 0
-6 -118 -154 0
-8 -39 -135 0
105 -130 -175 0
160 167 -212 0
-15 -56 144 0
28 72 -156 0
13 135 -198 0
-6 -20 -98 0
25 -131 -213 0
132 -162 -167 0
-44 -143 145 0
128 -199 -216 0
-3 29 -159 0
67 -80 213 0
-88 -144 181 0
-103 -166 215 0
-21 66 143 0
2 88 -120 0
-1 142 -196 0
17 -147 221 0
-88 -116 -219 0
7 45 112 0
19 93 -98 0
113 117 -162 0
-67 94 117 0
25 -75 -208 0
38 -155 176 0
63 -93 145 0
10 172 -221 0
-65 -123 -132 0
-60 133 218 0
19 170 -201 0
88 -89 109 0
-9 -151 156 0
-70 115 210 0
-123 147 198 0
80 82 179 0
-140 -182 208 0
90 176 215 0
-86 -183 -189 0
147 164 216 0
79 112 -213 0
47 -190 -202 0
-34 101 219 0
8 81 -141 0
-53 -77 199 0
67 -78 131 0
1 -41 77 0
-128 -199 202 0
-19 -70 222 0
-3 45 115 0
-50 166 -213 0
39 -173 -194 0
32 -154 188 0
14 31 -205 0
13 -33 176 0
-48 117 139 0
-37 90 176 0
18 -166 -215 0
66 105 208 0
57 -59 114 0
90 160 -208 0
-186 193 -206 0
-24 -34 -67 0
30 -43 -79 0
39 -113 192 0
42 -135 -213 0
46 108 208 0
-56 -184 -188 0
-97 135 222 0
-6 -12 149 0
34 -38 -143 0
-66 -85 -201 0
-30 -55 -74 0
-61 -151 162 0
14 46 101 0
19 134 149 0
91 -106 223 0
-53 80 175 0
-27 86 -159 0
44 -52 -184 0
-54 -121 -181 0
3 -94 214 0
-11 63 152 0
-51 -90 136 0
-57 -64 -71 0
-50 -70 -185 0
65 88 -187 0
88 -196 -197 0
-52 143 -176 0
-93 109 -145 0
-57 -98 166 0
-62 139 181 0
21 127 172 0
-68 79 136 0
54 154 -211 0
-26 -83 -88 0
39 86 -163 0
-17 -18 -179 0
57 172 -221 0
7 -137 217 0
-105 115 199 0
58 94 -218 0
149 150 -158 0
144 169 183 0
-66 126 177 0
-31 50 93 0
50 53 70 0
94 95 -216 0
-114 -167 -210 0
141 162 -207 0
-42 -106 183 0
-111 -207 -211 0
9 -73 151 0
27 155 205 0
25 -37 -165 0
25 -195 -212 0
-15 24 -30 0
104 156 163 0
40 -55 -111 0
-37 42 152 0
-1 6 56 0
51 -79 -102 0
98 -124 224 0
26 -32 64 0
-65 79 220 0
68 116 -205 0
37 -129 -168 0
-73 -129 216 0
-28 -192 218 0
83 -120 176 0
113 188 205 0
-53 -73 180 0
79 97 -184 0
19 -25 -107 0
-74 -122 -224 0
44 -59 -188 0
-7 -174 213 0
55 160 200 0
155 -158 -186 0
2 -59 -215 0
-24 -129 140 0
-12 132 147 0
-27 45 -98 0
-74 -157 -223 0
6 91 147 0
10 -73 170 0
13 -28 -177 0
-27 66 170 0
36 -170 -185 0
-93 -135 -140 0
-59 -172 186 0
-35 -72 106 0
12 42 -141 0
22 -51 -177 0
3 -76 208 0
1 -7 79 0
56 142 -198 0
-17 24 77 0
50 86 204 0
17 52 -62 0
-9 -53 94 0
-14 -49 -109 0
-33 -49 -129 0
19 24 52 0
46 69 -155 0
-17 -66 153 0
100 141 -142 0
-19 -195 216 0
167 191 -200 0
62 115 -198 0
103 -197 -212 0
-8 -24 -172 0
-9 -86 187 0
70 97 -132 0
-2 63 79 0
-45 97 -100 0
-129 -219 223 0
-86 -102 215 0
25 175 193 0
55 92 -185 0
-7 -71 115 0
185 187 -213 0
69 -87 -130 0
156 215 221 0
-19 -24 -101 0
-14 -155 -192 0
46 81 -95 0
80 157 217 0
92 -95 -96 0
-74 -143 -149 0
-29 75 -162 0
41 129 -198 0
-87 122 169 0
-73 149 177 0
85 -155 -179 0
-55 -62 -133 0
153 167 175 0
9 -65 -198 0
22 75 -105 0
7 45 -71 0
53 100 -103 0
17 -148 -221 0
-151 -161 -181 0
-11 -41 134 0
5 -119 -185 0
50 -140 -198 0
149 171 -202 0
-65 108 -168 0
-14 28 -121 0
49 58 72 0
-23 35 85 0
-38 -103 108 0
67 -143 -182 0
15 -115 -188 0
-9 36 133 0
54 -64 -163 0
-99 -198 219 0
22 127 193 0
-16 -29 161 0
6 83 168 0
85 126 148 0
51 -55 -207 0
-147 -173 -211 0
59 -118 -209 0
61 -171 -222 0
129 182 218 0
9 -58 74 0
-20 -68 87 0
-92 190 201 0
-86 -89 -162 0
85 -103 207 0
-76 154 172 0
-7 83 174 0
-73 188 212 0
-17 44 51 0
-55 -69 -222 0
32 -84 222 0
-63 -109 191 0
-60 -78 212 0
18 -21 115 0
-39 72 -109 0
178 197 -205 0
-2 42 145 0
13 -82 -113 0
-16 -182 209 0
-153 -192 -221 0
31 34 -55 0
36 126 -136 0
70 -125 -209 0
-53 -86 201 0
-69 110 -192 0
-105 -183 -191 0
52 -131 225 0
-7 15 -134 0
-43 -49 -79 0
-48 -103 -169 0
43 64 211 0
-43 116 141 0
27 28 101 0
-127 -162 225 0
9 -125 -193 0
-14 -75 -161 0
-14 19 -207 0
-29 -75 125 0
23 167 169 0
-45 -183 -198 0
-46 111 219 0
-23 -64 208 0
-17 167 -175 0
-97 -133 -208 0
-173 -198 220 0
-17 56 133 0
83 -171 196 0
-7 -86 97 0
27 175 -189 0
61 -117 210 0
21 -150 -213 0
-102 167 190 0
-158 198 214 0
106 -127 -134 0
79 -128 -225 0
122 -157 -213 0
19 -104 -186 0
85 86 103 0
-46 -141 -218 0
1 158 214 0
-24 175 -205 0
-127 -188 -189 0
-22 31 -183 0
85 -123 -144 0
4 87 147 0
117 -158 -211 0
-126 -178 -194 0
82 92 -125 0
-58 -100 -223 0
71 -84 -93 0
-29 82 -108 0
-18 87 91 0
94 -164 222 0
-26 40 -106 0
62 166 -199 0
25 -43 -174 0
-4 -44 -88 0
-3 -178 -194 0
-3 -6 52 0
93 -101 207 0
3 127 -190 0
11 -82 -116 0
73 146 -188 0
133 -160 196 0
-49 -69 177 0
13 21 176 0
-4 90 -136 0
26 80 167 0
80 169 -216 0
8 -101 192 0
-49 159 171 0
-53 -116 -144 0
15 -161 199 0
12 138 -197 0
-99 -101 104 0
63 145 216 0
21 62 -186 0
-181 -197 -205 0
4 41 -63 0
31 65 -159 0
-78 -214 -215 0
16 -79 -160 0
55 -96 -149 0
-3 7 200 0
26 138 218 0
-75 -157 214 0
22 73 172 0
-15 49 79 0
-96 104 -165 0
-68 78 150 0
123 -156 -214 0
-129 -211 -220 0
-1 68 87 0
88 -144 162 0
67 -156 -216 0
-53 75 -158 0
-85 101 117 0
-59 89 150 0
131 -168 -222 0
37 149 -189 0
-52 -96 -128 0
-98 181 -225 0
-1 8 139 0
38 45 -113 0
-70 125 162 0
-39 -53 132 0
8 112 219 0
122 -142 -178 0
1 39 211 0
-31 -46 -85 0
105 129 203 0
86 193 -195 0
-48 113 -181 0
-15 -69 150 0
-68 -79 -181 0
32 -39 -70 0
15 -44 -173 0
-28 52 56 0
-13 43 51 0
73 128 -172 0
-188 -191 -208 0
61 -111 -208 0
-91 127 -135 0
31 -55 64 0
56 -57 -208 0
61 -131 -176 0
36 90 -138 0
73 -187 -205 0
-4 -47 -109 0
-40 -100 140 0
-22 48 89 0
-179 196 -210 0
38 72 218 0
52 91 -107 0
115 122 185 0
-19 -47 141 0
49 -72 132 0
113 125 173 0
-44 -50 66 0
67 -86 136 0
-152 186 220 0
-7 23 -93 0
47 -165 185 0
-101 119 -181 0
68 108 148 0
63 -80 -172 0
-50 -76 151 0
35 -36 55 0
-95 -128 218 0
50 -57 129 0
43 112 204 0
86 -97 109 0
147 186 214 0
-2 -203 -212 0
-39 -192 214 0
111 -134 141 0
38 77 -83 0
60 -101 -187 0
-48 194 -195 0
-140 -162 205 0
76 -156 -219 0
-93 118 144 0
45 -48 -190 0
-5 -8 -83 0
-14 -147 -170 0
-69 194 212 0
50 -61 -78 0
-57 163 -176 0
-112 183 -220 0
49 206 214 0
1 47 55 0
29 -57 65 0
75 -96 172 0
98 -102 -124 0
49 -89 145 0
166 -191 209 0
25 -98 211 0
77 125 147 0
18 63 130 0
54 -179 189 0
-109 223 -224 0
32 145 -194 0
-38 -62 120 0
-57 159 194 0
23 -50 76 0
-6 -101 -224 0
56 -102 -184 0
-141 -190 193 0
18 28 60 0
176 180 -189 0
-107 204 214 0
86 -144 167 0
-20 -135 204 0
-7 -127 -191 0
125 -154 -188 0
-71 148 -189 0
58 106 -213 0
6 -71 -90 0
88 -101 190 0
4 37 -93 0
-66 135 153 0
71 179 223 0
15 -144 212 0
-52 92 96 0
-39 -135 168 0
156 190 222 0
-57 -81 -123 0
40 169 206 0
2 127 202 0
-103 -145 -148 0
-65 129 -191 0
3 -104 -191 0
-47 201 -208 0
53 126 -158 0
98 212 -216 0
123 190 -216 0
-85 190 -222 0
-18 95 100 0
-93 106 134 0
69 106 -209 0
-22 67 -166 0
40 -129 134 0
-127 -153 199 0
-15 -99 -139 0
-100 146 163 0
-1 -76 -192 0
34 57 -125 0
38 121 -140 0
55 -141 200 0
-49 -73 85 0
-77 -195 216 0
37 -152 -218 0
79 189 220 0
-80 105 118 0
-81 -168 -172 0
-66 90 147 0
78 -129 138 0
91 128 -137 0
6 -91 -167 0
-4 -66 181 0
4 77 80 0
-45 79 111 0
126 -155 -163 0
16 -43 -181 0
-47 56 148 0
98 169 204 0
-25 -113 174 0
45 49 143 0
-49 -124 -189 0
10 92 166 0
31 71 -201 0
-58 -205 212 0
-20 26 -50 0
-60 81 131 0
127 153 202 0
-20 90 -144 0
-123 134 -167 0
3 -23 -108 0
-31 157 -193 0
-27 -57 205 0
98 104 205 0
-70 90 -221 0
-20 -31 -72 0
99 112 116 0
43 116 -193 0
9 48 -132 0
151 186 -211 0
76 -120 -213 0
-43 198 202 0
-85 140 -203 0
-20 -200 201 0
50 -101 115 0
72 83 116 0
-37 -86 -102 0
-5 24 -114 0
-103 -119 212 0
77 -152 -211 0
57 179 -224 0
54 -183 -202 0
110 115 182 0
13 40 101 0
-43 -127 -165 0
-22 -133 136 0
11 37 -64 0
-20 -83 -150 0
112 -138 -194 0
16 38 -42 0
133 149 178 0
-22 36 149 0
19 55 169 0
-65 -194 223 0
-99 137 168 0
-71 -118 201 0
-92 135 -146 0
124 -128 -158 0
53 89 96 0
-152 181 192 0
128 -132 196 0
-29 -53 -186 0
13 -40 47 0
9 111 -147 0
-64 65 -191 0
-2 -144 213 0
15 51 -157 0
63 116 -165 0
-54 -97 -211 0
-7 -191 -224 0
21 155 -166 0
112 -151 -173 0
-44 56 122 0
-149 -179 -208 0
101 -116 -123 0
69 138 219 0
101 -159 194 0
25 47 148 0
61 91 104 0
-4 -54 207 0
-52 72 -199 0
-95 107 -158 0
4 -81 -220 0
-117 135 -158 0
45 -58 -160 0
91 -96 138 0
-2 -75 -193 0
15 -39 -112 0
-6 -39 -81 0
4 -68 134 0
218 221 -225 0
81 85 102 0
-156 214 215 0
-56 -127 -200 0
20 -34 -61 0
1 138 204 0
25 104 111 0
148 -173 -198 0
15 22 -42 0
9 -52 -109 0
78 87 -137 0
-33 -91 113 0
70 -76 -141 0
48 -110 196 0
68 -82 116 0
-84 105 -191 0
100 -149 -218 0
11 27 53 0
-12 -51 127 0
-116 197 -200 0
82 164 -212 0
-6 -57 -136 0
16 -137 -201 0
21 -77 -205 0
-28 89 -163 0
3 -22 -215 0
92 -155 185 0
27 -78 111 0
-92 101 180 0
-22 51 -121 0
-82 156 214 0
-53 -173 219 0
3 -131 -211 0
-53 90 -134 0
-7 -13 222 0
71 -87 -105 0
88 162 188 0
93 -195 216 0
7 -107 212 0
-58 117 -141 0
79 100 176 0
-15 131 -220 0
69 -142 197 0
4 -43 130 0
43 -88 146 0
-29 140 -150 0
60 -166 169 0
-6 -85 -103 0
39 189 -207 0
-47 -201 213 0
63 -196 223 0
-53 114 -120 0
-12 -116 -220 0
-24 -147 164 0
6 -108 118 0
-10 133 199 0
59 88 -184 0
-106 -137 154 0
44 -56 -189 0
-84 164 220 0
-109 -127 135 0
168 -170 -175 0
-29 90 -171 0
-5 181 204 0
-1 -10 -31 0
-83 -136 175 0
25 38 -65 0
-194 202 223 0
-11 57 -221 0
5 -139 -218 0
-136 -148 195 0
102 106 -140 0
-17 -161 -202 0
-54 80 -191 0
79 93 141 0
-62 105 119 0
88 -169 215 0
-33 142 223 0
-4 -32 -63 0
161 187 -190 0
58 171 -215 0
-53 141 206 0
9 -109 -157 0
95 -179 205 0
29 128 200 0
-79 208 -218 0
-17 38 -181 0
-47 -151 185 0
29 120 -222 0
-44 -61 66 0
36 -127 148 0
2 124 183 0
58 -75 -172 0
19 -170 -183 0
1 -122 211 0
-61 -152 179 0
-41 81 -160 0
69 -134 -184 0
-8 -131 198 0
-2 -183 206 0
7 75 92 0
-36 127 223 0
-142 185 -215 0
-84 91 142 0
31 132 157 0
-58 66 -85 0
-31 87 104 0
63 75 210 0
-17 64 -194 0
8 -118 170 0
47 -171 -202 0
129 131 210 0
-151 180 -219 0
11 -33 -213 0
-55 166 185 0
-93 -128 -170 0
-82 192 201 0
-114 176 208 0
-51 73 -131 0
-49 -137 -181 0
-75 -156 -224 0
-114 134 -208 0
-74 -150 200 0
80 125 -190 0
49 119 165 0
30 -117 -128 0
-138 -210 225 0
118 170 222 0
-22 73 -222 0
-27 71 -78 0
28 -83 -126 0
33 -101 -207 0
52 81 -120 0
96 -137 163 0
-90 -151 187 0
-48 -122 -157 0
-130 -191 -212 0
52 196 220 0
-15 -109 -163 0
60 -70 83 0
-92 138 -157 0
48 81 -152 0
-6 -55 131 0
101 -145 -146 0
-38 71 -101 0
56 -120 157 0
37 -77 -183 0
51 165 -170 0
72 154 -224 0
-76 93 -160 0
-35 -133 -182 0
-92 -131 187 0
-98 110 176 0
-21 -32 -82 0
-53 -169 171 0
-120 -151 -206 0
-19 23 -177 0
