c F1 random 3-CNF cnfgen RandomKCNF(3,125,533,seed=4) m/n=4.26
p cnf 125 533
-14 -31 39 0
-3 -9 12 0
-29 -67 69 0
14 34 -106 0
25 -35 -103 0
-81 94 -112 0
50 65 86 0
-12 36 -61 0
-74 91 -113 0
-37 -55 77 0
30 34 40 0
-36 -60 81 0
-9 26 -87 0
-24 -36 46 0
13 42 -116 0
75 79 -98 0
-23 38 120 0
-11 -46 90 0
37 -42 124 0
-25 -38 80 0
33 -49 77 0
6 -47 -59 0
-13 38 -74 0
15 27 118 0
22 77 -95 0
32 42 -75 0
53 -84 100 0
-31 53 57 0
-32 54 -57 0
-5 25 33 0
-30 54 -99 0
-7 115 -119 0
84 -116 -124 0
12 -27 -56 0
-61 -85 103 0
-84 -88 -103 0
-10 64 123 0
51 -80 116 0
-22 -89 -112 0
28 50 119 0
-2 79 -113 0
-99 101 104 0
26 -113 -122 0
57 68 118 0
-15 -77 90 0
6 -11 -47 0
-10 -11 106 0
40 -50 -101 0
-10 -13 -15 0
-92 100 110 0
-39 -82 120 0
-22 72 103 0
-20 -42 -91 0
70 116 125 0
16 -40 -83 0
10 -67 -68 0
30 46 99 0
-41 -79 -117 0
-57 79 -80 0
-47 77 -99 0
11 -19 -78 0
-26 74 102 0
52 -83 -120 0
23 39 42 0
46 103 104 0
64 75 85 0
62 -84 -87 0
-31 77 -113 0
-30 -48 -96 0
-52 -65 -125 0
-2 53 -76 0
-72 -79 -89 0
4 -20 -80 0
40 -78 -102 0
-29 82 119 0
-9 31 119 0
-21 51 102 0
13 21 -97 0
11 -16 35 0
-20 84 94 0
47 72 -89 0
-20 -28 109 0
-21 -22 -49 0
43 -52 111 0
4 -36 55 0
11 15 21 0
2 -62 -71 0
23 44 -109 0
-80 -116 -117 0
5 -77 -95 0
-62 101 115 0
41 114 -115 0
-61 68 123 0
6 64 92 0
10 -44 87 0
65 106 114 0
36 80 123 0
19 -62 90 0
-95 -96 -114 0
52 78 -81 0
-9 -64 125 0
42 56 91 0
-56 -62 -114 0
-81 -119 122 0
33 36 -66 0
34 -37 78 0
22 101 -120 0
-28 86 -114 0
2 59 73 0
32 67 -108 0
38 73 112 0
92 96 116 0
-5 -34 -76 0
21 22 97 0
21 -88 -122 0
14 -26 -109 0
-64 -70 -77 0
52 96 108 0
-20 29 -46 0
-25 -74 -111 0
15 69 -91 0
24 28 69 0
-25 -38 106 0
-40 103 122 0
-49 -60 80 0
-18 58 -90 0
-15 28 43 0
21 62 125 0
3 -43 -77 0
30 75 103 0
24 -37 -78 0
48 -70 -82 0
34 43 -77 0
74 -110 -111 0
10 16 107 0
18 -71 92 0
7 91 -121 0
-8 -38 80 0
-61 83 98 0
37 54 -118 0
-68 78 110 0
-11 56 -87 0
26 87 109 0
92 96 118 0
-1 -114 123 0
-12 67 82 0
66 71 89 0
18 56 -124 0
-44 66 86 0
75 80 83 0
-6 -35 -99 0
-20 -98 124 0
-22 58 80 0
-34 -76 123 0
-21 -39 41 0
-62 -69 -80 0
-22 85 111 0
43 103 -115 0
13 40 125 0
1 111 121 0
-48 -83 124 0
-57 -81 122 0
6 44 102 0
1 -51 53 0
-29 -72 -125 0
17 -88 -113 0
13 -49 -98 0
56 -74 120 0
12 50 58 0
13 -17 -37 0
-45 -95 -98 0
-40 86 -114 0
49 -66 -113 0
48 92 -113 0
16 37 43 0
-30 -62 -100 0
54 -69 109 0
-56 -90 -108 0
-19 26 -43 0
-70 92 -122 0
-50 -95 119 0
-86 -96 103 0
69 83 -114 0
-88 112 123 0
-1 30 -105 0
-42 105 -108 0
8 86 -102 0
15 93 -95 0
9 69 103 0
1 25 110 0
-42 -62 -65 0
-17 74 -91 0
-8 13 -34 0
9 27 -92 0
47 50 94 0
-93 -106 -116 0
14 90 118 0
-22 -59 -81 0
56 -73 -122 0
-1 -35 -74 0
91 101 119 0
-21 120 124 0
25 79 -104 0
-4 11 65 0
34 36 106 0
-33 -75 -104 0
-1 14 -52 0
-77 93 -114 0
22 -32 124 0
-25 -27 120 0
-22 -79 -105 0
42 -47 -117 0
20 -34 -35 0
-116 -118 125 0
35 -48 96 0
21 -50 -66 0
5 23 -41 0
-22 -25 -69 0
-35 43 50 0
74 87 95 0
-43 64 68 0
-7 -48 -91 0
-32 -45 57 0
17 -50 -95 0
-22 -33 -99 0
14 73 -102 0
66 80 -118 0
86 -91 106 0
-1 -56 -99 0
22 107 119 0
-53 -119 125 0
-34 42 82 0
-33 -44 -112 0
8 -44 -74 0
13 31 -73 0
-36 77 -111 0
-56 60 -100 0
-23 -37 66 0
57 -67 -88 0
-34 60 -69 0
-60 -80 101 0
-29 30 -79 0
-54 -116 -121 0
-22 65 -76 0
-37 102 -115 0
28 -57 121 0
64 76 -83 0
3 -78 -124 0
43 47 96 0
-21 -48 60 0
46 -66 -72 0
-65 78 89 0
-41 84 -96 0
60 81 103 0
57 -93 118 0
4 40 -70 0
20 -65 -85 0
95 106 -119 0
-22 39 -66 0
27 94 -105 0
4 12 18 0
34 74 -113 0
-35 -41 83 0
-15 -95 -115 0
-84 85 123 0
-57 69 -86 0
9 -34 91 0
-54 -60 -62 0
6 67 -73 0
-37 -75 111 0
19 -35 -54 0
-14 -28 113 0
58 75 96 0
86 -92 93 0
13 52 73 0
22 96 -102 0
-17 91 -97 0
11 -101 -112 0
-37 59 110 0
-50 -57 -59 0
-25 46 -96 0
29 -71 -94 0
-19 48 -56 0
-31 115 122 0
31 -77 -82 0
51 -85 100 0
98 106 108 0
21 26 -55 0
38 100 103 0
97 -112 -124 0
35 -102 -123 0
-28 -108 113 0
55 -105 124 0
14 111 -113 0
-51 93 97 0
-9 41 -94 0
47 -59 -82 0
-56 -88 121 0
52 56 95 0
-64 -69 107 0
-29 -54 -78 0
27 -70 111 0
19 -26 45 0
-18 -35 78 0
14 84 106 0
-13 65 114 0
-27 39 110 0
48 -86 120 0
-64 -73 75 0
-23 -63 110 0
-29 -94 -121 0
15 23 -73 0
31 -66 101 0
-57 -61 82 0
-17 42 63 0
13 -28 -51 0
36 107 -124 0
57 82 -111 0
-61 64 99 0
-97 104 -115 0
-65 -100 -118 0
-54 -66 98 0
13 -22 86 0
-45 75 -124 0
-2 -68 115 0
-79 -87 98 0
-1 102 122 0
-13 -106 110 0
64 -83 -104 0
-39 56 68 0
4 92 -105 0
-17 28 -75 0
33 38 124 0
29 72 73 0
30 42 -74 0
-17 -21 -75 0
-7 -63 123 0
35 48 64 0
-23 66 109 0
4 11 -100 0
38 46 -121 0
5 -56 -102 0
41 101 -121 0
15 105 -111 0
25 27 109 0
62 -98 -110 0
36 -53 -64 0
-8 65 94 0
-17 -83 111 0
-56 -67 113 0
32 -56 68 0
-9 47 87 0
-13 -47 124 0
-85 -96 -108 0
33 38 75 0
30 56 -74 0
-19 90 105 0
17 23 -37 0
8 76 109 0
2 -42 -49 0
-16 73 118 0
-91 101 -106 0
-7 75 -90 0
23 34 -55 0
-50 61 98 0
-52 54 79 0
-55 -61 105 0
20 -69 114 0
34 104 109 0
-17 -87 -92 0
-18 60 -68 0
74 -79 120 0
-28 -73 86 0
91 120 -121 0
-3 -9 73 0
-32 -69 -104 0
51 65 120 0
8 -96 -120 0
-1 33 -66 0
20 53 81 0
9 78 -98 0
71 -99 107 0
23 -86 94 0
26 98 104 0
-20 -111 125 0
-56 -72 106 0
-23 40 -68 0
-13 -38 -44 0
-7 30 75 0
34 -61 -124 0
-31 -42 56 0
14 -80 -107 0
-13 -28 -38 0
-90 -111 -118 0
-40 63 -87 0
7 -10 -41 0
-29 -73 -98 0
39 94 101 0
-37 46 88 0
9 -15 110 0
26 36 51 0
40 93 104 0
19 -64 -69 0
35 76 124 0
-41 -57 -79 0
10 -57 96 0
42 51 -73 0
-54 -65 -84 0
-5 12 -104 0
42 79 -93 0
39 46 120 0
-7 -77 93 0
-12 105 123 0
-7 14 -91 0
51 56 96 0
-9 -26 82 0
12 -53 -86 0
5 81 116 0
71 83 -93 0
-44 65 119 0
-29 -61 105 0
35 -69 83 0
24 93 98 0
4 74 82 0
-18 39 120 0
-6 -55 98 0
22 -60 -66 0
-11 19 78 0
70 -81 104 0
-16 81 -83 0
-4 10 -90 0
-15 -48 -75 0
-16 -45 66 0
89 -119 125 0
66 71 114 0
4 28 91 0
8 -40 -99 0
-31 -32 -115 0
-48 -59 91 0
-1 5 34 0
-60 -80 -117 0
-49 -80 117 0
-9 34 -100 0
8 16 93 0
-32 -92 -119 0
68 107 108 0
16 42 -123 0
-65 69 115 0
1 48 -56 0
2 -36 -89 0
115 116 120 0
12 -15 60 0
21 -29 51 0
20 -92 -106 0
8 -13 106 0
-72 106 -122 0
-4 21 -57 0
21 43 47 0
-1 -18 -73 0
-44 -48 119 0
-99 -103 111 0
-36 -47 -60 0
10 67 -80 0
7 -42 -100 0
6 -7 13 0
-29 41 -98 0
29 -69 89 0
-29 43 75 0
-71 94 114 0
29 109 111 0
52 -87 -91 0
-27 -88 -90 0
67 -110 -118 0
-9 -15 -110 0
-18 45 -73 0
-17 -51 102 0
8 39 -60 0
5 -42 46 0
-30 -107 116 0
51 83 122 0
77 105 119 0
25 -76 103 0
-60 -100 -101 0
-12 -38 -44 0
-12 -61 92 0
-63 -96 -100 0
41 70 85 0
20 -117 -120 0
46 77 -94 0
1 49 -53 0
-26 72 114 0
22 -40 -112 0
41 77 -98 0
-30 58 82 0
31 -53 -110 0
-51 85 -96 0
44 -51 -95 0
-97 105 -122 0
1 41 -80 0
-34 -40 -41 0
-81 85 -89 0
49 -90 -98 0
39 83 86 0
-12 43 -95 0
4 72 124 0
61 73 104 0
-23 52 71 0
-19 -37 -93 0
-23 39 -73 0
-35 -64 -111 0
-1 -26 68 0
-31 56 91 0
-24 25 -46 0
-21 -50 115 0
35 66 124 0
17 55 120 0
-36 62 -96 0
37 -54 -69 0
-1 -12 -39 0
31 -75 124 0
10 -49 -101 0
-61 -64 122 0
-30 -77 -85 0
-10 -31 35 0
-60 -72 112 0
-16 -20 -108 0
85 92 -104 0
17 45 106 0
19 -34 83 0
-23 74 95 0
-9 -13 -115 0
-63 -102 121 0
37 -38 -88 0
