c F1 random 3-CNF cnfgen RandomKCNF(3,100,426,seed=12) m/n=4.26
p cnf 100 426
-35 61 -85 0
-2 -48 62 0
1 -72 -85 0
21 27 44 0
-44 66 88 0
8 66 -85 0
-15 57 -85 0
21 72 80 0
-52 -54 -78 0
4 70 -83 0
-46 -47 89 0
-31 -33 43 0
4 49 56 0
-6 55 87 0
29 71 -97 0
-5 -36 56 0
48 -59 -66 0
-59 61 90 0
47 60 71 0
-1 35 78 0
2 6 -65 0
20 -65 -70 0
-16 -30 -82 0
34 -57 -88 0
-6 -36 79 0
-37 67 94 0
-4 -17 89 0
-26 31 -56 0
-6 54 -98 0
-26 -72 -75 0
3 21 73 0
10 -54 69 0
-25 -46 -91 0
16 -79 80 0
-10 46 -53 0
-12 -19 88 0
-85 -87 98 0
-4 -27 63 0
-8 -77 86 0
13 -29 -42 0
-26 -36 89 0
-19 65 -67 0
50 -65 -78 0
-7 -30 -99 0
-7 -14 85 0
-42 -64 100 0
18 -29 -62 0
-6 -47 -55 0
42 50 -78 0
-5 -83 -85 0
-34 -80 -85 0
50 52 64 0
15 -33 -35 0
18 40 -99 0
2 6 22 0
25 -38 92 0
-14 47 -78 0
1 -13 -68 0
-38 -60 -82 0
-4 67 92 0
47 -63 -97 0
48 78 -97 0
-8 14 30 0
2 4 32 0
61 -76 -81 0
-55 70 -84 0
-12 78 -84 0
-16 19 -39 0
2 -26 -30 0
-44 -52 -94 0
44 -63 98 0
-30 44 -50 0
-33 -36 96 0
-16 76 -95 0
-20 -71 -77 0
-40 -46 48 0
23 -52 -80 0
-19 -45 -79 0
51 -83 85 0
-13 68 -86 0
12 -40 87 0
9 37 89 0
16 36 -82 0
40 -59 -96 0
-50 -57 60 0
-31 -68 -76 0
18 40 -52 0
-38 50 -87 0
-23 -41 -74 0
7 -19 58 0
-16 -21 -27 0
12 25 -77 0
33 47 68 0
14 -71 98 0
57 -69 70 0
-8 -73 83 0
-46 50 64 0
-59 67 -70 0
-4 19 -54 0
-29 -39 -40 0
11 -68 -100 0
37 45 89 0
9 15 19 0
23 -46 71 0
-19 -37 -85 0
22 -33 -97 0
56 97 98 0
38 -46 -80 0
42 -46 54 0
-39 72 80 0
31 41 70 0
-9 -23 -79 0
6 -56 -100 0
-7 -44 81 0
9 -29 -80 0
-21 -26 -66 0
18 -25 -87 0
-15 20 26 0
-10 -33 -80 0
-12 56 67 0
23 74 84 0
42 81 93 0
61 63 94 0
59 78 -89 0
19 -36 -67 0
-11 21 -51 0
6 58 -77 0
24 72 99 0
16 -69 -94 0
-12 27 72 0
-9 21 -38 0
2 14 -20 0
-34 -48 98 0
-22 75 -85 0
-36 48 53 0
-30 -36 -42 0
1 44 -62 0
-1 -21 -30 0
-84 90 98 0
21 -58 -78 0
39 71 94 0
-26 -41 64 0
9 18 -53 0
-1 -41 -49 0
-10 40 44 0
-31 44 55 0
18 27 -54 0
7 14 -88 0
12 48 -69 0
12 -16 -80 0
18 -24 -81 0
13 -24 -55 0
8 -15 97 0
7 -66 94 0
-22 -40 70 0
-6 16 43 0
-55 -61 -83 0
-32 -55 75 0
26 -76 -81 0
-22 -30 93 0
19 24 -27 0
55 -72 -83 0
-21 -23 -88 0
23 57 88 0
-32 -33 -78 0
-44 59 81 0
16 82 85 0
26 69 98 0
50 -56 -57 0
6 23 -45 0
-14 -35 86 0
-27 51 88 0
-21 -27 93 0
21 81 98 0
-19 -74 -100 0
-16 -50 65 0
-19 -29 -87 0
-16 43 87 0
-31 65 89 0
-4 -5 52 0
-2 -6 20 0
13 45 -89 0
-76 79 80 0
48 63 -73 0
-41 47 -99 0
-87 91 98 0
-18 -38 61 0
9 89 97 0
-19 96 -99 0
15 -75 -89 0
62 71 -87 0
-26 54 92 0
70 -77 -95 0
-33 38 -59 0
19 26 -68 0
2 -74 -97 0
23 -48 61 0
-55 -65 -93 0
-42 -48 -74 0
-79 84 -96 0
-23 -74 83 0
45 -66 -69 0
-19 21 -87 0
-18 -29 39 0
-12 -29 -72 0
-14 -28 -95 0
46 57 -79 0
-11 21 -72 0
5 -62 -70 0
-55 74 82 0
-30 -72 -94 0
34 -74 -94 0
5 44 81 0
12 22 34 0
-30 62 -79 0
1 47 -55 0
41 66 -89 0
-54 -84 100 0
-56 -59 77 0
-4 -57 -68 0
-17 47 88 0
28 -48 -72 0
-14 29 78 0
7 42 -99 0
-3 -10 -49 0
-13 -29 66 0
-55 65 -80 0
7 -50 -64 0
-2 15 -80 0
34 -40 95 0
-44 -72 91 0
-36 52 -83 0
-11 68 72 0
1 44 -60 0
-1 71 -98 0
9 -74 97 0
-44 -58 61 0
4 56 73 0
10 47 -49 0
57 59 -81 0
-34 47 59 0
13 -38 -92 0
19 -78 88 0
32 -47 73 0
5 -15 -86 0
-33 -42 73 0
31 34 67 0
-24 -68 -70 0
1 50 -55 0
-26 -47 58 0
-18 62 74 0
40 41 90 0
-38 70 -91 0
14 66 -88 0
-38 45 92 0
21 40 -56 0
24 -66 -95 0
17 51 -62 0
4 -18 71 0
-39 52 -100 0
-10 39 66 0
-13 21 -39 0
-19 40 -50 0
-24 36 66 0
13 43 -86 0
18 -20 -47 0
16 -77 94 0
7 16 -69 0
7 -17 88 0
-24 59 70 0
-19 45 88 0
9 -69 -83 0
21 33 53 0
30 -57 97 0
45 80 -82 0
-65 93 -97 0
-12 -17 -34 0
15 -22 -40 0
20 -57 96 0
-9 -21 -68 0
5 23 78 0
-34 -52 -81 0
7 72 79 0
-40 70 84 0
17 -72 -98 0
-33 -43 -73 0
-15 -28 -37 0
-31 -76 81 0
7 23 51 0
10 67 75 0
-9 46 53 0
37 40 -88 0
14 -39 80 0
-5 -22 -92 0
-27 -52 73 0
19 39 47 0
6 -10 -43 0
-24 32 -63 0
33 -39 -86 0
-33 -56 93 0
68 -85 -91 0
-25 -94 98 0
-7 -33 -74 0
33 -68 71 0
-49 -66 83 0
-31 70 91 0
11 64 86 0
-34 40 68 0
27 -31 77 0
-42 -44 -65 0
20 43 -82 0
-9 -78 -90 0
22 -29 86 0
-26 -32 -46 0
15 -94 95 0
20 25 -51 0
72 85 92 0
-33 63 89 0
-16 25 47 0
25 27 35 0
47 48 -94 0
-57 -71 -84 0
71 77 -81 0
-21 -53 92 0
-56 -72 -75 0
5 -37 76 0
14 69 78 0
13 -19 -83 0
13 -98 -100 0
-8 12 -15 0
52 78 82 0
20 -28 -56 0
-19 21 76 0
-1 3 28 0
26 -40 -51 0
-23 49 62 0
13 -16 81 0
33 40 -55 0
6 -34 65 0
-24 -52 -65 0
12 -43 -96 0
-3 42 -88 0
32 57 94 0
-27 -37 90 0
40 49 -92 0
10 -13 -54 0
-37 -61 62 0
30 -91 -94 0
-4 -77 87 0
28 80 100 0
78 -79 -93 0
-1 -19 30 0
50 60 -81 0
-5 14 -30 0
-2 -59 -86 0
46 56 75 0
-5 17 -85 0
14 29 -74 0
33 -61 85 0
15 85 -93 0
-33 -68 -70 0
-30 -45 93 0
-18 -36 53 0
6 21 -71 0
11 -26 -89 0
-2 26 38 0
-1 20 40 0
-2 13 78 0
-39 82 89 0
22 25 43 0
26 31 -85 0
-5 -27 47 0
-7 -25 -55 0
-17 -25 -65 0
10 12 26 0
23 35 -78 0
-9 -33 77 0
50 69 -71 0
-10 39 98 0
-9 -69 74 0
-8 15 -53 0
12 -51 -86 0
54 -91 -100 0
-14 49 54 0
-1 -32 34 0
29 -49 50 0
-38 -65 91 0
-38 43 51 0
66 69 84 0
28 46 -93 0
-4 -36 58 0
67 93 -94 0
35 -44 -65 0
68 78 81 0
-10 -12 -51 0
-7 -78 -96 0
23 41 -48 0
40 65 79 0
-3 -46 -48 0
-37 38 -97 0
-9 59 92 0
-7 -37 -85 0
-19 -31 85 0
-30 78 -83 0
31 -33 -67 0
58 84 88 0
5 -33 -99 0
11 38 -53 0
4 23 -36 0
27 50 -52 0
-9 -25 -74 0
-44 68 77 0
36 -37 72 0
-2 -79 93 0
-24 48 99 0
-33 -44 84 0
57 -68 78 0
-15 34 58 0
14 67 -100 0
12 18 -58 0
-19 45 -52 0
-14 -72 -73 0
-8 -9 94 0
5 36 89 0
-27 -28 -82 0
-40 77 99 0
