c F1 random 3-CNF cnfgen RandomKCNF(3,150,639,seed=10) m/n=4.26
p cnf 150 639
-9 110 147 0
72 119 -126 0
-20 64 -84 0
-36 -91 -98 0
-45 78 -117 0
62 97 113 0
-35 50 -78 0
-112 116 -141 0
-41 58 129 0
9 78 128 0
96 99 146 0
-43 -49 -114 0
63 71 115 0
69 78 117 0
-84 89 123 0
-12 85 140 0
68 -104 -115 0
-62 -70 135 0
-43 119 -126 0
-90 -139 150 0
-26 113 144 0
17 -113 138 0
-28 39 -117 0
-112 -115 -129 0
85 109 -134 0
-9 51 148 0
-64 76 112 0
28 -74 141 0
-50 93 103 0
50 -54 -110 0
109 -115 -134 0
-2 -30 -54 0
18 52 -109 0
-66 93 -117 0
-76 -120 -130 0
-88 -90 -114 0
-22 -123 139 0
-17 107 -145 0
-19 -83 102 0
44 62 79 0
19 -108 146 0
52 -87 101 0
-10 -13 -149 0
-31 41 44 0
90 -131 -138 0
16 -90 -148 0
-45 -114 -116 0
-118 132 144 0
11 40 -111 0
93 97 144 0
13 58 -80 0
-11 -48 78 0
50 89 -126 0
10 85 -120 0
40 -101 132 0
-28 -61 109 0
89 -122 134 0
41 -59 99 0
103 -148 -150 0
18 49 -143 0
-5 9 111 0
84 92 122 0
33 52 -75 0
108 140 150 0
8 15 -32 0
4 -18 112 0
-14 -44 -142 0
-9 -48 -86 0
-19 -36 94 0
4 -24 118 0
37 79 -135 0
-1 -86 148 0
15 16 55 0
39 -79 108 0
-77 119 123 0
-8 40 -104 0
40 -121 -130 0
43 -71 -121 0
98 -143 -145 0
15 -34 118 0
10 21 98 0
-57 94 112 0
-18 -94 117 0
33 103 140 0
-56 -98 132 0
18 40 -138 0
23 -54 117 0
44 94 -99 0
40 -67 -77 0
-2 -88 92 0
73 105 -118 0
-24 31 110 0
21 -97 -137 0
-22 -30 108 0
-6 -101 -114 0
-40 77 144 0
-121 -128 -147 0
-6 -115 -142 0
-48 58 61 0
9 139 -145 0
43 51 -79 0
11 81 130 0
-37 117 -126 0
5 -67 92 0
-30 -37 -62 0
-82 -110 -142 0
-15 -28 -124 0
18 92 -121 0
-2 51 74 0
-42 93 -124 0
52 -64 148 0
66 126 141 0
-44 45 -116 0
59 106 -112 0
34 51 124 0
21 101 -139 0
81 -126 150 0
97 -103 119 0
16 -28 64 0
-72 74 -88 0
19 -33 146 0
6 -42 104 0
17 119 -122 0
-15 40 69 0
-9 -113 -136 0
-35 -75 119 0
67 -75 -90 0
-81 110 -119 0
30 39 -143 0
69 -93 111 0
13 14 33 0
-76 -91 -148 0
-19 51 66 0
64 -114 -145 0
-13 -111 129 0
-86 -96 -123 0
-1 65 96 0
-83 100 -112 0
-24 -28 29 0
45 -46 140 0
50 88 -147 0
3 -88 122 0
35 -123 146 0
-27 -39 -134 0
13 -43 100 0
105 111 123 0
-50 -71 104 0
-58 88 139 0
4 -34 38 0
20 -106 -126 0
1 -46 55 0
-40 -76 133 0
-20 33 -121 0
-15 -75 122 0
-18 -21 93 0
29 44 143 0
-13 20 -108 0
-86 -95 -132 0
4 -100 143 0
-18 -97 143 0
-13 -84 -150 0
-41 44 -89 0
-14 57 -81 0
14 29 -93 0
59 -91 -138 0
-101 115 140 0
-49 -76 -91 0
25 -37 -116 0
64 77 112 0
41 54 -98 0
28 48 96 0
-18 -61 -106 0
5 29 139 0
-20 68 -97 0
60 -62 -115 0
52 -76 111 0
-37 66 -112 0
-131 142 -146 0
25 67 -104 0
26 -37 139 0
-15 -16 29 0
-26 34 109 0
-73 -81 109 0
42 54 56 0
-65 70 83 0
-54 -102 -148 0
-101 -113 -147 0
-59 82 144 0
44 -119 125 0
9 44 122 0
41 -138 139 0
13 120 -133 0
19 63 127 0
35 -44 61 0
19 25 -30 0
20 113 150 0
29 -96 -148 0
49 -129 139 0
-115 -120 137 0
-1 67 -89 0
78 -106 111 0
29 -37 -89 0
-12 -48 -62 0
-17 -102 -133 0
3 -64 75 0
5 45 53 0
-29 68 -121 0
-27 -83 -102 0
13 86 -92 0
132 -139 148 0
-41 128 -147 0
-30 -36 69 0
-25 110 -111 0
18 -31 -111 0
37 84 -86 0
39 -67 -112 0
-16 -94 -147 0
4 -76 146 0
34 53 130 0
-83 -85 121 0
25 -42 94 0
-79 94 -146 0
-22 -68 76 0
-24 -92 -132 0
41 96 104 0
10 98 145 0
87 -105 -126 0
-3 20 72 0
48 110 -112 0
-103 106 139 0
11 23 28 0
-82 -106 -147 0
17 -137 -147 0
-100 109 -116 0
40 72 142 0
11 63 91 0
28 103 -116 0
9 15 -25 0
-20 86 140 0
-97 -123 -129 0
-86 87 127 0
34 -36 -76 0
-19 -36 112 0
61 107 126 0
-61 -103 108 0
-79 115 -116 0
12 18 -97 0
22 -111 141 0
-43 99 -132 0
29 -113 -124 0
-118 122 135 0
24 114 -136 0
-46 -77 -115 0
-43 80 -128 0
-19 79 -83 0
29 62 -89 0
-28 51 -82 0
-17 -50 92 0
12 -77 109 0
-3 48 85 0
-2 105 131 0
-16 -22 -26 0
137 -138 -146 0
32 102 137 0
-34 41 -146 0
-24 79 -83 0
17 83 -146 0
-4 126 130 0
-58 90 -110 0
-16 -118 -139 0
-27 -69 -134 0
110 116 -124 0
45 -63 -109 0
88 -92 114 0
21 -75 103 0
42 -43 90 0
-49 -82 -117 0
-3 -27 -83 0
69 -83 -107 0
-16 -42 -119 0
4 -75 79 0
-88 -97 99 0
-9 98 116 0
39 -42 -121 0
29 57 -92 0
-51 -69 147 0
-44 -47 -106 0
-48 94 148 0
-76 110 -142 0
45 -51 124 0
-40 -131 136 0
-45 -101 -122 0
16 33 -76 0
44 69 -85 0
-93 108 147 0
-59 -84 96 0
-45 -89 -147 0
-5 -71 -99 0
-20 99 150 0
-50 -53 -84 0
20 -29 113 0
129 130 141 0
-86 -109 -133 0
-27 43 -118 0
-68 94 102 0
45 -64 -112 0
-6 -109 -127 0
-133 -136 143 0
14 107 143 0
34 39 -119 0
45 120 141 0
-5 -57 61 0
18 -63 66 0
61 105 118 0
80 81 -135 0
-57 -101 -119 0
24 36 67 0
-14 94 114 0
-38 -40 104 0
-28 120 126 0
110 -129 138 0
65 -71 -119 0
59 95 140 0
7 -107 127 0
-24 58 108 0
51 99 -120 0
27 45 -128 0
-29 -47 135 0
14 41 -56 0
-58 -101 107 0
93 95 127 0
11 -31 -143 0
75 109 -133 0
21 60 -113 0
-3 15 113 0
3 -17 -52 0
18 61 71 0
-28 -97 -128 0
18 141 147 0
91 -101 -134 0
49 112 114 0
-28 87 113 0
-106 107 123 0
-1 -78 136 0
16 -100 -111 0
3 -34 43 0
27 -92 -111 0
-25 -52 -94 0
-46 -72 -102 0
42 73 82 0
45 54 129 0
-21 -84 -114 0
116 -121 148 0
-7 -114 -147 0
38 70 75 0
11 72 102 0
-50 51 -78 0
53 85 -115 0
-34 -89 118 0
47 -90 116 0
35 -69 -79 0
-71 99 -125 0
-6 18 -61 0
27 49 66 0
18 -81 107 0
-62 88 103 0
-2 71 -139 0
3 116 -129 0
-61 77 105 0
-68 85 109 0
-104 123 -124 0
33 97 129 0
-59 67 -147 0
3 10 -109 0
42 50 109 0
6 -90 -106 0
29 -87 -94 0
42 100 -127 0
60 -124 -133 0
6 -27 63 0
-41 62 -136 0
-11 121 125 0
-50 -70 -72 0
57 58 108 0
123 -146 149 0
-1 20 -102 0
-37 136 139 0
-45 -132 -140 0
61 87 -100 0
63 70 96 0
-28 -101 136 0
-17 106 -146 0
104 -108 148 0
11 -63 80 0
30 122 -143 0
83 -93 147 0
-15 -29 -113 0
-55 112 141 0
38 -39 96 0
15 -53 106 0
-30 32 125 0
44 107 121 0
-33 43 -61 0
67 -75 -93 0
-28 111 -141 0
137 144 -148 0
33 80 -110 0
7 -19 -37 0
-93 -94 -128 0
-6 -66 83 0
10 -50 125 0
-19 -28 -117 0
2 -35 98 0
19 26 95 0
-11 21 -57 0
-122 -128 -137 0
12 40 -127 0
3 8 108 0
26 54 -126 0
-77 -78 -135 0
58 69 -108 0
67 79 -148 0
5 -7 142 0
12 53 -82 0
-42 137 -146 0
37 72 131 0
38 -84 -93 0
48 99 128 0
17 -77 -120 0
21 -27 -112 0
-66 -79 -141 0
-48 69 -108 0
-60 -97 125 0
-94 -111 132 0
103 -125 144 0
-49 -67 111 0
-54 -112 128 0
27 -55 127 0
-54 62 126 0
6 -36 51 0
-55 -95 -142 0
-130 -140 -146 0
-26 -63 66 0
-17 134 -149 0
8 88 -89 0
-13 -39 83 0
-33 60 75 0
-10 -53 -128 0
-50 -117 -122 0
49 109 147 0
-49 -60 108 0
47 -86 -121 0
-2 24 34 0
14 25 -142 0
-86 93 -101 0
6 63 138 0
135 -144 -147 0
-44 106 124 0
31 76 -90 0
-63 -131 141 0
-79 84 -97 0
-22 -34 -120 0
-74 -108 -148 0
-13 80 119 0
24 -33 38 0
-2 -43 -139 0
-38 45 -143 0
-17 37 -114 0
-22 30 138 0
84 110 -146 0
9 -34 -43 0
9 14 138 0
54 96 135 0
-13 -33 142 0
-35 54 97 0
32 -83 134 0
54 80 99 0
-4 -48 59 0
-73 103 -115 0
15 -32 -40 0
34 -35 78 0
-91 107 -146 0
44 -115 133 0
49 89 149 0
-8 -75 79 0
-5 -98 135 0
-8 10 37 0
110 -115 -137 0
-1 -6 118 0
-70 87 -94 0
36 48 145 0
73 -82 93 0
-2 59 67 0
-57 -59 136 0
82 -104 121 0
40 -41 -64 0
59 -66 92 0
-52 80 139 0
-35 -52 119 0
-74 106 -107 0
-66 78 134 0
-112 -123 125 0
-1 -118 -148 0
66 -68 -136 0
11 -44 76 0
-92 130 -135 0
-59 -108 -141 0
-32 -94 -130 0
-73 -80 134 0
-54 63 76 0
74 124 -136 0
22 -72 -96 0
19 -21 69 0
96 -107 -150 0
14 -64 -104 0
15 82 94 0
-24 -106 108 0
-54 112 150 0
-2 -54 -149 0
27 67 -122 0
-64 -105 -142 0
-3 -5 -124 0
102 -121 141 0
-41 87 121 0
-13 88 -92 0
-13 -96 -135 0
54 135 -146 0
79 88 120 0
9 -100 -116 0
27 49 64 0
-100 -106 111 0
89 95 -130 0
32 49 -143 0
-27 -83 -143 0
-6 35 134 0
33 -91 133 0
-31 49 136 0
-47 -113 -135 0
32 59 71 0
55 -78 -116 0
-12 85 93 0
-72 -116 -133 0
-99 -110 -134 0
-45 58 -124 0
15 -55 69 0
1 7 98 0
-6 -21 -132 0
-63 76 -99 0
19 44 -72 0
-85 -132 -145 0
56 -67 -87 0
-33 123 -124 0
-8 -95 -112 0
-66 -78 -131 0
1 79 -110 0
-43 63 -137 0
12 -25 118 0
-1 -38 90 0
-27 112 147 0
-29 -79 123 0
45 72 -112 0
26 -63 135 0
-53 57 -69 0
-17 -94 106 0
-16 -119 -132 0
50 -58 -81 0
33 42 -81 0
-28 -95 146 0
22 38 -55 0
-60 -105 -125 0
-74 90 -127 0
-33 -55 -129 0
-14 20 73 0
10 37 84 0
63 -87 -107 0
49 87 101 0
-73 -76 109 0
-24 -94 -99 0
-17 89 100 0
11 -69 121 0
-32 -123 -147 0
61 -66 -147 0
66 99 -126 0
-41 -114 -136 0
-113 139 -144 0
69 125 135 0
-13 -60 136 0
11 93 -107 0
-26 40 54 0
-64 -75 -144 0
-20 103 138 0
-27 -76 145 0
74 119 127 0
42 45 -74 0
112 -114 -123 0
-57 64 101 0
-26 58 60 0
-90 130 -150 0
-37 -62 -96 0
7 -78 119 0
71 -107 -137 0
-21 120 147 0
-7 97 105 0
-15 -45 -91 0
67 109 148 0
-1 -68 93 0
64 124 128 0
-17 -22 150 0
2 -38 55 0
75 -109 150 0
-1 -36 100 0
4 -27 -31 0
6 104 -109 0
20 -108 125 0
40 -129 132 0
27 -45 117 0
-37 58 -66 0
43 -124 129 0
22 74 -130 0
3 -64 92 0
16 25 38 0
60 -65 67 0
-27 32 -100 0
-7 92 -148 0
87 130 -137 0
19 -89 -146 0
-34 -50 -77 0
1 31 74 0
-6 -14 72 0
-18 103 -126 0
19 -63 -132 0
-5 -26 89 0
45 61 107 0
-20 28 -29 0
-39 -105 -124 0
-51 59 85 0
100 -131 140 0
-16 -55 -122 0
2 9 65 0
