c F1 random 3-CNF cnfgen RandomKCNF(3,250,1065,seed=4) m/n=4.26
p cnf 250 1065
-27 -61 78 0
-6 -18 24 0
-57 -134 138 0
28 68 -212 0
50 -70 -205 0
-161 188 -223 0
100 130 172 0
-23 72 -122 0
-147 181 -226 0
-74 -109 154 0
60 67 79 0
-72 -119 161 0
-18 51 -173 0
-48 -71 92 0
26 83 -232 0
150 158 -196 0
-46 75 240 0
-22 -92 179 0
74 -83 248 0
-50 -76 159 0
65 -98 154 0
12 -94 -117 0
-25 75 -147 0
30 54 235 0
44 153 -189 0
64 83 -150 0
105 -167 199 0
-62 106 113 0
-64 108 -114 0
-9 -10 49 0
54 -135 -198 0
-14 37 -84 0
168 -231 -247 0
24 -54 -111 0
-121 -169 205 0
-168 -176 -206 0
-20 128 245 0
102 -159 231 0
-43 -177 -223 0
56 100 238 0
-4 157 -225 0
-198 201 208 0
52 -225 -244 0
113 135 235 0
-29 -153 179 0
11 -21 -93 0
-20 -22 212 0
80 -100 -202 0
-20 -25 -30 0
-183 199 220 0
-78 -164 239 0
-43 143 205 0
-39 -84 -181 0
139 232 250 0
31 -80 -166 0
20 -134 -135 0
59 92 197 0
-81 -157 -233 0
-114 157 -159 0
-93 153 -198 0
22 -37 -156 0
-51 148 204 0
104 -166 -240 0
45 77 84 0
92 206 207 0
127 150 170 0
123 -167 -173 0
-61 154 -226 0
-59 -95 -191 0
-103 -130 -249 0
-4 106 -151 0
-144 -158 -178 0
8 -40 -160 0
80 -155 -204 0
-57 164 238 0
-18 62 237 0
-42 102 203 0
25 41 -193 0
21 -32 70 0
-39 168 188 0
94 144 -178 0
-40 -56 217 0
-42 -44 -97 0
85 -103 221 0
8 -72 109 0
22 30 41 0
3 -123 -142 0
45 87 -217 0
-159 -232 -234 0
10 -154 -189 0
-123 201 230 0
81 227 -229 0
-122 135 245 0
12 128 183 0
19 -87 174 0
130 212 228 0
71 160 245 0
38 -123 179 0
-190 -192 -228 0
104 155 -162 0
-17 -127 250 0
83 112 181 0
-112 -123 -228 0
-161 -238 244 0
66 72 -131 0
68 -74 156 0
43 201 -240 0
-56 172 -228 0
3 117 146 0
63 133 -216 0
76 146 223 0
184 192 231 0
-9 -68 -152 0
42 44 194 0
42 -176 -244 0
27 -52 -217 0
-127 -140 -154 0
104 191 215 0
-40 57 -92 0
-50 -147 -222 0
29 138 -182 0
48 55 137 0
-49 -76 212 0
-79 205 244 0
-97 -119 159 0
-35 115 -179 0
-30 55 85 0
42 124 250 0
6 -86 -154 0
60 150 205 0
47 -74 -155 0
96 -139 -163 0
67 86 -153 0
147 -219 -221 0
19 31 213 0
36 -142 183 0
13 182 -242 0
-15 -76 160 0
-121 165 195 0
74 107 -236 0
-136 155 219 0
-21 111 -174 0
51 174 217 0
184 192 236 0
-1 -228 245 0
-24 134 164 0
131 141 178 0
36 112 -247 0
-87 132 171 0
149 160 165 0
-12 -70 -197 0
-40 -195 247 0
-44 116 160 0
-67 -151 246 0
-42 -78 81 0
-124 -137 -159 0
-43 170 221 0
85 205 -230 0
25 80 250 0
1 222 242 0
-96 -166 248 0
-114 -162 243 0
12 88 203 0
2 -101 105 0
-57 -143 -250 0
34 -175 -225 0
25 -97 -195 0
111 -147 240 0
23 100 115 0
26 -33 -74 0
-90 -189 -195 0
-80 172 -228 0
97 -131 -226 0
95 184 -225 0
32 73 86 0
-60 -123 -199 0
107 -137 217 0
-111 -179 -215 0
-37 51 -86 0
-139 184 -243 0
-99 -190 238 0
-172 -191 205 0
138 166 -227 0
-176 223 245 0
-1 60 -210 0
-84 210 -215 0
15 172 -204 0
29 185 -189 0
17 138 205 0
2 50 219 0
-84 -124 -129 0
-34 148 -182 0
-15 25 -68 0
18 53 -183 0
94 100 188 0
-186 -211 -232 0
28 179 235 0
-44 -117 -162 0
111 -145 -243 0
-2 -69 -147 0
181 202 238 0
239 -240 247 0
48 157 167 0
8 -79 208 0
-2 -136 166 0
49 -195 -197 0
-70 136 234 0
93 -103 -154 0
182 -192 244 0
43 -196 243 0
-49 -54 239 0
-44 -157 -209 0
84 -94 -234 0
40 -67 -70 0
-231 -236 249 0
69 -96 192 0
41 -99 -131 0
9 46 -82 0
-43 -49 -137 0
-70 86 100 0
147 173 189 0
-86 127 136 0
-14 -96 -181 0
-64 -90 113 0
33 -100 -189 0
-44 -65 -197 0
27 145 -203 0
132 160 -235 0
172 -182 212 0
-1 -111 -197 0
43 213 237 0
-105 -237 249 0
-67 84 163 0
-65 -88 -224 0
16 -88 -147 0
26 61 -145 0
-71 154 -221 0
-112 120 -200 0
-45 -74 132 0
113 -133 -176 0
-67 120 -137 0
-119 -159 201 0
-57 60 -157 0
-108 -231 -242 0
-44 130 -151 0
-73 203 -229 0
55 -113 242 0
127 152 -166 0
5 -156 -247 0
85 94 192 0
-42 -95 120 0
92 -131 -143 0
-129 156 178 0
-82 168 -192 0
119 162 205 0
113 -185 236 0
8 80 -140 0
40 -130 -170 0
189 211 -237 0
-44 77 -131 0
53 188 -209 0
8 24 35 0
68 148 -225 0
-70 -81 165 0
-29 -190 -230 0
-168 169 246 0
-114 137 -171 0
17 -67 181 0
-107 -120 -124 0
12 133 -145 0
-74 -149 222 0
38 -70 -108 0
-27 -55 225 0
-149 150 191 0
30 -172 222 0
26 104 146 0
44 192 -204 0
-33 181 -194 0
21 -201 -223 0
-74 117 220 0
-99 -114 -117 0
-50 92 -192 0
57 -142 -188 0
-37 95 -111 0
-61 230 244 0
61 -153 -163 0
102 -170 199 0
195 212 216 0
42 51 -110 0
75 200 205 0
194 -224 -248 0
70 -203 -245 0
-56 -216 226 0
110 -209 248 0
28 222 -225 0
-101 102 194 0
-18 81 -187 0
93 -117 -163 0
-112 -176 242 0
103 112 189 0
-127 -137 213 0
-57 -108 -156 0
54 -140 221 0
37 -52 90 0
-35 -69 156 0
27 167 211 0
-25 130 227 0
-54 77 219 0
95 -171 239 0
-128 -145 149 0
-46 -126 219 0
-58 -188 -242 0
30 45 -145 0
61 -131 201 0
-114 -122 164 0
-34 83 126 0
25 -56 -101 0
71 213 -248 0
113 164 -222 0
-122 127 198 0
-194 208 -230 0
-130 -200 -235 0
-107 -131 196 0
26 -44 171 0
-90 149 -248 0
-3 -136 229 0
-158 -173 195 0
-1 204 244 0
211 -212 -220 0
14 -127 -207 0
-77 112 135 0
7 183 -210 0
-33 55 -150 0
66 75 248 0
57 144 145 0
59 83 -147 0
-33 -42 -150 0
-14 -125 245 0
69 95 127 0
-46 131 218 0
7 21 -200 0
75 91 -242 0
10 -111 -203 0
82 202 -242 0
30 210 -222 0
54 217 218 0
-12 148 -247 0
-72 -104 239 0
97 -111 187 0
-33 -195 222 0
-112 -133 226 0
63 -111 135 0
-17 94 173 0
-26 -94 247 0
-170 -192 -216 0
65 76 150 0
60 111 -148 0
-37 179 209 0
34 45 -73 0
15 151 218 0
4 -84 -97 0
-31 145 235 0
-181 201 -212 0
-13 149 -180 0
46 67 -109 0
-99 121 195 0
-103 108 158 0
-109 -122 210 0
40 -138 227 0
68 208 217 0
-34 -173 -184 0
-36 120 -136 0
148 -157 240 0
-55 -145 171 0
182 240 -242 0
-6 -18 145 0
-64 -138 -208 0
101 130 239 0
15 -191 -239 0
-2 65 -132 0
40 105 161 0
17 156 -196 0
141 -197 214 0
45 -171 188 0
51 195 208 0
-40 -221 250 0
-112 -143 211 0
-46 80 -136 0
-26 -76 -87 0
-14 60 149 0
67 -122 -247 0
-61 -84 112 0
28 -160 -214 0
-26 -56 -76 0
-180 -221 -236 0
-79 126 -174 0
13 -19 -81 0
-57 -145 -195 0
78 187 201 0
-73 92 175 0
17 -30 219 0
52 71 101 0
79 185 208 0
38 -128 -137 0
69 151 248 0
-82 -113 -157 0
20 -114 191 0
83 101 -145 0
-107 -108 -168 0
-10 24 -208 0
83 158 -185 0
78 92 240 0
-14 -153 186 0
-23 210 245 0
-13 27 -181 0
102 112 192 0
-18 -51 164 0
23 -106 -172 0
10 161 232 0
142 165 -186 0
-88 129 237 0
-57 -121 210 0
70 -137 165 0
48 186 195 0
7 147 164 0
-35 78 239 0
-11 -109 196 0
43 -119 -131 0
-21 38 155 0
139 -162 208 0
-32 161 -165 0
-8 20 -180 0
-30 -96 -150 0
-32 -90 131 0
178 -238 250 0
132 142 228 0
7 55 181 0
15 -79 -198 0
-61 -63 -229 0
-96 -118 182 0
-1 10 68 0
-120 -159 -234 0
-98 -160 233 0
-17 67 -200 0
15 31 186 0
-63 -183 -238 0
135 214 215 0
31 83 -246 0
-130 138 230 0
1 96 -111 0
3 -71 -177 0
230 232 239 0
24 -29 120 0
41 -58 101 0
40 -183 -212 0
16 -25 212 0
-143 212 -243 0
-8 42 -113 0
41 86 93 0
-1 -36 -146 0
-87 -96 237 0
-198 -205 222 0
-71 -94 -119 0
20 134 -160 0
13 -84 -200 0
12 -13 25 0
-58 81 -196 0
58 -137 178 0
-57 86 150 0
-141 188 227 0
57 217 221 0
103 -174 -182 0
-53 -176 -180 0
134 -219 -235 0
-17 -29 -219 0
-35 -145 146 0
33 -78 -180 0
-12 -65 243 0
7 -24 -98 0
49 81 -140 0
108 -135 148 0
29 130 250 0
28 -49 152 0
-120 -200 -202 0
-23 -75 -88 0
-23 -121 184 0
-125 -191 -200 0
81 140 170 0
39 -233 -240 0
91 154 -187 0
2 97 -105 0
-52 144 227 0
44 -80 -223 0
82 154 -196 0
-59 115 164 0
61 -106 -219 0
-102 170 -191 0
87 -102 -189 0
-194 210 -243 0
2 81 -160 0
-67 -79 -81 0
-162 170 -178 0
97 -180 -196 0
77 166 171 0
-24 85 -190 0
7 144 248 0
122 146 207 0
-46 104 142 0
-38 -74 -185 0
-46 77 -145 0
-69 -127 -221 0
-1 -52 136 0
-62 111 182 0
-47 50 -92 0
-42 -99 230 0
69 132 247 0
33 110 239 0
-72 124 -191 0
74 -107 -137 0
-1 -24 -77 0
62 -149 247 0
19 -98 -201 0
-121 -128 243 0
-59 -153 -169 0
-19 -62 69 0
-119 -144 224 0
-31 -40 -215 0
170 184 -207 0
33 89 211 0
37 -67 166 0
-45 147 190 0
-18 -25 -230 0
-126 -204 242 0
73 -75 -176 0
-53 96 -204 0
135 153 -236 0
-72 -128 176 0
88 127 155 0
66 105 142 0
60 71 -171 0
-126 152 179 0
57 -215 -232 0
62 76 -133 0
89 147 -167 0
-107 -155 -189 0
84 185 -227 0
17 22 232 0
104 125 225 0
-2 -119 185 0
11 186 -240 0
42 68 -83 0
-119 -147 -148 0
5 -51 166 0
106 147 -217 0
-31 -128 -166 0
-84 90 164 0
-60 -64 65 0
41 -168 226 0
17 87 -142 0
13 -15 39 0
65 169 -202 0
44 -88 143 0
50 -153 200 0
48 -110 -146 0
-26 -75 -249 0
-42 -94 202 0
23 202 242 0
214 -226 234 0
-67 -117 145 0
-52 147 164 0
67 -96 -136 0
100 -120 216 0
-49 -62 -102 0
102 202 211 0
11 -88 -189 0
11 -78 -236 0
-7 -73 94 0
45 83 -185 0
136 139 238 0
46 57 -80 0
72 165 -206 0
161 -199 -224 0
133 -150 -201 0
57 -79 -125 0
2 -7 43 0
63 205 -211 0
-39 53 59 0
23 -24 117 0
-135 164 198 0
14 -29 168 0
-135 -207 244 0
-39 -176 -196 0
23 136 248 0
29 -76 216 0
81 115 202 0
29 -41 -137 0
42 181 193 0
-12 -22 247 0
-16 53 -167 0
-95 -129 170 0
-14 -118 -244 0
28 109 146 0
-77 -82 226 0
-19 106 -120 0
-65 -124 184 0
-61 139 197 0
50 98 -158 0
-28 -43 52 0
18 -217 248 0
-36 170 198 0
127 -130 176 0
-25 45 -246 0
-135 204 212 0
99 211 234 0
-32 185 -204 0
29 -133 -197 0
42 108 116 0
-20 -60 238 0
121 132 224 0
109 -187 224 0
51 -179 222 0
-27 -191 218 0
142 224 -229 0
-39 82 172 0
-17 144 -240 0
-95 -200 235 0
84 219 -226 0
10 79 -217 0
-143 -201 -245 0
119 -136 -209 0
-10 60 148 0
8 59 79 0
-6 -61 169 0
-17 49 155 0
64 -174 -209 0
30 -59 195 0
14 -194 220 0
-171 -212 250 0
-49 124 -161 0
16 29 -142 0
113 146 -178 0
38 79 89 0
1 101 -103 0
13 84 140 0
17 -61 115 0
-92 -97 -225 0
51 -202 242 0
48 -120 -126 0
-74 -139 -191 0
-8 11 -165 0
-37 -181 227 0
-31 -47 219 0
77 -85 190 0
40 -89 -108 0
-131 -152 217 0
107 -141 246 0
-68 -155 216 0
67 -145 -154 0
9 171 -208 0
33 -80 -236 0
39 42 119 0
199 -213 221 0
-37 115 121 0
-138 -158 242 0
-32 58 -230 0
-121 143 -150 0
72 104 135 0
34 66 -119 0
-121 -234 -247 0
26 -153 197 0
-8 -140 211 0
11 23 -93 0
1 96 169 0
65 221 -235 0
13 -145 -224 0
-10 -61 -201 0
27 -40 -121 0
-37 123 177 0
-6 -110 138 0
202 226 -228 0
-102 153 -224 0
46 -48 -74 0
-17 177 246 0
-119 186 -206 0
141 -204 -232 0
-42 45 63 0
27 -85 -207 0
-17 61 -243 0
-54 -65 -164 0
-95 -112 -183 0
151 156 -213 0
47 53 81 0
-172 207 220 0
-133 -176 245 0
-158 224 -226 0
15 -17 -66 0
106 145 -217 0
-37 -44 60 0
-162 209 -224 0
-74 -168 190 0
-104 -117 -185 0
5 65 -84 0
-10 -221 -246 0
7 65 -87 0
35 -124 -201 0
106 -190 -199 0
105 242 -250 0
-19 50 -93 0
5 -57 172 0
98 -105 182 0
174 -179 -182 0
-20 -116 -137 0
47 -191 -207 0
36 -99 -222 0
-57 136 -139 0
-33 -96 192 0
117 223 -229 0
117 -134 200 0
-10 -128 -247 0
78 85 211 0
-149 212 -220 0
20 210 246 0
48 96 -248 0
205 242 247 0
21 -64 216 0
46 183 226 0
-89 149 234 0
-156 193 199 0
82 158 250 0
78 143 152 0
-48 -57 136 0
107 -168 224 0
-72 -159 242 0
-56 -59 -90 0
10 36 -105 0
-80 141 -154 0
32 91 -116 0
-29 -52 -197 0
6 -75 142 0
-68 -115 207 0
58 155 160 0
73 150 196 0
126 -137 190 0
-148 -215 236 0
-22 -24 -137 0
32 100 -204 0
27 -61 83 0
-26 -226 -248 0
83 -191 -195 0
43 -158 244 0
100 129 181 0
87 -93 -226 0
-14 172 -184 0
-25 -195 198 0
-76 -118 -198 0
1 -92 187 0
-46 -139 142 0
-19 192 -217 0
3 -202 212 0
60 -124 137 0
-76 138 -233 0
-145 195 -228 0
-27 -111 -240 0
-64 148 245 0
-34 -174 -244 0
83 -154 193 0
-108 171 -197 0
-206 215 -237 0
-49 -112 -231 0
8 -47 -99 0
27 -124 -151 0
119 139 -230 0
-3 4 164 0
89 156 211 0
-144 -163 189 0
36 -128 -235 0
26 133 -134 0
44 71 -135 0
23 67 241 0
83 156 248 0
-43 -107 198 0
54 140 -143 0
-39 -112 -164 0
37 -65 -135 0
-77 94 -140 0
-151 -157 -198 0
151 -177 -196 0
-51 216 -217 0
-87 222 -236 0
55 108 -176 0
86 188 -196 0
-2 -102 -231 0
-11 -98 190 0
-41 184 207 0
-8 55 -248 0
-38 -95 -143 0
21 24 190 0
-126 -151 -167 0
-48 -69 -163 0
77 89 138 0
19 -50 83 0
19 -49 216 0
-49 -122 187 0
79 232 -233 0
87 194 207 0
126 151 -176 0
-125 167 200 0
88 -136 -162 0
-180 192 242 0
-89 -100 -153 0
-68 -78 123 0
114 186 -234 0
-82 127 -182 0
73 91 92 0
-152 -156 -173 0
-55 -100 -109 0
-51 125 164 0
-98 110 188 0
7 -141 -151 0
27 -29 -193 0
-77 109 200 0
-152 -179 213 0
-3 36 -149 0
-145 -226 -232 0
-195 221 246 0
-74 -100 -161 0
61 234 -243 0
-129 162 -213 0
-102 130 233 0
-92 181 220 0
68 -104 -136 0
10 56 107 0
-133 -149 -175 0
39 -217 -227 0
52 -157 -222 0
137 -153 227 0
-47 -194 218 0
14 89 108 0
12 124 150 0
-32 -82 126 0
59 -132 217 0
32 67 -206 0
-9 120 -248 0
101 -119 -126 0
-112 132 245 0
-6 210 231 0
-17 234 -244 0
-68 92 -208 0
110 121 -234 0
-25 -123 164 0
-21 91 -238 0
-51 -69 -109 0
-19 -33 -49 0
-12 -203 -231 0
19 -77 79 0
96 -190 245 0
-49 132 159 0
-10 -19 -248 0
-2 -30 -45 0
161 -200 -220 0
6 -139 -239 0
14 94 -135 0
146 166 219 0
1 177 -228 0
-4 -57 -166 0
-129 -135 192 0
83 -192 238 0
25 207 248 0
111 -189 -229 0
10 -24 149 0
12 -34 -233 0
41 93 139 0
-114 -189 218 0
152 163 218 0
-24 66 -110 0
107 213 -237 0
27 180 194 0
-57 -86 -193 0
-105 106 206 0
-32 -41 -160 0
43 -161 234 0
-122 147 182 0
146 -230 -241 0
-8 -43 73 0
32 144 -224 0
-70 -143 144 0
181 238 247 0
-20 191 212 0
-11 -161 -216 0
-61 -138 -154 0
78 -106 -113 0
34 -190 -220 0
-15 66 -101 0
14 26 -101 0
213 214 -234 0
29 -152 -235 0
-35 -130 -168 0
-18 -69 -168 0
-30 -47 65 0
-101 210 224 0
118 -194 -228 0
-7 119 -199 0
-62 187 198 0
-22 75 -239 0
40 -72 84 0
8 170 -225 0
10 -34 -46 0
-149 -154 230 0
166 167 205 0
102 176 198 0
89 210 234 0
-5 -181 184 0
35 -143 -210 0
105 121 243 0
32 143 210 0
-38 -88 196 0
63 -140 143 0
-66 -70 113 0
82 -192 -247 0
34 -56 -225 0
-100 103 173 0
5 -138 214 0
-50 -182 -214 0
52 -141 216 0
-80 -103 -151 0
26 -80 220 0
136 -159 177 0
78 -93 182 0
61 97 -133 0
36 117 -237 0
-221 -227 231 0
-24 -40 113 0
62 130 -228 0
12 113 159 0
99 134 -222 0
68 77 -206 0
25 -160 199 0
62 -205 232 0
-1 72 -108 0
121 -238 -249 0
25 109 -202 0
42 -167 205 0
-72 -95 235 0
-96 161 -171 0
112 -199 239 0
-26 -118 229 0
-84 -145 205 0
-93 200 -234 0
9 64 -75 0
7 -78 228 0
53 85 86 0
-2 -124 235 0
-98 -203 247 0
-18 118 -182 0
77 -147 -227 0
59 196 235 0
-17 125 194 0
165 174 204 0
-49 85 115 0
-38 -145 -242 0
133 179 219 0
-88 -103 216 0
-19 -138 168 0
-111 205 -233 0
37 -116 176 0
-31 -129 -189 0
32 -206 225 0
-115 218 225 0
-64 -117 137 0
121 142 -175 0
-28 167 171 0
70 211 231 0
15 176 -241 0
107 126 -220 0
37 65 -139 0
-1 168 -242 0
-90 101 164 0
-129 -209 232 0
-4 35 -59 0
-55 -78 200 0
27 -32 -180 0
-165 -199 220 0
-59 172 178 0
-93 -185 250 0
-9 90 -157 0
18 -47 -57 0
71 -128 -229 0
110 134 191 0
-118 -157 244 0
-157 -185 249 0
85 -140 145 0
-3 19 -163 0
23 -100 -133 0
-78 -226 -239 0
-34 -185 -247 0
-39 91 164 0
84 96 -188 0
-89 99 138 0
145 -147 -207 0
-30 -74 -173 0
55 -174 228 0
65 100 -158 0
-69 99 -180 0
19 -139 -187 0
-83 -210 221 0
-54 68 69 0
-80 -131 -239 0
13 39 -47 0
93 -179 187 0
-194 199 -204 0
53 126 132 0
24 -37 -159 0
27 -107 -110 0
-62 103 -130 0
-82 -194 -234 0
-45 101 141 0
40 189 244 0
100 140 227 0
216 -218 -223 0
84 105 162 0
-36 -139 -205 0
46 -69 133 0
37 -108 204 0
-40 212 -248 0
19 -70 -121 0
-3 -71 -126 0
32 157 198 0
75 -129 175 0
-126 151 185 0
44 -143 -168 0
105 -123 -158 0
3 -220 -239 0
-29 69 -199 0
-3 85 -247 0
-103 137 239 0
86 -123 167 0
-51 -63 -74 0
-28 -84 210 0
-181 -185 190 0
-83 88 -161 0
-37 -40 -104 0
98 190 -218 0
-16 143 173 0
42 -134 209 0
-181 -182 -236 0
-37 -67 -249 0
33 143 185 0
-1 -42 -192 0
14 206 220 0
126 146 218 0
68 117 -177 0
26 -149 203 0
-122 -128 -200 0
-17 -173 195 0
-4 -91 176 0
131 218 -227 0
40 -244 -248 0
-200 -219 -228 0
117 -177 -238 0
-4 144 173 0
-134 213 -248 0
6 -127 232 0
-12 -50 -51 0
40 -68 -97 0
-13 -20 -73 0
