c F1 random 3-CNF cnfgen RandomKCNF(3,175,746,seed=16) m/n=4.26
p cnf 175 746
-93 -121 124 0
-2 105 115 0
-3 76 -78 0
-6 57 155 0
156 -162 -171 0
76 -154 -161 0
-23 -67 -108 0
-45 133 -165 0
-2 22 -134 0
-40 -78 -80 0
17 -43 -124 0
-4 32 -122 0
6 -37 -168 0
-9 -12 -139 0
131 172 -175 0
24 26 139 0
12 101 -161 0
40 66 164 0
62 63 135 0
69 -100 -105 0
67 118 120 0
-51 -110 171 0
30 -56 107 0
-37 112 117 0
34 -104 111 0
93 -127 171 0
-6 -110 -169 0
-20 32 -79 0
54 -114 151 0
-28 162 -172 0
-14 21 128 0
-73 94 104 0
49 54 117 0
86 102 -156 0
6 99 164 0
-53 129 161 0
-121 124 -149 0
28 45 -49 0
74 165 168 0
31 -48 157 0
24 112 -146 0
9 21 147 0
-11 53 -107 0
-32 67 -105 0
96 -111 113 0
-21 55 99 0
-106 142 -172 0
6 -90 167 0
43 -83 104 0
103 115 164 0
-43 -50 171 0
14 31 -133 0
-21 -156 158 0
-73 110 153 0
-11 -77 -158 0
-20 -81 -161 0
123 145 167 0
-70 -86 103 0
4 70 122 0
40 -108 -152 0
28 -69 147 0
-96 -108 151 0
41 52 -168 0
1 -6 142 0
-28 -31 128 0
-1 17 -65 0
-108 124 153 0
41 58 -79 0
19 38 91 0
-24 -106 -163 0
84 -87 102 0
7 -118 138 0
-105 113 139 0
62 63 137 0
-44 -57 68 0
-34 -63 -128 0
86 -96 -162 0
3 105 -165 0
2 39 164 0
25 131 -151 0
4 -71 -118 0
64 81 -86 0
-38 66 83 0
-14 21 -128 0
-40 102 -134 0
-4 56 -98 0
-87 94 110 0
49 156 -158 0
48 142 144 0
56 119 153 0
74 109 160 0
-96 143 167 0
4 27 148 0
-9 -38 -100 0
42 -60 -144 0
-102 159 -161 0
40 -89 -105 0
-37 92 -126 0
112 147 -148 0
-17 -141 155 0
3 -133 -157 0
18 -92 118 0
-25 -95 158 0
-28 -54 112 0
83 -139 -175 0
-63 -95 -131 0
23 -114 132 0
-23 -64 -157 0
41 -96 -169 0
127 157 163 0
-96 -136 173 0
-10 75 -86 0
-80 144 -167 0
-1 -98 -112 0
-95 -115 -128 0
-14 77 -151 0
91 107 137 0
-6 87 -122 0
-94 126 -165 0
-81 -104 -161 0
19 -56 -70 0
27 -45 -129 0
51 -96 126 0
-21 -79 100 0
115 -145 168 0
-16 113 144 0
19 86 -129 0
-29 115 156 0
-24 -90 157 0
24 -68 125 0
13 -40 128 0
1 41 -44 0
35 94 101 0
3 10 -19 0
-3 99 -114 0
30 32 -56 0
17 -44 -70 0
21 93 151 0
51 54 -158 0
-65 -118 -131 0
79 118 132 0
-82 -115 136 0
27 -97 -134 0
43 -94 108 0
-23 69 -169 0
-16 79 -115 0
89 113 117 0
-66 73 -172 0
-26 130 -175 0
-34 89 151 0
58 -135 -153 0
3 38 -87 0
-25 120 -170 0
75 128 -148 0
29 57 90 0
-6 -154 162 0
-50 -56 -155 0
-39 64 158 0
47 73 -90 0
-85 -88 -121 0
81 -163 168 0
115 -124 169 0
40 -140 155 0
15 17 118 0
79 109 -140 0
14 -152 -159 0
72 112 -158 0
-24 51 -79 0
-11 138 -141 0
-84 -112 -152 0
-84 -94 172 0
76 -146 164 0
-49 -79 -136 0
22 -99 -127 0
119 -134 -157 0
-15 -89 -121 0
21 -108 149 0
-14 54 90 0
8 41 -133 0
69 70 109 0
-9 14 22 0
-33 113 -167 0
-8 -9 -21 0
-74 -77 107 0
8 -79 -104 0
-8 100 167 0
-9 11 42 0
-4 -20 119 0
-7 126 167 0
-24 -92 -125 0
-9 -22 28 0
61 89 -135 0
-35 -52 -53 0
-57 -125 -167 0
24 -129 -172 0
4 77 108 0
135 -146 155 0
52 83 -143 0
15 56 68 0
-14 68 72 0
-7 126 -140 0
-91 -119 -139 0
-47 -130 -163 0
-34 63 -115 0
68 92 -129 0
-29 -36 49 0
11 94 -112 0
25 -114 -157 0
-46 48 -145 0
108 -150 -171 0
18 50 -122 0
-83 115 156 0
-25 85 -141 0
48 -137 145 0
-59 63 -66 0
57 97 170 0
-118 156 165 0
8 -32 143 0
-60 -74 -118 0
-62 -75 143 0
62 73 -151 0
25 108 161 0
43 93 173 0
-10 -25 -101 0
-51 -68 155 0
5 -8 155 0
-21 -94 166 0
-6 -19 -86 0
-15 -122 157 0
-4 -141 -170 0
-99 119 134 0
-1 -137 -169 0
28 -86 -154 0
122 130 153 0
-40 -125 127 0
-85 108 -164 0
-88 118 -165 0
2 83 -105 0
-60 80 -116 0
-9 27 -168 0
80 -145 171 0
-65 -161 -172 0
51 -117 124 0
5 64 -156 0
-12 -13 -75 0
120 -135 -155 0
-52 56 -149 0
111 -132 151 0
-61 76 -102 0
-164 165 167 0
-21 52 -163 0
6 16 -175 0
139 -167 -171 0
-11 113 -130 0
-8 71 -133 0
50 -106 151 0
38 -89 -138 0
24 87 119 0
28 117 174 0
-20 130 -149 0
-19 64 82 0
14 48 113 0
11 -12 89 0
-101 112 141 0
-18 46 -167 0
82 151 -169 0
-100 105 150 0
4 -29 115 0
14 -105 138 0
60 103 131 0
-52 -68 -161 0
35 54 -70 0
-47 -119 174 0
46 -90 -113 0
27 59 -87 0
69 130 173 0
-63 -77 175 0
-5 -12 103 0
51 105 161 0
-62 -164 172 0
-63 74 -128 0
98 107 -171 0
-48 84 104 0
-34 -81 -164 0
-11 -134 -139 0
-23 85 -96 0
38 -82 -151 0
-3 -11 -47 0
21 35 67 0
-10 38 -46 0
-3 -49 -163 0
41 -57 174 0
-12 39 86 0
-8 -46 -147 0
22 -51 -55 0
-40 47 121 0
27 -33 127 0
21 -55 71 0
-25 -38 -73 0
52 137 -154 0
-6 66 143 0
27 94 161 0
17 -135 153 0
16 23 -27 0
86 -96 -104 0
6 -58 72 0
6 -44 -135 0
-53 70 93 0
40 88 -95 0
-31 55 -108 0
-15 -30 -141 0
-70 93 -148 0
26 91 -111 0
-54 155 -175 0
-21 -38 77 0
50 -86 -100 0
22 -70 169 0
19 -75 -84 0
-132 -151 162 0
15 158 164 0
-3 28 -53 0
9 -42 106 0
-52 -104 -160 0
5 -160 166 0
-24 -143 144 0
-43 -44 103 0
21 50 75 0
136 -170 172 0
28 67 -140 0
8 79 -135 0
3 47 -139 0
-3 67 -171 0
115 140 147 0
66 -127 -163 0
65 69 90 0
26 -32 -157 0
77 95 168 0
23 39 -119 0
28 -61 -123 0
-32 -54 -125 0
33 67 -163 0
-67 105 -157 0
2 36 -145 0
-26 43 -164 0
-96 -110 -173 0
-83 -114 -156 0
-73 81 -111 0
37 -86 145 0
17 -31 -41 0
8 19 -154 0
32 -95 -154 0
20 -32 39 0
13 14 87 0
22 108 -122 0
74 95 -170 0
21 22 151 0
41 87 -121 0
64 128 -143 0
48 77 -81 0
48 -138 -157 0
18 -75 109 0
8 -13 -101 0
-126 130 144 0
-81 -127 154 0
76 -126 -160 0
67 113 168 0
-43 -57 -87 0
-16 -84 116 0
16 118 141 0
-73 -136 153 0
87 -89 -95 0
34 -105 -159 0
59 -97 -166 0
128 146 -168 0
-31 119 144 0
-17 -58 102 0
78 -131 156 0
-45 147 151 0
-68 -136 -174 0
-37 -126 -137 0
36 50 162 0
33 124 -152 0
52 -65 -106 0
68 -69 110 0
20 63 -144 0
47 -122 127 0
26 88 -151 0
-1 138 -153 0
107 -171 -175 0
-7 92 105 0
50 51 64 0
-27 128 -175 0
18 75 -87 0
23 104 -172 0
-98 114 -134 0
-29 68 -131 0
16 -33 121 0
14 -46 143 0
-4 -10 60 0
-36 60 85 0
-46 -88 -175 0
25 -118 138 0
21 110 -174 0
-29 -49 115 0
-39 -122 -129 0
82 -102 115 0
-104 114 136 0
54 82 -153 0
-15 -87 159 0
-43 47 124 0
59 -82 172 0
-36 43 93 0
17 -139 159 0
-3 -9 24 0
-95 112 -113 0
-153 -161 173 0
4 13 -26 0
16 -99 129 0
-27 -55 -101 0
-23 -93 -120 0
-9 127 146 0
-16 -75 145 0
70 137 -150 0
8 17 75 0
-39 -67 171 0
-59 98 132 0
-19 130 -166 0
15 23 33 0
3 43 140 0
-78 -103 145 0
53 -55 80 0
76 117 -135 0
6 16 59 0
-32 -106 -137 0
49 83 154 0
-37 -115 159 0
-93 108 -141 0
80 125 -143 0
-21 -58 162 0
-18 -67 108 0
-98 106 147 0
29 -35 64 0
57 112 167 0
73 -128 167 0
-31 92 111 0
104 -105 -160 0
-13 -25 133 0
-14 108 -154 0
61 -95 175 0
26 -56 117 0
24 139 152 0
27 117 158 0
-151 -155 -165 0
61 116 126 0
-59 -141 -163 0
-37 -91 139 0
-20 29 -96 0
53 78 -83 0
72 96 -97 0
-55 115 -152 0
-25 109 -169 0
8 12 -129 0
-69 70 -115 0
2 60 -134 0
16 61 62 0
33 -52 -173 0
-104 129 -163 0
25 62 142 0
6 39 40 0
-76 85 174 0
-13 115 131 0
56 106 -135 0
22 -35 36 0
44 58 -87 0
24 28 78 0
-56 96 -98 0
-17 -72 -147 0
32 -89 138 0
-37 66 -140 0
62 -109 155 0
82 -109 -148 0
136 -152 169 0
-11 -131 167 0
-8 -22 38 0
-17 -69 128 0
97 123 -132 0
-20 -44 -105 0
-14 -91 93 0
-9 -16 -19 0
-33 141 -144 0
-32 -105 -114 0
-28 -162 173 0
-8 88 129 0
-37 -157 -158 0
-56 -98 -124 0
8 -27 -156 0
-114 -149 162 0
7 -51 -143 0
24 -29 -98 0
-126 156 -171 0
15 48 -129 0
11 39 -56 0
-17 -18 146 0
22 -89 -94 0
43 -133 163 0
-21 -93 174 0
-24 91 -142 0
-77 -85 164 0
-85 142 146 0
63 80 136 0
17 29 -108 0
39 90 160 0
-5 -31 130 0
-48 -86 107 0
-59 76 129 0
13 43 56 0
-32 -83 125 0
-10 -45 -71 0
45 95 171 0
1 16 51 0
-6 81 -120 0
-37 -91 -140 0
-99 -106 115 0
-6 -60 98 0
2 35 -148 0
-62 81 170 0
7 33 162 0
-67 -136 -155 0
-17 -49 -103 0
-57 -132 152 0
31 -34 -95 0
68 -94 -138 0
-20 -74 -154 0
-22 -104 -146 0
-12 68 119 0
16 121 160 0
5 44 164 0
30 -130 132 0
-45 -134 -152 0
-66 -97 -133 0
-8 -62 98 0
40 73 171 0
18 -92 151 0
6 -54 -109 0
43 -44 174 0
56 58 105 0
-93 -154 -162 0
27 69 -142 0
128 -142 -160 0
-26 42 -157 0
130 145 155 0
-3 50 92 0
-81 -111 -138 0
-70 75 148 0
-3 47 96 0
-27 90 -152 0
-67 -105 -144 0
-50 64 -84 0
24 138 164 0
14 74 81 0
-9 -19 55 0
-44 -49 122 0
43 70 -93 0
2 23 -150 0
-34 -58 -83 0
-77 -97 -151 0
74 -95 158 0
-83 -93 -144 0
44 -134 168 0
83 86 -170 0
-49 81 -162 0
-9 14 -77 0
7 100 128 0
-11 -141 -152 0
8 76 125 0
-46 -47 -74 0
-70 -132 -172 0
46 -55 -78 0
17 -61 -129 0
75 -115 155 0
19 22 157 0
-3 -30 -63 0
63 74 -102 0
36 -43 81 0
12 123 174 0
-3 34 -172 0
50 68 165 0
48 65 91 0
-78 84 136 0
-24 31 45 0
20 -105 -111 0
-58 102 139 0
-73 78 -153 0
-56 -139 -141 0
-58 -85 124 0
-31 -118 131 0
-18 -19 -92 0
-11 14 -153 0
-64 83 -143 0
40 47 -63 0
30 -32 75 0
-7 -26 133 0
-42 131 162 0
-69 166 171 0
71 121 -141 0
-1 20 163 0
2 -51 112 0
111 119 -169 0
52 92 124 0
71 -138 141 0
10 35 57 0
22 133 155 0
42 -58 149 0
-110 -114 120 0
46 117 -164 0
-24 126 -170 0
-50 -118 -126 0
-52 -70 -169 0
30 44 147 0
-21 -52 89 0
69 78 108 0
-62 75 93 0
-42 72 171 0
-15 125 167 0
70 -95 -107 0
81 91 175 0
49 52 -131 0
-109 -157 -163 0
6 -49 155 0
-12 -23 -151 0
2 -92 -103 0
-97 117 119 0
28 -62 -72 0
-37 -39 -53 0
44 -51 -116 0
23 -84 -163 0
10 -46 -133 0
-17 -116 -127 0
-48 -50 114 0
-22 63 79 0
1 -72 -75 0
16 57 -119 0
-19 82 -124 0
-140 -157 159 0
-13 -27 60 0
8 96 159 0
71 136 -159 0
66 114 -116 0
-29 88 -97 0
44 -115 147 0
62 -142 171 0
-97 -98 161 0
76 140 -145 0
-105 -161 -169 0
29 -117 142 0
61 -81 151 0
-149 151 162 0
-7 -135 -174 0
17 74 165 0
-28 51 -83 0
7 -28 128 0
45 155 170 0
61 -108 -138 0
11 -78 -172 0
-35 56 -170 0
-44 79 91 0
-12 -38 -59 0
56 155 -167 0
-80 129 158 0
10 44 50 0
-12 -83 91 0
-53 -74 116 0
124 -146 151 0
69 121 -140 0
82 -99 -148 0
120 -160 -162 0
48 -60 128 0
-48 101 133 0
100 -105 123 0
-64 95 -104 0
21 -41 -58 0
-20 -40 108 0
-36 -58 -164 0
56 -156 -173 0
-6 -122 148 0
7 -132 135 0
7 -28 -93 0
-22 46 -164 0
-15 140 171 0
-81 101 -167 0
48 153 -154 0
-79 97 100 0
-72 99 -144 0
-2 -13 -123 0
5 -7 -102 0
-60 -163 -175 0
-21 -66 114 0
-66 84 154 0
-79 -86 -161 0
9 105 -135 0
-54 113 174 0
-119 123 161 0
-61 -63 149 0
-30 -47 50 0
66 -127 -157 0
-13 -25 -175 0
-13 -48 60 0
-11 -96 -154 0
-35 -82 -167 0
-65 -95 -97 0
26 -37 -121 0
77 -99 173 0
-85 94 123 0
60 -90 -155 0
-39 57 135 0
-106 -120 -153 0
-27 -44 -133 0
9 -84 -148 0
-58 145 -175 0
93 105 -127 0
26 72 100 0
-38 39 -68 0
18 -54 142 0
40 103 171 0
-3 28 88 0
47 128 173 0
-55 79 157 0
-91 -145 171 0
-104 -106 157 0
-78 136 -148 0
72 -83 -110 0
47 103 126 0
39 77 148 0
71 76 -108 0
55 120 -127 0
-29 -33 -62 0
95 -151 168 0
29 107 109 0
42 53 78 0
-42 -130 -137 0
-45 100 -147 0
-55 68 -88 0
67 -93 -151 0
32 112 171 0
31 107 108 0
-67 -121 125 0
