c F1 random 3-CNF cnfgen RandomKCNF(3,75,320,seed=15) m/n=4.26
p cnf 75 320
2 27 67 0
-3 8 19 0
-44 -46 -60 0
-27 -30 45 0
40 -54 -66 0
-11 -60 -63 0
-9 52 58 0
18 -23 -69 0
-13 15 20 0
-38 60 72 0
46 65 -70 0
-22 -40 -41 0
-10 35 57 0
49 -50 64 0
-6 9 -37 0
-21 -64 73 0
8 -61 65 0
11 33 -58 0
45 -49 -56 0
-4 -40 71 0
45 50 -67 0
-32 -64 66 0
-1 41 -63 0
8 -23 -65 0
-13 -17 -43 0
62 -71 74 0
13 20 -60 0
30 -48 52 0
-44 59 -73 0
-17 35 44 0
28 60 -75 0
10 27 -57 0
-8 21 -48 0
22 48 -73 0
-22 60 -61 0
32 -36 -57 0
5 -22 -52 0
-4 -44 -58 0
52 57 -59 0
-43 58 62 0
-22 29 -71 0
-42 43 -58 0
16 -39 54 0
34 -38 74 0
20 62 67 0
-29 -51 -55 0
-29 -52 -61 0
-43 44 49 0
29 30 -64 0
-28 -31 -33 0
-24 31 63 0
43 69 -72 0
-5 -8 -29 0
-38 -41 -67 0
-2 49 -71 0
9 22 56 0
-6 -12 50 0
26 45 69 0
34 -45 67 0
-1 -19 75 0
-19 22 65 0
43 55 64 0
-37 51 -74 0
2 -20 -67 0
19 -37 51 0
7 45 64 0
-14 15 38 0
-17 38 -75 0
3 -18 -32 0
11 -43 62 0
-8 59 63 0
-47 -52 -57 0
9 19 36 0
9 -28 52 0
28 -46 56 0
54 55 71 0
-11 -13 19 0
53 60 67 0
3 -20 -50 0
-39 -40 -71 0
9 -32 -65 0
-43 -64 70 0
38 40 -57 0
-30 -49 52 0
-2 9 -26 0
30 39 66 0
-8 18 -19 0
11 20 35 0
14 23 -33 0
17 38 66 0
7 41 -65 0
-12 19 72 0
14 48 50 0
22 -68 74 0
25 41 73 0
-15 -23 54 0
-31 -59 75 0
-18 -30 49 0
36 -39 -69 0
-45 -55 -64 0
-26 -28 -58 0
-33 38 -73 0
-53 55 -59 0
10 -18 -67 0
-6 -29 -57 0
25 42 59 0
-19 -28 41 0
23 -62 -66 0
4 23 59 0
31 -35 53 0
17 24 54 0
31 41 -49 0
-6 -7 66 0
-46 -63 -73 0
5 10 33 0
5 35 -71 0
-24 -30 57 0
-12 46 74 0
-23 -29 -33 0
-13 -52 -67 0
9 -34 -47 0
24 27 52 0
-37 43 -55 0
30 -35 52 0
2 -54 59 0
1 -8 -23 0
-15 27 -69 0
-7 25 -28 0
-8 25 29 0
28 -56 68 0
18 57 -65 0
-1 5 33 0
11 -44 -64 0
5 -65 -67 0
-24 -29 64 0
-19 30 63 0
18 -46 67 0
59 -63 -72 0
-13 62 -64 0
-16 -43 44 0
8 68 -69 0
35 53 -66 0
-6 29 -61 0
4 -17 38 0
-12 43 45 0
-21 50 57 0
-9 30 -34 0
-7 40 -70 0
28 -29 -46 0
-29 -44 -67 0
10 -25 -39 0
-1 13 67 0
17 -18 47 0
15 -18 -42 0
-12 -63 70 0
6 -17 33 0
-58 72 -75 0
-45 -65 68 0
17 27 64 0
7 -15 -55 0
20 29 -39 0
17 21 28 0
-6 57 61 0
-29 36 40 0
44 -59 -60 0
-3 34 75 0
-21 67 -74 0
-10 14 50 0
2 -32 42 0
33 -34 -72 0
-7 21 -70 0
-24 -46 -49 0
13 54 61 0
21 -61 71 0
-34 -61 74 0
38 54 62 0
8 -35 60 0
-13 20 -38 0
33 -38 72 0
-24 47 -73 0
-15 67 -68 0
-1 29 -59 0
32 -46 57 0
-8 -9 12 0
35 -50 -66 0
-5 13 67 0
-21 26 -33 0
-27 42 56 0
5 21 -32 0
47 -57 -58 0
2 -51 -61 0
36 -45 -66 0
9 -12 -31 0
-25 -40 73 0
2 -30 44 0
6 -39 -46 0
-6 11 -65 0
-52 -59 73 0
-34 55 -68 0
-12 20 -42 0
2 -14 -58 0
-1 -8 -17 0
1 -6 -35 0
11 -44 45 0
-17 -28 -56 0
40 -52 74 0
42 -70 -73 0
9 45 48 0
-20 47 52 0
28 38 -64 0
-11 22 23 0
-37 48 -50 0
-45 52 72 0
26 39 53 0
-13 -23 28 0
7 -37 -44 0
-14 49 -63 0
-10 -41 -71 0
-15 -22 -31 0
9 20 -53 0
-1 53 -59 0
30 59 -62 0
-11 31 66 0
-19 24 -73 0
-14 -19 -70 0
-11 59 65 0
-49 53 -71 0
-29 47 -58 0
-24 -30 63 0
2 40 -74 0
-4 23 -35 0
16 -29 38 0
14 23 61 0
9 -21 -35 0
2 -26 -67 0
36 51 -54 0
19 45 71 0
15 -54 -63 0
-23 -29 -67 0
-6 -27 -43 0
1 -55 68 0
-4 -26 -50 0
-48 71 72 0
36 -63 74 0
-28 43 74 0
-41 -59 -61 0
-18 38 61 0
10 -12 -66 0
-21 -28 -70 0
-7 39 -49 0
9 44 -65 0
27 -57 65 0
23 -29 -34 0
26 -34 -37 0
15 58 61 0
17 59 60 0
-17 -67 68 0
1 -35 -55 0
10 24 63 0
20 -50 -53 0
24 -29 35 0
31 45 66 0
23 46 -69 0
45 50 71 0
16 -28 57 0
42 -59 -60 0
8 -45 72 0
-17 -26 28 0
-24 51 66 0
14 36 56 0
25 32 -54 0
21 33 -52 0
-18 28 -38 0
-59 -70 -75 0
25 28 -43 0
-27 -38 -48 0
-19 -63 -73 0
-5 -8 -53 0
-6 52 57 0
3 -15 17 0
-9 47 -73 0
-7 -58 -72 0
-11 49 58 0
24 61 74 0
17 -26 66 0
21 -56 -63 0
6 22 62 0
34 37 -39 0
-31 50 -60 0
-1 -71 72 0
20 27 -61 0
63 66 -67 0
-12 17 -53 0
-8 10 25 0
-18 -51 53 0
-39 47 67 0
15 -23 35 0
-10 -31 44 0
-5 42 -53 0
-3 -37 -59 0
23 -34 73 0
-4 50 75 0
5 66 75 0
3 -36 -55 0
36 -41 70 0
-18 -34 -56 0
1 -20 47 0
7 -36 -43 0
5 -28 -32 0
-9 -37 51 0
-1 29 -63 0
45 -56 -74 0
-17 -23 65 0
-28 -33 -49 0
32 61 62 0
-53 -63 -70 0
14 36 -39 0
-30 -45 -47 0
-21 47 -73 0
-31 46 69 0
