c F1 random 3-CNF cnfgen RandomKCNF(3,75,320,seed=12) m/n=4.26
p cnf 75 320
-35 61 -68 0
-2 -48 62 0
-1 -19 72 0
8 27 -44 0
3 12 52 0
-15 55 -57 0
7 21 -72 0
-54 61 62 0
-25 -34 -46 0
-15 -31 -33 0
65 66 -74 0
5 56 -67 0
6 27 50 0
-5 -10 -36 0
-7 -45 66 0
-37 -44 59 0
-22 60 71 0
-1 29 35 0
2 6 -65 0
20 -65 -70 0
-16 -30 -68 0
-21 -34 57 0
-36 43 -66 0
4 33 67 0
35 54 72 0
-8 56 -61 0
12 -52 -56 0
21 50 73 0
5 -10 54 0
-25 -40 46 0
28 51 -69 0
-11 42 46 0
-24 40 56 0
-27 57 63 0
-31 44 59 0
1 -36 -47 0
-19 29 -67 0
-32 -50 65 0
-30 -53 69 0
-14 -71 74 0
-42 47 64 0
29 -62 -70 0
-6 -47 -55 0
19 -42 50 0
-49 -53 -55 0
-49 50 64 0
-15 27 -33 0
18 -28 40 0
2 22 -26 0
24 25 -40 0
-26 64 69 0
-17 -51 -65 0
46 -50 54 0
20 -47 -63 0
-10 17 48 0
11 14 55 0
4 15 -73 0
-27 -44 59 0
12 -44 51 0
16 -39 63 0
-16 -26 -30 0
-41 -44 -52 0
25 47 -69 0
35 -50 -73 0
33 44 -54 0
23 -47 -71 0
-40 -43 -48 0
10 -23 -52 0
-19 -38 -45 0
6 43 -67 0
-12 21 -63 0
9 30 37 0
16 -28 -36 0
-17 -59 -62 0
35 47 -50 0
-44 -46 65 0
-4 -10 -38 0
-20 54 -67 0
7 53 -55 0
15 40 68 0
-16 -49 71 0
-19 -25 -30 0
17 25 -27 0
-5 69 -70 0
24 -67 -73 0
-3 -50 64 0
-10 -67 70 0
48 54 -65 0
-10 36 -68 0
-36 53 66 0
37 45 47 0
9 15 19 0
23 -46 71 0
-19 -37 59 0
-2 -33 37 0
-3 -22 46 0
-48 -54 63 0
39 -69 -73 0
8 18 41 0
-9 -12 -23 0
-6 -29 -56 0
7 41 62 0
13 62 -64 0
44 50 69 0
58 61 68 0
-23 28 -53 0
58 -61 -67 0
22 26 74 0
22 42 70 0
18 61 -63 0
-20 30 -72 0
-32 -67 71 0
-21 51 -71 0
6 58 -67 0
8 24 72 0
-19 52 69 0
12 -57 69 0
-4 21 52 0
-2 -11 -14 0
16 -39 46 0
-48 -53 56 0
14 -36 -42 0
1 44 -62 0
-1 -21 -30 0
9 -12 50 0
-40 58 71 0
-1 -26 -41 0
-9 18 23 0
-1 -43 -49 0
-10 -40 46 0
14 -44 55 0
8 18 54 0
7 14 -38 0
12 48 -69 0
-11 -12 16 0
-18 -23 64 0
-20 24 40 0
4 8 -61 0
-2 -22 40 0
-6 16 43 0
-55 -61 -75 0
-32 -55 75 0
-1 26 60 0
36 62 68 0
-3 -22 24 0
21 -53 -56 0
23 41 57 0
-32 -33 -53 0
9 56 59 0
65 69 70 0
4 -8 -69 0
-4 57 58 0
-8 26 -45 0
36 -49 71 0
14 32 -41 0
21 25 59 0
-19 -56 74 0
-50 -65 71 0
-19 -29 35 0
1 37 -43 0
-5 12 -17 0
20 30 -40 0
6 45 62 0
23 -36 -63 0
-5 -14 -73 0
-29 -51 73 0
29 -38 -61 0
9 19 30 0
-16 54 75 0
35 56 -62 0
26 54 56 0
-34 -38 -40 0
17 19 35 0
2 -42 -74 0
23 -48 61 0
-52 -55 -65 0
-42 -47 60 0
-23 -60 74 0
45 -66 -69 0
19 -21 41 0
-18 36 39 0
-29 -55 72 0
-28 -49 -62 0
-14 29 67 0
-16 56 58 0
-55 61 64 0
-30 -60 -72 0
66 -74 -75 0
5 27 -44 0
12 22 66 0
-30 62 -71 0
1 47 -55 0
6 -41 -66 0
-3 -59 -64 0
-4 -20 -50 0
-17 -53 65 0
2 48 -72 0
29 -39 68 0
2 7 -42 0
-3 -10 -49 0
-13 -29 66 0
47 -55 -65 0
-5 -7 64 0
2 -46 -73 0
7 -34 -38 0
-12 -52 54 0
-11 33 72 0
1 44 -60 0
1 -41 71 0
-17 -21 -61 0
-23 43 49 0
-10 -15 30 0
-12 40 59 0
-34 -47 59 0
13 -24 -38 0
19 25 -46 0
7 54 68 0
-20 -64 -66 0
33 -63 65 0
10 -14 -28 0
-1 44 55 0
-26 -47 -64 0
-18 62 74 0
14 40 -41 0
-15 62 72 0
-24 -43 45 0
-21 26 56 0
24 -54 -75 0
17 51 -62 0
4 -18 71 0
39 -52 -57 0
-10 66 73 0
-13 21 -39 0
-19 40 -50 0
-24 36 66 0
13 -31 43 0
-7 -20 47 0
21 29 50 0
17 32 -64 0
26 -59 70 0
-19 24 45 0
-9 -23 -69 0
20 21 33 0
20 -36 57 0
67 -70 -71 0
9 49 -69 0
34 -45 60 0
-15 38 40 0
14 -21 -36 0
5 23 54 0
-34 -37 52 0
3 -23 -75 0
11 19 -72 0
-33 -43 -48 0
-15 -28 -37 0
-31 48 -68 0
7 10 23 0
2 67 -75 0
9 45 -46 0
-12 20 -37 0
24 26 -33 0
-27 -50 -61 0
-2 19 47 0
10 32 -43 0
24 -42 63 0
33 -39 -55 0
-33 44 56 0
-25 -44 60 0
-7 -33 -74 0
33 -68 71 0
-41 49 66 0
14 -54 66 0
-4 -21 -27 0
2 12 72 0
-13 -42 -63 0
20 43 -58 0
-9 -59 74 0
22 30 -52 0
-26 53 58 0
20 -29 47 0
24 48 72 0
33 61 -63 0
-16 25 72 0
25 27 35 0
8 -47 -48 0
-34 62 71 0
-21 -53 54 0
-56 -72 -75 0
5 -37 72 0
14 24 69 0
19 -70 -73 0
-13 31 34 0
8 -45 -65 0
2 -11 21 0
20 53 -64 0
1 10 -26 0
-12 19 40 0
-49 62 -64 0
21 32 75 0
-9 -40 43 0
14 34 -58 0
-19 -24 -65 0
43 63 -67 0
-3 42 -46 0
29 32 -57 0
-27 42 -71 0
-14 -22 49 0
-10 -27 -36 0
43 54 62 0
-4 -35 44 0
14 22 -28 0
30 34 -66 0
58 -65 -70 0
28 -66 74 0
14 -30 49 0
-37 -59 -68 0
3 46 74 0
5 -37 74 0
-7 -8 -14 0
14 15 -61 0
