c F1 random 3-CNF cnfgen RandomKCNF(3,200,852,seed=16) m/n=4.26
p cnf 200 852
-93 -121 124 0
-2 105 115 0
-3 76 -78 0
-6 57 155 0
156 -162 -171 0
-154 161 -181 0
67 -93 -108 0
109 -133 165 0
-2 22 -73 0
-40 -78 -80 0
-17 43 -180 0
4 -122 126 0
6 128 -168 0
9 -95 -139 0
123 131 -172 0
24 26 182 0
12 101 -161 0
-40 164 178 0
3 62 150 0
-38 -69 165 0
-104 -119 -187 0
8 -10 -16 0
27 99 -129 0
28 -73 -162 0
37 61 -103 0
-58 111 -129 0
-45 127 -171 0
-6 78 125 0
-79 189 -193 0
54 -114 151 0
162 -172 196 0
21 -119 128 0
-26 -94 -183 0
-17 49 58 0
-1 -57 162 0
15 -69 164 0
38 138 -171 0
8 -132 -158 0
-35 90 183 0
-6 -24 49 0
10 40 -48 0
53 112 146 0
9 21 119 0
53 -107 198 0
-104 105 -175 0
-50 -91 -153 0
5 50 -89 0
15 -106 -152 0
-12 104 133 0
61 -83 107 0
-11 97 103 0
1 -43 -189 0
7 14 -31 0
-21 -156 158 0
-73 110 153 0
-11 -77 -158 0
-20 -81 -186 0
123 145 167 0
-70 -86 103 0
4 70 122 0
40 -108 -152 0
-28 147 -197 0
-44 -96 108 0
41 52 -168 0
1 -6 181 0
-28 -31 128 0
-1 -17 182 0
-85 -108 153 0
52 79 156 0
-45 100 190 0
8 -53 166 0
-68 -75 -180 0
51 -86 102 0
5 -90 -138 0
105 131 151 0
5 63 137 0
-57 68 -93 0
-34 -63 -81 0
-63 -86 185 0
-1 53 105 0
55 153 156 0
52 -131 -158 0
-4 -15 -118 0
86 178 200 0
-38 -73 -135 0
-21 31 -64 0
-63 69 -162 0
-16 90 131 0
-21 -91 -171 0
79 110 132 0
156 158 -185 0
48 142 189 0
-56 180 188 0
-37 109 160 0
-59 -167 179 0
15 163 174 0
26 170 172 0
-93 100 112 0
-46 -88 -180 0
-61 -138 139 0
-28 -89 -183 0
37 -92 -97 0
147 165 -195 0
-17 -141 196 0
3 -133 -157 0
18 -92 118 0
-25 -95 158 0
54 -112 -195 0
-61 139 -175 0
-63 -117 -131 0
81 114 -133 0
3 -64 -185 0
-41 91 -135 0
-88 157 163 0
-25 -96 176 0
-10 75 -86 0
-80 144 -194 0
-1 -98 -112 0
-95 -115 -191 0
77 -81 151 0
-91 127 137 0
17 -87 122 0
-125 -176 -185 0
-63 -77 -146 0
-69 86 182 0
52 79 90 0
-75 -107 -194 0
51 -107 -184 0
-21 80 -181 0
16 -79 145 0
99 144 -194 0
-19 -49 -52 0
-29 159 171 0
181 -194 -195 0
71 -186 -200 0
-24 63 199 0
-11 13 128 0
1 41 -139 0
35 94 101 0
3 10 -19 0
-3 99 -114 0
30 32 -56 0
17 -44 -70 0
21 93 151 0
51 54 -158 0
-65 -118 -131 0
79 118 132 0
-82 -115 136 0
27 -97 -134 0
-43 108 -179 0
-23 43 -69 0
-16 -115 193 0
-89 113 124 0
-1 -73 172 0
-26 126 -175 0
-34 89 151 0
58 -135 -153 0
3 38 -87 0
-25 120 -170 0
75 128 -148 0
29 57 90 0
-6 -154 162 0
-50 -56 -155 0
-39 64 158 0
-73 176 196 0
-32 -147 -194 0
-88 -144 -151 0
81 -163 168 0
115 -124 194 0
40 -140 155 0
15 17 118 0
79 109 -140 0
14 -152 -159 0
72 112 -158 0
51 -79 180 0
108 -138 157 0
-84 -113 -152 0
-94 -109 -172 0
46 -76 197 0
-49 -79 -136 0
127 -182 190 0
-77 79 -189 0
-69 89 -192 0
-98 118 149 0
31 -120 140 0
64 116 158 0
-33 -47 -171 0
7 30 69 0
14 96 -162 0
33 -117 167 0
-8 -9 -147 0
-74 -77 107 0
8 -79 -104 0
-8 100 167 0
-9 11 42 0
-4 -20 119 0
-7 126 167 0
-24 -92 -125 0
9 -28 -177 0
160 -168 193 0
-16 17 135 0
53 -91 -93 0
-124 153 154 0
-67 -98 166 0
34 58 -138 0
55 83 143 0
56 68 89 0
-14 -62 -149 0
-7 -45 63 0
-65 -175 -193 0
-123 139 -147 0
127 128 -149 0
-11 -126 -149 0
40 114 163 0
72 -122 171 0
-31 35 -94 0
11 73 -94 0
-35 126 -171 0
18 -128 189 0
-10 -88 -156 0
-17 63 -141 0
-60 146 192 0
-144 150 -183 0
-59 63 -161 0
57 97 170 0
-156 -165 197 0
8 53 -196 0
63 -74 -118 0
-62 -84 -143 0
25 73 151 0
-25 67 161 0
18 93 173 0
-13 25 -199 0
-117 -129 144 0
-91 137 188 0
8 -155 192 0
-21 -94 166 0
19 -86 -178 0
113 -173 -187 0
75 131 -152 0
-108 -124 -167 0
12 -14 -169 0
86 96 -154 0
98 122 197 0
-40 -127 -199 0
-61 -85 164 0
-105 -118 177 0
-2 105 109 0
-99 151 -154 0
-55 69 178 0
-4 -71 163 0
-39 -115 -172 0
88 117 -124 0
3 5 -64 0
12 -75 -196 0
-90 135 -145 0
107 149 -178 0
-55 -149 160 0
76 137 -173 0
76 -78 -160 0
20 25 -185 0
16 28 75 0
105 -139 -171 0
-11 113 -130 0
-8 71 -133 0
50 -106 151 0
89 178 -180 0
-123 188 -193 0
51 139 149 0
30 117 164 0
-130 133 -149 0
-19 -64 186 0
143 182 -185 0
15 48 -54 0
11 -48 -118 0
76 194 199 0
18 -100 -167 0
-3 -37 -169 0
-16 62 89 0
5 -33 96 0
92 133 -137 0
13 63 -140 0
-68 93 145 0
28 -70 -183 0
-47 -174 187 0
46 -90 -113 0
27 59 -87 0
69 130 173 0
-63 -77 175 0
-179 187 199 0
23 -119 128 0
36 -60 -198 0
3 -74 128 0
-98 117 171 0
-48 -104 123 0
-24 -34 -180 0
-11 -104 -138 0
-23 -96 199 0
127 -149 151 0
11 84 -86 0
-72 150 165 0
15 67 177 0
10 -38 85 0
-3 -96 163 0
57 -170 174 0
-12 39 86 0
46 -147 -200 0
51 55 -99 0
91 157 -184 0
17 -49 79 0
-10 16 120 0
-3 142 171 0
-38 -73 -161 0
52 137 -154 0
-6 -176 183 0
27 47 94 0
17 -135 153 0
16 23 193 0
-85 86 -104 0
72 128 177 0
17 44 -117 0
-53 -70 81 0
20 88 95 0
-55 117 -187 0
-53 165 170 0
-79 -95 -155 0
82 -129 -148 0
26 91 -181 0
-54 175 -199 0
38 -77 -195 0
33 -86 200 0
-81 126 169 0
-15 84 92 0
-77 -127 151 0
15 158 164 0
-3 28 -53 0
9 -42 106 0
-52 -104 -160 0
5 -160 166 0
-24 -143 144 0
43 -103 -178 0
57 75 177 0
4 -46 170 0
-28 140 194 0
8 79 -110 0
3 47 -139 0
-3 67 -171 0
-140 147 199 0
-58 127 -163 0
-69 90 105 0
26 43 -157 0
-77 83 168 0
30 -39 177 0
-61 -137 194 0
-28 -49 -193 0
-32 -54 -133 0
33 67 -163 0
-67 105 -157 0
2 36 -145 0
26 -164 194 0
-96 -99 -110 0
-114 -156 -181 0
-73 -81 88 0
67 86 -145 0
31 40 157 0
-91 154 197 0
37 -137 147 0
95 -185 -195 0
20 -32 39 0
-13 14 182 0
31 108 122 0
74 95 -124 0
22 151 176 0
-11 -137 178 0
-6 -62 176 0
43 -138 172 0
35 -77 81 0
156 -176 -194 0
75 109 -177 0
8 49 -101 0
-121 -144 197 0
-49 -81 127 0
76 -126 -160 0
67 113 168 0
43 -87 -200 0
84 -125 -182 0
-22 78 164 0
-34 -39 73 0
87 -89 -95 0
34 -105 -159 0
-59 166 -193 0
-138 -170 174 0
34 -77 -137 0
-10 64 169 0
71 -99 200 0
57 -81 151 0
-21 -68 -136 0
-37 -126 -137 0
36 50 162 0
33 124 -188 0
52 -65 -106 0
68 -69 110 0
20 63 -144 0
-47 122 -184 0
26 29 -88 0
-1 138 -153 0
107 -188 -197 0
-7 92 105 0
50 51 64 0
128 -175 192 0
-18 87 123 0
72 104 172 0
-99 -114 134 0
68 -90 191 0
-16 33 -87 0
43 143 187 0
101 136 180 0
60 95 128 0
20 85 -100 0
-88 -116 133 0
30 -52 80 0
-20 157 165 0
-115 -141 182 0
-39 -122 -129 0
-102 115 -191 0
-28 -114 168 0
54 59 -82 0
-15 -87 159 0
-43 47 124 0
59 -82 172 0
43 -93 187 0
22 139 -159 0
138 170 193 0
-24 -131 182 0
-112 -113 178 0
-100 -161 165 0
13 26 194 0
16 -99 123 0
-27 -55 -101 0
-23 -120 -191 0
-9 -90 130 0
-16 -47 -145 0
51 70 -150 0
8 17 75 0
67 -171 -189 0
16 -98 132 0
-8 19 -196 0
23 33 187 0
54 156 189 0
30 -132 -200 0
77 86 191 0
-24 80 -152 0
117 135 -184 0
59 183 193 0
29 -39 -106 0
-49 98 154 0
27 -115 -159 0
-28 -108 145 0
-80 113 143 0
21 -72 -132 0
17 -108 -190 0
-55 -67 -188 0
8 23 29 0
88 -197 199 0
30 -36 -167 0
12 -98 -167 0
111 -190 -192 0
61 -148 -165 0
165 -177 -196 0
-13 -25 133 0
-14 108 -154 0
-61 175 -193 0
14 26 -117 0
22 187 190 0
2 27 117 0
-151 -155 -165 0
-61 116 185 0
-20 -59 -198 0
-37 -91 139 0
-20 -29 199 0
78 83 123 0
-66 -72 137 0
-29 183 -194 0
94 -161 -186 0
-25 157 -190 0
12 129 189 0
-69 -70 109 0
60 119 189 0
61 110 180 0
39 52 -63 0
-78 -131 163 0
62 79 142 0
6 24 40 0
-42 -76 174 0
-13 -18 131 0
48 106 198 0
22 35 -118 0
-19 44 58 0
78 117 200 0
63 -157 -168 0
56 -76 -163 0
-17 -94 -147 0
31 -32 81 0
122 -167 193 0
-13 109 -131 0
109 -148 -182 0
136 -152 177 0
131 -167 -191 0
64 170 197 0
-38 116 197 0
-69 75 -128 0
123 132 -184 0
-20 182 -190 0
-109 -115 193 0
75 81 156 0
-16 120 -123 0
-59 134 -136 0
-32 -105 -179 0
-28 -162 173 0
88 -129 177 0
-9 -37 -157 0
-56 -98 -124 0
8 -27 -156 0
-114 -149 162 0
7 -51 -143 0
24 -29 -98 0
-126 156 -171 0
180 184 196 0
54 70 183 0
50 60 -68 0
-41 -128 189 0
132 -163 -185 0
43 -163 192 0
-21 -174 -176 0
37 -149 -198 0
-29 -111 -138 0
107 -188 -195 0
20 138 -199 0
48 -60 136 0
-1 -17 45 0
11 59 198 0
-130 -154 190 0
-48 -86 107 0
76 -129 188 0
38 150 178 0
27 51 -158 0
77 83 90 0
-71 119 125 0
41 161 198 0
1 40 137 0
-81 120 -137 0
-37 -91 -140 0
-99 -106 115 0
-6 -60 98 0
148 176 199 0
-60 71 -197 0
140 196 200 0
6 33 -162 0
-66 -91 159 0
-17 -131 -165 0
-57 -132 152 0
-31 34 -188 0
-75 94 -138 0
-20 -74 -120 0
-22 -104 -146 0
-12 68 119 0
16 121 192 0
44 189 194 0
30 -63 160 0
-45 -134 -185 0
-66 -97 -133 0
62 -98 -193 0
-21 40 171 0
2 -151 194 0
-6 40 95 0
85 104 190 0
66 135 -194 0
30 58 -185 0
-104 -165 195 0
-55 -57 69 0
67 122 -143 0
137 -158 159 0
51 -149 197 0
-12 -50 -122 0
-131 -155 -158 0
-70 132 148 0
-3 47 96 0
-27 90 -152 0
-67 -105 -144 0
64 -84 195 0
24 76 138 0
14 74 81 0
-9 -19 55 0
44 -122 -191 0
-53 93 197 0
2 35 75 0
-182 -187 189 0
-58 -118 -178 0
-93 -97 -151 0
-53 95 -158 0
-93 -122 144 0
64 -81 -190 0
158 166 -170 0
-49 81 -194 0
-9 14 -77 0
7 100 128 0
-11 -141 -152 0
-8 76 180 0
-46 -47 -74 0
-70 -132 -172 0
46 -55 -78 0
17 -61 -129 0
75 -115 155 0
19 157 178 0
3 -30 -58 0
101 -102 139 0
36 -57 114 0
-135 142 -176 0
12 28 38 0
-146 168 -172 0
68 165 186 0
-7 148 -154 0
44 153 -188 0
82 84 136 0
31 45 -80 0
20 -105 -186 0
-58 102 139 0
-73 78 -153 0
-56 -139 -141 0
-58 -85 124 0
-31 -118 131 0
-18 -19 -92 0
-11 14 -153 0
-64 83 -183 0
40 47 -63 0
32 75 -183 0
26 -33 -133 0
-30 42 162 0
-69 166 171 0
71 121 -141 0
-1 20 191 0
2 -51 112 0
111 119 -169 0
92 -177 188 0
34 -54 71 0
10 35 57 0
22 133 155 0
42 -58 181 0
-110 -114 120 0
117 164 181 0
112 -139 -154 0
-21 -179 185 0
-118 -125 149 0
-66 70 71 0
17 162 -183 0
-21 -52 139 0
69 78 108 0
-62 75 93 0
-42 72 171 0
-15 125 167 0
-70 95 -192 0
81 88 91 0
52 131 191 0
-109 -110 -163 0
6 -49 155 0
12 -151 -184 0
-92 102 195 0
-117 -120 -131 0
107 176 -184 0
-28 -30 62 0
-39 -53 85 0
-24 -44 116 0
-27 84 103 0
-1 85 -197 0
-74 -127 151 0
-50 -114 136 0
-22 -63 183 0
-1 6 -72 0
16 -114 131 0
36 -90 -165 0
-62 -106 108 0
13 -60 -185 0
-8 41 179 0
35 71 -136 0
-114 116 191 0
77 -88 -187 0
-5 44 -111 0
17 169 -182 0
-53 -97 -149 0
60 76 -160 0
-105 -161 -169 0
29 -117 142 0
61 -81 151 0
-151 162 180 0
135 -174 -186 0
17 74 107 0
51 -83 191 0
-7 28 -126 0
12 155 170 0
37 108 -138 0
-108 160 170 0
92 125 -197 0
-24 -44 79 0
31 163 167 0
96 122 128 0
-80 89 144 0
10 44 50 0
-12 -83 91 0
-53 -74 -193 0
58 -124 151 0
69 121 -140 0
82 -99 -148 0
-160 162 -189 0
60 109 -128 0
30 -101 133 0
-33 100 -105 0
5 -95 104 0
75 164 200 0
-3 -144 -200 0
-20 40 119 0
-58 71 94 0
66 -96 -179 0
31 100 -132 0
28 38 -93 0
78 149 -164 0
-15 136 -177 0
-12 -40 -155 0
48 57 -106 0
-79 97 100 0
-99 -144 191 0
-2 -13 -126 0
-5 119 179 0
68 -105 -166 0
66 -114 -121 0
-14 -84 154 0
-62 -161 -180 0
105 108 127 0
-54 107 113 0
-119 123 161 0
-61 -63 149 0
30 -50 -200 0
-14 127 -157 0
-13 -25 -123 0
48 -60 -180 0
-11 -39 -96 0
-35 -167 -200 0
-118 -131 -197 0
-73 115 128 0
-8 -103 123 0
-15 -85 -100 0
-12 14 151 0
-114 144 192 0
-149 195 199 0
-106 -120 -153 0
-27 -44 -182 0
9 -84 -193 0
-58 145 -175 0
93 105 -127 0
26 72 100 0
-38 -39 189 0
80 133 189 0
-1 102 167 0
37 52 -179 0
62 117 -141 0
22 -32 164 0
1 -111 -157 0
-47 -86 -174 0
-12 -104 165 0
-83 -112 134 0
-71 -110 200 0
47 171 -196 0
39 51 -148 0
36 -71 108 0
-127 177 193 0
29 -33 -123 0
-106 151 -168 0
-24 29 107 0
53 -133 189 0
6 -49 -57 0
-130 -145 187 0
-46 -88 146 0
-27 -88 -96 0
31 -104 106 0
-6 -31 35 0
-19 -32 -121 0
108 -183 187 0
41 64 86 0
-85 -93 133 0
-56 -83 -137 0
-18 25 -161 0
104 162 198 0
-9 67 99 0
-148 158 191 0
43 90 172 0
69 -132 181 0
66 -70 121 0
-1 -53 -170 0
20 -107 -146 0
-2 -4 18 0
5 -30 78 0
-38 43 44 0
-23 -29 157 0
22 -68 184 0
-51 107 -131 0
43 -86 179 0
-46 -103 -115 0
-10 -31 -181 0
81 -101 137 0
-73 83 -150 0
96 -135 163 0
-55 -182 200 0
-27 60 154 0
15 -50 -177 0
-19 88 -109 0
81 -100 152 0
7 14 -181 0
-16 -114 -159 0
-86 -186 -193 0
123 -155 162 0
22 105 150 0
65 114 -173 0
-14 -43 -193 0
10 -27 -146 0
-160 163 -169 0
55 131 -132 0
110 150 -161 0
-10 77 158 0
-101 113 142 0
-28 103 -181 0
-26 27 -85 0
-55 -69 82 0
-39 -45 -57 0
-64 87 137 0
-19 -35 -144 0
-3 -123 -182 0
-78 103 187 0
34 74 146 0
10 -42 -180 0
1 44 -70 0
-88 -122 177 0
-15 -49 -81 0
-12 33 122 0
69 86 99 0
7 49 -190 0
-6 42 -49 0
69 -140 -149 0
-35 -42 -90 0
101 102 -112 0
-32 61 187 0
53 -164 -166 0
-34 -97 -135 0
20 45 -152 0
