c F1 random 3-CNF cnfgen RandomKCNF(3,225,959,seed=9) m/n=4.26
p cnf 225 959
-96 119 157 0
-2 -174 222 0
86 -142 158 0
-116 181 186 0
14 29 -61 0
-27 192 203 0
108 -186 204 0
72 88 102 0
-15 97 106 0
61 109 189 0
51 -149 196 0
22 35 -139 0
51 -108 138 0
24 164 196 0
14 -70 143 0
-32 181 223 0
-12 130 -157 0
-29 -150 222 0
51 -103 -148 0
1 29 -111 0
70 -84 -209 0
27 133 -201 0
-144 -200 -207 0
64 -182 200 0
-25 -103 195 0
-44 75 171 0
45 68 208 0
-4 13 -16 0
-4 -76 157 0
72 124 -144 0
-17 -31 179 0
-144 181 -196 0
-153 -156 198 0
13 71 136 0
42 200 203 0
-46 117 122 0
-124 141 152 0
-112 149 -150 0
17 58 186 0
117 -126 180 0
-8 155 -174 0
-60 96 211 0
22 -153 -160 0
18 21 151 0
-8 -17 -22 0
7 -181 199 0
-3 -83 201 0
99 123 -214 0
60 116 172 0
14 28 29 0
27 -96 190 0
95 163 224 0
66 133 -196 0
6 -65 157 0
-65 122 219 0
-34 71 175 0
91 -104 202 0
8 -82 -113 0
-89 -126 145 0
-21 -71 -78 0
-48 -99 113 0
-24 44 84 0
55 94 -183 0
-115 154 -156 0
-5 -20 172 0
83 -187 222 0
53 73 137 0
11 -24 81 0
-25 -131 -178 0
130 -151 -223 0
-52 70 83 0
-3 44 -147 0
-123 134 -222 0
-37 -73 133 0
-38 46 -85 0
7 89 -149 0
35 -54 88 0
-52 132 215 0
-91 -184 199 0
-96 -205 -207 0
49 162 187 0
-64 67 91 0
86 139 170 0
15 -184 -219 0
-34 -85 182 0
20 -104 -211 0
11 81 178 0
-164 171 -204 0
-9 -36 -102 0
47 -192 -215 0
-65 96 157 0
-16 -166 190 0
4 -53 221 0
66 76 80 0
-107 -163 -172 0
42 83 144 0
13 -23 -54 0
91 92 -143 0
46 110 182 0
-131 -147 217 0
-90 164 186 0
-71 -81 -140 0
-112 137 205 0
92 -187 -211 0
94 -96 116 0
-17 -31 -166 0
5 -80 -112 0
50 121 150 0
3 75 182 0
-27 -113 157 0
-19 135 -170 0
-47 -51 -79 0
-130 -193 207 0
-137 152 163 0
-105 194 -200 0
42 -137 -151 0
30 -128 -138 0
-21 150 -180 0
-2 -217 -224 0
45 -83 -198 0
-21 -85 123 0
66 -77 -145 0
18 -79 -106 0
97 116 209 0
31 176 213 0
-170 198 -222 0
-14 75 200 0
23 69 214 0
-65 96 162 0
173 -178 182 0
-105 -171 183 0
-23 -104 179 0
48 -187 190 0
32 -117 -128 0
86 140 -209 0
-61 207 208 0
-1 -22 93 0
115 -140 -174 0
88 -150 176 0
-53 76 -204 0
32 210 216 0
5 175 -207 0
-33 -108 183 0
39 72 107 0
67 -123 136 0
-146 149 166 0
59 -123 -201 0
-43 51 174 0
22 -50 218 0
6 124 -186 0
-165 207 -220 0
54 141 206 0
21 -56 82 0
-147 -170 184 0
-69 141 202 0
11 94 -178 0
5 68 179 0
14 -110 149 0
-34 -37 -50 0
-115 154 187 0
70 -114 121 0
-37 41 -115 0
-48 -96 191 0
9 -35 172 0
-66 132 -213 0
-55 106 -113 0
-102 -165 213 0
18 51 -225 0
-18 -152 -186 0
155 -183 225 0
-114 187 195 0
68 117 -199 0
-14 54 -102 0
15 -104 168 0
76 89 -133 0
41 106 -222 0
-92 102 -110 0
88 -124 168 0
-32 -61 98 0
90 -108 -124 0
-63 145 -215 0
-18 -109 -152 0
49 -100 -146 0
-95 140 151 0
-15 -20 193 0
26 160 -201 0
-61 147 174 0
32 76 129 0
54 -129 218 0
16 -79 222 0
70 -186 202 0
-47 94 95 0
21 79 83 0
44 -57 -80 0
-27 117 218 0
-132 145 216 0
14 149 185 0
88 -182 194 0
14 30 -166 0
-56 155 190 0
14 -44 61 0
7 -142 -196 0
-7 22 112 0
-4 -23 -216 0
63 99 190 0
41 97 197 0
17 63 -169 0
20 50 -121 0
-78 -86 -181 0
24 -89 -178 0
48 -77 217 0
-117 127 132 0
-20 68 185 0
-26 138 -216 0
20 156 193 0
24 -192 -197 0
-4 -9 198 0
12 -23 -182 0
-112 -139 -150 0
78 -164 -199 0
-38 51 168 0
41 166 -181 0
38 -58 205 0
45 -110 132 0
106 148 211 0
129 181 -225 0
9 116 145 0
-27 160 -215 0
3 -80 224 0
98 181 -204 0
49 -83 -166 0
-89 -111 -212 0
141 -177 -198 0
38 -108 -222 0
9 -25 -102 0
5 71 -147 0
-2 134 168 0
-63 -112 193 0
-34 -64 -176 0
19 -58 -172 0
-104 -128 -162 0
115 -164 -173 0
-10 18 47 0
-112 130 -173 0
31 -49 101 0
12 87 -171 0
-139 -170 -192 0
147 -162 -202 0
-3 165 166 0
69 -119 -201 0
54 57 -108 0
-11 112 -179 0
-87 141 176 0
109 213 -214 0
78 -157 -221 0
-8 -50 62 0
-103 -200 225 0
161 -203 217 0
-95 -181 192 0
23 -170 -173 0
100 101 129 0
-27 -78 -100 0
9 -147 150 0
39 73 -148 0
8 106 122 0
70 80 188 0
140 -201 211 0
57 -97 -109 0
16 73 209 0
64 -78 -191 0
46 -61 -221 0
-127 139 191 0
-34 -124 217 0
-23 -154 -180 0
-20 -26 -61 0
45 114 148 0
15 -121 -142 0
-71 123 -200 0
63 71 -150 0
4 80 -178 0
-61 -165 197 0
46 -214 -225 0
-41 -99 -225 0
-20 -134 -194 0
89 97 -99 0
-111 -178 196 0
-4 117 140 0
70 158 168 0
23 100 197 0
51 85 201 0
97 -174 201 0
103 138 224 0
-61 70 -91 0
-128 144 -195 0
5 -105 -161 0
139 146 157 0
69 -211 222 0
39 -57 166 0
9 20 143 0
-3 -59 66 0
27 -79 -133 0
29 -94 -163 0
-96 153 222 0
-165 178 -202 0
-8 -161 -200 0
-22 -57 -194 0
-36 -56 183 0
-4 -80 216 0
-93 -144 177 0
-104 180 -212 0
129 167 184 0
19 -59 203 0
-48 -134 -168 0
-42 -49 144 0
120 123 165 0
9 130 -181 0
-99 -113 147 0
60 72 177 0
65 123 188 0
-5 -135 -162 0
-35 -52 -168 0
72 -94 210 0
-87 -99 102 0
75 -92 126 0
-53 215 221 0
-145 -163 192 0
18 79 108 0
-30 -91 -147 0
124 -143 161 0
-102 -113 165 0
-98 -136 -180 0
-21 70 -157 0
123 124 143 0
-59 206 -225 0
-43 -182 -218 0
41 71 -158 0
33 49 -111 0
-59 126 -152 0
-41 135 -218 0
-41 84 -157 0
-6 -120 122 0
-46 64 -78 0
34 145 213 0
-76 96 169 0
-98 -108 -145 0
119 174 -196 0
33 137 -198 0
33 -103 -178 0
-120 128 -147 0
90 92 -95 0
116 -179 -190 0
20 83 185 0
67 169 -174 0
181 -185 -215 0
131 -138 -162 0
3 213 -216 0
-8 -165 -201 0
-115 150 201 0
-14 -61 199 0
56 73 134 0
-89 -129 183 0
-34 -49 -127 0
-35 47 -82 0
104 115 189 0
-81 -141 -225 0
-15 -37 -67 0
-104 -105 -220 0
95 -129 -176 0
-16 161 170 0
22 34 -155 0
-67 -91 -208 0
-133 -182 225 0
-99 -116 136 0
31 62 -162 0
80 85 -157 0
-16 -78 115 0
-24 -63 173 0
3 170 204 0
91 181 -222 0
-64 181 -198 0
45 -133 -174 0
4 -18 146 0
-18 -41 -113 0
-11 -94 -218 0
13 93 -135 0
-76 119 199 0
65 194 -215 0
-51 85 -158 0
-3 14 -22 0
-26 116 133 0
-174 -190 -191 0
33 63 137 0
126 -167 -225 0
-162 -174 -216 0
134 -205 -213 0
47 166 -207 0
-30 -134 -175 0
118 -143 -171 0
12 -120 -131 0
25 191 -215 0
9 -106 111 0
60 -65 153 0
-12 -25 220 0
-6 198 212 0
6 -78 206 0
-4 76 153 0
-80 120 -122 0
-150 -158 -180 0
74 -101 151 0
-26 -83 206 0
134 -196 207 0
-107 -172 -218 0
55 -159 169 0
20 29 218 0
29 -184 -223 0
-59 209 -213 0
32 72 225 0
79 119 -126 0
-18 -78 -133 0
-146 -156 -177 0
53 87 -113 0
-92 188 -224 0
64 -81 214 0
72 99 155 0
-2 18 23 0
105 110 -114 0
1 -18 -108 0
-68 -106 178 0
6 119 -129 0
-18 -125 199 0
-57 101 113 0
39 148 162 0
25 149 -181 0
-63 -128 213 0
-16 -120 -122 0
-41 119 -132 0
-60 73 -163 0
135 -146 -209 0
44 -145 -171 0
6 -193 -225 0
6 -10 -125 0
140 -210 -222 0
-42 -82 109 0
-2 36 -110 0
-45 77 -99 0
-34 113 -188 0
56 -114 203 0
79 -134 185 0
54 -206 219 0
148 -151 176 0
-146 151 214 0
43 -191 225 0
-31 -83 207 0
65 -73 -87 0
33 -95 -150 0
-30 -77 161 0
113 153 198 0
77 -155 -166 0
72 -149 210 0
-31 127 -219 0
63 -126 127 0
-44 201 -213 0
-100 140 -146 0
-80 180 225 0
-72 -136 142 0
-49 161 216 0
-32 -198 -221 0
9 -48 61 0
26 44 188 0
71 75 175 0
-28 141 -190 0
-38 -85 197 0
46 61 68 0
21 -51 190 0
-125 144 205 0
60 -93 -96 0
33 47 147 0
-6 70 -109 0
-13 116 -199 0
1 100 -117 0
33 -79 139 0
86 -200 220 0
31 80 185 0
23 -155 174 0
-75 129 -153 0
60 -113 214 0
5 -17 177 0
92 116 -133 0
13 -36 -134 0
157 -174 -195 0
-100 -112 -131 0
-129 -186 209 0
-148 156 185 0
-83 157 -202 0
42 -70 83 0
148 -194 200 0
-84 -93 -225 0
2 146 156 0
-10 -138 -200 0
75 -77 -92 0
-3 -80 197 0
22 27 134 0
-90 152 -171 0
11 -94 -106 0
-84 -108 191 0
7 26 -146 0
-55 180 213 0
164 167 222 0
-60 136 -175 0
88 184 -205 0
69 -157 209 0
48 -101 -147 0
132 -193 213 0
-141 -148 182 0
-40 -48 118 0
78 -155 -169 0
21 -32 -60 0
12 -50 104 0
139 -203 210 0
-38 127 208 0
19 38 -82 0
41 -95 211 0
33 125 205 0
-6 -191 207 0
-6 80 184 0
-12 80 -185 0
-99 107 137 0
3 29 47 0
40 62 -88 0
-12 65 -219 0
117 159 -183 0
-99 107 -160 0
-8 -117 -152 0
-106 -111 113 0
9 62 -131 0
-17 87 -176 0
-37 -145 -175 0
29 -168 -192 0
116 -150 -175 0
-33 -65 86 0
8 -22 152 0
14 63 -225 0
-29 -209 218 0
-59 115 187 0
25 94 -130 0
114 164 167 0
130 -134 -186 0
-94 106 173 0
-83 -127 -158 0
-49 -156 -217 0
-153 -202 204 0
115 -124 132 0
43 130 147 0
-193 203 219 0
66 -113 190 0
-48 163 -195 0
12 -29 151 0
10 -97 -194 0
39 204 -223 0
17 -75 -169 0
-34 -54 134 0
-170 -192 -221 0
3 42 49 0
-62 -68 -138 0
145 184 -223 0
-21 119 -217 0
-81 -87 -173 0
-11 102 112 0
10 -31 110 0
4 79 225 0
-28 116 -161 0
96 -112 209 0
44 -70 -126 0
21 -69 185 0
144 -163 204 0
36 124 183 0
10 148 198 0
27 -198 -205 0
97 -164 219 0
14 -26 -124 0
144 169 225 0
-69 -155 -211 0
-29 -40 -135 0
50 -65 127 0
-156 -186 -207 0
49 -81 -214 0
-130 -164 -215 0
39 92 -178 0
-69 -157 212 0
24 78 111 0
-12 144 -161 0
40 -128 -171 0
128 155 172 0
97 122 -130 0
-50 -74 106 0
-96 157 159 0
43 89 -224 0
60 187 -214 0
-84 89 211 0
91 -109 -205 0
-13 168 223 0
-21 70 167 0
13 -113 -116 0
-12 126 -191 0
-71 82 -196 0
-17 -71 189 0
-116 -118 146 0
-67 -167 -197 0
-27 -63 -136 0
-56 120 200 0
45 -113 212 0
78 -157 -178 0
69 72 -181 0
62 81 -110 0
-57 87 -186 0
-31 38 215 0
10 40 -173 0
-17 -60 173 0
-7 210 223 0
78 99 -108 0
12 -54 -84 0
34 -61 -214 0
1 138 -219 0
69 140 -193 0
11 54 -195 0
45 119 -123 0
26 -49 150 0
56 81 -116 0
9 56 -66 0
1 -13 110 0
60 -88 93 0
64 -82 -140 0
45 -88 194 0
-71 -179 -215 0
-39 103 -148 0
53 68 -194 0
-86 -142 -205 0
-95 -208 -223 0
13 -79 182 0
60 69 -224 0
43 -126 -146 0
-85 90 -184 0
-20 74 141 0
25 -130 201 0
73 203 -220 0
119 161 182 0
-40 -69 -199 0
-43 70 123 0
89 97 -137 0
-1 -21 209 0
134 -139 -165 0
-129 -184 200 0
-9 87 148 0
-72 74 215 0
12 -86 203 0
-8 -122 203 0
-173 196 200 0
129 166 172 0
-46 -99 145 0
33 152 -174 0
83 -111 -120 0
49 -52 116 0
-8 -14 44 0
-110 113 176 0
38 -66 181 0
-140 -161 218 0
26 101 -216 0
-21 -67 188 0
-72 75 169 0
23 60 118 0
43 82 -153 0
106 -134 -221 0
-22 -159 -172 0
-4 91 -172 0
47 145 166 0
-14 -116 214 0
-27 -30 -33 0
-82 95 -148 0
46 -71 -89 0
-19 -171 -202 0
-71 -107 206 0
-112 169 178 0
11 80 208 0
104 -144 179 0
-65 124 -195 0
111 -166 -192 0
63 -125 149 0
148 -176 225 0
22 -138 155 0
-95 -179 208 0
92 157 -170 0
-4 50 -79 0
25 145 200 0
69 -120 -121 0
156 190 218 0
-185 -189 -202 0
-62 109 -183 0
9 -81 179 0
-153 -163 -223 0
-72 -124 -193 0
42 51 214 0
86 -108 169 0
-20 58 -112 0
-142 183 189 0
31 187 190 0
10 87 -158 0
6 140 210 0
74 -151 201 0
34 39 118 0
-13 -50 -126 0
76 124 224 0
-93 121 -221 0
69 83 -184 0
-52 -71 137 0
42 127 209 0
4 -210 -225 0
-67 -105 212 0
-88 89 -199 0
-35 54 -183 0
127 -185 -192 0
-123 133 179 0
104 -147 199 0
10 91 117 0
-86 -99 -210 0
-10 -143 -201 0
1 -82 -84 0
-27 -149 192 0
-96 145 -201 0
11 19 134 0
11 -45 -74 0
116 216 -223 0
-110 201 -222 0
43 81 135 0
36 -106 151 0
44 171 212 0
-2 -70 -145 0
13 -150 166 0
8 -75 -214 0
-19 -113 134 0
-14 -83 -107 0
50 98 109 0
-66 106 181 0
-5 -114 -167 0
60 -121 138 0
-49 78 102 0
52 127 -140 0
-44 81 -165 0
-33 153 -208 0
-47 -66 -105 0
-8 -12 71 0
54 153 196 0
36 -118 207 0
-23 -32 -58 0
34 -45 169 0
-32 68 125 0
16 -64 113 0
7 -62 -76 0
-84 -175 198 0
4 -8 122 0
-35 72 -123 0
-60 84 -94 0
55 108 -210 0
-139 -213 225 0
61 100 149 0
-24 37 51 0
87 -129 -160 0
118 -171 208 0
-46 57 -95 0
-4 107 -139 0
38 -60 -217 0
16 -18 -194 0
193 208 -212 0
-12 -168 -217 0
-25 -82 -131 0
110 120 -200 0
-40 117 -165 0
118 -166 196 0
20 36 131 0
-43 -85 -89 0
-114 -153 -164 0
-63 69 172 0
19 -47 -167 0
11 -185 189 0
20 119 121 0
3 53 173 0
47 -113 -196 0
16 -143 -205 0
106 177 183 0
103 -134 204 0
-36 69 -129 0
39 65 180 0
38 -72 138 0
-13 -69 -208 0
-12 41 -209 0
-31 35 41 0
-43 -60 -125 0
5 40 -49 0
-92 -109 -193 0
-16 -36 -115 0
105 157 175 0
-52 175 -199 0
122 154 204 0
-50 -139 212 0
169 208 220 0
-43 -189 -194 0
-4 -77 183 0
36 66 -184 0
-76 -108 210 0
43 82 147 0
93 -125 -218 0
-18 -47 -201 0
-85 -135 -171 0
197 -207 224 0
-67 -120 -224 0
2 97 211 0
75 -142 161 0
6 -11 45 0
-41 -111 207 0
-84 109 221 0
63 -125 -224 0
-17 159 -182 0
-89 -174 175 0
97 -159 192 0
10 -41 -222 0
-17 73 90 0
31 47 49 0
119 133 221 0
-43 57 -169 0
50 -69 115 0
100 -107 140 0
-44 83 -97 0
-9 78 192 0
30 -36 -213 0
-101 -149 -210 0
-39 -121 -198 0
28 -53 223 0
109 127 179 0
37 -116 -135 0
45 141 199 0
-70 125 -139 0
159 176 185 0
46 138 -225 0
9 16 -217 0
-44 50 207 0
-78 184 -195 0
40 71 -115 0
6 133 143 0
32 106 -125 0
3 186 207 0
-155 -176 -198 0
66 -71 -134 0
65 -122 197 0
34 48 224 0
-93 129 -159 0
-101 151 188 0
30 148 -172 0
-1 -19 -185 0
-60 102 114 0
-14 -20 -215 0
55 109 -207 0
-11 -59 -76 0
121 -209 -211 0
53 -79 179 0
-38 -76 -213 0
-116 145 219 0
84 -110 112 0
-29 -105 -196 0
53 -75 -104 0
40 157 181 0
-19 24 -43 0
-29 -73 113 0
-69 113 -157 0
-12 34 -216 0
-197 207 -225 0
-6 152 -169 0
97 -128 -153 0
9 50 -101 0
84 134 -203 0
-83 -88 134 0
7 -180 -222 0
-43 -60 66 0
-67 -110 189 0
67 -114 180 0
-3 171 -192 0
64 120 -170 0
43 50 -70 0
61 -65 -119 0
101 127 151 0
-119 145 157 0
-46 -121 218 0
60 -202 208 0
7 36 -179 0
-80 -102 192 0
146 -158 175 0
97 -174 186 0
-49 -137 -142 0
92 199 204 0
-118 157 -195 0
35 55 -141 0
104 136 -154 0
-8 46 -91 0
-60 -177 211 0
-38 -138 -166 0
-80 118 213 0
-11 -22 49 0
-122 154 -157 0
13 -67 -149 0
133 169 209 0
9 -172 200 0
-24 149 -187 0
-56 106 212 0
65 128 -147 0
-126 -197 225 0
-21 -67 117 0
50 100 -148 0
151 -174 -176 0
7 -89 208 0
41 -111 218 0
33 -123 163 0
5 45 -176 0
-29 -149 152 0
138 180 -212 0
109 123 204 0
84 -179 207 0
25 -143 -224 0
31 67 71 0
-83 -97 -172 0
53 -97 137 0
16 148 -220 0
71 157 161 0
-76 80 212 0
-5 -96 206 0
1 14 91 0
50 -180 -210 0
66 86 -183 0
-79 146 -180 0
81 -91 -215 0
36 -117 222 0
45 -101 -113 0
51 -109 169 0
26 61 -178 0
36 -80 110 0
42 -48 140 0
40 123 -209 0
14 100 115 0
80 -169 176 0
92 -177 -212 0
49 168 -188 0
45 97 -165 0
36 39 -70 0
-97 -185 -195 0
-36 -58 71 0
-6 -84 222 0
-54 -147 -222 0
-30 -77 -211 0
-11 143 146 0
-13 113 224 0
-33 -77 -180 0
125 184 197 0
