c F1 random 3-CNF cnfgen RandomKCNF(3,125,533,seed=17) m/n=4.26
p cnf 125 533
-54 -67 -104 0
-23 91 99 0
-32 -50 -105 0
-82 88 109 0
18 102 105 0
16 -43 -70 0
-11 65 -121 0
-65 105 -118 0
-7 48 -74 0
48 -75 100 0
15 -28 72 0
-9 35 101 0
-33 -40 85 0
-13 -43 117 0
7 -45 -97 0
7 -61 -82 0
-10 92 96 0
-52 63 94 0
20 33 123 0
-69 -108 -125 0
-7 21 -119 0
-33 -85 108 0
11 70 -82 0
-21 74 -103 0
-51 76 -106 0
57 -67 81 0
30 -41 62 0
-74 96 -124 0
22 -75 -124 0
23 -97 -125 0
46 58 76 0
25 -74 -121 0
58 -65 -110 0
2 34 -38 0
43 44 -97 0
13 67 86 0
-61 91 116 0
100 -105 117 0
-4 84 -112 0
8 95 -123 0
-35 -45 46 0
44 68 -97 0
16 42 -43 0
37 -57 106 0
-10 54 -88 0
17 -28 47 0
-56 57 68 0
-22 -69 -76 0
53 120 123 0
20 -92 -116 0
57 -70 98 0
33 -64 65 0
-16 43 -82 0
-12 66 114 0
10 -38 -120 0
-60 98 117 0
-35 -40 96 0
-14 56 122 0
-28 -70 -112 0
-11 -35 121 0
2 41 -113 0
-63 -84 -87 0
39 -58 89 0
-25 27 110 0
-82 98 -108 0
26 -46 -85 0
12 83 -105 0
-30 -51 -99 0
43 -110 -112 0
28 -110 120 0
-13 53 61 0
-4 34 64 0
19 21 -33 0
-7 -12 -57 0
-49 67 83 0
37 69 -91 0
-38 45 79 0
-6 -48 -62 0
2 -29 47 0
15 49 -109 0
-15 87 121 0
57 -71 104 0
14 76 -99 0
-29 -40 -102 0
3 -56 71 0
-14 -60 -82 0
-8 99 -119 0
39 78 119 0
42 87 88 0
-38 96 112 0
49 -98 -105 0
-53 98 -103 0
17 -78 99 0
-41 61 85 0
-27 97 -107 0
-47 56 105 0
16 -32 123 0
-34 -112 -114 0
6 69 -91 0
42 -76 -90 0
-31 -77 -106 0
4 -15 17 0
57 92 118 0
-49 85 -90 0
19 -25 -26 0
-20 -29 -61 0
-91 -94 115 0
-14 23 -32 0
-14 -34 -67 0
34 -51 -66 0
21 96 123 0
5 15 -46 0
30 42 99 0
74 -109 119 0
-92 -98 -105 0
-43 67 70 0
9 -12 -80 0
-5 20 -84 0
-21 -96 -107 0
-30 -59 73 0
-22 -73 -77 0
40 -70 81 0
5 -42 124 0
11 47 76 0
48 -97 -104 0
-18 -41 119 0
-29 78 103 0
71 104 -116 0
-32 -61 75 0
-19 -44 -58 0
-9 -93 -124 0
50 87 -103 0
2 44 -87 0
-16 -37 -79 0
39 89 90 0
-4 10 -64 0
-84 94 -121 0
-35 65 118 0
-33 81 122 0
-17 71 -106 0
-12 79 104 0
-39 66 103 0
-13 -48 -55 0
28 -70 75 0
73 -89 -118 0
15 22 115 0
-26 -30 -102 0
-1 -9 122 0
-13 -84 -97 0
-1 -68 89 0
79 103 119 0
35 42 79 0
50 -92 96 0
26 -34 123 0
40 66 -118 0
-39 -81 -116 0
26 76 -115 0
-35 50 123 0
-52 78 -82 0
-3 -25 -100 0
-48 -52 60 0
-5 -28 -80 0
-21 31 42 0
23 25 122 0
-55 67 112 0
17 -66 -123 0
-3 -28 121 0
-94 -99 118 0
-45 54 108 0
-19 -42 91 0
-8 22 105 0
-9 44 -74 0
36 46 -122 0
63 66 -83 0
18 29 79 0
55 61 -101 0
4 10 30 0
12 -44 74 0
-8 122 124 0
-19 109 110 0
44 -88 94 0
-36 74 112 0
18 -32 -58 0
13 -52 64 0
-79 -84 92 0
8 26 -87 0
21 24 -102 0
-8 -46 -100 0
-5 -82 -125 0
24 67 70 0
-74 -75 -123 0
24 53 -55 0
-6 -98 112 0
-11 37 -72 0
-8 15 117 0
-56 -68 120 0
-46 47 -111 0
-50 55 79 0
33 96 -118 0
17 -41 65 0
-11 121 122 0
-38 44 68 0
49 -79 99 0
-60 -63 -117 0
-19 -49 -99 0
-7 117 118 0
83 84 -99 0
-53 56 -117 0
-30 51 109 0
-66 79 -106 0
-21 26 88 0
45 -61 -88 0
-73 112 -113 0
5 -86 -118 0
37 99 -123 0
56 64 -110 0
-88 -105 107 0
-17 54 -107 0
25 -101 -110 0
38 -94 -108 0
-4 81 -115 0
3 -13 76 0
-32 -47 -58 0
15 62 85 0
-11 -12 -119 0
-12 -75 -125 0
-39 -79 -125 0
-13 -86 -121 0
-34 54 124 0
37 81 -104 0
-2 -58 69 0
21 67 -86 0
-34 72 -85 0
-41 -56 105 0
3 -37 -125 0
-77 -118 -119 0
86 -115 -121 0
-9 41 115 0
43 69 -104 0
-56 68 77 0
51 -96 120 0
67 -88 92 0
-48 82 117 0
-29 83 -111 0
55 -63 -75 0
62 -88 93 0
-1 31 -85 0
-47 -54 92 0
-8 80 -87 0
15 29 30 0
-8 -14 72 0
-50 -104 111 0
37 38 94 0
9 105 117 0
58 109 -120 0
44 49 98 0
54 -79 -118 0
21 -29 -82 0
-12 105 -114 0
11 62 -107 0
-13 -29 83 0
-5 -86 116 0
-21 -38 41 0
15 -96 100 0
14 74 -124 0
90 -92 -112 0
20 -80 81 0
-31 -40 -60 0
56 86 -99 0
-4 -31 -73 0
3 29 -76 0
-66 -71 72 0
32 -101 -104 0
49 -56 -113 0
-3 40 67 0
33 46 -68 0
-35 -103 125 0
4 49 -117 0
24 98 103 0
-3 -46 -63 0
-40 66 77 0
-2 -99 117 0
-54 -63 94 0
6 -19 76 0
24 -57 -99 0
-23 -46 67 0
-47 93 -104 0
6 -86 -107 0
46 105 123 0
1 -41 88 0
-31 66 -123 0
-28 81 -109 0
-29 -42 -80 0
-90 -106 118 0
1 -14 -79 0
-10 14 97 0
27 36 -56 0
3 35 36 0
32 -41 125 0
-1 -45 -78 0
-3 9 96 0
77 -83 -92 0
25 95 122 0
-14 -89 -115 0
-63 110 -119 0
10 -86 -109 0
26 71 -96 0
-12 -44 87 0
32 73 -109 0
6 11 -23 0
75 117 -119 0
81 -101 111 0
-46 -47 -84 0
17 -60 68 0
27 61 -86 0
-50 117 -118 0
-6 73 94 0
72 101 -110 0
-20 21 116 0
-81 110 -119 0
-2 60 87 0
-34 79 89 0
93 98 109 0
4 31 101 0
6 7 41 0
-4 91 100 0
17 59 -92 0
5 38 -73 0
61 -62 -93 0
3 -30 104 0
-2 -61 -90 0
1 -37 -118 0
-68 -83 -122 0
-16 74 -83 0
5 52 -56 0
6 20 50 0
-46 -49 61 0
66 101 -119 0
-7 -16 -68 0
-12 108 119 0
52 -95 121 0
-69 -85 123 0
24 43 115 0
-28 -35 61 0
7 -86 -121 0
14 -29 -96 0
38 -47 -63 0
-39 50 90 0
80 -82 92 0
37 -55 92 0
100 111 -122 0
-1 8 74 0
13 25 115 0
23 -74 80 0
6 -81 108 0
31 45 51 0
-8 -30 93 0
25 50 103 0
-4 -32 -109 0
10 -100 119 0
7 -59 -64 0
39 -100 122 0
14 37 107 0
16 -48 99 0
11 97 103 0
-50 112 123 0
60 -95 -117 0
-12 -48 83 0
-39 46 52 0
24 -56 95 0
-18 -69 -94 0
53 76 89 0
49 -87 -106 0
14 86 90 0
-26 -51 81 0
39 87 -88 0
61 82 112 0
6 -20 114 0
35 -69 92 0
16 -26 124 0
-24 63 105 0
36 -84 121 0
7 -8 -94 0
90 -116 -119 0
-56 80 81 0
-16 -85 -90 0
-13 -36 -64 0
-60 -72 -75 0
41 -66 117 0
94 -111 -117 0
13 52 -122 0
34 -91 -111 0
-1 70 -83 0
-25 52 104 0
8 -25 102 0
32 -75 -78 0
-13 -76 -122 0
-33 76 121 0
-5 -88 -104 0
22 61 -124 0
64 -80 -83 0
-18 -28 -120 0
-54 -61 70 0
-16 70 76 0
36 41 73 0
35 101 102 0
3 -71 97 0
-66 -72 -82 0
-10 -55 -86 0
50 -87 -104 0
49 -62 103 0
-27 -58 -103 0
-34 36 -82 0
-67 -75 76 0
108 116 119 0
42 -58 88 0
16 41 94 0
-10 15 -106 0
6 25 -28 0
-16 51 94 0
-29 -99 103 0
1 -14 111 0
-82 -88 93 0
45 65 -111 0
-25 -40 43 0
-19 77 117 0
-31 -78 -87 0
-1 52 -112 0
29 98 -122 0
41 44 52 0
2 101 -103 0
-4 34 84 0
12 -32 -55 0
-73 -75 -99 0
-41 59 104 0
6 -68 105 0
-4 -65 79 0
60 -61 -107 0
-21 -33 -62 0
-32 36 -83 0
-4 -39 -80 0
-20 -61 -125 0
-41 -64 -121 0
21 -37 86 0
14 -52 -74 0
98 106 -124 0
-7 22 -88 0
-49 -62 -65 0
31 36 -47 0
9 11 -49 0
23 -116 -120 0
-55 -96 -120 0
-68 -77 -116 0
-76 87 -114 0
45 70 81 0
-91 113 -124 0
21 -100 122 0
5 -22 38 0
88 95 -120 0
87 -90 -100 0
10 69 85 0
88 -94 -114 0
-2 16 86 0
65 -76 80 0
-46 102 119 0
25 86 -93 0
27 -80 -112 0
-17 57 121 0
42 -74 -89 0
5 7 -72 0
86 88 -115 0
24 42 -115 0
-30 -109 -118 0
-34 -43 -99 0
27 -44 -81 0
2 -31 -93 0
17 105 113 0
-62 -70 99 0
-22 -24 -53 0
-57 -70 84 0
-39 44 47 0
34 57 93 0
26 -62 -78 0
-61 77 118 0
-25 -67 -123 0
3 48 -110 0
-46 71 79 0
25 29 -50 0
1 -79 -97 0
34 45 -112 0
27 -49 92 0
10 21 91 0
-57 67 113 0
-11 50 -72 0
-60 105 -122 0
104 109 -120 0
-69 -88 -104 0
-59 -72 113 0
9 -53 93 0
22 42 52 0
-9 90 -112 0
-59 74 104 0
-30 -67 84 0
4 -32 100 0
4 39 -69 0
28 -108 -111 0
17 -75 -90 0
20 -39 -45 0
-12 32 65 0
12 39 -72 0
8 -78 99 0
51 -74 -111 0
46 100 -120 0
51 -70 104 0
13 -119 120 0
43 51 -77 0
104 -109 -115 0
-9 -52 123 0
40 -67 71 0
1 -29 93 0
-31 -74 -123 0
-78 -86 90 0
-41 91 98 0
-15 -18 109 0
-18 57 70 0
-11 59 124 0
22 44 -90 0
47 71 -89 0
-8 53 83 0
-38 88 -98 0
8 -55 86 0
47 -86 -102 0
-37 70 108 0
