c F1 random 3-CNF cnfgen RandomKCNF(3,75,320,seed=13) m/n=4.26
p cnf 75 320
24 34 38 0
10 -17 24 0
-2 17 56 0
34 -56 -58 0
-30 -63 -71 0
-16 -41 45 0
-23 57 69 0
-33 -46 -67 0
-17 36 51 0
17 -25 -47 0
1 50 55 0
33 -57 -64 0
26 45 -48 0
6 -28 -75 0
24 25 38 0
9 -22 -55 0
1 -12 68 0
35 -39 -53 0
-1 5 -41 0
-67 69 72 0
5 38 -49 0
-28 34 -55 0
32 -37 -55 0
-5 41 51 0
1 -6 -40 0
43 -50 -71 0
7 -18 19 0
-28 -39 40 0
-13 -17 -45 0
-6 -56 75 0
7 22 42 0
-12 20 -62 0
7 28 -34 0
25 51 74 0
-18 -48 69 0
34 -39 70 0
2 -4 22 0
-21 43 55 0
-13 -40 -52 0
-20 35 58 0
-34 36 69 0
-21 -48 -54 0
-20 60 -75 0
4 -25 61 0
1 -14 17 0
64 67 -74 0
3 -4 69 0
-7 55 -65 0
-3 13 -32 0
-7 29 44 0
-13 -19 48 0
30 -37 45 0
14 17 23 0
-46 -49 60 0
-36 -57 68 0
27 -42 -49 0
-4 -39 -58 0
-8 11 73 0
-19 42 -69 0
2 38 72 0
-9 17 -71 0
3 21 24 0
-23 56 -73 0
15 -20 66 0
-12 -23 -67 0
-32 -34 -39 0
13 28 36 0
16 -20 33 0
14 57 -64 0
-18 -30 -62 0
1 16 -63 0
2 54 58 0
-20 -32 45 0
-43 46 47 0
19 -21 73 0
-16 56 63 0
-3 -49 -51 0
11 -37 52 0
-7 60 -72 0
6 19 72 0
-6 -56 64 0
-25 45 -59 0
-27 56 -73 0
-25 29 52 0
-3 -5 58 0
-12 -59 64 0
2 -66 69 0
-4 15 -31 0
5 54 -62 0
20 64 68 0
-9 23 -73 0
1 25 -64 0
9 15 50 0
-4 -27 49 0
18 23 -58 0
-22 52 -66 0
1 -37 -58 0
24 -31 34 0
36 69 -72 0
31 -43 -57 0
-5 -13 18 0
10 15 -47 0
-1 60 -74 0
-11 -45 71 0
20 27 44 0
-38 -50 -75 0
25 -26 -64 0
-6 10 -40 0
2 -7 -55 0
16 -27 -42 0
-3 22 -68 0
1 -55 56 0
-20 -22 48 0
39 62 66 0
8 22 -41 0
-46 52 67 0
9 25 34 0
-51 -54 -57 0
9 -37 55 0
14 32 62 0
22 -28 -43 0
-25 32 66 0
-42 -53 -60 0
-10 47 -73 0
38 49 62 0
-2 -43 -46 0
21 50 -67 0
14 -27 -65 0
-27 63 -67 0
-1 57 -58 0
-24 -36 -64 0
-6 24 34 0
-30 34 -38 0
-12 -23 -74 0
13 -45 54 0
2 9 -31 0
-23 27 -31 0
14 56 -70 0
-7 -52 75 0
33 40 -73 0
-5 -10 60 0
-26 -47 -64 0
35 -41 49 0
-11 -27 -63 0
27 -50 -55 0
-2 -65 -73 0
10 -11 55 0
-10 27 71 0
27 60 63 0
5 -24 -65 0
-5 58 -75 0
5 -30 -50 0
24 62 67 0
4 44 -70 0
-21 -36 41 0
27 -37 -72 0
10 23 49 0
33 60 61 0
10 -35 -61 0
4 -33 -61 0
-23 -38 -50 0
52 60 69 0
-22 31 60 0
-6 19 -42 0
-44 66 73 0
-2 -67 -75 0
20 33 -66 0
21 29 42 0
-17 23 -61 0
28 34 -74 0
-29 -31 -60 0
-8 -27 63 0
-42 46 -58 0
-17 30 -43 0
-23 -44 50 0
-48 51 -60 0
-6 13 16 0
6 -12 -59 0
16 36 -70 0
-6 -64 70 0
-17 23 35 0
-23 33 -74 0
-15 34 -58 0
8 31 43 0
4 -27 44 0
15 -23 32 0
9 -43 -69 0
-28 -71 74 0
-7 39 -70 0
1 -7 75 0
10 -12 -33 0
-20 39 -61 0
13 -58 69 0
-7 -47 -69 0
-3 32 -74 0
39 -60 62 0
-20 -37 59 0
3 47 66 0
-15 16 65 0
-36 63 -70 0
18 -39 49 0
-2 21 -34 0
-27 28 -66 0
-15 22 -32 0
36 47 64 0
23 34 66 0
-43 -50 73 0
33 58 -72 0
37 69 73 0
-19 -35 -65 0
-61 66 67 0
-12 -47 60 0
-37 -41 -75 0
-13 -37 59 0
1 -2 23 0
18 20 22 0
-7 -51 -74 0
-4 -25 49 0
15 45 -50 0
51 55 57 0
12 -43 56 0
5 29 -65 0
-3 24 -75 0
-43 48 -62 0
14 16 -75 0
13 -49 -75 0
-14 -37 -55 0
48 -53 67 0
42 -44 -75 0
3 28 -43 0
3 -60 -62 0
18 -52 65 0
57 -65 68 0
-35 -63 -74 0
7 -11 37 0
-48 57 67 0
-13 -29 74 0
20 -48 -66 0
-16 -45 -71 0
25 27 65 0
11 46 -72 0
-4 21 47 0
21 40 62 0
29 -36 -52 0
-3 -36 47 0
12 27 -48 0
18 46 -47 0
32 36 42 0
9 43 66 0
14 27 39 0
-22 -37 -72 0
6 -48 -62 0
34 47 56 0
-47 -56 -72 0
18 52 -54 0
7 -23 58 0
-38 -41 51 0
-2 7 29 0
54 57 61 0
-10 20 -23 0
-29 43 51 0
-38 59 -73 0
-5 -18 -71 0
-11 22 -66 0
-15 37 39 0
54 -58 -74 0
-17 -50 65 0
15 27 63 0
-14 -19 63 0
-50 62 71 0
-13 40 -56 0
27 -39 75 0
45 -54 -57 0
-15 40 46 0
-2 20 25 0
6 27 30 0
-20 -38 52 0
-7 -29 -58 0
-22 -54 70 0
-13 -24 25 0
9 -23 -46 0
14 32 -38 0
17 -22 63 0
-4 28 -48 0
-16 -27 -59 0
-21 -34 -42 0
28 42 46 0
-11 -60 -70 0
-5 32 -41 0
-1 -43 55 0
-13 -35 70 0
24 37 -41 0
-16 -21 66 0
-20 37 40 0
-1 21 -53 0
-23 34 -38 0
11 -12 -39 0
-21 44 51 0
16 -26 -56 0
-29 -37 -39 0
-4 32 -69 0
-18 28 29 0
62 -68 -73 0
-23 -51 -69 0
-39 57 71 0
-27 58 -73 0
-20 23 73 0
1 29 -67 0
14 52 -53 0
-45 -51 60 0
26 -27 62 0
45 59 -71 0
-52 60 -64 0
21 62 -67 0
19 38 -43 0
-17 -42 64 0
3 21 -35 0
-21 32 -64 0
29 -30 -72 0
3 30 50 0
