c F1 random 3-CNF cnfgen RandomKCNF(3,150,639,seed=2) m/n=4.26
p cnf 150 639
-15 22 -24 0
10 -55 -65 0
-96 -131 140 0
-8 -94 -120 0
43 135 144 0
7 46 -84 0
-47 -132 -144 0
91 -93 -115 0
-64 -126 -136 0
-90 -117 119 0
-43 -69 -84 0
-130 -133 144 0
94 -126 132 0
16 -28 49 0
-28 35 134 0
9 -16 -109 0
7 45 64 0
-6 -7 11 0
41 -48 134 0
10 -39 64 0
74 -87 -126 0
-12 68 -142 0
24 58 -81 0
-33 -133 -150 0
-37 -67 88 0
-15 36 143 0
-25 42 44 0
60 -64 114 0
-59 -66 93 0
-10 39 99 0
23 62 132 0
27 47 -60 0
-80 117 138 0
109 112 -131 0
47 -135 -149 0
-5 -31 -133 0
5 79 -106 0
5 -51 -116 0
19 -54 119 0
20 -79 96 0
-30 -96 147 0
-32 89 102 0
21 86 101 0
-12 -121 -128 0
-37 -69 -96 0
76 102 -126 0
67 110 141 0
46 -92 140 0
-10 -23 33 0
-45 85 113 0
-25 109 -139 0
41 -44 -119 0
-38 120 -147 0
47 -101 -131 0
-65 -104 -106 0
21 -58 -137 0
-3 81 119 0
-5 56 104 0
-52 100 -143 0
-3 -36 112 0
-19 53 -120 0
-17 -125 -137 0
8 -118 129 0
35 66 -104 0
76 98 -119 0
-1 120 -143 0
-53 -114 145 0
78 -124 -138 0
-78 80 86 0
39 -101 136 0
60 -118 144 0
29 -94 -98 0
-20 86 -118 0
75 -114 119 0
41 70 -84 0
-48 49 96 0
-60 -69 -141 0
-72 -129 -149 0
-19 -95 -137 0
-45 -67 91 0
48 81 98 0
43 -90 92 0
-61 -83 -139 0
39 -81 93 0
-37 53 -85 0
-23 65 93 0
-12 62 87 0
-17 -46 111 0
83 -134 -148 0
-14 -59 -101 0
-24 -131 -140 0
-44 99 106 0
31 33 -116 0
-3 79 -118 0
7 -45 57 0
-13 87 120 0
36 124 144 0
13 -52 140 0
36 96 126 0
28 64 120 0
87 98 101 0
45 -54 -97 0
37 -110 -111 0
26 -77 -144 0
-73 126 -136 0
27 36 141 0
50 101 149 0
68 122 139 0
10 51 81 0
24 75 -119 0
71 -133 -146 0
9 -77 117 0
-55 -86 108 0
-33 -44 -111 0
66 -99 -122 0
-50 -121 147 0
44 95 -121 0
54 77 138 0
-15 -51 -81 0
-19 108 -113 0
34 148 149 0
-17 97 -115 0
-39 61 123 0
-86 101 135 0
16 67 -144 0
-31 -112 -117 0
56 73 98 0
24 135 -137 0
-60 103 -111 0
-93 131 -134 0
7 -57 72 0
-34 37 53 0
27 38 -76 0
-9 -36 80 0
88 -91 143 0
-71 -90 94 0
-7 12 -88 0
-13 -20 -137 0
42 47 -62 0
6 47 76 0
17 93 104 0
49 60 -141 0
21 72 -129 0
-33 40 -110 0
14 -96 -147 0
42 -115 127 0
6 -48 -65 0
114 -119 -121 0
57 -69 91 0
-7 -78 -110 0
-64 -117 120 0
-41 -137 -143 0
29 -108 130 0
-111 119 -134 0
-93 116 143 0
-45 -60 105 0
-68 -81 -105 0
3 81 -103 0
-3 -26 -30 0
46 -84 -104 0
25 -61 114 0
36 78 -127 0
-2 104 123 0
-43 -84 -86 0
22 -72 120 0
47 93 96 0
-61 102 120 0
-1 104 122 0
2 47 125 0
1 22 -117 0
-3 6 -102 0
-10 -94 147 0
20 -46 119 0
38 -69 -124 0
7 141 -144 0
-33 48 79 0
16 87 -118 0
28 49 79 0
31 -70 83 0
35 -90 130 0
6 -80 142 0
13 -19 -140 0
-76 92 124 0
2 -24 30 0
77 138 146 0
59 86 -147 0
-10 -54 -106 0
48 89 144 0
38 -97 108 0
23 132 147 0
34 81 -138 0
-28 104 117 0
28 89 -101 0
-62 -91 142 0
12 36 -43 0
-27 -39 77 0
1 29 109 0
-1 -50 112 0
45 -66 -69 0
-107 -128 -145 0
-45 -101 -108 0
83 139 -148 0
106 -118 -150 0
41 56 95 0
33 -111 131 0
19 79 -117 0
48 -57 142 0
78 101 -140 0
52 -57 -147 0
-7 41 68 0
-50 -126 142 0
-48 86 120 0
-66 -95 114 0
3 83 -107 0
-35 109 124 0
14 17 108 0
-55 -94 -145 0
2 20 27 0
-8 40 76 0
6 -71 90 0
3 61 -106 0
-9 140 148 0
13 63 150 0
1 32 -44 0
22 53 85 0
48 93 -126 0
1 -22 -73 0
75 -80 139 0
-36 -122 -129 0
26 109 138 0
17 -21 119 0
-39 -49 97 0
-27 -52 -111 0
-36 -64 -112 0
1 2 -12 0
15 114 129 0
7 -9 20 0
107 109 145 0
32 -52 -58 0
30 47 78 0
-2 -8 27 0
1 59 -85 0
30 -44 -50 0
30 -70 -127 0
-51 -57 58 0
82 -101 125 0
-62 110 -118 0
-31 -69 -116 0
43 62 -63 0
-33 100 138 0
12 -16 53 0
41 -90 128 0
27 74 107 0
15 -58 -69 0
-5 -10 116 0
-26 109 117 0
38 77 140 0
-14 -70 86 0
18 -64 -146 0
13 -14 55 0
4 102 -125 0
18 42 -83 0
-65 -88 128 0
1 85 -141 0
-108 -110 118 0
5 -8 66 0
-24 -56 -142 0
-13 29 88 0
-66 -68 -126 0
-120 -133 143 0
21 102 -134 0
101 -124 -149 0
69 -116 -124 0
22 52 -108 0
-7 -9 -75 0
-64 -111 -130 0
1 -68 70 0
-6 -48 51 0
33 87 100 0
-31 -64 106 0
52 -71 -104 0
-19 54 -88 0
70 -103 -123 0
61 -70 -128 0
-8 -68 -136 0
56 107 147 0
-44 48 88 0
-20 -27 -129 0
38 49 -130 0
-123 -125 -135 0
39 -114 -117 0
-47 -60 -83 0
-35 71 94 0
95 -134 -145 0
56 -70 139 0
-4 20 148 0
-3 18 -142 0
-47 77 107 0
120 -134 150 0
-31 47 -64 0
21 58 -79 0
-25 52 -112 0
63 124 146 0
21 94 -144 0
72 -92 -122 0
7 -23 140 0
-57 -61 -63 0
-1 -36 80 0
80 85 -133 0
-10 -96 105 0
-23 120 128 0
-64 -90 -101 0
-107 118 143 0
27 49 -55 0
-20 103 -140 0
2 -34 -97 0
-39 48 144 0
29 48 54 0
-11 62 88 0
-10 86 135 0
-61 62 -141 0
78 125 134 0
-8 21 -90 0
-31 -59 99 0
19 63 119 0
-81 -113 -123 0
-34 -76 80 0
6 -25 109 0
6 -53 -79 0
24 37 69 0
-2 63 145 0
-23 -90 -99 0
16 -43 -150 0
-48 -87 145 0
54 74 -79 0
123 132 -141 0
75 93 -122 0
-41 -70 140 0
-7 -33 107 0
-90 -105 -132 0
-10 -79 127 0
19 36 -123 0
-68 134 -143 0
9 36 -52 0
5 63 -126 0
-39 53 -137 0
-20 39 124 0
5 -65 -70 0
98 -113 -129 0
4 -57 -65 0
-5 62 -131 0
-5 116 -143 0
-76 82 -84 0
-14 -70 -79 0
-21 -36 -44 0
-17 -127 -144 0
-31 -138 149 0
27 106 -137 0
-52 -53 -83 0
-85 96 -104 0
-51 62 123 0
-39 -101 137 0
-4 -83 -101 0
16 -28 -78 0
4 -12 -85 0
57 100 -110 0
46 -115 -145 0
16 139 -142 0
-78 83 -110 0
22 -32 50 0
48 -105 -150 0
-123 -140 145 0
4 52 -122 0
93 109 -122 0
-16 -101 106 0
93 -101 132 0
22 88 96 0
-41 -119 150 0
-1 -30 -82 0
-50 -53 135 0
49 -66 100 0
-79 -95 -107 0
55 -70 -98 0
-31 95 -119 0
8 -127 140 0
1 18 33 0
48 -52 -131 0
-22 -58 122 0
-15 42 -106 0
104 111 -112 0
-45 -72 127 0
-27 -53 138 0
-9 25 64 0
-16 38 -94 0
51 64 -74 0
-122 135 -147 0
9 -24 -41 0
21 -36 -87 0
39 -70 138 0
-39 -91 135 0
-31 41 72 0
47 -71 -101 0
-20 77 -126 0
70 -73 -74 0
-13 121 145 0
-32 -81 106 0
63 76 84 0
40 -41 -109 0
96 -138 -148 0
18 -19 118 0
-87 110 -141 0
4 71 -125 0
77 -137 149 0
-21 -73 113 0
27 40 135 0
-78 114 140 0
-45 -84 -143 0
48 -92 -126 0
-49 89 -150 0
-57 -120 -144 0
-87 138 -150 0
-7 82 -110 0
3 -56 133 0
-95 99 120 0
30 64 86 0
26 64 80 0
2 118 -149 0
-16 93 -148 0
-48 61 87 0
-42 -58 -79 0
60 -96 105 0
-20 -32 -42 0
-2 43 -113 0
22 -107 110 0
23 -28 -133 0
-63 -118 -147 0
48 -56 112 0
75 -88 -104 0
38 -39 79 0
50 84 -105 0
-111 123 149 0
13 -58 -65 0
-59 -83 -93 0
-45 88 116 0
78 -84 116 0
-2 -31 -133 0
44 65 -86 0
-64 -73 -77 0
-27 -58 135 0
-23 56 -86 0
21 66 76 0
-31 64 -113 0
70 -121 129 0
84 -99 -105 0
-25 -108 145 0
7 73 125 0
-44 77 -139 0
-56 91 -141 0
-85 -101 -109 0
-5 19 -63 0
-98 122 -127 0
89 -131 147 0
-36 91 -104 0
22 41 74 0
24 -44 -54 0
12 -19 -80 0
55 88 109 0
-11 -38 -125 0
-27 -58 125 0
74 89 -120 0
-26 -46 126 0
-15 21 -64 0
-63 70 121 0
29 63 137 0
73 -136 149 0
4 -19 -65 0
-36 56 -126 0
23 -62 -69 0
38 42 46 0
34 118 128 0
56 107 -139 0
77 -84 94 0
-26 -34 -65 0
-19 -78 116 0
-30 -93 -125 0
24 -54 99 0
50 125 -130 0
-94 142 -143 0
-24 34 42 0
-18 -107 -130 0
-75 -91 -142 0
20 -107 117 0
16 -130 140 0
34 50 93 0
-26 38 54 0
-129 -131 143 0
-55 -100 138 0
16 -94 -140 0
5 -21 139 0
-93 -114 -143 0
10 20 -36 0
-8 -50 66 0
43 -45 138 0
-4 5 -113 0
-30 70 -118 0
4 -40 -73 0
7 27 124 0
-108 112 115 0
-30 -73 -137 0
51 113 128 0
2 -94 -101 0
5 56 -122 0
-48 -92 -118 0
-44 83 -94 0
4 66 130 0
26 77 -103 0
13 23 97 0
69 80 -142 0
-7 128 134 0
-7 -46 98 0
-67 95 124 0
-82 89 -130 0
2 61 71 0
-28 -49 71 0
25 40 49 0
-1 -80 150 0
-67 -80 -127 0
-31 -103 -146 0
18 123 144 0
67 130 -144 0
-14 -17 -116 0
-24 68 -143 0
62 99 122 0
-69 106 -109 0
62 126 130 0
-66 -78 -150 0
-18 -87 -119 0
19 22 -40 0
36 -46 90 0
30 -56 -87 0
-13 -98 -132 0
60 79 -111 0
14 30 130 0
35 90 106 0
-4 -40 -129 0
-34 -134 137 0
5 93 148 0
-62 -68 -147 0
-15 -24 118 0
-123 -127 145 0
-33 41 -45 0
-55 -83 -86 0
-55 101 120 0
25 -122 -145 0
-24 -55 125 0
12 50 66 0
-10 99 -121 0
-12 -87 -105 0
29 57 -143 0
-57 -66 -150 0
66 -73 -98 0
-50 115 -143 0
20 -58 -137 0
12 30 -53 0
-6 45 -121 0
-51 -71 -141 0
-58 84 111 0
5 -57 -125 0
2 -108 113 0
85 122 145 0
9 13 -123 0
-42 91 112 0
-4 51 -119 0
-93 -106 138 0
17 -74 145 0
6 -30 84 0
26 -76 -126 0
-10 41 47 0
-5 -47 121 0
30 74 -77 0
55 118 145 0
-30 114 134 0
-51 -73 148 0
-123 128 -131 0
7 13 -44 0
-34 -92 120 0
36 81 86 0
64 -78 80 0
19 79 -97 0
38 -72 109 0
5 -65 -148 0
-54 -61 71 0
-114 -126 -149 0
-31 76 104 0
-10 -11 22 0
7 -121 -145 0
26 101 125 0
8 -63 95 0
-30 44 -83 0
-36 39 -80 0
16 113 -138 0
36 -38 -137 0
-50 68 -131 0
-17 -115 121 0
-47 -116 -142 0
-56 -87 90 0
13 57 -76 0
7 115 118 0
3 -79 123 0
-75 -78 -133 0
-1 -29 -115 0
31 75 127 0
-60 74 -112 0
11 -29 -135 0
-42 -66 89 0
1 34 -57 0
70 -94 127 0
11 -21 75 0
-32 -103 125 0
108 -109 114 0
33 -83 104 0
-38 -127 -149 0
-77 103 -113 0
33 -39 -41 0
4 -60 -122 0
4 -103 -124 0
63 -71 -140 0
-25 106 -137 0
32 -129 -136 0
18 -24 -110 0
83 126 127 0
-62 124 -128 0
-31 -86 -97 0
64 71 -149 0
93 124 -137 0
1 -26 115 0
8 -61 -105 0
-7 76 -91 0
49 -72 134 0
