c F1 random 3-CNF cnfgen RandomKCNF(3,75,320,seed=3) m/n=4.26
p cnf 75 320
-17 -31 70 0
2 34 -61 0
-61 70 71 0
20 50 67 0
-4 -6 -39 0
-51 55 -74 0
-5 13 -18 0
-39 -54 -56 0
30 -44 75 0
42 70 -74 0
-9 -16 37 0
9 45 -53 0
16 54 -55 0
36 43 -71 0
1 10 -14 0
20 -34 -38 0
-18 -47 -49 0
-14 -65 72 0
-34 -39 56 0
41 -54 75 0
-8 -43 -60 0
3 -8 -63 0
39 -41 59 0
-34 -41 48 0
-4 17 -73 0
-24 31 42 0
-29 42 43 0
-28 -44 73 0
5 -16 68 0
-11 36 -44 0
-35 -38 -67 0
-38 54 -73 0
-1 -20 26 0
-5 -59 67 0
9 16 37 0
26 56 -66 0
-16 22 65 0
53 68 -69 0
-17 33 -70 0
16 26 29 0
-1 -17 36 0
-32 35 -68 0
1 8 42 0
7 9 -62 0
-10 -21 -41 0
34 -39 -47 0
16 -17 72 0
-6 -23 -73 0
-6 -7 -56 0
3 54 -59 0
-10 29 55 0
-42 48 -72 0
16 -49 68 0
1 -19 61 0
12 -68 73 0
4 16 -44 0
37 39 75 0
13 -14 71 0
10 -24 -31 0
-33 -48 51 0
-31 49 -65 0
-67 73 -75 0
-13 -20 -21 0
18 24 -35 0
-30 -38 69 0
-3 -35 40 0
23 -47 -73 0
19 -54 62 0
10 -52 62 0
-9 28 31 0
18 -24 34 0
-6 24 41 0
-12 16 -34 0
44 58 -75 0
-43 49 56 0
51 -63 75 0
10 -36 -56 0
-13 -48 -68 0
14 -34 -44 0
8 38 73 0
16 48 -59 0
39 -54 -72 0
9 23 -40 0
-13 -35 46 0
-6 18 -62 0
43 -52 -58 0
15 20 35 0
-24 -25 73 0
19 25 51 0
33 -38 -48 0
-41 -50 -71 0
4 25 62 0
-23 63 68 0
-5 28 -68 0
18 20 60 0
30 -47 65 0
-42 43 44 0
5 11 44 0
-29 56 63 0
10 -26 -53 0
-9 61 -69 0
-3 -39 -60 0
-5 -24 -59 0
-47 58 68 0
27 -34 48 0
3 -21 27 0
4 -15 -18 0
-3 -8 -24 0
5 -7 53 0
4 51 64 0
25 -50 61 0
-7 -16 -45 0
-32 39 -63 0
12 -41 45 0
1 4 14 0
5 62 -65 0
-26 -44 62 0
40 -49 51 0
-15 -53 -65 0
-23 50 -71 0
-30 -54 -57 0
-22 -35 65 0
-3 20 22 0
8 -31 -41 0
1 43 -48 0
-14 44 -73 0
11 27 31 0
2 -15 75 0
-29 -66 72 0
11 23 60 0
13 26 -33 0
-14 -29 -52 0
-15 -38 58 0
-1 -15 70 0
-25 44 -45 0
9 55 -67 0
-8 -31 43 0
28 33 42 0
-54 60 -69 0
53 -61 62 0
4 -13 24 0
6 -25 -61 0
-5 45 -56 0
-14 -19 -57 0
-10 -20 -27 0
-21 -48 -56 0
-29 -68 -70 0
-4 -48 60 0
2 17 67 0
-1 -7 -27 0
5 63 71 0
36 44 -56 0
-32 -34 -40 0
-4 6 44 0
-18 -32 73 0
3 22 -36 0
-8 -59 60 0
10 24 -38 0
-46 -57 -59 0
-20 37 68 0
-30 -53 63 0
41 -71 74 0
-14 35 -36 0
-5 63 -66 0
-24 -45 50 0
-5 -28 -35 0
5 -37 -72 0
11 53 64 0
15 -16 68 0
-35 -56 -62 0
7 70 -72 0
19 -20 -22 0
2 19 51 0
17 25 40 0
28 -49 -69 0
4 24 36 0
-17 -19 38 0
1 -25 48 0
-9 46 -70 0
-3 -45 -61 0
40 -57 -69 0
-23 26 -38 0
17 26 -35 0
15 23 74 0
-48 52 -73 0
-57 70 75 0
-42 -59 -65 0
-37 -44 45 0
-16 29 -65 0
35 -56 -58 0
-23 68 69 0
-54 55 71 0
28 -49 50 0
8 -64 -71 0
-2 -47 -72 0
48 -52 57 0
-1 29 42 0
-11 -18 -27 0
-4 -26 -69 0
28 -44 57 0
-18 40 61 0
11 -23 -56 0
-1 -24 63 0
-27 -50 -66 0
11 -13 -37 0
-2 -9 42 0
43 -54 75 0
7 12 51 0
-24 -30 -61 0
30 -59 -68 0
-18 -69 -75 0
-27 68 -75 0
25 40 64 0
-16 59 -65 0
-5 24 -42 0
-8 -31 52 0
-23 -33 37 0
15 -27 -44 0
22 -23 73 0
28 -30 -47 0
-23 39 57 0
59 63 -69 0
54 -64 -67 0
45 52 -62 0
-19 44 -75 0
-19 39 -68 0
-6 48 64 0
-39 -71 -75 0
-2 -38 -55 0
24 -48 73 0
-15 50 -73 0
-23 -63 70 0
-53 71 74 0
22 26 62 0
-16 -69 -71 0
-9 -36 62 0
16 -28 -34 0
-19 34 -56 0
26 66 -74 0
14 44 45 0
29 -43 59 0
-6 22 -63 0
-55 -57 -65 0
-35 38 70 0
5 22 56 0
-27 48 -65 0
16 21 -26 0
20 -37 55 0
12 18 34 0
-1 -11 -67 0
1 -23 -34 0
-1 -5 -22 0
-6 14 -28 0
-29 42 57 0
28 -30 -45 0
13 41 -51 0
4 -13 52 0
-26 -59 73 0
40 55 -67 0
-13 65 -68 0
17 40 -67 0
16 -38 68 0
32 54 62 0
-1 8 61 0
-38 -40 -45 0
17 -40 73 0
15 25 -31 0
18 66 -68 0
1 -64 -66 0
-11 -43 -54 0
-4 -42 -44 0
-27 33 -61 0
-26 54 62 0
7 -52 75 0
-13 -23 -41 0
-54 -73 -74 0
-6 -47 -51 0
18 29 68 0
-14 -52 -53 0
56 -65 -72 0
8 21 72 0
18 51 66 0
28 -38 -71 0
-19 -21 -28 0
-4 57 -66 0
41 50 -71 0
-11 26 27 0
-12 -30 43 0
-27 70 -72 0
19 -31 -36 0
-20 27 38 0
-15 -59 72 0
-34 51 -69 0
27 40 -45 0
-31 45 52 0
-4 23 41 0
-7 15 -42 0
38 -43 -72 0
22 57 62 0
-36 48 -62 0
-47 49 -61 0
-62 64 -73 0
10 24 40 0
23 -34 41 0
2 -29 43 0
-14 -58 65 0
56 59 71 0
-11 14 -26 0
-4 7 27 0
-28 -42 -66 0
2 25 -69 0
-17 -45 57 0
10 37 -39 0
-31 -50 -57 0
-22 38 45 0
-39 -50 59 0
-1 -13 45 0
-33 -59 68 0
-10 -12 -39 0
22 -26 34 0
