c F1 random 3-CNF cnfgen RandomKCNF(3,150,639,seed=15) m/n=4.26
p cnf 150 639
3 54 134 0
-5 15 38 0
-87 -92 -120 0
-53 -59 89 0
79 -108 -131 0
-21 -119 -126 0
-17 104 116 0
36 -45 -137 0
-26 30 39 0
-76 120 143 0
91 129 -140 0
-43 -80 -82 0
-19 70 114 0
97 -100 127 0
-11 17 -74 0
-41 -128 145 0
16 -122 129 0
22 66 -115 0
89 -98 -112 0
-8 -80 141 0
90 100 -133 0
-64 -128 132 0
81 -82 126 0
16 -45 -88 0
-26 -33 -86 0
124 -141 147 0
26 40 -119 0
60 -95 104 0
-87 118 -146 0
-34 70 87 0
55 120 -150 0
19 53 -114 0
-15 41 -95 0
44 96 -146 0
-44 120 -122 0
64 -71 -114 0
9 -44 -104 0
-8 -87 -116 0
104 114 -117 0
-85 116 123 0
-44 57 -142 0
-83 85 -116 0
31 -78 107 0
67 -75 148 0
39 124 133 0
-57 -102 -110 0
-58 -104 -121 0
-85 88 97 0
58 59 -128 0
-56 -62 -66 0
-48 61 125 0
85 137 -144 0
-10 -16 -57 0
-76 -82 -134 0
-3 98 -142 0
17 43 112 0
-12 -23 100 0
51 89 138 0
67 -90 134 0
-2 -38 150 0
-37 44 130 0
85 110 127 0
-73 102 -147 0
4 -40 -133 0
37 -73 102 0
14 90 127 0
-27 29 76 0
-34 76 -149 0
6 -35 -64 0
22 -86 124 0
-15 118 125 0
-94 -104 -113 0
18 37 71 0
18 -56 104 0
56 -92 111 0
107 109 141 0
-22 -25 37 0
106 119 133 0
6 -40 -100 0
-78 -79 -142 0
18 -64 -130 0
-86 -128 139 0
76 80 -114 0
-59 -98 104 0
-3 18 -52 0
60 77 132 0
-16 35 -38 0
21 39 69 0
27 45 -66 0
33 75 132 0
14 82 -130 0
-23 38 143 0
27 96 100 0
43 -135 148 0
49 82 146 0
-29 -45 108 0
-61 -118 149 0
-36 -59 97 0
72 -77 -138 0
-90 -110 -127 0
-51 -55 -115 0
-65 75 -146 0
-105 109 -118 0
20 -36 -133 0
-11 -58 -113 0
49 84 118 0
-37 -55 81 0
45 -124 -131 0
7 46 117 0
62 -69 106 0
33 48 107 0
62 82 -97 0
-11 -14 132 0
-91 -126 -146 0
10 20 66 0
10 70 -141 0
-48 -59 114 0
-24 91 147 0
-45 -57 -66 0
-26 -103 -133 0
18 -67 -93 0
47 53 103 0
-73 86 -109 0
59 -70 103 0
4 -107 117 0
1 -15 -45 0
-30 53 -137 0
-14 50 -56 0
15 -16 50 0
34 -56 111 0
36 114 -130 0
-2 10 66 0
21 -88 -127 0
9 -130 -133 0
-48 -57 128 0
-38 59 125 0
35 -92 133 0
118 -125 -126 0
-25 123 -128 0
-32 -85 88 0
15 136 -137 0
69 105 -131 0
-11 57 -122 0
7 -34 76 0
-23 85 89 0
-41 100 114 0
-18 60 -67 0
-13 79 -139 0
55 -58 -92 0
-58 -88 -133 0
20 -50 -77 0
-2 25 134 0
33 -35 94 0
30 -35 -84 0
-24 -125 139 0
12 -33 66 0
-116 143 -150 0
-89 -130 136 0
33 54 128 0
13 -30 -109 0
39 58 -78 0
34 42 55 0
113 -121 122 0
6 -72 80 0
-49 87 -119 0
68 -69 150 0
-38 42 -148 0
-19 27 100 0
3 -63 83 0
66 -67 -144 0
-14 42 -140 0
-47 -91 -98 0
25 108 122 0
41 -121 142 0
-67 -122 147 0
75 108 124 0
15 -69 119 0
-26 39 -75 0
66 -76 143 0
-47 93 -146 0
-29 134 -136 0
-2 58 -117 0
64 -91 113 0
-16 -18 24 0
69 -100 -131 0
-10 26 134 0
-41 51 -66 0
-53 83 112 0
10 42 -63 0
93 -114 -115 0
3 -101 -121 0
71 -89 -131 0
18 -23 -62 0
-50 -80 145 0
4 -60 87 0
12 -78 -91 0
-12 22 -129 0
-103 -117 145 0
-68 109 -136 0
-23 39 -83 0
4 -27 -116 0
-2 -16 -33 0
2 -11 -69 0
-87 88 89 0
-16 33 -117 0
-89 -123 148 0
-12 92 -139 0
-17 89 102 0
31 -94 103 0
3 76 128 0
21 -44 104 0
-30 -96 100 0
-70 -103 129 0
-32 52 77 0
137 140 148 0
56 -70 116 0
-40 -73 101 0
-36 -110 126 0
108 117 121 0
-72 -85 122 0
-24 -39 -57 0
-1 -61 73 0
3 -117 139 0
21 49 86 0
90 -132 146 0
-38 -109 139 0
66 118 -129 0
98 -100 141 0
-94 116 -144 0
-47 -59 125 0
3 79 -148 0
-7 45 -70 0
31 -58 76 0
28 46 121 0
17 -42 -69 0
3 -52 -133 0
71 101 -107 0
37 90 142 0
29 -107 -126 0
-45 -57 -134 0
-12 -53 -85 0
1 -110 135 0
-8 -52 -99 0
-96 142 144 0
72 -125 147 0
-55 85 147 0
-81 -118 -121 0
-36 75 122 0
19 -24 -132 0
-41 -56 -139 0
-14 77 -98 0
18 88 -129 0
53 -114 130 0
45 -58 -68 0
51 -68 -74 0
29 115 122 0
34 118 120 0
-34 -133 136 0
2 -70 -110 0
20 47 126 0
40 -100 -105 0
47 -57 70 0
61 90 131 0
45 92 -138 0
89 99 142 0
32 -55 114 0
84 -117 -120 0
16 -89 144 0
-34 -52 55 0
-47 101 132 0
28 72 111 0
49 63 -107 0
-41 42 65 0
36 -76 86 0
-68 -140 -149 0
-50 55 85 0
54 -69 -95 0
93 -99 -126 0
-9 -16 -74 0
-11 -66 103 0
1 6 -30 0
58 -94 145 0
-13 -115 -124 0
92 -97 115 0
-48 52 148 0
34 44 -131 0
-21 -42 148 0
91 108 -149 0
-44 -52 77 0
35 -113 -120 0
1 -73 -133 0
15 53 121 0
-116 131 134 0
-34 74 -132 0
15 19 -118 0
-17 -31 143 0
-63 -82 -105 0
4 -29 60 0
29 103 -136 0
19 -77 -87 0
-42 -99 100 0
-71 79 88 0
-8 -10 100 0
10 54 131 0
5 -71 -109 0
71 -81 140 0
-35 -67 -112 0
1 -39 94 0
14 -72 -86 0
10 -56 -63 0
-17 -73 101 0
-1 58 -125 0
89 -112 -148 0
-33 -46 130 0
-56 -66 -98 0
64 121 124 0
-105 -125 -139 0
27 72 -77 0
-60 -90 -94 0
-41 93 -146 0
-62 92 138 0
13 55 -145 0
33 70 -129 0
27 33 -117 0
29 65 130 0
30 61 -67 0
41 86 -127 0
80 -81 -146 0
4 41 134 0
22 -25 30 0
-40 -62 91 0
-61 81 127 0
-24 -55 79 0
-68 -76 -107 0
-49 66 -107 0
43 -61 -127 0
1 -101 -112 0
126 130 150 0
-73 75 -110 0
36 93 108 0
-12 39 -71 0
-39 64 92 0
2 -50 117 0
-13 -38 -111 0
25 -35 -129 0
99 103 -126 0
33 75 102 0
46 -86 -95 0
-95 -139 -144 0
-46 -97 118 0
7 -76 -103 0
49 -55 110 0
48 50 -133 0
37 113 148 0
-40 -63 136 0
18 118 145 0
-56 -68 96 0
16 -68 87 0
-10 37 126 0
-107 128 -131 0
6 -32 -90 0
1 -7 -120 0
-70 -80 -141 0
-58 -126 132 0
-42 53 135 0
25 29 124 0
56 -69 97 0
-35 -38 -65 0
24 59 101 0
55 -62 -75 0
-59 -97 -99 0
-61 128 131 0
24 92 131 0
1 36 -79 0
6 -36 -72 0
53 95 -104 0
51 -115 -150 0
53 92 137 0
-18 -92 -118 0
82 98 147 0
-14 -40 -45 0
-52 -103 137 0
21 38 -55 0
58 -112 147 0
9 15 -60 0
-47 -100 137 0
-63 -119 -126 0
28 -101 -147 0
-4 79 105 0
-3 127 142 0
-98 103 108 0
20 145 148 0
-21 96 -131 0
57 108 -110 0
-25 -35 138 0
-12 45 144 0
93 -112 124 0
-10 39 -110 0
-102 -107 148 0
-27 -40 -114 0
-50 -142 145 0
29 125 -142 0
-12 -26 68 0
-46 67 -82 0
57 -82 124 0
-4 66 143 0
46 -91 118 0
-34 54 -71 0
-58 -76 110 0
56 59 -97 0
-31 -52 -101 0
97 121 125 0
-11 78 -111 0
7 62 127 0
-79 92 -147 0
18 -23 -44 0
-76 84 -115 0
-58 -116 -135 0
-13 -81 104 0
5 -6 -42 0
-30 -40 -105 0
41 -72 -89 0
-35 117 -133 0
-35 56 -124 0
-83 119 124 0
58 -76 -99 0
14 93 -127 0
4 -37 87 0
85 -88 90 0
-14 70 -83 0
-26 -133 -134 0
-3 66 102 0
-49 80 -85 0
-23 50 89 0
-45 -87 106 0
20 47 54 0
-12 33 114 0
73 78 -84 0
69 -91 109 0
9 -44 -80 0
-78 104 142 0
2 75 91 0
-34 45 123 0
25 -116 -121 0
-83 120 142 0
-75 -83 -142 0
21 90 -144 0
-15 -110 139 0
9 -33 -64 0
-49 125 -139 0
38 -101 103 0
66 68 92 0
-66 -97 111 0
65 111 -135 0
44 95 132 0
2 57 -118 0
-75 -143 -144 0
27 67 -145 0
-34 -60 -131 0
-118 134 147 0
-40 76 -93 0
-6 -44 -84 0
-60 -100 -122 0
25 82 -101 0
-41 -64 -98 0
-48 57 -82 0
-22 26 -40 0
-39 -116 118 0
-21 99 -121 0
-29 31 134 0
32 -88 -112 0
15 26 -132 0
53 -107 144 0
-1 -93 121 0
-1 9 121 0
-27 -91 -112 0
48 -60 -83 0
82 -84 -98 0
-22 53 -63 0
68 107 -142 0
73 99 104 0
-5 -41 86 0
-46 61 -149 0
-87 -111 126 0
96 102 -114 0
19 -43 -50 0
41 -50 106 0
15 -51 -108 0
57 79 -123 0
11 37 -41 0
9 108 145 0
-28 -29 -55 0
-11 78 -120 0
54 -62 -91 0
18 31 -57 0
61 81 134 0
-9 -91 134 0
11 64 -108 0
-1 46 48 0
40 70 -116 0
65 98 142 0
10 87 -91 0
84 -97 -139 0
-48 129 133 0
67 75 124 0
-45 125 136 0
-23 -65 -76 0
67 73 -141 0
42 -50 -57 0
107 115 122 0
53 87 105 0
-16 119 -146 0
-19 52 111 0
9 -36 -51 0
-65 -82 -118 0
35 -47 136 0
18 73 -146 0
-105 -118 146 0
-40 -82 105 0
-13 -65 -128 0
-51 -76 -104 0
-11 -79 -133 0
-73 -98 142 0
55 -64 139 0
20 58 -140 0
42 49 52 0
-103 -105 135 0
66 -71 141 0
-20 112 125 0
45 -54 -118 0
-55 -122 132 0
10 -53 57 0
91 -94 -103 0
-7 -108 110 0
19 -112 137 0
-63 -113 136 0
41 73 -87 0
-27 65 71 0
36 -73 -133 0
27 -72 143 0
30 -50 102 0
15 -62 103 0
-26 65 78 0
-1 -40 48 0
-32 53 92 0
-13 45 -87 0
-8 81 125 0
21 -104 -145 0
7 46 141 0
29 130 131 0
77 -128 -145 0
-51 82 -106 0
24 92 146 0
-99 131 -133 0
-27 47 114 0
41 -84 134 0
-1 -125 147 0
-101 117 -144 0
-22 -35 36 0
12 40 -75 0
4 -94 124 0
-2 -75 -116 0
13 21 -60 0
33 49 -92 0
22 116 144 0
26 -30 119 0
19 -23 -42 0
-69 99 141 0
-8 -39 65 0
40 43 48 0
-45 109 137 0
42 117 -123 0
-108 130 150 0
20 -89 131 0
-16 -20 -62 0
-67 -111 -112 0
-19 74 -137 0
23 -68 107 0
122 -129 -131 0
1 -57 105 0
94 133 148 0
10 71 117 0
-14 -43 129 0
-7 -56 -139 0
-15 -83 -135 0
15 118 -122 0
-91 114 -129 0
5 87 150 0
-71 -91 -138 0
31 50 138 0
-20 46 75 0
50 -65 93 0
38 105 -135 0
8 -72 89 0
-27 30 -71 0
-68 -133 149 0
51 112 114 0
-37 85 -113 0
-6 -73 108 0
88 -100 -132 0
-1 -11 125 0
7 121 136 0
-40 -65 94 0
58 -69 85 0
-58 -66 -115 0
73 -102 128 0
-48 134 -149 0
-53 58 115 0
81 -127 141 0
13 -29 -111 0
5 -45 -57 0
-6 -13 135 0
19 144 148 0
-24 -35 134 0
-51 -138 -144 0
-22 82 86 0
-101 -105 -117 0
-17 44 147 0
-89 104 -132 0
32 57 105 0
22 118 -150 0
-11 -17 121 0
9 -19 -124 0
-14 -90 143 0
-34 -98 -141 0
-12 -38 -61 0
-7 -48 -69 0
23 -107 -138 0
-8 -33 102 0
-2 -60 -73 0
-109 120 138 0
-40 -59 63 0
12 33 134 0
-44 -85 96 0
-75 82 -122 0
6 37 87 0
53 -74 -104 0
-15 31 -64 0
77 -101 -138 0
