c F1 random 3-CNF cnfgen RandomKCNF(3,125,533,seed=8) m/n=4.26
p cnf 125 533
-30 48 124 0
6 11 91 0
-4 -52 -83 0
50 -64 74 0
30 -63 -98 0
-61 116 -117 0
-9 -13 105 0
8 44 -85 0
67 84 116 0
-5 70 122 0
-75 -111 -122 0
-46 72 110 0
-13 -77 -98 0
-26 65 -80 0
37 66 -68 0
-2 -32 117 0
-5 -35 -55 0
-91 107 -115 0
15 22 120 0
-2 -15 39 0
56 73 -116 0
-53 58 73 0
13 37 92 0
-67 68 -98 0
20 78 91 0
-18 44 -117 0
-42 45 -124 0
8 27 113 0
-44 56 125 0
-26 -29 78 0
-14 16 -49 0
-12 -66 -93 0
7 29 -59 0
14 15 -28 0
56 68 107 0
42 50 -68 0
38 -79 -117 0
29 -38 -81 0
-95 -104 -121 0
38 101 -115 0
-48 49 -123 0
-50 -51 -79 0
26 -63 106 0
-9 -64 94 0
-80 -106 -107 0
-65 -103 -106 0
32 -47 124 0
30 -104 -105 0
14 -100 102 0
-22 84 100 0
-3 25 79 0
-59 60 112 0
46 -78 111 0
11 -107 118 0
30 -93 105 0
-38 46 96 0
-79 -93 118 0
-21 33 -115 0
9 94 101 0
-23 38 119 0
7 8 -122 0
-32 38 113 0
18 96 -120 0
23 28 -53 0
-8 -89 -114 0
-56 -105 -120 0
95 -100 -109 0
61 -88 -122 0
-65 82 -125 0
-18 -99 106 0
5 -38 -51 0
45 49 90 0
-11 24 -106 0
73 -75 81 0
-77 -84 92 0
41 -84 122 0
-31 -62 -83 0
-55 97 104 0
-85 91 119 0
-30 -66 -123 0
-23 61 -72 0
-3 -57 -101 0
-38 -52 108 0
-64 -84 115 0
75 -95 -125 0
-47 61 74 0
19 65 -101 0
-19 -28 82 0
2 -15 123 0
1 4 -41 0
2 40 -82 0
-12 41 110 0
13 -88 -112 0
15 55 116 0
-85 -91 100 0
33 53 -89 0
-9 63 99 0
-8 -51 -106 0
36 -67 78 0
89 90 91 0
-84 99 -104 0
31 -84 -117 0
-65 -106 -115 0
18 -79 80 0
-29 67 102 0
29 -55 121 0
35 -73 -100 0
19 -74 85 0
-41 -52 118 0
-16 -50 87 0
44 63 71 0
-78 -91 -121 0
14 75 113 0
11 36 57 0
10 -81 -118 0
-41 50 -91 0
36 -95 -102 0
32 -75 -98 0
61 67 113 0
-43 -95 118 0
-24 58 -71 0
-8 -46 68 0
-32 -71 -117 0
-25 90 121 0
38 81 -109 0
13 16 -71 0
31 -42 73 0
-4 -49 99 0
63 67 -68 0
-33 48 94 0
-25 -63 112 0
17 -89 109 0
-50 -58 115 0
-49 61 101 0
-24 31 -93 0
72 78 108 0
-43 105 114 0
-41 -65 72 0
29 49 118 0
9 29 -109 0
-37 112 -119 0
37 -91 -123 0
-56 -64 118 0
6 40 -116 0
55 -84 -91 0
6 81 -84 0
7 121 123 0
-18 -32 -41 0
11 31 -108 0
-13 81 118 0
-3 -15 98 0
29 -35 -65 0
49 -66 -98 0
-3 21 89 0
-79 80 -103 0
70 77 114 0
6 -90 -93 0
-57 -93 -124 0
88 -92 -115 0
57 -79 89 0
34 -69 -123 0
-15 65 114 0
-60 75 89 0
1 -17 -89 0
72 -81 118 0
-59 -63 -97 0
63 -96 -108 0
-55 -107 114 0
69 107 123 0
41 -50 -54 0
-2 65 -103 0
-34 -51 69 0
30 -63 80 0
21 94 112 0
-84 86 122 0
-17 34 85 0
-11 62 -89 0
84 100 112 0
-15 -45 -83 0
18 101 -123 0
-2 -4 -114 0
30 -52 -86 0
-39 43 -117 0
9 55 -124 0
-25 68 -95 0
-31 -38 -40 0
-1 2 8 0
14 -30 70 0
-24 57 122 0
34 -37 71 0
-35 -48 65 0
8 -10 -31 0
-7 -15 -109 0
87 93 -119 0
-54 -88 -109 0
63 -66 -87 0
-42 -49 -54 0
1 58 -95 0
10 69 81 0
2 -14 -113 0
-12 -27 -38 0
-20 -63 -112 0
-24 -38 114 0
16 90 -94 0
28 71 74 0
-23 -34 119 0
-32 -75 -118 0
-79 112 116 0
-1 79 100 0
46 -58 -96 0
-5 10 -13 0
-8 42 54 0
-18 74 -124 0
-17 -34 -61 0
-41 -75 106 0
-21 -28 94 0
12 39 -40 0
-18 -34 75 0
-26 -81 -113 0
6 -36 93 0
11 60 101 0
15 17 -35 0
-20 -64 -122 0
-4 -27 -52 0
-3 -30 -53 0
11 57 -121 0
68 -99 124 0
43 89 -107 0
33 89 122 0
-42 67 101 0
6 -45 120 0
-17 81 -92 0
-17 45 -101 0
-9 -27 -76 0
21 -67 -96 0
-29 72 -91 0
46 116 119 0
55 83 96 0
-18 24 -88 0
16 42 -74 0
17 37 -117 0
-23 -78 -124 0
-53 -62 83 0
61 -71 -106 0
18 53 -69 0
-30 -52 84 0
7 18 -94 0
5 48 -78 0
7 26 47 0
-66 -78 83 0
22 -49 90 0
-68 116 -122 0
-7 28 78 0
-87 103 -114 0
80 -97 -100 0
-11 -14 -82 0
87 92 -114 0
-1 -21 116 0
-61 -73 113 0
-89 -91 111 0
-23 68 -74 0
-20 30 74 0
-4 -72 -103 0
-66 95 -125 0
-28 -41 -81 0
62 87 -119 0
-39 97 -113 0
38 95 104 0
-24 40 53 0
-24 -79 87 0
23 51 125 0
32 54 -68 0
-25 98 -100 0
36 -104 -117 0
-36 -72 84 0
-4 6 -72 0
30 42 -112 0
20 90 -97 0
21 28 -92 0
44 60 -110 0
-9 78 -92 0
-16 89 -111 0
-48 -72 124 0
36 89 93 0
24 -40 76 0
-65 -84 -87 0
12 15 19 0
30 -97 -122 0
-8 77 -114 0
-68 -79 -100 0
-44 49 82 0
6 28 104 0
4 65 72 0
26 -68 -109 0
-10 66 -85 0
-11 71 -92 0
36 -55 -101 0
-93 100 -120 0
-31 93 -95 0
14 -99 119 0
-3 51 103 0
28 110 121 0
-29 44 68 0
-19 -40 -105 0
-10 -12 48 0
19 34 51 0
3 -13 97 0
43 78 -82 0
23 33 95 0
-34 -44 -45 0
-65 90 96 0
-27 31 -48 0
31 49 74 0
51 55 94 0
-107 -111 123 0
26 86 -97 0
42 -91 103 0
-13 19 71 0
-51 -72 -98 0
21 44 -118 0
-11 -69 -123 0
11 -47 -86 0
-40 42 -120 0
40 -64 -110 0
17 31 -71 0
-70 -94 101 0
54 76 116 0
-63 123 125 0
65 66 112 0
35 49 58 0
64 74 108 0
-9 -82 113 0
5 -42 -87 0
38 -93 104 0
9 -12 -74 0
-72 -88 120 0
74 102 121 0
-31 -54 69 0
-16 -88 96 0
79 -102 124 0
19 75 88 0
-7 -42 89 0
-16 31 -103 0
-41 -73 83 0
-18 24 68 0
-20 -71 85 0
18 38 -91 0
35 65 -119 0
-6 53 -96 0
-36 -97 -124 0
-63 66 88 0
-21 77 -113 0
-1 81 -85 0
-100 102 -121 0
9 37 -66 0
-18 67 -79 0
-25 -29 -57 0
2 -5 114 0
35 44 -69 0
37 -83 -95 0
-34 43 109 0
20 -103 117 0
-3 -18 69 0
-24 -48 112 0
6 -11 -101 0
-15 -58 -89 0
28 63 -114 0
-21 39 -51 0
-27 41 60 0
-9 -46 -79 0
-9 59 70 0
78 -114 125 0
9 -67 -117 0
-64 84 -115 0
-38 -70 -73 0
-19 -40 -115 0
-70 88 104 0
18 -34 105 0
37 -84 -118 0
-29 53 107 0
-35 -53 61 0
-34 -94 -101 0
24 -63 66 0
12 46 47 0
22 -34 -105 0
-10 36 -46 0
7 -67 114 0
20 -82 -114 0
-8 -73 104 0
63 -92 -116 0
53 59 88 0
47 115 -124 0
74 -115 -117 0
-12 -73 -80 0
-46 64 76 0
-30 -56 85 0
23 -56 114 0
79 -96 -108 0
-32 97 124 0
31 48 -59 0
-47 -57 -73 0
-33 95 122 0
-11 28 94 0
74 86 -123 0
50 -92 -99 0
11 74 -101 0
24 -51 70 0
60 111 -116 0
-30 39 -44 0
25 -83 108 0
37 -42 123 0
-72 -97 -103 0
11 -111 -113 0
69 70 -94 0
3 69 -95 0
35 72 -102 0
-10 -114 -122 0
-34 -82 -94 0
-31 -80 -101 0
-15 26 63 0
3 -18 -111 0
-8 18 -85 0
56 118 121 0
63 70 -75 0
47 -77 94 0
-31 103 -112 0
10 -70 72 0
22 -35 -58 0
7 22 38 0
-12 47 -99 0
39 -68 -71 0
-15 -31 120 0
-14 62 -102 0
86 97 -102 0
19 -72 -105 0
-10 53 67 0
15 -57 82 0
59 -71 -92 0
-17 -82 -93 0
5 -45 -55 0
-18 37 -73 0
-37 99 123 0
-24 -104 -110 0
-19 24 -48 0
-22 -39 102 0
-1 18 -52 0
13 64 66 0
38 45 83 0
-25 -30 -56 0
-25 -81 93 0
-19 -33 -117 0
16 48 76 0
-37 41 -95 0
-7 30 -110 0
-11 56 -113 0
1 -65 94 0
31 62 -103 0
60 -96 -125 0
-34 68 109 0
36 53 -74 0
20 74 123 0
18 -38 -76 0
-14 -17 46 0
-22 48 123 0
-25 80 -86 0
21 -29 120 0
30 -81 93 0
-2 95 111 0
20 -31 -80 0
34 -84 100 0
15 27 70 0
-20 -71 -109 0
54 -119 120 0
26 27 -70 0
51 -86 95 0
11 86 107 0
-45 -59 60 0
-77 114 125 0
-27 -63 -95 0
-26 33 -72 0
89 109 -120 0
-48 61 -86 0
45 63 -98 0
11 -113 114 0
11 26 -62 0
26 -109 124 0
17 -18 -58 0
65 69 -97 0
-83 109 -125 0
3 -20 59 0
-23 27 -110 0
-39 -93 -123 0
12 -69 114 0
27 68 96 0
24 -42 -59 0
-31 -73 90 0
-3 38 45 0
-26 95 -98 0
34 63 101 0
70 -105 -120 0
-44 68 103 0
-3 -13 123 0
-37 -50 118 0
90 93 -101 0
-64 -67 -78 0
-77 -119 -120 0
25 82 -94 0
-44 56 74 0
-14 55 118 0
51 -79 -82 0
80 94 -121 0
-20 -34 -119 0
-15 77 118 0
34 -50 59 0
-49 64 85 0
-6 -88 -100 0
12 43 49 0
-30 -49 87 0
-5 40 -67 0
30 42 -65 0
-3 24 83 0
4 -104 -108 0
-38 87 122 0
21 -41 107 0
-49 -91 96 0
-12 -43 52 0
-40 105 121 0
-22 -29 -114 0
10 37 -85 0
47 98 -120 0
13 38 125 0
3 -58 120 0
-20 -78 -125 0
