c F1 random 3-CNF cnfgen RandomKCNF(3,200,852,seed=13) m/n=4.26
p cnf 200 852
67 75 176 0
58 165 188 0
-55 137 -191 0
33 -156 176 0
-22 68 -116 0
-60 -92 -125 0
81 -164 -168 0
115 -142 -177 0
46 76 -138 0
-65 -96 -118 0
34 126 148 0
34 -94 -180 0
-1 100 185 0
-37 -128 179 0
-106 -188 189 0
96 162 -181 0
11 -55 -159 0
47 50 76 0
18 -43 -110 0
24 135 -166 0
-32 78 -105 0
10 -94 -134 0
-40 128 144 0
9 76 -97 0
-56 -109 176 0
-63 -92 198 0
90 -109 -165 0
18 23 -118 0
-49 -116 124 0
75 112 136 0
29 -41 -95 0
75 -100 155 0
-26 -93 126 0
76 90 -137 0
43 140 190 0
-23 -39 175 0
55 68 89 0
113 -134 196 0
14 -30 -141 0
-39 -77 140 0
8 14 96 0
70 -135 -184 0
-42 160 173 0
-25 -79 -104 0
-39 69 116 0
-67 71 137 0
-41 -96 -107 0
-40 119 -149 0
49 122 -183 0
33 46 129 0
21 79 -128 0
6 -7 137 0
-14 -167 188 0
6 125 -156 0
-3 -130 136 0
-14 135 156 0
-26 -38 95 0
89 -175 185 0
35 66 183 0
15 140 -165 0
-92 -98 148 0
-72 -114 135 0
-53 84 -176 0
-7 -77 -107 0
124 145 -192 0
-1 -38 56 0
76 111 144 0
29 168 -192 0
55 81 161 0
13 48 -179 0
-46 145 -169 0
29 -40 132 0
133 134 -200 0
77 -79 -108 0
-142 -149 -184 0
55 184 191 0
-13 31 193 0
26 -79 -160 0
-12 27 -154 0
-60 85 123 0
23 -126 -183 0
4 36 108 0
-39 90 -110 0
-85 93 193 0
38 -41 190 0
111 -154 -198 0
-40 54 -142 0
-88 -101 110 0
63 103 -143 0
-27 113 138 0
49 143 -186 0
-12 70 -128 0
-49 118 -190 0
-53 111 -198 0
57 -104 170 0
-5 -10 -179 0
34 -117 -130 0
115 151 161 0
126 164 182 0
8 -108 -180 0
10 -11 -107 0
38 39 135 0
18 -76 145 0
1 127 -171 0
17 -30 200 0
15 -50 145 0
-116 174 -185 0
154 161 163 0
134 -149 180 0
103 -106 -159 0
116 193 -198 0
61 -118 183 0
119 -185 198 0
-33 -149 170 0
-5 -113 178 0
-10 36 85 0
20 29 -94 0
120 -147 148 0
-87 142 -159 0
22 -105 196 0
31 -40 -147 0
-74 127 -176 0
-27 -50 148 0
20 -79 116 0
13 -110 -175 0
-32 54 -165 0
6 -121 167 0
75 -111 191 0
-13 109 175 0
-94 193 -198 0
123 132 186 0
15 44 -81 0
-92 103 153 0
-49 189 194 0
-27 -36 -107 0
66 -81 -144 0
59 -112 167 0
18 -27 53 0
-24 -44 174 0
-49 132 152 0
-84 -106 -175 0
-20 94 -103 0
-76 97 177 0
17 -91 -168 0
-107 149 191 0
-55 168 185 0
-32 -162 -172 0
-53 134 -173 0
113 -115 179 0
71 -73 -128 0
-87 186 198 0
23 81 -195 0
76 -94 151 0
-46 -98 -147 0
-6 26 107 0
3 -5 18 0
45 -53 117 0
111 135 -139 0
103 -150 -157 0
-17 -146 161 0
29 -123 155 0
-76 164 -188 0
-51 -128 -198 0
-69 82 -188 0
9 -142 162 0
-109 -138 -195 0
53 -100 -158 0
-3 -130 -146 0
20 109 -159 0
62 172 -189 0
-6 33 119 0
4 28 -47 0
-10 -77 188 0
60 76 -100 0
71 123 163 0
-8 27 172 0
-42 -70 -72 0
54 -59 -73 0
20 46 98 0
-120 -159 172 0
15 -22 -160 0
-26 -121 -166 0
7 -152 -200 0
-45 -75 -99 0
104 119 137 0
44 -120 199 0
38 -157 163 0
-27 -87 -165 0
-1 -3 -54 0
40 65 -132 0
58 84 182 0
-30 158 186 0
-41 106 110 0
-12 57 -106 0
-72 136 -170 0
-16 106 -164 0
-83 -166 170 0
33 -82 85 0
-46 -81 -99 0
-10 -119 -167 0
-31 145 153 0
-25 135 142 0
-12 24 -162 0
71 110 139 0
88 -128 -161 0
32 70 -156 0
33 -46 -55 0
-52 67 -81 0
16 -26 93 0
8 -149 173 0
8 -135 137 0
30 -45 64 0
17 -86 -174 0
-56 -142 148 0
-13 77 -140 0
1 -13 149 0
-20 24 -167 0
-122 124 -174 0
-33 129 -166 0
28 -117 173 0
-120 125 149 0
-14 -65 -124 0
60 -72 -131 0
-39 82 160 0
51 93 132 0
32 72 -155 0
71 -77 -152 0
-97 153 183 0
20 67 -85 0
-32 138 155 0
38 94 100 0
-1 -99 -123 0
61 -64 137 0
12 -57 -175 0
117 -124 -134 0
37 -143 -199 0
21 138 146 0
-69 -76 -158 0
40 -97 132 0
-89 120 -143 0
-81 -150 -193 0
-25 -175 -187 0
113 146 175 0
-17 46 156 0
36 44 175 0
-13 -102 -147 0
-8 -50 98 0
90 99 168 0
-95 -114 175 0
-53 58 111 0
77 188 198 0
-19 55 157 0
97 -139 -150 0
85 -95 115 0
32 150 -173 0
98 149 -193 0
102 -110 -151 0
-86 -132 -199 0
-14 134 -199 0
88 -130 -175 0
6 86 151 0
-6 89 -123 0
83 104 -179 0
-25 176 -192 0
-36 -69 -169 0
21 70 -73 0
-58 -133 -165 0
26 143 188 0
65 -118 180 0
-1 -132 172 0
-89 -109 179 0
49 130 175 0
-21 144 186 0
69 93 -155 0
41 -144 -174 0
41 154 169 0
57 -71 -104 0
-6 -72 94 0
54 95 170 0
-117 -169 171 0
-39 -62 -186 0
72 162 178 0
136 -140 191 0
44 131 -141 0
27 28 54 0
-44 -74 -144 0
11 -96 -124 0
-93 -152 170 0
-6 -16 -144 0
75 -81 103 0
-1 14 77 0
-1 -88 -185 0
-102 123 161 0
4 14 -113 0
26 113 121 0
-39 46 -198 0
-58 86 102 0
-75 117 -146 0
36 -141 -164 0
44 -86 141 0
-73 74 -77 0
61 -138 -150 0
-21 -70 146 0
94 127 129 0
126 151 166 0
126 173 -200 0
-53 -84 -195 0
1 -197 -199 0
26 -66 197 0
-150 171 -185 0
-16 -107 169 0
79 -98 -110 0
29 129 200 0
40 109 189 0
11 33 60 0
-76 -103 169 0
13 -14 -116 0
-43 -108 -140 0
18 49 -164 0
94 136 158 0
-31 92 110 0
17 -75 156 0
-18 34 -125 0
-8 55 -174 0
-32 -54 -118 0
-42 -67 -84 0
84 92 177 0
-22 -40 -120 0
-10 63 -82 0
-2 -110 -152 0
-25 -36 -176 0
-36 -148 192 0
13 -132 135 0
-32 88 -131 0
79 -163 188 0
39 -41 -164 0
-23 67 -83 0
39 110 -180 0
-23 -88 183 0
-101 153 157 0
31 -51 -112 0
-57 -74 -77 0
-7 63 -137 0
56 -58 177 0
-15 146 -154 0
-111 172 -190 0
-113 -126 -174 0
140 177 -195 0
54 -118 145 0
39 57 80 0
-18 -54 127 0
34 -144 -158 0
-101 -157 -190 0
27 123 163 0
-164 182 -184 0
11 -89 -142 0
-128 -165 190 0
-128 177 190 0
-9 -110 -152 0
38 -39 -198 0
-33 -127 158 0
-5 42 160 0
84 127 -171 0
4 88 197 0
-111 140 163 0
100 157 184 0
55 -130 -165 0
-65 90 -132 0
-85 129 196 0
33 35 -172 0
-70 86 134 0
72 111 128 0
13 -155 -191 0
90 -100 135 0
35 112 122 0
31 -151 -186 0
78 118 167 0
-73 -112 -171 0
138 -179 186 0
15 84 126 0
147 -181 -185 0
114 -132 -141 0
160 -187 192 0
13 -114 -131 0
-43 63 110 0
117 -175 178 0
88 104 145 0
20 -106 151 0
-35 135 -200 0
35 56 -125 0
54 -94 -195 0
-86 -150 152 0
94 -101 -112 0
81 148 154 0
-96 106 -117 0
54 83 -100 0
96 -138 -200 0
-54 -146 187 0
75 -81 -200 0
-32 -47 -140 0
7 -29 -184 0
-130 139 193 0
4 8 153 0
58 97 140 0
-105 -108 121 0
-32 115 -151 0
-6 31 130 0
-45 176 177 0
20 21 39 0
60 -132 164 0
-5 55 63 0
83 126 195 0
4 -64 195 0
-36 -115 150 0
71 82 157 0
-46 98 -188 0
26 105 181 0
3 161 -183 0
24 -159 177 0
32 -38 -159 0
-81 -98 124 0
20 32 195 0
-178 -182 -183 0
-17 44 -117 0
9 69 182 0
-32 -36 39 0
-10 68 134 0
-104 120 -125 0
19 54 -61 0
22 -38 -41 0
56 97 -174 0
-109 -122 -131 0
14 -153 182 0
-67 -125 135 0
-58 78 159 0
107 -124 -126 0
-67 141 165 0
1 -112 -140 0
70 129 -146 0
41 -94 -170 0
40 -50 -161 0
21 -73 -103 0
43 -65 -77 0
15 34 134 0
-42 -111 156 0
71 77 -196 0
73 -170 185 0
-95 155 -176 0
162 171 176 0
-55 60 79 0
53 66 -76 0
-1 84 -186 0
-4 -18 -165 0
16 -118 190 0
32 -195 -198 0
-27 119 -194 0
15 -37 154 0
-67 -150 196 0
90 -127 177 0
78 100 130 0
73 101 -138 0
-72 135 -167 0
34 -52 174 0
95 -145 187 0
26 156 -167 0
-16 111 -145 0
-8 -75 -142 0
-126 127 191 0
-161 180 192 0
67 111 140 0
-99 154 -157 0
8 -97 -197 0
14 -115 -189 0
-36 69 -190 0
33 -86 108 0
-5 -84 156 0
-63 87 176 0
-25 -27 -136 0
-6 -147 -200 0
65 -101 -112 0
33 -36 -104 0
64 134 165 0
9 84 85 0
-18 113 188 0
79 -119 -192 0
-6 -38 96 0
-19 155 -168 0
-10 -156 -192 0
108 -129 165 0
59 147 171 0
84 -120 185 0
-8 -74 173 0
155 -162 -181 0
42 -64 192 0
117 160 -184 0
14 -29 200 0
11 -123 -126 0
35 97 166 0
7 -49 -116 0
-85 86 183 0
62 122 -158 0
-72 159 -188 0
-21 107 122 0
-31 -105 146 0
-37 44 114 0
-3 -109 119 0
47 -49 -103 0
-97 141 -147 0
-6 91 167 0
-39 92 -145 0
-49 -85 95 0
-9 15 -101 0
10 -92 -169 0
24 52 123 0
36 65 -183 0
-11 -24 -79 0
47 -99 -185 0
-21 77 153 0
-63 -91 181 0
-47 -48 187 0
108 -123 -131 0
52 -87 -197 0
-8 19 -53 0
-28 56 75 0
-55 -125 184 0
-8 38 84 0
-86 97 -117 0
-51 -118 127 0
-35 80 -197 0
10 -91 131 0
62 144 -194 0
-22 -100 -118 0
16 122 146 0
18 -35 63 0
9 107 143 0
65 -120 -134 0
3 66 -85 0
108 -136 -158 0
-16 26 -189 0
-86 139 142 0
51 -79 -113 0
-3 -28 -190 0
-15 -51 -95 0
-6 -116 -183 0
49 96 180 0
75 -140 -176 0
122 134 163 0
31 121 200 0
92 119 -128 0
-31 42 -154 0
-58 -106 119 0
-6 42 60 0
39 -182 200 0
-67 118 137 0
-20 36 -194 0
8 184 -200 0
-37 -75 -93 0
3 87 171 0
60 -72 117 0
2 -7 -116 0
80 106 -165 0
-56 -115 166 0
-42 -93 170 0
127 -157 165 0
53 -145 195 0
128 149 -157 0
-14 74 -154 0
-55 -155 -170 0
-86 187 -195 0
-11 83 -146 0
34 -49 -89 0
-82 -139 165 0
129 135 -157 0
64 73 -129 0
12 -79 152 0
48 59 128 0
-21 -145 -193 0
47 81 -97 0
-72 86 87 0
36 73 -77 0
26 -35 101 0
-8 131 -188 0
8 -45 151 0
18 -93 198 0
-10 48 196 0
-12 51 -65 0
15 -112 128 0
37 73 175 0
28 -52 135 0
-62 69 -101 0
-37 117 168 0
-95 -106 -116 0
13 30 136 0
-65 -66 -85 0
23 136 186 0
29 66 185 0
136 -146 -185 0
37 49 -107 0
22 100 182 0
-5 16 -101 0
-49 -115 -167 0
-62 76 -104 0
49 61 144 0
26 -98 -168 0
12 71 141 0
-39 44 179 0
-64 -81 160 0
97 -128 -147 0
21 142 146 0
18 160 199 0
60 79 -191 0
-16 107 184 0
-76 100 -120 0
-45 105 108 0
60 -141 200 0
-7 -34 -108 0
5 143 -160 0
34 164 168 0
-50 -95 105 0
20 35 -79 0
-76 123 160 0
101 -186 -198 0
35 78 -198 0
20 26 -59 0
-139 -181 -186 0
85 -95 187 0
14 -108 -133 0
38 -85 116 0
16 -56 133 0
100 -110 -184 0
128 -140 -162 0
119 161 163 0
10 47 -100 0
21 84 113 0
70 87 131 0
68 124 -173 0
61 144 -154 0
14 -110 150 0
-77 87 176 0
-8 -39 151 0
-30 -77 -137 0
-24 66 -107 0
-2 18 -140 0
13 39 136 0
-95 135 153 0
-4 44 -67 0
-16 -122 -151 0
-47 136 170 0
35 -115 -122 0
-109 -118 179 0
-40 -86 132 0
-6 -46 -133 0
6 27 -183 0
-49 50 198 0
15 -99 -173 0
-3 51 -140 0
-140 143 171 0
2 159 165 0
25 -63 -174 0
54 77 -101 0
-24 37 116 0
-31 -122 187 0
17 -61 -180 0
39 145 191 0
-42 77 183 0
-15 -102 110 0
23 24 200 0
20 49 -61 0
25 -145 195 0
57 -113 118 0
-80 87 -167 0
-26 -48 68 0
15 94 -195 0
-28 96 173 0
6 68 194 0
45 -56 196 0
-144 158 189 0
-20 155 -164 0
72 -78 -175 0
70 103 -121 0
28 -57 196 0
-30 88 194 0
-8 134 -174 0
-102 -109 -139 0
104 135 137 0
-7 144 -151 0
-20 137 -154 0
69 71 92 0
-53 -70 -82 0
-7 -54 -75 0
6 -14 115 0
-105 140 -175 0
25 -58 199 0
42 79 -105 0
18 -65 183 0
7 -17 -42 0
27 104 -113 0
-74 -90 137 0
-44 106 -147 0
109 -122 148 0
-67 110 -176 0
42 -76 148 0
88 103 169 0
45 56 168 0
-10 -27 175 0
-117 -120 -186 0
-2 -62 83 0
19 26 60 0
-30 51 69 0
-96 -101 -164 0
-8 -55 -86 0
68 70 174 0
-24 -189 -196 0
-78 -126 -191 0
-53 75 184 0
-15 -66 82 0
16 99 -107 0
15 25 -157 0
125 126 -167 0
124 147 -189 0
-117 182 195 0
41 51 82 0
63 -88 192 0
-64 -75 84 0
-88 118 149 0
-4 75 -161 0
-61 90 -172 0
-56 -141 167 0
84 127 -186 0
-24 28 100 0
20 -33 -79 0
-73 -92 114 0
-29 143 196 0
-21 -34 142 0
47 -90 -109 0
14 43 -172 0
-91 -139 180 0
-4 56 117 0
104 132 -191 0
2 -92 -139 0
-98 -150 -182 0
21 96 197 0
7 30 186 0
51 -73 -115 0
13 86 141 0
12 -160 -189 0
10 45 186 0
-6 70 -89 0
78 98 167 0
23 152 165 0
-39 -64 -75 0
-57 106 -155 0
-4 -8 -107 0
97 115 -179 0
-123 -144 188 0
-89 -95 107 0
76 -151 -176 0
-113 122 126 0
-116 141 -142 0
-10 -160 177 0
58 -102 140 0
-31 128 145 0
3 44 83 0
-19 -36 158 0
94 176 -184 0
52 -71 193 0
-73 -116 162 0
6 -25 -122 0
-32 55 140 0
1 -153 168 0
-105 139 -151 0
-11 157 160 0
40 -75 -93 0
-6 88 136 0
-64 -169 -198 0
-33 93 187 0
-75 94 150 0
-101 157 162 0
114 120 -181 0
-28 -121 137 0
17 -82 98 0
35 -98 137 0
-38 -97 -135 0
57 107 183 0
-51 -147 186 0
-40 -184 188 0
-40 131 133 0
62 125 -178 0
81 -94 127 0
-73 -100 -155 0
19 75 163 0
-57 110 -145 0
-39 103 -134 0
-6 91 186 0
-20 -96 -120 0
-11 40 -95 0
19 -70 114 0
-66 -98 -155 0
93 135 -151 0
-107 181 -199 0
41 103 -157 0
16 94 -168 0
-147 -160 191 0
100 123 149 0
54 -156 -162 0
47 -49 132 0
104 -112 -140 0
-15 -170 -182 0
-15 71 -89 0
19 -20 105 0
-52 194 -199 0
-79 -151 188 0
128 156 172 0
73 105 189 0
14 30 71 0
-51 -72 73 0
-53 -72 115 0
13 44 -175 0
-37 -92 -184 0
-2 -123 -200 0
-1 -50 130 0
-20 63 -190 0
-6 -98 -109 0
63 114 -124 0
-92 -102 156 0
24 -107 -119 0
22 -29 35 0
45 64 121 0
60 121 -148 0
-12 136 -167 0
-45 -162 -192 0
-11 78 -172 0
59 -65 -177 0
-92 -147 -196 0
-15 83 -86 0
-31 128 -175 0
-146 159 194 0
42 -164 196 0
-59 145 -170 0
-28 136 -175 0
-2 103 -116 0
44 50 121 0
-78 -166 -182 0
-30 51 59 0
-21 -81 147 0
-7 -71 101 0
7 158 175 0
22 74 -105 0
20 80 -181 0
12 -95 169 0
106 -174 200 0
-66 93 147 0
