c F1 random 3-CNF cnfgen RandomKCNF(3,175,746,seed=2) m/n=4.26
p cnf 175 746
-15 22 -24 0
55 65 -156 0
-101 -131 -164 0
-8 -10 -94 0
43 109 135 0
7 46 -84 0
132 -144 -173 0
-94 -135 -152 0
42 -103 -119 0
-128 -129 -132 0
-90 -143 146 0
-43 -84 -158 0
-78 -130 144 0
94 -126 132 0
16 -28 49 0
28 -134 175 0
16 54 -109 0
45 64 93 0
7 -11 -18 0
33 -41 48 0
10 -39 64 0
74 -87 -126 0
-12 -142 155 0
-24 58 122 0
-33 -115 -133 0
-37 -67 88 0
36 -143 172 0
34 -42 44 0
9 -64 131 0
21 -65 -152 0
72 109 135 0
42 99 105 0
6 26 27 0
-7 -56 -134 0
98 138 -165 0
6 -109 131 0
-25 123 170 0
-75 -94 157 0
-26 27 106 0
-16 -106 116 0
19 -151 158 0
20 -79 96 0
-30 -96 147 0
-32 89 102 0
-21 86 158 0
-7 159 -169 0
75 -92 -118 0
-123 -124 -135 0
-41 -60 -102 0
22 150 -174 0
-38 46 140 0
10 -166 -175 0
-60 -172 175 0
29 -74 135 0
-64 85 133 0
-61 104 -119 0
-8 113 -153 0
-14 -124 -131 0
-106 -121 166 0
58 -137 -160 0
-3 -81 163 0
5 -25 104 0
26 -100 143 0
36 -126 -157 0
65 -132 145 0
-1 19 -90 0
-86 -118 173 0
21 -89 -158 0
35 161 -173 0
-98 119 173 0
73 -120 143 0
-98 138 -145 0
-35 -128 167 0
-67 -78 -81 0
24 -131 133 0
-23 130 161 0
-60 118 144 0
-29 98 -173 0
-20 -86 92 0
-75 114 -128 0
-56 70 164 0
-49 61 -121 0
-35 -36 -60 0
-72 -88 -153 0
137 -160 -164 0
-45 -102 -124 0
-23 -48 123 0
8 -27 90 0
-3 112 -167 0
73 -121 -139 0
25 52 -128 0
-37 -65 108 0
49 64 -88 0
96 157 166 0
-17 111 -114 0
-30 -134 148 0
-14 -101 122 0
-131 -138 -151 0
-44 99 106 0
33 116 152 0
79 -101 118 0
57 90 172 0
-24 -110 172 0
-17 62 122 0
36 129 139 0
-2 134 140 0
1 96 126 0
28 55 -120 0
-87 160 166 0
39 -54 161 0
77 -88 111 0
77 81 -102 0
-70 -73 136 0
36 108 141 0
50 55 101 0
68 122 139 0
10 81 154 0
48 -140 -163 0
-41 54 -84 0
-9 -107 171 0
5 -70 -163 0
67 -101 138 0
-44 -115 -117 0
66 -157 -158 0
-50 -121 147 0
-44 95 155 0
-54 79 175 0
8 -51 -81 0
88 -113 -171 0
5 73 149 0
42 -97 -156 0
-22 127 166 0
59 -77 -145 0
61 105 -135 0
-36 -64 171 0
-101 -102 -117 0
56 58 62 0
-14 100 -111 0
-26 -94 131 0
57 72 -118 0
11 34 -167 0
13 -62 138 0
139 143 -165 0
-9 -36 80 0
88 -91 143 0
-90 -94 -156 0
39 131 -154 0
-3 112 163 0
-130 -139 -157 0
42 47 -62 0
47 76 173 0
57 -104 145 0
18 63 153 0
-2 21 104 0
-133 -135 136 0
-34 -40 110 0
-47 -133 -147 0
42 -127 153 0
6 -48 -65 0
114 -119 -121 0
57 -69 91 0
-7 -78 -110 0
-64 -117 120 0
-41 -137 -143 0
29 -108 130 0
-111 119 -154 0
-93 116 158 0
60 -167 -171 0
-45 -105 -128 0
-68 77 -166 0
-11 53 152 0
-3 -83 93 0
-21 -84 135 0
25 -114 155 0
36 78 -127 0
104 -123 167 0
58 -84 -157 0
-101 -146 -154 0
-22 55 -129 0
47 62 -96 0
61 69 102 0
93 104 122 0
2 125 158 0
-1 22 160 0
70 102 -158 0
-10 -30 -79 0
20 32 -119 0
17 -69 165 0
74 75 135 0
-33 -48 107 0
11 87 118 0
-90 159 163 0
-8 40 -57 0
19 -27 96 0
51 80 -109 0
19 39 -164 0
-92 -107 -174 0
17 39 161 0
-37 40 91 0
59 86 -147 0
54 -106 -167 0
-128 144 168 0
-11 33 -169 0
58 69 163 0
51 -160 170 0
-61 -129 -174 0
28 -60 81 0
5 -101 -145 0
-62 87 142 0
34 -36 43 0
-27 -77 166 0
1 29 109 0
-1 -50 112 0
45 -66 -69 0
-107 -128 -145 0
-45 -101 -168 0
-109 135 148 0
-66 106 -150 0
72 135 -164 0
-28 55 57 0
42 -100 -130 0
-24 37 132 0
11 -112 -142 0
42 60 103 0
-66 -129 142 0
-7 159 166 0
-50 -126 142 0
-48 86 120 0
-66 -95 114 0
3 83 -107 0
-35 -124 175 0
-14 45 169 0
6 -8 -94 0
-151 157 172 0
6 20 53 0
31 66 -76 0
28 -71 100 0
-42 56 -61 0
27 62 150 0
61 172 175 0
32 -52 -150 0
22 53 166 0
48 93 -126 0
1 -22 -73 0
75 -80 139 0
122 -129 -169 0
-109 153 160 0
60 155 -166 0
-21 37 156 0
-49 97 -123 0
-27 -52 -87 0
-36 -64 -151 0
1 2 -12 0
15 114 129 0
7 -9 20 0
-107 145 152 0
32 45 -52 0
69 133 -138 0
23 51 156 0
-27 -168 172 0
1 -151 165 0
30 62 72 0
71 -109 127 0
57 83 -97 0
-29 -114 125 0
-11 110 -118 0
-15 -142 165 0
-74 78 116 0
-8 31 -63 0
9 111 150 0
10 53 -66 0
-22 90 173 0
63 74 -107 0
-15 -56 -58 0
-5 10 -80 0
26 117 -119 0
38 140 158 0
-14 -86 -157 0
148 153 154 0
-37 88 150 0
-13 49 153 0
102 125 -155 0
18 42 -83 0
-65 -88 128 0
1 85 -141 0
-108 -110 -157 0
2 8 -66 0
-24 -56 -142 0
-13 29 88 0
-66 -68 -126 0
-133 -143 -151 0
21 22 -102 0
101 -124 -175 0
-69 116 -159 0
-93 137 162 0
-3 45 -174 0
-9 -109 169 0
-111 -130 -171 0
1 -68 70 0
-6 -48 51 0
87 100 174 0
27 -64 -106 0
-36 52 -71 0
19 -88 106 0
-119 -137 -164 0
-58 110 -159 0
-54 -70 163 0
-65 -68 136 0
107 147 163 0
-44 48 88 0
-20 -27 -161 0
38 49 -130 0
-123 -125 -135 0
39 -114 -117 0
-47 -60 -153 0
-35 -71 114 0
41 -95 -175 0
56 -70 139 0
20 -148 164 0
3 -52 140 0
-47 -102 -154 0
40 -150 162 0
43 47 -98 0
55 -58 88 0
25 69 112 0
50 -98 108 0
19 -36 144 0
-56 -92 122 0
-115 130 163 0
-38 135 140 0
-57 -63 105 0
-1 -80 170 0
80 85 -133 0
-10 -96 -153 0
-23 -24 128 0
-45 -64 -170 0
-83 -157 -174 0
34 108 136 0
27 55 -164 0
-20 103 -140 0
2 -34 -97 0
-39 48 155 0
29 48 54 0
-11 62 88 0
-10 86 135 0
-61 62 -141 0
78 125 134 0
-8 21 -90 0
-31 -59 99 0
19 63 119 0
-81 -113 -123 0
-34 -80 -158 0
-6 18 -25 0
6 13 -79 0
89 161 -165 0
17 32 158 0
41 -74 -152 0
-23 80 127 0
-62 65 -103 0
-21 74 88 0
-19 88 132 0
-75 93 165 0
91 -150 -172 0
38 -68 170 0
-32 -99 -103 0
66 -82 -127 0
-18 19 73 0
-31 -105 170 0
9 113 161 0
33 116 126 0
135 -162 164 0
53 -120 -137 0
20 39 -126 0
5 -70 -153 0
98 -113 -129 0
4 -57 -65 0
5 -131 156 0
-5 -117 165 0
-82 -114 -158 0
-40 -140 144 0
-70 -82 166 0
-21 -36 -175 0
-17 -127 -144 0
-31 -138 173 0
137 -155 156 0
7 -107 151 0
-74 -117 -143 0
-3 86 -104 0
-51 144 167 0
-39 -101 137 0
-101 152 -175 0
79 -107 162 0
-63 68 143 0
-7 -85 -96 0
39 -57 -149 0
-46 50 111 0
-19 -78 -112 0
-50 137 161 0
-4 50 -169 0
48 -160 -171 0
-123 -140 158 0
4 52 -122 0
-109 122 164 0
74 -101 -106 0
-51 101 -132 0
-50 134 -137 0
12 30 -151 0
25 -69 113 0
-79 125 146 0
48 -76 -115 0
137 -149 157 0
-79 -95 -107 0
-55 70 -161 0
95 -114 -161 0
-36 96 166 0
10 73 145 0
1 6 24 0
91 92 -144 0
-58 -173 175 0
15 -106 159 0
-78 104 111 0
72 -102 -127 0
-27 -53 57 0
-9 25 64 0
38 -94 163 0
64 -75 139 0
-7 65 -122 0
9 -24 -41 0
21 -36 -87 0
39 -70 138 0
-39 -91 135 0
-31 41 72 0
47 -71 -101 0
-20 77 -126 0
70 -73 -74 0
-13 121 145 0
81 -106 -154 0
-32 84 133 0
24 -140 152 0
-39 -41 105 0
86 111 -170 0
-42 -62 -106 0
-63 -165 166 0
54 -71 -135 0
63 -93 -137 0
21 94 109 0
55 -61 -135 0
-138 140 175 0
-45 -84 -143 0
92 126 -156 0
-49 89 -110 0
120 -144 -174 0
-74 87 -155 0
82 -110 175 0
3 103 -133 0
-47 -95 120 0
55 64 86 0
59 64 80 0
2 40 -118 0
93 -148 158 0
-143 146 163 0
87 101 142 0
-58 -79 -164 0
60 -96 105 0
-20 -32 -42 0
-2 43 -113 0
22 -107 110 0
23 -28 -133 0
-63 -118 -147 0
48 -56 112 0
75 -88 -104 0
38 -39 79 0
50 84 -105 0
-111 123 149 0
-13 58 -162 0
83 -93 -122 0
-148 -155 173 0
102 116 -167 0
-48 78 84 0
-31 -83 -95 0
25 -44 139 0
-73 -77 -137 0
-27 -58 161 0
-23 56 -86 0
21 66 76 0
-31 160 -167 0
-28 -164 -173 0
-18 -39 -72 0
-50 74 -121 0
-7 -18 104 0
6 -9 77 0
-56 91 -124 0
-85 -109 -173 0
5 -63 112 0
-75 -122 -165 0
30 -89 147 0
-36 -104 165 0
22 -74 141 0
13 33 162 0
-2 65 -137 0
-19 -26 67 0
30 41 -109 0
-38 -121 -147 0
-27 58 -97 0
74 120 -174 0
-26 -46 126 0
-15 21 -64 0
70 -121 159 0
63 64 137 0
-10 136 -149 0
143 145 -155 0
19 -130 -154 0
-36 56 -126 0
-23 62 -159 0
38 46 76 0
-40 118 153 0
50 -152 154 0
-40 -58 -81 0
22 -25 98 0
-84 -102 128 0
23 -92 -125 0
-101 158 -167 0
-20 54 172 0
125 130 -151 0
-94 142 -143 0
-24 34 42 0
-18 -107 -159 0
-75 -91 -160 0
20 -107 117 0
16 -130 165 0
34 50 93 0
-26 38 54 0
-129 -131 143 0
-55 -100 138 0
16 -94 -140 0
5 -21 139 0
-93 -114 -143 0
20 36 166 0
-8 -50 -111 0
8 138 161 0
5 -31 -112 0
-27 -30 -86 0
48 -68 134 0
57 -80 111 0
-15 -20 -62 0
20 -64 -70 0
-75 99 113 0
-23 45 101 0
-108 -134 149 0
21 -56 -139 0
-48 -98 -118 0
-94 151 -162 0
2 -75 130 0
-6 -14 161 0
-57 60 147 0
34 -39 -97 0
11 -148 175 0
120 128 134 0
-46 79 -98 0
-67 95 163 0
-82 89 -130 0
2 61 71 0
-28 -49 -164 0
23 25 49 0
-1 -58 80 0
-67 -80 -127 0
-31 -103 -146 0
18 123 144 0
-130 159 167 0
14 -65 -135 0
68 -110 118 0
99 111 122 0
-61 -106 109 0
-74 130 156 0
-36 -50 -150 0
88 -92 -131 0
-71 101 151 0
40 -63 158 0
-46 56 -90 0
-30 -36 56 0
-98 -119 140 0
1 -79 111 0
14 32 -130 0
35 47 106 0
-40 -129 -133 0
-34 -134 137 0
5 93 148 0
-62 -68 -147 0
-15 -24 -157 0
-20 -123 -145 0
46 141 173 0
-24 -66 -164 0
-55 -67 114 0
10 70 -101 0
-21 -102 145 0
-55 79 154 0
50 66 160 0
-10 99 -121 0
-12 -87 -105 0
29 57 -143 0
-57 -150 -156 0
-66 73 -120 0
-50 -99 161 0
58 112 -137 0
12 94 147 0
-8 164 -173 0
-29 -45 108 0
-65 117 -153 0
84 94 175 0
-57 -60 125 0
-13 108 -113 0
85 154 163 0
9 13 -123 0
-42 -91 161 0
16 -51 119 0
-116 -138 -168 0
-24 68 145 0
61 84 91 0
58 -105 -136 0
-5 -144 146 0
-10 41 143 0
-5 -47 121 0
30 74 -77 0
55 118 145 0
-30 114 134 0
-51 -73 148 0
-128 -154 161 0
7 13 73 0
92 -102 -120 0
-32 36 81 0
41 78 -80 0
16 79 97 0
71 72 -109 0
-5 29 -148 0
-156 170 -175 0
61 -82 -104 0
-82 -113 -138 0
5 31 99 0
-3 22 94 0
-26 -78 128 0
11 18 95 0
21 -44 -93 0
18 -100 171 0
-16 -93 144 0
-12 38 150 0
-16 -86 137 0
-131 162 -175 0
-17 -121 -172 0
36 -116 -142 0
-56 -94 -173 0
45 110 -163 0
-29 -54 -173 0
7 23 -44 0
45 -79 -92 0
69 73 -83 0
-81 126 -143 0
50 127 -175 0
60 -74 123 0
-23 -29 135 0
-66 -89 154 0
1 34 -57 0
-94 127 -154 0
21 -29 148 0
-15 103 -117 0
-1 -83 108 0
18 -98 104 0
-47 109 -153 0
-111 -123 -151 0
77 -128 164 0
-39 -41 -168 0
-4 -30 -60 0
-4 -9 103 0
71 -129 -159 0
-25 106 -154 0
32 -129 -136 0
18 -24 -110 0
-83 127 174 0
-21 -62 128 0
-144 146 -165 0
-86 -90 175 0
-16 -38 -71 0
18 63 -66 0
45 -51 120 0
-16 67 -87 0
-27 111 -167 0
-3 132 142 0
23 -34 -39 0
-1 -40 -53 0
-103 104 134 0
30 73 -92 0
59 95 -128 0
-55 75 173 0
25 -39 66 0
18 -37 -86 0
20 36 -96 0
-49 -115 -139 0
16 37 111 0
71 -80 158 0
-121 -126 -127 0
-67 -147 -162 0
-52 154 160 0
13 -111 124 0
57 86 102 0
-42 59 127 0
59 67 -151 0
-103 105 109 0
-26 165 169 0
-38 98 -107 0
-66 120 163 0
24 62 154 0
89 100 174 0
108 157 174 0
-11 -44 -170 0
-3 -45 -73 0
-34 71 105 0
-52 -95 -137 0
136 -151 160 0
16 -130 166 0
-61 -101 158 0
-6 77 -113 0
30 -107 147 0
42 -75 -99 0
14 104 163 0
-86 106 -173 0
-45 -75 -95 0
39 -67 -170 0
-46 -69 103 0
-73 -76 148 0
-31 -138 158 0
4 15 72 0
47 89 127 0
-21 104 -131 0
-9 42 -146 0
2 163 -165 0
-8 -69 -88 0
34 36 -119 0
33 50 -135 0
-5 110 157 0
19 -66 87 0
27 73 171 0
-15 -151 -158 0
22 -38 143 0
-67 -109 156 0
-46 109 134 0
-19 -57 -127 0
9 61 107 0
