c F1 random 3-CNF cnfgen RandomKCNF(3,250,1065,seed=17) m/n=4.26
p cnf 250 1065
-107 -134 -207 0
-45 181 197 0
-64 -99 -209 0
-164 176 217 0
36 203 209 0
32 -85 -139 0
-21 130 -241 0
-130 209 -236 0
-14 96 -147 0
96 -149 199 0
30 -55 143 0
-17 69 202 0
-65 -79 169 0
-25 -86 233 0
13 -90 -193 0
14 -122 -163 0
-20 184 192 0
-104 125 188 0
39 65 246 0
-138 -216 -250 0
-13 42 -238 0
-65 -169 215 0
22 139 -140 0
-42 148 -206 0
-101 151 -212 0
114 -133 161 0
59 -82 124 0
-148 191 -247 0
44 -149 -247 0
45 -194 -249 0
92 115 152 0
50 -148 -242 0
115 -130 -220 0
4 68 -76 0
85 87 -193 0
26 133 171 0
-121 182 232 0
200 -210 233 0
-8 167 -223 0
15 190 -245 0
-69 -89 92 0
87 135 -193 0
-31 83 84 0
-127 -211 237 0
-19 -64 66 0
33 94 -124 0
-22 112 113 0
-43 -137 -151 0
105 239 245 0
39 -183 -231 0
114 -139 195 0
65 -127 129 0
-32 86 -163 0
-23 132 228 0
19 -76 -239 0
-119 196 233 0
-69 -79 191 0
-27 112 243 0
-55 -140 -223 0
-21 -70 242 0
4 81 -226 0
-126 -167 -173 0
78 -116 177 0
-49 54 219 0
-163 196 -216 0
51 -91 -169 0
23 166 -209 0
-59 -101 -197 0
86 -219 -224 0
55 -220 239 0
-26 105 122 0
-8 68 128 0
38 41 -66 0
-14 -23 -113 0
-97 133 166 0
73 138 -182 0
-76 90 158 0
-12 -96 -123 0
3 -57 94 0
30 98 -218 0
-29 174 241 0
114 -141 208 0
28 152 -198 0
-57 -80 -203 0
5 -112 142 0
-27 -119 -163 0
-15 197 -238 0
77 156 238 0
83 174 175 0
-76 192 224 0
98 -196 -209 0
-106 196 -205 0
34 -155 198 0
-82 121 169 0
-53 193 -214 0
-94 112 209 0
32 -64 246 0
-67 -223 -228 0
12 137 -181 0
83 -152 -180 0
-62 -154 -212 0
7 -29 33 0
114 184 235 0
-97 98 -169 0
37 -50 -52 0
-39 -57 -122 0
-182 -187 230 0
-27 45 -64 0
-27 -67 -133 0
67 -101 -131 0
42 192 245 0
9 30 -92 0
59 84 197 0
148 -217 238 0
-183 -196 -209 0
-86 134 139 0
17 -23 -160 0
-9 40 -168 0
-42 -191 -214 0
-60 -118 145 0
-44 -146 -154 0
80 -140 162 0
10 -84 248 0
22 93 151 0
95 -194 -208 0
-35 -82 238 0
-58 156 206 0
142 208 -232 0
-64 -122 149 0
-37 -88 -116 0
-17 -185 -248 0
100 174 -205 0
3 87 -173 0
-32 -73 -158 0
78 178 180 0
-7 19 -128 0
-167 187 -242 0
-70 130 236 0
-66 162 244 0
-34 142 -211 0
-23 158 207 0
-77 132 205 0
-25 -95 -109 0
56 -139 149 0
146 -177 -236 0
29 43 230 0
-52 -60 -204 0
-1 -18 244 0
-26 -167 -194 0
-2 -136 178 0
157 206 238 0
69 84 157 0
99 -183 191 0
52 -67 246 0
79 132 -236 0
-77 -162 -231 0
52 151 -230 0
-70 100 245 0
-103 155 -164 0
-5 -50 -199 0
-96 -103 120 0
-10 -56 -159 0
-42 61 84 0
45 50 243 0
-109 133 223 0
33 -131 -246 0
-6 -56 241 0
-188 -198 236 0
-90 108 215 0
-38 -83 181 0
-15 44 209 0
-17 88 -148 0
72 91 -244 0
126 131 -166 0
35 58 157 0
110 121 -201 0
7 19 59 0
24 -88 148 0
-16 244 248 0
-37 218 219 0
87 -176 187 0
-72 147 224 0
35 -64 -116 0
26 -104 127 0
-158 -168 184 0
15 51 -174 0
41 47 -203 0
-15 -91 -199 0
-9 -164 -249 0
47 134 140 0
-148 -149 -245 0
47 106 -109 0
-12 -195 224 0
-22 74 -143 0
-16 29 233 0
-112 -135 240 0
-91 93 -221 0
-99 110 157 0
65 191 -236 0
33 -82 130 0
-22 241 244 0
-75 88 135 0
98 -158 197 0
-119 -126 -233 0
-38 -97 -198 0
-14 234 236 0
166 167 -198 0
-105 112 -233 0
-60 102 218 0
-132 158 -212 0
-42 51 175 0
90 -122 -176 0
-146 223 -225 0
10 -172 -235 0
73 197 -245 0
112 127 -219 0
-176 -210 214 0
-33 107 -213 0
50 -201 -220 0
75 -188 -215 0
-7 162 -229 0
5 -26 152 0
-64 -94 -116 0
30 124 169 0
-21 -24 -238 0
-24 -149 -250 0
-78 -157 -249 0
-26 -171 -242 0
-68 108 247 0
74 161 -207 0
-4 -115 138 0
41 133 -171 0
-67 144 -169 0
-81 -111 210 0
5 -73 -250 0
-153 -235 -237 0
172 -229 -242 0
-18 82 229 0
86 137 -207 0
-111 136 154 0
102 -191 239 0
133 -176 183 0
-95 164 234 0
-57 165 -222 0
109 -126 -150 0
123 -175 186 0
-1 61 -170 0
-94 -108 184 0
-15 160 -173 0
29 57 60 0
-16 -28 144 0
-99 -208 222 0
74 75 187 0
18 209 234 0
115 218 -240 0
88 97 98 0
107 -157 -236 0
42 -57 -163 0
-24 210 -228 0
21 123 -213 0
-26 -57 165 0
-10 -172 232 0
-41 -76 81 0
29 -191 200 0
28 148 -247 0
180 -184 -223 0
40 -159 161 0
-61 -80 -119 0
-171 172 197 0
91 195 -201 0
-164 -183 224 0
58 136 -152 0
-131 -141 143 0
63 -201 -208 0
98 -111 -225 0
-5 80 133 0
66 91 -135 0
-70 -205 249 0
8 97 -233 0
47 195 206 0
-5 -91 -126 0
-79 132 153 0
-3 -198 234 0
-107 -125 187 0
12 -37 151 0
48 -113 -197 0
-45 -92 133 0
-93 185 -207 0
12 -171 -214 0
91 209 246 0
1 -82 176 0
-61 132 -246 0
-56 161 -218 0
-57 -84 -159 0
-179 -212 236 0
2 -28 -157 0
-20 28 194 0
53 71 -112 0
6 69 72 0
63 -81 249 0
-1 -89 -155 0
-6 18 191 0
154 -166 -183 0
50 189 244 0
-28 -178 -229 0
-125 219 -237 0
20 -171 -217 0
51 142 -191 0
-24 -87 173 0
63 145 -217 0
11 22 -46 0
150 233 -238 0
161 -202 222 0
-91 -94 -167 0
33 -119 135 0
54 121 -172 0
-99 234 -235 0
-11 145 188 0
144 202 -220 0
-39 42 232 0
-161 220 -238 0
-4 120 174 0
-68 158 177 0
186 196 217 0
8 61 201 0
12 13 81 0
-7 181 200 0
33 118 -183 0
9 75 -146 0
121 -124 -186 0
6 -59 208 0
-4 -121 -180 0
1 -73 -236 0
-135 -165 -244 0
-31 148 -165 0
9 104 -112 0
11 39 100 0
-91 -97 121 0
132 201 -237 0
-13 -32 -135 0
-24 216 238 0
103 -190 241 0
-137 -169 245 0
48 85 230 0
-56 -69 122 0
14 -172 -241 0
28 -57 -192 0
75 -94 -126 0
-77 100 180 0
160 -164 184 0
73 -109 184 0
199 222 -243 0
-1 16 147 0
26 50 230 0
45 -147 160 0
12 -161 215 0
61 90 102 0
-15 -60 185 0
49 100 206 0
-7 -63 -217 0
19 -200 237 0
13 -117 -127 0
77 -200 243 0
28 74 213 0
31 -95 197 0
22 193 206 0
-100 224 245 0
119 -189 -233 0
-23 -95 165 0
-77 91 104 0
48 -111 189 0
-36 -137 -188 0
106 152 177 0
98 -174 -211 0
28 171 179 0
-52 -101 162 0
77 174 -175 0
121 163 224 0
12 -40 227 0
69 -138 184 0
31 -52 247 0
-47 125 210 0
71 -168 241 0
14 -15 -187 0
179 -231 -237 0
-111 160 161 0
-32 -170 -179 0
-26 -72 -128 0
-119 -143 -150 0
81 -131 234 0
188 -221 -233 0
26 103 -243 0
67 -182 -221 0
-1 139 -166 0
-49 104 208 0
15 -49 203 0
63 -149 -156 0
-25 -152 -244 0
-65 152 242 0
-10 -176 -207 0
43 121 -248 0
128 -160 -166 0
-35 -56 -239 0
-108 -122 139 0
-31 140 152 0
72 82 145 0
69 201 203 0
6 -142 193 0
-132 -143 -164 0
-19 -109 -172 0
99 -174 -207 0
98 -124 205 0
-53 -115 -206 0
-68 72 -163 0
-134 -149 151 0
231 237 238 0
84 -116 176 0
31 82 187 0
-20 29 -212 0
11 50 -55 0
-31 101 187 0
-58 -197 206 0
2 -28 222 0
-163 -176 186 0
90 130 -222 0
-49 -79 86 0
-38 154 233 0
-62 -156 -173 0
-1 103 -224 0
57 195 -244 0
81 87 104 0
4 202 -205 0
-7 68 168 0
23 -64 -110 0
-145 -149 -197 0
-82 117 207 0
12 -136 210 0
-7 -129 157 0
119 -122 -214 0
-41 -65 -124 0
-64 71 -166 0
-7 -78 -160 0
-39 -40 -121 0
-82 -128 -241 0
42 -74 172 0
28 -104 -148 0
195 211 -248 0
-13 43 -175 0
-97 -124 -129 0
62 72 -93 0
17 21 -98 0
45 -231 -239 0
-109 -191 -239 0
-136 -154 -232 0
-152 174 -227 0
89 140 161 0
-182 225 -248 0
41 -200 244 0
10 -44 76 0
175 190 -240 0
174 -180 -200 0
20 137 169 0
176 -187 -228 0
-4 31 172 0
129 -152 160 0
-92 203 237 0
49 171 -185 0
54 -159 -223 0
-34 114 242 0
83 -147 -177 0
9 13 -143 0
172 175 -229 0
47 84 -230 0
-60 -218 -236 0
-67 -85 -197 0
54 -88 -162 0
4 -62 -185 0
33 210 226 0
-123 -140 198 0
-43 -48 -105 0
-113 -139 168 0
-78 87 93 0
67 113 185 0
51 -124 -156 0
-121 153 235 0
-49 -134 -245 0
6 95 -220 0
-91 142 158 0
49 57 -99 0
1 -2 -157 0
68 90 -223 0
53 -97 183 0
19 41 181 0
-113 133 226 0
-22 100 -144 0
-120 209 -244 0
208 218 -240 0
-137 -175 -208 0
-118 -143 225 0
18 -105 185 0
44 83 103 0
-17 179 -223 0
-117 147 207 0
-59 -133 167 0
8 -64 200 0
8 78 -137 0
56 -215 -221 0
33 -149 -180 0
39 -77 -90 0
-23 63 130 0
24 77 -144 0
16 -155 198 0
101 -147 -221 0
91 200 -240 0
102 -139 207 0
25 -237 239 0
86 101 -154 0
207 -208 -218 0
-17 -103 246 0
80 -134 141 0
1 -58 185 0
-62 -147 -245 0
-156 -171 180 0
-81 182 195 0
-30 -36 217 0
-35 113 140 0
-21 117 247 0
44 88 -180 0
93 142 -178 0
-15 105 166 0
-75 176 -196 0
15 -109 171 0
94 -171 -204 0
-74 139 215 0
1 -76 -239 0
-61 62 -219 0
-95 -114 -152 0
7 42 75 0
-23 -32 -51 0
71 78 184 0
48 57 140 0
-26 52 -208 0
24 -84 119 0
-4 76 94 0
47 -119 142 0
-1 -36 210 0
41 208 -241 0
-114 179 209 0
85 135 -181 0
108 180 208 0
12 40 127 0
65 139 -174 0
150 -179 204 0
78 -126 -195 0
-114 228 233 0
92 -150 -211 0
41 -134 -231 0
-84 206 229 0
-23 109 191 0
68 -85 175 0
32 123 -144 0
-30 -200 208 0
-5 39 -63 0
-38 57 -142 0
-14 -70 -76 0
-63 -216 -223 0
87 -196 246 0
49 -223 -230 0
20 46 -117 0
35 -63 -232 0
-68 82 107 0
-63 200 245 0
116 137 -177 0
178 -196 -234 0
-46 118 217 0
-68 -158 -247 0
-41 71 -102 0
-29 147 205 0
86 -103 240 0
-5 -9 68 0
-17 128 225 0
-87 -193 205 0
-39 -150 166 0
130 167 199 0
150 -179 -206 0
27 41 120 0
-114 133 215 0
43 127 -180 0
-49 119 166 0
28 -47 -162 0
152 -168 -231 0
-36 -106 -111 0
107 -110 129 0
-22 115 -201 0
52 -84 109 0
40 90 232 0
-55 120 -197 0
-3 -52 -165 0
-27 -236 -248 0
39 -97 219 0
-57 -205 -226 0
115 -138 184 0
-80 -157 200 0
-160 -184 200 0
-115 -157 206 0
9 126 170 0
45 -98 158 0
-45 -106 134 0
33 -96 -102 0
-27 -206 236 0
-83 -109 158 0
58 -90 220 0
-70 -76 -204 0
-33 -107 -149 0
-122 -136 145 0
184 -210 -249 0
-132 152 -216 0
-21 -46 -69 0
93 135 -141 0
31 -43 -204 0
62 -200 235 0
24 -36 55 0
110 -124 159 0
156 -162 -184 0
100 -114 136 0
170 202 -221 0
95 -149 153 0
-25 -163 -169 0
-13 210 245 0
40 51 -178 0
24 -208 -209 0
30 -126 -172 0
-13 -80 -137 0
9 -103 155 0
-67 -108 235 0
8 -90 218 0
-37 -61 183 0
-14 -84 116 0
-16 -48 236 0
-81 -128 -249 0
50 163 -215 0
-118 -154 -169 0
128 -183 -223 0
-41 -135 187 0
105 148 232 0
-126 -141 208 0
148 -207 211 0
-35 49 -128 0
117 -170 189 0
12 132 143 0
-47 152 -177 0
160 203 -217 0
-31 -60 -176 0
-10 27 -85 0
60 159 -209 0
54 196 219 0
79 107 -230 0
-127 128 -145 0
39 -98 -183 0
90 103 142 0
43 -161 -178 0
13 68 -98 0
37 -196 -242 0
-7 -71 98 0
-80 -140 185 0
3 140 146 0
-56 -162 -169 0
-44 -142 -156 0
-9 139 237 0
-67 92 153 0
-117 163 -202 0
-13 -14 -179 0
97 -119 -170 0
-37 102 187 0
82 -141 242 0
-40 171 -198 0
93 94 -99 0
-91 -142 179 0
-54 60 -132 0
-76 -138 -208 0
59 72 180 0
97 172 217 0
59 98 -179 0
-15 -18 -52 0
8 31 205 0
-61 -126 219 0
76 158 174 0
52 102 234 0
-56 144 -229 0
24 53 -134 0
-87 210 212 0
-52 -230 -236 0
10 70 -92 0
29 -72 -199 0
31 -139 -233 0
175 221 247 0
62 154 210 0
-37 65 -92 0
-162 211 226 0
-168 -199 202 0
-31 197 -226 0
-103 127 163 0
-26 66 -190 0
-104 142 -210 0
-62 -71 -190 0
-44 -78 121 0
19 -44 66 0
-25 63 -244 0
20 -64 -200 0
2 189 190 0
-65 74 201 0
-56 58 -148 0
130 -153 -175 0
56 83 -103 0
37 -39 -226 0
125 171 -181 0
28 159 -215 0
-118 -135 -217 0
-12 155 163 0
-87 -192 -234 0
36 40 133 0
-115 156 -182 0
119 -192 -208 0
26 123 -197 0
-34 144 219 0
-188 -196 215 0
8 98 210 0
34 -198 -214 0
-3 -94 239 0
179 -192 -202 0
-48 65 132 0
65 210 226 0
-4 -89 152 0
-50 150 212 0
-31 -118 -156 0
-131 140 -241 0
153 -225 -231 0
77 81 -238 0
-74 -89 -162 0
50 104 231 0
-32 96 -124 0
-64 170 232 0
146 -212 239 0
-52 185 -230 0
163 -165 177 0
-85 162 245 0
69 -113 -153 0
-11 -99 104 0
68 -86 -163 0
9 -10 -238 0
-39 64 -244 0
35 -149 -199 0
-31 -62 152 0
17 -151 242 0
77 148 -200 0
-89 -103 -161 0
-161 176 216 0
167 192 193 0
-55 121 245 0
20 81 -205 0
-38 -39 47 0
1 -9 31 0
17 132 179 0
27 96 112 0
-129 214 223 0
-91 130 -228 0
114 -140 188 0
-13 70 158 0
-32 -73 214 0
92 211 -229 0
-172 -188 -233 0
54 -151 180 0
-65 -218 227 0
55 -212 -244 0
26 -86 238 0
-80 -156 228 0
139 149 -160 0
-7 -58 134 0
-64 128 232 0
56 99 176 0
64 -154 -247 0
-88 114 -199 0
5 59 -180 0
-3 6 -154 0
-118 -129 150 0
33 -34 60 0
43 49 -186 0
21 44 179 0
-63 90 205 0
41 -44 -216 0
36 -198 214 0
-2 -9 -58 0
-11 40 -231 0
24 152 230 0
77 -126 -217 0
-73 139 160 0
-29 -48 -109 0
-69 -147 -218 0
-127 158 -218 0
68 161 -185 0
-7 -200 -227 0
14 -92 -134 0
-23 188 198 0
-63 -111 206 0
12 109 -141 0
14 -189 199 0
-38 228 -238 0
140 -155 191 0
125 -172 -227 0
-54 196 -248 0
-44 83 -126 0
-3 221 225 0
-17 86 -170 0
-58 101 149 0
-6 -55 179 0
28 -40 -80 0
-22 -109 -220 0
-39 -164 -168 0
-19 55 85 0
-50 -104 192 0
-102 -123 200 0
86 -142 -215 0
95 174 235 0
-91 98 -216 0
49 66 181 0
-5 -183 -215 0
-197 226 240 0
13 156 -180 0
122 203 237 0
-96 194 -216 0
-155 -183 -213 0
-30 94 210 0
-113 236 -245 0
-52 -91 241 0
-109 -199 235 0
29 166 228 0
-64 -132 133 0
48 -170 -233 0
99 -173 207 0
161 -177 201 0
-110 166 -221 0
78 184 -187 0
-144 -174 226 0
16 -41 -158 0
58 76 -135 0
40 -122 154 0
-78 170 -200 0
-46 -81 99 0
-72 87 -113 0
62 -168 -192 0
156 -165 -192 0
105 123 213 0
15 -109 -171 0
-86 -128 -198 0
54 71 -233 0
-56 74 221 0
-62 155 219 0
34 -160 177 0
-163 -221 -229 0
5 42 -250 0
23 -35 89 0
-148 172 186 0
89 -106 -241 0
-95 147 -154 0
-2 197 -208 0
-62 -219 -247 0
-43 -118 -160 0
69 -70 211 0
-34 36 87 0
-4 31 39 0
-42 95 -169 0
-145 -212 225 0
-15 67 -220 0
17 78 -165 0
-81 -145 241 0
-75 -113 172 0
6 -87 -163 0
75 -169 -237 0
-59 -121 227 0
-96 204 244 0
176 -181 -201 0
36 38 -210 0
-35 126 -155 0
61 -167 -241 0
68 152 -240 0
66 133 -170 0
44 241 244 0
-3 14 128 0
128 216 -241 0
-49 132 238 0
24 115 -206 0
-54 149 184 0
-136 139 234 0
-99 -116 -218 0
-93 98 134 0
-90 -132 -199 0
-23 33 -49 0
-29 92 175 0
158 171 226 0
-55 -82 211 0
100 -204 -234 0
-90 122 -125 0
-177 180 -219 0
61 -190 -204 0
19 134 -184 0
98 -110 -238 0
-62 117 198 0
-32 41 -55 0
-12 48 -74 0
27 -41 212 0
-99 -156 -211 0
70 193 -227 0
61 -158 -187 0
40 150 -248 0
-133 188 -237 0
-50 -71 -120 0
-104 198 -238 0
156 186 228 0
-32 -152 -182 0
-3 -49 -163 0
-55 -110 -157 0
51 182 -235 0
-79 -122 -150 0
53 93 211 0
-106 126 -217 0
-124 -233 244 0
58 -138 206 0
-74 230 -245 0
38 -147 -171 0
45 -159 -193 0
-31 146 -164 0
-164 177 -250 0
-25 -72 -231 0
-172 -176 -217 0
114 131 217 0
-39 -145 146 0
11 -150 -178 0
88 140 197 0
81 127 176 0
56 145 218 0
50 -164 -181 0
-165 -187 -231 0
-180 196 -227 0
-39 130 187 0
-8 -239 244 0
75 151 194 0
89 -215 -245 0
-27 102 -160 0
-117 -191 209 0
86 140 -171 0
-4 61 -197 0
70 -107 109 0
-2 -42 -202 0
120 -123 -163 0
-81 -85 -187 0
66 73 -177 0
-153 -179 226 0
-148 -195 -212 0
111 -141 -161 0
180 -229 247 0
33 -179 -247 0
95 122 -182 0
-172 -197 -240 0
11 14 209 0
83 190 -241 0
19 60 -193 0
144 -223 244 0
-13 165 204 0
24 -108 215 0
25 -98 105 0
-108 185 -199 0
153 -173 238 0
-114 -115 229 0
-124 -133 -246 0
-3 -43 -52 0
-146 -147 -249 0
142 -150 151 0
121 171 -221 0
63 -151 -198 0
83 129 131 0
100 -135 205 0
-6 192 -226 0
-129 169 242 0
-51 71 -208 0
-27 135 207 0
57 -67 -176 0
-26 93 154 0
-101 190 226 0
4 159 176 0
-23 -24 52 0
26 -65 -145 0
-17 -49 243 0
-136 -191 206 0
-44 -67 -236 0
59 95 176 0
-212 -228 -243 0
15 -117 -248 0
38 91 209 0
134 -166 168 0
86 -212 227 0
119 180 -248 0
-123 -164 -226 0
61 -68 203 0
-67 -149 190 0
9 80 82 0
-67 -93 245 0
29 -66 209 0
47 88 -228 0
39 64 -81 0
60 -165 180 0
58 -69 -73 0
-73 126 165 0
110 139 -218 0
214 -242 248 0
85 200 -216 0
-67 84 -163 0
35 43 209 0
11 -56 -74 0
-77 81 136 0
-191 -209 -218 0
-14 -32 190 0
-7 85 -116 0
11 -24 230 0
7 -69 -244 0
-42 125 -194 0
-18 211 216 0
41 51 -113 0
-9 -25 -185 0
17 114 -199 0
78 147 187 0
-127 -181 -203 0
-85 -102 -148 0
-192 -217 -225 0
48 81 -211 0
-60 -121 -214 0
-109 198 214 0
206 -231 236 0
31 156 247 0
-168 -193 194 0
27 33 169 0
113 -195 231 0
59 133 166 0
45 137 -192 0
-46 125 -132 0
63 147 -187 0
60 -97 203 0
14 -81 150 0
22 -60 -139 0
-86 -110 -168 0
-77 153 -239 0
90 189 238 0
75 155 -189 0
-36 136 219 0
-122 -171 244 0
78 -84 126 0
-106 184 -210 0
-48 51 147 0
12 21 -126 0
51 77 -132 0
-10 176 -216 0
87 -195 -236 0
-18 49 -60 0
-46 50 110 0
43 -44 156 0
-63 -100 -194 0
