c F1 random 3-CNF cnfgen RandomKCNF(3,200,852,seed=1) m/n=4.26
p cnf 200 852
35 -146 196 0
-116 -127 195 0
-8 -25 125 0
69 115 -179 0
6 -7 8 0
8 -109 -186 0
60 89 -142 0
6 75 -107 0
-31 86 -191 0
-73 128 -151 0
-63 104 -191 0
-141 180 -199 0
28 -131 -170 0
-8 126 -188 0
-152 158 181 0
4 59 -129 0
-89 -132 -148 0
141 -156 169 0
133 -144 200 0
94 -124 -146 0
89 -92 -107 0
8 59 154 0
9 66 142 0
-4 116 -194 0
-29 -48 160 0
41 -43 -66 0
-83 -117 180 0
-7 -80 99 0
28 -65 67 0
5 58 102 0
-115 130 -181 0
58 -135 -167 0
110 -162 169 0
13 55 -79 0
-41 -77 191 0
3 -10 144 0
160 -181 200 0
-26 53 -89 0
-27 -100 171 0
-84 103 157 0
52 -84 -145 0
55 -69 -173 0
125 137 176 0
22 35 -44 0
-86 -154 -195 0
30 -75 88 0
142 -149 198 0
19 98 -105 0
-30 151 158 0
-21 -69 145 0
28 -71 118 0
4 -158 172 0
-11 49 62 0
43 116 175 0
-97 -112 -139 0
-26 54 81 0
-3 -76 -186 0
17 -81 -103 0
-29 -56 -65 0
-47 54 139 0
21 -72 93 0
-148 165 -167 0
11 -79 -84 0
26 63 86 0
6 -63 103 0
6 -20 -187 0
40 -121 127 0
45 131 171 0
-28 79 82 0
37 -140 185 0
46 77 111 0
-17 -65 -200 0
-113 138 -139 0
-44 67 -87 0
-5 16 147 0
-36 -67 71 0
-23 60 157 0
-82 129 136 0
-81 127 -176 0
-87 144 157 0
-19 131 196 0
-77 -80 178 0
119 180 -189 0
-40 46 65 0
-101 -127 175 0
11 -140 187 0
22 69 -189 0
-62 98 -111 0
-33 113 160 0
-111 137 -154 0
64 72 -97 0
6 -8 149 0
38 -45 -73 0
-65 150 -194 0
32 -108 126 0
7 28 -73 0
173 186 -195 0
-80 -112 147 0
-32 -114 -184 0
-87 103 -139 0
53 -98 143 0
-119 -133 154 0
116 -159 172 0
-100 -149 -174 0
150 -160 188 0
75 -164 167 0
-102 163 200 0
-3 -155 -199 0
78 -140 -176 0
44 -120 125 0
109 -152 191 0
6 114 169 0
-103 -163 177 0
-54 -61 136 0
-20 -134 179 0
-44 -77 168 0
101 -103 -144 0
85 -157 184 0
-8 -160 -170 0
64 69 195 0
114 -149 -187 0
36 -42 -135 0
80 103 193 0
79 175 184 0
83 102 127 0
6 15 -153 0
-136 -181 -186 0
31 157 178 0
-60 -103 127 0
-60 -61 73 0
-67 -116 184 0
12 21 -55 0
-82 99 -149 0
41 166 195 0
38 -100 -171 0
-21 34 119 0
16 135 -138 0
31 111 200 0
-34 128 -164 0
-85 -100 162 0
16 -63 -151 0
144 -155 -179 0
-52 138 -183 0
157 -185 191 0
16 -25 39 0
-14 -24 164 0
11 -33 81 0
-102 182 -196 0
24 -65 84 0
-15 -99 188 0
-30 67 -98 0
63 -129 -143 0
-101 131 150 0
115 -135 168 0
-52 95 -100 0
33 89 -148 0
-81 -137 -167 0
70 84 91 0
-82 84 -187 0
-72 -117 123 0
15 -35 -149 0
-63 -147 -180 0
-79 104 119 0
38 65 176 0
48 106 -197 0
-28 53 183 0
19 -56 165 0
-95 125 152 0
-61 -127 -154 0
49 -124 -140 0
-3 -52 192 0
-104 131 -158 0
-2 49 118 0
-78 -132 -192 0
-105 -133 -139 0
34 114 -130 0
3 -109 -163 0
73 103 169 0
-2 -69 -99 0
-124 -163 -192 0
30 -91 124 0
-5 45 -67 0
-67 -106 -132 0
-86 111 -199 0
103 109 184 0
39 53 -59 0
40 -123 199 0
1 23 -110 0
13 -89 167 0
68 -72 176 0
55 -165 174 0
-76 -115 172 0
28 -123 156 0
-43 -66 -134 0
-55 -140 163 0
-3 -187 194 0
-113 139 161 0
70 -71 131 0
-34 50 66 0
-70 -72 -106 0
-55 -126 128 0
46 -87 156 0
15 84 -130 0
-123 127 160 0
36 66 179 0
45 145 176 0
-129 -146 -169 0
-2 6 199 0
-58 -72 -191 0
-6 32 85 0
37 -65 198 0
-24 -27 186 0
-13 69 136 0
36 96 -103 0
-3 71 -132 0
-33 -165 186 0
-148 -159 -174 0
-57 78 162 0
29 131 154 0
71 -112 -140 0
68 -122 136 0
-18 96 -191 0
34 115 175 0
-56 -124 -174 0
-40 -41 98 0
-38 70 154 0
34 -98 165 0
-111 -154 -200 0
-104 105 156 0
10 121 200 0
-36 -136 -151 0
63 122 -179 0
30 -41 -199 0
65 -89 -187 0
-76 -92 97 0
133 157 -163 0
30 -132 -173 0
32 -182 194 0
-45 99 162 0
64 -85 -86 0
95 -127 -167 0
-31 -103 139 0
-4 39 97 0
-20 -47 -168 0
-28 40 -135 0
102 -163 181 0
64 109 -140 0
20 62 -170 0
6 -132 150 0
11 133 186 0
102 120 -200 0
-23 25 144 0
-4 -6 -200 0
43 -107 -186 0
107 -129 -142 0
-52 72 -127 0
45 -72 -146 0
-37 -66 -67 0
72 120 145 0
51 58 -65 0
62 -148 -184 0
22 51 183 0
-8 -104 192 0
34 152 -153 0
-36 -52 74 0
58 -77 -182 0
-23 75 -138 0
6 -75 -160 0
15 -66 159 0
27 -34 162 0
-54 130 191 0
99 -133 170 0
-31 -52 184 0
10 69 -164 0
-71 -170 -197 0
26 127 172 0
-12 117 -193 0
87 138 187 0
-11 -174 192 0
45 -129 -153 0
51 -60 93 0
12 118 -157 0
12 -121 150 0
-103 -132 -147 0
-13 91 -121 0
-78 151 -192 0
-17 -156 -199 0
7 134 148 0
-26 86 -87 0
19 -125 -150 0
1 -129 -140 0
38 55 -149 0
-82 -108 -131 0
10 95 -156 0
-102 141 194 0
-44 69 182 0
-73 142 186 0
-26 71 -185 0
-20 -53 -140 0
-10 -35 133 0
8 81 -107 0
48 51 60 0
69 118 -185 0
-86 117 158 0
4 -9 126 0
3 59 196 0
-52 -54 136 0
-96 -126 130 0
47 -50 -153 0
94 -122 158 0
-27 -161 -169 0
19 -108 -166 0
-154 -175 190 0
-69 -135 -173 0
4 -66 -80 0
-60 92 -131 0
86 -161 -179 0
-14 29 -165 0
139 -190 -193 0
-4 84 87 0
21 85 184 0
-76 -177 200 0
7 -165 -180 0
-76 97 108 0
60 105 156 0
-63 102 183 0
-77 185 -191 0
44 114 -128 0
-88 -112 142 0
-75 -150 166 0
-23 80 193 0
-156 -165 -192 0
14 27 -60 0
13 18 -56 0
6 184 188 0
-9 87 138 0
55 -121 -144 0
-134 141 149 0
16 -54 101 0
84 85 105 0
24 130 164 0
26 -46 78 0
17 39 -114 0
15 -89 151 0
48 59 171 0
14 187 192 0
-65 74 183 0
65 -186 -196 0
-92 -117 196 0
-63 110 126 0
-19 -62 -198 0
-86 -95 -194 0
-81 91 -102 0
-33 44 78 0
43 118 166 0
21 -65 -157 0
-44 71 -122 0
-40 91 141 0
18 -81 176 0
-12 -50 -186 0
-129 -161 171 0
-9 48 97 0
-64 78 -84 0
-13 60 198 0
-25 -35 58 0
-20 -42 -59 0
122 -132 149 0
19 71 111 0
35 54 -198 0
-13 48 93 0
55 -174 179 0
43 88 -155 0
10 -123 -142 0
-35 90 -144 0
-146 -171 190 0
87 -107 124 0
83 166 -169 0
-58 -68 -81 0
4 -76 107 0
30 -111 -157 0
-168 -185 -197 0
45 -83 173 0
92 -102 -134 0
39 124 179 0
19 -21 -190 0
84 -134 -180 0
-4 99 -142 0
-14 -95 186 0
-166 170 -177 0
50 92 -195 0
-12 94 -146 0
3 123 -148 0
42 -131 -168 0
32 68 -81 0
-34 47 -190 0
-118 120 -131 0
53 73 -152 0
31 -98 -109 0
94 114 137 0
-25 28 -185 0
-47 102 122 0
-116 -126 -152 0
-45 194 199 0
16 143 -172 0
82 -86 114 0
-72 -120 -192 0
-25 -43 -130 0
39 -82 130 0
50 -58 157 0
27 -109 179 0
-83 -96 144 0
-100 -125 -184 0
-100 -149 165 0
-26 47 -126 0
-28 -32 -138 0
-144 -163 -174 0
-83 125 177 0
52 62 -138 0
-16 -159 195 0
-89 93 -154 0
-58 81 102 0
90 100 167 0
82 -99 157 0
2 -90 112 0
29 -137 188 0
-84 97 112 0
41 43 138 0
114 -134 150 0
-86 156 188 0
45 92 -200 0
9 126 -152 0
-37 54 -145 0
-17 -90 190 0
51 119 136 0
78 -179 185 0
19 -28 -198 0
-27 -115 184 0
-96 -111 -166 0
95 112 141 0
38 61 -62 0
113 117 158 0
-2 -12 -135 0
-34 -61 -178 0
-13 150 -192 0
16 90 150 0
-5 39 112 0
7 -74 121 0
111 -151 193 0
-33 -138 173 0
-98 -123 134 0
-18 54 152 0
28 51 91 0
61 -111 -132 0
-16 -147 -157 0
11 -161 -172 0
-57 -69 -113 0
15 -69 -137 0
76 -150 -152 0
-171 -178 -195 0
-57 162 193 0
-30 -38 -127 0
36 78 -139 0
-10 -115 121 0
4 -138 183 0
-4 73 -119 0
-26 -29 176 0
-128 136 157 0
15 44 158 0
79 136 143 0
-23 -56 -59 0
35 74 -158 0
-6 -15 -111 0
18 48 -112 0
91 107 131 0
16 -59 -94 0
56 -57 66 0
123 -176 -188 0
-68 180 199 0
98 -163 -177 0
7 -34 138 0
-76 160 -180 0
-26 63 64 0
-92 -128 -181 0
-7 161 -194 0
-16 -33 75 0
-52 -70 -154 0
-28 131 -197 0
7 -173 -174 0
-25 68 193 0
98 -105 181 0
-144 -197 199 0
8 -97 131 0
-11 64 -173 0
11 89 157 0
-12 -79 150 0
-121 -138 159 0
91 -135 161 0
64 -163 -198 0
-83 138 -183 0
59 65 169 0
22 67 103 0
-19 -142 160 0
10 -41 115 0
80 -180 -198 0
18 22 87 0
-119 135 183 0
111 118 139 0
-55 -63 -79 0
69 74 90 0
113 161 200 0
-81 116 170 0
29 50 173 0
153 -160 176 0
59 122 144 0
5 -17 36 0
67 -133 139 0
-72 -91 -140 0
-120 136 137 0
-123 145 195 0
7 -133 135 0
57 -82 -102 0
17 129 -177 0
70 100 140 0
-78 98 -181 0
49 134 138 0
43 -54 -123 0
4 -26 -39 0
-45 56 -145 0
-17 -33 -58 0
-95 132 -170 0
-67 92 -104 0
-28 47 159 0
108 -127 151 0
161 -166 -196 0
24 -86 -132 0
-34 -43 -147 0
-63 126 -187 0
31 67 -74 0
132 161 -170 0
-21 -44 -190 0
-116 164 -199 0
22 145 172 0
-10 69 -72 0
-159 175 -184 0
-58 61 88 0
-51 113 132 0
21 60 -102 0
2 117 -138 0
-57 66 173 0
-97 -155 -184 0
70 87 -114 0
108 -188 192 0
131 -140 -200 0
-74 -124 -192 0
74 -97 142 0
6 -68 -169 0
-42 -68 198 0
29 41 124 0
15 45 -99 0
-141 168 187 0
-14 70 -136 0
-29 -113 -153 0
75 100 -168 0
-90 -110 -144 0
-14 -39 -48 0
-18 152 162 0
161 185 -196 0
60 92 -181 0
-36 -44 -192 0
90 181 200 0
40 -64 -95 0
-70 -131 -151 0
21 88 -152 0
3 24 46 0
-50 -72 -185 0
-68 175 -179 0
-19 62 119 0
97 -162 -181 0
-5 -169 198 0
-81 137 -196 0
167 -176 -177 0
32 145 -189 0
-45 90 196 0
-74 133 -180 0
-76 150 -186 0
106 -139 152 0
101 117 -148 0
67 -101 126 0
-69 100 -163 0
3 -31 172 0
61 62 120 0
25 28 187 0
-38 65 107 0
100 158 -160 0
-44 91 -155 0
19 136 -162 0
23 26 -116 0
-79 -141 -152 0
-31 58 166 0
94 -115 182 0
-30 71 -96 0
37 143 159 0
92 -124 -182 0
110 -113 160 0
-76 136 184 0
-59 -62 -189 0
1 -126 -198 0
24 71 133 0
37 -104 110 0
-42 -56 -70 0
65 146 192 0
66 -124 200 0
-45 52 179 0
-95 110 177 0
-2 -87 -101 0
-66 -151 -177 0
20 -112 -158 0
73 184 198 0
44 -160 -194 0
103 109 -160 0
40 -151 -188 0
26 -105 127 0
80 -143 -168 0
-36 -65 166 0
-86 112 -134 0
-11 -80 -129 0
-41 -68 75 0
-67 -100 173 0
11 -24 99 0
79 -134 191 0
-159 161 180 0
-62 -89 160 0
-9 22 -134 0
-7 44 -191 0
43 75 -162 0
100 -139 -176 0
-13 -59 -112 0
53 -149 -154 0
46 -168 200 0
-108 164 -174 0
1 -73 200 0
-47 -65 -159 0
-14 26 -77 0
33 -54 141 0
77 -129 -146 0
25 42 66 0
-175 180 200 0
5 -104 175 0
-14 -190 200 0
-24 -41 -57 0
-50 -130 153 0
-75 159 -172 0
-93 149 186 0
6 138 -170 0
44 83 189 0
-57 -100 156 0
67 97 163 0
-112 -128 -185 0
92 -159 -200 0
68 -124 159 0
-16 19 -100 0
54 -79 -117 0
-2 -174 -177 0
-94 109 -194 0
25 75 -101 0
-94 110 -146 0
14 112 156 0
99 123 177 0
-25 -159 -178 0
-43 97 198 0
51 129 175 0
4 -71 -143 0
14 55 80 0
-41 -151 184 0
19 -50 196 0
101 126 -139 0
19 53 63 0
157 -158 180 0
-147 193 -198 0
-46 -72 136 0
33 -142 -151 0
-58 -95 114 0
-13 -14 197 0
-120 -170 185 0
-52 -118 140 0
-33 57 156 0
59 -109 -168 0
16 97 -184 0
77 -160 192 0
-84 117 195 0
-14 44 130 0
-125 -127 132 0
-153 -166 171 0
3 133 -144 0
10 -35 113 0
-37 65 130 0
-19 -99 179 0
10 -105 136 0
-44 -51 -61 0
148 157 -198 0
32 146 -198 0
23 -136 167 0
36 105 -185 0
-92 171 -191 0
-22 101 -119 0
-55 92 150 0
-104 115 -195 0
-57 -167 189 0
5 -11 -14 0
-10 69 183 0
-4 -34 -193 0
10 -99 -128 0
-59 -64 193 0
-2 39 -200 0
20 64 -154 0
-36 157 178 0
36 156 177 0
-70 72 153 0
-3 -17 -180 0
-35 -80 -176 0
-75 90 -115 0
3 -59 80 0
-2 21 153 0
-34 101 -183 0
47 56 -186 0
23 32 -89 0
115 -138 -144 0
43 -47 159 0
127 -157 -176 0
-17 -18 -56 0
-84 95 149 0
-89 -106 135 0
3 -85 -115 0
36 -172 174 0
42 80 -149 0
29 -151 164 0
14 -111 -120 0
-75 129 -191 0
34 -176 -179 0
-17 152 186 0
49 -53 181 0
-62 -135 182 0
1 57 61 0
-7 37 -140 0
36 -86 -188 0
11 -92 153 0
-81 -163 -188 0
-79 99 124 0
28 109 183 0
-3 63 162 0
-55 -76 -88 0
143 -147 -179 0
8 -22 -188 0
-53 76 -185 0
97 119 -187 0
-4 -69 -75 0
29 152 -194 0
56 100 -108 0
96 109 135 0
12 -150 -199 0
35 -78 -122 0
-149 -172 -173 0
56 -70 -197 0
-70 -160 -176 0
-17 -29 -114 0
-59 131 133 0
41 -66 182 0
102 110 173 0
-22 43 -120 0
69 -101 155 0
-31 -111 -190 0
16 142 170 0
111 125 -133 0
79 -82 -166 0
9 -73 -89 0
-44 74 131 0
-33 -34 -99 0
-7 43 75 0
108 -119 139 0
32 -146 148 0
55 -91 -128 0
49 82 -139 0
65 -111 -121 0
76 133 -142 0
40 90 -199 0
-29 93 152 0
41 -82 155 0
54 -76 -192 0
-99 -114 129 0
1 -37 174 0
39 164 167 0
-22 -36 -118 0
-157 -164 -192 0
33 -72 123 0
-36 71 157 0
100 -114 161 0
-40 -74 171 0
154 -163 186 0
1 8 19 0
16 -65 -141 0
-72 170 175 0
21 -91 -105 0
27 86 129 0
105 154 197 0
42 -117 -172 0
-40 80 169 0
41 -74 196 0
28 -38 -65 0
20 -50 128 0
41 61 -165 0
-1 28 -51 0
21 -25 -77 0
35 -78 140 0
26 -77 -134 0
26 -164 -193 0
-2 -76 -165 0
47 54 123 0
111 -179 -192 0
13 -59 63 0
-11 -55 -179 0
-114 -116 118 0
53 67 -175 0
27 52 84 0
-50 -99 -184 0
8 -60 -174 0
47 171 -180 0
-40 -178 -187 0
29 -176 200 0
22 -44 62 0
-97 103 192 0
-117 -141 -147 0
85 96 -191 0
-15 -70 78 0
-82 -126 181 0
-11 -44 131 0
52 81 -190 0
65 108 -145 0
62 -72 -180 0
5 38 -79 0
-10 120 -130 0
-28 -177 -188 0
-28 -137 168 0
-16 -68 -154 0
8 36 -130 0
-25 -42 190 0
21 -127 -135 0
-39 -118 -161 0
20 128 143 0
-53 -153 156 0
45 -180 197 0
-20 -92 -164 0
-80 -95 -105 0
