c F1 random 3-CNF cnfgen RandomKCNF(3,75,320,seed=19) m/n=4.26
p cnf 75 320
6 -16 -67 0
38 -68 75 0
-34 42 -53 0
3 40 73 0
-15 59 70 0
-3 -13 -54 0
39 -65 74 0
14 -70 74 0
-14 18 -64 0
-16 -62 -67 0
24 55 70 0
-4 49 -60 0
-17 -37 -61 0
-22 -57 60 0
-10 27 -40 0
-9 60 65 0
10 36 56 0
37 56 -60 0
9 -20 -55 0
-6 -70 73 0
34 41 -66 0
-9 -26 27 0
-34 -42 -66 0
8 29 -62 0
-13 -15 -66 0
42 -43 -48 0
-13 58 -68 0
-12 -41 -56 0
-6 34 38 0
5 -22 51 0
-5 12 66 0
32 -42 70 0
19 -32 38 0
-10 40 -58 0
14 -31 -34 0
-29 58 -72 0
-9 16 -25 0
-36 -63 67 0
4 -55 68 0
14 52 54 0
24 -59 -62 0
9 57 74 0
32 -35 -63 0
3 55 60 0
-3 -35 55 0
-10 24 40 0
-7 10 12 0
-12 -49 -63 0
16 20 -36 0
-15 -24 -44 0
14 60 70 0
-35 50 74 0
10 -63 69 0
-22 23 24 0
14 -25 -33 0
-10 -27 69 0
20 41 67 0
-34 40 55 0
-4 -52 -65 0
-50 58 -74 0
-17 69 70 0
28 31 -51 0
-19 51 -62 0
6 -19 71 0
43 -57 63 0
-37 -40 -43 0
3 50 -52 0
2 22 -25 0
-10 -45 -68 0
-52 -53 69 0
-9 46 75 0
-20 -37 -47 0
-24 42 -44 0
36 -60 66 0
5 42 -64 0
-18 -52 -71 0
23 -69 71 0
22 -60 -75 0
-1 40 -48 0
18 -23 67 0
-33 -36 -46 0
-10 -18 71 0
-37 39 -54 0
-30 -44 59 0
31 -48 -67 0
-9 32 59 0
-34 52 56 0
-15 27 44 0
-50 -64 69 0
-20 59 61 0
17 53 67 0
-27 -41 71 0
25 -31 -56 0
23 -57 -62 0
-29 60 75 0
32 -63 -68 0
-1 46 -57 0
-25 41 59 0
-58 -64 -68 0
18 -41 73 0
3 47 62 0
-1 51 54 0
-7 -29 -47 0
14 -39 65 0
-4 35 57 0
18 -39 41 0
15 -40 -72 0
-12 68 -72 0
2 3 -37 0
13 53 63 0
-19 -27 -70 0
-38 -48 71 0
-9 49 60 0
-25 -27 53 0
-1 47 -53 0
16 -23 -42 0
-17 -26 -51 0
34 40 -48 0
29 -30 -43 0
-48 51 75 0
-18 -38 39 0
13 -27 -30 0
5 -27 -42 0
-28 37 39 0
1 -45 59 0
-38 49 -75 0
-1 -35 54 0
-8 -11 -26 0
24 28 -45 0
14 44 53 0
-3 28 -62 0
23 -57 -66 0
-27 56 69 0
-18 28 -40 0
-18 61 67 0
-38 -56 66 0
51 70 -71 0
23 -24 32 0
-19 35 -46 0
23 -57 59 0
11 27 -56 0
-1 2 -12 0
6 -39 -51 0
-14 -19 -53 0
-2 -16 70 0
-32 -36 -46 0
13 58 59 0
-29 68 -69 0
-2 -14 -58 0
9 -35 75 0
-10 -44 58 0
-21 43 75 0
-3 18 33 0
-38 -58 63 0
-21 -58 -70 0
-16 -44 -73 0
-17 18 -59 0
-5 11 -66 0
-3 66 71 0
-35 -44 60 0
-39 58 -59 0
17 -43 -61 0
3 -29 -47 0
-1 -7 -37 0
17 -21 -52 0
5 -17 -72 0
1 -12 60 0
6 -46 50 0
-24 -26 71 0
-17 28 -30 0
-21 32 -60 0
36 59 62 0
34 40 -69 0
17 -19 -41 0
-38 -50 68 0
-48 -57 70 0
16 56 68 0
18 -48 -70 0
-2 14 -61 0
8 -62 -68 0
-34 48 -74 0
-12 -25 38 0
-30 -54 -59 0
39 50 53 0
1 -28 70 0
16 57 62 0
18 -35 -46 0
-15 -16 -65 0
-32 -44 -51 0
-19 51 -73 0
-15 23 -61 0
28 -56 64 0
-6 -44 65 0
-13 19 -30 0
24 37 -71 0
26 38 -64 0
-56 -68 74 0
-1 -5 74 0
23 -32 73 0
2 -21 -56 0
18 49 -71 0
-6 27 40 0
54 56 -58 0
-55 61 -64 0
21 69 74 0
-1 -73 -75 0
-3 33 -48 0
31 55 74 0
20 40 -62 0
-31 73 -75 0
-10 -29 74 0
-3 -29 -39 0
-5 26 61 0
-3 -24 -36 0
17 -42 -72 0
4 -34 43 0
-2 40 58 0
14 -49 75 0
53 -54 -75 0
-39 -61 -66 0
-7 -53 57 0
1 -34 74 0
-5 21 -23 0
-8 -45 -55 0
-37 -48 57 0
19 52 68 0
-12 25 73 0
10 -34 57 0
-9 -44 66 0
-7 -41 -49 0
12 55 59 0
-12 38 -63 0
49 56 63 0
-20 28 36 0
-21 22 63 0
8 -62 63 0
-31 46 71 0
-20 40 52 0
-21 -25 -63 0
-6 16 -25 0
51 59 -70 0
16 45 59 0
13 61 70 0
24 54 59 0
4 10 14 0
-17 38 74 0
-18 34 56 0
29 68 70 0
17 -28 -61 0
-32 -39 74 0
6 59 -75 0
6 39 -54 0
21 -64 -69 0
34 54 -72 0
9 20 31 0
-13 22 -56 0
-11 -30 -35 0
12 -24 -72 0
9 -24 34 0
22 -32 -69 0
-13 25 33 0
-8 -19 39 0
-13 -27 -37 0
-10 -52 -62 0
-21 32 -75 0
2 -10 -74 0
19 -44 -65 0
28 -29 66 0
-14 -18 -75 0
-27 51 -56 0
17 -31 69 0
-25 27 -42 0
19 -20 33 0
-41 -54 56 0
-28 -31 35 0
-25 34 60 0
-22 64 -72 0
14 39 56 0
1 56 74 0
20 -55 -75 0
-31 44 -59 0
-19 -26 33 0
-20 25 38 0
12 -27 66 0
20 -24 65 0
-16 26 -62 0
9 17 70 0
-23 -26 -39 0
-33 58 65 0
18 -31 -48 0
-15 -28 66 0
-35 -60 -70 0
19 42 54 0
33 44 -69 0
-21 -61 -75 0
-20 -45 -56 0
8 -46 -52 0
19 63 -72 0
-11 -23 -55 0
23 27 -68 0
-16 62 -71 0
45 48 50 0
22 42 61 0
-21 -41 42 0
9 -41 -49 0
-12 -27 72 0
-15 37 74 0
20 -24 36 0
14 -37 56 0
-27 -59 -66 0
37 39 51 0
36 64 70 0
-49 -56 62 0
-18 -61 74 0
20 28 -64 0
1 -9 -22 0
-16 47 72 0
19 54 59 0
-13 15 31 0
53 -59 69 0
