c F1 random 3-CNF cnfgen RandomKCNF(3,225,959,seed=17) m/n=4.26
p cnf 225 959
-107 -134 -207 0
-45 181 197 0
-64 -99 -209 0
-164 176 217 0
36 203 209 0
32 -85 -139 0
-21 130 -220 0
87 -130 -209 0
-14 147 -193 0
96 -149 199 0
30 -55 143 0
-17 69 202 0
-65 -79 169 0
-25 -86 148 0
13 -90 -193 0
14 -122 -163 0
-20 184 192 0
-104 125 188 0
39 65 174 0
-79 -138 216 0
-24 -42 -108 0
20 123 139 0
68 -137 148 0
-125 -151 186 0
-105 133 -142 0
-56 -59 193 0
-8 94 -154 0
44 -143 -149 0
-45 -55 -194 0
24 115 152 0
142 -148 -181 0
115 -130 -220 0
4 68 -76 0
85 87 -193 0
26 133 171 0
78 121 182 0
117 138 -211 0
32 110 204 0
-68 -69 -138 0
-2 104 135 0
-161 -188 -222 0
31 -33 -86 0
32 66 -114 0
-52 -80 176 0
55 -130 202 0
-112 113 136 0
-43 -137 -151 0
17 105 158 0
-61 -110 200 0
-63 74 -127 0
-2 -32 163 0
-23 111 132 0
-19 -74 -76 0
-39 -69 -191 0
132 -148 162 0
-168 194 210 0
-55 -140 -223 0
-21 70 -79 0
4 -10 -223 0
-104 -109 -157 0
-42 193 198 0
54 93 -219 0
19 -117 169 0
-124 150 189 0
-61 112 -225 0
86 -97 -125 0
-45 55 -220 0
-26 105 224 0
-8 68 128 0
38 41 -66 0
-14 -23 -113 0
-97 133 166 0
73 138 -182 0
-76 90 158 0
-12 -96 -123 0
3 -57 94 0
30 98 -218 0
-29 174 191 0
114 -141 208 0
28 152 -198 0
-57 -80 -203 0
5 -112 142 0
-27 -119 -163 0
-15 197 -223 0
32 77 -156 0
10 175 -219 0
108 192 -204 0
-15 -126 -205 0
-62 145 148 0
85 -213 -222 0
55 81 -203 0
-54 -112 113 0
32 -51 64 0
-67 -183 -223 0
12 137 -181 0
83 -152 -180 0
-62 -154 -212 0
7 -29 33 0
114 151 184 0
-97 98 -169 0
37 -50 -52 0
-39 -57 -122 0
-115 182 187 0
27 -64 128 0
-67 -133 -186 0
67 -101 -131 0
42 132 192 0
9 30 -92 0
59 84 197 0
148 -156 217 0
-183 -196 -209 0
-86 134 139 0
17 -23 -160 0
-9 40 -168 0
-42 -191 -214 0
-60 -118 145 0
-44 -146 -154 0
80 -140 162 0
-2 10 84 0
30 93 -151 0
-41 -127 217 0
-113 209 212 0
8 108 206 0
-64 -106 -149 0
-45 88 -137 0
68 -71 -200 0
100 116 -205 0
3 87 -173 0
-32 -73 -158 0
78 178 180 0
-7 19 -128 0
89 -167 -187 0
74 130 -146 0
94 162 208 0
-10 115 -173 0
-9 52 77 0
-25 -95 -109 0
56 -139 149 0
-43 -146 177 0
14 24 43 0
-74 95 134 0
111 116 -138 0
101 -126 -178 0
51 157 206 0
69 84 157 0
99 -183 191 0
-35 52 -67 0
-22 -23 -161 0
86 108 151 0
-70 77 100 0
-103 155 -164 0
-5 -50 -199 0
-96 -103 120 0
-10 -56 -159 0
-42 61 84 0
45 50 175 0
-109 133 223 0
-33 -37 131 0
-56 89 -224 0
-21 -83 108 0
-38 -55 83 0
-15 44 209 0
-17 88 -148 0
9 -72 -91 0
45 -131 166 0
21 35 -157 0
121 156 -201 0
7 19 59 0
24 -88 148 0
16 123 154 0
109 198 -219 0
-59 207 -212 0
126 147 224 0
-35 -109 -116 0
26 -174 178 0
-158 -168 184 0
15 51 -174 0
41 47 -203 0
-15 -91 -199 0
-9 -67 164 0
134 182 183 0
-134 -148 -149 0
47 106 -109 0
-12 -195 224 0
-22 74 -143 0
-16 29 137 0
-67 112 -135 0
91 -126 -221 0
-99 157 208 0
65 130 -191 0
33 -82 130 0
22 -43 -87 0
109 154 -175 0
158 -174 197 0
-119 -126 -220 0
-38 -97 -198 0
14 64 78 0
-105 108 -112 0
-60 102 218 0
-132 158 -212 0
-42 51 175 0
90 -122 -176 0
-146 223 -225 0
-10 -44 -172 0
-38 -57 -218 0
-4 -51 -225 0
6 -107 199 0
92 166 -220 0
-120 148 -170 0
-7 112 -162 0
5 -26 152 0
-64 -94 -116 0
30 124 169 0
-21 -24 -205 0
-24 -102 -149 0
-142 -153 -157 0
-26 -91 -171 0
27 -68 81 0
35 -115 -120 0
2 41 -171 0
-67 144 -169 0
-81 -111 210 0
5 -73 -177 0
-153 -181 -220 0
-57 -102 172 0
21 -109 222 0
-52 -68 154 0
133 -186 200 0
5 -126 206 0
95 113 164 0
-165 196 -222 0
109 -126 -150 0
123 -175 186 0
-1 61 -170 0
-94 -108 184 0
-15 160 -173 0
29 57 60 0
-16 -28 144 0
-99 -208 222 0
74 75 187 0
18 28 -209 0
-45 -50 -106 0
5 -9 196 0
-95 142 151 0
-56 122 -182 0
135 -182 186 0
123 202 -213 0
-26 -57 165 0
-10 128 172 0
-76 -81 176 0
29 -191 200 0
28 -41 148 0
-71 154 220 0
-63 88 -224 0
-137 -156 -219 0
-171 172 197 0
91 195 -201 0
-164 -183 224 0
58 136 -152 0
-131 -141 143 0
63 -201 -208 0
98 -111 -225 0
-5 80 133 0
66 91 -135 0
-70 -191 205 0
8 97 -198 0
47 195 206 0
-5 -91 -126 0
-79 132 153 0
-3 73 -198 0
-91 107 187 0
-30 37 151 0
113 -197 -199 0
-45 -92 133 0
-93 185 -207 0
12 -171 -214 0
56 91 -209 0
1 -176 200 0
-61 132 -169 0
-56 161 -218 0
-57 -84 -159 0
-133 -179 212 0
2 -28 -157 0
-20 28 194 0
53 71 -112 0
6 69 72 0
-61 63 81 0
-89 -155 -182 0
-6 18 191 0
154 -166 -183 0
50 189 195 0
-28 -168 -178 0
-125 156 -219 0
20 -171 -217 0
51 142 -191 0
-24 -87 173 0
63 145 -217 0
11 22 -46 0
150 178 -197 0
161 -202 222 0
-91 -94 -167 0
33 -119 135 0
54 121 -172 0
-51 99 -110 0
29 42 -151 0
-39 42 190 0
108 -161 220 0
-120 140 174 0
-68 158 177 0
186 196 217 0
8 61 201 0
12 13 81 0
-7 181 200 0
33 118 -183 0
9 75 -146 0
121 -124 -186 0
6 -59 208 0
-4 -121 -180 0
1 -73 -209 0
-111 -135 165 0
84 -165 -215 0
9 104 -217 0
11 39 100 0
-91 -97 121 0
26 -132 201 0
-32 -135 -170 0
-24 172 216 0
-43 103 -190 0
45 -110 143 0
142 207 214 0
-69 -122 190 0
-14 -63 172 0
-28 -56 -189 0
-24 -75 -94 0
74 100 180 0
-22 96 -109 0
13 214 -222 0
-1 16 147 0
26 50 191 0
45 -147 160 0
12 -161 215 0
61 90 102 0
-15 -60 185 0
49 100 206 0
-7 -63 -217 0
19 -168 200 0
13 -117 -127 0
-15 77 200 0
74 147 213 0
31 -95 197 0
22 193 206 0
-100 200 224 0
119 -164 -189 0
-23 -95 165 0
-77 91 104 0
48 -111 189 0
-36 -137 -188 0
106 152 177 0
98 -174 -211 0
28 171 179 0
-52 -101 162 0
77 174 -175 0
121 163 224 0
-12 26 -40 0
-42 138 184 0
31 -138 224 0
-47 125 210 0
71 -142 168 0
14 -15 -187 0
-11 -128 -179 0
36 -62 -194 0
-185 -190 -216 0
-26 -192 -210 0
-119 -143 -150 0
81 -131 173 0
-42 -188 221 0
-38 -40 103 0
91 -107 189 0
-49 90 104 0
15 -49 203 0
63 -149 -156 0
-25 -152 -183 0
-65 152 182 0
-10 -176 -207 0
43 121 -212 0
128 -160 -166 0
-35 -56 -112 0
-108 121 139 0
-139 140 152 0
72 82 145 0
69 201 203 0
6 -142 193 0
-132 -143 -164 0
-19 -109 -172 0
99 -174 -207 0
98 -124 205 0
-53 -115 -206 0
-68 72 -163 0
-134 -149 151 0
22 207 -216 0
116 -172 176 0
31 82 187 0
-20 29 -212 0
11 50 -55 0
-31 101 187 0
-58 -197 206 0
2 -28 222 0
-163 -176 186 0
90 130 -222 0
-49 -79 86 0
-38 154 218 0
-62 -156 -173 0
-1 103 -224 0
57 -58 -195 0
40 81 87 0
-3 -24 205 0
113 153 192 0
64 -110 -201 0
-145 -149 -197 0
-82 117 207 0
12 -136 210 0
-7 -129 157 0
119 -122 -214 0
-41 -65 -124 0
-64 71 -166 0
-7 -78 -160 0
-39 -40 -121 0
-82 -93 -128 0
-19 42 172 0
-41 104 107 0
13 -111 175 0
-86 -124 -129 0
-62 72 125 0
17 98 101 0
104 181 -210 0
-177 -204 -213 0
-66 -92 -171 0
83 -152 -174 0
27 -32 140 0
41 -121 200 0
10 -44 76 0
54 -175 190 0
20 113 187 0
153 -176 -187 0
-4 31 172 0
129 -152 160 0
86 92 203 0
61 -171 207 0
159 -216 -223 0
34 114 -118 0
-7 -193 215 0
13 -37 143 0
-13 174 -187 0
10 -31 -102 0
-67 -88 -136 0
-177 -213 217 0
-35 66 155 0
-33 125 185 0
148 190 -219 0
-75 140 198 0
-48 -105 -200 0
-113 -139 168 0
-78 87 93 0
67 113 185 0
51 -124 -156 0
74 121 153 0
-80 -116 134 0
-29 -64 -190 0
46 142 155 0
19 -99 178 0
2 -157 -194 0
68 90 -223 0
53 -97 183 0
19 41 181 0
-113 133 192 0
-22 100 -144 0
94 -120 209 0
-41 -128 -137 0
-118 -143 225 0
18 -105 185 0
44 83 103 0
-17 179 -223 0
-117 147 207 0
-59 -133 167 0
8 -64 200 0
8 78 -137 0
56 -215 -221 0
33 -149 -180 0
39 -77 -90 0
-23 63 130 0
24 77 -144 0
16 -155 198 0
101 -147 -221 0
91 200 -219 0
102 -139 207 0
-11 25 -157 0
63 -86 154 0
-157 -169 -187 0
-17 119 -212 0
151 -174 210 0
1 -58 185 0
-62 -78 -147 0
-41 -96 153 0
30 -32 -178 0
49 -113 159 0
-18 21 117 0
44 88 -180 0
93 142 -178 0
-15 105 166 0
-75 176 -196 0
15 -109 171 0
94 -171 -204 0
-74 139 215 0
-1 -13 76 0
61 -89 -219 0
-95 -122 152 0
42 75 158 0
-23 -32 -51 0
71 78 184 0
48 57 140 0
-26 52 -208 0
24 -84 119 0
-4 76 94 0
47 -119 142 0
-1 -36 210 0
41 208 -224 0
-114 179 209 0
85 135 -181 0
108 180 208 0
12 40 127 0
65 139 -174 0
150 -179 204 0
78 -126 -195 0
83 114 -154 0
-29 -150 211 0
-7 -134 -205 0
17 114 -206 0
21 -101 -191 0
47 93 -161 0
12 -148 202 0
75 114 181 0
5 -93 196 0
-57 142 -189 0
-14 -70 -76 0
-63 -216 -223 0
-44 87 196 0
-46 124 -224 0
-1 46 63 0
-55 -109 -177 0
29 107 -120 0
36 -150 183 0
46 -117 -187 0
-46 118 217 0
-68 -133 -158 0
-41 71 -102 0
-29 147 205 0
86 -103 217 0
-5 -9 68 0
-17 128 225 0
-87 -193 205 0
-39 -150 166 0
130 167 199 0
150 -179 -206 0
27 41 120 0
-114 133 215 0
43 127 -180 0
-49 119 166 0
28 -47 -162 0
-11 -152 168 0
-106 -111 -113 0
-21 110 129 0
-9 -69 115 0
84 -192 195 0
26 40 -90 0
-55 183 -197 0
-3 -52 -165 0
-27 79 -120 0
-2 151 173 0
-99 -130 -205 0
11 -115 -209 0
-151 195 -216 0
-15 -111 -157 0
18 126 170 0
59 98 -200 0
22 -106 -134 0
-21 33 -102 0
-27 -68 206 0
-83 -109 158 0
58 -90 220 0
-70 -76 -204 0
-33 -107 -149 0
-122 -136 145 0
-51 -184 -210 0
-60 -132 151 0
-46 -94 -209 0
135 141 -193 0
31 -43 -204 0
62 -164 200 0
24 -36 55 0
110 -124 159 0
156 -162 -184 0
100 -114 136 0
170 202 -221 0
95 -149 153 0
-25 -163 -169 0
13 103 210 0
40 -57 178 0
-38 -158 -182 0
30 -167 -172 0
-13 -80 -137 0
9 -103 155 0
-67 108 111 0
-60 90 218 0
-37 -183 209 0
-14 -84 116 0
-16 -48 153 0
-81 -126 128 0
60 -163 -215 0
-77 -154 -221 0
-34 92 -183 0
56 87 105 0
-126 -141 208 0
148 -207 211 0
-35 49 -128 0
117 -170 189 0
12 132 143 0
-47 152 -177 0
160 203 -217 0
-31 -60 -176 0
-10 27 -85 0
60 159 -209 0
54 196 219 0
79 107 -129 0
-127 128 -145 0
39 -98 -183 0
90 103 142 0
43 -161 -178 0
13 68 -98 0
37 -189 -196 0
-7 -71 98 0
-80 -140 185 0
3 140 146 0
-56 -162 -169 0
-44 -142 -156 0
9 69 -139 0
67 109 -153 0
-139 163 -202 0
-13 -14 -179 0
97 -119 -170 0
-37 102 187 0
82 -141 209 0
-40 171 -198 0
93 94 -99 0
-91 -142 179 0
-54 60 -132 0
-76 -138 -208 0
59 72 180 0
97 172 217 0
59 98 -179 0
-15 -18 -52 0
8 31 205 0
-61 -126 219 0
76 158 174 0
32 52 102 0
-58 92 181 0
-13 -20 112 0
-31 -52 123 0
7 -70 -92 0
-25 -29 202 0
35 115 122 0
62 154 210 0
-37 65 -92 0
114 162 -211 0
88 132 -159 0
-63 -114 -163 0
-23 60 -136 0
-54 -200 -201 0
142 -155 -157 0
-62 -112 -161 0
-44 78 98 0
-19 43 66 0
-34 63 95 0
-41 124 195 0
14 -209 -220 0
95 169 176 0
-43 58 -120 0
-56 83 120 0
106 151 215 0
-99 -138 166 0
-55 141 158 0
-41 -92 -214 0
-12 65 160 0
-87 -120 192 0
36 39 -133 0
-29 -118 198 0
-179 -210 217 0
123 197 -207 0
-34 144 219 0
-188 -196 215 0
8 98 210 0
34 -198 -214 0
-3 -94 141 0
179 -192 -202 0
-48 65 132 0
65 210 221 0
-4 -89 152 0
-50 150 212 0
-31 -118 -156 0
-131 139 -140 0
153 -182 -225 0
4 -77 -81 0
-89 -120 -145 0
4 50 -191 0
32 -95 124 0
64 78 -170 0
42 -185 201 0
127 -163 165 0
85 101 -162 0
69 -153 -214 0
-11 -99 104 0
68 -86 -163 0
9 -10 -150 0
39 -64 104 0
-3 -193 199 0
-62 117 152 0
151 -179 204 0
77 148 -200 0
-89 -103 -161 0
-161 176 216 0
167 192 193 0
55 80 -121 0
20 176 -205 0
-38 -39 47 0
1 -9 31 0
17 132 179 0
27 96 112 0
-129 214 223 0
-91 130 -143 0
114 -140 188 0
-13 70 158 0
-32 -73 214 0
35 -92 -211 0
-174 -201 204 0
147 -175 180 0
-65 -186 218 0
-15 -55 212 0
-36 86 -191 0
73 108 139 0
-7 -58 112 0
16 64 -128 0
27 141 158 0
147 -154 -188 0
-88 114 -199 0
5 59 -180 0
-3 6 -154 0
-118 -129 150 0
33 -34 60 0
43 49 -186 0
21 44 179 0
-63 90 205 0
41 -44 -216 0
36 -198 214 0
-2 -9 -58 0
11 -40 85 0
61 158 -200 0
-19 -126 -217 0
97 139 160 0
-29 -106 -109 0
-71 -93 122 0
-70 161 185 0
106 -201 -216 0
-14 77 -134 0
121 -188 198 0
-55 -63 111 0
12 109 -141 0
14 -189 199 0
-38 42 -91 0
27 -125 -165 0
54 -75 196 0
-83 126 -157 0
-3 221 225 0
-17 86 -170 0
-58 101 149 0
-6 -55 179 0
28 -40 -80 0
-22 -109 -220 0
-39 -164 -168 0
-19 55 85 0
-50 -104 192 0
-102 -123 200 0
86 -142 -215 0
14 95 -174 0
91 -103 216 0
61 66 181 0
-87 -158 -220 0
15 31 156 0
93 122 203 0
-96 194 -216 0
-155 -183 -213 0
-30 94 210 0
-49 -113 117 0
-38 -67 -115 0
29 57 166 0
-64 -132 133 0
-31 -48 -170 0
-43 138 217 0
-21 -128 166 0
-97 187 197 0
-76 -144 174 0
16 -41 -158 0
58 76 -135 0
40 -122 154 0
-78 170 -200 0
-46 -81 99 0
-72 87 -113 0
62 -168 -192 0
156 -165 -192 0
105 123 213 0
15 -109 -171 0
-86 -128 -198 0
35 -54 -71 0
56 97 170 0
124 155 219 0
160 -177 178 0
-86 -163 221 0
5 -53 214 0
-21 35 -89 0
4 -151 -164 0
-1 -69 -172 0
51 -70 197 0
-62 -68 -219 0
-43 -118 -160 0
69 -70 211 0
-34 36 87 0
-4 31 39 0
-42 95 -169 0
-145 -212 225 0
-15 67 -220 0
17 78 -165 0
-81 121 -145 0
-75 103 172 0
-4 -87 -163 0
148 -168 -169 0
-59 114 -121 0
50 -54 -81 0
36 38 -210 0
-35 126 -155 0
-14 -61 -167 0
29 -134 -152 0
55 62 67 0
11 -14 128 0
34 128 -216 0
49 90 132 0
24 -115 212 0
-161 184 206 0
88 136 -139 0
-99 -131 -218 0
-93 98 134 0
-90 -132 -199 0
-23 33 -49 0
-29 92 175 0
57 158 171 0
82 -85 181 0
-89 -90 -109 0
-49 -160 198 0
61 -120 -190 0
19 134 -184 0
98 -110 -196 0
-62 117 198 0
-32 41 -55 0
-12 48 -74 0
27 -41 212 0
-99 -156 -211 0
2 -70 193 0
-17 -158 187 0
31 -150 -219 0
153 -208 -223 0
-50 -71 -104 0
-29 107 207 0
26 -140 -157 0
49 -82 -163 0
-151 190 -194 0
-120 -157 203 0
1 -176 -207 0
-81 -122 161 0
93 206 211 0
-106 126 -217 0
-101 124 133 0
60 -98 -206 0
-52 146 221 0
91 107 -182 0
-157 174 -207 0
-15 106 -164 0
-25 -72 -78 0
-91 -144 191 0
-15 -34 39 0
11 -150 -178 0
88 140 197 0
81 127 176 0
56 145 218 0
50 -164 -181 0
-124 -165 -187 0
-30 137 -177 0
-8 -27 33 0
75 151 194 0
-11 -89 215 0
-102 172 -209 0
-117 -191 209 0
86 140 -171 0
-4 61 -197 0
70 -107 109 0
-2 -42 -202 0
120 -123 -163 0
-81 -85 -187 0
66 73 -177 0
-72 153 -179 0
-66 99 -161 0
-9 126 180 0
-36 -122 -166 0
-9 -32 -154 0
14 92 214 0
46 83 -175 0
19 60 -193 0
-27 144 223 0
-136 165 225 0
24 -108 215 0
25 -98 105 0
-108 185 -199 0
153 -163 173 0
-82 114 -115 0
-112 -133 204 0
-3 -43 -115 0
99 -121 142 0
121 171 -221 0
63 -151 -198 0
83 129 131 0
100 -135 205 0
-6 160 -192 0
78 129 169 0
-23 70 -71 0
18 -190 195 0
-43 -92 176 0
43 -76 -160 0
24 190 208 0
26 161 187 0
-23 79 218 0
-53 -65 145 0
-17 -198 222 0
-136 -191 206 0
-44 -67 -167 0
59 95 176 0
-91 115 -212 0
-56 -138 185 0
91 205 209 0
134 -166 168 0
-56 86 -212 0
-49 -59 -151 0
-90 112 215 0
128 -177 -179 0
