c F1 random 3-CNF cnfgen RandomKCNF(3,50,213,seed=3) m/n=4.26
p cnf 50 213
16 -35 -38 0
5 -38 -41 0
-13 -15 -36 0
10 -15 41 0
5 43 -50 0
-2 -18 -50 0
-26 37 -47 0
-3 7 -9 0
-28 -44 -50 0
-23 35 -37 0
2 -18 44 0
-14 -42 46 0
-5 31 -41 0
5 -10 -27 0
8 27 -50 0
-22 38 46 0
1 5 20 0
-19 27 40 0
21 -22 -24 0
25 -30 -34 0
41 -46 -47 0
-17 20 -34 0
-2 21 38 0
-22 -30 -41 0
2 32 -48 0
-17 -30 41 0
-12 -21 -24 0
7 25 -50 0
-15 33 -42 0
12 28 -44 0
-15 22 44 0
22 -42 -48 0
3 -8 15 0
18 -22 42 0
-19 -27 -34 0
-19 -27 41 0
10 -13 -27 0
15 -36 -46 0
15 -22 35 0
3 -16 45 0
1 31 -48 0
-2 16 43 0
-9 17 -22 0
8 13 15 0
-1 -9 18 0
-16 -18 49 0
21 31 50 0
3 -4 8 0
-6 -33 46 0
-5 -21 -23 0
-13 -17 24 0
-1 9 36 0
-3 24 -30 0
-4 -24 -41 0
27 30 45 0
18 -35 45 0
-2 -9 -28 0
8 -30 45 0
21 37 -47 0
-10 16 50 0
-7 37 43 0
2 -8 -22 0
6 20 38 0
7 -36 48 0
5 -12 -16 0
-17 -24 -39 0
6 -25 33 0
-27 37 -45 0
-7 -10 -11 0
12 -38 47 0
-10 33 -38 0
-27 43 -46 0
-2 18 31 0
-16 -24 37 0
27 -31 45 0
-5 31 -47 0
15 16 -42 0
-13 16 50 0
40 -44 46 0
-3 12 21 0
-6 8 -17 0
-29 38 47 0
-22 25 28 0
-38 -42 48 0
-8 21 -35 0
-8 29 -34 0
-24 -44 -50 0
7 -22 -49 0
4 19 46 0
24 30 42 0
-22 -42 47 0
20 30 31 0
-12 -46 49 0
4 18 -25 0
-16 -18 -33 0
29 -35 -50 0
8 10 18 0
-12 -13 45 0
-10 38 39 0
-12 -13 -37 0
-2 -27 -29 0
-32 -34 41 0
13 39 47 0
-12 32 34 0
-3 14 -34 0
-9 10 43 0
2 24 -40 0
-2 -22 -35 0
6 9 -45 0
-5 13 -14 0
-3 7 21 0
-11 -26 46 0
-14 -28 35 0
-30 -45 49 0
-3 -30 -47 0
-24 29 34 0
14 -17 24 0
2 -11 14 0
2 9 -41 0
4 -12 -32 0
3 21 -27 0
3 26 32 0
7 25 -31 0
8 23 -40 0
-18 20 -30 0
-2 -22 41 0
4 28 44 0
2 6 44 0
-4 13 -31 0
22 -23 -31 0
-39 41 -49 0
-8 -12 -27 0
-12 -47 48 0
24 -27 -29 0
-11 -18 23 0
10 -11 46 0
44 -45 49 0
4 -39 -42 0
-22 42 47 0
-7 -13 26 0
6 29 42 0
10 38 42 0
-14 -15 19 0
12 30 40 0
2 -7 39 0
7 26 -30 0
-43 -45 -49 0
-8 -19 50 0
-1 -8 35 0
-13 22 -23 0
5 28 -42 0
-4 -16 22 0
14 17 21 0
-30 -40 48 0
-27 -31 40 0
2 12 19 0
19 -33 34 0
-13 -14 -48 0
3 -23 30 0
-7 -20 29 0
-10 -14 -32 0
-11 -20 28 0
-2 -19 -24 0
16 20 48 0
10 34 41 0
-1 -14 -50 0
3 32 36 0
18 22 -28 0
-16 -17 -20 0
-2 3 22 0
16 -37 -49 0
9 18 36 0
2 -32 -42 0
-34 -43 49 0
5 12 -19 0
-23 -29 -50 0
19 -29 34 0
-3 27 -34 0
18 -38 40 0
-9 18 -32 0
5 -24 -43 0
13 -20 -23 0
4 18 -21 0
-21 26 40 0
-6 17 27 0
6 45 48 0
-5 -19 -45 0
18 19 30 0
10 11 -32 0
26 42 -44 0
4 -12 49 0
9 10 42 0
-7 -25 50 0
2 7 18 0
-9 19 25 0
-1 10 24 0
23 -32 -35 0
-2 -23 -48 0
20 -29 -35 0
-13 39 -49 0
11 18 21 0
4 27 39 0
-8 -11 26 0
-30 -35 38 0
-14 -38 -39 0
-21 -38 -41 0
18 19 20 0
22 -42 -47 0
-9 -18 29 0
29 34 -40 0
-28 36 40 0
-5 14 25 0
-8 -32 -36 0
