c F1 random 3-CNF cnfgen RandomKCNF(3,175,746,seed=5) m/n=4.26
p cnf 175 746
66 -92 160 0
14 -41 -167 0
64 98 140 0
56 -72 105 0
-19 36 159 0
1 2 54 0
51 75 81 0
-6 -77 99 0
-17 -38 68 0
87 -153 -174 0
79 -81 -124 0
15 -46 -66 0
-5 -108 141 0
12 47 116 0
-89 -119 -132 0
-28 95 -151 0
-24 54 -88 0
-24 -71 -140 0
21 -46 -161 0
-13 21 42 0
-65 -89 153 0
-9 -15 164 0
-34 145 162 0
39 -96 -112 0
37 -117 -159 0
-71 -82 -123 0
29 -38 -97 0
-23 -47 126 0
92 -151 -170 0
-72 -144 -172 0
46 -88 -167 0
-71 -84 -172 0
-71 -90 -165 0
-45 94 116 0
-51 93 -123 0
-44 -149 -158 0
-8 41 51 0
-11 47 162 0
-14 29 -35 0
-10 -50 -141 0
98 157 170 0
-1 -90 -96 0
30 -96 141 0
-76 -132 -140 0
-34 -105 108 0
-41 98 153 0
24 -90 156 0
84 -145 -158 0
-58 -110 -111 0
-41 -98 -99 0
-6 -65 -107 0
37 74 -123 0
11 -63 76 0
-123 137 -144 0
-10 63 -126 0
-76 127 156 0
-33 -73 77 0
90 93 119 0
65 117 142 0
-110 -148 -153 0
-51 -101 175 0
-1 -78 -111 0
-37 -43 123 0
109 139 150 0
17 -22 -69 0
18 104 125 0
57 158 -166 0
39 -47 113 0
18 55 -160 0
15 -19 72 0
-3 -24 -111 0
91 96 -168 0
-39 146 -162 0
-17 -61 142 0
-61 96 117 0
5 88 168 0
-32 130 -153 0
83 119 -123 0
14 39 110 0
55 -126 -171 0
-61 -75 -86 0
-35 -92 -166 0
10 133 -152 0
10 17 25 0
-11 -51 126 0
-77 -110 -121 0
26 50 119 0
96 -99 121 0
42 72 -74 0
-9 89 95 0
117 121 -173 0
75 117 173 0
7 52 -148 0
80 -94 -175 0
18 73 120 0
-12 -54 173 0
-16 116 119 0
-9 133 141 0
-24 61 126 0
-13 128 165 0
-66 105 115 0
-46 50 131 0
22 28 81 0
-5 -55 -160 0
97 109 -147 0
58 115 -142 0
-23 -68 124 0
-21 34 138 0
110 -148 171 0
13 -64 -127 0
-19 -26 108 0
34 -74 168 0
-5 -13 168 0
-34 98 -144 0
-36 -44 -68 0
9 17 139 0
-13 -34 92 0
60 -110 136 0
4 85 92 0
69 136 -156 0
-31 -110 -112 0
-59 119 -153 0
-13 -42 172 0
27 33 108 0
-9 -61 -148 0
-52 56 -119 0
92 -133 -144 0
-16 -64 -170 0
-37 62 126 0
-26 44 -102 0
121 123 -175 0
3 -27 132 0
-7 -82 -174 0
103 116 -140 0
6 -93 -152 0
-7 -20 -23 0
4 61 71 0
77 -90 172 0
-31 -62 88 0
97 100 -172 0
-28 83 99 0
-55 76 79 0
20 106 162 0
-145 -146 161 0
109 -124 -136 0
-22 72 -155 0
-8 30 -39 0
49 -84 153 0
16 -36 125 0
99 -120 166 0
1 50 173 0
39 -86 -95 0
47 -141 149 0
-17 -51 53 0
22 -118 -175 0
-2 31 97 0
88 -98 -127 0
-5 30 -123 0
-37 75 98 0
76 -87 105 0
-57 61 108 0
-25 -70 142 0
63 -99 -139 0
2 -22 34 0
-6 -65 144 0
-14 50 -56 0
-22 72 133 0
-41 101 129 0
-7 -106 108 0
-38 43 -87 0
-20 -56 95 0
-36 -70 121 0
32 -163 171 0
-10 19 98 0
-5 -127 166 0
-20 61 120 0
-22 48 -110 0
-39 55 -86 0
-28 -29 -165 0
-95 123 141 0
5 -68 140 0
61 124 171 0
55 -60 108 0
-10 -62 129 0
-77 113 143 0
-95 -136 -146 0
43 -78 152 0
-55 136 -159 0
96 -105 -142 0
1 -17 127 0
-16 23 -30 0
-68 71 88 0
-7 -65 68 0
-63 68 161 0
14 91 -145 0
12 127 -157 0
-31 106 136 0
17 24 -152 0
78 -135 167 0
-67 -79 -104 0
-1 -83 -133 0
-40 -56 168 0
-23 39 -118 0
-113 133 160 0
-36 -44 126 0
-38 69 112 0
-44 -108 -170 0
-28 -51 -158 0
68 125 133 0
-25 27 87 0
-45 -99 140 0
-25 85 -105 0
87 105 -106 0
11 -18 47 0
19 -107 119 0
75 -139 -145 0
20 98 120 0
30 138 -158 0
-30 -70 -112 0
11 -54 132 0
50 84 -136 0
-14 -120 -165 0
-43 -73 -161 0
26 104 -155 0
27 60 114 0
-23 -115 165 0
-27 -77 124 0
32 139 -143 0
-124 -148 -152 0
-15 -35 -74 0
33 75 95 0
-41 -80 -125 0
-119 -152 173 0
41 -127 -148 0
12 -59 96 0
44 -52 130 0
99 -107 166 0
53 -61 -169 0
58 -79 -150 0
16 67 -136 0
4 15 119 0
-45 -113 -118 0
-7 20 134 0
114 129 -167 0
-26 52 137 0
1 -57 102 0
-49 77 100 0
49 -56 -99 0
-7 -38 105 0
24 -69 -175 0
114 144 -169 0
65 150 175 0
-25 -94 163 0
47 74 -161 0
-2 -27 141 0
39 95 -125 0
-68 -123 -147 0
-44 101 110 0
28 -76 123 0
-22 168 171 0
-45 -84 105 0
80 162 174 0
-11 125 -132 0
-39 -78 109 0
-63 133 -173 0
-19 75 97 0
89 -109 161 0
-27 -92 175 0
-10 84 128 0
-68 -74 80 0
-116 131 -146 0
32 -34 -110 0
-10 79 94 0
-3 37 115 0
13 -18 -151 0
73 111 -169 0
-42 -76 -117 0
10 -119 -159 0
23 -82 -160 0
88 -95 -161 0
34 -68 -116 0
-45 47 -72 0
50 -66 -81 0
31 74 97 0
-63 104 169 0
-26 -79 -142 0
4 -12 42 0
70 122 135 0
-57 -81 85 0
9 -32 50 0
17 -64 -163 0
-44 -66 106 0
-45 62 -101 0
15 -60 121 0
-10 73 -125 0
21 -31 -38 0
62 125 -158 0
-91 -101 134 0
76 116 150 0
-2 59 145 0
53 -61 99 0
-31 44 -53 0
66 79 -162 0
-25 -140 167 0
4 78 -144 0
-72 98 121 0
115 141 144 0
47 76 -128 0
-42 71 -103 0
29 80 160 0
-72 97 -114 0
-39 -102 125 0
102 154 -157 0
-45 -85 129 0
60 -99 145 0
107 -123 -126 0
114 126 -162 0
22 -38 -57 0
3 139 -167 0
36 158 174 0
48 110 -113 0
-112 137 171 0
-127 132 -169 0
3 11 -128 0
59 -72 77 0
123 -128 -146 0
-56 67 -94 0
-31 -39 61 0
64 -76 -91 0
-31 135 137 0
-26 -27 171 0
-57 82 139 0
-109 111 167 0
67 101 135 0
-79 81 144 0
-78 94 -142 0
-2 -110 -134 0
26 79 -122 0
27 -29 150 0
-122 134 173 0
-7 -8 31 0
87 -120 -173 0
-54 -59 -67 0
-18 -22 69 0
14 120 172 0
109 133 -152 0
-17 61 134 0
115 -126 166 0
-30 -93 124 0
-83 119 172 0
-72 -132 169 0
44 -89 -96 0
-69 -96 155 0
-8 47 153 0
-51 110 -135 0
-50 57 95 0
-59 81 -97 0
-72 -80 86 0
-12 60 118 0
-92 128 -164 0
-38 85 -156 0
-51 101 113 0
28 -41 -107 0
-6 -7 172 0
57 -135 -171 0
53 102 -157 0
-74 -102 -159 0
-9 -81 -85 0
144 -156 168 0
22 -28 150 0
-35 93 -128 0
-83 96 154 0
-30 148 151 0
33 73 -90 0
29 34 -115 0
1 20 70 0
-112 -130 149 0
-36 -59 -141 0
-5 -36 167 0
9 -100 175 0
-92 -118 -151 0
-59 -84 90 0
6 -7 138 0
-84 85 -171 0
20 70 100 0
19 132 173 0
-89 112 -128 0
-22 -49 50 0
100 -106 152 0
39 152 -155 0
13 -51 -162 0
19 -116 127 0
11 135 -149 0
25 30 -122 0
-7 61 97 0
-29 -51 121 0
94 119 145 0
-32 -46 51 0
70 123 153 0
5 110 -140 0
45 -68 -88 0
-52 93 -167 0
-43 64 126 0
-134 -141 175 0
20 30 -113 0
-15 69 -93 0
45 -60 -119 0
-52 164 169 0
69 -88 107 0
-2 120 -150 0
100 -118 -127 0
55 66 -110 0
-87 95 110 0
33 65 67 0
21 43 -96 0
-69 149 -163 0
-73 101 114 0
-34 54 148 0
-42 -69 -97 0
-35 -99 156 0
-42 86 -130 0
-30 143 144 0
128 139 -168 0
-17 -128 165 0
62 -113 162 0
-26 -105 121 0
67 144 171 0
-38 -46 -175 0
62 -116 164 0
37 45 -96 0
54 102 -160 0
-23 -40 66 0
-17 56 -139 0
20 -118 128 0
23 -27 -38 0
-58 -60 -119 0
-18 -102 120 0
3 -35 -121 0
-19 -151 156 0
-22 120 -141 0
55 -101 -112 0
-52 58 -148 0
-111 140 -164 0
-68 92 93 0
-35 -97 171 0
4 81 -85 0
-62 87 107 0
79 128 -146 0
-31 -37 173 0
-23 71 -172 0
-5 54 -121 0
-10 -44 -101 0
7 21 45 0
-11 -87 -153 0
-93 -132 152 0
25 -43 -72 0
5 38 -54 0
-36 -78 143 0
-34 47 -114 0
-51 63 147 0
-147 -153 165 0
57 -58 151 0
84 109 138 0
-78 -153 161 0
-69 -158 -162 0
3 13 165 0
49 69 126 0
-48 -51 85 0
32 -46 -90 0
42 107 -169 0
64 69 105 0
144 154 -175 0
-54 101 112 0
-116 155 -165 0
-71 79 144 0
-90 -137 141 0
-30 -38 -140 0
-12 19 56 0
45 85 129 0
-15 -21 -92 0
-1 31 110 0
8 -77 -96 0
81 92 -157 0
41 110 -171 0
-66 -84 -116 0
-67 73 -131 0
-50 55 -100 0
-93 -131 -151 0
-104 -129 -153 0
-51 -90 -164 0
-4 -12 -33 0
26 80 151 0
36 -112 -162 0
36 103 -120 0
10 -153 -164 0
-11 85 147 0
-20 -123 163 0
25 122 -140 0
-13 133 -164 0
9 29 -51 0
21 -104 113 0
49 65 149 0
-98 140 -158 0
55 -99 146 0
21 -98 -103 0
-68 -111 -133 0
-17 29 36 0
30 148 -159 0
-7 -28 79 0
-66 -87 116 0
-35 -73 -142 0
-8 36 -146 0
-47 -72 -145 0
16 -104 139 0
-11 -43 120 0
20 76 -87 0
-89 93 131 0
50 74 -94 0
-18 45 88 0
21 -29 94 0
-22 -35 43 0
-8 -14 54 0
34 126 142 0
-18 -44 165 0
-47 -62 -127 0
-40 -99 140 0
11 43 -134 0
-12 18 134 0
31 -101 145 0
5 -56 -103 0
27 -129 142 0
75 129 135 0
-55 -72 -159 0
72 -81 146 0
-52 60 123 0
14 -68 -148 0
37 -85 -95 0
38 -146 160 0
-10 -45 -108 0
112 -115 151 0
39 -47 -62 0
-13 27 73 0
-27 38 60 0
7 -90 -175 0
6 -12 55 0
-32 -46 138 0
-13 -85 165 0
88 -112 172 0
11 -44 -144 0
-102 -149 -151 0
-47 87 141 0
-53 120 124 0
11 -120 151 0
99 120 163 0
74 77 -83 0
26 115 162 0
-29 -134 -153 0
-23 -46 130 0
157 -170 174 0
-129 -146 -165 0
85 -123 -130 0
-6 134 159 0
108 -143 145 0
-32 36 -90 0
-3 13 -21 0
-98 146 -172 0
-25 28 -137 0
3 -50 -120 0
8 27 -158 0
39 56 -160 0
4 18 77 0
-30 122 164 0
-39 -131 162 0
104 105 -117 0
-26 57 -129 0
-4 53 137 0
-23 66 90 0
-123 -125 -157 0
3 -118 131 0
-96 133 -149 0
-3 -77 103 0
68 135 -157 0
-81 -86 158 0
-42 -88 129 0
-19 34 76 0
92 -122 170 0
52 -86 128 0
14 -42 91 0
-22 -40 -79 0
51 140 161 0
-21 -40 107 0
5 -99 169 0
-23 49 125 0
22 -99 152 0
69 -89 138 0
114 115 -146 0
-16 40 -67 0
29 132 -144 0
-69 147 -152 0
19 26 72 0
-23 77 -94 0
44 -53 159 0
29 48 -77 0
-10 93 170 0
-55 -65 -72 0
-25 102 -168 0
37 71 136 0
-62 -76 113 0
-83 -102 151 0
9 -28 100 0
-53 73 -83 0
-52 -53 66 0
-92 139 -159 0
-57 -133 -156 0
-31 61 160 0
33 -98 -164 0
25 -114 -123 0
-46 130 151 0
65 111 167 0
5 -34 -93 0
114 -155 161 0
-41 55 68 0
51 -94 174 0
32 53 134 0
84 -92 -140 0
7 98 106 0
-29 91 -111 0
30 -103 -107 0
8 134 -171 0
48 50 164 0
-21 53 151 0
-2 -15 73 0
1 -10 27 0
-43 -89 -116 0
63 107 138 0
36 54 145 0
-100 156 173 0
-28 -87 118 0
-13 -28 -67 0
-19 -60 139 0
49 62 124 0
-88 113 -145 0
43 74 -170 0
-86 129 142 0
-29 44 142 0
62 148 -157 0
30 31 158 0
-38 -55 -62 0
-4 46 147 0
-21 -31 75 0
5 16 151 0
-86 -107 -165 0
-15 -35 74 0
27 -106 133 0
-21 150 -160 0
118 145 165 0
7 -109 -165 0
46 170 174 0
28 -44 -63 0
-46 113 157 0
-32 65 -132 0
4 44 142 0
-86 99 138 0
10 18 -130 0
-31 -108 153 0
17 59 102 0
-11 22 166 0
2 61 -110 0
-8 80 -101 0
22 -100 -156 0
-26 51 -96 0
74 75 -106 0
69 132 174 0
-89 104 -175 0
-57 82 -118 0
-123 148 -159 0
38 113 -130 0
30 54 -77 0
29 38 -170 0
-10 126 160 0
2 -63 -140 0
-105 -113 167 0
33 42 44 0
-1 15 -112 0
9 -160 165 0
-29 134 -163 0
-111 -124 141 0
12 115 132 0
-70 113 154 0
-24 92 120 0
-22 30 144 0
45 -132 -148 0
19 32 136 0
67 117 160 0
-14 33 -70 0
-86 -94 145 0
-55 -108 -119 0
-92 157 -161 0
1 -81 -115 0
17 -137 164 0
-92 -132 174 0
4 -65 -157 0
-44 62 -89 0
-71 98 152 0
70 161 -168 0
20 -21 -29 0
19 -34 61 0
84 -103 132 0
79 84 -118 0
85 113 -119 0
-66 -82 153 0
-20 -162 -172 0
-27 -112 168 0
43 82 84 0
-44 -90 -100 0
-19 -41 110 0
1 -6 162 0
47 -69 -116 0
40 -49 -138 0
-110 132 -153 0
91 126 -134 0
42 -129 152 0
29 113 135 0
23 -120 -134 0
56 88 109 0
-50 61 -82 0
23 75 171 0
-58 -80 -114 0
-57 85 86 0
-128 140 -152 0
19 49 -109 0
-17 -55 -108 0
18 51 -126 0
-8 82 116 0
107 111 -160 0
-23 -44 -157 0
4 142 156 0
47 -69 88 0
24 -86 -88 0
7 119 -175 0
23 77 92 0
-72 -83 -155 0
-73 -116 163 0
147 -167 -171 0
38 52 76 0
33 -129 168 0
