c F1 random 3-CNF cnfgen RandomKCNF(3,125,533,seed=9) m/n=4.26
p cnf 125 533
-48 60 79 0
-1 -87 111 0
43 -71 120 0
-58 91 122 0
7 15 -31 0
96 -102 114 0
-29 87 -93 0
-27 -51 117 0
26 -91 114 0
-49 109 115 0
31 55 95 0
26 -75 98 0
11 18 -115 0
-26 69 -118 0
25 82 98 0
78 93 -121 0
72 -78 88 0
-16 91 112 0
-6 65 -79 0
-15 -111 113 0
26 -52 -122 0
1 15 -56 0
35 -42 -105 0
14 67 -101 0
-72 -100 -104 0
32 -91 100 0
-13 -98 -124 0
18 -38 86 0
7 -121 125 0
16 19 78 0
-27 -58 101 0
-46 103 -124 0
18 -36 72 0
9 -54 58 0
-36 -85 92 0
7 36 119 0
21 100 102 0
-23 59 61 0
-62 71 76 0
-56 75 -114 0
9 29 93 0
59 -63 90 0
-4 78 -87 0
-30 48 106 0
11 -77 -80 0
9 11 76 0
-4 -9 -11 0
4 -91 100 0
-2 -42 101 0
50 62 -125 0
30 58 86 0
7 14 15 0
14 -48 95 0
48 82 112 0
33 67 -98 0
33 79 -121 0
-8 -33 116 0
-8 82 -88 0
-5 -24 103 0
39 113 -118 0
-32 -54 -57 0
-108 -113 115 0
-11 -36 -39 0
-24 -50 57 0
-12 22 42 0
28 47 -92 0
-58 124 -125 0
-3 -10 86 0
42 -94 111 0
37 69 118 0
2 41 118 0
21 -43 -89 0
50 -76 -114 0
-26 -35 122 0
79 100 103 0
40 -88 -114 0
-67 97 -111 0
-19 -37 67 0
-19 23 -43 0
4 45 -119 0
18 -27 44 0
-26 66 108 0
-92 -100 -120 0
-8 -48 -104 0
81 94 124 0
-11 -76 124 0
61 99 -125 0
29 86 125 0
76 -92 -110 0
-17 -43 91 0
10 -52 -106 0
-6 89 124 0
74 -92 114 0
-5 49 -107 0
54 62 -96 0
-33 -34 67 0
-8 -26 95 0
2 -27 111 0
33 38 40 0
-54 -82 -86 0
42 72 118 0
27 95 125 0
-3 -34 -108 0
72 91 -99 0
55 91 121 0
-20 -66 74 0
-45 82 115 0
-41 -70 -125 0
-37 56 103 0
46 -106 -113 0
47 -48 58 0
-9 -16 -83 0
3 -40 -56 0
-25 121 125 0
31 38 91 0
26 -57 -79 0
89 114 -125 0
-19 96 111 0
-37 -40 -61 0
-8 69 76 0
-53 97 -100 0
21 -76 -122 0
64 69 -121 0
57 -75 90 0
-1 -36 -109 0
23 -42 -99 0
-11 -43 62 0
-33 73 -123 0
-9 -61 104 0
-38 -58 105 0
22 27 107 0
-12 85 -99 0
38 -100 114 0
-12 21 107 0
98 -105 -110 0
26 -29 34 0
-53 -92 124 0
-12 -52 90 0
24 -94 95 0
16 -59 -64 0
-70 105 116 0
-31 44 104 0
-1 -11 47 0
58 -70 -87 0
44 -75 88 0
-27 38 -102 0
16 105 108 0
3 104 -115 0
-17 -54 92 0
20 36 54 0
34 -62 68 0
-73 75 83 0
30 -62 -101 0
-22 26 87 0
11 -25 109 0
3 62 -93 0
-83 104 -110 0
27 71 103 0
11 -28 41 0
-74 -85 92 0
-71 -101 116 0
6 8 -47 0
-3 90 120 0
-4 7 -75 0
10 17 -90 0
-41 -60 69 0
-26 35 -61 0
-19 27 -74 0
15 -48 -55 0
13 80 86 0
-9 -48 106 0
-36 57 -65 0
-28 -38 -83 0
9 20 -26 0
76 -93 -115 0
47 -81 92 0
-94 -98 121 0
-7 -100 124 0
-4 35 117 0
14 -42 55 0
-11 -54 78 0
3 -61 91 0
-7 -47 -97 0
38 -71 -94 0
62 -84 123 0
-16 -31 -124 0
-9 -77 -81 0
85 -87 -124 0
-32 73 -108 0
-9 -55 -76 0
-25 73 -121 0
-48 56 76 0
-8 -10 97 0
13 101 -116 0
-31 74 87 0
16 38 65 0
109 122 -124 0
-8 29 -123 0
-7 93 -101 0
-24 -29 47 0
1 40 42 0
13 22 -40 0
-83 -84 96 0
50 109 -111 0
2 70 87 0
-7 14 -80 0
6 7 -15 0
-28 78 95 0
7 -22 31 0
4 -71 -98 0
-4 11 56 0
-2 -12 -121 0
32 50 95 0
49 99 117 0
94 97 119 0
26 -80 104 0
25 61 -123 0
-39 -43 -121 0
-12 89 -122 0
47 -88 109 0
-20 -59 64 0
20 -93 -117 0
3 -21 123 0
10 55 78 0
12 -96 -99 0
-2 -5 99 0
12 124 -125 0
-81 -87 -90 0
-88 -117 -120 0
72 -94 -100 0
-19 26 113 0
91 116 119 0
-94 114 115 0
19 -35 69 0
-20 92 -108 0
74 84 106 0
65 91 -113 0
5 58 73 0
80 -108 118 0
-52 84 112 0
-12 47 100 0
-25 49 -116 0
-45 -58 -106 0
52 -93 -99 0
-19 113 -120 0
-5 13 -36 0
-3 46 113 0
59 -67 84 0
6 -56 -109 0
17 -30 -125 0
29 60 -86 0
-52 -55 -110 0
51 -58 -87 0
-5 9 24 0
-56 65 -87 0
16 -25 51 0
6 44 -117 0
-85 -96 -118 0
74 -81 -116 0
-2 69 83 0
35 -60 -101 0
27 29 -54 0
56 -90 122 0
-63 -71 88 0
12 55 -120 0
39 -79 -111 0
-4 -25 31 0
-52 -113 114 0
81 -102 109 0
-48 -91 96 0
12 -85 -87 0
50 51 65 0
-14 -39 -50 0
5 -74 75 0
20 37 -74 0
-4 53 119 0
-7 -105 116 0
5 73 -74 0
-6 49 118 0
-51 87 -122 0
105 108 115 0
39 96 -114 0
31 36 -119 0
-57 64 81 0
-17 -62 109 0
-12 -77 -90 0
-10 -13 -31 0
-23 74 115 0
17 61 -100 0
-103 -109 -123 0
52 -67 71 0
36 75 -94 0
2 40 -89 0
-31 -83 99 0
23 -107 -113 0
-21 -50 -113 0
-10 -67 -116 0
45 49 -50 0
-56 -89 98 0
-2 59 70 0
35 79 84 0
12 50 99 0
26 43 101 0
49 -87 115 0
52 112 120 0
-31 35 -46 0
-64 72 -98 0
3 -53 -81 0
70 73 79 0
35 -106 111 0
20 83 -121 0
11 101 121 0
14 -28 79 0
15 -48 51 0
47 61 -82 0
-96 -97 -111 0
-12 30 -83 0
-4 -114 -123 0
-11 -29 -97 0
-18 -28 92 0
-2 -40 120 0
-47 -72 89 0
-52 90 -106 0
65 84 92 0
10 -30 102 0
-24 -67 -84 0
25 -72 -123 0
-25 62 83 0
32 65 118 0
-57 -63 -74 0
-19 30 89 0
-11 -87 94 0
8 -13 -93 0
34 70 -110 0
-106 -115 -117 0
47 -93 105 0
-44 -50 51 0
38 -46 63 0
-27 108 111 0
-73 -82 96 0
9 40 54 0
-15 -46 -74 0
62 -72 81 0
-51 -57 116 0
-49 -68 -90 0
-11 35 -79 0
62 72 76 0
-30 103 -114 0
-22 -91 -109 0
21 36 -79 0
17 25 -56 0
-30 63 -76 0
-21 68 -109 0
-21 42 -79 0
-3 -60 61 0
23 -39 118 0
50 77 83 0
-5 -48 115 0
-12 -73 -85 0
-37 49 90 0
17 41 -69 0
17 -52 -125 0
-60 64 -74 0
-45 46 117 0
-63 65 -90 0
42 60 93 0
5 34 -85 0
93 -108 -123 0
66 -69 -81 0
2 107 -108 0
-4 -83 -101 0
-58 75 101 0
7 -100 -119 0
-28 67 104 0
-9 -45 65 0
-17 -25 -64 0
-18 24 -41 0
52 58 95 0
-41 -71 -113 0
-8 -19 -34 0
-52 -53 -110 0
48 -65 -88 0
-8 81 85 0
11 17 -78 0
-34 -46 -104 0
-67 -113 120 0
-50 -58 68 0
16 31 -81 0
40 43 -79 0
-8 -39 58 0
-12 -32 87 0
2 85 102 0
46 91 -111 0
-32 91 -99 0
23 -67 -87 0
2 -9 122 0
-9 -21 -57 0
-6 -109 -124 0
7 47 -64 0
-100 -115 -118 0
-5 15 83 0
62 -79 -86 0
26 35 69 0
-3 -59 123 0
62 76 -100 0
17 39 53 0
-13 79 -109 0
-70 -85 -112 0
34 -73 -103 0
24 83 -104 0
-15 -67 -88 0
59 -86 -123 0
6 -60 -66 0
13 108 -114 0
5 -53 56 0
30 -33 117 0
13 -110 -118 0
-1 3 109 0
3 -39 114 0
-2 38 113 0
-60 -61 121 0
-38 -79 -90 0
37 -51 76 0
-13 -42 103 0
67 -98 104 0
-54 -86 -109 0
28 -80 85 0
10 15 113 0
15 -92 -112 0
-30 105 -107 0
16 36 113 0
-40 63 117 0
33 -39 -122 0
-64 -89 -125 0
-27 44 122 0
-57 -94 114 0
-32 34 -107 0
-32 36 78 0
9 -12 14 0
101 -108 -113 0
4 -57 120 0
9 -54 -86 0
-34 -53 89 0
3 60 -65 0
-9 -63 100 0
-29 -57 121 0
28 71 90 0
24 97 121 0
64 -89 -107 0
-9 61 -119 0
-53 100 -113 0
-12 93 -96 0
44 -67 77 0
48 50 -113 0
3 -50 -117 0
3 -5 -63 0
70 -105 -111 0
-21 -41 55 0
-1 18 -55 0
-23 39 -50 0
-17 -94 115 0
-49 57 102 0
46 -92 120 0
24 -27 50 0
74 -76 88 0
-76 107 116 0
22 -96 113 0
-16 -42 104 0
33 -37 -44 0
17 -48 -75 0
-15 -39 124 0
57 113 117 0
39 -78 -83 0
36 -75 105 0
-16 64 -110 0
32 -63 64 0
-22 101 -107 0
-70 -73 125 0
-66 -86 -124 0
19 -86 -89 0
31 -58 81 0
71 95 -109 0
-49 85 102 0
25 31 33 0
8 -15 -94 0
9 73 92 0
33 -95 120 0
-43 59 99 0
31 34 86 0
11 -26 95 0
-63 72 103 0
47 48 -124 0
36 69 74 0
8 -22 -35 0
24 -53 -124 0
-24 -76 92 0
20 -59 84 0
6 -40 43 0
-10 60 93 0
15 104 125 0
-117 121 -124 0
-17 58 -77 0
28 49 100 0
-3 -8 39 0
3 62 67 0
40 -62 -85 0
-50 -56 -113 0
-65 -93 121 0
-74 78 93 0
-42 79 -125 0
21 -35 42 0
74 -97 100 0
-42 -47 -113 0
1 73 78 0
-5 -69 -100 0
-38 46 -116 0
-2 -40 -99 0
11 25 103 0
-21 -86 93 0
-40 74 -96 0
-6 -42 -93 0
-98 -104 120 0
4 13 -73 0
-28 90 107 0
82 84 111 0
-30 68 -88 0
44 92 -103 0
35 -79 105 0
24 -51 -74 0
66 -97 107 0
-71 -91 114 0
-20 -24 59 0
39 -78 -85 0
