c F1 random 3-CNF cnfgen RandomKCNF(3,125,533,seed=6) m/n=4.26
p cnf 125 533
74 -102 -106 0
-1 -5 -19 0
-3 35 -99 0
69 70 -117 0
79 -85 -103 0
-12 -47 -103 0
13 -90 97 0
6 -76 -122 0
107 117 -120 0
-32 -56 78 0
12 65 -113 0
-26 -40 93 0
18 27 77 0
-3 -43 -83 0
38 -50 68 0
-24 55 -77 0
-12 -32 -104 0
-10 -67 -102 0
53 91 -105 0
58 63 93 0
-16 33 -69 0
-43 -58 -65 0
-35 -63 -79 0
-19 -49 -93 0
42 -47 -85 0
-41 51 -83 0
-1 72 80 0
4 -79 -100 0
64 110 121 0
35 -79 -122 0
10 -30 -61 0
19 -88 124 0
5 81 86 0
60 62 83 0
79 107 -119 0
-108 -115 117 0
18 -82 -102 0
-57 -58 100 0
-38 -103 -107 0
-5 -11 -121 0
-56 -61 124 0
11 32 92 0
5 44 -48 0
10 44 -114 0
-18 60 71 0
10 45 67 0
24 -37 95 0
29 -90 121 0
31 -41 97 0
-42 -98 110 0
51 68 -109 0
24 35 86 0
8 10 -50 0
8 -15 98 0
-8 29 -70 0
10 12 -61 0
15 16 123 0
-87 -97 -108 0
26 -30 57 0
-33 68 102 0
15 47 -89 0
-89 -118 122 0
4 -18 45 0
-1 60 -63 0
17 30 -54 0
-55 -73 -77 0
18 39 -114 0
14 23 104 0
-16 -20 -76 0
-68 111 -112 0
-20 99 -118 0
33 -41 -54 0
-76 87 110 0
23 -40 100 0
12 -83 -119 0
17 97 -117 0
-47 -114 -118 0
84 -85 103 0
6 15 76 0
12 86 -107 0
21 44 125 0
-17 -29 81 0
-18 79 -93 0
-19 -94 125 0
1 36 -97 0
41 59 -81 0
-13 -93 115 0
-95 107 110 0
-48 -86 98 0
69 114 -122 0
2 -48 -115 0
-10 16 62 0
-33 -43 -57 0
58 72 114 0
-68 -105 113 0
5 42 -109 0
20 -25 -36 0
48 90 113 0
-12 105 -113 0
24 -62 -119 0
-71 80 114 0
7 -56 -125 0
29 -82 -125 0
-35 -67 -82 0
-13 48 -96 0
-8 65 84 0
-8 -15 86 0
-23 34 88 0
-35 -40 -92 0
76 91 -110 0
-58 -64 103 0
2 -99 118 0
29 38 -101 0
18 102 -124 0
28 -33 63 0
18 20 114 0
-42 -77 -115 0
-42 58 124 0
15 -29 69 0
-46 60 76 0
4 -53 95 0
-5 -83 -118 0
-33 -83 -117 0
-47 68 -92 0
-24 -76 -82 0
14 -31 -59 0
-60 87 -124 0
2 56 -63 0
8 -56 -82 0
-21 23 -117 0
15 -76 77 0
-69 -79 -95 0
47 -91 -121 0
-23 39 64 0
27 70 103 0
-14 -61 -83 0
61 113 -120 0
15 19 -28 0
-29 -46 54 0
-48 89 97 0
26 -52 65 0
110 118 121 0
78 86 -87 0
43 -114 125 0
99 110 -124 0
-28 70 73 0
-4 14 38 0
-53 72 -94 0
77 111 112 0
-81 -90 -109 0
52 -85 90 0
-26 -30 39 0
-41 -84 -118 0
-46 -56 68 0
-78 84 -124 0
23 65 81 0
-29 33 69 0
8 -40 -70 0
16 -42 45 0
35 -75 -118 0
-12 83 96 0
32 40 80 0
-4 -56 116 0
-74 -110 119 0
8 24 -84 0
-22 -23 -33 0
29 73 100 0
-72 74 103 0
11 -71 -105 0
36 -52 -58 0
-42 -82 115 0
7 -94 -112 0
-14 -66 79 0
10 13 91 0
64 87 -122 0
24 82 -108 0
-1 37 114 0
1 -21 -62 0
-19 -32 -117 0
-31 72 121 0
-81 -103 119 0
-28 38 -73 0
-29 -82 -99 0
-36 -52 -56 0
-15 -26 76 0
30 45 66 0
-2 21 -109 0
6 17 -25 0
22 107 110 0
28 -76 -89 0
-4 10 -119 0
-19 -117 125 0
-50 -73 118 0
-39 82 124 0
15 28 -39 0
15 -46 -92 0
42 99 -106 0
-16 59 -104 0
47 86 -118 0
34 91 113 0
2 -5 88 0
57 105 -123 0
36 39 95 0
-43 68 74 0
99 104 -121 0
-15 -67 -125 0
17 43 -67 0
-6 29 -32 0
43 -45 81 0
15 41 104 0
-11 20 -23 0
-2 -65 84 0
86 -98 109 0
-41 -71 111 0
-9 54 -114 0
101 123 -125 0
1 8 16 0
26 -28 125 0
-12 13 77 0
-3 61 80 0
-15 -90 99 0
-77 78 111 0
6 44 56 0
-14 16 -45 0
-17 38 69 0
2 23 -30 0
-56 75 -82 0
10 -36 -123 0
-28 -48 -91 0
-16 50 -96 0
-3 -23 -53 0
-2 55 -110 0
26 29 -62 0
-24 -31 -58 0
26 27 48 0
-66 78 82 0
-64 -84 115 0
61 78 93 0
-6 -26 -115 0
27 -93 121 0
-70 -84 115 0
29 64 109 0
79 -99 -116 0
-36 81 94 0
-14 60 -79 0
58 -66 -72 0
25 -37 87 0
37 -39 40 0
-6 -33 -93 0
18 -48 -119 0
16 71 109 0
-50 -91 125 0
96 -98 119 0
31 -84 86 0
-1 -73 -105 0
-6 36 68 0
30 36 -79 0
-24 25 -111 0
22 -84 -113 0
4 20 -29 0
15 21 -83 0
20 -73 103 0
-8 78 120 0
-30 39 -67 0
-15 39 116 0
-16 -99 100 0
-24 -51 64 0
56 -106 122 0
-8 59 108 0
-61 -67 -85 0
22 58 -92 0
-43 59 -89 0
-65 -73 111 0
-19 -33 -106 0
8 -15 28 0
-2 -20 -49 0
1 -49 -73 0
45 -107 123 0
11 63 -120 0
25 27 95 0
58 -70 -110 0
-1 33 115 0
-9 58 69 0
21 -50 79 0
-12 27 113 0
-12 40 44 0
-15 23 68 0
22 58 97 0
27 -53 -120 0
-19 48 -104 0
18 -48 -66 0
38 -42 85 0
-47 63 -101 0
31 99 -101 0
22 23 -50 0
5 -12 -81 0
90 92 112 0
6 -66 103 0
1 -68 84 0
1 -12 -76 0
93 -95 119 0
30 -84 -110 0
59 69 -113 0
4 -81 -93 0
-26 -37 -94 0
44 74 115 0
36 104 -108 0
35 -63 97 0
-4 33 -100 0
-40 101 125 0
18 -71 90 0
-65 -70 81 0
-19 54 123 0
44 51 -66 0
-42 75 103 0
53 -64 -93 0
20 -42 90 0
-7 94 -110 0
49 -92 101 0
53 -68 90 0
13 -50 106 0
-27 117 118 0
-13 -43 109 0
25 54 113 0
76 -88 -118 0
11 49 -53 0
108 -121 123 0
-8 -35 44 0
-57 -82 91 0
-57 103 -122 0
22 -35 -122 0
-43 65 -75 0
-60 64 -120 0
33 92 -105 0
-36 107 -123 0
-13 -111 124 0
14 47 -72 0
-31 -80 -89 0
-12 -89 124 0
21 -43 -48 0
-43 -97 -115 0
-7 17 56 0
103 104 124 0
31 -39 -55 0
-8 92 94 0
9 43 71 0
25 -64 90 0
-28 49 -61 0
-23 -49 102 0
29 70 113 0
-40 94 103 0
-45 -57 -81 0
30 65 122 0
-32 86 96 0
-17 -33 46 0
8 77 -89 0
-8 86 94 0
3 115 118 0
6 17 34 0
-19 -31 63 0
-34 67 -100 0
-14 19 52 0
87 102 -120 0
19 41 -61 0
35 42 -92 0
60 -110 122 0
63 92 -123 0
14 31 42 0
-34 100 121 0
-27 -48 53 0
28 51 60 0
-25 -29 84 0
-5 42 -78 0
-16 -17 36 0
-56 96 119 0
-37 -67 -116 0
-49 -51 76 0
-92 98 107 0
15 22 -30 0
25 42 90 0
33 76 -79 0
29 44 -70 0
66 84 90 0
-5 -8 104 0
-8 74 -116 0
6 -15 -115 0
-35 95 -106 0
-106 113 -125 0
-10 87 118 0
17 42 -120 0
-7 -33 -34 0
-39 -78 -108 0
11 49 52 0
-12 -40 -94 0
12 73 88 0
98 99 101 0
-31 42 -88 0
32 -106 -114 0
59 71 111 0
-11 13 23 0
-32 54 -70 0
-14 -23 -86 0
-49 -92 97 0
1 19 38 0
-20 -48 -118 0
68 -76 88 0
-11 51 121 0
-27 73 -97 0
27 -59 110 0
-17 43 122 0
-60 74 -81 0
-6 26 41 0
86 104 118 0
-16 -26 -121 0
52 57 115 0
63 -77 -120 0
-36 -52 -103 0
-11 97 116 0
-4 69 100 0
10 -67 -70 0
15 -65 114 0
-40 75 -80 0
51 52 -91 0
-46 -68 -120 0
8 16 -56 0
47 -106 121 0
-14 -35 83 0
-2 65 75 0
32 -57 123 0
-96 -111 120 0
-3 34 -115 0
10 28 -115 0
38 -39 -88 0
20 57 90 0
-1 71 112 0
22 30 42 0
-22 29 -90 0
19 42 -70 0
18 -68 -92 0
-8 -17 -55 0
-50 -87 -118 0
13 -75 -91 0
-53 99 115 0
28 59 125 0
6 -63 -78 0
59 -85 88 0
55 72 105 0
-10 -15 -29 0
-13 92 -96 0
-24 -35 -106 0
-13 34 73 0
2 -28 -105 0
-23 -62 119 0
11 -59 81 0
16 -50 54 0
-20 -55 92 0
3 46 65 0
3 -77 -88 0
-76 108 -111 0
-61 67 -68 0
-35 -51 59 0
-46 -47 58 0
-70 71 92 0
-69 -87 -96 0
-33 -42 -61 0
15 68 104 0
-49 -121 -124 0
14 -51 -103 0
6 -32 85 0
-84 109 110 0
-8 -56 -83 0
1 14 -44 0
-39 78 -82 0
-1 -25 63 0
83 -102 125 0
6 18 -38 0
-34 87 107 0
-19 45 -96 0
-33 -68 106 0
-8 -60 65 0
80 81 -121 0
11 -59 -66 0
-30 -69 73 0
26 51 -103 0
9 -109 117 0
35 36 -102 0
-46 52 -90 0
-39 -65 74 0
26 -30 -121 0
25 -84 115 0
-91 -102 -114 0
-56 -61 -76 0
-18 -54 60 0
-5 23 -62 0
4 -85 97 0
15 60 80 0
89 97 -119 0
15 63 94 0
24 64 113 0
18 -22 -64 0
2 27 -67 0
4 -56 108 0
-5 19 -71 0
-42 78 101 0
-39 -98 105 0
4 18 -74 0
27 -30 32 0
50 -72 87 0
-52 -58 70 0
4 10 -85 0
-38 -85 -101 0
63 -68 -84 0
90 110 -118 0
41 45 -106 0
-8 84 -90 0
-5 37 -66 0
5 25 -74 0
-47 100 125 0
-4 70 -86 0
-13 70 -107 0
8 -49 109 0
48 57 77 0
10 -53 -91 0
13 -44 -112 0
56 -62 108 0
-3 -7 81 0
3 24 -78 0
41 -59 118 0
27 49 108 0
9 -10 104 0
-36 40 109 0
-12 -84 109 0
4 59 -122 0
