c F1 random 3-CNF cnfgen RandomKCNF(3,225,959,seed=6) m/n=4.26
p cnf 225 959
147 -204 -211 0
-1 -10 -38 0
-6 70 -198 0
138 139 -175 0
157 -170 -206 0
-24 -93 -205 0
25 -180 194 0
-12 -52 151 0
132 -148 166 0
-78 111 155 0
129 135 -174 0
-51 -80 185 0
36 54 153 0
-5 -86 -166 0
75 -100 136 0
-48 109 -153 0
-23 -63 -207 0
-20 -133 -204 0
105 181 -210 0
116 125 185 0
-32 65 -138 0
-85 -116 -129 0
-69 -125 -157 0
-37 -97 -185 0
83 -94 -169 0
-82 102 -166 0
-2 144 160 0
8 -157 -199 0
128 151 219 0
-4 -69 158 0
-26 -60 121 0
-63 161 175 0
25 161 -172 0
18 119 186 0
-42 -159 -162 0
6 178 -203 0
-113 -123 -200 0
-17 -149 -183 0
-9 -22 -93 0
-111 114 122 0
64 155 209 0
9 87 -95 0
20 -41 88 0
119 127 191 0
8 90 134 0
-39 73 190 0
145 -179 184 0
62 -82 194 0
-84 -195 219 0
102 136 -217 0
48 70 171 0
16 20 -99 0
16 -30 195 0
-16 58 -139 0
20 24 -121 0
29 31 180 0
-174 -193 -216 0
52 -60 114 0
-66 135 203 0
93 94 177 0
-88 93 -178 0
-3 8 -36 0
-1 119 -213 0
-33 34 59 0
-99 -153 -170 0
36 65 -77 0
27 46 207 0
-31 -39 -152 0
-136 221 -223 0
40 -118 -198 0
-35 -65 -82 0
-2 58 200 0
105 159 160 0
33 98 -106 0
-85 -94 216 0
11 34 67 0
177 196 201 0
56 87 90 0
48 -58 -161 0
29 -160 186 0
96 -147 -188 0
18 71 193 0
-117 123 162 0
-26 -71 185 0
-189 214 220 0
-95 -171 196 0
39 -137 -215 0
-4 -33 174 0
31 103 -123 0
-66 -85 -206 0
116 143 184 0
-135 -210 225 0
10 83 -217 0
40 -49 -72 0
56 96 180 0
-209 212 -225 0
47 -123 -164 0
92 141 -160 0
14 -150 -159 0
-15 -57 -164 0
-77 -93 164 0
107 -140 196 0
82 130 167 0
16 111 -113 0
-1 -17 -91 0
100 104 -152 0
-115 -127 206 0
-4 14 197 0
76 165 -201 0
35 144 -204 0
55 -66 126 0
26 35 -40 0
-108 -122 -178 0
50 117 158 0
-36 172 -211 0
-120 145 198 0
7 -105 189 0
-9 -81 -165 0
-78 -97 112 0
106 -151 -164 0
121 151 -171 0
-42 -94 -148 0
-19 111 117 0
-17 124 156 0
-188 -212 213 0
46 -123 137 0
8 -89 -210 0
-99 201 -213 0
-45 -77 108 0
5 139 206 0
8 -122 -211 0
84 121 -225 0
29 37 -55 0
-57 -92 107 0
-95 178 194 0
52 -103 129 0
20 164 219 0
-26 -130 194 0
54 113 -197 0
-55 139 146 0
-8 27 75 0
-106 143 -187 0
153 222 223 0
-162 -180 -218 0
103 -169 179 0
-51 -60 77 0
-81 -93 -167 0
-92 105 -136 0
-51 157 168 0
-17 -39 58 0
55 79 -140 0
-32 90 -100 0
-1 139 -150 0
-23 83 162 0
63 79 160 0
-7 -111 158 0
-148 -194 220 0
16 48 -168 0
-44 -46 -66 0
58 145 200 0
-143 148 205 0
21 -142 -209 0
71 -104 -115 0
-84 115 164 0
-24 -188 223 0
-116 131 158 0
19 26 -181 0
63 -174 187 0
-9 12 -216 0
114 178 -198 0
-1 -4 41 0
-38 97 -114 0
56 -164 -180 0
13 -175 -190 0
138 -188 215 0
-85 -163 -198 0
-103 -111 -164 0
-30 -52 151 0
60 90 131 0
-4 41 -217 0
12 33 -50 0
44 214 219 0
56 -151 -177 0
-7 19 -186 0
-38 -157 198 0
-99 -145 146 0
75 77 163 0
29 -33 -77 0
30 -183 -186 0
83 197 -212 0
-31 118 -208 0
62 -93 -172 0
32 45 181 0
4 -82 209 0
-40 71 189 0
-64 85 136 0
23 -198 208 0
-102 -134 -138 0
34 134 -217 0
-11 57 -63 0
86 -90 162 0
30 81 207 0
-22 40 -46 0
-4 -129 168 0
171 -195 217 0
-81 -141 221 0
18 -102 108 0
5 15 120 0
18 43 -56 0
24 -64 163 0
-28 160 -225 0
61 163 -176 0
66 -191 208 0
-11 55 111 0
31 -32 90 0
-34 -103 138 0
3 7 60 0
-78 -163 213 0
-20 89 -216 0
96 -109 -182 0
-31 -96 192 0
65 105 -207 0
-4 -73 108 0
-157 170 211 0
-1 8 -123 0
-61 -109 -143 0
51 54 138 0
-131 156 164 0
-95 127 -167 0
40 63 219 0
75 80 -104 0
-25 -202 214 0
58 127 217 0
157 -197 -224 0
-71 161 188 0
-28 119 -158 0
116 -132 -143 0
50 -73 174 0
73 -78 80 0
-12 -65 -185 0
35 -96 -218 0
31 142 218 0
-92 100 181 0
73 165 200 0
108 175 -187 0
-75 129 -138 0
4 101 -184 0
-2 6 152 0
-34 117 174 0
39 124 128 0
31 108 152 0
-50 148 201 0
27 -126 222 0
-52 129 -153 0
-38 138 -191 0
60 128 -192 0
88 -176 -198 0
47 -98 111 0
-137 177 -214 0
16 95 -216 0
-115 -124 149 0
28 -183 -204 0
85 -92 -178 0
-49 108 -141 0
-168 -183 195 0
16 -56 220 0
-3 -40 -98 0
1 -97 -145 0
90 -182 213 0
21 -37 125 0
14 49 -174 0
-50 -140 -220 0
1 18 -90 0
16 -56 120 0
102 131 215 0
111 145 -204 0
-23 87 173 0
-29 46 136 0
44 116 193 0
-19 -53 106 0
91 -95 159 0
-20 -88 -96 0
-23 193 -219 0
93 -113 201 0
31 -197 201 0
44 100 -171 0
10 -24 -162 0
180 183 224 0
11 -132 206 0
1 -136 168 0
1 -24 -152 0
-13 185 190 0
-1 -167 -219 0
-20 61 137 0
70 -113 -188 0
-104 -186 215 0
48 -160 208 0
-30 -136 -179 0
51 92 -129 0
-58 -66 -189 0
17 40 -212 0
-41 -130 132 0
38 107 -120 0
87 131 -181 0
-84 150 205 0
106 -127 -185 0
40 -83 179 0
-13 187 -220 0
97 -183 201 0
106 -136 179 0
25 -100 212 0
54 85 163 0
-85 100 210 0
26 107 199 0
-21 105 108 0
-200 204 -207 0
51 -87 -165 0
-35 -106 -164 0
-51 -146 213 0
44 -70 -86 0
-86 129 -150 0
-120 127 -205 0
66 184 -209 0
72 -118 213 0
-76 154 -173 0
27 -28 144 0
-98 114 -166 0
-59 88 -143 0
-4 -94 -104 0
33 -111 114 0
46 206 208 0
61 -77 -109 0
-16 183 187 0
18 86 142 0
49 -128 179 0
-56 98 -121 0
-46 -97 203 0
45 57 -140 0
88 187 -206 0
-78 -90 162 0
18 41 -216 0
-11 -33 -47 0
40 80 153 0
-15 113 202 0
5 39 59 0
47 68 -144 0
-37 62 -114 0
90 -133 200 0
28 85 103 0
-63 -177 219 0
31 -81 -154 0
-40 -46 70 0
79 -163 214 0
31 -127 187 0
5 -7 -152 0
34 -161 218 0
-95 127 129 0
15 101 120 0
-49 72 -212 0
-10 11 -86 0
-33 89 -216 0
79 150 -191 0
-89 -106 -133 0
-109 134 -144 0
11 31 43 0
-58 75 180 0
-10 50 157 0
76 88 155 0
106 130 180 0
-10 -15 208 0
-15 148 -161 0
12 -30 -169 0
-70 190 -212 0
-63 94 -212 0
-1 25 196 0
59 -67 -109 0
-71 -120 -155 0
-21 97 105 0
-23 -51 -79 0
23 145 175 0
195 197 201 0
-61 83 -176 0
63 -140 -212 0
117 142 222 0
-21 25 46 0
-64 107 -140 0
-28 -46 -171 0
-97 -183 193 0
2 37 75 0
-40 -84 95 0
-47 92 -188 0
44 -50 145 0
112 117 -220 0
49 -85 183 0
-6 120 -148 0
-12 51 81 0
23 172 207 0
-52 -119 -134 0
13 104 -191 0
-60 -171 -216 0
-72 -88 205 0
26 66 -194 0
154 222 224 0
-16 -133 139 0
135 -165 183 0
-79 150 -159 0
-103 104 182 0
-91 -119 -135 0
15 31 -111 0
94 -206 211 0
-27 -69 166 0
-4 130 149 0
-63 64 -114 0
119 -132 224 0
-49 107 140 0
-11 -64 -208 0
-63 -79 157 0
61 156 180 0
88 176 -193 0
44 59 181 0
-43 58 -179 0
38 84 -139 0
35 -136 -184 0
-16 -34 -110 0
-92 -100 174 0
-5 -96 -181 0
-8 49 55 0
-28 142 205 0
-141 -174 -200 0
169 -176 209 0
109 144 210 0
-19 -30 -58 0
-25 183 -191 0
-47 -69 -211 0
-25 67 146 0
3 -55 -209 0
-46 -123 135 0
21 -117 162 0
32 -99 107 0
-40 -110 183 0
91 92 130 0
37 153 -176 0
-115 191 -222 0
-122 134 -135 0
-69 -101 118 0
-91 -94 115 0
-140 141 183 0
-138 -174 -192 0
-65 -84 -122 0
29 136 207 0
-92 -97 106 0
-18 -214 219 0
12 -162 169 0
-168 217 219 0
-16 -111 -165 0
2 27 -88 0
-78 156 -164 0
-2 -50 126 0
166 -204 224 0
12 35 -75 0
-67 173 214 0
-38 89 -192 0
-66 -211 212 0
-16 -119 129 0
159 161 -190 0
21 -118 -132 0
-59 -138 146 0
52 102 -206 0
18 -168 217 0
69 71 -203 0
-91 104 -179 0
-77 -129 148 0
-51 -59 60 0
40 -95 -167 0
-121 -123 -137 0
-93 148 -206 0
35 102 -127 0
-180 207 -218 0
8 -169 193 0
29 120 159 0
58 -178 194 0
36 125 -219 0
11 48 134 0
-10 -44 127 0
54 -61 -203 0
-7 34 181 0
-12 -38 -68 0
-31 -32 -146 0
173 192 204 0
-10 13 147 0
-13 63 -217 0
-7 144 -174 0
-93 103 139 0
7 -12 -169 0
-115 -202 -223 0
-31 -135 167 0
-63 -149 -206 0
-26 64 -172 0
-24 85 -131 0
150 -172 197 0
15 -50 -210 0
48 105 -158 0
-24 153 -186 0
41 98 -113 0
-63 113 153 0
20 -26 -106 0
25 -88 -223 0
111 -124 216 0
-6 -13 162 0
6 48 -155 0
81 -118 193 0
54 98 215 0
17 -20 207 0
-72 79 218 0
-23 -167 217 0
7 118 -225 0
-31 95 221 0
-21 -109 -115 0
30 196 -209 0
-156 179 180 0
77 125 -172 0
-86 150 -186 0
-4 5 24 0
-79 97 -190 0
-30 -115 -200 0
80 -84 89 0
40 156 207 0
-23 147 -206 0
-76 -140 153 0
-99 -135 180 0
-73 103 -141 0
12 76 -114 0
10 -174 207 0
-100 -140 -211 0
-71 -143 -150 0
10 -139 -168 0
13 32 183 0
104 113 -115 0
24 70 -133 0
-133 158 191 0
30 -99 122 0
-62 195 206 0
-112 114 146 0
-69 -81 -221 0
-39 152 -201 0
28 -78 137 0
-158 -171 -210 0
14 50 -145 0
68 134 169 0
-88 163 225 0
-34 -48 220 0
-73 -106 -193 0
-48 -171 -185 0
-130 -194 -197 0
-11 112 -121 0
20 -134 -174 0
-48 -51 66 0
-12 123 -180 0
-73 -119 -186 0
-61 82 213 0
-55 -92 173 0
-124 176 196 0
-14 -44 133 0
4 -6 65 0
-28 88 -162 0
-10 117 172 0
31 -62 -157 0
1 107 -209 0
-17 -81 185 0
63 -124 -193 0
61 -146 182 0
80 -169 176 0
-32 -106 184 0
6 114 131 0
151 160 205 0
81 -179 -207 0
38 141 165 0
6 206 222 0
-102 216 217 0
54 131 140 0
55 94 -98 0
-194 -207 -219 0
-139 177 179 0
71 -80 116 0
-97 -194 199 0
-13 26 -100 0
-3 55 -119 0
36 40 200 0
84 174 -187 0
-17 81 -161 0
50 -60 205 0
22 -63 -134 0
77 -108 171 0
-90 126 -225 0
9 -88 -193 0
-79 156 157 0
49 -65 122 0
6 70 207 0
-70 93 116 0
8 32 35 0
-82 142 -176 0
-7 -88 -167 0
5 -178 188 0
-60 69 96 0
41 50 58 0
-45 121 -171 0
44 -175 219 0
40 53 120 0
23 142 -173 0
79 -122 140 0
141 209 210 0
121 140 -174 0
21 -151 -156 0
-37 57 -126 0
37 -109 115 0
-20 -74 -112 0
-7 -124 -187 0
-16 49 126 0
27 47 202 0
33 -91 217 0
75 93 153 0
65 95 215 0
-16 -87 -204 0
24 -170 -204 0
39 61 -170 0
69 138 217 0
-56 70 131 0
24 133 214 0
35 146 -201 0
-23 -46 -117 0
-142 -211 220 0
-45 75 196 0
-31 172 -218 0
-74 -89 -176 0
-162 -207 -213 0
-60 126 -192 0
-5 34 116 0
-38 61 170 0
134 -144 -168 0
41 -94 -130 0
-12 128 219 0
16 83 199 0
-134 138 154 0
-26 31 -176 0
-8 -179 -220 0
13 -62 171 0
-73 -167 212 0
-31 122 -136 0
-15 52 133 0
-43 -137 -182 0
37 41 185 0
-163 -198 -213 0
-3 121 -127 0
7 -36 208 0
21 144 -147 0
23 169 -190 0
104 135 -220 0
90 135 -204 0
-9 191 -203 0
70 -98 157 0
21 74 81 0
16 -78 -218 0
-22 26 118 0
66 -103 -173 0
-27 -102 116 0
42 -57 128 0
72 122 214 0
1 187 219 0
-12 -32 -184 0
-7 182 223 0
48 -70 145 0
3 -141 187 0
37 -49 61 0
-116 133 -146 0
-81 -140 177 0
-126 148 182 0
163 164 -192 0
-66 -113 167 0
22 59 -123 0
176 188 224 0
-91 -108 184 0
-80 156 -161 0
57 -185 225 0
-3 114 -193 0
-68 114 -223 0
-29 -120 214 0
10 -25 -222 0
-91 -164 194 0
126 155 170 0
-131 188 191 0
-53 -73 -101 0
7 145 188 0
-50 117 130 0
54 194 209 0
-47 -77 215 0
87 -94 191 0
1 -150 -164 0
-96 -196 -216 0
-118 138 -177 0
42 109 -178 0
71 89 155 0
-19 -50 -194 0
28 81 -216 0
186 211 -217 0
-1 11 -167 0
-48 140 205 0
-126 128 -220 0
-52 153 156 0
-46 -99 -105 0
-96 -149 210 0
24 145 -204 0
-77 -84 -149 0
70 -94 139 0
-94 -125 137 0
-111 -125 133 0
-25 -125 140 0
31 198 211 0
137 165 216 0
-25 105 -149 0
-55 188 190 0
-57 88 -215 0
-35 -43 -90 0
45 104 117 0
-23 162 -188 0
-155 -163 166 0
-7 -21 50 0
37 -203 -219 0
6 69 115 0
-3 99 -128 0
54 -64 155 0
-1 -74 -114 0
-11 -121 220 0
48 57 -150 0
47 -173 -179 0
14 -67 -127 0
2 -76 136 0
64 -86 -204 0
-101 104 -155 0
-82 112 113 0
3 196 214 0
-20 -75 -137 0
-37 -38 179 0
10 -144 -201 0
56 -181 -222 0
12 -126 163 0
-36 -170 -223 0
-34 -92 197 0
60 -86 -199 0
70 95 193 0
168 170 -173 0
-15 -136 -165 0
-175 -216 -221 0
69 150 206 0
-89 142 -152 0
-116 -170 -201 0
-69 -172 200 0
134 -170 -211 0
-77 124 -154 0
37 98 137 0
5 17 -49 0
-92 118 158 0
43 101 115 0
25 89 134 0
108 124 -190 0
4 -16 88 0
-15 154 164 0
-26 -110 120 0
81 -88 -126 0
3 77 108 0
-21 102 118 0
-2 164 -195 0
-4 82 -85 0
50 138 -198 0
-100 111 208 0
30 -44 219 0
-13 47 191 0
5 -109 199 0
172 199 -215 0
-18 -70 -188 0
1 32 -67 0
75 -125 -151 0
-80 109 139 0
10 41 207 0
152 177 215 0
107 147 -154 0
-115 -144 199 0
-103 112 128 0
-37 43 209 0
-38 -54 -147 0
68 77 121 0
74 99 168 0
129 141 149 0
123 -170 204 0
185 -210 -211 0
22 62 130 0
134 177 -187 0
-18 20 125 0
19 -109 -137 0
34 65 100 0
-68 -88 223 0
83 -173 222 0
19 -32 99 0
22 36 179 0
65 -100 174 0
9 156 175 0
68 -104 182 0
-167 187 -202 0
57 -66 168 0
-41 85 183 0
16 -92 188 0
-39 -124 -131 0
27 125 219 0
-23 63 -131 0
-93 -96 -169 0
51 -159 178 0
-26 -37 -221 0
-39 -94 100 0
-134 -143 -148 0
-10 -40 -66 0
22 -91 194 0
77 79 -120 0
57 78 -193 0
-131 -151 -168 0
50 165 -209 0
17 192 -223 0
95 -96 114 0
24 -38 39 0
15 89 -212 0
-39 -40 -53 0
-58 -91 179 0
-56 80 -217 0
45 -84 219 0
-13 100 121 0
-25 200 207 0
8 -20 104 0
-186 220 222 0
156 180 197 0
75 -131 -154 0
3 91 -206 0
-41 53 -197 0
13 -100 105 0
-80 -100 -106 0
26 91 152 0
-6 -84 -132 0
-6 -193 -214 0
89 -105 -218 0
25 -71 -123 0
-91 158 -162 0
-117 118 140 0
-44 135 191 0
79 151 -222 0
86 103 140 0
48 -146 195 0
80 -156 157 0
24 63 106 0
-94 -109 152 0
-6 -17 -196 0
-59 -117 185 0
-26 145 -163 0
20 -147 204 0
1 13 -24 0
-92 -109 195 0
-40 83 -170 0
26 71 215 0
42 120 196 0
96 -117 -145 0
-37 -109 185 0
-113 124 -147 0
5 -140 148 0
-49 -122 -218 0
10 129 -135 0
52 -103 127 0
151 -153 -170 0
9 198 -209 0
46 156 -166 0
55 172 -220 0
-13 93 151 0
-9 84 -140 0
5 -127 128 0
8 -108 -172 0
-82 -166 -167 0
-83 -113 169 0
47 61 76 0
85 -169 177 0
16 45 74 0
-13 19 -194 0
38 92 212 0
50 121 160 0
-9 -60 165 0
36 -74 -194 0
-6 48 146 0
36 84 -108 0
4 -61 221 0
-11 167 -212 0
-8 -198 201 0
13 28 -150 0
3 -23 99 0
-108 -144 159 0
32 53 142 0
13 -181 199 0
-114 120 -184 0
-88 -96 176 0
12 -83 102 0
96 142 158 0
-10 96 153 0
-69 -143 -225 0
8 -23 90 0
-24 -64 -131 0
52 68 -173 0
84 -129 221 0
-70 -71 163 0
-9 -123 -194 0
149 -158 192 0
-142 -176 -209 0
13 -60 -88 0
-26 39 116 0
-15 -92 107 0
-19 -124 -156 0
-49 -155 166 0
64 182 212 0
101 121 219 0
27 133 139 0
-99 -182 -207 0
-18 -74 -220 0
-65 -120 154 0
129 155 222 0
-5 125 214 0
-50 -122 221 0
-57 70 225 0
40 128 157 0
117 -169 -210 0
-74 142 -185 0
41 -138 177 0
-115 -200 215 0
105 132 -214 0
-38 -93 -180 0
-104 108 -155 0
-84 124 191 0
-48 116 189 0
-35 -68 103 0
45 -72 -76 0
134 -178 218 0
58 146 159 0
-7 -22 104 0
-32 -53 -135 0
-65 208 -225 0
86 -99 -199 0
55 -109 201 0
-35 -70 -172 0
79 108 172 0
-8 -16 -220 0
-15 45 131 0
16 -87 211 0
72 -148 219 0
49 -77 -101 0
23 111 -176 0
-3 -75 -105 0
103 -138 -175 0
49 134 136 0
