c F1 random 3-CNF cnfgen RandomKCNF(3,175,746,seed=11) m/n=4.26
p cnf 175 746
-116 120 144 0
122 132 -162 0
24 -37 -78 0
158 167 168 0
10 16 -49 0
84 113 -152 0
2 -128 -170 0
-22 -105 142 0
8 74 -132 0
28 75 99 0
-14 -54 -55 0
19 -108 -145 0
23 -80 86 0
26 35 -64 0
46 -125 175 0
-34 108 -165 0
-1 -55 108 0
48 54 101 0
55 -67 -114 0
19 20 99 0
-4 -95 154 0
124 -148 151 0
40 80 161 0
41 -142 -162 0
21 108 155 0
10 -66 -132 0
-108 126 153 0
33 -59 123 0
-5 -18 -53 0
12 -16 -64 0
34 -136 147 0
85 116 169 0
80 92 122 0
-18 80 124 0
-20 116 140 0
-22 88 -91 0
8 -128 -147 0
4 150 156 0
-30 -66 -164 0
-113 118 149 0
-23 80 154 0
-29 -128 158 0
37 78 -95 0
114 -128 -169 0
-51 65 171 0
-57 99 150 0
35 90 -128 0
-29 -44 116 0
-98 -106 -161 0
-9 20 -83 0
80 91 -147 0
-7 49 117 0
-13 30 -162 0
-20 -51 52 0
3 121 137 0
70 -89 139 0
23 -100 -106 0
-2 -51 -161 0
53 84 167 0
-23 -63 -100 0
5 90 -130 0
-88 -108 141 0
17 56 -110 0
-36 -39 121 0
-57 113 -135 0
80 -98 172 0
-70 135 -140 0
30 -129 138 0
-12 133 -138 0
-17 -24 -43 0
-64 69 -122 0
-112 122 135 0
-8 108 159 0
10 40 -50 0
-63 83 -91 0
-32 131 -150 0
-6 97 163 0
137 162 164 0
60 -89 -161 0
25 50 56 0
23 -67 -100 0
-33 52 140 0
-52 -146 175 0
88 130 -163 0
-7 10 28 0
30 48 -53 0
25 149 -173 0
-20 -25 -84 0
91 -111 132 0
11 -52 -163 0
93 95 104 0
4 -83 132 0
-88 -130 150 0
-35 -41 -104 0
47 53 -104 0
26 -78 121 0
-60 -70 171 0
104 146 -169 0
128 132 -165 0
6 30 -148 0
103 114 -130 0
-3 -26 -67 0
-131 139 -141 0
20 -141 166 0
-44 99 -121 0
-73 -108 -127 0
-74 -124 -136 0
4 7 -63 0
-14 81 -100 0
-19 -58 110 0
-12 26 134 0
-13 -30 155 0
14 53 -92 0
-36 -114 -171 0
-150 -164 175 0
-33 62 -75 0
-92 -130 160 0
62 72 163 0
11 161 -175 0
7 67 109 0
19 72 139 0
-96 -124 162 0
87 88 127 0
-55 -115 -160 0
39 -95 -100 0
-48 110 -141 0
21 -83 -140 0
3 -77 119 0
-21 -155 -170 0
-37 -57 -73 0
-31 -83 -113 0
-57 82 118 0
-7 -93 -94 0
-50 95 145 0
-23 46 117 0
15 -133 140 0
-17 109 -167 0
-21 27 71 0
37 -163 168 0
-57 -126 -134 0
86 -87 -90 0
19 -138 -159 0
-1 23 -97 0
-3 29 108 0
42 -97 163 0
-100 -109 136 0
-30 79 121 0
-5 16 -118 0
-28 48 51 0
121 -153 154 0
-45 -72 -104 0
88 -104 125 0
13 -56 -103 0
15 -61 -169 0
64 -108 116 0
38 -67 83 0
39 46 147 0
-22 33 -91 0
-22 120 151 0
50 -107 175 0
-10 106 -140 0
80 -81 -104 0
18 93 171 0
-101 171 -174 0
4 -97 122 0
3 -53 -118 0
-77 87 -139 0
49 -52 -97 0
-71 -121 -145 0
24 27 37 0
47 -50 103 0
9 26 -59 0
-19 88 105 0
-38 -99 124 0
82 103 -157 0
-49 -85 88 0
-53 -97 143 0
-41 65 -157 0
129 132 157 0
7 146 161 0
-63 -123 -148 0
-24 69 -93 0
35 -62 146 0
38 86 -154 0
-62 94 147 0
-20 141 -153 0
-36 -47 169 0
-41 52 106 0
-31 99 -136 0
34 -68 134 0
10 -165 -172 0
-27 -121 -154 0
-73 -119 125 0
-30 -135 -145 0
-7 -14 -83 0
79 83 153 0
-63 115 -129 0
-27 -62 135 0
-18 95 171 0
108 146 167 0
-32 34 -134 0
-7 63 77 0
-113 116 -136 0
-12 60 -150 0
-79 81 -84 0
52 53 -76 0
5 91 121 0
13 -50 -167 0
-35 -71 -108 0
-21 44 58 0
-47 -61 -69 0
30 -135 170 0
58 71 -171 0
20 113 136 0
-73 -151 154 0
43 49 -73 0
8 48 -141 0
-1 99 150 0
-17 -143 -166 0
9 75 133 0
-61 -112 156 0
67 -126 -140 0
10 -52 153 0
39 -84 -156 0
68 114 129 0
46 146 164 0
-11 -80 -109 0
23 -131 -167 0
-41 64 -128 0
94 106 120 0
35 -126 154 0
1 62 -105 0
-77 121 143 0
-59 -157 175 0
-62 108 142 0
80 87 94 0
104 -150 167 0
-55 -101 119 0
56 89 108 0
53 -103 -123 0
115 -121 126 0
99 108 -139 0
71 93 -159 0
101 -132 146 0
-15 40 93 0
-6 -31 83 0
66 -84 -98 0
62 126 156 0
33 132 -153 0
106 -109 -123 0
97 116 -171 0
104 -116 -137 0
-27 -58 75 0
-7 11 -36 0
18 -170 172 0
-61 96 -162 0
31 -101 -127 0
-73 85 128 0
52 -104 122 0
-24 88 -134 0
-66 142 -150 0
-17 -31 94 0
-97 -127 -150 0
7 -19 -65 0
-77 96 -145 0
-88 99 158 0
-13 -20 161 0
-18 -71 -119 0
-10 -35 -175 0
6 93 -122 0
59 67 175 0
1 -101 140 0
-86 -144 160 0
-5 54 81 0
-41 -42 -86 0
-74 94 107 0
46 84 93 0
-27 -29 80 0
-42 106 -160 0
-65 -102 -130 0
84 -95 175 0
-34 145 -146 0
-33 -42 52 0
-4 48 -167 0
-65 -70 108 0
13 31 -41 0
-31 -92 138 0
-44 124 -139 0
73 -113 -167 0
37 -100 148 0
-28 -45 -114 0
31 -39 83 0
-71 -103 161 0
-21 -52 124 0
-2 17 39 0
47 87 -124 0
-9 -107 124 0
-56 -141 158 0
64 75 114 0
31 -44 -138 0
7 -80 143 0
17 -54 94 0
79 -103 -127 0
65 105 160 0
-59 -83 -100 0
-116 -161 -164 0
18 -83 -168 0
13 -47 55 0
28 46 -89 0
47 90 -111 0
14 -104 129 0
6 45 -83 0
-57 -111 122 0
-18 -70 174 0
3 -92 135 0
-55 -89 158 0
-32 -112 -117 0
59 97 -129 0
73 115 -152 0
-39 -120 -138 0
-49 121 142 0
29 60 126 0
-27 65 131 0
-10 -65 88 0
4 -110 -138 0
19 -62 -165 0
19 62 128 0
-26 46 -94 0
-31 57 -74 0
-8 -158 175 0
-23 53 -167 0
-4 -87 97 0
33 -47 54 0
-30 -34 -72 0
3 51 -79 0
52 80 -105 0
-96 -109 -157 0
32 -35 -130 0
61 -127 149 0
-21 74 -174 0
51 -100 106 0
-86 -94 -108 0
4 75 -170 0
-34 -96 -152 0
27 72 -88 0
23 -54 94 0
89 152 -172 0
-19 -44 -93 0
156 167 172 0
59 102 111 0
103 119 -168 0
-37 95 132 0
-1 -43 167 0
40 -111 -120 0
-7 28 90 0
78 130 145 0
-23 -34 -170 0
-63 -64 152 0
56 116 -151 0
27 36 129 0
105 -157 159 0
-29 40 -59 0
-8 136 -159 0
77 -140 -165 0
-21 55 -77 0
53 85 -126 0
-69 77 -161 0
-22 -110 -123 0
30 -86 116 0
-42 -98 136 0
26 -96 -173 0
-59 124 -134 0
27 -105 152 0
-94 95 154 0
48 -81 128 0
-24 -55 -65 0
23 74 -103 0
58 -65 85 0
-40 74 -165 0
13 102 -160 0
6 158 -164 0
86 108 174 0
-36 -97 113 0
19 -82 114 0
31 80 102 0
83 107 138 0
71 -105 -121 0
-52 -127 -173 0
27 -124 131 0
-4 -42 -89 0
-116 -148 151 0
84 -102 124 0
-67 90 -162 0
17 66 -97 0
17 -144 -159 0
31 100 125 0
79 129 -174 0
-41 -142 -146 0
-39 92 115 0
-40 52 56 0
-44 -49 -150 0
-28 75 156 0
-6 -45 -92 0
-34 -65 144 0
-8 70 -73 0
34 41 -140 0
-14 79 -110 0
89 -95 -116 0
20 60 -141 0
1 27 -145 0
37 80 91 0
8 106 -147 0
48 -135 -174 0
27 -51 107 0
8 21 -125 0
-57 66 86 0
-6 -110 156 0
23 41 133 0
-7 77 78 0
48 134 -155 0
18 -56 -102 0
-57 86 89 0
-13 -68 -150 0
-61 117 167 0
-39 -55 65 0
-48 -61 86 0
48 -60 -80 0
9 53 173 0
63 114 -129 0
-36 95 143 0
35 -100 108 0
74 -98 144 0
-9 14 -128 0
18 37 -41 0
58 82 88 0
11 50 82 0
-95 117 -172 0
-19 38 48 0
47 -79 -83 0
24 68 135 0
20 80 -174 0
-27 -146 -164 0
-90 126 155 0
38 -121 -174 0
14 73 140 0
6 55 -103 0
128 -157 168 0
4 -47 88 0
-67 -87 -159 0
-43 82 -160 0
-110 -139 -151 0
60 -126 -174 0
-44 61 -81 0
25 -73 -164 0
-29 128 -144 0
-69 103 128 0
-82 128 164 0
-7 72 138 0
-13 61 -72 0
50 -130 -163 0
-15 -19 143 0
-75 81 171 0
77 115 -171 0
-31 -46 77 0
-6 -12 -132 0
17 165 -171 0
-74 80 -100 0
33 -160 -167 0
-1 -101 -146 0
58 91 99 0
59 60 -128 0
70 81 -120 0
14 -27 -85 0
15 -86 119 0
17 125 134 0
-64 122 -135 0
-62 84 -112 0
-14 76 -91 0
21 -61 -122 0
-107 -122 162 0
23 49 136 0
-48 -70 142 0
-15 16 -117 0
15 50 -65 0
113 -119 -158 0
63 -104 147 0
23 33 -145 0
5 -99 -104 0
28 -54 -159 0
-31 86 164 0
-106 131 -148 0
-9 24 -69 0
-53 -112 -170 0
-6 -55 160 0
-117 -122 -161 0
-20 59 -172 0
-55 112 168 0
-88 139 -151 0
67 -89 110 0
-51 77 -102 0
-14 56 -150 0
-94 -123 -149 0
7 -41 140 0
-71 -88 146 0
-127 -161 -170 0
26 -38 -174 0
113 -136 -143 0
14 -20 111 0
-56 94 -98 0
132 -138 -149 0
-39 104 169 0
7 31 46 0
6 68 -126 0
-55 -85 -160 0
56 -81 -122 0
92 130 -156 0
-39 -88 166 0
47 -152 -174 0
-56 90 -155 0
-16 59 94 0
140 150 -175 0
-12 -91 152 0
6 -27 107 0
-40 171 -174 0
57 -74 144 0
-1 -64 -93 0
-4 -5 94 0
29 45 -69 0
-49 -132 174 0
-93 -100 -106 0
136 -137 148 0
76 78 -101 0
-49 -74 -134 0
24 102 117 0
-29 -64 -137 0
-10 75 133 0
4 -38 -100 0
15 140 -152 0
63 -128 -173 0
148 158 162 0
55 155 -169 0
46 86 -144 0
43 -49 58 0
36 52 -163 0
67 -83 166 0
-2 -12 -158 0
-48 -100 166 0
-62 72 152 0
17 -48 -65 0
-31 -163 -171 0
-2 -16 106 0
13 65 -136 0
-96 -143 156 0
152 156 165 0
128 -165 169 0
11 20 125 0
-58 -99 120 0
14 90 -94 0
10 42 -158 0
12 -23 38 0
-29 59 152 0
29 112 116 0
-19 -44 138 0
97 -131 146 0
11 79 -122 0
-3 -109 -151 0
-34 -42 171 0
-11 -68 -168 0
26 -63 -165 0
29 -65 -143 0
-152 155 -174 0
70 -147 -168 0
24 128 -145 0
72 -149 -161 0
50 -69 115 0
94 -130 156 0
-98 143 156 0
-1 -85 161 0
-17 60 -111 0
-108 -122 -173 0
62 81 119 0
42 -154 -158 0
-47 50 -140 0
-10 -26 -36 0
96 117 141 0
26 59 122 0
42 90 -137 0
-31 -96 172 0
-14 -139 -174 0
-74 109 163 0
-68 113 -122 0
-16 -34 138 0
-19 -75 -117 0
-102 -124 175 0
12 31 -103 0
39 109 146 0
-76 -114 -167 0
1 -3 55 0
34 35 42 0
55 86 -115 0
-13 37 86 0
-10 -142 -167 0
12 -53 -155 0
78 79 -107 0
41 -118 159 0
11 107 -130 0
-44 64 -142 0
-63 87 -173 0
17 31 131 0
-63 -108 128 0
20 46 95 0
-24 -130 154 0
-96 106 -166 0
-91 120 -144 0
99 -165 -175 0
26 -81 -146 0
30 -37 -163 0
-18 -25 58 0
-72 -75 109 0
-54 -146 164 0
4 31 108 0
-62 -117 -120 0
-9 -108 -133 0
35 93 -160 0
24 46 162 0
-41 -106 -158 0
21 -76 117 0
31 -81 -172 0
13 -24 38 0
36 -113 -120 0
27 -86 -108 0
-18 -24 55 0
85 -106 -134 0
-11 16 66 0
-51 146 153 0
98 -161 -167 0
46 127 -150 0
43 60 -110 0
24 -33 -91 0
-7 -112 -117 0
84 130 146 0
-100 135 145 0
-58 109 172 0
58 -82 95 0
-16 -152 159 0
27 -48 88 0
22 -48 -52 0
24 -78 -121 0
23 -91 121 0
77 88 -154 0
-32 -52 -58 0
-20 151 175 0
9 -107 -131 0
75 -103 108 0
-63 -104 106 0
-14 -17 -128 0
-75 -103 140 0
-12 -117 -173 0
24 70 -160 0
30 41 -77 0
-6 8 -153 0
42 -135 138 0
-103 143 -168 0
-70 99 -129 0
119 137 -149 0
2 -34 97 0
-29 -126 163 0
-58 85 -97 0
16 119 -151 0
64 87 -123 0
32 -115 119 0
-47 -86 -99 0
35 80 153 0
-51 -118 -165 0
5 80 168 0
11 61 169 0
21 -68 -141 0
-33 -121 -149 0
-35 38 164 0
-10 -30 58 0
12 -16 101 0
115 -150 -173 0
16 -95 -164 0
-39 -53 119 0
1 41 102 0
57 107 152 0
-45 79 -158 0
19 90 -164 0
-19 -125 156 0
154 -155 -158 0
-2 -16 -166 0
9 -51 -152 0
-3 84 -142 0
17 -71 -81 0
-24 -32 154 0
-51 87 -160 0
-4 -78 -135 0
-126 -135 157 0
73 -90 -105 0
15 34 89 0
-28 -146 160 0
-81 99 -131 0
18 -99 172 0
-44 -56 -78 0
-54 -144 171 0
-20 149 154 0
58 135 150 0
115 -127 -128 0
11 -135 167 0
-46 85 -107 0
-71 -132 -135 0
22 94 102 0
-24 26 -151 0
-13 -42 -157 0
22 60 70 0
-8 -41 -127 0
79 -81 141 0
8 92 119 0
52 -60 83 0
28 -128 129 0
18 -56 95 0
-1 22 91 0
62 111 -158 0
15 -77 137 0
32 -68 -113 0
-1 140 -142 0
37 58 -125 0
58 -73 -142 0
13 -31 -136 0
-17 44 61 0
33 -63 -121 0
30 107 -165 0
-7 35 -153 0
-37 103 116 0
126 -170 175 0
52 -82 -89 0
-35 -113 -122 0
-50 70 75 0
137 -143 -146 0
21 107 -123 0
113 118 -130 0
38 118 175 0
-21 131 168 0
20 -28 157 0
71 150 158 0
25 89 -111 0
