c F1 random 3-CNF cnfgen RandomKCNF(3,250,1065,seed=5) m/n=4.26
p cnf 250 1065
-66 160 -190 0
64 199 242 0
96 -121 223 0
4 -64 -147 0
-47 223 235 0
36 114 159 0
2 224 249 0
-43 75 224 0
47 -241 -248 0
6 93 -107 0
17 -78 85 0
-80 -91 -210 0
48 121 -124 0
-6 -241 250 0
-108 -141 202 0
12 116 182 0
-63 -194 -238 0
-65 135 -229 0
-10 76 221 0
-88 132 -157 0
71 -180 -237 0
46 79 -205 0
42 124 -185 0
-9 -61 -190 0
38 108 -167 0
54 86 -215 0
-28 44 112 0
76 -108 217 0
-117 -134 -250 0
-71 75 121 0
97 -137 -211 0
-23 -47 126 0
-199 202 -204 0
-94 -144 -181 0
-177 -184 198 0
-3 -149 -219 0
-71 -119 -172 0
-71 -89 165 0
-177 -222 -223 0
37 133 -136 0
-123 219 -240 0
-44 -158 -200 0
8 -51 185 0
57 176 -195 0
14 43 -58 0
47 124 -248 0
90 98 120 0
96 -184 -232 0
-72 220 -244 0
-10 141 -247 0
-87 -132 140 0
-105 -108 209 0
-41 98 153 0
24 -90 156 0
84 -145 -235 0
-58 -110 -111 0
-98 182 -249 0
-78 -128 190 0
-79 -82 242 0
-7 32 -123 0
-11 35 -201 0
71 -137 144 0
63 -69 -126 0
122 127 156 0
-73 -77 137 0
90 93 119 0
65 117 142 0
-110 -200 -207 0
101 -122 -175 0
-17 195 -213 0
-74 -150 166 0
-43 -123 178 0
109 139 150 0
22 69 -210 0
-18 -110 185 0
32 57 -216 0
113 181 236 0
42 106 206 0
-28 143 -170 0
15 -147 148 0
-3 -24 -111 0
-91 168 241 0
-39 76 -179 0
-17 -61 142 0
-61 -207 -222 0
34 -46 183 0
10 147 -171 0
-62 -100 -225 0
28 -136 204 0
-39 218 242 0
-22 234 250 0
-97 160 -180 0
-86 -158 -239 0
-35 -186 -213 0
93 219 247 0
17 25 102 0
-11 -51 -52 0
-1 -110 -121 0
26 119 120 0
-19 -96 223 0
-29 66 -142 0
-9 61 -173 0
-95 193 237 0
117 121 -173 0
75 117 173 0
7 52 -183 0
-181 -234 250 0
73 -93 120 0
45 62 -199 0
70 -186 250 0
-116 175 200 0
-9 141 214 0
-61 206 -231 0
14 -63 -175 0
-13 -16 -201 0
14 79 164 0
-131 164 179 0
22 81 238 0
20 154 -220 0
-92 -125 139 0
-4 -186 234 0
-30 -36 142 0
-68 -198 200 0
-21 34 138 0
110 -205 248 0
64 127 -180 0
96 226 -227 0
81 -98 197 0
8 114 148 0
69 -110 180 0
17 79 -83 0
-83 128 174 0
139 190 196 0
-13 -34 -249 0
5 -157 244 0
-52 85 93 0
150 159 -212 0
44 -136 -156 0
-31 -110 -204 0
-59 119 -235 0
13 -172 -197 0
1 -27 153 0
1 -9 -54 0
56 -101 119 0
-78 133 -144 0
64 -91 -208 0
37 -90 -213 0
-10 25 -44 0
-52 -231 -236 0
137 160 -221 0
3 -27 177 0
-7 -82 -174 0
-140 -177 181 0
-38 -138 205 0
134 -174 -198 0
-7 -20 -23 0
-4 238 248 0
-10 -23 193 0
24 124 -133 0
-140 -202 250 0
97 100 -172 0
-28 83 99 0
-55 76 79 0
20 106 162 0
-145 -146 161 0
109 -124 -136 0
-22 72 -155 0
-8 30 -39 0
49 -84 153 0
16 125 -244 0
-49 120 -218 0
1 26 216 0
-24 39 -86 0
83 189 -209 0
17 27 -209 0
45 96 -118 0
-120 140 242 0
96 153 -247 0
88 -98 -247 0
-5 -30 208 0
88 -98 -236 0
165 179 -197 0
87 -105 242 0
-57 61 108 0
-25 -70 248 0
99 139 -217 0
34 92 208 0
5 -93 -208 0
99 223 245 0
-50 206 -250 0
-22 -133 245 0
-14 41 101 0
-7 -108 -198 0
4 -194 209 0
-49 78 -200 0
56 -101 108 0
74 94 121 0
20 -118 195 0
105 227 230 0
-127 -192 213 0
-20 61 120 0
48 -110 208 0
-96 168 193 0
76 -133 230 0
-28 -103 -165 0
-123 141 233 0
5 -68 140 0
61 124 171 0
55 108 -198 0
15 129 -206 0
89 -199 -227 0
27 -116 -168 0
-150 -183 -240 0
43 -152 217 0
-55 136 -189 0
-96 142 -210 0
17 90 -127 0
11 16 -190 0
-37 -96 -227 0
37 -124 -201 0
-7 -161 213 0
-63 -161 203 0
36 -145 153 0
-3 12 117 0
-31 -106 151 0
138 179 243 0
-11 -18 184 0
-165 175 -245 0
-67 -79 -194 0
-1 -195 -225 0
40 -98 -168 0
-53 157 243 0
-21 -91 -164 0
-36 45 -51 0
89 147 -240 0
69 127 145 0
-108 -142 -201 0
-28 -51 -158 0
-133 -217 228 0
30 -209 245 0
-27 162 223 0
-140 199 -249 0
67 -186 -197 0
25 -80 -226 0
105 106 -223 0
11 -18 47 0
19 -107 119 0
-139 145 -241 0
93 -239 -243 0
27 44 197 0
-22 -168 170 0
-70 -79 142 0
54 -132 226 0
50 84 -236 0
-14 -220 -241 0
-142 -205 235 0
-66 -161 -191 0
155 182 195 0
118 -178 244 0
35 -43 -64 0
119 -159 220 0
-77 -149 227 0
139 143 185 0
-87 -148 -152 0
-15 86 -155 0
76 -95 107 0
187 194 -244 0
-41 -80 -242 0
-152 -211 -215 0
158 177 -183 0
-1 -138 -167 0
12 -59 138 0
44 52 -189 0
-27 99 -167 0
3 53 -236 0
79 112 -150 0
-142 143 -153 0
1 -136 216 0
4 49 119 0
-113 -118 -228 0
-7 20 134 0
114 167 -227 0
-26 52 137 0
1 -57 102 0
-49 -77 187 0
-30 198 245 0
-34 104 -231 0
-7 71 -246 0
24 -196 -223 0
-169 211 231 0
65 84 150 0
-25 -94 163 0
47 74 -161 0
27 -191 -243 0
186 -227 237 0
-2 -15 -95 0
-116 -147 206 0
-101 110 144 0
28 -76 123 0
-22 168 171 0
84 -105 -187 0
197 -200 220 0
133 228 238 0
-125 132 -226 0
-39 -78 109 0
133 -173 249 0
-19 -78 -152 0
-25 41 -89 0
54 -92 -223 0
-26 -213 221 0
116 176 -248 0
-68 80 -118 0
-51 -106 169 0
-17 34 -113 0
94 108 202 0
-37 115 188 0
151 180 194 0
-75 -76 161 0
-9 111 -117 0
-131 -136 -178 0
-10 -46 -217 0
23 -160 -218 0
-95 201 -236 0
-103 116 220 0
-187 -192 -205 0
45 -47 -106 0
50 -66 -159 0
31 74 97 0
-63 104 169 0
79 -142 -200 0
42 89 157 0
-9 70 128 0
-58 85 -236 0
5 9 117 0
31 80 178 0
-190 -198 -230 0
-44 -106 199 0
-45 62 -101 0
60 121 -218 0
-25 -147 171 0
-1 67 177 0
21 -190 -237 0
-62 158 246 0
-83 -152 -243 0
-56 -69 163 0
3 152 176 0
23 78 145 0
99 -166 171 0
53 195 -236 0
-57 -113 224 0
-48 151 -153 0
122 -146 242 0
43 -144 -155 0
-72 121 215 0
115 141 144 0
-47 128 234 0
-42 -70 -184 0
-21 91 164 0
-6 -59 -155 0
-18 -66 -207 0
-39 104 -171 0
12 -154 -157 0
-45 -129 176 0
99 182 -237 0
-59 -107 194 0
-120 -196 -208 0
62 -146 162 0
22 -38 -245 0
139 167 203 0
125 158 179 0
-17 -195 213 0
31 -194 -243 0
-134 137 171 0
-127 132 -218 0
3 11 -128 0
72 77 -249 0
-18 -146 171 0
67 -85 -107 0
1 31 -81 0
-61 74 -197 0
-27 -144 162 0
-135 137 162 0
171 202 -222 0
38 -77 -197 0
-12 -48 -243 0
-1 30 67 0
-2 79 81 0
-94 -142 247 0
110 -112 -247 0
-80 190 -243 0
20 -134 200 0
-27 61 -150 0
52 94 134 0
-31 104 -159 0
-60 -87 -144 0
-54 -59 -219 0
-18 -22 69 0
120 172 228 0
60 109 -133 0
-17 61 176 0
-115 230 -242 0
-42 -222 243 0
77 -120 -227 0
93 172 -237 0
-96 168 -169 0
89 96 -202 0
-96 -106 -133 0
57 215 -243 0
12 -25 -226 0
-30 172 -185 0
29 -57 -102 0
59 -90 -244 0
-72 -201 -215 0
44 -60 -227 0
-23 -57 -164 0
-23 -38 78 0
-51 -122 -243 0
160 165 239 0
41 -107 -194 0
7 -198 -217 0
174 176 228 0
-149 -165 177 0
102 157 -182 0
-74 -102 -159 0
-9 -81 -85 0
144 -156 199 0
22 -28 205 0
-35 -93 219 0
-96 -121 154 0
135 217 -245 0
34 -188 -232 0
33 161 -209 0
29 34 -115 0
20 70 179 0
151 -155 -171 0
29 -59 -78 0
-155 167 233 0
-105 161 221 0
-10 100 -193 0
-118 -151 -176 0
-59 -84 -209 0
31 185 228 0
-172 185 -207 0
-84 171 -230 0
20 70 100 0
19 173 218 0
-229 -236 -244 0
-63 98 154 0
-22 -170 232 0
-106 188 -232 0
33 152 245 0
51 113 -162 0
-66 -127 201 0
-20 116 144 0
148 203 -227 0
-25 30 211 0
119 156 -220 0
11 30 -90 0
-57 -70 82 0
50 61 240 0
-100 152 -187 0
123 153 239 0
-5 140 192 0
-99 224 -235 0
-28 -138 177 0
-93 167 -214 0
43 -126 186 0
-43 -175 249 0
-30 233 250 0
-33 -66 134 0
113 -220 243 0
45 -119 -139 0
-52 164 227 0
69 -88 107 0
-2 -150 227 0
-88 -202 -203 0
142 -197 -241 0
-55 -212 242 0
-19 -93 -233 0
51 -66 143 0
37 67 249 0
43 96 -159 0
-149 -186 188 0
-73 -98 101 0
162 205 248 0
95 148 -250 0
-42 -97 -118 0
-35 72 -156 0
42 -101 171 0
-143 144 226 0
128 139 -168 0
-17 -128 215 0
-62 162 -237 0
-26 -41 -121 0
-39 138 228 0
47 233 -237 0
-109 126 164 0
106 135 246 0
96 190 -202 0
-54 218 240 0
66 114 -163 0
86 167 237 0
-184 201 -217 0
20 -118 128 0
38 203 240 0
-67 110 175 0
-196 -220 -239 0
-18 -102 -218 0
3 63 -121 0
89 -228 -236 0
-22 58 -120 0
101 112 -205 0
83 148 -206 0
-20 -136 -173 0
-37 -68 -137 0
-146 158 175 0
-35 -97 200 0
4 81 -85 0
-62 -107 199 0
-63 79 146 0
102 168 -173 0
110 170 -235 0
-151 195 -211 0
54 -178 -214 0
-39 -133 216 0
-44 -73 242 0
7 45 223 0
-11 -87 -153 0
-93 -132 152 0
72 208 244 0
-98 201 206 0
38 146 -211 0
-36 -192 -198 0
16 114 -219 0
-33 228 242 0
113 181 -187 0
128 129 203 0
220 -238 245 0
-84 138 230 0
-47 -165 -226 0
-15 -69 -162 0
165 228 232 0
51 -60 -185 0
41 53 -220 0
-48 104 -214 0
32 -46 -166 0
42 107 -169 0
64 69 105 0
154 175 -246 0
-54 101 112 0
-116 165 -210 0
-71 -180 191 0
-15 -137 -232 0
24 -30 -185 0
56 75 -237 0
49 -61 129 0
6 -21 -250 0
31 -77 -108 0
15 139 -160 0
96 -183 -212 0
-81 157 243 0
89 -208 222 0
-51 -160 -221 0
-116 -123 -159 0
-73 131 -208 0
-55 207 -242 0
-9 -78 -164 0
-117 -153 -163 0
-76 143 -181 0
95 127 169 0
-72 118 -163 0
29 -39 51 0
82 -83 -187 0
-54 61 176 0
-136 -142 -174 0
-11 147 218 0
123 -163 -240 0
186 209 -215 0
43 -136 236 0
-133 216 -242 0
205 207 236 0
9 -43 -121 0
32 88 -148 0
46 -50 -236 0
-48 118 248 0
110 -171 -214 0
-21 -49 -128 0
-65 81 133 0
-29 140 151 0
30 148 -159 0
198 -211 228 0
-8 -68 -145 0
-67 136 183 0
-73 -142 -232 0
8 -179 230 0
-47 -96 -240 0
102 -195 200 0
18 100 -120 0
99 -222 -229 0
20 165 -215 0
-89 93 227 0
50 74 -94 0
-18 -45 198 0
15 21 -94 0
22 35 -249 0
58 115 210 0
65 -119 196 0
151 153 202 0
184 220 -247 0
-194 229 -237 0
-47 -62 -178 0
-40 -140 -205 0
158 187 221 0
62 -202 229 0
12 47 -77 0
10 80 229 0
103 -216 -245 0
27 -129 142 0
75 135 206 0
72 -159 -219 0
-81 121 -225 0
63 123 -179 0
-32 42 215 0
-146 -177 -218 0
-37 -48 95 0
-14 146 -193 0
-10 -45 -231 0
112 -115 151 0
39 47 -242 0
80 -215 216 0
106 200 216 0
27 60 -81 0
7 -145 -175 0
6 12 -184 0
-2 -32 46 0
-13 -85 235 0
-112 225 -242 0
44 49 -144 0
-76 -102 -151 0
87 -186 216 0
-53 -62 120 0
13 -157 189 0
-155 201 -226 0
99 163 197 0
-77 83 235 0
115 -162 223 0
49 -56 -187 0
87 142 -206 0
34 -70 130 0
-129 -146 -199 0
-85 194 -250 0
81 -159 186 0
-22 185 -224 0
-8 -32 36 0
3 127 -229 0
-29 -178 -203 0
-24 142 202 0
117 -162 229 0
-3 -46 120 0
8 -51 158 0
56 160 -171 0
4 77 246 0
28 -226 -235 0
61 177 -179 0
-155 157 -169 0
-105 186 218 0
85 219 -226 0
29 89 -146 0
168 175 -192 0
66 -183 214 0
-10 -157 -203 0
-212 -216 -223 0
3 -131 237 0
-96 133 -149 0
77 -187 -225 0
-184 201 -234 0
135 178 -202 0
-86 -158 -209 0
143 182 -211 0
-110 214 221 0
-19 76 171 0
92 -122 170 0
-52 128 -182 0
61 91 241 0
-24 40 -108 0
-89 158 165 0
30 -51 243 0
115 -116 217 0
182 -187 206 0
-23 49 125 0
-22 201 -245 0
-11 -138 222 0
-31 -66 228 0
-15 155 244 0
-67 203 -221 0
29 132 -144 0
-69 147 -208 0
-26 201 225 0
37 -176 185 0
66 -94 220 0
-53 64 -159 0
29 48 -177 0
-10 -170 250 0
-56 65 -131 0
-85 -200 246 0
-168 216 -224 0
37 71 136 0
-62 -76 113 0
-83 -151 -215 0
-28 62 192 0
31 -111 -154 0
35 86 -114 0
-102 158 -250 0
94 -139 246 0
-85 -133 156 0
61 87 160 0
98 -164 -225 0
25 -114 -123 0
-46 130 151 0
-111 167 250 0
-43 152 237 0
-8 -137 -229 0
150 -161 225 0
55 -188 -242 0
-8 38 138 0
35 67 193 0
24 -165 -173 0
164 -190 -225 0
-7 106 182 0
-29 -166 233 0
-46 -95 -202 0
30 -103 -161 0
134 171 192 0
50 67 164 0
28 -53 236 0
42 73 -144 0
6 27 78 0
-8 -66 186 0
-95 -133 -173 0
63 194 245 0
36 54 145 0
-100 173 228 0
-28 -87 -185 0
11 -211 229 0
-72 79 211 0
-68 139 -247 0
49 62 201 0
-113 -145 226 0
-85 130 215 0
-35 -137 -171 0
40 140 158 0
45 84 131 0
40 122 231 0
169 185 233 0
-38 -62 -200 0
-4 46 147 0
21 -75 -239 0
3 135 173 0
-27 -60 -165 0
-140 -179 232 0
-35 -74 240 0
-27 133 -208 0
-21 27 -150 0
118 188 192 0
-7 226 -249 0
74 174 233 0
28 30 -44 0
112 -113 157 0
57 -65 132 0
44 74 222 0
-36 -217 -239 0
12 19 203 0
-31 -56 -106 0
-14 59 241 0
161 187 192 0
-11 165 193 0
110 207 246 0
-29 100 -169 0
-137 146 -147 0
-22 156 -180 0
51 -98 -171 0
-22 -78 -166 0
33 -178 -198 0
8 159 -240 0
-89 157 -175 0
118 -203 -214 0
-11 -134 -233 0
5 -116 130 0
-44 161 207 0
77 185 -247 0
38 170 222 0
-75 155 -160 0
53 197 215 0
-57 -111 -228 0
-81 219 248 0
44 184 220 0
15 -60 112 0
80 165 -215 0
-22 29 -134 0
-111 -141 -189 0
163 -174 230 0
45 190 -229 0
113 128 -154 0
-24 92 183 0
22 -144 199 0
22 148 -234 0
32 123 136 0
-48 -160 218 0
20 -153 234 0
33 -81 -211 0
-94 -135 164 0
-55 -108 -192 0
-88 -157 169 0
65 -115 250 0
-95 130 165 0
117 -157 -240 0
67 170 -197 0
191 -226 -241 0
-44 62 -89 0
-71 98 152 0
70 161 -201 0
21 29 -198 0
61 120 249 0
-42 -81 133 0
77 -141 -214 0
-41 -50 -118 0
85 144 -235 0
-82 -153 -233 0
53 -143 -176 0
-27 -113 -171 0
-20 -43 185 0
14 177 -229 0
-90 -106 -222 0
-19 41 114 0
1 -162 216 0
-116 226 247 0
87 93 215 0
-69 -88 198 0
-144 -186 -207 0
20 -134 178 0
-8 178 -193 0
135 195 234 0
24 -139 234 0
-103 146 -227 0
39 88 -175 0
-50 61 -220 0
171 -182 227 0
-4 32 -114 0
-96 162 -203 0
15 -83 -85 0
43 109 -239 0
19 29 -65 0
-127 -153 -203 0
18 51 -192 0
-8 -82 232 0
-2 -130 190 0
2 -44 -93 0
4 74 152 0
-47 88 -181 0
-24 -32 143 0
-128 -183 -224 0
7 190 -210 0
-23 77 186 0
-42 -190 -225 0
-126 -208 -225 0
-163 -200 238 0
147 -167 -171 0
38 52 76 0
33 -129 180 0
75 122 231 0
-108 -180 192 0
98 156 -231 0
-95 156 -191 0
-74 -80 -169 0
-54 -97 186 0
19 121 154 0
-20 153 -239 0
65 151 -157 0
-35 63 183 0
-26 49 -126 0
-189 215 -221 0
-115 183 -205 0
78 -221 236 0
-70 226 -231 0
-1 -2 -230 0
-4 -162 -182 0
-7 40 52 0
-186 -195 -198 0
53 60 -75 0
-133 208 237 0
-27 -91 -120 0
-40 -105 117 0
35 129 191 0
-30 100 239 0
-82 -134 -194 0
95 -136 213 0
-16 -19 128 0
78 93 -215 0
-117 -170 187 0
-30 -203 213 0
10 56 224 0
43 174 205 0
17 -145 191 0
78 -95 122 0
9 43 -73 0
-21 -131 186 0
-45 141 -238 0
-5 -70 -126 0
-40 -219 -233 0
73 94 111 0
21 137 -234 0
12 -14 -141 0
6 233 239 0
213 -217 222 0
8 -13 163 0
40 -93 108 0
36 -49 -166 0
31 48 -210 0
11 62 172 0
6 -102 136 0
-77 -111 209 0
-22 190 212 0
-33 197 214 0
1 2 211 0
-36 -105 236 0
54 118 208 0
-36 -113 190 0
-6 40 -183 0
-46 164 214 0
-11 -44 -242 0
-33 150 -247 0
-5 -118 199 0
43 -138 -185 0
-83 -88 195 0
-9 -109 -232 0
-23 162 236 0
-163 186 -189 0
17 191 195 0
187 -200 235 0
-79 125 -226 0
27 35 -139 0
-55 68 146 0
136 -147 -224 0
105 -169 214 0
147 -180 245 0
-113 -130 172 0
-51 83 -229 0
-6 63 -154 0
-37 -38 -134 0
-69 110 -192 0
8 32 140 0
-90 -183 -219 0
-84 91 -194 0
129 -177 -199 0
119 145 -162 0
15 -57 -101 0
68 82 -213 0
-79 139 198 0
-30 67 112 0
-69 -163 -226 0
131 -153 247 0
-6 -7 14 0
80 84 199 0
52 -190 191 0
-90 160 -198 0
123 -161 235 0
15 -101 -115 0
96 103 -239 0
64 -162 -184 0
-18 68 -173 0
53 -67 -204 0
150 220 227 0
51 59 182 0
110 135 204 0
-34 93 95 0
-36 187 -198 0
-110 -172 231 0
31 -88 89 0
-16 76 -167 0
-87 -92 160 0
59 -123 -157 0
-106 -189 -230 0
-61 -135 -249 0
128 144 200 0
-64 129 -192 0
118 152 -164 0
-63 -162 -184 0
-13 -77 243 0
25 148 163 0
12 103 155 0
91 -168 -172 0
-13 -67 -196 0
-10 145 249 0
53 -185 -248 0
-7 130 -224 0
-3 45 196 0
80 -152 -204 0
-59 -71 -246 0
164 180 239 0
-176 -225 233 0
-46 -101 172 0
-15 -93 -197 0
124 -142 196 0
44 -51 -183 0
-9 -157 -239 0
-12 49 -60 0
-78 138 230 0
9 -131 154 0
-104 144 -202 0
-60 174 224 0
55 60 -232 0
-30 45 107 0
-67 -93 -137 0
-58 69 -227 0
107 -139 224 0
66 -71 250 0
-8 92 -140 0
-9 -153 173 0
20 -113 202 0
-102 106 113 0
-34 -184 223 0
-52 64 -122 0
-7 -86 -156 0
-28 -30 -46 0
62 169 -237 0
15 93 -187 0
-78 242 248 0
51 197 203 0
-84 -87 169 0
-107 -180 -249 0
3 173 232 0
-5 -17 71 0
-113 -125 -212 0
-192 237 244 0
-139 -157 240 0
-13 -33 -51 0
141 -176 213 0
153 -156 240 0
-70 84 189 0
-14 -20 109 0
19 -102 157 0
-8 212 -242 0
88 139 -237 0
55 120 -167 0
81 189 214 0
-66 -79 117 0
-50 -226 -238 0
18 92 -105 0
-62 -130 220 0
93 144 -223 0
14 -214 250 0
21 -31 -32 0
34 -80 229 0
29 115 -216 0
25 -72 135 0
5 -72 -147 0
64 75 -202 0
-47 -80 110 0
30 121 -124 0
50 -207 229 0
31 -61 135 0
-12 73 -149 0
-14 -141 -219 0
-27 -96 99 0
-47 -59 169 0
