c F1 random 3-CNF cnfgen RandomKCNF(3,100,426,seed=14) m/n=4.26
p cnf 100 426
14 -79 -90 0
-10 -38 -94 0
51 -88 100 0
-34 41 46 0
-71 85 86 0
-9 16 84 0
-27 -36 49 0
-15 83 88 0
63 -66 -96 0
-28 -63 80 0
-12 16 36 0
21 53 -95 0
-22 -62 -88 0
-56 59 -63 0
-31 -51 61 0
-19 -63 73 0
52 -55 -91 0
-34 46 61 0
-61 72 -81 0
-5 13 25 0
-37 -65 76 0
5 19 100 0
33 34 65 0
-43 -78 88 0
72 77 -95 0
-32 -50 -63 0
-5 -32 -79 0
12 14 34 0
-19 -28 -89 0
17 49 -70 0
-48 -70 91 0
12 29 57 0
-3 29 -86 0
-35 60 -61 0
8 83 -88 0
7 15 83 0
6 -40 87 0
-1 58 -60 0
-11 32 35 0
1 46 -93 0
-38 -49 58 0
-18 33 -37 0
-4 -9 -83 0
-33 55 77 0
49 -61 92 0
29 -31 98 0
12 32 59 0
-78 -87 -88 0
9 29 -96 0
-26 59 -89 0
-28 -61 -97 0
7 -40 69 0
36 40 61 0
-4 -67 -88 0
38 48 82 0
27 65 99 0
-40 -52 76 0
-32 -45 -72 0
-2 -6 15 0
15 -26 -39 0
-15 57 -77 0
78 98 99 0
-27 70 76 0
-17 47 81 0
12 96 99 0
-18 -61 -72 0
-9 66 -83 0
-22 35 -59 0
-6 58 69 0
26 49 -69 0
-22 -66 90 0
-9 -23 -97 0
-25 72 -90 0
-32 39 92 0
-16 84 90 0
-19 -27 28 0
-2 26 -30 0
-29 31 72 0
7 -24 -36 0
58 63 -99 0
-20 27 -59 0
-16 64 -82 0
-42 -55 -69 0
9 -69 84 0
-21 -25 -32 0
-50 64 -91 0
31 -74 91 0
66 -74 -78 0
-43 -59 -92 0
-34 -91 -96 0
-3 17 -24 0
63 84 -93 0
-3 7 18 0
23 50 -89 0
-6 17 42 0
3 14 93 0
20 -53 -72 0
-54 73 -78 0
3 -4 7 0
2 77 -80 0
3 -6 -42 0
-24 -32 -37 0
25 63 -87 0
30 35 62 0
-43 50 87 0
-56 -68 -76 0
44 70 -100 0
5 66 69 0
8 -10 -43 0
49 -74 -95 0
-16 -17 25 0
-16 39 -92 0
-35 -65 82 0
-6 78 -95 0
-15 49 -50 0
12 -38 83 0
-14 42 -63 0
-17 -38 -71 0
12 -62 -87 0
-1 -35 -98 0
41 88 92 0
35 77 -80 0
-26 -78 -91 0
13 -41 -53 0
15 -30 -54 0
-4 -73 -94 0
-56 -61 -96 0
-24 51 -60 0
-49 -53 94 0
6 37 62 0
3 5 99 0
-16 31 71 0
-5 -28 89 0
-4 -73 90 0
13 22 64 0
-41 62 97 0
-34 48 -63 0
-31 -38 98 0
-5 -25 57 0
3 -77 -91 0
62 83 93 0
48 54 -68 0
-38 -52 91 0
1 8 -50 0
5 32 -71 0
19 34 -60 0
14 -42 71 0
-21 -54 78 0
-38 67 -96 0
4 -9 94 0
-14 57 96 0
-20 75 100 0
-6 30 86 0
10 18 81 0
-23 -44 73 0
7 -24 73 0
-36 52 -94 0
41 -58 63 0
5 -68 -94 0
-4 27 -54 0
5 8 17 0
13 66 -97 0
-15 34 -81 0
80 -81 95 0
60 62 -84 0
1 14 15 0
7 -49 61 0
-21 51 -94 0
-22 -57 -85 0
-16 77 -83 0
8 -70 -74 0
42 -50 -66 0
2 38 -96 0
50 71 88 0
39 -69 89 0
-3 32 -85 0
-28 47 -63 0
20 67 -98 0
62 -77 97 0
-9 -22 -87 0
25 -33 -64 0
-29 46 75 0
-16 -28 97 0
15 -17 21 0
-48 -88 98 0
76 90 -94 0
-17 99 100 0
-49 -87 89 0
35 83 -100 0
-13 -17 34 0
-21 -60 80 0
5 -15 34 0
1 -40 -90 0
57 61 66 0
10 -36 78 0
-6 -9 69 0
39 51 88 0
-14 -69 97 0
29 -40 86 0
-30 35 -51 0
33 -39 91 0
-74 79 -100 0
94 -97 100 0
-6 -23 -60 0
15 37 46 0
-47 -73 91 0
85 -89 95 0
-2 19 -44 0
-54 -71 -95 0
-38 46 -63 0
25 48 -58 0
-58 -81 88 0
-25 38 -80 0
38 -85 -94 0
36 -61 99 0
-6 67 -96 0
-47 57 69 0
-29 -48 -63 0
22 -26 -69 0
-6 -14 27 0
57 65 78 0
-5 16 66 0
4 23 -30 0
10 19 72 0
8 74 99 0
26 51 65 0
9 -32 86 0
-10 18 -39 0
19 -50 -61 0
-47 -60 86 0
51 -68 99 0
-33 -76 90 0
-40 52 65 0
1 83 -100 0
-18 -64 66 0
-20 21 93 0
-22 -34 51 0
45 46 49 0
-41 47 100 0
-51 57 -64 0
35 -48 82 0
24 -48 -77 0
28 -35 62 0
6 -60 88 0
15 86 -89 0
25 -43 -52 0
12 13 71 0
6 -57 -86 0
-37 44 59 0
24 38 -60 0
-15 45 49 0
10 -80 -92 0
30 91 -97 0
15 -51 93 0
-25 -48 74 0
-2 -40 -56 0
-22 25 100 0
2 16 78 0
32 66 94 0
-29 59 -96 0
-32 -69 99 0
50 57 -82 0
9 -15 -26 0
-31 -42 58 0
-3 -63 -96 0
38 -53 -57 0
2 -25 78 0
-3 -28 -56 0
-37 49 -97 0
47 -64 -84 0
24 -34 47 0
-24 -79 -98 0
-29 33 92 0
11 61 82 0
15 36 47 0
13 -16 -46 0
-23 32 93 0
-24 66 -97 0
7 28 -91 0
-7 -13 -39 0
-31 62 77 0
-17 32 -77 0
66 68 74 0
52 67 68 0
-14 38 98 0
20 37 -94 0
38 44 -49 0
28 -72 81 0
17 64 97 0
24 -42 -49 0
-10 33 93 0
52 -55 69 0
-53 55 -88 0
-14 -87 -100 0
19 61 -92 0
17 -20 86 0
-11 18 -86 0
29 57 63 0
-46 58 64 0
-52 -53 98 0
25 27 -76 0
-28 71 72 0
16 -58 -90 0
-28 -31 33 0
-26 -38 -92 0
81 87 -96 0
-28 29 -36 0
39 -56 91 0
-24 25 -70 0
-9 12 -57 0
-46 -80 83 0
-20 39 71 0
-12 51 53 0
-68 -69 -79 0
13 24 -70 0
15 -33 -83 0
-17 18 -36 0
36 49 58 0
-38 59 89 0
-35 -56 -77 0
-42 60 -93 0
23 -43 57 0
7 -58 99 0
43 76 -84 0
-2 -38 96 0
-42 70 -85 0
-6 -13 -18 0
41 -51 -80 0
73 -75 -78 0
50 -68 -72 0
25 -28 66 0
27 -29 -94 0
-19 -48 75 0
-47 -50 76 0
-19 58 74 0
13 21 -76 0
-2 10 -92 0
1 24 65 0
-69 72 77 0
-48 -59 -86 0
-40 41 71 0
6 39 95 0
-10 28 -75 0
18 -44 71 0
-37 42 62 0
15 17 -99 0
83 87 99 0
35 -77 80 0
-59 -79 -96 0
70 -83 -85 0
-44 -46 83 0
-2 32 -68 0
-5 26 78 0
11 -79 -100 0
78 89 -92 0
-8 -21 97 0
20 -64 91 0
-49 -66 -83 0
14 53 94 0
26 -62 74 0
58 70 -89 0
6 -85 -100 0
9 -65 -72 0
5 -83 89 0
26 -36 64 0
16 -48 -63 0
-21 42 -58 0
24 29 97 0
-8 -19 63 0
11 -54 66 0
-5 -60 97 0
-12 -29 78 0
34 -38 67 0
32 -64 72 0
2 26 33 0
17 41 89 0
-9 -23 30 0
38 -64 -68 0
5 31 -60 0
-18 86 -91 0
14 -34 -56 0
-22 37 -41 0
-24 -39 64 0
23 -44 -84 0
-10 -67 -100 0
34 53 59 0
-61 -85 99 0
11 54 61 0
-28 33 74 0
23 -29 65 0
-4 30 -48 0
21 -32 81 0
-22 38 94 0
-27 -81 -85 0
-15 -34 67 0
40 -53 86 0
17 57 97 0
18 -47 91 0
-7 -46 -73 0
-18 -57 82 0
1 49 72 0
20 -31 -51 0
-18 -47 -51 0
-13 -37 -64 0
-2 -4 68 0
-19 -26 -39 0
24 27 80 0
-34 -41 97 0
-6 49 -76 0
1 29 -31 0
6 -24 -34 0
28 56 99 0
-3 -20 -41 0
43 -52 -90 0
-17 29 -51 0
-14 40 96 0
-16 -49 81 0
42 -63 -77 0
20 -44 75 0
-68 82 -95 0
-33 -47 -68 0
-16 -65 67 0
26 35 -39 0
-13 23 -71 0
4 -31 -75 0
-5 9 -78 0
