c F1 random 3-CNF cnfgen RandomKCNF(3,75,320,seed=6) m/n=4.26
p cnf 75 320
-11 63 74 0
-19 48 -61 0
26 53 -63 0
12 -43 -55 0
13 -33 57 0
-6 26 47 0
-32 -47 56 0
12 65 -68 0
-26 40 49 0
2 27 67 0
-40 -43 -72 0
17 38 -63 0
13 51 -57 0
-10 -49 -58 0
-11 -25 -53 0
3 -23 -69 0
-25 -33 -65 0
-53 -54 -63 0
-19 -49 -63 0
-21 -42 -47 0
-21 51 -63 0
4 -8 -24 0
8 -25 64 0
55 -63 68 0
13 47 -48 0
5 13 -19 0
4 9 60 0
34 58 64 0
-57 -58 62 0
-37 38 47 0
-36 -61 -65 0
5 11 32 0
5 44 -48 0
10 -21 44 0
10 60 -64 0
4 24 -67 0
-20 65 73 0
17 -54 73 0
-1 72 -74 0
49 -57 68 0
-30 48 70 0
18 22 50 0
6 8 -61 0
5 -8 70 0
-12 38 73 0
16 22 57 0
-4 -37 55 0
-26 28 -69 0
43 67 -68 0
15 -29 -47 0
7 45 56 0
9 -44 -63 0
12 30 -35 0
-24 -32 -70 0
-18 33 35 0
14 23 58 0
-16 -20 -51 0
-20 28 -50 0
33 -41 -54 0
-1 29 47 0
12 -30 -53 0
17 -19 -67 0
35 -43 50 0
6 15 20 0
-16 28 45 0
23 -24 -29 0
15 -18 59 0
-9 34 43 0
-4 59 62 0
-13 36 -50 0
-19 48 61 0
14 48 -58 0
10 -34 62 0
-22 -57 -70 0
-35 38 70 0
-1 64 68 0
-2 27 42 0
-8 -35 36 0
-1 12 -22 0
-24 -29 -62 0
12 16 -56 0
-8 -29 -35 0
-39 47 -55 0
-8 21 36 0
-8 15 57 0
1 -34 -46 0
45 50 -52 0
-33 58 64 0
-7 66 70 0
-2 14 38 0
-4 33 52 0
18 23 36 0
-28 -42 -54 0
25 42 59 0
-18 -29 -51 0
25 -29 73 0
16 -51 -74 0
-33 -56 -64 0
48 -68 75 0
38 40 -61 0
-21 -47 -74 0
-10 56 59 0
9 56 -62 0
-21 23 -47 0
4 -15 -45 0
-1 -47 -50 0
23 46 64 0
-1 4 -6 0
42 61 -62 0
15 19 -28 0
-29 -46 54 0
25 36 48 0
-6 52 68 0
11 -16 -25 0
24 27 -57 0
-28 70 73 0
-4 14 38 0
-53 70 -72 0
18 -22 -70 0
-5 39 52 0
-30 39 -56 0
-46 -47 -52 0
20 -33 37 0
1 20 -71 0
-2 28 60 0
-16 -50 63 0
-1 38 -70 0
-12 42 68 0
27 32 -40 0
4 -41 -46 0
7 8 73 0
22 -33 -38 0
29 37 73 0
58 72 74 0
-6 -46 -71 0
-31 -36 -67 0
49 58 72 0
51 -55 -66 0
13 23 75 0
27 -32 64 0
5 -6 -51 0
16 26 62 0
32 -46 -61 0
-31 54 72 0
7 -52 -60 0
-14 69 -73 0
-36 -40 -47 0
26 -45 -58 0
11 30 45 0
-2 21 -65 0
6 17 -25 0
22 28 29 0
10 -42 51 0
-19 56 -58 0
-1 -39 61 0
1 28 39 0
46 48 -73 0
15 -42 53 0
55 -59 -75 0
-2 31 54 0
2 -3 5 0
-7 -20 -57 0
-29 32 43 0
12 -31 -60 0
17 43 -50 0
-6 29 -32 0
-23 43 45 0
19 22 41 0
23 -62 75 0
57 59 -72 0
-2 -41 71 0
9 -51 54 0
3 8 60 0
9 22 -28 0
-12 13 32 0
3 43 61 0
33 -62 72 0
-6 28 56 0
-14 16 -45 0
-17 38 69 0
2 23 -30 0
-56 71 -75 0
10 -36 -70 0
-28 -48 -71 0
16 -38 -50 0
-3 -23 43 0
-28 37 55 0
-1 4 -62 0
-31 -55 -72 0
26 27 69 0
28 -59 -66 0
30 36 61 0
-6 -26 38 0
-13 -24 39 0
6 29 64 0
34 36 55 0
-31 -57 60 0
46 -56 72 0
-21 -37 62 0
32 -33 -59 0
18 -44 -48 0
12 16 -71 0
11 -46 62 0
2 31 -54 0
-38 65 -69 0
2 51 -72 0
1 3 -60 0
17 -22 -34 0
4 20 -29 0
6 -15 21 0
-24 71 73 0
12 -36 65 0
-19 34 -69 0
25 -30 -64 0
1 -51 -64 0
-3 32 -56 0
6 -8 -48 0
44 58 62 0
-43 59 -60 0
-62 65 -73 0
-19 44 50 0
8 18 -61 0
-2 35 -39 0
-19 39 -45 0
11 27 -63 0
7 25 -27 0
-25 -40 70 0
9 -22 -45 0
-8 21 -28 0
-12 27 30 0
-12 40 44 0
-15 23 68 0
2 22 58 0
-10 53 -60 0
22 -46 59 0
-39 42 -44 0
-13 47 -63 0
-16 26 31 0
28 -50 74 0
-8 12 58 0
6 -18 66 0
-1 25 68 0
-1 21 -64 0
-1 -30 -32 0
-10 31 69 0
-26 -35 -57 0
44 45 74 0
31 -36 -68 0
-26 35 65 0
-29 -33 63 0
9 -18 71 0
-62 65 70 0
32 -54 -60 0
-1 -2 -65 0
-13 32 -64 0
20 -38 42 0
-5 -7 48 0
-1 59 -68 0
6 -13 50 0
2 27 -43 0
50 52 -70 0
13 21 -71 0
11 49 -53 0
-12 26 -43 0
46 -53 -66 0
-26 -37 73 0
22 -35 -43 0
-43 65 -75 0
60 -63 -64 0
-6 -14 -75 0
-1 -13 39 0
14 47 -72 0
-31 49 -57 0
-30 44 -72 0
-2 -47 -52 0
17 -56 57 0
16 23 68 0
-18 -39 55 0
26 -35 72 0
1 68 -71 0
-12 25 74 0
33 -49 61 0
13 49 63 0
8 40 -44 0
-39 45 61 0
-21 22 32 0
-17 -33 46 0
-2 8 -29 0
3 15 31 0
6 17 34 0
-19 -31 63 0
34 -45 67 0
14 43 52 0
32 -39 61 0
-18 42 43 0
-22 54 -60 0
-14 16 -70 0
3 -4 -31 0
16 -17 -53 0
18 -37 -65 0
2 8 -12 0
12 -42 55 0
-16 41 -74 0
-31 39 56 0
-37 -45 -67 0
-49 55 -67 0
6 16 22 0
29 38 42 0
2 -5 -33 0
29 -30 70 0
5 -13 -17 0
-8 24 -74 0
-6 -14 -15 0
-16 39 -41 0
10 -13 37 0
-17 30 -55 0
-36 -41 -60 0
-11 49 53 0
-12 -26 -40 0
5 12 73 0
