c F1 random 3-CNF cnfgen RandomKCNF(3,150,639,seed=16) m/n=4.26
p cnf 150 639
-93 -121 124 0
-2 105 115 0
-3 76 -78 0
6 57 65 0
76 -117 -119 0
-23 -67 -108 0
-45 133 -145 0
-2 22 -134 0
-40 -78 -80 0
17 -43 -124 0
-4 32 -122 0
-6 -37 60 0
-12 -103 139 0
26 59 82 0
3 12 -101 0
40 62 66 0
30 63 -135 0
-10 -100 -105 0
10 67 118 0
-66 110 129 0
-28 30 -107 0
37 103 112 0
104 -111 129 0
-45 93 -127 0
-6 78 125 0
-62 79 -128 0
35 126 -129 0
-15 21 -119 0
-26 -44 -137 0
17 -58 101 0
-1 -4 57 0
-6 15 69 0
-53 57 138 0
-121 124 -149 0
28 45 -49 0
25 40 74 0
-53 59 89 0
21 23 119 0
41 -53 107 0
67 -104 105 0
-91 96 -113 0
-21 -50 55 0
-55 106 -142 0
-6 38 -90 0
-15 43 -104 0
10 37 115 0
76 106 150 0
1 -133 138 0
78 -115 -137 0
105 137 145 0
-68 -77 78 0
-67 79 97 0
-30 -86 -103 0
-4 56 70 0
22 -40 -108 0
28 -69 147 0
-75 96 108 0
11 -52 135 0
-6 26 142 0
-31 127 128 0
17 -65 -108 0
61 -97 124 0
-45 -47 58 0
8 -38 53 0
-68 -75 -110 0
-51 64 86 0
-6 -90 113 0
37 62 136 0
12 -44 -68 0
10 -34 -128 0
86 -96 -108 0
1 -3 105 0
2 35 55 0
61 -71 103 0
-80 81 83 0
11 -73 -135 0
31 -64 90 0
-63 69 -77 0
-16 90 131 0
-21 -83 -91 0
64 79 132 0
34 110 142 0
41 56 119 0
9 74 -109 0
60 76 143 0
23 26 -41 0
79 93 112 0
-88 90 -102 0
40 -89 -105 0
-37 92 -126 0
112 147 -148 0
-17 97 141 0
-63 -119 -133 0
-18 47 142 0
-87 95 131 0
-28 70 -112 0
19 -109 -117 0
-81 93 133 0
3 -64 -87 0
-41 91 -135 0
33 88 -127 0
76 103 -136 0
65 -75 -147 0
-36 -79 110 0
-69 -73 -79 0
-78 -86 143 0
-43 -120 127 0
-6 17 -87 0
-10 -125 126 0
-77 -104 -146 0
56 70 -86 0
27 -45 -79 0
51 -96 126 0
-21 -79 100 0
-16 115 -145 0
16 99 -144 0
-19 -49 -52 0
29 32 -120 0
-30 -71 90 0
56 -63 112 0
11 73 146 0
26 -41 -139 0
28 35 94 0
10 -14 -19 0
3 -96 114 0
30 32 -141 0
17 -44 -70 0
4 21 93 0
35 -54 -145 0
-65 -113 -131 0
2 79 -132 0
66 -67 115 0
-28 120 -127 0
64 102 -133 0
-44 96 -123 0
94 -132 -149 0
14 113 -117 0
-64 66 -87 0
-9 116 -138 0
19 56 -135 0
38 87 124 0
-25 77 -120 0
75 128 -148 0
29 57 90 0
-6 109 133 0
-56 -95 145 0
64 113 -130 0
47 -50 -90 0
-88 -121 -144 0
46 -81 -116 0
24 54 -74 0
17 53 118 0
-2 79 140 0
-14 -25 -125 0
7 -72 148 0
24 -79 83 0
-40 -68 -113 0
-94 -104 -109 0
46 -76 146 0
-49 -79 -136 0
22 -99 -127 0
119 -131 -134 0
-15 -89 -121 0
21 -108 149 0
-14 54 90 0
8 41 -133 0
69 70 109 0
-9 14 22 0
33 -113 117 0
-8 -9 -147 0
-74 -77 107 0
8 -79 -104 0
8 100 119 0
-9 42 136 0
-4 -20 119 0
7 111 126 0
-92 -125 -142 0
-9 -22 28 0
61 89 -135 0
-35 -52 -53 0
-57 -125 -144 0
-20 -24 -129 0
4 58 77 0
-55 105 143 0
-7 56 89 0
46 -62 -149 0
45 -63 -96 0
-14 -65 -119 0
93 -139 -147 0
-34 -63 128 0
-92 112 129 0
29 -49 -114 0
-11 41 112 0
25 -114 -128 0
-46 48 -145 0
108 -135 -150 0
18 50 -122 0
83 115 -116 0
-25 60 68 0
-133 144 -150 0
59 -63 -120 0
33 -48 -57 0
53 59 132 0
-63 70 -118 0
78 -84 -143 0
25 73 90 0
25 67 108 0
30 43 93 0
-10 -101 117 0
80 91 137 0
57 -61 -86 0
-19 30 -68 0
-15 -83 -113 0
-4 -40 -141 0
-99 119 134 0
-1 -89 -137 0
-21 -28 67 0
14 -25 -127 0
-61 -85 128 0
-88 105 -118 0
2 83 -105 0
-60 80 -116 0
9 -27 -71 0
41 -115 -145 0
-92 -134 -148 0
33 51 102 0
-10 12 83 0
-97 -142 -144 0
-41 69 140 0
-55 -84 149 0
48 -76 -137 0
-9 78 109 0
-21 52 -146 0
6 16 -148 0
-17 -124 139 0
-19 82 -111 0
32 89 -106 0
38 -63 -89 0
24 87 119 0
28 30 117 0
-130 133 -149 0
-19 64 82 0
14 48 113 0
11 -12 89 0
-101 112 141 0
18 -46 -100 0
-3 -37 -100 0
16 62 115 0
5 -96 138 0
92 133 -137 0
13 63 -140 0
-68 93 145 0
-28 -46 70 0
-23 98 -99 0
32 77 -97 0
-6 26 97 0
-1 -63 77 0
-5 -12 103 0
51 57 105 0
-3 -104 125 0
-40 -99 -141 0
-48 64 -123 0
10 -24 -114 0
86 -104 -138 0
95 -96 -150 0
19 -127 149 0
11 84 -86 0
72 121 -150 0
15 27 30 0
-14 85 142 0
-96 101 140 0
-9 54 94 0
41 68 149 0
99 100 122 0
64 81 -91 0
17 -49 79 0
-10 16 120 0
3 108 142 0
-72 -73 145 0
44 -57 -65 0
-6 27 47 0
10 -17 135 0
16 23 -27 0
86 -96 -104 0
6 -58 72 0
6 -44 -135 0
-53 70 93 0
40 88 -95 0
-31 55 -108 0
-15 -30 -141 0
-70 93 -148 0
26 91 -111 0
-54 -59 126 0
21 -65 114 0
-13 -100 126 0
-15 -21 92 0
-5 -77 127 0
4 15 17 0
-3 26 -114 0
33 -42 94 0
5 -74 114 0
-24 -143 144 0
-43 -44 103 0
21 50 75 0
-37 136 147 0
67 136 -140 0
8 79 -135 0
3 47 -139 0
3 -67 -101 0
-7 -28 58 0
-80 -90 105 0
13 26 -43 0
77 83 95 0
23 39 -119 0
28 -61 -123 0
-32 -54 -125 0
33 -57 -67 0
67 -121 150 0
2 -57 145 0
-8 -43 -71 0
-65 -69 -91 0
-73 -88 -128 0
-44 67 145 0
31 40 85 0
8 91 124 0
-32 124 -143 0
20 32 -126 0
14 -52 144 0
-2 31 108 0
-42 74 124 0
21 22 65 0
41 87 -121 0
64 128 -143 0
48 77 -81 0
-2 -48 -138 0
-14 18 -75 0
-8 -13 -19 0
10 -114 -130 0
80 -83 -144 0
-55 -141 -144 0
54 67 113 0
-57 -69 -87 0
-16 88 -116 0
16 57 -141 0
111 -124 -136 0
-29 -66 89 0
12 -66 109 0
-86 -133 138 0
34 -77 -137 0
10 64 -102 0
-34 71 -135 0
-45 57 147 0
-68 -97 136 0
-107 -126 142 0
22 36 -132 0
-33 -62 -64 0
-46 -52 -70 0
1 68 122 0
-23 -53 144 0
25 -80 127 0
11 -59 80 0
93 -107 -143 0
-7 92 105 0
50 51 64 0
-27 128 -138 0
18 75 -87 0
19 -23 -104 0
90 -98 -134 0
29 -112 131 0
-15 33 121 0
46 -149 150 0
-4 -10 60 0
-36 60 85 0
-46 -88 -116 0
-25 30 138 0
-10 20 110 0
-73 115 141 0
-73 -112 -122 0
30 -82 -109 0
90 130 136 0
36 -82 -129 0
15 116 -125 0
5 -43 90 0
57 -62 119 0
55 106 146 0
87 138 140 0
-24 72 -131 0
75 -95 -112 0
27 81 138 0
16 -40 123 0
22 -27 -85 0
76 -120 -124 0
87 -90 -130 0
14 -47 -145 0
51 67 -70 0
8 17 75 0
-39 67 -96 0
59 127 132 0
-43 65 130 0
15 33 43 0
58 132 -140 0
77 86 103 0
24 -65 -80 0
-29 30 135 0
6 -23 29 0
77 -80 98 0
27 -28 -115 0
-28 -108 145 0
-80 113 143 0
21 -72 -132 0
-17 -18 -108 0
-55 -98 147 0
23 29 -35 0
9 57 112 0
-12 73 -128 0
-31 92 111 0
-64 -104 105 0
-25 79 133 0
102 -108 130 0
22 -68 95 0
2 56 73 0
2 42 117 0
-25 -81 120 0
21 27 -126 0
-37 -110 -117 0
-20 -24 29 0
78 83 123 0
-66 -72 137 0
-29 -55 122 0
-25 109 -114 0
8 12 -129 0
-69 70 -115 0
2 60 -134 0
16 61 62 0
-21 -33 -52 0
32 79 117 0
6 21 24 0
-13 -42 76 0
-13 -18 131 0
48 56 -106 0
22 -35 36 0
44 58 -87 0
24 28 78 0
-56 96 -98 0
-17 -72 -147 0
32 -89 138 0
-37 66 -140 0
62 -109 131 0
82 -109 -148 0
64 79 -136 0
22 64 86 0
4 -86 -116 0
-60 -75 116 0
-11 20 -128 0
-93 109 -115 0
18 81 140 0
88 -120 123 0
90 -134 136 0
-86 105 -115 0
-17 107 -144 0
-9 -37 -48 0
-56 -98 -124 0
-8 -27 -53 0
69 70 149 0
-28 -143 144 0
-6 -24 -98 0
17 86 112 0
54 56 70 0
17 -60 -68 0
41 89 -94 0
43 -80 133 0
-21 93 98 0
90 -91 -142 0
85 -94 -107 0
20 138 -149 0
48 -60 136 0
-1 -17 45 0
2 11 -59 0
-46 -48 -72 0
32 -76 124 0
38 43 150 0
-11 -27 -32 0
45 -63 -90 0
95 119 125 0
16 45 51 0
-6 -56 81 0
91 -95 -140 0
-102 -106 -115 0
6 -64 -98 0
36 136 148 0
60 -71 81 0
7 33 38 0
-67 -91 -136 0
-17 -49 -131 0
-57 -132 149 0
31 -34 -95 0
68 -94 -138 0
-20 -74 -143 0
-22 -104 -146 0
-12 68 119 0
16 32 121 0
5 37 39 0
-45 -53 -96 0
-66 -97 -133 0
-8 -62 98 0
15 40 73 0
53 92 -95 0
-20 54 104 0
57 66 -135 0
30 -58 -139 0
89 -92 142 0
57 -65 -128 0
-26 42 -145 0
130 135 145 0
-3 50 92 0
-81 -111 -138 0
-70 75 148 0
-3 47 96 0
27 -90 -122 0
-80 -94 105 0
-28 50 112 0
34 -59 74 0
9 36 -49 0
-14 44 -77 0
-53 93 121 0
2 35 75 0
83 87 -144 0
-77 -79 -101 0
74 -95 128 0
-83 -93 -144 0
-44 64 -134 0
-28 -43 86 0
-44 100 148 0
77 -117 -144 0
7 100 142 0
-11 -116 -141 0
8 19 125 0
-46 -74 -82 0
-77 -132 149 0
-55 -64 78 0
-17 -36 -129 0
14 43 115 0
3 6 -58 0
-101 112 -139 0
57 62 -114 0
-47 135 -142 0
12 28 38 0
-13 -110 146 0
1 -61 148 0
44 65 -139 0
82 84 136 0
31 45 -80 0
-20 -47 105 0
65 102 -139 0
-12 78 -90 0
-88 94 -124 0
45 -79 -139 0
32 83 -92 0
87 100 -143 0
47 -79 83 0
72 134 141 0
35 -60 90 0
21 33 -95 0
30 -99 148 0
48 69 -71 0
17 -71 141 0
10 20 -71 0
6 -51 -122 0
-17 -30 132 0
19 -34 124 0
55 125 137 0
10 15 27 0
13 42 -139 0
-1 -110 -114 0
20 46 -117 0
24 -81 -126 0
-50 -118 -149 0
-52 -70 71 0
17 30 -147 0
-21 -52 139 0
69 78 108 0
-62 75 93 0
-42 72 130 0
15 75 -125 0
-45 -70 -107 0
4 64 81 0
-8 -60 -110 0
49 99 -141 0
-4 -12 -23 0
2 -92 -103 0
-97 117 119 0
28 -62 -72 0
-37 -39 -53 0
44 -51 -116 0
-23 -27 84 0
-1 -46 133 0
-74 -116 127 0
-50 -114 136 0
-22 63 79 0
1 -72 -75 0
16 57 -119 0
-19 82 -124 0
76 95 140 0
27 74 -124 0
32 -52 129 0
-56 -101 116 0
14 -77 -88 0
-5 44 -111 0
17 -62 142 0
-71 97 -98 0
10 -140 -145 0
-66 104 120 0
-29 92 135 0
-39 76 136 0
-7 -80 135 0
-32 62 74 0
58 99 -126 0
12 64 125 0
37 108 -138 0
11 -78 -108 0
35 -56 -71 0
-44 91 144 0
-12 -38 -59 0
-56 -60 -63 0
12 21 44 0
-4 29 -132 0
-60 68 -119 0
-58 85 -117 0
15 69 -121 0
82 -99 -148 0
-41 -120 127 0
-48 59 -148 0
33 -48 -123 0
61 -96 -123 0
64 -123 140 0
21 -58 -144 0
-20 -40 108 0
-36 -58 71 0
48 -66 -96 0
