c F1 random 3-CNF cnfgen RandomKCNF(3,150,639,seed=12) m/n=4.26
p cnf 150 639
-69 122 -136 0
-3 -96 124 0
-1 -38 143 0
16 54 -87 0
5 23 104 0
-29 109 -114 0
14 42 -143 0
-108 121 123 0
-50 -67 -92 0
-30 -61 -65 0
129 131 -147 0
9 111 -133 0
12 53 100 0
-10 -20 -71 0
-14 -89 132 0
-73 -87 117 0
-43 119 141 0
-2 57 69 0
3 11 -129 0
40 -129 -140 0
-31 -59 -135 0
-42 -68 114 0
-72 85 -132 0
8 66 134 0
69 108 143 0
-16 112 -121 0
24 -104 -111 0
42 99 145 0
10 -19 107 0
-49 -80 91 0
55 101 -137 0
-22 83 92 0
-47 80 112 0
-54 114 125 0
-62 88 117 0
-2 93 -94 0
57 -76 133 0
100 -119 -129 0
-13 -59 105 0
-28 -142 147 0
-83 93 128 0
58 -123 -140 0
-12 -94 -110 0
38 -83 100 0
-97 -106 -109 0
-98 99 127 0
-29 53 -66 0
36 79 -80 0
4 11 44 0
-48 49 76 0
94 -128 138 0
-2 -33 -136 0
-92 100 -120 0
-6 40 -126 0
96 104 -141 0
-16 28 60 0
3 8 64 0
-53 -118 -122 0
-23 62 -101 0
-32 37 -77 0
4 -51 -59 0
-82 -88 -104 0
-50 88 138 0
69 -88 -99 0
65 88 -108 0
45 -93 -141 0
-80 -86 -96 0
19 -45 -103 0
-37 -76 -90 0
11 85 -133 0
-24 42 -125 0
18 59 73 0
32 -55 -71 0
-34 -118 -124 0
70 93 -100 0
-87 -91 129 0
-7 -20 -75 0
-39 108 -134 0
14 106 -109 0
30 79 136 0
-32 -98 142 0
-38 -50 -59 0
33 49 -54 0
-9 137 -140 0
48 -134 -146 0
-6 -99 127 0
-20 -134 140 0
96 107 -130 0
-19 71 -136 0
-72 105 132 0
74 89 94 0
17 30 37 0
46 -91 141 0
-38 -73 118 0
-3 -65 74 0
-6 -44 91 0
-96 -107 126 0
78 -138 -145 0
15 36 82 0
-17 -23 -45 0
-12 -57 -112 0
14 81 123 0
25 123 -127 0
87 100 137 0
115 121 136 0
-46 55 -106 0
116 -121 -133 0
44 52 147 0
43 84 139 0
36 121 -125 0
59 -143 144 0
71 -133 -141 0
-21 42 -101 0
11 116 -134 0
16 47 143 0
-37 104 137 0
23 -113 138 0
-7 42 104 0
-3 -21 -28 0
31 -78 92 0
-96 -105 112 0
28 -71 -84 0
2 88 -123 0
-2 -41 -59 0
18 -24 99 0
-80 115 142 0
-1 -51 -81 0
-17 35 45 0
-2 -85 -98 0
-20 -80 91 0
28 -87 109 0
16 35 107 0
14 28 -75 0
23 95 -138 0
-21 -24 31 0
-36 -46 128 0
-39 48 79 0
8 15 -122 0
-4 -43 80 0
-11 32 85 0
-109 -121 -149 0
-63 -110 149 0
-2 51 120 0
72 124 135 0
-6 -44 47 0
42 -106 -112 0
45 82 113 0
-64 -66 -106 0
17 112 117 0
129 138 139 0
7 -16 -137 0
-8 113 115 0
-16 52 -90 0
72 -97 141 0
28 63 -82 0
41 50 117 0
-38 -111 147 0
-99 -130 141 0
-38 -57 69 0
1 74 -85 0
-10 23 -33 0
39 60 -79 0
12 89 123 0
46 -72 -126 0
-10 -27 -145 0
-58 -102 146 0
57 -76 -121 0
17 37 59 0
-32 108 150 0
69 112 -124 0
52 107 112 0
-68 -75 -79 0
33 38 70 0
3 -84 -148 0
45 -96 122 0
-104 -110 -130 0
-84 -94 119 0
-45 -119 148 0
89 -132 -137 0
37 -42 82 0
-36 71 78 0
-58 -110 143 0
-55 -97 -123 0
-28 57 133 0
-31 111 115 0
-109 121 127 0
-59 -120 -143 0
132 -147 -150 0
9 53 -88 0
23 43 132 0
-59 124 -142 0
2 93 -109 0
12 -81 -131 0
-6 -117 -127 0
-8 -39 -99 0
-34 -105 130 0
4 95 -144 0
58 -77 135 0
4 13 -84 0
-6 -20 -98 0
-25 -57 131 0
94 -109 -129 0
-10 -14 128 0
3 -92 -145 0
14 -67 -75 0
-23 -103 108 0
-21 66 143 0
2 88 -120 0
1 -82 142 0
-33 -41 -122 0
-45 85 97 0
-19 -29 60 0
-24 79 117 0
-67 -94 117 0
25 -47 -75 0
38 50 -91 0
14 107 136 0
-40 -127 -132 0
66 -126 129 0
19 -27 -55 0
-2 88 109 0
-52 -94 -128 0
-36 123 147 0
28 80 -82 0
-29 123 144 0
-48 -86 90 0
-42 52 112 0
47 -107 -149 0
34 101 -123 0
8 -36 141 0
77 -103 -114 0
-20 131 146 0
-26 41 -77 0
-37 80 -100 0
-47 72 132 0
26 -61 85 0
-13 -39 93 0
42 58 99 0
33 63 -128 0
51 -117 139 0
-37 48 90 0
-18 -45 -137 0
39 42 66 0
40 -72 114 0
133 -140 -142 0
18 97 -138 0
68 -89 120 0
-29 75 79 0
28 -42 -71 0
9 46 108 0
-67 -73 104 0
6 -46 -149 0
22 38 -143 0
-66 -85 -95 0
-30 -55 -74 0
-61 96 -135 0
14 19 46 0
3 134 -149 0
18 90 -91 0
-24 40 -74 0
47 52 -65 0
-54 -99 -121 0
-3 37 94 0
19 63 -85 0
47 -83 126 0
66 -77 -110 0
-65 88 112 0
-49 -88 119 0
-13 -65 -148 0
66 -135 142 0
-82 98 131 0
28 -108 131 0
-8 -41 -53 0
4 23 143 0
-26 -83 -125 0
39 86 -115 0
-17 -18 -147 0
-43 57 59 0
-51 -91 105 0
36 58 -94 0
47 -149 150 0
-30 -37 -139 0
15 26 -93 0
13 -50 51 0
-9 42 94 0
-114 -122 -141 0
-5 25 -141 0
-18 -84 -111 0
9 -73 102 0
27 47 137 0
37 -140 -145 0
-25 62 67 0
15 -89 -130 0
4 -22 42 0
40 106 -128 0
1 19 -52 0
-23 37 79 0
-98 124 -127 0
41 64 150 0
-18 -79 86 0
28 68 -116 0
-37 -47 -129 0
85 125 -133 0
-6 83 -92 0
57 64 -113 0
-53 83 -141 0
-27 -43 97 0
-19 -53 -71 0
85 108 124 0
-7 -69 87 0
27 44 -55 0
59 68 -131 0
115 -129 -140 0
56 -132 147 0
27 -60 98 0
-74 -118 -135 0
6 91 147 0
10 -73 147 0
-13 -15 -28 0
27 30 -122 0
-65 -135 -140 0
-59 89 -125 0
-35 72 98 0
12 -24 141 0
-45 51 -128 0
23 -52 85 0
22 40 71 0
-17 -24 71 0
8 50 86 0
17 52 -62 0
-9 -53 94 0
-14 -49 -109 0
-33 -49 -129 0
19 24 52 0
46 69 -146 0
-17 66 -109 0
-39 54 -137 0
44 -54 -66 0
-15 -30 62 0
24 -101 -125 0
-9 -86 107 0
70 97 -132 0
-2 63 79 0
-45 97 -100 0
-107 129 -138 0
75 76 102 0
17 31 92 0
66 -71 -115 0
18 -36 -134 0
-56 -69 130 0
-24 -32 48 0
-73 120 -146 0
81 -83 105 0
26 80 92 0
92 -95 -96 0
-74 -143 -149 0
29 -75 118 0
29 -131 -149 0
62 -107 -122 0
46 -59 -85 0
-55 -62 -133 0
28 -59 64 0
-69 88 105 0
-7 46 89 0
-42 -53 94 0
29 106 -148 0
-88 92 136 0
72 -74 144 0
3 75 -107 0
28 -75 -149 0
-28 78 -108 0
-28 -30 115 0
27 58 -133 0
23 35 -116 0
-38 89 -103 0
-28 -143 -146 0
-15 18 97 0
44 58 72 0
-75 -99 115 0
22 51 127 0
29 82 -101 0
-8 -31 55 0
35 46 -51 0
-76 -119 -147 0
-48 -59 146 0
61 78 115 0
9 -58 74 0
-20 -68 87 0
92 128 -138 0
-89 -117 -145 0
-41 103 -148 0
41 -42 -90 0
-15 -60 148 0
17 -44 61 0
-40 -55 -69 0
-32 51 84 0
83 -109 121 0
7 -78 86 0
29 -87 -141 0
-39 53 97 0
2 -115 145 0
-13 15 -113 0
-16 -105 147 0
-116 117 136 0
-31 38 -55 0
-20 -41 103 0
-53 -98 -125 0
-56 69 -110 0
-70 -105 140 0
46 118 131 0
-17 -100 134 0
-49 -104 119 0
-72 76 136 0
15 54 -137 0
-27 56 105 0
-21 -26 -63 0
6 -9 -125 0
-14 -75 115 0
-14 -42 -93 0
-29 99 139 0
20 35 -150 0
74 -84 111 0
-23 -59 64 0
17 -90 -145 0
-73 -86 -132 0
-17 56 133 0
43 -83 125 0
67 86 98 0
29 88 -117 0
21 -43 -132 0
1 -66 102 0
-11 -142 144 0
-79 112 -122 0
-28 -65 122 0
-43 -75 -104 0
2 85 133 0
-75 81 142 0
-6 12 -24 0
-96 117 127 0
-20 -72 103 0
-92 97 146 0
18 -32 -117 0
-123 -126 -141 0
60 -92 125 0
-100 -107 -142 0
-64 -84 -93 0
29 -108 -120 0
18 91 -119 0
7 -10 116 0
61 65 102 0
25 -43 -116 0
-4 -44 -88 0
-3 77 80 0
6 -69 -120 0
-9 55 75 0
55 -82 121 0
73 106 -146 0
33 66 -133 0
106 122 139 0
-8 20 -23 0
-26 62 109 0
27 -37 -80 0
8 45 -111 0
-8 -12 -53 0
-13 15 89 0
-3 -52 -130 0
79 98 101 0
11 21 62 0
-65 96 112 0
-4 -5 36 0
-3 -31 -132 0
16 -79 -93 0
55 -96 -149 0
3 7 126 0
17 -61 -138 0
26 73 117 0
7 -143 150 0
-22 -78 96 0
-78 -98 150 0
-17 137 -149 0
-85 -104 129 0
68 87 -98 0
53 -109 144 0
-53 -87 89 0
-85 -101 112 0
49 -89 150 0
-38 -56 131 0
-24 -51 107 0
-93 -98 120 0
-1 8 74 0
38 45 -113 0
70 96 125 0
-53 68 -132 0
8 -39 58 0
39 67 93 0
31 -53 -85 0
88 105 129 0
-7 -26 86 0
-27 83 -84 0
-24 -92 -140 0
-32 85 124 0
44 77 -124 0
28 -52 109 0
13 -16 43 0
36 73 -128 0
-67 75 -129 0
-36 -70 -97 0
61 113 132 0
22 36 65 0
61 -75 -95 0
36 90 -138 0
-28 73 -119 0
-4 -119 120 0
-94 138 148 0
48 70 -89 0
29 72 84 0
-5 -52 149 0
48 115 122 0
-19 -47 141 0
49 -72 132 0
12 113 125 0
-44 66 -111 0
-31 67 -136 0
27 28 -93 0
47 -62 116 0
83 -101 -119 0
54 68 -148 0
-37 63 -88 0
65 121 132 0
-35 49 -55 0
95 99 123 0
34 86 -141 0
41 -59 -138 0
27 71 86 0
-2 -28 68 0
-21 65 -71 0
42 77 83 0
60 -93 -101 0
-38 -48 -87 0
-4 -49 -76 0
93 108 144 0
-3 -45 85 0
-8 92 -103 0
-69 103 119 0
50 -61 -78 0
-10 -57 -70 0
49 52 122 0
1 47 55 0
29 -57 65 0
75 -96 146 0
98 -102 -124 0
49 -89 145 0
7 -29 65 0
-32 65 125 0
18 31 130 0
21 130 -136 0
25 -76 109 0
-60 64 -145 0
62 65 -126 0
48 -50 64 0
-6 -32 -71 0
56 -72 -102 0
100 124 141 0
23 60 149 0
-44 107 126 0
-27 86 144 0
72 108 -135 0
-97 100 -123 0
-71 87 -148 0
24 -58 106 0
-47 -71 -90 0
-32 101 -141 0
4 -34 -37 0
42 -80 135 0
46 60 -144 0
-8 -52 -142 0
27 -38 -142 0
19 -22 -53 0
-57 98 128 0
50 64 127 0
-34 -103 -148 0
65 -102 129 0
-13 100 -104 0
-1 131 -132 0
-7 15 91 0
-94 135 142 0
-85 121 -134 0
-18 95 100 0
-93 106 134 0
26 -69 -106 0
-22 47 97 0
-45 -113 127 0
-15 -99 -139 0
100 112 -146 0
-1 75 -118 0
7 -34 -129 0
6 -38 142 0
6 104 -141 0
-85 96 -136 0
49 72 -95 0
7 79 -99 0
-105 118 149 0
-71 -81 -104 0
-13 17 -81 0
15 91 -128 0
-1 -6 -91 0
-4 -46 102 0
1 -37 -56 0
3 -104 141 0
16 75 -91 0
56 -75 148 0
34 98 140 0
82 113 122 0
5 -18 143 0
-102 -106 132 0
17 19 -136 0
3 -18 -128 0
22 -26 50 0
81 -116 131 0
12 24 127 0
79 -90 -144 0
-133 134 -145 0
3 -23 -108 0
31 -116 149 0
-57 112 -132 0
18 -39 -98 0
-49 75 138 0
-72 -91 -115 0
13 -40 112 0
43 48 94 0
59 111 -133 0
-63 -76 120 0
-2 -61 104 0
-20 71 100 0
-64 101 -115 0
10 72 -83 0
-37 -81 -86 0
5 -24 -88 0
72 -76 119 0
