c F1 random 3-CNF cnfgen RandomKCNF(3,150,639,seed=8) m/n=4.26
p cnf 150 639
59 95 97 0
22 -36 64 0
-117 -118 125 0
23 104 -125 0
-105 122 -134 0
-17 25 99 0
-23 61 87 0
-10 17 139 0
-117 -149 -150 0
35 -41 -110 0
-51 127 -129 0
73 131 -136 0
-4 63 -76 0
-9 -66 -109 0
30 45 102 0
30 -42 -77 0
44 112 -146 0
-105 115 145 0
9 25 -74 0
40 125 130 0
-5 36 -88 0
84 -90 94 0
9 16 -149 0
31 111 114 0
-40 122 128 0
-33 116 -149 0
-93 101 145 0
13 51 115 0
-2 6 94 0
-59 83 129 0
-21 -75 76 0
-21 -76 -141 0
-78 92 133 0
-95 97 -125 0
-99 -102 -135 0
51 -126 136 0
-18 70 -128 0
-71 -75 -130 0
-63 64 93 0
-51 95 135 0
-22 44 100 0
6 49 -68 0
73 118 -145 0
10 17 -82 0
-10 20 -60 0
17 -84 -92 0
41 -66 100 0
26 -57 137 0
28 51 87 0
-44 84 -144 0
22 29 145 0
56 84 105 0
-16 -113 -115 0
-96 -145 149 0
69 -80 -122 0
-130 132 -137 0
35 -122 -126 0
-9 -96 -130 0
4 8 -37 0
33 -109 149 0
-28 92 -95 0
-44 -61 -123 0
10 -96 110 0
-9 -60 -131 0
-45 122 -144 0
-6 -74 -113 0
-75 104 -128 0
35 -88 -113 0
-93 121 147 0
9 -38 130 0
38 65 103 0
-10 -55 114 0
-2 -5 33 0
-12 55 -85 0
1 -25 -61 0
29 109 130 0
-13 -89 112 0
-8 -17 73 0
-15 -58 -102 0
-6 71 134 0
29 -49 127 0
-22 -89 -112 0
36 43 -121 0
42 -62 143 0
-33 87 -145 0
37 -83 147 0
-81 92 103 0
99 -106 -115 0
5 -52 -141 0
27 124 149 0
21 71 114 0
-16 -20 -86 0
-41 125 -126 0
64 -120 -150 0
41 122 -134 0
-76 140 -146 0
47 -77 -142 0
-15 103 136 0
-113 121 -142 0
17 75 -141 0
26 32 -141 0
61 -83 146 0
-8 -98 134 0
126 133 -135 0
66 85 95 0
-109 125 146 0
-8 -33 -91 0
-29 -109 -134 0
19 -33 47 0
39 71 -144 0
-23 -43 -94 0
35 57 97 0
17 -41 -57 0
-23 -100 140 0
-99 -114 -128 0
12 60 -80 0
-4 67 109 0
17 125 140 0
26 -36 -82 0
92 129 138 0
62 -72 131 0
-6 -29 50 0
58 -69 -129 0
98 -132 -136 0
6 41 -70 0
37 78 142 0
-11 -34 -133 0
67 -78 -89 0
-59 114 -134 0
-1 74 -147 0
-1 -4 149 0
1 -4 -33 0
57 -97 -144 0
-76 -104 133 0
-83 -100 -136 0
16 51 -137 0
-63 -82 107 0
-61 -77 -108 0
16 86 -125 0
42 44 -60 0
59 134 -147 0
-9 39 -76 0
-26 132 136 0
-13 -29 -89 0
16 -36 147 0
-7 -113 120 0
-15 -93 -120 0
35 69 110 0
-50 85 -136 0
-61 -76 -79 0
-1 3 16 0
27 -59 140 0
47 114 -127 0
-13 74 -142 0
-79 95 130 0
-16 -19 59 0
-30 -112 142 0
-36 -81 -108 0
-19 -125 -131 0
-79 -84 -108 0
-1 19 64 0
3 9 -36 0
53 -76 -115 0
-40 -78 -125 0
-47 75 104 0
5 57 105 0
-26 -46 67 0
-64 -98 -150 0
-1 8 41 0
-31 -91 116 0
10 -19 -73 0
16 86 108 0
34 -116 -122 0
-69 -100 -133 0
5 -55 -88 0
-24 48 80 0
67 -121 -150 0
-39 -51 -144 0
11 -72 132 0
21 54 120 0
33 69 -143 0
-40 -89 128 0
-7 -103 112 0
-59 -96 105 0
-11 32 -113 0
33 -56 -86 0
-5 -22 42 0
9 90 -136 0
33 -48 98 0
-11 90 94 0
85 124 -126 0
-58 127 -143 0
30 -39 92 0
11 -47 55 0
-31 76 148 0
34 73 -127 0
-45 -80 -107 0
-17 81 -89 0
104 105 138 0
-60 -103 113 0
13 -36 38 0
18 -95 132 0
13 94 137 0
79 91 -132 0
-17 45 -90 0
14 56 -106 0
-35 -41 89 0
-28 -66 138 0
-39 137 146 0
-5 -69 -80 0
29 65 -114 0
4 40 -67 0
17 -20 -144 0
98 -124 -131 0
-55 -111 -135 0
-2 -38 67 0
25 75 137 0
-80 105 140 0
48 104 -122 0
18 -26 61 0
-35 49 -113 0
-10 -72 -85 0
12 -48 94 0
60 76 -83 0
6 -40 129 0
-33 -55 -62 0
5 -23 119 0
31 -75 -105 0
80 -120 148 0
-28 57 144 0
-50 -66 -130 0
24 29 38 0
-4 -59 139 0
-58 -78 -143 0
-97 -107 137 0
11 17 55 0
8 130 144 0
-39 -51 136 0
93 -132 139 0
111 -140 -143 0
-35 -109 -131 0
16 -76 148 0
-28 64 123 0
23 102 118 0
23 -57 87 0
-37 -53 -80 0
-20 -23 95 0
37 68 102 0
6 -25 147 0
-5 -28 86 0
3 -38 -146 0
-89 -109 -140 0
22 23 -96 0
11 -92 148 0
-10 18 101 0
24 88 128 0
1 -84 119 0
-26 38 141 0
-81 -101 144 0
-31 57 -88 0
-119 123 148 0
-81 -84 96 0
-80 106 -144 0
33 62 -125 0
-66 134 -139 0
-9 -54 58 0
62 129 131 0
70 98 115 0
128 130 148 0
17 77 -95 0
-54 -69 150 0
50 74 130 0
-98 -126 144 0
138 146 148 0
-61 -108 137 0
31 96 -121 0
38 48 140 0
-14 83 124 0
-25 -32 -118 0
15 -36 121 0
-39 -50 142 0
35 -40 -76 0
-7 -37 130 0
-11 -114 -130 0
-71 -117 132 0
5 -41 78 0
128 -145 -149 0
-32 135 -145 0
-1 28 -137 0
-18 57 -107 0
3 105 -133 0
46 69 -87 0
-36 -68 -74 0
2 5 -123 0
4 -35 -138 0
-1 -48 96 0
-12 -22 31 0
-67 -111 115 0
-7 31 -149 0
-6 -69 78 0
1 -119 123 0
-66 -127 149 0
35 88 -139 0
8 -17 -133 0
-49 -125 -127 0
-102 123 -135 0
-66 72 136 0
-12 35 -68 0
31 -75 -100 0
-30 -43 -105 0
-30 -65 -67 0
48 -126 132 0
24 91 93 0
-9 -43 67 0
71 -73 91 0
39 69 134 0
113 -117 -145 0
-13 -19 -126 0
46 -60 106 0
4 -91 -147 0
-24 -112 -145 0
20 -84 127 0
-78 143 144 0
51 85 -112 0
63 92 -95 0
15 -62 -118 0
-93 -121 -145 0
2 33 -98 0
30 40 -147 0
-61 92 99 0
21 -90 139 0
5 88 -120 0
-59 78 -88 0
34 -50 -93 0
6 -104 -145 0
-21 -33 125 0
40 66 138 0
70 72 -144 0
-19 -120 -126 0
-61 -93 -113 0
-30 51 125 0
-5 -35 47 0
-36 -50 112 0
-48 64 150 0
-46 85 94 0
7 92 -124 0
-8 44 -116 0
43 76 121 0
-23 24 -94 0
78 -136 -141 0
-30 62 -103 0
-27 52 117 0
37 -77 -143 0
-20 105 133 0
-29 48 -113 0
18 -69 -79 0
-90 123 -140 0
39 -83 -92 0
-20 74 110 0
-47 101 -121 0
-1 -37 81 0
61 108 -128 0
-56 -107 136 0
23 -43 -132 0
-12 38 55 0
-84 112 -141 0
-37 -47 -85 0
31 96 104 0
73 -79 81 0
-39 60 -89 0
60 78 -79 0
19 62 -123 0
-30 -99 -119 0
-20 -53 145 0
-34 146 147 0
11 28 -76 0
27 -87 -92 0
-43 45 95 0
-19 49 75 0
49 120 150 0
-4 5 99 0
-37 -39 -61 0
23 34 79 0
21 -64 -142 0
-46 107 119 0
-35 -53 62 0
21 48 85 0
-90 -118 119 0
-4 24 -112 0
70 -92 -143 0
43 -54 -79 0
-95 137 -143 0
15 -89 125 0
-19 48 84 0
-5 6 143 0
38 93 115 0
71 98 -129 0
-44 110 141 0
42 97 117 0
-41 -117 -131 0
24 -77 124 0
43 54 136 0
84 -117 -137 0
-61 84 -145 0
-5 75 90 0
-44 -51 -103 0
21 59 -142 0
-87 121 135 0
-5 -6 25 0
-73 85 99 0
-8 -106 -138 0
-72 93 117 0
-45 -100 112 0
-17 28 110 0
-8 89 101 0
-39 -68 -113 0
29 -31 -68 0
42 -73 -117 0
2 -17 -119 0
-24 97 100 0
-58 -59 97 0
-10 80 -133 0
59 83 -129 0
6 48 97 0
-52 -113 -149 0
2 -49 147 0
-16 -98 126 0
-24 -85 104 0
41 80 109 0
-66 -75 133 0
-42 62 89 0
26 76 77 0
6 -115 149 0
-39 -66 -130 0
-84 -116 148 0
-15 -46 113 0
47 101 148 0
10 26 -68 0
-26 59 103 0
97 -130 -137 0
-18 71 -124 0
62 63 -93 0
34 88 -122 0
-2 48 -95 0
-32 46 -142 0
47 100 -108 0
60 -95 120 0
40 -99 -137 0
-9 -58 146 0
42 44 -68 0
85 -101 -105 0
-3 117 -125 0
-51 -60 -122 0
-23 94 140 0
22 -26 66 0
-56 138 139 0
3 -15 91 0
-32 60 147 0
-37 41 52 0
-1 48 97 0
-3 31 34 0
77 121 -150 0
-73 -96 -129 0
31 64 -135 0
48 -115 149 0
-63 110 147 0
24 -50 92 0
24 -54 -148 0
39 -121 -145 0
-64 69 -126 0
69 88 89 0
-1 -10 91 0
11 102 -103 0
59 -74 147 0
-7 65 147 0
-6 42 118 0
6 -28 43 0
-33 87 116 0
-60 95 139 0
-27 34 142 0
37 -49 -112 0
-26 38 115 0
1 43 88 0
-42 -51 -133 0
-4 110 -123 0
-29 53 95 0
65 -102 137 0
47 -72 86 0
-8 -47 67 0
50 -74 83 0
22 28 119 0
-44 55 96 0
-58 73 -103 0
-33 78 150 0
-11 -29 56 0
-43 -74 146 0
-61 -111 133 0
107 113 -130 0
-53 82 83 0
-36 108 133 0
87 -101 -143 0
-89 -138 -143 0
-117 120 137 0
44 59 -61 0
-69 -98 -102 0
39 129 131 0
2 38 -44 0
26 74 -108 0
-35 89 100 0
22 -59 96 0
8 -44 -84 0
-14 -60 -68 0
-4 44 137 0
23 -32 66 0
11 98 -120 0
-122 146 150 0
16 55 -125 0
42 -110 131 0
-7 89 -113 0
52 69 -79 0
5 38 -48 0
67 -73 134 0
-21 33 141 0
-11 -126 127 0
17 -37 -38 0
48 -56 121 0
-69 89 -123 0
32 104 -118 0
-82 -109 -118 0
3 -29 -75 0
52 -63 94 0
-12 -23 43 0
-9 53 125 0
2 -126 145 0
29 58 77 0
31 75 -77 0
8 -130 -140 0
96 119 128 0
-16 -100 -113 0
15 32 -143 0
6 -29 106 0
-100 144 -148 0
-49 125 -133 0
-20 42 132 0
-97 -115 122 0
-22 56 -145 0
-3 -118 -135 0
23 -51 -62 0
65 98 127 0
34 -46 115 0
16 46 -59 0
35 66 -95 0
-34 -86 -121 0
-39 -97 145 0
-31 93 122 0
-81 99 116 0
-3 -86 101 0
17 -97 -146 0
31 43 136 0
-55 77 104 0
9 90 142 0
28 73 126 0
-6 15 -42 0
-62 -82 94 0
42 67 112 0
-35 -123 129 0
-4 -46 54 0
29 -136 -149 0
-18 -133 139 0
75 79 139 0
78 -107 127 0
14 85 -138 0
34 57 100 0
-4 39 -109 0
-15 -104 -126 0
95 107 -120 0
-56 65 -114 0
-5 -110 -123 0
-10 106 -132 0
-3 -45 -109 0
-12 45 142 0
-86 90 -138 0
6 109 -147 0
10 -78 149 0
44 -69 -138 0
-10 16 -100 0
51 -62 -83 0
26 28 70 0
34 -68 -77 0
3 123 -127 0
9 50 82 0
-29 112 136 0
52 -108 -144 0
74 89 -90 0
-27 76 84 0
-11 21 -115 0
71 -109 -117 0
-34 -87 -131 0
13 66 74 0
-23 -90 -148 0
-9 42 53 0
-20 -30 -98 0
4 -29 30 0
34 -40 -139 0
11 -56 60 0
-4 -102 -111 0
-22 27 -148 0
-60 -81 133 0
-15 110 130 0
31 55 143 0
-121 -130 140 0
21 67 131 0
-90 -94 -150 0
52 84 -110 0
47 -101 122 0
-6 26 -32 0
-6 82 135 0
39 -64 77 0
-3 34 -137 0
-18 -43 -99 0
34 -54 108 0
-25 -70 115 0
-39 107 150 0
-79 134 138 0
97 101 129 0
-44 -47 -148 0
-43 88 -121 0
17 -91 -97 0
84 -129 144 0
3 -56 -116 0
-41 -59 84 0
30 60 -130 0
19 54 -150 0
-71 83 -136 0
21 -73 144 0
9 68 125 0
92 145 146 0
-33 -47 115 0
25 36 67 0
