c F1 random 3-CNF cnfgen RandomKCNF(3,175,746,seed=19) m/n=4.26
p cnf 175 746
12 134 -174 0
75 -89 136 0
-67 84 -106 0
6 80 146 0
-30 117 139 0
-5 -26 -107 0
77 -147 169 0
28 -140 148 0
-35 36 -161 0
2 -117 -123 0
95 110 139 0
-7 -24 120 0
68 -168 -174 0
76 -104 -116 0
78 79 174 0
-26 80 -108 0
116 130 -169 0
20 71 167 0
74 111 -120 0
18 110 -167 0
75 -159 -168 0
-54 68 131 0
54 72 -168 0
120 -129 -135 0
-79 -144 -165 0
16 -40 58 0
-26 -132 -152 0
84 -85 -95 0
-25 -163 171 0
-24 -82 -93 0
-12 -94 -152 0
23 58 101 0
121 142 170 0
12 -112 151 0
-9 139 140 0
-32 64 75 0
-80 116 -141 0
-27 62 -174 0
-57 -118 144 0
32 113 -150 0
-33 -99 -134 0
-13 116 135 0
80 143 -170 0
35 107 -163 0
48 -123 -156 0
17 113 152 0
64 -70 -125 0
6 109 119 0
-5 -69 110 0
-19 47 80 0
13 -19 171 0
-10 -24 -98 0
39 72 87 0
-30 -47 -93 0
65 120 161 0
-44 -70 153 0
54 126 -138 0
59 154 172 0
44 99 -163 0
-27 -43 166 0
-19 -138 153 0
39 82 134 0
-68 79 109 0
104 -129 -162 0
-134 -145 -172 0
-25 81 -147 0
13 39 101 0
21 -90 -172 0
-28 95 162 0
-6 141 -169 0
-39 113 -125 0
-79 -85 -134 0
100 103 158 0
43 49 94 0
-20 -75 -90 0
-104 -105 137 0
-18 91 150 0
-39 -74 -93 0
-47 84 -87 0
71 -119 163 0
9 83 -128 0
-35 -141 -159 0
46 -81 173 0
44 -119 -150 0
-2 -80 158 0
35 82 -134 0
-9 -71 -91 0
36 -67 -169 0
-3 -108 -173 0
47 -118 -122 0
15 -75 133 0
18 -93 -116 0
-26 -39 -153 0
43 112 -152 0
30 54 -88 0
-77 127 137 0
118 121 127 0
106 134 161 0
-53 -81 142 0
50 -62 -111 0
-46 123 -160 0
120 -121 150 0
7 126 -165 0
-2 -92 93 0
-81 124 -153 0
-32 -59 -115 0
81 92 -145 0
57 94 124 0
-22 101 -102 0
23 -48 169 0
-103 125 -152 0
24 -56 -87 0
-27 -28 96 0
-23 51 65 0
76 -128 142 0
-4 6 126 0
-153 -172 -175 0
14 25 49 0
-73 -79 -114 0
-17 -54 -69 0
-22 37 -54 0
-30 121 -158 0
-37 99 149 0
-39 -84 129 0
-33 -34 -51 0
-67 80 122 0
60 -102 162 0
-83 -96 -165 0
-28 50 -151 0
44 82 87 0
-64 112 -138 0
-9 -11 -145 0
56 73 -128 0
-1 63 -117 0
89 -98 -174 0
-1 70 71 0
-16 -22 -51 0
48 -161 163 0
45 -70 106 0
-5 -17 64 0
46 -115 126 0
-97 151 -165 0
48 57 -115 0
3 -70 -115 0
-23 -38 -171 0
-59 126 134 0
-130 135 136 0
-46 47 -55 0
-38 92 -175 0
46 -113 117 0
22 53 -112 0
2 -4 168 0
74 77 -102 0
28 -110 -174 0
-85 136 168 0
-40 73 -123 0
-78 105 -113 0
42 44 -161 0
28 -55 -107 0
18 -97 114 0
17 -116 -117 0
63 -86 114 0
6 -49 65 0
-60 -126 -164 0
53 -111 -146 0
-82 136 -142 0
-87 -151 -160 0
34 -36 126 0
-9 131 -132 0
-5 131 141 0
-70 -88 119 0
-77 115 -117 0
33 -85 -122 0
5 -57 -94 0
-1 -14 -74 0
34 -42 -104 0
10 -33 -156 0
2 120 -162 0
15 -91 172 0
31 107 -159 0
48 72 155 0
-28 68 102 0
105 -136 -162 0
39 71 -117 0
43 -80 -138 0
33 -37 -132 0
-75 -99 135 0
-113 -140 -171 0
7 111 170 0
38 95 -165 0
-4 -27 84 0
-15 107 -135 0
-92 -95 172 0
108 -165 166 0
-28 -73 132 0
-80 -107 -145 0
16 46 100 0
35 -82 149 0
34 -56 -124 0
-34 -36 165 0
-29 -120 129 0
-87 -102 -136 0
-38 -145 146 0
128 -135 168 0
112 -150 -155 0
55 -127 167 0
-12 -88 130 0
-25 38 -59 0
47 74 -141 0
-128 155 173 0
-62 -79 -131 0
-1 -9 33 0
63 146 -168 0
42 62 -112 0
110 161 -175 0
63 -141 152 0
12 72 -80 0
111 116 -170 0
-110 122 -127 0
138 147 160 0
-1 -33 -146 0
-5 66 -95 0
110 147 156 0
-15 39 124 0
76 -146 150 0
75 148 -174 0
9 -68 174 0
-72 95 149 0
24 111 -121 0
-47 -108 -172 0
-5 -33 143 0
68 -85 152 0
-4 79 115 0
-27 149 -175 0
-38 -131 170 0
-108 -113 -122 0
-113 121 -169 0
74 120 -169 0
20 104 147 0
-10 -56 -93 0
-15 -72 -98 0
96 98 -101 0
7 8 -50 0
37 -146 -162 0
-19 27 -171 0
-18 83 -131 0
-14 -82 85 0
23 110 118 0
-23 75 -125 0
-111 -125 153 0
-50 60 151 0
23 -33 127 0
40 -44 -78 0
-29 140 -168 0
62 65 -175 0
39 103 119 0
-49 -115 126 0
31 -49 -73 0
2 -117 -140 0
4 31 90 0
32 122 -139 0
47 117 142 0
7 19 27 0
-34 76 148 0
-36 -68 169 0
9 58 142 0
-33 34 -55 0
-64 -93 -148 0
41 118 161 0
77 95 107 0
103 128 -160 0
-67 105 143 0
39 119 157 0
-42 43 -51 0
-8 78 131 0
77 113 124 0
-86 92 143 0
8 72 152 0
-64 113 -163 0
42 -49 116 0
-38 83 171 0
-53 -73 -158 0
-19 -103 -123 0
-41 63 -64 0
4 -19 -174 0
38 -87 -129 0
58 131 -170 0
36 -45 -155 0
-53 -111 119 0
33 111 -137 0
48 -50 83 0
-37 39 -71 0
-50 -167 -168 0
-64 78 89 0
-128 142 -170 0
67 -155 165 0
-29 -44 159 0
78 -94 161 0
-1 14 28 0
37 -39 -110 0
-62 87 -118 0
-38 -52 65 0
-39 49 76 0
24 -54 132 0
40 -48 172 0
32 -124 165 0
33 66 139 0
59 78 -161 0
-65 -67 116 0
36 48 -95 0
30 -110 -131 0
-3 -70 -120 0
-37 107 159 0
-34 88 138 0
-41 -87 -121 0
-40 -90 -154 0
-16 103 -127 0
68 125 143 0
-22 -46 -109 0
46 53 -119 0
-31 -142 161 0
-72 89 96 0
1 84 121 0
-42 -43 -159 0
-18 -41 73 0
73 117 -157 0
56 -120 -168 0
-22 25 154 0
-4 46 -102 0
-29 52 -112 0
-73 -97 102 0
-54 -58 -142 0
11 140 -153 0
-98 -112 166 0
122 -147 -157 0
8 39 127 0
1 43 -105 0
89 -94 175 0
40 107 117 0
45 62 -158 0
-22 -64 130 0
42 -123 -152 0
-43 -99 -156 0
5 -20 -145 0
94 -113 -165 0
-29 -45 65 0
123 -126 -170 0
52 58 -166 0
-4 40 -93 0
1 25 92 0
-83 95 -130 0
-41 54 -155 0
75 -97 -175 0
-1 102 142 0
3 -32 -167 0
126 135 170 0
42 104 -170 0
-28 -94 133 0
2 84 91 0
-14 -46 -70 0
-81 146 -147 0
3 -37 -129 0
62 162 166 0
12 -15 -63 0
-15 112 -151 0
23 94 -120 0
-38 -78 88 0
-26 50 -62 0
-53 -72 171 0
-43 -65 -132 0
-19 59 -69 0
44 -81 -100 0
56 70 162 0
41 -148 -170 0
69 -87 96 0
52 -72 172 0
34 96 143 0
97 -130 -143 0
-34 99 -115 0
-35 113 -127 0
23 43 151 0
49 127 149 0
84 138 172 0
-102 -103 -114 0
-27 -29 63 0
30 109 138 0
-7 44 -109 0
13 -54 127 0
-10 -36 -76 0
23 -126 170 0
30 107 -135 0
7 31 72 0
31 -60 -111 0
-41 43 68 0
-3 -23 123 0
-57 -113 150 0
74 -118 148 0
-6 -40 -85 0
-18 -44 -154 0
91 -124 174 0
11 -67 116 0
3 9 147 0
-17 -50 157 0
-10 -27 90 0
-27 64 -68 0
-43 61 94 0
-9 -10 21 0
73 131 -150 0
83 -130 158 0
22 71 86 0
3 -117 118 0
73 -88 -159 0
-5 -70 -91 0
-29 80 -148 0
21 92 -156 0
3 117 124 0
6 99 107 0
31 145 150 0
-45 82 -117 0
-8 -17 -51 0
-104 109 -130 0
54 128 -146 0
5 -71 -86 0
5 -38 -160 0
-71 -90 -131 0
40 -97 -140 0
33 42 148 0
19 58 151 0
17 105 -142 0
-28 70 -120 0
-9 -66 -173 0
-38 -77 -142 0
-26 -37 -95 0
-72 91 -165 0
61 -134 -135 0
-46 100 -139 0
32 82 136 0
1 14 -102 0
12 80 159 0
49 -109 118 0
18 -23 126 0
121 124 -169 0
16 -31 122 0
-54 -134 -142 0
8 122 149 0
46 67 -153 0
-90 -124 -143 0
-12 -24 -73 0
-150 -159 164 0
-74 91 -122 0
29 70 -157 0
-80 -94 145 0
-7 -25 91 0
-42 124 -160 0
-79 -96 -148 0
-48 -49 104 0
9 61 166 0
22 85 170 0
20 -52 54 0
31 -112 151 0
-63 -85 118 0
-40 -63 146 0
9 -96 -124 0
23 91 -164 0
-66 -79 -172 0
-14 -39 -124 0
43 156 -160 0
-101 -116 169 0
-68 140 -175 0
16 81 -115 0
-4 134 170 0
-36 -77 90 0
-85 -113 171 0
40 53 109 0
-7 -136 143 0
1 -19 -90 0
-31 -33 131 0
-67 -166 -170 0
36 -80 -156 0
91 -111 -137 0
12 24 83 0
87 122 151 0
24 37 54 0
2 -19 153 0
72 98 103 0
65 77 113 0
-37 49 126 0
107 -112 -164 0
-26 30 75 0
-14 -19 49 0
33 -75 -162 0
30 43 -92 0
-34 74 112 0
57 -94 -100 0
6 24 -91 0
85 -102 108 0
2 144 -147 0
9 -13 126 0
-15 -23 -134 0
95 124 162 0
-11 -23 -48 0
-36 77 -157 0
62 79 137 0
-71 90 -171 0
32 -46 -92 0
78 -92 -143 0
-46 -47 125 0
26 -74 84 0
4 -29 -149 0
-30 123 -157 0
-22 -28 -31 0
42 -60 122 0
23 102 -175 0
-35 146 170 0
31 114 169 0
8 -22 -88 0
59 -90 -175 0
-5 6 28 0
101 155 161 0
-16 120 -152 0
7 16 128 0
-36 -40 141 0
-44 -59 -172 0
-11 46 -127 0
-38 154 164 0
50 -88 125 0
-52 -94 167 0
62 93 -124 0
22 -30 -52 0
31 -119 126 0
-31 76 102 0
-20 87 -105 0
33 -67 -157 0
29 -131 -166 0
-155 171 -172 0
-5 -99 103 0
40 87 122 0
39 51 106 0
-13 44 -92 0
-29 53 87 0
12 -30 -39 0
8 -27 153 0
-23 -84 125 0
-37 73 -75 0
56 -84 104 0
6 -60 -141 0
-67 98 109 0
30 68 -72 0
7 -31 -127 0
42 102 -164 0
40 -63 -83 0
44 90 -105 0
-50 81 -100 0
-17 -98 -161 0
-70 -132 -139 0
28 -115 118 0
3 -65 68 0
-17 29 175 0
-31 73 74 0
-34 107 -172 0
81 121 143 0
32 72 -100 0
81 88 122 0
-3 54 131 0
74 -141 152 0
-12 89 -151 0
20 126 -144 0
85 -140 155 0
33 102 -164 0
-93 -125 167 0
-88 -113 -138 0
-82 105 -134 0
17 -46 78 0
-13 51 119 0
18 31 56 0
-16 -131 -137 0
45 -81 121 0
18 -88 -143 0
-49 52 63 0
-22 68 80 0
3 -53 126 0
34 -109 -129 0
-89 153 -173 0
-20 -21 112 0
-4 -16 -167 0
52 -143 161 0
84 -112 174 0
43 52 104 0
121 -128 -152 0
-100 126 141 0
1 48 -127 0
-41 -115 129 0
-101 -134 158 0
19 51 130 0
45 50 66 0
-53 59 -132 0
2 37 -67 0
-31 -45 -140 0
-64 -82 142 0
-43 -52 -141 0
-19 89 -172 0
29 -95 -144 0
65 76 -144 0
-36 104 -149 0
94 -122 -159 0
-19 100 107 0
-7 -64 -110 0
-47 77 90 0
17 -149 155 0
6 7 113 0
-104 112 168 0
-5 58 100 0
4 57 75 0
41 46 -100 0
-27 42 -55 0
-116 132 -166 0
66 -127 164 0
-35 -98 -101 0
-18 -64 71 0
88 -108 -139 0
55 170 -171 0
31 -41 76 0
-26 76 -97 0
80 129 162 0
76 -116 146 0
46 93 158 0
117 160 161 0
46 -69 112 0
66 78 -133 0
90 -98 161 0
54 58 -71 0
58 100 -103 0
-21 44 63 0
114 -160 -165 0
-56 -62 70 0
-43 58 -135 0
28 -58 -65 0
41 -70 158 0
-41 62 -117 0
29 -45 -87 0
126 146 156 0
16 -55 95 0
-33 -111 116 0
8 55 129 0
-44 149 157 0
-17 -47 72 0
8 115 -144 0
-33 -43 -124 0
19 24 81 0
87 101 -120 0
60 100 -118 0
-56 -108 146 0
41 -73 -87 0
-20 155 -174 0
-37 66 71 0
-97 98 -162 0
40 139 -171 0
-43 111 -149 0
29 -136 -160 0
22 33 -79 0
115 -142 167 0
62 -138 158 0
-85 -106 -157 0
-116 126 135 0
-1 111 -121 0
29 68 162 0
158 159 171 0
24 -30 120 0
-44 71 -89 0
-10 -48 -128 0
-25 -44 72 0
-23 62 85 0
19 -50 77 0
-19 22 91 0
106 -119 148 0
55 -71 163 0
15 21 -174 0
-74 -118 -171 0
-77 -137 -156 0
-56 -59 -100 0
56 62 175 0
57 127 -140 0
-13 -28 -97 0
65 -109 -147 0
-48 72 74 0
-9 125 173 0
135 144 148 0
4 57 -100 0
-15 -73 -74 0
68 126 -146 0
-41 -60 102 0
-24 44 98 0
117 -139 -150 0
115 134 -163 0
34 67 78 0
-26 -147 -149 0
-101 -111 128 0
-30 37 137 0
-49 60 -82 0
7 -60 -81 0
131 153 162 0
-87 -92 -111 0
42 -46 -74 0
-15 104 155 0
58 -127 -163 0
44 -116 -154 0
22 36 -100 0
11 33 99 0
-77 92 117 0
-9 -103 166 0
19 102 122 0
28 -76 -110 0
-35 -114 162 0
28 80 138 0
-14 157 -162 0
-5 -87 136 0
-63 -136 -162 0
-18 -79 -83 0
12 -131 138 0
7 -150 175 0
30 -34 66 0
131 -152 -162 0
23 -87 -171 0
-71 141 -164 0
49 113 -162 0
100 -121 -123 0
-30 33 175 0
-29 36 -121 0
57 -75 -150 0
-44 69 -117 0
95 -116 -122 0
24 -103 -137 0
16 93 153 0
-15 -48 -93 0
-122 -145 -154 0
-82 -125 160 0
-32 116 -117 0
-42 -46 -170 0
4 -71 140 0
-6 14 -64 0
60 65 136 0
-10 17 -137 0
46 -66 -160 0
7 104 -117 0
32 -48 150 0
14 -132 -162 0
