c F1 random 3-CNF cnfgen RandomKCNF(3,250,1065,seed=6) m/n=4.26
p cnf 250 1065
147 -204 -211 0
-1 -10 -38 0
-6 70 -198 0
138 139 -234 0
157 -170 -206 0
-24 -93 -205 0
25 -180 194 0
12 -151 -244 0
214 233 -239 0
-63 -111 155 0
23 129 -226 0
-51 -80 185 0
36 54 153 0
-5 -86 -166 0
75 -100 136 0
-48 109 -153 0
-23 -63 -207 0
-20 -133 -204 0
105 181 -210 0
116 125 185 0
-32 65 -138 0
-85 -116 -129 0
-69 -125 -157 0
-37 -97 -185 0
83 -94 -169 0
-82 102 -166 0
-2 144 160 0
8 -157 -199 0
128 219 241 0
69 -158 -243 0
20 -60 -121 0
38 -175 247 0
10 161 172 0
119 123 166 0
158 214 -237 0
-215 -229 233 0
36 -164 -203 0
-113 -115 200 0
-75 -205 -213 0
-9 -22 -241 0
-111 -122 248 0
22 64 183 0
9 87 -95 0
20 88 -227 0
-35 119 141 0
19 90 134 0
48 -73 190 0
57 -179 242 0
62 -82 194 0
-84 -195 219 0
102 136 -217 0
48 70 171 0
16 20 -99 0
16 -30 195 0
-16 58 -139 0
20 24 -121 0
29 31 246 0
-174 -193 -216 0
52 -60 114 0
-66 135 203 0
93 94 177 0
-93 -178 236 0
8 -36 89 0
-1 119 -125 0
-33 34 59 0
-99 -153 -170 0
36 65 -77 0
27 46 207 0
-31 -39 -152 0
-136 221 -223 0
-40 198 -236 0
65 -82 -107 0
-151 174 219 0
46 -79 200 0
23 -165 -238 0
33 193 -234 0
-94 -227 -236 0
167 -170 205 0
11 29 151 0
23 171 -214 0
41 87 250 0
-33 -58 161 0
-35 158 -186 0
-38 -188 249 0
1 71 -193 0
82 117 -162 0
-26 -185 229 0
-189 214 220 0
-95 -171 196 0
137 228 -243 0
4 -96 -229 0
-19 31 123 0
-66 -85 -113 0
116 143 227 0
-135 -210 225 0
10 83 -217 0
40 -49 -72 0
96 180 226 0
-24 209 -225 0
47 -123 -237 0
-141 160 228 0
14 -111 -249 0
57 -164 -249 0
-69 -134 -164 0
-25 95 -192 0
-16 130 167 0
-16 -29 171 0
-46 68 176 0
-69 -80 -184 0
152 181 -219 0
-115 -127 206 0
4 -197 236 0
57 76 -201 0
35 204 -247 0
55 -66 126 0
35 40 228 0
-84 -153 -229 0
-83 116 247 0
29 -57 137 0
-91 120 151 0
7 -105 189 0
-9 -165 -236 0
-65 -166 -233 0
-93 135 -183 0
-47 -151 -164 0
27 -62 -118 0
-120 174 -247 0
4 111 -125 0
16 -112 -164 0
-42 46 -234 0
30 -151 154 0
-138 -157 -189 0
93 -182 -242 0
-45 77 127 0
53 139 206 0
-27 -122 -166 0
121 225 -240 0
29 37 -55 0
-57 -92 107 0
-95 178 194 0
52 -103 129 0
235 236 242 0
156 171 -173 0
85 -227 250 0
197 198 -220 0
-55 139 146 0
-8 27 75 0
-106 143 -187 0
153 222 223 0
-162 -180 -218 0
103 -169 179 0
-51 -60 77 0
-81 -167 -235 0
-92 -111 136 0
-155 168 -248 0
45 129 162 0
-58 66 137 0
15 -79 -140 0
32 -83 90 0
70 -150 -235 0
-23 165 191 0
63 79 160 0
-7 -111 231 0
-148 -220 237 0
16 48 -168 0
-44 -46 -66 0
58 145 200 0
-143 148 205 0
21 -142 -209 0
71 -104 -115 0
-84 -164 230 0
13 -188 -223 0
-28 -131 158 0
19 26 181 0
128 174 -244 0
48 164 -216 0
-2 73 227 0
1 -41 -124 0
-38 -63 -234 0
-61 144 241 0
-162 -206 238 0
-56 76 -145 0
-58 -163 -198 0
-71 -103 -111 0
-30 -52 151 0
60 90 131 0
-4 41 -217 0
12 33 -50 0
44 214 219 0
56 -151 -177 0
-7 19 -237 0
-38 -233 249 0
-99 -145 146 0
-77 163 247 0
29 55 -77 0
30 -92 -183 0
83 197 -212 0
-31 118 -208 0
93 172 -236 0
67 181 225 0
4 -9 175 0
113 210 -245 0
71 77 189 0
-85 136 148 0
198 208 -241 0
-30 -134 -250 0
34 86 -134 0
-11 57 -63 0
86 -90 162 0
30 81 207 0
-22 40 -46 0
-4 -129 168 0
171 -195 217 0
-81 -141 221 0
-18 108 -228 0
202 245 -249 0
1 15 31 0
52 -56 250 0
-24 25 153 0
-6 121 160 0
-29 -180 198 0
-153 155 221 0
11 87 111 0
-27 32 -90 0
-34 75 138 0
3 46 -60 0
-112 150 -163 0
20 -72 -246 0
-56 -96 -182 0
-31 99 -192 0
-6 -45 -105 0
-4 109 -220 0
52 58 -123 0
-47 -61 -115 0
51 54 95 0
-131 156 164 0
-127 -167 230 0
121 156 185 0
-12 -51 -230 0
53 -185 242 0
-139 -168 230 0
58 127 217 0
157 -197 -232 0
-71 161 188 0
-28 119 -158 0
116 -132 -143 0
50 -73 174 0
73 -78 80 0
-12 -65 -185 0
35 -96 -237 0
31 142 218 0
-100 -181 250 0
191 -196 238 0
62 -168 172 0
-2 -145 -210 0
-12 72 135 0
59 71 -158 0
-48 50 -221 0
44 -168 -225 0
7 39 -57 0
30 41 -166 0
40 -145 206 0
-15 155 239 0
-60 77 -133 0
-29 77 232 0
-32 -197 199 0
-47 -101 127 0
112 -212 244 0
-16 117 216 0
-122 -133 -169 0
44 116 -183 0
-85 118 -178 0
-129 -145 221 0
-38 -65 -212 0
16 -30 56 0
-3 -40 -98 0
1 -97 -145 0
90 -213 245 0
21 125 -239 0
49 54 190 0
116 -140 -220 0
-1 66 230 0
-17 116 138 0
41 -100 158 0
-24 54 225 0
-23 80 87 0
-29 46 136 0
44 116 193 0
53 -106 -240 0
-38 95 -207 0
35 -96 -131 0
76 -83 169 0
-93 125 -201 0
62 197 -201 0
44 45 -100 0
10 -24 -162 0
180 183 224 0
11 -132 206 0
1 -136 168 0
1 -24 -152 0
185 -190 237 0
59 -167 -219 0
117 137 -225 0
8 -162 -186 0
-52 -74 -188 0
88 147 229 0
72 208 -215 0
69 -126 193 0
-7 65 -199 0
-80 202 250 0
36 -141 179 0
-130 -139 161 0
-38 107 246 0
87 102 -131 0
-84 150 205 0
106 -127 -185 0
40 -83 179 0
-13 187 -220 0
97 -183 201 0
106 -136 179 0
25 -100 212 0
-54 234 235 0
-25 -85 217 0
49 107 226 0
152 -175 -235 0
21 98 -105 0
215 -242 245 0
-15 -70 87 0
-114 -164 181 0
-114 206 -243 0
44 -70 -243 0
-86 129 -150 0
-120 127 -240 0
66 184 -209 0
-72 213 -245 0
-26 -222 248 0
27 93 -144 0
-61 -160 -178 0
-24 -177 247 0
41 -86 -95 0
-85 -194 -229 0
-14 33 111 0
206 208 247 0
61 -77 -109 0
-16 183 187 0
18 86 142 0
49 -128 179 0
-56 98 -121 0
-46 -97 203 0
57 140 226 0
-80 187 206 0
-90 -114 -162 0
59 130 243 0
-64 171 192 0
-33 -66 92 0
16 153 -177 0
-15 171 188 0
5 230 235 0
11 34 68 0
-37 -62 125 0
-67 133 -200 0
-28 37 103 0
174 203 -240 0
37 81 -122 0
70 83 -183 0
119 -220 243 0
125 184 -245 0
28 62 84 0
-68 200 242 0
-54 -95 105 0
55 101 120 0
-49 -57 167 0
-10 84 -156 0
-31 -33 72 0
-112 191 237 0
-74 -133 -231 0
-98 -101 151 0
-184 196 214 0
30 43 -60 0
49 83 180 0
66 151 -157 0
57 88 -139 0
132 167 180 0
-10 -15 208 0
-15 148 -232 0
12 -30 -229 0
-70 190 -212 0
-212 226 -250 0
-19 174 236 0
34 83 -239 0
-13 -65 -67 0
-78 -155 -215 0
21 97 103 0
-23 -79 -187 0
23 145 175 0
195 197 201 0
-61 83 -176 0
63 -212 -227 0
117 142 222 0
-21 25 46 0
-64 107 -140 0
-28 -46 -171 0
-97 -183 193 0
2 37 75 0
-40 -95 -236 0
136 -151 176 0
-21 102 241 0
-53 145 -194 0
54 -117 220 0
-34 85 243 0
-120 148 -162 0
-12 51 81 0
172 207 236 0
-31 -52 -242 0
104 113 230 0
125 -153 -239 0
-72 -103 -205 0
-22 194 232 0
-8 138 199 0
20 -133 -139 0
30 -129 227 0
-79 150 -159 0
-103 104 182 0
-119 -135 -240 0
15 94 111 0
-194 -204 239 0
22 -69 -73 0
30 -130 149 0
29 114 -246 0
174 -201 -205 0
-24 224 -236 0
20 49 98 0
-208 -213 -231 0
-63 -79 157 0
61 156 180 0
88 176 -193 0
44 59 181 0
-43 58 -179 0
38 84 -139 0
35 -136 -184 0
-16 -34 -110 0
-100 -174 -235 0
26 -150 -181 0
-106 198 230 0
55 118 250 0
11 -126 -156 0
118 -169 176 0
109 144 210 0
-19 -30 -58 0
-25 183 -191 0
-47 -69 -211 0
-25 67 146 0
3 -55 -209 0
-46 -123 238 0
21 -117 162 0
32 -99 107 0
-40 -110 183 0
91 92 130 0
37 153 -176 0
-115 191 -222 0
-122 134 -135 0
-69 -101 118 0
-91 -94 115 0
-140 141 183 0
-138 -174 -192 0
-65 -84 -122 0
29 136 207 0
-97 -242 -248 0
27 -102 -205 0
12 -63 169 0
-168 217 219 0
-16 -111 -165 0
2 27 -88 0
-78 156 -164 0
-2 -50 126 0
166 -204 249 0
12 35 -75 0
-67 173 214 0
-38 89 -192 0
-66 -211 212 0
-16 -119 129 0
159 161 -241 0
21 -118 -132 0
-59 -138 146 0
52 102 -206 0
18 -217 233 0
69 71 -203 0
-91 104 -179 0
-77 -129 148 0
51 -60 -241 0
49 -167 230 0
-181 -203 -227 0
-111 -121 -152 0
-36 -108 119 0
-9 46 -123 0
8 -169 193 0
29 120 159 0
178 194 -237 0
30 125 188 0
48 127 226 0
36 -44 -127 0
3 54 -134 0
7 -111 215 0
-10 38 -142 0
-84 155 202 0
-77 -195 210 0
7 36 -147 0
54 -59 63 0
100 -144 174 0
-103 -115 139 0
7 19 -169 0
-76 -170 -202 0
126 -135 -167 0
179 219 -236 0
81 90 -211 0
-16 168 -180 0
-9 73 -131 0
10 50 -147 0
-93 200 249 0
-8 139 -172 0
-25 139 -213 0
15 -98 217 0
96 113 153 0
20 -106 -182 0
25 -88 -223 0
111 -124 216 0
-6 -13 162 0
6 48 -155 0
81 -118 236 0
54 98 215 0
17 -20 207 0
-72 79 218 0
-23 -167 217 0
7 118 -243 0
-31 95 221 0
-21 -109 -115 0
30 196 -209 0
-156 179 180 0
77 125 -172 0
-86 150 -186 0
-4 5 24 0
-190 -228 -241 0
-42 208 -233 0
-171 -200 -236 0
80 -84 89 0
40 156 249 0
-23 147 -206 0
-140 -153 -245 0
-52 -130 -141 0
-34 -103 233 0
-12 86 114 0
122 167 -194 0
-17 -100 -169 0
-71 -143 -229 0
10 -139 -168 0
13 32 183 0
104 113 -115 0
24 70 -133 0
-133 158 191 0
30 -99 122 0
-62 195 206 0
-112 114 146 0
-69 -81 -221 0
-39 152 -201 0
28 -78 137 0
-158 -171 -249 0
50 145 249 0
-164 -170 235 0
-31 -60 225 0
34 -50 -226 0
-2 -182 -243 0
91 -116 -165 0
-121 -194 -197 0
-11 -121 233 0
76 231 -235 0
-132 216 243 0
-66 70 -167 0
-12 173 -180 0
-73 -119 -186 0
-61 82 213 0
-55 -92 173 0
-124 176 196 0
-14 -44 230 0
4 -6 65 0
-28 88 -162 0
-10 117 172 0
31 -62 -157 0
1 107 -209 0
-17 -81 232 0
63 -124 -193 0
61 -146 182 0
80 -169 176 0
-32 -106 184 0
6 114 131 0
151 205 239 0
-179 207 -226 0
100 165 220 0
5 6 222 0
-102 216 217 0
54 140 243 0
55 94 -98 0
-194 -207 -219 0
-139 177 179 0
-71 116 -244 0
-63 -168 -241 0
8 100 -248 0
-13 158 248 0
-119 144 -236 0
36 40 200 0
84 174 -227 0
-17 -161 227 0
50 114 -139 0
35 63 -134 0
-66 -186 247 0
-166 222 -244 0
-90 225 -249 0
9 -88 -193 0
-79 156 157 0
-49 -65 231 0
74 203 -234 0
4 197 -250 0
-93 116 237 0
8 35 231 0
-36 -146 196 0
-7 -88 -91 0
5 -178 188 0
-60 69 96 0
50 58 235 0
19 -121 171 0
71 214 -222 0
34 -40 240 0
138 225 247 0
176 246 -249 0
79 -122 140 0
141 209 210 0
121 140 -174 0
151 156 -235 0
-37 -57 72 0
-121 241 -243 0
51 122 -233 0
-69 87 -112 0
-106 -134 187 0
-16 126 226 0
27 47 202 0
33 -91 232 0
-75 153 227 0
-54 -215 230 0
1 -179 218 0
-66 88 143 0
-29 -204 242 0
39 144 -194 0
69 138 217 0
-56 70 131 0
24 133 214 0
35 146 -201 0
-23 -46 -117 0
-142 -220 231 0
-45 75 196 0
-31 172 -218 0
-74 -89 -176 0
-162 -207 -213 0
-60 126 -192 0
-5 34 116 0
-38 61 170 0
144 -168 -231 0
41 -94 -130 0
-12 128 229 0
16 83 199 0
-134 138 154 0
-26 31 -176 0
-8 -179 -220 0
13 -62 171 0
-73 -167 212 0
-31 122 -136 0
-15 52 133 0
-43 -137 -182 0
37 41 185 0
-163 -198 -213 0
-3 121 -127 0
7 -36 242 0
144 147 245 0
23 103 -169 0
104 135 -220 0
90 135 -204 0
191 -203 229 0
-82 -157 217 0
23 -81 86 0
-30 55 176 0
-137 -227 247 0
26 98 -118 0
103 -173 -239 0
102 -116 -243 0
42 50 -128 0
-64 -132 228 0
20 41 188 0
12 -57 -229 0
-7 111 184 0
48 -70 145 0
3 -141 187 0
37 49 -248 0
-18 116 -146 0
-81 -177 245 0
-148 -182 231 0
14 192 -211 0
-66 -113 167 0
22 59 -123 0
176 188 224 0
-91 -184 -247 0
138 -223 -235 0
35 108 -148 0
-3 -9 242 0
-98 -234 -239 0
-37 174 -190 0
-127 214 225 0
10 -222 -236 0
-91 -164 194 0
126 155 231 0
-131 188 191 0
-53 -73 -101 0
7 145 188 0
-50 117 130 0
54 194 209 0
-47 -77 215 0
-94 191 -229 0
1 -57 -129 0
-96 -196 -216 0
-118 138 -177 0
42 109 -178 0
71 89 155 0
-19 -50 -194 0
28 81 -244 0
186 211 -217 0
-1 11 -167 0
-48 140 235 0
-126 128 -220 0
-52 153 156 0
-46 -99 -226 0
-145 -173 -220 0
-139 180 196 0
38 -204 -249 0
-77 -81 -84 0
26 -109 -159 0
-122 137 -164 0
-93 111 -133 0
-25 -140 161 0
31 198 211 0
137 165 216 0
-25 105 -149 0
-55 190 232 0
-57 88 -215 0
-35 -43 -90 0
45 104 117 0
-23 162 -240 0
-155 -166 227 0
-7 -21 50 0
37 -203 -219 0
-6 69 239 0
-3 -20 128 0
124 164 229 0
117 -212 -250 0
1 -74 -78 0
42 121 235 0
-5 217 240 0
-68 -193 244 0
-34 -67 -166 0
2 -136 246 0
64 -86 -204 0
-101 104 -155 0
-112 -113 247 0
3 17 170 0
-20 -137 -242 0
81 158 -179 0
15 118 -153 0
120 140 -144 0
-12 95 -235 0
-36 -51 -132 0
-34 -92 197 0
60 -86 -199 0
70 95 239 0
168 173 -248 0
-15 -136 -165 0
-175 -216 -221 0
69 150 206 0
-89 142 -152 0
-116 -170 -201 0
-69 -172 200 0
134 -170 -211 0
-77 124 -154 0
37 98 137 0
5 17 -49 0
-92 118 243 0
101 115 230 0
25 46 89 0
108 124 -190 0
4 -16 88 0
-15 154 164 0
-26 -110 120 0
-81 88 -233 0
-87 108 191 0
62 -209 235 0
-118 129 175 0
164 -195 236 0
-159 -180 200 0
85 -98 168 0
-21 -57 -200 0
100 167 186 0
219 229 -244 0
58 166 -208 0
-47 60 215 0
113 182 220 0
-18 -99 -232 0
-1 32 70 0
-122 125 -151 0
-80 109 121 0
10 41 207 0
177 215 226 0
112 -121 239 0
96 107 -147 0
-115 -144 199 0
-103 112 128 0
43 -209 226 0
50 -54 -248 0
-68 71 77 0
28 74 99 0
129 141 250 0
123 -170 204 0
185 -210 -211 0
22 62 130 0
134 177 -187 0
-18 20 125 0
19 -109 -137 0
-34 100 239 0
-45 -68 -223 0
-3 173 -222 0
3 32 -99 0
22 27 148 0
-47 -174 226 0
80 211 227 0
-16 53 -104 0
-6 167 -202 0
57 -66 168 0
-41 85 183 0
16 -92 188 0
124 -238 -242 0
-165 -187 207 0
23 182 199 0
-63 131 -186 0
-93 -96 -169 0
51 -159 178 0
-26 -37 -221 0
-39 -94 100 0
-134 -143 -148 0
-10 -40 -66 0
22 -91 194 0
77 79 -120 0
57 78 -232 0
-131 -151 -168 0
50 165 -209 0
17 192 -223 0
-95 96 -243 0
7 39 159 0
-1 97 218 0
-10 140 167 0
-53 -75 -183 0
-58 -178 179 0
-56 80 -217 0
45 -84 219 0
-13 100 121 0
-25 200 207 0
8 -20 104 0
-186 220 222 0
156 180 197 0
75 -131 -154 0
3 91 -206 0
-41 53 -197 0
-100 242 246 0
-174 199 -208 0
-100 -106 -133 0
26 91 245 0
-6 -84 -132 0
-6 -193 -214 0
89 -105 -218 0
25 -71 -123 0
-91 158 -162 0
-117 -140 246 0
26 -185 224 0
-33 151 222 0
-76 86 218 0
41 162 -195 0
-23 157 -221 0
129 142 -169 0
47 63 -243 0
-109 -152 194 0
-6 -17 -196 0
-59 -117 185 0
145 -163 246 0
75 147 -204 0
5 13 194 0
-49 -97 -238 0
64 -83 89 0
-199 207 -239 0
30 42 -215 0
12 195 -200 0
-10 -96 110 0
69 -120 -183 0
108 -204 223 0
-59 140 148 0
-122 -128 218 0
9 -19 -88 0
179 -215 223 0
151 -153 -170 0
9 198 -209 0
46 156 -166 0
55 172 -220 0
-13 93 151 0
-9 84 -140 0
5 -127 128 0
8 -108 -172 0
-82 -166 -167 0
-83 -113 169 0
47 61 76 0
-169 177 -229 0
208 -225 229 0
3 45 156 0
-19 151 -194 0
38 92 212 0
50 121 160 0
-9 -60 165 0
36 -74 -246 0
6 -146 228 0
39 -84 229 0
-23 162 224 0
52 -64 118 0
-131 166 -224 0
3 71 173 0
-18 -184 248 0
-3 26 -216 0
-85 159 214 0
50 53 142 0
168 -181 199 0
-114 120 -184 0
-88 -96 176 0
12 -83 102 0
-142 158 248 0
33 -96 153 0
-40 -143 -225 0
8 90 -124 0
24 -57 -131 0
-205 210 -226 0
45 -173 -194 0
18 -128 -221 0
-137 -163 222 0
-9 -123 -194 0
149 -158 192 0
-142 -209 -233 0
13 -60 -88 0
-26 39 116 0
-15 -92 107 0
-19 -124 -156 0
-49 -155 233 0
64 182 212 0
101 121 219 0
27 133 139 0
-99 -182 -207 0
-18 -74 -220 0
-65 -120 154 0
155 222 238 0
-5 125 214 0
-50 -122 221 0
-57 70 225 0
40 128 243 0
117 -169 -210 0
-74 142 -185 0
138 228 -230 0
-33 -247 -250 0
-9 187 197 0
-69 169 -180 0
-93 -104 -150 0
-43 -138 -245 0
9 -91 209 0
-16 52 -121 0
-148 -208 216 0
45 -72 -76 0
134 -178 218 0
58 146 159 0
-7 -22 104 0
-32 -53 -135 0
-65 208 -225 0
-86 199 -244 0
55 -90 109 0
-35 -172 -247 0
-79 125 172 0
5 -8 -227 0
45 -121 248 0
-14 211 222 0
97 -160 162 0
80 143 -247 0
-5 88 -101 0
54 -134 -206 0
-3 -91 -105 0
138 -153 -175 0
49 134 136 0
136 155 -183 0
28 29 -141 0
-41 -107 185 0
-36 141 -208 0
-56 -95 186 0
48 55 -225 0
9 -143 -144 0
-15 -57 -194 0
-133 -191 205 0
28 36 -156 0
-18 -84 -182 0
78 -108 186 0
-43 90 -190 0
13 -61 -152 0
-22 -66 -188 0
77 84 -109 0
23 142 -180 0
2 125 150 0
32 199 -241 0
113 -120 235 0
68 -123 -128 0
82 92 -134 0
140 196 -214 0
82 -174 220 0
73 -97 -169 0
-50 91 -218 0
-75 191 -240 0
73 80 -102 0
-205 -225 -230 0
2 -108 -239 0
-46 75 -163 0
-58 69 -178 0
29 189 -202 0
-47 79 245 0
118 -127 202 0
-97 192 213 0
-62 -72 -182 0
-81 183 212 0
89 95 227 0
72 127 -233 0
-124 -136 -195 0
-4 174 -177 0
-102 136 -215 0
53 139 -173 0
170 224 -237 0
184 -236 237 0
-2 127 -194 0
-43 132 243 0
-12 -116 -240 0
-27 145 -174 0
130 -132 -137 0
7 -140 241 0
3 226 250 0
25 -44 -126 0
-86 -155 -237 0
87 200 224 0
55 -82 -223 0
141 142 189 0
-118 180 199 0
-2 116 -200 0
-119 -194 -229 0
15 26 -112 0
-115 -166 200 0
