c F1 random 3-CNF cnfgen RandomKCNF(3,200,852,seed=10) m/n=4.26
p cnf 200 852
-9 110 147 0
72 119 -126 0
-20 64 -84 0
-36 -91 -155 0
68 -117 -173 0
35 -117 -197 0
2 12 150 0
78 -94 -138 0
-17 112 121 0
10 -62 -106 0
19 156 -169 0
96 146 154 0
-43 -49 -114 0
-63 115 175 0
-31 69 117 0
-46 -123 -200 0
2 -58 -140 0
-21 -63 68 0
100 -127 -173 0
17 -128 -155 0
-35 -103 -108 0
-43 144 -180 0
1 10 -113 0
-24 -28 39 0
-112 -118 -199 0
-109 118 179 0
9 -83 159 0
30 -76 112 0
12 -141 153 0
-37 -123 172 0
21 -47 90 0
-25 -79 -176 0
143 -171 -191 0
2 -30 -161 0
52 -98 167 0
-15 -66 -90 0
-50 -161 -195 0
-68 -128 -130 0
-71 -90 -186 0
-22 -123 151 0
107 -155 185 0
-84 152 -167 0
73 96 157 0
25 79 143 0
-50 108 -146 0
52 -87 148 0
149 169 -178 0
84 102 154 0
43 -89 156 0
-102 113 148 0
-114 -121 181 0
-88 -91 109 0
25 111 165 0
-49 -163 -164 0
13 -14 155 0
13 -46 149 0
-11 78 -102 0
50 126 -195 0
-120 193 199 0
-46 149 -181 0
25 31 -102 0
-80 164 -185 0
122 -134 159 0
-41 171 174 0
-131 164 -196 0
-56 74 150 0
136 143 -160 0
-5 -9 168 0
-13 -92 187 0
-5 33 53 0
-64 99 158 0
2 8 32 0
18 -99 178 0
13 108 -160 0
-117 118 149 0
-103 -118 161 0
36 65 -68 0
4 -40 72 0
27 -138 -197 0
-1 67 148 0
15 156 163 0
-38 55 79 0
96 -133 -172 0
45 119 -161 0
40 -116 -156 0
-12 40 -126 0
-55 -71 -180 0
-39 82 165 0
-14 118 -173 0
21 157 199 0
3 -94 112 0
-18 -27 -94 0
-33 46 192 0
40 -98 -185 0
18 49 138 0
102 117 169 0
46 -117 -171 0
-54 -64 -162 0
-16 -40 -125 0
-2 84 -173 0
73 118 -183 0
-24 31 110 0
21 -97 -137 0
-22 -30 108 0
-6 -101 -114 0
77 -144 169 0
-59 -121 -128 0
115 -142 -192 0
48 -61 78 0
7 136 200 0
79 108 195 0
44 81 120 0
-5 -37 -174 0
-6 -108 162 0
11 40 66 0
-122 -132 -183 0
-110 -142 -200 0
-15 -28 -124 0
18 92 -121 0
-2 51 74 0
-42 93 -124 0
52 -64 148 0
66 126 141 0
-44 -45 166 0
109 -176 -180 0
-49 -60 186 0
51 147 194 0
21 101 -185 0
81 -126 150 0
97 -103 119 0
16 -28 64 0
-72 -180 -185 0
35 90 198 0
116 -194 198 0
-35 42 -153 0
17 -44 -119 0
40 -164 197 0
-9 -14 -169 0
-148 -155 191 0
-86 119 -186 0
-75 168 -181 0
-81 -97 -161 0
30 43 71 0
-114 -195 -196 0
41 49 81 0
44 150 -196 0
-91 -119 -195 0
-19 51 168 0
-64 145 -190 0
75 -143 -173 0
120 -154 -179 0
-73 123 -126 0
-65 149 150 0
-83 100 -112 0
-24 -28 29 0
46 140 -175 0
42 88 164 0
-3 81 -88 0
-15 153 199 0
76 131 143 0
-128 -161 192 0
-37 43 -100 0
105 111 156 0
-71 179 -198 0
61 -88 98 0
3 38 147 0
63 -70 -191 0
-16 116 187 0
46 -147 158 0
-40 -76 133 0
-20 33 -121 0
-122 182 -199 0
12 76 -93 0
10 110 135 0
-12 59 172 0
-12 -77 -106 0
66 99 -100 0
-18 -59 -143 0
10 -140 -172 0
44 -80 -83 0
25 -93 191 0
79 -164 190 0
-183 191 192 0
8 -70 147 0
-77 -140 -156 0
2 -82 186 0
-89 -91 161 0
-37 -58 -116 0
-64 151 176 0
59 98 197 0
22 93 96 0
-6 20 165 0
-112 -143 172 0
5 27 -139 0
-20 68 -166 0
-60 62 -183 0
-83 169 -194 0
-14 -33 112 0
-37 -94 193 0
104 -126 182 0
41 101 139 0
29 57 -71 0
103 129 168 0
13 -79 -109 0
-73 113 158 0
42 171 186 0
-37 -156 -158 0
89 135 154 0
-65 -102 -125 0
83 -92 -107 0
-6 -11 194 0
10 115 -194 0
20 44 152 0
-55 138 156 0
62 -120 133 0
166 -198 200 0
15 45 167 0
11 20 119 0
16 -180 -197 0
20 153 154 0
-29 148 -164 0
49 -82 129 0
-115 -120 137 0
-1 67 -89 0
78 -106 111 0
37 89 -198 0
48 69 -163 0
-66 111 -197 0
-174 -186 188 0
-3 166 -192 0
5 53 62 0
31 -68 121 0
-142 -150 169 0
-102 105 -109 0
1 -86 129 0
-31 112 -155 0
20 -30 -68 0
78 137 -155 0
86 -110 194 0
31 -111 -158 0
37 84 -86 0
-67 112 164 0
-16 -77 -101 0
-4 122 -146 0
45 53 156 0
-24 -85 -121 0
32 94 181 0
-134 170 -187 0
-154 -155 186 0
-22 -118 -198 0
-17 -24 -111 0
91 -104 166 0
-12 56 179 0
-13 -53 -182 0
-4 118 184 0
72 97 -193 0
48 112 -134 0
-103 106 186 0
11 23 28 0
-82 -106 -195 0
17 -147 -199 0
-109 -116 166 0
72 119 175 0
-8 179 187 0
4 -39 160 0
45 -116 154 0
15 25 -140 0
-20 86 189 0
-123 -177 -194 0
-111 -132 -152 0
87 90 141 0
-20 -34 76 0
-36 -112 200 0
61 107 126 0
-61 -108 -173 0
-40 -79 116 0
-12 101 172 0
7 104 -111 0
6 -99 173 0
82 -113 178 0
-103 -166 -176 0
11 117 -190 0
36 -157 -198 0
-46 -77 -79 0
43 -70 -80 0
19 -79 107 0
-62 178 196 0
117 -141 144 0
75 -131 166 0
-50 -182 -192 0
-12 53 -77 0
5 168 -186 0
69 130 169 0
7 102 105 0
-26 -86 139 0
69 102 107 0
44 152 -178 0
-28 -127 186 0
98 -148 -155 0
146 157 190 0
-134 -147 154 0
128 167 -189 0
-58 90 -153 0
-16 -118 -166 0
-27 -69 -134 0
-116 124 199 0
45 -70 199 0
-105 -133 -153 0
14 -80 114 0
-60 75 -159 0
-4 42 43 0
-82 -85 117 0
-3 -70 -83 0
-9 -69 -107 0
16 -158 -159 0
-4 -102 168 0
-143 153 -178 0
-88 -153 -194 0
-9 -30 -181 0
42 -49 185 0
84 -113 152 0
-9 22 -143 0
-104 147 162 0
-44 -106 -162 0
-48 94 148 0
-76 110 -142 0
-45 51 -166 0
131 149 -188 0
-7 76 -101 0
-33 72 94 0
-11 164 -194 0
12 -85 -200 0
-108 147 197 0
84 -96 -189 0
25 -194 -196 0
71 -112 -126 0
-169 -171 173 0
87 99 150 0
-53 -159 -173 0
93 113 197 0
93 149 195 0
-48 -86 -133 0
27 -66 118 0
-92 -94 -180 0
139 183 -198 0
152 166 179 0
-83 115 -150 0
-69 -111 -179 0
55 107 200 0
-10 34 39 0
-74 120 149 0
2 36 -57 0
93 134 -184 0
-30 63 155 0
-118 182 197 0
-13 80 165 0
-87 101 -130 0
-119 134 198 0
10 12 -67 0
114 125 -142 0
-38 -40 187 0
-28 -126 168 0
-43 129 -194 0
-59 -156 -170 0
51 -67 93 0
34 -177 194 0
-56 107 148 0
58 103 108 0
60 -99 120 0
-27 45 186 0
69 138 -187 0
91 149 158 0
36 -56 155 0
-101 107 -121 0
93 95 173 0
11 -31 -143 0
75 109 -133 0
21 60 -113 0
-3 -15 184 0
3 52 -185 0
-130 -139 190 0
15 36 -61 0
-98 -128 196 0
-21 -29 54 0
-91 -136 -177 0
36 49 -55 0
-87 134 154 0
-107 -123 162 0
13 -143 -167 0
-32 -118 146 0
-4 -155 200 0
3 -34 146 0
-27 111 -184 0
81 94 -158 0
113 -117 -154 0
-104 -139 156 0
73 82 165 0
54 129 170 0
-21 -41 -114 0
-121 128 -148 0
-7 -36 -147 0
75 -111 189 0
2 -154 178 0
19 -36 102 0
50 -88 143 0
-115 167 195 0
112 -118 -192 0
46 -70 -174 0
146 -153 176 0
35 -69 -79 0
-71 -125 172 0
18 99 -196 0
-19 69 188 0
-25 47 -50 0
45 84 -183 0
88 103 -130 0
2 -71 139 0
116 129 -200 0
-61 77 105 0
-85 -109 196 0
-45 -124 -151 0
149 -172 186 0
97 159 186 0
-59 67 -165 0
3 10 -109 0
42 109 161 0
-6 -33 196 0
-84 -119 134 0
-35 -73 -168 0
42 178 -191 0
124 133 -175 0
6 63 -103 0
22 -62 180 0
88 -121 -169 0
2 -50 -72 0
-58 91 128 0
-48 52 -156 0
-1 -11 20 0
-37 68 190 0
-45 -132 -140 0
-61 100 171 0
-63 65 96 0
-21 -28 -136 0
7 -106 175 0
96 -104 108 0
11 -63 80 0
30 122 -143 0
83 -93 147 0
161 -176 200 0
68 -69 -94 0
16 -21 39 0
91 -129 195 0
15 56 -78 0
10 -30 -114 0
36 44 196 0
-33 61 -193 0
-67 75 -162 0
86 -163 -176 0
59 110 -159 0
33 80 -110 0
7 -19 -37 0
-93 -94 -128 0
-6 -185 -196 0
51 108 125 0
-57 74 199 0
-105 -143 -165 0
2 -35 164 0
19 26 95 0
21 -57 197 0
-120 -137 -157 0
-73 124 151 0
22 -137 138 0
3 108 170 0
-26 54 195 0
-78 -114 -165 0
69 77 108 0
-105 -157 197 0
26 115 142 0
111 137 -175 0
12 172 -193 0
-42 137 -146 0
37 72 131 0
38 -84 -93 0
-48 128 193 0
-15 -17 132 0
-27 70 112 0
-69 -77 -161 0
-107 -133 -193 0
48 -124 162 0
-97 -125 153 0
-94 -111 132 0
103 -125 144 0
-49 -111 -187 0
43 -128 -180 0
32 84 -155 0
39 -112 162 0
-54 136 178 0
6 -36 51 0
95 -142 -178 0
-120 -140 -146 0
-26 -63 -172 0
15 -149 166 0
89 -103 191 0
26 83 -87 0
54 67 -75 0
21 162 -197 0
-10 -88 103 0
-100 -113 117 0
155 181 185 0
-49 -60 108 0
-47 121 -157 0
2 -24 86 0
11 25 200 0
-86 -93 118 0
117 138 163 0
11 -29 -144 0
-44 106 124 0
31 76 -90 0
141 -178 -195 0
-15 -97 -196 0
22 -56 -85 0
-76 -108 -170 0
97 -103 -175 0
101 167 200 0
24 194 -200 0
-2 -24 -43 0
-38 45 -143 0
37 -114 190 0
111 138 -193 0
-5 -23 146 0
-62 140 171 0
-9 10 111 0
-4 46 59 0
131 163 197 0
-13 -142 146 0
-35 -54 153 0
130 -192 200 0
-7 153 -200 0
44 54 80 0
-4 -59 171 0
-73 103 -115 0
15 -32 -40 0
34 78 -197 0
-39 -107 146 0
-125 181 190 0
-57 70 195 0
140 141 -192 0
-8 -79 194 0
-5 -98 135 0
8 -10 178 0
-22 -137 169 0
72 -76 147 0
-124 151 -154 0
-70 94 -189 0
36 48 145 0
-73 82 -174 0
30 67 -191 0
19 62 -161 0
-51 -111 -155 0
17 54 79 0
-27 -120 142 0
-31 92 -168 0
52 78 139 0
-35 103 -119 0
-74 -186 198 0
-66 -75 158 0
-37 -183 -186 0
80 -106 188 0
-66 -84 90 0
-126 184 185 0
37 -65 -76 0
-38 -138 189 0
-94 -150 192 0
-94 -124 -130 0
-73 122 -134 0
-54 63 198 0
-74 -162 167 0
-64 -138 -146 0
22 -168 -183 0
19 -21 69 0
96 -107 -150 0
14 -154 179 0
-15 -82 107 0
50 -183 -186 0
-24 74 -163 0
-54 150 155 0
2 -149 -198 0
-139 152 -154 0
47 -67 -181 0
-64 -146 -153 0
-3 -5 -124 0
-102 141 -191 0
-36 87 -158 0
25 -46 -192 0
91 -130 155 0
-96 -135 -185 0
54 146 -180 0
-79 120 153 0
-25 116 158 0
-105 153 155 0
3 -27 -40 0
-95 106 -157 0
56 -89 130 0
-23 25 -32 0
-135 -143 -163 0
-6 35 134 0
33 -91 133 0
-31 49 181 0
-47 -113 -135 0
59 71 199 0
-16 -55 145 0
-71 -108 145 0
16 -115 -153 0
-134 -148 -167 0
-99 -110 -134 0
45 -124 189 0
-135 184 -190 0
13 15 -97 0
7 56 169 0
-21 -132 -168 0
-63 76 -99 0
19 44 -72 0
-85 -175 -185 0
56 -67 -87 0
-33 -123 174 0
112 -153 -199 0
-66 -84 -131 0
-1 -99 112 0
51 89 -169 0
-21 158 -177 0
-12 46 200 0
-38 -90 164 0
-27 112 147 0
-79 153 -160 0
28 -71 -190 0
-49 59 178 0
-26 135 -180 0
53 -57 89 0
-94 106 -125 0
-16 -67 -132 0
58 81 -176 0
33 81 98 0
90 -146 -180 0
55 57 118 0
-33 -84 172 0
-72 -137 -165 0
-90 -157 167 0
121 129 -169 0
71 -111 174 0
110 144 170 0
37 84 168 0
87 107 -194 0
83 87 101 0
-56 -76 -189 0
94 -170 -183 0
161 -187 -195 0
-89 93 -198 0
160 180 198 0
69 -121 191 0
-123 147 -170 0
105 -119 172 0
-69 -158 -198 0
20 -99 -126 0
-41 -129 -163 0
-113 139 -158 0
-69 157 166 0
28 158 -168 0
77 -129 -197 0
11 176 -180 0
26 -54 166 0
51 -175 -179 0
-20 -107 118 0
62 -145 -174 0
69 -130 -150 0
49 127 -195 0
42 45 -160 0
112 -114 -123 0
-57 -64 194 0
26 -48 60 0
-60 -141 150 0
71 96 -175 0
111 -114 -161 0
2 -69 -163 0
-38 107 -170 0
10 90 -177 0
105 108 -197 0
15 -177 -196 0
-70 109 148 0
-1 -45 -93 0
-3 128 178 0
6 11 -165 0
-161 195 199 0
-2 38 -52 0
-2 75 150 0
-1 100 128 0
-4 -15 -27 0
6 -10 -109 0
-2 20 125 0
129 -132 159 0
27 -45 117 0
-37 58 -66 0
-43 129 -191 0
20 74 130 0
-130 134 166 0
14 79 92 0
25 28 -46 0
-35 67 168 0
32 -100 125 0
-36 -92 109 0
46 -90 182 0
-78 -132 142 0
-34 71 88 0
14 74 -188 0
-6 14 94 0
-103 126 -137 0
63 152 -166 0
-5 85 -172 0
103 169 -182 0
21 27 45 0
29 -69 -194 0
-39 -83 124 0
-51 85 167 0
100 -131 191 0
16 -122 -155 0
2 -112 153 0
-6 -47 -137 0
-82 107 -173 0
-29 81 115 0
-93 -139 192 0
26 164 -194 0
12 -63 -116 0
-162 184 -190 0
-3 -70 -116 0
-19 -70 -125 0
-105 -127 179 0
88 92 183 0
93 140 -177 0
-83 93 -111 0
-76 -110 128 0
64 126 -181 0
-55 75 -77 0
-57 102 -139 0
-39 74 76 0
-84 -98 -115 0
-75 -102 -158 0
-55 -66 -171 0
-30 -77 -100 0
-86 177 -188 0
26 90 -181 0
-16 -25 117 0
-64 -97 -125 0
-55 -81 106 0
119 129 -150 0
-39 -136 175 0
37 97 -151 0
57 90 147 0
-11 -18 93 0
-73 121 -133 0
2 -57 87 0
3 104 152 0
95 172 188 0
-50 65 95 0
-115 -164 -186 0
7 -99 168 0
-32 72 -96 0
-28 104 -196 0
14 -53 187 0
45 74 -159 0
4 -99 -176 0
-12 -51 -99 0
152 175 194 0
27 46 183 0
12 -32 -67 0
-14 -69 -137 0
-29 -89 147 0
-3 -175 183 0
-32 35 -138 0
-39 51 -134 0
-52 127 -167 0
27 51 -62 0
31 -47 151 0
-12 15 165 0
-60 122 -148 0
-118 -122 -124 0
71 76 187 0
83 -143 -151 0
52 66 -120 0
70 132 145 0
36 165 191 0
-5 119 136 0
-31 148 -191 0
-85 90 -148 0
48 -107 126 0
20 -167 -183 0
26 -60 -66 0
-39 122 -142 0
66 -79 -185 0
33 -120 -129 0
-57 -96 122 0
-55 89 -131 0
-27 -55 -148 0
135 -142 185 0
-93 106 196 0
-18 51 -57 0
162 163 -181 0
-39 -71 -117 0
-130 138 -169 0
32 -58 -171 0
-9 31 46 0
-101 -188 197 0
37 -144 151 0
-12 23 -76 0
-131 156 -176 0
1 111 141 0
97 -141 173 0
-50 -84 181 0
-47 121 147 0
-34 -37 -143 0
-7 -75 173 0
22 95 132 0
72 -107 175 0
-77 78 181 0
47 -107 125 0
41 -90 141 0
41 -68 147 0
-1 19 -99 0
-132 -143 196 0
66 -91 148 0
-47 -117 -192 0
21 -32 -45 0
-42 -47 -195 0
-2 52 -180 0
10 -94 -184 0
89 141 176 0
82 107 -149 0
20 27 -145 0
2 -93 97 0
-29 133 -170 0
-80 -138 -191 0
9 29 -161 0
-10 70 -90 0
32 78 -197 0
101 144 160 0
41 68 -135 0
-13 -127 171 0
-10 -119 -200 0
24 -92 103 0
-9 -84 135 0
41 -99 136 0
78 112 185 0
13 -150 192 0
44 -105 153 0
