c F1 random 3-CNF cnfgen RandomKCNF(3,175,746,seed=1) m/n=4.26
p cnf 175 746
-17 35 -146 0
-116 121 167 0
-8 100 -125 0
59 -69 152 0
6 -7 167 0
8 -109 -136 0
60 89 -142 0
6 75 -107 0
-31 86 -129 0
-73 128 -151 0
63 -104 -107 0
23 113 -170 0
-8 95 -126 0
-149 152 158 0
4 59 -129 0
-89 -132 -148 0
141 -156 169 0
-53 133 -144 0
94 -142 -146 0
89 -92 -107 0
8 59 154 0
9 66 142 0
4 -72 116 0
-48 89 160 0
41 -66 -136 0
-83 117 128 0
-80 88 -99 0
28 -65 131 0
5 58 102 0
-115 130 -174 0
58 -135 -167 0
110 -162 169 0
13 55 -79 0
-41 77 107 0
10 -144 152 0
-10 131 -160 0
-26 53 -147 0
-27 -100 171 0
-84 103 157 0
52 -84 -145 0
55 -69 -173 0
61 125 137 0
35 -43 -44 0
-66 -130 -154 0
-30 61 75 0
11 -83 105 0
-30 33 88 0
-21 -69 145 0
28 -71 118 0
4 -158 172 0
-11 49 62 0
43 116 175 0
-97 -112 -139 0
-26 54 81 0
-3 -76 -153 0
17 -81 -103 0
-29 -56 -65 0
-47 54 139 0
21 -72 93 0
-148 165 -167 0
11 -79 -84 0
26 63 86 0
6 -63 103 0
6 -20 -163 0
40 -121 127 0
45 131 171 0
-28 79 82 0
-9 37 140 0
77 111 138 0
-17 -65 -175 0
-113 138 -139 0
-44 67 -87 0
-5 16 147 0
-36 -67 71 0
-23 60 157 0
-82 129 136 0
81 -123 -127 0
-144 157 168 0
-19 131 166 0
-77 80 -142 0
-22 32 153 0
56 -65 -110 0
90 99 164 0
-26 66 161 0
-21 158 -169 0
-43 -102 111 0
55 -125 -160 0
-31 76 -170 0
-2 49 144 0
-63 156 161 0
38 -73 -139 0
-65 150 -175 0
32 -108 126 0
7 28 -73 0
35 -167 -173 0
-112 -129 174 0
-32 -114 -116 0
-87 147 -175 0
53 -98 143 0
-119 -133 154 0
116 -159 172 0
-100 -149 -174 0
-18 150 -160 0
6 -105 -162 0
19 -46 -155 0
78 -106 -140 0
44 -120 125 0
-18 109 -152 0
6 43 -130 0
-71 155 163 0
61 69 -86 0
120 131 -143 0
-70 143 -168 0
-45 -103 -144 0
57 67 -157 0
-64 82 111 0
-43 149 -161 0
42 118 -135 0
80 93 103 0
18 79 -175 0
26 83 127 0
6 -56 -153 0
71 88 170 0
-57 -60 -103 0
-44 -60 -61 0
-55 -67 116 0
12 21 -55 0
-82 99 -149 0
39 41 -166 0
38 -139 -171 0
-21 34 119 0
16 135 -138 0
24 31 -111 0
34 -72 -164 0
-69 85 162 0
16 -151 -152 0
144 -155 -164 0
52 -109 138 0
25 46 65 0
12 -14 -110 0
11 26 -81 0
-33 102 -171 0
24 -65 84 0
-15 67 -99 0
-30 98 -174 0
63 -129 -143 0
-101 131 150 0
115 -135 168 0
-52 95 -100 0
33 89 -148 0
-81 -137 -167 0
70 84 91 0
82 -84 -147 0
-94 117 123 0
-13 -35 135 0
-87 -93 -147 0
88 119 154 0
57 65 145 0
13 -106 159 0
18 53 67 0
-45 131 -165 0
57 -73 125 0
-109 116 -173 0
19 66 -105 0
-20 -125 132 0
2 -91 118 0
-31 -78 -139 0
-105 -133 -139 0
34 114 -130 0
3 -109 -163 0
73 103 169 0
-2 -69 -99 0
-87 -124 163 0
-38 91 124 0
45 -67 -95 0
-67 -74 -132 0
-56 -86 -125 0
17 24 34 0
7 -27 65 0
48 103 -167 0
14 -141 -157 0
-13 27 -167 0
46 72 123 0
-32 -100 -172 0
-30 101 156 0
52 -99 -158 0
74 -127 -138 0
-3 -27 169 0
-113 139 161 0
70 -71 131 0
-34 50 66 0
-70 -72 -106 0
-55 -126 128 0
46 -87 156 0
15 84 -130 0
-123 127 160 0
36 58 66 0
30 -58 -145 0
-2 6 84 0
-58 -72 -175 0
-6 32 85 0
37 -65 175 0
-24 27 -77 0
13 93 136 0
96 103 -164 0
-3 71 -132 0
-33 -156 165 0
-148 -159 -174 0
-57 78 162 0
29 131 154 0
71 -112 -140 0
68 -122 136 0
-18 96 -168 0
34 115 175 0
-56 -124 -174 0
-40 -41 98 0
-38 70 154 0
34 -98 165 0
-111 -154 -174 0
-104 105 156 0
10 121 166 0
-36 -136 -151 0
63 122 -160 0
-11 -30 -41 0
65 -161 -169 0
-76 -92 97 0
133 157 -163 0
30 -132 -173 0
-6 32 -150 0
45 102 162 0
85 -86 -169 0
95 -127 -167 0
-31 -103 139 0
-4 39 97 0
-20 -47 -168 0
-28 40 -135 0
-59 102 163 0
41 -109 170 0
20 138 -143 0
6 -132 150 0
11 49 -133 0
31 -120 146 0
-25 144 165 0
-4 -6 -80 0
-35 -43 -153 0
-43 102 -142 0
-39 -72 93 0
-22 93 -160 0
-65 -66 -90 0
-4 34 39 0
19 -138 149 0
-36 -142 148 0
20 22 161 0
98 104 107 0
-36 62 -98 0
-46 58 -92 0
75 -126 138 0
6 -75 -119 0
15 -66 159 0
27 -34 162 0
54 102 -130 0
-35 133 170 0
-52 97 -145 0
10 -43 -164 0
-103 -108 170 0
34 -48 172 0
-55 101 126 0
-11 -20 174 0
45 -129 -153 0
51 -60 93 0
12 118 -157 0
12 -121 150 0
-103 -132 -147 0
-13 91 -121 0
78 -82 151 0
-93 107 156 0
10 136 -147 0
87 -95 142 0
-22 -125 163 0
42 84 93 0
-28 -104 -151 0
-67 88 156 0
-64 -68 162 0
-20 44 69 0
-73 142 165 0
26 -71 123 0
-20 -140 -141 0
-10 -35 133 0
8 81 -107 0
48 51 60 0
51 -69 -118 0
86 91 158 0
-9 43 126 0
22 59 135 0
54 -74 -114 0
84 101 168 0
-49 -77 -160 0
-6 -27 -125 0
19 -108 -166 0
-148 -154 175 0
-69 -135 -173 0
4 -66 -80 0
-60 92 -131 0
-38 -86 161 0
29 -92 165 0
-4 -79 -97 0
13 -54 151 0
17 -166 -172 0
60 88 -156 0
-76 -78 97 0
51 60 105 0
63 98 -102 0
-1 -79 93 0
-8 -38 -173 0
82 -126 -132 0
3 -80 110 0
-57 -129 -156 0
14 27 -60 0
13 18 -56 0
6 15 -17 0
5 86 -157 0
-52 69 76 0
16 -54 101 0
84 85 105 0
24 130 164 0
26 -46 78 0
17 39 -114 0
15 -89 151 0
48 59 171 0
14 -23 -30 0
64 -109 135 0
-84 -90 -92 0
-23 -63 110 0
30 155 -167 0
-71 -78 -137 0
-91 -94 -117 0
5 -95 131 0
33 78 -146 0
39 161 166 0
-61 -65 157 0
71 -80 122 0
91 116 -141 0
18 48 123 0
-92 -94 -167 0
-31 48 -168 0
16 -54 -158 0
-63 104 145 0
2 75 146 0
-58 95 130 0
-20 -59 -80 0
47 -92 132 0
53 59 71 0
-6 42 125 0
22 93 157 0
113 -165 168 0
5 -148 -172 0
-10 -14 -142 0
-18 -35 -125 0
-23 -124 147 0
-17 68 169 0
-58 -81 -84 0
-4 107 -125 0
-13 30 -111 0
-92 -145 -168 0
45 -83 173 0
92 -102 -134 0
39 63 124 0
-10 -19 -133 0
-44 -134 145 0
-99 142 -144 0
-14 91 -95 0
23 92 114 0
-12 94 -114 0
3 123 -148 0
42 -131 -168 0
32 68 -81 0
-34 47 -159 0
-118 120 -131 0
53 73 -152 0
31 -98 -109 0
94 114 137 0
-25 28 -138 0
-47 102 122 0
-116 -126 -152 0
45 70 154 0
17 -141 -172 0
-27 86 -114 0
-72 105 120 0
-103 110 -139 0
36 38 90 0
40 117 -167 0
-14 -39 -117 0
-4 -100 -102 0
-78 -149 -165 0
26 -45 126 0
28 -118 -138 0
-127 -144 -174 0
83 101 125 0
52 138 -153 0
-16 85 -159 0
-93 153 -154 0
-58 81 102 0
90 100 167 0
82 -99 157 0
2 -90 112 0
-29 46 -137 0
-84 112 139 0
41 43 138 0
114 -134 150 0
-86 156 175 0
45 -58 -92 0
9 -23 167 0
-36 -54 93 0
-8 99 122 0
2 -53 78 0
-19 -28 29 0
-115 -134 148 0
-96 -111 -166 0
95 112 141 0
38 61 -62 0
113 117 158 0
-2 -12 -135 0
-34 -61 -170 0
-13 130 -150 0
16 90 150 0
-5 39 112 0
7 -74 121 0
-24 111 151 0
-101 138 -173 0
82 113 123 0
95 152 -157 0
28 29 -51 0
-24 61 -79 0
77 101 -144 0
113 -123 -159 0
114 -123 137 0
76 -113 -117 0
-106 -144 171 0
5 -17 79 0
-67 80 93 0
36 -117 -129 0
-84 139 146 0
52 -69 -138 0
4 -69 166 0
-26 83 -155 0
88 136 151 0
15 30 -158 0
42 52 137 0
-23 -91 129 0
64 -74 148 0
-6 -111 -157 0
18 48 -112 0
91 107 131 0
16 -59 -94 0
56 -57 66 0
-1 -123 -157 0
-34 54 -75 0
7 118 -138 0
-26 76 -166 0
-26 63 64 0
-92 -128 -165 0
7 -103 161 0
-16 75 100 0
-70 -123 154 0
-40 84 144 0
68 -95 117 0
22 -98 105 0
101 126 -144 0
16 106 154 0
22 -76 117 0
-12 -18 -19 0
-24 -121 138 0
91 -135 161 0
-56 -64 -163 0
-2 -78 151 0
38 -42 -62 0
36 -43 -52 0
-10 41 -55 0
-29 -57 -80 0
18 19 -22 0
3 -118 -143 0
29 50 -139 0
-55 -133 -156 0
69 74 90 0
11 113 -161 0
78 116 170 0
8 50 -163 0
-8 59 144 0
17 36 -58 0
-22 133 -148 0
-3 -72 -140 0
-104 -136 137 0
-47 123 145 0
7 -133 135 0
57 -82 -102 0
9 -17 -129 0
70 140 152 0
77 -78 98 0
134 137 138 0
43 -54 -123 0
4 -26 -39 0
-45 56 -145 0
-17 -33 -58 0
-95 132 -170 0
-67 92 -104 0
-28 47 159 0
108 -127 151 0
-60 -161 166 0
-10 -86 174 0
-43 -111 147 0
-8 99 -126 0
7 -67 145 0
21 -57 -76 0
-103 116 -164 0
22 145 172 0
-10 69 -72 0
87 -159 -175 0
58 61 -89 0
51 101 132 0
11 -21 102 0
117 138 -159 0
-57 66 173 0
-97 -106 -155 0
87 114 -145 0
42 108 -111 0
-74 -106 -124 0
74 -97 142 0
6 -68 -169 0
-42 -68 151 0
29 41 124 0
15 45 -99 0
120 141 -168 0
14 -121 -136 0
-29 -82 -87 0
-22 -59 -113 0
69 112 151 0
85 -91 97 0
30 -38 161 0
92 136 -158 0
-36 -44 -166 0
9 90 -137 0
-40 -55 -64 0
-87 -110 153 0
15 -152 157 0
3 17 -24 0
-50 -103 -118 0
27 102 -119 0
-7 35 -155 0
-5 -89 169 0
81 -101 137 0
32 104 -109 0
45 90 -104 0
106 -133 -157 0
66 -150 -153 0
-38 -44 83 0
-21 -129 -165 0
-9 126 -161 0
-32 71 100 0
28 -120 172 0
11 58 61 0
10 149 -169 0
38 89 -107 0
58 -158 160 0
91 -102 155 0
-4 13 -162 0
1 -23 -170 0
-66 -152 160 0
58 79 -166 0
25 -111 115 0
-55 65 96 0
-2 -59 158 0
-88 -105 172 0
-14 -65 136 0
-54 -59 -62 0
1 -126 -130 0
24 71 133 0
37 -104 110 0
-42 -56 -70 0
39 65 -146 0
124 -138 153 0
45 52 -67 0
28 -49 -95 0
-85 -106 -147 0
71 -91 158 0
-89 121 157 0
14 136 -153 0
76 103 -109 0
-40 -54 -151 0
26 -105 166 0
80 -143 -168 0
-36 -65 166 0
-86 112 -134 0
-11 -80 -129 0
-41 -68 75 0
-67 -100 173 0
11 -24 99 0
-11 79 -134 0
3 -34 -89 0
22 -62 134 0
7 -114 168 0
75 110 162 0
100 -128 -139 0
-13 -59 -112 0
53 -149 -154 0
-46 61 -168 0
-56 102 -174 0
9 -22 -67 0
-26 79 -112 0
45 66 141 0
103 -142 173 0
-25 88 98 0
-19 45 175 0
5 -104 175 0
-14 102 168 0
-24 -57 -157 0
-50 -130 153 0
-75 159 -172 0
71 93 149 0
27 -56 71 0
42 166 -168 0
-55 -66 68 0
-9 -40 -128 0
92 -104 -159 0
68 -124 159 0
-16 19 -100 0
54 -79 -117 0
-2 -158 -174 0
-94 109 -156 0
25 75 -101 0
-94 110 -146 0
14 112 156 0
45 99 123 0
-83 89 -130 0
124 145 162 0
34 -64 175 0
2 74 -96 0
38 169 174 0
69 108 151 0
42 -107 -155 0
-17 45 155 0
19 39 175 0
-17 67 -141 0
-46 -72 136 0
33 -142 -151 0
-58 -95 114 0
-13 14 -95 0
91 -96 147 0
-123 138 140 0
57 73 156 0
-55 -109 132 0
53 -97 -163 0
54 -110 -160 0
63 108 166 0
-5 -42 -98 0
-8 -110 141 0
3 133 -144 0
10 -35 113 0
-37 65 130 0
-19 99 124 0
-57 105 136 0
-51 -61 -136 0
130 148 -157 0
3 -32 146 0
-46 136 -167 0
12 -36 -140 0
-49 103 -116 0
3 -73 -94 0
-2 -25 -161 0
45 -77 -167 0
11 14 -55 0
-10 69 84 0
-4 -34 -106 0
-10 -29 99 0
-59 -133 150 0
2 -39 122 0
64 143 -154 0
36 85 157 0
30 -33 -156 0
2 38 -91 0
80 -102 -111 0
-90 -93 115 0
3 69 -80 0
-2 16 21 0
-34 101 -158 0
42 -47 -56 0
23 32 -143 0
115 -138 -144 0
43 -47 159 0
-21 -127 157 0
-17 -18 -171 0
-84 95 149 0
-89 -106 135 0
3 -85 -115 0
36 -172 174 0
42 80 -149 0
29 -151 164 0
14 -111 -120 0
75 -97 129 0
-60 110 -131 0
48 134 137 0
5 -61 -89 0
1 43 61 0
7 -24 141 0
36 -86 -93 0
11 -92 153 0
-80 -81 -163 0
76 99 124 0
19 54 109 0
-19 55 -121 0
74 -120 -143 0
-8 -19 22 0
-48 -76 -107 0
57 -64 -127 0
91 122 127 0
-56 100 115 0
-99 109 175 0
12 -41 -132 0
35 -78 -122 0
-149 -172 -173 0
-53 -56 -70 0
-73 -107 160 0
-29 84 -115 0
-40 41 -64 0
-8 110 173 0
-19 -22 43 0
-75 101 -155 0
-31 -39 -111 0
16 142 170 0
111 125 -133 0
79 -82 -166 0
9 -73 -89 0
-44 74 131 0
-33 -34 -99 0
-7 43 75 0
108 -119 139 0
32 -146 148 0
55 -91 -128 0
49 82 -139 0
65 -111 -121 0
76 133 -142 0
40 -51 -90 0
-29 152 156 0
41 -82 155 0
54 -76 -143 0
-99 -114 129 0
1 -37 174 0
