c F1 random 3-CNF cnfgen RandomKCNF(3,200,852,seed=17) m/n=4.26
p cnf 200 852
-78 -107 134 0
-139 181 197 0
-64 -99 -192 0
-164 176 186 0
36 -39 51 0
-18 -164 184 0
122 -130 -164 0
5 -96 111 0
96 -123 149 0
30 -55 143 0
17 69 -71 0
-79 90 -169 0
-25 -148 149 0
13 -90 -193 0
14 -122 -163 0
-20 184 192 0
-104 125 188 0
39 65 174 0
-79 81 138 0
-24 -108 -177 0
20 123 139 0
68 -137 148 0
-125 -151 186 0
-105 133 -142 0
-56 -59 193 0
-8 94 -154 0
44 -143 -149 0
-45 -55 -194 0
24 115 152 0
142 -148 -181 0
-36 -115 130 0
48 -68 -76 0
55 -85 193 0
133 171 180 0
78 121 182 0
117 138 -195 0
15 32 -110 0
-69 -89 92 0
87 135 -193 0
-31 83 84 0
73 -114 127 0
-19 108 -175 0
33 -55 94 0
-112 113 136 0
-43 -137 -151 0
17 105 158 0
-61 -110 200 0
-63 74 -127 0
-2 -32 163 0
-23 111 132 0
-19 -74 -76 0
-39 -69 -191 0
132 -148 162 0
-161 168 194 0
-55 -95 -140 0
21 -79 104 0
10 -146 -150 0
-104 -109 -157 0
-42 193 198 0
54 93 -189 0
19 -117 169 0
-124 150 189 0
-61 112 -197 0
86 -97 -125 0
45 -55 127 0
105 124 -167 0
8 68 121 0
10 -38 -66 0
-14 -23 -76 0
68 133 -145 0
19 -137 -157 0
90 124 158 0
-96 -115 -123 0
3 -57 154 0
30 98 -157 0
-29 174 191 0
-13 114 141 0
-25 36 -198 0
-77 78 -165 0
-1 23 -99 0
-83 138 -193 0
-24 -137 166 0
152 171 -186 0
10 -40 -175 0
-22 28 -196 0
-105 106 -132 0
34 -155 198 0
-82 121 169 0
-53 136 -193 0
94 112 159 0
2 -64 -67 0
99 110 181 0
-139 -161 194 0
-92 150 -156 0
114 115 147 0
36 -117 130 0
-2 -45 98 0
50 52 -72 0
39 -84 -122 0
-67 -182 187 0
-27 45 -64 0
-27 -67 -133 0
67 -101 -131 0
42 132 192 0
9 30 -92 0
59 84 197 0
148 -156 159 0
-168 -183 -196 0
-86 134 139 0
17 -23 -160 0
-9 40 -168 0
-42 -188 -191 0
-60 -118 145 0
-44 -146 -154 0
80 -140 162 0
-2 10 84 0
30 93 -151 0
-41 -127 154 0
56 -113 122 0
50 -62 142 0
-71 122 -152 0
-37 -116 -169 0
-17 -122 -185 0
3 -134 -174 0
3 -55 -167 0
-32 -158 -163 0
78 178 180 0
-7 19 -128 0
89 -167 -187 0
74 130 -146 0
4 94 -162 0
-10 23 81 0
66 77 -132 0
-25 -68 109 0
40 77 -158 0
79 158 167 0
-14 -52 -60 0
-1 18 111 0
-85 -167 194 0
105 117 133 0
7 69 84 0
99 -183 191 0
-35 52 -67 0
-22 -23 -161 0
86 108 151 0
-70 77 100 0
-103 155 -164 0
-5 -50 -199 0
-96 -103 120 0
-10 -56 -159 0
-42 61 84 0
45 50 175 0
81 109 133 0
-37 89 131 0
89 -107 -149 0
-21 90 108 0
-38 -83 181 0
15 44 108 0
88 -106 -135 0
-7 -9 72 0
7 84 175 0
44 -129 -162 0
-14 64 156 0
6 7 161 0
-53 88 166 0
33 123 -154 0
18 -132 193 0
-52 72 84 0
35 -64 -116 0
26 -104 127 0
-158 -168 184 0
15 51 -174 0
36 -41 -47 0
-15 -79 199 0
-67 -148 164 0
134 182 183 0
-134 -148 -149 0
47 106 -109 0
-12 123 195 0
-74 140 -143 0
-16 29 137 0
-67 112 -135 0
91 -126 -166 0
77 99 -157 0
57 -130 -191 0
33 38 -82 0
-39 -43 -170 0
52 -154 175 0
-1 -101 -126 0
-38 -128 -198 0
14 78 82 0
-23 -108 112 0
71 -102 197 0
-57 139 -158 0
-42 51 175 0
90 -122 -176 0
-56 85 146 0
-100 116 148 0
-81 127 130 0
-70 97 -176 0
-33 59 74 0
-70 -148 154 0
107 -112 131 0
5 -26 81 0
-64 -94 -116 0
30 124 169 0
-21 -24 95 0
-68 -102 -149 0
-26 -67 -124 0
68 81 -108 0
3 -130 -134 0
-4 106 138 0
-58 -59 -133 0
132 -152 -199 0
81 -84 103 0
-13 -139 -177 0
70 -115 -172 0
18 82 -109 0
-52 -61 -137 0
25 -186 200 0
5 -126 133 0
95 113 164 0
78 -165 -196 0
109 -150 -185 0
123 -175 186 0
-1 61 -170 0
-94 -108 184 0
-15 160 -173 0
29 57 60 0
-16 -28 144 0
65 -99 -109 0
11 23 187 0
21 43 -115 0
88 97 98 0
107 -157 -176 0
42 -57 -163 0
24 -125 186 0
-35 36 123 0
-68 160 165 0
108 128 -136 0
-81 120 176 0
-4 145 200 0
39 -41 -119 0
40 -159 161 0
-61 -80 -119 0
-171 172 197 0
91 146 -195 0
-128 164 183 0
49 -136 -152 0
51 97 -150 0
88 -98 -111 0
-5 80 133 0
66 91 -135 0
-70 108 -191 0
8 130 -198 0
34 47 -195 0
-5 -91 -96 0
102 132 153 0
73 -117 -198 0
91 98 187 0
30 70 -151 0
129 -187 -199 0
-45 -92 133 0
-93 185 -195 0
-12 -34 -171 0
45 56 -82 0
-50 61 -132 0
-56 133 -161 0
-57 -84 -159 0
-77 133 179 0
2 -157 -165 0
-20 28 194 0
53 71 -112 0
6 69 72 0
-61 63 81 0
-89 -155 -182 0
-6 18 191 0
154 -166 -183 0
50 189 195 0
-28 -168 -178 0
-125 133 -156 0
20 -139 -171 0
51 142 -191 0
-24 -87 173 0
63 135 -145 0
11 22 -46 0
150 178 -197 0
59 -74 -161 0
-73 -164 167 0
-4 119 -135 0
12 -54 -172 0
-51 110 -137 0
29 42 -151 0
-39 42 190 0
-54 108 -161 0
77 140 -189 0
116 148 181 0
32 140 172 0
64 160 185 0
13 14 81 0
63 -93 200 0
44 -183 196 0
-44 -59 -75 0
-31 80 186 0
59 -115 180 0
-114 -140 182 0
73 -177 -191 0
-111 -135 165 0
-30 -84 165 0
-17 48 -104 0
39 157 158 0
-91 -97 121 0
-26 46 132 0
-135 -170 -188 0
24 78 -172 0
-40 -43 66 0
46 48 85 0
-69 -122 190 0
-14 -63 172 0
-28 -56 -189 0
-24 -75 -94 0
74 100 180 0
-22 96 -109 0
13 -46 199 0
1 12 122 0
8 25 191 0
116 131 166 0
-61 -64 124 0
25 29 -185 0
121 -136 199 0
12 48 166 0
-98 127 138 0
76 -150 -180 0
-13 -23 -156 0
15 85 -139 0
46 147 -182 0
-11 31 197 0
-14 -40 60 0
10 -119 -189 0
-23 -95 165 0
-77 91 104 0
48 -111 189 0
-36 -137 -188 0
106 152 177 0
98 -163 -174 0
28 171 179 0
-52 -101 162 0
77 174 -175 0
40 121 163 0
-26 40 -171 0
-42 138 184 0
31 -138 157 0
47 103 -125 0
142 -150 168 0
14 -15 -187 0
-11 -128 -179 0
36 -62 -194 0
-126 -185 190 0
-88 -135 -192 0
-85 96 -124 0
-42 -53 188 0
-38 -40 103 0
91 -107 189 0
-49 90 104 0
-15 45 49 0
-19 -149 156 0
-78 -111 -183 0
-10 -40 -52 0
43 121 -145 0
128 -160 -166 0
-35 -56 -112 0
-108 121 139 0
-139 140 152 0
72 82 145 0
44 69 138 0
-55 142 -180 0
-114 -130 152 0
-93 -139 -166 0
-8 -81 -174 0
-29 139 177 0
-75 -91 -115 0
107 -145 -189 0
73 149 175 0
56 -84 116 0
31 82 187 0
20 -29 89 0
11 -49 -50 0
-31 187 200 0
-58 70 197 0
2 -22 -127 0
4 90 -130 0
-49 -79 86 0
-38 149 154 0
-62 -156 -173 0
1 -103 123 0
-58 -61 -66 0
10 30 40 0
68 -111 168 0
1 23 -110 0
-126 -149 -197 0
-82 117 191 0
-12 18 136 0
-129 -157 165 0
-23 -119 -122 0
-41 -124 -135 0
-64 71 -166 0
-7 -78 -160 0
-39 -40 -121 0
-82 -93 -128 0
-19 42 172 0
-41 104 107 0
13 -111 175 0
-86 -124 -129 0
-62 72 125 0
17 98 101 0
45 -104 -181 0
-109 -191 -196 0
-110 -136 -154 0
-60 97 161 0
-54 182 -190 0
-23 41 -200 0
10 -44 139 0
54 -175 190 0
20 113 187 0
153 -176 -187 0
-4 31 172 0
129 -152 160 0
47 86 92 0
43 90 -158 0
97 -114 153 0
-59 147 -177 0
9 13 -77 0
16 -172 175 0
-10 31 -84 0
-88 -118 -136 0
-65 118 177 0
66 111 152 0
33 67 125 0
-123 -140 198 0
-43 -48 -105 0
-113 -139 168 0
-78 87 93 0
67 113 185 0
51 -124 -156 0
74 121 153 0
-80 -116 134 0
-29 -64 -190 0
46 142 155 0
19 -99 178 0
2 -157 -194 0
68 90 -189 0
53 -97 183 0
19 41 181 0
-113 133 192 0
-22 100 -144 0
94 -120 174 0
-41 -128 -137 0
-79 118 -143 0
18 -185 196 0
44 83 103 0
17 -81 -179 0
114 147 174 0
-144 -177 178 0
8 -64 200 0
8 78 -137 0
56 -173 -189 0
33 -149 -180 0
39 -77 -90 0
-23 63 130 0
24 77 -144 0
16 -155 198 0
-38 -101 -147 0
-41 -47 200 0
69 148 190 0
-41 68 101 0
-51 -76 -200 0
-17 119 -143 0
151 -159 174 0
1 -58 185 0
-62 -78 -147 0
-41 -96 153 0
30 -32 -178 0
49 -113 159 0
-18 21 117 0
44 88 -180 0
93 142 -178 0
-15 105 166 0
-75 176 -196 0
15 -109 171 0
94 -159 -171 0
74 122 139 0
-13 76 95 0
-14 -89 -111 0
73 -75 154 0
40 150 158 0
-32 -51 -97 0
43 71 194 0
24 48 140 0
-52 151 -154 0
24 -84 119 0
-4 76 94 0
47 -119 142 0
-1 36 80 0
-1 -25 -185 0
20 85 -144 0
108 132 180 0
12 40 127 0
65 139 -174 0
-31 150 -179 0
-27 -126 -184 0
83 129 -154 0
-29 94 150 0
-101 -169 -173 0
-10 -17 23 0
-25 68 -175 0
146 151 -161 0
-12 39 -148 0
114 138 181 0
5 -93 196 0
-57 142 -189 0
-14 -70 -76 0
-63 -65 96 0
30 92 -185 0
-162 178 -198 0
-1 46 63 0
-55 -109 -177 0
29 107 -120 0
36 -150 183 0
46 -117 -187 0
46 111 -118 0
-133 -150 -158 0
-41 71 -102 0
-29 147 160 0
86 -103 190 0
-5 -9 68 0
17 79 -128 0
-114 142 193 0
-150 -166 199 0
130 167 199 0
150 -179 -200 0
27 41 120 0
-114 133 135 0
43 127 -180 0
-49 119 166 0
28 -47 -162 0
-11 -152 168 0
-106 -111 -113 0
-21 110 129 0
-9 -69 115 0
84 -192 195 0
26 40 -90 0
-55 183 -197 0
-3 -52 -165 0
-27 79 -120 0
-2 151 173 0
-79 -99 130 0
-59 -80 115 0
-160 -184 200 0
-102 115 -157 0
9 61 -145 0
45 -138 158 0
-45 -106 134 0
33 -96 -102 0
27 -72 -84 0
-91 134 -158 0
34 -58 -115 0
-101 -130 -136 0
-33 -77 -120 0
20 -121 -184 0
-132 152 -190 0
-21 -46 -69 0
93 135 -141 0
-19 -31 43 0
19 75 164 0
34 -36 -101 0
-18 185 199 0
-110 112 -114 0
39 170 -195 0
95 -149 153 0
-25 -163 -169 0
13 44 103 0
-22 57 178 0
-118 -158 182 0
167 -172 -199 0
-13 -80 -137 0
9 -103 155 0
-67 108 111 0
60 82 90 0
105 -110 159 0
-84 124 179 0
-16 -153 193 0
-81 -126 128 0
-38 -60 -163 0
-86 118 -134 0
-41 -114 161 0
23 105 -148 0
-101 137 149 0
118 -155 178 0
49 -118 -176 0
-47 152 167 0
26 50 -149 0
28 96 -160 0
-31 -60 -176 0
-10 27 -85 0
58 -60 159 0
26 192 -196 0
55 -107 -129 0
-127 128 -145 0
39 -98 -183 0
90 103 142 0
43 -161 -178 0
13 68 -98 0
37 -189 -196 0
-7 -71 98 0
-80 -140 185 0
3 140 146 0
-56 -162 -169 0
-44 -142 -156 0
9 69 -139 0
67 109 -153 0
76 -139 163 0
-14 -79 -179 0
-9 -97 -170 0
37 87 -174 0
-50 163 167 0
-60 -100 -130 0
-11 -14 -94 0
58 124 -185 0
-41 -88 -138 0
72 112 180 0
-23 186 192 0
-28 59 179 0
18 119 -170 0
-83 155 174 0
50 148 -177 0
-61 -165 172 0
76 158 174 0
32 52 102 0
-58 92 181 0
-13 -20 112 0
-31 -52 123 0
7 -70 -92 0
-25 29 119 0
115 122 175 0
62 154 169 0
-37 65 -92 0
114 162 -168 0
88 132 -159 0
-63 -114 -163 0
-23 60 -136 0
-54 -78 200 0
67 -71 -190 0
78 -114 -121 0
-19 23 -44 0
146 196 200 0
-34 95 145 0
-41 124 195 0
-14 -44 74 0
49 -56 148 0
110 -130 -153 0
56 83 -103 0
-24 -37 -39 0
-53 55 158 0
-41 -92 -118 0
-12 155 163 0
-87 -120 192 0
36 39 -133 0
-29 -118 198 0
-109 179 -180 0
-18 26 -197 0
11 -139 -148 0
5 8 98 0
-34 -46 198 0
-82 94 141 0
-123 -158 197 0
85 132 -184 0
14 61 -158 0
41 -100 106 0
20 -118 -140 0
-100 131 -140 0
-26 -153 -182 0
-4 -16 -81 0
-91 -120 145 0
4 -34 -191 0
-32 47 -95 0
64 130 -159 0
-42 52 -185 0
163 -165 177 0
85 101 -162 0
69 -153 -154 0
-11 -99 104 0
68 -86 -163 0
9 -10 -150 0
39 -64 104 0
-3 -193 199 0
-62 117 152 0
133 -151 179 0
77 148 -200 0
-89 -103 -161 0
66 161 176 0
12 -28 121 0
20 59 -81 0
-38 -39 47 0
1 -9 31 0
17 132 179 0
27 96 112 0
104 129 -200 0
-143 151 -163 0
114 -140 188 0
-13 70 158 0
-32 73 -100 0
-12 -35 -170 0
124 146 -151 0
-56 -65 186 0
-15 -55 150 0
-36 86 -191 0
73 108 139 0
-7 -58 112 0
16 64 -128 0
27 141 158 0
147 -154 -188 0
-88 114 -199 0
5 59 -180 0
-3 6 -154 0
-118 -129 150 0
33 -34 60 0
43 49 -186 0
21 44 179 0
-63 90 182 0
41 -44 -192 0
-26 36 198 0
-9 -58 88 0
11 85 97 0
41 -77 -126 0
-73 139 160 0
-29 -48 -109 0
-69 -93 -147 0
122 -148 -158 0
37 -57 -106 0
-14 77 -134 0
121 -188 198 0
-55 -63 111 0
12 109 -141 0
14 -189 199 0
-38 42 -91 0
27 -125 -165 0
54 -75 196 0
-83 126 -157 0
3 56 -79 0
115 -155 170 0
87 101 149 0
-6 98 179 0
-15 -40 80 0
-69 -109 157 0
-67 -164 168 0
19 70 -85 0
-50 118 -161 0
113 -118 123 0
-86 90 142 0
-38 -98 133 0
-49 112 181 0
-5 -20 -183 0
31 94 197 0
57 93 122 0
73 -96 -194 0
79 -90 94 0
29 -113 -117 0
52 -67 -115 0
29 57 117 0
-64 -132 133 0
-31 -48 -170 0
43 69 -138 0
-21 110 -166 0
78 184 -187 0
-144 -160 174 0
16 -41 -158 0
58 76 -135 0
40 -122 154 0
-78 170 -200 0
-46 -81 99 0
-72 87 -113 0
62 -168 -192 0
156 -165 -192 0
1 105 123 0
109 -164 -187 0
-86 -128 -198 0
35 -54 -71 0
56 97 170 0
49 124 155 0
96 -164 -199 0
5 42 -65 0
23 -35 89 0
-148 172 186 0
-1 -89 -106 0
-147 154 -187 0
2 -79 197 0
-96 -132 153 0
-97 -118 -160 0
39 69 -110 0
-36 134 194 0
-4 31 39 0
-42 95 -169 0
-127 145 159 0
67 -123 -169 0
16 -17 -165 0
-121 145 -154 0
-75 103 172 0
-4 -87 -163 0
148 -168 -169 0
-59 114 -121 0
50 -54 -81 0
20 -36 -38 0
35 -110 152 0
-14 -138 -167 0
29 -134 -152 0
55 62 67 0
11 -14 128 0
34 -45 128 0
44 90 -167 0
24 -115 175 0
-4 136 176 0
-99 -116 -131 0
-93 98 134 0
-90 -132 -199 0
-23 33 -49 0
-29 92 175 0
57 158 171 0
82 -85 181 0
-89 -90 -109 0
-49 -160 198 0
61 -120 -190 0
19 134 -184 0
98 -110 -196 0
-62 117 198 0
-32 41 -55 0
-12 48 -74 0
27 -41 156 0
-99 -108 -156 0
2 -190 193 0
-17 -158 187 0
31 -150 -180 0
-60 -153 -171 0
-50 -89 -104 0
29 127 186 0
-32 -152 -182 0
-3 -49 -163 0
-55 -110 -157 0
1 -51 -182 0
-81 -122 161 0
30 93 -155 0
-15 -99 -126 0
128 140 172 0
