c F1 random 3-CNF cnfgen RandomKCNF(3,175,746,seed=0) m/n=4.26
p cnf 175 746
-11 -99 -108 0
78 92 -123 0
-25 36 -159 0
-19 26 -85 0
81 -112 -157 0
16 67 -134 0
-1 -161 172 0
17 49 84 0
24 -115 -140 0
-28 78 -142 0
-53 -139 155 0
82 -99 153 0
-9 -48 49 0
23 34 174 0
-101 139 175 0
-108 -151 -174 0
92 -165 170 0
-125 151 162 0
5 -30 70 0
16 86 110 0
12 147 163 0
49 -156 163 0
10 30 95 0
32 54 -123 0
26 67 159 0
-78 90 166 0
11 -120 129 0
67 92 121 0
-41 -42 174 0
114 153 -171 0
-105 -146 -175 0
40 -65 169 0
-12 86 140 0
-91 -124 157 0
80 100 107 0
41 -62 -86 0
107 -146 -173 0
-12 43 -170 0
-41 115 136 0
-80 84 -127 0
49 141 163 0
-103 107 174 0
1 4 173 0
-51 -156 167 0
26 102 -122 0
30 -66 116 0
5 40 72 0
-67 -143 175 0
-127 -156 -168 0
-46 -54 138 0
-36 -39 -70 0
24 87 -159 0
-39 -42 -150 0
34 -76 141 0
13 -46 -79 0
77 85 -107 0
87 -88 122 0
-10 -110 128 0
-43 145 161 0
22 -51 57 0
-26 -101 -143 0
-56 150 -174 0
57 -67 150 0
17 -30 92 0
-31 102 128 0
38 56 -160 0
93 97 -140 0
-38 -104 -145 0
128 163 172 0
82 83 -88 0
-40 -98 155 0
11 22 133 0
-4 -11 77 0
-39 -118 168 0
24 -147 174 0
-75 -138 -154 0
60 151 156 0
-78 -130 146 0
-68 -78 -127 0
16 42 -165 0
-10 -15 86 0
21 -126 -155 0
-10 -120 157 0
26 39 121 0
-27 83 -162 0
-16 -29 126 0
76 -160 -175 0
32 133 -175 0
-49 -96 114 0
-11 12 125 0
-24 -59 161 0
-38 110 145 0
-17 26 107 0
107 -111 -115 0
21 65 -91 0
8 89 90 0
19 94 153 0
53 169 -173 0
7 95 155 0
-29 -117 123 0
-8 -54 -93 0
-76 142 163 0
-27 137 -149 0
-33 38 58 0
-48 75 96 0
6 101 154 0
-77 108 -141 0
77 91 -164 0
95 -162 -164 0
-3 83 -107 0
24 76 -121 0
29 -143 -156 0
48 108 -111 0
-37 -88 134 0
53 -76 -124 0
2 -56 77 0
-24 109 -121 0
6 -72 162 0
-1 -66 102 0
65 73 91 0
-19 68 79 0
-18 -42 107 0
134 147 -161 0
-104 -140 -163 0
96 146 161 0
-31 98 -103 0
-91 122 -162 0
-82 126 -129 0
37 77 127 0
91 101 121 0
-2 102 172 0
-1 70 159 0
49 -74 -147 0
-44 -85 -99 0
-38 115 135 0
-48 -90 -114 0
-51 57 100 0
9 60 -100 0
15 164 -174 0
-23 -132 -157 0
-14 -118 -162 0
-56 -66 122 0
-12 14 -42 0
2 -36 168 0
102 -143 156 0
27 -87 -156 0
-84 117 138 0
21 -49 95 0
-52 -65 -173 0
66 89 -124 0
-3 -19 -142 0
-13 -106 127 0
21 22 -62 0
55 -113 -157 0
-11 47 64 0
-72 82 -91 0
-52 -139 -157 0
-67 138 163 0
26 -31 158 0
56 -73 169 0
-32 99 -166 0
-59 140 173 0
-17 79 -133 0
74 123 161 0
-84 130 142 0
40 46 102 0
55 128 146 0
91 -99 156 0
-7 -135 -158 0
4 -57 -80 0
-21 81 -140 0
-49 75 82 0
-10 -64 81 0
67 -89 172 0
92 139 -147 0
6 126 161 0
-4 12 58 0
89 109 -170 0
-37 92 -112 0
-3 -98 -105 0
-11 -32 145 0
1 36 -129 0
46 61 64 0
21 -110 154 0
-11 -155 -158 0
-7 10 -161 0
-39 75 -172 0
-42 -87 -104 0
-4 -80 136 0
-137 142 -147 0
-31 -102 104 0
-6 -9 70 0
-88 -133 136 0
30 -85 145 0
3 40 -85 0
-75 -93 -161 0
104 111 154 0
12 -114 146 0
-123 170 171 0
72 109 141 0
41 -164 -169 0
69 -73 -80 0
-67 -135 138 0
2 -37 -111 0
-10 119 144 0
41 -93 -136 0
5 -64 147 0
-20 108 -147 0
26 -49 131 0
-102 -110 -163 0
84 -92 157 0
3 -65 -127 0
-112 161 -163 0
-33 -91 146 0
102 122 134 0
89 93 145 0
-29 139 -172 0
7 -81 -101 0
37 -153 -172 0
16 42 -131 0
12 -134 165 0
22 89 -150 0
-52 -67 -84 0
40 115 142 0
-9 132 165 0
117 -157 166 0
-35 86 168 0
1 88 -133 0
-91 -146 -156 0
93 132 -163 0
6 -33 47 0
12 -106 -166 0
-14 44 -154 0
-14 -91 -113 0
-8 -47 106 0
17 92 100 0
-6 46 -90 0
-117 127 142 0
68 103 138 0
-26 86 92 0
74 133 -161 0
41 87 141 0
41 -164 175 0
-124 161 174 0
-62 73 163 0
-42 -58 -91 0
36 99 145 0
39 45 -100 0
1 10 131 0
40 -98 -173 0
64 -86 146 0
19 -103 -137 0
25 -111 -112 0
-58 -62 102 0
-65 71 -135 0
-11 -61 71 0
-13 37 -137 0
-27 -101 111 0
-44 88 -122 0
-29 95 -129 0
122 133 -162 0
-46 -84 150 0
75 -111 -142 0
54 89 97 0
43 -92 -157 0
20 -119 165 0
40 44 54 0
-35 -127 -135 0
31 -68 -105 0
-38 97 -137 0
-89 -100 -121 0
26 40 175 0
53 -153 166 0
10 22 -97 0
-28 -82 -124 0
59 125 171 0
-7 43 -165 0
6 -68 104 0
-14 113 -145 0
-60 86 -130 0
-27 -69 -159 0
-47 59 -68 0
37 117 -156 0
101 -105 -145 0
29 -59 76 0
15 36 169 0
-9 104 -143 0
88 89 144 0
-59 80 128 0
-91 127 131 0
79 -109 -147 0
38 -60 -74 0
73 99 -157 0
91 -121 -129 0
-72 -92 111 0
-31 75 -123 0
-48 63 87 0
-99 -100 175 0
-103 -129 173 0
1 -81 -133 0
59 101 -111 0
-24 52 68 0
8 47 94 0
2 98 137 0
21 -51 120 0
46 -60 -138 0
1 -112 122 0
-8 -69 -158 0
117 165 -174 0
7 27 -70 0
-54 147 -169 0
31 -129 131 0
115 -121 -131 0
-33 66 -107 0
-60 -64 -117 0
-2 -7 115 0
-62 -65 110 0
-59 -73 113 0
-23 49 134 0
-10 40 -88 0
-49 -100 174 0
-13 43 -101 0
-47 133 -139 0
-55 147 170 0
82 125 155 0
-16 35 63 0
-109 -133 -166 0
-42 -50 -96 0
-82 113 170 0
-30 -40 57 0
-6 12 95 0
-106 146 150 0
-35 -136 -172 0
17 -138 140 0
-53 -108 158 0
6 -62 158 0
-29 -67 120 0
-98 99 -130 0
-12 -23 40 0
-112 -123 135 0
30 112 156 0
31 -64 -111 0
-30 -89 99 0
16 87 -139 0
-6 67 -164 0
-26 144 -158 0
27 134 -147 0
-9 58 134 0
-46 59 -170 0
-41 69 90 0
-33 81 120 0
-79 84 170 0
4 75 -157 0
-52 -132 142 0
-107 129 137 0
83 -119 152 0
-112 161 173 0
3 -69 -164 0
74 141 168 0
-15 -67 -153 0
-58 -65 -150 0
32 96 109 0
8 99 -123 0
-26 33 -47 0
32 -106 -135 0
-69 104 111 0
52 92 135 0
-38 48 78 0
41 60 107 0
64 -77 135 0
-16 -43 106 0
-99 135 137 0
3 23 137 0
-102 -116 -173 0
67 102 170 0
12 -14 54 0
-35 116 170 0
-90 -92 -171 0
6 -35 -123 0
78 -113 -122 0
-85 -90 -164 0
77 129 -173 0
56 68 -132 0
-67 -88 111 0
50 66 118 0
27 66 153 0
-45 -159 170 0
5 169 -173 0
-61 -101 128 0
30 111 150 0
-70 137 -153 0
48 -51 82 0
-130 152 157 0
14 112 155 0
80 85 -108 0
-36 -81 -169 0
70 -85 156 0
-28 -67 -132 0
-41 156 172 0
-29 -48 150 0
68 -71 109 0
3 11 156 0
99 -105 124 0
22 101 165 0
-8 13 -106 0
104 -105 140 0
33 144 165 0
-74 -121 148 0
3 104 163 0
40 73 164 0
2 -83 86 0
-23 -54 -96 0
121 125 -175 0
-99 -104 113 0
-37 -57 165 0
19 -37 40 0
-18 -135 -171 0
-103 -123 -171 0
-10 -60 -129 0
2 -64 132 0
95 112 159 0
11 -92 146 0
-69 -88 125 0
-61 -166 168 0
12 -123 -135 0
55 -124 149 0
-81 -114 157 0
101 -110 -132 0
-55 62 -76 0
-61 117 -154 0
37 63 -66 0
-47 53 123 0
-54 -128 -139 0
-52 -91 132 0
12 -50 51 0
-65 -74 -129 0
14 99 -173 0
-41 -69 -158 0
57 96 124 0
-5 130 169 0
-6 11 -25 0
33 -148 -157 0
41 48 152 0
-59 67 -127 0
-21 35 53 0
-5 90 -151 0
21 72 159 0
54 -148 173 0
38 -125 138 0
-45 -117 172 0
71 164 -167 0
-70 91 -126 0
17 -101 142 0
25 -152 167 0
67 109 138 0
-68 84 -113 0
99 100 141 0
-79 114 -158 0
23 -53 101 0
120 130 173 0
-25 -60 62 0
55 135 -141 0
24 26 -50 0
-102 -154 165 0
53 89 -90 0
56 133 175 0
61 -117 -121 0
-85 101 171 0
95 128 157 0
-5 -62 105 0
95 133 -163 0
-20 82 175 0
-76 -109 134 0
-20 37 113 0
90 126 -155 0
30 55 -68 0
46 -109 -138 0
-22 147 175 0
63 127 134 0
-67 -120 150 0
32 -61 161 0
4 37 58 0
18 -28 -72 0
-67 148 149 0
-16 -37 -116 0
100 -105 164 0
23 55 152 0
-3 -82 116 0
-85 146 -168 0
-25 114 -167 0
22 -79 95 0
99 -115 -165 0
120 146 157 0
-28 69 -99 0
-68 121 -132 0
4 -45 -69 0
-8 -28 -169 0
-50 85 160 0
-64 92 -121 0
-105 110 112 0
34 116 -143 0
-61 123 -168 0
15 -76 -173 0
-32 135 143 0
-1 -24 87 0
-63 -96 172 0
4 103 116 0
54 -80 85 0
-27 140 158 0
29 43 -114 0
43 -67 113 0
26 -32 80 0
-59 -66 99 0
-3 109 -164 0
-81 -89 -132 0
42 70 -89 0
-6 -83 -165 0
6 -64 173 0
-51 100 155 0
-106 -120 126 0
51 -53 146 0
-23 -133 169 0
-6 -21 110 0
-51 -76 -158 0
-10 -17 -23 0
98 -164 -166 0
-1 -103 -142 0
-40 -103 -173 0
-95 -121 141 0
-10 -89 -109 0
-17 59 -175 0
7 87 -160 0
18 26 46 0
-3 -134 168 0
-75 102 113 0
28 -41 -123 0
78 -79 -101 0
-16 18 -119 0
80 -141 163 0
-11 24 -109 0
1 15 80 0
44 121 153 0
27 35 144 0
-26 52 125 0
115 122 129 0
96 109 131 0
-25 -64 -142 0
-140 -144 147 0
-24 -40 -145 0
91 96 130 0
37 66 175 0
30 -124 -126 0
-11 -36 45 0
-25 129 -162 0
49 83 -163 0
-27 -71 103 0
-60 85 -164 0
-41 70 -138 0
-21 86 -167 0
-46 -59 168 0
44 -52 -128 0
11 67 174 0
45 85 104 0
-49 -140 -165 0
30 -89 -94 0
-48 59 123 0
-106 127 158 0
-98 110 -174 0
17 -41 146 0
26 -40 -65 0
-108 -134 -166 0
-31 -65 -119 0
73 -97 156 0
-70 109 168 0
-22 107 143 0
-100 -127 -174 0
122 143 -149 0
54 79 111 0
43 -117 -156 0
-40 -113 -126 0
-12 -58 -135 0
137 -153 167 0
36 -38 130 0
-7 12 126 0
36 -120 161 0
-34 -78 92 0
26 -27 -85 0
47 -94 -149 0
55 -104 -163 0
-111 -125 172 0
53 -109 110 0
-36 -83 -120 0
-42 63 -88 0
40 -57 -128 0
-23 45 -170 0
30 -92 -170 0
80 84 -86 0
44 -48 164 0
21 67 -135 0
-23 101 119 0
15 -29 39 0
21 73 -148 0
-45 -104 -136 0
-45 -161 166 0
-22 -42 55 0
-85 -109 133 0
-36 45 90 0
-17 33 -113 0
31 58 83 0
-81 -141 -158 0
-70 130 170 0
51 -70 -129 0
-13 -29 -45 0
82 -87 -156 0
-7 38 134 0
5 22 144 0
80 83 171 0
-46 -59 -93 0
11 54 -101 0
3 40 107 0
-72 -76 -82 0
-69 -85 -126 0
-86 -103 172 0
-55 -77 120 0
46 49 123 0
70 129 -130 0
-32 64 124 0
10 14 133 0
-38 -54 145 0
25 -97 126 0
-58 -153 156 0
25 36 108 0
-69 71 -174 0
26 -87 140 0
-16 49 -88 0
-32 110 -151 0
77 -127 156 0
44 -85 -89 0
2 159 -161 0
-18 -117 -175 0
8 -73 104 0
-34 77 -85 0
-2 114 -156 0
7 46 -77 0
116 -132 -137 0
34 93 144 0
-29 52 63 0
-68 -85 -97 0
-10 -80 133 0
-4 -122 134 0
76 90 -145 0
-31 52 -91 0
-43 66 160 0
48 100 106 0
-18 -56 138 0
41 -44 -156 0
-16 55 138 0
13 153 -167 0
-52 134 169 0
-1 -96 140 0
-4 -78 149 0
72 -85 89 0
-4 10 -91 0
-60 -111 146 0
45 117 147 0
-24 33 101 0
28 141 -167 0
-44 73 -104 0
108 -133 162 0
-9 107 174 0
48 87 118 0
-31 -52 -76 0
-37 -47 148 0
-29 98 -146 0
57 -100 -105 0
12 158 -165 0
58 125 147 0
-8 43 78 0
136 -159 -164 0
4 36 -94 0
-70 157 171 0
-50 69 -151 0
76 -96 126 0
-50 73 92 0
49 -52 97 0
7 -89 101 0
-52 66 131 0
-109 129 173 0
32 -74 -76 0
64 138 -149 0
-50 -92 110 0
-36 119 161 0
-103 -118 -124 0
-12 37 -73 0
18 -46 152 0
-28 -75 161 0
-13 -104 145 0
42 63 168 0
76 -92 125 0
48 88 -154 0
-27 39 132 0
-27 -144 -175 0
24 86 -158 0
67 -88 -132 0
17 33 -116 0
-66 72 -86 0
-63 -83 -164 0
-5 -52 -97 0
6 -140 155 0
24 37 -112 0
51 93 168 0
-82 111 171 0
-71 118 162 0
3 41 116 0
14 24 -95 0
-66 -80 -145 0
13 130 158 0
26 36 60 0
-112 -152 -158 0
-4 158 163 0
-77 -142 157 0
118 -146 -147 0
79 -143 -170 0
-69 116 -132 0
-20 83 112 0
27 85 151 0
5 80 -119 0
-61 -71 132 0
-103 -115 -155 0
-4 148 -155 0
-24 -40 -99 0
57 -72 -160 0
25 67 122 0
-65 86 -93 0
-45 -88 172 0
-78 -130 -139 0
-6 20 -90 0
-68 76 -158 0
41 63 89 0
97 -98 114 0
-4 118 174 0
27 -103 120 0
-3 -15 -36 0
-18 -86 -124 0
13 -60 134 0
82 98 174 0
