c F1 random 3-CNF cnfgen RandomKCNF(3,100,426,seed=18) m/n=4.26
p cnf 100 426
-16 -24 85 0
-26 63 -81 0
34 -38 59 0
42 67 87 0
-26 31 -95 0
-28 39 -92 0
-29 -52 -99 0
-35 77 -91 0
62 -65 73 0
-25 27 -83 0
62 66 -74 0
-44 69 -85 0
-19 20 62 0
-12 70 -83 0
69 75 88 0
-24 -52 62 0
-35 51 -91 0
-44 79 -94 0
-3 70 90 0
-79 84 -95 0
-2 -13 -71 0
-62 -72 79 0
-23 -29 48 0
12 46 100 0
10 21 -34 0
14 -48 -76 0
-12 35 -78 0
-53 66 -90 0
-6 -56 -96 0
12 -28 37 0
-83 87 89 0
-42 -88 97 0
-10 -29 91 0
12 -93 -98 0
-65 -68 -99 0
3 59 97 0
-11 51 85 0
28 -32 36 0
-17 -30 92 0
55 -68 -87 0
18 -64 -79 0
-8 68 -78 0
37 38 89 0
3 22 -39 0
9 -23 71 0
-11 -59 95 0
-25 -57 -98 0
-18 -26 -39 0
5 28 -48 0
-9 -12 64 0
-9 10 -62 0
-2 43 56 0
27 31 -37 0
3 26 -81 0
8 -20 -31 0
-42 -71 -89 0
-30 -37 -46 0
47 -54 -69 0
-20 -27 87 0
-25 37 -60 0
-40 -50 -89 0
25 -38 40 0
-87 97 98 0
-8 -46 86 0
-54 -79 -91 0
-26 -72 -87 0
32 74 92 0
-66 -75 -97 0
-46 -55 -87 0
76 -85 92 0
3 -5 41 0
42 -63 -72 0
19 -42 81 0
-29 -35 90 0
-9 -16 -54 0
27 80 93 0
2 22 -87 0
16 68 -73 0
29 -44 -52 0
7 -49 -70 0
-59 80 -88 0
-6 12 67 0
-87 95 -96 0
4 15 82 0
-35 -39 43 0
38 44 51 0
54 68 -79 0
41 68 86 0
-66 77 -100 0
-10 44 -65 0
24 -81 87 0
-27 39 70 0
-18 61 92 0
-20 -45 67 0
49 -58 79 0
-43 -78 -84 0
-32 55 -64 0
3 -21 -47 0
31 -40 55 0
-6 12 -89 0
-12 49 -87 0
-6 24 43 0
17 77 86 0
-6 -44 56 0
-28 63 84 0
11 -33 -55 0
50 77 82 0
-33 -61 -89 0
-55 59 -75 0
-64 70 86 0
72 -79 -98 0
-6 72 90 0
7 -22 29 0
4 -9 43 0
2 61 -99 0
1 -52 -76 0
-5 -26 46 0
-28 -40 -68 0
-33 36 98 0
-6 16 71 0
16 21 43 0
-1 -79 -99 0
-11 13 -24 0
27 -46 -56 0
25 -48 96 0
-20 67 -69 0
-53 76 84 0
-3 -65 -90 0
16 23 51 0
1 -38 41 0
-80 -88 99 0
4 -15 90 0
9 -18 -72 0
17 -44 52 0
-24 -50 60 0
23 28 78 0
19 -35 -56 0
6 13 -44 0
18 -67 80 0
47 -63 -64 0
-34 44 -78 0
10 -50 67 0
-28 -39 42 0
20 27 38 0
-2 -60 62 0
-30 -33 -89 0
2 31 -84 0
17 84 -97 0
40 -90 -99 0
-3 -68 81 0
12 -65 87 0
1 -38 98 0
-19 -62 -93 0
-33 -35 -73 0
-20 -28 96 0
-64 69 -89 0
-9 92 -98 0
26 -48 56 0
35 -38 -53 0
-25 51 81 0
-4 -38 60 0
-5 -74 87 0
55 83 85 0
-15 27 75 0
-15 17 -90 0
-80 88 -97 0
14 63 74 0
18 35 59 0
4 -21 82 0
3 45 71 0
-38 -95 -98 0
-39 -62 -78 0
39 -53 -78 0
11 57 -69 0
28 -42 -47 0
9 13 91 0
-31 -76 79 0
-30 -71 -85 0
-25 41 -80 0
4 76 -97 0
-6 -81 -89 0
-32 -44 -48 0
-24 34 -42 0
-4 -12 -14 0
28 38 82 0
2 -19 32 0
-5 8 -35 0
-1 37 64 0
15 34 -91 0
-2 -25 -89 0
6 34 57 0
22 -49 -71 0
52 -68 -83 0
-2 37 -48 0
-10 65 -69 0
51 -74 81 0
-19 -65 -89 0
-44 74 -94 0
-43 -52 -66 0
-10 37 65 0
7 28 -67 0
31 70 98 0
-24 41 62 0
-35 -39 81 0
4 50 74 0
5 19 -35 0
58 78 90 0
35 -46 -50 0
58 -91 -94 0
6 -7 -27 0
-7 -29 -79 0
-77 78 90 0
-8 -56 -93 0
-27 -32 67 0
7 64 -69 0
8 -21 58 0
-20 -66 80 0
-4 34 -97 0
-8 79 -95 0
-11 45 -46 0
-26 -33 76 0
-43 -83 93 0
-16 25 -52 0
43 44 68 0
52 -68 87 0
-7 34 -37 0
-24 58 -93 0
-9 -65 99 0
-4 18 98 0
22 36 -75 0
-39 76 -99 0
-2 4 75 0
-46 -49 -83 0
7 15 -80 0
-6 -64 76 0
-28 75 -98 0
65 -68 -69 0
7 -27 -64 0
-18 -32 -45 0
-11 76 95 0
-55 57 -71 0
2 26 -36 0
-1 7 60 0
45 91 -93 0
-64 -67 -93 0
-6 -54 -57 0
47 -67 -80 0
-23 35 89 0
66 91 96 0
-8 -46 -84 0
4 52 -87 0
-19 -75 78 0
-10 56 -71 0
17 33 49 0
10 -49 -92 0
19 -60 65 0
-56 -63 -73 0
31 39 -45 0
1 -25 94 0
-64 -79 -81 0
27 -40 67 0
-45 -92 -94 0
-62 64 99 0
-74 76 -79 0
24 46 -54 0
13 14 24 0
-18 91 -98 0
12 -42 -80 0
-59 -76 89 0
23 -68 81 0
46 51 92 0
11 27 39 0
-5 15 61 0
23 -77 89 0
14 -45 79 0
-39 -64 -90 0
-65 -86 89 0
-37 48 88 0
6 -73 -99 0
9 14 62 0
-32 53 56 0
-25 33 46 0
13 -33 41 0
-10 50 82 0
43 -56 -72 0
8 39 -59 0
46 58 -70 0
-33 -84 98 0
-57 59 -74 0
-21 -40 -82 0
48 -56 -93 0
-10 16 93 0
3 -9 45 0
-25 69 -85 0
-21 47 -56 0
14 -34 -84 0
52 68 -78 0
2 57 98 0
17 19 -84 0
24 -46 -97 0
50 -79 -90 0
-55 -65 97 0
9 17 91 0
-48 -57 79 0
-6 23 -54 0
-16 -54 -92 0
-9 -30 37 0
-15 77 100 0
6 66 -74 0
-8 40 -82 0
-48 76 -88 0
5 -15 83 0
9 -13 35 0
-13 -37 -88 0
-21 33 -47 0
33 72 -78 0
-30 -72 -100 0
-39 56 -76 0
-65 94 95 0
-21 81 -85 0
7 38 64 0
60 94 -96 0
-11 -26 64 0
-11 -16 51 0
-12 -55 -77 0
-12 -24 65 0
-14 -18 -65 0
8 -39 69 0
32 -38 -71 0
16 -60 -94 0
-31 -48 -98 0
11 66 -87 0
-25 -51 -73 0
18 -79 85 0
-23 40 -82 0
-48 67 68 0
28 -77 -96 0
-92 94 95 0
-10 -51 -96 0
-14 30 90 0
17 -36 -83 0
27 62 -75 0
3 -25 72 0
66 82 92 0
-1 58 -99 0
50 -55 71 0
29 -42 -80 0
-20 22 65 0
25 46 81 0
-30 -36 42 0
78 85 -92 0
5 -68 90 0
-19 -60 86 0
21 -36 -91 0
-1 -3 58 0
34 -36 100 0
24 -26 -42 0
-26 42 -45 0
-28 -42 -68 0
-35 47 -95 0
38 43 -51 0
-20 -38 67 0
-9 -52 -96 0
-78 84 -99 0
41 80 -94 0
-9 -32 -70 0
14 73 -74 0
66 -70 -78 0
2 -11 -91 0
-69 81 99 0
39 -54 65 0
8 -18 29 0
-54 57 88 0
8 10 -73 0
-25 -72 -85 0
16 -37 -61 0
-15 31 -87 0
8 -77 -96 0
-12 47 -87 0
-8 87 -99 0
-4 36 64 0
-19 -22 -37 0
36 92 98 0
-16 -29 -56 0
-4 57 69 0
-49 -67 82 0
-13 86 -97 0
-8 31 -46 0
-17 38 91 0
-38 41 -81 0
26 68 86 0
1 35 63 0
9 -34 -42 0
71 -81 83 0
31 -57 76 0
-19 -25 68 0
-1 -49 -84 0
9 -36 93 0
-71 74 -82 0
3 51 -54 0
44 -51 -100 0
31 39 -60 0
14 -30 89 0
80 88 94 0
-1 -43 59 0
3 -4 -32 0
1 11 -67 0
-26 27 -50 0
17 34 -51 0
25 27 -83 0
23 -26 -55 0
23 45 -100 0
-33 81 92 0
-43 -56 -92 0
-1 -65 -84 0
3 17 89 0
-34 65 -99 0
21 -27 -87 0
-17 31 -49 0
19 -35 38 0
22 46 -69 0
66 -73 84 0
-14 16 38 0
-14 19 -65 0
18 29 -75 0
-6 -38 -74 0
