c F1 random 3-CNF cnfgen RandomKCNF(3,225,959,seed=13) m/n=4.26
p cnf 225 959
67 75 176 0
58 165 223 0
-55 137 -217 0
33 -176 215 0
-22 -204 -224 0
-36 -204 225 0
-125 -141 -194 0
81 -164 -168 0
115 -142 -177 0
46 76 -138 0
-65 -96 -118 0
34 126 148 0
34 -94 -180 0
-1 100 185 0
-37 -128 207 0
-106 -188 189 0
-162 181 219 0
55 128 -186 0
-146 150 -187 0
43 50 202 0
18 -110 -165 0
24 135 -166 0
-32 78 -105 0
94 134 -219 0
-40 86 128 0
-9 76 205 0
67 -109 -176 0
61 -92 -151 0
-53 90 -165 0
23 102 118 0
79 -168 -199 0
86 -100 -142 0
36 38 -222 0
-41 -56 -211 0
9 75 -89 0
-114 126 -150 0
34 -76 137 0
33 140 190 0
23 -96 -123 0
55 206 211 0
-134 196 -202 0
14 159 215 0
-137 -195 -208 0
-39 77 -140 0
8 14 -43 0
-24 86 -222 0
11 -29 -196 0
69 100 -121 0
1 -78 -135 0
-58 -64 85 0
-196 -206 -215 0
-40 119 -149 0
122 183 213 0
124 129 211 0
-2 35 -151 0
134 147 -186 0
6 -7 137 0
-14 -167 188 0
6 125 -156 0
-3 -130 136 0
-14 135 156 0
-26 -38 95 0
89 -175 185 0
35 66 183 0
15 140 -165 0
-92 -98 225 0
-114 -135 -220 0
-32 -53 173 0
-107 123 -197 0
100 106 -124 0
-1 -38 56 0
76 111 144 0
29 168 -192 0
55 81 161 0
13 48 -179 0
-46 145 -169 0
40 132 -219 0
14 133 -159 0
77 -79 -108 0
-149 -184 -207 0
55 184 191 0
-13 31 220 0
26 -79 -160 0
-12 27 -154 0
-60 85 123 0
23 -126 -183 0
4 36 108 0
-39 90 -110 0
-85 93 193 0
38 -41 190 0
111 -154 -205 0
54 -142 210 0
-101 -102 -203 0
21 -74 143 0
153 -193 -214 0
-27 138 219 0
49 143 -186 0
-12 70 -128 0
-49 118 -190 0
-53 111 -198 0
57 -104 206 0
-5 -10 -179 0
-34 130 -224 0
-126 151 161 0
-16 182 205 0
-8 30 -186 0
10 107 -123 0
128 188 206 0
185 204 211 0
-44 76 -179 0
1 155 -184 0
17 -30 200 0
15 -50 145 0
-116 174 -185 0
154 161 163 0
134 -149 202 0
103 -106 -159 0
116 193 -198 0
61 -118 183 0
119 -185 198 0
149 -170 -201 0
-5 -62 113 0
-10 -36 225 0
19 -20 217 0
159 -171 -196 0
-1 148 -183 0
89 -142 -189 0
22 -220 224 0
31 -40 -147 0
-74 127 -176 0
-27 -50 148 0
20 -79 116 0
13 -110 -175 0
-32 54 -165 0
6 -121 167 0
-75 191 -205 0
35 -109 175 0
-43 94 -193 0
-132 186 222 0
25 44 81 0
-73 -92 204 0
-4 49 189 0
-27 -36 -107 0
66 -81 -144 0
-59 167 -222 0
18 27 -63 0
44 -56 -174 0
-49 64 152 0
-84 -106 -175 0
-20 94 -103 0
-76 -177 201 0
38 -137 216 0
-86 -92 -161 0
28 -41 168 0
53 -156 -184 0
126 -134 173 0
-70 115 -221 0
-49 -211 -212 0
-47 -96 -175 0
-12 47 211 0
-60 -167 -194 0
8 -23 -123 0
90 107 -109 0
46 62 203 0
28 61 -107 0
-48 190 -195 0
-21 -31 135 0
-17 -76 115 0
29 -123 155 0
-76 188 -220 0
128 -198 -216 0
-107 -136 -188 0
40 83 -162 0
-54 -109 -211 0
53 -100 -158 0
-3 -130 -146 0
20 109 -159 0
62 172 -189 0
-6 33 119 0
4 28 -47 0
-10 -77 219 0
60 76 -100 0
-71 163 201 0
-8 27 48 0
-42 -70 -72 0
54 -59 -73 0
20 46 98 0
-120 -159 172 0
15 -22 -160 0
-26 -121 -166 0
7 -152 -200 0
-45 -75 -99 0
104 119 137 0
44 -120 199 0
157 163 -216 0
37 -87 -165 0
94 132 145 0
-133 -149 -191 0
40 65 -132 0
58 84 182 0
-30 158 186 0
106 -220 -224 0
55 182 -213 0
57 -120 -176 0
76 -136 170 0
-106 164 -210 0
-83 -166 170 0
-33 82 -215 0
-50 81 -193 0
88 -120 -137 0
-96 181 -206 0
-12 25 31 0
-12 24 -220 0
71 110 139 0
88 -128 -161 0
-32 156 208 0
-140 144 214 0
46 -148 -187 0
-52 67 -81 0
16 -26 93 0
8 -149 173 0
8 -135 207 0
30 -45 64 0
17 -86 -174 0
-56 -148 218 0
-13 77 -140 0
1 -13 149 0
-20 24 -167 0
-122 124 -174 0
129 -166 225 0
-28 116 -173 0
-14 -120 138 0
-14 -63 -65 0
-60 77 -181 0
-39 82 118 0
51 93 132 0
32 72 -155 0
-71 152 -216 0
-98 -153 183 0
-20 29 85 0
123 -143 155 0
-56 131 -225 0
64 185 -214 0
-1 -93 99 0
-13 61 137 0
-40 -57 -175 0
117 -134 -192 0
143 199 -210 0
73 138 146 0
-37 -130 -158 0
-80 -168 196 0
-13 159 -205 0
89 -106 -143 0
-81 97 -131 0
-74 -167 200 0
2 216 218 0
42 71 179 0
22 175 198 0
-102 -116 -147 0
-8 -50 222 0
-99 168 223 0
-22 -95 -175 0
36 136 -151 0
23 -85 223 0
57 129 151 0
6 -66 157 0
-129 -192 -217 0
85 -115 223 0
150 205 206 0
-79 222 223 0
-86 -167 186 0
-74 -86 -117 0
-14 134 -199 0
88 -175 -211 0
-6 151 220 0
-40 89 -220 0
-40 -69 179 0
135 -179 211 0
113 -151 176 0
-69 -154 -198 0
70 -208 212 0
19 -104 -222 0
116 143 188 0
-25 118 -148 0
40 -132 -196 0
142 -167 -207 0
104 111 179 0
29 -57 144 0
-55 69 142 0
118 144 -174 0
80 169 209 0
-59 71 204 0
-90 -108 152 0
106 125 -200 0
24 170 -217 0
35 92 -94 0
71 72 84 0
136 -140 218 0
44 131 -141 0
27 28 54 0
-44 -74 -144 0
11 -96 -124 0
-93 -152 170 0
-6 -16 -207 0
75 -81 103 0
-1 14 77 0
-1 -88 -185 0
-102 123 161 0
-4 14 219 0
-107 121 197 0
33 168 200 0
-46 -88 188 0
102 106 -216 0
-75 146 -186 0
36 -141 -164 0
86 141 -212 0
-61 -74 -225 0
-29 149 220 0
-107 147 -176 0
-105 137 -146 0
53 127 -211 0
20 -40 166 0
-27 -168 180 0
-99 124 190 0
80 -112 191 0
103 -177 216 0
78 -160 -201 0
114 -215 -222 0
-29 -79 202 0
41 49 -129 0
16 58 173 0
33 57 -201 0
-76 116 143 0
13 -116 -165 0
-43 -108 -140 0
18 49 -164 0
94 136 158 0
-31 92 110 0
17 -75 156 0
34 -125 219 0
-8 55 -96 0
-32 -54 -211 0
66 -67 -84 0
-92 106 204 0
41 -182 194 0
-106 -140 -153 0
-10 63 -217 0
-2 -110 -152 0
-25 -36 -176 0
-36 -148 192 0
13 -132 135 0
-32 88 -131 0
79 -163 188 0
39 -41 -164 0
-23 67 -83 0
39 110 -180 0
-23 -183 -223 0
-42 101 205 0
31 -51 -112 0
-57 -74 -206 0
7 -67 143 0
56 128 -177 0
-6 15 -138 0
-111 172 -190 0
-113 -174 -222 0
-142 161 162 0
-54 115 -145 0
45 -145 198 0
1 26 133 0
-105 127 162 0
144 -154 -158 0
-101 -157 -190 0
27 123 163 0
-164 182 -184 0
89 142 -225 0
-103 -165 -190 0
-35 -177 190 0
48 -133 -183 0
38 76 -86 0
83 -127 -158 0
5 -45 160 0
-10 84 171 0
4 88 113 0
-111 140 163 0
100 157 184 0
55 -130 -208 0
-65 90 -132 0
-85 129 196 0
33 35 -172 0
-70 86 134 0
72 111 128 0
155 191 -208 0
90 -91 100 0
-35 122 222 0
12 -31 -186 0
78 118 167 0
-73 -112 -171 0
138 -179 186 0
84 126 211 0
9 -181 -185 0
114 -132 -141 0
187 -192 222 0
114 131 -206 0
72 110 -224 0
62 -186 217 0
-54 81 104 0
-20 25 -167 0
-35 53 -200 0
35 125 203 0
94 117 -182 0
-86 -120 152 0
94 -101 -112 0
81 148 154 0
-96 106 -117 0
-83 203 207 0
-14 -140 164 0
83 -122 -218 0
-15 -200 218 0
32 -85 -123 0
7 99 -184 0
-120 139 193 0
4 8 225 0
58 97 140 0
-105 -108 121 0
-32 115 -151 0
-6 31 201 0
-45 177 220 0
21 39 201 0
42 163 -164 0
5 -53 63 0
-14 -150 164 0
43 59 195 0
-145 154 219 0
-76 115 -157 0
71 134 157 0
-46 98 -188 0
26 105 181 0
3 161 -183 0
24 -159 177 0
38 159 -221 0
-70 -81 -124 0
32 46 195 0
-49 -178 -182 0
-17 44 -117 0
9 69 182 0
-32 -36 39 0
-10 68 134 0
-125 -217 -218 0
-28 131 159 0
61 146 -202 0
22 38 -225 0
-56 127 174 0
-93 -131 -157 0
-152 -219 222 0
-23 134 -166 0
-135 -206 -209 0
4 -78 159 0
-6 107 -124 0
-67 92 165 0
1 -112 -140 0
70 129 -146 0
41 -94 -170 0
40 -50 -161 0
21 -73 -103 0
43 -65 -77 0
15 34 134 0
-42 -111 156 0
71 77 -196 0
73 -170 185 0
-95 176 -207 0
162 171 176 0
-55 60 79 0
-53 76 204 0
-1 84 -116 0
-4 -18 -165 0
16 -118 190 0
32 -195 -198 0
-27 119 -194 0
15 -37 154 0
-67 -150 196 0
90 -127 202 0
78 100 215 0
73 101 -138 0
-72 135 -167 0
52 174 -206 0
-61 210 -225 0
13 202 219 0
-16 92 -111 0
-8 -75 -142 0
-126 -191 206 0
-54 192 203 0
67 111 140 0
-154 -157 219 0
-112 197 212 0
14 -85 -115 0
-36 -190 224 0
-33 -127 178 0
-5 -58 -110 0
20 -204 -225 0
34 143 222 0
-95 -131 225 0
-190 -200 -201 0
65 -101 -112 0
33 -36 -104 0
64 134 165 0
9 84 85 0
-18 113 188 0
-119 192 -224 0
80 96 -208 0
3 -116 141 0
75 -156 -170 0
-87 215 -219 0
38 143 147 0
-22 84 -168 0
154 170 -213 0
94 111 -173 0
42 -64 111 0
117 160 -184 0
14 -29 200 0
11 -123 -126 0
35 97 166 0
7 -49 -116 0
-85 86 183 0
62 122 -158 0
-72 159 -202 0
-21 107 122 0
-31 -105 146 0
-37 -44 224 0
-3 -17 -119 0
11 47 -103 0
-76 -130 192 0
91 -101 193 0
-20 39 -92 0
-49 -85 95 0
-9 15 -101 0
10 -92 -169 0
24 52 123 0
36 65 -183 0
-11 -24 -79 0
47 -99 -185 0
-21 77 153 0
91 -181 -219 0
10 -47 -220 0
-51 123 -131 0
-52 84 -197 0
-132 161 211 0
-8 -52 128 0
28 -51 122 0
86 102 173 0
84 102 -135 0
-97 117 -178 0
-51 -118 127 0
-35 80 -197 0
10 -91 131 0
62 144 -194 0
-22 -100 -118 0
16 122 146 0
18 -35 63 0
9 107 143 0
65 -120 -134 0
3 66 -85 0
108 -136 -158 0
-16 26 -189 0
-86 139 142 0
79 113 -212 0
3 -112 -219 0
95 124 -211 0
-141 -165 201 0
-116 -124 -183 0
49 173 180 0
75 -140 -176 0
122 134 163 0
31 121 200 0
-92 119 206 0
31 -71 154 0
102 -106 -119 0
12 60 -134 0
27 -33 39 0
-67 118 137 0
-20 36 -194 0
8 184 -202 0
-37 -93 -212 0
99 -159 171 0
133 189 -206 0
60 -72 201 0
2 -7 -116 0
80 106 -206 0
-56 -115 166 0
-42 -93 170 0
-165 221 -223 0
57 157 -195 0
13 128 -156 0
-14 74 -154 0
-55 -170 -225 0
-86 187 -195 0
-11 83 -146 0
34 -49 -89 0
-139 -165 -205 0
64 138 -177 0
64 73 -129 0
12 -79 152 0
48 59 128 0
-21 -145 -193 0
47 81 -97 0
-72 86 87 0
-36 77 201 0
26 101 -121 0
58 -137 185 0
45 92 -151 0
5 93 -198 0
13 -48 196 0
42 -51 65 0
-90 -201 224 0
53 -80 160 0
37 154 175 0
-28 29 -135 0
62 -69 89 0
-117 151 203 0
-95 -106 -116 0
13 30 136 0
-65 -66 -85 0
23 136 186 0
-29 211 219 0
58 -146 -170 0
37 49 -107 0
22 100 182 0
16 -101 205 0
-49 -86 -172 0
-62 -83 -179 0
-52 204 216 0
29 -46 64 0
-101 115 195 0
49 169 205 0
28 -46 -110 0
112 -133 -209 0
-62 94 187 0
19 178 225 0
15 206 -224 0
40 -182 219 0
-107 166 184 0
-120 -221 -223 0
-57 -122 130 0
43 53 -65 0
7 -64 -108 0
5 91 -143 0
34 164 168 0
-50 -95 105 0
20 35 -79 0
-76 -160 203 0
-62 186 -198 0
-35 99 198 0
97 146 203 0
41 -186 -192 0
-74 95 -126 0
-14 17 -133 0
93 -179 -198 0
194 -214 223 0
16 -56 133 0
100 -110 -184 0
128 -140 -162 0
119 161 163 0
-10 47 204 0
-21 -107 -180 0
144 146 188 0
70 87 131 0
-124 173 214 0
61 71 -154 0
14 -110 150 0
-77 87 176 0
39 -151 -222 0
129 135 -190 0
-115 -167 -216 0
24 -66 79 0
-18 190 -222 0
13 39 136 0
-95 135 153 0
-4 44 -67 0
-16 -151 -213 0
-47 113 170 0
35 -115 -122 0
-109 -179 -219 0
-37 -40 86 0
-6 -46 -133 0
6 27 -183 0
-49 50 198 0
-15 173 -215 0
85 140 -217 0
148 -151 -187 0
23 64 159 0
16 174 219 0
-95 -187 -215 0
18 -54 136 0
-37 116 225 0
-31 -122 212 0
17 -61 -180 0
145 191 220 0
-8 42 77 0
-15 -102 110 0
23 200 208 0
22 49 213 0
-18 212 217 0
57 -113 118 0
-37 -65 -167 0
-56 -137 166 0
-48 116 -192 0
-5 -15 26 0
-8 61 97 0
2 21 146 0
-3 77 158 0
-20 155 -164 0
72 -78 -175 0
70 103 -121 0
28 -57 196 0
-30 88 194 0
-8 134 -174 0
-102 -109 -139 0
104 135 137 0
-7 144 -151 0
-20 137 -154 0
69 71 92 0
-53 -70 -213 0
-103 199 218 0
-180 -185 -206 0
6 -14 115 0
-105 140 -175 0
25 -58 199 0
42 79 -105 0
18 -65 183 0
7 17 -218 0
-27 113 117 0
-157 -166 -201 0
-96 137 -158 0
-44 147 -173 0
109 -122 148 0
-67 110 -176 0
-42 148 -203 0
-30 -161 169 0
57 162 190 0
14 24 139 0
84 -102 -161 0
-104 -156 196 0
-62 70 83 0
24 26 60 0
51 69 -118 0
-87 -101 164 0
-8 -86 -119 0
39 70 174 0
-155 -189 -196 0
-78 -126 -191 0
-53 75 184 0
-82 202 -205 0
19 -99 107 0
32 65 213 0
-13 -116 145 0
-28 97 185 0
-85 117 195 0
-51 214 215 0
34 38 -88 0
-54 -64 -75 0
-30 88 118 0
-4 75 -161 0
-61 90 -172 0
-56 -141 211 0
84 127 -186 0
-24 28 100 0
20 79 -209 0
-68 -92 -114 0
23 -143 203 0
6 142 -172 0
65 -142 144 0
-5 -90 215 0
43 -60 -172 0
-139 -151 180 0
-4 -56 223 0
21 104 -209 0
2 -92 -139 0
-98 -150 -182 0
96 197 213 0
7 20 161 0
135 -143 -154 0
-48 -51 96 0
59 63 199 0
10 69 84 0
-6 -20 70 0
78 98 202 0
23 152 165 0
39 -75 -203 0
83 -155 -221 0
34 -72 219 0
-103 -151 -225 0
97 179 -216 0
-123 -144 188 0
-89 -107 -218 0
-10 151 -175 0
-87 -139 -159 0
2 -124 -169 0
-62 153 -155 0
-29 85 140 0
49 -125 -145 0
-17 37 210 0
38 159 170 0
36 -99 101 0
-19 187 -191 0
-16 145 -160 0
-116 -162 212 0
6 -25 -122 0
-32 55 140 0
1 -153 168 0
-105 139 -151 0
157 -160 201 0
-25 75 206 0
-67 126 -159 0
18 -46 -169 0
-33 93 107 0
-75 94 205 0
-101 157 162 0
114 120 -181 0
-28 -121 137 0
17 -82 98 0
35 -98 137 0
-38 -97 -135 0
-57 183 212 0
-42 -51 221 0
184 -188 -224 0
-12 40 131 0
62 125 -178 0
-81 94 -222 0
-43 -100 -155 0
66 -202 216 0
14 -38 -221 0
-45 -165 199 0
104 -136 151 0
85 91 -168 0
-20 -96 -220 0
-40 207 -213 0
144 -146 150 0
70 -114 190 0
-66 -98 -155 0
93 135 -151 0
-107 181 -199 0
41 103 -157 0
16 94 -168 0
-147 -160 191 0
100 123 149 0
54 -162 -204 0
47 -49 132 0
104 -112 -140 0
-15 -170 -182 0
-15 71 -89 0
-19 20 -219 0
34 -177 199 0
-78 -188 -204 0
-38 149 177 0
-49 105 189 0
-4 14 225 0
38 -51 -63 0
-119 133 194 0
-72 -209 -210 0
13 34 211 0
85 -92 -184 0
-2 -87 -148 0
50 -92 -178 0
48 159 -203 0
-54 148 -170 0
-83 92 -98 0
114 196 -198 0
-92 -102 156 0
24 -107 -119 0
22 -29 35 0
45 121 221 0
135 -171 211 0
7 -148 221 0
-54 123 153 0
-162 -192 -225 0
78 -172 203 0
-59 67 -157 0
-92 -94 -147 0
-15 -86 208 0
-76 189 -218 0
-3 99 167 0
42 -164 202 0
-59 145 -170 0
-28 136 -212 0
-2 103 -116 0
44 50 121 0
-78 -166 -182 0
-30 51 59 0
-21 -81 147 0
-7 -71 101 0
7 158 175 0
22 74 -105 0
20 80 -181 0
12 -95 169 0
106 -174 200 0
-66 93 147 0
123 -155 217 0
60 75 146 0
56 -71 -209 0
-20 78 -171 0
36 -62 162 0
9 21 87 0
17 -95 126 0
-15 82 169 0
-89 -97 152 0
125 191 -209 0
-40 94 116 0
4 -35 88 0
48 -184 -208 0
-142 -154 210 0
15 -111 151 0
59 -123 169 0
2 -26 -153 0
-109 -120 194 0
22 -166 180 0
5 7 136 0
-5 -11 -204 0
43 -52 104 0
-54 75 -187 0
-4 20 161 0
24 211 -213 0
-2 -73 110 0
54 100 148 0
-24 77 -151 0
-1 27 -73 0
114 171 -184 0
14 38 158 0
1 40 -207 0
-50 -111 -211 0
-34 -134 155 0
-41 80 164 0
58 -140 -224 0
110 196 215 0
95 138 225 0
105 -107 200 0
29 190 223 0
185 195 -207 0
34 -79 219 0
-18 -29 -153 0
-62 -97 -197 0
-23 -183 198 0
26 -102 210 0
-21 38 62 0
-38 49 -154 0
-152 192 206 0
-117 -127 -161 0
-6 13 99 0
-24 -100 183 0
32 80 185 0
-103 -110 -147 0
-54 -74 145 0
43 -82 92 0
-11 -156 177 0
-51 81 204 0
-14 57 -150 0
-76 126 212 0
46 102 -172 0
-61 134 178 0
60 93 148 0
-124 153 -170 0
