c F1 random 3-CNF cnfgen RandomKCNF(3,175,746,seed=17) m/n=4.26
p cnf 175 746
-78 -107 134 0
72 139 170 0
-65 -99 108 0
16 36 142 0
32 -85 -139 0
21 -122 -130 0
5 -96 111 0
96 -123 149 0
30 -55 143 0
17 69 -71 0
-79 90 -169 0
-25 -148 149 0
-5 -13 -90 0
-14 -51 163 0
6 -125 -159 0
47 -101 152 0
29 -55 -174 0
-13 42 -81 0
-65 104 169 0
62 -140 163 0
-13 -76 125 0
-105 133 -142 0
-56 59 -124 0
-8 148 -154 0
44 -143 -149 0
-45 -55 -78 0
24 133 152 0
-46 -142 -148 0
-36 -130 138 0
48 -68 -76 0
-14 55 85 0
-8 29 121 0
7 117 -138 0
15 32 -110 0
-69 -89 92 0
21 -87 -135 0
31 83 -86 0
-32 73 114 0
80 -108 -175 0
33 -55 130 0
-112 113 136 0
-43 -137 -151 0
17 105 158 0
-61 -110 141 0
-63 74 -127 0
-2 -32 163 0
-23 111 132 0
-19 -74 -76 0
-39 -69 79 0
-27 112 168 0
-55 -95 -140 0
21 -79 104 0
10 -146 -150 0
-104 -109 -157 0
42 55 -107 0
-51 59 -163 0
51 -91 -169 0
23 -34 -166 0
-59 -97 103 0
55 -84 99 0
-26 105 122 0
-8 68 128 0
38 41 -66 0
-14 -23 -113 0
-97 133 166 0
73 137 -138 0
-76 90 158 0
-12 -96 -123 0
3 -57 94 0
30 98 -157 0
29 119 -174 0
13 69 174 0
-36 -57 -122 0
85 -142 156 0
-1 99 -163 0
83 -118 138 0
-120 137 166 0
19 83 174 0
22 -76 108 0
-105 -126 132 0
104 129 -145 0
-60 -82 169 0
-26 53 -159 0
94 112 159 0
2 -64 -67 0
12 99 -110 0
83 -152 -171 0
-62 -69 154 0
-7 33 -36 0
-2 -45 -151 0
26 50 72 0
84 -120 156 0
-67 -93 109 0
-27 45 -64 0
-27 -67 -133 0
67 -101 -131 0
42 55 132 0
11 -30 -92 0
54 59 130 0
-9 -126 -168 0
-86 134 139 0
17 -23 -160 0
-9 40 -168 0
-42 82 -88 0
-76 161 167 0
-110 -146 -154 0
-16 136 -162 0
2 10 -78 0
30 129 -151 0
-41 -127 154 0
56 -113 122 0
50 -62 142 0
-71 122 -152 0
-37 -116 -169 0
-17 -68 122 0
-42 105 134 0
-15 124 -167 0
-67 94 131 0
7 -64 128 0
89 -101 -167 0
74 130 -146 0
4 94 -162 0
-10 23 81 0
66 77 -132 0
-25 -68 109 0
40 77 -158 0
79 158 167 0
-14 -52 -60 0
-1 18 111 0
-85 126 -167 0
51 117 157 0
69 84 157 0
31 69 -99 0
35 -93 137 0
-23 -124 -161 0
52 86 -151 0
70 77 -100 0
87 -139 164 0
-50 -88 -136 0
-96 -103 136 0
-10 -56 -159 0
-42 61 84 0
45 50 175 0
81 109 133 0
-37 89 131 0
89 -107 -149 0
-21 90 108 0
-38 83 122 0
44 108 171 0
88 -106 -135 0
-7 -9 72 0
7 84 175 0
44 -129 -162 0
-14 64 156 0
6 7 161 0
-53 88 166 0
33 123 -154 0
-15 18 -132 0
-52 72 147 0
35 -64 -116 0
26 -104 127 0
-158 -168 175 0
15 51 -174 0
36 -41 -47 0
-15 79 -100 0
78 127 148 0
-10 -148 -149 0
47 106 -109 0
12 68 -123 0
97 -140 143 0
29 118 -137 0
-4 -67 -81 0
-1 -139 -166 0
32 -77 157 0
-59 98 130 0
22 82 -87 0
75 109 -135 0
-26 158 -174 0
-71 -119 142 0
-77 97 -122 0
55 64 -166 0
70 -105 -112 0
53 -60 111 0
51 -84 164 0
15 -90 -122 0
-56 85 146 0
-100 116 148 0
-81 127 130 0
70 -78 97 0
-59 74 166 0
-70 -148 154 0
107 -112 131 0
5 -26 81 0
-64 -94 -116 0
30 124 169 0
-21 -24 95 0
-68 -102 -149 0
-26 -67 -124 0
68 81 -108 0
3 -130 -134 0
-4 106 138 0
-58 -59 -133 0
-59 -132 -152 0
-43 84 103 0
-106 -126 -153 0
-57 -102 172 0
-21 54 109 0
-68 -136 154 0
57 -102 133 0
31 -103 -133 0
7 -41 151 0
107 -109 -126 0
-17 123 175 0
-1 -36 -112 0
-107 149 159 0
115 -160 173 0
20 29 57 0
-16 123 -144 0
-42 -65 109 0
23 140 148 0
21 43 -115 0
88 97 98 0
107 -157 -171 0
42 -57 -163 0
24 -125 135 0
-35 36 123 0
-68 160 165 0
108 128 -136 0
81 104 120 0
119 145 164 0
-39 -63 119 0
21 -88 159 0
-80 -137 -156 0
111 171 -172 0
-8 -61 -146 0
5 58 -152 0
-131 -141 143 0
-44 -63 -119 0
-48 89 -112 0
-20 -44 150 0
-36 -127 -141 0
54 97 169 0
34 47 -112 0
-5 -91 -96 0
102 132 153 0
73 -117 -171 0
22 91 98 0
70 136 -164 0
-24 100 -129 0
-16 -76 118 0
12 -94 -171 0
-45 56 91 0
50 -83 175 0
-56 88 -161 0
-57 -84 -159 0
77 126 133 0
-64 105 165 0
25 -86 147 0
15 -71 -137 0
6 40 -72 0
61 63 -125 0
-108 120 140 0
59 75 -141 0
50 122 157 0
-28 -80 -168 0
109 -133 156 0
139 -160 -171 0
4 -51 142 0
-87 92 173 0
135 145 -173 0
11 22 -46 0
-30 33 -150 0
-25 -150 -162 0
103 -126 164 0
15 77 121 0
-51 99 -110 0
29 42 -151 0
39 42 -100 0
-4 -54 110 0
-5 68 158 0
32 33 140 0
62 64 160 0
14 33 -81 0
57 63 118 0
125 -138 146 0
-44 -120 175 0
59 80 -128 0
-4 -19 -121 0
-1 -37 -73 0
124 -128 151 0
-9 112 119 0
11 86 100 0
-47 -138 -157 0
-106 139 167 0
13 -46 -120 0
-24 105 172 0
43 -66 -103 0
45 48 85 0
-56 -69 122 0
-14 -63 172 0
-28 -56 -98 0
-24 -75 -155 0
60 74 -100 0
22 -73 109 0
-35 46 155 0
12 122 141 0
8 25 144 0
116 131 166 0
-61 -64 124 0
25 -29 -60 0
-49 136 143 0
48 166 167 0
-98 127 138 0
-46 -76 150 0
-23 -93 156 0
1 -85 139 0
37 57 -95 0
14 22 -57 0
-10 16 -73 0
95 -96 -165 0
-54 -77 104 0
48 -58 111 0
-36 -137 -141 0
106 152 156 0
98 -163 -174 0
10 28 -171 0
52 -110 120 0
7 71 121 0
-12 26 -40 0
42 102 138 0
-6 138 -157 0
23 -47 103 0
15 55 -66 0
-11 -72 -128 0
-32 -36 -62 0
-26 -72 -128 0
-119 -143 -150 0
81 -131 173 0
-42 125 -175 0
-38 -40 147 0
-1 91 -107 0
-49 104 164 0
-15 45 49 0
-19 -149 156 0
-78 -108 111 0
-10 -40 88 0
49 -121 -145 0
-64 122 136 0
-69 -70 -112 0
68 134 -175 0
-6 26 72 0
44 69 174 0
-6 55 -142 0
-114 -130 152 0
-93 -139 -166 0
-8 -81 -174 0
29 78 -139 0
-75 -91 -138 0
-21 -107 -145 0
130 149 175 0
56 -84 116 0
17 31 82 0
20 -89 168 0
11 -49 -50 0
31 35 -105 0
27 28 -84 0
-58 -163 170 0
90 130 -149 0
-49 -79 86 0
-38 149 154 0
-62 -156 -173 0
1 -103 123 0
-58 -61 -66 0
10 30 40 0
68 -111 168 0
1 23 -110 0
-126 -145 -149 0
-82 117 144 0
-12 18 136 0
-129 -157 165 0
-23 -119 -122 0
-41 -124 -135 0
-64 71 -166 0
-7 -78 -160 0
-39 -40 -121 0
-82 -93 -128 0
-19 42 172 0
-41 104 107 0
13 -111 175 0
-86 -124 -129 0
-62 72 125 0
17 98 101 0
-20 -45 -104 0
-92 -118 -171 0
-115 152 -174 0
89 140 161 0
3 79 -121 0
29 76 133 0
6 117 -175 0
-4 113 174 0
31 135 -165 0
-133 166 175 0
10 89 -156 0
60 86 92 0
-43 61 171 0
-73 -152 166 0
-27 59 -118 0
9 13 -77 0
16 -172 175 0
-10 31 -84 0
-88 -118 -136 0
65 88 -118 0
4 111 -152 0
28 33 -67 0
66 75 -140 0
-48 -68 -84 0
-20 -128 -141 0
-9 -33 116 0
-20 26 -51 0
-85 -153 155 0
-41 -49 -133 0
6 -29 -95 0
65 155 158 0
19 -49 99 0
-2 -22 -157 0
-33 58 -68 0
55 118 148 0
36 -57 -158 0
6 -58 100 0
92 -94 120 0
-41 -128 -137 0
-79 118 -143 0
-3 18 -145 0
24 44 103 0
-23 -81 108 0
58 -129 -167 0
8 -19 64 0
8 78 -137 0
-33 -56 173 0
-26 -115 132 0
90 -159 -166 0
-23 63 130 0
24 77 -144 0
-16 47 -155 0
-38 -116 147 0
41 -79 102 0
-11 25 -157 0
63 -86 154 0
-65 -157 169 0
-119 137 -143 0
151 -159 174 0
-1 25 58 0
-69 -78 -154 0
-41 81 153 0
-30 36 -125 0
-35 140 142 0
21 117 119 0
8 -88 -160 0
51 -154 159 0
27 -105 -123 0
-12 155 -172 0
60 -93 163 0
-97 -115 139 0
1 -32 -76 0
61 -62 -89 0
-95 -122 152 0
42 75 158 0
-23 -32 -51 0
43 71 78 0
24 48 140 0
-52 151 -154 0
24 -84 119 0
-4 76 94 0
47 -119 142 0
-1 36 80 0
-1 -25 94 0
20 85 -135 0
46 108 132 0
40 127 151 0
65 139 -174 0
-31 133 -150 0
-27 -124 -126 0
33 -129 157 0
-94 132 153 0
-101 -169 -173 0
-10 -17 23 0
-25 68 -175 0
146 151 -161 0
-12 39 -148 0
56 114 138 0
-53 93 161 0
-36 -106 -154 0
-14 -120 166 0
-65 90 -96 0
-30 -46 49 0
1 -46 117 0
-35 -55 -109 0
29 107 -120 0
-36 61 150 0
-33 -91 117 0
-12 -45 -111 0
68 -71 102 0
-29 128 147 0
-9 86 103 0
-5 -68 148 0
17 79 -128 0
-114 129 142 0
-150 -156 166 0
8 130 167 0
94 -123 149 0
-42 -52 56 0
13 43 -127 0
-49 119 166 0
28 -47 -162 0
-11 -152 168 0
-106 -111 -113 0
-21 110 129 0
-9 -69 115 0
13 84 -101 0
-17 26 -56 0
3 -35 -74 0
-27 -79 120 0
97 -151 173 0
-57 -99 -130 0
-11 -59 -115 0
-31 -160 163 0
-102 115 -157 0
9 61 -145 0
45 -138 158 0
-45 -106 134 0
33 -96 -102 0
27 -72 -84 0
-91 134 -158 0
34 -58 -115 0
-101 -130 -136 0
-33 -77 -120 0
-20 -51 -121 0
-60 -132 151 0
-46 -94 118 0
31 45 -103 0
62 -122 164 0
24 -36 55 0
110 -124 159 0
-2 -156 -162 0
-61 100 136 0
-29 104 -149 0
-25 -56 -163 0
13 44 103 0
22 57 -71 0
65 126 -141 0
-13 -121 -137 0
77 -134 155 0
-55 -125 -130 0
15 -97 170 0
41 -61 -82 0
-14 -26 -116 0
-16 -46 48 0
-81 -126 128 0
-38 -60 -163 0
-86 118 -134 0
-41 -114 161 0
23 105 -148 0
-101 137 149 0
-35 118 155 0
-16 113 -118 0
24 132 175 0
-47 54 -152 0
-53 57 160 0
-74 126 -156 0
10 -68 158 0
58 -159 173 0
-4 -26 40 0
-53 -67 -167 0
-49 79 102 0
-109 -118 162 0
22 -43 -47 0
13 68 -98 0
-14 -37 -150 0
-7 98 -101 0
67 123 140 0
12 -47 -139 0
-44 -128 -142 0
9 69 -139 0
67 109 -153 0
76 -139 163 0
-14 -79 -115 0
-9 71 -109 0
33 -161 174 0
122 163 -167 0
-60 -130 -175 0
-11 -14 -94 0
54 -58 124 0
-76 -88 -138 0
34 59 -72 0
15 34 -172 0
52 -138 146 0
-15 -52 90 0
8 50 -148 0
-61 -165 172 0
76 158 174 0
32 52 102 0
-58 92 146 0
-13 -20 112 0
-31 -52 123 0
7 -70 -92 0
-25 29 119 0
115 122 175 0
62 154 169 0
-37 65 -92 0
114 162 -168 0
88 132 -159 0
-63 -114 -163 0
-23 60 -136 0
-54 -78 142 0
-62 -67 -71 0
-44 -78 121 0
19 -44 66 0
25 -63 95 0
-41 64 124 0
-14 -44 74 0
49 -56 148 0
110 -130 -153 0
56 83 -103 0
-24 -37 -39 0
-53 55 158 0
-41 -92 -118 0
-12 155 163 0
-72 87 120 0
-39 -46 54 0
-20 -71 119 0
-18 26 -123 0
11 -139 -148 0
5 8 98 0
-34 46 -84 0
-82 141 162 0
-77 123 -158 0
-10 18 163 0
-4 -52 -152 0
-41 50 150 0
-31 -118 -156 0
-131 139 -140 0
-26 -80 -153 0
-4 -16 -121 0
-91 108 145 0
-22 -34 135 0
47 -95 123 0
27 -130 159 0
-42 52 -98 0
-33 85 162 0
69 -113 -153 0
-11 -99 104 0
68 -86 -163 0
9 -10 -150 0
39 -64 104 0
3 75 -95 0
17 -35 85 0
40 -77 -148 0
-83 -84 103 0
1 48 -167 0
44 -55 80 0
-12 37 169 0
-38 65 167 0
-1 9 51 0
-20 -60 64 0
29 -57 159 0
-43 91 -130 0
-34 114 -140 0
13 105 168 0
-73 100 -173 0
-12 -35 -170 0
124 146 -151 0
-56 -65 144 0
-15 -55 150 0
36 -86 -121 0
41 108 -160 0
-7 -58 134 0
16 64 -128 0
27 141 158 0
-8 -147 -154 0
-62 88 109 0
-47 63 163 0
-39 -96 -169 0
94 129 148 0
16 60 95 0
35 56 79 0
-20 22 -134 0
30 44 -61 0
-26 36 107 0
-9 -58 88 0
11 85 97 0
41 -77 -126 0
-73 139 160 0
-29 -48 -109 0
-69 -93 -147 0
122 -148 -158 0
37 -57 -106 0
-14 77 -134 0
-23 121 175 0
-63 111 113 0
32 -109 141 0
19 -45 73 0
72 -140 162 0
125 -172 -173 0
-15 54 -75 0
-30 83 -157 0
-9 -17 56 0
121 -151 -158 0
7 64 -150 0
89 165 173 0
-15 -80 155 0
-69 -109 157 0
-67 -164 168 0
19 70 -85 0
-50 118 -161 0
113 -118 123 0
-86 90 142 0
-38 -98 133 0
49 66 112 0
-5 -87 -158 0
15 31 156 0
37 93 -122 0
-26 -73 -146 0
-30 79 94 0
-49 -113 117 0
-38 -67 -115 0
29 57 166 0
-64 -132 133 0
-31 -48 -170 0
43 69 -138 0
-21 110 -166 0
-45 -59 -78 0
16 -41 -53 0
58 76 -135 0
40 -122 154 0
78 -115 -170 0
-46 99 -124 0
72 -83 113 0
-61 118 -168 0
78 105 123 0
15 -109 -171 0
-86 -100 -128 0
-17 -35 54 0
97 163 170 0
49 124 155 0
-37 -96 -164 0
5 -42 53 0
