c F1 random 3-CNF cnfgen RandomKCNF(3,200,852,seed=15) m/n=4.26
p cnf 200 852
3 54 134 0
5 -15 175 0
-30 -87 -120 0
59 -68 -89 0
-58 79 -187 0
-21 -108 -126 0
-81 -146 178 0
5 51 126 0
74 127 136 0
-13 -19 -102 0
-46 60 129 0
-43 -80 -161 0
-19 -87 114 0
-30 -127 174 0
-24 67 190 0
16 -66 -116 0
12 -128 129 0
-60 -119 146 0
-3 -15 -157 0
-15 -89 -159 0
-8 111 -141 0
100 133 -158 0
-64 -128 132 0
-81 -151 176 0
91 -155 180 0
45 -130 -165 0
-26 -33 -86 0
-141 158 -189 0
2 -26 149 0
-51 -149 -168 0
60 -143 166 0
-176 -182 -200 0
8 -70 -87 0
16 48 120 0
53 -65 166 0
41 -59 -83 0
58 -108 190 0
-45 -123 -129 0
44 -111 -153 0
64 -114 -190 0
44 104 -167 0
-8 -87 -114 0
-100 114 117 0
-81 -116 -172 0
22 55 -134 0
-28 -169 -179 0
-46 -66 116 0
-57 78 -177 0
39 75 -115 0
31 133 -168 0
-57 -110 -158 0
-161 -167 174 0
-83 -91 -98 0
25 -86 171 0
59 173 -189 0
-56 -62 -66 0
-48 61 125 0
-137 144 155 0
16 67 -197 0
-85 -101 -134 0
-93 108 -168 0
146 -163 191 0
43 112 172 0
-12 -23 -160 0
-40 51 138 0
-14 90 -134 0
8 -38 -129 0
37 -57 177 0
-57 -184 -185 0
13 -31 -197 0
81 -194 196 0
-4 -63 133 0
73 -102 193 0
-14 -172 190 0
29 -46 -51 0
48 -62 -175 0
35 124 145 0
133 -166 -169 0
22 -86 124 0
118 -165 -186 0
43 -153 -155 0
-102 -113 149 0
37 71 175 0
18 -56 104 0
56 -92 111 0
-109 141 186 0
2 37 -193 0
-47 -82 133 0
-26 30 182 0
-33 -73 -127 0
95 118 157 0
-80 -86 -97 0
-45 -80 136 0
2 -95 -98 0
20 66 163 0
-9 93 -196 0
3 5 48 0
-156 159 -172 0
21 69 175 0
134 157 165 0
55 -66 -156 0
33 61 -132 0
130 151 200 0
38 -68 138 0
54 -96 138 0
14 18 -135 0
133 149 -196 0
44 130 -193 0
-29 45 -97 0
-61 122 182 0
-36 78 -97 0
72 -138 -159 0
-90 -110 -127 0
51 -115 -170 0
-65 75 -91 0
-105 109 -118 0
20 -36 -133 0
11 -113 -185 0
-49 -109 170 0
21 62 -199 0
87 101 -160 0
-28 122 -198 0
4 7 -165 0
62 -106 153 0
33 48 107 0
82 97 155 0
14 -118 -132 0
-33 -91 -126 0
10 20 66 0
10 70 -141 0
48 -114 -198 0
-44 165 -189 0
36 60 -130 0
67 -90 -103 0
-80 131 -174 0
-25 67 112 0
42 103 -146 0
80 -86 -109 0
59 -70 178 0
-4 117 -176 0
1 64 197 0
53 -116 120 0
50 123 -193 0
55 109 195 0
57 109 189 0
111 -135 175 0
114 130 158 0
-2 -10 99 0
-21 -25 132 0
-110 140 141 0
99 126 -180 0
-117 129 152 0
38 115 -125 0
-35 46 -133 0
-126 175 -196 0
-102 134 -171 0
-3 75 -151 0
88 101 193 0
-2 -77 130 0
52 67 -182 0
93 -158 -193 0
7 -34 195 0
-23 -89 175 0
51 -100 -189 0
7 144 191 0
67 -95 163 0
-79 139 -167 0
-55 58 -186 0
-58 -66 -170 0
20 77 -86 0
25 -66 164 0
46 94 190 0
70 174 175 0
-39 -84 142 0
-125 -139 162 0
-12 33 -197 0
-43 -143 150 0
-127 -153 -156 0
-31 54 188 0
37 51 -143 0
-33 -166 193 0
7 -39 78 0
34 55 -57 0
113 -122 193 0
-6 -168 184 0
10 -82 -143 0
-36 -97 118 0
19 -38 86 0
19 -100 114 0
3 24 -83 0
30 -66 -67 0
14 -140 178 0
-161 185 -191 0
-70 -91 -98 0
25 122 182 0
41 -121 199 0
-67 -122 147 0
-75 108 191 0
141 -153 -171 0
15 -161 165 0
-39 156 -192 0
-52 -137 -167 0
-49 134 197 0
-93 146 -165 0
-29 134 -136 0
2 -117 158 0
-64 91 -105 0
24 39 -173 0
-55 -95 139 0
68 81 -176 0
-3 56 151 0
-32 -80 122 0
16 18 126 0
-6 -9 -109 0
-13 -120 151 0
-25 -101 -121 0
-63 91 153 0
-18 41 -73 0
-101 160 167 0
-4 167 -171 0
-19 91 164 0
72 90 -129 0
-47 -114 -182 0
-11 -109 194 0
83 119 -152 0
-4 44 105 0
91 104 180 0
-101 118 -139 0
-2 -38 -166 0
21 -87 89 0
-33 -56 -112 0
-104 148 -185 0
-12 139 -145 0
-17 89 102 0
-31 103 -198 0
-3 14 76 0
-18 184 197 0
45 68 -168 0
-74 96 -172 0
-90 103 143 0
52 77 105 0
46 179 -185 0
33 -87 116 0
-101 114 -173 0
-36 -110 194 0
108 117 121 0
-72 -85 122 0
24 -39 -183 0
-1 106 -183 0
-60 124 156 0
98 131 -163 0
46 49 -157 0
62 100 -132 0
101 -106 -157 0
-27 -46 106 0
-57 -87 94 0
69 125 -178 0
-3 39 127 0
45 -70 97 0
58 -112 200 0
120 -147 188 0
39 46 166 0
-38 -42 69 0
52 -133 -168 0
71 101 -107 0
162 -165 184 0
33 -175 185 0
-14 -107 163 0
-45 -134 -153 0
-12 -53 -167 0
-1 114 -135 0
46 -52 -181 0
-111 -151 -192 0
-5 -18 192 0
4 -85 122 0
-7 -118 -121 0
-36 -75 125 0
19 -24 -38 0
56 -173 -196 0
68 -77 -194 0
-40 -147 186 0
2 -12 69 0
-31 125 144 0
26 -82 -110 0
-32 69 -192 0
34 56 -122 0
37 120 192 0
-83 133 -136 0
2 -110 -152 0
20 47 126 0
-40 105 -180 0
57 70 -127 0
-37 131 184 0
54 -59 168 0
-10 -131 -191 0
8 32 196 0
-176 197 -200 0
-53 -84 -139 0
-30 -73 184 0
144 -157 168 0
-34 -52 55 0
-47 101 178 0
28 72 111 0
-49 63 189 0
42 -93 -158 0
-1 42 86 0
-15 -67 -68 0
-50 55 85 0
54 -69 -95 0
-93 99 -152 0
9 -74 -127 0
-66 118 -186 0
1 41 71 0
-1 58 -87 0
-38 124 -199 0
-76 -144 -156 0
22 81 97 0
121 148 161 0
34 131 -176 0
-21 -42 148 0
91 108 -149 0
-44 -52 -183 0
-35 -59 185 0
87 -100 150 0
-141 -144 183 0
39 53 -121 0
-131 134 198 0
74 -132 179 0
-15 101 196 0
-50 181 194 0
-36 -102 105 0
-78 94 133 0
29 -46 69 0
-20 -62 87 0
-9 83 -105 0
74 -118 -160 0
-79 146 160 0
10 -100 -199 0
54 63 179 0
-5 55 -109 0
-67 81 -140 0
-9 -35 -112 0
81 94 158 0
-11 -77 174 0
-46 -180 186 0
56 188 -193 0
-66 -182 187 0
97 103 152 0
78 -125 -166 0
89 -187 -189 0
-33 -46 130 0
98 -159 -189 0
88 -122 124 0
63 -133 -173 0
-78 -91 139 0
12 -77 -140 0
-60 -94 -199 0
93 -146 154 0
92 -109 179 0
13 62 131 0
-33 59 123 0
-33 86 129 0
-55 169 -172 0
54 149 195 0
30 -44 -67 0
41 127 -184 0
80 -81 -146 0
41 134 152 0
25 30 -63 0
54 91 -193 0
57 -75 -159 0
3 37 -92 0
-88 149 -154 0
-68 -76 -175 0
66 -107 174 0
109 127 182 0
79 101 -112 0
-110 175 192 0
-53 -75 -200 0
-38 -98 163 0
32 33 -61 0
-46 -101 169 0
39 75 186 0
2 -117 160 0
-13 -38 -168 0
25 98 -129 0
-91 -126 195 0
-18 -156 -159 0
7 -20 -33 0
-46 -59 -175 0
-116 -139 -144 0
-46 -182 -194 0
-45 -141 184 0
53 -89 95 0
9 101 184 0
10 -133 -148 0
37 196 200 0
40 -136 -177 0
16 -183 191 0
-20 -56 -64 0
65 -145 175 0
52 87 -114 0
-37 172 198 0
-128 -131 197 0
90 91 196 0
-100 161 178 0
-10 -99 -120 0
-96 97 -191 0
76 88 132 0
45 76 -146 0
23 29 -151 0
-51 56 -69 0
-35 -38 -168 0
59 101 180 0
42 62 -75 0
-99 119 -162 0
78 -110 128 0
-24 55 162 0
149 177 200 0
21 -79 -194 0
6 -36 -153 0
-53 104 182 0
115 116 -150 0
53 92 106 0
-18 -92 -118 0
82 98 147 0
40 -45 -166 0
-101 137 -188 0
55 94 153 0
-7 -35 178 0
9 39 112 0
-8 47 -101 0
111 143 -165 0
-126 -130 -180 0
28 -101 -147 0
-4 -105 154 0
13 -127 164 0
-9 -103 108 0
20 29 145 0
-21 96 -131 0
-57 108 183 0
104 155 -160 0
32 111 -144 0
-16 -25 -166 0
-3 24 92 0
-37 -74 -188 0
-69 148 153 0
114 -154 -169 0
128 -142 -153 0
59 -143 174 0
59 74 -172 0
-65 139 -183 0
-46 82 -189 0
57 -82 124 0
66 -143 163 0
2 -91 171 0
47 54 -70 0
-51 -89 110 0
72 84 -131 0
-2 9 56 0
-70 -101 -135 0
97 125 163 0
-11 -169 -191 0
53 -62 81 0
14 -175 -181 0
-47 65 147 0
-44 -47 -158 0
-76 84 -154 0
-58 -116 -135 0
-13 -81 104 0
5 -6 -42 0
-30 -40 -105 0
41 -72 -89 0
-35 117 -133 0
-56 154 -178 0
-19 -144 -188 0
37 -83 88 0
-11 -80 -99 0
-10 -14 20 0
4 -43 -121 0
85 -88 174 0
-14 -83 184 0
-26 -108 -200 0
-3 -66 199 0
-62 85 -174 0
9 -80 169 0
21 100 -152 0
-106 107 196 0
20 47 192 0
-12 33 114 0
-78 84 168 0
-85 -91 153 0
45 99 -150 0
-54 -117 -198 0
58 -85 -191 0
2 64 161 0
-45 -176 180 0
-60 131 -149 0
-62 -71 -90 0
-43 -51 -183 0
65 -125 166 0
-47 -166 172 0
59 79 107 0
-23 -148 180 0
-125 139 -180 0
38 -101 103 0
66 68 92 0
-66 -190 -198 0
100 -165 -193 0
31 -130 -151 0
10 44 132 0
2 118 -168 0
-75 -144 -168 0
67 145 174 0
-34 -60 -69 0
-118 134 170 0
-40 76 -93 0
-6 -44 -84 0
-60 -122 -163 0
-25 101 121 0
71 98 -163 0
-102 116 136 0
25 65 68 0
-48 -89 149 0
99 112 -116 0
88 -99 191 0
29 31 -107 0
-19 -32 112 0
15 132 -185 0
53 -107 192 0
-1 -93 121 0
9 -121 179 0
30 -112 -179 0
-83 137 153 0
-51 -83 -120 0
-47 -82 196 0
53 -63 -126 0
59 -107 -142 0
73 99 185 0
5 -86 -186 0
183 187 190 0
-14 -81 -114 0
74 -79 -133 0
54 -114 159 0
43 -50 -158 0
41 106 -191 0
7 108 171 0
-100 -104 160 0
33 58 74 0
-5 -39 199 0
27 48 195 0
-28 -146 -197 0
78 -120 197 0
54 -84 191 0
57 102 110 0
-6 93 175 0
-54 64 -161 0
45 101 -189 0
9 38 74 0
10 -96 -185 0
38 -40 -137 0
28 98 142 0
87 91 -163 0
-97 173 -180 0
99 -129 170 0
-20 -67 183 0
-30 43 -146 0
46 -49 -189 0
-71 -144 -180 0
67 144 -153 0
50 57 -155 0
-82 -122 183 0
17 -54 -198 0
43 135 -140 0
16 -66 146 0
-19 111 132 0
36 51 -165 0
-82 -118 -125 0
35 126 -146 0
-18 29 146 0
-119 -147 -171 0
91 -139 -146 0
40 94 -124 0
-70 -74 128 0
-72 -76 94 0
-76 -103 -155 0
59 65 121 0
48 58 127 0
116 158 176 0
12 -16 -179 0
84 -87 -179 0
-57 131 -151 0
20 81 112 0
-44 -45 118 0
-122 132 193 0
-10 52 -57 0
91 -103 -175 0
-7 -110 -184 0
-19 20 -137 0
64 -113 -159 0
20 73 87 0
-99 139 -194 0
119 146 -153 0
36 -151 -160 0
27 -72 143 0
30 -50 102 0
-15 62 -171 0
-3 -26 -144 0
22 47 183 0
-97 146 158 0
53 72 92 0
-45 87 -153 0
-8 -81 195 0
37 104 -169 0
46 94 141 0
25 29 131 0
77 -128 -145 0
153 -170 -182 0
51 -92 112 0
-4 -5 131 0
47 -81 -168 0
28 -49 160 0
-5 69 -147 0
-60 -127 -145 0
6 22 -66 0
34 75 112 0
-11 82 124 0
-50 75 -92 0
-124 155 174 0
-3 -21 55 0
-1 26 -33 0
42 -56 57 0
37 121 144 0
-27 -42 -77 0
45 113 -192 0
-39 67 160 0
43 48 186 0
-45 109 137 0
42 117 -123 0
-108 150 198 0
20 -89 131 0
20 -62 -191 0
-67 -111 -119 0
-19 -123 137 0
-23 68 -95 0
-54 129 -158 0
-1 57 -66 0
34 94 176 0
-10 71 162 0
2 -14 -129 0
34 145 -171 0
-69 -181 183 0
-109 -120 -135 0
15 -21 -144 0
67 -91 -129 0
5 150 199 0
-91 -188 -200 0
50 119 131 0
12 -20 75 0
-43 50 -65 0
-38 46 157 0
72 86 -89 0
20 71 -181 0
-12 -78 -149 0
-21 -51 182 0
22 -48 -113 0
173 -192 199 0
-108 -151 -168 0
38 -88 -100 0
1 -125 -199 0
29 121 172 0
9 -65 -94 0
-19 134 -138 0
60 106 -190 0
-66 -128 -186 0
73 -128 198 0
-48 134 -149 0
53 -115 179 0
134 -163 -168 0
31 -51 102 0
-56 83 176 0
-57 -60 145 0
-13 114 135 0
25 50 191 0
103 111 -145 0
-86 92 -127 0
-26 -64 -139 0
-98 -166 179 0
44 105 -197 0
-104 132 -151 0
32 57 105 0
22 118 -150 0
17 -121 -184 0
-30 180 187 0
-31 -173 -190 0
-14 -137 143 0
141 -174 -186 0
93 107 163 0
-99 100 103 0
-99 -101 143 0
-35 76 -200 0
-33 106 130 0
-60 -73 -181 0
-109 120 169 0
-40 -59 63 0
12 33 134 0
85 -96 -157 0
-5 -75 122 0
81 87 162 0
-5 -53 64 0
83 124 196 0
-46 -118 126 0
67 -79 106 0
45 -87 -88 0
-18 -111 -176 0
-11 -146 -152 0
85 -148 149 0
-53 -76 -200 0
26 -109 198 0
47 48 -177 0
-18 -124 -159 0
-31 -80 171 0
-65 92 199 0
-13 -29 -151 0
38 -123 -181 0
-64 -164 193 0
52 -62 151 0
-28 56 -79 0
-95 146 164 0
19 106 143 0
-20 -30 -74 0
66 -180 -181 0
-28 89 179 0
-55 -84 -144 0
11 188 192 0
-139 174 -184 0
11 42 -78 0
-13 147 -190 0
-19 -65 -120 0
-69 -110 -117 0
157 -160 -186 0
-30 56 156 0
15 -28 115 0
-19 131 147 0
-3 111 -143 0
39 -160 187 0
-36 -136 173 0
41 -160 178 0
-27 -48 -146 0
19 137 -148 0
10 104 -177 0
-59 85 160 0
55 -120 140 0
28 82 108 0
-14 -179 198 0
128 182 -193 0
32 -53 -190 0
57 -153 -160 0
116 -186 188 0
15 45 57 0
7 169 -183 0
90 118 156 0
-88 -141 -173 0
84 115 189 0
-40 111 190 0
-33 98 -186 0
61 -88 120 0
40 -43 -62 0
52 -139 158 0
71 -112 114 0
12 54 196 0
-27 62 -146 0
45 120 -186 0
-2 16 83 0
-42 109 198 0
-16 -132 -169 0
-112 157 184 0
14 35 78 0
13 156 193 0
103 140 -199 0
15 -32 -96 0
51 -123 139 0
66 -68 122 0
-30 42 126 0
58 160 165 0
54 -144 157 0
-34 -43 177 0
-126 145 183 0
37 154 -155 0
51 61 -172 0
95 161 -190 0
-3 -102 106 0
-98 100 -166 0
80 152 170 0
1 138 150 0
93 142 -192 0
-11 -103 -192 0
-49 -84 -138 0
-35 -39 -128 0
-120 187 -191 0
34 -59 -73 0
6 9 144 0
-108 -151 158 0
-26 86 99 0
-110 -128 133 0
62 149 -195 0
125 130 133 0
31 -75 114 0
-37 -90 126 0
-1 70 -92 0
-57 81 106 0
20 -107 -150 0
4 -137 157 0
130 134 -154 0
-102 177 -197 0
75 -84 174 0
28 87 -174 0
84 -165 -182 0
12 58 117 0
-114 149 -173 0
-81 99 163 0
-44 115 -140 0
48 76 -179 0
-13 63 71 0
46 80 90 0
-103 115 -162 0
3 -14 102 0
85 -168 -172 0
-21 111 144 0
-21 -58 -132 0
10 -55 -154 0
-87 -144 189 0
-9 70 -106 0
23 106 -186 0
-30 108 -147 0
-36 -193 -197 0
-1 163 -183 0
91 -138 -192 0
-84 122 -154 0
-58 -185 -196 0
148 -167 184 0
55 -57 58 0
17 -122 147 0
90 -148 -153 0
-89 -148 182 0
-13 105 177 0
-20 -48 -97 0
-67 -72 -121 0
6 99 127 0
-81 82 -170 0
-84 113 -187 0
-89 127 152 0
