c F1 random 3-CNF cnfgen RandomKCNF(3,225,959,seed=2) m/n=4.26
p cnf 225 959
15 218 -221 0
-44 -189 214 0
10 -149 -156 0
-186 -206 -221 0
-8 -10 -223 0
98 109 135 0
-7 46 60 0
93 -131 -132 0
-135 -189 -196 0
-42 -115 220 0
-72 -126 -128 0
-90 -146 186 0
84 -180 -209 0
-78 -80 205 0
94 -126 132 0
49 191 209 0
59 70 -152 0
54 -63 212 0
15 45 93 0
7 18 -30 0
33 66 209 0
12 99 151 0
2 -89 -158 0
-8 79 -126 0
103 -194 221 0
-24 170 176 0
115 -202 -224 0
-37 -84 -132 0
108 156 168 0
9 34 65 0
60 117 163 0
-19 114 183 0
-160 -203 -205 0
72 135 193 0
42 99 105 0
6 26 27 0
-7 -56 -134 0
98 138 -165 0
6 -109 131 0
-25 -170 206 0
-31 -133 -157 0
-5 79 224 0
51 -79 216 0
-106 125 164 0
-2 -7 73 0
57 126 -194 0
101 -119 -184 0
-21 -32 66 0
-7 27 -178 0
75 -92 -118 0
-124 -135 -222 0
-76 175 215 0
-67 126 153 0
19 -46 92 0
23 175 -205 0
-60 -100 182 0
29 -74 135 0
-64 85 133 0
-61 -119 181 0
113 -120 185 0
-14 -101 -131 0
-65 -182 -188 0
85 141 183 0
-104 171 -209 0
-119 135 183 0
-5 56 104 0
100 -143 209 0
126 157 -206 0
65 -124 132 0
19 -90 195 0
-125 -152 -194 0
118 129 -225 0
-45 -193 195 0
-14 -42 -128 0
-3 40 -73 0
-9 -138 218 0
-79 174 -223 0
-138 177 -183 0
-78 -81 -212 0
24 -133 216 0
130 -161 205 0
60 -118 144 0
-29 -173 210 0
-20 -82 -92 0
-43 -114 128 0
114 -164 -184 0
-26 41 -61 0
36 48 -92 0
-141 -163 -207 0
-72 -185 -225 0
137 -160 -164 0
-45 -102 -124 0
-23 -48 123 0
8 -27 90 0
-188 195 -225 0
-61 -212 -214 0
-39 93 -164 0
25 -37 -201 0
-37 93 -108 0
49 64 -182 0
96 166 197 0
-17 -111 218 0
83 -134 -148 0
-14 -59 -101 0
140 -160 -215 0
117 -178 -216 0
12 -116 135 0
31 129 -175 0
79 -118 205 0
57 90 172 0
-24 -110 172 0
62 -122 220 0
8 36 144 0
-2 140 211 0
1 96 126 0
28 55 -120 0
-87 160 166 0
39 210 -214 0
-52 77 -88 0
-34 81 102 0
-70 -73 122 0
36 108 180 0
50 55 101 0
-68 180 191 0
-37 154 214 0
28 36 -163 0
54 -75 -162 0
133 -146 -218 0
-9 -171 185 0
-163 180 188 0
-67 86 -108 0
33 -178 -198 0
-89 99 -122 0
-50 -114 -194 0
-19 44 95 0
79 -175 223 0
4 202 -223 0
-15 -82 -137 0
19 -108 121 0
-39 42 -55 0
-22 -72 166 0
39 77 -145 0
-152 -158 180 0
55 -144 165 0
-36 -160 188 0
-101 -102 -117 0
56 58 62 0
-14 -100 182 0
-26 -70 -132 0
-18 149 -181 0
7 8 123 0
53 62 -83 0
27 165 -196 0
-9 -36 -182 0
-13 91 -143 0
-28 -156 -201 0
73 123 207 0
88 -112 215 0
-20 -170 -221 0
47 62 203 0
-152 185 -195 0
6 11 -223 0
17 29 93 0
27 -49 141 0
72 129 -219 0
33 -110 201 0
96 118 -189 0
-112 154 -211 0
-33 153 219 0
48 -65 -181 0
114 -119 -121 0
-57 69 -199 0
-8 -160 214 0
-123 -141 146 0
-117 -120 183 0
137 -143 -217 0
93 108 -194 0
-30 -111 154 0
-100 -190 -214 0
38 -43 -60 0
128 -182 -185 0
-81 -104 -147 0
3 103 -171 0
-3 -26 -30 0
-46 104 -188 0
-61 103 159 0
-8 78 89 0
-3 85 -104 0
53 -148 164 0
-78 -86 -200 0
22 -72 196 0
93 96 217 0
54 -120 -151 0
53 131 -151 0
-122 190 197 0
156 -180 187 0
35 188 203 0
22 117 -160 0
102 158 -215 0
30 -79 -225 0
-20 32 98 0
117 -198 207 0
124 -138 -223 0
7 141 -144 0
-33 -48 151 0
-11 -179 220 0
-40 -59 219 0
40 49 -218 0
-27 31 70 0
34 -90 109 0
5 88 193 0
-36 -127 -189 0
76 77 170 0
2 -24 211 0
77 146 199 0
147 -186 200 0
-48 171 -225 0
-10 -167 -169 0
89 144 168 0
33 -97 176 0
69 158 163 0
51 -160 170 0
-61 -129 -174 0
28 -60 81 0
5 -101 -145 0
-62 87 142 0
34 -36 43 0
-27 -77 166 0
1 29 109 0
-1 -50 112 0
-45 -69 219 0
-80 -133 -209 0
-124 -216 -222 0
-45 -168 -207 0
-109 135 148 0
-66 106 -150 0
72 135 -164 0
28 189 -209 0
-33 49 131 0
79 117 -209 0
48 -57 174 0
-101 140 196 0
103 187 203 0
-66 -129 142 0
-7 159 166 0
-50 -126 201 0
-48 86 120 0
-66 -95 -191 0
13 -83 185 0
-47 99 -177 0
19 76 -178 0
17 137 214 0
-55 -94 -175 0
2 27 215 0
136 185 217 0
31 66 -76 0
28 -71 100 0
-42 56 -61 0
27 62 150 0
61 172 210 0
32 -52 -150 0
22 177 225 0
28 93 126 0
1 73 -100 0
-75 96 -168 0
23 -122 -129 0
-109 153 160 0
60 155 -166 0
-21 37 156 0
-49 97 -123 0
-27 -52 -87 0
-36 -64 -151 0
1 187 213 0
-15 54 76 0
20 63 215 0
-29 100 107 0
32 45 224 0
-72 133 183 0
78 153 198 0
2 -8 -175 0
5 151 -165 0
-19 62 173 0
-22 -50 109 0
70 -153 -160 0
57 -58 -151 0
-29 101 -125 0
11 -110 118 0
-169 -201 208 0
-74 78 116 0
63 177 -223 0
-33 -138 180 0
35 174 176 0
-10 183 212 0
90 -128 173 0
27 74 107 0
15 69 -198 0
-126 135 192 0
80 -105 217 0
117 119 -135 0
38 158 184 0
86 -186 -201 0
83 153 154 0
-37 88 150 0
13 -153 224 0
-4 -176 198 0
-13 153 -181 0
42 133 -136 0
-65 -208 -216 0
120 -187 202 0
1 -158 -218 0
-108 -118 157 0
5 -8 66 0
-24 -56 -211 0
-13 29 88 0
-66 -68 -126 0
-133 -151 -196 0
21 22 -102 0
101 -124 -197 0
-116 -159 217 0
-128 -141 213 0
22 156 -213 0
7 -75 -183 0
-64 -102 -180 0
-1 70 -101 0
2 6 -51 0
72 -146 -201 0
6 33 151 0
-31 -106 169 0
52 -71 -104 0
-19 54 -88 0
-103 123 -181 0
-61 -118 162 0
-122 175 -222 0
-65 77 -136 0
13 22 -25 0
74 137 207 0
-27 -66 129 0
49 -59 -219 0
-117 -123 195 0
-8 -114 117 0
-60 -83 -153 0
-35 71 94 0
95 -178 -200 0
-56 139 -206 0
61 149 -155 0
2 140 224 0
88 -142 166 0
-152 -154 -194 0
40 -150 162 0
98 190 202 0
31 -117 172 0
14 -21 -79 0
-25 52 -179 0
-63 146 181 0
36 -144 217 0
-56 -92 -177 0
-47 115 194 0
-38 135 140 0
-57 -63 -213 0
36 -80 -176 0
36 80 -85 0
-10 -96 -153 0
24 -191 -195 0
12 122 -179 0
-83 -101 -214 0
-107 151 202 0
49 55 190 0
-13 -20 108 0
34 81 -97 0
39 -106 155 0
27 29 48 0
11 -30 88 0
130 -188 195 0
73 135 184 0
-62 189 -220 0
78 125 180 0
-8 21 -90 0
-31 -59 99 0
63 119 204 0
-7 -113 -123 0
80 -115 -197 0
18 -25 79 0
13 79 82 0
-92 161 165 0
32 69 158 0
-2 211 225 0
90 -99 -209 0
118 167 204 0
-65 103 -185 0
-21 74 88 0
-19 88 132 0
-75 93 165 0
91 -150 -172 0
38 -68 170 0
99 -103 -224 0
66 -82 -127 0
-18 19 73 0
-31 -170 -211 0
-6 161 210 0
-3 -33 52 0
63 186 -210 0
152 207 -213 0
-56 74 216 0
-14 -64 126 0
-13 -88 -145 0
129 -183 -196 0
4 -57 -65 0
5 -131 156 0
117 -165 -198 0
-41 -82 -114 0
-40 -140 184 0
-70 -82 166 0
21 -175 -214 0
94 -127 -144 0
-31 -74 173 0
137 -156 224 0
-7 151 -193 0
-52 -117 -214 0
86 -96 104 0
123 -190 209 0
29 -101 -137 0
-42 -152 175 0
-100 107 -162 0
-28 -63 143 0
12 -85 -188 0
-177 -183 194 0
39 -149 -195 0
196 216 -220 0
121 139 221 0
-78 -110 112 0
-137 161 189 0
50 -169 201 0
48 -105 -160 0
-123 -140 158 0
-4 52 187 0
-102 -133 -150 0
44 -185 -223 0
-16 106 -107 0
93 -132 144 0
88 -180 205 0
30 -33 -211 0
25 -113 199 0
-79 125 146 0
48 -76 -115 0
137 -182 203 0
-79 -95 -107 0
-179 199 -218 0
-43 76 -114 0
-36 -104 186 0
-52 188 209 0
18 156 172 0
6 52 -186 0
22 -92 144 0
-105 185 -215 0
-15 42 -181 0
104 111 -112 0
72 -127 -193 0
53 -57 -208 0
9 -25 30 0
-38 64 -168 0
-2 139 216 0
74 214 -222 0
-122 135 -153 0
24 41 -191 0
113 -203 214 0
-18 -208 -216 0
39 -134 138 0
-39 -91 221 0
-31 -41 182 0
61 71 -101 0
-133 167 -168 0
-126 163 -184 0
70 -73 -74 0
121 -145 199 0
-24 -154 183 0
67 -95 -134 0
24 -36 63 0
41 -196 -218 0
96 -138 -148 0
-18 19 -157 0
-62 -141 -180 0
166 -200 -204 0
-4 154 194 0
-82 149 -179 0
13 -73 -113 0
168 184 209 0
55 135 -194 0
-78 140 175 0
-45 -84 -188 0
92 126 -156 0
89 -110 218 0
-136 -197 221 0
-125 -163 -194 0
-138 150 -221 0
-110 175 -203 0
53 103 210 0
127 -180 -207 0
-99 152 196 0
30 64 86 0
-64 183 200 0
154 158 222 0
118 149 -192 0
93 -210 221 0
-146 163 207 0
87 101 142 0
-58 -79 -164 0
60 -96 105 0
-20 -32 -42 0
43 -113 219 0
-22 110 -127 0
28 59 -181 0
-63 -70 -213 0
56 106 -112 0
-4 75 -88 0
38 -117 215 0
-52 105 115 0
-49 -180 -214 0
-136 181 208 0
-13 58 -216 0
-93 122 -191 0
-117 -188 202 0
-116 188 207 0
78 -84 116 0
2 -133 -159 0
65 86 105 0
86 -153 -196 0
-98 -137 193 0
-27 -135 161 0
-23 -56 187 0
-66 118 162 0
6 -48 202 0
118 -164 -191 0
-129 153 -177 0
-39 -172 -224 0
-50 -121 222 0
18 -104 -106 0
9 -53 194 0
-139 215 -219 0
-56 91 -141 0
-85 -109 -173 0
5 112 -207 0
-1 -155 -172 0
121 -127 -166 0
131 -147 181 0
-36 -165 -211 0
12 74 -141 0
130 192 209 0
44 170 171 0
-65 137 -168 0
-19 -26 67 0
30 109 200 0
125 -214 -218 0
101 125 -177 0
-11 -90 -186 0
-1 8 183 0
-114 126 207 0
-15 21 -185 0
70 -121 159 0
64 176 192 0
-10 17 -136 0
155 185 -218 0
19 -130 -154 0
-36 56 -126 0
-23 62 -159 0
38 76 181 0
-32 40 118 0
50 -152 154 0
-40 -58 -81 0
22 98 -212 0
-26 -84 -102 0
19 -92 224 0
-93 -156 -203 0
-24 151 208 0
-4 50 66 0
-82 94 -143 0
34 -42 208 0
-3 178 -196 0
-105 -106 -148 0
-80 -122 -223 0
-20 32 224 0
-9 140 166 0
22 50 93 0
38 54 -125 0
113 -131 201 0
-116 147 -154 0
-16 -61 140 0
-5 59 -139 0
-114 -143 -174 0
20 36 166 0
50 -111 -201 0
67 164 202 0
5 -31 -112 0
-27 -30 -86 0
48 -68 134 0
-57 80 -178 0
20 -27 -62 0
64 70 -115 0
-122 -137 -170 0
21 51 -128 0
2 -94 -177 0
122 205 214 0
139 -160 -177 0
-48 -98 -118 0
-94 151 -194 0
2 -75 180 0
-6 -14 161 0
147 199 -224 0
13 23 97 0
-80 142 198 0
-7 -119 203 0
33 -139 176 0
-36 -79 -86 0
26 -66 -137 0
98 -163 -165 0
2 61 194 0
-28 -49 -164 0
23 49 206 0
58 -63 -80 0
129 -137 -214 0
-98 -106 127 0
91 -109 120 0
-48 59 150 0
65 135 -202 0
-78 110 -118 0
-34 -111 215 0
41 137 -184 0
-69 109 -184 0
-130 156 181 0
36 -187 -209 0
-85 -137 168 0
-87 -101 119 0
22 158 213 0
-36 46 -122 0
-13 159 185 0
-36 122 -156 0
-77 119 -140 0
1 -111 183 0
187 206 207 0
-41 -187 198 0
47 52 153 0
-129 -133 -209 0
-34 -137 197 0
93 179 209 0
-19 -62 -182 0
-15 -24 -116 0
-20 -123 -145 0
46 141 173 0
66 -164 -207 0
-55 -86 -210 0
-55 -120 185 0
-25 42 -148 0
82 125 -190 0
127 131 -144 0
50 160 201 0
-10 -176 -196 0
-22 -79 147 0
-67 99 164 0
-13 26 -165 0
-93 -103 -157 0
-19 -98 159 0
-115 161 -197 0
58 192 -210 0
94 147 199 0
-8 29 -164 0
45 -108 -215 0
-51 -141 -177 0
-58 -193 -218 0
25 175 -177 0
57 -187 -218 0
2 -108 113 0
-122 145 163 0
9 -31 209 0
-27 81 -161 0
59 78 -209 0
-4 152 -161 0
-168 -180 -182 0
-24 68 177 0
61 84 91 0
58 -105 -136 0
-5 -187 199 0
-10 41 218 0
-5 -47 -188 0
-20 180 -221 0
-7 20 -187 0
-37 46 -63 0
22 -28 -184 0
80 -135 -216 0
110 -162 193 0
7 44 -220 0
92 -120 -205 0
32 -194 -216 0
-10 -12 41 0
54 -110 -169 0
19 184 -217 0
72 109 -182 0
-5 29 -148 0
-156 170 -175 0
-61 -183 195 0
-114 -126 -149 0
-104 182 -191 0
5 220 225 0
-22 94 -179 0
-7 -19 213 0
101 125 193 0
8 -63 95 0
-30 -44 206 0
-39 100 -171 0
-16 -144 179 0
12 -190 192 0
38 -166 -170 0
-50 68 -170 0
-17 -172 -196 0
-36 103 -169 0
71 -94 -173 0
-128 202 211 0
13 76 -167 0
7 115 118 0
3 -79 123 0
-75 -78 -133 0
-1 -29 -187 0
-31 -99 166 0
31 -175 218 0
74 -123 172 0
29 -206 -223 0
-42 -154 -188 0
34 49 78 0
-29 -199 -216 0
70 -154 215 0
21 -197 211 0
-15 -117 182 0
-1 -83 -95 0
-18 55 -98 0
61 -109 153 0
-123 -151 -206 0
-113 -189 205 0
33 75 167 0
-79 88 168 0
-30 -79 211 0
103 -201 -215 0
140 -175 176 0
-75 104 -154 0
-27 146 182 0
-137 -185 222 0
18 -110 -186 0
-83 127 174 0
21 -128 -205 0
-52 144 -165 0
-86 -90 175 0
-191 202 217 0
-124 127 143 0
1 -66 212 0
-45 61 120 0
-67 -210 215 0
91 -111 220 0
72 -132 183 0
28 195 225 0
-60 84 199 0
-1 -131 -183 0
-103 104 134 0
-30 73 197 0
-59 -71 175 0
-29 133 -159 0
70 173 179 0
25 -66 188 0
18 -37 -86 0
20 36 -96 0
139 -190 -197 0
-73 163 -212 0
16 61 -165 0
80 -158 186 0
-121 -127 -210 0
-67 -72 -189 0
-52 160 191 0
13 -111 124 0
-57 102 192 0
155 180 -193 0
42 83 -159 0
59 151 -207 0
-103 105 109 0
-26 165 169 0
-38 98 -107 0
-120 -163 190 0
51 62 154 0
-35 100 174 0
63 108 196 0
-11 -44 -170 0
-3 -45 -73 0
-34 71 105 0
-52 -95 -137 0
136 -151 160 0
16 -130 222 0
-61 -158 -225 0
54 -77 -198 0
21 -67 207 0
14 -85 -195 0
38 -99 103 0
-27 -48 -173 0
-1 -137 -191 0
-45 -71 217 0
67 -170 -183 0
-46 -69 103 0
-73 -148 -207 0
-31 -52 188 0
4 72 176 0
-44 127 179 0
40 154 -222 0
100 -140 156 0
42 -113 146 0
163 165 -205 0
-8 -69 -88 0
36 119 193 0
33 102 182 0
68 -110 157 0
-19 45 -87 0
63 -139 143 0
32 -51 -151 0
-142 158 163 0
56 -118 -182 0
65 -83 204 0
59 119 186 0
-78 -94 127 0
7 9 214 0
80 -164 -172 0
-73 88 145 0
87 93 -122 0
-74 -142 -215 0
-57 -137 182 0
-28 129 -150 0
-9 43 146 0
-49 -54 -184 0
61 92 180 0
23 78 -179 0
-35 -72 153 0
-25 -124 181 0
-48 -116 -207 0
-78 -176 186 0
-118 -189 -192 0
-110 120 -182 0
-6 16 -204 0
33 121 -154 0
33 -70 158 0
96 135 208 0
-106 -113 122 0
37 -52 -76 0
-77 134 -148 0
-142 157 -211 0
25 -124 -212 0
-52 -187 212 0
20 -66 -201 0
63 -101 187 0
12 123 -127 0
50 189 -190 0
-62 172 203 0
52 -124 192 0
-12 84 -112 0
18 -89 -101 0
-44 -46 -77 0
-19 154 -155 0
-29 132 -217 0
-44 -195 215 0
-167 -182 -217 0
8 121 -128 0
39 101 137 0
-10 26 -157 0
71 -83 189 0
-38 185 -199 0
31 56 137 0
-119 -189 -225 0
21 62 -81 0
66 100 -115 0
-74 -82 -92 0
-158 -200 -211 0
43 80 -204 0
-18 25 173 0
-103 -168 -198 0
-63 186 -210 0
-30 -44 -211 0
8 50 -68 0
-75 -134 -194 0
65 -151 165 0
-38 -109 -221 0
-18 37 -124 0
-12 -128 -220 0
-24 -105 195 0
64 -75 -89 0
-66 131 166 0
-3 -71 -220 0
58 -125 -140 0
25 -101 162 0
-31 138 -181 0
-32 -129 186 0
-22 -120 182 0
-74 103 -205 0
115 -124 201 0
10 94 -214 0
-14 53 131 0
74 -131 212 0
-121 134 184 0
29 160 -201 0
12 41 -182 0
-2 -32 155 0
-1 42 101 0
-102 160 182 0
-167 -206 -225 0
-108 145 205 0
-11 -40 180 0
34 -40 144 0
-36 -122 139 0
35 99 -180 0
28 -46 -73 0
97 -117 -195 0
-8 37 76 0
6 -186 198 0
15 84 101 0
6 -111 176 0
-5 -63 -113 0
-10 -36 -208 0
96 -97 98 0
12 -54 85 0
75 92 123 0
172 -197 214 0
-1 72 204 0
-50 137 -210 0
28 142 -182 0
34 36 -181 0
29 -56 -119 0
-97 -153 -225 0
94 110 -154 0
57 -141 -223 0
149 160 -186 0
82 141 -167 0
125 141 201 0
-50 71 -83 0
-4 -93 -217 0
61 103 225 0
62 137 202 0
-96 -139 143 0
22 -35 215 0
9 -101 -198 0
-29 56 122 0
26 -113 -170 0
-55 162 -209 0
24 27 48 0
-101 108 117 0
-13 71 -124 0
-132 -185 222 0
166 191 -193 0
-12 -81 -111 0
25 51 195 0
-32 149 -170 0
1 -79 204 0
-3 157 163 0
-34 40 -80 0
-4 -14 25 0
-153 -196 -204 0
144 -157 164 0
79 139 -198 0
35 -110 157 0
-1 -22 63 0
