c F1 random 3-CNF cnfgen RandomKCNF(3,75,320,seed=14) m/n=4.26
p cnf 75 320
-14 -32 -68 0
-10 -39 -58 0
-16 -29 -34 0
20 -47 67 0
-2 9 16 0
-27 -36 49 0
15 47 -75 0
-25 35 -66 0
33 37 65 0
4 -16 36 0
-12 55 -68 0
-40 -59 -63 0
-13 33 -61 0
9 -63 -73 0
-3 -57 74 0
-45 -48 -73 0
25 -39 -68 0
5 -13 50 0
-1 -37 65 0
5 19 -26 0
24 34 -65 0
5 38 -48 0
-32 -50 -63 0
-5 -32 55 0
14 17 34 0
-28 34 -63 0
-7 -14 -33 0
17 29 57 0
-3 19 -29 0
-35 60 -61 0
8 -13 70 0
7 -9 22 0
18 -20 -49 0
-3 64 -68 0
32 37 66 0
-15 -16 -46 0
38 -43 45 0
37 -40 73 0
-9 -44 -57 0
-4 -26 54 0
16 50 67 0
10 -32 33 0
-4 -25 37 0
-9 -10 24 0
-14 47 -50 0
-43 64 69 0
-18 -36 59 0
8 -20 -67 0
38 47 48 0
9 27 -65 0
45 -52 61 0
-43 46 72 0
6 -35 40 0
15 -26 -66 0
15 -50 57 0
8 -31 70 0
-11 -17 69 0
11 12 72 0
-18 -61 -72 0
9 -47 -66 0
22 -59 62 0
41 58 -69 0
26 -32 70 0
7 36 -55 0
-25 44 -62 0
32 38 39 0
32 33 66 0
28 33 51 0
2 -26 40 0
18 29 -43 0
-1 -24 -71 0
-7 31 -58 0
-26 27 -34 0
-4 -52 -62 0
38 42 -70 0
9 -21 -32 0
-50 57 -64 0
-10 31 74 0
-54 -62 -67 0
-49 -61 -73 0
3 -24 47 0
8 -63 64 0
7 18 53 0
-6 27 50 0
9 42 66 0
2 -11 72 0
-7 -43 73 0
3 62 70 0
2 25 -55 0
3 -6 -42 0
-24 -32 -37 0
25 -28 63 0
21 35 -62 0
24 -43 -64 0
-37 55 70 0
5 46 69 0
8 -10 -43 0
-17 -49 74 0
-16 -17 69 0
16 -39 -46 0
37 58 -72 0
-15 -49 50 0
12 -38 43 0
-14 42 -63 0
-17 -38 -71 0
-12 -13 -62 0
-1 -39 49 0
11 20 -35 0
-26 -52 -69 0
-13 -14 41 0
-22 -30 54 0
-33 -46 -73 0
-34 -36 52 0
-27 -38 -59 0
-6 -24 36 0
14 29 65 0
16 19 -74 0
22 27 -74 0
-4 -17 42 0
13 22 64 0
41 44 -62 0
34 -63 -66 0
31 33 46 0
-51 57 73 0
-3 -60 71 0
-10 26 48 0
-38 -42 52 0
1 8 -50 0
5 32 -71 0
19 34 -60 0
14 -42 71 0
-21 51 -54 0
55 -67 74 0
4 -22 44 0
10 53 -70 0
9 74 75 0
31 47 72 0
27 -29 -32 0
27 62 73 0
-14 -50 52 0
-52 58 -63 0
5 -31 -68 0
-4 27 -54 0
5 8 17 0
13 -29 66 0
-30 34 -58 0
11 60 -62 0
1 14 15 0
7 -49 61 0
21 -50 51 0
-46 56 -57 0
13 42 -68 0
-45 -67 70 0
-44 70 -71 0
8 -67 -74 0
12 -13 71 0
12 64 -65 0
-24 47 -60 0
7 50 67 0
-17 38 62 0
-22 -61 63 0
-20 -64 70 0
46 49 75 0
-28 50 71 0
-9 17 -21 0
6 40 -53 0
17 -30 -56 0
22 35 -63 0
-13 -17 34 0
-21 -60 69 0
5 -15 34 0
-1 -11 -40 0
61 66 72 0
-10 20 36 0
-9 41 -69 0
28 51 68 0
34 35 -69 0
-24 -28 -33 0
-30 51 -65 0
33 -39 73 0
-20 35 -74 0
-6 -23 -25 0
-15 46 51 0
-15 -65 -73 0
-4 14 71 0
-11 -19 -44 0
-38 -45 -63 0
28 -48 60 0
-5 -42 -58 0
-1 25 -38 0
-7 -38 -53 0
27 33 -67 0
-2 -40 57 0
-8 -29 -63 0
22 51 -69 0
45 72 73 0
-30 40 43 0
12 -16 66 0
16 30 69 0
19 21 63 0
8 18 74 0
26 51 65 0
-9 18 32 0
10 -38 -39 0
-4 -19 -61 0
-42 47 -72 0
12 -55 -68 0
-5 -40 46 0
1 -3 -13 0
-18 41 66 0
8 -21 59 0
-34 42 -70 0
46 49 74 0
33 41 -47 0
51 -57 -61 0
-19 48 70 0
6 -48 -62 0
15 -38 66 0
6 8 62 0
-25 43 -47 0
13 51 71 0
6 -13 -57 0
-37 44 59 0
24 38 -60 0
-15 45 49 0
-10 -14 67 0
-8 10 49 0
-32 34 -75 0
20 -40 -43 0
25 -39 60 0
2 13 16 0
1 -32 66 0
-9 63 -70 0
-15 -57 72 0
4 9 44 0
-48 -64 67 0
27 -55 -60 0
-36 -38 59 0
25 37 -50 0
-3 -28 -32 0
-37 -49 71 0
36 -47 -64 0
24 -34 47 0
-24 52 -58 0
-8 22 38 0
-24 26 36 0
-13 22 23 0
53 62 -71 0
3 -5 66 0
7 28 -46 0
-7 -13 -39 0
31 55 62 0
-2 32 37 0
4 52 68 0
14 35 38 0
-4 -21 -37 0
-5 23 38 0
-20 52 71 0
-8 24 42 0
57 -64 -74 0
-7 8 -52 0
-32 53 -55 0
-14 37 -59 0
5 24 53 0
11 -15 64 0
-29 51 63 0
-20 -58 64 0
-16 -52 53 0
23 -25 27 0
-68 71 72 0
-9 -16 58 0
-28 33 54 0
-38 53 54 0
-28 -29 62 0
39 -56 60 0
-24 25 -70 0
-9 12 -57 0
36 -43 46 0
-2 -11 38 0
-67 71 75 0
-35 -68 69 0
13 -32 69 0
-30 33 39 0
36 -63 -74 0
4 36 -58 0
21 -33 -59 0
-42 -58 62 0
-23 35 -57 0
7 -29 58 0
-2 -16 43 0
-21 -55 59 0
6 -18 -60 0
41 -51 -60 0
-26 -73 -75 0
-8 52 72 0
6 46 65 0
-23 -41 72 0
35 -42 -75 0
33 -63 66 0
19 47 74 0
20 28 -51 0
6 24 49 0
-1 69 72 0
-48 -59 -64 0
18 -35 41 0
9 15 -31 0
21 44 -50 0
-5 -37 42 0
15 17 -22 0
-10 27 -32 0
-16 -59 -75 0
-17 -60 -70 0
8 35 -39 0
5 -13 42 0
-7 -11 30 0
-24 66 75 0
-5 46 47 0
-2 -44 -49 0
8 14 -53 0
26 -73 75 0
