c F1 random 3-CNF cnfgen RandomKCNF(3,50,213,seed=19) m/n=4.26
p cnf 50 213
3 34 -44 0
19 -23 34 0
-17 21 -27 0
2 20 37 0
-8 30 35 0
-2 -7 -27 0
20 -37 43 0
35 37 -50 0
-9 13 -41 0
1 -30 -31 0
24 28 35 0
-2 -6 30 0
-42 44 -46 0
-19 26 -29 0
20 29 44 0
-20 44 -49 0
-5 30 33 0
18 28 42 0
-11 19 28 0
31 -40 44 0
-1 25 -40 0
-14 17 33 0
18 42 50 0
19 -30 -34 0
-36 -46 -47 0
4 15 -31 0
8 -33 -38 0
-25 -44 -45 0
12 -22 -29 0
3 -24 -40 0
-24 30 -38 0
6 -17 18 0
11 31 43 0
3 -28 38 0
-3 35 47 0
-8 16 19 0
-20 29 -45 0
7 -44 48 0
23 -30 -36 0
4 29 38 0
-9 -25 -32 0
-4 29 34 0
20 36 -43 0
9 27 -41 0
-12 39 -46 0
26 29 49 0
-6 16 -18 0
17 28 30 0
-2 -12 -28 0
12 -16 20 0
4 -5 8 0
-3 -6 -25 0
10 18 22 0
-8 -12 -24 0
-17 41 46 0
-3 -11 -39 0
-2 14 35 0
15 32 47 0
11 25 -41 0
-7 -11 42 0
-5 -35 39 0
10 21 34 0
-17 -20 45 0
-5 35 -45 0
-17 -34 -38 0
21 -37 49 0
10 -26 35 0
7 -16 48 0
24 -26 31 0
-2 10 -36 0
-10 29 -32 0
-20 -22 -34 0
25 26 40 0
11 13 24 0
-5 -19 -48 0
-24 -35 -41 0
5 -31 -49 0
10 -13 -19 0
-25 32 -34 0
23 -33 -38 0
18 -33 41 0
3 21 -32 0
-9 -36 -40 0
12 -21 44 0
-11 48 -49 0
-18 40 -49 0
9 21 28 0
-3 -29 -48 0
-20 -38 46 0
-5 24 -36 0
19 -20 -29 0
-15 22 32 0
8 24 -29 0
30 39 -48 0
-26 28 48 0
-8 14 22 0
-25 -35 -40 0
16 -44 -49 0
32 42 49 0
-27 41 50 0
6 -33 -36 0
23 -38 46 0
-12 -13 43 0
29 -31 -40 0
30 -38 45 0
2 32 -42 0
-1 -23 24 0
-21 31 -39 0
-8 -15 -29 0
21 23 -37 0
15 24 31 0
6 -26 27 0
-4 6 -43 0
24 -26 33 0
6 -22 -46 0
-7 21 24 0
-13 17 48 0
19 -32 36 0
-1 2 32 0
-43 -44 -50 0
4 7 45 0
-10 -35 -39 0
-24 -36 -43 0
-5 -14 25 0
-6 14 -39 0
-8 31 -40 0
25 -38 47 0
-8 -10 21 0
-9 -13 -49 0
-17 20 31 0
26 41 -50 0
-12 -21 -42 0
13 -27 38 0
-20 21 50 0
7 -14 -39 0
-14 38 50 0
-21 -42 -47 0
11 -14 32 0
-16 30 -45 0
23 -25 -47 0
-1 18 35 0
-4 -6 -13 0
-12 14 41 0
18 -27 40 0
5 -16 -47 0
-14 40 -44 0
12 -29 -33 0
-14 28 35 0
14 -42 -50 0
1 -18 -34 0
-6 -10 -43 0
-15 32 34 0
-33 34 44 0
-12 14 -45 0
-10 23 -44 0
12 -29 30 0
6 14 -28 0
-1 6 -42 0
3 -20 -26 0
-7 -10 -48 0
24 34 -42 0
-10 19 -47 0
-20 27 -29 0
11 41 -43 0
7 -14 -27 0
5 -25 29 0
-5 30 -46 0
20 -29 47 0
30 38 50 0
17 -42 46 0
-15 -32 -41 0
14 -28 -37 0
-21 36 -46 0
-22 -38 -40 0
-1 9 32 0
-1 18 -33 0
-2 -8 -18 0
-9 -20 -24 0
-16 -43 45 0
-8 -31 45 0
2 -24 -33 0
-1 -4 -19 0
-9 11 -49 0
9 21 -39 0
1 30 -32 0
-4 43 -46 0
-15 37 43 0
36 -42 -47 0
12 46 47 0
-7 17 26 0
27 -34 -41 0
18 30 46 0
17 20 -35 0
21 49 50 0
-25 -46 -50 0
22 -26 -50 0
-26 37 -49 0
8 34 40 0
9 -24 -42 0
7 -46 -49 0
11 -27 47 0
-18 -23 -45 0
4 -27 42 0
-19 33 -44 0
30 -41 -49 0
-17 -20 47 0
4 8 42 0
6 -21 29 0
9 -40 -48 0
-9 -42 47 0
-8 -30 33 0
-22 -26 -49 0
-10 26 -37 0
