c F1 random 3-CNF cnfgen RandomKCNF(3,225,959,seed=4) m/n=4.26
p cnf 225 959
-27 -61 78 0
-6 -18 24 0
-57 -134 138 0
28 68 -212 0
50 -70 -205 0
-161 188 -223 0
100 130 172 0
-23 72 -122 0
80 -147 -181 0
-74 111 154 0
67 79 209 0
-72 -119 161 0
-18 51 -173 0
-48 -71 92 0
26 83 -215 0
150 158 -196 0
46 75 -118 0
-22 74 -179 0
-40 74 -83 0
-50 114 -159 0
-41 98 -154 0
-12 -44 -117 0
25 -113 147 0
15 16 30 0
126 -140 150 0
-32 -136 214 0
-52 -62 -123 0
-10 57 -108 0
56 128 213 0
63 65 -66 0
-37 67 -223 0
-30 145 -146 0
24 100 -111 0
-76 -121 169 0
-168 -176 -206 0
-20 128 220 0
-33 102 159 0
-119 -163 -177 0
1 56 205 0
66 -157 -225 0
57 141 225 0
-85 -156 172 0
9 -21 -179 0
36 -156 199 0
-3 -134 197 0
-22 117 -140 0
-60 -100 195 0
-20 -30 -159 0
-183 199 220 0
-78 -164 215 0
-43 143 205 0
-39 -84 -181 0
2 139 -182 0
-29 -31 140 0
-63 -106 134 0
47 197 -222 0
-120 -140 -201 0
-37 -65 101 0
22 111 -156 0
-51 96 148 0
-46 -104 -166 0
6 45 -77 0
26 207 -209 0
20 147 -170 0
-57 -173 191 0
-57 -126 181 0
-84 -138 -191 0
-73 -81 210 0
-48 -65 -139 0
8 100 -160 0
-89 155 -162 0
-57 124 164 0
18 62 77 0
-102 149 203 0
25 41 -193 0
21 -32 70 0
-39 168 188 0
94 144 -178 0
-40 -56 217 0
-42 -44 -97 0
85 -103 221 0
8 -72 109 0
22 30 41 0
3 -123 -142 0
45 87 -217 0
-79 92 159 0
-66 -149 -220 0
22 -207 214 0
-10 -169 -179 0
21 -46 183 0
10 -52 174 0
30 79 179 0
5 71 -160 0
-38 55 -179 0
-77 -209 220 0
45 -106 -127 0
-54 -181 202 0
-5 -55 -123 0
-105 -161 194 0
66 72 -131 0
68 -74 156 0
43 159 -201 0
-56 165 -172 0
3 117 146 0
63 133 -216 0
76 146 223 0
7 184 -192 0
-9 -84 152 0
44 56 194 0
-15 -173 176 0
52 -205 -217 0
-127 -140 -154 0
104 191 215 0
-40 57 -92 0
-50 -147 -222 0
29 138 -182 0
48 55 137 0
-49 -76 212 0
-79 185 205 0
-97 -119 159 0
-35 115 -179 0
-30 55 85 0
42 124 173 0
6 -86 -154 0
60 150 205 0
47 -74 -155 0
96 -139 -163 0
67 86 -153 0
147 -219 -221 0
19 31 213 0
36 -142 183 0
13 182 -201 0
-15 -76 160 0
-121 165 195 0
12 -74 -107 0
19 -52 111 0
51 73 217 0
21 184 192 0
-75 133 134 0
87 134 164 0
16 -17 177 0
-27 -133 -196 0
35 150 151 0
-12 -41 -197 0
92 -152 -195 0
64 -116 160 0
143 -146 -149 0
42 -78 -86 0
81 -181 -218 0
69 -95 221 0
-60 205 222 0
25 80 113 0
1 222 225 0
-96 101 -166 0
75 -111 188 0
-15 25 -48 0
42 112 -176 0
88 90 -131 0
-25 94 -195 0
91 -111 147 0
23 100 115 0
26 -33 -74 0
-90 -189 -195 0
-80 172 -201 0
97 -131 -213 0
95 184 -225 0
32 73 86 0
-60 -123 -199 0
107 -137 217 0
-111 -179 -215 0
-37 51 -86 0
-139 145 -184 0
-99 123 -190 0
66 152 160 0
-118 176 223 0
-1 60 -210 0
-84 210 -215 0
15 172 -204 0
29 185 -189 0
17 138 205 0
2 50 219 0
-84 -124 -129 0
-34 148 -182 0
-15 25 -68 0
18 53 -183 0
94 100 188 0
-115 -186 211 0
9 -37 -44 0
-94 113 -219 0
-2 -70 -147 0
74 180 202 0
-42 178 199 0
49 157 -207 0
-8 21 130 0
68 72 212 0
-66 -150 -208 0
-2 27 -103 0
88 -154 186 0
-43 44 196 0
-49 -138 187 0
-44 -157 -209 0
84 -94 -177 0
40 -67 -70 0
-129 -153 168 0
69 -96 192 0
41 -99 -131 0
9 46 -82 0
-43 -49 -137 0
-70 86 100 0
147 173 189 0
-86 127 136 0
-14 -96 -181 0
-64 -90 113 0
33 -100 -189 0
-44 -65 -197 0
27 145 -203 0
132 160 -170 0
172 -182 212 0
-1 -111 -197 0
8 43 -213 0
-203 -206 213 0
-67 84 163 0
-65 -88 -224 0
16 -88 -147 0
26 61 -145 0
-71 154 -221 0
-112 120 -200 0
-45 -74 132 0
113 -133 -176 0
-67 120 -137 0
-119 -159 201 0
-57 60 -157 0
-108 -115 218 0
103 -151 -183 0
81 -192 -203 0
52 -55 123 0
17 66 -156 0
85 94 102 0
-42 -95 120 0
92 -131 -143 0
-129 156 178 0
-82 168 -192 0
119 162 205 0
-49 113 185 0
41 -80 140 0
-59 -130 170 0
-11 89 -131 0
25 74 187 0
-136 176 190 0
35 36 -158 0
-13 -44 -225 0
39 -120 -122 0
-65 153 169 0
-114 137 -171 0
17 -67 181 0
-107 -120 -124 0
12 133 -145 0
-74 -149 222 0
38 -70 -108 0
-27 -55 225 0
-149 150 191 0
30 -172 222 0
26 104 146 0
44 192 -204 0
-33 181 -194 0
21 -201 -223 0
-74 117 220 0
-99 -114 -117 0
-50 92 -192 0
57 -142 -188 0
-37 95 -111 0
7 61 122 0
-90 -160 161 0
80 160 183 0
49 51 110 0
-121 200 205 0
38 -204 -217 0
-6 -70 203 0
77 -102 221 0
31 78 222 0
-67 101 102 0
-18 81 -187 0
93 -117 -163 0
-112 125 -176 0
103 153 189 0
-127 -137 213 0
-57 -108 -156 0
54 -140 221 0
37 -52 90 0
-35 -69 156 0
27 167 211 0
-25 130 202 0
-54 77 219 0
-41 95 -171 0
74 -105 149 0
-154 -177 219 0
-58 -188 -206 0
30 45 -145 0
61 -131 201 0
-114 -122 164 0
-34 83 126 0
25 -56 -101 0
71 193 -213 0
113 164 -222 0
-122 127 198 0
108 -194 -208 0
-75 -154 -207 0
-161 171 192 0
26 -53 -115 0
13 -118 -132 0
191 -197 -224 0
37 -158 204 0
34 -211 -212 0
14 -127 -207 0
-77 112 135 0
7 183 -210 0
-33 55 -150 0
55 66 75 0
9 129 -178 0
59 147 -225 0
-33 -42 -150 0
-14 117 -125 0
69 95 164 0
-46 131 218 0
7 21 -200 0
75 91 -181 0
10 -111 -203 0
15 -82 202 0
198 199 -210 0
54 217 218 0
12 -123 -148 0
72 -106 -128 0
-15 130 187 0
-33 -166 222 0
-112 -133 156 0
63 -111 135 0
-17 94 173 0
-26 -94 223 0
-170 -192 -216 0
65 76 150 0
60 111 -148 0
-37 179 209 0
34 45 -73 0
15 151 218 0
4 -84 -97 0
31 67 -145 0
-19 145 -210 0
-24 -181 -186 0
-46 -47 -62 0
31 -124 -150 0
-10 -47 -103 0
47 89 -138 0
40 68 208 0
-34 -173 -184 0
-36 120 -136 0
148 -157 196 0
-55 -145 171 0
182 185 -212 0
-6 -18 145 0
-64 -138 -208 0
21 101 130 0
-47 -163 191 0
65 -92 132 0
26 105 161 0
-4 20 -156 0
27 -45 171 0
51 195 208 0
-40 121 -221 0
-107 143 176 0
-80 136 -225 0
-26 -76 -87 0
-14 60 149 0
-52 -67 122 0
-84 87 112 0
136 -160 -214 0
-26 -56 -76 0
-114 -180 -221 0
79 -93 174 0
-13 -32 81 0
-130 -145 -195 0
78 187 201 0
-73 92 175 0
17 -30 219 0
52 71 101 0
79 185 208 0
38 -128 -137 0
69 151 161 0
-82 -113 -157 0
20 -114 191 0
83 101 -145 0
-107 -108 -168 0
-10 24 -208 0
83 158 -185 0
78 92 149 0
-14 -153 186 0
23 85 210 0
-13 155 -181 0
102 112 192 0
-18 -51 164 0
23 -106 -172 0
10 38 161 0
-21 -159 -187 0
-15 -41 -57 0
3 -70 137 0
48 186 195 0
7 147 164 0
35 78 -84 0
-11 67 152 0
119 -131 -220 0
-21 38 155 0
139 -162 208 0
-32 161 -165 0
-8 20 -180 0
-30 -96 -150 0
-32 -90 131 0
48 109 178 0
48 55 181 0
-15 28 -185 0
-61 -63 -76 0
-96 -118 182 0
-1 10 68 0
-120 -144 -159 0
-98 -160 220 0
-17 67 -200 0
15 31 186 0
-63 -152 -183 0
135 214 215 0
31 83 -167 0
-130 138 155 0
1 96 -111 0
3 -71 -177 0
24 33 -219 0
-24 38 169 0
-37 41 101 0
188 -189 -207 0
16 -25 212 0
65 -143 212 0
-42 113 -198 0
41 86 93 0
-1 -36 -146 0
-87 96 -113 0
-36 -110 -177 0
-122 -159 223 0
47 -134 -160 0
-13 -60 200 0
-13 25 -37 0
58 -90 220 0
-58 162 178 0
67 86 -150 0
52 179 208 0
24 -56 -103 0
-53 -176 -180 0
-6 -134 219 0
-29 -120 219 0
-89 145 -146 0
-33 -102 204 0
16 77 -119 0
10 -83 91 0
-59 112 -214 0
6 29 130 0
28 -49 152 0
-120 -200 -202 0
-23 -75 -88 0
-23 -121 184 0
-125 -191 -200 0
81 140 170 0
-39 -40 -199 0
145 154 -196 0
2 97 -105 0
-52 137 144 0
44 -80 -223 0
82 154 -196 0
-59 115 164 0
61 -106 -219 0
-102 170 -191 0
87 -102 -189 0
116 -194 210 0
81 160 -166 0
-67 -79 -81 0
-162 170 -178 0
97 -180 -196 0
77 166 171 0
-24 85 -190 0
7 35 -144 0
131 144 181 0
-46 104 142 0
-38 -74 -185 0
-46 77 -145 0
-69 -127 -221 0
-1 -52 136 0
-62 111 182 0
-47 50 -92 0
-42 -99 154 0
69 132 140 0
14 33 -110 0
65 -124 -155 0
-9 107 111 0
-77 95 126 0
69 -138 158 0
-56 -181 -191 0
-95 128 173 0
-145 -153 -169 0
-19 -62 69 0
-119 -144 224 0
-31 -40 -215 0
170 184 -207 0
33 89 211 0
37 -67 166 0
-45 147 190 0
-18 -25 -104 0
67 -87 -156 0
-35 84 -159 0
127 -177 204 0
-2 -138 -146 0
-71 201 -225 0
54 88 -155 0
53 105 -142 0
43 -60 -171 0
105 152 193 0
-12 124 -168 0
20 -133 -156 0
143 155 -167 0
-107 -155 -189 0
84 185 -189 0
17 22 -38 0
125 186 225 0
-2 -119 185 0
11 186 -189 0
42 68 -83 0
-119 -147 -148 0
5 -51 166 0
106 147 -217 0
-31 -128 -166 0
-84 90 164 0
-60 -64 65 0
-41 63 168 0
87 142 -184 0
13 -15 39 0
65 169 -202 0
44 -88 143 0
50 -153 200 0
48 -110 -146 0
-26 -75 -126 0
-42 79 202 0
59 -63 214 0
-67 -117 145 0
-52 147 164 0
67 -96 -136 0
100 -120 216 0
-49 -62 -102 0
102 202 211 0
11 -88 -189 0
-11 -38 -78 0
-7 73 -75 0
14 -45 185 0
31 60 80 0
-6 -153 184 0
-14 152 -181 0
-179 189 -199 0
-69 125 149 0
66 119 154 0
-21 133 202 0
15 -205 211 0
53 59 101 0
-21 24 -117 0
5 150 196 0
138 -168 194 0
-135 -207 208 0
-39 -176 -196 0
23 136 189 0
29 -76 216 0
81 115 202 0
29 -41 -137 0
42 181 193 0
-12 -22 187 0
-16 53 -167 0
-95 -129 170 0
-14 -118 -180 0
28 109 146 0
-77 -82 129 0
-19 106 -120 0
-65 -124 184 0
-61 139 197 0
50 98 -158 0
-28 -43 52 0
-14 18 217 0
110 198 -223 0
17 127 130 0
-152 193 -204 0
-135 204 212 0
99 211 222 0
-32 185 -204 0
29 -133 -197 0
42 108 116 0
-20 60 -76 0
17 -33 198 0
9 118 -218 0
-27 -33 218 0
142 211 -224 0
-39 82 172 0
17 -73 -144 0
-100 129 -166 0
45 -189 -205 0
10 217 -221 0
-66 -143 -201 0
-64 109 136 0
82 148 -188 0
8 48 59 0
-6 108 177 0
17 121 155 0
-24 -174 193 0
59 -184 210 0
14 -194 220 0
-121 171 -212 0
-49 204 -211 0
16 29 -142 0
113 146 -178 0
38 79 89 0
1 101 -103 0
13 84 140 0
17 -61 115 0
-92 -97 -225 0
-38 51 -202 0
48 -120 -172 0
-74 -139 -191 0
-8 11 -165 0
-37 -143 181 0
-31 -47 219 0
77 -85 190 0
40 -89 -108 0
-131 -152 217 0
107 -141 201 0
-68 -155 216 0
67 -145 -154 0
9 171 -208 0
-33 -53 -80 0
31 39 42 0
44 -73 -190 0
116 168 -200 0
-163 171 220 0
32 -120 -185 0
-143 150 -191 0
72 104 135 0
34 66 -119 0
-79 121 124 0
97 146 -165 0
8 -102 137 0
11 -182 218 0
96 169 185 0
65 200 -221 0
13 -145 -224 0
-10 -61 -201 0
27 -40 -121 0
-37 123 177 0
-6 -110 138 0
53 -129 -202 0
-45 86 126 0
-30 106 -164 0
175 177 -186 0
78 -206 219 0
-97 188 190 0
-63 210 212 0
27 -85 -207 0
-17 61 -137 0
-54 -65 -164 0
-95 -112 -183 0
151 156 -213 0
47 53 81 0
-172 207 220 0
-84 133 -176 0
-28 -152 166 0
15 -132 -167 0
106 145 -217 0
-37 -44 60 0
-162 209 -224 0
-74 -168 190 0
-104 -117 -185 0
5 65 -84 0
-10 -127 221 0
6 -65 -87 0
-8 -35 75 0
-68 85 216 0
50 -93 126 0
115 171 199 0
96 -173 -174 0
-57 129 182 0
105 -121 -137 0
92 100 -191 0
-146 151 -153 0
-13 -143 186 0
84 -139 172 0
-96 -192 217 0
45 -117 -223 0
-27 149 -207 0
-10 -134 -198 0
78 85 211 0
-149 212 -220 0
10 20 -210 0
-36 48 60 0
21 -22 64 0
19 46 -183 0
-149 164 183 0
-156 193 199 0
39 82 -158 0
29 34 -64 0
-25 101 -168 0
-48 -72 173 0
-56 -59 -90 0
10 36 -105 0
-80 141 -154 0
32 91 -116 0
-29 -52 -197 0
6 -75 142 0
-68 -115 207 0
58 155 160 0
73 150 196 0
126 -137 190 0
-148 -215 222 0
-22 -24 -137 0
32 100 -204 0
27 -61 83 0
-26 -82 123 0
-92 192 209 0
-63 76 129 0
-52 -141 174 0
71 -116 169 0
114 -195 -198 0
134 -139 -143 0
-126 -153 -198 0
-1 22 187 0
26 -100 123 0
78 202 -212 0
8 -137 225 0
110 -135 -181 0
-10 94 -148 0
-27 -111 124 0
91 145 168 0
-73 -102 174 0
-44 -117 171 0
-71 206 -215 0
-49 -109 112 0
8 -99 -192 0
27 -124 -151 0
44 -119 139 0
4 -46 121 0
32 -131 -190 0
18 -36 -128 0
26 133 -134 0
44 71 -135 0
23 67 195 0
83 156 223 0
-43 -107 198 0
54 140 -143 0
-39 -112 -164 0
37 -65 -135 0
-77 94 -140 0
-151 -157 -198 0
151 -177 -196 0
-51 216 -217 0
70 -87 -222 0
3 -55 -176 0
51 -180 -188 0
-2 -136 -169 0
-11 -98 190 0
-41 184 207 0
8 -55 -126 0
-38 -114 143 0
24 145 190 0
-126 -151 -167 0
-48 -69 -163 0
77 89 138 0
19 -50 83 0
19 -49 216 0
-49 -122 187 0
18 -79 -217 0
26 -64 194 0
-62 87 125 0
88 -136 -162 0
-139 180 192 0
-89 -100 -153 0
-68 -78 123 0
20 -114 -186 0
69 -82 -182 0
73 92 187 0
-152 -156 -173 0
-55 -100 -109 0
-51 125 164 0
-98 110 188 0
7 -141 -151 0
27 -29 -193 0
-77 109 200 0
-152 -179 213 0
-3 36 -149 0
-71 -95 145 0
-46 -74 -149 0
61 122 -144 0
-129 162 -213 0
102 108 -130 0
107 181 -220 0
68 -136 -175 0
10 56 107 0
-133 -149 -175 0
39 -149 -217 0
52 -157 -222 0
-38 137 153 0
-86 141 194 0
89 108 157 0
12 124 150 0
-32 -82 126 0
59 -132 217 0
32 67 -206 0
9 -70 -120 0
101 -119 -136 0
-112 132 170 0
6 75 210 0
-5 -80 -103 0
-43 -75 181 0
7 -98 -194 0
127 -166 192 0
-53 85 -110 0
-99 -141 143 0
-33 -49 -140 0
-12 -83 -203 0
-11 19 -79 0
64 106 -162 0
25 41 -155 0
72 73 189 0
-99 -176 190 0
90 102 -201 0
94 123 135 0
124 166 219 0
1 -17 177 0
-57 -65 -196 0
-51 109 -192 0
25 40 207 0
-54 -111 189 0
24 25 92 0
-52 -201 -224 0
23 -41 -42 0
41 118 154 0
-24 66 -110 0
107 206 -213 0
27 180 194 0
-57 -86 -193 0
-105 106 206 0
-32 -41 -160 0
43 -161 162 0
-122 147 182 0
-61 123 -146 0
-8 -148 215 0
32 144 -224 0
-70 -143 144 0
31 36 -181 0
-8 -11 -32 0
-61 -138 -154 0
78 -106 -113 0
34 -190 -220 0
-15 66 -101 0
14 26 -101 0
205 213 -214 0
-25 -29 152 0
-91 -130 -168 0
-18 -139 -149 0
-30 -47 65 0
-101 210 224 0
-23 -118 194 0
95 -119 199 0
115 187 -216 0
22 -119 -166 0
-40 54 72 0
49 -137 203 0
34 -46 -214 0
-67 149 154 0
-29 45 198 0
38 89 176 0
-5 -181 184 0
35 -143 -210 0
11 105 121 0
20 -21 -27 0
116 171 182 0
-157 176 -201 0
-66 100 -113 0
-11 -162 192 0
34 -216 -225 0
-100 103 173 0
5 -138 214 0
-50 -182 -214 0
52 -141 216 0
-80 -103 -151 0
26 -80 220 0
136 -159 177 0
78 -93 182 0
61 97 -133 0
36 117 -156 0
-192 -220 221 0
-24 -40 113 0
57 -62 130 0
37 113 -159 0
42 -134 -222 0
19 -77 206 0
4 99 193 0
-23 -124 132 0
116 -155 -216 0
-5 79 -195 0
-14 58 168 0
74 -190 -215 0
-119 195 -216 0
-161 168 -171 0
-55 112 199 0
96 -118 -123 0
-43 -82 173 0
-64 100 179 0
-24 166 -188 0
-28 189 -222 0
42 53 -86 0
-2 -169 185 0
-98 107 203 0
-118 164 -182 0
77 -147 -195 0
2 59 196 0
78 125 194 0
2 -54 -174 0
25 -38 -89 0
78 133 179 0
-88 -103 216 0
-19 -138 168 0
-111 205 -218 0
37 -116 176 0
-31 -129 -189 0
32 -206 225 0
-115 218 225 0
-64 -117 137 0
121 142 -175 0
-28 167 171 0
70 161 211 0
15 -22 -176 0
-42 -49 107 0
-12 26 -142 0
129 -170 -209 0
90 115 -197 0
4 12 -68 0
-32 137 -149 0
69 102 200 0
-36 -126 -167 0
59 -163 165 0
129 -170 -220 0
-31 86 -134 0
52 109 145 0
-29 -213 -220 0
-31 -71 -129 0
-5 -6 -24 0
-3 -157 185 0
85 -140 145 0
-3 19 -163 0
23 -100 -133 0
-70 78 -113 0
-91 -130 190 0
121 152 -225 0
-21 -32 -96 0
