c F1 random 3-CNF cnfgen RandomKCNF(3,175,746,seed=12) m/n=4.26
p cnf 175 746
-69 122 -169 0
-3 -96 124 0
1 -143 -170 0
42 54 87 0
-87 132 175 0
16 131 -170 0
-29 114 -170 0
42 143 160 0
-103 -108 -156 0
8 139 -165 0
-92 93 -99 0
-61 86 94 0
9 98 -111 0
12 53 100 0
-10 -20 -71 0
89 -155 -164 0
-54 -73 -87 0
-43 62 119 0
-2 -57 156 0
3 62 129 0
93 129 -140 0
72 164 -172 0
-91 -126 161 0
75 -115 -158 0
114 -132 -164 0
1 8 -175 0
36 -62 -108 0
-16 144 -146 0
-24 111 -151 0
95 99 164 0
-8 10 -19 0
-26 -49 -91 0
32 -157 160 0
-19 92 -105 0
-24 37 -80 0
8 -46 -94 0
-15 -46 125 0
25 -58 -84 0
-52 72 111 0
-42 -86 129 0
-13 -59 -118 0
-14 -28 170 0
-83 93 128 0
58 -123 -140 0
-12 -94 -110 0
83 100 -156 0
-9 -165 -169 0
-68 -159 -169 0
99 103 127 0
29 -66 -69 0
36 -55 80 0
4 44 -51 0
48 49 -80 0
-52 128 138 0
-33 -101 -167 0
-92 100 -163 0
-6 40 -126 0
-104 141 156 0
16 -60 90 0
3 15 64 0
-59 151 -152 0
-87 109 -167 0
-23 156 -168 0
-32 37 -77 0
4 -51 -59 0
-82 -88 -104 0
-50 88 160 0
69 -88 -99 0
65 88 -108 0
45 -93 -141 0
-80 -86 -96 0
-19 45 -160 0
-94 158 -159 0
-86 87 -169 0
19 -138 166 0
-24 125 -173 0
18 59 73 0
32 71 -164 0
-34 -80 -118 0
-93 100 120 0
-125 -135 -152 0
7 -35 -79 0
75 -124 -173 0
-46 67 109 0
-13 30 116 0
-32 -54 -142 0
24 50 -154 0
66 94 136 0
-28 62 -142 0
28 126 -159 0
-6 -78 -127 0
-20 -22 140 0
96 107 -130 0
-19 -136 174 0
-72 77 105 0
-74 -94 167 0
11 32 168 0
35 39 -155 0
5 -58 -104 0
84 -117 146 0
74 111 112 0
-91 92 -160 0
-92 96 -107 0
136 -138 -160 0
15 36 82 0
17 -23 -157 0
12 -69 -112 0
-14 -87 162 0
18 -57 -159 0
-42 -52 -132 0
35 -49 -174 0
-30 40 52 0
-19 -66 -160 0
-24 112 133 0
46 147 167 0
84 151 161 0
36 121 -125 0
143 144 -156 0
38 -71 -133 0
-21 42 -101 0
11 116 -154 0
47 143 173 0
-32 -37 137 0
23 113 -167 0
18 -42 104 0
21 -28 -39 0
68 78 -92 0
-25 -112 -153 0
-28 84 -93 0
66 88 123 0
2 -41 -103 0
-101 138 174 0
41 -115 -156 0
61 77 142 0
-81 101 127 0
17 -34 -106 0
-2 -82 119 0
80 87 -88 0
61 69 -109 0
35 53 -159 0
14 28 -167 0
23 95 -138 0
24 -31 -160 0
36 -48 -161 0
26 -48 -110 0
-8 16 30 0
62 -82 132 0
-108 140 -161 0
11 32 -125 0
-109 -149 -165 0
-63 -110 149 0
51 -151 -161 0
-44 60 124 0
38 47 -159 0
110 -144 -166 0
-42 -46 -175 0
45 113 175 0
-64 -66 -156 0
-87 117 161 0
32 164 170 0
16 51 -137 0
99 -113 -160 0
12 46 -90 0
-27 -69 172 0
54 82 101 0
-54 126 155 0
30 139 161 0
95 -97 -111 0
111 157 172 0
69 -115 -124 0
-1 53 62 0
-8 -10 104 0
-3 -12 39 0
26 89 -163 0
-152 158 160 0
96 126 -145 0
81 -93 -102 0
-30 57 -76 0
37 77 161 0
-37 49 -150 0
-25 -29 -149 0
37 -142 -174 0
45 52 -112 0
-75 -79 118 0
38 70 135 0
84 156 160 0
-45 96 -118 0
-36 -130 -139 0
-95 -125 -148 0
-79 157 -168 0
-45 -148 166 0
89 -132 -137 0
-37 42 -173 0
-36 -57 78 0
-23 -58 -143 0
-27 -55 -97 0
57 -91 157 0
-31 -41 115 0
-35 -121 -132 0
-58 -59 -62 0
68 -147 -173 0
9 88 161 0
23 43 67 0
-59 124 -158 0
2 93 -109 0
12 -81 -131 0
-6 -117 -127 0
-8 -39 -99 0
105 -130 -175 0
132 160 -167 0
-15 -56 144 0
28 72 -156 0
13 135 -149 0
-6 -20 -98 0
-25 -57 131 0
-109 129 -159 0
14 -100 -128 0
-3 29 -159 0
-14 67 -80 0
77 -108 -142 0
-26 89 -167 0
-2 -21 28 0
17 -115 129 0
17 -85 147 0
-88 -116 122 0
7 112 146 0
19 93 -98 0
113 117 -162 0
-67 94 117 0
-25 -52 75 0
-50 155 172 0
14 93 107 0
-40 -127 -132 0
66 -126 129 0
19 27 -170 0
88 -89 109 0
-9 -151 156 0
70 101 -115 0
48 -118 -162 0
28 -29 -166 0
29 90 144 0
-76 86 90 0
42 79 -112 0
47 -131 -149 0
34 101 -123 0
8 -36 141 0
77 -103 -114 0
-20 131 166 0
-26 41 -77 0
-37 80 -100 0
-47 72 132 0
26 85 -171 0
35 -39 -93 0
-32 58 154 0
14 -42 138 0
13 -23 119 0
29 -48 -98 0
6 53 -166 0
66 96 105 0
57 -59 114 0
90 160 -163 0
-18 127 129 0
-67 68 -89 0
-29 -43 75 0
8 28 -71 0
46 108 119 0
-56 -67 -162 0
68 143 157 0
-12 -140 149 0
34 -38 -143 0
-66 -85 -145 0
-30 -55 -74 0
-61 -151 162 0
14 46 101 0
19 134 149 0
-18 91 106 0
74 80 -175 0
27 -78 159 0
-9 -44 113 0
-104 122 -146 0
37 77 171 0
11 -19 -85 0
-47 64 -126 0
66 -77 -171 0
-65 88 112 0
-49 -88 119 0
-13 -65 -148 0
66 -135 142 0
-98 -131 166 0
62 108 -139 0
21 -41 -53 0
86 143 173 0
-15 62 -154 0
-88 -93 130 0
-33 57 86 0
-117 -147 155 0
-43 59 172 0
-51 -91 105 0
36 58 -94 0
149 150 -158 0
144 161 169 0
66 121 -126 0
-31 50 144 0
50 53 70 0
15 -94 -95 0
-67 -141 167 0
-5 157 -165 0
-18 -84 -111 0
9 -73 102 0
27 137 155 0
25 -37 -165 0
-25 -62 167 0
-15 30 -130 0
104 156 163 0
40 -55 -111 0
-37 42 152 0
-1 6 56 0
51 -79 -102 0
-46 98 124 0
26 -32 162 0
65 79 -110 0
11 -68 129 0
-47 -103 -129 0
-24 -28 85 0
-32 83 -120 0
57 133 -158 0
-53 83 -141 0
27 -97 -153 0
-19 -25 -53 0
-85 122 124 0
64 -69 -87 0
42 55 160 0
-54 -155 158 0
-2 38 -74 0
100 162 -165 0
-10 27 -60 0
-4 -118 -171 0
91 112 149 0
-10 34 -170 0
28 57 -147 0
66 -122 170 0
30 169 -170 0
-65 -135 -140 0
-59 -89 172 0
-35 -72 106 0
12 42 -141 0
-22 -45 51 0
52 76 -85 0
1 40 71 0
-25 155 163 0
77 88 -163 0
13 43 50 0
8 -62 -169 0
-9 53 69 0
-14 -68 109 0
-49 -129 -131 0
19 24 52 0
46 69 -155 0
-17 -66 153 0
100 141 -142 0
19 66 77 0
-82 138 148 0
30 -103 -106 0
-8 -24 -172 0
-9 66 -86 0
64 -70 132 0
63 79 -102 0
45 -86 -100 0
-17 -86 -87 0
25 40 175 0
55 92 -139 0
-7 -71 115 0
-18 -51 -134 0
56 95 108 0
-19 -24 -101 0
-14 -128 -155 0
23 -46 -95 0
51 130 -157 0
-6 -92 -96 0
74 -76 -96 0
17 73 129 0
-74 -87 169 0
-38 73 170 0
-43 -85 155 0
-55 -74 171 0
-9 28 -64 0
75 88 105 0
7 71 89 0
-53 94 103 0
106 148 -153 0
-92 -151 -161 0
-11 -41 134 0
5 -119 -158 0
-48 -50 140 0
-29 -88 -133 0
-28 136 -155 0
-28 -30 115 0
27 58 -133 0
23 35 -116 0
-38 89 -103 0
-28 -143 -146 0
-15 18 97 0
44 72 158 0
-55 -75 -163 0
115 154 -168 0
38 51 162 0
40 -82 101 0
-31 55 126 0
35 -51 -55 0
-119 -147 -173 0
59 -146 -158 0
61 -157 -171 0
24 129 146 0
-9 51 74 0
-68 87 -122 0
128 138 -164 0
-89 -117 -162 0
-41 103 -148 0
90 154 172 0
83 88 -174 0
30 111 135 0
15 51 -115 0
86 -90 110 0
-2 -63 -84 0
-2 -60 78 0
18 -21 115 0
-39 72 -109 0
14 53 -115 0
15 -52 113 0
-16 -105 147 0
-117 -136 153 0
31 -38 55 0
-20 -41 -126 0
15 -98 -125 0
104 -155 -165 0
-8 -87 -157 0
-116 140 145 0
1 -15 118 0
43 -79 -109 0
103 -138 -169 0
64 104 136 0
-28 -43 141 0
27 56 101 0
-21 -127 162 0
-9 -35 -125 0
-14 -115 161 0
-14 -42 -93 0
-29 -139 171 0
23 167 169 0
-45 -74 81 0
117 143 172 0
64 102 -120 0
-48 -145 -175 0
-86 -114 173 0
-17 56 133 0
-43 83 -171 0
-7 86 98 0
-29 -35 167 0
45 126 160 0
-65 -83 167 0
29 77 -158 0
-28 -106 -134 0
-54 -71 128 0
81 -106 165 0
-75 -99 103 0
25 -54 -133 0
1 126 142 0
24 -97 -175 0
-96 117 157 0
-20 -103 -161 0
135 -162 -174 0
4 87 147 0
-35 -117 -158 0
-123 -141 -156 0
60 -92 125 0
-100 -107 -172 0
84 -93 -160 0
-29 82 -108 0
-18 87 91 0
94 -153 164 0
-26 40 -106 0
30 -62 166 0
-43 -46 174 0
-44 -88 118 0
-80 -157 164 0
-6 52 -120 0
9 -75 93 0
-22 -55 159 0
-4 -73 116 0
27 -67 141 0
-49 -69 165 0
8 13 -21 0
4 -109 136 0
80 144 167 0
27 -80 -169 0
8 45 -111 0
-8 -12 -53 0
15 -89 161 0
12 130 -138 0
-99 -101 104 0
63 134 145 0
21 62 -145 0
96 112 125 0
-5 36 71 0
-3 -113 -132 0
93 -153 158 0
-55 70 -123 0
7 -108 175 0
26 49 138 0
-75 77 -157 0
3 22 -28 0
22 -49 -78 0
-44 -97 -98 0
16 -137 149 0
-85 -112 -129 0
-1 68 87 0
88 -144 162 0
-52 -67 156 0
75 -79 -130 0
101 117 -126 0
59 107 150 0
-68 136 163 0
-51 107 -128 0
98 -120 122 0
8 75 139 0
45 -47 -113 0
70 96 162 0
-53 68 -132 0
8 -39 58 0
67 93 172 0
53 64 -85 0
-69 88 163 0
30 86 -135 0
-48 113 -173 0
-15 -69 150 0
-68 -78 79 0
39 -70 -142 0
15 -44 -173 0
-28 52 56 0
-13 43 51 0
73 128 -172 0
-67 75 -129 0
-36 -97 -175 0
95 -135 144 0
-22 31 64 0
-44 -56 147 0
-46 -131 147 0
90 138 -169 0
-28 73 -119 0
-4 -119 120 0
-94 138 167 0
48 70 -89 0
29 72 84 0
-5 -52 149 0
48 115 122 0
-19 -47 141 0
49 -72 132 0
113 125 173 0
-44 -50 66 0
67 -86 136 0
-152 157 170 0
-7 23 -93 0
47 -143 165 0
83 -101 -119 0
54 68 -148 0
-37 -63 166 0
-65 76 151 0
35 -36 55 0
-95 99 128 0
-34 50 129 0
41 -59 -112 0
-27 86 158 0
6 -28 -173 0
-39 65 -99 0
-5 -42 96 0
-5 21 -153 0
64 -121 126 0
-75 -140 162 0
-4 -76 -156 0
93 108 144 0
-3 -45 -152 0
-5 -8 -164 0
-14 -147 -170 0
27 69 127 0
-17 78 -123 0
-10 68 -112 0
34 49 60 0
47 54 -138 0
-13 29 -57 0
75 -146 172 0
98 -102 -124 0
49 -89 145 0
7 65 -166 0
-32 -42 65 0
26 31 156 0
16 130 136 0
-25 69 -109 0
32 -64 145 0
-62 120 126 0
48 84 159 0
34 71 -76 0
-71 128 -133 0
-61 -104 -163 0
10 18 28 0
-44 -49 -57 0
57 -134 148 0
2 -86 -130 0
-7 -22 -127 0
125 -152 -154 0
71 -119 148 0
-24 49 -106 0
-47 -66 -90 0
-32 141 -155 0
4 37 -165 0
-66 135 153 0
51 71 172 0
7 122 -134 0
96 110 167 0
-113 135 168 0
-33 53 -123 0
98 103 169 0
64 127 160 0
-34 -103 -148 0
-65 129 -151 0
-3 -13 104 0
-1 102 -131 0
-7 15 91 0
-135 -142 162 0
-20 -134 -152 0
16 -107 -131 0
-41 -52 -100 0
-9 -25 153 0
-27 81 -133 0
40 -47 113 0
-87 127 -153 0
-15 -93 -137 0
47 -112 132 0
75 -82 118 0
-7 -50 129 0
6 -142 143 0
-6 141 154 0
-73 -85 151 0
72 77 95 0
-124 -154 155 0
-18 -39 -131 0
12 -88 -149 0
-104 -112 -147 0
-13 17 -164 0
15 91 -128 0
6 -91 -167 0
-4 66 -102 0
4 37 77 0
-79 111 167 0
126 -155 -163 0
-16 -43 64 0
47 117 -158 0
25 34 -140 0
23 82 122 0
-18 49 -167 0
92 102 113 0
31 38 -71 0
-58 -136 166 0
-20 26 -50 0
-60 81 131 0
24 127 153 0
79 -90 -144 0
-133 134 -167 0
3 -23 -108 0
31 -116 157 0
-57 112 -132 0
18 -39 -98 0
75 -157 169 0
-31 -72 -115 0
13 99 -112 0
-43 48 166 0
41 -133 169 0
-27 76 -102 0
43 104 -119 0
-30 84 -140 0
74 142 -148 0
64 -101 -124 0
4 -10 -83 0
-37 -81 -162 0
5 -24 -88 0
72 -76 119 0
57 110 -123 0
-48 -54 -164 0
43 115 -160 0
13 40 171 0
-43 -127 -165 0
-22 -133 136 0
11 37 -64 0
-20 -83 -150 0
112 -138 -146 0
16 38 -42 0
3 133 149 0
13 22 95 0
12 -59 -169 0
-11 -85 137 0
-23 -71 118 0
-92 135 -146 0
124 -128 -158 0
53 89 96 0
113 152 -156 0
30 97 132 0
77 93 95 0
-28 152 158 0
16 -111 147 0
-41 65 -101 0
36 86 157 0
40 90 116 0
-54 -97 -126 0
-7 -69 131 0
33 -133 -148 0
-42 87 125 0
-136 143 158 0
-78 -133 -149 0
-62 -116 -123 0
18 141 -155 0
159 -168 172 0
25 47 148 0
61 91 104 0
-4 54 -76 0
52 -100 -164 0
95 -102 -158 0
-4 -10 -165 0
30 68 96 0
-134 -161 -165 0
61 91 -124 0
75 -83 99 0
-55 81 93 0
-118 124 -170 0
-58 144 174 0
-11 -141 -153 0
18 -49 85 0
-35 -56 -127 0
20 -34 -61 0
1 4 -138 0
25 38 104 0
42 66 93 0
29 -152 155 0
-9 -25 -109 0
21 -78 -142 0
-33 91 -95 0
70 -146 -161 0
48 -110 163 0
