c F1 random 3-CNF cnfgen RandomKCNF(3,100,426,seed=15) m/n=4.26
p cnf 100 426
2 27 67 0
3 -8 88 0
-15 -44 -60 0
30 -34 -45 0
-29 40 -94 0
-11 -54 -63 0
-41 -73 89 0
3 26 63 0
37 64 68 0
-7 -10 -51 0
-23 30 65 0
-22 -40 -81 0
-10 -44 57 0
-15 -64 87 0
-12 34 95 0
8 -33 -58 0
6 -64 65 0
-30 -60 73 0
-2 -8 -79 0
-8 -45 -80 0
-4 56 -71 0
50 67 -79 0
-32 -64 66 0
-41 -76 88 0
46 -78 90 0
23 -65 -83 0
-13 -17 -43 0
-71 79 -95 0
1 -13 75 0
-26 -75 -84 0
30 -72 83 0
-88 -91 -100 0
4 -35 -44 0
8 24 60 0
27 -33 83 0
21 -30 -42 0
29 -54 95 0
-23 -62 -65 0
22 -56 -77 0
32 -57 -95 0
22 52 -84 0
-4 -44 -57 0
-50 57 59 0
-41 -58 -86 0
11 28 -67 0
-14 -85 -90 0
-23 -33 58 0
-29 39 -89 0
20 38 -58 0
16 67 -84 0
-29 -55 -79 0
-81 -84 87 0
-42 -46 -49 0
13 -43 86 0
30 87 -95 0
-28 -31 -33 0
-24 31 63 0
-69 72 78 0
8 34 -99 0
-43 -51 -67 0
-47 54 -84 0
73 -82 96 0
22 56 86 0
-6 -12 -80 0
-20 26 69 0
-7 45 -67 0
4 -19 -65 0
19 -29 89 0
-29 -92 -93 0
7 -16 -99 0
41 -97 98 0
-2 -32 67 0
37 -51 97 0
-7 -86 95 0
15 -23 -26 0
24 -31 -88 0
18 62 73 0
67 -83 -85 0
11 -43 62 0
59 -83 -93 0
22 -77 -78 0
-51 -57 75 0
19 36 88 0
9 -28 52 0
28 -46 56 0
-55 71 93 0
1 19 -97 0
-24 -41 67 0
-13 15 91 0
-17 -37 -64 0
48 59 79 0
-40 -43 -49 0
-23 -40 68 0
1 -48 -49 0
10 33 82 0
-5 47 -98 0
2 3 24 0
-78 80 -86 0
11 35 88 0
67 79 83 0
28 -33 -78 0
17 31 -66 0
65 76 100 0
19 -34 69 0
27 -48 69 0
7 9 -68 0
67 75 -98 0
22 65 -97 0
-15 23 -49 0
-31 61 91 0
-18 39 -49 0
36 -69 -80 0
-45 -55 -64 0
26 -58 -85 0
-33 38 -46 0
-53 55 -59 0
10 -18 -67 0
6 -57 -93 0
-25 -55 85 0
11 31 -100 0
44 51 -80 0
-14 61 -99 0
2 4 -83 0
31 -53 77 0
17 24 54 0
41 49 78 0
7 -59 -66 0
-17 -46 -63 0
5 10 33 0
5 35 -71 0
24 -57 -99 0
-22 83 -95 0
18 30 -65 0
34 -45 -52 0
-40 66 -87 0
-13 34 56 0
21 52 -73 0
40 -43 -55 0
30 -35 89 0
-2 59 -88 0
1 32 99 0
27 -58 60 0
25 62 -97 0
28 55 98 0
29 55 95 0
56 -68 88 0
57 65 79 0
-1 -5 50 0
-11 -13 66 0
-55 70 71 0
50 63 -90 0
-59 65 76 0
19 58 -63 0
-18 23 -67 0
-63 88 -98 0
-51 67 -86 0
-2 38 -76 0
44 51 97 0
-1 -39 65 0
26 34 -91 0
47 -79 -97 0
4 -17 98 0
-12 -45 88 0
26 -50 -95 0
4 72 96 0
34 -48 82 0
-40 70 -84 0
-28 29 -93 0
-29 -33 -85 0
10 39 -43 0
13 -33 82 0
23 47 95 0
35 87 88 0
-20 -42 71 0
-63 -70 81 0
-6 17 -99 0
-22 -72 75 0
-64 -77 -78 0
-16 27 94 0
19 26 -72 0
-17 -83 97 0
4 -20 39 0
17 28 -29 0
57 -61 97 0
-3 -84 92 0
5 -41 -72 0
-18 -49 59 0
10 -19 43 0
10 -50 57 0
2 12 -42 0
15 -33 -34 0
7 -70 89 0
-81 93 -96 0
-35 -46 -49 0
13 61 91 0
21 -61 100 0
-34 -61 74 0
-38 54 96 0
71 -77 -86 0
8 -81 83 0
-20 78 -96 0
-26 -69 -84 0
-25 67 99 0
-47 73 -83 0
-15 67 -68 0
1 -59 79 0
-32 46 -53 0
12 20 -87 0
-28 -48 70 0
34 41 -88 0
-2 28 76 0
-16 -40 61 0
8 9 63 0
-3 -5 -55 0
-7 -60 76 0
-13 -51 -61 0
-32 46 77 0
-9 21 -37 0
-51 80 84 0
-2 84 -86 0
-10 46 82 0
36 45 -65 0
-24 -57 -91 0
-6 -55 97 0
42 60 -76 0
-2 22 53 0
46 52 90 0
-51 59 -70 0
-1 -19 -83 0
11 -44 45 0
-17 -28 -56 0
-52 74 -93 0
-6 70 -73 0
-9 45 51 0
-16 52 -99 0
-2 7 38 0
-9 92 99 0
23 34 -84 0
-37 48 -86 0
-45 52 72 0
26 39 53 0
23 90 -93 0
17 -44 58 0
-51 57 -87 0
-18 -55 97 0
54 59 61 0
-36 -43 61 0
12 -20 -92 0
-1 53 -92 0
-30 62 78 0
49 66 -82 0
23 25 -79 0
31 50 -66 0
51 -53 -79 0
-14 -23 53 0
-29 -44 47 0
35 63 -89 0
-2 20 64 0
23 -35 49 0
29 -56 100 0
60 -74 94 0
20 23 83 0
-19 -21 35 0
26 -67 -84 0
36 51 -54 0
81 -83 92 0
17 -88 93 0
-7 -54 82 0
-23 -67 -77 0
-6 -27 -84 0
-1 57 -68 0
23 -26 -91 0
-56 -76 -96 0
-3 -9 96 0
2 -43 61 0
-4 -59 -61 0
-18 -38 63 0
10 -12 -19 0
28 -87 -98 0
34 -39 -97 0
-20 -74 93 0
1 -6 35 0
-16 63 72 0
13 -41 -55 0
-16 35 -96 0
17 28 -61 0
19 60 96 0
-42 67 -68 0
1 -55 -76 0
10 24 63 0
-20 53 -90 0
29 35 -64 0
-19 66 92 0
27 -30 84 0
-5 -66 -96 0
4 16 98 0
-88 99 -100 0
-27 -42 -70 0
-15 -37 92 0
72 -79 84 0
-17 -26 28 0
-24 51 89 0
14 36 56 0
-25 32 95 0
21 -47 -79 0
-1 21 43 0
-8 -34 -100 0
-25 28 43 0
27 -35 -48 0
-47 50 -76 0
5 -37 -64 0
-33 59 -93 0
1 21 36 0
-1 29 -44 0
-19 62 -100 0
-38 -72 -78 0
11 41 49 0
61 74 81 0
17 66 -88 0
-11 -21 74 0
46 54 -75 0
-22 -26 -92 0
-18 -30 93 0
44 -50 75 0
-71 -72 92 0
20 27 -61 0
-66 67 99 0
37 -66 90 0
-8 51 98 0
-25 91 97 0
-18 -51 53 0
-39 47 67 0
15 -23 35 0
-10 -31 44 0
-5 42 -53 0
37 -59 -80 0
-40 73 80 0
5 -50 -100 0
27 32 90 0
-3 28 -55 0
-34 41 -70 0
-5 -18 -56 0
41 47 79 0
-6 -39 87 0
-23 -90 93 0
28 94 -97 0
-33 -91 94 0
49 52 76 0
39 -63 -83 0
45 -94 -95 0
-17 -23 65 0
49 -80 -95 0
44 -61 62 0
32 -67 -87 0
-39 -46 70 0
6 -39 -70 0
-30 -47 -100 0
47 -73 77 0
46 -55 90 0
7 31 66 0
-17 30 62 0
-17 43 65 0
-28 85 -86 0
27 75 98 0
15 -22 -34 0
21 64 -92 0
40 -41 -73 0
21 67 76 0
13 15 -32 0
27 46 -97 0
29 -38 -80 0
2 19 -46 0
-44 75 -77 0
-34 -38 -88 0
33 -54 87 0
55 64 91 0
40 51 -56 0
-55 88 96 0
-27 -38 -100 0
-19 -49 82 0
16 17 -31 0
-23 -51 85 0
20 38 93 0
1 -59 80 0
-7 -19 -84 0
13 49 -65 0
-46 -63 98 0
-9 -78 -80 0
4 -10 -17 0
-23 -30 -88 0
-58 -70 -72 0
-23 -91 -97 0
-23 -71 92 0
27 -45 48 0
5 51 92 0
5 -67 -74 0
19 98 100 0
20 -68 -89 0
8 -92 96 0
-10 -28 -32 0
33 -73 88 0
26 44 -57 0
-19 86 99 0
-64 -66 99 0
45 46 98 0
-50 81 89 0
-5 -50 -60 0
-48 49 -96 0
38 44 66 0
23 38 -73 0
12 15 -76 0
-26 28 -35 0
-18 -19 -84 0
30 51 90 0
21 31 -38 0
-50 60 -81 0
39 -55 64 0
-12 28 81 0
75 89 100 0
11 -40 -97 0
3 -18 -77 0
-27 52 91 0
26 -58 -75 0
27 46 88 0
-9 -46 -59 0
41 49 74 0
