c F1 random 3-CNF cnfgen RandomKCNF(3,100,426,seed=0) m/n=4.26
p cnf 100 426
50 -54 -98 0
-39 52 62 0
18 -37 97 0
13 -40 -94 0
-13 -46 72 0
-57 62 71 0
12 -52 -93 0
32 42 94 0
-19 31 70 0
41 -63 -66 0
-16 71 -91 0
-12 -57 77 0
24 25 -38 0
9 12 61 0
-11 -70 90 0
-28 -76 -87 0
-64 83 -85 0
-15 63 79 0
3 35 -94 0
22 43 55 0
6 29 90 0
25 -78 82 0
5 15 48 0
16 62 92 0
55 -70 80 0
-10 -29 -83 0
-8 24 65 0
-26 -51 -90 0
22 73 90 0
-21 44 -68 0
-2 -23 -86 0
-46 50 84 0
-11 59 -95 0
-18 -31 -98 0
46 -76 -87 0
54 84 96 0
21 43 -90 0
-49 87 -91 0
54 73 -90 0
9 -34 -90 0
72 78 -97 0
40 -42 60 0
11 71 -82 0
41 54 87 0
1 92 97 0
-26 -78 84 0
13 51 -61 0
15 -33 58 0
3 20 36 0
-34 -72 88 0
-78 -90 -96 0
23 -48 -69 0
-2 -18 -20 0
-12 48 92 0
-20 -21 -35 0
17 -38 71 0
7 -23 -40 0
39 43 -54 0
-16 44 -61 0
-5 39 55 0
49 73 81 0
26 -29 96 0
-13 -51 -72 0
75 -87 92 0
29 -34 48 0
9 -15 46 0
-16 51 64 0
19 28 -80 0
47 49 -70 0
-19 -52 -73 0
64 82 86 0
-44 -91 96 0
19 -33 -68 0
61 91 92 0
9 -17 29 0
43 58 -98 0
48 49 65 0
55 -96 -97 0
50 62 78 0
-24 -39 95 0
-34 -39 -64 0
8 21 -83 0
8 -43 -94 0
19 63 -78 0
-5 -53 -79 0
7 13 61 0
-17 77 -80 0
-25 50 100 0
-60 79 -90 0
17 38 50 0
48 -51 -57 0
6 -10 -81 0
4 67 86 0
-65 -81 100 0
-19 55 73 0
-9 13 54 0
-56 58 -88 0
33 -42 93 0
16 -46 -89 0
-2 23 30 0
1 27 -85 0
4 48 89 0
-15 -59 62 0
-4 -27 -47 0
-38 71 82 0
-14 69 -75 0
-17 19 29 0
-24 -38 97 0
-3 17 77 0
-17 39 -54 0
39 46 -82 0
48 -81 -82 0
-2 -54 94 0
38 48 61 0
15 -36 -72 0
-24 54 99 0
44 -59 -67 0
-12 81 -82 0
-1 58 90 0
-15 39 -99 0
61 -91 97 0
-52 70 98 0
6 -35 -86 0
-68 -75 91 0
-33 46 96 0
-5 -10 34 0
32 68 -98 0
37 38 67 0
-53 -70 -82 0
48 57 73 0
-16 -49 90 0
-39 -72 -86 0
-28 -62 63 0
-19 39 57 0
-4 46 61 0
-11 88 -95 0
6 -15 -80 0
-19 30 94 0
-56 -59 92 0
-43 54 -83 0
-19 68 91 0
-24 -45 -57 0
29 -50 94 0
-7 76 91 0
-11 24 82 0
30 -39 -79 0
-7 -53 -59 0
33 -61 -91 0
-6 7 -21 0
1 -18 84 0
51 -72 78 0
14 -44 -78 0
-42 59 69 0
11 -25 48 0
-26 -33 -87 0
33 45 -62 0
-2 -10 -71 0
-7 -53 64 0
11 -13 31 0
-10 -57 79 0
24 32 -63 0
41 -46 56 0
-38 -92 -100 0
3 30 35 0
32 -54 94 0
-66 69 95 0
35 -50 83 0
-87 91 92 0
-9 40 -67 0
37 62 81 0
-42 65 71 0
20 23 51 0
64 73 100 0
-30 50 -98 0
-4 -14 -79 0
2 -29 -40 0
41 -70 91 0
52 -78 -91 0
8 -27 50 0
44 -57 -86 0
21 -40 86 0
-20 81 -94 0
4 8 81 0
29 42 -84 0
18 -55 -85 0
19 -40 -46 0
-2 -49 53 0
-16 53 73 0
18 65 -80 0
23 31 32 0
11 -55 92 0
-6 -78 -79 0
-4 5 -81 0
-20 38 -86 0
-21 -95 -97 0
-2 -51 -64 0
-5 69 -99 0
-16 -51 -93 0
3 -7 -35 0
-27 -88 -98 0
-15 27 -73 0
20 21 43 0
-38 -45 -47 0
52 56 77 0
6 -57 73 0
-62 86 93 0
36 55 71 0
21 -82 -85 0
35 -37 -40 0
-34 -68 69 0
19 56 -91 0
-5 47 60 0
21 -47 -68 0
3 94 -95 0
24 -54 98 0
58 92 96 0
-9 -55 -57 0
-56 -97 100 0
4 -40 64 0
-50 -51 98 0
46 -60 -75 0
4 51 61 0
45 47 73 0
-15 86 -92 0
4 -41 -51 0
19 -77 -86 0
8 21 -66 0
83 91 -92 0
24 45 75 0
-26 -34 -42 0
20 58 97 0
-5 66 83 0
59 -79 83 0
43 -84 91 0
-11 67 70 0
-14 -55 -78 0
47 49 -66 0
3 24 -94 0
-6 25 -78 0
7 -50 77 0
-7 -53 -57 0
53 59 -73 0
25 -34 50 0
4 16 -45 0
79 -84 -89 0
-71 -89 96 0
-7 52 69 0
11 -43 46 0
-20 67 81 0
21 44 49 0
21 -82 100 0
-62 81 87 0
-31 37 82 0
-21 -29 -46 0
18 50 73 0
50 88 92 0
4 42 66 0
15 74 -100 0
-4 54 56 0
-28 47 66 0
-53 73 -85 0
-32 56 -61 0
-31 62 -83 0
36 -48 68 0
-6 -36 79 0
-7 19 -69 0
51 -56 -94 0
-21 -22 44 0
37 -76 -98 0
-19 46 81 0
-23 -33 -93 0
-6 38 -82 0
35 -49 94 0
-15 17 79 0
-51 56 74 0
55 70 100 0
22 27 -30 0
-46 -80 95 0
34 -53 -99 0
-19 -69 89 0
-45 -49 -50 0
13 53 88 0
75 77 82 0
35 -89 94 0
-2 -5 -15 0
-14 -58 -87 0
21 30 100 0
-22 67 -83 0
-52 88 91 0
22 -50 57 0
-52 76 -83 0
6 -62 -80 0
-51 -71 83 0
30 -47 70 0
-9 -59 62 0
30 -34 62 0
13 18 47 0
-1 5 -52 0
-45 72 100 0
-30 -31 64 0
-2 46 64 0
40 -55 -74 0
-19 30 -98 0
-37 46 85 0
-46 52 -65 0
-46 -56 -81 0
37 -92 -99 0
-16 20 58 0
30 -44 -64 0
60 -66 -73 0
30 41 -63 0
-30 41 51 0
12 -34 53 0
-15 24 90 0
2 6 49 0
-11 26 78 0
54 67 80 0
-30 49 -54 0
27 -49 98 0
-45 -75 -91 0
18 -77 83 0
14 35 92 0
-27 49 -74 0
16 -65 66 0
58 -61 -66 0
-17 33 -54 0
-30 -32 -59 0
4 -58 -93 0
-29 -31 -55 0
-19 -30 -57 0
20 67 -77 0
67 81 87 0
5 -43 -44 0
-25 53 87 0
-7 51 -99 0
-24 67 -70 0
-28 74 85 0
41 63 78 0
-8 18 32 0
-55 -67 -97 0
-21 -25 -88 0
-51 -57 85 0
19 29 -97 0
60 -70 91 0
3 -27 -52 0
27 70 -82 0
40 49 -70 0
-2 -27 -97 0
3 11 -96 0
20 -34 -60 0
-29 49 -50 0
-6 -12 20 0
-56 -62 68 0
15 56 78 0
16 56 -91 0
-15 -34 -50 0
25 -79 82 0
-3 -21 64 0
-13 45 -79 0
14 67 -74 0
-5 29 67 0
23 -85 89 0
-78 -90 96 0
35 45 -93 0
17 36 -41 0
40 42 91 0
-15 22 -38 0
-12 54 58 0
42 -60 76 0
-56 81 87 0
2 -35 -82 0
37 71 84 0
-8 -34 -77 0
-29 -33 -75 0
-16 55 91 0
-30 62 91 0
11 13 -40 0
-2 47 97 0
-35 -37 -64 0
-8 22 90 0
20 29 -39 0
4 -24 70 0
32 72 98 0
39 -68 100 0
-8 -22 53 0
-50 68 69 0
2 12 69 0
-51 -58 -96 0
34 51 85 0
6 27 -95 0
32 -58 91 0
-19 -45 -77 0
-65 83 89 0
-26 -62 -94 0
-18 -39 -57 0
-45 -78 -82 0
39 65 -90 0
28 34 -66 0
-34 -44 56 0
-25 33 94 0
-14 26 77 0
-23 -24 80 0
3 85 -87 0
-31 -51 64 0
15 56 75 0
-35 69 -77 0
24 -26 41 0
-65 76 79 0
7 56 78 0
40 43 -54 0
-18 -41 -85 0
35 -43 78 0
-14 -34 -66 0
-21 78 86 0
15 -75 -99 0
-13 -88 -94 0
15 46 82 0
2 78 -100 0
-4 50 62 0
51 83 90 0
-4 7 -53 0
52 -53 70 0
17 72 83 0
-37 -61 74 0
2 52 88 0
20 37 82 0
