c F1 random 3-CNF cnfgen RandomKCNF(3,250,1065,seed=18) m/n=4.26
p cnf 250 1065
-32 -47 170 0
-51 126 -244 0
-76 118 -228 0
-31 178 231 0
-44 52 -61 0
-56 77 -184 0
-57 -104 -250 0
-70 154 -212 0
123 -146 237 0
-49 53 -166 0
123 132 -147 0
-87 137 -217 0
-38 39 123 0
-24 140 -166 0
149 203 210 0
-103 123 -210 0
-34 -70 107 0
-86 87 -187 0
139 -179 222 0
-42 158 -197 0
-3 -26 -141 0
-123 -143 157 0
45 -58 -219 0
15 -127 200 0
135 220 -250 0
20 42 -243 0
28 -96 -151 0
-23 69 -155 0
-105 179 -213 0
112 -206 -237 0
-23 56 -71 0
-35 174 178 0
-84 -194 216 0
-20 -57 182 0
185 195 -250 0
-138 -221 -237 0
79 117 174 0
-5 22 102 0
55 -64 72 0
-34 -59 242 0
109 -135 -173 0
36 -128 -229 0
-16 135 -156 0
-75 177 205 0
163 170 223 0
77 215 -249 0
18 142 -213 0
-64 140 -161 0
-49 -54 -123 0
35 -77 -111 0
-179 -189 239 0
10 168 -170 0
-18 -24 127 0
18 -123 227 0
-4 -86 88 0
10 74 238 0
39 89 158 0
-33 144 208 0
62 -172 -203 0
-83 -142 -177 0
73 -92 -244 0
94 -107 -208 0
40 -173 -237 0
60 -73 120 0
-67 -79 -228 0
-126 216 -236 0
-6 147 -179 0
12 -134 153 0
-101 197 -200 0
-158 -181 -225 0
-52 -143 -220 0
63 147 231 0
-149 -193 -194 0
-92 -109 -174 0
151 -169 183 0
6 -10 81 0
-84 144 -242 0
-77 211 219 0
-58 77 -245 0
18 -53 -105 0
82 87 202 0
160 174 202 0
-2 34 141 0
131 -158 -215 0
-36 -57 87 0
98 -140 -224 0
-117 176 -233 0
-11 24 133 0
-174 191 -239 0
7 29 163 0
-69 -78 86 0
-87 101 228 0
-60 136 157 0
-68 172 245 0
-5 131 -239 0
-20 87 -216 0
48 -162 174 0
-54 77 140 0
-36 -206 241 0
-13 -39 -184 0
129 -180 -248 0
56 -93 -135 0
-90 100 -185 0
100 -140 197 0
41 -93 -211 0
80 110 -245 0
2 181 -235 0
63 -111 -158 0
-11 144 -241 0
47 89 235 0
154 172 204 0
-11 -88 -226 0
33 -125 235 0
-22 -39 220 0
-96 -160 210 0
-20 -52 -66 0
-107 -118 149 0
-127 -176 229 0
45 -196 -222 0
-12 143 180 0
14 43 -250 0
-7 18 -43 0
-64 197 241 0
-39 -213 249 0
-1 -235 248 0
-52 -215 -223 0
-29 -56 -218 0
-71 -106 228 0
9 -31 173 0
131 -149 176 0
27 31 188 0
-66 -157 197 0
-26 48 -209 0
54 -92 -112 0
50 -96 192 0
-39 133 -208 0
-105 151 167 0
-5 -129 -179 0
32 102 207 0
32 76 -81 0
-27 -175 238 0
7 -30 179 0
17 144 -220 0
33 -88 103 0
-48 -100 120 0
45 55 156 0
38 -69 -111 0
11 26 -88 0
35 -238 240 0
93 -126 -128 0
-68 -201 222 0
99 112 -134 0
-14 -55 -84 0
-11 202 235 0
13 173 -245 0
-4 -119 224 0
-60 -66 -178 0
62 167 210 0
92 168 169 0
79 -124 -179 0
-6 -202 232 0
174 226 -244 0
177 214 -235 0
-24 176 196 0
-114 -123 -186 0
-65 -145 -184 0
-40 -55 191 0
-138 -177 242 0
79 -137 238 0
-111 119 247 0
73 -174 -225 0
-26 -106 -219 0
49 66 -162 0
-7 76 83 0
73 -110 131 0
146 174 221 0
-29 211 248 0
29 -179 221 0
-133 -178 187 0
-28 102 147 0
44 70 118 0
28 42 -249 0
-6 9 142 0
-33 -180 -242 0
-89 -156 -195 0
-155 -188 -196 0
106 -194 -232 0
113 227 234 0
-56 83 -121 0
26 86 175 0
-39 -61 215 0
-59 -142 -170 0
-49 81 -159 0
7 151 -194 0
161 -209 -247 0
72 -87 -131 0
-114 -124 201 0
84 -166 238 0
-7 -23 -190 0
55 75 208 0
4 228 244 0
11 106 -133 0
-58 -79 -219 0
1 -10 80 0
148 182 -190 0
-3 -49 -177 0
12 68 113 0
43 -97 -141 0
103 -165 -245 0
-4 73 -96 0
-20 129 -138 0
102 -148 247 0
-37 -130 -178 0
-87 148 -187 0
-86 -103 -131 0
74 -129 212 0
44 55 134 0
-146 168 224 0
4 -61 -123 0
-27 -56 -238 0
78 214 -227 0
148 183 232 0
9 38 -69 0
116 179 229 0
-69 92 -209 0
65 -116 -187 0
226 239 244 0
-61 97 193 0
-105 -122 157 0
61 -111 -243 0
-183 197 201 0
-134 -216 243 0
-13 207 250 0
-155 162 -240 0
41 -171 241 0
-40 -132 160 0
-8 67 -194 0
-16 157 -190 0
89 -91 224 0
66 -97 -151 0
-26 -186 -238 0
31 -41 104 0
-78 -135 206 0
12 -167 216 0
103 157 -205 0
68 -122 -145 0
-48 130 -186 0
-18 -130 197 0
-8 35 196 0
72 149 244 0
-78 80 -198 0
-3 8 150 0
-91 -98 -165 0
30 211 214 0
110 -127 -192 0
35 -149 195 0
71 -129 -138 0
14 127 -224 0
-118 139 238 0
-89 100 -214 0
43 -153 -181 0
-60 72 -233 0
4 172 -221 0
-1 14 120 0
90 181 -185 0
-134 -186 -228 0
-164 -168 218 0
-107 -165 -168 0
94 -134 -159 0
-45 -177 250 0
20 192 244 0
91 -168 -247 0
103 -133 247 0
17 -74 -157 0
19 -112 141 0
66 91 98 0
6 98 -191 0
37 -69 119 0
-111 -125 -233 0
61 77 -89 0
49 187 -233 0
-30 -127 -162 0
53 -80 239 0
-184 -188 -201 0
-124 -127 227 0
-58 151 -234 0
47 91 -107 0
26 48 247 0
33 -182 249 0
110 -159 243 0
-83 -226 -232 0
12 83 -205 0
-61 -249 250 0
56 173 -234 0
53 60 144 0
-29 122 209 0
46 -154 177 0
90 157 -221 0
-36 -128 -180 0
-92 -171 247 0
-74 96 213 0
11 -146 -198 0
18 27 123 0
-64 106 112 0
66 -92 219 0
-21 -25 -139 0
43 -91 222 0
-156 163 184 0
86 -112 -144 0
78 117 224 0
-86 92 240 0
-116 -195 -224 0
200 -213 -239 0
121 -148 -152 0
163 -201 -215 0
-94 -194 235 0
84 106 -178 0
3 -17 63 0
30 -81 229 0
94 -107 111 0
-27 74 -167 0
-111 136 155 0
97 113 196 0
51 169 208 0
160 -207 209 0
91 -193 -250 0
100 -158 -179 0
-110 -129 193 0
34 182 222 0
-4 -96 -165 0
196 -201 210 0
11 -82 -139 0
-31 -215 -217 0
-17 -59 -246 0
-28 30 153 0
131 216 224 0
-15 79 -120 0
-95 175 -225 0
10 165 -219 0
2 26 -70 0
-25 -34 -236 0
-122 134 -140 0
-47 -104 241 0
-11 133 -166 0
-65 -120 -135 0
-27 72 187 0
-41 162 -170 0
-14 76 235 0
185 -186 243 0
-53 135 166 0
-101 127 172 0
-31 -102 234 0
-23 -109 -154 0
-24 -48 129 0
-27 -36 -129 0
15 -78 137 0
-64 142 -230 0
113 119 -180 0
-61 -75 -96 0
22 131 -201 0
-49 -101 -145 0
36 -158 224 0
-45 80 -163 0
-95 133 136 0
56 -153 -192 0
-183 187 189 0
-19 -191 -225 0
59 -89 134 0
1 -33 -72 0
54 123 -150 0
49 215 -223 0
43 165 183 0
-1 115 -198 0
100 -110 142 0
83 159 -213 0
-218 219 243 0
86 129 -243 0
27 49 -162 0
-59 -71 217 0
155 170 -184 0
10 -136 179 0
-37 -120 171 0
42 -72 -181 0
-1 -5 115 0
68 -71 200 0
48 -52 -83 0
-51 -208 -235 0
-15 118 -183 0
-178 -185 -239 0
69 -117 -189 0
22 -75 -86 0
-40 -134 232 0
103 -191 -207 0
-79 156 -218 0
81 160 -188 0
18 -139 -216 0
66 146 242 0
95 -140 -246 0
4 -22 -181 0
-138 161 198 0
-129 -224 227 0
112 173 182 0
-16 32 -193 0
-113 176 202 0
145 223 235 0
-23 176 -192 0
-74 87 123 0
62 -109 115 0
73 153 -191 0
-23 -71 191 0
-16 93 -173 0
-8 -127 227 0
-14 44 138 0
-87 92 115 0
162 223 -225 0
-57 -102 236 0
103 113 -237 0
69 114 -158 0
-1 -209 213 0
61 -95 250 0
76 105 -205 0
82 -95 161 0
136 171 239 0
1 69 126 0
-18 68 -222 0
93 -161 164 0
62 -114 245 0
-37 -50 135 0
-1 -97 -212 0
17 -71 185 0
-142 147 -249 0
6 101 -107 0
87 -102 -199 0
62 77 -119 0
28 -59 222 0
160 175 187 0
-1 -118 -221 0
63 64 230 0
80 93 198 0
60 73 -99 0
211 -225 -246 0
23 -33 102 0
-15 46 50 0
-9 -109 -206 0
45 132 -196 0
-66 162 183 0
-112 -184 -231 0
-2 -83 -167 0
5 33 178 0
-67 130 -197 0
53 174 -248 0
-34 -61 73 0
71 -175 -204 0
61 -82 183 0
10 -220 240 0
124 -144 236 0
-27 205 224 0
37 -130 217 0
35 93 150 0
-79 144 -228 0
101 110 -220 0
6 227 -238 0
40 43 -87 0
-48 -129 217 0
-26 202 -247 0
146 -148 -243 0
-34 -104 113 0
93 -97 -161 0
77 -116 217 0
-27 79 -193 0
34 -90 -161 0
-86 109 -200 0
57 -172 234 0
109 -221 -242 0
-96 160 188 0
-16 56 -205 0
173 -213 225 0
-154 224 246 0
33 114 238 0
131 -181 202 0
-106 -214 236 0
-62 94 234 0
143 -174 227 0
-78 -95 124 0
40 75 78 0
56 -65 181 0
3 -153 177 0
5 20 150 0
47 -105 -137 0
-30 -99 -131 0
-128 -155 -193 0
-101 109 -118 0
-187 193 -245 0
41 192 -214 0
18 -59 127 0
-56 101 -159 0
10 -103 129 0
51 74 111 0
-183 233 239 0
156 -200 220 0
29 -47 232 0
-127 -237 245 0
-10 -22 -173 0
9 181 -230 0
16 -122 218 0
128 -132 -235 0
-214 -226 -229 0
-5 -197 -210 0
-105 112 -143 0
-37 -82 -227 0
-44 -156 -185 0
-87 -125 -156 0
94 176 -241 0
-26 149 -228 0
6 71 -243 0
6 -31 -35 0
-98 -189 243 0
29 -61 182 0
79 97 172 0
-47 67 -111 0
24 -66 -145 0
132 -133 146 0
-38 -157 163 0
76 -141 200 0
-48 -65 -192 0
67 131 -143 0
35 -85 196 0
123 -191 250 0
-7 25 89 0
41 -148 -180 0
-14 -60 -199 0
-48 131 240 0
-2 58 207 0
-35 -95 222 0
-32 125 -208 0
134 -150 248 0
49 143 -212 0
11 -60 84 0
-128 -204 -246 0
83 -134 -212 0
156 -166 173 0
70 -187 195 0
-125 -141 -232 0
-45 59 177 0
-25 -184 -204 0
3 11 29 0
-3 143 183 0
-62 106 -217 0
-203 229 -245 0
-170 -204 205 0
170 -232 -247 0
42 -68 193 0
53 57 -136 0
105 -209 -234 0
-9 22 101 0
-79 -83 171 0
-82 -91 224 0
-140 -152 -212 0
11 -15 -223 0
13 -69 103 0
-75 -93 -111 0
92 -188 -217 0
6 -157 -218 0
62 -105 -191 0
-128 145 -171 0
-52 -107 163 0
-1 -3 -130 0
-1 -67 -141 0
82 113 175 0
164 176 228 0
-114 -141 191 0
1 41 69 0
28 -58 75 0
-57 119 184 0
19 -135 -205 0
-136 -138 -163 0
-43 53 155 0
4 -155 -208 0
-78 -116 209 0
-127 178 196 0
-32 34 198 0
-68 162 -224 0
-51 99 -125 0
-54 101 249 0
88 -216 -245 0
-8 -203 220 0
57 124 173 0
15 -97 166 0
63 154 -200 0
-103 117 138 0
-63 -105 -209 0
32 -64 -96 0
26 -74 -231 0
-8 53 137 0
2 -84 -191 0
9 -43 155 0
-32 71 -239 0
-37 -218 -235 0
-77 104 -167 0
10 -187 -232 0
-114 -130 247 0
55 100 -139 0
-73 125 -160 0
-4 116 -124 0
-19 -75 -201 0
2 110 174 0
75 -159 194 0
119 -175 -224 0
-150 -165 -220 0
2 240 -243 0
-26 -93 219 0
158 -177 193 0
44 243 -248 0
-99 -109 -144 0
-96 -134 193 0
-48 103 -150 0
-20 -135 -202 0
64 188 202 0
4 156 -235 0
164 178 -188 0
-102 168 239 0
-38 -46 106 0
-157 -203 214 0
6 -43 229 0
70 -160 207 0
-192 200 -227 0
28 78 -115 0
98 -208 221 0
37 40 -138 0
-154 226 -243 0
53 -138 -233 0
-79 201 241 0
-70 181 237 0
104 -195 204 0
-35 -91 216 0
-17 169 172 0
11 102 191 0
-23 -25 -239 0
-15 -198 233 0
4 174 238 0
-159 -171 -180 0
126 182 -194 0
124 -131 -144 0
17 182 -217 0
-44 -171 -247 0
-77 -100 -131 0
-15 95 -133 0
-21 -116 -213 0
16 -102 150 0
-89 156 196 0
-68 107 227 0
90 151 -156 0
219 227 233 0
-16 59 222 0
28 41 68 0
18 -103 161 0
109 241 242 0
-84 122 -157 0
58 -86 -89 0
53 -113 134 0
-110 151 248 0
-73 224 -241 0
-13 169 208 0
-22 -154 -209 0
120 159 202 0
-92 114 123 0
35 -42 159 0
196 -205 232 0
-91 -185 -191 0
172 -179 235 0
-79 -218 -244 0
-91 110 -169 0
127 -161 -217 0
31 52 -203 0
119 -166 -174 0
21 198 -230 0
-14 -66 138 0
-31 171 239 0
-71 -170 -193 0
-29 82 116 0
-83 134 -149 0
-21 208 -220 0
52 76 -111 0
-148 199 247 0
86 112 -186 0
12 -127 215 0
98 151 -183 0
14 -56 -158 0
131 -160 -219 0
-66 153 -220 0
57 -184 -240 0
-9 -52 74 0
-12 23 -196 0
53 -99 171 0
127 -173 -188 0
33 -217 -229 0
1 -211 217 0
90 -170 241 0
1 -229 -239 0
-54 67 193 0
53 -131 -194 0
-83 -109 -217 0
-22 121 245 0
-13 172 -237 0
-117 122 -184 0
-111 191 -225 0
154 227 -250 0
51 92 -147 0
-26 32 111 0
3 -163 211 0
49 168 220 0
-13 33 104 0
122 131 234 0
-49 128 -211 0
62 132 233 0
-117 -132 -229 0
-16 -31 -116 0
-79 -144 188 0
-59 -96 -215 0
48 56 -163 0
4 17 77 0
-69 122 193 0
108 194 249 0
64 67 151 0
12 -206 228 0
83 -96 -154 0
25 52 -158 0
46 -137 -242 0
-41 76 -112 0
48 110 130 0
-33 130 169 0
-24 174 235 0
126 -175 -208 0
38 -125 180 0
-13 -88 221 0
-69 88 -175 0
-44 -133 241 0
-18 201 -207 0
-55 170 -179 0
11 -44 -208 0
-70 156 229 0
11 -117 194 0
-23 -128 165 0
15 104 -129 0
-2 54 181 0
42 123 -209 0
-68 -109 -221 0
-37 -59 -127 0
56 -68 99 0
-71 200 238 0
42 45 -243 0
-1 24 203 0
60 103 -143 0
-39 -79 212 0
-77 129 -212 0
-28 132 145 0
-2 120 196 0
87 -145 -233 0
-99 156 225 0
-112 149 224 0
28 -126 163 0
-83 -125 232 0
124 -159 -180 0
-8 -17 28 0
-33 57 -178 0
70 -164 179 0
60 -98 -231 0
10 11 -48 0
-40 -141 227 0
-12 -35 -57 0
-63 -146 -179 0
13 -88 207 0
-4 66 -146 0
-14 195 228 0
139 167 237 0
-31 -40 -57 0
36 -40 -184 0
52 99 -165 0
50 -209 217 0
-76 88 110 0
148 197 241 0
-30 130 -140 0
5 146 194 0
-10 -107 109 0
141 144 180 0
-66 -83 144 0
-128 202 239 0
125 -141 -235 0
61 -78 225 0
-139 151 -155 0
16 63 116 0
74 -85 171 0
50 153 232 0
40 128 190 0
-133 209 233 0
-15 99 196 0
80 131 140 0
45 -190 -230 0
-109 123 196 0
34 -101 -104 0
82 228 250 0
-43 155 -207 0
-128 -146 174 0
19 47 211 0
-27 -145 -153 0
-102 -184 -206 0
-113 166 -180 0
-17 126 -146 0
25 39 -180 0
34 59 128 0
-82 142 -196 0
-45 -80 82 0
39 61 -214 0
69 117 -165 0
-1 -65 149 0
-97 -111 -123 0
-35 -128 -146 0
32 -58 -210 0
-41 -160 171 0
142 239 250 0
-43 59 127 0
-150 -155 -236 0
65 -70 -236 0
110 169 -232 0
-135 161 -226 0
-8 105 178 0
34 -62 -211 0
159 -164 -218 0
-117 164 -174 0
134 152 245 0
15 201 220 0
-25 97 105 0
12 -194 233 0
-51 -80 136 0
-30 177 178 0
-128 -166 227 0
-98 129 -198 0
50 -187 -198 0
112 -155 190 0
54 92 -202 0
4 -72 247 0
72 -133 199 0
-66 -110 -145 0
-50 60 -241 0
-31 -107 161 0
-31 105 -222 0
61 -92 234 0
-79 -85 -141 0
100 163 175 0
3 -98 144 0
158 203 -206 0
-54 -228 230 0
-13 122 235 0
63 66 176 0
60 -114 -179 0
-43 -79 -202 0
-159 229 236 0
89 139 235 0
-146 -204 246 0
-30 -177 212 0
46 85 -138 0
58 116 -203 0
132 -209 217 0
-17 -34 250 0
106 137 226 0
142 -184 238 0
-171 -177 -242 0
-150 -164 242 0
13 -65 84 0
-23 -210 -215 0
84 -104 249 0
43 -105 -228 0
-18 119 247 0
-6 -104 120 0
8 -117 -130 0
70 -128 -135 0
-89 200 -250 0
105 127 226 0
-156 -180 -217 0
-56 97 138 0
157 214 241 0
-72 -174 -177 0
177 -196 -208 0
-17 -217 -227 0
112 -117 151 0
-32 -122 -228 0
-56 -126 -187 0
3 -26 69 0
57 198 239 0
-49 79 119 0
-50 -128 -132 0
71 -78 -194 0
-149 -181 -212 0
98 114 -234 0
-2 -33 92 0
-9 141 200 0
9 -32 189 0
-82 -182 -248 0
-88 -171 224 0
-26 100 -155 0
27 -180 -215 0
46 -121 180 0
-160 -187 211 0
28 -197 223 0
7 111 -120 0
48 170 230 0
165 190 229 0
48 54 -124 0
-49 -105 -237 0
-47 -78 -140 0
60 -170 -201 0
60 98 149 0
78 173 212 0
171 -203 243 0
-19 -170 -181 0
-102 136 -142 0
5 24 -195 0
71 185 -232 0
-107 149 -153 0
-80 233 234 0
54 -101 237 0
5 10 -106 0
14 -67 -132 0
127 196 232 0
-80 -114 161 0
64 169 -193 0
-14 211 -226 0
5 85 202 0
23 -39 -155 0
-48 150 -239 0
-83 -139 187 0
-62 -111 148 0
-111 -162 -169 0
-23 -57 69 0
12 105 231 0
-16 -92 165 0
9 78 138 0
-24 88 -218 0
-135 204 226 0
16 -134 -195 0
86 -188 221 0
118 196 -246 0
-108 163 225 0
42 -200 -234 0
68 119 137 0
172 193 -233 0
48 -71 -107 0
41 131 160 0
-32 -201 221 0
-130 236 -249 0
-101 -105 134 0
-18 106 -132 0
-128 173 199 0
-23 -32 182 0
-18 -147 -240 0
-43 103 228 0
-84 -143 193 0
3 -45 145 0
-61 169 217 0
170 -196 241 0
-5 222 -248 0
-23 -207 215 0
29 -38 -245 0
-152 175 -210 0
178 -214 215 0
122 123 226 0
-23 25 -77 0
-43 64 181 0
92 95 -210 0
101 -149 -224 0
29 123 247 0
-134 144 -207 0
62 -72 -138 0
100 -108 173 0
9 -29 -78 0
12 -38 108 0
-31 -168 -206 0
-59 214 246 0
-80 118 159 0
-34 90 171 0
92 183 233 0
171 174 -230 0
85 -112 145 0
-81 -227 -239 0
82 108 207 0
-59 -113 -228 0
-27 44 -167 0
23 -25 -83 0
-78 183 218 0
58 -170 176 0
-33 36 37 0
-14 -130 228 0
49 145 197 0
-57 62 172 0
148 203 211 0
-8 -36 -197 0
84 151 212 0
50 -191 -204 0
-192 202 241 0
-38 113 -188 0
-51 155 -220 0
9 -80 134 0
-33 70 158 0
-71 96 -101 0
92 -114 -133 0
88 174 176 0
40 -92 192 0
38 -61 210 0
-43 228 -248 0
80 -140 -199 0
-3 8 -186 0
12 -19 -234 0
-36 -87 146 0
105 140 230 0
-17 42 112 0
-59 130 -237 0
-51 121 -159 0
4 63 -138 0
-35 104 -136 0
68 84 112 0
40 -56 166 0
4 -76 -164 0
16 149 -213 0
-23 138 227 0
34 130 219 0
-24 -214 239 0
31 165 201 0
-100 -141 -244 0
-32 99 -142 0
33 -42 -192 0
77 -80 -114 0
58 -149 180 0
110 199 250 0
90 -93 188 0
6 -115 -201 0
190 -228 250 0
179 -215 -249 0
-85 -92 132 0
33 62 217 0
14 59 -113 0
-45 119 208 0
-38 97 207 0
118 119 -122 0
-30 -106 -231 0
-12 -46 102 0
-2 -74 148 0
9 16 -177 0
-88 -94 -132 0
-62 -70 164 0
14 -68 235 0
-20 37 170 0
-24 32 132 0
-7 -45 218 0
145 195 -218 0
157 168 -237 0
115 -226 -247 0
-4 -84 -190 0
100 -101 -235 0
99 234 248 0
-50 -172 226 0
56 -99 126 0
-18 84 -214 0
32 -161 249 0
-25 148 202 0
18 181 -185 0
