c F1 random 3-CNF cnfgen RandomKCNF(3,200,852,seed=19) m/n=4.26
p cnf 200 852
12 134 -174 0
75 -89 136 0
-67 84 -106 0
6 80 146 0
-30 117 139 0
-5 -26 -107 0
77 -147 169 0
140 148 -199 0
-35 36 -50 0
2 -117 -123 0
95 110 139 0
-7 -24 120 0
-168 174 -181 0
-73 104 -116 0
78 79 113 0
-80 176 -193 0
-18 120 130 0
71 112 167 0
-44 74 111 0
121 -159 176 0
-3 99 -159 0
-54 65 68 0
72 168 199 0
76 -120 -135 0
-144 -184 -186 0
16 58 -123 0
30 -132 -152 0
-98 -176 -179 0
48 -85 -114 0
11 -93 -159 0
-94 118 -152 0
23 -68 71 0
43 44 121 0
12 -112 151 0
139 -140 188 0
38 -64 75 0
-19 -116 178 0
27 -91 190 0
89 -118 -144 0
16 113 150 0
-33 -99 -127 0
-13 116 135 0
80 143 -170 0
35 107 -163 0
-48 156 -184 0
103 113 194 0
-22 64 -70 0
68 109 119 0
-5 -45 -110 0
47 -64 80 0
13 -19 32 0
-10 -24 -98 0
39 72 87 0
-30 -47 -93 0
-65 161 184 0
-9 -44 -153 0
-5 54 138 0
59 125 185 0
44 99 -163 0
-27 -43 166 0
-19 -138 153 0
39 82 134 0
-68 -79 177 0
138 -177 179 0
-146 -159 -167 0
-100 116 -200 0
-34 138 140 0
101 180 194 0
21 -90 -191 0
-28 95 162 0
-6 141 -169 0
-39 113 -125 0
-79 -85 -134 0
100 103 158 0
43 49 94 0
-20 -75 -191 0
-95 -137 -164 0
18 -124 -194 0
40 -51 -74 0
-97 127 -133 0
91 -129 -149 0
71 -132 163 0
9 83 -128 0
-35 -141 -159 0
46 -81 173 0
-44 192 -196 0
-72 193 -195 0
33 82 111 0
-9 -114 -189 0
-77 -150 182 0
-19 94 -142 0
74 -77 -113 0
-59 88 128 0
-31 93 95 0
117 118 -192 0
-103 111 190 0
29 -30 88 0
-37 -159 -174 0
62 -87 -195 0
127 167 196 0
-106 161 197 0
21 -132 -142 0
89 -152 183 0
-46 -50 171 0
113 -123 -160 0
120 -150 180 0
7 126 -165 0
-2 -92 93 0
-81 124 -153 0
-32 -59 -115 0
81 92 -145 0
57 94 124 0
-22 101 -102 0
23 -48 169 0
-103 125 -152 0
24 -56 -87 0
-27 -28 96 0
23 -65 192 0
-30 -142 144 0
-2 124 141 0
29 -73 -154 0
125 177 179 0
4 -53 -139 0
-96 -114 -170 0
-17 -54 97 0
-22 54 -156 0
-30 121 -158 0
99 -149 187 0
-31 -39 84 0
33 -34 -195 0
-67 -86 122 0
132 -172 180 0
58 -86 -166 0
-95 101 150 0
-35 -76 -166 0
25 44 -60 0
112 -177 184 0
-11 -145 -188 0
56 73 -128 0
1 -117 178 0
-75 -149 170 0
70 -100 -107 0
30 136 145 0
-16 -117 139 0
35 -55 -90 0
157 -161 172 0
17 -64 -187 0
-56 160 -173 0
46 -114 -131 0
-54 112 138 0
56 -167 -199 0
3 -70 -133 0
-23 -38 -171 0
-59 126 134 0
-130 136 176 0
46 -47 180 0
-38 70 -92 0
46 -113 117 0
22 53 -112 0
2 -4 168 0
74 77 -102 0
28 -110 -174 0
-85 136 168 0
73 -123 187 0
-78 -91 113 0
44 118 161 0
-55 65 136 0
-116 -118 166 0
18 -69 149 0
-19 -87 116 0
-41 86 149 0
6 -65 184 0
-60 -126 -164 0
53 -111 -146 0
-82 142 -183 0
-87 -151 -160 0
34 -36 126 0
-9 131 -190 0
-5 131 141 0
-70 -88 119 0
-77 115 -117 0
-33 85 -179 0
76 129 -179 0
-5 -132 187 0
-1 -74 108 0
34 -104 -153 0
10 -33 -156 0
2 120 -162 0
-15 172 -181 0
-60 148 170 0
141 -166 -185 0
48 181 186 0
-28 68 102 0
105 -136 -162 0
71 117 182 0
67 80 -138 0
82 196 200 0
-99 -184 -197 0
88 -101 -197 0
-103 147 -196 0
31 135 157 0
36 -95 -165 0
27 -184 -193 0
42 -107 186 0
-71 -92 -180 0
13 -108 166 0
-73 132 -176 0
117 -161 -194 0
-66 -77 188 0
16 32 165 0
21 -82 114 0
34 -159 -191 0
-34 -36 186 0
-29 -120 129 0
-87 -102 -195 0
-38 -145 146 0
-135 168 -177 0
-30 191 -193 0
111 127 -167 0
130 -148 192 0
-119 130 167 0
-25 59 -145 0
47 74 -141 0
-128 155 197 0
-62 -79 -131 0
9 -33 -195 0
34 63 -168 0
-42 62 183 0
110 111 -196 0
63 -141 152 0
12 72 -80 0
-116 184 199 0
-74 -127 -188 0
64 110 138 0
-1 -33 -146 0
66 -95 195 0
79 110 156 0
-15 -39 200 0
31 -76 146 0
75 148 -174 0
9 -68 200 0
-72 95 149 0
111 121 187 0
-47 -71 -196 0
33 -83 -143 0
7 -68 85 0
-4 79 115 0
-27 149 -175 0
-38 -131 170 0
-108 -113 -122 0
-113 121 -169 0
-120 169 199 0
67 -147 191 0
46 159 -181 0
-56 66 -89 0
-80 -98 -180 0
98 101 -193 0
7 50 198 0
37 -81 -162 0
-19 27 -171 0
-18 83 -131 0
-14 -82 85 0
-23 118 191 0
-25 75 -182 0
-40 -111 -128 0
-17 50 60 0
23 -33 127 0
40 -44 -78 0
-29 140 -168 0
-62 175 196 0
-39 79 103 0
41 -126 -193 0
12 -49 66 0
102 117 -122 0
-31 118 188 0
130 185 -190 0
32 140 -190 0
47 117 142 0
7 19 27 0
-34 76 148 0
-36 -68 194 0
9 58 142 0
33 -55 177 0
93 -99 -148 0
-41 127 161 0
-43 -143 -190 0
158 186 192 0
-103 160 186 0
-67 105 119 0
39 119 157 0
42 -51 195 0
-8 -70 187 0
-21 77 113 0
-27 -86 143 0
-8 48 152 0
138 191 -199 0
-26 86 -153 0
34 42 -77 0
99 171 182 0
-73 -112 -158 0
-19 -103 116 0
-63 64 -152 0
4 -19 -174 0
38 -87 -129 0
58 131 -170 0
36 -45 -155 0
-53 -111 119 0
33 111 -137 0
48 -50 83 0
-37 39 -71 0
167 -168 -191 0
78 -81 89 0
-62 128 -155 0
67 -155 165 0
-29 -44 159 0
78 -94 161 0
-1 14 28 0
37 -180 194 0
-141 -145 156 0
-87 118 -172 0
-38 -52 65 0
-39 49 76 0
24 -54 132 0
40 -48 172 0
32 -124 165 0
33 66 139 0
59 78 -161 0
-65 -67 116 0
48 95 199 0
92 110 -131 0
93 -186 -192 0
-90 -140 -173 0
-37 159 194 0
-34 88 138 0
-41 -87 -121 0
-40 -90 -154 0
-16 103 -127 0
68 125 143 0
-22 -46 -109 0
46 53 -119 0
-31 -142 161 0
-72 89 96 0
1 84 121 0
-42 -43 -159 0
-18 -41 73 0
73 117 -157 0
120 168 -184 0
90 154 -198 0
40 -47 181 0
74 -186 194 0
29 -112 -117 0
-78 97 102 0
-54 -142 -190 0
11 140 -153 0
-112 -166 -185 0
-59 133 -154 0
66 165 -181 0
11 -56 164 0
-6 -17 -43 0
175 -182 199 0
40 107 117 0
45 62 -158 0
-22 -64 130 0
123 152 -198 0
-43 -70 -99 0
5 -20 -180 0
94 -113 -165 0
-29 -45 65 0
123 -126 -170 0
52 58 -166 0
-4 40 -93 0
1 92 191 0
-13 -83 143 0
41 -82 155 0
-88 -161 175 0
-93 -135 144 0
29 79 151 0
-52 77 170 0
52 104 180 0
-28 -110 -133 0
-49 -137 172 0
12 138 -165 0
-14 -46 -192 0
-81 146 -147 0
3 -37 -129 0
162 166 195 0
12 15 -60 0
-103 150 -190 0
-28 85 -173 0
-54 -55 -141 0
-38 81 173 0
26 -50 89 0
-72 -158 171 0
-43 -65 -132 0
19 -69 196 0
-44 100 -104 0
70 119 162 0
41 -61 -152 0
69 -87 96 0
52 -72 181 0
34 96 143 0
97 -143 -192 0
-34 -115 191 0
71 -113 127 0
23 97 151 0
30 -149 188 0
27 62 84 0
-102 -114 -187 0
27 102 -186 0
30 65 109 0
-7 44 -109 0
13 -54 127 0
36 -76 -182 0
-23 86 -190 0
-25 30 135 0
72 107 190 0
34 41 -168 0
-43 -137 170 0
-43 68 198 0
-3 -23 123 0
-57 -113 150 0
74 -118 148 0
-6 -40 -85 0
-18 -44 -178 0
91 -124 174 0
67 116 -198 0
9 52 147 0
17 -21 -157 0
-10 -16 -27 0
27 -43 68 0
-43 67 -194 0
14 24 150 0
-48 80 82 0
83 -113 130 0
22 71 86 0
3 -117 118 0
73 -88 -159 0
-5 -70 -199 0
80 -97 194 0
92 109 197 0
-95 154 -171 0
13 -33 -40 0
13 29 144 0
49 -57 -162 0
-8 69 159 0
-17 -181 -195 0
-104 109 -130 0
54 128 -146 0
-5 71 -198 0
122 160 181 0
-86 -130 -174 0
-101 123 -131 0
7 106 115 0
35 141 170 0
41 132 -167 0
17 -43 -142 0
-28 70 -155 0
66 -173 -199 0
-38 -87 -142 0
-138 180 -199 0
-26 -119 -161 0
-165 -180 195 0
89 134 -135 0
-157 176 -191 0
10 -90 128 0
14 -27 45 0
-42 75 179 0
-13 54 118 0
18 -23 113 0
-23 74 124 0
16 67 -122 0
-16 -54 -191 0
122 149 184 0
42 67 153 0
-71 -143 -194 0
-82 120 173 0
-94 -111 -169 0
-1 -141 -144 0
115 -168 -199 0
29 -60 -157 0
92 94 105 0
-91 -190 195 0
-42 124 -160 0
-79 -96 -179 0
49 -104 -199 0
14 158 197 0
4 7 85 0
12 20 -52 0
-7 31 -192 0
-14 -63 -118 0
57 -63 -162 0
52 96 -124 0
76 91 164 0
-73 -79 -172 0
-14 -39 -76 0
107 156 195 0
-111 -116 -169 0
-51 68 -175 0
16 81 -115 0
134 -170 197 0
-26 77 -191 0
-39 -112 -163 0
51 -97 188 0
5 61 -163 0
13 67 90 0
78 104 -183 0
-63 -91 -164 0
-36 83 -167 0
-111 120 -137 0
-151 156 -157 0
6 12 -180 0
87 151 179 0
37 54 196 0
38 153 181 0
-144 160 -171 0
72 98 130 0
65 77 113 0
-37 49 126 0
107 -112 -164 0
26 -75 176 0
18 160 200 0
5 -67 70 0
-84 156 170 0
-52 55 -92 0
74 98 -199 0
-21 -57 100 0
24 91 -178 0
-108 -187 193 0
28 104 181 0
13 76 -126 0
15 -45 -185 0
-69 95 190 0
23 28 -200 0
-118 158 -171 0
-19 -122 146 0
-27 -34 -58 0
20 -46 103 0
-95 -116 165 0
-98 171 200 0
-111 125 185 0
74 -84 182 0
29 149 -182 0
-134 -145 195 0
-51 69 148 0
-31 90 -107 0
-60 180 192 0
102 169 -175 0
-35 146 170 0
31 114 169 0
8 -22 -88 0
59 -90 -175 0
6 -28 196 0
19 101 161 0
-16 120 -152 0
7 16 128 0
-36 -40 141 0
-44 -59 -172 0
46 -127 177 0
-38 80 154 0
50 -88 125 0
-52 -94 167 0
-62 93 197 0
52 81 194 0
-99 110 -188 0
5 -79 178 0
11 71 -76 0
71 -87 193 0
-48 -67 193 0
-34 -70 139 0
-86 99 -199 0
52 -87 123 0
12 64 106 0
5 11 -174 0
-60 90 -191 0
29 80 187 0
12 -39 -192 0
8 -27 187 0
84 -125 -179 0
-3 -37 75 0
84 -119 179 0
120 167 168 0
141 -174 -193 0
-67 -98 176 0
-4 72 140 0
22 -78 135 0
-44 -136 200 0
102 164 -198 0
40 83 -191 0
-44 90 112 0
81 -100 109 0
-17 -98 -117 0
-70 -132 -139 0
28 -115 118 0
3 -65 68 0
29 -175 184 0
-16 -187 198 0
1 124 -147 0
-44 -87 -172 0
1 38 -164 0
44 -72 -148 0
60 88 122 0
-54 131 159 0
74 -141 191 0
89 -151 176 0
-20 96 144 0
85 -101 178 0
33 102 -164 0
-93 -167 -187 0
-56 -88 -138 0
-82 -102 134 0
17 -119 185 0
50 97 -172 0
75 134 189 0
18 31 195 0
-16 -131 -137 0
45 -81 121 0
18 -88 -143 0
-49 52 63 0
-22 68 80 0
3 -53 126 0
109 129 -177 0
-116 -153 173 0
20 -112 -125 0
16 -54 -165 0
52 -128 143 0
84 -112 194 0
52 104 186 0
-59 128 -131 0
-73 -100 141 0
-1 44 48 0
-41 -118 -129 0
-15 -139 -186 0
2 51 130 0
45 63 66 0
21 -53 132 0
2 -102 200 0
-10 180 185 0
-169 -177 -183 0
-64 -82 142 0
-43 -52 -141 0
-19 89 -172 0
29 -95 -144 0
-76 144 188 0
-36 -91 149 0
-72 -143 179 0
-109 -125 130 0
9 102 -136 0
-64 -76 84 0
90 127 155 0
149 -155 200 0
-6 7 177 0
-32 -186 -193 0
4 34 -149 0
106 167 -181 0
3 4 57 0
17 -46 100 0
-27 55 -195 0
-116 132 -166 0
66 -127 164 0
-35 -101 -198 0
77 180 -192 0
67 -108 -194 0
-4 88 139 0
-28 -144 158 0
-21 31 -183 0
76 -176 188 0
80 119 162 0
76 -116 146 0
46 93 158 0
-160 161 187 0
-17 46 -69 0
-35 78 133 0
-66 -139 196 0
-24 93 179 0
147 167 -177 0
-58 100 183 0
116 153 154 0
-10 24 -82 0
62 -77 -137 0
12 94 -135 0
156 -177 -193 0
-26 -28 -58 0
-4 41 -158 0
62 -185 187 0
-29 83 184 0
-78 89 156 0
-16 32 -55 0
45 -111 -116 0
8 9 129 0
-2 44 149 0
-17 -47 -197 0
-5 144 175 0
48 -94 197 0
-81 -99 149 0
19 -21 -27 0
-22 -59 -101 0
-29 -60 62 0
-44 78 -105 0
22 -76 96 0
66 -115 -143 0
-13 -28 97 0
40 105 -139 0
111 -149 177 0
69 136 -160 0
33 79 123 0
115 -121 142 0
138 158 -187 0
-10 -152 -194 0
-76 -173 -177 0
24 -100 -135 0
-1 14 -78 0
34 60 162 0
24 -30 130 0
105 164 -179 0
71 -105 186 0
-10 -128 -192 0
-25 -44 72 0
-23 -62 178 0
26 140 -161 0
-8 160 189 0
-22 91 191 0
106 -119 148 0
55 -71 163 0
21 174 190 0
-71 -171 -184 0
-89 -132 -134 0
-98 178 181 0
-100 -122 150 0
31 62 165 0
45 -127 140 0
-28 -97 -189 0
65 -109 -147 0
-48 72 74 0
125 -173 184 0
52 144 148 0
4 57 -100 0
-15 -73 -74 0
68 126 -146 0
-41 -60 102 0
-24 44 98 0
117 -139 -150 0
115 134 -163 0
34 67 78 0
-26 -147 -149 0
-101 -111 128 0
-30 37 191 0
-49 60 -82 0
7 -60 -81 0
153 162 178 0
-87 -92 -111 0
42 -46 -74 0
-15 104 177 0
58 -127 -163 0
44 -116 -154 0
22 36 -100 0
-11 33 178 0
-2 -77 117 0
-6 -9 -131 0
-19 20 122 0
-28 54 -76 0
-35 -111 -162 0
-28 49 162 0
-14 40 -162 0
-5 -87 136 0
-63 -162 -182 0
-18 -79 -83 0
12 -131 138 0
7 -150 175 0
30 -34 66 0
131 -152 -162 0
23 -87 -171 0
-141 -164 195 0
-49 115 162 0
-125 -187 -194 0
-28 127 153 0
45 -46 76 0
-19 84 -162 0
150 -167 -191 0
-44 -117 181 0
-116 -128 169 0
-117 124 135 0
-69 -174 199 0
23 153 170 0
-48 -93 -95 0
-71 -112 -122 0
-7 -32 -87 0
-64 148 176 0
-102 -139 -170 0
-4 5 140 0
6 -14 -120 0
16 60 176 0
137 -190 199 0
96 -160 192 0
-7 -93 111 0
32 41 -75 0
13 -14 -183 0
18 -101 -152 0
66 90 115 0
88 176 -181 0
4 -100 121 0
122 157 163 0
-39 -83 165 0
31 -54 189 0
-74 89 141 0
-108 169 172 0
-9 47 186 0
15 -42 111 0
52 -53 -115 0
122 135 146 0
-104 186 191 0
-73 149 169 0
71 -73 192 0
-11 -126 127 0
52 160 189 0
-21 -31 -73 0
105 -161 199 0
-127 133 -190 0
58 122 160 0
141 -154 163 0
30 -64 -126 0
72 -140 190 0
90 -93 100 0
-18 27 186 0
38 -42 -185 0
25 72 77 0
-32 52 -137 0
-40 -153 193 0
-25 -56 169 0
7 22 -33 0
21 -124 137 0
42 124 -148 0
-57 77 -123 0
-54 172 197 0
9 45 180 0
-54 -75 -121 0
39 -106 -131 0
-51 85 133 0
34 60 -196 0
-26 49 82 0
-29 -57 -91 0
-37 92 121 0
-93 -112 -185 0
-31 -90 158 0
23 161 183 0
-31 -42 -168 0
37 -63 141 0
27 -31 125 0
-81 124 -186 0
-25 -39 -172 0
22 -159 168 0
1 65 188 0
-82 122 -170 0
