c F1 random 3-CNF cnfgen RandomKCNF(3,100,426,seed=6) m/n=4.26
p cnf 100 426
-11 63 74 0
-19 -76 -85 0
-3 35 -99 0
69 70 -88 0
79 -85 -88 0
-12 -47 53 0
-26 90 97 0
-26 -76 84 0
66 -74 83 0
-39 56 78 0
65 68 -87 0
-26 -40 93 0
18 27 77 0
-3 -43 -83 0
38 -50 68 0
-24 55 -77 0
-12 -32 -78 0
-10 -55 -67 0
-11 -25 -96 0
3 23 -93 0
-25 -47 -76 0
-33 -53 -67 0
-61 -78 85 0
-49 -64 -93 0
-21 -47 -85 0
51 -63 83 0
8 58 80 0
-48 -88 92 0
20 -25 -35 0
10 -30 -61 0
19 -81 88 0
5 81 86 0
60 62 83 0
-11 -21 -79 0
3 82 -89 0
-57 -62 -100 0
-9 -75 -92 0
-5 -11 -47 0
-56 57 61 0
32 78 82 0
5 44 -48 0
10 -21 44 0
60 64 96 0
4 45 67 0
-20 37 95 0
73 -90 92 0
31 -41 97 0
-42 49 -98 0
68 71 -85 0
24 35 86 0
8 10 -50 0
8 -15 98 0
-8 29 -70 0
10 12 -61 0
15 16 90 0
-87 -94 -97 0
26 -30 57 0
-33 68 94 0
15 47 -89 0
44 -56 89 0
2 -4 44 0
-12 34 60 0
17 54 -70 0
-55 -73 -77 0
5 -18 39 0
14 23 74 0
-20 -51 -76 0
28 -50 83 0
-33 44 -54 0
-48 76 87 0
23 -40 100 0
-12 -25 83 0
19 -67 -97 0
-43 -76 92 0
6 17 34 0
89 98 100 0
28 44 45 0
24 -29 -81 0
15 -80 93 0
48 -74 -94 0
9 36 97 0
-59 62 81 0
-13 -36 93 0
19 -48 -95 0
3 52 -96 0
-2 -17 48 0
16 52 -62 0
-33 -43 -70 0
58 72 92 0
-64 68 72 0
-2 27 42 0
-8 -35 36 0
22 91 -94 0
24 -45 74 0
-50 61 71 0
7 -56 -75 0
-8 -29 -82 0
-39 -47 82 0
54 -70 98 0
41 65 84 0
8 56 -57 0
-1 -9 -46 0
50 52 -76 0
-58 -64 94 0
-2 7 99 0
38 83 -84 0
16 -18 -72 0
-9 28 63 0
4 -13 -20 0
-61 -79 -89 0
25 59 79 0
18 -51 -86 0
-73 83 99 0
4 -53 95 0
-5 -41 -83 0
-39 -49 56 0
53 -76 -82 0
61 76 -86 0
-21 -47 -74 0
-10 56 59 0
-9 62 78 0
-66 -68 94 0
23 -62 69 0
4 -45 -84 0
47 -50 -91 0
-23 39 64 0
1 27 -70 0
-14 -72 -83 0
-26 27 61 0
-7 -28 29 0
46 -48 -61 0
25 72 96 0
-6 52 68 0
11 16 -94 0
-24 43 86 0
-28 29 42 0
-4 14 38 0
-53 72 -94 0
22 70 -77 0
-39 54 -90 0
26 -28 -39 0
-7 -84 -97 0
-46 -52 56 0
-77 78 -84 0
23 65 81 0
-29 33 69 0
8 -40 -70 0
16 -42 45 0
35 -75 -100 0
-12 83 96 0
32 40 80 0
-4 -56 79 0
-53 74 97 0
24 72 -84 0
-22 -23 -33 0
29 73 100 0
58 72 74 0
-6 -46 -71 0
36 -67 -98 0
-42 58 82 0
-12 55 -94 0
43 75 79 0
-13 25 27 0
24 46 -82 0
1 37 -57 0
-1 -2 21 0
-19 49 -57 0
28 -82 -90 0
7 -88 -95 0
-14 69 -94 0
-47 -77 -99 0
-41 -56 82 0
-15 54 76 0
45 66 92 0
-2 21 -65 0
6 17 -25 0
22 28 29 0
-42 89 94 0
47 -71 93 0
-56 79 -99 0
39 -61 -77 0
-1 19 28 0
-1 -73 81 0
71 -92 -93 0
42 94 -99 0
-16 59 -75 0
31 -47 -86 0
16 23 91 0
-2 10 41 0
36 39 95 0
-43 68 74 0
-12 31 -99 0
-50 63 69 0
19 32 -36 0
-4 45 -49 0
15 28 41 0
-11 20 -23 0
-2 -65 84 0
-16 86 -98 0
-61 71 91 0
-3 51 54 0
1 8 60 0
22 -26 28 0
-12 13 77 0
-3 61 80 0
-15 -90 99 0
42 77 -78 0
6 44 71 0
-14 16 -45 0
-17 38 69 0
2 23 -30 0
-56 75 -82 0
10 -36 -70 0
-28 -48 -91 0
-16 50 -96 0
-3 -23 -53 0
2 -37 55 0
1 -29 62 0
-31 -55 -58 0
26 27 69 0
-66 78 82 0
-48 64 -84 0
11 20 -32 0
40 52 -93 0
-13 -70 84 0
6 29 64 0
-36 55 81 0
-14 60 -79 0
58 -66 -72 0
25 -37 87 0
37 -39 40 0
-6 -33 -93 0
-18 -30 48 0
10 -12 -86 0
11 -62 90 0
31 -84 86 0
-1 -73 -91 0
-6 36 68 0
30 36 -79 0
24 -25 59 0
80 -82 -84 0
4 20 -29 0
15 21 -83 0
20 -71 73 0
8 36 -78 0
30 -34 89 0
39 64 96 0
-40 78 -92 0
-24 49 -64 0
-3 69 -89 0
6 -8 -48 0
44 58 62 0
-59 -60 89 0
-55 -65 73 0
-19 -33 -91 0
8 -15 28 0
-2 -20 -49 0
1 -49 -73 0
-10 45 -91 0
11 -19 91 0
7 25 -87 0
-25 -40 70 0
9 -22 -45 0
-8 21 -28 0
-12 27 30 0
-12 40 44 0
-15 23 68 0
22 58 97 0
-10 -27 53 0
46 -48 80 0
-10 -44 -48 0
-12 78 -97 0
47 -57 80 0
-16 26 99 0
50 76 -86 0
5 -12 -81 0
9 90 92 0
66 -83 84 0
1 -68 84 0
1 -12 -76 0
-7 93 95 0
-1 -59 84 0
10 45 -81 0
-26 -57 -94 0
-45 89 93 0
32 36 -88 0
35 -63 97 0
-4 33 -100 0
20 40 64 0
44 -66 -85 0
-19 -21 94 0
66 -72 -92 0
2 -91 -98 0
13 -39 -66 0
-10 -93 -98 0
20 -90 97 0
7 -48 -94 0
27 -59 92 0
35 69 -78 0
22 47 -99 0
2 82 -97 0
-50 70 82 0
13 54 100 0
-11 53 54 0
51 -81 100 0
-8 -35 44 0
-57 -82 91 0
57 -59 -91 0
-22 -25 -71 0
-10 -53 -56 0
-19 61 95 0
36 -39 59 0
-38 77 -87 0
-12 14 -72 0
57 -63 -83 0
30 -48 72 0
-43 -47 -52 0
-7 17 56 0
16 27 -68 0
-18 39 -42 0
26 -72 77 0
1 68 -71 0
25 -84 90 0
-28 49 -61 0
-23 49 63 0
-8 -20 23 0
-11 -57 -81 0
37 65 76 0
-22 32 96 0
-17 -33 46 0
8 77 -89 0
-8 86 94 0
3 20 30 0
24 34 -72 0
-19 31 -57 0
45 -67 100 0
14 43 52 0
-32 39 -89 0
16 -77 -90 0
-20 -23 35 0
-7 40 82 0
-14 64 94 0
-4 -25 76 0
16 -53 -81 0
37 65 -95 0
8 12 51 0
36 -55 98 0
-6 43 -74 0
-17 45 -76 0
40 75 -96 0
-45 -53 -67 0
-55 67 -72 0
6 16 22 0
-29 38 90 0
-5 25 79 0
38 44 78 0
53 65 90 0
-5 8 36 0
63 -74 81 0
-14 -15 -85 0
-16 -39 80 0
-10 45 87 0
17 42 -88 0
-7 -33 -34 0
-39 -71 -78 0
11 49 52 0
-12 -40 -94 0
12 73 88 0
15 98 99 0
40 -42 88 0
-18 -70 -85 0
1 7 71 0
23 37 69 0
33 -54 70 0
-23 -55 -86 0
-50 92 97 0
1 14 -38 0
-20 -42 77 0
-24 46 -94 0
22 -25 73 0
27 -56 59 0
17 34 -43 0
49 -74 81 0
-6 41 86 0
12 23 86 0
-41 -60 -67 0
7 -12 96 0
-34 -86 -87 0
-40 44 -85 0
13 -18 100 0
10 -15 -67 0
15 -65 92 0
-40 75 -80 0
51 52 -91 0
-46 -68 -81 0
8 16 -56 0
27 -37 47 0
15 -37 58 0
15 -32 57 0
-57 66 -96 0
3 -54 70 0
-6 -28 -32 0
-32 -40 79 0
31 78 90 0
44 88 -97 0
22 30 91 0
-22 29 -90 0
19 42 -70 0
18 -68 -92 0
-8 -17 -55 0
-46 -50 87 0
-3 -48 -91 0
-4 25 28 0
14 63 -71 0
48 -59 85 0
32 55 72 0
-10 -29 -86 0
-13 92 -96 0
-24 -35 -84 0
-13 34 73 0
2 -28 -71 0
-23 -62 68 0
11 -59 81 0
16 -50 54 0
-20 -55 92 0
3 46 65 0
