c F1 random 3-CNF cnfgen RandomKCNF(3,175,746,seed=14) m/n=4.26
p cnf 175 746
28 -158 -167 0
-19 -75 -169 0
-31 101 -102 0
67 92 -93 0
3 43 -167 0
8 -22 -71 0
113 150 -156 0
25 -47 -125 0
-56 -125 160 0
-23 32 72 0
30 -42 -106 0
-44 -99 -137 0
107 -112 -118 0
-61 101 116 0
-69 126 -147 0
-6 -89 -109 0
78 92 -136 0
25 66 100 0
-1 -7 -80 0
9 30 38 0
65 68 129 0
-85 -155 175 0
41 -144 -153 0
-63 -99 100 0
-64 -110 165 0
27 34 68 0
-55 67 -125 0
-14 -28 -66 0
33 57 114 0
5 -38 172 0
-105 -120 -148 0
16 20 -94 0
14 30 166 0
12 -79 174 0
-2 116 -120 0
-21 64 70 0
2 -29 -92 0
-76 89 -115 0
-36 73 -146 0
-7 -18 -166 0
-65 109 154 0
-63 97 122 0
50 61 66 0
117 143 170 0
-155 -167 -173 0
18 58 -161 0
52 -99 -118 0
-56 -90 -175 0
-13 45 -157 0
79 122 137 0
-8 -134 -175 0
76 95 163 0
18 54 -130 0
-104 122 -152 0
-64 -143 -163 0
-4 -11 29 0
51 52 -77 0
73 -114 153 0
20 113 155 0
-138 139 151 0
-34 94 161 0
24 143 149 0
-35 -122 -143 0
-17 131 -165 0
-43 70 -117 0
-11 116 138 0
52 97 -137 0
-43 72 131 0
-18 -109 161 0
-40 -112 143 0
44 -56 76 0
16 132 163 0
29 65 101 0
-51 169 -173 0
-57 62 144 0
14 -47 -71 0
62 -116 125 0
-54 117 -165 0
-32 127 -164 0
-84 -109 -137 0
18 -138 168 0
-42 -49 -64 0
99 -100 127 0
20 -24 -74 0
-85 -93 -117 0
72 94 100 0
-32 75 127 0
6 -14 121 0
-46 52 153 0
-11 -33 76 0
5 53 131 0
57 105 -144 0
-86 -146 156 0
123 139 161 0
25 50 110 0
6 78 -83 0
48 -83 -169 0
-50 107 122 0
-60 -128 159 0
-11 -21 -173 0
-47 -135 -151 0
88 109 -140 0
10 131 137 0
16 -20 -85 0
-34 -98 147 0
-32 -34 138 0
32 -77 -92 0
-74 144 172 0
115 -155 163 0
86 -97 100 0
-58 76 166 0
83 -118 -125 0
76 -141 -142 0
66 123 -173 0
-1 -70 -121 0
37 82 -175 0
133 153 -159 0
-52 -137 -155 0
26 -81 -106 0
29 -60 -107 0
-8 -146 -169 0
-103 -111 -121 0
47 -76 -102 0
-98 -143 171 0
11 74 123 0
6 9 44 0
61 125 141 0
10 84 -122 0
30 115 -148 0
43 -58 -154 0
-34 -42 -88 0
-58 -68 131 0
65 91 133 0
-102 113 145 0
-5 -142 -170 0
-20 -51 57 0
-33 -83 -103 0
-2 12 16 0
9 63 -114 0
38 67 -120 0
28 -83 142 0
-41 -107 156 0
-75 133 -147 0
-8 17 -43 0
19 28 -106 0
17 148 150 0
62 93 144 0
53 -57 -63 0
54 124 152 0
-27 -100 103 0
-103 116 -125 0
10 -61 -136 0
-7 54 -108 0
9 15 34 0
26 -58 132 0
68 -116 161 0
-21 -113 150 0
19 29 88 0
-3 -7 13 0
-2 124 -154 0
59 -65 -170 0
66 -92 138 0
83 136 -140 0
-89 -134 140 0
-88 139 -142 0
15 -133 -148 0
23 -26 142 0
127 129 167 0
82 -169 -170 0
56 -118 126 0
36 -151 -170 0
34 63 -107 0
65 -102 121 0
-58 -98 125 0
31 -33 -151 0
29 42 -45 0
-60 -147 -157 0
12 -56 151 0
60 -111 -169 0
44 70 -125 0
-26 -34 67 0
-41 -119 159 0
9 -29 67 0
-2 -22 -80 0
121 131 144 0
19 -72 155 0
-12 -18 137 0
78 102 135 0
-27 67 138 0
48 -65 -80 0
-60 69 -102 0
65 -77 145 0
69 -147 157 0
49 114 -156 0
-68 87 -102 0
12 129 -132 0
68 119 -173 0
-3 -38 54 0
-97 -107 -142 0
-76 91 -126 0
50 96 -115 0
-115 -116 175 0
-50 76 -159 0
-13 -75 -170 0
-54 122 134 0
109 -133 -134 0
94 107 -138 0
-58 -73 95 0
51 -138 -167 0
-12 -27 53 0
114 130 156 0
-10 31 131 0
8 46 -59 0
20 38 144 0
2 15 -148 0
10 51 175 0
63 -171 173 0
-19 35 -78 0
38 -100 -122 0
-94 -120 172 0
-24 101 -136 0
87 -91 -151 0
79 129 149 0
-9 -25 165 0
81 124 132 0
-15 35 -117 0
-84 139 -165 0
91 97 148 0
65 81 -94 0
101 -114 -122 0
-38 96 139 0
-12 -96 154 0
70 -123 164 0
-11 12 120 0
142 146 -172 0
49 -86 -103 0
23 26 142 0
12 -114 -171 0
-73 88 118 0
48 76 -119 0
-30 90 98 0
-20 -28 159 0
-16 20 98 0
-64 67 -150 0
-39 85 -170 0
-102 -161 170 0
30 44 66 0
42 171 172 0
1 -64 132 0
-18 126 -168 0
-29 -113 143 0
7 18 87 0
-96 -127 133 0
109 120 -172 0
-117 -118 -131 0
-58 100 105 0
18 74 155 0
-90 -110 -111 0
-64 -127 -162 0
-26 -66 -131 0
-48 64 171 0
-104 115 -157 0
-16 43 75 0
-47 52 72 0
-26 44 46 0
106 123 -142 0
6 -9 131 0
14 56 -91 0
-14 -26 -78 0
-61 124 153 0
-34 64 -154 0
132 136 148 0
103 133 135 0
27 69 76 0
73 158 -159 0
75 87 -98 0
56 -143 162 0
33 128 167 0
47 -84 -97 0
20 66 -75 0
-60 109 -137 0
109 -127 141 0
74 -86 118 0
10 106 162 0
30 127 -174 0
-2 -58 102 0
-35 -39 -157 0
12 -118 -145 0
49 94 107 0
-55 57 103 0
-17 -31 116 0
-55 -65 152 0
-51 -76 108 0
16 -55 -124 0
-9 111 -120 0
46 -50 140 0
110 113 -152 0
-58 -80 -143 0
-16 149 -171 0
-3 21 -105 0
-4 -6 -137 0
25 48 -139 0
29 -65 -166 0
-33 35 -71 0
72 97 115 0
-76 117 163 0
-69 -112 -153 0
84 -120 123 0
85 -114 164 0
14 -115 168 0
86 152 -168 0
-4 75 -109 0
-55 85 139 0
-26 -73 -76 0
-22 -167 168 0
-68 108 -135 0
49 77 -137 0
31 -54 -58 0
-37 -95 150 0
-94 -99 152 0
-38 115 147 0
26 41 -152 0
4 -19 112 0
1 32 -130 0
-24 -34 -172 0
-91 -94 -142 0
36 43 77 0
56 -61 150 0
-100 151 156 0
-9 -74 -106 0
41 43 171 0
-28 146 164 0
-64 153 -160 0
-31 -149 -158 0
72 -140 -166 0
-87 -92 166 0
-3 64 -136 0
-10 51 155 0
-13 -22 157 0
-48 131 150 0
-9 91 93 0
-4 -88 -98 0
16 27 -105 0
52 -146 150 0
35 -115 139 0
18 105 -120 0
9 -118 166 0
51 -72 128 0
31 -95 -126 0
-41 84 -116 0
20 48 -57 0
-15 38 -82 0
-20 21 -131 0
10 92 98 0
-15 -84 102 0
7 93 -127 0
41 -52 130 0
-12 13 34 0
-17 -46 60 0
76 -128 -136 0
10 61 -119 0
-35 171 -172 0
28 -68 -112 0
-43 73 -82 0
-48 -78 128 0
46 -87 -168 0
-20 -82 -134 0
20 67 -117 0
73 -95 -169 0
3 21 136 0
65 66 147 0
1 58 86 0
-22 95 107 0
46 -100 175 0
124 151 169 0
97 -110 -126 0
112 -140 -166 0
42 81 -140 0
3 -32 165 0
-51 129 -135 0
-14 -99 -162 0
-35 112 -164 0
1 3 143 0
-16 -62 -101 0
-36 -75 -93 0
-25 -111 127 0
-7 -136 148 0
-37 -52 -78 0
47 54 159 0
-68 74 -81 0
12 -120 152 0
2 -29 58 0
11 -67 -170 0
11 55 -111 0
-6 -39 -140 0
85 -86 -103 0
-34 57 -102 0
28 79 -112 0
-31 95 -161 0
-30 -126 -154 0
-40 55 -150 0
-27 -93 -111 0
-32 -111 129 0
52 69 -77 0
-26 45 -142 0
8 -61 -149 0
-10 17 -155 0
-76 162 174 0
6 38 131 0
103 -112 124 0
-1 -25 145 0
-76 -101 127 0
56 72 162 0
-76 104 -136 0
-32 45 -159 0
-98 130 -168 0
-11 -21 -111 0
78 -129 -150 0
70 -138 -175 0
60 -69 118 0
-36 -137 -142 0
-18 79 -107 0
13 80 -143 0
-97 -116 -145 0
37 -86 -99 0
4 7 43 0
-4 -40 158 0
-13 41 -83 0
-64 81 -134 0
-34 93 -102 0
-27 -116 169 0
-18 27 77 0
-10 -38 77 0
-33 60 133 0
-51 -62 67 0
51 -78 92 0
1 70 151 0
-6 -22 -101 0
35 -36 67 0
71 101 155 0
-7 107 -153 0
-65 -103 -153 0
8 83 -99 0
2 45 137 0
144 -151 165 0
-41 93 127 0
72 -85 -97 0
-41 48 58 0
-18 43 -45 0
48 -79 -124 0
-32 89 -97 0
12 -126 158 0
40 87 106 0
-9 148 149 0
28 85 99 0
47 -160 -168 0
13 -88 -94 0
95 103 -131 0
11 109 -127 0
-85 90 170 0
-59 100 167 0
-34 111 158 0
-69 -71 -135 0
66 -127 -146 0
44 94 -160 0
35 -102 142 0
-20 -50 157 0
-79 118 158 0
-45 -95 -112 0
43 -102 169 0
59 -71 137 0
55 73 -84 0
-19 38 82 0
-94 -135 -161 0
22 52 -139 0
123 -137 -149 0
-18 78 -91 0
-28 140 154 0
-91 133 -161 0
88 -146 -170 0
-40 57 111 0
62 -82 117 0
-29 146 157 0
64 -69 125 0
-81 -108 163 0
-44 124 143 0
16 -83 -124 0
59 -75 148 0
57 -76 -164 0
46 50 123 0
74 108 -148 0
-26 -126 172 0
33 -86 -90 0
16 -33 161 0
-14 -124 -163 0
4 79 -130 0
119 -121 -128 0
97 -148 -165 0
-34 97 171 0
-15 -20 -26 0
144 160 163 0
-29 68 -120 0
101 170 -175 0
101 151 -162 0
26 -155 156 0
-66 143 -155 0
-33 98 -150 0
-42 96 115 0
-112 130 -154 0
58 -112 -160 0
-71 123 124 0
-11 -82 102 0
47 -155 -156 0
-133 -155 -168 0
-53 107 -157 0
5 -16 72 0
67 -78 131 0
18 -27 -70 0
14 -95 111 0
-52 106 -156 0
45 92 121 0
-77 115 -144 0
-11 103 115 0
-45 -55 123 0
-40 81 100 0
-72 112 161 0
-6 -62 115 0
26 -67 83 0
-111 -142 -147 0
-55 -59 -74 0
-36 89 -127 0
119 140 -171 0
8 85 -96 0
8 -62 82 0
-70 73 166 0
36 76 -173 0
26 78 -96 0
8 -85 131 0
-17 18 122 0
39 -108 -145 0
37 49 -77 0
19 -126 -160 0
-31 117 -143 0
66 -119 143 0
6 18 41 0
-36 -94 127 0
72 -124 141 0
7 -32 139 0
-46 64 71 0
14 36 -52 0
-20 -143 161 0
-37 -119 143 0
-5 -33 63 0
-78 -143 162 0
62 148 171 0
6 -23 -174 0
-60 76 173 0
-89 151 165 0
-96 142 -150 0
41 97 140 0
-24 -81 -133 0
24 -45 -168 0
-30 -81 -86 0
14 67 -157 0
30 -139 145 0
-16 -23 -44 0
-106 113 -157 0
125 -159 161 0
-22 138 -146 0
-20 24 26 0
119 146 174 0
-27 -130 -166 0
-75 130 145 0
-19 118 -147 0
-123 -126 142 0
-61 -121 125 0
2 -134 157 0
-28 -80 -98 0
-32 -73 100 0
-60 63 100 0
-60 -111 144 0
-3 143 -154 0
12 -83 136 0
-7 12 162 0
-1 114 -115 0
58 -105 108 0
-47 -85 90 0
91 131 135 0
-34 75 -109 0
60 -136 -167 0
48 -113 144 0
84 -85 -155 0
-98 110 -121 0
-30 -118 153 0
-23 -68 -142 0
-116 -138 141 0
19 28 38 0
-13 120 131 0
-58 -104 -112 0
123 -144 -167 0
-7 -37 -163 0
58 159 -170 0
-7 152 -164 0
-2 59 110 0
2 89 142 0
-12 -28 -92 0
-68 93 -139 0
-90 123 -172 0
15 -131 166 0
30 -53 -156 0
11 31 38 0
-24 47 120 0
-96 127 175 0
-64 82 117 0
18 -69 -159 0
-9 128 -129 0
-11 57 147 0
36 110 -128 0
63 114 -162 0
-103 -114 117 0
-25 -47 -69 0
22 -95 -105 0
-82 101 161 0
-25 124 -146 0
114 134 -162 0
47 72 150 0
38 47 -60 0
100 109 -132 0
29 -46 142 0
-11 49 -95 0
43 -59 -81 0
-19 29 83 0
-6 36 -113 0
-50 69 -103 0
38 44 -123 0
-3 116 119 0
-45 108 -174 0
-2 16 121 0
18 99 127 0
-24 57 -59 0
105 115 -155 0
-76 -154 168 0
75 -119 -148 0
-30 -63 106 0
-79 85 121 0
13 134 148 0
-23 -35 55 0
33 79 -165 0
-35 -139 -164 0
10 -14 60 0
50 -101 134 0
88 -120 164 0
-34 122 -134 0
44 118 169 0
49 65 171 0
-17 91 -125 0
31 59 -85 0
-9 -29 -160 0
-88 118 -122 0
72 88 107 0
29 51 -142 0
-29 -57 -152 0
36 75 -138 0
22 -70 77 0
-23 39 102 0
-7 114 171 0
-1 77 -126 0
17 -54 116 0
18 -59 -144 0
-30 -88 -140 0
-119 127 162 0
-34 59 -81 0
13 33 -65 0
45 -126 -145 0
80 -121 134 0
-10 11 -21 0
-55 108 168 0
93 119 -149 0
63 -109 144 0
16 -62 93 0
20 78 155 0
26 39 -46 0
-27 -39 -52 0
42 130 -150 0
36 -74 -151 0
-56 92 111 0
84 -123 130 0
42 126 144 0
50 -68 -134 0
20 -55 -62 0
80 -113 -143 0
119 143 -150 0
56 -132 137 0
-34 37 -123 0
-32 97 106 0
56 93 164 0
99 -123 -133 0
-16 -137 -170 0
-12 -85 -156 0
-41 -45 77 0
1 -57 167 0
-80 128 -143 0
10 47 97 0
-62 114 152 0
-49 75 156 0
124 129 -164 0
107 133 -139 0
-77 113 -154 0
-55 109 -127 0
20 54 -123 0
73 -109 161 0
59 118 132 0
7 -130 170 0
-112 -116 -146 0
-27 -39 97 0
31 66 -175 0
97 -128 159 0
-26 -27 94 0
-129 161 -168 0
-55 -154 157 0
135 -140 152 0
66 151 160 0
3 26 -148 0
33 -133 148 0
-53 -79 131 0
-46 73 139 0
-24 76 -150 0
-21 38 -129 0
-24 80 141 0
64 -152 175 0
14 46 117 0
65 -81 92 0
18 -28 35 0
63 165 -169 0
-42 76 -163 0
-81 -82 -94 0
-36 134 -136 0
-13 -171 175 0
-25 -37 111 0
36 80 -174 0
-57 -103 -110 0
107 -121 166 0
129 -172 -175 0
9 104 150 0
-34 44 124 0
-22 69 112 0
