c F1 random 3-CNF cnfgen RandomKCNF(3,125,533,seed=5) m/n=4.26
p cnf 125 533
-33 80 -95 0
32 100 121 0
48 -61 112 0
2 -32 -74 0
-24 112 118 0
18 57 80 0
1 112 125 0
-22 38 112 0
24 -121 -124 0
3 47 -54 0
9 -39 43 0
-40 -46 -105 0
24 61 -62 0
-3 -121 125 0
-54 -71 101 0
6 58 91 0
-32 -97 -119 0
-33 68 -115 0
-5 38 111 0
-44 66 -79 0
36 -90 -119 0
23 40 -103 0
21 62 -93 0
-5 -31 -95 0
19 54 -84 0
27 43 -108 0
-14 22 56 0
38 -54 109 0
-59 -67 -125 0
-36 38 61 0
49 -69 -106 0
-12 -24 63 0
-100 101 -102 0
-47 -72 -91 0
-89 -92 99 0
-2 -75 -110 0
-36 -60 -86 0
-36 -45 83 0
-89 -111 -112 0
19 67 -68 0
-62 110 -120 0
-22 -79 -100 0
4 -26 93 0
29 88 -98 0
7 22 -29 0
24 62 -124 0
45 49 60 0
48 -92 -116 0
-36 110 -122 0
-5 71 -124 0
-44 -66 70 0
-53 -54 105 0
-21 49 77 0
12 -45 78 0
42 -73 -118 0
-29 -55 -56 0
-49 91 -125 0
-39 -64 95 0
-40 -41 121 0
-4 16 -62 0
-6 18 -101 0
36 -69 72 0
32 -35 -63 0
61 64 78 0
-37 -39 69 0
45 47 60 0
33 59 71 0
-55 -100 -104 0
51 -61 -88 0
-9 98 -107 0
-37 -75 83 0
-22 -62 89 0
55 70 75 0
11 35 -105 0
-9 -55 93 0
16 29 -108 0
57 91 118 0
21 53 103 0
-14 72 -85 0
-8 16 74 0
-12 -41 -56 0
48 84 -121 0
-20 73 -81 0
-9 -31 71 0
-31 -104 -111 0
17 -23 92 0
5 74 -86 0
-31 -50 -113 0
14 -68 102 0
-20 109 121 0
-11 117 125 0
-49 80 -90 0
-43 -79 -120 0
-18 -93 -107 0
47 110 124 0
9 13 51 0
-6 -26 63 0
-39 -55 -61 0
13 25 60 0
-48 50 -112 0
15 -36 105 0
5 -62 -115 0
8 -41 -121 0
20 -109 -122 0
31 59 87 0
4 74 -92 0
-91 -117 125 0
37 -47 60 0
23 31 -100 0
35 -93 125 0
-58 88 100 0
-5 71 107 0
-31 103 -116 0
7 -32 -88 0
-7 -8 -101 0
7 40 82 0
-66 82 90 0
11 41 119 0
10 77 -110 0
-46 -63 70 0
-2 -93 117 0
-15 -18 71 0
-34 -99 100 0
-11 17 69 0
55 -103 124 0
32 64 -90 0
48 113 -114 0
41 -49 99 0
4 57 74 0
35 -55 90 0
9 40 -42 0
-42 64 87 0
70 95 98 0
-7 -17 -125 0
3 -79 122 0
-26 43 47 0
75 80 -106 0
22 -68 -78 0
-16 -55 -102 0
-30 60 -118 0
7 -86 -99 0
1 -14 77 0
1 -5 -27 0
28 -51 60 0
-39 67 -72 0
32 -46 -104 0
19 -45 -107 0
-5 13 -22 0
-26 -116 -118 0
69 80 -111 0
2 -14 89 0
-4 -41 -87 0
-70 -89 91 0
-19 -69 103 0
67 -87 -99 0
-4 -10 -12 0
-2 119 124 0
-5 -12 97 0
12 62 -67 0
-70 -101 125 0
49 50 -86 0
-14 42 50 0
-28 38 40 0
10 53 81 0
-73 -81 107 0
55 -62 -68 0
-11 36 -78 0
-4 15 -20 0
25 -42 77 0
8 63 -122 0
-25 60 -109 0
1 13 108 0
-12 20 -43 0
42 95 -105 0
9 14 -105 0
23 48 -59 0
-60 70 121 0
48 77 -124 0
44 -49 -124 0
-3 -15 104 0
44 -49 -118 0
83 90 -99 0
44 -53 121 0
-29 31 54 0
-13 -35 124 0
50 70 -109 0
17 46 104 0
3 -47 -104 0
50 112 123 0
-25 103 -125 0
-11 -67 123 0
-7 21 51 0
-4 -54 -99 0
2 -97 105 0
-25 39 -100 0
28 -51 54 0
37 47 61 0
10 -59 98 0
53 114 115 0
-64 -96 107 0
-10 31 60 0
24 -55 104 0
-48 84 97 0
38 -67 115 0
-14 -52 -83 0
-62 71 117 0
3 -34 70 0
31 62 86 0
28 54 -99 0
8 65 -103 0
45 -100 -114 0
14 -58 -84 0
-75 -92 -120 0
22 -76 109 0
-28 68 -95 0
-48 71 -105 0
9 45 -64 0
6 8 -95 0
-19 -48 -114 0
19 -62 -101 0
-4 -81 107 0
-32 -81 102 0
18 -73 77 0
-2 6 59 0
-16 -53 76 0
69 90 122 0
-6 -9 92 0
-83 88 -123 0
-34 -40 -97 0
-1 -98 -113 0
20 -49 -84 0
-27 79 122 0
-11 -46 -82 0
-18 23 -26 0
45 74 -120 0
35 64 73 0
-54 -71 -101 0
-14 -26 -79 0
-67 -109 114 0
15 -105 123 0
-14 81 112 0
-70 100 -125 0
34 -93 -99 0
13 -40 -113 0
9 -53 112 0
6 -24 121 0
10 -54 60 0
-70 73 -121 0
47 -120 -122 0
14 22 99 0
-11 -84 85 0
-35 -40 71 0
27 -66 113 0
25 42 -118 0
-7 -110 -121 0
-71 -103 118 0
-33 -81 -96 0
78 91 98 0
59 -89 122 0
18 -22 -32 0
60 -80 110 0
-39 -75 114 0
70 72 93 0
-44 -74 -76 0
-8 43 -78 0
38 -48 54 0
94 97 -122 0
-21 -40 -121 0
-76 -106 -108 0
79 89 -92 0
-1 -69 -84 0
6 -30 69 0
22 26 -95 0
-14 50 -84 0
2 27 -118 0
40 56 -75 0
-71 72 -77 0
1 -68 108 0
2 25 60 0
-57 -59 -114 0
-4 10 67 0
57 84 -114 0
-13 26 69 0
1 -29 51 0
-25 -39 94 0
-15 99 123 0
-17 52 -116 0
-4 36 -123 0
12 -98 -112 0
-85 106 116 0
33 42 75 0
-13 -47 82 0
24 37 -81 0
14 -96 -122 0
93 -114 119 0
-1 -8 -48 0
-58 -74 103 0
-51 55 72 0
14 -38 62 0
-11 84 86 0
42 -53 -94 0
99 -100 110 0
67 114 119 0
-63 66 -113 0
-20 -39 55 0
67 -87 125 0
-10 -39 -76 0
-13 21 -45 0
27 -46 -112 0
-13 -107 111 0
58 88 -124 0
-34 40 -59 0
-26 -53 85 0
-9 17 -57 0
47 54 101 0
-19 58 94 0
76 90 97 0
-37 38 81 0
38 -56 -59 0
-60 80 108 0
41 47 -61 0
-35 48 -114 0
-52 58 110 0
-94 -96 -103 0
23 -24 -53 0
25 -33 -80 0
16 37 49 0
-32 52 85 0
40 -71 -100 0
21 45 79 0
-5 35 64 0
-29 43 -118 0
3 5 59 0
16 40 89 0
-95 -99 -115 0
-22 -53 100 0
-23 31 -51 0
30 61 -109 0
-13 -74 86 0
-1 34 89 0
11 -95 -119 0
-31 79 123 0
-42 -76 -122 0
-28 -35 82 0
2 76 88 0
12 39 73 0
50 -83 86 0
27 98 -118 0
-29 -57 112 0
-24 76 -77 0
61 -73 121 0
22 -72 -78 0
-36 61 108 0
58 71 72 0
-24 64 117 0
-21 -35 -92 0
-11 46 82 0
-3 -30 -78 0
-9 -33 -104 0
-20 52 -86 0
6 -77 -79 0
-23 -65 88 0
50 91 -119 0
-30 -54 97 0
-60 -98 -104 0
31 -73 81 0
11 -19 -123 0
70 84 102 0
63 79 90 0
-9 -98 107 0
16 -97 -122 0
-67 69 86 0
-64 66 -109 0
2 6 -64 0
36 39 -125 0
-9 -73 86 0
34 -43 -54 0
1 16 -41 0
-31 37 -99 0
-14 -72 81 0
-68 69 81 0
86 101 -111 0
19 -39 -99 0
-6 -24 -122 0
-1 15 34 0
-1 40 41 0
-47 -71 124 0
55 -56 -124 0
-40 95 -122 0
10 -67 100 0
-14 31 -75 0
26 47 67 0
-16 52 -80 0
-30 -44 -72 0
-27 -30 -110 0
-9 -11 35 0
60 86 114 0
30 55 -67 0
-9 31 88 0
-58 115 -121 0
-21 -111 122 0
39 -60 -114 0
47 86 -119 0
-48 84 -85 0
45 48 -101 0
-48 -53 -67 0
29 108 -122 0
6 -13 -113 0
-15 86 -93 0
15 -29 -51 0
30 -45 -122 0
-36 -101 -108 0
22 -30 -114 0
-12 -29 -82 0
-12 -19 39 0
-26 -61 -122 0
80 83 120 0
21 -54 -97 0
4 -99 -109 0
87 88 114 0
-75 -83 89 0
51 79 -91 0
-37 -51 -80 0
-5 -41 -43 0
72 -78 100 0
11 -14 103 0
-18 -47 110 0
-48 -61 77 0
68 109 -123 0
17 -94 -116 0
17 81 -105 0
15 17 -58 0
10 35 90 0
76 -78 -86 0
15 -30 -39 0
-78 84 117 0
-53 81 111 0
-5 50 -97 0
-59 -76 -88 0
-30 -42 -105 0
16 93 114 0
-86 93 -104 0
-42 86 -115 0
10 35 50 0
10 87 109 0
-115 -118 -122 0
-32 49 77 0
-11 -85 116 0
-53 94 -116 0
17 76 123 0
26 57 -81 0
-33 -64 101 0
-10 58 72 0
74 102 -114 0
-13 15 106 0
60 78 -110 0
6 15 -45 0
-29 -35 41 0
25 31 120 0
-50 76 -94 0
62 77 120 0
-3 70 96 0
-50 112 -118 0
-14 -69 89 0
-47 84 -107 0
22 -63 93 0
-22 -88 125 0
-15 117 125 0
-17 -33 67 0
57 -110 122 0
23 -60 -70 0
-26 82 114 0
35 -44 54 0
-1 -75 114 0
-44 -101 -102 0
71 -99 -121 0
-28 -106 121 0
-10 -47 -117 0
26 -33 72 0
19 34 125 0
22 48 -80 0
-75 -93 94 0
-37 -49 51 0
81 103 124 0
48 74 -125 0
-21 -49 -59 0
-18 36 -78 0
21 -51 86 0
38 72 -113 0
-3 -26 66 0
21 -43 83 0
21 -39 -61 0
48 -80 113 0
24 32 -81 0
-55 63 82 0
53 68 123 0
48 95 -101 0
-27 109 120 0
33 57 -82 0
43 84 119 0
-92 101 -109 0
10 -59 64 0
19 102 120 0
-34 55 88 0
-98 -110 -120 0
-9 -51 -109 0
2 32 -61 0
45 -114 -118 0
-11 29 -60 0
51 56 -103 0
42 74 -103 0
-10 -68 -87 0
-19 -34 -69 0
-73 79 88 0
-18 -49 100 0
2 41 -43 0
-31 -54 100 0
-32 40 73 0
51 84 -87 0
55 85 -118 0
-76 98 -106 0
27 -89 -107 0
-20 -67 108 0
-22 -37 121 0
4 23 112 0
-6 -44 -77 0
-47 -66 76 0
36 104 122 0
-49 101 103 0
19 73 -106 0
-18 -96 -99 0
8 57 -110 0
-17 114 121 0
