c F1 random 3-CNF cnfgen RandomKCNF(3,75,320,seed=10) m/n=4.26
p cnf 75 320
-5 55 74 0
36 60 -63 0
-10 32 -42 0
-18 -46 -49 0
-23 39 -59 0
31 49 57 0
-18 25 -39 0
-56 58 -71 0
-21 29 65 0
5 39 64 0
48 50 73 0
-22 -25 -57 0
32 36 58 0
35 39 59 0
-42 45 62 0
-6 43 70 0
34 -52 -58 0
-31 -35 68 0
-22 60 -63 0
-45 -70 75 0
-13 57 72 0
9 -57 69 0
-14 20 -59 0
-56 -58 -65 0
43 55 -67 0
-5 26 74 0
-32 38 56 0
14 -37 71 0
-25 47 52 0
25 -27 -55 0
55 -58 -67 0
-1 -15 -27 0
9 26 -55 0
-33 47 -59 0
-38 -60 -65 0
-44 -45 -57 0
-11 -62 70 0
-9 54 -73 0
-10 -42 51 0
22 31 40 0
10 -54 73 0
26 -44 51 0
-5 -7 -75 0
-16 21 22 0
45 -66 -69 0
8 -45 -74 0
-23 -57 -58 0
-59 66 72 0
6 20 -56 0
47 49 72 0
7 29 -40 0
-6 -24 39 0
25 45 -63 0
5 43 -60 0
20 -51 66 0
-14 -31 55 0
45 -61 67 0
21 -30 50 0
52 -74 -75 0
9 25 -72 0
-3 5 56 0
42 46 61 0
17 26 -38 0
54 70 75 0
4 8 -16 0
2 -9 56 0
-7 -22 -71 0
-5 -24 -43 0
-10 -18 47 0
2 -12 59 0
19 40 -68 0
-1 -43 74 0
8 28 69 0
20 -40 54 0
-39 60 62 0
-4 20 -52 0
20 -61 -65 0
22 -36 -61 0
49 -72 -73 0
8 -17 59 0
5 11 49 0
-29 47 56 0
-9 -47 59 0
17 52 70 0
-28 -49 66 0
9 20 -69 0
12 -27 59 0
22 47 -50 0
20 -34 -39 0
-1 -44 46 0
37 53 -59 0
-12 16 55 0
11 -49 -69 0
-11 -15 54 0
-3 -51 -57 0
-20 39 72 0
-61 -64 -74 0
-3 -58 -71 0
-24 29 31 0
5 70 -73 0
22 26 -40 0
6 41 65 0
-19 59 -63 0
3 -34 46 0
-15 -19 -31 0
-41 -55 -71 0
-8 -14 -62 0
9 46 -61 0
-1 26 37 0
-21 47 -62 0
26 -32 74 0
33 63 71 0
-22 23 -58 0
30 53 -56 0
17 26 62 0
11 51 -70 0
41 -63 75 0
49 -52 60 0
8 -14 32 0
-36 37 -44 0
10 -17 73 0
3 -21 52 0
9 60 -61 0
-8 20 35 0
-5 -57 -68 0
-18 -38 60 0
34 -38 -45 0
-41 55 -60 0
15 20 -72 0
35 -47 56 0
7 17 75 0
-38 -46 -74 0
-10 26 33 0
32 -57 -73 0
-7 -56 65 0
-43 -48 -62 0
-1 33 48 0
-42 50 -56 0
-12 -14 15 0
-1 23 -70 0
16 -25 74 0
-25 44 -61 0
-3 18 73 0
-20 40 -64 0
19 -22 -49 0
3 53 -73 0
-25 -52 66 0
-29 44 70 0
2 -17 19 0
10 -53 -63 0
1 -23 28 0
-20 -38 67 0
-10 17 -61 0
-8 -38 61 0
-9 -11 47 0
15 22 72 0
-7 10 -54 0
-43 -48 -66 0
2 -50 72 0
-9 -49 72 0
-7 -42 -75 0
-21 22 -45 0
-7 29 -41 0
7 15 -47 0
30 -46 -69 0
-51 58 70 0
-25 -38 -46 0
13 -19 -58 0
32 39 56 0
21 27 -49 0
14 24 48 0
-9 -31 -53 0
3 15 70 0
-10 34 -49 0
30 -31 -58 0
26 -38 56 0
-19 33 -56 0
-66 71 -73 0
13 34 -52 0
13 -19 70 0
-8 15 54 0
17 40 -55 0
-37 41 57 0
10 21 -27 0
-33 42 68 0
-27 -51 -74 0
-51 -57 -74 0
-30 41 72 0
22 -60 63 0
5 22 61 0
21 -69 70 0
7 60 -67 0
10 32 64 0
18 -22 31 0
10 13 -15 0
10 57 75 0
15 -48 -74 0
25 -65 70 0
-58 -60 69 0
-1 34 -45 0
39 -53 56 0
15 -19 -45 0
-6 -24 -31 0
-9 -51 -67 0
2 -32 38 0
3 23 27 0
-15 34 -61 0
-14 -42 -51 0
7 43 -46 0
66 -70 74 0
-21 64 -74 0
-15 -18 35 0
-13 55 -56 0
9 -16 -56 0
19 42 -43 0
20 -34 -56 0
-8 -47 -74 0
2 -38 73 0
17 27 65 0
-42 -43 61 0
13 -21 47 0
-40 47 -73 0
-11 -34 38 0
-12 -46 -66 0
21 48 52 0
5 49 73 0
44 -53 -63 0
-2 10 36 0
24 55 -56 0
-52 53 70 0
6 12 14 0
-41 -53 -74 0
9 -69 -74 0
-50 55 -58 0
20 36 71 0
6 32 46 0
14 52 -58 0
5 8 -13 0
-10 43 70 0
-49 -62 -65 0
-43 44 64 0
17 -18 -38 0
-10 -18 56 0
31 54 63 0
-31 -52 54 0
40 -53 58 0
9 -12 -49 0
-11 24 -71 0
22 -57 -66 0
-4 -15 -62 0
6 59 -68 0
-18 26 -61 0
-35 -40 63 0
-8 35 -54 0
15 54 -57 0
-9 29 -69 0
26 -38 66 0
-25 39 -46 0
6 -55 74 0
-2 24 43 0
-1 53 66 0
-8 -11 -13 0
-9 -69 -73 0
16 23 69 0
17 -50 -73 0
-12 40 -74 0
9 42 -73 0
-2 63 65 0
-29 45 -55 0
-8 -59 -70 0
-14 -35 -67 0
55 58 -62 0
23 -32 -55 0
44 -46 57 0
11 -38 52 0
21 -22 45 0
-25 -41 -59 0
-2 -14 -42 0
35 -42 -54 0
-8 -21 -60 0
2 -38 40 0
-44 -49 50 0
-5 49 58 0
20 -21 -61 0
15 29 -46 0
-26 -35 74 0
-22 -24 -53 0
-24 47 74 0
-38 55 -71 0
23 -26 62 0
-20 -66 68 0
-23 -51 -61 0
8 17 -38 0
22 35 -43 0
-47 54 74 0
-30 -42 48 0
-23 -45 -74 0
-3 -36 -50 0
-10 50 75 0
-25 -27 -42 0
10 -15 57 0
65 69 71 0
-43 -55 -67 0
-14 22 -59 0
-34 47 51 0
23 -32 -56 0
-3 -55 -64 0
-67 -68 72 0
7 54 72 0
17 20 -60 0
23 60 71 0
-3 -29 31 0
9 -32 33 0
31 53 59 0
40 41 -68 0
-29 -51 -60 0
12 18 34 0
-7 47 57 0
-19 -20 52 0
-14 60 63 0
