c F1 random 3-CNF cnfgen RandomKCNF(3,175,746,seed=4) m/n=4.26
p cnf 175 746
-27 -61 78 0
-6 -18 24 0
-57 -134 138 0
28 -55 -68 0
-43 -50 80 0
-87 156 172 0
64 -72 122 0
75 -80 -147 0
-74 111 154 0
12 67 -79 0
-72 -133 161 0
-18 51 -173 0
-48 -71 92 0
16 -26 83 0
-32 -46 85 0
-11 -22 92 0
-40 74 -83 0
-50 114 -159 0
-41 98 -154 0
-12 -44 -117 0
25 -113 147 0
15 16 30 0
126 -140 150 0
-32 75 -136 0
-52 -62 113 0
57 -108 114 0
9 -49 -128 0
54 -63 -135 0
-14 37 -84 0
-11 127 -168 0
-43 -54 -147 0
81 -108 -165 0
-20 101 128 0
-33 102 159 0
-119 -146 -163 0
1 55 -56 0
30 98 102 0
-42 -156 -172 0
7 -9 -21 0
-11 36 156 0
20 -77 -89 0
53 -80 -100 0
-20 -25 -30 0
18 -114 -161 0
31 -109 143 0
-39 -46 -84 0
2 -44 139 0
-29 125 140 0
76 92 106 0
-14 -157 -174 0
-113 -130 157 0
-65 93 -153 0
22 -37 -156 0
51 90 -148 0
-46 -85 166 0
6 77 -155 0
-26 41 47 0
45 -123 -167 0
61 -126 -154 0
-59 -84 -138 0
-73 81 -113 0
-48 -118 -139 0
8 -40 -160 0
-24 -80 155 0
123 155 164 0
18 34 -77 0
-149 159 175 0
25 -41 53 0
-16 32 70 0
34 -107 168 0
-40 129 142 0
77 -124 130 0
-42 -66 -132 0
44 -85 100 0
-5 72 174 0
30 41 156 0
3 -123 -142 0
45 87 -136 0
-79 92 159 0
-66 -149 -170 0
22 61 -81 0
91 122 135 0
128 133 140 0
19 -87 174 0
1 130 -131 0
5 -9 160 0
-55 -64 -93 0
104 155 -162 0
-17 -127 131 0
45 83 -112 0
-71 -85 -112 0
-54 66 159 0
-68 104 -156 0
23 43 -159 0
-56 165 -172 0
3 117 146 0
25 -63 -133 0
146 149 170 0
7 -47 174 0
-84 -152 162 0
13 44 56 0
-68 172 173 0
-36 -101 -123 0
10 104 111 0
57 -76 92 0
-89 -160 174 0
49 58 90 0
-7 -31 -49 0
11 79 -101 0
-90 119 -159 0
-8 35 115 0
76 85 -153 0
42 135 173 0
6 -86 -154 0
36 60 150 0
-60 -74 -155 0
-44 -89 -173 0
9 -138 140 0
31 121 127 0
36 -37 142 0
13 -39 155 0
72 -76 -122 0
-16 -36 136 0
-1 89 136 0
-21 111 -174 0
45 51 174 0
-1 3 75 0
87 134 164 0
-16 17 36 0
-84 -132 133 0
31 150 151 0
-12 -70 -140 0
-40 93 -135 0
44 124 -167 0
-147 -151 154 0
-42 -78 81 0
-124 -137 -159 0
43 81 -170 0
-46 50 -164 0
2 9 134 0
-58 -63 96 0
-111 114 -162 0
12 -25 48 0
42 101 -112 0
88 90 -131 0
25 -94 -97 0
111 -142 147 0
23 100 115 0
26 -33 -74 0
-82 -90 -105 0
27 -88 -97 0
59 -95 -148 0
32 86 137 0
-60 -123 -133 0
107 -137 171 0
-92 111 121 0
-40 -86 93 0
-99 123 -126 0
66 152 160 0
79 118 147 0
-40 -60 -88 0
60 71 148 0
29 113 -164 0
17 138 140 0
2 50 132 0
-84 -124 -129 0
34 -87 -148 0
15 -25 87 0
-13 -53 -64 0
18 -22 -164 0
28 97 132 0
-44 -117 -162 0
-64 -111 145 0
-69 -102 145 0
41 -49 132 0
48 157 167 0
-8 21 79 0
51 68 -72 0
-70 103 150 0
93 -103 -154 0
49 63 -126 0
-9 -49 54 0
-44 -94 -157 0
-20 -84 -118 0
-29 -40 -169 0
-22 69 -118 0
-3 41 -157 0
-9 46 124 0
43 -103 -137 0
-70 -78 100 0
10 166 173 0
-86 127 136 0
-14 -96 103 0
-90 94 -113 0
-33 -36 121 0
-93 114 136 0
38 78 -160 0
-10 144 172 0
-70 105 111 0
-28 -35 105 0
-67 84 163 0
-65 -66 -88 0
16 -147 -157 0
26 61 -145 0
71 -105 -154 0
-120 134 -162 0
-45 -74 132 0
113 -133 -154 0
-67 120 -137 0
-96 119 159 0
60 -95 -157 0
-74 115 -167 0
-57 73 -100 0
-52 55 -113 0
-17 41 152 0
-82 85 102 0
-16 -131 153 0
-23 89 -94 0
-113 129 172 0
82 -105 -168 0
147 162 167 0
-49 113 163 0
41 -80 140 0
-59 -130 170 0
-11 89 -131 0
25 53 -74 0
8 24 35 0
44 -68 -148 0
-70 120 165 0
-75 -81 129 0
-2 -134 137 0
-17 93 -135 0
-18 -124 -172 0
83 126 143 0
-74 -102 149 0
38 -70 -108 0
-27 55 -108 0
30 -31 47 0
26 104 146 0
-18 43 -44 0
21 -55 -77 0
-74 117 134 0
-99 -114 -117 0
50 -70 92 0
-50 -125 142 0
-57 95 -127 0
7 39 -141 0
102 -120 170 0
-17 39 49 0
-30 44 121 0
-38 -54 -131 0
6 -85 -98 0
-35 41 110 0
-25 -61 -67 0
48 -50 81 0
-73 -117 163 0
-75 -101 -174 0
18 103 112 0
-91 127 -137 0
-57 75 93 0
-20 37 99 0
-25 -35 -69 0
27 48 167 0
25 109 130 0
26 -77 112 0
-8 -118 -145 0
-46 -57 126 0
-58 65 70 0
15 17 -88 0
-37 -137 -171 0
-26 76 -136 0
114 171 175 0
-25 -58 -101 0
-15 26 95 0
-87 122 127 0
-40 -90 -108 0
-101 107 131 0
26 -53 -115 0
13 -118 -132 0
-51 -158 173 0
1 99 135 0
75 -85 151 0
-76 -123 -131 0
7 31 -52 0
-33 55 -150 0
55 66 75 0
9 -11 129 0
-10 46 147 0
-86 98 -175 0
-48 -67 -117 0
6 54 -164 0
20 60 158 0
-39 -117 166 0
140 -152 163 0
-50 -111 -170 0
-15 33 173 0
43 82 137 0
-12 50 -148 0
-72 104 -106 0
-15 97 130 0
-33 97 -166 0
116 -119 156 0
-21 52 -71 0
48 133 -134 0
81 -96 -134 0
-65 66 150 0
55 -130 174 0
-37 149 -171 0
17 46 73 0
15 31 101 0
4 -84 -97 0
31 67 -145 0
-19 145 -159 0
-24 -123 155 0
-47 -62 -147 0
31 -124 -150 0
-10 -47 -103 0
47 89 -138 0
2 40 68 0
-80 125 -129 0
-41 83 -146 0
48 -130 -145 0
34 -42 146 0
-18 -145 154 0
-64 -84 -138 0
21 41 142 0
-86 153 -163 0
-37 92 -143 0
26 35 168 0
4 -85 141 0
-45 60 171 0
-14 -20 40 0
-107 112 143 0
66 -80 -136 0
-26 -87 116 0
4 -14 -114 0
-52 91 -169 0
71 84 87 0
97 116 -162 0
-92 -127 -160 0
-82 -145 -155 0
-5 19 115 0
-57 -88 -101 0
49 78 -135 0
70 92 175 0
1 30 -89 0
57 101 -155 0
47 -62 152 0
-36 -95 137 0
-42 -59 -157 0
99 -104 131 0
-23 -80 131 0
-43 -127 -168 0
24 -97 127 0
79 83 -158 0
78 92 149 0
-14 71 153 0
46 85 141 0
110 -155 -159 0
7 12 112 0
-116 150 -156 0
-23 -42 172 0
28 38 161 0
-84 -129 159 0
-41 -57 121 0
70 -137 165 0
6 22 48 0
3 -50 78 0
-11 -26 109 0
43 -119 -131 0
-21 38 155 0
-22 139 162 0
98 -165 167 0
-8 57 -70 0
73 -102 -115 0
57 -100 145 0
61 132 142 0
7 11 147 0
-53 -79 142 0
-61 -68 -152 0
94 96 124 0
68 112 -148 0
-144 -159 -172 0
-70 98 160 0
-50 67 124 0
10 171 172 0
-128 -142 152 0
-13 48 167 0
-11 112 164 0
1 96 -111 0
-3 -8 71 0
33 -55 162 0
-38 141 169 0
-37 41 101 0
9 70 128 0
-12 82 -160 0
-8 42 -113 0
41 86 93 0
-1 -36 -146 0
-87 96 -113 0
-36 -110 -119 0
-79 134 159 0
-36 -129 150 0
60 79 106 0
37 -104 133 0
-26 90 164 0
-26 -57 111 0
26 123 141 0
24 -51 175 0
104 -110 -171 0
107 -133 -134 0
-17 -29 120 0
-89 145 -146 0
-33 83 -102 0
7 -16 77 0
83 -91 140 0
-59 112 -135 0
6 29 130 0
28 -49 152 0
-66 -101 120 0
-116 117 -141 0
-122 150 -169 0
-83 119 121 0
35 -39 -172 0
91 145 -154 0
2 97 -105 0
-52 137 144 0
-44 -49 -80 0
-17 -56 153 0
1 -64 73 0
-67 102 -127 0
87 -102 -151 0
-32 116 -146 0
61 -166 -168 0
-79 -81 -91 0
59 -97 -105 0
77 166 171 0
-24 85 -147 0
7 35 -144 0
28 131 144 0
98 104 -142 0
-38 -77 96 0
110 -135 -159 0
-84 -127 172 0
-52 -136 160 0
62 65 111 0
47 -92 -116 0
-42 72 -154 0
51 132 140 0
14 -48 -110 0
-19 -65 -155 0
9 77 -111 0
-95 126 133 0
69 -138 158 0
-56 -70 -163 0
74 95 -173 0
62 -111 -117 0
-63 -128 -151 0
-5 -31 -40 0
25 -129 -170 0
33 136 144 0
37 -67 166 0
45 121 147 0
-25 -104 -128 0
-11 75 -87 0
113 -129 -159 0
51 109 -153 0
-71 72 -128 0
54 88 -155 0
53 105 -142 0
43 -60 -171 0
26 105 152 0
73 -124 168 0
-61 -151 174 0
-2 -75 -140 0
22 -66 84 0
17 38 -147 0
22 -27 125 0
73 86 156 0
-22 -42 84 0
-31 -77 -148 0
121 138 166 0
-45 95 142 0
66 -128 -137 0
-126 -129 -164 0
19 132 -134 0
-64 72 147 0
63 97 -168 0
15 -130 142 0
13 -39 133 0
65 144 -169 0
44 -88 143 0
-43 50 -153 0
-38 -48 -146 0
-26 -126 -163 0
-42 79 146 0
-59 61 -63 0
80 84 -117 0
-20 24 -67 0
-103 -169 171 0
7 -107 130 0
-72 -82 156 0
131 140 -150 0
-11 32 -94 0
-38 -80 129 0
73 -75 119 0
14 64 113 0
46 57 -80 0
35 -72 165 0
105 -117 -133 0
57 -79 -125 0
2 -7 43 0
-15 55 63 0
34 59 101 0
21 -115 117 0
14 28 -150 0
-57 118 135 0
-109 -145 152 0
136 155 166 0
-29 38 -76 0
6 81 142 0
-41 -46 132 0
29 38 -53 0
24 90 -151 0
-43 -92 95 0
-14 -118 -136 0
28 109 146 0
-77 -82 129 0
-19 106 -120 0
-65 -124 155 0
61 77 -139 0
34 -50 158 0
-28 52 123 0
14 -124 170 0
8 -127 130 0
-25 45 -152 0
49 -82 135 0
62 139 -157 0
29 -62 -122 0
42 108 116 0
-20 60 -76 0
17 -33 109 0
51 54 -106 0
80 144 175 0
-39 74 82 0
17 -73 -144 0
-100 129 -166 0
-45 -63 163 0
40 -137 -156 0
-79 118 -167 0
-10 60 84 0
8 59 79 0
-6 -61 169 0
-17 49 155 0
-24 -64 174 0
6 59 104 0
-56 -120 171 0
-49 124 -161 0
16 29 -142 0
57 -113 -146 0
38 47 89 0
27 -101 103 0
8 23 -84 0
17 -150 157 0
-92 -97 117 0
-19 38 -113 0
-27 -129 -172 0
-80 124 139 0
108 -165 172 0
-143 -165 174 0
-31 -47 152 0
-7 77 -85 0
-8 -40 -108 0
-24 127 -152 0
-11 -68 155 0
67 -145 -154 0
9 160 -171 0
-33 -53 -80 0
31 39 42 0
-37 -44 -73 0
-25 -54 138 0
32 -58 -120 0
81 -143 -150 0
29 104 -135 0
34 -53 -66 0
79 82 -124 0
-8 -11 146 0
11 23 -93 0
1 96 169 0
53 -65 160 0
21 82 -111 0
-27 85 87 0
-79 128 -168 0
21 -48 -156 0
29 120 -129 0
102 -126 -153 0
46 -48 -164 0
17 95 -175 0
52 -78 -90 0
-42 45 63 0
-2 -27 85 0
61 -121 -137 0
-54 -78 -164 0
-69 112 116 0
53 -87 175 0
-38 57 141 0
-84 133 -173 0
-28 -152 166 0
15 -132 -167 0
9 -106 145 0
-44 60 -82 0
-11 -74 75 0
-91 -104 -117 0
5 -57 65 0
-77 127 -143 0
-6 -26 87 0
-8 75 -103 0
85 105 -160 0
-19 50 -93 0
5 -57 172 0
98 -105 129 0
-23 -159 174 0
-92 116 126 0
-102 146 -151 0
-13 -143 166 0
84 -139 172 0
-96 122 -159 0
-34 45 -116 0
-10 -26 -128 0
78 85 174 0
109 -140 149 0
-10 51 56 0
60 96 166 0
21 -64 129 0
19 -46 -57 0
9 -139 172 0
-46 158 161 0
-44 143 152 0
29 -57 -136 0
25 -107 168 0
-72 104 -159 0
-56 -59 -96 0
-10 -36 -64 0
-56 -169 -170 0
32 -47 136 0
-52 -73 -161 0
-6 12 -142 0
70 113 115 0
-45 49 150 0
4 -126 137 0
91 93 148 0
67 -70 85 0
48 76 -132 0
48 106 -162 0
83 -85 -123 0
43 -158 164 0
1 100 -129 0
-39 71 -87 0
-25 -31 114 0
-76 -118 -126 0
1 22 -78 0
-19 26 -123 0
3 58 -125 0
8 -110 -135 0
-10 94 -148 0
-27 -111 124 0
91 145 168 0
-73 -102 174 0
-44 -117 171 0
71 -90 -145 0
-49 88 -109 0
-8 -16 97 0
-37 -95 145 0
56 117 -132 0
46 53 89 0
-96 144 163 0
-29 127 128 0
-41 44 84 0
23 67 102 0
1 83 -156 0
-43 100 163 0
-17 61 -140 0
-108 118 128 0
-71 -110 -173 0
-17 -120 -157 0
-25 -151 169 0
-141 147 -173 0
-41 -70 87 0
-3 56 79 0
-2 -72 -102 0
-11 98 122 0
27 73 156 0
24 -95 -126 0
21 24 72 0
-126 -151 -167 0
-48 -69 -163 0
77 89 138 0
19 -50 83 0
19 -49 142 0
-49 116 -122 0
-18 61 99 0
-36 134 162 0
-87 125 167 0
88 -136 -162 0
49 -100 -139 0
-90 -144 -153 0
-68 78 -91 0
-20 -45 -93 0
-64 -152 -158 0
25 -52 -73 0
88 -100 -109 0
122 -125 164 0
-55 98 110 0
7 -141 -151 0
-7 -27 -29 0
28 -77 -78 0
3 -6 36 0
-73 -145 -172 0
84 134 -165 0
-100 -146 -161 0
29 -61 -145 0
-58 -112 137 0
-26 92 132 0
68 -104 -136 0
10 56 107 0
-133 -149 -175 0
39 -140 -149 0
-30 -52 157 0
-135 147 148 0
65 86 -141 0
45 108 -157 0
12 -29 37 0
82 111 113 0
-26 32 98 0
-99 130 -157 0
-12 -119 -139 0
-29 -110 -136 0
-5 6 27 0
-5 -17 -103 0
-43 -75 81 0
7 -98 -164 0
-60 127 -166 0
53 -69 -85 0
71 91 156 0
-92 127 -140 0
-80 -129 152 0
