c F1 random 3-CNF cnfgen RandomKCNF(3,125,533,seed=10) m/n=4.26
p cnf 125 533
-5 55 74 0
-60 63 105 0
42 63 -67 0
6 -54 -111 0
-37 -54 106 0
-39 85 -88 0
-31 -99 111 0
1 31 -75 0
47 -69 -99 0
-9 56 61 0
31 53 -125 0
39 78 105 0
-50 73 122 0
99 -100 124 0
-25 -104 -122 0
-32 58 88 0
-16 -35 111 0
84 85 -121 0
-42 45 99 0
-6 -70 92 0
-11 34 -58 0
64 -112 -118 0
9 -64 -78 0
-18 -52 -115 0
-22 63 -90 0
5 -107 112 0
7 12 -45 0
63 -103 -107 0
-65 -100 -119 0
-90 -101 -115 0
67 84 -117 0
5 -80 88 0
-15 -104 124 0
38 92 114 0
-21 37 -105 0
52 -77 118 0
-11 25 76 0
-40 -88 -114 0
72 -86 -96 0
15 81 -101 0
-53 79 112 0
55 99 -103 0
-33 47 -59 0
-38 -60 -89 0
-44 -57 -82 0
-58 -110 116 0
-70 -89 93 0
54 -78 124 0
-42 76 -84 0
37 48 79 0
13 40 72 0
-25 54 -122 0
26 -44 109 0
75 85 -89 0
-51 111 120 0
-16 78 102 0
-69 93 -118 0
-57 74 113 0
-57 -111 -119 0
-23 -46 -78 0
-13 25 50 0
24 -111 -120 0
49 72 123 0
40 122 123 0
-13 73 -82 0
-6 -109 122 0
-25 45 98 0
-52 -97 104 0
23 -107 113 0
-66 83 -114 0
16 105 -123 0
-40 82 -93 0
-67 107 -117 0
-2 21 86 0
-66 82 -98 0
-28 37 75 0
72 80 -111 0
-3 -5 104 0
-7 -46 94 0
-3 17 27 0
-32 50 116 0
1 4 16 0
9 -50 89 0
54 80 116 0
-49 -75 -90 0
-5 -24 -52 0
-10 -18 86 0
2 -12 59 0
40 68 117 0
-37 80 -91 0
-82 97 120 0
8 78 82 0
-19 28 40 0
48 -67 -86 0
23 60 -109 0
20 -58 -78 0
-6 20 -63 0
-28 -36 -90 0
-20 -83 115 0
-7 8 -59 0
79 100 118 0
-2 -5 120 0
62 85 107 0
-47 -104 -123 0
-17 23 96 0
-20 93 -108 0
-88 105 107 0
69 94 96 0
51 59 85 0
23 -59 -86 0
-27 -32 -81 0
-8 -20 -63 0
-1 42 -87 0
37 59 -92 0
-12 16 55 0
49 69 -105 0
62 -74 116 0
-53 97 -109 0
-3 -57 -115 0
39 -72 85 0
-30 -61 -64 0
-71 96 -125 0
-81 -91 105 0
29 31 48 0
-8 22 54 0
-4 22 60 0
-3 -5 -19 0
-3 -54 81 0
6 20 33 0
-66 -92 -125 0
-41 -55 -71 0
-8 -14 -62 0
9 46 -61 0
-1 26 37 0
-21 -62 102 0
32 50 -102 0
-7 -105 113 0
96 100 117 0
22 -52 58 0
25 -53 -56 0
17 92 108 0
-11 25 93 0
-89 -102 -116 0
75 -114 118 0
49 -52 60 0
8 -14 32 0
-36 -90 -93 0
18 45 105 0
58 -97 99 0
-18 21 -77 0
9 -22 -60 0
20 -82 99 0
7 -85 -125 0
-40 -69 71 0
-43 60 -93 0
-38 91 -113 0
-41 -49 -81 0
15 22 36 0
-57 -98 -103 0
21 41 116 0
7 75 98 0
-38 -46 -74 0
10 -33 111 0
10 -83 95 0
-35 74 -80 0
-44 85 -93 0
-43 -62 63 0
-33 48 115 0
-42 50 -56 0
-12 -14 15 0
23 70 -88 0
21 44 82 0
-2 41 -44 0
-8 77 100 0
38 72 111 0
-64 -81 103 0
22 -50 123 0
-56 62 114 0
109 -111 -119 0
-25 -66 76 0
-29 44 70 0
2 19 -103 0
-10 -32 96 0
48 58 108 0
74 -79 105 0
-20 -38 112 0
17 -61 105 0
-64 -91 100 0
-6 38 62 0
46 55 68 0
6 -17 102 0
-10 119 -122 0
-43 -48 -109 0
2 -50 118 0
-9 -49 72 0
-7 -42 -75 0
-21 22 -45 0
-7 29 -41 0
-15 92 96 0
74 -111 113 0
-3 -46 -69 0
-58 80 118 0
38 -123 -124 0
-81 -105 123 0
-19 -29 -58 0
-32 76 88 0
30 49 99 0
-11 47 124 0
85 95 118 0
31 -53 -90 0
3 15 34 0
-98 -107 118 0
-15 42 78 0
-17 -58 -108 0
-7 26 -56 0
-19 33 -123 0
-86 112 -124 0
-13 52 91 0
51 70 88 0
15 29 -36 0
52 65 84 0
7 -40 -55 0
-37 57 79 0
21 86 119 0
-19 -79 -121 0
-68 77 120 0
-27 -74 -98 0
-51 -55 -74 0
42 -72 -109 0
-3 -6 97 0
5 58 -116 0
10 22 76 0
-28 69 78 0
31 -60 67 0
83 -99 100 0
8 23 84 0
6 10 60 0
90 99 -105 0
10 57 107 0
-15 82 -122 0
25 -41 65 0
-58 -69 -106 0
1 -45 -99 0
-14 -79 -124 0
10 -39 56 0
-9 -15 111 0
31 -113 -119 0
51 -56 -99 0
51 91 -106 0
-30 109 111 0
27 108 119 0
16 -34 61 0
-75 -85 125 0
-51 53 -55 0
1 -43 65 0
-16 56 -78 0
10 34 -103 0
39 45 -111 0
43 -55 114 0
16 -56 -79 0
42 43 102 0
-62 -68 -89 0
-17 20 -51 0
-105 -107 -111 0
2 -38 73 0
27 65 78 0
-12 -43 -61 0
16 47 91 0
-67 85 -106 0
-77 -78 93 0
-11 -59 -99 0
56 104 -106 0
-46 57 -63 0
30 80 -105 0
5 73 101 0
-44 -76 118 0
2 -54 -59 0
4 -95 -97 0
24 67 -76 0
-53 -93 105 0
10 67 119 0
29 93 -108 0
-41 -74 -94 0
9 -74 -100 0
-55 -58 83 0
-60 88 104 0
-4 18 94 0
2 -20 101 0
23 -58 77 0
8 13 -70 0
-10 43 95 0
-97 -110 -122 0
-60 -111 -124 0
-80 -107 -109 0
70 120 122 0
38 106 -111 0
10 -42 -56 0
65 -67 -72 0
31 97 120 0
-31 -54 -87 0
-20 -40 58 0
-6 51 86 0
-4 52 125 0
-3 51 -87 0
-19 -89 114 0
-4 -62 -83 0
-59 68 114 0
12 57 -68 0
-23 -58 -113 0
-35 -81 108 0
-8 -35 106 0
40 -54 109 0
98 -103 106 0
-9 69 -72 0
-26 66 -83 0
9 -97 -107 0
-27 54 -67 0
74 -101 108 0
79 120 -121 0
35 65 122 0
51 53 104 0
-11 -13 43 0
35 51 54 0
76 89 103 0
50 -78 -125 0
-12 40 -74 0
42 95 120 0
-74 -121 124 0
-84 95 117 0
45 -55 77 0
-50 67 -91 0
-73 -79 -89 0
-14 -102 -111 0
-58 62 100 0
23 -35 100 0
-53 -67 -77 0
7 -40 57 0
-30 38 -80 0
-2 21 22 0
-41 -59 -102 0
-2 -14 -42 0
35 -42 -54 0
8 -60 -79 0
51 -84 -114 0
-4 72 -89 0
-44 -77 -97 0
15 -91 -121 0
25 64 69 0
-19 -61 76 0
46 102 113 0
-85 97 -125 0
-52 74 81 0
-22 -81 -104 0
-24 -43 110 0
-19 -71 -74 0
-11 76 96 0
7 57 -62 0
38 -101 -113 0
-23 -52 82 0
8 -12 38 0
-35 82 93 0
-47 -54 89 0
94 -113 -119 0
-30 -71 77 0
82 -97 -98 0
36 -56 -63 0
-87 -104 108 0
-75 -122 125 0
7 -25 -92 0
-51 -112 114 0
-10 16 102 0
23 -106 -109 0
-38 -75 94 0
-22 59 -106 0
-47 -51 90 0
2 56 117 0
-42 -75 123 0
-35 -64 -90 0
-71 111 -119 0
7 72 100 0
-17 20 124 0
-37 60 75 0
18 105 120 0
-3 -75 82 0
-9 90 102 0
21 -47 -85 0
3 -14 -81 0
68 118 -123 0
-29 -51 -60 0
12 18 34 0
-7 -90 -101 0
79 115 -123 0
19 -111 -121 0
-9 76 -98 0
-4 22 -51 0
-30 -78 -85 0
26 -34 47 0
17 -89 97 0
-28 54 109 0
29 52 54 0
30 -50 60 0
-14 23 119 0
-69 114 117 0
-39 68 79 0
7 93 115 0
-29 -34 -66 0
-79 84 -89 0
47 48 87 0
6 -16 -72 0
38 55 -67 0
30 57 124 0
35 90 -120 0
25 59 101 0
-9 -24 63 0
8 18 -31 0
-49 -64 98 0
-11 -15 27 0
-46 -68 -89 0
18 25 101 0
-57 -104 124 0
-1 -54 62 0
7 -72 -84 0
59 -73 -113 0
-2 -8 78 0
2 -17 108 0
-14 56 -92 0
41 47 -112 0
57 -59 -77 0
-70 -78 -112 0
-21 -83 125 0
15 32 65 0
-11 -21 -22 0
-40 -64 92 0
18 -47 -94 0
-83 -85 -120 0
78 -95 108 0
77 89 -122 0
-6 85 96 0
14 39 -101 0
31 -52 -70 0
32 -116 -117 0
-17 -45 93 0
-24 -79 87 0
-20 -47 120 0
-15 -80 -121 0
-63 -86 121 0
9 50 -98 0
-10 -94 119 0
13 25 -114 0
9 -41 121 0
-31 44 52 0
-1 36 -70 0
-2 65 102 0
-46 69 -99 0
21 -33 -71 0
-34 89 104 0
47 -52 62 0
-80 93 119 0
-21 30 -34 0
2 5 -55 0
21 55 107 0
-3 -17 98 0
-42 -60 67 0
-18 -84 -113 0
64 77 94 0
-36 67 113 0
52 54 97 0
24 40 68 0
62 -70 -106 0
-6 -85 122 0
1 -36 -118 0
-29 46 64 0
-24 26 -78 0
-1 -6 10 0
-19 34 95 0
-23 -66 -117 0
-31 -86 120 0
-18 -32 33 0
11 -22 -68 0
-4 45 -76 0
-2 -48 125 0
51 -68 120 0
6 30 -53 0
-27 -43 65 0
12 -42 66 0
-34 35 -103 0
44 91 94 0
19 -48 69 0
27 53 -117 0
8 -87 111 0
-5 -11 57 0
6 18 27 0
-71 88 -98 0
-34 38 -81 0
-114 122 -124 0
34 -71 83 0
-23 -82 94 0
18 -55 76 0
-4 -6 -10 0
-47 -108 -119 0
-3 -93 -98 0
-26 54 108 0
25 -37 123 0
-10 -72 -83 0
-82 100 118 0
82 -112 118 0
13 48 109 0
16 29 -115 0
-5 -78 -79 0
-59 -62 76 0
20 69 -98 0
-2 4 104 0
71 86 91 0
20 -63 -93 0
-39 -115 -120 0
-54 103 106 0
-11 -79 -99 0
11 13 58 0
56 69 -88 0
6 86 -97 0
-21 69 -73 0
36 109 121 0
18 42 -47 0
-57 97 -107 0
13 18 -70 0
60 -85 -105 0
11 -14 -56 0
-33 -40 -98 0
-24 35 -54 0
-30 -77 -92 0
53 -68 -87 0
-60 66 -78 0
-30 52 72 0
