c F1 random 3-CNF cnfgen RandomKCNF(3,75,320,seed=4) m/n=4.26
p cnf 75 320
-14 -31 39 0
-3 -9 12 0
-29 -67 69 0
14 -28 -34 0
-22 -25 40 0
44 50 65 0
-12 36 -61 0
40 -66 -74 0
37 56 -58 0
6 -11 -34 0
-61 67 69 0
-9 -26 53 0
42 -46 56 0
8 30 -36 0
23 38 -59 0
11 -37 -42 0
20 -42 53 0
-18 -38 57 0
-2 43 -74 0
22 -38 47 0
15 27 55 0
-6 20 -22 0
-5 -16 68 0
-26 -31 -62 0
-5 29 -54 0
25 28 -64 0
32 33 -68 0
19 -34 42 0
-6 -52 73 0
27 -56 -74 0
41 -54 -61 0
-10 51 64 0
17 35 -51 0
-52 61 73 0
-2 21 -28 0
29 49 71 0
-43 61 72 0
-5 15 63 0
11 -47 -67 0
-10 -11 70 0
-30 -40 50 0
-10 -15 -47 0
-9 -26 39 0
22 48 72 0
-42 44 64 0
1 -16 -40 0
10 -67 -68 0
24 30 -46 0
-60 -70 -73 0
-19 -33 51 0
11 -19 -56 0
26 45 -74 0
-23 43 -48 0
-3 12 68 0
24 64 75 0
-29 39 -62 0
29 -40 -48 0
-41 -52 -65 0
-2 -24 -33 0
4 -20 -50 0
-12 34 -40 0
9 -20 31 0
-7 21 51 0
13 -21 27 0
-8 16 35 0
-11 17 54 0
20 -53 -65 0
9 49 -65 0
-51 -66 -69 0
-8 22 -50 0
3 20 39 0
2 -30 71 0
44 49 58 0
-40 46 61 0
-33 -40 75 0
14 -31 -41 0
11 -23 46 0
-5 10 -26 0
15 65 66 0
3 -5 36 0
-28 -32 -47 0
-5 -23 52 0
-39 66 -72 0
23 -28 -42 0
-36 -43 53 0
33 36 -66 0
-17 34 37 0
12 -28 33 0
2 44 59 0
13 -32 -67 0
20 73 75 0
24 -27 -34 0
21 22 47 0
-8 21 34 0
-18 -51 -62 0
5 52 56 0
29 -38 46 0
45 47 50 0
24 45 69 0
-16 -25 38 0
21 -40 -51 0
-1 45 -46 0
4 -28 -54 0
-7 11 72 0
24 31 -43 0
30 56 75 0
-24 -30 -37 0
-22 -45 -70 0
5 -69 70 0
16 61 64 0
18 -19 71 0
7 -20 70 0
36 -38 -61 0
-8 -18 68 0
-1 45 68 0
11 -55 56 0
11 23 26 0
-38 67 68 0
22 44 67 0
9 18 -56 0
36 44 66 0
-1 -6 -21 0
-20 -46 68 0
22 58 -62 0
43 -58 74 0
-27 -39 -41 0
22 41 -48 0
23 -25 57 0
1 6 67 0
-32 48 -51 0
38 -56 65 0
-8 13 -24 0
6 -21 -56 0
17 -45 -66 0
13 -49 -74 0
56 -71 74 0
12 50 58 0
13 -17 -37 0
-41 -45 -53 0
14 -44 -49 0
30 -48 -74 0
16 43 69 0
-30 -62 -67 0
-16 54 -69 0
36 46 -61 0
-20 34 -47 0
45 -50 -62 0
23 -24 -69 0
1 -6 17 0
41 -42 58 0
5 9 57 0
9 61 69 0
1 25 66 0
-42 -62 -65 0
17 -44 -74 0
8 -13 44 0
-7 -27 -32 0
-9 -11 -19 0
14 19 -22 0
-61 -68 -69 0
32 -33 -35 0
37 43 73 0
21 50 70 0
10 -70 72 0
11 59 -65 0
25 -26 -34 0
1 -35 -68 0
21 -44 63 0
5 22 -43 0
17 -42 -68 0
42 -47 -58 0
20 -34 -35 0
59 -63 -65 0
13 39 -70 0
-23 50 66 0
-29 32 41 0
-39 -59 -61 0
5 27 56 0
-43 64 68 0
-7 -48 52 0
-45 47 -57 0
-17 -18 61 0
-47 57 68 0
19 39 -66 0
5 36 -72 0
35 53 64 0
-18 36 -53 0
34 57 -70 0
-33 34 50 0
34 55 73 0
-13 36 -64 0
-56 60 -67 0
-23 -37 66 0
57 -67 -68 0
-34 60 -69 0
-48 60 71 0
-10 -30 -48 0
37 -54 65 0
37 -41 -50 0
26 -28 62 0
3 -9 -33 0
18 43 -47 0
-21 45 -48 0
-14 -66 -72 0
-17 24 -41 0
22 60 -74 0
17 -25 53 0
31 43 -70 0
-6 -13 55 0
13 37 57 0
12 41 68 0
-10 23 74 0
-35 -41 44 0
-15 -41 -65 0
-1 -8 67 0
-9 47 -68 0
-9 -54 -62 0
6 42 -73 0
-37 46 -75 0
-19 -28 54 0
28 -34 54 0
-10 15 -24 0
13 30 73 0
9 -22 35 0
11 -39 -73 0
-37 59 67 0
-50 -57 -59 0
25 -35 46 0
-25 -63 71 0
-29 48 -64 0
4 20 -71 0
51 -60 67 0
-9 20 25 0
-15 22 61 0
-19 -27 -66 0
3 -43 -49 0
-18 21 55 0
-13 -31 -34 0
24 -25 41 0
37 -47 -59 0
44 -56 -63 0
-3 -4 -17 0
-17 -29 -54 0
-27 30 70 0
26 -45 72 0
-18 35 54 0
2 -14 15 0
-17 27 39 0
-21 48 -73 0
37 -53 75 0
50 61 -68 0
35 63 73 0
9 -31 44 0
-53 57 -61 0
17 57 63 0
-13 -29 -51 0
-8 13 48 0
-44 61 64 0
-20 -45 -54 0
-51 54 66 0
13 -27 -58 0
7 -59 -66 0
-26 49 68 0
18 50 -68 0
7 -38 -64 0
-39 56 68 0
-4 23 31 0
-9 -62 -67 0
7 28 75 0
6 32 42 0
17 -44 -75 0
-7 -37 63 0
35 48 64 0
23 44 66 0
-6 -11 -20 0
-18 24 -70 0
-25 33 42 0
2 -15 52 0
9 -25 74 0
-36 -41 52 0
49 -56 65 0
17 -49 -64 0
19 56 -58 0
-9 11 47 0
-13 47 -48 0
-33 34 75 0
28 -65 74 0
19 -34 75 0
9 17 37 0
8 27 51 0
-20 -42 49 0
-7 20 -34 0
-7 69 -75 0
23 34 -55 0
50 61 -62 0
-5 -24 -52 0
24 45 -69 0
1 20 34 0
-40 63 -65 0
-21 42 -73 0
24 -65 -73 0
17 -21 73 0
-9 47 73 0
-42 43 54 0
-8 24 -43 0
-19 46 -72 0
13 18 29 0
-1 43 71 0
6 30 37 0
-7 20 -61 0
-54 70 72 0
33 -40 -68 0
-13 -44 58 0
2 -7 -57 0
26 -46 -47 0
22 36 -44 0
-13 -28 -58 0
-57 -62 -74 0
-3 40 -47 0
-7 16 -51 0
