c F1 random 3-CNF cnfgen RandomKCNF(3,225,959,seed=1) m/n=4.26
p cnf 225 959
35 -146 217 0
-116 -127 195 0
-8 -25 125 0
69 115 -179 0
6 -7 8 0
8 -109 -186 0
60 89 -142 0
6 75 -107 0
-31 86 -191 0
-73 128 -151 0
-63 -191 205 0
-94 141 -180 0
28 -131 -170 0
-8 126 -188 0
-158 181 218 0
4 59 -129 0
-89 -132 -217 0
141 -156 169 0
133 -144 200 0
94 -124 -223 0
-92 107 -209 0
8 118 154 0
-24 205 221 0
-5 22 -223 0
29 -64 -69 0
-18 41 -43 0
-76 -166 -183 0
-7 -30 -122 0
-49 108 -204 0
-54 131 187 0
5 38 -102 0
-130 174 -181 0
58 -135 -167 0
110 -162 169 0
-13 55 225 0
77 -80 -191 0
3 34 -144 0
44 -212 223 0
-26 53 -89 0
-27 -100 171 0
-84 -157 224 0
-41 52 -220 0
55 -69 -110 0
-137 176 215 0
11 22 186 0
-55 -69 -138 0
-30 87 -88 0
35 -142 149 0
19 98 -105 0
-30 151 158 0
-21 -69 145 0
28 -71 118 0
4 -158 172 0
11 203 -212 0
30 42 116 0
-27 -191 -217 0
-65 -141 183 0
54 82 167 0
-76 -186 -202 0
17 -81 -103 0
-29 -56 -65 0
-47 54 139 0
-21 93 -210 0
-24 148 -167 0
11 -79 -84 0
26 63 86 0
-6 63 -207 0
19 142 223 0
-75 -193 -203 0
40 -220 221 0
45 131 171 0
-82 211 -222 0
33 -37 53 0
46 77 111 0
-17 -65 -200 0
-113 139 -218 0
-44 -87 215 0
107 166 -204 0
36 149 -152 0
-71 102 213 0
2 -60 -125 0
164 176 -188 0
123 -127 -176 0
-144 157 187 0
-19 131 196 0
-77 -80 178 0
119 180 -189 0
-40 46 65 0
-101 -127 175 0
11 -140 187 0
22 69 -189 0
-62 -98 218 0
-33 84 113 0
-111 137 -154 0
64 72 -97 0
6 -8 149 0
38 -45 -73 0
-65 150 -194 0
108 126 -220 0
53 73 208 0
-4 146 192 0
-96 -129 -147 0
83 136 -195 0
-90 -116 -184 0
-175 188 -201 0
53 -98 143 0
-119 -154 214 0
116 -159 172 0
-100 -149 -174 0
150 -160 221 0
75 -164 167 0
-102 163 200 0
155 -199 -209 0
-106 182 -205 0
67 -125 214 0
-26 70 -131 0
18 114 169 0
-24 -103 177 0
-54 -61 136 0
-20 -179 213 0
-44 -77 168 0
101 -103 -144 0
85 -157 222 0
-8 -170 -217 0
-64 195 202 0
-43 161 -188 0
42 118 -135 0
-80 93 193 0
-53 175 184 0
-59 83 102 0
12 15 208 0
-127 -136 -181 0
31 157 178 0
-60 -103 127 0
-60 -61 -210 0
-55 -116 -184 0
29 55 152 0
-2 -205 -220 0
74 -149 218 0
166 195 212 0
38 -100 -225 0
-21 34 119 0
16 135 -138 0
31 111 200 0
-34 128 -164 0
-85 -100 162 0
16 -63 -151 0
144 -155 -179 0
-52 138 -183 0
157 -185 191 0
16 -25 39 0
-14 -24 164 0
11 -33 81 0
-102 182 -196 0
-24 65 -205 0
9 -99 -221 0
-34 67 -189 0
25 109 -216 0
-87 -131 201 0
-34 168 -209 0
-41 -52 -191 0
25 89 105 0
-77 -205 -209 0
-70 82 91 0
-39 -82 187 0
-72 -116 -123 0
21 149 209 0
-126 135 -148 0
-93 -165 -205 0
88 119 154 0
57 65 176 0
106 187 -197 0
-28 53 183 0
19 204 -219 0
-6 -95 152 0
52 -127 -154 0
94 -140 173 0
-66 209 216 0
-137 -192 198 0
-104 131 -158 0
2 -118 218 0
-31 -139 -211 0
-106 -135 -139 0
-34 78 130 0
-3 65 -163 0
73 103 108 0
-2 -99 -217 0
-96 -201 -204 0
-30 -117 206 0
5 -38 -107 0
-33 -151 -220 0
-74 -132 -190 0
86 -125 -199 0
24 109 184 0
39 59 -187 0
40 -123 199 0
-1 23 214 0
89 109 -137 0
172 -190 -214 0
46 123 207 0
-32 -100 -222 0
-30 101 156 0
99 158 -180 0
-107 -138 191 0
-160 -195 202 0
-3 -187 194 0
-113 139 161 0
70 -71 131 0
-34 50 66 0
-70 -72 -106 0
-55 -126 128 0
46 -87 156 0
15 84 -130 0
-123 127 160 0
36 66 179 0
45 145 176 0
-129 -146 -169 0
-2 6 199 0
-58 -72 -191 0
-6 32 85 0
37 -65 198 0
-24 -27 186 0
-13 69 136 0
36 96 -103 0
-3 71 -132 0
165 -203 -206 0
-24 -148 -174 0
-57 78 162 0
29 131 154 0
71 -112 -140 0
68 -122 136 0
-18 96 -191 0
34 115 175 0
-56 -174 -212 0
-40 -41 -75 0
-31 -38 154 0
3 -138 209 0
-8 -118 -200 0
-95 104 105 0
10 121 200 0
-36 -136 -151 0
122 206 210 0
92 144 224 0
-81 -109 181 0
-107 -112 -158 0
-88 194 209 0
15 88 -173 0
88 182 -194 0
54 -99 162 0
-26 64 -86 0
-95 121 -191 0
103 -113 -139 0
33 -39 -215 0
7 28 -205 0
-97 171 197 0
-28 135 -212 0
102 -163 208 0
-64 140 206 0
62 88 170 0
6 -97 150 0
11 133 204 0
102 120 -200 0
-23 25 144 0
-4 -6 -200 0
43 -107 -186 0
107 -129 -206 0
-52 -127 207 0
67 72 -146 0
-37 -67 -87 0
-72 99 145 0
34 58 65 0
110 140 -184 0
51 101 183 0
15 -171 -202 0
36 107 175 0
-36 98 -218 0
92 192 -215 0
-37 -90 182 0
77 -132 212 0
75 -205 -208 0
15 -66 159 0
34 162 -208 0
63 -151 163 0
-55 182 -210 0
1 184 -186 0
124 -140 170 0
43 -164 -172 0
-108 -170 -197 0
26 172 213 0
-12 117 -193 0
-138 187 211 0
20 -174 -192 0
45 -49 -153 0
51 -60 93 0
12 118 -214 0
12 -121 150 0
-103 -132 -204 0
-13 91 -121 0
-78 151 -192 0
-17 -156 -222 0
7 134 203 0
-26 86 -87 0
19 -125 -150 0
129 140 -208 0
38 55 -93 0
-82 -131 -222 0
-67 156 219 0
-64 -162 -197 0
147 159 202 0
22 -69 -106 0
-26 -54 61 0
78 132 -189 0
76 87 -221 0
94 205 -209 0
42 -107 192 0
30 51 -60 0
51 -118 -201 0
-86 158 186 0
4 -9 126 0
3 59 196 0
-52 -54 136 0
-96 -126 130 0
47 -50 -153 0
94 -122 158 0
-27 -161 -169 0
19 -108 -166 0
-154 -175 190 0
-69 -173 -214 0
4 -66 -80 0
-60 92 -131 0
86 -161 -179 0
-14 29 -165 0
139 -190 -193 0
-4 84 87 0
21 85 184 0
-76 -177 200 0
7 -165 -180 0
-76 97 108 0
60 105 156 0
-63 102 183 0
-77 185 -191 0
44 114 -128 0
-88 -112 142 0
-75 -150 166 0
80 -193 216 0
-57 -129 -223 0
14 60 201 0
13 18 75 0
109 184 188 0
-3 -9 138 0
3 -144 157 0
-69 76 149 0
16 -54 101 0
84 85 105 0
24 130 164 0
46 78 -207 0
38 -186 225 0
-12 -60 192 0
23 114 151 0
15 31 52 0
191 -202 -208 0
109 135 -224 0
-50 -84 -196 0
-169 -196 224 0
-63 -110 213 0
30 155 -167 0
-71 -78 -137 0
-91 -94 -117 0
5 -95 131 0
33 78 -146 0
39 161 166 0
65 -157 -209 0
-44 -71 220 0
-40 -110 141 0
-40 176 217 0
9 123 -137 0
-94 -130 -189 0
-31 48 -168 0
158 183 205 0
-78 -215 218 0
13 -93 198 0
25 -35 -51 0
37 -42 -59 0
-113 221 -224 0
51 -111 206 0
37 59 196 0
42 93 -125 0
22 61 -157 0
-51 165 168 0
56 81 -123 0
90 -128 144 0
-82 -131 171 0
87 -107 124 0
-166 169 220 0
-58 -81 -84 0
-4 107 -125 0
-13 30 -111 0
-92 -168 -197 0
45 -83 173 0
92 -102 -134 0
39 124 214 0
19 -21 -190 0
84 -134 -180 0
-4 99 -142 0
-14 -186 -216 0
-61 166 -177 0
92 195 224 0
-12 -114 214 0
123 126 146 0
42 -114 -168 0
32 68 -81 0
-34 47 -207 0
-118 120 -131 0
152 -202 216 0
-2 175 -209 0
98 -168 -183 0
-114 137 209 0
22 -28 185 0
-47 -102 114 0
-50 -151 -152 0
75 -90 199 0
8 199 225 0
-82 -115 218 0
-14 -100 -192 0
85 120 -130 0
-110 139 -222 0
36 38 90 0
117 167 225 0
14 -109 -117 0
-4 -72 -102 0
-78 -183 -190 0
75 193 -218 0
-40 47 115 0
-81 -82 -138 0
-144 -152 -205 0
101 177 211 0
52 138 -220 0
-16 -159 195 0
-89 93 -154 0
-58 81 102 0
90 100 167 0
-82 157 -211 0
-2 25 -112 0
29 -40 137 0
-84 97 112 0
41 43 138 0
114 -134 150 0
-86 156 218 0
45 92 -200 0
9 126 -152 0
-37 54 -145 0
-17 -90 190 0
51 119 136 0
78 -179 185 0
19 -28 -205 0
-27 -115 184 0
-96 -111 -166 0
95 112 141 0
38 61 -62 0
-117 158 201 0
45 209 -211 0
-72 202 219 0
-170 -178 -198 0
-13 150 -192 0
16 90 150 0
39 -112 207 0
-7 39 -74 0
-18 193 -204 0
129 140 -155 0
-140 155 -165 0
-123 -188 214 0
-18 54 152 0
28 51 91 0
61 -111 -132 0
-16 -147 -157 0
11 -161 -172 0
-57 -69 -113 0
15 -69 -137 0
76 -150 -152 0
-171 -178 -195 0
-57 162 193 0
38 -127 -211 0
-80 215 217 0
36 -117 -129 0
-84 146 187 0
-52 138 -198 0
-4 73 -166 0
-26 -29 176 0
-128 136 157 0
15 44 158 0
79 136 143 0
56 -59 -222 0
-35 69 158 0
68 153 -220 0
-73 -157 -216 0
18 208 216 0
-164 -194 -211 0
38 91 131 0
16 -94 -208 0
-56 57 -209 0
28 -123 -176 0
-68 199 204 0
98 -163 -177 0
7 138 -222 0
-26 76 -166 0
-26 63 64 0
-92 -128 -181 0
-7 194 -215 0
-16 -33 75 0
-52 -70 -154 0
131 -197 213 0
-138 144 183 0
-95 117 -198 0
-22 -36 206 0
123 -150 -185 0
198 206 -216 0
16 106 206 0
22 -76 117 0
18 -19 -212 0
-24 -79 -138 0
-44 197 -220 0
60 -64 -155 0
-83 138 -213 0
65 169 224 0
-22 -42 221 0
36 -43 -209 0
41 -55 181 0
-29 103 -203 0
-131 -167 204 0
18 19 -211 0
-143 183 212 0
111 118 139 0
-55 -63 -79 0
69 74 90 0
-161 200 219 0
-20 81 116 0
29 173 223 0
35 -160 163 0
-59 144 213 0
17 36 -58 0
-22 133 -148 0
-3 -72 -140 0
-104 -136 224 0
-47 123 195 0
7 -133 135 0
57 -82 -102 0
129 201 213 0
-106 -140 143 0
-50 -56 78 0
49 69 146 0
43 -54 -123 0
4 39 -206 0
45 -122 210 0
104 170 222 0
-87 -122 -130 0
150 -210 -220 0
92 -99 104 0
-47 176 223 0
-108 151 -225 0
29 -161 -166 0
24 -86 -132 0
-34 -43 -147 0
-63 126 -187 0
31 67 -74 0
132 161 -170 0
-21 -44 -190 0
-164 -199 209 0
22 126 145 0
-10 69 -72 0
-159 175 -184 0
61 -88 224 0
6 -113 132 0
-21 46 60 0
2 82 -117 0
-57 66 209 0
-155 -184 -216 0
-70 -110 131 0
-21 121 -214 0
42 -140 -214 0
-74 -124 -192 0
74 -97 142 0
6 -68 -219 0
-42 -68 198 0
41 124 211 0
15 29 99 0
-120 141 187 0
-14 70 -136 0
-29 -113 -153 0
75 100 -168 0
-90 -110 -144 0
39 -48 -220 0
-18 97 162 0
185 196 -216 0
60 92 -181 0
44 -192 -218 0
90 126 181 0
40 -64 -95 0
-70 -131 -151 0
21 88 -152 0
3 24 46 0
-50 -72 -185 0
-175 -179 221 0
102 119 -182 0
35 -155 176 0
75 -89 -198 0
-3 -150 196 0
-150 175 -209 0
32 104 -189 0
-45 90 196 0
-74 133 -207 0
-76 150 -186 0
106 -139 152 0
101 117 -148 0
67 -101 126 0
-69 -163 216 0
3 -31 66 0
62 120 201 0
21 28 209 0
12 -65 107 0
-13 205 216 0
126 -138 -147 0
132 -203 212 0
162 193 -207 0
23 26 -116 0
-79 -141 -152 0
31 -166 208 0
129 -131 -191 0
25 -111 208 0
65 -96 195 0
58 143 -158 0
-33 -92 -165 0
-29 113 -160 0
82 132 184 0
-62 -189 -215 0
1 -126 -224 0
-24 133 205 0
28 104 -110 0
133 171 211 0
-70 -94 -215 0
39 146 -194 0
124 -153 200 0
45 -205 215 0
-19 -110 177 0
-2 -28 -101 0
-88 -151 -203 0
91 -158 198 0
-89 121 157 0
14 136 -153 0
-76 109 218 0
40 -102 -188 0
26 -105 127 0
80 -143 -168 0
-36 -65 202 0
-86 112 -134 0
-11 -80 -129 0
-41 -68 75 0
-67 -100 173 0
11 -24 99 0
79 -134 191 0
-159 161 180 0
-62 -89 160 0
-9 22 -134 0
-7 44 -207 0
43 75 -162 0
100 -139 -223 0
-13 -59 -112 0
53 -149 -154 0
46 -168 222 0
-108 164 -206 0
1 -73 200 0
-47 -65 -159 0
26 -77 202 0
66 141 210 0
103 -142 173 0
88 -98 187 0
52 154 -179 0
136 146 -185 0
5 -172 175 0
-14 -190 200 0
-24 -41 -57 0
-50 -130 153 0
-75 159 -172 0
-93 149 186 0
6 138 -170 0
44 83 189 0
-57 -100 156 0
67 97 163 0
-112 -128 -185 0
92 -200 -220 0
-68 205 -220 0
16 -37 100 0
-54 -127 199 0
69 -87 -216 0
-111 -209 -224 0
-50 -190 -195 0
21 -25 -187 0
-110 146 -181 0
14 112 156 0
-123 177 220 0
-25 -57 -159 0
198 -208 -222 0
10 48 145 0
31 71 -143 0
74 213 -214 0
38 169 174 0
69 108 151 0
-42 155 -196 0
126 139 -218 0
19 53 63 0
157 -158 180 0
-193 198 -219 0
-46 -72 136 0
33 -142 -151 0
-58 -95 114 0
-13 -14 197 0
-120 -170 185 0
-52 -118 140 0
-33 57 156 0
-59 168 -217 0
-16 127 184 0
77 -80 192 0
-84 117 195 0
-14 44 130 0
-125 -127 132 0
-153 -166 171 0
3 133 -144 0
-10 35 -217 0
-37 38 65 0
-19 -99 179 0
10 -105 136 0
-44 -51 -61 0
206 212 -215 0
32 146 -198 0
23 -136 204 0
36 105 -185 0
-92 171 -191 0
119 -206 -216 0
-3 -55 73 0
-25 -115 204 0
77 -167 -189 0
11 14 -55 0
-10 -84 183 0
64 164 -184 0
-70 89 -207 0
-29 79 178 0
-112 133 150 0
-39 200 -207 0
20 154 217 0
-36 103 157 0
36 156 177 0
-70 72 153 0
3 -180 -214 0
80 -102 -183 0
-93 -194 -201 0
48 -69 122 0
-14 178 218 0
21 119 153 0
-101 183 -207 0
47 56 -186 0
23 32 -89 0
-138 144 -204 0
43 92 -147 0
-48 176 -220 0
17 -56 -111 0
-95 -101 215 0
-49 -89 106 0
3 -85 -115 0
36 -172 174 0
-42 149 216 0
69 151 -164 0
-64 120 146 0
-93 -127 207 0
34 -112 -145 0
-17 152 186 0
49 -53 181 0
-62 -135 182 0
1 61 201 0
24 141 -221 0
59 86 -93 0
92 106 -225 0
-10 -163 -188 0
-173 -190 -221 0
76 124 173 0
19 54 109 0
-19 55 -121 0
-74 120 -221 0
22 97 -188 0
116 -160 -185 0
-48 -156 -165 0
57 -64 -127 0
-122 127 219 0
-55 115 -177 0
16 -187 -214 0
37 96 135 0
-55 -150 -199 0
-6 -35 -122 0
94 -112 183 0
-119 -148 -172 0
-71 73 223 0
-84 115 -175 0
-40 41 -64 0
-8 -173 216 0
19 -22 -35 0
-57 -75 204 0
-31 -39 -73 0
108 142 177 0
-43 -133 198 0
-15 -92 166 0
79 -116 -206 0
-55 -144 161 0
74 87 131 0
-34 -83 99 0
-7 75 194 0
-108 139 -212 0
28 -32 224 0
-55 128 -222 0
-121 139 223 0
-33 65 -121 0
-116 133 142 0
40 90 -109 0
-29 93 152 0
41 -82 155 0
-54 192 -203 0
-119 -145 -209 0
-134 164 198 0
1 45 79 0
35 -199 220 0
-22 -125 -130 0
-130 -140 -166 0
33 -123 172 0
71 -157 201 0
40 -100 114 0
-40 -74 171 0
154 -163 205 0
1 19 220 0
-34 221 225 0
-87 -111 220 0
-41 176 -212 0
-30 109 116 0
-15 38 170 0
18 -172 223 0
-84 -180 206 0
-12 14 116 0
7 -81 160 0
-60 -66 201 0
20 34 74 0
45 -174 197 0
-1 51 -209 0
-21 25 -209 0
77 -207 212 0
77 -137 212 0
-54 -196 198 0
-8 102 -208 0
95 121 -178 0
141 220 224 0
111 -179 -192 0
13 -59 63 0
-11 -55 -179 0
-114 -116 -210 0
-11 53 175 0
107 -195 202 0
2 214 -223 0
-50 -78 209 0
8 -174 -213 0
47 171 -205 0
-40 -178 -187 0
176 200 -215 0
16 22 -62 0
-36 -97 192 0
-10 -141 -219 0
-96 -180 191 0
-30 -100 219 0
-172 -195 216 0
-82 -126 214 0
-11 -44 131 0
52 81 -190 0
65 108 -145 0
62 -72 -180 0
5 38 -79 0
-10 120 -130 0
-28 -177 -208 0
-28 -137 168 0
68 -154 -221 0
8 84 130 0
25 -81 -190 0
37 -134 200 0
94 -110 -161 0
-84 -157 175 0
5 35 -136 0
38 123 -132 0
-12 -20 -195 0
-93 -95 -186 0
-95 -113 122 0
-34 -180 -205 0
110 -121 -148 0
-34 89 -127 0
39 -217 225 0
-142 145 -175 0
-78 105 161 0
-123 168 -220 0
-101 125 -185 0
65 -125 136 0
53 98 -189 0
-37 121 -161 0
40 216 -218 0
-86 -165 -190 0
10 21 -112 0
75 -104 -208 0
-90 -114 222 0
-9 96 173 0
-155 188 -209 0
-29 -86 -103 0
37 96 -127 0
-2 81 114 0
-39 53 -81 0
57 89 -166 0
-71 -172 -204 0
94 109 -110 0
-15 -27 -84 0
-18 -37 -52 0
82 -120 -140 0
140 187 -215 0
-24 38 -191 0
56 143 188 0
-21 26 -213 0
102 -107 -175 0
-77 -191 -200 0
140 -156 -160 0
-28 -100 221 0
12 68 169 0
2 84 -87 0
-5 -113 159 0
102 174 224 0
-62 -130 -224 0
33 74 157 0
38 151 195 0
-55 -126 -214 0
110 -136 163 0
-98 182 -213 0
28 -132 -207 0
-34 -120 134 0
189 -192 -225 0
-94 -108 -114 0
8 -138 -216 0
27 -60 196 0
-46 178 184 0
38 118 -190 0
-122 178 194 0
-12 -75 -167 0
-3 -63 211 0
47 -51 79 0
-101 161 -205 0
-24 -102 175 0
1 -203 214 0
-39 -73 -99 0
1 214 -225 0
2 55 -161 0
57 73 135 0
46 -52 219 0
