c F1 random 3-CNF cnfgen RandomKCNF(3,175,746,seed=6) m/n=4.26
p cnf 175 746
-21 125 147 0
-38 -151 -170 0
6 -70 126 0
-50 142 -145 0
-24 -86 -93 0
-25 51 163 0
-52 -151 168 0
132 -148 166 0
-78 111 155 0
129 135 -174 0
-51 80 98 0
54 134 153 0
-5 -86 -166 0
75 -100 136 0
-48 109 -153 0
-23 -63 -155 0
-20 -110 -133 0
-22 -50 -175 0
5 -6 -45 0
-49 -66 -129 0
-106 -108 -157 0
123 -126 -169 0
-79 -120 163 0
-97 -155 -159 0
41 -75 125 0
8 -47 -157 0
16 128 -151 0
-4 109 -158 0
-26 60 95 0
37 82 156 0
-12 123 166 0
33 142 -158 0
116 128 168 0
-113 -115 123 0
-74 75 94 0
-71 -72 -129 0
9 96 114 0
-9 -45 138 0
-14 54 111 0
30 -103 -174 0
20 -33 164 0
39 -48 135 0
100 130 146 0
42 82 -108 0
-49 84 -98 0
136 142 -170 0
48 70 171 0
16 20 -99 0
16 -30 167 0
-16 58 -139 0
20 24 -121 0
29 31 -46 0
-66 74 167 0
138 -166 168 0
66 85 -135 0
30 -58 -94 0
14 89 112 0
18 -87 -125 0
-23 152 174 0
33 108 -140 0
-110 -145 -153 0
9 -36 77 0
28 46 148 0
-39 -101 -152 0
56 -100 165 0
-65 87 -107 0
-95 151 174 0
-22 46 79 0
50 98 106 0
-125 -134 -135 0
70 -167 170 0
11 29 151 0
23 -32 -171 0
41 45 63 0
118 123 -160 0
51 -96 -147 0
1 18 -71 0
82 117 -162 0
-26 99 -160 0
-37 -38 95 0
-27 -39 137 0
-33 -142 174 0
31 103 -123 0
-66 -85 -139 0
12 116 -143 0
66 138 -143 0
-4 54 147 0
-15 -70 72 0
1 -44 153 0
47 -90 -123 0
92 141 -160 0
14 -150 -159 0
-15 -57 -164 0
-77 -93 164 0
107 -140 165 0
82 130 167 0
16 111 -113 0
-1 -17 -91 0
100 104 -152 0
-66 115 127 0
-14 132 139 0
76 165 -167 0
31 -35 -144 0
-18 55 126 0
7 -26 -40 0
-122 -147 -157 0
50 117 158 0
36 -101 -172 0
71 145 166 0
63 102 -105 0
-94 -128 -166 0
-78 93 -135 0
-47 -151 -164 0
27 -62 -118 0
84 -120 -174 0
4 -28 -125 0
-7 -16 164 0
46 -123 137 0
8 -89 -167 0
-1 -93 -99 0
45 91 127 0
-2 8 -12 0
84 121 -124 0
29 37 -55 0
-57 -92 107 0
72 95 164 0
52 -103 136 0
20 21 164 0
-124 133 -146 0
-3 54 -57 0
2 -39 154 0
56 -104 -132 0
23 111 153 0
-73 -108 162 0
-51 56 -113 0
-13 -93 -167 0
-92 -104 111 0
-153 155 -168 0
45 129 162 0
-58 66 137 0
15 -79 -140 0
32 -83 90 0
-34 -70 150 0
-136 154 165 0
63 79 160 0
-7 -111 158 0
98 105 148 0
144 156 -168 0
-44 -46 -66 0
41 58 -145 0
15 -21 -30 0
71 -104 -115 0
-84 115 164 0
-24 109 -170 0
86 149 157 0
-26 49 53 0
48 92 -164 0
2 73 -114 0
-1 -4 41 0
-38 97 -114 0
-30 -56 164 0
-56 76 -145 0
-58 -85 -163 0
-103 -111 -164 0
-30 -52 151 0
60 90 131 0
-4 41 -130 0
12 33 -50 0
44 55 57 0
83 102 -167 0
-41 141 -169 0
-14 -72 -145 0
156 -163 -165 0
-1 38 55 0
-1 -146 161 0
-52 -89 141 0
-31 -50 65 0
85 93 -172 0
32 45 67 0
-4 20 82 0
64 71 -77 0
70 136 148 0
-30 -62 -120 0
34 86 -134 0
-11 57 -63 0
86 -90 162 0
30 43 81 0
22 -46 124 0
114 117 -143 0
-3 -81 141 0
18 -102 108 0
5 15 120 0
18 43 -56 0
24 -64 163 0
28 -121 160 0
-29 -48 144 0
84 153 -155 0
11 87 141 0
-27 32 -90 0
-34 75 138 0
3 46 -60 0
-112 150 -163 0
20 -72 -140 0
-56 -96 -142 0
-31 99 -174 0
-6 -45 -105 0
4 -74 109 0
1 -58 123 0
-61 -109 -115 0
51 54 138 0
-131 156 164 0
-95 127 -167 0
22 40 -63 0
53 -80 104 0
-128 139 -168 0
12 58 132 0
-71 109 110 0
-28 119 -158 0
116 -132 -143 0
50 -73 174 0
73 -78 80 0
-12 -65 -86 0
-35 60 73 0
-17 -19 -172 0
-22 41 165 0
3 108 -168 0
-75 129 -138 0
4 101 -144 0
-2 6 152 0
-34 117 174 0
39 124 128 0
31 108 152 0
50 101 -148 0
-15 27 155 0
-60 77 -133 0
29 77 128 0
79 -88 -155 0
47 -98 111 0
109 -137 166 0
-12 -35 -95 0
44 87 -116 0
85 -92 -118 0
-49 108 -141 0
-99 168 171 0
16 35 -122 0
-3 -78 171 0
97 -145 -157 0
-19 90 -148 0
-21 37 56 0
14 173 -174 0
-50 -79 140 0
18 -43 -90 0
-16 41 -56 0
-24 54 59 0
-23 80 87 0
-29 46 136 0
4 44 116 0
-19 106 -120 0
-43 91 -159 0
-20 -88 -174 0
23 -109 -155 0
-59 113 160 0
-52 147 165 0
100 151 -171 0
10 -24 -162 0
18 29 167 0
1 -77 168 0
1 -24 -152 0
13 64 -69 0
104 117 -137 0
8 -159 -162 0
-52 -74 -130 0
88 147 168 0
61 -72 -175 0
-51 69 129 0
-58 -65 -66 0
17 40 -141 0
-41 -130 132 0
38 107 -120 0
4 -87 -131 0
25 -77 -131 0
-20 75 90 0
87 145 -174 0
10 -91 97 0
-63 106 136 0
44 93 -100 0
4 -59 -163 0
103 139 -163 0
26 42 -141 0
21 98 -105 0
24 -86 162 0
-70 92 -131 0
74 -110 -146 0
19 70 -86 0
-79 -141 150 0
-112 120 -127 0
66 149 -170 0
-1 72 -118 0
-13 80 166 0
24 -79 -160 0
-24 -126 166 0
41 -86 -95 0
-84 -85 94 0
14 43 65 0
23 -135 -149 0
35 -84 114 0
-41 143 153 0
48 55 -128 0
-56 -64 -143 0
-36 -46 -70 0
25 57 140 0
2 -80 -88 0
-78 121 151 0
-41 44 64 0
-33 -66 92 0
4 -16 153 0
123 153 171 0
39 49 -59 0
43 -47 144 0
62 -114 -124 0
-37 57 -105 0
25 55 -174 0
37 81 -122 0
40 -70 -83 0
44 -79 163 0
-28 31 127 0
7 -151 -152 0
-31 34 -161 0
73 127 -129 0
15 23 101 0
-23 72 -110 0
11 -81 147 0
-89 152 -153 0
14 -79 -150 0
-106 -114 -173 0
94 -134 144 0
31 43 60 0
49 75 83 0
66 151 -157 0
57 88 -139 0
4 132 167 0
15 72 -108 0
56 114 155 0
-97 -153 -157 0
-31 -159 167 0
-19 90 174 0
34 83 -175 0
-13 -65 -67 0
-78 -141 -155 0
21 97 103 0
-23 -79 116 0
9 39 145 0
-57 61 -83 0
63 -140 -170 0
1 117 142 0
-21 46 137 0
-64 107 -140 0
-28 -46 -171 0
-97 99 162 0
2 27 -75 0
-40 -84 153 0
47 -92 102 0
-44 53 -145 0
54 -117 165 0
34 67 -85 0
97 -148 162 0
-12 81 172 0
23 45 172 0
-82 -119 -134 0
13 -23 152 0
-67 -171 -174 0
-79 88 -169 0
-8 26 35 0
20 -133 -139 0
30 -129 165 0
-79 150 -159 0
102 103 -104 0
-91 -135 -162 0
15 31 -111 0
54 -73 94 0
30 -74 115 0
29 -63 114 0
113 -119 132 0
-49 107 140 0
-11 -64 92 0
79 114 128 0
35 -142 167 0
14 44 83 0
-42 43 -58 0
38 84 -139 0
-1 -35 136 0
-34 -75 -110 0
-92 -138 174 0
-5 -96 -147 0
-8 49 55 0
28 126 -142 0
96 -118 169 0
63 109 144 0
-19 -58 -171 0
-25 131 -171 0
-47 -69 -168 0
-25 67 146 0
3 -55 -141 0
-46 -123 135 0
21 -117 162 0
32 -99 107 0
-40 86 -110 0
6 40 91 0
-18 -149 -173 0
-34 -112 132 0
-101 -119 -138 0
-47 -91 -97 0
-62 109 142 0
-108 -138 -174 0
-65 -84 95 0
29 142 -154 0
-92 -106 169 0
18 80 113 0
-56 69 168 0
-16 -111 -165 0
2 27 -88 0
-78 156 -164 0
-2 -50 126 0
-18 139 -166 0
12 35 -136 0
-67 164 173 0
38 -89 -124 0
-136 -143 144 0
-16 -119 129 0
51 -159 -161 0
-21 -24 132 0
-80 138 -146 0
-21 48 52 0
-35 71 107 0
-67 91 -104 0
-77 -129 148 0
-51 -59 60 0
40 -95 -167 0
-121 -123 -137 0
93 -119 -148 0
35 -46 -102 0
8 -27 122 0
29 120 159 0
19 -58 70 0
-3 21 174 0
12 18 -134 0
-10 106 161 0
-20 61 128 0
52 106 -140 0
-12 -122 155 0
-31 77 127 0
7 -10 147 0
-13 54 -63 0
-7 144 -174 0
-93 103 139 0
7 -12 -169 0
-115 -126 129 0
23 -73 -110 0
26 -81 172 0
-24 -83 168 0
76 -150 172 0
15 -50 -132 0
48 105 -158 0
24 -81 153 0
15 -98 113 0
96 113 153 0
-20 -45 -106 0
-25 -54 -127 0
34 59 -75 0
72 130 138 0
-32 -43 102 0
93 -149 172 0
44 46 52 0
-29 -69 79 0
-5 -23 167 0
7 -14 118 0
74 95 -152 0
-21 -115 -140 0
-30 -54 57 0
-12 125 172 0
-105 -171 174 0
5 103 -139 0
-39 -97 154 0
-30 -115 -128 0
80 -84 89 0
14 40 156 0
-28 -92 -147 0
126 -130 -141 0
-34 -96 103 0
-12 86 114 0
122 167 -174 0
-17 -100 -169 0
-71 -143 -150 0
10 -139 -168 0
13 19 -32 0
55 -104 115 0
-23 -56 70 0
-30 -62 170 0
4 -95 175 0
-5 -112 146 0
-4 -69 -81 0
39 -99 152 0
78 -137 160 0
-71 -158 171 0
6 -14 -169 0
-11 -31 60 0
-34 -48 50 0
-73 -106 -168 0
-48 -117 -171 0
97 -110 -167 0
3 76 -90 0
51 -71 -132 0
76 -167 175 0
115 -158 -173 0
-83 105 -119 0
7 84 -161 0
-135 -163 173 0
91 124 141 0
-14 78 133 0
-6 7 -65 0
28 -84 162 0
110 117 172 0
62 -138 -157 0
1 -39 107 0
80 81 -83 0
-19 119 129 0
58 -80 96 0
-32 106 115 0
9 20 114 0
31 -81 -129 0
38 141 165 0
6 52 -139 0
55 116 145 0
18 -45 -170 0
-55 -56 -147 0
-109 139 149 0
71 -80 116 0
-97 106 -146 0
-13 26 -168 0
-3 55 -119 0
36 40 165 0
63 -84 174 0
81 -123 161 0
20 60 119 0
-56 -66 123 0
-37 -70 -166 0
51 -86 136 0
-98 -104 156 0
-7 -49 65 0
52 -74 132 0
-27 -39 -70 0
8 58 139 0
56 146 -169 0
-31 111 -142 0
-116 121 167 0
126 158 -161 0
2 71 96 0
14 41 -148 0
-45 132 -171 0
44 -150 175 0
40 53 120 0
23 142 -173 0
79 -122 140 0
141 157 163 0
121 140 -174 0
21 -151 -156 0
-37 57 -126 0
37 -109 115 0
-20 -74 -112 0
-7 -124 -134 0
-16 49 126 0
27 47 -49 0
17 -33 -71 0
-18 -47 54 0
-1 61 -154 0
66 112 170 0
104 112 170 0
-3 110 138 0
-9 56 70 0
24 25 133 0
-8 34 -146 0
-23 -99 -154 0
-8 107 -168 0
5 136 -144 0
-41 -84 -89 0
-111 -146 -162 0
-60 126 -167 0
-5 34 116 0
-38 61 170 0
134 -144 -168 0
41 -94 -130 0
-12 128 165 0
16 41 -83 0
2 27 -158 0
57 -76 -129 0
13 -62 72 0
-73 126 167 0
91 -122 136 0
-52 133 152 0
-43 -87 137 0
1 41 -169 0
-79 -124 166 0
16 65 67 0
108 158 162 0
13 103 169 0
90 104 -135 0
41 -90 135 0
-21 -92 -137 0
-14 23 -86 0
-30 52 55 0
-137 -138 170 0
26 98 -118 0
-36 -103 -173 0
-27 76 116 0
-57 59 -128 0
20 64 122 0
131 148 166 0
-32 -114 132 0
-52 56 98 0
31 98 -141 0
37 49 -56 0
-18 116 -146 0
-67 81 -140 0
54 86 138 0
-66 -97 113 0
22 59 -123 0
-39 -50 -91 0
-40 -138 141 0
57 -108 148 0
3 -68 -114 0
66 -114 140 0
118 120 127 0
-38 -72 -95 0
4 126 155 0
7 82 -131 0
-96 101 118 0
-50 58 -130 0
41 61 158 0
-8 -47 77 0
-23 87 94 0
-57 -150 -164 0
-70 -116 -148 0
-8 86 134 0
-33 75 89 0
-19 -32 -50 0
8 -28 81 0
1 -80 167 0
-48 88 140 0
79 -126 128 0
30 -84 153 0
-66 -95 -105 0
128 139 149 0
-8 -145 -168 0
-81 -84 -174 0
26 -109 -159 0
-122 137 -164 0
-93 111 -133 0
-25 -140 161 0
31 53 152 0
52 135 -170 0
69 -149 175 0
54 -75 154 0
-61 126 -146 0
-35 -80 -152 0
26 45 104 0
99 -145 -162 0
21 27 -108 0
28 113 -160 0
-6 69 101 0
-3 -20 128 0
64 124 -164 0
8 -74 -114 0
-11 -78 121 0
48 57 -150 0
-47 -49 -173 0
14 -67 -166 0
2 -76 136 0
64 -86 -138 0
-101 104 -155 0
-82 112 113 0
3 20 167 0
-75 -101 136 0
-38 -150 173 0
-10 -14 144 0
-45 -161 169 0
-18 126 163 0
-101 -130 -170 0
-34 78 143 0
-19 -86 -98 0
26 70 170 0
38 -101 -136 0
-122 -160 -175 0
44 69 -150 0
-6 -123 -126 0
-108 -163 -172 0
25 -134 -170 0
-77 124 -154 0
37 98 137 0
5 17 -49 0
-92 118 158 0
43 101 115 0
25 89 134 0
21 -108 -124 0
-4 16 55 0
55 -98 154 0
-110 112 -147 0
81 -126 -163 0
3 77 108 0
-21 102 118 0
-2 164 -165 0
-4 82 -85 0
21 -50 -138 0
17 100 167 0
19 82 166 0
-47 60 115 0
52 113 -172 0
-18 -70 78 0
32 -53 -67 0
-38 -75 -151 0
109 124 139 0
9 10 143 0
-26 34 -121 0
62 96 -107 0
-115 -144 145 0
-103 112 128 0
37 43 105 0
-38 -106 -147 0
28 68 -121 0
12 99 168 0
-23 50 -133 0
-9 -25 145 0
42 62 130 0
38 110 -125 0
-6 32 141 0
-75 116 -132 0
-22 -44 -45 0
-3 74 -150 0
3 32 -99 0
22 27 148 0
-47 100 -174 0
21 156 175 0
16 -68 104 0
-11 -81 167 0
22 113 -168 0
11 -108 171 0
11 -103 165 0
