c F1 random 3-CNF cnfgen RandomKCNF(3,150,639,seed=4) m/n=4.26
p cnf 150 639
-27 -61 78 0
-6 -18 24 0
-57 -134 138 0
28 -55 -68 0
-43 -50 80 0
87 100 130 0
-23 72 -122 0
80 -131 -147 0
74 111 -116 0
12 -21 -67 0
-121 133 137 0
-18 -52 106 0
83 -92 112 0
16 59 -72 0
46 75 -118 0
22 -74 -84 0
40 -83 106 0
-35 -75 114 0
-3 85 -147 0
-44 93 -94 0
30 54 109 0
-11 39 -44 0
-10 -32 136 0
-52 -62 -123 0
-10 57 -108 0
49 56 -128 0
63 65 -135 0
37 -67 84 0
-11 -104 146 0
54 -111 -147 0
81 -108 -121 0
-20 101 128 0
33 69 -102 0
-104 121 146 0
-4 41 -55 0
57 98 141 0
-85 121 144 0
-9 29 126 0
21 -93 -134 0
-20 -22 140 0
-60 -80 100 0
-20 -30 -94 0
-18 -51 78 0
43 96 143 0
-84 87 127 0
2 -31 -80 0
20 -134 -135 0
47 59 -92 0
-120 -140 -146 0
-37 -65 101 0
22 -37 -111 0
51 90 -148 0
-46 85 -96 0
-6 23 135 0
47 127 150 0
-57 78 -123 0
57 -80 -95 0
-81 -103 -130 0
-4 -48 -65 0
8 -40 -100 0
-24 67 -80 0
17 -39 62 0
-13 42 102 0
25 -41 53 0
-16 32 70 0
-21 34 107 0
40 -106 -129 0
18 97 -130 0
-101 -132 -138 0
-16 44 -100 0
5 40 78 0
4 -60 142 0
87 98 116 0
-79 92 122 0
-66 -79 149 0
27 -61 -81 0
21 -46 91 0
-10 19 -52 0
30 130 131 0
5 -9 71 0
-55 -64 -93 0
-9 -45 104 0
-77 131 -144 0
45 -55 -83 0
-71 -85 105 0
66 72 -131 0
-34 68 74 0
24 -55 65 0
3 88 117 0
25 -63 -133 0
39 146 149 0
47 -53 -68 0
42 44 94 0
-15 42 68 0
-36 -101 -123 0
10 104 111 0
57 -76 92 0
89 94 99 0
48 90 137 0
-31 -49 76 0
42 -79 -101 0
-2 90 -92 0
8 -55 -108 0
-14 21 143 0
47 62 -86 0
60 112 150 0
-47 -60 -74 0
-44 -89 -140 0
9 -138 140 0
31 121 127 0
36 -37 142 0
13 -39 140 0
72 -76 -122 0
-16 -36 136 0
-1 89 136 0
21 -109 111 0
45 51 52 0
-1 75 134 0
44 87 134 0
17 36 -112 0
71 87 132 0
-2 -12 -41 0
-40 -92 135 0
44 116 -124 0
86 -116 147 0
-54 -77 -81 0
43 81 -95 0
46 -50 113 0
2 12 134 0
-63 96 -101 0
75 -111 130 0
-15 25 -48 0
12 -42 -112 0
34 -90 -131 0
25 -97 -147 0
111 -142 147 0
23 100 115 0
26 -33 -74 0
-82 -90 -105 0
27 -88 -97 0
59 -95 -148 0
32 86 137 0
-60 -123 -133 0
-32 107 -137 0
72 92 -121 0
-40 68 -93 0
90 -99 -123 0
46 -48 -138 0
1 -12 34 0
81 -84 116 0
10 17 113 0
17 122 138 0
2 50 132 0
-84 -124 -129 0
34 -87 -148 0
15 -25 87 0
-13 -53 -64 0
-18 -22 -38 0
28 37 -44 0
-121 -135 -137 0
64 -65 -70 0
74 86 145 0
42 100 140 0
19 -139 144 0
21 118 -130 0
49 -51 -68 0
2 -70 -136 0
42 -88 126 0
43 44 86 0
-120 136 138 0
-94 -132 -149 0
-20 -84 -118 0
-29 -40 -66 0
22 -69 96 0
41 -99 -131 0
9 46 -82 0
-43 -49 -137 0
-70 86 100 0
15 142 -147 0
15 -66 86 0
96 -103 -108 0
94 -102 148 0
-36 105 -121 0
93 95 136 0
40 -78 132 0
-1 -52 -72 0
8 43 -128 0
71 -116 -143 0
44 -113 -139 0
-66 67 100 0
68 110 145 0
-26 71 -127 0
-112 120 -134 0
-45 -74 132 0
113 -133 -135 0
-67 120 -137 0
-96 119 141 0
-20 -60 -95 0
74 -107 130 0
73 -81 -100 0
52 -55 123 0
5 -17 -66 0
36 85 -94 0
-42 89 -95 0
-28 -131 -143 0
-33 48 -82 0
43 119 -147 0
34 -49 105 0
62 86 -140 0
-11 -26 110 0
25 74 113 0
24 81 136 0
-19 46 148 0
-70 -81 87 0
-29 -81 -129 0
-2 -15 134 0
-17 93 -135 0
-18 -107 -124 0
12 83 -145 0
-74 91 -149 0
-38 -56 108 0
55 -68 108 0
-20 30 -47 0
26 59 146 0
18 -43 69 0
21 -77 -145 0
-74 117 134 0
-99 -114 -117 0
50 -70 92 0
-50 -125 142 0
-57 95 -127 0
7 39 -141 0
102 -120 134 0
-17 39 49 0
-30 44 121 0
-38 -54 -131 0
6 -85 -98 0
-35 41 110 0
-25 -61 -67 0
48 -50 81 0
73 -93 -117 0
87 -112 -125 0
-5 -7 -33 0
-34 -57 -108 0
-54 60 140 0
52 -90 143 0
-35 69 108 0
3 -27 30 0
-34 54 77 0
-41 95 -145 0
74 -105 149 0
100 121 -135 0
70 126 145 0
17 -61 88 0
-105 114 -122 0
34 114 126 0
-25 -58 -101 0
-15 26 95 0
-87 122 127 0
-40 -90 -108 0
-101 107 131 0
26 -53 -115 0
13 -118 -132 0
-51 97 136 0
36 99 -135 0
14 -75 -127 0
-77 112 135 0
-7 45 61 0
-17 -124 -134 0
14 55 150 0
11 63 83 0
33 -88 -150 0
-14 -73 125 0
69 95 127 0
46 88 131 0
-11 -21 -39 0
-36 47 -140 0
-50 66 83 0
3 -30 103 0
17 -49 50 0
-72 -81 104 0
97 -111 130 0
33 -97 -128 0
37 111 -116 0
-17 21 94 0
-26 94 -96 0
-65 66 68 0
55 -130 148 0
37 -68 149 0
17 34 73 0
15 53 101 0
-40 -84 97 0
-13 39 -67 0
-13 138 -149 0
46 67 -109 0
99 121 -124 0
-10 -47 -103 0
47 89 -138 0
2 40 68 0
-80 125 -129 0
-41 83 -146 0
48 -130 -145 0
34 -42 146 0
-18 94 145 0
-84 86 107 0
-15 47 -86 0
-37 92 -143 0
26 35 58 0
-1 85 141 0
12 60 73 0
-14 40 -121 0
-107 139 143 0
66 -80 -136 0
-26 -87 116 0
4 -14 -114 0
52 -91 -93 0
44 71 -87 0
-26 -56 -116 0
-114 -124 -148 0
-5 79 -93 0
-13 32 -101 0
78 116 118 0
70 73 92 0
1 30 -89 0
57 -101 149 0
12 47 -128 0
17 67 -69 0
-70 -113 150 0
-34 114 -131 0
14 -83 -130 0
-107 -122 129 0
10 -113 -135 0
33 -143 -150 0
12 92 149 0
71 91 -146 0
16 46 -141 0
-18 102 127 0
-18 -25 51 0
-23 -42 106 0
4 28 -38 0
76 88 129 0
-3 99 -121 0
7 22 48 0
3 -36 130 0
-26 45 -84 0
21 -75 138 0
21 -77 88 0
-22 29 139 0
-20 98 133 0
57 -70 -101 0
-32 -73 -115 0
48 57 109 0
7 48 55 0
15 -79 -142 0
-61 -63 -68 0
94 96 124 0
68 112 -148 0
-93 -115 -144 0
-17 -40 79 0
15 31 111 0
-63 -128 142 0
13 48 83 0
-112 130 138 0
1 96 -111 0
-3 -8 71 0
-29 33 55 0
26 -103 141 0
37 55 -90 0
16 -25 128 0
-43 65 -143 0
42 -66 -134 0
1 41 86 0
-1 -79 -146 0
87 -96 -113 0
-36 -71 -119 0
20 83 -134 0
-13 -60 84 0
-13 25 -37 0
-26 58 90 0
-26 -57 111 0
26 123 141 0
-24 51 -56 0
-53 -110 116 0
17 -96 -123 0
-35 -98 146 0
-33 -78 102 0
16 77 -119 0
10 -83 91 0
-59 112 -135 0
6 29 130 0
-5 28 -49 0
-66 -101 120 0
-116 117 -141 0
108 -122 -150 0
81 119 121 0
-39 -40 68 0
-2 88 97 0
-52 87 144 0
-44 -49 -80 0
-17 56 -115 0
-1 61 -64 0
67 -68 -102 0
-51 -65 87 0
-2 67 146 0
-67 -79 -83 0
-59 -68 118 0
77 101 117 0
-24 85 -147 0
7 35 -144 0
28 131 144 0
98 104 -142 0
-38 -77 96 0
-28 -110 -135 0
-84 87 130 0
-49 78 -109 0
31 55 -137 0
-2 -116 133 0
72 -108 136 0
-33 37 40 0
-55 72 -124 0
74 -107 -137 0
-1 -24 -77 0
-13 62 -149 0
-19 -56 -70 0
20 -74 -95 0
-19 -62 -117 0
-63 -119 144 0
-31 -40 108 0
-14 100 137 0
-1 26 -37 0
-34 45 147 0
-18 -25 -104 0
-11 -67 87 0
84 -113 -129 0
51 109 -135 0
-71 72 -128 0
29 -54 -88 0
10 -53 142 0
-43 -55 77 0
33 140 -145 0
62 73 -76 0
89 143 -147 0
-71 -103 107 0
30 105 130 0
62 -141 -147 0
-22 27 -46 0
11 46 -86 0
42 68 -83 0
-119 -147 -148 0
-5 14 -51 0
-6 -46 137 0
-96 -128 -129 0
19 66 -134 0
-64 72 147 0
42 -63 97 0
45 68 130 0
44 -65 133 0
23 79 -88 0
-43 50 -52 0
-38 -48 -146 0
-26 -68 126 0
79 125 146 0
-59 61 -63 0
80 84 -117 0
-20 24 -67 0
100 -103 120 0
-49 -62 -102 0
16 102 -131 0
-11 32 -94 0
-38 -80 129 0
73 -75 119 0
14 64 113 0
46 57 -80 0
-14 35 -72 0
105 -133 -150 0
57 -79 -125 0
2 -7 43 0
-15 55 63 0
34 59 101 0
21 -115 117 0
14 28 -150 0
-57 118 135 0
-109 116 145 0
-29 42 -55 0
50 81 115 0
29 -41 -137 0
29 38 42 0
24 85 -90 0
-43 -92 95 0
-14 -118 -136 0
28 109 146 0
-77 -82 129 0
-19 106 -120 0
-65 111 124 0
17 -77 139 0
4 34 68 0
1 109 -123 0
14 36 -110 0
17 127 130 0
-4 -67 130 0
19 35 99 0
62 122 -125 0
95 108 116 0
-20 -52 60 0
17 121 -132 0
9 35 -118 0
-27 33 91 0
7 -74 82 0
-17 30 -144 0
-95 100 -129 0
-45 63 121 0
-59 -72 -143 0
-64 -119 136 0
60 82 -148 0
8 48 59 0
-6 108 141 0
17 18 121 0
89 126 131 0
8 104 -130 0
56 -81 121 0
-32 116 144 0
-24 -27 137 0
62 -79 113 0
-1 -7 12 0
58 -120 140 0
-8 53 61 0
-14 -97 -116 0
-38 51 -112 0
48 -120 -129 0
-74 -80 139 0
-11 32 -108 0
31 -44 -88 0
63 -77 85 0
40 -89 -108 0
-82 131 -133 0
64 -72 -150 0
36 -67 -109 0
-9 14 -19 0
-53 91 101 0
15 -31 45 0
-37 115 121 0
82 83 138 0
-58 -108 120 0
-72 80 135 0
10 -119 143 0
-22 -68 -149 0
-9 26 82 0
82 102 -140 0
-11 43 -138 0
-16 48 52 0
13 -121 -145 0
-10 -61 114 0
-3 -40 -121 0
21 37 -99 0
29 71 -120 0
-45 -102 126 0
-30 48 -106 0
-17 63 -119 0
-2 97 141 0
18 -63 102 0
2 70 -78 0
-50 69 -150 0
-72 -95 -103 0
-9 36 118 0
29 81 -141 0
-16 -48 133 0
-28 -101 131 0
-15 -58 -132 0
9 52 74 0
-13 82 -119 0
74 -87 -102 0
-70 -91 99 0
26 -57 -74 0
-7 -84 143 0
26 104 -124 0
-53 -103 -106 0
-25 44 126 0
54 72 115 0
-57 96 -98 0
-23 45 -121 0
92 100 -126 0
-36 88 -146 0
78 -136 137 0
-33 -80 96 0
-34 -45 117 0
26 -86 -128 0
72 78 85 0
109 -140 149 0
-10 51 56 0
27 60 96 0
-43 64 129 0
-19 -25 57 0
-11 139 142 0
39 -43 82 0
29 -34 -57 0
-4 25 -107 0
80 -104 145 0
-56 -96 112 0
-36 -64 66 0
79 91 116 0
-29 -52 -125 0
6 -75 142 0
-68 113 115 0
-26 45 49 0
4 -126 137 0
91 93 148 0
67 -70 85 0
48 76 -132 0
40 -48 -106 0
-39 -83 85 0
-23 63 76 0
-52 93 -141 0
14 -78 116 0
74 -109 -139 0
-81 115 126 0
16 -78 -142 0
19 -26 83 0
8 -58 125 0
-46 -110 135 0
-94 145 -148 0
-27 -111 124 0
7 91 -145 0
65 -83 102 0
-20 -105 108 0
-49 -109 -112 0
8 -47 -99 0
-27 -37 -124 0
-44 56 132 0
-46 53 121 0
-60 96 144 0
-29 127 128 0
-41 44 84 0
23 67 102 0
1 -40 83 0
63 100 107 0
-39 -93 -112 0
37 -65 -135 0
-77 94 -140 0
91 -94 -105 0
