c F1 random 3-CNF cnfgen RandomKCNF(3,225,959,seed=16) m/n=4.26
p cnf 225 959
-93 -121 124 0
-2 105 115 0
-3 76 -78 0
-6 57 203 0
156 -171 -207 0
-154 161 -181 0
67 -93 -108 0
109 -133 165 0
22 -73 214 0
-40 -80 -126 0
-17 43 -117 0
126 -216 222 0
117 -157 214 0
-37 -60 182 0
-12 -139 -169 0
131 172 -209 0
24 26 182 0
12 101 -161 0
-40 164 178 0
3 62 150 0
-38 -69 165 0
-104 -119 -187 0
8 -10 -16 0
27 99 -129 0
28 -73 -162 0
37 103 216 0
104 -111 225 0
93 -127 171 0
110 -169 -217 0
32 -76 -147 0
-62 137 -165 0
35 126 -129 0
-15 21 -119 0
-26 -44 -137 0
17 -58 101 0
4 162 -184 0
102 156 -160 0
6 99 164 0
-53 129 202 0
-121 124 -149 0
45 184 192 0
-24 96 187 0
10 48 -157 0
53 112 146 0
9 21 119 0
53 -107 198 0
-104 -175 222 0
99 -153 -157 0
-5 96 111 0
55 99 -106 0
-172 188 -198 0
6 -90 167 0
43 -83 104 0
-103 164 223 0
1 -43 -189 0
7 14 216 0
81 -156 -158 0
-38 -110 153 0
38 -177 -199 0
-78 -168 179 0
-161 -209 -210 0
-145 167 223 0
-30 -86 -103 0
-56 201 -214 0
2 180 -185 0
-40 -58 152 0
69 -191 213 0
-96 -108 151 0
41 52 -168 0
1 -6 181 0
-28 -31 128 0
-1 -17 182 0
-85 -108 153 0
52 79 156 0
-45 100 190 0
8 -53 166 0
-68 -180 -211 0
-84 179 -201 0
7 -64 118 0
-105 113 139 0
62 137 179 0
12 -44 -68 0
10 -34 -128 0
-96 108 -162 0
-3 106 165 0
111 161 165 0
153 156 224 0
52 -131 -158 0
-4 -15 -118 0
86 178 200 0
-38 -73 -135 0
-21 31 -64 0
-63 -162 222 0
74 -131 -188 0
4 -56 -91 0
-94 110 132 0
49 158 -185 0
48 142 189 0
-56 180 206 0
-37 109 160 0
-59 -201 205 0
163 174 207 0
23 170 172 0
-9 -100 112 0
-42 -46 -144 0
-152 191 -196 0
-40 105 -184 0
92 -98 126 0
-110 148 208 0
-17 -112 141 0
3 -133 -157 0
92 118 -207 0
-21 -25 -158 0
16 -154 195 0
-61 70 -112 0
-63 -117 -131 0
81 114 -133 0
3 -64 -185 0
-41 91 -135 0
-88 157 163 0
-25 -96 176 0
-10 -86 205 0
-89 -144 194 0
98 -110 -112 0
-73 -191 -221 0
-78 -86 143 0
120 -196 -200 0
6 -55 -107 0
-6 -10 -69 0
-63 -98 -146 0
-69 -98 182 0
-19 -52 214 0
-4 -27 -129 0
-51 96 -207 0
-21 -79 181 0
115 -145 168 0
-16 113 144 0
19 86 -129 0
-115 156 -198 0
7 -32 -194 0
71 -186 -219 0
-24 63 224 0
-11 13 128 0
1 41 -139 0
35 94 101 0
3 10 -19 0
99 -210 -221 0
1 56 116 0
-9 101 151 0
-2 -146 200 0
4 93 151 0
35 -54 -209 0
-65 -131 -171 0
79 118 132 0
-82 -136 -212 0
144 -165 219 0
-28 120 -127 0
64 102 -133 0
96 -169 -192 0
-16 79 -193 0
-89 113 209 0
-1 -172 -204 0
64 -126 175 0
89 -116 138 0
19 195 -197 0
38 87 124 0
-25 77 -120 0
75 128 -148 0
29 57 90 0
-6 -154 162 0
-50 -56 -155 0
-39 64 158 0
-73 204 216 0
-32 -147 -194 0
-88 -144 -206 0
-163 168 -220 0
-19 115 -220 0
54 200 -211 0
-17 53 191 0
62 -190 -215 0
36 -159 167 0
-25 -78 -159 0
7 -148 185 0
79 -180 206 0
-157 203 -206 0
-40 -113 -210 0
-104 -109 -162 0
46 -76 101 0
-49 -79 -136 0
127 -182 190 0
-77 79 -189 0
-69 89 -216 0
-98 118 211 0
31 -120 140 0
116 158 225 0
41 -47 -171 0
7 69 70 0
14 22 -96 0
33 -117 167 0
-8 -9 -147 0
-74 -77 107 0
-8 79 -225 0
-8 -121 180 0
4 11 -201 0
1 134 -192 0
4 69 -93 0
46 111 -132 0
-125 -142 -219 0
28 177 -210 0
71 -164 193 0
-16 17 135 0
53 -91 -93 0
-124 153 154 0
-98 -166 -205 0
4 58 138 0
-55 105 215 0
-7 56 89 0
46 149 -183 0
45 72 -96 0
71 -203 -214 0
-91 -109 139 0
-130 -211 -222 0
-34 63 -115 0
-92 129 218 0
29 -49 -114 0
-41 171 -211 0
-31 35 -217 0
11 73 -94 0
-35 126 -171 0
18 -128 189 0
-10 -88 -156 0
-17 63 -202 0
-60 146 192 0
-144 150 -183 0
-59 63 -161 0
57 97 170 0
-156 -202 214 0
53 196 220 0
-63 -70 170 0
-180 -195 -206 0
-62 -75 143 0
62 73 -151 0
-25 161 192 0
18 93 173 0
-13 25 -199 0
-117 -129 144 0
-91 137 188 0
8 -155 192 0
-21 -94 166 0
19 -86 -178 0
113 -173 -187 0
75 131 -152 0
-108 -167 -210 0
-170 185 222 0
-1 -137 -169 0
28 -86 -154 0
122 197 206 0
-40 -127 -199 0
-61 -85 164 0
-105 -118 206 0
-2 105 109 0
-99 151 -154 0
-55 69 178 0
-4 -71 163 0
-39 -115 -204 0
-88 117 223 0
3 64 102 0
75 83 -196 0
-81 -142 144 0
69 107 -149 0
-55 -149 160 0
76 173 -202 0
76 -78 -208 0
20 25 -209 0
16 28 75 0
105 -220 -224 0
-11 113 -130 0
71 -133 224 0
89 106 -151 0
-63 178 195 0
-81 -146 203 0
51 87 139 0
30 117 164 0
-130 133 -149 0
-19 -64 223 0
143 182 -203 0
15 48 -54 0
11 -207 209 0
-141 -207 -209 0
28 194 199 0
100 -193 -223 0
-3 -37 -169 0
-16 62 89 0
33 96 -210 0
-22 137 206 0
103 131 140 0
-52 -68 -161 0
-35 54 183 0
117 -119 -174 0
23 -90 181 0
27 -77 97 0
-6 97 173 0
1 -77 -175 0
-59 179 199 0
23 -119 128 0
36 -60 -198 0
3 -74 128 0
-98 117 171 0
104 -123 -219 0
10 -24 -180 0
86 -104 -138 0
-95 150 -161 0
126 -136 211 0
82 -138 -163 0
-3 -11 -47 0
-21 35 217 0
10 -27 46 0
-155 169 220 0
-96 101 163 0
153 -170 174 0
-12 39 86 0
46 -147 -200 0
51 55 -99 0
91 157 -184 0
17 -49 79 0
-10 16 120 0
-3 142 171 0
-38 -73 -220 0
52 137 -154 0
176 -183 -218 0
-6 27 47 0
10 -17 135 0
16 23 193 0
-85 86 -104 0
-128 177 203 0
13 117 179 0
-54 -135 213 0
70 93 -116 0
40 88 -206 0
-55 200 -211 0
-53 165 170 0
-79 -95 -155 0
82 -129 -148 0
26 91 -181 0
-54 175 -199 0
77 202 -219 0
114 -212 222 0
-13 -100 126 0
-15 -21 92 0
-5 -160 -214 0
89 132 212 0
4 11 208 0
114 -210 225 0
-33 42 -106 0
-52 -114 160 0
27 -30 -96 0
42 103 -222 0
126 -177 178 0
46 50 -218 0
15 -165 194 0
-64 110 214 0
-56 150 170 0
58 -168 224 0
67 -101 -209 0
28 170 -186 0
-18 -66 -80 0
65 194 199 0
26 -32 -157 0
77 95 168 0
-23 39 177 0
61 95 -123 0
103 125 -205 0
-67 165 -202 0
-24 -57 -89 0
17 110 183 0
20 65 -148 0
-8 -96 -99 0
-69 -114 -211 0
-73 -81 88 0
-67 145 201 0
85 157 212 0
-30 41 91 0
37 -137 147 0
95 -185 -195 0
20 -32 39 0
14 -182 222 0
-2 -31 223 0
-42 -44 124 0
-29 166 220 0
14 203 -220 0
6 -41 -87 0
64 143 -203 0
48 77 -81 0
138 157 -198 0
-141 -144 -222 0
-14 18 -188 0
8 -13 -162 0
-126 144 197 0
-81 -127 220 0
76 -126 -160 0
67 113 168 0
43 -87 -200 0
84 -125 -182 0
-22 78 164 0
-34 -39 73 0
-87 95 -211 0
105 122 -159 0
-59 66 -193 0
-170 -174 221 0
34 -77 -137 0
-10 64 169 0
71 -99 200 0
57 -81 151 0
-21 -68 -136 0
-37 -126 -137 0
162 215 217 0
179 206 -223 0
33 152 -197 0
52 -65 -106 0
68 -69 110 0
20 63 -144 0
-47 122 -184 0
26 29 -88 0
-1 153 -204 0
107 -188 -197 0
-7 92 105 0
50 51 219 0
-22 143 -153 0
53 -123 -133 0
-10 46 72 0
-8 -99 114 0
68 -90 191 0
-16 33 -87 0
43 143 187 0
101 180 218 0
-60 95 207 0
-60 85 201 0
-46 -88 -175 0
118 138 -188 0
-21 52 174 0
29 -103 -157 0
-193 208 218 0
-73 -112 -122 0
82 -184 195 0
-104 114 136 0
54 82 -153 0
87 -159 -219 0
-43 47 -144 0
5 -149 206 0
57 119 -211 0
36 106 146 0
-59 148 184 0
-9 -24 183 0
-112 -113 178 0
-100 -161 165 0
26 194 225 0
-16 162 -185 0
-1 129 148 0
-55 -101 -104 0
-23 -93 -191 0
-9 127 146 0
-16 -75 145 0
70 137 -150 0
8 17 75 0
67 -171 -189 0
16 -98 132 0
-8 19 -202 0
23 187 225 0
43 208 213 0
58 140 -200 0
-199 -207 -218 0
1 176 -206 0
24 -65 -152 0
29 -135 184 0
16 183 221 0
39 -106 -137 0
-49 98 154 0
-27 159 -204 0
-28 -104 -145 0
-8 -113 220 0
-32 160 188 0
70 -78 190 0
-67 110 -222 0
8 106 118 0
64 -190 210 0
57 112 167 0
73 -128 167 0
-111 190 -192 0
99 148 -169 0
104 -165 -177 0
-13 -25 133 0
-14 -154 201 0
-61 73 -175 0
14 26 -117 0
187 190 205 0
2 42 117 0
-25 -155 -222 0
116 -185 219 0
-20 -27 -59 0
-37 -91 218 0
20 -199 -215 0
-26 83 123 0
-17 -66 -137 0
30 -194 217 0
94 -115 -216 0
-25 157 -190 0
12 129 189 0
-70 -109 -210 0
42 119 221 0
-48 189 192 0
16 39 62 0
-21 -101 -131 0
-32 167 184 0
27 167 172 0
39 40 201 0
-76 85 174 0
-13 115 131 0
106 198 218 0
22 35 -118 0
-19 44 58 0
78 117 200 0
63 -157 -220 0
56 -76 -163 0
-17 -94 -147 0
31 -32 81 0
-167 193 -216 0
62 -109 155 0
-82 148 -182 0
72 -152 219 0
167 -191 -216 0
64 170 197 0
-38 116 197 0
-69 -128 205 0
-97 132 184 0
-20 128 -190 0
-109 -115 193 0
75 81 156 0
-16 120 -123 0
-59 134 -136 0
-32 -105 -219 0
-28 -173 205 0
88 -129 177 0
-9 -37 -157 0
-56 -98 -124 0
8 156 -217 0
-100 -114 162 0
7 -51 -143 0
24 -29 -98 0
-126 156 -171 0
180 184 202 0
54 70 183 0
50 60 -68 0
128 -189 -214 0
22 -163 -185 0
43 -163 192 0
174 -176 -204 0
-189 207 213 0
-91 142 -192 0
-77 -85 164 0
-146 -209 213 0
138 149 -174 0
48 136 -208 0
17 29 -182 0
39 90 160 0
-5 -31 130 0
-48 -107 -218 0
-32 188 -205 0
7 150 178 0
56 158 178 0
-32 -83 125 0
-10 -45 -71 0
45 95 171 0
1 16 51 0
-6 81 -120 0
91 -140 -203 0
-102 -106 -115 0
6 -64 -98 0
36 136 148 0
-60 71 -213 0
140 196 200 0
6 33 -162 0
-66 -91 159 0
-17 -131 -165 0
-57 -132 152 0
34 -188 214 0
-75 -89 224 0
-85 -192 219 0
-143 -154 -187 0
104 -146 -225 0
-12 -68 128 0
-16 63 192 0
134 175 210 0
37 39 160 0
-45 -53 -96 0
-66 -97 -133 0
98 193 -206 0
21 -81 171 0
38 151 -194 0
53 95 -210 0
-20 -54 190 0
44 -172 218 0
56 105 185 0
-1 -139 -154 0
89 -142 207 0
-57 65 -194 0
122 143 -157 0
137 -158 159 0
51 -197 208 0
50 122 -202 0
-81 -105 -131 0
-70 132 148 0
3 -96 215 0
36 -90 152 0
-94 -141 -221 0
-94 112 195 0
-156 174 -223 0
24 138 164 0
74 -202 218 0
9 36 -49 0
-14 44 -77 0
-53 -121 203 0
35 55 75 0
-49 -182 189 0
-58 -118 -178 0
-93 -97 -151 0
-53 95 -158 0
-93 -122 144 0
64 -81 -190 0
158 166 -170 0
-49 81 -194 0
14 -207 -208 0
144 -204 -217 0
7 100 142 0
-11 -141 -152 0
-8 76 180 0
-46 -47 -74 0
-70 -132 -172 0
46 78 -217 0
17 -61 -88 0
75 -115 155 0
19 157 178 0
3 58 -202 0
-112 -139 225 0
-57 62 74 0
81 -162 205 0
12 123 174 0
-3 34 -201 0
68 165 186 0
-7 148 -154 0
153 188 209 0
-78 84 136 0
-24 31 45 0
105 111 -181 0
-58 -99 209 0
-22 -73 153 0
73 -161 -194 0
85 -88 -124 0
-31 -45 -176 0
18 -32 -92 0
100 143 -202 0
-47 -153 213 0
118 -143 198 0
47 63 -214 0
-32 183 211 0
33 95 -222 0
99 148 -205 0
-44 -48 171 0
-60 121 141 0
88 134 -182 0
-2 10 48 0
-1 -122 169 0
-17 85 -208 0
-19 34 -54 0
55 159 223 0
10 15 27 0
13 139 168 0
-1 -76 -110 0
-20 84 181 0
-44 154 -209 0
81 -185 -217 0
-50 -118 -149 0
-52 -70 -169 0
30 44 147 0
-21 -52 89 0
69 78 108 0
-62 75 93 0
72 -171 214 0
-15 -24 167 0
-23 -95 212 0
-78 88 91 0
25 52 191 0
-109 -110 -163 0
6 -49 155 0
12 -151 -184 0
-92 102 195 0
-117 -120 -131 0
107 176 -184 0
-28 -30 62 0
-39 -53 -218 0
44 -51 -116 0
23 -84 -163 0
10 -46 -133 0
-17 -116 -210 0
-48 108 -133 0
63 -78 -183 0
-6 12 -203 0
-49 110 202 0
-34 36 -119 0
106 -124 -211 0
95 142 155 0
27 74 -124 0
129 151 185 0
71 136 -210 0
-114 116 224 0
77 -88 -187 0
-5 44 -111 0
169 182 225 0
114 -201 -202 0
-161 -170 210 0
76 140 -145 0
-105 -161 -169 0
29 -117 142 0
81 151 -204 0
-39 180 214 0
135 -186 -204 0
17 74 107 0
51 -83 191 0
-7 28 -126 0
12 155 170 0
37 108 -138 0
-108 160 170 0
92 125 -197 0
-24 -44 79 0
163 167 212 0
-59 -122 222 0
155 167 -190 0
-80 129 206 0
10 44 50 0
-12 -83 91 0
-53 -74 -193 0
58 -124 151 0
69 121 -140 0
82 -99 -148 0
-160 162 -223 0
60 109 -128 0
30 -101 133 0
-33 100 -105 0
5 -95 104 0
75 164 200 0
-3 -144 -200 0
-20 40 119 0
-58 71 94 0
66 -96 -179 0
31 100 -132 0
28 38 -93 0
78 149 -210 0
-15 136 -177 0
-12 -40 -155 0
48 57 -106 0
-79 97 100 0
-99 -144 191 0
-2 -13 -126 0
-5 119 179 0
68 -105 -166 0
66 -114 -121 0
-14 -84 209 0
-62 -161 -180 0
105 108 127 0
107 -113 221 0
-53 -119 161 0
147 173 209 0
-74 199 205 0
-47 -50 200 0
66 -127 -157 0
-13 -25 -175 0
48 -60 -180 0
-11 -39 -96 0
-35 -167 -200 0
-131 -197 -219 0
-73 -95 115 0
-8 -37 -103 0
4 -100 -165 0
115 123 -151 0
-60 -64 192 0
-39 199 214 0
-106 -120 -153 0
-27 -44 -182 0
9 -84 -193 0
-58 145 -175 0
93 105 -127 0
-26 72 219 0
35 -39 -217 0
-1 206 215 0
53 -102 167 0
26 37 179 0
88 117 181 0
22 128 -173 0
55 111 -157 0
86 -92 -174 0
-66 149 -206 0
99 -136 -173 0
-110 177 -179 0
-71 -200 208 0
47 196 -215 0
39 51 -148 0
36 -71 108 0
-127 177 193 0
29 -33 -123 0
-106 151 -208 0
-24 -29 206 0
48 189 -202 0
6 53 176 0
-139 -158 -176 0
100 -147 195 0
-55 -68 83 0
-93 112 -151 0
104 -205 210 0
-6 -31 35 0
-19 -32 -121 0
-183 187 -204 0
-48 64 202 0
31 -149 -191 0
-126 133 -173 0
-56 -76 137 0
-18 25 -213 0
104 162 198 0
-9 67 99 0
-148 158 191 0
43 90 172 0
69 -132 181 0
-121 -224 225 0
-150 169 206 0
-1 -93 124 0
-7 -146 190 0
-2 18 -83 0
5 -30 172 0
-38 43 44 0
-23 -29 157 0
22 -68 184 0
-51 107 -131 0
43 -86 179 0
-46 -103 -115 0
181 212 -222 0
-91 -142 -178 0
157 -194 205 0
-73 83 -150 0
96 -135 163 0
-55 -182 200 0
-27 60 154 0
50 177 -214 0
-176 216 -224 0
-109 217 -218 0
81 -100 152 0
7 14 -181 0
114 -159 -202 0
-80 -186 -193 0
65 -123 155 0
22 105 219 0
65 114 -173 0
43 -193 -206 0
27 69 -146 0
-99 160 -169 0
55 132 -211 0
110 150 -161 0
-10 77 158 0
-101 -142 217 0
-28 33 -103 0
-26 27 -85 0
-55 -69 82 0
-39 -45 -57 0
-64 87 137 0
35 -221 -224 0
-77 170 -182 0
-95 -161 -187 0
67 143 186 0
74 136 207 0
10 -42 -217 0
1 44 -70 0
-88 -122 177 0
-15 -49 -81 0
-12 33 122 0
69 86 99 0
7 49 -190 0
6 -42 208 0
69 -83 -140 0
-35 -42 -211 0
-101 105 112 0
61 -72 187 0
11 173 -190 0
69 -97 -135 0
45 123 152 0
62 -93 107 0
32 -59 104 0
-9 -167 -217 0
191 192 -216 0
34 95 153 0
38 -128 172 0
3 -209 225 0
-70 -73 104 0
60 -132 215 0
15 126 160 0
112 -165 -215 0
18 -190 -215 0
-62 112 187 0
-4 91 -173 0
6 41 177 0
6 -49 152 0
-111 133 -141 0
11 69 -102 0
-45 -90 -159 0
94 -160 171 0
80 -131 207 0
-99 106 -194 0
11 -170 194 0
7 -125 159 0
116 -126 -171 0
-48 205 -224 0
-34 155 -158 0
-1 -6 -58 0
54 -79 148 0
33 -69 -124 0
19 95 177 0
-37 59 -155 0
3 78 -153 0
-73 157 -190 0
30 75 98 0
-93 155 -185 0
-133 149 168 0
-4 -42 -67 0
-153 165 -183 0
-21 -111 171 0
92 -113 171 0
83 107 192 0
36 91 109 0
15 169 -209 0
-126 -211 216 0
-46 161 -220 0
-22 50 -65 0
20 -34 -113 0
-108 -190 212 0
-29 -85 185 0
-22 164 -166 0
-43 46 -173 0
87 155 179 0
31 72 203 0
-123 -174 -195 0
70 -91 215 0
107 132 -152 0
11 -103 120 0
-91 98 152 0
106 132 211 0
-31 51 123 0
-15 62 145 0
157 -175 -199 0
-106 181 -188 0
-174 179 202 0
22 -81 -96 0
11 20 -154 0
157 -193 -206 0
