c F1 random 3-CNF cnfgen RandomKCNF(3,175,746,seed=9) m/n=4.26
p cnf 175 746
-96 119 157 0
-2 87 -174 0
-11 142 -158 0
41 44 109 0
34 -130 152 0
53 -75 173 0
-54 -69 102 0
2 -52 -106 0
-7 36 61 0
32 -51 149 0
22 35 -139 0
51 -108 138 0
24 149 164 0
14 -70 143 0
32 61 -104 0
134 -152 173 0
94 -116 150 0
-5 98 -148 0
-29 -55 -57 0
-23 79 162 0
-7 -98 -144 0
-17 64 145 0
-96 103 -131 0
8 44 -67 0
31 43 156 0
-16 -54 116 0
-37 -73 91 0
23 76 -143 0
-37 116 -144 0
-127 153 156 0
33 71 136 0
4 -52 -57 0
-140 144 152 0
-124 141 152 0
-112 149 -150 0
17 36 -58 0
16 117 -126 0
-60 -63 118 0
10 153 -160 0
18 105 151 0
22 47 -156 0
-121 141 160 0
22 -83 -86 0
-39 99 152 0
-60 90 172 0
28 29 57 0
22 96 -166 0
-52 134 161 0
2 66 -133 0
6 -65 157 0
65 81 -122 0
10 -34 -77 0
2 -25 -78 0
-64 -107 -155 0
54 -103 -111 0
-119 -120 -157 0
48 -85 103 0
44 82 140 0
36 -94 -169 0
-154 156 -172 0
-5 -20 172 0
83 -129 132 0
53 73 137 0
11 -24 81 0
-25 -104 131 0
70 -92 -131 0
47 146 157 0
-6 -72 79 0
-37 -70 73 0
-38 46 -85 0
7 89 -149 0
35 -54 88 0
-52 132 146 0
91 -96 -128 0
112 119 162 0
-22 91 -151 0
48 -135 136 0
8 -15 -45 0
-34 77 85 0
-63 104 -117 0
37 -45 148 0
9 -98 -102 0
47 -124 -171 0
-65 96 157 0
-16 -136 166 0
-4 51 -53 0
58 76 -80 0
-70 -95 164 0
8 142 175 0
-5 -13 -54 0
20 -91 -143 0
16 -46 -63 0
-50 -164 170 0
-42 -81 -140 0
-74 112 137 0
92 -169 -175 0
94 -96 116 0
-17 -31 -166 0
5 -80 -112 0
50 121 150 0
3 75 133 0
-27 -113 157 0
-19 135 -170 0
-47 -51 -79 0
-81 130 -165 0
-21 23 -105 0
42 -137 -151 0
30 -128 -138 0
-21 146 -150 0
-2 -85 -131 0
-42 -45 -82 0
21 -73 -84 0
-16 101 -156 0
-60 -106 -116 0
11 54 131 0
-21 24 -170 0
14 75 115 0
25 -31 -69 0
52 -58 67 0
-69 105 -171 0
23 66 69 0
98 -154 -156 0
-28 -32 -154 0
35 -57 87 0
-1 -22 -28 0
-57 166 -174 0
66 -88 150 0
53 -69 76 0
7 61 145 0
-19 157 -161 0
-72 151 -168 0
28 39 -72 0
-2 67 -136 0
1 -31 166 0
-91 134 169 0
87 171 174 0
3 -50 103 0
-14 -49 175 0
54 112 141 0
21 -56 82 0
-71 147 -170 0
15 -37 66 0
-5 37 85 0
-7 14 -149 0
19 -34 -50 0
-82 115 154 0
70 -114 121 0
-37 41 -115 0
-48 86 96 0
17 -35 -95 0
-31 -71 129 0
-56 -75 -102 0
18 40 -51 0
-18 -117 152 0
-47 86 114 0
60 -68 -117 0
14 -54 110 0
-29 104 -168 0
-5 64 -89 0
-13 -47 -94 0
-7 -76 -142 0
5 49 -81 0
91 -100 -153 0
124 -170 -174 0
63 -94 145 0
-80 -109 152 0
-53 -100 -130 0
47 88 140 0
52 87 115 0
-61 89 174 0
32 76 129 0
-54 60 129 0
26 -79 99 0
58 -115 -129 0
-1 -13 72 0
154 164 168 0
44 -57 -80 0
27 99 -117 0
4 139 173 0
-13 28 -159 0
12 14 -30 0
-56 151 155 0
14 -44 61 0
-7 -53 -142 0
7 22 73 0
-23 65 -81 0
5 -19 160 0
26 32 152 0
-13 52 160 0
3 -121 -151 0
-86 108 -127 0
28 -85 93 0
-40 -118 127 0
-20 39 68 0
26 -97 138 0
56 62 156 0
9 -106 -118 0
38 151 161 0
-127 -162 -174 0
-122 -137 175 0
119 128 -135 0
10 17 166 0
38 -58 119 0
45 -110 132 0
106 148 167 0
-27 -49 129 0
9 64 -173 0
-19 103 167 0
24 93 -98 0
49 -83 -166 0
-88 -89 111 0
-85 155 -173 0
-45 117 147 0
-44 -102 149 0
24 -71 147 0
-12 56 -112 0
34 -60 -120 0
58 119 -172 0
-104 -109 -162 0
102 -115 -173 0
-10 18 47 0
-112 130 -173 0
31 -49 101 0
12 87 -171 0
-119 -139 170 0
71 -90 166 0
29 -69 -119 0
54 57 -108 0
11 -82 -112 0
17 -85 168 0
10 -78 -105 0
-8 -50 62 0
-100 103 131 0
-162 171 -173 0
78 110 129 0
-75 -112 129 0
-27 -41 -62 0
114 121 -147 0
39 42 -73 0
8 106 122 0
62 70 80 0
-12 -79 162 0
-48 -159 173 0
13 73 -166 0
-14 -64 154 0
-31 -46 -96 0
-12 -31 -34 0
-23 -52 -165 0
-20 -26 -61 0
45 114 148 0
15 -121 -142 0
-71 123 -141 0
63 71 -150 0
4 -55 80 0
-95 148 165 0
-37 -119 149 0
69 -79 -122 0
-97 99 115 0
-93 102 111 0
70 117 -140 0
-3 13 32 0
-46 -51 161 0
26 132 -147 0
23 -83 174 0
27 -57 -136 0
83 -150 -165 0
75 -144 -153 0
-5 39 113 0
-10 37 69 0
10 57 88 0
55 60 -166 0
59 95 -101 0
-4 -94 133 0
-23 -154 -155 0
59 -123 166 0
-8 -69 -161 0
-22 -57 -149 0
-36 56 -127 0
-4 127 -137 0
71 -81 -144 0
2 122 129 0
19 -59 174 0
-48 -134 -168 0
-42 -49 144 0
120 123 165 0
9 -49 -130 0
69 87 -99 0
7 -28 -173 0
25 35 -140 0
68 110 -139 0
-72 87 -114 0
-9 -99 -102 0
-55 92 -126 0
8 53 -117 0
-9 79 108 0
-45 57 -131 0
-78 92 -151 0
-15 -102 113 0
-98 -125 -136 0
21 -82 -157 0
124 143 151 0
-59 60 -79 0
71 108 119 0
33 -80 141 0
11 -74 -136 0
43 -106 135 0
-41 -97 157 0
83 -120 -122 0
30 -46 78 0
100 153 165 0
-9 76 96 0
-98 -108 -145 0
57 -119 174 0
33 -137 -144 0
-33 -60 -153 0
-128 141 -147 0
90 92 -95 0
-4 -108 116 0
15 -49 162 0
43 -115 -159 0
131 -138 -162 0
3 130 -133 0
-8 -165 -175 0
108 115 150 0
61 87 -122 0
52 151 -168 0
69 -107 131 0
-34 -88 148 0
47 -82 -92 0
10 -11 -104 0
-15 101 -119 0
-78 -86 -144 0
67 -95 -118 0
-16 161 170 0
22 34 -155 0
-67 -91 -125 0
-55 -127 -136 0
22 31 110 0
80 85 -88 0
-16 -78 115 0
-24 -63 173 0
3 15 -170 0
6 -135 159 0
-46 94 173 0
66 99 132 0
23 -41 -100 0
98 -123 -162 0
-13 93 127 0
-122 -143 -144 0
-9 30 166 0
124 -158 -172 0
51 70 137 0
-6 103 -117 0
38 -146 -151 0
33 105 137 0
-26 157 -167 0
-134 -140 -169 0
67 -134 -146 0
2 -47 166 0
-112 -141 -175 0
-32 -143 -171 0
-12 15 102 0
7 -123 -137 0
-45 133 148 0
-63 65 153 0
12 68 -79 0
-6 36 -44 0
-4 42 76 0
-80 120 -122 0
-88 -150 -158 0
21 89 -101 0
24 -85 110 0
-102 -107 172 0
-31 159 169 0
20 54 164 0
22 -98 110 0
10 32 -72 0
79 119 -174 0
-18 -78 -133 0
-67 -146 -156 0
53 113 -146 0
-43 75 -92 0
-11 -64 91 0
44 137 142 0
2 75 -156 0
7 -105 114 0
18 -108 -171 0
-68 106 124 0
119 129 -138 0
-18 84 -125 0
57 82 101 0
47 148 162 0
-31 -32 141 0
73 -79 -162 0
-16 -101 105 0
-132 145 -147 0
-60 73 -163 0
-36 -135 146 0
-26 -145 171 0
-38 75 -137 0
-6 18 -74 0
-42 -86 -109 0
-7 36 -133 0
-19 89 -99 0
34 -84 -141 0
-44 -138 -140 0
21 -56 92 0
48 -54 100 0
-26 148 -151 0
4 24 -129 0
-11 -31 83 0
65 -73 -87 0
33 -95 -150 0
-30 -77 161 0
3 113 -153 0
-60 -100 149 0
123 143 -156 0
-58 -82 90 0
40 -48 126 0
-134 -142 -171 0
-32 -132 -171 0
-19 -38 -171 0
-49 61 161 0
-32 -144 -149 0
9 -48 61 0
26 29 -44 0
75 146 175 0
28 -65 141 0
82 85 118 0
25 68 172 0
-18 51 -157 0
124 135 -144 0
-22 -60 93 0
33 -44 56 0
86 -109 159 0
-116 144 -174 0
1 100 -117 0
33 -79 139 0
61 -86 120 0
3 30 -40 0
-38 75 -129 0
-55 60 113 0
6 -17 -78 0
6 54 124 0
80 -124 -169 0
-100 -112 -131 0
-94 129 -147 0
-7 44 -83 0
42 -70 83 0
-46 148 -172 0
-74 93 113 0
26 153 -158 0
-70 -118 -143 0
55 -79 -97 0
49 109 157 0
-13 -41 171 0
79 -94 147 0
-80 -84 108 0
7 26 -146 0
31 55 112 0
-60 61 -175 0
-6 -36 88 0
48 -101 -115 0
17 -66 -132 0
-40 -48 118 0
78 -155 -169 0
21 -32 -60 0
12 -50 104 0
1 -92 139 0
-24 55 118 0
-35 58 -143 0
10 -74 140 0
14 32 -162 0
63 -80 83 0
9 -80 175 0
-99 107 124 0
3 29 47 0
40 62 -88 0
-12 65 -133 0
21 -117 -159 0
-49 -77 107 0
-118 -136 -147 0
-104 106 113 0
-34 62 -131 0
24 -87 -104 0
128 141 -168 0
92 -116 -175 0
-33 -65 86 0
8 -22 152 0
14 -60 63 0
51 -79 -139 0
2 -45 149 0
63 94 114 0
-52 -130 -134 0
94 95 -173 0
-97 99 -127 0
-86 -119 153 0
115 -124 132 0
43 130 147 0
60 -69 -153 0
-37 169 174 0
76 -163 171 0
-12 42 -151 0
-4 -10 173 0
-63 64 -155 0
-10 120 169 0
68 -122 -134 0
3 49 65 0
20 -141 -153 0
-106 138 174 0
-21 117 -119 0
-81 -87 -173 0
-11 102 112 0
10 -31 110 0
4 41 -79 0
28 -105 -167 0
50 -91 -112 0
-14 -44 -166 0
21 -142 143 0
-18 144 -163 0
3 36 161 0
2 34 163 0
-65 -142 151 0
-6 14 98 0
91 100 144 0
-69 -90 155 0
-40 -117 135 0
-59 65 -127 0
-108 117 172 0
-71 -121 -164 0
39 -46 -92 0
107 -113 157 0
25 78 160 0
-139 144 -161 0
40 -128 -171 0
128 155 172 0
97 122 -130 0
-50 -74 106 0
-96 157 159 0
34 -43 89 0
-46 -47 -85 0
-16 -48 162 0
75 -86 168 0
-20 -21 167 0
15 113 -116 0
-12 -119 143 0
-71 82 -98 0
-17 70 -71 0
-116 -155 172 0
-67 -165 -167 0
-27 -63 -136 0
56 120 -126 0
-33 45 -159 0
-12 -98 -157 0
-11 29 -124 0
-4 38 -161 0
18 113 -121 0
12 40 134 0
17 -85 -173 0
7 43 -79 0
49 -99 -108 0
-12 -43 54 0
-15 -34 134 0
-8 -25 138 0
44 75 174 0
14 -99 119 0
25 110 134 0
-49 81 82 0
-9 19 67 0
13 -17 110 0
65 136 -141 0
37 -84 93 0
-21 -134 -140 0
-3 45 -145 0
-99 -130 156 0
-103 147 -148 0
42 -53 -68 0
-66 -74 -142 0
115 -126 131 0
-32 60 110 0
-43 98 -146 0
-71 85 -90 0
-20 74 141 0
25 -130 173 0
23 -73 -166 0
18 62 -154 0
-75 123 -137 0
15 -66 -70 0
-28 49 137 0
61 -105 -112 0
-129 -132 148 0
-9 87 148 0
72 74 -92 0
12 -130 138 0
-8 117 -122 0
23 29 129 0
-46 -99 145 0
33 152 -174 0
83 -111 -120 0
49 -52 116 0
-8 -14 44 0
110 113 -115 0
38 -56 -68 0
26 50 -101 0
-21 67 -86 0
72 105 -134 0
21 23 -60 0
43 -63 -153 0
-1 78 -162 0
-4 -102 125 0
72 145 166 0
62 -116 -138 0
27 -30 -56 0
-82 -120 148 0
-46 67 -71 0
-19 -68 -171 0
-71 82 -107 0
13 104 -161 0
-29 32 -60 0
-32 -124 171 0
101 -111 -166 0
63 -125 149 0
48 73 148 0
116 -153 -169 0
78 -133 150 0
-15 136 -148 0
-10 50 71 0
-14 -31 120 0
87 89 156 0
-67 94 -146 0
127 -140 174 0
49 -70 -81 0
-72 -124 -125 0
42 51 -64 0
-54 86 -169 0
20 -58 -77 0
10 31 47 0
10 87 -158 0
1 6 -140 0
35 88 163 0
49 118 155 0
-13 -87 -126 0
40 124 -142 0
-38 -78 -93 0
-14 47 -69 0
-42 60 65 0
-4 -26 -38 0
95 -105 -108 0
95 -130 162 0
35 -127 -147 0
-55 -93 -155 0
-34 50 -160 0
-10 59 91 0
-24 -86 -99 0
-10 -93 143 0
-27 -82 84 0
-149 -158 171 0
96 -128 145 0
11 20 134 0
11 -45 -74 0
54 -116 -163 0
113 -133 171 0
2 81 -172 0
-36 39 151 0
24 -42 -46 0
79 110 -133 0
8 -57 -75 0
-19 -113 134 0
-14 -83 -107 0
50 98 109 0
66 103 -106 0
-5 -82 167 0
-19 121 -138 0
49 102 110 0
15 -127 -140 0
44 -72 165 0
-139 151 -169 0
-47 -66 -105 0
-8 -12 71 0
54 149 153 0
-36 56 118 0
-32 -58 81 0
-36 45 -169 0
32 104 125 0
-3 16 -113 0
-7 -31 -62 0
63 103 -113 0
-13 44 -86 0
66 -143 -152 0
-60 94 -138 0
7 -55 -108 0
44 87 100 0
24 -27 37 0
43 -87 -160 0
-5 118 171 0
46 -87 95 0
79 -107 139 0
-12 60 97 0
-38 -152 161 0
25 -82 -129 0
82 -117 -131 0
110 119 -120 0
-40 117 -165 0
-28 118 166 0
26 36 -157 0
-43 -85 -150 0
-114 -153 -164 0
-63 69 172 0
19 -47 -167 0
11 -55 -126 0
20 52 139 0
49 53 173 0
-61 88 113 0
93 106 128 0
103 -134 149 0
-36 69 -129 0
18 39 -65 0
-27 38 -138 0
-13 -131 -147 0
-12 41 -158 0
-31 35 41 0
-43 -60 -125 0
5 40 -49 0
-83 -92 -109 0
-16 -36 -155 0
105 157 175 0
52 -98 -175 0
8 131 154 0
-92 139 148 0
-3 -43 -63 0
-4 -77 154 0
-36 -51 -66 0
9 -85 119 0
-5 -29 160 0
47 -67 -71 0
-121 -135 -165 0
50 -81 -98 0
-70 110 -166 0
19 129 -148 0
132 -143 161 0
6 -11 45 0
-41 79 -111 0
23 84 -90 0
-1 77 -142 0
-46 -94 -174 0
38 -97 159 0
