c F1 random 3-CNF cnfgen RandomKCNF(3,125,533,seed=7) m/n=4.26
p cnf 125 533
-20 42 122 0
-13 69 106 0
-5 12 56 0
12 55 71 0
75 -81 122 0
6 -29 -125 0
-16 19 70 0
74 -75 82 0
9 71 -92 0
-55 -69 -88 0
32 39 47 0
-39 -68 -74 0
10 -37 78 0
-20 -44 97 0
-10 -86 -124 0
-64 75 77 0
35 61 -121 0
-74 -83 -88 0
45 -86 -114 0
-15 22 79 0
17 -37 -99 0
64 112 -118 0
36 -52 -71 0
-46 54 91 0
11 20 23 0
63 -76 -107 0
-1 -19 54 0
66 -89 -110 0
-14 -51 52 0
-9 25 27 0
7 44 77 0
-13 69 122 0
-27 79 -112 0
-45 -78 123 0
-15 -63 -109 0
11 -19 -40 0
62 89 107 0
47 68 -122 0
-12 -83 111 0
-29 46 99 0
-31 104 105 0
46 64 -67 0
-25 -34 -61 0
47 123 125 0
-26 30 -61 0
79 -80 -116 0
11 -83 103 0
-23 -62 114 0
-103 -122 -125 0
11 96 122 0
-4 20 -76 0
45 85 120 0
2 103 -125 0
25 106 -112 0
28 -38 -65 0
54 70 -107 0
-59 85 115 0
-3 66 68 0
20 100 -103 0
16 -80 -93 0
14 100 101 0
6 -36 99 0
98 -115 -117 0
65 -79 -125 0
-66 69 -104 0
72 -115 119 0
-16 -51 54 0
31 55 -86 0
16 -101 115 0
-18 33 114 0
51 63 114 0
-56 -66 -91 0
26 -41 46 0
-44 59 -71 0
-43 67 80 0
30 101 -118 0
6 -35 116 0
-55 -105 109 0
-66 -69 118 0
8 -36 103 0
3 -35 121 0
29 -78 110 0
-2 -44 59 0
6 68 91 0
7 -24 -34 0
-27 -68 98 0
35 -45 103 0
2 -3 94 0
-14 -58 -120 0
40 65 -125 0
26 -107 -113 0
7 17 -108 0
8 -21 -56 0
-32 77 -89 0
-21 24 -35 0
-43 47 124 0
40 -113 124 0
1 -43 -49 0
26 65 84 0
12 -34 105 0
-3 39 51 0
68 -75 -123 0
-20 64 93 0
-92 106 107 0
75 88 106 0
-6 18 -82 0
58 72 107 0
-1 34 63 0
-9 -68 85 0
31 34 -109 0
49 -64 -109 0
6 79 99 0
-33 43 84 0
-8 62 63 0
-38 -63 -87 0
16 -60 99 0
-3 -61 120 0
-65 -105 -124 0
27 118 122 0
-19 -68 96 0
-78 81 -105 0
-30 -64 115 0
-1 -21 -122 0
-19 -39 -94 0
-16 41 -108 0
-44 97 108 0
-2 -92 -116 0
9 -50 -51 0
36 -97 110 0
-7 85 107 0
-35 56 -125 0
55 -101 123 0
-7 -11 93 0
-37 83 112 0
-22 -54 -61 0
-33 -95 125 0
-39 62 72 0
10 -21 83 0
-43 -58 117 0
25 32 -71 0
12 -41 -72 0
26 -73 -104 0
53 -68 -96 0
-8 -44 -97 0
17 65 -88 0
-32 -50 -115 0
40 109 123 0
-55 -91 98 0
-10 -51 120 0
14 29 101 0
-93 106 121 0
1 17 -101 0
-17 -81 124 0
10 -13 -39 0
29 77 -102 0
-36 59 -123 0
31 68 -71 0
40 84 91 0
-64 87 -114 0
-30 55 -86 0
-5 -44 -90 0
-1 26 103 0
-26 64 125 0
-29 34 -60 0
24 -79 -115 0
8 -86 117 0
4 -28 125 0
-8 -24 -91 0
11 -15 94 0
-24 84 -120 0
-49 -86 -93 0
1 -14 22 0
45 54 -123 0
-46 -99 106 0
7 -61 -91 0
-25 42 -47 0
-32 81 -104 0
5 -9 60 0
-9 -96 -116 0
43 -79 -123 0
36 39 119 0
-14 -30 -106 0
-33 -102 117 0
24 -64 119 0
-31 -42 -78 0
11 -77 101 0
9 -32 -53 0
21 55 -114 0
11 -27 -80 0
58 91 125 0
54 59 -80 0
-36 -38 -73 0
-26 34 95 0
-20 31 -32 0
9 33 51 0
5 60 -84 0
-30 -105 114 0
30 38 113 0
77 106 -125 0
-23 -66 111 0
-14 77 82 0
19 44 -48 0
5 77 -94 0
48 -53 87 0
-5 -27 102 0
-13 53 102 0
-21 -51 -84 0
40 -54 -86 0
-3 54 -111 0
27 -52 94 0
15 -55 -106 0
21 59 99 0
-19 71 -83 0
22 -65 -95 0
21 22 -67 0
63 -97 104 0
-6 -108 121 0
-78 82 119 0
82 -101 110 0
24 61 -107 0
-21 -67 121 0
20 32 125 0
42 -86 -108 0
-71 -81 -109 0
-32 -55 -75 0
23 57 -65 0
-31 58 -60 0
9 -14 -52 0
-12 47 103 0
-11 17 82 0
-65 97 115 0
9 79 110 0
37 63 114 0
-45 79 -107 0
-36 79 -115 0
-65 118 -124 0
-31 -65 79 0
24 -26 -52 0
-22 49 115 0
-47 82 -110 0
-69 -81 -110 0
48 -49 -74 0
11 57 98 0
-38 -67 -105 0
1 94 96 0
-38 -79 -81 0
-7 17 115 0
-1 -3 7 0
46 -67 -69 0
-18 -27 76 0
2 18 -120 0
9 -13 -82 0
34 104 -124 0
-75 -77 83 0
1 22 116 0
24 31 52 0
2 71 -79 0
-26 67 -78 0
9 -39 81 0
-49 56 -109 0
-14 23 29 0
-16 43 -115 0
-71 -82 -87 0
83 119 124 0
22 34 116 0
42 -96 -118 0
-31 -49 77 0
4 -56 110 0
51 75 80 0
4 5 -15 0
4 19 90 0
82 83 89 0
-9 76 110 0
-97 112 113 0
5 15 -27 0
13 17 -62 0
-41 44 -55 0
33 -37 -120 0
-78 -99 124 0
-4 53 -101 0
7 61 -91 0
1 -22 56 0
1 -45 63 0
-64 -76 124 0
28 -37 105 0
15 -82 121 0
42 -46 -81 0
96 -114 115 0
-27 -39 48 0
49 -81 114 0
69 -77 -97 0
-20 -67 112 0
-57 60 89 0
43 60 -83 0
39 91 97 0
-42 78 93 0
-25 42 123 0
14 -85 124 0
-19 -39 -102 0
14 -26 82 0
50 60 -114 0
56 -102 -110 0
-3 19 33 0
-56 110 117 0
24 -83 -87 0
34 -41 81 0
52 -92 -101 0
-3 59 -62 0
-2 50 100 0
28 33 -70 0
-13 74 -109 0
-3 -66 -82 0
59 95 -122 0
66 -98 120 0
-33 36 49 0
-10 -54 -118 0
-14 29 -39 0
22 28 60 0
61 72 -83 0
-82 -86 -107 0
71 -84 -98 0
-30 -101 -109 0
-24 55 -87 0
-32 -46 -84 0
55 -63 80 0
-39 110 119 0
-73 106 -116 0
2 75 82 0
33 38 84 0
-24 58 100 0
52 102 -116 0
26 64 -89 0
15 -86 -113 0
-18 -30 106 0
60 -62 116 0
22 64 -70 0
-60 -73 -90 0
48 54 -55 0
4 82 -83 0
-13 -66 104 0
-5 28 -92 0
-13 -85 -111 0
68 -71 -100 0
33 -44 -55 0
-46 -64 -106 0
45 -65 112 0
-25 41 43 0
-6 52 -101 0
1 14 -39 0
78 -85 99 0
81 87 90 0
59 82 86 0
5 54 -112 0
-18 -106 -112 0
-5 24 -54 0
73 -75 83 0
-16 -100 -106 0
-2 9 -88 0
53 71 -99 0
20 -28 115 0
2 86 88 0
-16 17 -112 0
-32 73 93 0
47 96 -100 0
-72 -81 -91 0
7 117 124 0
2 -84 -114 0
40 -77 94 0
-41 -48 122 0
19 -103 124 0
-54 -81 -103 0
-35 -101 -121 0
-8 80 125 0
-40 77 -107 0
49 -50 -88 0
-1 -42 -89 0
21 -76 118 0
104 -112 -114 0
-11 -45 69 0
93 -97 101 0
51 -60 87 0
50 -59 102 0
-30 -51 -75 0
26 65 76 0
-12 -24 -104 0
52 67 100 0
48 -64 -119 0
-11 20 -101 0
36 67 78 0
-27 111 -112 0
-36 100 -119 0
76 -99 105 0
-24 26 44 0
-5 -7 -72 0
109 -117 122 0
-12 -91 123 0
-12 83 -123 0
21 48 109 0
-5 33 121 0
-7 -108 118 0
13 19 -41 0
57 -76 -98 0
33 -48 -50 0
22 49 57 0
60 92 117 0
29 -107 119 0
58 -100 123 0
-10 -58 81 0
-15 62 -81 0
8 -29 95 0
-20 -57 -112 0
-4 -20 -32 0
-22 34 -103 0
59 62 116 0
81 -101 -115 0
16 -33 -97 0
31 34 -119 0
38 54 -115 0
-3 -19 82 0
-1 57 -102 0
-6 56 -117 0
18 24 74 0
11 -26 -77 0
18 -23 27 0
-2 9 -89 0
-37 43 108 0
-53 98 -117 0
-24 32 73 0
48 -74 -90 0
10 -67 124 0
-105 -107 111 0
-14 -38 112 0
68 69 103 0
12 29 124 0
33 40 72 0
90 -95 119 0
-77 82 -108 0
14 45 112 0
-16 -35 60 0
16 52 114 0
-19 -74 86 0
-3 -106 122 0
51 -121 -125 0
-31 -52 -108 0
52 -105 109 0
-88 120 -123 0
-2 81 85 0
9 42 56 0
-18 -54 125 0
104 114 -125 0
-80 87 118 0
16 -33 67 0
6 -37 -122 0
16 -22 83 0
60 -69 76 0
-17 -66 -114 0
32 -36 -95 0
73 -79 89 0
-47 -71 -91 0
40 61 -105 0
-25 -29 66 0
21 -46 -119 0
35 -37 63 0
3 -21 -99 0
-8 -67 -85 0
14 95 -98 0
44 46 -86 0
67 -106 -108 0
81 -91 101 0
1 -53 -99 0
-20 -74 124 0
-49 -58 -110 0
-38 -46 51 0
-96 -101 -109 0
-24 39 -69 0
49 74 -75 0
42 -108 125 0
55 115 125 0
-33 -73 -115 0
-56 -69 -80 0
-6 -46 77 0
9 68 -87 0
48 52 -65 0
-52 57 63 0
-10 41 47 0
-38 -84 115 0
38 68 -105 0
8 -24 81 0
2 -53 89 0
39 51 118 0
-23 26 64 0
16 53 78 0
4 -10 -13 0
56 79 -104 0
-19 -31 92 0
5 35 -81 0
-25 58 80 0
29 -51 114 0
31 32 80 0
76 -110 120 0
-105 -111 -116 0
-33 78 123 0
50 -87 -92 0
-52 92 113 0
-12 -22 23 0
-1 -113 -125 0
-15 -43 -69 0
9 -84 -124 0
32 -50 -71 0
31 -45 56 0
20 44 104 0
26 -35 -70 0
102 104 -108 0
-28 -46 93 0
39 61 -122 0
-17 -87 -121 0
32 52 69 0
-12 -66 87 0
73 -85 92 0
12 50 -91 0
25 85 -115 0
-65 98 104 0
12 -40 92 0
-52 -92 -105 0
60 -109 117 0
-4 -47 87 0
-85 90 -91 0
46 81 -116 0
15 35 -117 0
-6 21 -78 0
20 -49 95 0
-30 -73 -108 0
-74 86 88 0
