c F1 random 3-CNF cnfgen RandomKCNF(3,50,213,seed=2) m/n=4.26
p cnf 50 213
4 -6 -24 0
3 -14 -39 0
-24 -33 47 0
-2 -24 -30 0
11 34 36 0
2 12 -21 0
33 -36 -44 0
-34 -48 -49 0
-11 -29 49 0
-18 -32 -33 0
-23 -37 47 0
-11 -21 -45 0
-20 -33 46 0
24 -32 33 0
7 13 -48 0
15 38 -44 0
-4 14 16 0
12 16 24 0
2 -3 -5 0
9 11 -48 0
3 16 38 0
23 -40 -41 0
-2 20 -32 0
26 -40 49 0
-6 43 44 0
-9 -29 -34 0
-10 -17 22 0
9 -36 45 0
-7 9 11 0
-15 16 -46 0
-6 -15 -38 0
18 34 49 0
11 25 27 0
2 7 12 0
-2 -34 -43 0
25 35 -42 0
2 -28 33 0
-7 31 43 0
-19 -24 40 0
7 -27 44 0
-2 44 -50 0
30 32 41 0
-2 19 24 0
13 -32 -49 0
-9 -30 46 0
-6 -8 17 0
-2 7 -45 0
19 -23 -30 0
-31 -34 -47 0
-11 -15 -26 0
6 44 -45 0
-10 12 35 0
3 -42 -44 0
-15 -43 46 0
8 -19 34 0
-16 22 34 0
-16 -30 46 0
29 -30 47 0
-4 -26 -33 0
-17 -46 -47 0
22 36 46 0
25 -26 -43 0
30 34 46 0
-14 26 47 0
25 -36 50 0
9 -32 -40 0
17 -33 37 0
5 -23 49 0
-32 -38 -49 0
2 -30 33 0
17 26 49 0
-25 30 32 0
19 -30 36 0
-25 35 -37 0
-9 -32 42 0
-17 -20 -21 0
6 -33 34 0
-6 33 41 0
-15 30 36 0
-8 25 -44 0
-5 -22 23 0
-19 29 -32 0
-14 18 41 0
-13 16 -31 0
-9 -15 -18 0
-18 -39 -47 0
35 -40 -41 0
-12 -26 -31 0
-6 -12 31 0
2 -7 23 0
-42 47 -49 0
-16 -25 39 0
-13 21 24 0
14 -17 -22 0
6 17 22 0
-3 -40 47 0
-5 -10 -12 0
9 -21 -34 0
-4 -15 -26 0
35 -39 -40 0
-11 -30 -45 0
3 7 29 0
-5 20 -26 0
7 23 43 0
10 -28 -43 0
4 -16 31 0
2 9 36 0
-1 34 35 0
1 24 32 0
7 14 -30 0
-22 40 42 0
10 -14 41 0
20 -22 28 0
20 21 -26 0
-18 -19 34 0
9 27 45 0
13 14 26 0
-17 45 48 0
10 21 39 0
9 41 -45 0
14 -19 -41 0
-5 -34 37 0
20 -30 43 0
-14 -22 27 0
9 -28 -50 0
-23 25 -31 0
-13 -29 -49 0
-5 11 24 0
-14 20 44 0
2 -13 -21 0
-22 43 -47 0
-2 31 46 0
-10 11 -39 0
-6 -18 42 0
10 20 -37 0
-38 -40 45 0
14 -36 42 0
-9 -40 47 0
-26 -30 31 0
4 15 16 0
-25 28 -46 0
-7 -24 33 0
30 -46 48 0
2 3 31 0
16 21 -35 0
7 42 -49 0
-3 -9 -46 0
-4 23 -36 0
-7 -23 -39 0
19 33 39 0
22 -28 41 0
-5 -43 -45 0
11 12 -16 0
12 19 44 0
15 -26 37 0
5 16 39 0
1 -26 45 0
-4 26 34 0
-9 28 30 0
-28 29 -34 0
9 23 -39 0
-10 -12 -46 0
-13 -30 -31 0
15 -23 50 0
-2 -20 -28 0
-16 -30 -46 0
16 -36 -43 0
24 27 -49 0
-8 -28 39 0
-25 -29 48 0
10 -15 -43 0
32 -46 -47 0
-21 -26 -37 0
1 26 -43 0
-1 -7 -8 0
-12 26 -47 0
-16 26 40 0
-2 20 23 0
-1 22 -26 0
14 -37 41 0
-20 -22 -50 0
6 -18 49 0
12 16 -24 0
16 18 26 0
-26 31 50 0
39 -45 47 0
9 14 47 0
30 41 -50 0
2 -26 40 0
-3 -20 -37 0
5 8 -30 0
5 -18 42 0
-19 34 46 0
5 -9 -27 0
-3 -13 45 0
-10 -15 40 0
10 -13 15 0
7 18 -24 0
9 -28 47 0
2 22 49 0
-9 -32 -48 0
19 20 43 0
-1 6 -10 0
37 44 50 0
37 -47 50 0
12 -28 43 0
-22 28 32 0
-3 9 -43 0
48 -49 50 0
6 33 37 0
9 21 -35 0
26 -30 44 0
-4 7 23 0
