c F1 random 3-CNF cnfgen RandomKCNF(3,150,639,seed=18) m/n=4.26
p cnf 150 639
-32 47 115 0
-47 -126 -127 0
51 -65 68 0
-44 52 -61 0
56 -68 -77 0
-57 -104 -138 0
-30 -78 142 0
42 -49 127 0
105 123 -132 0
-87 137 -140 0
-38 39 123 0
24 -91 140 0
-23 -35 123 0
-34 -99 -107 0
-37 86 -87 0
-5 139 147 0
-2 110 132 0
-66 -104 -109 0
39 -45 -58 0
-15 24 127 0
20 55 68 0
28 -77 -96 0
23 -69 -89 0
105 -132 -134 0
-12 -66 145 0
-42 56 -73 0
-23 -28 84 0
-20 57 120 0
-57 -94 -138 0
6 79 117 0
22 94 -102 0
55 -64 138 0
-34 59 -115 0
-43 69 -132 0
63 -71 122 0
74 75 117 0
6 43 -77 0
18 -46 142 0
-22 118 125 0
-68 -83 114 0
-51 -85 97 0
-10 17 38 0
67 -90 127 0
-19 -39 93 0
52 -90 111 0
-39 47 61 0
-10 33 144 0
-42 -62 -87 0
-86 -133 -150 0
-60 -95 -121 0
-30 71 137 0
-60 -93 126 0
-38 -67 -123 0
67 -80 126 0
59 100 -101 0
15 -101 -109 0
89 -124 -143 0
101 140 147 0
-18 -132 -149 0
-81 -92 109 0
-10 45 73 0
-63 84 -99 0
37 -77 83 0
-57 70 105 0
-32 -81 107 0
8 23 143 0
-2 34 141 0
-54 105 -131 0
-36 100 -150 0
-53 -84 127 0
-11 24 106 0
34 70 87 0
-8 -29 -78 0
-38 -117 -139 0
-17 21 60 0
68 82 135 0
-30 -115 131 0
-31 109 130 0
-12 81 -140 0
-36 -45 49 0
-13 -39 -133 0
-46 97 -129 0
-62 -85 -122 0
-64 110 -140 0
6 -41 -93 0
61 -80 110 0
12 -23 123 0
94 -97 132 0
47 85 89 0
-43 45 -62 0
72 -101 146 0
39 -40 -95 0
-47 66 96 0
-20 -66 -122 0
-110 118 -149 0
-127 131 139 0
-48 96 -144 0
14 37 49 0
18 -43 70 0
4 64 -121 0
-1 98 103 0
-92 -135 141 0
-56 -80 -135 0
66 71 87 0
11 97 -142 0
27 31 41 0
66 117 120 0
-2 -109 120 0
-37 -109 140 0
62 77 -150 0
-50 105 117 0
-5 -129 -133 0
32 46 102 0
2 -76 81 0
14 118 120 0
6 97 146 0
-33 88 -119 0
-23 120 -150 0
110 129 131 0
15 59 -130 0
-10 -111 120 0
-10 26 53 0
-20 -77 128 0
-68 -81 86 0
99 112 -134 0
-14 -55 -84 0
11 40 76 0
24 -119 -124 0
-48 -60 -66 0
4 -11 62 0
-4 9 -124 0
-6 -106 135 0
24 -129 133 0
-1 24 75 0
-84 -114 -123 0
-94 -130 145 0
40 -84 -89 0
34 -79 137 0
96 111 -119 0
-63 -70 131 0
-86 120 -136 0
-46 -52 141 0
22 -75 -83 0
27 53 110 0
20 29 99 0
-58 -110 133 0
-28 102 147 0
44 70 118 0
7 -28 42 0
6 90 142 0
-75 -77 -111 0
-103 -108 -147 0
-40 82 119 0
-1 -56 121 0
86 116 149 0
-24 -39 61 0
-59 -79 -142 0
-29 49 68 0
-11 -39 -76 0
-63 -87 -95 0
-47 68 -83 0
-7 -23 -28 0
8 55 75 0
-22 38 63 0
15 -69 -79 0
1 80 -128 0
30 -42 148 0
-49 -96 128 0
13 -53 68 0
-55 -91 141 0
-4 -77 -99 0
-29 129 -132 0
-22 87 -148 0
-14 -37 -130 0
81 -87 -148 0
-103 -116 -131 0
19 56 108 0
-29 60 146 0
4 -61 -123 0
-27 -56 -69 0
-3 7 132 0
38 56 69 0
116 119 141 0
69 -92 -99 0
-10 -116 133 0
-12 -53 61 0
-57 -105 122 0
-15 -61 -111 0
-54 -64 134 0
13 127 -138 0
15 -41 116 0
-40 114 -132 0
8 -79 135 0
73 -130 -150 0
22 -91 -121 0
52 -75 -99 0
-31 41 -98 0
-51 -78 140 0
12 -62 104 0
-14 68 -73 0
-48 115 -130 0
-18 103 130 0
24 -35 94 0
-54 -55 -144 0
20 106 -140 0
-4 -39 -91 0
14 30 -88 0
-12 124 127 0
38 -71 -81 0
14 -53 -127 0
-36 -64 -89 0
21 -43 -99 0
60 -72 106 0
22 -26 77 0
1 -18 94 0
-57 -74 -134 0
-11 -114 -125 0
94 -111 -134 0
45 70 84 0
2 -36 -91 0
-8 103 133 0
-37 -74 149 0
-20 112 -141 0
34 66 98 0
19 -98 -131 0
37 -119 129 0
-111 -125 -145 0
61 77 -89 0
-1 20 -49 0
-75 85 92 0
-43 -89 -102 0
112 124 -127 0
-36 -47 66 0
24 126 129 0
6 34 -143 0
-4 23 -110 0
-65 117 123 0
-39 129 -136 0
18 56 -92 0
53 60 144 0
29 104 122 0
-26 41 106 0
-36 -126 -128 0
-92 -129 135 0
74 96 127 0
-43 124 -146 0
9 -18 -27 0
45 -64 -126 0
9 50 -127 0
-43 65 -81 0
19 65 -146 0
-22 -67 -112 0
-15 -26 -52 0
-9 -33 -116 0
-32 114 -117 0
-42 -80 -114 0
-47 -112 148 0
19 63 73 0
62 81 -89 0
-28 94 -107 0
-27 48 -74 0
104 111 -136 0
3 25 113 0
22 -37 144 0
-52 -73 91 0
-123 -135 -141 0
30 34 68 0
-4 -96 114 0
-11 46 -108 0
-31 -106 108 0
-59 74 80 0
49 57 92 0
-15 79 -120 0
95 -97 132 0
29 -33 80 0
-17 53 150 0
-74 -82 111 0
-47 -93 104 0
11 -115 -133 0
-111 -120 135 0
72 96 130 0
-33 -71 149 0
38 128 -145 0
-47 53 135 0
71 101 127 0
-65 102 -134 0
-23 112 114 0
50 76 -122 0
65 78 -108 0
-52 64 -142 0
31 -113 -119 0
-61 -89 96 0
50 -131 -144 0
-49 -115 145 0
-10 40 -119 0
-5 95 117 0
-28 -56 83 0
-19 -49 -101 0
28 59 91 0
-57 72 -92 0
-29 49 143 0
-12 141 143 0
16 -129 146 0
-39 -102 121 0
39 83 -116 0
43 -126 134 0
20 49 91 0
-59 -71 84 0
4 55 -126 0
-34 -37 120 0
-29 -42 72 0
-1 88 -115 0
-48 68 -135 0
-42 -48 52 0
83 -90 -107 0
-55 -98 -135 0
-31 -69 -117 0
22 -86 -135 0
-40 113 -134 0
-18 -91 105 0
46 -81 115 0
-64 -128 139 0
47 -131 147 0
-109 143 144 0
-56 -107 142 0
-17 107 -129 0
36 57 -60 0
-8 107 113 0
15 20 -145 0
-50 -87 -143 0
-29 -32 122 0
-29 63 111 0
-23 -71 82 0
16 -68 -93 0
8 72 97 0
-38 -43 -74 0
24 43 -72 0
-57 70 -102 0
34 -103 -145 0
-26 42 -69 0
-16 61 -92 0
33 76 -105 0
-62 82 95 0
-22 64 -148 0
-13 15 -133 0
27 -92 93 0
-3 62 114 0
-50 115 135 0
-97 -127 148 0
-34 71 -130 0
-6 46 -86 0
-25 -51 -134 0
-18 67 -84 0
-23 55 150 0
29 116 141 0
-1 -19 -146 0
63 64 119 0
80 93 133 0
60 73 -99 0
-53 66 68 0
-35 130 136 0
15 46 -96 0
-9 66 92 0
-57 66 128 0
-85 -112 123 0
-82 115 129 0
6 -24 -130 0
17 53 -114 0
-34 -61 73 0
-38 69 -71 0
1 92 137 0
96 -132 145 0
-27 31 75 0
-27 37 -130 0
35 58 -150 0
-12 -76 -148 0
-28 58 142 0
31 66 87 0
-17 -48 82 0
26 -123 130 0
102 -109 -113 0
-60 -73 150 0
-77 114 -117 0
-23 27 -79 0
-26 -34 -90 0
-26 96 109 0
5 -109 -128 0
96 123 132 0
-16 129 -142 0
-28 54 80 0
4 33 114 0
-6 -86 106 0
62 94 108 0
97 -140 -149 0
-95 116 -148 0
40 52 78 0
12 65 81 0
62 116 138 0
9 18 -105 0
-30 -76 -99 0
-128 -132 -149 0
-101 109 -118 0
46 67 88 0
-18 59 -86 0
-52 -56 147 0
-10 86 -141 0
-51 60 74 0
6 56 -71 0
11 -29 47 0
-69 127 140 0
-10 -130 -150 0
-9 53 105 0
-2 124 -132 0
-80 109 -125 0
-90 -118 -143 0
-37 -58 -81 0
-44 -93 -107 0
-80 83 87 0
-26 102 -149 0
6 -10 71 0
6 -31 -131 0
-98 100 135 0
19 -61 -110 0
-5 -39 45 0
47 -69 86 0
73 -78 133 0
38 -104 118 0
6 -65 -81 0
-67 131 143 0
35 -85 111 0
45 114 123 0
62 89 128 0
14 -68 -82 0
-48 89 131 0
2 58 105 0
95 -97 122 0
-31 88 -150 0
49 58 -143 0
11 -60 84 0
-83 -125 128 0
-43 69 -94 0
-15 -28 -81 0
-45 59 83 0
-25 -114 133 0
11 29 40 0
85 129 -143 0
-59 -62 72 0
76 87 -91 0
42 -68 85 0
53 57 -136 0
-22 -105 140 0
9 92 -101 0
-75 79 -136 0
91 -96 -113 0
11 -15 -120 0
13 -69 103 0
-75 -93 -111 0
-15 -92 129 0
-13 65 86 0
-98 -114 145 0
-52 -107 114 0
-1 -3 -130 0
-1 -67 -141 0
19 82 113 0
-10 -60 -143 0
-1 41 61 0
28 61 -75 0
-12 57 119 0
-16 -19 -135 0
82 87 -139 0
4 -8 -28 0
-78 104 -116 0
6 9 -101 0
-52 60 -68 0
-51 99 -125 0
54 101 -124 0
11 -65 -76 0
-50 57 130 0
15 -46 97 0
-14 -28 -63 0
36 -76 138 0
71 73 -77 0
-31 84 87 0
8 -88 122 0
2 -17 -84 0
-9 43 54 0
71 -120 142 0
-73 -92 -117 0
25 101 -144 0
-100 -114 130 0
55 100 -139 0
73 -125 -127 0
-4 124 -150 0
-19 -75 -93 0
2 -24 39 0
38 -119 -125 0
-84 -134 150 0
-35 62 -120 0
19 -91 139 0
44 -52 -137 0
-109 -123 -144 0
77 93 -134 0
52 -79 -84 0
9 64 83 0
25 60 -83 0
5 97 102 0
65 -106 -110 0
6 -33 43 0
22 -70 125 0
-28 78 83 0
-50 98 99 0
37 -63 -147 0
12 -53 -101 0
1 -79 -119 0
41 -136 141 0
-27 -35 -75 0
17 60 -117 0
9 11 -16 0
-15 -86 116 0
4 137 146 0
-67 -69 147 0
-8 65 -131 0
15 -17 117 0
-107 -120 -122 0
-76 111 -133 0
-21 -52 -92 0
-16 101 -150 0
9 89 -111 0
81 107 -139 0
7 46 90 0
16 59 106 0
28 68 149 0
18 -103 142 0
29 109 -140 0
84 -103 142 0
86 -89 -131 0
53 -113 134 0
21 -99 -110 0
-13 37 126 0
-22 -69 94 0
-21 -32 -92 0
2 129 142 0
42 68 -145 0
-28 -80 91 0
-12 -79 -93 0
91 -101 -110 0
29 100 104 0
60 -103 -119 0
21 140 -141 0
-14 -66 138 0
31 -41 -113 0
-29 -95 -107 0
-52 -56 144 0
21 -95 100 0
76 111 -138 0
66 134 -148 0
-22 48 -112 0
40 -126 149 0
10 56 -84 0
84 -131 -144 0
66 -96 142 0
-9 116 132 0
74 78 93 0
7 -112 115 0
29 -89 -127 0
-4 33 113 0
-38 108 -145 0
-1 -25 -51 0
48 54 71 0
-67 -83 -113 0
-22 121 123 0
13 -100 -142 0
107 -122 -137 0
-15 102 129 0
92 95 147 0
32 -71 -137 0
3 -11 14 0
17 -46 49 0
33 -38 79 0
-26 -35 49 0
81 132 148 0
-60 -117 -132 0
-16 -31 -116 0
-79 109 -144 0
-59 -111 138 0
44 -56 -134 0
4 -17 -35 0
14 -116 136 0
-21 41 144 0
12 -50 59 0
-31 -83 96 0
52 -57 137 0
-20 102 -113 0
37 -112 124 0
30 -45 130 0
-7 24 147 0
-13 -126 146 0
-34 60 -125 0
-28 -88 97 0
-44 -107 133 0
-18 133 -142 0
-55 63 111 0
-58 -88 112 0
11 -31 117 0
-23 78 128 0
15 -104 129 0
2 -43 70 0
-6 -47 -150 0
-87 101 -132 0
-59 93 -100 0
12 -84 -150 0
35 45 55 0
-1 24 69 0
60 103 -143 0
-39 79 -92 0
-55 98 -133 0
-2 -30 36 0
38 -87 -145 0
63 -79 -99 0
-2 28 -46 0
-9 -83 125 0
-31 -124 150 0
-8 28 124 0
-26 -57 92 0
25 -108 135 0
11 97 107 0
15 -124 -141 0
12 -51 -57 0
-63 -97 -146 0
-10 13 -88 0
4 -96 146 0
33 89 143 0
31 -39 -40 0
40 123 -146 0
52 94 -99 0
-27 50 -131 0
76 107 110 0
8 -38 141 0
98 132 146 0
