c F1 random 3-CNF cnfgen RandomKCNF(3,150,639,seed=14) m/n=4.26
p cnf 150 639
-28 -64 -135 0
-19 -78 -116 0
-31 -58 -68 0
39 -93 133 0
-3 18 32 0
-53 -71 98 0
29 94 -149 0
-50 70 -132 0
66 73 129 0
8 -31 72 0
-24 109 -135 0
-80 -117 -125 0
-25 66 -122 0
18 -126 -146 0
-5 -113 147 0
-89 -95 -146 0
49 -78 -136 0
25 26 -100 0
-1 -7 -130 0
9 30 38 0
65 68 129 0
75 85 95 0
94 -99 -126 0
-9 -64 -125 0
23 27 68 0
-37 -55 67 0
14 -98 -140 0
108 -109 139 0
24 38 45 0
-12 -91 -143 0
-20 83 121 0
18 30 110 0
1 -12 79 0
-2 116 -120 0
-21 64 70 0
2 -29 -92 0
-76 89 -115 0
-36 73 -146 0
-7 -18 -113 0
52 -65 -108 0
63 100 134 0
20 50 -66 0
8 -13 -143 0
18 58 -118 0
52 -99 -118 0
-56 -86 90 0
-35 -45 -118 0
13 40 -137 0
-76 94 125 0
7 54 130 0
-80 104 -122 0
-64 -91 143 0
-4 11 -79 0
30 -51 -52 0
29 -99 114 0
16 -62 140 0
-21 -34 137 0
21 24 143 0
-35 -122 -143 0
17 -93 -131 0
43 -117 124 0
82 116 -138 0
52 -63 139 0
13 72 -110 0
-49 88 -124 0
63 76 78 0
63 66 132 0
55 65 101 0
3 -51 80 0
35 57 -86 0
-1 -47 -141 0
-13 62 -116 0
-52 54 -67 0
-8 -104 -123 0
75 83 -139 0
17 -42 -64 0
-100 114 -127 0
-20 61 147 0
-108 -124 -134 0
-98 -122 -146 0
5 -48 94 0
15 -125 127 0
14 36 106 0
-11 54 99 0
17 84 131 0
4 -22 143 0
-14 -86 146 0
6 123 139 0
4 50 -110 0
6 -11 -83 0
-48 -64 -73 0
50 -56 125 0
42 70 -123 0
47 -86 -127 0
-73 109 140 0
10 92 137 0
16 -20 -85 0
-34 -98 147 0
-32 -34 138 0
32 -77 -92 0
74 115 -144 0
-29 -30 -100 0
-23 31 -86 0
-28 -56 83 0
-72 75 -142 0
-66 79 144 0
70 -115 -121 0
37 72 -82 0
-43 51 -133 0
-72 100 106 0
-123 129 141 0
-44 104 -107 0
-80 -92 -121 0
68 -102 120 0
-98 -105 117 0
11 74 123 0
6 9 44 0
61 125 141 0
10 84 -122 0
30 115 -148 0
-43 -52 -58 0
-34 -42 -95 0
-58 112 -131 0
91 133 136 0
-102 113 145 0
-5 -120 142 0
-20 51 96 0
-75 -83 103 0
2 16 -100 0
9 63 -141 0
38 67 -120 0
28 -83 142 0
-41 102 -107 0
110 -133 147 0
8 -43 87 0
19 106 -139 0
17 148 150 0
62 93 144 0
53 -57 -63 0
54 124 146 0
-27 -100 103 0
-103 116 -125 0
10 -61 -136 0
-7 54 -108 0
9 15 34 0
26 -58 132 0
-60 68 -116 0
21 120 -124 0
1 28 29 0
13 -97 121 0
41 -100 102 0
-92 112 -114 0
26 83 -136 0
-89 -134 140 0
-88 139 -142 0
15 -133 -148 0
23 -26 142 0
24 127 -129 0
-47 94 -119 0
14 99 133 0
-34 76 123 0
-43 -121 125 0
-40 -127 139 0
92 97 150 0
-55 100 141 0
-18 34 -42 0
12 79 -106 0
33 -60 -111 0
44 70 -125 0
-26 -34 67 0
-41 -119 137 0
9 -29 67 0
-2 -22 -80 0
121 131 144 0
-19 40 72 0
-18 82 -137 0
56 102 135 0
67 69 -138 0
-48 -56 -65 0
-60 102 -129 0
65 -77 145 0
-40 69 -147 0
-11 -45 -49 0
-30 92 102 0
-29 -130 -145 0
-8 27 141 0
-22 -38 -87 0
-76 -89 -126 0
56 -96 119 0
-9 -83 -116 0
-1 50 -76 0
-13 -75 -105 0
54 66 -134 0
-3 -79 114 0
-15 -58 -126 0
43 102 -138 0
89 143 146 0
-60 80 86 0
24 -31 131 0
32 59 138 0
38 41 125 0
15 36 148 0
51 102 129 0
-18 36 63 0
19 -75 -78 0
-7 -38 -122 0
-83 94 -143 0
24 -109 -136 0
-10 -79 91 0
2 -6 -25 0
-36 81 132 0
15 -42 117 0
-67 84 -139 0
91 97 148 0
65 81 -94 0
101 -114 -122 0
-38 96 139 0
12 -96 -123 0
29 -76 132 0
12 15 123 0
-49 86 -94 0
26 102 142 0
12 -26 -114 0
-73 88 118 0
48 76 -119 0
-30 90 98 0
-20 -28 133 0
-16 20 98 0
-64 67 -150 0
39 -80 -85 0
49 -78 120 0
3 25 32 0
1 -64 132 0
-18 126 -139 0
-29 -113 143 0
7 18 87 0
-96 -127 133 0
54 -109 -120 0
-71 -75 118 0
49 73 -100 0
-5 -56 -64 0
-74 -98 141 0
71 -93 -127 0
48 -68 93 0
-47 104 -115 0
-16 43 75 0
-47 52 72 0
-26 44 46 0
106 123 -142 0
6 -9 131 0
14 56 -91 0
-14 -26 -78 0
61 110 124 0
-3 64 74 0
7 103 135 0
27 69 76 0
-7 -41 -73 0
-9 46 75 0
-39 104 141 0
-15 47 84 0
113 -128 -148 0
-13 15 -103 0
-64 105 -109 0
-27 74 -118 0
10 47 106 0
21 -30 127 0
-58 102 125 0
-39 -116 127 0
-32 -103 106 0
45 -50 54 0
-135 141 143 0
-17 -31 116 0
-55 65 108 0
-76 105 108 0
-55 -57 124 0
78 -111 120 0
-48 50 -140 0
-18 24 -113 0
71 -86 92 0
-3 -21 76 0
-133 141 150 0
-70 -136 137 0
25 -64 138 0
-60 65 78 0
71 -125 -147 0
8 72 -115 0
41 -66 -117 0
-84 -115 123 0
-46 69 -114 0
14 -58 115 0
-3 -31 86 0
-42 -109 118 0
11 -35 -120 0
82 -101 -120 0
-51 -146 -149 0
-15 104 143 0
12 91 129 0
-45 -81 143 0
69 -84 -150 0
66 -125 131 0
38 94 147 0
40 55 -102 0
11 48 97 0
-2 137 143 0
-96 -118 -127 0
36 -69 81 0
18 29 -61 0
41 88 -100 0
-9 -74 84 0
29 33 -43 0
-19 54 -64 0
-31 -118 -149 0
-33 -120 -140 0
15 69 -78 0
10 -25 83 0
-13 -22 60 0
-48 131 150 0
-9 91 93 0
-4 -88 -98 0
16 27 -105 0
52 -146 150 0
35 -115 139 0
18 105 -120 0
-9 41 -118 0
-51 60 128 0
-4 -95 -126 0
41 -84 118 0
20 48 -57 0
-15 38 -82 0
-20 21 -131 0
10 92 98 0
-15 -84 102 0
7 93 -127 0
41 -52 130 0
-12 13 34 0
-17 -46 60 0
76 -128 -136 0
10 61 -119 0
-35 61 -107 0
-25 68 -111 0
82 -127 143 0
-78 124 128 0
-46 87 -127 0
-84 -90 106 0
-18 -44 122 0
21 107 121 0
-56 65 147 0
45 -58 130 0
-8 60 -95 0
-41 46 -63 0
11 43 -124 0
-29 -97 -126 0
6 -79 105 0
3 34 -113 0
36 -129 135 0
-14 -91 -146 0
-35 112 -113 0
1 3 143 0
-16 -62 -101 0
-36 -75 -93 0
-25 -111 127 0
-7 -136 148 0
-37 -52 -78 0
28 47 -54 0
68 -74 115 0
29 116 120 0
29 -50 124 0
-27 70 -130 0
-11 56 64 0
-102 -104 -140 0
-12 -85 139 0
57 -71 -102 0
28 -59 112 0
-34 -95 108 0
87 114 -125 0
12 -85 -136 0
-66 -83 136 0
-108 129 -133 0
16 -52 69 0
26 -123 142 0
-8 12 126 0
-54 -76 110 0
10 38 141 0
-17 103 -112 0
6 -25 -145 0
-13 -76 -101 0
42 56 72 0
-76 104 -136 0
32 -45 -99 0
-4 78 138 0
-68 -110 111 0
-89 123 -138 0
-60 91 -118 0
-36 -58 -142 0
-18 79 -107 0
13 80 -143 0
-97 -116 -145 0
37 -86 -99 0
4 7 43 0
-4 40 106 0
-41 83 -135 0
-64 81 -134 0
-34 93 -102 0
-27 107 116 0
27 77 -81 0
-10 38 93 0
30 33 -91 0
62 -65 90 0
17 92 -118 0
-29 39 48 0
-88 113 147 0
16 -67 -112 0
9 -39 146 0
-38 -109 -124 0
-66 72 -136 0
-51 60 138 0
2 -12 27 0
-41 93 127 0
72 -85 -97 0
-41 48 58 0
-18 43 -45 0
48 -79 -124 0
-32 89 -97 0
-12 30 -126 0
32 40 106 0
5 -97 149 0
12 47 85 0
-71 90 -144 0
-18 -66 72 0
-11 -51 73 0
-2 -121 -137 0
13 -61 -134 0
-19 -23 34 0
-42 -69 -71 0
66 -127 -146 0
44 94 -141 0
35 -102 142 0
-20 50 -82 0
24 -66 118 0
-91 95 -98 0
-23 47 88 0
-55 -61 122 0
-50 133 -134 0
9 -19 -94 0
22 74 90 0
117 -123 -137 0
-18 78 -91 0
28 91 -140 0
-22 94 -100 0
-40 -57 118 0
2 -117 129 0
-29 33 103 0
64 -69 125 0
-81 100 108 0
111 124 -143 0
-16 -36 -124 0
49 -59 122 0
44 -94 106 0
-23 -37 39 0
36 -86 -126 0
55 86 -90 0
16 -33 111 0
-14 -69 124 0
9 -79 -130 0
119 -121 -149 0
-22 -97 -148 0
20 34 87 0
-26 -88 143 0
18 -61 -68 0
-21 81 133 0
40 -93 101 0
25 -105 -146 0
-24 -33 127 0
89 -96 115 0
-23 112 -130 0
-36 -58 -112 0
65 71 -124 0
-11 82 124 0
-2 -115 -135 0
-53 76 -107 0
5 -16 72 0
67 -78 131 0
18 -27 -70 0
14 -95 111 0
52 -88 -106 0
45 53 -92 0
-42 77 -79 0
48 115 128 0
92 116 -123 0
20 -81 -116 0
35 -113 146 0
6 -84 96 0
16 -83 -107 0
59 -96 -115 0
-66 89 -121 0
44 84 -119 0
8 85 -96 0
8 -62 82 0
70 73 -107 0
-20 -36 -55 0
26 129 -150 0
8 -85 131 0
-17 18 122 0
39 -108 -145 0
37 49 -77 0
-5 -19 126 0
95 -117 -143 0
-39 119 143 0
6 18 -41 0
-36 94 -123 0
-14 124 141 0
-7 41 -139 0
-46 64 139 0
14 36 -52 0
-20 82 -143 0
-37 80 143 0
-5 -33 143 0
-78 121 143 0
9 40 148 0
22 -66 -97 0
-37 58 89 0
-96 142 -150 0
41 97 140 0
-24 -81 -133 0
-24 -33 -45 0
-30 -86 109 0
32 -67 148 0
-23 139 145 0
-16 -23 -85 0
80 -113 -136 0
10 79 -146 0
20 -26 105 0
56 119 148 0
-27 -120 -130 0
41 -52 -120 0
-21 -117 -142 0
-11 -107 147 0
16 77 -112 0
-5 -28 -98 0
-32 -73 -126 0
-59 -60 63 0
-60 -61 -144 0
3 -121 143 0
35 40 -83 0
-8 43 -114 0
54 -82 105 0
-47 -51 -116 0
-37 128 134 0
-34 109 -150 0
62 83 -136 0
67 113 -144 0
23 -84 -85 0
-98 110 -121 0
-30 115 -118 0
-23 -76 -142 0
-111 138 141 0
28 38 -40 0
9 -121 -141 0
-58 -69 -143 0
-30 -136 144 0
-37 -90 149 0
22 -59 107 0
2 -106 110 0
2 10 89 0
-12 -28 -92 0
-68 93 -139 0
65 -90 123 0
4 81 150 0
-37 112 150 0
8 -15 31 0
47 118 -149 0
-127 135 150 0
-64 82 117 0
-15 -18 69 0
-41 104 128 0
5 96 -147 0
-11 -55 110 0
-26 -40 -97 0
9 100 -116 0
-95 -124 -142 0
-22 -25 -150 0
11 -82 85 0
-15 -65 146 0
-25 72 150 0
20 41 47 0
-29 100 111 0
29 -46 66 0
-11 49 -95 0
43 -59 -81 0
-19 29 83 0
-6 36 -113 0
-50 69 -103 0
38 44 -123 0
-3 116 119 0
45 -108 123 0
-16 121 148 0
18 99 127 0
-24 57 -59 0
4 -105 -115 0
-20 -96 128 0
-30 107 -121 0
-49 -68 -85 0
6 53 148 0
23 -35 -50 0
22 33 -79 0
-35 -105 139 0
-10 41 -60 0
50 -60 -89 0
-11 50 -106 0
-32 89 137 0
-29 41 49 0
-17 -29 91 0
31 85 108 0
-9 -29 -117 0
-88 118 -122 0
72 88 107 0
29 51 -142 0
-29 -57 125 0
44 -75 -133 0
-5 22 -70 0
23 39 90 0
7 114 -126 0
-57 105 126 0
60 116 125 0
-12 -139 -144 0
-30 -109 -140 0
64 102 119 0
-63 -81 101 0
-13 24 -27 0
-22 -111 -145 0
14 99 132 0
-10 30 -73 0
-5 -6 113 0
-15 135 -148 0
-11 62 82 0
22 67 -130 0
32 34 45 0
-49 53 136 0
-52 77 125 0
