c F1 random 3-CNF cnfgen RandomKCNF(3,100,426,seed=17) m/n=4.26
p cnf 100 426
-39 -54 67 0
-70 91 99 0
-32 -50 -96 0
-82 88 93 0
18 -20 26 0
-9 -82 92 0
61 -65 -82 0
3 -48 56 0
48 -62 75 0
15 -28 72 0
9 35 -36 0
-40 45 -85 0
-13 -74 75 0
7 -45 -97 0
7 -61 -82 0
-10 92 96 0
-52 63 94 0
20 33 87 0
-40 41 69 0
-12 -54 -89 0
10 62 70 0
34 -69 74 0
-63 -76 93 0
-53 67 -71 0
-28 -30 97 0
-4 47 -77 0
22 -72 -75 0
-23 -28 -97 0
12 58 76 0
71 -74 -91 0
-18 -58 65 0
24 -34 -38 0
28 -43 97 0
67 86 90 0
39 61 91 0
59 69 -98 0
8 16 -55 0
-35 -45 46 0
44 68 -97 0
16 42 -43 0
-16 37 57 0
40 -54 -88 0
17 -28 65 0
-56 57 68 0
-22 -69 -76 0
9 53 79 0
-31 -55 100 0
-32 37 -64 0
-1 -16 82 0
-12 56 66 0
-10 -37 -38 0
-20 -35 -96 0
66 -74 81 0
-81 84 97 0
-28 -48 -70 0
11 -40 52 0
5 -73 -75 0
-52 -55 -79 0
-21 97 99 0
27 47 -95 0
10 -59 85 0
-62 75 95 0
-31 56 -99 0
43 -49 -63 0
23 -28 64 0
53 62 -84 0
4 34 61 0
5 -19 -33 0
-7 -12 -38 0
34 67 -73 0
10 -69 -79 0
45 62 79 0
-48 -58 -62 0
2 -29 77 0
15 49 -79 0
-15 87 96 0
-7 57 71 0
-13 18 -99 0
-39 78 -83 0
-1 12 -50 0
-42 69 -97 0
-12 -69 83 0
76 86 -93 0
5 -20 -88 0
-11 14 -98 0
-53 66 -98 0
17 -78 99 0
-41 61 85 0
-27 68 -97 0
47 56 80 0
1 -32 -34 0
50 55 91 0
-70 -81 97 0
-46 75 -78 0
57 58 74 0
18 -59 65 0
-1 -23 49 0
25 26 -36 0
20 -42 -61 0
-34 -91 94 0
-14 23 -32 0
-14 -34 -67 0
34 -51 -66 0
21 66 96 0
5 15 -46 0
30 42 99 0
74 -78 80 0
-84 -92 -98 0
-43 67 70 0
9 -12 -80 0
-5 20 -84 0
-21 -94 -96 0
-30 -59 73 0
-22 -73 -77 0
40 -70 81 0
-1 5 42 0
15 47 -76 0
-21 -64 77 0
28 -57 61 0
25 -31 71 0
-36 61 -76 0
-19 -58 -85 0
-9 -61 -93 0
2 -67 -87 0
2 -28 -84 0
-16 -79 -82 0
39 89 90 0
-4 10 -64 0
45 -84 -94 0
37 65 -73 0
2 47 -81 0
-5 12 41 0
33 39 -66 0
-13 -34 55 0
20 39 -79 0
40 79 84 0
-7 -26 -30 0
-1 9 56 0
-43 -84 97 0
53 59 67 0
4 35 42 0
50 -92 96 0
-18 26 -34 0
-11 -12 -81 0
43 54 76 0
-35 39 50 0
-52 78 -82 0
-3 -25 -100 0
-48 -52 60 0
-5 -28 -80 0
-21 31 42 0
23 25 88 0
41 55 67 0
-19 45 66 0
45 -54 -75 0
-11 45 54 0
-19 -42 91 0
8 22 54 0
44 -53 -68 0
-4 -5 36 0
4 42 88 0
22 -65 -81 0
-7 32 78 0
3 4 81 0
-27 44 83 0
17 62 -77 0
9 -66 97 0
-26 36 42 0
18 -32 -58 0
13 -52 64 0
-79 -84 92 0
8 26 -87 0
18 -21 -24 0
-8 -40 100 0
-34 -74 82 0
67 91 92 0
-67 -74 -75 0
24 53 -55 0
-6 62 98 0
-37 70 -72 0
-8 15 69 0
-34 56 -68 0
46 -63 -83 0
39 50 -79 0
29 -65 -96 0
17 19 -41 0
-20 -22 -85 0
26 -77 88 0
-1 -51 -63 0
-19 -64 -99 0
7 39 41 0
-12 -54 56 0
36 -51 99 0
-29 70 -79 0
-21 26 88 0
45 -61 -88 0
-28 43 73 0
-50 58 74 0
-41 64 65 0
-35 49 -88 0
-17 30 37 0
-35 -74 77 0
54 -56 66 0
3 -13 41 0
-32 -47 -58 0
15 62 85 0
-11 -12 48 0
-34 -51 -75 0
-13 -34 -62 0
34 41 -54 0
2 -65 -67 0
-2 53 69 0
-29 -30 -67 0
66 -76 -100 0
41 -42 52 0
-7 -70 -89 0
35 -58 -86 0
9 41 -55 0
-26 -31 -69 0
13 -93 100 0
3 -63 67 0
48 57 82 0
39 -83 -98 0
55 -75 -93 0
62 -88 93 0
-1 31 -85 0
-47 -54 92 0
-8 80 -87 0
15 29 30 0
-8 -14 72 0
33 -50 -55 0
6 12 94 0
11 22 -58 0
44 49 98 0
54 -79 -88 0
21 -29 -82 0
12 -63 93 0
18 47 -62 0
38 85 -97 0
10 -54 -68 0
52 60 88 0
60 73 82 0
20 -60 -92 0
20 -80 81 0
-31 -40 -60 0
56 86 -99 0
-4 -31 -73 0
3 29 -76 0
-66 -71 72 0
-22 -32 -100 0
-24 -49 -98 0
3 51 -67 0
32 -46 -68 0
40 -54 96 0
20 -65 99 0
17 80 -98 0
-3 -46 -48 0
51 66 77 0
37 -59 -99 0
46 49 94 0
15 35 -76 0
65 -94 -100 0
-23 -46 67 0
-47 93 -98 0
-6 -17 -86 0
23 28 -41 0
-25 31 -66 0
-28 67 -81 0
-29 -42 -80 0
-39 67 90 0
1 -79 -83 0
-10 14 97 0
27 36 -56 0
3 35 36 0
-31 32 41 0
-45 -78 -91 0
-3 9 96 0
77 -83 -92 0
25 95 98 0
-14 -84 -89 0
-63 67 -78 0
10 -70 -86 0
26 71 -96 0
-12 -44 87 0
32 68 -73 0
6 11 -23 0
75 89 -99 0
30 -37 -81 0
-37 -82 84 0
-2 60 -68 0
6 -27 -86 0
-26 55 -69 0
15 21 -76 0
-20 21 95 0
-27 54 -81 0
39 70 -95 0
58 74 91 0
16 70 86 0
32 80 93 0
7 17 -41 0
29 32 59 0
63 -69 73 0
-22 -60 88 0
40 64 89 0
-10 58 -90 0
-70 -91 95 0
37 -89 -96 0
-56 -68 83 0
-15 -42 83 0
-9 24 -52 0
18 20 -79 0
-49 -61 84 0
-13 23 66 0
-68 -85 -94 0
12 39 -86 0
-20 -22 33 0
23 24 43 0
-35 -61 95 0
-7 -32 86 0
-14 -28 -95 0
-12 -38 -47 0
37 50 90 0
-11 48 -55 0
7 -23 100 0
1 6 61 0
4 13 96 0
58 66 83 0
-31 -32 62 0
13 15 -93 0
61 -68 100 0
6 24 83 0
-49 64 69 0
38 -75 -90 0
-7 -12 -78 0
8 43 -70 0
23 74 -91 0
-6 16 99 0
-7 -20 30 0
5 -60 -95 0
-12 -48 83 0
-39 46 52 0
24 -56 95 0
-18 -69 -94 0
53 76 89 0
49 -82 -87 0
14 86 90 0
-26 -51 81 0
39 87 -88 0
20 61 82 0
-13 20 -86 0
-21 69 92 0
16 -69 79 0
24 52 -63 0
71 -75 84 0
7 -8 -94 0
-6 -64 -90 0
18 -31 -97 0
-63 -93 95 0
-44 -68 -96 0
-43 48 -62 0
-21 -27 94 0
-19 -20 52 0
46 -54 95 0
-25 45 52 0
-8 23 25 0
-10 -75 78 0
-39 -56 -92 0
-5 -20 -26 0
22 61 -73 0
64 -80 -83 0
-18 -28 -56 0
-54 61 70 0
57 70 -76 0
41 73 81 0
22 35 69 0
-28 71 -90 0
-57 -65 76 0
-47 -70 -83 0
-4 -41 -87 0
-15 70 89 0
-38 -46 -58 0
54 -73 -95 0
37 75 88 0
28 -42 58 0
16 41 94 0
10 -15 45 0
-6 -20 25 0
53 94 100 0
35 42 99 0
-11 -29 64 0
45 65 -75 0
-25 -40 43 0
-19 75 77 0
-31 -78 -87 0
1 -52 62 0
-29 -31 -33 0
5 15 20 0
34 -56 84 0
1 12 -55 0
-63 -75 -99 0
-41 59 96 0
-6 9 68 0
-65 -79 83 0
-12 -60 -61 0
-21 -62 -68 0
-32 36 -83 0
-4 -39 -80 0
-20 -37 -61 0
-41 -47 52 0
-10 67 86 0
-21 52 54 0
7 -56 88 0
-43 -62 -65 0
-31 36 63 0
9 49 51 0
23 -52 -91 0
-55 -96 -98 0
-55 -68 -77 0
-30 49 81 0
-27 91 -95 0
-12 21 -100 0
5 -22 70 0
27 -88 95 0
10 57 94 0
77 -88 -94 0
-2 16 86 0
