c F1 random 3-CNF cnfgen RandomKCNF(3,50,213,seed=12) m/n=4.26
p cnf 50 213
-18 31 -43 0
-1 -24 31 0
1 -36 -43 0
11 14 22 0
-22 33 44 0
4 33 -43 0
-8 29 -43 0
11 36 40 0
-26 -27 -39 0
2 35 -42 0
-23 -24 45 0
-16 -17 22 0
2 25 28 0
-3 28 44 0
15 36 -49 0
-3 -18 28 0
24 -30 -33 0
-30 31 45 0
24 30 36 0
-1 18 39 0
1 3 -33 0
10 -33 -35 0
-8 -15 -41 0
17 -29 -44 0
-3 -18 40 0
-19 34 47 0
-2 -9 45 0
-13 16 -28 0
-3 27 -49 0
-13 -36 -38 0
2 11 37 0
5 -27 35 0
-13 -23 -46 0
-8 14 40 0
21 -23 27 0
-6 -44 47 0
-43 -44 49 0
-2 -14 32 0
-4 -39 43 0
7 -15 -21 0
-13 -18 45 0
-10 33 -34 0
25 -33 -39 0
-4 -15 -50 0
-4 -7 43 0
-21 -32 50 0
9 -15 -31 0
-3 -24 -28 0
21 25 -39 0
-3 -42 -43 0
-17 -40 -43 0
25 26 32 0
8 -17 -18 0
9 20 -50 0
1 3 11 0
13 -19 46 0
-7 24 -39 0
1 -7 -34 0
-19 -30 -41 0
-2 34 46 0
24 -32 -49 0
24 39 -49 0
-4 7 15 0
1 2 16 0
31 -38 -41 0
-28 35 -42 0
-6 39 -42 0
-8 10 -20 0
1 -13 -15 0
-22 -26 -47 0
22 -32 49 0
-15 22 -25 0
-17 -18 48 0
-8 38 -48 0
-10 -36 -39 0
-20 -23 24 0
12 -26 -40 0
-10 -23 -40 0
26 -42 43 0
-7 34 -43 0
6 -20 44 0
5 19 45 0
8 18 -41 0
20 -30 -48 0
-25 -29 30 0
-16 -34 -38 0
9 20 -26 0
-19 25 -44 0
-12 -21 -37 0
4 -10 29 0
-8 -11 -14 0
6 13 -39 0
17 24 34 0
7 -36 49 0
-7 29 35 0
-2 -20 -28 0
-5 -6 26 0
24 27 -33 0
-5 -34 44 0
-18 20 27 0
-19 -24 42 0
3 8 42 0
9 10 -39 0
2 -15 -26 0
-30 37 -45 0
-1 -19 49 0
-2 -11 -40 0
-7 -32 -40 0
-3 21 -37 0
21 36 -40 0
16 35 43 0
-5 -12 -40 0
3 -28 -50 0
-4 -22 41 0
5 -15 -40 0
-11 -13 -33 0
9 -13 -44 0
-8 10 13 0
-5 -17 -40 0
-6 28 34 0
12 37 42 0
21 41 47 0
31 32 47 0
30 39 -45 0
10 -18 -34 0
-6 11 -26 0
3 29 -39 0
12 36 50 0
8 -35 -47 0
-6 14 36 0
-5 11 -19 0
1 7 -10 0
-17 -24 49 0
-11 38 -43 0
-18 24 27 0
-15 -18 -21 0
1 22 -31 0
-1 -11 -15 0
-42 45 49 0
11 -29 -39 0
20 36 47 0
-13 -21 32 0
5 9 -27 0
-1 -21 -25 0
-5 20 22 0
-16 22 28 0
9 14 -27 0
4 7 -44 0
6 24 -35 0
6 -8 -40 0
9 -12 -41 0
7 -12 -28 0
4 -8 49 0
4 -33 47 0
-11 -20 35 0
-3 8 22 0
-28 -31 -42 0
-16 -28 38 0
13 -38 -41 0
-11 -15 47 0
10 12 -14 0
28 -36 -42 0
-11 -12 -44 0
12 29 44 0
-16 -17 -39 0
-22 30 41 0
8 41 43 0
13 35 49 0
25 -28 -29 0
3 12 -23 0
-7 -18 43 0
-14 26 44 0
-11 -14 47 0
11 41 49 0
-10 -37 -50 0
-8 -25 33 0
-10 -15 -44 0
-8 22 44 0
-16 33 45 0
-2 -3 26 0
-1 -3 10 0
7 23 -45 0
32 38 -40 0
24 37 -39 0
-21 24 -50 0
-44 46 49 0
-9 -19 31 0
5 45 49 0
-10 48 -50 0
8 -38 -45 0
31 36 -44 0
-13 27 46 0
35 -39 -48 0
-17 19 -30 0
10 13 -34 0
1 -37 -49 0
12 -24 31 0
-28 -33 -47 0
-21 -24 -37 0
-40 42 -48 0
-12 -37 42 0
23 -33 -35 0
-10 11 -44 0
-9 -15 20 0
-6 -15 -36 0
-7 -14 -48 0
23 29 -40 0
-6 11 -36 0
3 -31 -35 0
-28 37 41 0
-15 -36 -47 0
17 -37 -47 0
3 22 41 0
