c F1 random 3-CNF cnfgen RandomKCNF(3,150,639,seed=5) m/n=4.26
p cnf 150 639
66 -92 136 0
-14 -29 41 0
27 98 140 0
-47 72 105 0
33 36 114 0
43 -54 -56 0
51 53 -139 0
-6 77 93 0
-17 68 -85 0
-17 -80 -91 0
48 121 -124 0
6 -92 -104 0
-3 97 149 0
-31 -51 -63 0
65 -119 -135 0
10 -24 -111 0
38 -71 -88 0
21 -46 -79 0
-13 21 42 0
-65 89 117 0
9 86 127 0
-28 -44 106 0
16 -76 108 0
-117 -125 -134 0
75 104 -121 0
-46 128 137 0
-70 126 -132 0
-9 -79 -94 0
46 -76 -88 0
-71 -84 -119 0
-71 89 -105 0
86 94 133 0
73 -93 123 0
-108 -133 149 0
41 51 113 0
11 58 121 0
-29 47 82 0
-90 107 120 0
-1 -61 -96 0
-30 105 -141 0
-25 -76 -140 0
-34 -105 108 0
-41 98 145 0
-1 24 -90 0
-37 -139 -145 0
-58 -111 -127 0
-41 -67 -99 0
-6 -82 -107 0
7 -37 123 0
-11 35 -76 0
71 -137 144 0
63 -69 -126 0
122 127 133 0
-73 -77 137 0
90 93 119 0
65 117 142 0
-110 -124 -148 0
51 -76 120 0
-74 -111 150 0
-43 -123 141 0
109 139 150 0
17 -22 -69 0
18 104 125 0
-29 -35 57 0
47 48 106 0
-12 28 -143 0
15 -147 148 0
-3 -24 -111 0
15 -91 96 0
75 -130 146 0
-61 66 142 0
96 100 117 0
22 88 147 0
-62 -117 -130 0
28 -83 136 0
39 58 -110 0
-36 55 -97 0
-86 90 -99 0
76 93 111 0
17 25 102 0
-11 -51 -52 0
-1 -110 -121 0
26 119 120 0
-19 96 -99 0
-29 42 72 0
-9 -89 124 0
6 117 -121 0
62 75 117 0
7 -60 -148 0
-48 -80 120 0
42 62 120 0
-2 70 -111 0
12 -44 106 0
19 -61 126 0
-13 63 128 0
-66 105 115 0
-46 50 131 0
22 28 81 0
-5 -55 -113 0
97 134 -147 0
58 115 -142 0
-23 -68 124 0
-21 34 138 0
-63 110 -148 0
-13 -52 64 0
-19 81 -108 0
-8 34 148 0
13 -69 110 0
17 79 -83 0
74 83 128 0
8 -13 -32 0
-5 60 -67 0
52 85 92 0
25 69 -136 0
-31 -110 -112 0
59 -112 119 0
-42 122 137 0
14 33 108 0
-61 -124 -148 0
52 -56 -71 0
62 91 -94 0
37 90 -103 0
10 -25 98 0
-52 -73 83 0
3 51 -97 0
-6 -7 -82 0
103 116 -140 0
6 -93 -134 0
-7 -20 -23 0
4 61 71 0
77 -90 144 0
-31 -62 88 0
46 -97 -100 0
-28 83 142 0
-55 76 79 0
20 48 -106 0
-60 107 -109 0
-22 72 -108 0
-8 30 -39 0
-27 49 84 0
36 -125 133 0
-59 99 120 0
29 -41 50 0
-27 -95 148 0
-27 141 149 0
-51 53 -83 0
-22 -63 104 0
31 -34 -96 0
-19 88 126 0
-51 -91 123 0
23 -75 -128 0
-17 87 133 0
61 70 -108 0
-25 123 -142 0
-24 63 116 0
2 37 -93 0
99 118 144 0
-4 50 -114 0
6 121 -131 0
10 112 -129 0
97 106 -111 0
-38 49 -78 0
56 -101 108 0
74 94 121 0
-19 20 -118 0
-5 -39 -51 0
35 -61 120 0
4 -48 110 0
55 -86 96 0
-28 -29 -73 0
-95 123 141 0
5 -68 140 0
15 61 124 0
60 -108 130 0
-10 -62 129 0
-77 113 143 0
-95 -136 -146 0
-20 43 78 0
-26 -100 -136 0
36 -90 117 0
-54 145 146 0
23 -30 -88 0
68 71 -124 0
7 65 -100 0
36 -46 113 0
-3 12 117 0
-31 106 136 0
11 -17 -24 0
-18 135 -139 0
-67 -79 117 0
-83 -128 133 0
56 -68 81 0
-21 -39 -91 0
-36 45 -51 0
5 -89 -147 0
127 129 145 0
-65 -108 142 0
-51 -67 -109 0
-23 29 30 0
46 -73 150 0
-26 -67 86 0
-17 -75 -80 0
17 18 78 0
-27 -105 130 0
-7 58 -108 0
-20 93 120 0
30 63 -138 0
-30 -70 -112 0
11 -54 132 0
50 84 -136 0
-14 -79 -120 0
-43 -66 117 0
35 -52 118 0
35 -43 -64 0
42 -119 -124 0
14 92 139 0
-87 -124 -148 0
-15 -35 -74 0
33 75 95 0
-41 -80 -125 0
-88 119 135 0
-1 -127 -148 0
12 -59 138 0
44 -52 130 0
-59 99 107 0
-18 -61 -149 0
-25 58 -96 0
-1 38 -136 0
4 -28 -49 0
75 121 -123 0
6 53 -114 0
-26 52 137 0
1 -57 102 0
-49 77 100 0
49 -56 -99 0
-7 -38 105 0
-24 -60 -69 0
-49 52 84 0
42 -94 -137 0
37 47 -74 0
-2 -27 141 0
39 95 -125 0
-68 -123 -147 0
-44 101 110 0
28 -76 123 0
22 -25 -81 0
45 -83 90 0
-11 -22 133 0
-39 -78 -114 0
19 -133 147 0
-19 -78 97 0
41 -89 109 0
-27 92 -119 0
10 84 -116 0
-68 80 -118 0
-51 104 106 0
17 -83 -113 0
28 -45 108 0
11 79 146 0
-21 -75 76 0
-9 111 -117 0
-131 -136 -145 0
-10 -46 94 0
-29 -70 113 0
-100 103 116 0
-92 118 139 0
-3 -103 106 0
-40 112 -133 0
10 -50 97 0
128 129 -149 0
26 87 89 0
-9 -51 128 0
-12 58 -85 0
5 9 117 0
31 64 -80 0
66 -87 -106 0
17 -45 101 0
60 79 -121 0
-25 73 -147 0
1 38 118 0
-62 82 95 0
-83 -101 -134 0
-56 76 150 0
51 -59 150 0
-53 59 -61 0
36 -44 53 0
66 79 -113 0
-25 89 -140 0
4 -43 -144 0
72 87 -121 0
50 141 -144 0
47 76 -140 0
-42 71 -103 0
29 63 -80 0
66 -97 -114 0
-39 104 -125 0
-12 -52 130 0
-42 95 111 0
-59 -73 107 0
-120 124 126 0
38 57 -83 0
3 120 -139 0
12 -29 -36 0
-6 -31 -48 0
-42 -58 127 0
3 82 128 0
-65 72 141 0
-18 -114 146 0
67 -85 -107 0
1 31 -81 0
61 -74 91 0
65 -123 144 0
-26 -27 37 0
-57 82 139 0
99 109 -111 0
23 101 -135 0
79 120 -144 0
72 -78 -142 0
-2 -117 -134 0
26 79 -134 0
27 -29 150 0
94 122 134 0
-7 31 -104 0
-60 -87 -144 0
-54 -59 125 0
-22 -69 149 0
14 45 -120 0
-39 54 133 0
47 -110 -134 0
35 -114 -147 0
30 -77 -120 0
-19 -63 -93 0
-10 -89 133 0
-58 -98 -133 0
57 106 -108 0
-12 -25 51 0
50 -95 110 0
-10 97 -145 0
-41 -86 -106 0
44 -60 -84 0
-23 -57 128 0
-38 78 -85 0
-51 101 113 0
28 -41 -107 0
-6 -7 144 0
-48 -57 135 0
-36 -42 -102 0
-68 -83 117 0
73 -102 121 0
22 -28 150 0
-35 93 -128 0
-83 96 148 0
30 128 -148 0
33 -60 73 0
20 -34 115 0
1 26 -70 0
-128 130 149 0
-36 -125 141 0
36 69 -105 0
-10 -44 -107 0
-59 -108 -126 0
7 31 -110 0
-36 84 -85 0
20 70 100 0
19 38 -132 0
89 -98 112 0
-22 50 -80 0
57 83 100 0
51 52 -113 0
-19 66 -127 0
45 135 149 0
25 -84 145 0
61 119 -138 0
11 30 -90 0
-57 -70 82 0
46 50 -61 0
-5 70 122 0
-5 57 140 0
-45 68 -99 0
-52 68 -93 0
-43 64 126 0
-75 134 141 0
20 -32 -113 0
15 -69 113 0
45 -119 -139 0
8 -52 -110 0
59 95 -107 0
83 -131 -148 0
100 -127 -142 0
55 66 -110 0
-87 95 110 0
33 65 67 0
21 43 -96 0
69 -109 -149 0
101 112 114 0
54 95 -148 0
-42 -97 -118 0
35 -72 89 0
17 -99 101 0
8 128 -139 0
-17 85 128 0
-3 113 -142 0
-26 90 -105 0
47 63 -64 0
109 116 -126 0
10 -37 135 0
-1 54 76 0
40 -66 -114 0
17 -41 139 0
92 118 -128 0
17 23 -38 0
58 -110 -119 0
-18 -102 -126 0
3 63 -121 0
-19 89 -115 0
-22 141 -143 0
55 -101 -112 0
-52 58 -148 0
74 -111 -140 0
-68 93 146 0
-35 97 100 0
33 -81 -85 0
62 87 -102 0
34 -128 135 0
-37 77 130 0
-39 71 87 0
-39 -88 121 0
-44 73 80 0
27 45 149 0
-87 -112 -116 0
11 72 105 0
89 98 130 0
-23 52 -146 0
-16 76 99 0
33 75 -89 0
-44 -62 147 0
-37 57 -58 0
109 135 138 0
78 -117 -126 0
13 79 126 0
-49 51 126 0
51 -60 -85 0
7 46 -90 0
42 102 -107 0
64 69 105 0
-35 55 -144 0
39 -112 -119 0
-3 -71 72 0
-15 -137 -141 0
-24 -30 -38 0
-12 19 56 0
45 85 129 0
-15 -21 -92 0
-1 31 110 0
8 -77 -96 0
31 -81 92 0
-51 -110 -132 0
-106 -116 -123 0
-50 78 -130 0
-9 -50 -125 0
-95 -117 -129 0
76 -90 -143 0
4 -12 -95 0
26 80 103 0
-36 -49 112 0
54 -103 120 0
-7 -142 -149 0
11 121 -147 0
20 86 -96 0
-43 51 -136 0
61 90 130 0
9 -43 -121 0
32 88 -148 0
-46 -50 61 0
99 118 -146 0
-16 98 130 0
-75 -111 -128 0
17 124 -146 0
30 39 148 0
7 -79 -106 0
-8 -66 -87 0
-28 -35 -142 0
-8 36 -79 0
-47 -72 -145 0
16 -104 139 0
-11 -43 120 0
20 76 -87 0
-89 93 131 0
50 74 -94 0
-18 45 88 0
21 -29 94 0
-22 -35 43 0
-8 -14 54 0
34 126 142 0
-18 44 -77 0
-47 -62 126 0
-99 -137 140 0
11 43 -134 0
-12 18 134 0
31 -101 145 0
5 -56 -103 0
27 -129 142 0
75 129 135 0
-55 -72 -119 0
72 -138 146 0
-52 60 123 0
14 -68 -148 0
37 -85 -95 0
-14 38 -146 0
-10 -45 -76 0
36 112 127 0
-59 -62 140 0
27 73 106 0
27 60 -81 0
-7 -40 145 0
12 -55 131 0
-32 -46 138 0
-13 85 -87 0
-21 88 144 0
11 -144 -148 0
-102 -143 -149 0
-47 87 141 0
-53 120 124 0
-11 28 -120 0
17 -20 -99 0
-8 23 -74 0
49 57 -147 0
87 101 -142 0
34 -70 130 0
-80 -129 -146 0
85 -123 -130 0
6 102 -134 0
3 8 -114 0
46 104 127 0
-29 -72 -144 0
-24 138 142 0
12 100 -117 0
46 67 124 0
3 65 140 0
-4 28 124 0
28 -54 -149 0
-39 -48 61 0
104 105 -117 0
-26 57 -129 0
-4 53 137 0
-23 66 90 0
-123 -125 -147 0
3 -118 131 0
-96 133 -149 0
-3 -77 103 0
36 -68 -135 0
81 107 -120 0
28 91 -110 0
8 -68 -139 0
37 -81 130 0
-43 86 -132 0
-14 28 42 0
-22 -68 79 0
8 133 140 0
-40 107 -116 0
-5 61 130 0
49 109 125 0
64 -99 -113 0
-31 -32 66 0
15 -40 -102 0
20 29 -77 0
69 -111 147 0
19 72 149 0
-23 77 -94 0
-44 53 -64 0
12 -29 48 0
17 -93 -109 0
-55 -85 99 0
115 -146 149 0
47 71 -136 0
-62 76 -98 0
65 93 -102 0
8 9 -111 0
-35 83 86 0
66 -102 -109 0
30 -86 -136 0
-31 61 69 0
-33 -54 98 0
-42 -114 123 0
58 -92 -139 0
6 -25 147 0
-8 -34 -137 0
17 96 150 0
68 103 -138 0
2 51 67 0
24 -29 -134 0
-7 81 -134 0
1 -5 -98 0
-29 -46 -95 0
-30 -50 103 0
35 53 67 0
28 -53 64 0
42 73 -144 0
6 27 78 0
-8 66 -89 0
77 107 116 0
36 60 145 0
27 100 -128 0
-28 93 118 0
-13 -67 79 0
-19 68 -139 0
49 52 -62 0
65 -88 -145 0
-10 -35 -43 0
40 137 140 0
45 84 131 0
31 40 122 0
6 55 -145 0
100 113 -147 0
50 51 -75 0
3 102 135 0
-27 -60 -86 0
15 -74 -111 0
-27 58 -133 0
-21 27 -150 0
21 118 145 0
-45 89 109 0
28 30 46 0
96 -112 113 0
57 -65 132 0
4 44 74 0
-86 99 138 0
10 18 -130 0
-31 86 108 0
17 102 150 0
11 22 -115 0
2 -26 -61 0
-8 80 -146 0
22 -100 -129 0
-26 51 -96 0
74 75 -106 0
8 69 -132 0
-25 -89 128 0
82 -106 -134 0
