c F1 random 3-CNF cnfgen RandomKCNF(3,225,959,seed=7) m/n=4.26
p cnf 225 959
39 83 102 0
15 94 150 0
18 108 -112 0
16 145 212 0
102 148 150 0
-35 -143 220 0
-31 139 147 0
147 -149 164 0
17 141 -183 0
-110 -137 -175 0
64 77 93 0
-77 -135 -148 0
19 -74 156 0
-39 -88 194 0
-20 -172 -196 0
-128 149 153 0
70 122 -179 0
-148 -166 -175 0
-6 -89 172 0
30 127 -157 0
-34 -64 -190 0
-21 -43 115 0
-111 -210 -222 0
60 98 175 0
39 60 -169 0
-47 -151 213 0
-38 -108 137 0
132 -177 -220 0
101 -102 -103 0
16 -18 49 0
29 88 154 0
39 -138 146 0
-19 54 -224 0
-89 94 155 0
-120 -125 -218 0
-22 -27 -37 0
42 178 -213 0
38 -140 177 0
-67 179 -217 0
-58 137 198 0
-62 207 210 0
92 127 -133 0
-50 -67 -121 0
21 57 -94 0
-51 53 -87 0
89 168 -205 0
183 -193 201 0
-112 163 -203 0
103 119 191 0
-8 33 -39 0
40 90 169 0
167 186 -205 0
50 212 -224 0
55 -75 -129 0
108 140 -214 0
-118 150 170 0
-5 131 135 0
39 199 -205 0
31 -159 -186 0
28 199 201 0
11 -71 198 0
-17 114 -195 0
-116 131 -137 0
-52 144 -216 0
-32 101 114 0
-19 55 110 0
-165 170 -184 0
36 -57 -120 0
42 171 -214 0
-87 104 -132 0
-24 82 -185 0
113 -118 -142 0
76 133 160 0
-22 -27 225 0
47 -70 -200 0
-39 -104 138 0
15 -72 205 0
5 -69 163 0
57 -156 220 0
-3 -87 117 0
12 135 182 0
13 -47 -68 0
-53 -136 195 0
70 -89 206 0
4 -5 188 0
-28 -115 -169 0
79 130 -177 0
51 -181 -214 0
14 34 -215 0
15 -42 -111 0
-63 154 -178 0
-41 48 -69 0
-85 94 141 0
56 80 -92 0
-22 98 122 0
2 -130 199 0
37 -103 151 0
77 78 162 0
-169 -184 -201 0
39 73 -186 0
180 188 208 0
8 -11 22 0
97 116 214 0
-1 68 126 0
-17 -135 169 0
61 68 -217 0
98 -127 -217 0
12 158 197 0
-66 85 167 0
-16 124 125 0
-75 -126 -173 0
31 -120 197 0
-5 75 -122 0
54 69 100 0
-37 -135 192 0
-155 162 -210 0
-60 -128 225 0
-1 -41 -126 0
-37 -107 -187 0
31 -85 -216 0
31 102 -215 0
-17 -65 96 0
-93 110 -194 0
-14 27 214 0
-69 112 -131 0
-8 110 201 0
-13 106 -188 0
13 125 -141 0
-73 -88 -107 0
-62 -104 -168 0
31 43 165 0
128 -129 -208 0
110 116 195 0
24 -45 88 0
67 95 -208 0
99 -106 -191 0
-16 -87 -193 0
33 129 -176 0
-64 -99 -103 0
209 218 224 0
-109 -182 196 0
-19 -101 212 0
28 58 201 0
-180 185 212 0
1 33 -201 0
-33 65 161 0
19 -77 -135 0
58 154 -203 0
72 -81 118 0
-8 -64 141 0
-6 50 -128 0
-59 109 -171 0
-9 -87 -179 0
-2 51 205 0
52 80 -127 0
-57 68 -195 0
-48 -58 157 0
38 101 153 0
37 107 153 0
-101 116 183 0
43 -49 85 0
-80 -171 -186 0
28 44 -114 0
21 90 -108 0
-92 -197 211 0
13 -122 -181 0
-50 83 -94 0
-64 161 -208 0
9 -17 119 0
-17 -156 -192 0
-12 -86 -158 0
1 77 185 0
-28 -122 -184 0
111 -127 209 0
-3 190 206 0
-82 -84 221 0
51 101 -132 0
-9 -17 167 0
-19 27 110 0
-25 108 128 0
35 107 -118 0
-72 -76 -146 0
-51 67 189 0
-40 61 -63 0
17 65 102 0
10 119 -168 0
-60 -210 216 0
60 76 225 0
150 154 -212 0
-46 -132 222 0
-28 153 164 0
37 88 -95 0
10 154 -188 0
96 -105 174 0
-9 -53 204 0
-26 105 204 0
-42 -102 -168 0
79 -107 -171 0
-5 107 -222 0
53 -104 187 0
30 -109 -211 0
42 118 198 0
-37 142 -165 0
44 -130 -189 0
42 44 -134 0
126 -193 207 0
-12 124 -215 0
23 159 -183 0
-51 158 217 0
11 -103 -133 0
32 39 64 0
83 -171 -215 0
-141 -161 -218 0
-64 -109 -150 0
46 113 -129 0
-61 115 -120 0
18 -28 -103 0
-24 94 206 0
-22 34 163 0
97 130 193 0
158 178 188 0
74 126 208 0
-90 157 -214 0
-71 158 -209 0
-54 123 -129 0
10 -51 96 0
-72 -163 174 0
68 201 -203 0
116 -143 -224 0
-96 -189 -205 0
-38 93 -148 0
46 -59 -158 0
-80 164 223 0
-39 -57 -75 0
13 34 126 0
-1 -14 146 0
92 -134 -137 0
-35 -53 151 0
4 35 -206 0
17 -25 -164 0
3 -68 -208 0
-133 155 188 0
1 -12 16 0
15 41 61 0
-37 52 -106 0
17 -77 161 0
-97 112 -217 0
-27 45 58 0
-32 86 -192 0
-142 -163 -174 0
22 56 -165 0
61 191 -216 0
50 -85 -100 0
121 136 -215 0
-60 147 -186 0
20 150 160 0
7 -28 29 0
8 11 180 0
-12 17 189 0
-183 194 223 0
9 29 -53 0
26 34 -123 0
-82 87 -109 0
-13 -66 -73 0
74 -159 218 0
112 -133 -198 0
13 138 -181 0
1 -44 112 0
2 -90 126 0
-89 127 -152 0
55 -180 209 0
29 -163 197 0
84 -92 -161 0
23 -109 191 0
68 -78 110 0
33 -118 -137 0
-40 -134 223 0
-113 119 177 0
86 119 -165 0
78 181 194 0
-84 155 186 0
49 67 84 0
39 -51 -99 0
51 71 -112 0
53 100 -119 0
112 -203 -219 0
-6 37 66 0
-111 180 219 0
47 -165 -174 0
67 -81 161 0
103 -183 -201 0
-6 117 -124 0
-3 100 200 0
56 65 -140 0
-26 148 -217 0
-5 -132 -164 0
54 -117 190 0
92 -158 -187 0
16 98 -103 0
-108 -161 179 0
-58 78 -190 0
43 55 119 0
121 144 -165 0
-164 -171 -213 0
141 -167 -195 0
-59 -201 -218 0
-48 110 -174 0
-63 -92 -168 0
110 -125 160 0
78 99 -219 0
-36 136 201 0
-19 -54 168 0
37 149 -219 0
40 -89 201 0
156 -157 177 0
55 -127 178 0
-31 68 143 0
122 -127 -143 0
37 -126 180 0
139 154 -221 0
-120 -145 -179 0
96 108 -110 0
8 163 -166 0
-25 -131 208 0
-9 55 -184 0
-25 -169 -221 0
135 -142 -200 0
65 -88 -109 0
-91 -127 -212 0
89 -130 224 0
-50 82 85 0
-11 103 -201 0
2 28 -77 0
156 -169 197 0
161 173 179 0
118 163 171 0
10 108 -223 0
-36 -211 -224 0
-9 48 -108 0
145 -149 165 0
-31 -199 -212 0
-4 18 -175 0
106 141 -198 0
39 -55 161 0
3 172 176 0
-32 34 -223 0
-63 146 185 0
94 192 -199 0
-143 -161 -182 0
9 14 184 0
167 -176 -210 0
80 -154 187 0
-81 -95 148 0
-30 38 -205 0
-99 -123 -200 0
-16 72 75 0
-80 154 -214 0
97 -100 -176 0
-1 -83 -177 0
41 -151 209 0
147 -208 -223 0
-22 -89 137 0
185 -193 202 0
102 -120 174 0
99 -118 203 0
-60 -102 -149 0
52 130 151 0
-24 -47 -207 0
104 133 200 0
96 -127 -222 0
-21 40 -202 0
72 133 156 0
-53 222 -223 0
72 -110 200 0
-10 66 216 0
8 22 -97 0
-118 181 -223 0
-24 -31 181 0
-23 165 -172 0
41 95 218 0
10 66 91 0
-67 132 202 0
38 82 -194 0
113 -151 -152 0
66 -96 -100 0
44 98 113 0
50 120 184 0
-20 159 -222 0
25 99 -216 0
83 -87 211 0
-37 94 161 0
47 -116 183 0
69 106 108 0
-70 -147 215 0
-28 -67 -126 0
30 40 -132 0
-31 74 -214 0
62 67 -111 0
42 -75 107 0
-5 114 -164 0
-1 203 -214 0
11 -105 112 0
36 47 216 0
21 -154 -213 0
36 -45 53 0
-3 17 -178 0
-73 86 216 0
105 -123 196 0
-48 145 213 0
96 -148 -180 0
-19 31 -133 0
-183 200 -223 0
-28 -188 224 0
136 138 206 0
23 58 159 0
65 80 143 0
-50 179 -190 0
-62 134 -180 0
25 184 -223 0
-32 120 127 0
32 36 104 0
-119 147 172 0
-100 163 -178 0
-14 -93 199 0
-86 -184 -215 0
-14 144 -217 0
64 -109 223 0
-18 -48 136 0
6 130 -172 0
102 117 199 0
-159 -165 222 0
26 65 -160 0
11 -61 -74 0
31 -43 166 0
120 -137 152 0
-34 -76 -131 0
-23 -63 189 0
-52 -99 -167 0
-121 123 157 0
-49 -57 86 0
42 -91 -221 0
70 -73 126 0
6 -41 -198 0
-16 -133 -169 0
28 189 -196 0
87 91 -172 0
133 -211 -215 0
162 -182 201 0
2 -106 -197 0
-39 107 -147 0
-116 -178 -219 0
-75 -91 101 0
-191 -202 -218 0
-48 77 -138 0
97 148 -149 0
83 -156 216 0
3 -7 -110 0
-77 -138 -199 0
92 -100 -119 0
3 18 -174 0
96 103 -129 0
-103 113 125 0
82 -93 94 0
-29 -76 168 0
75 135 -209 0
16 -47 162 0
3 -106 178 0
78 102 216 0
-45 51 128 0
32 106 155 0
8 -20 -26 0
111 157 -207 0
-37 -61 184 0
9 69 -161 0
-50 116 160 0
57 -102 150 0
62 64 159 0
-45 151 -219 0
-78 -108 155 0
63 -100 -174 0
-103 183 225 0
-23 -44 45 0
-2 75 -102 0
-99 -137 224 0
-32 109 -212 0
-49 73 -120 0
9 -72 171 0
34 62 -181 0
140 -202 -214 0
204 207 -215 0
-56 -91 185 0
77 122 -130 0
-34 -173 -181 0
64 104 137 0
-24 -132 174 0
146 -169 184 0
23 100 -182 0
28 -49 -170 0
-17 50 184 0
-33 -74 -210 0
104 -119 217 0
-8 -94 174 0
-169 180 -181 0
26 -91 161 0
70 156 -188 0
-11 42 -156 0
40 -98 190 0
-59 -145 -215 0
-148 172 176 0
-196 199 214 0
29 -63 175 0
89 -192 -199 0
158 -192 213 0
-90 -109 114 0
-53 174 -179 0
-12 49 196 0
-61 164 200 0
-44 89 92 0
36 -80 -163 0
61 -62 181 0
-90 165 179 0
-62 145 -151 0
44 -174 -195 0
-30 53 -213 0
12 -53 -125 0
-29 -51 180 0
-42 -84 -114 0
19 44 -143 0
-22 -125 193 0
-112 126 -166 0
-3 -24 92 0
21 36 -192 0
-38 76 215 0
-27 -185 -201 0
-48 -166 212 0
-35 -95 142 0
-11 15 28 0
109 -127 128 0
37 59 -177 0
23 -103 -164 0
-49 56 186 0
-157 216 -219 0
-15 -19 170 0
3 113 -171 0
-2 76 -114 0
-22 -83 139 0
103 156 -159 0
-77 -156 -169 0
-36 -166 169 0
-49 57 218 0
-96 -149 170 0
-102 113 145 0
47 52 -141 0
-25 -49 167 0
58 118 -142 0
-19 174 205 0
132 -161 -185 0
-44 50 140 0
96 -159 199 0
11 13 -96 0
31 -77 182 0
52 -160 224 0
-94 191 -216 0
-32 -62 96 0
91 -155 -210 0
29 155 -206 0
-50 91 -178 0
-6 30 203 0
48 -67 -205 0
-37 -151 -215 0
4 -7 -88 0
9 205 224 0
-159 -166 210 0
-115 178 217 0
85 -93 136 0
12 151 -160 0
-85 -120 -187 0
-2 -81 86 0
6 64 118 0
-17 -70 99 0
9 144 -179 0
-26 -147 163 0
37 -204 -224 0
93 -131 -190 0
-16 -86 -181 0
63 -95 129 0
-2 -35 -53 0
-102 146 198 0
-37 -78 -185 0
19 49 -150 0
-91 -120 149 0
82 -125 -215 0
6 -140 195 0
6 -56 -181 0
52 73 155 0
15 34 188 0
-208 209 225 0
49 -70 138 0
55 -83 -84 0
-157 174 205 0
107 204 -222 0
-127 -154 -199 0
-4 -7 224 0
-107 158 182 0
5 40 -54 0
-93 109 -209 0
-59 -159 190 0
-80 -166 -199 0
71 -134 136 0
-26 122 143 0
24 103 194 0
16 129 -140 0
94 156 189 0
8 -90 -136 0
-55 -89 163 0
7 83 203 0
-103 166 207 0
-97 105 145 0
-6 65 68 0
-53 -84 -91 0
56 -128 -146 0
-35 -193 211 0
2 85 -125 0
-153 157 175 0
-54 201 -218 0
47 -112 222 0
29 39 -207 0
-39 129 189 0
102 -119 -175 0
-165 -171 184 0
52 61 150 0
-60 130 153 0
13 17 -82 0
35 110 135 0
38 -139 -176 0
20 56 -90 0
-4 -46 181 0
12 -51 -131 0
3 -69 -84 0
-85 -141 -177 0
-82 -109 139 0
-99 100 195 0
-62 -129 156 0
51 170 212 0
-13 -104 -184 0
-1 -117 -148 0
98 -140 -152 0
-17 -101 183 0
140 -161 -205 0
-122 -216 220 0
-17 37 194 0
62 94 -209 0
46 -164 -212 0
-93 214 -222 0
-40 65 -180 0
-92 -170 206 0
-71 75 -102 0
123 163 188 0
-34 94 -175 0
-88 -134 206 0
-1 52 143 0
-79 -140 -184 0
-62 68 -214 0
23 -52 -220 0
96 -159 -200 0
-11 -94 -183 0
-156 -166 208 0
99 149 -218 0
-17 53 171 0
-98 -115 -194 0
165 194 -203 0
-119 -180 -215 0
-17 -46 113 0
132 193 212 0
-11 -103 -139 0
31 118 198 0
4 -147 210 0
-56 193 218 0
86 -124 183 0
13 -105 -210 0
2 -49 -133 0
-23 -81 -99 0
108 -131 -175 0
-64 -98 -222 0
14 -34 -52 0
126 -169 -182 0
52 -117 181 0
-18 105 -137 0
-57 113 204 0
-152 -157 -206 0
15 -53 225 0
13 -36 221 0
4 -144 185 0
-173 185 192 0
38 184 -200 0
25 52 -201 0
-58 -169 -214 0
15 40 223 0
76 -115 215 0
67 80 84 0
-9 84 -101 0
58 140 -168 0
-39 -48 -187 0
-10 30 213 0
-19 -135 -168 0
-5 193 201 0
-72 125 222 0
36 -70 121 0
26 -149 154 0
39 77 -169 0
90 -116 -124 0
-29 46 -202 0
25 142 -192 0
9 10 -119 0
-34 -166 179 0
96 -170 187 0
24 -85 -170 0
25 39 67 0
40 -70 -128 0
42 -63 -146 0
51 73 104 0
137 187 224 0
14 28 126 0
-40 44 -193 0
101 -133 160 0
22 149 170 0
153 199 201 0
26 87 154 0
78 -88 209 0
-3 82 106 0
38 63 -202 0
36 53 -198 0
-1 18 -182 0
85 135 200 0
-13 -161 222 0
90 -167 -184 0
-35 67 -213 0
202 -206 -214 0
-164 201 212 0
-201 202 206 0
51 -118 151 0
-101 -170 -201 0
-23 -59 -104 0
2 77 -126 0
-106 -108 155 0
55 -86 -140 0
120 -159 -217 0
-23 -48 70 0
31 -56 175 0
70 -86 100 0
-58 -90 -209 0
82 130 -225 0
1 3 135 0
-117 -145 208 0
-142 189 -221 0
-20 -107 -171 0
-76 79 -93 0
94 127 178 0
-97 115 -143 0
9 84 -124 0
37 -49 151 0
-151 165 -192 0
-7 -140 198 0
-164 -174 -207 0
72 -83 177 0
89 137 204 0
42 -79 190 0
-77 99 -151 0
-51 -80 -122 0
-28 -67 -175 0
-99 121 204 0
-116 129 -160 0
-12 -39 72 0
-71 -93 101 0
67 116 -198 0
-91 93 155 0
-25 141 -225 0
43 -46 -166 0
-191 -203 -216 0
-87 128 207 0
-134 -137 189 0
55 -87 175 0
1 -129 -219 0
-55 147 187 0
57 172 -218 0
-9 -191 211 0
-166 -181 225 0
-155 198 212 0
25 -80 93 0
19 -133 180 0
1 -118 -162 0
16 115 -129 0
-29 -58 -124 0
59 136 -146 0
148 208 215 0
-8 -130 -208 0
17 71 -162 0
-100 132 151 0
-96 -137 206 0
123 -148 -165 0
-159 175 -182 0
-29 49 -158 0
20 -50 195 0
181 -191 203 0
-144 180 194 0
-17 53 -91 0
91 -143 -161 0
12 -27 -79 0
-8 183 -206 0
-28 -40 -220 0
-22 -87 204 0
-28 -136 218 0
65 91 -169 0
-112 133 -209 0
4 35 -36 0
3 -8 209 0
53 -137 -147 0
-119 144 160 0
-53 63 91 0
33 -152 -225 0
-147 150 163 0
-44 121 -221 0
121 156 -178 0
17 98 154 0
101 145 202 0
25 52 -206 0
13 62 -103 0
-11 40 -68 0
27 194 195 0
-42 136 -207 0
1 19 218 0
-14 -170 -181 0
2 144 172 0
-130 208 213 0
167 -182 189 0
-23 140 157 0
62 187 -218 0
-71 78 -80 0
86 148 156 0
12 -20 -30 0
105 148 157 0
16 184 -215 0
15 -206 -225 0
-35 -66 -181 0
8 84 -98 0
-42 -122 168 0
4 -106 138 0
-92 140 209 0
21 88 204 0
-81 -212 -218 0
-17 32 138 0
14 -136 167 0
-55 56 -166 0
31 -111 184 0
-73 177 -191 0
8 -24 66 0
18 -154 -168 0
17 20 187 0
20 -37 -93 0
46 -116 -197 0
102 -105 179 0
-88 118 221 0
100 201 213 0
-90 -172 206 0
19 49 -217 0
47 68 -170 0
-15 -25 215 0
58 146 -150 0
4 -69 -219 0
46 -139 -185 0
43 94 95 0
74 98 195 0
-57 99 -196 0
2 68 -223 0
-61 95 -215 0
30 -113 -125 0
-24 -31 104 0
60 110 113 0
-18 -69 93 0
15 87 -143 0
-56 145 191 0
15 111 -135 0
-22 -26 -55 0
118 188 -201 0
26 -82 -162 0
-18 -31 -181 0
3 -47 131 0
-60 138 -166 0
-38 100 -206 0
47 167 -169 0
21 116 -186 0
36 -113 -215 0
-17 52 150 0
4 93 -124 0
-96 131 219 0
50 -121 -214 0
-58 70 -194 0
46 -88 106 0
62 212 -215 0
-117 122 -156 0
-31 -62 144 0
-35 36 134 0
43 -60 -109 0
65 146 -170 0
25 -105 183 0
-5 19 75 0
-19 -108 136 0
-63 115 -128 0
-20 65 -152 0
-61 -106 165 0
-15 180 -190 0
-3 -114 205 0
84 -120 202 0
-54 105 139 0
-95 -182 -189 0
33 94 -197 0
10 -29 -131 0
-20 -121 -166 0
-89 -181 195 0
124 178 -208 0
-30 95 162 0
152 -181 -197 0
42 -66 167 0
-4 -51 153 0
2 18 205 0
2 -45 59 0
5 7 30 0
39 -86 -121 0
-75 -107 -192 0
15 -22 68 0
-14 17 -160 0
88 126 129 0
-40 -193 -215 0
-5 59 -184 0
17 25 -151 0
120 203 -206 0
36 112 145 0
-28 163 -216 0
-109 129 134 0
7 -59 186 0
-164 177 184 0
-53 80 170 0
-16 -58 -119 0
-81 134 -185 0
-13 23 76 0
45 -162 225 0
-31 -51 -83 0
20 -28 -199 0
18 -65 -124 0
-123 -183 -219 0
81 186 -200 0
23 72 164 0
17 -120 176 0
-170 -193 219 0
38 101 179 0
74 172 197 0
-42 81 210 0
-45 -100 -196 0
32 63 -118 0
