c F1 random 3-CNF cnfgen RandomKCNF(3,75,320,seed=18) m/n=4.26
p cnf 75 320
-16 24 58 0
-24 -63 -64 0
26 -33 34 0
-22 26 -31 0
28 -34 -39 0
-29 -52 -69 0
-15 -39 71 0
21 -25 64 0
53 62 -66 0
-44 69 -70 0
-19 20 62 0
12 -46 70 0
-12 -18 62 0
-17 -50 -54 0
-19 43 -44 0
-3 70 74 0
-1 55 66 0
-33 -52 -55 0
20 -23 -29 0
-8 12 64 0
10 28 34 0
14 -39 -48 0
12 -35 -45 0
53 -66 -67 0
-6 -33 73 0
-21 28 -37 0
-12 -14 42 0
-10 29 60 0
-29 -47 -69 0
3 40 59 0
11 47 -51 0
28 -32 69 0
-17 30 -58 0
-22 35 -66 0
32 -36 61 0
37 38 59 0
3 22 -39 0
9 -23 71 0
-11 59 63 0
-34 -42 57 0
-26 -43 49 0
-5 9 19 0
34 -45 64 0
-10 -20 47 0
26 -45 56 0
-20 24 31 0
-5 17 72 0
-21 -31 -44 0
-43 -67 -75 0
-30 -48 -61 0
-15 36 69 0
-30 -47 63 0
-19 -34 -62 0
34 -40 63 0
30 50 -51 0
8 -51 -55 0
45 -62 -72 0
51 70 74 0
-9 -66 -75 0
-41 -46 55 0
-5 23 37 0
-32 42 -50 0
19 -39 42 0
-29 35 53 0
-16 -41 54 0
4 12 72 0
-1 17 71 0
-27 53 -66 0
-18 50 -75 0
-27 -42 64 0
-6 12 53 0
17 35 44 0
-4 -15 -39 0
-19 -59 -70 0
-9 11 30 0
34 41 68 0
-15 -58 66 0
-16 55 65 0
-6 41 -70 0
-18 -23 25 0
-7 -20 -67 0
-23 49 -65 0
-31 -43 -61 0
-32 55 -70 0
3 -21 -47 0
31 -40 55 0
6 -12 62 0
47 -49 66 0
24 43 45 0
-22 23 -31 0
36 -51 73 0
-11 -20 48 0
33 48 50 0
-33 -61 -70 0
-55 59 -75 0
-64 66 70 0
-24 48 -72 0
7 19 25 0
9 -22 35 0
2 32 -61 0
-1 49 52 0
-46 -68 71 0
-28 -40 -68 0
33 36 44 0
6 49 -71 0
14 16 21 0
33 59 60 0
-1 -55 60 0
-19 -55 70 0
31 39 -75 0
-25 53 59 0
-3 -65 -67 0
16 23 51 0
1 -38 41 0
7 59 60 0
3 49 73 0
-17 44 -60 0
-12 60 -75 0
55 65 66 0
8 30 -65 0
-5 -56 60 0
-5 13 27 0
-10 -39 64 0
-34 -41 43 0
50 56 -67 0
-7 -28 -42 0
6 20 38 0
12 -60 -62 0
-24 -30 -33 0
2 -6 31 0
-2 5 -62 0
-3 -53 68 0
12 -65 67 0
-1 12 38 0
-42 -57 -62 0
-47 -65 73 0
20 -42 -45 0
17 -40 69 0
48 56 -60 0
-32 -35 66 0
-43 60 -68 0
-23 -26 71 0
11 -38 -42 0
14 27 55 0
10 15 50 0
-29 -55 67 0
-14 51 74 0
22 35 59 0
4 -14 21 0
3 45 71 0
-38 -39 -56 0
-52 -54 -74 0
-20 41 60 0
-1 -28 61 0
43 58 75 0
-12 -20 31 0
-30 -40 -71 0
-15 25 34 0
-6 -20 -38 0
-32 -44 -48 0
-24 34 -42 0
-4 -12 -14 0
4 28 38 0
-11 19 32 0
8 -35 -40 0
1 40 -64 0
15 -21 74 0
-25 -48 64 0
7 -27 34 0
-28 -46 71 0
-2 -39 -50 0
-15 65 -66 0
-11 44 -74 0
-7 -19 -65 0
41 -44 -74 0
-52 -58 -66 0
10 28 54 0
-15 30 73 0
2 -31 -62 0
-14 -28 -35 0
-2 4 66 0
19 28 35 0
58 60 71 0
35 -46 -50 0
-5 -58 67 0
-6 -27 31 0
-29 -53 61 0
-8 -31 -56 0
-27 -32 67 0
7 64 -69 0
8 -21 58 0
-20 57 -66 0
4 -40 68 0
37 -65 -75 0
11 -46 -61 0
26 -38 -50 0
-16 21 -49 0
-26 -39 70 0
6 -31 52 0
-7 34 -37 0
-24 58 -65 0
-9 52 65 0
12 -18 47 0
-27 -28 -72 0
10 53 -70 0
-2 -20 -46 0
7 15 -44 0
-6 62 64 0
19 -36 -41 0
7 -27 -64 0
-18 -32 -45 0
11 -22 -50 0
30 -36 53 0
11 -13 39 0
1 -9 47 0
-29 -37 -67 0
-6 -57 -63 0
47 -56 -67 0
23 35 42 0
1 -18 -46 0
-4 52 67 0
-19 -37 75 0
-10 56 -71 0
17 33 49 0
10 -49 -66 0
19 -60 65 0
-56 -63 -73 0
31 39 -45 0
-1 10 -25 0
-38 43 46 0
-22 -45 -51 0
56 62 -64 0
-18 -24 33 0
12 63 65 0
3 17 -72 0
-2 12 -55 0
-33 59 62 0
-20 65 -68 0
9 28 -46 0
27 30 72 0
15 52 61 0
-13 21 53 0
-18 -63 -64 0
-46 -65 68 0
37 48 64 0
-22 62 -73 0
5 -9 -14 0
23 -32 -63 0
5 25 -64 0
-22 33 -41 0
10 33 -73 0
-11 -34 -56 0
-8 -13 -26 0
-5 -17 -58 0
-16 57 -59 0
-21 -40 -57 0
-24 -56 74 0
10 32 37 0
31 41 -45 0
-14 47 -54 0
-14 24 -37 0
52 56 -68 0
2 13 57 0
11 -19 72 0
-26 -37 46 0
-62 -68 -71 0
15 17 34 0
-2 -48 57 0
-6 23 -54 0
-16 -53 54 0
-30 37 40 0
25 29 46 0
-8 40 -60 0
48 -49 66 0
15 -17 40 0
-9 27 75 0
-37 -41 56 0
-24 -47 52 0
6 -58 -67 0
-56 -60 68 0
36 48 65 0
-17 -36 75 0
19 64 -73 0
-24 27 68 0
36 51 64 0
-33 51 -67 0
-12 56 57 0
25 38 -61 0
33 39 -54 0
-26 32 -71 0
16 -57 -60 0
-31 -45 48 0
25 -66 -72 0
-25 -58 73 0
-5 20 -60 0
-3 48 59 0
-14 -28 42 0
-10 -25 -51 0
14 30 46 0
-29 36 -46 0
-15 25 72 0
-6 71 72 0
8 -65 73 0
-20 -51 61 0
20 42 -58 0
22 -63 67 0
10 25 46 0
-30 -36 42 0
2 28 -63 0
-17 -19 60 0
-15 -21 36 0
-1 44 -58 0
-24 34 -68 0
-21 -24 26 0
42 -45 -54 0
-28 -49 -68 0
-16 -35 -59 0
11 -43 -68 0
-20 57 -67 0
-9 -46 53 0
