c F1 random 3-CNF cnfgen RandomKCNF(3,250,1065,seed=13) m/n=4.26
p cnf 250 1065
67 75 176 0
58 165 223 0
-55 137 -217 0
33 -176 215 0
-22 -204 -224 0
-36 -204 244 0
-125 -194 -230 0
81 -164 -168 0
115 -142 -177 0
46 76 -138 0
-65 -96 -118 0
-34 148 228 0
-50 180 227 0
-111 -162 167 0
109 185 239 0
-128 -179 207 0
-106 -188 189 0
-162 181 219 0
55 128 -186 0
-146 150 -187 0
43 50 202 0
18 -110 -165 0
24 135 -166 0
-32 78 -105 0
94 134 -219 0
-40 86 128 0
-9 76 205 0
67 -109 -176 0
61 -92 -151 0
-53 90 -165 0
23 102 118 0
79 -168 -199 0
86 -100 -142 0
36 38 -244 0
-41 -56 -211 0
9 75 -89 0
-114 126 -150 0
34 -76 137 0
140 228 229 0
175 223 -234 0
-19 -96 239 0
13 -61 184 0
101 147 159 0
-36 -158 -242 0
-39 -140 247 0
14 96 239 0
-28 135 -184 0
109 -161 208 0
-25 -29 -79 0
39 -69 -100 0
-1 -8 -135 0
-58 -64 240 0
-196 -206 -215 0
-40 119 -149 0
122 183 213 0
124 129 211 0
-2 35 -151 0
134 147 -186 0
7 137 -246 0
40 -159 -215 0
6 58 -125 0
-3 -130 136 0
-14 135 156 0
26 -95 -235 0
-35 175 -213 0
24 66 152 0
15 27 -153 0
-92 -98 225 0
-114 -220 -239 0
32 -173 -234 0
-20 -149 -197 0
201 -209 -238 0
106 124 -145 0
-1 -38 56 0
-111 144 239 0
162 225 250 0
-18 142 -245 0
5 41 179 0
60 -112 145 0
125 205 219 0
14 90 -159 0
77 -79 -108 0
-149 -184 -207 0
55 184 191 0
-13 31 220 0
26 -79 -160 0
-12 27 -154 0
-60 85 123 0
126 183 -228 0
4 108 115 0
-39 -63 90 0
-85 92 93 0
38 -41 190 0
-154 205 -245 0
54 -106 142 0
-101 -102 -203 0
21 -74 143 0
153 -214 -245 0
-27 138 219 0
49 143 -186 0
-12 70 -128 0
-49 -190 233 0
-53 -113 198 0
57 -101 104 0
-5 -10 -179 0
130 -224 235 0
-126 127 249 0
-16 182 205 0
-8 30 -186 0
10 107 -123 0
128 188 206 0
185 204 211 0
-44 76 -179 0
1 155 -184 0
17 -30 200 0
50 145 -235 0
-53 -160 185 0
115 154 161 0
134 -149 241 0
103 -106 -159 0
116 193 -198 0
61 -118 183 0
119 -185 198 0
170 -201 -236 0
-5 -62 113 0
-10 -36 225 0
19 217 -229 0
22 -159 -196 0
-1 148 -183 0
-142 189 -247 0
105 196 -220 0
31 40 -147 0
-75 -150 -176 0
51 128 -209 0
-12 -20 78 0
3 -121 175 0
79 122 -157 0
-3 78 243 0
-10 -85 135 0
-35 109 -234 0
-40 -43 193 0
-77 186 222 0
25 44 81 0
-73 -92 204 0
4 -189 235 0
62 141 -188 0
-101 -114 -224 0
-17 109 -178 0
32 124 229 0
30 53 86 0
-89 168 249 0
82 132 -152 0
-106 -120 -247 0
-20 94 -146 0
-76 -177 201 0
38 -137 233 0
-86 -92 -161 0
28 -41 242 0
53 -156 -184 0
126 -134 173 0
-70 115 -221 0
-49 -211 -212 0
-47 -96 -248 0
-12 47 211 0
-60 -194 -248 0
8 -23 -123 0
90 107 -109 0
46 62 248 0
28 61 -107 0
190 -195 247 0
111 139 -203 0
-150 157 -230 0
-17 -76 240 0
29 -123 232 0
-76 188 -220 0
128 -198 -216 0
-107 -136 -235 0
40 83 -237 0
-54 -109 -211 0
-53 158 -243 0
105 -130 -228 0
-224 235 -239 0
-14 21 142 0
19 113 -142 0
54 125 247 0
47 231 -247 0
-10 -77 219 0
60 76 -100 0
-71 163 201 0
-8 27 48 0
-42 -70 -243 0
-54 59 -92 0
20 84 98 0
-52 -137 -230 0
12 -15 -22 0
-26 -121 -166 0
7 -152 -239 0
-45 -75 -99 0
104 119 137 0
44 -120 199 0
157 163 -216 0
37 -87 -165 0
94 132 145 0
-133 -149 -191 0
40 65 -132 0
58 84 182 0
-30 158 186 0
106 -220 -224 0
55 182 -213 0
57 -120 -176 0
76 -136 170 0
-106 210 -248 0
-83 -166 170 0
-33 82 -215 0
-50 81 -193 0
88 -120 -137 0
-96 206 -238 0
12 -31 250 0
12 -60 220 0
-110 118 139 0
-56 -143 219 0
-79 140 -179 0
-33 46 151 0
46 -148 -228 0
-52 67 -81 0
16 -26 93 0
8 -149 173 0
8 -135 207 0
30 -45 64 0
17 -86 -174 0
-56 -148 250 0
-13 77 -140 0
1 243 -244 0
24 -28 167 0
-95 -124 174 0
88 -166 225 0
-28 116 -173 0
-14 -138 -234 0
148 170 -192 0
-14 -124 -187 0
60 -72 -201 0
-39 82 160 0
93 132 239 0
30 -130 180 0
-22 -191 -246 0
-38 -98 107 0
-20 29 85 0
123 -143 155 0
-56 131 -225 0
64 185 -214 0
-1 -93 99 0
-13 61 137 0
-40 -57 -175 0
117 -134 -244 0
143 210 -249 0
73 138 146 0
-37 -130 -158 0
-168 -239 -248 0
-13 40 -205 0
89 -106 -143 0
-81 97 -131 0
-74 -167 200 0
2 216 218 0
42 71 179 0
22 175 198 0
-102 -147 -243 0
98 222 -226 0
101 -157 -212 0
30 165 -223 0
-110 114 175 0
53 85 -111 0
10 57 188 0
6 -66 157 0
-129 -217 -235 0
85 -115 223 0
150 205 206 0
-222 -223 241 0
-14 -167 -186 0
-28 -151 -206 0
-129 -132 -199 0
-14 134 -199 0
88 -211 -250 0
-6 151 220 0
-40 -220 240 0
-40 -69 120 0
135 -179 211 0
-151 176 -237 0
-36 -69 -169 0
70 -208 212 0
19 -104 -222 0
116 143 188 0
-25 118 -148 0
40 -132 -196 0
142 -167 -207 0
104 111 179 0
29 -57 247 0
-55 69 142 0
118 144 -174 0
80 169 209 0
-59 -204 245 0
-8 -90 -152 0
-6 106 200 0
95 170 217 0
-169 -171 -242 0
35 -39 -186 0
71 72 178 0
136 -140 218 0
229 234 238 0
27 28 77 0
-30 -44 -144 0
72 -171 -188 0
-8 -165 -173 0
-152 -231 239 0
-6 -16 -207 0
-75 81 -243 0
-1 21 -232 0
45 -180 239 0
-75 -82 102 0
4 -58 219 0
-2 -107 197 0
63 130 240 0
39 -88 -198 0
-58 102 216 0
-75 117 -146 0
36 -141 -233 0
86 141 -212 0
-61 -74 -239 0
-29 149 234 0
-107 176 -241 0
-105 137 -146 0
127 211 243 0
126 151 233 0
-205 210 249 0
-168 -180 215 0
-99 124 190 0
80 -112 191 0
103 -177 216 0
-160 201 -247 0
-89 169 -233 0
-110 202 -242 0
76 211 225 0
191 208 -239 0
16 58 173 0
33 57 -201 0
-76 -143 230 0
13 -14 -116 0
-43 -108 -226 0
18 49 -164 0
94 136 158 0
-31 92 110 0
17 -75 156 0
34 -125 219 0
-8 55 -96 0
-32 -54 -211 0
66 -67 -84 0
-92 106 204 0
41 -182 194 0
-106 -140 -153 0
-10 63 -217 0
-2 -110 -152 0
-25 -36 -176 0
-36 -148 192 0
13 -135 226 0
-32 -131 245 0
73 -79 163 0
39 -41 -164 0
-23 -83 233 0
-39 86 206 0
78 -183 -248 0
87 -171 -239 0
40 -135 244 0
-27 -31 131 0
-74 -77 -206 0
7 -137 231 0
128 177 242 0
6 -117 138 0
-89 -164 190 0
-140 -150 -249 0
-78 114 170 0
115 -232 233 0
-149 171 213 0
57 80 240 0
-18 -54 -232 0
28 214 -233 0
-90 -190 -246 0
-27 87 234 0
-2 164 -173 0
89 142 -225 0
-103 -165 -190 0
-35 -177 190 0
133 183 -249 0
-76 -152 168 0
39 -198 -207 0
-33 -127 158 0
-5 42 160 0
84 127 -171 0
4 88 197 0
-111 140 163 0
100 157 184 0
55 -130 -208 0
-65 90 -132 0
-85 129 196 0
33 35 -172 0
-70 86 134 0
72 111 128 0
155 191 -208 0
90 -91 100 0
-35 -222 230 0
12 38 -233 0
-78 128 167 0
-24 -73 -112 0
138 -179 186 0
84 126 211 0
9 -181 -185 0
114 -132 -141 0
187 -192 222 0
114 131 -206 0
72 110 -224 0
62 -186 217 0
-54 81 104 0
167 249 -250 0
10 -53 102 0
78 125 203 0
-61 -132 182 0
181 -182 -215 0
-86 -150 152 0
94 -101 -112 0
-148 154 230 0
-35 -96 106 0
-223 -227 -244 0
29 -54 -166 0
176 -200 -210 0
-54 -210 218 0
-200 -218 239 0
32 -85 -123 0
7 99 -184 0
-120 139 193 0
4 8 225 0
97 140 239 0
-54 -147 -197 0
57 -77 -100 0
16 -31 97 0
63 -177 220 0
223 232 240 0
20 156 201 0
132 164 -250 0
5 -53 63 0
-14 -150 164 0
43 59 241 0
-145 154 246 0
-115 -157 244 0
71 82 157 0
-46 98 -188 0
26 105 181 0
3 161 -183 0
24 -159 177 0
38 159 -221 0
-70 -124 -231 0
32 46 81 0
-49 -178 -182 0
44 -117 238 0
-9 113 182 0
32 54 -222 0
73 -160 164 0
48 -73 -137 0
107 -120 131 0
54 61 -202 0
22 38 -225 0
-56 127 247 0
-93 -157 -242 0
-152 -219 222 0
-23 134 -166 0
-135 -206 -209 0
4 -78 159 0
-6 -124 226 0
-162 -200 -214 0
86 141 233 0
-44 -112 -140 0
22 -129 -248 0
41 -131 -170 0
40 -50 -232 0
21 -73 -103 0
43 -65 -77 0
15 34 134 0
-42 -111 156 0
71 77 -246 0
73 -170 185 0
-95 207 -237 0
162 171 176 0
-55 -60 244 0
-49 53 76 0
-1 84 -116 0
-4 -18 -165 0
16 -118 190 0
32 -195 -198 0
-27 119 -237 0
15 -37 154 0
-67 -150 196 0
90 -127 202 0
78 100 235 0
73 101 -138 0
-72 135 -167 0
52 174 -206 0
-61 210 -225 0
13 202 219 0
-16 92 -111 0
75 -237 -246 0
-104 -126 191 0
-54 203 247 0
67 111 140 0
-154 -157 219 0
-112 197 212 0
14 -85 -115 0
-36 -190 224 0
-33 -127 178 0
-5 -58 -110 0
20 -204 -225 0
34 143 222 0
-95 -131 225 0
-190 -200 -201 0
-65 112 -240 0
104 105 167 0
-105 131 244 0
4 131 -140 0
85 174 190 0
-18 113 188 0
-119 -224 229 0
80 83 -96 0
3 -116 141 0
75 -170 -235 0
-87 219 -229 0
38 143 147 0
-22 84 -168 0
154 170 -213 0
-111 173 245 0
42 83 -111 0
42 117 -160 0
14 200 -232 0
229 233 -246 0
126 -240 -244 0
-35 166 237 0
12 -49 207 0
-88 -126 -131 0
-5 25 134 0
-40 -123 220 0
-21 107 122 0
-31 -105 146 0
-37 -44 224 0
-3 -17 -119 0
11 47 -103 0
-76 -130 192 0
-101 193 -236 0
1 -20 -250 0
-4 -172 -204 0
-49 68 180 0
15 -93 101 0
-6 -92 169 0
49 52 -123 0
36 -39 183 0
-11 -79 103 0
99 -157 -185 0
-21 77 153 0
91 -219 -237 0
10 -47 -220 0
-51 -131 227 0
-52 84 -116 0
-132 161 211 0
-8 -52 128 0
28 -51 122 0
86 102 173 0
84 102 -135 0
-97 117 -178 0
-51 -118 127 0
-35 80 -197 0
10 -91 131 0
62 144 -194 0
-22 -100 -118 0
16 122 146 0
35 63 -226 0
9 61 107 0
-65 134 -230 0
-3 -102 233 0
174 -193 -223 0
-37 -136 158 0
-26 186 -189 0
-86 139 142 0
79 113 -212 0
3 -112 -219 0
95 124 -231 0
-141 -165 201 0
-116 -183 -245 0
49 96 180 0
75 -140 -176 0
122 134 163 0
31 121 200 0
-92 119 206 0
31 -71 154 0
102 -106 -119 0
12 60 -134 0
27 -33 39 0
-67 -137 239 0
36 -40 194 0
119 202 231 0
-37 -118 -234 0
-70 159 -179 0
29 133 -206 0
60 -72 201 0
2 -7 -116 0
80 106 -206 0
-56 -115 166 0
-42 -93 170 0
-165 221 -223 0
57 157 -195 0
13 128 -156 0
-14 74 -154 0
170 -225 -247 0
-130 -157 -245 0
16 -103 -222 0
-22 -238 243 0
-34 -145 -187 0
-84 170 198 0
-23 91 129 0
13 -77 152 0
-36 81 241 0
26 51 -157 0
-72 82 -146 0
-25 -26 -164 0
67 86 215 0
73 77 -201 0
26 -35 101 0
208 -229 233 0
45 92 -151 0
5 93 -198 0
13 -48 230 0
-42 51 -234 0
-61 -241 -250 0
15 -240 250 0
37 73 175 0
52 135 -206 0
-53 172 -197 0
-49 89 -151 0
82 151 -203 0
-95 -116 -172 0
13 30 245 0
-65 -66 -85 0
23 136 186 0
-29 211 219 0
58 -146 -170 0
37 49 -107 0
22 100 182 0
16 -101 205 0
86 -172 -233 0
-192 -240 245 0
-76 104 -176 0
49 61 144 0
-26 168 -234 0
-101 219 248 0
49 169 249 0
28 -46 -110 0
112 -133 -209 0
-62 -187 241 0
53 225 236 0
137 160 220 0
-60 222 246 0
-16 107 113 0
-120 -221 -223 0
-57 -130 -240 0
45 65 243 0
141 -200 235 0
7 -108 -242 0
5 91 -143 0
34 164 168 0
-50 -95 105 0
35 79 231 0
-161 -171 -196 0
-139 174 225 0
-186 198 -229 0
99 -198 226 0
22 97 146 0
41 -186 -192 0
-74 95 -126 0
-14 17 -133 0
93 -179 -198 0
214 -223 238 0
16 -56 133 0
100 -110 -238 0
128 -140 -162 0
119 161 163 0
-10 47 204 0
-21 -107 -180 0
146 188 227 0
70 87 233 0
-124 173 214 0
61 71 -229 0
14 -110 150 0
-77 87 176 0
39 -151 -222 0
129 135 -245 0
-115 -167 -216 0
24 -66 79 0
-18 190 -222 0
13 39 249 0
-95 135 153 0
4 -67 243 0
121 -213 -218 0
-138 -174 189 0
81 136 -177 0
35 -122 -176 0
-109 -179 -219 0
-37 -40 86 0
-6 -46 -133 0
6 27 -183 0
-49 50 198 0
-15 173 -215 0
85 140 -234 0
148 -151 -230 0
23 64 159 0
16 174 219 0
-95 -215 -232 0
18 -54 136 0
-37 116 225 0
-31 -122 212 0
17 -61 -180 0
145 191 220 0
-8 42 77 0
-15 -102 110 0
200 230 241 0
47 213 246 0
20 237 -248 0
25 -145 214 0
-57 113 -206 0
-37 -167 -213 0
-56 -137 166 0
-48 -192 239 0
-195 226 241 0
-26 124 -243 0
8 61 68 0
2 56 -146 0
-3 158 217 0
-20 155 -164 0
72 -78 -175 0
70 103 -121 0
28 -57 196 0
-30 88 194 0
-8 134 -174 0
-102 -109 -139 0
-135 137 238 0
21 -151 239 0
105 -137 154 0
-71 92 128 0
-33 -53 -148 0
-91 -199 218 0
-7 -180 -185 0
6 -14 115 0
-105 140 -175 0
25 -58 199 0
42 79 -105 0
18 -65 183 0
7 17 -218 0
-27 -117 232 0
-46 -161 -173 0
-96 137 -158 0
-44 147 -173 0
109 -122 148 0
-110 -176 234 0
115 -203 246 0
75 -161 -250 0
44 57 162 0
14 139 234 0
-27 -175 246 0
-117 -186 -212 0
-2 118 -226 0
44 66 183 0
24 142 246 0
51 69 -118 0
-101 -164 -249 0
-8 -55 -86 0
68 70 174 0
-24 -189 -196 0
-78 -191 -228 0
-53 75 103 0
-82 202 -205 0
19 -99 107 0
213 -239 240 0
15 -50 -157 0
125 167 -208 0
124 147 -189 0
-117 182 195 0
-51 214 215 0
34 38 -88 0
54 -75 -234 0
-30 -113 118 0
-2 4 -75 0
-61 90 -172 0
-56 -141 211 0
-127 186 226 0
65 -150 211 0
30 127 -199 0
33 -205 -210 0
-92 -114 -226 0
23 -143 203 0
6 142 -172 0
65 -142 144 0
-5 -90 215 0
43 -60 -172 0
-139 -151 180 0
4 -223 -250 0
12 -161 238 0
-45 -143 175 0
-10 -139 -204 0
-103 -135 -232 0
21 197 213 0
7 30 228 0
51 -73 -115 0
86 141 243 0
129 169 229 0
10 69 84 0
20 -70 -240 0
-60 -78 174 0
10 23 62 0
39 -75 -244 0
83 -155 -221 0
34 -72 219 0
-225 -248 -249 0
-115 179 216 0
-123 -144 -188 0
-20 -107 -218 0
-10 68 -175 0
-139 -159 -239 0
122 124 -169 0
88 -141 153 0
-29 85 97 0
49 -125 -248 0
-17 37 210 0
38 170 227 0
36 -99 101 0
-19 187 -191 0
-16 145 -244 0
-116 -162 212 0
6 -25 -122 0
-32 55 140 0
1 -153 168 0
-105 139 -151 0
157 -160 201 0
-25 75 206 0
-67 126 -159 0
18 -46 -169 0
-33 93 107 0
-94 -229 243 0
-56 -157 162 0
-56 120 181 0
-28 -80 121 0
17 -82 98 0
35 -98 137 0
-38 -97 -135 0
-57 183 212 0
-42 -51 221 0
184 -188 -234 0
-12 40 131 0
62 125 -178 0
-81 94 -222 0
-43 -100 -155 0
66 -202 216 0
14 -38 -221 0
-45 -165 199 0
-136 151 -245 0
-6 91 186 0
120 -220 -236 0
77 -115 207 0
93 -146 239 0
70 -114 190 0
-66 -98 -155 0
93 135 -151 0
-107 181 -199 0
41 103 -157 0
16 94 -247 0
-147 -160 191 0
100 123 149 0
54 -204 -241 0
47 -49 132 0
104 -112 -140 0
-15 -170 -182 0
-15 71 -89 0
-19 20 -232 0
34 -177 199 0
-78 -188 -204 0
149 -177 229 0
-9 -49 235 0
4 -7 152 0
60 184 204 0
-51 -72 73 0
-53 -209 -210 0
89 139 204 0
2 -137 -174 0
-37 -99 191 0
-65 -123 200 0
-1 92 130 0
220 -230 239 0
-6 -115 -170 0
71 -92 -171 0
196 198 -205 0
-92 -102 156 0
24 -107 -119 0
29 35 -231 0
-51 221 222 0
26 -31 164 0
7 -148 221 0
-54 123 153 0
-162 -192 -225 0
78 -203 238 0
-59 67 -157 0
-92 -94 -147 0
86 -208 -249 0
-61 76 -189 0
-3 -167 237 0
62 146 -190 0
44 -170 236 0
-136 199 -220 0
154 -227 240 0
-103 116 -167 0
44 121 236 0
-8 -78 -166 0
51 -59 233 0
-21 -36 -137 0
-7 -13 -178 0
65 155 161 0
-24 -54 246 0
48 -199 -249 0
20 181 -197 0
12 -95 169 0
106 -174 200 0
-66 -147 236 0
9 -123 197 0
60 75 146 0
56 -71 -209 0
-20 78 -171 0
36 -62 162 0
9 21 87 0
-17 126 -227 0
184 -197 212 0
87 148 -169 0
-89 -152 158 0
125 191 -209 0
-40 -94 226 0
-4 35 -55 0
35 -48 -184 0
-142 -154 210 0
15 -111 151 0
59 -123 169 0
2 -26 -153 0
-109 -120 194 0
22 -166 234 0
7 136 227 0
-5 -11 -195 0
43 -52 104 0
-54 75 -187 0
-4 20 161 0
24 211 -213 0
-2 -73 110 0
54 100 148 0
-24 77 -151 0
-1 27 -73 0
114 171 -238 0
38 158 235 0
40 61 227 0
100 -111 -186 0
126 -214 -250 0
-33 41 80 0
58 -140 -224 0
110 196 215 0
95 138 225 0
105 -107 200 0
29 190 223 0
185 195 -207 0
34 -79 219 0
-18 -29 -244 0
-62 -197 -227 0
-23 -92 198 0
26 -102 210 0
-21 38 62 0
-38 49 -154 0
-152 192 206 0
-117 -127 -161 0
-6 13 99 0
-24 -100 183 0
32 80 185 0
-103 -110 -147 0
-54 -74 145 0
43 -82 92 0
-11 -177 240 0
-51 -204 226 0
59 150 -209 0
-18 -132 -182 0
14 103 -138 0
137 155 -172 0
-61 134 178 0
60 93 148 0
-124 153 -170 0
68 -223 -239 0
29 103 216 0
14 -143 152 0
-13 122 233 0
160 -191 213 0
-79 182 246 0
-46 72 234 0
-123 -230 249 0
-40 227 229 0
28 89 -102 0
75 -126 133 0
-34 -175 -235 0
61 78 156 0
174 208 -248 0
-32 -101 158 0
-117 146 -241 0
16 148 209 0
-66 -205 223 0
45 65 223 0
-68 -74 -244 0
43 61 -183 0
-100 209 -211 0
37 -169 181 0
-52 58 -203 0
-157 -189 -219 0
-7 47 222 0
-13 35 -70 0
10 205 218 0
77 108 152 0
-73 -113 -200 0
109 -131 -160 0
3 -42 -57 0
-140 143 195 0
38 50 158 0
-35 -43 -89 0
-54 58 171 0
57 103 157 0
-64 -71 138 0
136 -146 -156 0
-44 -170 211 0
-25 -72 -164 0
132 198 -216 0
-6 -15 -110 0
11 -21 -172 0
-142 -230 -238 0
37 -93 -224 0
14 -93 224 0
41 -150 -155 0
-2 72 198 0
-122 -156 229 0
41 69 95 0
116 206 -215 0
40 -142 -236 0
44 122 214 0
-51 -72 -186 0
19 -196 -240 0
9 55 -110 0
-65 127 -165 0
89 -104 207 0
6 64 116 0
-36 121 136 0
12 27 140 0
57 -114 140 0
14 -69 200 0
-139 -197 242 0
-18 104 -115 0
-42 -79 -247 0
