c F1 random 3-CNF cnfgen RandomKCNF(3,50,213,seed=7) m/n=4.26
p cnf 50 213
10 21 26 0
4 24 38 0
5 27 -28 0
4 8 -37 0
3 -4 -15 0
-8 10 35 0
37 -38 41 0
5 36 -46 0
-28 -35 -44 0
16 20 24 0
-20 -34 -37 0
5 -19 39 0
-10 -22 49 0
-5 -43 -49 0
-32 38 39 0
18 31 -45 0
-37 -42 -44 0
-2 -23 43 0
8 32 -40 0
-9 -16 -48 0
-6 -11 29 0
-18 -28 -36 0
6 10 15 0
-1 15 -43 0
-1 -10 -19 0
9 -33 -45 0
-7 26 31 0
5 14 -29 0
4 7 39 0
2 24 -40 0
-10 -17 -41 0
-8 -30 -32 0
-6 -7 -10 0
11 34 -45 0
10 -35 45 0
-17 34 -45 0
-15 35 50 0
16 26 -48 0
2 -23 -47 0
-13 -17 -45 0
6 15 -24 0
-13 14 -22 0
6 -23 42 0
-12 28 -31 0
26 30 48 0
-2 9 -10 0
10 23 43 0
7 -42 47 0
2 -14 17 0
-21 -38 49 0
-4 -23 48 0
10 -34 35 0
1 39 50 0
31 40 -47 0
-34 36 44 0
13 16 -18 0
2 -36 -49 0
33 -39 -40 0
31 -33 35 0
9 -27 -29 0
5 -21 43 0
14 20 -43 0
-9 10 17 0
11 26 -32 0
-22 26 -33 0
-6 21 -47 0
29 -30 -36 0
19 34 40 0
-6 7 17 0
-9 -18 -49 0
-10 -33 35 0
4 -18 45 0
2 -18 41 0
-5 15 -39 0
-1 -22 36 0
3 34 46 0
4 -12 -17 0
-14 -34 49 0
-2 18 23 0
2 -33 47 0
-7 -29 -43 0
20 33 -45 0
13 -46 -47 0
1 -4 -9 0
-4 -6 11 0
-3 19 45 0
-1 -18 -29 0
16 -21 36 0
-1 -12 23 0
18 31 33 0
-6 10 -17 0
2 20 41 0
-39 -43 -46 0
10 19 -47 0
33 45 47 0
2 -3 6 0
25 29 36 0
-1 17 32 0
-5 -34 43 0
16 17 -47 0
-5 -25 32 0
40 41 42 0
-17 22 42 0
-4 31 32 0
-19 -32 -44 0
8 -30 50 0
-2 19 -31 0
14 18 25 0
-10 -34 48 0
-33 39 -41 0
15 26 32 0
-29 -32 44 0
-23 25 -27 0
-1 -21 49 0
-1 -13 -46 0
5 -25 -26 0
-4 18 49 0
19 41 -43 0
21 -28 -33 0
-2 41 49 0
-4 27 -47 0
4 32 -36 0
-19 -22 -27 0
-16 -26 -42 0
8 11 42 0
32 -33 -36 0
28 29 49 0
6 -12 22 0
17 24 -37 0
25 -27 -48 0
-4 -22 -49 0
9 33 -44 0
-16 -25 -26 0
-2 -3 -9 0
-1 -5 26 0
7 10 -15 0
6 36 50 0
-3 15 -37 0
28 34 41 0
20 -34 -38 0
1 -15 -39 0
18 -21 42 0
-2 -16 36 0
-2 13 -32 0
-15 28 -43 0
-3 -22 -45 0
1 13 -19 0
13 20 -50 0
-15 17 -49 0
-12 -15 40 0
10 26 39 0
10 27 39 0
-26 29 46 0
11 -13 22 0
-20 -43 -47 0
7 11 -29 0
6 23 -27 0
-20 23 50 0
-13 -31 46 0
-21 24 -48 0
-16 41 -50 0
3 -5 30 0
-5 -39 -48 0
-3 -22 -40 0
1 20 47 0
-7 -31 -46 0
-9 28 32 0
20 45 -48 0
21 24 -30 0
-11 16 49 0
-31 35 -36 0
5 7 17 0
-27 32 46 0
9 27 -30 0
-18 -19 -37 0
-13 17 48 0
10 -16 19 0
16 17 -26 0
-1 3 -7 0
3 19 24 0
13 38 -39 0
-12 29 33 0
-39 41 46 0
10 22 -24 0
3 39 -47 0
24 -27 44 0
-3 14 -32 0
7 26 43 0
-18 -26 -45 0
-4 -20 -27 0
2 -24 -50 0
1 -14 28 0
-6 -26 37 0
1 -4 9 0
24 37 -40 0
11 19 34 0
25 -32 49 0
3 -21 31 0
40 45 -46 0
13 31 40 0
-11 -26 34 0
10 16 47 0
-8 -21 -43 0
20 -27 -42 0
-24 29 43 0
-1 32 -40 0
-40 49 -50 0
5 -7 -26 0
6 24 29 0
6 21 -47 0
2 9 42 0
9 19 32 0
-23 40 -49 0
