c F1 random 3-CNF cnfgen RandomKCNF(3,125,533,seed=3) m/n=4.26
p cnf 125 533
31 -70 -76 0
9 -75 -81 0
-25 -30 -71 0
20 82 -111 0
2 86 95 0
-4 -39 -100 0
-92 -101 -118 0
-18 120 124 0
-18 -28 -64 0
-54 -65 -107 0
-30 75 -116 0
78 -86 90 0
-28 -84 92 0
-9 62 -110 0
9 53 -103 0
54 55 99 0
-49 -76 92 0
1 5 40 0
-26 -122 -125 0
-6 -20 -89 0
-18 -115 -123 0
50 -67 -112 0
82 -92 -93 0
-34 39 -67 0
-3 41 75 0
-43 -81 -82 0
-36 78 91 0
-3 -87 -123 0
-39 76 -77 0
-24 -41 -98 0
14 49 -101 0
-29 65 -84 0
24 56 -87 0
43 -87 122 0
11 -44 -95 0
16 29 -101 0
74 -104 -108 0
83 -104 106 0
-38 -54 -67 0
-38 -54 82 0
20 53 -118 0
-107 113 121 0
-59 -96 108 0
-9 110 111 0
5 -6 116 0
2 62 -96 0
-3 31 85 0
-17 33 -44 0
16 26 29 0
36 102 -118 0
-74 81 -111 0
-32 35 -80 0
42 100 105 0
6 -7 16 0
-12 -92 110 0
-10 -41 -45 0
-25 -34 47 0
-1 17 72 0
-6 48 -59 0
-7 -48 -81 0
-54 89 122 0
28 -35 69 0
17 -55 -113 0
-72 115 -125 0
-16 89 -121 0
14 -69 73 0
31 50 100 0
49 85 -113 0
16 108 -110 0
-90 -108 122 0
5 73 99 0
-8 71 120 0
24 -31 -83 0
-33 -48 -77 0
11 -49 124 0
-54 73 -89 0
20 114 -115 0
-62 96 118 0
26 -35 97 0
-69 -89 -109 0
28 -40 -114 0
26 -49 103 0
42 -62 -100 0
-27 77 -90 0
-10 93 -110 0
30 115 117 0
31 -33 110 0
24 -80 91 0
6 -41 111 0
11 94 -103 0
38 -107 -117 0
-75 87 94 0
-43 49 56 0
-75 -83 96 0
-16 41 -70 0
-15 57 -114 0
-48 -87 -99 0
-14 97 -121 0
-8 46 66 0
-23 48 114 0
-19 -72 -120 0
-24 -59 83 0
9 -14 -91 0
13 35 50 0
35 -62 -65 0
52 -58 -121 0
-15 20 109 0
73 100 117 0
-54 73 86 0
51 103 111 0
-26 -33 112 0
-57 -103 -108 0
-71 -75 -116 0
-86 111 115 0
1 82 -94 0
-23 68 81 0
28 -68 101 0
37 73 -123 0
12 80 -102 0
30 -65 80 0
-42 -44 120 0
11 108 -110 0
27 104 -120 0
-29 -90 97 0
6 53 101 0
51 -61 64 0
39 -63 -84 0
-52 89 -97 0
-5 -93 -116 0
-47 58 68 0
-27 34 -103 0
21 25 69 0
52 65 75 0
-15 -22 78 0
-3 -8 -108 0
5 53 -91 0
6 51 64 0
13 50 -61 0
15 45 -80 0
-36 -101 -121 0
32 -35 -72 0
-8 12 41 0
4 14 88 0
5 62 -65 0
-26 -116 -125 0
45 -118 -121 0
-78 81 -97 0
24 -53 -109 0
-69 88 -100 0
-71 107 -121 0
54 -57 -103 0
35 -45 -106 0
6 -20 22 0
87 -89 98 0
77 103 -108 0
-60 -112 115 0
10 -25 -52 0
11 15 58 0
20 83 120 0
30 37 -124 0
-65 100 -117 0
11 23 80 0
13 -110 124 0
14 52 -60 0
-86 -98 -112 0
-15 -38 100 0
-1 -15 70 0
-25 44 -45 0
55 83 101 0
-8 45 -108 0
11 -33 57 0
27 -96 -120 0
-25 -48 -122 0
61 -76 118 0
13 24 -115 0
-8 65 67 0
-27 -36 96 0
45 -60 95 0
-14 -39 57 0
-20 -27 -63 0
-21 -56 -121 0
-29 -68 -70 0
-4 -48 60 0
67 104 120 0
20 68 81 0
-1 -27 -99 0
5 63 71 0
-36 56 116 0
34 -40 -58 0
34 44 -93 0
5 81 87 0
-96 -98 108 0
3 22 -36 0
-8 -83 -115 0
48 -67 81 0
10 -18 -88 0
-36 -57 -59 0
-20 68 123 0
53 -63 -109 0
4 -41 74 0
-36 91 -101 0
10 -48 -86 0
-25 40 -118 0
-51 107 -121 0
-5 -28 -122 0
5 -37 -72 0
-11 53 116 0
11 90 95 0
37 -121 -125 0
-35 60 62 0
31 63 123 0
-23 -91 116 0
7 19 -51 0
25 84 106 0
20 -68 123 0
24 -50 56 0
-15 17 -19 0
46 118 121 0
-19 48 121 0
-46 70 -122 0
-3 -61 -95 0
-40 60 -69 0
-26 50 -107 0
108 -110 -124 0
17 26 -108 0
23 79 112 0
-16 -102 -112 0
-12 -60 70 0
-28 -76 -77 0
-41 -76 -82 0
-37 39 125 0
-29 65 -78 0
-35 56 -124 0
43 -69 101 0
-9 54 55 0
49 50 -110 0
-8 28 -66 0
-50 94 -112 0
-48 -52 65 0
-19 64 75 0
9 48 79 0
-27 42 56 0
-4 -69 -94 0
93 -107 -108 0
-16 75 -88 0
-18 40 114 0
23 -77 106 0
45 -49 102 0
-18 36 -61 0
-76 -81 -122 0
13 82 -96 0
-96 97 113 0
-42 62 -117 0
54 -83 113 0
51 83 123 0
66 116 120 0
-30 -61 -106 0
59 85 -123 0
44 -76 -116 0
41 -99 111 0
-56 93 -110 0
28 110 -112 0
-16 117 -119 0
-5 -24 97 0
50 109 -113 0
29 -47 -50 0
-7 34 45 0
29 39 57 0
27 -62 90 0
-23 -88 97 0
-39 57 81 0
-69 -101 111 0
-23 -35 75 0
-50 -65 -105 0
62 80 -98 0
44 -94 111 0
-19 -45 68 0
-58 -111 119 0
45 75 -106 0
-75 -87 -115 0
-96 108 -119 0
-72 -87 -95 0
24 -48 73 0
50 -73 107 0
-41 93 -118 0
-26 -60 117 0
-8 78 93 0
22 65 86 0
-50 -112 -119 0
-9 36 -62 0
16 -28 -122 0
-19 34 -56 0
66 74 100 0
-34 45 102 0
18 91 -112 0
-15 43 125 0
-6 63 -86 0
-57 -112 -116 0
-33 -38 70 0
-5 6 22 0
17 -98 -102 0
-6 72 81 0
21 -28 -123 0
20 -37 95 0
12 18 34 0
-1 -11 -90 0
23 34 -90 0
54 88 90 0
-44 -67 93 0
-6 28 -103 0
-86 93 -120 0
31 -58 103 0
-21 30 -54 0
15 -41 74 0
-4 52 76 0
-59 -66 73 0
-55 67 76 0
58 -65 102 0
-17 57 67 0
38 47 -68 0
9 -62 103 0
2 3 -61 0
-2 -7 -116 0
-61 -63 105 0
40 -73 81 0
15 88 124 0
21 51 96 0
39 -87 124 0
47 -64 -87 0
-51 -72 -101 0
-4 -78 -121 0
-34 -82 95 0
-13 -46 -84 0
-26 62 97 0
-7 75 -79 0
13 -24 -41 0
-54 -56 -114 0
-6 -47 -105 0
29 35 68 0
-4 78 -99 0
-49 62 -65 0
8 51 83 0
73 88 -115 0
66 100 116 0
-28 77 -122 0
19 -21 -56 0
41 -57 81 0
-44 -76 122 0
16 37 125 0
32 -50 114 0
-12 -95 116 0
-27 70 -107 0
31 -105 108 0
33 -45 102 0
28 45 -124 0
-8 -33 -55 0
68 -107 122 0
40 45 -86 0
-52 99 -115 0
16 78 96 0
41 45 -112 0
-7 15 -100 0
-43 72 -115 0
-57 91 -100 0
1 -16 -101 0
36 -49 -109 0
-47 61 -90 0
-62 64 -73 0
10 40 92 0
23 -85 -111 0
11 47 -70 0
2 -79 113 0
-14 -83 -97 0
-2 59 102 0
12 98 115 0
-11 36 85 0
7 57 92 0
-42 -57 91 0
25 90 -111 0
-17 -90 -109 0
-18 -61 86 0
-22 -30 -98 0
-31 -67 -117 0
45 -97 -99 0
-10 -24 -119 0
-52 123 124 0
-1 -45 81 0
-59 -83 -84 0
95 -100 107 0
-10 -89 -109 0
-22 26 -92 0
1 23 -120 0
-16 -73 87 0
67 86 -105 0
39 -57 -63 0
-23 -59 -81 0
9 31 -44 0
-10 69 113 0
-5 21 61 0
47 -75 109 0
2 -70 97 0
37 -72 -74 0
-20 -49 -75 0
-8 60 118 0
-35 -118 -125 0
2 -16 24 0
-51 89 113 0
-6 -56 109 0
-55 -86 117 0
-30 90 -119 0
-46 48 89 0
47 95 114 0
25 -34 -63 0
-22 -97 -114 0
51 74 -98 0
-14 -27 -84 0
-39 -108 116 0
45 -67 -83 0
-78 98 114 0
-89 94 106 0
-30 -48 67 0
84 97 116 0
-75 85 -113 0
40 46 -80 0
-23 -117 -120 0
-21 31 68 0
-2 46 -105 0
-15 -56 -114 0
-39 46 -105 0
-10 -25 125 0
9 -34 -70 0
82 -98 -106 0
7 10 125 0
29 80 -84 0
22 69 -99 0
3 -59 65 0
-49 101 116 0
6 -12 91 0
-12 24 -57 0
20 65 85 0
-36 63 83 0
-39 80 106 0
21 -80 81 0
31 99 101 0
-72 113 -123 0
4 -38 120 0
31 -59 65 0
-29 85 114 0
-60 103 -111 0
-15 31 107 0
10 61 119 0
-42 -78 -105 0
10 -38 107 0
-3 46 121 0
16 -23 -34 0
-1 -81 110 0
-20 33 44 0
-42 -75 101 0
11 -33 50 0
40 -50 124 0
-25 -29 -67 0
89 102 104 0
-23 -31 -65 0
-51 -76 -104 0
-49 69 -102 0
-11 -14 -113 0
39 60 -91 0
-73 92 108 0
-49 75 -92 0
-3 -39 95 0
18 76 114 0
-53 -62 -67 0
2 -20 -101 0
14 32 -58 0
-15 -73 87 0
40 -47 -82 0
1 -43 97 0
33 113 121 0
-42 75 -105 0
-1 51 -81 0
58 -119 124 0
20 56 97 0
15 32 -111 0
41 -58 102 0
10 -44 122 0
-23 49 -108 0
43 48 -72 0
11 -44 108 0
12 -112 -123 0
-60 67 -80 0
9 14 -25 0
41 83 117 0
81 94 125 0
42 44 82 0
2 -52 -92 0
-7 -48 -59 0
-44 74 -100 0
-25 -91 92 0
40 -58 73 0
-15 61 -125 0
-7 20 -85 0
-1 -31 -117 0
23 57 -78 0
47 -67 -77 0
55 -91 115 0
-16 74 110 0
-3 -63 -66 0
27 37 52 0
12 55 -85 0
-31 35 -43 0
-2 -31 -49 0
-21 108 116 0
11 23 95 0
-2 -54 57 0
-12 -42 99 0
-28 -31 75 0
-64 -96 108 0
44 -97 123 0
-33 -56 -69 0
-4 13 77 0
-38 -57 -106 0
-11 36 -66 0
36 -55 117 0
31 -61 113 0
-2 -3 -82 0
-75 -85 -106 0
48 -59 91 0
24 -32 -75 0
-9 -25 -37 0
42 91 122 0
-12 -58 -77 0
14 -17 121 0
17 23 -113 0
