c F1 random 3-CNF cnfgen RandomKCNF(3,225,959,seed=5) m/n=4.26
p cnf 225 959
-66 160 -190 0
64 167 199 0
96 -121 223 0
4 -64 -147 0
-47 197 223 0
36 114 159 0
2 54 224 0
51 75 81 0
-6 -77 99 0
-17 -38 68 0
-153 174 -182 0
-79 -91 210 0
121 124 -181 0
-6 92 -192 0
94 -97 149 0
47 160 182 0
-89 -119 -210 0
-28 -151 192 0
-24 -54 111 0
71 -88 -180 0
46 79 -205 0
42 124 -185 0
-9 -61 -190 0
38 108 -167 0
54 86 -215 0
-28 44 112 0
76 -108 217 0
-117 -125 -134 0
75 104 -121 0
-46 -137 211 0
-23 70 -126 0
151 -170 -178 0
-144 -172 -181 0
-177 -184 198 0
-3 -149 -219 0
-71 -119 -172 0
-71 -89 165 0
-177 -222 -223 0
37 133 -136 0
73 -123 219 0
-149 -158 -200 0
8 -51 185 0
57 176 -195 0
14 43 -58 0
47 -50 -124 0
90 98 170 0
-1 -96 -184 0
105 -220 222 0
78 -141 -158 0
76 -91 -149 0
-145 -165 209 0
-41 98 153 0
24 -90 156 0
84 -145 -158 0
-58 -110 -111 0
98 -99 -182 0
65 -107 -128 0
-37 74 126 0
114 -160 169 0
-35 201 -212 0
71 -137 144 0
63 -69 -126 0
122 127 156 0
-73 -77 137 0
90 93 119 0
65 117 142 0
-110 -200 -207 0
101 -122 -175 0
-17 195 -213 0
-74 -150 166 0
-43 -123 178 0
109 139 150 0
22 69 -210 0
-18 -110 185 0
32 57 -216 0
39 113 -181 0
18 42 206 0
98 -170 191 0
-31 147 148 0
-24 -81 -111 0
15 -96 168 0
-146 162 -174 0
-17 -61 142 0
-61 -207 -222 0
34 -46 183 0
10 147 -171 0
-62 -100 -225 0
28 -136 204 0
39 110 218 0
126 171 -211 0
-61 -91 -214 0
97 -99 -204 0
-111 162 206 0
47 102 190 0
9 48 -52 0
-124 170 -195 0
-77 -121 -159 0
26 50 119 0
-96 99 -223 0
29 -72 210 0
-9 -89 124 0
-6 -173 177 0
-31 -172 -202 0
62 173 187 0
7 148 -183 0
-94 175 -181 0
-18 73 93 0
45 -54 -173 0
-2 -16 119 0
-9 12 141 0
61 -126 206 0
63 -165 -175 0
-13 -16 -201 0
14 79 164 0
-131 164 179 0
22 81 203 0
20 154 -220 0
-92 -125 139 0
-4 -186 194 0
-30 -36 142 0
-68 -198 200 0
-21 34 138 0
110 -148 205 0
64 127 -180 0
-19 -26 -96 0
143 -193 197 0
8 114 148 0
69 -110 180 0
17 79 -83 0
-83 128 174 0
139 190 196 0
-13 -34 -212 0
-5 60 -157 0
52 85 92 0
25 69 -187 0
-112 196 -204 0
-59 -82 115 0
13 -114 -197 0
1 -27 153 0
1 -9 -54 0
56 -101 119 0
-78 133 -144 0
64 -91 -208 0
37 -90 -213 0
-10 25 -44 0
-52 -204 -205 0
137 160 -221 0
3 -27 177 0
-7 -82 -174 0
-140 -177 181 0
-38 -138 205 0
134 -174 -198 0
-7 -20 -23 0
4 71 184 0
-23 -172 193 0
24 124 -133 0
-109 140 -202 0
46 -97 -193 0
-28 83 216 0
-55 76 79 0
20 106 162 0
-145 -146 161 0
109 -124 -136 0
-22 72 -155 0
-8 30 -39 0
49 -84 153 0
16 -36 125 0
-120 166 -218 0
1 26 216 0
-24 39 -86 0
83 189 -209 0
17 27 -209 0
45 96 -118 0
97 120 -140 0
-1 -34 -176 0
-19 126 191 0
91 -123 -208 0
37 75 -128 0
87 -105 218 0
-57 61 108 0
-25 -70 142 0
99 139 -217 0
34 92 208 0
5 -93 -208 0
99 133 223 0
50 -114 206 0
-72 154 215 0
-41 101 198 0
-7 -108 -198 0
4 -194 209 0
-49 78 -200 0
56 -101 108 0
74 94 121 0
20 -118 195 0
39 -51 -105 0
-35 118 154 0
8 94 -159 0
-22 -34 69 0
39 -76 133 0
-28 -103 -165 0
-123 141 149 0
5 -68 140 0
61 124 171 0
55 108 -198 0
15 129 -206 0
-6 -89 -199 0
-27 -32 -168 0
78 97 -217 0
-15 55 -189 0
-96 142 -210 0
17 90 -127 0
11 16 -190 0
-37 -88 -96 0
37 -190 -201 0
-7 -161 213 0
-63 -161 203 0
36 -145 153 0
-3 12 117 0
-31 -106 151 0
29 138 179 0
-18 118 -184 0
-31 -104 -194 0
-1 -77 -225 0
40 -98 -168 0
53 118 -157 0
-21 -109 164 0
36 -51 -126 0
-5 -38 112 0
62 -143 -170 0
76 81 -214 0
-92 -109 217 0
30 -177 209 0
-27 162 223 0
99 -140 -199 0
-26 105 -220 0
-17 -75 -184 0
17 18 78 0
-130 189 -203 0
-19 58 -107 0
-28 -167 175 0
27 98 120 0
25 -138 -158 0
-30 -70 79 0
-35 54 132 0
84 183 -208 0
-14 -165 -220 0
-142 -147 205 0
-66 -161 -191 0
155 182 195 0
118 -178 187 0
35 -43 -64 0
119 -159 220 0
-65 77 149 0
-7 -53 -196 0
-134 -155 224 0
-35 -74 -225 0
-33 95 198 0
-1 -41 -125 0
-108 -211 -215 0
158 177 -183 0
-1 -138 -167 0
12 -59 138 0
44 52 -189 0
-27 99 -167 0
3 53 -169 0
79 112 -150 0
-142 143 -153 0
1 -136 216 0
4 49 119 0
-113 -118 -206 0
-7 20 134 0
114 129 -167 0
-26 52 137 0
1 -57 102 0
-49 -77 187 0
30 99 198 0
-38 104 -116 0
117 -135 197 0
-60 -109 223 0
-52 84 150 0
137 -211 216 0
-111 156 -182 0
2 -47 140 0
-2 -180 191 0
39 95 -125 0
-68 -123 -194 0
-44 101 110 0
28 -76 123 0
-22 168 171 0
84 -105 -187 0
197 -200 220 0
22 133 -196 0
-56 -121 132 0
-72 109 158 0
-24 75 -213 0
25 -75 -106 0
23 -88 223 0
-26 -84 119 0
116 176 -180 0
-68 80 -118 0
-51 -106 169 0
-17 34 -113 0
94 108 202 0
-37 115 188 0
151 180 194 0
-75 -76 161 0
-9 111 -117 0
-131 -136 -178 0
-10 -46 -217 0
23 -160 -218 0
88 -95 -201 0
68 116 -220 0
47 -72 92 0
-81 103 175 0
-112 133 -158 0
10 -50 97 0
128 177 -225 0
-26 87 157 0
12 -51 -128 0
12 -53 -135 0
57 95 117 0
-28 50 195 0
-17 -29 -163 0
-44 -106 199 0
-45 62 -101 0
60 121 -218 0
-25 -147 171 0
-1 67 177 0
-21 -64 190 0
2 -125 -158 0
69 -82 -91 0
3 39 176 0
23 78 145 0
99 -166 171 0
44 -53 195 0
-113 -162 224 0
-48 151 -153 0
122 -134 146 0
43 -144 -155 0
-72 121 215 0
115 141 144 0
47 76 -128 0
-42 -71 184 0
80 91 164 0
-59 -72 -155 0
-18 102 -123 0
123 -171 185 0
-52 -130 198 0
95 -111 158 0
145 -158 202 0
107 -123 -126 0
114 126 -162 0
57 182 183 0
-115 167 199 0
4 125 179 0
-17 -195 213 0
-6 -31 -194 0
-42 -58 -183 0
-13 151 -198 0
-11 -49 -53 0
59 -172 208 0
123 -128 -146 0
-56 67 -94 0
31 -39 -203 0
61 -91 197 0
-123 144 -162 0
12 37 -171 0
38 -77 -197 0
-12 -48 111 0
-30 67 214 0
-2 79 81 0
-94 -142 222 0
110 -112 -134 0
80 -122 190 0
29 63 -109 0
-50 -135 173 0
8 38 -182 0
-3 -106 173 0
67 81 -127 0
-18 65 -124 0
-12 111 183 0
13 60 -109 0
-17 61 176 0
115 -126 166 0
93 -124 -222 0
-19 83 119 0
-72 -132 169 0
-89 96 191 0
-98 -106 -133 0
57 106 -215 0
12 -25 -199 0
-30 172 -185 0
29 -57 -102 0
-41 -59 -90 0
-80 -201 215 0
-12 -60 194 0
-23 -128 164 0
-38 -78 156 0
-51 -101 122 0
183 203 -205 0
41 -132 -194 0
7 -198 -217 0
30 174 -176 0
-53 74 179 0
-124 -155 -214 0
-68 -83 184 0
-73 102 -169 0
20 201 205 0
105 -154 166 0
108 -128 -225 0
-83 169 195 0
148 -151 182 0
-18 90 188 0
14 100 -196 0
-20 56 -195 0
1 26 -192 0
-128 130 149 0
-36 -125 141 0
-36 -161 167 0
9 -100 175 0
-92 -151 -176 0
-59 -108 -209 0
110 174 193 0
-50 172 -207 0
-84 165 -171 0
20 70 100 0
19 173 218 0
-112 -128 194 0
49 95 -154 0
-9 -69 188 0
83 157 224 0
52 113 162 0
-96 -174 -201 0
19 -116 127 0
135 149 207 0
84 145 -211 0
214 218 -222 0
7 -180 -220 0
11 30 -196 0
-57 -70 82 0
46 50 -61 0
-5 -122 161 0
-4 5 57 0
68 -99 224 0
68 -81 -177 0
48 -111 196 0
15 -86 -207 0
-30 37 205 0
-33 -66 134 0
113 -218 220 0
45 -119 -139 0
-52 164 182 0
69 -88 107 0
-2 -150 183 0
-88 -202 -203 0
-21 -142 197 0
66 110 -213 0
-87 -110 212 0
26 -65 199 0
21 50 -191 0
-19 -34 -159 0
-31 -73 -98 0
63 162 205 0
95 148 -203 0
-42 -97 -118 0
-35 72 -156 0
42 -101 171 0
76 143 -144 0
-5 -51 131 0
41 -85 165 0
41 -77 -121 0
96 -159 225 0
47 64 -161 0
-109 126 164 0
10 106 -135 0
-1 50 -152 0
153 158 -160 0
66 181 -216 0
41 86 -167 0
-50 -162 -175 0
-20 38 150 0
-21 -23 -27 0
-58 -60 -196 0
-18 -102 -218 0
3 63 -121 0
89 -151 -156 0
-22 58 -120 0
101 112 -205 0
83 148 -206 0
-20 -136 -173 0
-37 -68 -137 0
-146 158 175 0
-35 -97 200 0
4 81 -85 0
-62 -107 199 0
-63 79 146 0
102 168 -173 0
10 -110 -170 0
-39 204 223 0
-121 180 -193 0
10 -101 -224 0
21 113 223 0
-5 -11 -21 0
-72 -138 -166 0
11 72 208 0
-98 201 206 0
38 146 -211 0
-36 -192 -198 0
16 114 -219 0
33 -63 89 0
-62 -147 165 0
57 -58 220 0
84 109 138 0
-78 -153 161 0
-69 -158 -162 0
13 165 201 0
-49 51 126 0
-51 60 -193 0
7 90 119 0
-91 162 -182 0
63 -169 -201 0
64 105 183 0
154 175 -179 0
-54 101 112 0
-116 165 -210 0
-71 -180 191 0
-15 -137 -198 0
24 -30 -185 0
19 -56 75 0
-45 61 129 0
6 -21 -177 0
31 -77 -108 0
15 139 -160 0
96 -183 -212 0
81 92 -157 0
41 110 -171 0
-66 -84 -116 0
-67 -131 177 0
-172 196 -204 0
50 -125 -164 0
-122 -131 -151 0
-149 -177 -203 0
90 -164 -219 0
4 -12 -95 0
-163 196 -208 0
29 -39 51 0
82 -83 -187 0
-54 61 176 0
-136 -142 -174 0
-11 147 218 0
-20 -123 163 0
-25 140 223 0
-135 170 -213 0
61 90 130 0
9 -43 -121 0
32 88 -148 0
-46 -50 61 0
99 118 -194 0
130 -158 -175 0
-21 -49 -128 0
-65 81 133 0
-29 140 151 0
30 148 -159 0
198 -211 214 0
-8 -68 -145 0
-67 136 183 0
-73 -74 142 0
36 -121 146 0
-72 -145 -181 0
-16 139 -195 0
18 120 -180 0
99 -198 -222 0
20 165 -215 0
-89 93 202 0
50 74 -94 0
-18 -45 198 0
15 21 -94 0
22 -35 -201 0
54 58 -210 0
-19 65 199 0
37 44 -137 0
73 -194 225 0
-47 111 -126 0
-120 137 180 0
11 -62 134 0
12 47 -77 0
10 31 -80 0
192 -216 -225 0
27 -129 142 0
75 135 206 0
72 -159 -219 0
-81 121 -225 0
63 123 -179 0
-32 42 215 0
-146 -177 -218 0
-37 -48 95 0
-14 146 -193 0
-10 -45 -76 0
-36 112 151 0
47 -62 -193 0
-13 215 -216 0
5 38 169 0
-8 34 81 0
66 74 183 0
4 68 131 0
92 -117 138 0
81 -87 -165 0
21 127 144 0
148 -168 -181 0
-102 -151 -192 0
87 -186 216 0
-53 -62 120 0
13 -157 189 0
-155 201 -208 0
99 163 197 0
-77 83 188 0
115 -162 223 0
49 -56 -187 0
87 142 -206 0
34 -70 130 0
-129 -146 -199 0
85 -123 -194 0
134 -159 186 0
-22 185 -224 0
-8 -32 36 0
3 127 -189 0
-29 -178 -203 0
-24 142 202 0
-12 117 162 0
-46 67 120 0
-3 51 140 0
50 -171 208 0
18 77 195 0
-30 122 164 0
-39 -131 162 0
-105 117 186 0
85 180 -219 0
29 89 -146 0
168 175 -192 0
66 -183 214 0
-10 -157 -203 0
-212 -216 -223 0
-3 9 -131 0
-133 149 -155 0
77 -187 -225 0
-180 184 -201 0
135 178 -202 0
-86 -158 -209 0
143 182 -211 0
-110 214 221 0
-19 76 171 0
92 -122 170 0
-52 128 -182 0
42 61 -91 0
-24 40 -180 0
-89 158 165 0
30 -51 177 0
115 -116 217 0
182 -187 206 0
-23 49 125 0
22 -99 201 0
-69 138 -222 0
-31 -146 222 0
15 102 -155 0
-20 77 184 0
-45 -98 208 0
-26 107 130 0
37 -176 185 0
66 -94 220 0
-53 64 -159 0
29 48 -177 0
-10 93 170 0
-55 -65 -72 0
-25 102 -222 0
37 71 136 0
-62 -76 113 0
-83 -151 -215 0
-28 62 192 0
31 -111 -154 0
35 86 -114 0
102 -109 -158 0
-30 212 -224 0
69 104 -192 0
161 191 209 0
98 -164 -225 0
25 -114 -123 0
-46 130 151 0
-111 167 182 0
43 93 152 0
-81 102 -137 0
18 139 -164 0
8 -103 138 0
-2 174 206 0
53 134 203 0
84 -92 -140 0
-7 106 182 0
-29 91 -166 0
-46 -89 -172 0
30 -161 -185 0
134 171 192 0
50 67 164 0
28 -53 151 0
42 73 -144 0
6 27 78 0
-8 -66 186 0
-95 -133 -173 0
63 191 194 0
36 54 145 0
-100 156 173 0
-28 -87 -185 0
-11 28 -211 0
-72 150 212 0
-68 139 -164 0
49 62 201 0
-88 113 -145 0
-170 214 217 0
-35 -137 -171 0
40 140 158 0
45 84 131 0
40 122 158 0
17 169 185 0
-62 -70 200 0
46 98 -139 0
-21 31 74 0
5 151 218 0
-86 -107 -165 0
-15 -35 74 0
-27 133 -208 0
-21 27 -150 0
118 188 192 0
7 -109 -165 0
46 170 174 0
28 44 -199 0
112 -113 157 0
57 -65 132 0
44 74 222 0
-36 -217 -219 0
12 19 203 0
-31 -56 -106 0
-14 59 200 0
161 187 192 0
-11 165 193 0
2 110 207 0
100 -101 -169 0
-49 157 -184 0
129 -175 -205 0
-26 51 -96 0
74 75 -106 0
69 132 174 0
-89 104 -215 0
118 -203 -214 0
-11 -74 134 0
-38 116 130 0
97 161 -207 0
55 -185 208 0
-6 -28 29 0
53 110 215 0
-57 -111 -142 0
81 126 219 0
42 54 -195 0
-1 15 -215 0
165 204 -215 0
-22 29 -134 0
-111 -141 -189 0
-5 163 174 0
36 -190 -194 0
41 -128 -195 0
-24 182 183 0
22 -144 199 0
22 -45 -148 0
19 32 136 0
67 117 160 0
-14 33 -70 0
-86 -94 145 0
-55 -108 -192 0
-88 -157 169 0
-1 65 -115 0
-130 165 187 0
-52 -117 -157 0
167 196 -197 0
-2 -157 -191 0
44 -62 -91 0
71 128 -152 0
161 168 -197 0
21 29 -198 0
19 61 -120 0
-42 -133 201 0
77 -141 -214 0
-41 -50 -118 0
85 144 -216 0
-66 -82 153 0
162 -176 -193 0
-27 -113 -171 0
-20 -43 185 0
14 134 -177 0
-90 -106 -222 0
-19 41 114 0
1 -162 216 0
69 116 -192 0
87 188 215 0
-69 -88 198 0
-144 -186 -207 0
20 -134 178 0
-8 178 -193 0
29 135 195 0
-23 134 -223 0
-56 -88 184 0
44 -160 175 0
-50 143 -220 0
-23 171 182 0
32 -80 -114 0
-57 -128 -149 0
-15 -42 203 0
19 -109 189 0
19 -55 -65 0
-100 -139 165 0
18 147 -168 0
-8 82 116 0
107 111 -160 0
44 -157 -198 0
4 74 152 0
-47 88 -181 0
-24 -32 143 0
-128 -183 -224 0
7 190 -210 0
-23 77 186 0
-42 -190 -225 0
-126 -208 -225 0
-111 163 200 0
52 -70 91 0
29 196 207 0
-64 -71 188 0
-28 -50 -190 0
61 98 -156 0
-95 156 -191 0
-74 -80 -169 0
-54 -97 186 0
19 121 154 0
20 -105 -153 0
43 -151 157 0
-63 130 183 0
-26 49 -126 0
-189 215 -221 0
-115 183 -205 0
78 -158 221 0
70 -84 158 0
-1 -169 -188 0
-4 -162 -182 0
-7 40 52 0
-186 -195 -198 0
53 60 -75 0
105 133 -208 0
-27 -113 -120 0
-40 -105 219 0
35 129 191 0
30 99 -100 0
-101 -134 -194 0
-13 136 213 0
-16 124 -128 0
3 -93 -215 0
-79 131 180 0
84 116 203 0
11 56 203 0
6 178 222 0
-6 -95 114 0
-33 43 102 0
13 -109 -215 0
133 139 -215 0
-5 -9 -127 0
-40 -81 -89 0
73 94 111 0
18 -21 137 0
-5 -12 141 0
54 156 198 0
8 52 -81 0
41 -108 179 0
-156 175 199 0
-36 -63 211 0
31 167 -210 0
11 62 172 0
6 -102 136 0
-77 -111 209 0
-22 190 212 0
-33 197 214 0
1 2 211 0
-36 -105 150 0
54 118 208 0
-36 -113 190 0
-6 40 -183 0
-46 164 214 0
-11 -44 -136 0
33 -123 150 0
-118 197 199 0
-42 -99 -185 0
-120 195 -220 0
-9 -80 134 0
73 162 -172 0
-56 131 223 0
52 -60 191 0
-79 125 -179 0
27 35 -139 0
-55 68 146 0
136 -147 -224 0
105 -169 214 0
-17 147 -180 0
-130 -138 172 0
-51 83 -168 0
-6 63 -154 0
-37 -38 -134 0
-69 110 -192 0
8 32 140 0
-90 -183 -219 0
-84 91 -194 0
129 -177 -199 0
119 145 -162 0
15 -57 -101 0
68 82 -213 0
-79 139 198 0
-30 67 112 0
-69 -97 163 0
11 14 -98 0
-28 80 99 0
35 -52 191 0
-90 160 -198 0
123 -161 205 0
15 -101 -115 0
30 -96 103 0
-8 -153 -155 0
-18 -57 83 0
-15 -158 204 0
44 48 182 0
57 -180 208 0
176 194 -218 0
-34 95 186 0
-36 187 -198 0
-83 110 -172 0
31 -89 151 0
-16 76 -167 0
-87 -92 160 0
59 -123 -157 0
-81 -106 189 0
-94 -135 -205 0
8 144 200 0
122 -129 -192 0
50 -152 164 0
-112 -146 -184 0
-13 128 159 0
18 148 163 0
27 103 -155 0
-62 72 -98 0
-76 131 -164 0
7 150 206 0
116 -128 224 0
45 -99 179 0
49 -80 -152 0
-59 -71 78 0
35 -160 -202 0
-36 210 -216 0
-15 -23 -100 0
