c F1 random 3-CNF cnfgen RandomKCNF(3,100,426,seed=10) m/n=4.26
p cnf 100 426
-5 55 74 0
36 60 -63 0
-10 32 -42 0
-18 -46 -78 0
34 -59 -87 0
18 -59 -99 0
1 6 75 0
39 -47 -69 0
-9 56 61 0
5 -31 -53 0
10 78 -85 0
48 73 77 0
-22 -25 -57 0
-32 58 88 0
-16 35 59 0
-23 -62 -100 0
1 -29 -70 0
-11 -32 34 0
50 -64 -87 0
9 -64 -78 0
-18 -52 -54 0
-22 72 -90 0
1 5 -57 0
-12 -14 20 0
-56 -59 -100 0
-55 59 90 0
5 -42 80 0
15 -38 56 0
6 -71 77 0
-19 -62 86 0
11 -24 45 0
-13 -40 -88 0
72 -86 -96 0
1 -15 -81 0
26 -49 84 0
-8 -33 -45 0
-25 -81 -98 0
-34 -64 -65 0
-36 -45 -93 0
-11 -62 76 0
54 -78 93 0
-42 76 -84 0
37 48 79 0
13 40 72 0
-25 54 -73 0
26 -44 74 0
75 85 -89 0
42 51 77 0
22 -45 78 0
-51 57 74 0
-57 -61 91 0
-44 -46 55 0
13 56 83 0
-25 -73 -82 0
-7 22 78 0
-13 23 -75 0
-6 51 -77 0
25 63 -98 0
-60 97 100 0
-23 75 -91 0
13 16 -51 0
-40 82 -93 0
61 -67 80 0
-21 86 87 0
-66 82 -98 0
-28 37 75 0
68 72 -80 0
-3 -5 84 0
-7 -46 94 0
-3 17 27 0
-32 50 79 0
1 4 16 0
9 -50 89 0
7 54 -80 0
43 59 -75 0
-59 63 81 0
23 -33 34 0
-11 20 36 0
-16 37 -69 0
-67 82 97 0
8 78 82 0
-19 28 40 0
48 -67 -86 0
23 60 -81 0
20 -58 -78 0
-6 20 -63 0
-28 -36 -90 0
-20 41 83 0
-7 59 -87 0
11 79 100 0
2 -47 56 0
-9 -14 -47 0
-17 23 96 0
20 -49 -93 0
9 25 69 0
51 59 85 0
23 -59 -86 0
-27 -32 -81 0
-8 -20 -63 0
-1 42 -87 0
37 59 -92 0
-12 16 55 0
11 -49 -69 0
-11 -15 54 0
-3 -51 -57 0
39 -72 85 0
-30 -61 -64 0
58 -71 -96 0
24 -31 39 0
4 68 100 0
40 54 98 0
22 41 60 0
-3 -19 -87 0
-3 -54 81 0
6 20 33 0
-61 -66 -92 0
-55 -71 -100 0
-8 -14 -62 0
9 46 -61 0
-1 26 37 0
-21 47 -62 0
26 -32 74 0
33 63 71 0
-22 -23 83 0
55 -88 -90 0
-25 -30 93 0
26 74 97 0
11 51 -93 0
41 -63 75 0
49 -52 60 0
8 -14 32 0
-36 -90 -93 0
18 45 99 0
58 -97 99 0
-18 21 -77 0
9 -22 -60 0
20 -82 99 0
-5 -7 -85 0
-74 -78 96 0
-43 60 -93 0
-38 84 -91 0
-41 -49 -81 0
15 22 36 0
-47 -57 98 0
25 41 88 0
22 75 -98 0
-46 -60 -98 0
-10 26 84 0
-32 73 -95 0
38 -72 -87 0
60 -77 -90 0
-37 62 -63 0
-33 75 83 0
-42 50 -56 0
-12 -14 15 0
23 70 -88 0
21 44 82 0
-2 41 -44 0
-8 77 100 0
38 66 72 0
-64 -81 96 0
-19 22 -50 0
53 56 78 0
-36 90 -99 0
31 -44 49 0
2 19 74 0
32 -35 -96 0
-8 58 94 0
23 -74 79 0
-20 -38 67 0
-10 17 -61 0
-61 91 -100 0
6 38 -47 0
5 55 68 0
-6 30 86 0
-6 -39 -53 0
2 -33 50 0
-9 -49 72 0
-7 -42 -75 0
-21 22 -45 0
-7 29 -41 0
-15 92 96 0
4 -35 74 0
-39 -70 -78 0
1 -41 93 0
-45 -46 81 0
-19 -29 -58 0
-32 76 88 0
30 49 99 0
11 47 48 0
-3 10 83 0
-56 -72 86 0
3 14 -70 0
-10 34 -83 0
-30 31 -92 0
-42 85 -97 0
-7 -17 56 0
-19 -47 97 0
52 -63 91 0
21 51 70 0
15 29 -36 0
52 65 84 0
7 -40 -55 0
-37 57 79 0
21 86 93 0
-19 -78 -79 0
45 68 77 0
-33 -51 -63 0
42 -46 -54 0
-3 -6 97 0
5 58 -97 0
10 22 76 0
-28 69 78 0
31 -60 67 0
83 -99 100 0
8 23 84 0
6 10 60 0
8 -90 -99 0
10 75 77 0
-15 74 -82 0
25 -41 65 0
-58 -60 69 0
-1 34 -45 0
39 -53 56 0
19 45 -99 0
24 35 -82 0
-33 56 -99 0
-87 -93 94 0
-2 83 -96 0
3 27 31 0
16 -34 61 0
-71 -75 85 0
-51 53 -55 0
1 -43 65 0
-16 56 -78 0
10 -15 -34 0
39 69 -78 0
43 -55 97 0
16 -56 -79 0
19 42 -43 0
-34 56 82 0
-8 -39 -51 0
-2 61 -73 0
23 27 78 0
-12 -43 -61 0
16 47 91 0
-67 85 -94 0
-77 -78 93 0
-11 -59 -99 0
-9 -12 -56 0
46 -52 83 0
-6 28 90 0
-7 -27 -91 0
-2 59 92 0
36 49 -97 0
24 56 -67 0
-52 53 93 0
6 12 14 0
-41 -53 -98 0
9 -74 -100 0
-55 -58 83 0
36 60 88 0
-4 90 94 0
2 -20 80 0
23 -58 77 0
8 13 -70 0
-10 43 95 0
-62 -89 -97 0
-56 -66 -76 0
44 45 71 0
-10 -17 38 0
-18 -56 100 0
31 54 63 0
-31 -54 -87 0
-20 -40 58 0
-6 51 86 0
4 52 -56 0
3 -50 87 0
41 -57 89 0
-52 -83 -88 0
6 59 -95 0
18 -79 -99 0
-23 -39 -40 0
22 -35 -40 0
10 -40 54 0
-31 89 98 0
59 -71 72 0
38 -66 83 0
-25 -91 -96 0
-6 27 -39 0
3 84 -93 0
35 65 85 0
4 51 53 0
-13 -43 70 0
35 51 54 0
22 76 -89 0
-14 -64 93 0
49 -74 -78 0
73 79 95 0
-67 -74 77 0
64 84 -95 0
-29 45 -77 0
-8 -59 -83 0
-14 -35 -67 0
-58 62 100 0
23 -35 100 0
-53 -67 -77 0
7 -40 57 0
-30 38 -80 0
-2 21 22 0
-41 -43 59 0
-2 -35 -42 0
-5 -35 -54 0
8 -79 -80 0
-2 -51 84 0
-72 77 -89 0
-44 -77 -97 0
-5 -15 -91 0
21 -25 93 0
42 -57 76 0
-5 11 -72 0
-52 74 81 0
-22 -53 -81 0
-24 47 74 0
-38 55 -71 0
-23 26 -83 0
66 75 -94 0
-4 38 -51 0
-17 36 47 0
-6 82 -97 0
6 -43 -100 0
-54 74 99 0
42 -48 -95 0
13 -97 -98 0
36 -56 -63 0
-85 -86 87 0
44 50 75 0
-27 -80 -87 0
47 57 99 0
47 75 98 0
-24 -43 -67 0
14 -33 59 0
-46 -47 -90 0
70 92 -99 0
76 83 90 0
-42 58 -75 0
-35 -56 -90 0
28 54 100 0
-5 17 20 0
-37 60 75 0
1 18 -29 0
47 67 -92 0
-15 32 78 0
-59 91 99 0
-7 40 83 0
-44 51 -65 0
-60 67 99 0
5 6 -34 0
57 63 -71 0
-19 -20 94 0
-14 -63 84 0
-22 65 -97 0
-30 -78 -85 0
26 -34 47 0
17 -89 97 0
-28 54 74 0
29 52 54 0
30 -50 60 0
-14 23 93 0
35 69 -94 0
46 75 79 0
18 -28 78 0
-51 54 -61 0
47 48 87 0
6 -16 -72 0
38 55 -67 0
11 30 -57 0
-2 -8 92 0
2 26 -93 0
-65 -70 95 0
8 18 -31 0
-49 -64 98 0
-11 -15 27 0
-46 -68 -89 0
18 25 -28 0
-44 67 77 0
-54 -62 81 0
7 -72 -84 0
-16 -59 73 0
-2 -78 100 0
2 -17 73 0
-14 56 -92 0
41 47 -79 0
57 -59 -77 0
-52 -70 78 0
37 41 83 0
27 65 85 0
-11 -21 -57 0
-61 64 -74 0
-4 -18 -74 0
38 -56 95 0
1 -77 89 0
10 -18 51 0
25 -44 72 0
-58 84 98 0
56 -59 -96 0
23 -35 -87 0
73 -77 88 0
18 -35 -40 0
-36 -63 86 0
9 50 -98 0
-10 35 94 0
-13 24 -25 0
23 42 -92 0
44 52 -65 0
1 -36 70 0
58 65 -100 0
-31 39 53 0
-43 -55 98 0
-23 -62 -76 0
75 -86 93 0
49 80 93 0
-30 34 -83 0
2 5 -55 0
21 55 81 0
-3 -17 98 0
