c F1 random 3-CNF cnfgen RandomKCNF(3,225,959,seed=19) m/n=4.26
p cnf 225 959
12 174 -201 0
75 -89 136 0
-67 84 -106 0
6 80 146 0
-30 117 139 0
-5 -26 -107 0
77 -147 169 0
140 148 -199 0
-35 36 -50 0
2 -117 -123 0
95 110 139 0
-7 -24 120 0
-168 174 -181 0
-73 104 -116 0
78 79 113 0
-80 176 -193 0
-18 120 130 0
71 112 167 0
-44 74 111 0
121 -159 225 0
-3 99 -225 0
-54 65 68 0
72 168 199 0
76 -120 -135 0
-144 -184 -186 0
16 123 212 0
30 -118 -219 0
-98 -176 -179 0
-48 114 -221 0
-11 106 -159 0
-94 112 -118 0
23 -68 71 0
43 44 121 0
12 -112 151 0
139 -140 188 0
38 -64 75 0
-19 -116 178 0
91 190 -202 0
36 -89 -118 0
-16 150 218 0
17 -127 -158 0
90 -116 126 0
-58 148 170 0
103 107 202 0
-48 118 -184 0
103 113 194 0
-22 216 -217 0
-42 -134 -190 0
6 109 206 0
-5 -110 -207 0
47 -64 80 0
13 -19 32 0
-10 -24 -210 0
72 87 96 0
12 -47 -93 0
-65 91 184 0
-9 -44 -153 0
-5 54 138 0
125 185 202 0
43 99 163 0
-27 -43 65 0
-19 -138 153 0
39 82 134 0
-68 -177 -217 0
48 -177 179 0
-146 -159 -221 0
-116 -200 209 0
-34 124 217 0
101 180 194 0
-21 191 -217 0
95 -102 162 0
38 -141 220 0
86 -113 125 0
-73 -204 -213 0
-75 -99 158 0
59 -142 204 0
4 49 -197 0
-20 -90 -135 0
-104 -105 137 0
-18 -150 195 0
-39 -51 -74 0
-47 -87 127 0
71 -109 119 0
9 83 -128 0
-35 -141 -159 0
81 173 -211 0
8 -170 209 0
-72 81 -195 0
33 82 111 0
-9 -114 -189 0
-77 -150 182 0
-19 94 -142 0
-74 77 -204 0
-59 -88 118 0
-62 133 -217 0
18 -116 -220 0
153 192 -221 0
-111 -190 201 0
29 88 -194 0
40 -135 -198 0
77 87 -195 0
121 127 167 0
-106 161 218 0
21 -132 -142 0
-152 183 -205 0
50 -62 -171 0
-46 -160 204 0
115 -120 121 0
7 126 -165 0
-2 -92 93 0
-124 -153 216 0
32 -77 -201 0
-135 -144 -214 0
36 -81 145 0
94 124 215 0
-22 -101 203 0
23 -48 92 0
-103 125 -152 0
24 -56 -87 0
-27 -28 96 0
23 -65 192 0
-30 -142 144 0
-2 124 141 0
29 -73 -154 0
-177 205 212 0
49 189 212 0
-73 -79 -202 0
54 -69 -91 0
111 183 213 0
106 -156 -161 0
30 -94 -158 0
-37 149 187 0
-39 -84 129 0
33 -34 -195 0
-86 -122 -212 0
60 -132 172 0
58 -86 -166 0
-95 101 150 0
76 -166 -221 0
44 87 210 0
-64 112 -138 0
-9 -11 -145 0
56 73 -128 0
1 -117 178 0
-75 -149 170 0
-100 107 -215 0
-139 215 219 0
-16 -22 -51 0
48 -161 163 0
45 -70 106 0
17 -64 -187 0
-56 160 -173 0
46 -114 -131 0
-54 -138 206 0
48 167 -199 0
3 -70 -115 0
-23 -38 -171 0
126 -134 205 0
-57 130 208 0
46 -47 180 0
-38 70 -92 0
46 -113 117 0
22 112 218 0
-136 175 197 0
-23 -46 -125 0
-11 34 66 0
-106 -111 192 0
4 -73 123 0
-78 -91 113 0
44 118 161 0
-55 65 136 0
-116 -219 -222 0
18 -69 214 0
-19 -116 -219 0
187 -191 201 0
117 149 197 0
65 -184 224 0
-60 -164 -216 0
78 111 -147 0
-97 -140 158 0
-88 -145 -212 0
36 -118 223 0
107 159 -208 0
3 -96 131 0
-5 -70 -88 0
-36 -77 -216 0
-63 -171 178 0
-31 -122 179 0
5 -94 -132 0
-1 -14 -74 0
-34 42 -196 0
81 156 201 0
-2 124 128 0
87 -172 181 0
99 -148 170 0
52 -141 -182 0
48 181 186 0
-28 68 102 0
105 -136 -162 0
71 117 182 0
67 80 -138 0
82 196 200 0
-99 -197 -209 0
-101 197 -223 0
-96 -140 171 0
31 111 170 0
36 -95 -165 0
27 -184 -193 0
42 -107 186 0
-71 -92 -180 0
13 -108 213 0
-73 132 -176 0
117 -161 -194 0
-66 -188 -209 0
16 46 165 0
-35 149 -192 0
31 56 -124 0
70 152 -186 0
29 -32 -112 0
-64 -81 -221 0
68 -107 -146 0
-18 168 -177 0
-30 191 -193 0
111 127 -167 0
148 -192 205 0
-119 130 167 0
-25 59 -145 0
-206 220 225 0
-8 -78 204 0
-58 -62 -131 0
33 109 -168 0
115 185 221 0
-29 185 217 0
-4 -21 112 0
151 -162 201 0
135 -152 216 0
12 72 -80 0
-116 184 199 0
-74 -127 -188 0
64 110 210 0
-1 -33 -146 0
66 -95 195 0
79 110 156 0
-15 -39 200 0
31 -76 146 0
75 148 -174 0
9 -68 200 0
-72 95 149 0
111 121 187 0
-47 -71 -223 0
33 -83 -207 0
-7 85 -212 0
-58 115 -194 0
42 138 -198 0
43 -94 -170 0
-54 -108 -183 0
-122 -131 -181 0
-14 -105 -181 0
-1 63 -207 0
9 142 215 0
-56 -66 93 0
-72 -98 -180 0
-96 98 193 0
104 135 198 0
-23 50 145 0
-162 -164 199 0
-14 27 -115 0
-8 111 -191 0
-85 117 219 0
110 118 205 0
-75 189 -219 0
-40 -111 -128 0
-17 50 60 0
23 -33 127 0
40 -44 -78 0
-29 140 -208 0
-62 175 196 0
79 -103 224 0
-41 55 -175 0
12 66 -119 0
-35 102 122 0
-129 -149 182 0
4 90 221 0
32 122 -139 0
47 117 142 0
7 19 27 0
-34 -148 225 0
-36 -68 194 0
9 58 142 0
33 -55 177 0
93 -99 -148 0
-41 127 214 0
-43 -143 -222 0
158 192 210 0
-103 160 186 0
-67 105 119 0
119 157 208 0
28 51 -169 0
-8 -26 70 0
-21 -77 211 0
-24 -27 -144 0
18 182 -220 0
22 64 -191 0
-26 86 -153 0
-34 42 203 0
-83 171 182 0
-53 -73 -158 0
-19 -123 -181 0
79 147 160 0
-149 152 -168 0
4 -19 -174 0
38 -87 -129 0
58 131 -210 0
36 -45 -155 0
-53 -119 -222 0
39 111 137 0
48 -101 205 0
95 -169 183 0
37 -66 205 0
-108 -112 -221 0
-64 156 207 0
-128 142 -224 0
67 -155 165 0
29 -159 -215 0
-43 94 -161 0
14 64 -215 0
166 169 212 0
-39 194 -216 0
-62 -85 -220 0
-41 -129 193 0
-52 80 225 0
-49 76 214 0
24 -54 132 0
40 -48 172 0
32 -124 165 0
33 66 139 0
59 78 -215 0
-65 -67 116 0
48 95 216 0
92 110 -131 0
93 -186 -192 0
-140 -205 -210 0
-37 107 159 0
-34 88 138 0
-41 -87 -215 0
83 -90 -220 0
-153 -156 -196 0
-16 178 -207 0
68 125 143 0
-22 -46 -109 0
46 53 -119 0
-31 -142 161 0
-72 -96 210 0
52 -151 -213 0
36 44 217 0
-81 83 115 0
81 -98 -221 0
-24 -53 157 0
-30 -159 196 0
25 47 -71 0
-46 179 -186 0
52 -112 219 0
-132 -151 -189 0
73 78 102 0
72 127 128 0
-123 -166 -185 0
68 -154 180 0
-124 143 181 0
56 127 -204 0
1 -17 -43 0
94 -175 221 0
40 107 117 0
45 62 -158 0
-22 -64 130 0
123 152 -215 0
-43 -70 -99 0
5 -20 -180 0
94 -113 -165 0
-29 -45 65 0
123 -126 -170 0
52 58 -166 0
-4 40 -93 0
1 92 191 0
-13 -83 143 0
41 -82 155 0
-88 -161 175 0
-93 -135 144 0
29 79 151 0
-52 77 170 0
52 104 180 0
-28 -110 -133 0
-49 -137 172 0
12 138 -225 0
-14 -46 -192 0
-81 146 -147 0
3 129 -217 0
96 162 195 0
12 60 215 0
-72 -150 190 0
-135 179 -182 0
23 94 -120 0
78 -88 -202 0
26 -48 62 0
-53 -87 -223 0
-43 -48 -210 0
-183 -217 224 0
59 -89 -204 0
44 -81 -177 0
56 70 162 0
41 -148 -170 0
-87 -209 213 0
62 72 -93 0
158 195 -204 0
21 -61 148 0
-83 -169 177 0
-17 -96 -99 0
35 -119 192 0
42 43 145 0
21 -27 127 0
134 153 -184 0
-102 -103 -205 0
27 -29 -186 0
30 109 138 0
-7 44 -109 0
13 -54 127 0
36 -76 -214 0
-23 86 -190 0
-25 30 220 0
-107 190 202 0
7 41 168 0
-43 -111 137 0
-43 68 198 0
3 -123 -213 0
31 -181 -223 0
-13 -100 181 0
-22 71 177 0
68 69 -84 0
-93 -174 -219 0
-61 174 -218 0
11 -67 198 0
3 9 147 0
-17 -50 157 0
-10 -27 90 0
-27 64 -68 0
43 -94 194 0
9 24 -150 0
-48 82 150 0
83 -113 130 0
71 86 212 0
16 117 -118 0
148 -181 -184 0
-44 124 -159 0
-91 -105 -181 0
-29 148 -197 0
21 92 -197 0
3 117 124 0
6 99 107 0
31 145 150 0
-45 82 -117 0
8 -51 -181 0
-88 -104 218 0
-54 74 169 0
-5 -104 198 0
-156 -182 196 0
-38 -64 -174 0
-90 -214 -223 0
140 -196 212 0
106 115 222 0
35 141 170 0
41 132 -167 0
17 -43 -142 0
-28 70 -155 0
66 -199 -215 0
-38 -87 -142 0
-138 180 -199 0
-26 -119 -161 0
-165 -180 195 0
89 211 -214 0
-157 176 -208 0
10 -90 128 0
14 -27 45 0
-42 75 179 0
-13 54 118 0
113 207 218 0
126 -146 181 0
121 124 -169 0
16 -31 122 0
-54 -191 -224 0
122 149 184 0
42 67 153 0
-71 -143 -194 0
-82 120 173 0
-111 -169 -214 0
91 -141 -144 0
115 -122 -168 0
29 -60 -157 0
92 94 105 0
-91 -190 195 0
-42 124 -160 0
-79 -96 -179 0
49 -104 -199 0
14 158 197 0
4 7 85 0
12 20 -52 0
-7 31 -192 0
14 -118 -205 0
57 95 -162 0
-52 96 125 0
-76 107 164 0
150 -154 -212 0
-66 -148 -172 0
-14 -39 -124 0
43 156 -160 0
-101 -116 169 0
-68 140 -175 0
16 81 -115 0
134 -170 197 0
-26 77 -191 0
-39 -112 -163 0
51 -97 188 0
5 61 -163 0
13 67 90 0
78 104 -183 0
-63 -91 -164 0
-36 83 -167 0
-120 -137 208 0
-123 151 -157 0
6 12 -180 0
87 151 179 0
37 54 196 0
38 153 210 0
-144 160 -171 0
72 98 130 0
65 77 113 0
-37 49 126 0
-107 164 -207 0
75 84 -130 0
18 59 160 0
-67 205 214 0
75 -162 -184 0
30 43 -92 0
-34 74 112 0
94 100 -205 0
90 133 -168 0
43 -138 -146 0
-102 187 -193 0
28 147 179 0
-13 76 221 0
45 99 -224 0
-69 -115 190 0
28 37 200 0
-184 -188 -201 0
-36 77 -157 0
79 137 215 0
-27 -90 198 0
-32 46 -103 0
-95 -165 205 0
-98 171 200 0
-111 125 185 0
-74 182 -208 0
29 43 -215 0
-134 -145 195 0
69 -148 201 0
-22 -31 90 0
-60 122 192 0
102 169 -175 0
-35 146 170 0
31 114 169 0
8 -22 -88 0
59 -90 -175 0
6 -28 196 0
-19 161 204 0
23 -120 210 0
-7 16 86 0
38 141 -223 0
95 205 213 0
-97 -113 183 0
11 -71 177 0
-164 200 202 0
50 -88 125 0
94 -167 -210 0
-61 -62 214 0
34 52 81 0
-110 -188 204 0
-5 126 -178 0
31 71 76 0
-105 -214 218 0
95 -156 157 0
67 85 -194 0
-88 155 -171 0
99 -103 -199 0
52 -87 204 0
12 64 106 0
5 11 -174 0
-60 90 -191 0
-29 187 217 0
12 30 -209 0
27 67 -143 0
8 -84 -125 0
-3 -37 75 0
84 -119 179 0
-167 168 202 0
60 -141 -199 0
-67 -98 176 0
-4 72 140 0
22 -78 135 0
-44 -136 206 0
102 164 -198 0
40 83 -191 0
-44 90 112 0
81 -100 109 0
-17 -98 -117 0
-70 -132 -139 0
-28 115 -210 0
-9 203 -209 0
10 104 150 0
78 132 -205 0
-31 73 217 0
187 -191 -223 0
-44 121 128 0
8 -150 -208 0
44 -148 -207 0
60 88 122 0
-54 218 221 0
74 -141 219 0
89 -151 176 0
-20 96 144 0
85 -101 178 0
33 102 -164 0
-93 -167 -187 0
-56 -88 -138 0
-82 -102 134 0
17 -119 185 0
50 97 -172 0
-134 189 213 0
178 197 213 0
5 152 195 0
-163 -176 -210 0
45 -81 121 0
18 -88 -143 0
-49 52 63 0
-22 68 80 0
3 -53 126 0
-129 177 221 0
-68 -116 173 0
20 -112 -125 0
16 -54 -165 0
52 -128 143 0
84 -112 194 0
52 104 186 0
-59 128 -131 0
-73 -100 141 0
1 -44 223 0
-13 221 -222 0
85 -121 -222 0
2 82 221 0
-45 57 63 0
1 160 193 0
-49 94 214 0
18 -67 183 0
-31 -183 -204 0
-64 -82 208 0
-43 -52 -141 0
-19 89 -172 0
29 -95 -144 0
-76 144 188 0
-36 -91 149 0
-72 -143 179 0
-109 -125 130 0
102 136 223 0
-64 -84 -110 0
-47 90 206 0
17 -149 200 0
-6 7 177 0
193 -203 -218 0
34 125 140 0
100 106 -181 0
4 57 216 0
41 46 -100 0
42 207 -217 0
-59 93 -116 0
-127 164 -225 0
199 -206 213 0
-98 -155 -198 0
-18 -64 -180 0
-12 108 -203 0
83 170 222 0
76 107 188 0
127 -144 -167 0
176 -206 217 0
80 119 162 0
76 -116 146 0
46 93 158 0
-160 161 187 0
-17 46 -69 0
-35 78 133 0
-139 -196 -217 0
4 -93 179 0
54 177 -203 0
-58 100 183 0
116 153 154 0
-10 24 -82 0
77 137 -214 0
90 94 168 0
-132 195 -215 0
-180 182 219 0
-26 -123 173 0
-4 207 -217 0
62 -187 203 0
-29 83 184 0
-78 89 156 0
-16 32 -55 0
45 -111 -116 0
8 9 129 0
-2 44 149 0
17 -197 -218 0
97 -203 225 0
5 -189 197 0
-43 -99 -124 0
19 24 -27 0
22 -87 -101 0
60 118 -179 0
108 -146 -184 0
-44 222 -225 0
22 -76 96 0
-115 143 -222 0
88 147 -221 0
-98 192 -207 0
40 139 -171 0
111 -149 177 0
69 136 -160 0
33 79 123 0
115 -121 142 0
138 158 -187 0
-10 -152 -212 0
-76 -173 -177 0
24 -100 -135 0
-1 14 -78 0
34 162 210 0
13 30 -130 0
42 105 -215 0
71 -105 186 0
-10 -128 -192 0
-25 -44 72 0
-23 -62 178 0
140 161 217 0
77 -160 189 0
19 -91 191 0
-33 106 -203 0
40 71 -163 0
12 21 211 0
-71 -171 -223 0
-89 -132 -134 0
-98 178 181 0
-100 -150 -214 0
56 175 181 0
-50 57 140 0
13 -65 -97 0
-72 -147 205 0
-74 107 -127 0
34 -132 211 0
99 143 154 0
130 156 224 0
24 -57 -100 0
-15 -73 -211 0
68 126 -213 0
-102 212 215 0
92 112 -142 0
44 95 -172 0
-33 -139 -150 0
32 -137 -218 0
34 67 218 0
-26 -147 -149 0
-101 -111 128 0
-30 37 191 0
-49 60 -82 0
7 -60 -81 0
162 178 217 0
-87 -92 -111 0
42 74 -220 0
-15 104 125 0
58 -127 -163 0
116 154 -210 0
100 113 193 0
38 114 -205 0
-2 -25 -28 0
76 138 196 0
-90 103 -166 0
19 54 -102 0
28 -110 -158 0
-35 -162 -185 0
-28 49 162 0
-14 40 -162 0
-5 -87 136 0
-63 -162 -182 0
-18 -79 -211 0
12 -78 138 0
7 -150 175 0
30 -34 66 0
131 -152 -210 0
23 -87 -171 0
-141 -164 195 0
-49 115 162 0
-125 -194 -224 0
-28 127 223 0
45 -46 76 0
-19 84 -162 0
150 -167 -191 0
-44 -117 181 0
-116 -128 169 0
-124 -219 222 0
-3 -69 174 0
23 153 170 0
-48 -93 -95 0
-71 -122 -219 0
87 100 -175 0
-64 70 117 0
-102 -139 -170 0
4 -140 224 0
14 -64 204 0
65 105 136 0
12 152 -186 0
44 -96 192 0
93 -111 -205 0
63 -147 168 0
48 -150 199 0
14 -132 -162 0
18 -101 -152 0
-66 90 212 0
15 88 -205 0
4 -100 121 0
122 157 163 0
-39 -83 165 0
31 -54 207 0
-74 89 141 0
-169 -172 204 0
21 -47 186 0
15 -41 203 0
22 72 -191 0
151 -173 -212 0
-205 207 213 0
-43 -151 224 0
-38 -149 169 0
-61 71 -192 0
-54 126 -150 0
-158 184 197 0
47 146 188 0
-31 -73 -215 0
105 -161 199 0
-127 133 -190 0
58 122 160 0
141 -154 163 0
30 -64 -126 0
-140 190 -209 0
-32 -100 208 0
17 -18 105 0
38 63 -168 0
-25 72 106 0
35 -52 139 0
66 -153 -193 0
25 -63 -169 0
3 7 22 0
21 -126 218 0
79 193 -220 0
-10 -13 218 0
77 -96 219 0
35 110 141 0
1 -38 -51 0
-93 -124 203 0
-44 -156 166 0
-85 133 202 0
34 196 225 0
-141 174 181 0
82 105 -163 0
-29 -57 -186 0
-37 92 121 0
-112 -185 -203 0
102 -155 -162 0
13 83 183 0
31 182 -189 0
63 76 -94 0
-31 61 204 0
-63 -78 -175 0
137 -164 220 0
-25 -90 172 0
-19 159 -168 0
1 12 -188 0
74 -82 213 0
105 -150 -181 0
68 -155 189 0
-80 159 -197 0
-60 84 -132 0
4 -172 -192 0
-82 122 149 0
23 54 -57 0
-20 -53 89 0
19 -148 215 0
-3 187 198 0
-54 -65 -163 0
90 210 216 0
-42 -208 -210 0
124 -145 -180 0
65 164 -189 0
84 90 220 0
-108 -126 128 0
-104 146 -179 0
-101 -111 -193 0
-121 -137 -150 0
116 -181 208 0
-111 -117 133 0
-1 190 196 0
73 -100 -191 0
-42 -65 -84 0
59 79 -120 0
103 166 223 0
39 -57 -214 0
-105 114 -222 0
-108 -192 -224 0
98 114 -189 0
89 -214 225 0
-83 133 169 0
41 -49 -211 0
94 158 200 0
52 -84 -169 0
-76 -113 -115 0
29 -124 -148 0
11 -136 163 0
99 124 193 0
5 -55 -122 0
16 -81 123 0
5 -21 167 0
47 -173 198 0
92 204 -205 0
-62 -121 192 0
91 -184 222 0
-35 -171 -218 0
204 -210 -216 0
-86 -97 207 0
-13 52 146 0
6 13 142 0
-17 -42 -70 0
164 174 -198 0
-104 134 -162 0
88 -92 154 0
72 161 -163 0
-59 -175 209 0
-55 -98 -183 0
-113 -156 193 0
15 115 -144 0
-145 -163 -218 0
-123 165 -175 0
-35 -57 -72 0
48 94 -112 0
-124 -205 211 0
-88 122 -129 0
44 70 -164 0
18 -69 -170 0
-22 33 -74 0
9 47 126 0
