c F1 random 3-CNF cnfgen RandomKCNF(3,200,852,seed=12) m/n=4.26
p cnf 200 852
-69 122 -169 0
-3 -96 124 0
1 -143 -170 0
42 54 87 0
-87 132 176 0
16 131 -170 0
-29 114 -170 0
42 143 160 0
-103 -108 -156 0
8 139 -165 0
-92 -93 177 0
-61 -65 86 0
8 98 111 0
-12 110 173 0
57 141 -193 0
-10 -71 111 0
95 -118 -132 0
-117 122 179 0
94 119 141 0
-2 69 156 0
3 11 -129 0
40 -129 -140 0
-31 -59 -164 0
68 -114 -176 0
-12 -72 158 0
-73 134 188 0
-7 -34 178 0
-52 62 -112 0
-11 107 -195 0
-51 -143 -149 0
5 42 145 0
19 -107 137 0
-49 -91 -182 0
32 -157 160 0
-19 92 -105 0
-24 -37 176 0
-169 -174 195 0
-8 -54 125 0
-15 -153 171 0
25 -58 -84 0
-52 -72 177 0
-38 129 -133 0
100 -129 -156 0
-13 -59 -198 0
-14 -28 170 0
-83 -128 199 0
35 -58 -123 0
-12 -94 -110 0
83 100 -156 0
-9 -165 -169 0
-68 -159 -169 0
99 103 127 0
29 -66 -69 0
36 80 -198 0
4 11 44 0
49 -76 184 0
-27 94 -156 0
2 -26 -136 0
-76 -120 -163 0
-8 133 184 0
94 -126 -194 0
96 156 -193 0
-16 28 60 0
3 8 64 0
122 -151 -162 0
-109 140 -167 0
-23 156 -168 0
-32 37 -77 0
4 -51 -59 0
-88 -104 -188 0
88 -125 196 0
-60 88 -99 0
-65 -72 191 0
-31 151 -189 0
-40 -141 -153 0
-80 -91 96 0
45 -103 -160 0
-37 -90 -158 0
102 -165 169 0
-26 135 -172 0
24 -80 173 0
18 73 177 0
32 71 -164 0
80 -118 -191 0
-100 -113 120 0
-62 -135 -152 0
35 79 -103 0
-75 100 -173 0
-46 -81 -148 0
-13 14 -37 0
41 -54 -63 0
24 79 154 0
-66 98 136 0
54 142 -196 0
-9 137 -140 0
48 -134 -159 0
-6 -99 127 0
-20 -134 140 0
96 107 -130 0
-19 -136 174 0
-72 77 105 0
-74 -94 167 0
11 32 168 0
35 39 -155 0
5 -58 -104 0
-117 146 -180 0
-3 -74 193 0
-6 -44 -160 0
-25 -126 -157 0
-11 84 -145 0
81 144 -160 0
62 140 170 0
-17 -45 -157 0
12 -112 -200 0
-14 -87 162 0
18 -57 -159 0
-42 -52 -132 0
35 -49 -174 0
-30 40 52 0
-19 -66 -160 0
-24 112 133 0
46 147 167 0
84 161 186 0
121 125 187 0
118 156 -178 0
38 -71 -133 0
-21 42 -101 0
11 116 -154 0
47 143 197 0
32 -137 -188 0
-23 54 143 0
-18 42 -76 0
3 28 -39 0
-68 -95 195 0
-44 150 -169 0
-72 96 105 0
-59 -71 -84 0
2 88 -123 0
-2 -41 -59 0
-168 179 196 0
41 -115 -156 0
77 142 187 0
-51 -81 127 0
17 35 -106 0
-2 -82 -98 0
-20 80 87 0
-61 87 109 0
35 53 -107 0
14 28 -176 0
23 95 -138 0
24 -31 -160 0
36 -48 -161 0
26 -48 -110 0
16 -30 194 0
14 -132 188 0
-43 -80 140 0
-11 32 85 0
-109 -121 -165 0
-63 -110 149 0
51 -151 -161 0
-44 -60 185 0
38 47 -54 0
110 -144 -166 0
-42 -46 -175 0
45 113 175 0
-64 -66 -156 0
-87 117 161 0
32 164 170 0
51 137 196 0
99 -111 -113 0
12 46 -90 0
-27 -69 172 0
-54 101 176 0
-41 -54 186 0
41 161 196 0
-38 -147 -199 0
-32 -99 130 0
-38 -57 -174 0
-31 85 174 0
-62 129 177 0
-8 -10 104 0
-3 -12 39 0
26 89 -177 0
-152 158 160 0
96 126 -145 0
-81 93 -197 0
-174 182 196 0
-35 -76 121 0
17 178 193 0
-37 191 -197 0
29 -149 -178 0
124 142 -174 0
-52 107 184 0
139 -154 -189 0
-66 75 -118 0
38 51 -135 0
3 -148 -193 0
45 -96 122 0
-110 -130 -185 0
-84 -95 -148 0
-157 168 -192 0
-45 -148 166 0
89 -132 -137 0
-37 42 -173 0
-36 -57 78 0
-23 -58 -143 0
-27 -55 -190 0
91 114 -157 0
-22 41 -144 0
9 -123 -139 0
-109 147 164 0
-59 -143 -187 0
68 -147 -187 0
9 88 161 0
23 43 67 0
-59 124 -158 0
2 93 -109 0
81 131 -178 0
-107 -167 200 0
-112 -118 154 0
-8 -113 -135 0
-34 94 175 0
56 -95 -144 0
-28 58 156 0
13 84 -198 0
-6 -20 -98 0
-25 -57 131 0
-109 129 -159 0
14 -100 -128 0
-3 29 -159 0
67 -80 190 0
-88 -144 181 0
-71 103 -166 0
-21 135 143 0
2 88 -120 0
-1 142 -196 0
17 -147 193 0
-88 -116 122 0
7 112 146 0
19 93 -98 0
113 117 -162 0
-67 94 117 0
25 -75 -184 0
38 -155 176 0
63 -93 145 0
10 -30 -172 0
-65 -83 145 0
61 68 133 0
-48 -136 -140 0
2 100 -109 0
-52 -94 115 0
-36 123 147 0
80 82 179 0
-76 140 -182 0
27 132 -176 0
-76 90 183 0
42 79 -112 0
47 -131 -190 0
34 101 -123 0
8 -36 141 0
-77 103 -199 0
-20 78 131 0
-26 41 -77 0
-37 80 -100 0
-47 72 132 0
26 85 -171 0
35 -39 -93 0
32 -154 188 0
14 31 -138 0
13 -33 176 0
-48 117 139 0
-37 90 176 0
18 -137 -166 0
42 66 105 0
59 -114 194 0
90 160 -163 0
-129 186 -193 0
-24 -34 -67 0
30 -43 -79 0
39 -113 192 0
-18 -42 -135 0
9 46 156 0
-67 -104 -162 0
13 143 157 0
-79 140 167 0
34 -143 -196 0
-66 -85 -145 0
-30 -55 -74 0
-61 -151 162 0
14 46 101 0
19 134 149 0
-18 91 106 0
74 80 -175 0
27 -78 159 0
-9 -44 -184 0
-54 -104 146 0
37 77 94 0
11 -19 -85 0
-47 64 -126 0
66 -77 -171 0
-65 -112 185 0
135 -170 -181 0
-49 -188 196 0
-13 -65 -148 0
66 -135 142 0
-98 -131 166 0
-62 139 181 0
21 127 172 0
-68 79 136 0
54 -62 154 0
-83 -88 -130 0
39 86 -163 0
-17 -18 -179 0
43 -57 172 0
-51 -64 -91 0
187 189 -190 0
-39 49 58 0
96 144 169 0
-66 126 177 0
-31 50 93 0
50 53 70 0
94 95 -187 0
-114 -141 -167 0
141 153 -162 0
-42 -106 183 0
-111 -144 -149 0
9 -73 151 0
27 137 155 0
25 -37 -165 0
25 -195 -199 0
-15 24 -30 0
104 156 163 0
40 -55 -111 0
-37 42 152 0
-1 6 56 0
51 -79 -102 0
-46 98 124 0
26 -32 162 0
65 79 -110 0
11 -68 129 0
-47 -103 -129 0
24 -85 -192 0
-6 83 -176 0
64 113 188 0
-53 -73 180 0
79 97 -184 0
19 -25 -107 0
-74 -122 124 0
59 -182 -188 0
-7 -154 174 0
55 160 200 0
155 -158 -186 0
-2 -38 59 0
100 120 -162 0
-10 27 -60 0
-4 -118 -171 0
91 112 149 0
-10 34 -170 0
28 57 -147 0
66 -122 170 0
30 169 -170 0
-65 -135 -140 0
-59 -89 186 0
-35 -72 106 0
12 42 -141 0
22 -51 -177 0
-3 52 76 0
-1 40 79 0
-3 25 155 0
-77 163 178 0
43 50 86 0
52 62 -169 0
-9 -53 94 0
-14 -49 -109 0
-33 -49 -129 0
19 24 52 0
46 69 -155 0
-17 -66 153 0
100 141 -142 0
-19 77 195 0
-17 -138 148 0
-15 30 -106 0
24 -101 -172 0
107 -181 -200 0
-27 97 108 0
-2 -63 67 0
57 -97 100 0
-76 -130 181 0
-75 86 102 0
132 137 168 0
55 92 -185 0
-7 -71 115 0
134 185 -187 0
69 -87 -130 0
135 156 161 0
-19 -24 -101 0
-14 -155 -192 0
46 81 -95 0
80 130 157 0
92 -95 -96 0
-74 -143 -149 0
-29 75 -162 0
41 129 -198 0
-87 122 169 0
-73 149 177 0
85 -155 -179 0
-55 -62 -133 0
153 167 175 0
9 -65 -198 0
22 75 -105 0
7 45 -71 0
53 100 -103 0
-17 -50 -148 0
-88 136 154 0
72 -74 144 0
-3 -158 185 0
-48 96 198 0
-65 -88 168 0
113 -136 155 0
-30 68 115 0
27 133 -200 0
23 35 -116 0
-38 89 -103 0
-28 -143 -146 0
-15 -18 188 0
9 72 177 0
-54 -55 -163 0
-80 154 198 0
51 127 162 0
-29 101 200 0
8 -55 -83 0
31 147 148 0
-55 -62 -193 0
83 106 -118 0
112 155 -177 0
78 129 182 0
9 -58 74 0
-20 -68 87 0
-92 164 190 0
-86 -89 -162 0
85 -103 148 0
-76 154 172 0
-7 83 174 0
73 111 188 0
44 51 115 0
-69 90 -110 0
2 -51 -84 0
-2 83 -177 0
78 157 -162 0
-21 29 -141 0
-39 109 -166 0
178 186 -197 0
-2 42 145 0
13 -82 -113 0
-16 110 -182 0
77 116 136 0
-38 55 -171 0
-20 -41 103 0
-53 -98 -125 0
-56 -165 -192 0
-8 -66 -183 0
52 -127 145 0
-7 15 -134 0
-43 -49 -79 0
-48 -103 -169 0
43 64 137 0
-43 116 141 0
27 28 101 0
-84 127 162 0
125 -176 -193 0
-14 -75 -161 0
14 -19 -93 0
-29 -125 139 0
23 167 169 0
-45 -183 -198 0
46 111 117 0
-64 120 186 0
90 -167 -175 0
-132 -180 -186 0
-173 -181 198 0
-17 56 133 0
83 -171 196 0
-7 -86 97 0
27 175 -189 0
-45 61 117 0
-37 -149 -150 0
66 167 -191 0
6 -176 -192 0
-28 -122 -134 0
-54 -71 196 0
81 -106 165 0
-75 -99 -177 0
2 25 -133 0
-188 -196 200 0
52 158 195 0
-47 -97 -124 0
-22 31 -125 0
85 -123 -144 0
4 87 147 0
-35 -117 -158 0
-123 -178 -194 0
60 -92 125 0
-100 -172 -197 0
71 -84 -93 0
-29 82 -108 0
-18 87 91 0
94 -153 164 0
-26 40 -106 0
62 166 -199 0
25 -43 -174 0
-4 -44 -88 0
-3 -178 -194 0
-3 -6 52 0
-9 93 -101 0
3 180 -190 0
11 -82 -116 0
73 146 -188 0
133 -160 196 0
-49 -69 177 0
13 21 176 0
-4 90 -136 0
26 80 167 0
27 -80 -169 0
-8 45 192 0
-159 171 172 0
-53 -116 -144 0
15 -161 199 0
12 138 -197 0
-99 -101 104 0
63 134 145 0
21 62 -186 0
-96 -181 197 0
4 41 -185 0
31 65 -159 0
-75 -78 140 0
79 -137 -160 0
55 -96 -149 0
-3 7 200 0
26 138 175 0
-75 77 -157 0
3 22 -28 0
22 -49 -78 0
-44 -97 -98 0
16 -149 197 0
-85 -112 -129 0
-1 68 87 0
88 -144 162 0
-52 -67 156 0
75 -79 -130 0
101 117 -126 0
59 107 150 0
-68 136 163 0
-51 107 -128 0
-98 120 -181 0
-1 8 139 0
38 45 -113 0
-70 125 162 0
-39 -53 132 0
8 58 -112 0
-34 -172 178 0
1 173 191 0
-31 -46 -85 0
46 105 -129 0
7 -195 -197 0
-48 173 -181 0
-15 -69 150 0
-68 -79 -181 0
32 -39 -70 0
15 -44 -173 0
-28 52 56 0
-13 43 51 0
73 128 -172 0
-67 -188 191 0
-36 -97 -111 0
95 -135 144 0
-22 31 64 0
-44 -56 147 0
-46 -131 147 0
90 138 -169 0
-28 -73 187 0
-4 -109 -120 0
-40 94 140 0
48 70 -89 0
29 72 84 0
-5 -52 149 0
-48 -115 176 0
47 -58 -64 0
-18 132 162 0
-23 71 113 0
-44 -48 -50 0
-48 86 -136 0
-8 173 186 0
-7 23 -93 0
47 -165 185 0
-101 119 -181 0
68 108 148 0
63 -80 -172 0
-50 -76 151 0
35 -36 55 0
-95 99 128 0
-34 50 129 0
41 -59 -112 0
86 -158 184 0
48 147 186 0
-68 86 -195 0
-21 71 -134 0
42 77 83 0
93 -168 187 0
-48 121 -126 0
-140 -162 184 0
-4 -76 -156 0
-93 144 183 0
45 -48 -190 0
-5 -8 -83 0
-14 -147 -170 0
69 127 194 0
-17 -50 78 0
-10 -70 -176 0
49 52 122 0
1 47 55 0
29 -57 65 0
75 -96 172 0
98 -102 -124 0
49 -89 145 0
166 -191 194 0
-25 42 -98 0
49 77 147 0
63 130 144 0
54 -179 189 0
76 -109 171 0
64 -145 194 0
-62 -120 190 0
-57 159 194 0
23 -50 76 0
-6 -101 -179 0
56 -102 -184 0
-141 -190 193 0
18 28 60 0
176 180 -189 0
88 107 -134 0
-27 167 177 0
72 108 -135 0
-100 -123 177 0
-108 -166 -184 0
20 -99 137 0
-6 -49 103 0
-66 -181 -183 0
-32 141 -155 0
4 37 -165 0
-66 135 153 0
51 71 179 0
-7 134 182 0
92 96 110 0
-113 135 168 0
53 -177 -200 0
-57 98 128 0
50 -160 187 0
26 132 -183 0
-132 -145 -151 0
-65 129 -191 0
3 -104 -191 0
-1 47 -102 0
-7 15 91 0
-135 -162 178 0
-20 -134 -152 0
16 -107 -131 0
-41 -52 -100 0
-9 -25 153 0
-27 81 -133 0
40 -47 113 0
-127 -153 199 0
-15 -99 -139 0
-100 146 163 0
-1 -76 -192 0
34 57 -125 0
38 121 -140 0
55 -141 200 0
-49 -73 85 0
-77 95 195 0
-49 -152 -154 0
7 -39 -131 0
88 118 -149 0
-71 -167 -172 0
81 90 -164 0
-41 129 -138 0
91 137 -196 0
6 -91 -167 0
-4 -66 181 0
4 77 80 0
-45 79 111 0
126 -155 -163 0
16 -43 -181 0
-47 56 148 0
34 98 169 0
-113 -174 187 0
45 49 143 0
-49 -124 -189 0
10 92 166 0
3 -31 71 0
-102 136 166 0
20 -50 -106 0
60 89 -192 0
24 64 -153 0
-54 -79 -182 0
19 70 108 0
-130 -143 177 0
116 -157 193 0
-57 112 -195 0
18 -39 -98 0
75 -157 169 0
-31 -72 -115 0
13 99 -112 0
-43 48 166 0
41 -169 177 0
-27 76 -102 0
-43 119 198 0
84 -85 140 0
-71 142 200 0
-64 101 -115 0
10 72 -83 0
-37 -86 -196 0
-5 24 -114 0
-72 103 -119 0
-42 123 200 0
8 83 138 0
-80 -90 164 0
-19 63 160 0
34 41 -171 0
67 -80 -92 0
32 64 129 0
-5 -20 -124 0
112 -138 -194 0
16 38 -42 0
133 149 178 0
-22 36 149 0
19 55 169 0
65 -85 -194 0
-7 -23 -71 0
-9 -135 162 0
-67 128 -192 0
-53 86 89 0
-37 129 184 0
128 -132 196 0
-29 -53 -186 0
13 -40 47 0
9 111 -147 0
-64 65 -191 0
-2 97 144 0
-8 -40 51 0
48 -165 -197 0
-54 99 -107 0
69 78 131 0
-108 151 -173 0
56 -87 122 0
-40 -149 -179 0
101 -116 -123 0
18 69 -138 0
159 -168 194 0
25 47 148 0
61 91 104 0
-4 54 -76 0
-52 164 -199 0
-95 107 -158 0
-4 -10 -81 0
30 68 96 0
-134 -161 -165 0
61 91 -124 0
75 -83 99 0
-55 -93 181 0
-39 -124 178 0
-58 68 174 0
-11 -141 -153 0
49 85 -200 0
35 -46 -127 0
61 74 135 0
65 120 192 0
-25 46 111 0
27 -148 -173 0
15 22 -42 0
9 -52 -109 0
78 87 -137 0
-33 -91 113 0
70 -76 -141 0
48 -110 196 0
68 -82 116 0
-84 105 -191 0
100 -149 -154 0
11 27 53 0
-12 -51 127 0
-116 197 -200 0
82 163 -164 0
-6 -57 -136 0
-16 -59 137 0
-21 -23 -77 0
-28 163 -174 0
3 -22 -129 0
92 -155 185 0
27 -78 111 0
-92 101 180 0
-22 51 -121 0
-82 156 173 0
-53 70 173 0
-51 73 -113 0
7 -61 -67 0
-14 87 -105 0
-114 159 188 0
51 -93 195 0
-4 7 -107 0
-58 141 -193 0
79 100 176 0
15 -76 -131 0
32 110 198 0
20 -78 130 0
11 79 -173 0
61 86 -134 0
-6 -37 -85 0
113 134 144 0
-47 93 102 0
38 -64 -91 0
-37 87 -164 0
73 -77 -107 0
3 108 -118 0
2 -133 199 0
34 59 -88 0
-106 -137 154 0
44 -56 -189 0
-84 164 194 0
-109 -127 135 0
168 -170 -175 0
-29 90 -171 0
5 80 181 0
-10 -31 -154 0
-83 -136 175 0
25 38 -65 0
82 191 194 0
-11 79 149 0
-73 -144 -192 0
-30 106 140 0
-17 -68 -161 0
-54 80 -191 0
79 93 141 0
-62 105 119 0
-15 88 169 0
36 72 142 0
-32 -114 189 0
-2 163 185 0
-41 53 75 0
9 -109 -157 0
-13 95 179 0
25 128 -151 0
12 74 -90 0
-47 -48 89 0
