c F1 random 3-CNF cnfgen RandomKCNF(3,50,213,seed=0) m/n=4.26
p cnf 50 213
25 -27 -49 0
-20 26 31 0
9 -19 49 0
7 -20 -47 0
-7 -23 36 0
-29 31 36 0
6 -26 -47 0
16 21 47 0
-10 16 35 0
21 -32 -33 0
-8 36 -46 0
-6 -29 39 0
12 13 -19 0
5 6 31 0
-6 -35 45 0
-14 -38 -44 0
-32 42 -43 0
-8 32 40 0
2 18 -47 0
11 22 28 0
3 15 45 0
13 -39 41 0
3 8 24 0
8 31 46 0
28 -35 40 0
-5 -15 -42 0
-4 12 33 0
-13 -26 -45 0
11 37 45 0
-11 22 -34 0
-1 -12 -43 0
-23 25 42 0
-6 30 -48 0
-9 -16 -49 0
23 -38 -44 0
27 42 48 0
11 22 -45 0
-25 44 -46 0
27 37 -45 0
5 -17 -45 0
36 39 -49 0
20 -21 30 0
6 36 -41 0
21 27 44 0
1 46 49 0
-13 -39 42 0
7 26 -31 0
8 -17 29 0
2 10 18 0
-17 -36 44 0
-39 -45 -48 0
12 -24 -35 0
-1 -9 -10 0
-6 24 46 0
-10 -11 -18 0
9 -19 36 0
4 -12 -20 0
20 22 -27 0
-8 22 -31 0
-3 20 28 0
25 37 41 0
13 -15 48 0
-7 -26 -36 0
38 -44 46 0
15 -17 24 0
5 -8 23 0
-8 26 32 0
10 14 -40 0
24 25 -35 0
-10 -26 -37 0
32 41 43 0
-22 -46 48 0
10 -17 -34 0
5 31 46 0
-3 9 -15 0
-10 -11 -22 0
3 33 -34 0
-14 -19 -49 0
15 38 39 0
-20 -33 37 0
-17 -20 -32 0
4 11 -42 0
4 -22 -47 0
10 32 -39 0
-3 -27 -40 0
4 7 31 0
-9 39 -40 0
-13 25 50 0
-30 40 -45 0
9 19 25 0
24 -26 -29 0
3 -5 -41 0
2 34 43 0
-33 -41 50 0
-10 28 37 0
-5 7 27 0
-28 29 -44 0
17 -21 47 0
8 -23 -45 0
-1 12 15 0
1 14 -43 0
2 24 45 0
-8 -30 31 0
-2 -14 -24 0
-19 36 41 0
-7 35 -38 0
-9 10 15 0
-12 -19 49 0
-2 9 39 0
-9 20 -27 0
20 23 -41 0
24 -34 -41 0
-1 -27 47 0
19 24 31 0
8 -18 -36 0
-12 27 50 0
22 -30 -34 0
6 -31 41 0
-29 40 45 0
-8 20 -50 0
31 -46 49 0
-26 35 49 0
3 -18 -43 0
-34 -38 46 0
-17 23 48 0
-3 -5 17 0
16 34 -49 0
9 19 -34 0
-26 -35 -41 0
24 37 41 0
-8 -25 45 0
-20 -36 -43 0
-14 -31 32 0
-10 20 29 0
-2 23 31 0
-6 44 -48 0
3 -8 -40 0
-10 15 47 0
-28 -30 46 0
-22 27 -42 0
-10 34 46 0
-12 -23 -29 0
15 -25 47 0
-4 38 46 0
-6 12 41 0
15 -20 -40 0
-4 -27 -30 0
17 -31 -46 0
-3 4 -11 0
1 -9 42 0
26 -36 39 0
7 -22 -39 0
-21 30 35 0
6 -13 24 0
-13 -17 -44 0
17 23 -31 0
-1 -5 -36 0
-4 -27 32 0
6 -7 16 0
-5 -29 40 0
12 16 -32 0
21 -23 28 0
-19 -46 -50 0
2 15 18 0
16 -27 47 0
-33 35 48 0
18 -25 42 0
-35 44 46 0
-5 20 -34 0
19 31 41 0
-21 33 36 0
10 12 26 0
32 37 50 0
-15 25 -49 0
-2 -7 -40 0
1 -15 -20 0
21 -35 46 0
26 -39 -46 0
4 -14 25 0
22 -29 -43 0
11 -20 43 0
-10 41 -47 0
2 4 41 0
15 21 -42 0
9 -28 -43 0
10 -20 -23 0
-1 -25 27 0
-8 27 37 0
9 33 -40 0
2 12 16 0
-7 28 39 0
-17 22 48 0
-6 23 -32 0
16 -23 -33 0
18 -26 -32 0
-3 31 -36 0
-8 -26 -47 0
2 -4 -18 0
-14 -44 -49 0
-8 14 -37 0
10 11 22 0
-19 -23 -24 0
26 28 39 0
3 -29 37 0
-31 43 47 0
18 28 36 0
11 -41 -43 0
18 -19 -20 0
-17 -34 35 0
10 28 -46 0
-3 24 30 0
11 -24 -34 0
2 47 -48 0
