c F1 random 3-CNF cnfgen RandomKCNF(3,175,746,seed=8) m/n=4.26
p cnf 175 746
59 95 97 0
22 -36 64 0
-117 -118 125 0
23 104 -125 0
-105 122 -134 0
-17 25 99 0
-23 61 87 0
17 -139 156 0
-38 -117 -149 0
35 -41 -110 0
127 -129 165 0
73 92 -136 0
-4 63 -76 0
-9 -66 -109 0
45 102 169 0
42 52 -77 0
-44 88 146 0
-105 -115 145 0
18 74 151 0
-28 134 -170 0
17 39 155 0
88 -99 -169 0
-1 84 94 0
9 149 -159 0
31 111 114 0
-40 122 128 0
116 -149 166 0
-101 -121 145 0
-13 14 51 0
2 -55 -154 0
24 136 -154 0
99 134 -135 0
-21 -76 157 0
-21 -76 -162 0
-78 -133 161 0
-51 -95 125 0
-75 -102 -157 0
-51 110 -173 0
-18 -42 128 0
-71 -75 -160 0
-63 106 162 0
64 118 -130 0
-28 29 128 0
12 110 146 0
-23 -25 -68 0
-24 33 -145 0
-10 22 36 0
10 -82 -154 0
17 -84 -134 0
41 -66 100 0
26 -57 137 0
28 51 87 0
-44 -144 164 0
29 123 129 0
-56 58 84 0
-16 -35 -113 0
-96 -112 149 0
-69 80 -175 0
-128 130 -163 0
-35 126 -166 0
-9 -96 -101 0
8 37 160 0
-33 115 -149 0
-11 -129 154 0
-27 82 167 0
-94 -123 -148 0
96 161 -172 0
-9 -16 -60 0
-45 122 -144 0
-6 -74 -113 0
-75 104 -128 0
88 113 -168 0
-117 -154 -171 0
53 134 140 0
-23 141 171 0
65 103 163 0
-10 -55 114 0
-2 -5 33 0
-12 55 -85 0
1 61 -175 0
29 108 109 0
-89 169 -171 0
51 -105 170 0
42 81 -125 0
-68 79 -80 0
49 -54 55 0
62 -81 -168 0
-128 -130 141 0
43 121 -158 0
42 143 -157 0
-52 153 -174 0
19 83 -114 0
-6 -81 103 0
-31 -99 174 0
87 125 141 0
-82 -129 156 0
30 -45 -157 0
8 21 141 0
-16 -86 -89 0
-41 126 -155 0
64 -120 -150 0
122 134 172 0
-76 85 -146 0
47 -77 -142 0
-15 -136 174 0
-64 -121 142 0
17 -123 141 0
26 47 102 0
83 125 -146 0
-8 -64 98 0
126 133 -135 0
66 85 95 0
-109 125 146 0
-8 -33 -91 0
109 -134 -172 0
107 163 174 0
-52 61 114 0
-1 86 134 0
-82 -130 144 0
4 57 97 0
17 -41 -165 0
-23 -100 140 0
-99 -114 -128 0
12 60 -80 0
-4 -109 167 0
46 -161 167 0
5 -14 129 0
-64 91 93 0
49 -131 165 0
8 108 161 0
-38 81 105 0
-84 92 -132 0
78 161 -163 0
-5 12 -136 0
54 140 154 0
-34 -133 -155 0
-67 89 -172 0
114 -118 158 0
67 -137 -147 0
30 70 -130 0
103 149 161 0
33 -144 -161 0
-57 144 -162 0
-76 -104 117 0
-83 -100 -136 0
16 155 171 0
82 -100 -107 0
3 -77 -129 0
-67 124 -138 0
59 -147 160 0
42 -49 60 0
-26 -33 145 0
-21 39 -124 0
30 149 167 0
-74 89 90 0
-41 163 165 0
-95 113 120 0
-93 -152 -173 0
-35 -106 141 0
20 -58 85 0
-61 -76 -115 0
1 -16 105 0
50 59 -167 0
35 -153 -158 0
-8 -20 174 0
-21 -90 -142 0
60 119 138 0
59 80 -113 0
68 105 -142 0
-90 -108 -126 0
-19 -101 -131 0
-74 -79 108 0
19 64 68 0
3 -9 -28 0
-23 -53 -76 0
-40 -125 -159 0
-47 75 104 0
5 57 105 0
-26 -46 -158 0
-46 -64 -150 0
8 107 -158 0
-28 35 -91 0
10 -25 71 0
-16 -84 106 0
2 -129 148 0
-34 -116 -170 0
-69 -82 149 0
-42 55 101 0
11 -77 -80 0
-35 -150 160 0
-51 -144 -162 0
11 -72 132 0
21 120 157 0
30 33 -69 0
-40 -89 128 0
-7 -103 112 0
-59 -96 105 0
-11 32 -113 0
33 -56 -86 0
22 -42 -170 0
20 -136 160 0
39 -48 127 0
-33 -91 144 0
18 -87 -141 0
42 -85 -133 0
-58 143 -173 0
30 -39 92 0
11 55 -175 0
-31 45 76 0
34 73 -127 0
-45 -107 -156 0
-106 -160 165 0
-40 -122 -142 0
16 -36 -138 0
-60 103 167 0
36 -38 138 0
18 -95 155 0
13 94 164 0
-132 -156 165 0
-17 44 -97 0
25 -56 103 0
57 -69 174 0
21 -97 -112 0
128 160 -173 0
-2 42 -80 0
-29 -98 123 0
-46 135 -147 0
-39 40 59 0
-7 -127 -144 0
-42 116 -162 0
-94 122 173 0
-67 77 -158 0
25 75 137 0
-80 105 140 0
-48 -157 173 0
26 45 101 0
41 -107 136 0
-8 71 -88 0
-72 -121 143 0
-8 12 -144 0
19 -60 83 0
6 -129 169 0
-33 -55 -62 0
5 -23 119 0
31 -75 -105 0
80 -120 148 0
-28 57 144 0
-50 -66 -167 0
24 29 38 0
-4 -59 152 0
78 -143 -154 0
-85 -107 -137 0
17 29 175 0
8 42 44 0
-39 -51 136 0
93 -132 169 0
111 -140 -143 0
-35 -109 -131 0
16 -76 148 0
-28 64 123 0
23 102 118 0
23 -57 87 0
-37 -53 -80 0
-20 -23 95 0
37 68 102 0
6 -25 147 0
86 155 -164 0
46 66 146 0
-68 -87 -89 0
22 -69 129 0
-11 61 -109 0
-1 -10 18 0
-24 -33 163 0
7 -52 -172 0
22 52 -77 0
-1 -43 -101 0
41 -57 88 0
-116 -138 -148 0
-21 -25 -96 0
-21 -85 -166 0
59 73 125 0
-28 -94 139 0
58 107 -152 0
-139 145 152 0
49 129 -131 0
57 98 -115 0
25 130 148 0
77 95 -164 0
-54 -69 150 0
50 74 130 0
-98 -126 156 0
138 146 148 0
-61 -108 137 0
-31 96 175 0
102 140 156 0
11 -13 -146 0
16 -62 69 0
-75 -81 145 0
-36 47 136 0
-39 -142 170 0
35 -40 -76 0
-7 -37 130 0
-11 -114 -130 0
-71 -117 132 0
-5 41 -154 0
-1 162 -169 0
-32 100 -135 0
-1 28 -137 0
-18 57 -107 0
-105 133 169 0
-25 -46 115 0
-32 -139 149 0
-66 -67 68 0
-2 38 39 0
-6 65 -138 0
48 97 128 0
31 -72 -97 0
72 111 126 0
-42 -98 102 0
-54 -74 81 0
-18 -34 -92 0
-18 117 139 0
-16 141 155 0
-30 -133 -162 0
-49 -125 -167 0
-123 -135 158 0
-69 -156 -169 0
-7 17 -35 0
31 -74 -168 0
-57 105 152 0
-69 -105 121 0
-67 -154 -156 0
48 -126 132 0
24 91 93 0
-9 -43 67 0
71 -73 91 0
39 69 134 0
113 -117 -145 0
19 -126 -164 0
106 117 159 0
23 -93 164 0
-130 -145 154 0
-112 -145 -160 0
84 127 -151 0
-59 78 169 0
51 85 -112 0
-63 95 170 0
62 95 -118 0
-93 -114 -145 0
33 65 98 0
30 125 164 0
-61 -93 99 0
-21 29 -147 0
35 -88 165 0
-43 135 -137 0
-59 78 123 0
-57 -93 142 0
-24 -104 -145 0
-21 -33 172 0
40 66 138 0
70 72 -144 0
-19 -120 -126 0
93 -113 -160 0
30 -85 125 0
5 33 -130 0
-16 36 -78 0
28 111 -129 0
-47 -63 140 0
-29 61 -94 0
19 -140 144 0
44 -70 -116 0
14 43 76 0
-24 94 -167 0
78 -136 -141 0
-30 62 -103 0
-27 52 117 0
37 -77 -161 0
-20 105 133 0
29 -113 164 0
-18 -118 142 0
-102 -126 -140 0
-9 -39 109 0
73 -105 -145 0
11 89 -158 0
-48 96 -101 0
1 -78 -105 0
-2 -36 61 0
84 127 136 0
15 75 89 0
-49 -60 -112 0
-50 102 162 0
-65 -101 141 0
96 152 170 0
73 -79 81 0
-39 60 -89 0
60 78 -79 0
19 62 -123 0
-30 -99 -119 0
-20 -53 145 0
146 -147 154 0
148 162 166 0
36 -76 -152 0
-27 -33 92 0
43 95 97 0
19 75 103 0
120 150 158 0
-4 5 99 0
39 -61 -160 0
-23 67 167 0
-39 -90 -142 0
-46 133 145 0
-35 -53 62 0
21 48 85 0
-90 -118 119 0
112 153 -155 0
-53 70 -87 0
74 -141 167 0
-48 -87 -172 0
-16 89 117 0
-19 22 -90 0
21 51 -170 0
52 -144 167 0
34 -36 -115 0
129 137 -170 0
110 -141 165 0
-40 42 117 0
-41 -46 -117 0
24 -77 124 0
54 136 152 0
47 -84 -117 0
-61 84 -145 0
-5 75 90 0
-44 -51 -103 0
59 142 152 0
-97 -157 -159 0
6 47 -50 0
-33 -95 -99 0
-8 -16 -57 0
-117 -127 -154 0
2 -49 -164 0
87 127 -147 0
28 -47 122 0
65 89 -155 0
-39 -68 -164 0
-29 154 170 0
67 -100 117 0
-98 128 170 0
-12 -105 -175 0
24 85 158 0
-59 -97 173 0
-10 80 -133 0
59 83 -129 0
-6 48 165 0
-8 -52 -149 0
49 73 -165 0
1 -126 -165 0
-11 -24 -71 0
-11 -71 157 0
-28 -43 -57 0
20 73 -169 0
-46 48 -93 0
-30 53 55 0
-39 -50 -118 0
-79 -84 116 0
-15 -46 113 0
47 101 148 0
10 68 154 0
-59 91 -169 0
-14 50 -139 0
-18 -93 -152 0
-14 149 -172 0
57 -63 148 0
34 -88 -122 0
48 -154 175 0
128 137 -142 0
11 -127 -146 0
-7 35 -164 0
-29 120 -169 0
40 -137 -160 0
-9 -58 163 0
42 44 -68 0
-85 105 -159 0
-3 -93 117 0
-51 -60 -102 0
-23 94 102 0
26 66 -158 0
-49 56 166 0
15 -161 162 0
52 -60 106 0
51 132 143 0
34 -102 155 0
1 64 80 0
-3 164 175 0
77 121 -150 0
-73 -96 -161 0
31 64 -135 0
48 -115 166 0
-63 110 147 0
24 -174 175 0
20 24 -119 0
76 121 -165 0
-66 143 -154 0
-42 -74 -82 0
35 -51 171 0
10 -82 105 0
2 -102 158 0
74 -133 173 0
-7 65 147 0
6 -118 169 0
28 42 170 0
-35 -85 116 0
4 -45 -110 0
10 43 -142 0
1 60 112 0
-26 78 112 0
54 -115 142 0
1 18 175 0
-51 -87 -133 0
-4 110 -169 0
-29 53 95 0
-102 137 -169 0
-47 49 -72 0
31 -47 -67 0
-44 50 -74 0
-23 28 172 0
2 -137 160 0
12 44 -108 0
-34 -83 103 0
12 33 81 0
72 -114 164 0
41 -112 -122 0
73 -134 -145 0
130 141 -170 0
-53 -83 166 0
-1 -36 173 0
-50 101 -140 0
-89 -91 -138 0
-117 120 137 0
44 59 -61 0
-69 -98 -102 0
39 129 131 0
38 44 151 0
-74 75 175 0
-12 100 -102 0
40 61 96 0
31 113 -174 0
24 96 -108 0
-87 112 167 0
62 -104 140 0
23 -32 172 0
-11 98 167 0
-115 -146 150 0
2 -153 160 0
-47 52 -164 0
-15 20 -76 0
-3 113 -136 0
1 -69 175 0
5 -38 -63 0
-64 67 134 0
21 128 -141 0
-11 77 127 0
17 -37 -38 0
48 -56 121 0
-69 89 -123 0
32 104 -118 0
-82 -109 -155 0
3 -97 160 0
-72 94 160 0
50 95 139 0
-23 75 171 0
53 78 -125 0
-2 38 147 0
8 29 77 0
21 -75 77 0
-58 -130 -140 0
119 128 159 0
-16 -100 -113 0
15 32 -143 0
6 -29 106 0
-100 144 -148 0
-49 -133 158 0
20 -97 132 0
-55 -97 -115 0
56 145 -165 0
3 77 -159 0
89 108 117 0
-20 -85 -114 0
25 132 164 0
34 -115 164 0
16 46 -59 0
35 66 -95 0
-34 -86 -121 0
-39 -97 145 0
-31 -93 168 0
-14 -99 -145 0
13 -138 -171 0
3 96 -124 0
42 85 101 0
-4 62 -157 0
12 -107 161 0
-12 33 -53 0
2 39 142 0
-1 -42 -84 0
62 92 -115 0
64 112 153 0
-101 123 129 0
-4 46 66 0
145 -148 -159 0
-18 -133 139 0
75 79 156 0
-107 127 -160 0
24 85 175 0
57 100 124 0
-4 16 -168 0
-55 104 -123 0
-75 -102 -154 0
-17 47 -156 0
-60 114 -121 0
-88 110 -122 0
96 -132 169 0
-3 -88 109 0
1 -45 -83 0
-21 -92 170 0
-5 -56 147 0
30 101 -156 0
-42 -138 165 0
-10 100 -162 0
51 -62 -83 0
28 70 163 0
-21 34 -77 0
-3 -120 134 0
-40 50 128 0
52 -64 -134 0
-21 34 135 0
-103 -121 -138 0
34 -142 -156 0
-27 84 173 0
-11 21 -115 0
-109 117 -172 0
109 -131 -155 0
-66 86 95 0
-6 -21 -23 0
9 -53 126 0
30 -34 -161 0
109 114 168 0
-58 144 169 0
34 -139 -169 0
56 60 -160 0
36 -111 -144 0
22 -80 94 0
81 -96 -133 0
21 -110 156 0
38 143 161 0
-33 -56 -130 0
21 24 67 0
-90 -94 -150 0
52 84 -110 0
47 -101 122 0
-6 26 -32 0
-6 82 135 0
64 77 -174 0
3 -6 137 0
-139 143 174 0
-65 99 100 0
32 108 -118 0
-70 120 -131 0
1 -39 -124 0
-5 22 101 0
64 136 -156 0
93 -101 -175 0
34 -77 -83 0
-59 77 -100 0
21 116 162 0
-41 71 -119 0
20 99 130 0
19 63 71 0
-71 -82 136 0
-21 80 -144 0
-9 38 125 0
45 92 145 0
-33 -47 -167 0
20 25 67 0
45 104 144 0
13 70 -151 0
14 89 -107 0
-1 -85 175 0
-20 -24 -71 0
90 103 116 0
35 54 112 0
-2 -25 55 0
-20 -89 -136 0
-39 75 156 0
-37 -88 120 0
-121 166 -174 0
-39 -132 166 0
-11 152 -153 0
-27 -38 92 0
48 118 165 0
-87 -93 -142 0
43 -45 120 0
-51 -112 157 0
98 106 -149 0
5 -63 -113 0
-5 44 -80 0
-84 115 136 0
-64 -94 152 0
53 115 -173 0
134 -138 -142 0
60 97 172 0
101 111 160 0
-18 20 -62 0
18 105 -156 0
-30 -37 -120 0
-28 30 128 0
-96 -148 151 0
-29 158 -173 0
50 -156 -174 0
-38 -50 174 0
-38 58 -106 0
-12 120 -124 0
20 119 -146 0
10 85 -100 0
-34 -50 103 0
-73 -94 -124 0
21 -41 -127 0
-60 112 -153 0
17 -114 -175 0
53 73 84 0
-7 -84 102 0
-22 78 -155 0
-19 34 117 0
-52 -81 119 0
107 142 160 0
36 65 -168 0
8 112 130 0
46 -71 -135 0
-25 116 -132 0
103 -117 -152 0
-71 -79 173 0
-27 -95 -124 0
34 -46 136 0
-25 114 -171 0
87 -151 169 0
-45 57 -85 0
-93 -125 -135 0
-10 78 -166 0
