c F1 random 3-CNF cnfgen RandomKCNF(3,75,320,seed=16) m/n=4.26
p cnf 75 320
-47 -61 62 0
-1 53 58 0
-2 38 -39 0
3 29 33 0
38 -59 -60 0
-12 -34 -54 0
-23 67 -73 0
-1 11 -67 0
-20 -39 -40 0
9 -22 -62 0
-2 16 -61 0
-3 -19 30 0
-6 -52 70 0
13 30 41 0
2 6 -51 0
20 31 33 0
15 32 -68 0
-5 -50 -53 0
5 34 59 0
-33 55 65 0
-14 15 -54 0
19 52 56 0
52 -56 65 0
-23 47 -64 0
-3 39 63 0
-31 40 -64 0
18 63 -65 0
-8 11 -60 0
-13 -22 -69 0
9 -29 51 0
-1 -2 29 0
-3 8 35 0
-27 29 69 0
-61 62 -75 0
14 23 -25 0
13 20 37 0
-27 30 45 0
11 12 60 0
21 -27 54 0
34 -52 53 0
-46 48 -57 0
-11 -25 28 0
-28 53 -71 0
-3 19 -45 0
-8 22 -52 0
5 19 58 0
38 53 75 0
1 -67 69 0
39 -58 -69 0
53 69 73 0
-34 39 -57 0
-40 49 73 0
-15 -43 -52 0
-2 28 35 0
11 -20 -54 0
14 -35 74 0
-38 48 54 0
6 -26 68 0
-3 13 71 0
16 46 64 0
-16 -33 -54 0
-26 31 49 0
-23 24 50 0
-4 19 -27 0
-38 -44 55 0
32 43 -59 0
-3 -57 70 0
19 31 68 0
6 -22 -34 0
5 -17 -64 0
43 -48 -54 0
1 -2 53 0
1 18 28 0
31 -36 52 0
-40 41 42 0
6 -37 -68 0
16 -32 45 0
-32 35 -39 0
-8 45 66 0
-11 -42 -46 0
32 40 66 0
17 55 71 0
21 28 60 0
5 37 -55 0
30 38 72 0
12 13 -21 0
40 47 56 0
-44 45 -51 0
20 -45 -53 0
-19 46 -63 0
24 -56 74 0
49 53 69 0
-41 46 60 0
-11 -13 -37 0
8 -27 -56 0
31 -42 -70 0
-32 -48 -66 0
12 -57 66 0
-12 -32 57 0
-12 -48 50 0
-13 -20 48 0
-5 38 -43 0
-18 -40 -72 0
-1 -35 -40 0
-39 -64 -72 0
-7 -22 -60 0
-3 -9 28 0
-5 -35 -63 0
-32 -39 -73 0
28 35 -43 0
14 -23 -40 0
26 -48 63 0
-11 -40 50 0
-8 58 -73 0
8 50 -72 0
-10 -25 -26 0
15 16 -60 0
-15 -36 45 0
28 -32 56 0
6 37 73 0
13 -21 -70 0
14 18 47 0
5 -7 -10 0
2 -48 57 0
15 16 -71 0
9 -22 -35 0
2 11 47 0
18 -27 -73 0
-33 -57 -66 0
1 40 -66 0
33 -34 58 0
-14 60 -64 0
32 51 -67 0
-22 48 -62 0
47 -66 -75 0
7 57 -59 0
-32 33 -44 0
-5 58 -69 0
10 28 -68 0
19 44 62 0
-13 39 -60 0
38 64 -74 0
15 29 45 0
-3 55 67 0
-28 -48 73 0
32 57 -65 0
24 -25 -45 0
-44 -61 -72 0
23 -41 -58 0
12 27 -37 0
9 27 59 0
-1 40 70 0
-7 -13 -63 0
4 -36 74 0
12 -40 42 0
-20 -34 -57 0
-47 -52 -55 0
23 -38 73 0
-25 -40 -68 0
11 -50 -64 0
60 -66 -67 0
-8 -45 -61 0
11 -54 75 0
-7 27 45 0
4 21 -67 0
4 35 55 0
7 11 -48 0
-17 20 59 0
-5 -49 -74 0
-39 53 -54 0
-4 -24 52 0
50 60 65 0
-5 21 68 0
-2 -10 60 0
4 56 63 0
-46 -63 -71 0
-5 -11 14 0
31 45 -68 0
-18 -26 -27 0
-29 -63 -72 0
-10 -12 -65 0
2 29 39 0
-28 53 72 0
-4 28 45 0
23 -31 -75 0
23 -32 -48 0
-7 -33 -60 0
47 -70 -74 0
-17 -32 64 0
-46 56 65 0
15 -25 -57 0
-6 21 56 0
13 -57 -64 0
-23 24 -73 0
54 -68 -75 0
9 25 -61 0
32 -42 58 0
-30 34 73 0
-67 72 -75 0
30 -32 -60 0
17 -24 -29 0
27 30 66 0
-32 35 -59 0
39 -42 -72 0
13 37 45 0
13 34 54 0
15 22 47 0
-5 -51 59 0
40 46 69 0
29 -31 -43 0
-10 15 -34 0
-8 -42 -57 0
-2 -20 -71 0
-50 60 67 0
-1 -45 -69 0
-11 -14 34 0
7 -13 -64 0
-31 -43 64 0
-44 53 -59 0
1 42 -53 0
-30 40 -58 0
5 -14 -36 0
21 -58 -73 0
-46 -67 -74 0
17 26 51 0
-5 6 42 0
-49 -71 -72 0
-21 35 70 0
-28 -42 75 0
24 -38 -69 0
-5 39 55 0
-11 26 -73 0
3 8 -74 0
-9 -62 70 0
-10 41 -56 0
16 45 -53 0
19 -32 -45 0
12 44 60 0
14 15 59 0
-65 67 -75 0
-10 32 41 0
7 24 57 0
-6 24 -45 0
14 38 56 0
-17 -50 67 0
-2 -50 75 0
15 31 -58 0
-3 7 -69 0
-21 30 66 0
-15 -26 -34 0
18 27 -35 0
-24 50 -60 0
-16 -23 57 0
13 -30 -44 0
-1 15 -23 0
30 50 -52 0
-12 26 60 0
-18 31 -52 0
32 -37 -50 0
-24 -32 54 0
5 42 -57 0
-43 59 -69 0
-48 49 -75 0
-10 63 -68 0
-31 43 69 0
-24 -60 75 0
8 11 34 0
5 -19 43 0
-2 48 51 0
-5 27 47 0
21 34 75 0
26 50 61 0
24 -41 -46 0
-9 17 25 0
8 36 60 0
54 70 71 0
-36 -37 73 0
22 -29 -33 0
-3 14 24 0
5 -9 68 0
8 12 -14 0
43 -48 -52 0
3 -29 36 0
3 -22 -68 0
-27 35 47 0
20 44 -48 0
-16 28 -54 0
-8 -15 -71 0
-35 47 -74 0
13 46 -56 0
-27 -30 63 0
11 -33 57 0
-7 -50 63 0
-8 -11 46 0
-3 -39 64 0
2 8 9 0
-2 13 -57 0
17 -21 47 0
3 -37 57 0
-12 54 -72 0
22 -62 63 0
2 -23 25 0
14 34 -70 0
4 40 -68 0
2 24 -70 0
2 -34 -51 0
-4 -14 29 0
-40 -45 53 0
7 13 -22 0
39 42 48 0
12 20 -60 0
14 -31 -62 0
-16 -27 -63 0
17 -29 -34 0
34 -61 75 0
1 -29 73 0
-4 -22 -36 0
-33 -35 -46 0
-37 -44 -64 0
-22 34 73 0
