c F1 random 3-CNF cnfgen RandomKCNF(3,125,533,seed=16) m/n=4.26
p cnf 125 533
-47 -61 62 0
-1 53 58 0
-2 38 -39 0
-3 29 102 0
78 -86 -104 0
-77 81 -91 0
34 -47 -54 0
55 -67 83 0
11 -37 125 0
-20 -40 -63 0
-9 22 -59 0
63 -108 111 0
59 -79 107 0
19 -91 -124 0
-5 -6 -70 0
66 86 -122 0
12 13 91 0
6 51 -81 0
-20 82 116 0
2 31 75 0
-19 -35 83 0
-52 -60 -114 0
4 -5 -8 0
-65 119 124 0
15 -54 81 0
-19 56 59 0
-17 -113 114 0
-24 47 -51 0
27 -55 -85 0
38 74 -125 0
-31 64 -95 0
18 63 -65 0
-8 11 -60 0
-13 -22 -69 0
9 -29 51 0
2 81 -92 0
51 78 -80 0
-3 82 116 0
69 86 -123 0
4 -66 -79 0
-18 45 92 0
-3 -12 25 0
5 20 -24 0
27 56 73 0
11 60 114 0
87 93 -100 0
6 -46 -97 0
-16 34 -79 0
-48 57 -96 0
11 -25 -106 0
8 -101 -114 0
-6 52 67 0
-31 54 -124 0
-6 -8 49 0
19 115 124 0
-38 75 86 0
16 106 -116 0
-11 -78 79 0
-55 -77 121 0
89 100 -116 0
-34 -39 84 0
-105 -115 -116 0
-84 112 122 0
-15 -43 -114 0
38 -101 107 0
1 61 -90 0
20 -76 -123 0
-14 74 -99 0
-22 -48 -125 0
21 28 97 0
1 36 -91 0
-14 -16 -25 0
1 -3 -114 0
-16 -43 -112 0
31 -78 119 0
24 -29 -85 0
10 19 124 0
-98 103 -119 0
-106 -117 -121 0
-42 90 -101 0
4 -32 59 0
-53 57 70 0
31 69 90 0
6 -22 -34 0
5 -17 -64 0
-54 -81 122 0
38 -53 83 0
-27 105 123 0
28 112 113 0
26 -66 -115 0
-2 -8 -59 0
43 89 100 0
37 -68 -125 0
16 45 -106 0
7 -39 -81 0
-20 67 -94 0
-2 28 -49 0
-44 47 55 0
25 79 -114 0
24 71 95 0
-28 90 103 0
-19 55 80 0
-30 -101 123 0
82 119 123 0
12 85 86 0
-5 -50 56 0
-21 -23 -72 0
-96 98 -124 0
-20 53 -92 0
46 -49 63 0
-55 74 119 0
56 -71 -122 0
2 -14 -67 0
46 59 -104 0
-11 -13 -79 0
8 -77 98 0
35 -56 124 0
55 -59 -107 0
-41 47 67 0
44 93 102 0
-57 -79 87 0
48 -85 -118 0
64 79 82 0
-48 -68 87 0
-5 -43 103 0
-45 -72 97 0
49 -55 -56 0
-37 -96 -111 0
-39 -113 -119 0
-7 98 -100 0
-46 69 124 0
9 -44 61 0
-63 -88 -112 0
-32 -73 -112 0
-35 -49 118 0
-10 -26 118 0
-2 -14 -65 0
-26 48 -104 0
-11 -40 91 0
58 -73 84 0
-8 57 125 0
10 43 -65 0
-58 78 -99 0
4 -16 -97 0
36 -93 -110 0
-12 32 112 0
-6 7 64 0
1 21 -70 0
18 47 51 0
2 5 -10 0
50 -111 -123 0
1 28 58 0
-5 51 76 0
-1 -73 100 0
2 47 76 0
18 -27 -105 0
-33 -66 -118 0
40 59 66 0
-41 -68 -106 0
72 -83 110 0
-14 60 -64 0
32 51 -67 0
48 -85 -96 0
-8 -123 124 0
-62 -105 -113 0
7 98 -114 0
-33 86 -114 0
-13 88 -101 0
-17 45 76 0
29 -68 -77 0
19 44 118 0
-13 39 -60 0
-64 74 118 0
-15 41 91 0
31 71 -89 0
35 74 86 0
-43 48 73 0
57 113 -115 0
-102 108 115 0
-16 -74 -97 0
-44 -72 -103 0
-82 84 -110 0
-10 -110 114 0
37 100 106 0
35 96 -117 0
8 110 124 0
40 55 -70 0
7 -76 -80 0
36 56 -79 0
-26 90 -103 0
-13 79 -103 0
-20 -57 -105 0
-52 -55 -81 0
23 -38 51 0
-25 -40 -68 0
64 -91 95 0
-39 40 -95 0
-35 45 -108 0
-49 59 106 0
16 -60 70 0
58 79 113 0
21 116 -123 0
-55 -113 118 0
5 10 -15 0
21 -81 93 0
59 -84 121 0
-4 -5 -74 0
-37 -39 -117 0
-4 12 -40 0
-4 -61 90 0
2 6 -101 0
1 67 -96 0
2 35 -47 0
23 56 -66 0
-63 -115 -122 0
14 105 -117 0
36 -82 97 0
-8 9 68 0
27 -46 -47 0
60 62 -77 0
-34 -83 103 0
29 69 121 0
53 -108 124 0
4 -31 45 0
18 23 -92 0
23 36 -48 0
36 -102 -107 0
-46 -55 70 0
-65 -106 -111 0
-17 32 -58 0
-46 109 122 0
15 -25 -57 0
-21 86 -106 0
18 -109 114 0
-6 -57 79 0
-24 73 -114 0
54 -86 -118 0
-9 25 96 0
-44 -58 78 0
-9 101 -125 0
-30 73 96 0
-72 75 -92 0
-30 32 -81 0
29 49 85 0
-101 -107 122 0
27 98 120 0
-85 120 -122 0
-30 -37 -90 0
-31 -38 72 0
37 76 125 0
-13 34 81 0
9 47 87 0
7 -100 119 0
-51 -59 65 0
-46 94 116 0
4 -96 120 0
-11 -47 83 0
10 -43 -89 0
57 -87 -94 0
38 66 -76 0
-54 -105 -117 0
-85 93 111 0
-1 -69 -85 0
14 -43 -77 0
61 99 103 0
-20 -64 -100 0
-31 -43 82 0
-53 -59 103 0
-1 -55 119 0
-23 -76 77 0
35 -58 89 0
5 -36 -92 0
21 -58 -73 0
-67 -74 -83 0
26 -62 112 0
3 32 -78 0
6 -38 -98 0
-45 73 -114 0
54 75 -89 0
-28 -75 123 0
38 87 -101 0
38 -39 -104 0
10 13 -105 0
14 38 116 0
-28 97 -110 0
57 -59 118 0
-41 77 -112 0
-16 45 98 0
48 -105 116 0
69 -109 -116 0
-94 97 -105 0
26 70 101 0
15 59 82 0
-65 67 -75 0
-10 -32 112 0
72 91 -116 0
8 24 119 0
6 -45 105 0
-71 -104 -105 0
14 97 100 0
50 -97 -112 0
-2 -19 -85 0
8 -45 113 0
2 -105 117 0
69 -91 119 0
46 67 -69 0
70 114 124 0
-26 -81 -122 0
52 73 -121 0
-14 23 -59 0
-12 49 -91 0
-16 39 101 0
13 -44 -119 0
15 78 -123 0
-32 -70 88 0
-90 94 100 0
12 -60 64 0
18 -30 -99 0
2 -37 64 0
-49 59 86 0
-110 -114 116 0
5 42 -57 0
-43 59 -69 0
-104 -105 -111 0
-12 -100 114 0
64 -75 110 0
42 43 122 0
-60 -75 119 0
-11 109 119 0
14 23 -124 0
-7 77 121 0
-48 -82 124 0
29 -85 87 0
-6 20 43 0
23 -74 -100 0
26 28 -50 0
46 79 -92 0
9 -25 40 0
-5 8 60 0
-2 71 86 0
-19 -110 -123 0
47 91 120 0
33 -88 -109 0
-3 14 24 0
5 -9 68 0
8 12 97 0
-43 52 -94 0
-64 89 102 0
7 59 90 0
68 -107 -125 0
-27 35 47 0
44 48 103 0
-28 59 -94 0
-27 83 85 0
-40 -78 -118 0
-35 74 -101 0
46 56 124 0
54 -100 107 0
39 61 -110 0
57 -106 111 0
-7 -50 63 0
-8 -11 46 0
-3 -80 -107 0
45 66 106 0
2 6 123 0
57 -105 113 0
-17 21 -53 0
-26 -57 80 0
14 -15 -48 0
21 52 -111 0
63 -89 112 0
25 109 125 0
68 -85 86 0
-14 70 97 0
4 40 -55 0
2 24 -70 0
-2 -86 124 0
-50 74 100 0
-29 64 -82 0
-45 -53 116 0
7 13 -22 0
-42 -84 123 0
65 85 88 0
12 60 -101 0
14 -31 -62 0
27 -63 -103 0
50 -83 93 0
-12 -45 53 0
55 92 124 0
-10 74 124 0
-4 -36 -50 0
-82 -84 -116 0
-78 -91 -106 0
-37 -44 -123 0
-22 34 121 0
43 79 106 0
-15 21 46 0
19 -69 74 0
48 -93 -98 0
10 -16 20 0
7 -91 111 0
-1 -16 112 0
-21 -22 -114 0
26 -85 92 0
7 11 -102 0
21 44 -121 0
64 100 122 0
-24 -50 106 0
-16 97 120 0
-36 -98 -110 0
9 -94 119 0
4 51 -125 0
-61 -72 99 0
-25 -64 -110 0
-25 63 -80 0
-34 -47 84 0
5 107 -113 0
-29 -35 -111 0
-8 -58 91 0
8 59 71 0
-37 -68 77 0
-44 48 -106 0
53 61 -80 0
-30 33 -97 0
-85 -87 111 0
17 -39 -69 0
-5 32 85 0
-50 100 -115 0
66 -78 98 0
74 -76 125 0
-11 -34 -68 0
-19 -63 -69 0
81 108 109 0
90 103 -112 0
17 76 -99 0
26 -33 -53 0
34 -35 55 0
10 32 -117 0
-24 61 -92 0
13 15 -44 0
-1 77 -102 0
54 -94 -99 0
-4 46 53 0
25 26 110 0
72 -77 118 0
43 -69 96 0
5 -38 -44 0
-4 -10 -12 0
45 -76 -83 0
15 -56 66 0
17 -61 113 0
7 72 -94 0
2 7 -68 0
64 94 96 0
43 50 101 0
-44 -88 -116 0
59 94 -115 0
-11 26 87 0
52 79 -124 0
-104 -108 111 0
-20 -65 -103 0
-64 -112 -116 0
-15 123 -125 0
-52 68 114 0
27 41 -123 0
44 -80 -110 0
-22 24 -72 0
3 -75 103 0
29 60 -106 0
18 53 73 0
-30 74 92 0
-5 -12 92 0
-56 -57 89 0
-50 -81 83 0
13 97 113 0
-8 81 -93 0
-1 65 74 0
114 -118 -120 0
-62 -84 123 0
-47 -93 -96 0
-5 64 73 0
-8 -38 73 0
35 69 -75 0
4 9 38 0
34 -86 -95 0
8 -49 114 0
4 -101 123 0
56 94 113 0
17 22 114 0
29 70 -100 0
-100 -104 -109 0
88 103 125 0
-12 40 -76 0
59 68 -92 0
30 92 97 0
15 -20 -53 0
49 -77 115 0
-14 80 -102 0
-14 -52 -73 0
-4 -57 110 0
-16 80 94 0
35 -39 95 0
-34 55 -111 0
4 53 59 0
32 -95 105 0
29 56 123 0
37 -64 84 0
-56 96 -115 0
50 85 -120 0
52 -83 -89 0
-7 -13 67 0
-7 -77 101 0
-31 37 -88 0
7 13 -59 0
94 95 103 0
1 21 59 0
-13 -78 -111 0
58 -115 124 0
-10 -14 -30 0
-19 -46 109 0
10 -100 -108 0
116 -120 -124 0
27 39 -107 0
-36 -92 97 0
97 -109 112 0
47 -58 -108 0
-13 95 -120 0
6 65 95 0
-35 -55 -105 0
21 60 111 0
-24 95 96 0
8 20 31 0
-11 -51 -66 0
