c F1 random 3-CNF cnfgen RandomKCNF(3,250,1065,seed=3) m/n=4.26
p cnf 250 1065
61 -140 -152 0
17 -149 -161 0
-50 -60 -142 0
39 164 -221 0
4 172 190 0
-8 -78 -200 0
-183 -202 -236 0
-35 240 247 0
-35 -56 -127 0
-108 -130 -214 0
-60 150 -232 0
156 -172 179 0
-55 -168 183 0
-17 124 -219 0
18 106 -205 0
107 110 197 0
-97 -151 184 0
2 10 80 0
-51 -243 -249 0
-11 -40 -177 0
-36 -230 -246 0
99 -134 -223 0
163 -184 -185 0
-67 78 -134 0
-6 81 149 0
-86 -161 -163 0
-72 156 181 0
-6 -174 -245 0
-77 152 -154 0
-48 -81 -195 0
27 97 -202 0
-57 129 -168 0
48 112 -174 0
86 -173 243 0
21 -87 -190 0
31 58 -202 0
148 -207 -215 0
165 -207 212 0
-75 -108 -133 0
-75 -107 163 0
40 106 -236 0
-214 226 242 0
-117 -191 215 0
-18 220 221 0
9 -12 232 0
4 124 -191 0
-6 62 170 0
-33 65 -88 0
32 51 57 0
71 203 -236 0
-147 161 -221 0
-64 69 -159 0
83 199 210 0
12 -13 32 0
-23 -183 219 0
-19 -81 -90 0
-49 -68 93 0
-1 33 143 0
-11 96 -118 0
-14 -96 -161 0
-108 178 244 0
56 -70 138 0
34 -110 -226 0
-144 230 -249 0
-32 177 -241 0
27 -137 145 0
61 100 199 0
97 169 -226 0
32 216 -219 0
-179 -215 244 0
10 145 197 0
-16 142 240 0
47 -62 -166 0
-65 -95 -154 0
22 -97 248 0
-107 146 -177 0
39 228 -230 0
-124 192 235 0
51 -69 193 0
-138 -177 -218 0
56 -79 -228 0
52 -98 206 0
83 -124 -199 0
-53 154 -180 0
-19 185 -220 0
59 229 234 0
62 -66 219 0
48 -160 181 0
12 -81 222 0
22 187 -205 0
75 -214 -234 0
-149 173 188 0
-85 -86 112 0
-54 -150 165 0
-31 82 -140 0
-29 113 -228 0
-95 -174 -198 0
-28 194 -242 0
-16 91 131 0
-46 95 228 0
-37 -144 -239 0
-48 -118 166 0
18 -28 -181 0
-26 69 70 0
-11 123 -130 0
-86 -225 242 0
91 128 -217 0
26 152 175 0
-49 -146 179 0
-38 152 156 0
-46 -52 -146 0
-8 -206 -216 0
-81 -142 -232 0
-171 221 230 0
1 163 -187 0
-45 135 161 0
55 -136 201 0
73 145 -246 0
23 160 -203 0
60 -130 159 0
-83 -87 239 0
21 215 -220 0
53 207 -239 0
-57 -179 194 0
11 105 202 0
101 -122 128 0
78 -126 -167 0
-103 177 -194 0
-10 -185 -231 0
-93 115 136 0
-54 67 -206 0
41 50 137 0
104 129 150 0
-29 -44 156 0
-6 -16 -216 0
9 105 -181 0
11 102 127 0
25 100 -122 0
30 89 -160 0
-71 -202 -242 0
64 -69 -144 0
-15 24 82 0
8 27 175 0
10 124 -129 0
-52 -231 -250 0
90 -235 -241 0
-156 162 -193 0
48 -106 -218 0
-138 175 -200 0
-142 214 -241 0
107 -113 -206 0
69 -89 -211 0
11 -40 44 0
174 -178 195 0
154 206 -216 0
-120 -223 230 0
19 -50 -103 0
21 29 116 0
40 166 240 0
59 74 -248 0
-130 200 -233 0
21 46 160 0
26 -220 248 0
28 103 -120 0
-172 -195 -224 0
-29 -75 200 0
-2 -30 139 0
-50 88 -89 0
109 166 201 0
-16 90 -215 0
22 -65 113 0
53 -192 -239 0
-49 -95 -243 0
121 -151 236 0
25 48 -229 0
-16 129 133 0
-54 -71 191 0
89 -120 190 0
-27 -77 114 0
-40 -53 -125 0
-42 -111 -242 0
-57 -135 -139 0
-8 -96 119 0
134 207 239 0
39 136 162 0
-1 -53 -198 0
9 126 142 0
-71 111 232 0
68 -80 -116 0
67 87 -186 0
10 161 173 0
-191 -195 216 0
5 44 -72 0
-16 -165 -230 0
95 -133 162 0
19 -36 -176 0
-72 -114 -117 0
-40 136 246 0
106 -125 -218 0
8 -82 148 0
-72 182 -202 0
20 -96 -172 0
-50 80 -236 0
-102 213 -242 0
-10 -55 -244 0
10 -73 -143 0
-21 106 231 0
21 179 189 0
73 -242 -250 0
-69 119 124 0
61 125 246 0
-46 -181 232 0
14 37 -101 0
49 167 211 0
39 -135 246 0
47 -100 111 0
-30 34 -38 0
91 235 241 0
-37 95 241 0
-91 140 -244 0
-6 -122 -190 0
-79 119 -138 0
-52 99 -214 0
216 -220 -247 0
34 52 -216 0
46 158 224 0
-32 -204 -223 0
-24 -119 139 0
-56 -152 -154 0
-82 -152 -164 0
-74 77 250 0
-57 129 -155 0
-69 112 -248 0
86 -137 202 0
-18 107 109 0
98 99 -219 0
-15 55 -132 0
-100 188 -223 0
-95 -96 -130 0
167 -176 233 0
-1 57 83 0
21 -36 -227 0
8 -51 -73 0
94 -189 -213 0
-31 150 -175 0
-36 79 228 0
45 -154 211 0
90 -98 204 0
-36 71 -122 0
-151 -161 -244 0
25 164 -191 0
-191 193 225 0
-84 123 -234 0
108 -165 226 0
101 166 246 0
131 232 240 0
-60 -121 -211 0
117 170 -246 0
88 -151 -231 0
81 -197 221 0
-111 185 -220 0
56 219 -224 0
-31 234 -238 0
-10 -48 194 0
99 218 -226 0
58 -94 -100 0
-14 68 89 0
57 78 114 0
54 -124 180 0
-45 -176 193 0
-78 114 161 0
-138 -202 221 0
-46 -69 149 0
-100 -129 -210 0
124 159 -195 0
87 -188 222 0
-38 -90 136 0
-115 -221 237 0
89 150 -211 0
-150 -174 -229 0
-192 215 -237 0
-144 -174 -189 0
47 -95 146 0
99 -145 214 0
-82 186 -235 0
-51 -120 233 0
-15 156 186 0
43 130 171 0
-100 -223 -237 0
-17 71 -123 0
31 -55 -243 0
-38 68 -112 0
131 147 200 0
-67 89 203 0
35 181 -223 0
-30 86 250 0
-11 126 -171 0
-113 -223 -231 0
-66 -76 140 0
-9 12 44 0
34 -195 -203 0
-12 143 161 0
41 -56 -245 0
39 -74 190 0
23 36 67 0
-2 -22 -179 0
46 68 -180 0
107 175 179 0
-87 -133 186 0
-12 55 -206 0
-171 185 -240 0
61 -116 205 0
-41 59 -107 0
30 -81 147 0
-7 104 151 0
-117 -131 146 0
-110 134 151 0
116 -129 204 0
-33 113 133 0
76 94 -135 0
18 -123 206 0
3 6 -122 0
-4 -13 -232 0
-121 -126 210 0
80 -145 161 0
30 175 247 0
41 101 191 0
78 -173 247 0
93 -128 -174 0
-101 -144 -201 0
-8 -155 -241 0
-67 -163 189 0
-25 -92 -167 0
-52 123 193 0
-13 150 -157 0
26 -47 -82 0
-108 -111 -227 0
-11 -94 -210 0
57 70 135 0
-8 156 -197 0
-97 123 -129 0
15 102 166 0
145 176 -229 0
132 199 231 0
-55 153 -243 0
38 -41 -112 0
81 -114 161 0
-88 -152 243 0
32 73 250 0
63 -100 228 0
-24 -190 231 0
-54 139 -214 0
62 -209 215 0
65 -89 203 0
56 89 -248 0
-15 -65 -110 0
135 -213 243 0
80 90 -171 0
-103 198 -230 0
32 156 192 0
82 89 -224 0
-13 30 -200 0
-86 143 -229 0
-114 182 -200 0
1 -31 -201 0
72 -98 -217 0
-93 122 -179 0
-123 127 -145 0
19 79 184 0
45 -169 -222 0
21 93 -139 0
4 -157 225 0
-28 -165 -194 0
-3 118 204 0
24 196 229 0
-22 72 170 0
13 113 184 0
-84 -114 181 0
50 180 -221 0
-33 -180 -217 0
-35 -121 172 0
-43 -60 -195 0
-62 -134 -233 0
89 -193 -197 0
-19 -48 -238 0
-104 246 248 0
-2 -90 161 0
-118 -165 -167 0
190 -199 213 0
-19 -177 -218 0
-43 52 -183 0
1 46 -240 0
-31 -145 173 0
133 172 -209 0
78 -113 -126 0
-46 -118 -161 0
17 62 -88 0
-19 138 226 0
-10 41 122 0
94 -149 218 0
3 -140 193 0
74 -144 -147 0
-39 -97 -149 0
-15 119 236 0
-69 -236 -250 0
3 -32 47 0
-102 177 225 0
-11 -112 217 0
-110 -172 233 0
-60 179 -238 0
-91 95 178 0
94 189 227 0
50 -68 -125 0
-43 -193 -227 0
101 147 -195 0
-28 -54 -168 0
-78 -216 232 0
89 -133 -165 0
-155 195 227 0
-178 188 211 0
-60 -96 134 0
167 193 231 0
-149 169 -225 0
80 92 -159 0
-45 -234 -239 0
-42 62 135 0
-4 91 -210 0
-30 -111 -228 0
-78 91 -209 0
-19 -50 249 0
18 -68 -140 0
164 -195 -212 0
13 20 249 0
58 160 -168 0
44 137 -197 0
6 -117 129 0
-98 202 231 0
12 -23 181 0
47 -48 114 0
125 129 227 0
-58 -125 165 0
-60 -223 227 0
41 -45 164 0
61 198 201 0
-143 225 -245 0
7 -76 240 0
61 -118 129 0
-58 170 227 0
-120 205 -222 0
-30 61 214 0
20 122 238 0
-83 -156 -210 0
20 -75 214 0
-6 92 241 0
31 -46 -67 0
-2 -162 219 0
-40 65 88 0
-83 -149 201 0
22 -66 100 0
79 -100 247 0
-50 -57 -133 0
178 204 208 0
-45 -62 -130 0
-102 -152 -207 0
-98 137 -203 0
-21 -28 -226 0
77 119 -182 0
-146 183 215 0
-98 150 -184 0
-6 -77 189 0
36 152 228 0
-106 -123 -134 0
4 -40 -201 0
27 63 -116 0
-29 -146 174 0
80 -93 -164 0
1 -85 193 0
65 226 242 0
-83 149 -210 0
-2 102 -162 0
116 -237 248 0
40 112 194 0
30 64 -222 0
81 -115 203 0
20 -88 243 0
-45 98 -215 0
86 96 -143 0
22 -88 215 0
24 -224 -246 0
-119 134 -160 0
17 27 -50 0
81 165 234 0
161 188 250 0
83 88 163 0
3 -103 -184 0
-13 -96 -117 0
-87 148 -200 0
-50 -181 184 0
79 -115 146 0
-30 122 -250 0
-13 39 -170 0
-1 -61 -234 0
46 114 -155 0
94 -134 -153 0
109 -182 230 0
-32 147 219 0
-5 -125 -132 0
-54 73 74 0
31 110 170 0
116 -130 -218 0
110 -160 180 0
-3 -97 -213 0
-41 215 232 0
21 45 190 0
-3 -107 114 0
-24 -84 197 0
-55 -62 150 0
-128 -191 216 0
87 -194 246 0
-65 -112 -137 0
-8 26 153 0
-75 -114 -212 0
-22 72 -132 0
71 -110 233 0
62 -122 225 0
-4 -6 -164 0
-150 -170 -212 0
95 -117 182 0
47 -64 -150 0
-17 -50 -73 0
83 181 244 0
-23 -116 -154 0
28 -34 241 0
34 45 -225 0
-168 -215 220 0
-82 -140 -172 0
138 -148 -176 0
-33 74 -232 0
-93 119 154 0
-4 -110 -225 0
-75 -92 237 0
41 66 192 0
-13 -73 -218 0
-151 184 235 0
-53 -217 -221 0
-145 192 -235 0
92 -103 214 0
49 129 219 0
-68 -184 239 0
121 -131 -211 0
75 120 -180 0
24 67 -229 0
-6 192 -230 0
172 243 -244 0
-121 -196 235 0
31 -80 -154 0
64 -71 240 0
66 -122 -142 0
23 -169 -209 0
-86 -161 222 0
72 -78 94 0
40 -91 131 0
-146 164 -216 0
189 198 223 0
-22 196 243 0
-53 -143 -178 0
-61 94 -188 0
51 -97 -194 0
-1 -52 195 0
-16 88 200 0
120 -135 -188 0
-90 -93 -142 0
-48 -97 -247 0
-159 179 234 0
113 140 231 0
-96 -126 216 0
-25 -145 -228 0
127 184 212 0
-62 -167 -242 0
-39 -149 -180 0
51 -231 235 0
106 129 209 0
-100 188 -205 0
-10 11 207 0
86 158 -222 0
-156 191 -239 0
224 -226 -247 0
20 131 194 0
-56 138 155 0
8 -99 -113 0
-38 -58 -164 0
-117 -188 -216 0
-14 -101 181 0
95 144 -219 0
52 194 -209 0
-36 177 -247 0
32 -137 167 0
-6 -130 214 0
-6 101 -131 0
-20 -116 -117 0
126 -136 249 0
22 59 244 0
-130 229 246 0
62 159 -227 0
-20 46 -73 0
13 95 -241 0
-87 -116 146 0
141 -174 216 0
103 104 208 0
-34 -37 161 0
27 -160 241 0
27 -100 151 0
-114 194 195 0
-70 -167 171 0
81 142 -218 0
48 -110 -172 0
41 179 -220 0
52 130 239 0
-72 -85 104 0
-7 -51 -74 0
-97 140 -175 0
-50 103 -166 0
13 -77 -171 0
30 230 249 0
87 157 161 0
72 79 -164 0
-12 -39 -217 0
-45 -113 192 0
48 67 -163 0
-91 -145 -182 0
-98 -167 191 0
-10 -97 121 0
-44 154 236 0
-44 196 247 0
-38 75 -195 0
-93 162 -207 0
-43 -110 209 0
-108 -121 209 0
46 -224 246 0
-125 -154 163 0
32 -57 138 0
-101 107 165 0
-11 -154 231 0
67 126 141 0
21 -110 -239 0
-36 73 168 0
-35 64 127 0
-91 149 -177 0
-25 177 203 0
70 172 177 0
19 -43 -92 0
25 -39 46 0
73 97 145 0
180 185 -243 0
62 -170 184 0
-60 185 199 0
-138 -208 210 0
7 -12 146 0
67 174 -207 0
113 200 -227 0
13 -172 202 0
121 129 -222 0
-61 -69 -173 0
-82 151 -205 0
-102 -121 -151 0
-19 173 -220 0
-43 -50 -243 0
-94 -113 131 0
-7 -17 50 0
5 63 138 0
-59 203 217 0
126 174 219 0
130 227 238 0
-45 -151 165 0
153 184 -242 0
-62 108 -193 0
-120 -132 -184 0
-30 57 164 0
19 34 124 0
114 -122 -139 0
11 -19 112 0
-46 -217 222 0
21 -103 -108 0
-55 -137 -212 0
93 110 210 0
-42 109 -114 0
38 -92 -197 0
77 -115 -236 0
-191 -200 -227 0
22 -88 116 0
25 -89 108 0
70 -191 202 0
-82 117 196 0
-66 140 228 0
-40 90 -175 0
175 208 229 0
-8 152 192 0
85 146 164 0
-70 -83 182 0
-53 -182 -220 0
-48 78 217 0
102 -118 -168 0
118 119 -226 0
-95 -118 -240 0
70 -154 243 0
-54 55 -169 0
131 -144 249 0
9 62 -248 0
-90 131 -202 0
73 97 -112 0
4 -171 -214 0
-8 -173 -184 0
-17 102 239 0
-39 -117 123 0
-49 142 -209 0
-47 192 202 0
65 145 -153 0
30 93 105 0
102 187 239 0
55 -131 213 0
-112 209 213 0
-30 58 235 0
129 145 -206 0
51 -133 -199 0
1 15 239 0
20 -128 250 0
-8 107 -127 0
24 -134 156 0
83 -213 245 0
-54 -209 235 0
-85 -108 -178 0
155 178 203 0
105 179 -183 0
166 169 215 0
-11 62 221 0
-45 92 -162 0
-99 -115 233 0
-65 120 237 0
18 112 -201 0
-86 99 208 0
6 13 -221 0
40 -212 220 0
-79 -208 -219 0
81 -139 -140 0
7 43 -137 0
46 -108 -219 0
76 -193 -229 0
-32 91 -189 0
146 -171 -249 0
-55 -174 205 0
44 -117 -238 0
33 -182 185 0
-32 37 105 0
21 84 -224 0
-90 97 110 0
-11 -50 223 0
75 112 173 0
16 46 85 0
-41 66 -217 0
88 -148 -209 0
-8 -47 -124 0
-17 -133 -240 0
20 -141 245 0
-6 -76 -103 0
71 -108 -138 0
64 -71 -166 0
139 -173 242 0
-36 165 -236 0
-3 -177 -227 0
-71 -96 -178 0
87 105 -116 0
-48 136 198 0
56 -137 215 0
-24 126 -213 0
-59 133 -168 0
71 -82 231 0
-6 -157 194 0
-60 -83 -215 0
-13 -49 -61 0
-29 -36 214 0
-98 -187 205 0
-38 52 -193 0
37 -85 -221 0
41 47 -228 0
-83 220 221 0
160 -199 -242 0
-97 110 230 0
10 -94 -226 0
-3 -102 113 0
-167 186 -224 0
60 -136 -161 0
79 100 -191 0
-4 -123 218 0
-60 155 -241 0
-17 122 -242 0
-26 33 -58 0
-17 -95 99 0
-6 90 140 0
50 59 -87 0
52 136 -196 0
-21 55 242 0
-33 -151 199 0
-207 -211 227 0
-81 169 188 0
-49 -121 -141 0
60 220 -227 0
-8 -39 101 0
-26 57 160 0
-12 82 217 0
-3 -21 -187 0
-99 -158 -226 0
78 92 215 0
-36 -112 -146 0
107 -192 -238 0
-28 49 -240 0
1 81 88 0
30 -39 100 0
66 132 -169 0
77 141 -199 0
-10 124 -173 0
-29 145 -206 0
-57 -68 208 0
38 -141 190 0
114 -120 -216 0
35 75 140 0
30 -83 -85 0
107 166 -221 0
121 196 -214 0
-2 -39 -202 0
7 -135 -201 0
22 63 167 0
43 -80 -86 0
-159 -231 244 0
68 148 -181 0
5 -7 19 0
-57 148 -156 0
-4 5 -15 0
40 -226 239 0
-35 -39 -176 0
179 183 -187 0
-47 85 222 0
-28 -34 -203 0
9 -109 136 0
-39 -195 -228 0
-78 -198 -246 0
77 184 220 0
-150 202 -222 0
204 -222 224 0
-25 36 -43 0
59 76 85 0
-137 -158 200 0
55 112 -212 0
133 -181 184 0
128 -177 216 0
-3 36 -224 0
-53 63 -209 0
-12 119 162 0
100 -222 -244 0
-16 -110 221 0
9 87 -100 0
-98 -172 -210 0
69 80 -204 0
105 -121 -165 0
-34 -207 -219 0
4 -54 103 0
-119 -170 200 0
-13 150 -193 0
76 125 -213 0
-57 136 -175 0
59 -225 -243 0
129 -152 -218 0
99 -182 200 0
42 -103 -183 0
16 -199 212 0
-26 -134 184 0
103 200 -241 0
-16 -145 233 0
63 -86 198 0
-50 162 209 0
50 184 -239 0
-28 -37 -180 0
-43 -140 244 0
-98 -214 242 0
10 -42 -118 0
54 67 144 0
-74 -135 -140 0
60 -141 -220 0
1 -40 125 0
61 141 193 0
-5 -45 -218 0
123 -162 -245 0
-92 -104 233 0
-90 132 202 0
104 -121 -231 0
77 -129 205 0
99 219 -227 0
-43 -123 134 0
88 -172 233 0
87 -205 247 0
136 -147 -159 0
53 -183 -233 0
13 58 -132 0
-139 -156 -170 0
-24 85 208 0
-198 -223 -231 0
7 38 -231 0
-138 -186 246 0
118 221 225 0
-5 -88 -216 0
30 -82 -163 0
-92 -129 132 0
-54 -146 237 0
58 143 -245 0
-24 -109 222 0
-66 134 147 0
-113 133 186 0
62 76 220 0
3 64 217 0
-101 -188 -204 0
41 -153 -215 0
-151 -167 -233 0
-82 -212 242 0
57 160 211 0
-23 -114 212 0
10 -73 -75 0
11 -83 151 0
-76 -88 126 0
-32 132 244 0
-23 -42 223 0
-135 200 233 0
-60 -64 141 0
-53 116 -230 0
-29 107 176 0
-13 -86 -242 0
-7 180 -236 0
29 -197 214 0
122 198 -213 0
-3 170 -182 0
-89 111 -125 0
-107 -136 -237 0
116 181 226 0
-29 190 225 0
86 210 -240 0
45 -131 209 0
36 -120 237 0
12 133 242 0
-95 209 -235 0
93 125 156 0
117 -187 247 0
135 138 -186 0
81 -98 163 0
84 145 156 0
-84 170 181 0
33 -131 -171 0
-81 -171 241 0
-13 -52 60 0
28 118 -244 0
119 -170 -172 0
19 181 -224 0
-63 -90 -243 0
42 81 229 0
-12 -100 217 0
31 -54 -129 0
-13 -74 226 0
-74 94 -205 0
-17 51 -145 0
-52 73 -184 0
-14 73 -232 0
-31 -124 -174 0
-80 -113 -237 0
93 -197 -240 0
75 242 247 0
102 -182 -209 0
22 -62 78 0
-31 -32 206 0
-59 80 130 0
78 -80 -172 0
-9 66 232 0
-86 -109 -116 0
-12 -42 239 0
-113 170 186 0
-135 -157 204 0
43 -142 248 0
47 161 -233 0
12 44 134 0
-50 -98 192 0
10 -131 -221 0
-68 -91 125 0
55 138 205 0
-40 226 234 0
7 66 197 0
-15 78 -240 0
-11 121 195 0
-68 -96 -225 0
26 -215 250 0
-102 110 193 0
109 110 -151 0
-11 22 -39 0
9 108 -234 0
54 -197 -201 0
33 -170 -190 0
-33 -122 196 0
-1 -208 250 0
35 -79 175 0
183 -207 -211 0
100 131 222 0
114 152 167 0
-67 128 144 0
-24 86 -91 0
65 -93 220 0
-138 145 -213 0
77 -128 -229 0
-51 -56 158 0
-194 -222 -242 0
7 -108 222 0
56 -76 -215 0
9 -164 -217 0
-62 185 220 0
-70 130 -131 0
123 -189 212 0
18 204 -237 0
-76 90 -148 0
58 -141 149 0
-70 122 160 0
-147 -216 -228 0
7 176 239 0
-56 74 208 0
5 -111 -172 0
47 59 101 0
23 37 216 0
-42 138 182 0
-2 -25 -200 0
-66 -107 248 0
60 -96 239 0
78 -93 150 0
-109 -144 196 0
-93 -106 227 0
52 -113 146 0
-84 -88 -189 0
-34 84 226 0
-140 -141 -208 0
76 -184 228 0
15 28 -154 0
6 -118 225 0
-176 209 -241 0
-141 177 246 0
46 -56 146 0
-90 195 -248 0
8 48 -220 0
-96 -107 -137 0
85 -112 143 0
14 114 -228 0
-104 171 244 0
-46 -131 -180 0
22 -60 -187 0
53 204 238 0
51 133 210 0
82 112 -212 0
-107 -108 230 0
38 -206 240 0
-181 -198 -249 0
-1 174 -234 0
30 -59 -249 0
-69 -126 129 0
-53 -148 166 0
