c F1 random 3-CNF cnfgen RandomKCNF(3,175,746,seed=3) m/n=4.26
p cnf 175 746
61 -140 -152 0
17 -149 -161 0
-50 -60 -142 0
39 -60 164 0
17 -41 172 0
-69 -122 -153 0
-35 114 148 0
-35 -56 -127 0
-99 -108 130 0
-8 87 -175 0
139 146 -147 0
-17 -32 73 0
18 89 -106 0
31 107 -110 0
-85 142 151 0
2 20 80 0
-75 105 157 0
81 -87 -93 0
99 -118 -134 0
-61 -78 -163 0
-3 -87 141 0
97 151 -158 0
-91 -120 -174 0
6 -16 -151 0
-77 117 -161 0
-48 -81 -95 0
7 -27 146 0
-62 69 -168 0
-25 -27 167 0
-21 44 -113 0
31 58 -70 0
-47 72 -148 0
-34 -108 -151 0
-89 -107 -163 0
10 40 -106 0
112 131 -160 0
-74 133 170 0
31 74 151 0
51 111 -132 0
-31 44 129 0
106 135 -138 0
-33 65 -139 0
32 51 57 0
-2 -33 71 0
-64 69 -70 0
1 15 83 0
13 18 -124 0
-19 -41 -81 0
-78 93 -151 0
32 -33 110 0
-11 -46 -146 0
-12 160 -163 0
-81 -128 -161 0
-5 56 -63 0
34 -58 -110 0
-32 68 -144 0
28 82 -171 0
37 61 100 0
46 -97 169 0
-7 -30 -173 0
10 23 145 0
-16 141 142 0
47 -62 -166 0
-65 -95 -154 0
22 -97 129 0
-107 146 -149 0
-25 -39 -42 0
-35 48 151 0
81 -132 -150 0
69 -150 153 0
69 98 -123 0
62 -83 -124 0
53 -120 154 0
12 103 120 0
56 -62 66 0
48 -160 173 0
-12 47 81 0
-24 31 -68 0
-116 149 173 0
-85 -86 112 0
-54 -150 165 0
-31 82 -140 0
-29 113 -136 0
-95 -116 174 0
87 -145 -173 0
16 76 174 0
95 117 168 0
-85 -166 167 0
80 118 124 0
-47 -140 142 0
69 70 99 0
70 -123 -130 0
104 -115 -139 0
29 39 70 0
-48 -49 146 0
-38 152 156 0
-46 -52 -146 0
-8 -105 -114 0
-128 -136 163 0
49 154 163 0
-45 126 135 0
-10 55 -136 0
-35 40 169 0
7 93 -159 0
-5 -87 -138 0
21 35 -154 0
-17 52 -53 0
-11 28 81 0
-42 101 -128 0
-54 126 -167 0
103 -113 118 0
-66 -94 -95 0
-1 -54 58 0
50 118 137 0
44 104 150 0
-29 -44 156 0
-6 -16 -104 0
-9 14 -62 0
7 57 -127 0
-43 49 -122 0
-14 -32 -153 0
-64 77 -126 0
82 89 -162 0
23 152 159 0
5 24 -175 0
-14 49 -168 0
88 -90 -123 0
101 -156 162 0
-30 -106 -130 0
-45 99 -142 0
-59 -107 -113 0
-44 -69 130 0
-6 40 44 0
61 82 -154 0
-86 120 166 0
-27 -50 103 0
21 116 167 0
37 40 166 0
-54 -57 74 0
46 120 160 0
7 -26 154 0
28 103 -120 0
-89 104 -172 0
98 114 153 0
77 -119 -165 0
-19 -50 125 0
55 -133 156 0
-61 86 -111 0
43 56 -83 0
95 -108 -138 0
105 -121 151 0
8 -25 48 0
11 121 -164 0
-10 -111 126 0
-27 -37 -74 0
20 -53 -114 0
96 -97 -163 0
119 -122 -135 0
-8 -74 -119 0
3 63 134 0
6 43 138 0
91 -93 120 0
-4 -62 71 0
-25 -140 -155 0
-64 -128 -173 0
8 12 110 0
-35 106 -131 0
5 -12 44 0
-118 -120 134 0
19 47 -76 0
-91 -114 -117 0
-40 73 136 0
-60 -106 125 0
82 -148 154 0
-27 69 -72 0
-9 125 -132 0
-47 -89 -168 0
13 -55 -70 0
-101 143 157 0
65 -106 107 0
21 52 135 0
-18 -73 -111 0
69 75 140 0
37 44 -125 0
102 166 -173 0
14 -47 161 0
34 38 167 0
-28 98 111 0
27 34 -72 0
33 91 99 0
37 95 -123 0
-27 -125 140 0
-89 -114 -136 0
-39 -114 137 0
-46 76 -153 0
34 52 -69 0
30 46 158 0
-96 104 -146 0
-113 139 149 0
-83 -117 -130 0
-88 -89 -154 0
32 -47 155 0
-69 73 -112 0
-46 86 137 0
-107 109 141 0
55 -98 99 0
15 -127 -141 0
-4 -93 -144 0
96 -103 113 0
-1 57 83 0
-21 -36 -54 0
-8 -51 -138 0
55 -87 113 0
-36 79 122 0
-22 45 -154 0
2 -98 -126 0
-36 -53 -100 0
25 74 -164 0
-3 -17 -83 0
-25 -162 169 0
-52 83 166 0
7 133 165 0
-60 -121 -138 0
117 136 -170 0
-35 -88 -151 0
-53 135 -150 0
-50 80 162 0
-27 31 -117 0
-10 48 -84 0
-15 -61 -175 0
-46 -58 -73 0
14 29 -88 0
45 114 -145 0
-54 56 172 0
-101 136 -154 0
15 -96 -114 0
-5 -46 -149 0
-57 -100 -129 0
46 -124 -159 0
37 -83 150 0
77 -123 -162 0
-11 127 150 0
-78 -142 -152 0
-3 -75 -167 0
95 123 -146 0
49 -99 145 0
-45 -82 125 0
-105 142 148 0
52 124 156 0
26 -138 -142 0
-17 -71 -102 0
31 59 -67 0
-38 -96 112 0
68 131 147 0
67 88 89 0
-22 58 -118 0
-11 -37 43 0
-96 -110 -113 0
-70 76 140 0
9 44 111 0
-54 -130 165 0
-143 145 161 0
-19 -41 -56 0
-30 39 -140 0
23 36 160 0
-2 -22 -162 0
1 -46 -68 0
-2 -9 -44 0
-12 27 -55 0
84 -161 -171 0
2 61 89 0
-25 -101 107 0
140 -153 171 0
-7 104 151 0
-117 -131 146 0
-110 134 151 0
116 -129 136 0
-33 113 133 0
76 94 -135 0
-18 64 123 0
6 122 -160 0
-4 -13 -89 0
77 -79 126 0
12 104 167 0
22 41 101 0
78 -132 173 0
93 -128 -174 0
-101 -112 144 0
-79 -83 -124 0
-25 -53 -92 0
52 87 123 0
-62 103 -157 0
-26 -46 -168 0
-108 -145 -148 0
-11 -94 -101 0
36 57 135 0
-27 -106 -165 0
-97 129 -143 0
15 102 166 0
-25 36 145 0
-27 55 -153 0
38 -41 -112 0
81 -114 161 0
-82 88 152 0
22 -51 73 0
57 -59 -86 0
-54 56 -139 0
38 -62 -72 0
-40 53 75 0
-30 -143 -161 0
-15 -102 137 0
-53 80 116 0
89 -103 108 0
32 148 -156 0
44 -89 154 0
30 -82 -156 0
-6 -75 -143 0
1 44 -124 0
72 -98 -123 0
93 -94 -122 0
-127 138 -145 0
19 48 79 0
45 -67 81 0
4 -57 86 0
-28 -129 -165 0
-3 118 174 0
22 24 -171 0
22 86 170 0
10 -32 -113 0
78 83 159 0
56 -112 -151 0
-106 133 -134 0
20 73 -162 0
-62 -100 -113 0
-44 76 89 0
-78 -99 -153 0
-26 56 -161 0
-15 -113 -167 0
126 -134 137 0
-19 114 125 0
-35 68 144 0
-52 61 -161 0
50 95 -169 0
78 -113 -126 0
-46 -118 -161 0
17 62 -88 0
19 89 138 0
41 84 -122 0
62 122 149 0
-37 82 -174 0
90 -97 -149 0
-15 -104 172 0
-21 -159 -166 0
3 32 -94 0
12 102 -109 0
11 -68 -95 0
-6 60 -106 0
74 91 -95 0
1 -63 -167 0
-36 -50 146 0
-66 98 104 0
28 -97 -168 0
-67 -78 170 0
89 -133 -165 0
50 -72 155 0
56 -134 -167 0
64 115 167 0
106 -149 -169 0
33 -92 159 0
-99 122 173 0
123 151 -174 0
-4 145 -173 0
-30 -111 -160 0
-78 91 -163 0
-19 -50 175 0
18 -68 -140 0
-64 -149 164 0
1 20 147 0
-28 52 168 0
-44 102 129 0
-54 83 98 0
-12 18 23 0
-23 48 -114 0
40 129 169 0
-72 125 165 0
-77 160 173 0
41 -159 161 0
28 -45 61 0
-7 109 -143 0
64 118 -129 0
148 155 -161 0
-26 33 -120 0
-30 61 140 0
8 20 -122 0
-86 -121 156 0
28 92 -152 0
10 -18 81 0
-7 73 -159 0
-13 65 -99 0
-18 -53 -167 0
40 66 -100 0
-24 -131 172 0
-135 141 158 0
-57 -133 -149 0
37 40 161 0
-96 -117 -130 0
-78 -132 -144 0
-21 155 158 0
-99 -109 -157 0
-25 60 117 0
98 -127 -150 0
-6 74 150 0
11 -49 -152 0
-100 -134 157 0
-2 -40 97 0
46 -63 175 0
-91 146 -174 0
-13 -93 -164 0
1 -53 97 0
-22 64 -83 0
-2 102 -162 0
-35 116 143 0
25 112 129 0
-5 -64 83 0
-20 58 -106 0
63 -98 168 0
-92 96 143 0
22 -88 114 0
-24 -34 -121 0
26 102 129 0
-19 -62 145 0
44 45 161 0
83 88 163 0
-3 -63 103 0
-95 -96 -117 0
113 -146 148 0
67 -124 -149 0
-28 51 -94 0
47 87 -174 0
16 71 -157 0
-46 67 95 0
81 -94 -134 0
21 107 -109 0
28 -36 -146 0
67 -73 -83 0
-5 20 31 0
-42 130 -155 0
85 -110 160 0
-3 -97 -130 0
5 41 91 0
33 -56 156 0
-105 114 134 0
-84 -130 164 0
-55 -62 150 0
88 -119 128 0
-7 -65 -90 0
26 -96 153 0
-25 -75 -136 0
-22 -126 132 0
71 -92 110 0
-53 62 122 0
-6 -126 -143 0
-70 -97 155 0
109 129 132 0
39 81 -90 0
-103 -129 -134 0
2 -56 130 0
-81 -152 167 0
-32 34 149 0
34 158 -163 0
78 -125 -168 0
91 -148 -163 0
-33 74 -161 0
-93 119 154 0
-4 -110 -172 0
-75 92 -120 0
13 31 -41 0
-96 -116 136 0
-1 -53 -80 0
-60 -83 155 0
127 164 175 0
-18 -34 68 0
-32 -121 -131 0
-12 61 -75 0
20 -62 97 0
13 -99 -172 0
86 -110 162 0
-4 -70 156 0
-25 144 -175 0
-20 -66 142 0
-1 -80 -83 0
-36 -78 153 0
29 -117 136 0
-22 96 -152 0
40 49 -136 0
30 139 -156 0
-107 -154 167 0
-20 -103 147 0
56 99 -122 0
-11 -16 95 0
54 -120 -135 0
-90 -93 -142 0
-48 -67 -97 0
5 19 113 0
-66 96 126 0
-123 -124 150 0
-3 -49 -62 0
-39 -81 149 0
-1 43 68 0
-47 100 -156 0
10 11 -67 0
28 -140 -148 0
-28 -55 121 0
11 -41 52 0
27 -163 -165 0
7 71 -122 0
-114 -171 -173 0
-95 -132 164 0
103 -117 146 0
6 52 -69 0
-36 63 124 0
45 -73 -158 0
52 -101 140 0
-20 -67 -117 0
88 -126 136 0
22 23 -59 0
26 56 -62 0
-20 46 -73 0
11 -13 -95 0
-87 -139 159 0
-7 141 -174 0
22 45 104 0
21 70 -94 0
61 100 -151 0
-52 114 153 0
-70 -167 171 0
46 -81 142 0
-30 -110 172 0
57 59 121 0
-59 -72 -104 0
7 -60 -74 0
-109 -132 137 0
103 -116 166 0
-13 90 -171 0
29 30 -119 0
-8 -49 56 0
6 -39 -100 0
-45 -88 113 0
48 67 -163 0
-91 -145 -171 0
-98 -167 171 0
-10 -97 121 0
44 115 154 0
-37 57 -76 0
-48 -73 154 0
-43 -85 110 0
-108 -121 143 0
10 -46 -106 0
31 57 -76 0
-21 -101 165 0
-11 -50 136 0
67 126 141 0
21 -110 -138 0
-36 73 168 0
-35 64 127 0
-91 149 -152 0
25 117 -163 0
55 143 172 0
-1 -19 92 0
-39 46 -63 0
73 129 145 0
16 28 -106 0
39 60 -116 0
7 12 112 0
-8 96 174 0
113 127 -156 0
-13 46 -172 0
-13 -48 129 0
-74 -122 -173 0
-7 -140 -145 0
-116 -130 151 0
95 -157 173 0
-43 -69 -121 0
2 110 127 0
-96 142 155 0
42 63 138 0
47 -74 151 0
29 139 172 0
-42 -45 165 0
-24 31 -153 0
-36 -76 -130 0
102 114 -164 0
8 -19 46 0
31 -130 -174 0
23 -95 128 0
9 -46 -107 0
-21 45 -108 0
90 -147 -155 0
93 110 128 0
-42 109 -114 0
38 -92 -143 0
-8 -77 -115 0
69 -88 111 0
-3 -25 115 0
-2 66 -129 0
-7 82 117 0
66 74 -140 0
40 -95 175 0
47 -50 166 0
-22 137 171 0
-10 -70 83 0
-53 -70 168 0
78 124 -130 0
118 -134 -168 0
27 -118 -119 0
-95 -117 -153 0
60 94 154 0
-2 122 -169 0
9 14 -62 0
90 -92 -131 0
38 -97 112 0
-60 111 -165 0
-17 -80 119 0
-14 -39 -117 0
-15 49 -170 0
47 -64 109 0
-62 -68 136 0
-2 5 62 0
11 131 -158 0
-61 112 142 0
30 58 72 0
16 110 -133 0
1 15 108 0
20 -128 144 0
-8 107 -127 0
24 -134 156 0
83 -161 173 0
54 -75 -78 0
-83 87 130 0
21 -40 105 0
11 -47 54 0
33 -149 -162 0
-32 -98 -172 0
-20 -75 -167 0
3 39 112 0
-66 86 99 0
6 -13 46 0
22 -109 -149 0
-113 128 -146 0
43 78 151 0
46 -73 -108 0
-41 -76 86 0
126 -131 163 0
-55 -90 125 0
-25 -44 117 0
32 100 -170 0
19 32 -118 0
-15 -49 -77 0
25 108 139 0
74 -103 -165 0
17 -37 146 0
7 16 -49 0
-59 -101 158 0
47 -72 -91 0
97 -127 -133 0
20 -83 141 0
-6 -76 -103 0
71 -108 -138 0
64 -71 -166 0
-33 139 173 0
97 -135 165 0
-86 -97 -120 0
-107 -108 -157 0
-26 58 -170 0
60 133 166 0
-24 -31 127 0
72 -130 168 0
71 -82 110 0
-6 71 157 0
-74 83 94 0
-49 71 100 0
123 -125 -149 0
122 160 166 0
91 -140 -152 0
-12 -37 171 0
-3 -13 -41 0
57 -58 -160 0
75 97 -110 0
-5 -10 143 0
-76 102 -113 0
-62 155 169 0
-66 -133 -147 0
-22 56 -150 0
-90 143 159 0
-15 74 -155 0
52 87 93 0
-62 118 -147 0
95 -117 119 0
45 74 -146 0
50 -62 138 0
-5 25 136 0
3 -10 -117 0
41 -91 -98 0
-49 -52 -53 0
17 -60 103 0
-39 101 123 0
57 106 -160 0
-12 157 162 0
-3 -21 -67 0
-119 -158 -167 0
49 -61 92 0
-119 -120 164 0
28 -70 77 0
81 88 124 0
24 30 -100 0
4 66 -132 0
48 -77 141 0
-124 160 -173 0
29 -97 -145 0
-57 86 157 0
25 -90 -141 0
-46 -83 168 0
4 -32 -45 0
-48 82 106 0
85 121 -166 0
-2 -39 -150 0
7 -135 -143 0
22 63 167 0
43 -80 -86 0
-96 150 -159 0
58 -167 172 0
5 -19 175 0
-57 148 -156 0
-4 5 -15 0
-40 59 141 0
-35 -72 149 0
-47 -50 70 0
28 -55 -163 0
-9 112 -136 0
-6 -39 -78 0
-66 -132 -158 0
-18 22 -36 0
13 105 158 0
-25 -59 -78 0
51 59 -159 0
-131 138 -165 0
