c F1 random 3-CNF cnfgen RandomKCNF(3,125,533,seed=15) m/n=4.26
p cnf 125 533
2 27 124 0
3 -8 113 0
-15 -44 -60 0
30 -34 -45 0
-29 40 -119 0
54 -63 -108 0
-41 -57 73 0
63 121 123 0
23 -69 -79 0
20 110 -114 0
-7 -10 60 0
-23 70 122 0
-22 -40 -106 0
44 -57 -112 0
-15 -19 -87 0
2 -34 108 0
6 -58 115 0
-64 -73 106 0
8 -61 65 0
-76 -97 100 0
-2 -8 -79 0
-8 -45 -80 0
-4 -71 106 0
-86 -115 118 0
-19 -32 -33 0
-32 -88 -117 0
1 -46 78 0
23 -83 -110 0
110 -112 115 0
-41 44 -59 0
75 101 119 0
60 84 -91 0
30 -48 52 0
-88 -91 -107 0
4 -35 -44 0
8 24 60 0
27 -33 83 0
30 42 -114 0
29 -54 95 0
-23 -62 -65 0
22 -56 -77 0
57 119 -125 0
43 52 116 0
-59 79 -87 0
-58 -60 -114 0
52 57 -104 0
-58 -62 117 0
28 -29 109 0
-52 -88 -90 0
-23 -33 120 0
39 -89 114 0
-34 74 -119 0
31 -66 85 0
32 -84 -102 0
-29 -37 -79 0
-96 104 -122 0
-46 -49 -103 0
13 -43 86 0
87 95 123 0
-68 -89 90 0
-31 33 64 0
-63 103 108 0
-72 120 122 0
8 34 -99 0
-43 -51 -109 0
-47 54 -84 0
96 -108 114 0
-22 86 118 0
8 -12 -80 0
-20 26 46 0
-7 45 -67 0
4 -19 -65 0
19 -29 89 0
-29 -93 -102 0
7 -16 -99 0
41 -117 123 0
2 -67 -121 0
-19 -97 124 0
49 68 -80 0
22 45 80 0
14 38 48 0
-38 75 -113 0
3 32 -90 0
-11 55 -62 0
-8 72 -101 0
43 77 -85 0
-47 -57 -89 0
9 19 36 0
9 -28 52 0
28 -46 56 0
-55 71 93 0
1 19 -97 0
-24 -41 125 0
15 -91 122 0
101 104 -117 0
-37 -39 -71 0
59 108 112 0
-40 -43 -49 0
-23 -40 68 0
1 -48 -49 0
33 82 124 0
-9 119 -125 0
-30 66 107 0
19 24 -97 0
-26 99 -109 0
78 115 122 0
67 79 115 0
33 78 -116 0
17 38 118 0
41 76 95 0
19 -34 69 0
27 -48 69 0
7 9 -113 0
67 75 -98 0
22 65 -112 0
-15 -23 103 0
59 -75 -92 0
-18 -30 49 0
36 -39 -80 0
-45 -64 -119 0
-64 85 120 0
-43 -65 -80 0
38 -43 -73 0
34 -53 59 0
-4 18 -52 0
-29 -88 -123 0
-25 -106 119 0
31 103 107 0
-41 44 80 0
62 -66 -120 0
84 -91 96 0
2 83 -112 0
31 -53 108 0
24 -106 121 0
14 -72 -116 0
31 78 -109 0
66 107 -124 0
59 -65 -95 0
-73 -87 -104 0
5 10 33 0
-5 71 120 0
33 57 -99 0
35 -81 110 0
-103 114 117 0
-23 -29 -82 0
34 -76 -91 0
-40 66 -87 0
-13 34 56 0
21 52 -73 0
-43 55 -114 0
52 -113 121 0
59 66 -93 0
54 -88 119 0
1 23 -99 0
27 -60 124 0
62 97 104 0
-28 46 98 0
-8 29 95 0
-28 88 -117 0
-31 79 96 0
4 50 -122 0
38 115 119 0
-18 -44 64 0
-16 63 90 0
-59 64 124 0
19 58 -63 0
-18 23 -67 0
-63 98 -122 0
-51 67 -86 0
-2 38 -76 0
-44 51 109 0
6 -65 -108 0
-83 98 103 0
34 91 -112 0
47 -79 -97 0
4 -17 115 0
45 -88 -109 0
27 -114 117 0
36 57 108 0
-9 -82 119 0
-7 -56 114 0
-28 29 -35 0
-29 -33 -85 0
10 39 -43 0
13 -33 113 0
23 47 120 0
35 87 88 0
42 -101 -123 0
-12 -63 70 0
6 -99 114 0
-22 -39 72 0
-64 -77 -78 0
16 -120 125 0
19 30 103 0
55 -83 -97 0
29 39 78 0
21 37 104 0
-12 -31 61 0
19 -45 -121 0
-29 72 118 0
-44 60 -88 0
-35 75 -114 0
-10 19 -21 0
10 -50 105 0
-2 12 104 0
-15 33 -35 0
-68 86 118 0
-6 34 -123 0
-35 -46 -49 0
-13 91 118 0
-2 21 -116 0
93 -95 -103 0
-52 74 -78 0
-38 96 123 0
77 -107 -124 0
8 -81 83 0
78 -96 116 0
55 -84 -117 0
-72 90 -114 0
11 -68 -80 0
-26 89 -92 0
-24 71 -75 0
29 -42 79 0
-31 46 57 0
-8 -9 101 0
-50 66 -123 0
41 67 -88 0
2 -76 104 0
21 -40 -93 0
-27 56 109 0
5 21 121 0
-55 -58 91 0
-45 60 -76 0
-13 -61 -102 0
-32 -77 105 0
-9 -21 31 0
-40 51 80 0
-2 86 -113 0
-10 -82 115 0
-28 45 114 0
36 -108 -115 0
-73 -103 -125 0
-6 -55 97 0
42 60 -76 0
22 -53 113 0
-31 46 90 0
-17 -70 -105 0
6 35 -119 0
-44 -55 -65 0
11 -102 123 0
-17 -28 -56 0
-52 74 -93 0
-6 70 -73 0
45 -51 105 0
-16 52 -99 0
-2 7 38 0
99 -109 116 0
-11 23 113 0
-50 -86 -99 0
-3 -98 -108 0
16 -32 -58 0
1 111 115 0
13 -90 -93 0
-7 17 -44 0
-87 -112 115 0
-83 -98 111 0
41 -64 -71 0
15 61 -119 0
-43 -61 120 0
12 -20 -92 0
53 -92 117 0
42 -62 78 0
-22 77 82 0
25 43 106 0
45 -73 120 0
70 -78 -123 0
-11 -51 79 0
106 -117 -120 0
-19 50 -115 0
-58 72 -110 0
63 83 -104 0
-2 20 64 0
35 49 -103 0
-18 67 95 0
-31 38 -94 0
14 23 83 0
9 35 -90 0
-70 102 112 0
-7 -63 -101 0
-12 14 -54 0
30 71 -121 0
-15 82 -102 0
52 83 -123 0
-71 -97 121 0
-6 -84 -121 0
-1 57 -109 0
23 -26 -91 0
-56 -76 -96 0
9 -105 -119 0
6 -61 74 0
56 83 -117 0
-61 -108 -111 0
-18 -38 63 0
10 -12 -19 0
28 -87 -105 0
34 -39 -97 0
-20 -74 93 0
-1 6 -117 0
65 -97 103 0
23 -29 -34 0
-26 -91 122 0
-96 -102 110 0
17 58 61 0
-59 83 91 0
-4 -17 68 0
35 55 -109 0
-116 119 120 0
8 19 -63 0
-14 -50 -76 0
-23 24 -29 0
31 112 120 0
-23 69 84 0
-65 -87 -98 0
16 98 103 0
-28 88 -100 0
-27 -70 -114 0
-15 -60 -92 0
8 -72 79 0
26 -28 -111 0
16 -51 89 0
78 -112 -124 0
14 24 124 0
-25 95 124 0
47 79 -107 0
-1 -21 52 0
28 -34 -120 0
-66 -72 -74 0
25 28 -43 0
27 -48 -111 0
-50 -76 114 0
35 37 -64 0
-37 -59 109 0
36 57 109 0
3 -17 114 0
47 -73 114 0
-62 100 -101 0
-38 -72 -78 0
11 41 49 0
61 74 81 0
17 66 -88 0
-11 -21 74 0
-54 75 123 0
62 114 125 0
-39 -92 112 0
-18 -102 111 0
44 -50 75 0
-71 -72 92 0
27 61 111 0
-58 66 119 0
37 -66 90 0
51 -98 107 0
-8 25 91 0
-18 -51 53 0
-39 47 67 0
-15 23 -109 0
68 83 114 0
39 44 -96 0
-21 -50 -53 0
-3 -36 -80 0
-8 23 106 0
-50 75 107 0
5 66 113 0
-3 55 -125 0
-34 -108 125 0
5 -35 -124 0
-41 61 79 0
24 -39 -87 0
-7 -23 90 0
28 97 -116 0
-33 -91 115 0
-49 110 123 0
-29 63 -83 0
45 -56 -95 0
23 -103 -125 0
-16 80 -95 0
-44 48 -61 0
22 67 -87 0
-46 -53 -70 0
14 39 -70 0
-45 107 -125 0
-58 60 -72 0
22 -46 55 0
31 66 114 0
73 78 -118 0
17 35 -65 0
17 59 91 0
42 -76 86 0
75 101 116 0
15 -22 -34 0
21 64 -92 0
40 -41 -73 0
21 67 76 0
13 32 118 0
51 -97 103 0
-20 -65 71 0
-31 -80 -110 0
2 19 -115 0
-44 75 -77 0
-34 -38 -105 0
-33 87 -105 0
-10 55 91 0
-7 -40 -112 0
1 -76 -118 0
-65 88 96 0
-27 -38 -101 0
-19 -49 82 0
17 31 117 0
-36 114 -119 0
-20 32 46 0
25 59 -80 0
4 119 -125 0
49 51 65 0
-46 -54 -98 0
-7 -9 -122 0
4 17 -123 0
-23 -30 -48 0
-58 -70 -72 0
-23 -97 -124 0
-23 -71 92 0
-27 48 -108 0
-5 28 101 0
24 67 -74 0
57 74 123 0
20 -25 -68 0
8 -92 110 0
-10 -28 -32 0
33 -73 88 0
26 44 -57 0
86 -99 112 0
-28 -64 65 0
45 46 98 0
-50 102 107 0
-5 -50 -60 0
-48 49 -96 0
38 44 66 0
23 38 -73 0
15 76 109 0
35 49 -114 0
19 -26 -33 0
30 49 51 0
21 31 -38 0
-60 -81 114 0
-39 49 -55 0
14 -28 81 0
17 75 100 0
11 -40 -97 0
3 -18 -77 0
-27 52 107 0
26 -58 -75 0
27 46 88 0
-9 -46 -104 0
-50 -89 98 0
23 28 -31 0
-42 -94 109 0
-63 112 124 0
11 -18 -19 0
20 29 56 0
5 -24 -80 0
-24 -74 121 0
-32 -89 -123 0
-42 54 74 0
40 -44 -75 0
-6 7 -50 0
-5 -21 -117 0
19 59 101 0
15 93 -123 0
44 -101 125 0
54 55 -92 0
-13 -18 80 0
-6 23 72 0
-56 -83 87 0
2 46 -55 0
-19 -94 -123 0
-35 74 77 0
57 -77 -85 0
64 -71 -77 0
72 87 -116 0
71 83 -124 0
-6 -13 -104 0
-13 -82 87 0
-95 108 -121 0
-41 111 112 0
-2 59 -72 0
-1 16 -111 0
15 35 123 0
-27 36 -120 0
-29 -38 55 0
91 -102 118 0
-1 5 116 0
-51 -106 -122 0
-49 61 109 0
-6 -30 -96 0
27 41 -121 0
7 -11 -88 0
-24 33 74 0
-22 -24 -79 0
-38 42 -77 0
-29 -58 -68 0
41 -52 -114 0
3 25 114 0
-51 -66 70 0
-15 -47 54 0
-2 -36 87 0
-59 67 -125 0
-28 77 -89 0
-10 -94 -102 0
19 -42 44 0
-6 -40 -50 0
-5 -7 10 0
2 -22 -61 0
-43 87 -119 0
-7 -21 -117 0
-10 100 -117 0
-56 -104 113 0
-51 88 100 0
40 -43 81 0
-12 40 -85 0
11 -12 -77 0
34 54 98 0
24 93 101 0
17 -57 124 0
-15 39 42 0
-43 -46 77 0
