c F1 random 3-CNF cnfgen RandomKCNF(3,75,320,seed=5) m/n=4.26
p cnf 75 320
33 -46 68 0
-7 -15 21 0
14 49 70 0
-24 36 53 0
17 18 57 0
22 -27 -28 0
26 27 -70 0
-3 39 47 0
-9 34 -43 0
-9 -40 -46 0
24 61 -62 0
3 -46 -52 0
-2 49 75 0
-16 -26 -32 0
33 -60 -68 0
5 -12 -56 0
19 -36 -44 0
11 -23 -40 0
-7 11 21 0
-33 45 59 0
5 43 64 0
-14 -22 53 0
8 -38 54 0
-59 -63 -67 0
38 52 -61 0
-23 64 69 0
-35 63 -66 0
-5 -40 -47 0
23 -38 -44 0
-36 -42 -60 0
-36 45 -53 0
43 47 67 0
37 -47 62 0
-54 -67 75 0
21 26 57 0
6 29 61 0
-15 24 41 0
-45 54 60 0
-1 -31 -48 0
-15 53 -71 0
-13 -38 -70 0
-17 -53 54 0
-21 49 73 0
-1 12 -45 0
-19 -70 -73 0
-29 -56 -64 0
-21 -34 -50 0
-3 -41 -54 0
4 -19 62 0
-6 18 -38 0
36 -69 72 0
32 -35 -63 0
61 64 67 0
-37 -39 69 0
45 47 60 0
33 59 71 0
-55 -62 -74 0
26 -38 60 0
-37 -56 75 0
-22 -62 71 0
55 70 75 0
9 -11 -35 0
9 52 63 0
-15 -18 29 0
21 24 53 0
14 -49 72 0
16 52 -74 0
-12 -41 -63 0
8 -18 38 0
9 -34 -71 0
-18 -31 -67 0
-3 17 23 0
-12 16 -65 0
42 60 -62 0
7 20 55 0
-18 -28 63 0
-38 -43 45 0
-38 46 56 0
9 24 51 0
-6 -24 -26 0
-1 -55 -61 0
13 25 60 0
48 -50 61 0
21 36 -37 0
-5 45 48 0
20 -59 -61 0
21 31 59 0
-11 -30 -74 0
-24 47 -60 0
21 23 -31 0
1 -35 -60 0
-5 6 22 0
-12 31 63 0
7 51 -64 0
40 53 58 0
23 52 66 0
12 14 41 0
-3 -57 -70 0
49 67 -74 0
29 58 -71 0
-12 -34 62 0
-11 17 69 0
-32 55 -74 0
-7 -26 32 0
-10 41 -54 0
-4 17 74 0
7 -35 55 0
9 40 -42 0
37 42 64 0
4 -7 -16 0
-3 30 -34 0
26 43 46 0
13 35 -68 0
-16 -55 -56 0
30 -56 60 0
-21 61 69 0
7 17 54 0
-31 -62 -74 0
26 -28 -36 0
31 46 -47 0
19 45 -52 0
5 -13 49 0
-26 -37 42 0
2 26 -49 0
-3 -4 -41 0
52 58 -70 0
3 -47 -67 0
-4 -10 -12 0
2 31 36 0
39 -45 72 0
-16 -31 44 0
23 -49 -50 0
-14 42 71 0
-28 38 40 0
10 24 -53 0
-30 54 -55 0
-11 36 -54 0
-4 15 -20 0
-14 25 42 0
18 -63 67 0
-30 50 60 0
15 -21 25 0
-14 -48 74 0
-14 71 75 0
-26 27 -42 0
-11 -32 52 0
16 -17 -48 0
-10 44 63 0
-26 -46 62 0
12 -38 -64 0
-9 44 67 0
31 35 -54 0
-13 62 -71 0
-12 32 58 0
1 19 -47 0
50 59 72 0
-2 25 -57 0
3 61 -66 0
5 56 -65 0
49 53 -56 0
-19 25 -39 0
28 -51 54 0
37 47 61 0
10 -49 59 0
-3 -26 64 0
-10 31 60 0
-11 24 -55 0
-20 28 -43 0
-14 -15 -52 0
-62 71 75 0
3 -34 70 0
8 31 62 0
30 -54 65 0
-5 -31 65 0
-39 57 72 0
-48 -68 -73 0
-10 22 39 0
-13 -50 -68 0
18 -45 59 0
27 59 73 0
-15 -19 -44 0
19 -36 -62 0
4 33 -50 0
18 -23 57 0
-2 6 59 0
-16 53 68 0
6 -9 -12 0
-9 68 -70 0
-34 -40 59 0
-42 -64 67 0
28 -34 41 0
-11 -20 -46 0
-18 23 -26 0
3 -45 -74 0
64 65 73 0
-33 -54 71 0
-26 -34 -55 0
12 15 -44 0
-7 23 -75 0
-13 34 -53 0
-9 -38 44 0
9 24 -39 0
14 54 -60 0
-4 70 -73 0
-10 47 60 0
15 32 -69 0
-15 -35 -56 0
6 -27 66 0
25 42 -68 0
-7 -40 -60 0
-22 -33 59 0
18 -26 59 0
18 -22 -32 0
21 -60 -62 0
7 46 70 0
-44 -62 -74 0
-8 -18 -37 0
17 38 48 0
-21 -40 -63 0
-44 60 68 0
-1 -64 -74 0
6 -30 69 0
22 -26 65 0
-30 50 54 0
-9 -31 -75 0
-13 29 -48 0
-1 19 -68 0
2 -14 -25 0
38 61 -62 0
3 27 -57 0
-13 26 69 0
1 -29 51 0
-25 39 50 0
25 -28 -50 0
-4 -19 53 0
-12 -30 -35 0
-25 26 42 0
21 -47 -69 0
19 24 -37 0
-1 -14 71 0
20 48 -63 0
-34 -62 -74 0
-22 51 55 0
14 -38 62 0
11 -13 -41 0
23 -42 45 0
-6 -11 67 0
-20 -39 -57 0
10 -67 74 0
-10 -39 49 0
21 -45 55 0
-14 46 -60 0
5 42 -58 0
-34 40 -59 0
-26 52 53 0
9 -42 -57 0
14 -23 54 0
6 40 73 0
-11 37 38 0
38 -56 -59 0
-5 -23 -60 0
-12 -15 -57 0
-15 -50 52 0
-19 -59 70 0
-2 -23 -53 0
-20 25 -56 0
5 -25 49 0
64 65 -75 0
13 44 45 0
-5 -26 64 0
-6 29 -43 0
3 5 59 0
16 32 -40 0
33 -44 -53 0
9 -23 51 0
30 40 -61 0
-13 37 -74 0
1 19 59 0
-31 41 48 0
-42 -51 -67 0
-28 38 75 0
26 -30 75 0
-27 30 -31 0
18 -22 27 0
33 40 -57 0
-13 45 -70 0
2 -22 -72 0
36 44 -61 0
25 71 -72 0
24 38 -70 0
-21 36 -52 0
15 32 -40 0
33 -49 -57 0
-20 52 -63 0
-6 -26 65 0
-21 48 56 0
-30 -37 54 0
-60 62 63 0
19 29 -42 0
2 60 -70 0
6 -15 -18 0
-3 -16 -24 0
-21 -29 64 0
2 41 64 0
-33 36 71 0
-9 -57 73 0
34 -43 -54 0
1 16 -41 0
31 -37 46 0
33 -62 72 0
-13 -14 19 0
-29 41 70 0
50 55 -56 0
12 51 -68 0
40 60 -72 0
36 -39 -71 0
-1 -59 -67 0
13 40 -67 0
14 -15 75 0
47 61 67 0
