c F1 random 3-CNF cnfgen RandomKCNF(3,100,426,seed=13) m/n=4.26
p cnf 100 426
34 38 88 0
29 83 94 0
-28 69 -96 0
17 -78 88 0
-11 34 -58 0
-30 -46 -63 0
41 -82 -84 0
58 -71 -89 0
23 38 -69 0
-33 -48 -59 0
17 63 74 0
17 -47 -90 0
-1 50 93 0
-19 -64 90 0
-53 -94 95 0
48 81 -91 0
6 -28 -80 0
24 25 38 0
9 -22 -55 0
12 68 -83 0
-16 39 -53 0
5 -47 -67 0
-20 64 72 0
5 38 -49 0
-28 -55 88 0
-32 -46 99 0
45 -55 -83 0
9 12 -59 0
-25 -58 62 0
38 56 68 0
15 -21 -48 0
38 -50 78 0
-13 -47 63 0
38 45 -69 0
22 70 95 0
-12 -20 88 0
28 34 45 0
57 -67 98 0
7 -15 -71 0
-20 -39 70 0
4 7 48 0
35 -68 -92 0
-21 80 87 0
-13 -40 -52 0
-20 35 58 0
-34 36 69 0
-21 -48 -54 0
-20 60 -75 0
25 61 -92 0
17 23 65 0
11 40 -64 0
3 -4 69 0
-7 -84 94 0
3 63 -78 0
-2 -65 68 0
-7 68 78 0
-13 -19 48 0
45 -88 93 0
18 33 92 0
8 70 -83 0
-46 -49 74 0
-36 -57 68 0
-27 42 -88 0
-4 -39 -54 0
62 73 -96 0
-1 -19 28 0
38 56 72 0
15 84 -96 0
28 41 81 0
7 24 -90 0
-23 73 -85 0
15 -20 66 0
67 96 -100 0
39 -40 -54 0
-71 -75 -92 0
28 92 96 0
-7 16 97 0
13 -40 -80 0
-6 14 -77 0
-30 43 62 0
12 -63 -92 0
2 18 54 0
-20 45 -55 0
-43 47 97 0
19 -21 95 0
56 -77 -99 0
-20 27 -71 0
-44 -51 55 0
32 52 -72 0
-14 57 69 0
25 72 -93 0
-6 35 -64 0
-25 59 -95 0
-27 56 -99 0
29 -52 85 0
-3 -5 -90 0
17 -59 -65 0
58 76 81 0
63 82 91 0
4 -54 -90 0
5 -6 -54 0
19 20 68 0
9 -38 73 0
1 64 -86 0
9 -15 100 0
8 -25 73 0
-58 87 -93 0
77 81 82 0
67 -75 90 0
52 -53 -80 0
58 97 -99 0
31 -59 92 0
60 -93 99 0
-17 -75 85 0
-3 -57 89 0
-5 18 43 0
10 15 -47 0
60 -74 92 0
-44 71 -80 0
11 -53 98 0
16 -20 -74 0
-37 64 -88 0
-14 -25 74 0
10 -40 58 0
7 -55 -88 0
-16 27 -83 0
3 -61 84 0
38 -56 96 0
-7 55 88 0
-47 97 -99 0
62 66 93 0
8 22 -41 0
-46 52 77 0
-25 95 97 0
-14 -18 -54 0
33 -41 -72 0
30 -56 84 0
9 -14 27 0
-12 -22 87 0
-25 66 76 0
-42 -53 -88 0
-10 47 -52 0
-38 49 89 0
9 -46 -84 0
-54 75 96 0
-28 84 93 0
-16 -81 -86 0
-27 67 -87 0
57 -58 90 0
36 -37 -64 0
-44 93 99 0
12 41 -98 0
38 -47 76 0
-23 -49 -74 0
-3 13 54 0
2 -3 9 0
23 -27 59 0
56 68 -70 0
52 -75 -79 0
-9 -73 81 0
15 -62 78 0
-38 82 -94 0
-26 -64 -99 0
-35 41 -94 0
5 -71 81 0
-55 -69 -98 0
27 -50 -79 0
-2 -65 -73 0
10 55 -80 0
31 86 -95 0
-3 17 60 0
2 14 -24 0
-5 -39 94 0
30 38 -50 0
36 62 82 0
-4 14 86 0
-21 -35 -36 0
27 -30 -37 0
10 23 49 0
-60 -80 86 0
8 -11 -80 0
-13 -61 -83 0
4 -76 -100 0
-23 -38 -50 0
52 60 69 0
22 -60 100 0
19 -79 82 0
-14 -44 -83 0
-1 -2 -27 0
20 33 -66 0
29 42 91 0
-15 79 93 0
-21 53 55 0
-6 29 -53 0
-36 68 -85 0
-8 53 -82 0
-42 -83 85 0
17 -41 43 0
-23 -41 -50 0
-5 -60 -84 0
-16 73 77 0
-13 68 71 0
-6 12 -81 0
36 55 70 0
44 -64 -81 0
16 35 -78 0
17 -23 -28 0
-26 34 -41 0
8 -13 47 0
4 -75 87 0
4 -68 69 0
15 -23 32 0
9 -43 -87 0
-28 -71 74 0
-7 39 -70 0
1 -7 75 0
-10 12 -84 0
-61 62 -87 0
-17 65 -83 0
14 -59 87 0
-60 63 75 0
-7 -33 -62 0
30 -36 -66 0
-20 41 80 0
26 47 66 0
16 36 -78 0
36 -39 -76 0
-49 77 92 0
10 34 -43 0
-16 69 78 0
19 47 50 0
-1 -50 -62 0
31 -32 69 0
6 -29 -88 0
59 -62 -67 0
19 -72 -100 0
11 69 73 0
-35 -38 -79 0
20 -49 66 0
-45 60 -72 0
-41 -75 -97 0
-13 -88 -94 0
57 73 88 0
-9 23 78 0
18 22 88 0
-7 -51 -74 0
-4 -25 49 0
45 50 84 0
-48 -57 88 0
-27 29 56 0
39 94 99 0
-10 28 79 0
49 -70 -75 0
43 -48 58 0
16 75 -87 0
49 75 -97 0
51 -55 -76 0
-43 -66 -100 0
-7 67 -100 0
44 -65 -88 0
3 43 76 0
-3 45 -62 0
42 52 -90 0
-13 88 -96 0
-18 -35 -85 0
11 35 -37 0
-29 -67 -83 0
13 72 94 0
33 -59 90 0
-1 -66 86 0
-45 -55 90 0
25 65 88 0
-11 72 93 0
35 47 -78 0
21 -72 -87 0
21 77 85 0
29 -36 -52 0
-3 -36 47 0
27 48 85 0
-59 -85 86 0
-20 -31 -93 0
36 81 89 0
68 -70 96 0
22 66 -71 0
14 19 27 0
-37 52 -72 0
-4 -48 -87 0
-76 -91 92 0
-3 -8 -72 0
38 -41 52 0
-1 7 39 0
-1 -44 -93 0
-51 62 81 0
2 7 -57 0
13 57 61 0
-20 23 -99 0
-29 43 51 0
-38 59 -73 0
18 -71 -82 0
22 -43 71 0
-15 37 39 0
-54 74 -88 0
-53 69 -73 0
15 -27 64 0
-10 25 100 0
-80 -84 90 0
-50 62 95 0
40 -56 96 0
-27 52 -89 0
-8 -54 85 0
40 -49 -55 0
15 65 100 0
20 55 95 0
6 17 30 0
-38 -52 85 0
7 -58 -83 0
-22 -54 -70 0
9 25 -82 0
47 68 79 0
-16 46 55 0
9 -38 78 0
-9 17 -63 0
-4 28 -87 0
-16 -27 -59 0
-21 -34 -42 0
42 46 89 0
-11 -20 -60 0
-5 32 -41 0
-1 -55 -76 0
-13 -18 -88 0
-18 -74 96 0
7 -66 68 0
-16 44 -66 0
40 -82 94 0
20 -21 -82 0
-12 34 -42 0
20 55 -90 0
-12 -44 92 0
-51 77 79 0
16 -26 -56 0
-29 -37 -39 0
-4 32 -69 0
28 -29 89 0
-8 73 -77 0
-56 86 -95 0
-57 -63 -87 0
70 89 -98 0
27 -59 73 0
20 29 40 0
-9 -27 64 0
17 -72 -79 0
-51 -79 -95 0
14 62 82 0
-82 91 -92 0
6 -45 -71 0
-64 -83 95 0
-64 89 95 0
-5 -55 -76 0
19 -20 -99 0
-17 -64 79 0
-3 21 80 0
42 64 -86 0
2 44 99 0
-56 70 82 0
50 79 92 0
28 -65 -83 0
-33 45 -66 0
-43 65 98 0
17 18 -86 0
-35 43 67 0
36 56 64 0
7 -78 -96 0
45 -50 68 0
18 56 61 0
16 -76 -93 0
39 59 84 0
-37 -56 -86 0
69 -90 93 0
8 42 63 0
74 -91 -93 0
57 -66 -71 0
80 -94 96 0
7 -57 -66 0
-22 32 55 0
59 -88 89 0
44 52 73 0
10 -53 76 0
-18 68 -100 0
18 28 -63 0
27 -47 -98 0
-43 -75 76 0
47 -51 -56 0
41 74 77 0
-48 53 -59 0
27 42 -50 0
48 -69 -100 0
-27 -73 94 0
38 -41 -100 0
-16 -24 -70 0
4 -15 -92 0
-65 70 97 0
2 4 77 0
29 49 70 0
-53 -54 61 0
-16 58 -76 0
-3 16 65 0
-23 88 89 0
10 11 20 0
30 -66 82 0
-3 28 32 0
42 63 98 0
2 -32 98 0
-18 -58 75 0
36 41 79 0
-23 49 -94 0
13 53 91 0
2 81 -92 0
12 -80 89 0
16 -19 -80 0
-41 -49 62 0
10 16 98 0
-89 -91 -92 0
-9 22 -59 0
5 35 91 0
-16 -18 20 0
-5 34 67 0
