c F1 random 3-CNF cnfgen RandomKCNF(3,150,639,seed=19) m/n=4.26
p cnf 150 639
12 -31 -134 0
75 -136 150 0
-67 84 -106 0
6 80 146 0
-30 117 139 0
-5 -26 -107 0
77 -129 147 0
28 -140 148 0
35 -36 127 0
-31 -117 -123 0
47 110 139 0
-7 97 -120 0
-33 -73 -122 0
-44 -113 119 0
-20 54 -80 0
-18 120 130 0
20 71 112 0
74 111 -120 0
18 -40 -110 0
-11 -140 146 0
68 82 -131 0
-17 -51 54 0
-67 -83 -132 0
16 58 -123 0
-26 -30 -132 0
84 -85 -95 0
-25 116 -136 0
-24 -82 -112 0
-12 68 76 0
9 -44 101 0
-10 24 132 0
63 -84 139 0
38 -64 75 0
-19 80 -116 0
27 -62 -67 0
-57 -143 144 0
32 113 -150 0
-33 -99 -134 0
-13 116 135 0
63 -80 -143 0
35 -59 137 0
-23 -72 123 0
1 -62 148 0
-42 -125 -134 0
6 36 -109 0
-5 69 -126 0
-19 47 140 0
-13 19 23 0
-24 -98 -126 0
31 39 -72 0
-30 -47 -87 0
28 120 139 0
-70 99 148 0
19 -126 138 0
-43 46 48 0
27 -49 -65 0
-19 -54 138 0
39 82 134 0
-68 79 109 0
-7 -104 -129 0
-100 116 -147 0
-34 138 140 0
56 61 -101 0
-38 102 -123 0
11 -38 141 0
86 -113 125 0
-73 -79 -85 0
6 100 -103 0
4 43 -49 0
-20 -90 -135 0
-104 -105 137 0
-18 91 150 0
-39 -74 -93 0
-47 84 -87 0
71 -119 132 0
9 83 -128 0
-35 -104 -141 0
46 -138 142 0
44 -119 -150 0
-2 80 -95 0
35 -46 134 0
-66 -71 -91 0
-19 -36 142 0
-74 77 -108 0
-59 -88 118 0
62 -95 -133 0
-18 63 117 0
-68 103 111 0
29 -30 88 0
-37 -100 -137 0
-40 -62 118 0
-29 -34 138 0
24 132 -136 0
-85 137 -141 0
-46 -50 62 0
-20 -113 -123 0
58 115 -150 0
-39 -63 -135 0
2 -77 -113 0
49 77 -118 0
-128 -135 -144 0
36 -81 145 0
6 94 124 0
101 -102 107 0
14 -23 -93 0
-27 94 -130 0
-7 -24 114 0
27 78 -82 0
29 -51 -80 0
-23 136 -143 0
4 6 -73 0
25 106 125 0
-37 -53 -139 0
-76 -96 141 0
-17 97 119 0
-50 -54 106 0
-1 94 -106 0
31 -46 -84 0
-33 -34 -51 0
-67 80 122 0
-58 60 -102 0
-95 96 101 0
-35 -76 77 0
25 -54 -60 0
9 -53 -83 0
-56 73 77 0
1 -90 117 0
-75 98 -149 0
-1 -70 107 0
-16 -22 -51 0
48 55 -90 0
28 88 106 0
-5 56 -124 0
46 -114 -131 0
-54 112 138 0
-35 56 -79 0
-35 122 133 0
-75 -111 132 0
101 140 -142 0
46 -47 64 0
-38 70 -92 0
46 -113 117 0
22 53 -112 0
-2 4 -23 0
11 -77 -102 0
-28 -38 -106 0
-4 -31 139 0
-63 -72 -91 0
25 115 118 0
-58 136 -137 0
-4 -28 -116 0
18 -69 149 0
-19 -87 116 0
-41 86 149 0
-6 36 65 0
-75 -115 126 0
-42 -116 -140 0
-31 -88 -145 0
-34 36 -118 0
-9 21 -131 0
-5 131 141 0
-70 -88 119 0
-77 115 -117 0
33 -85 -122 0
5 -57 -94 0
-1 -14 -74 0
34 -42 -104 0
10 -33 -143 0
2 -24 120 0
11 -91 99 0
-48 -52 141 0
-33 55 -60 0
-42 63 -119 0
71 117 123 0
67 80 -138 0
33 -37 -82 0
-75 -99 135 0
-96 -113 140 0
31 111 135 0
36 -95 -140 0
-4 27 -121 0
15 -124 -135 0
-67 95 -147 0
-23 -50 76 0
-60 -108 -117 0
77 100 105 0
1 -55 140 0
31 114 124 0
36 -70 -91 0
-29 -32 -129 0
-64 -87 -102 0
-38 -145 146 0
-46 128 -135 0
-8 -102 150 0
17 -90 131 0
66 119 130 0
-25 145 -149 0
47 74 -141 0
52 75 -128 0
-112 -136 148 0
-1 -9 148 0
45 -63 146 0
4 -42 -112 0
35 36 -97 0
-12 53 80 0
107 111 -116 0
-110 122 -127 0
42 138 147 0
-1 -146 -149 0
-5 66 -95 0
62 110 147 0
39 80 -124 0
-62 146 -150 0
-20 -57 148 0
-5 -57 -78 0
-10 51 121 0
-5 -47 -71 0
33 -83 -143 0
7 -68 85 0
-4 79 115 0
27 -97 149 0
105 -107 -149 0
-77 -122 -131 0
-14 -105 113 0
1 -67 147 0
-10 41 -46 0
-15 -89 -110 0
-74 -96 114 0
38 104 135 0
-23 50 145 0
19 -67 114 0
-18 -88 131 0
-14 -82 -97 0
23 110 118 0
-23 75 -125 0
-111 125 126 0
39 -60 71 0
33 -41 125 0
-15 44 -126 0
22 -91 141 0
21 -79 103 0
41 -55 -126 0
12 -49 66 0
102 117 -122 0
31 90 118 0
25 122 139 0
47 107 117 0
7 19 27 0
-34 76 148 0
-36 68 111 0
58 136 139 0
-33 34 -55 0
-64 -93 -148 0
12 41 -118 0
11 77 -107 0
41 -128 -138 0
67 107 -143 0
18 39 61 0
-26 43 -111 0
-21 -59 -69 0
24 -48 -144 0
18 -48 67 0
44 -64 -138 0
-26 49 66 0
-15 -38 77 0
-26 -53 -73 0
-19 -103 -123 0
-41 63 -64 0
4 -19 -147 0
38 -87 -129 0
56 -58 131 0
-28 -36 -150 0
-53 102 -111 0
33 -61 137 0
-50 53 -83 0
37 -39 66 0
-81 -108 112 0
-55 -62 69 0
-49 67 120 0
-44 128 -144 0
28 78 112 0
1 112 148 0
39 -110 -150 0
-62 87 -118 0
-38 -52 65 0
-39 49 76 0
24 -54 132 0
40 -48 129 0
-32 51 -124 0
17 33 139 0
-45 -51 -78 0
-65 116 129 0
36 -62 -95 0
-30 -55 131 0
-70 -120 -140 0
37 84 107 0
66 88 -138 0
-41 -121 -149 0
-40 -90 -112 0
16 -92 -103 0
38 125 -143 0
-22 -46 -109 0
46 53 -135 0
-31 123 -142 0
89 96 100 0
44 84 121 0
-42 -81 83 0
18 -81 -98 0
-24 -53 144 0
-30 74 147 0
40 -47 71 0
28 -74 112 0
-54 -117 -132 0
73 78 102 0
72 127 128 0
-98 -112 123 0
-35 -122 147 0
39 56 -127 0
1 -17 -43 0
-32 94 144 0
37 107 117 0
-25 30 62 0
105 -117 138 0
-9 70 -76 0
5 119 -122 0
86 -94 -113 0
-29 -45 65 0
-35 -123 126 0
-36 50 -52 0
-40 -55 108 0
17 -25 -55 0
63 82 -112 0
-31 88 -97 0
-109 135 -144 0
29 32 -33 0
77 126 135 0
14 -42 104 0
-94 -133 139 0
2 84 91 0
-14 -46 -70 0
-81 146 -147 0
3 -37 -129 0
36 60 62 0
-40 -63 72 0
-28 -73 135 0
-54 -55 -120 0
38 74 81 0
-50 51 -89 0
80 116 -130 0
-84 -87 132 0
-31 -59 89 0
-24 -81 -139 0
19 30 56 0
-86 -87 114 0
62 72 -93 0
-34 51 143 0
-54 143 -148 0
-34 -97 115 0
71 -113 127 0
23 43 97 0
49 127 149 0
9 84 -138 0
-102 -103 119 0
-29 -63 148 0
30 109 138 0
-7 44 -109 0
13 -54 127 0
-10 -36 -76 0
-23 28 126 0
23 -107 -135 0
7 31 41 0
-43 -111 137 0
43 68 -115 0
-3 23 126 0
-90 113 -150 0
-16 118 -148 0
-6 -40 68 0
-44 -93 -100 0
-7 -61 110 0
20 52 119 0
17 -21 -40 0
-10 -16 -27 0
27 -43 68 0
43 -67 94 0
9 24 -150 0
-48 82 150 0
83 -113 130 0
22 71 86 0
3 -117 118 0
-44 -73 88 0
-70 -91 -105 0
29 -119 -148 0
-10 -21 29 0
13 33 -124 0
13 29 107 0
-45 -49 -57 0
8 -51 -126 0
-88 104 -109 0
54 128 -146 0
5 -71 -86 0
-5 -38 -64 0
-90 -123 131 0
-7 97 115 0
5 35 141 0
5 -41 132 0
-43 47 -80 0
-59 -84 135 0
-82 121 -145 0
-65 70 -138 0
-26 -119 -127 0
-5 91 148 0
68 -114 -144 0
10 -128 136 0
14 -27 45 0
42 75 80 0
13 109 -118 0
18 -23 126 0
45 -121 124 0
-4 31 122 0
-81 -134 -142 0
3 -8 31 0
-36 -40 -146 0
-82 114 120 0
-94 -111 -132 0
-1 -141 -144 0
-7 93 115 0
-13 -119 -145 0
30 92 -148 0
-44 75 -110 0
-50 -96 -118 0
49 -104 -121 0
9 14 61 0
22 60 85 0
-52 53 54 0
31 -89 112 0
81 85 95 0
-91 139 -146 0
-9 -24 -124 0
23 -29 -132 0
-66 -69 148 0
-14 -121 124 0
49 -139 -144 0
-101 123 -136 0
97 -131 -140 0
16 -51 81 0
-26 -60 84 0
87 -112 -130 0
51 -97 116 0
5 -21 -61 0
1 13 -90 0
31 -78 -131 0
-63 -67 115 0
-57 -65 -80 0
-24 123 -146 0
6 -12 -16 0
53 138 142 0
24 29 37 0
-2 37 -144 0
72 98 130 0
65 77 113 0
-37 49 126 0
107 -112 -140 0
-26 30 75 0
-14 -19 49 0
-33 -62 75 0
30 -55 92 0
74 98 -112 0
-21 -57 100 0
24 -43 -91 0
-30 85 102 0
22 -130 144 0
-7 9 126 0
-23 -101 -134 0
37 55 124 0
-48 -93 147 0
77 -122 -146 0
34 -58 -62 0
20 71 -103 0
-7 -95 116 0
46 -66 -98 0
5 -99 -146 0
43 46 112 0
-77 -134 145 0
-51 69 148 0
-31 90 -107 0
24 -60 67 0
45 -100 146 0
31 55 114 0
8 -22 -88 0
-6 -59 90 0
5 6 -68 0
32 -34 136 0
49 72 -86 0
40 135 136 0
40 82 95 0
-97 113 120 0
48 -71 80 0
-9 50 -125 0
-43 -52 94 0
62 93 -124 0
22 -30 -52 0
31 -119 126 0
-31 76 102 0
-20 87 -105 0
-33 -48 67 0
-34 -70 139 0
86 -99 -103 0
-40 52 87 0
39 64 106 0
-5 -13 44 0
-53 86 -130 0
30 54 61 0
67 89 143 0
-8 74 -125 0
-3 -37 -79 0
7 -84 119 0
6 55 -120 0
-67 -93 98 0
-4 72 140 0
22 -78 135 0
-44 89 -136 0
-22 24 -145 0
-29 63 -78 0
11 -105 -129 0
50 -81 102 0
-98 -112 -148 0
-123 -132 139 0
-50 115 -118 0
-3 10 65 0
17 78 -132 0
31 73 124 0
-44 -87 -107 0
1 38 -150 0
44 -72 -148 0
60 88 122 0
54 126 -131 0
27 -94 141 0
22 -96 113 0
33 -85 101 0
19 -33 -102 0
83 -95 -125 0
-96 -128 -141 0
56 116 -119 0
50 58 -97 0
24 75 134 0
5 31 -53 0
-81 83 95 0
44 88 -93 0
49 -52 67 0
-22 -56 68 0
3 50 -126 0
30 109 -129 0
-89 116 -145 0
-20 -21 112 0
-4 -16 -133 0
-23 52 -143 0
13 84 -92 0
42 -43 -59 0
-9 -73 -102 0
1 -44 55 0
13 -118 -129 0
-15 -121 -139 0
2 51 130 0
45 63 66 0
21 -53 132 0
-2 37 102 0
45 -72 -140 0
-64 -73 82 0
-43 -52 -141 0
19 -89 115 0
-28 -95 -144 0
41 -65 144 0
81 -104 -149 0
-47 -94 -130 0
-19 107 136 0
-7 -64 -110 0
-47 77 90 0
-17 64 149 0
7 16 -113 0
112 125 140 0
58 100 -106 0
3 4 57 0
17 -46 100 0
27 -55 -69 0
-43 -88 -132 0
58 -80 135 0
-98 -137 -138 0
-18 -64 71 0
88 -108 -139 0
17 -55 -144 0
-21 31 -41 0
26 -65 -76 0
9 -58 -129 0
62 -104 146 0
-5 14 19 0
-17 46 -69 0
-35 78 133 0
-66 98 -139 0
24 58 71 0
-58 98 100 0
21 -44 116 0
-24 -50 114 0
-56 70 90 0
43 -122 -132 0
-26 -28 -58 0
4 -41 73 0
-41 52 -120 0
-45 -47 78 0
22 139 142 0
59 -73 -95 0
-33 -130 136 0
8 55 129 0
44 81 149 0
-47 72 -108 0
5 -8 144 0
-43 -99 -124 0
19 24 -27 0
22 -87 -101 0
29 -60 -118 0
56 -78 105 0
-22 76 -87 0
-22 115 -143 0
13 -88 -147 0
32 105 126 0
83 -111 149 0
29 -69 -136 0
22 33 -79 0
-33 115 142 0
-10 -22 -116 0
-76 -90 126 0
21 -111 121 0
-29 102 140 0
5 13 22 0
42 105 -120 0
-30 71 105 0
-82 -121 128 0
-25 121 142 0
23 85 116 0
-8 50 77 0
