c F1 random 3-CNF cnfgen RandomKCNF(3,125,533,seed=13) m/n=4.26
p cnf 125 533
34 38 88 0
29 83 112 0
-28 69 -109 0
17 -88 108 0
-11 -102 -112 0
-18 -102 122 0
-63 -97 -115 0
41 -82 -84 0
58 -71 -89 0
23 38 -69 0
-33 -48 -59 0
-17 74 114 0
-25 90 114 0
-56 -81 84 0
55 93 120 0
-64 -90 104 0
-53 -94 95 0
-81 91 110 0
28 64 -93 0
-73 75 -94 0
22 25 101 0
9 -55 -83 0
12 68 -83 0
-16 39 -53 0
47 67 -110 0
-20 43 64 0
-5 38 103 0
34 -55 -88 0
31 -46 -76 0
-27 45 -83 0
12 51 59 0
40 -84 -100 0
43 -50 -71 0
18 19 -122 0
-21 -28 -106 0
5 38 -45 0
-57 63 -75 0
17 -38 69 0
70 114 115 0
88 112 -117 0
-10 -48 120 0
7 -31 92 0
51 74 80 0
-18 -79 -121 0
-20 -70 124 0
7 48 120 0
-14 68 -92 0
55 -81 104 0
-13 -15 -40 0
20 -35 -50 0
-1 -4 -68 0
-29 -32 120 0
-98 -103 -108 0
-20 60 -75 0
61 92 107 0
62 65 106 0
-1 18 -76 0
67 74 -93 0
4 69 -123 0
20 -80 -108 0
3 29 -63 0
-2 -65 68 0
-7 68 78 0
13 -48 -118 0
-18 88 -107 0
12 33 76 0
8 14 -77 0
-46 -49 113 0
-57 -110 -120 0
16 -87 -117 0
-10 -75 -99 0
101 -105 -119 0
53 62 -73 0
-1 -19 28 0
-56 72 120 0
81 113 125 0
-9 71 -123 0
3 21 90 0
30 -56 73 0
63 103 110 0
7 45 -80 0
39 -40 -54 0
-75 -92 -104 0
28 92 96 0
-7 16 110 0
13 -40 -80 0
-6 14 -77 0
-30 43 62 0
63 92 -114 0
2 54 58 0
-20 -32 45 0
-43 46 47 0
19 -21 95 0
-77 103 -123 0
27 -53 71 0
-44 -51 -102 0
-11 32 72 0
57 -60 101 0
72 100 115 0
31 -56 -125 0
-6 55 -116 0
52 -79 109 0
-56 73 -97 0
29 -52 103 0
-3 -5 -90 0
65 -112 118 0
-63 64 125 0
-8 91 103 0
-4 15 -93 0
5 54 -62 0
64 94 103 0
93 102 106 0
-22 38 -90 0
1 78 -92 0
9 -15 100 0
25 73 -118 0
-27 -80 93 0
58 77 81 0
67 -75 121 0
52 -53 -80 0
58 97 -99 0
31 -59 92 0
60 -93 99 0
85 -101 -118 0
-3 -31 57 0
-5 -18 113 0
10 109 -115 0
11 -80 -98 0
-1 74 -92 0
-71 95 -124 0
53 98 -110 0
16 20 -74 0
-38 -75 -88 0
26 64 -105 0
-6 -10 39 0
2 -61 88 0
40 61 -79 0
-2 39 122 0
-5 -43 68 0
-18 55 -117 0
-20 -22 97 0
-39 93 111 0
13 22 41 0
-37 -46 102 0
2 -95 118 0
31 71 -94 0
-51 -57 -112 0
-9 55 -89 0
16 62 115 0
15 27 43 0
-45 84 125 0
41 66 -76 0
-53 -60 -124 0
-10 47 -73 0
-38 -89 101 0
19 -69 117 0
-43 -46 -81 0
14 -21 121 0
27 -78 -92 0
63 -67 87 0
-35 58 -111 0
-25 -37 106 0
-37 -48 88 0
6 41 120 0
-84 -97 -111 0
4 -12 -62 0
45 54 -55 0
23 31 124 0
14 31 -54 0
95 -98 124 0
56 70 -102 0
-75 79 -115 0
-9 -38 120 0
15 -62 116 0
-38 94 -110 0
64 -99 -108 0
-54 -68 -118 0
20 42 -119 0
-27 -55 -106 0
-27 79 -122 0
53 -65 -114 0
-112 118 -120 0
-7 11 71 0
10 57 -71 0
27 63 124 0
24 116 -124 0
-5 -39 110 0
30 38 -50 0
-36 82 101 0
-4 14 24 0
-21 -35 -122 0
-27 30 -46 0
10 42 49 0
-26 -69 -115 0
6 -8 -11 0
-13 -61 -83 0
4 -76 -120 0
-23 -38 -50 0
52 60 69 0
22 -60 100 0
79 82 -108 0
19 -44 -83 0
47 66 73 0
-67 -75 -96 0
20 33 -66 0
29 42 91 0
-15 79 93 0
53 -110 -112 0
28 91 -107 0
29 -60 -88 0
38 -68 85 0
-53 105 -124 0
-42 -83 85 0
-17 41 -108 0
-25 41 -97 0
44 -60 -69 0
-48 103 -119 0
6 -16 125 0
6 -30 110 0
-55 59 70 0
-28 -72 110 0
-40 70 -90 0
-17 23 76 0
23 -74 -114 0
-26 34 -41 0
8 -13 47 0
4 -75 87 0
4 -68 104 0
15 -23 32 0
9 -43 -87 0
-28 -74 125 0
-7 39 -70 0
1 75 -122 0
12 -14 84 0
-48 -62 87 0
44 -83 113 0
-14 58 -87 0
-7 -69 -117 0
74 85 -96 0
-7 -62 -94 0
30 -36 -101 0
-20 41 80 0
47 66 120 0
15 -65 90 0
-11 -96 -123 0
-19 -49 54 0
-10 15 43 0
62 -72 78 0
-28 66 -113 0
32 93 -107 0
-1 -47 50 0
-7 31 69 0
-20 -29 -88 0
59 -67 -122 0
72 105 -125 0
37 69 73 0
-19 -65 -79 0
-84 -120 -124 0
-7 20 -103 0
45 -53 -72 0
-41 49 -66 0
-37 -84 100 0
1 108 109 0
21 36 90 0
11 88 99 0
-51 -74 -122 0
49 111 -113 0
51 -79 -106 0
15 83 -112 0
-55 57 88 0
27 43 -56 0
5 29 94 0
3 -33 79 0
-65 -109 -118 0
43 -58 112 0
75 87 103 0
-111 -112 121 0
-7 -84 -93 0
-14 -76 -103 0
-65 -66 -100 0
-7 67 -100 0
44 -106 -125 0
-3 76 110 0
-20 -110 120 0
-20 -35 60 0
68 -90 106 0
-76 88 -119 0
-18 -35 -85 0
35 -104 106 0
10 -52 -111 0
58 72 94 0
-13 59 -74 0
20 -66 -98 0
71 -84 -104 0
52 56 90 0
15 -29 124 0
-28 35 71 0
59 72 -87 0
40 85 105 0
-30 -102 123 0
-4 -45 -76 0
-3 53 100 0
48 85 109 0
-85 -86 -121 0
18 -20 -93 0
36 81 89 0
68 -70 109 0
115 117 119 0
14 27 39 0
-22 -37 -72 0
-6 62 -116 0
-47 -61 85 0
-3 -8 -104 0
-38 41 -122 0
-1 11 -116 0
23 -90 120 0
-38 -41 51 0
2 -29 110 0
-1 -54 99 0
32 65 120 0
20 -44 -99 0
-29 51 108 0
-38 59 -73 0
18 -71 -117 0
43 71 -106 0
-31 -37 -120 0
-15 75 117 0
-54 88 -121 0
-53 69 -73 0
64 106 122 0
63 76 117 0
-103 105 125 0
-84 -90 108 0
-50 62 95 0
40 -56 96 0
52 -89 108 0
-80 101 -124 0
-45 85 -117 0
-55 101 -121 0
38 106 113 0
96 104 -120 0
8 29 87 0
17 29 -101 0
-38 -72 115 0
7 -58 -83 0
-22 -54 -113 0
9 25 -82 0
47 68 79 0
-16 46 55 0
9 -38 78 0
17 -63 110 0
-4 28 -48 0
-16 -27 -106 0
33 -34 -42 0
-46 53 102 0
21 -91 97 0
-53 -70 -77 0
-5 32 -109 0
-1 -55 -76 0
-13 -18 -88 0
-18 -74 96 0
7 -68 113 0
-16 -66 123 0
37 -40 82 0
20 -21 -82 0
-12 -42 117 0
-20 43 103 0
39 -92 -124 0
44 -86 -120 0
20 -68 122 0
-14 -16 66 0
-37 -39 -103 0
4 -69 116 0
64 89 121 0
3 -59 69 0
-45 -82 95 0
-70 -75 -125 0
-39 57 85 0
58 -116 117 0
-75 86 107 0
29 40 120 0
-9 -27 -116 0
14 107 -117 0
-45 -95 -123 0
-14 44 117 0
-1 82 -87 0
45 71 -113 0
-52 -83 -95 0
-18 -89 95 0
67 92 -125 0
-38 -76 84 0
20 -99 -104 0
-17 -64 79 0
-3 21 80 0
42 64 -86 0
2 44 99 0
-56 70 82 0
50 79 92 0
28 -65 -104 0
-33 45 -66 0
-43 65 98 0
17 18 -86 0
-35 43 67 0
36 56 64 0
78 96 -104 0
45 -46 50 0
-18 -111 115 0
6 19 -117 0
-39 64 84 0
-12 -37 -56 0
69 -90 93 0
42 63 106 0
5 -91 -93 0
57 -66 -71 0
94 -96 111 0
57 66 -103 0
36 55 -112 0
31 -93 109 0
-27 41 52 0
84 114 -125 0
5 -27 51 0
39 63 102 0
-31 -66 91 0
-1 -91 -108 0
-53 75 -85 0
-32 -47 -51 0
32 112 -119 0
48 -59 -64 0
50 102 104 0
-43 70 -82 0
-27 -61 109 0
-100 -109 120 0
16 -43 -62 0
4 50 -92 0
-60 70 97 0
2 4 113 0
49 70 120 0
-27 -74 -99 0
29 -39 -50 0
8 -16 49 0
32 -89 110 0
112 116 120 0
10 78 101 0
66 82 -125 0
3 -27 32 0
-7 -75 82 0
22 30 121 0
-73 77 123 0
-58 -79 122 0
36 41 79 0
-23 49 -94 0
13 53 91 0
2 81 -92 0
12 -80 89 0
19 80 -111 0
-35 -62 -116 0
16 23 41 0
-25 -89 -91 0
22 -59 119 0
-5 57 91 0
16 27 -111 0
37 -80 82 0
24 -37 -69 0
54 -60 66 0
27 31 -101 0
11 19 -113 0
-28 64 124 0
-47 -79 -121 0
-76 -110 111 0
-12 67 -83 0
-68 -103 -105 0
2 -39 80 0
-3 -62 113 0
-81 -100 -107 0
43 71 117 0
-22 -56 -70 0
11 -65 -124 0
21 -66 -85 0
20 -25 -116 0
11 -37 -52 0
22 -33 -39 0
8 17 67 0
-21 -56 78 0
36 39 -123 0
37 -85 93 0
-48 104 -119 0
81 86 88 0
-28 -30 122 0
-25 27 38 0
-1 42 -58 0
-2 -9 -83 0
8 -59 95 0
16 -98 -99 0
-14 60 -119 0
8 -19 77 0
-34 -75 98 0
45 -64 101 0
39 50 118 0
37 51 -69 0
-36 68 -84 0
26 87 -103 0
-31 105 -113 0
7 101 110 0
-8 46 -56 0
38 -119 -123 0
-52 -63 96 0
-27 102 124 0
34 56 70 0
-77 -79 110 0
-56 99 106 0
7 -43 -58 0
-18 -95 112 0
-17 -64 89 0
-3 -29 -55 0
10 -102 -113 0
17 72 111 0
-48 -66 113 0
-95 -100 -101 0
-33 56 -120 0
52 53 84 0
-53 66 122 0
2 66 -70 0
43 87 95 0
-9 57 94 0
-60 -112 115 0
40 42 -48 0
2 -58 71 0
38 -85 -118 0
-44 110 -115 0
19 72 74 0
-11 42 -84 0
77 85 -107 0
-56 87 123 0
