c F1 random 3-CNF cnfgen RandomKCNF(3,50,213,seed=17) m/n=4.26
p cnf 50 213
-20 -27 34 0
-35 46 50 0
-16 -25 -48 0
-41 44 47 0
9 -10 13 0
-5 -41 46 0
31 -33 -41 0
2 -24 28 0
24 -31 38 0
8 -14 36 0
5 -13 -18 0
-11 21 -23 0
-1 4 -22 0
18 31 -48 0
-5 17 48 0
-26 32 47 0
10 17 44 0
-20 21 35 0
-6 -27 -45 0
5 31 35 0
17 -35 37 0
-32 -38 47 0
-27 34 -36 0
-14 -15 49 0
-2 24 -39 0
11 -36 -38 0
-12 -14 -49 0
6 29 38 0
36 -37 -46 0
-9 -29 33 0
12 -17 -19 0
14 -22 49 0
34 43 45 0
20 31 46 0
30 35 -49 0
4 8 -28 0
-18 -23 35 0
22 34 -49 0
8 21 -22 0
-8 19 29 0
20 -27 -44 0
9 -14 33 0
-28 29 34 0
-11 -35 -38 0
5 27 40 0
-16 -28 50 0
-16 19 -32 0
-1 -8 41 0
-6 28 33 0
-5 -19 22 0
-10 -18 -48 0
33 -37 41 0
-41 42 49 0
-14 -24 -35 0
6 -20 26 0
3 -37 -38 0
-26 -28 -40 0
-11 49 50 0
14 24 -48 0
5 -30 43 0
-31 38 48 0
-16 28 -50 0
22 -25 -32 0
12 -14 32 0
27 31 -42 0
2 17 31 0
3 -10 -17 0
-4 -6 -19 0
17 34 -37 0
5 -35 -40 0
23 31 40 0
-24 -29 -31 0
1 -15 39 0
8 25 -40 0
-8 44 48 0
-4 29 36 0
-7 9 -50 0
-20 39 -42 0
-1 6 -25 0
-21 35 -49 0
-6 -35 42 0
38 43 -47 0
3 -10 -44 0
-6 7 -49 0
-27 33 -49 0
9 -39 50 0
-21 31 43 0
-14 34 -49 0
24 28 40 0
1 -16 -17 0
25 28 46 0
-35 -41 49 0
-23 38 -39 0
8 29 37 0
-10 30 33 0
-12 25 -43 0
10 -13 -46 0
-10 -15 -31 0
-29 46 47 0
7 -16 32 0
-17 -34 -47 0
17 -26 -33 0
11 33 48 0
3 8 -23 0
15 21 50 0
37 -39 40 0
-42 -46 -49 0
-22 34 35 0
5 -6 -40 0
-3 10 -42 0
-11 -47 -48 0
-15 -30 37 0
-11 -37 -39 0
20 -35 41 0
-1 3 21 0
8 24 -38 0
-11 -32 39 0
14 -29 31 0
13 -16 36 0
-18 31 -38 0
-10 -29 -43 0
-5 -31 -47 0
1 -34 -44 0
1 -14 -42 0
-8 -40 -41 0
15 20 45 0
-5 32 -49 0
23 -42 -47 0
19 33 -37 0
1 24 -41 0
-3 6 21 0
17 20 -33 0
-7 -17 28 0
10 20 -40 0
20 40 42 0
-4 -13 -15 0
-1 5 28 0
-22 -42 49 0
27 30 34 0
2 18 21 0
25 -46 48 0
-9 13 -17 0
-6 -31 -41 0
13 22 -38 0
18 20 -25 0
22 -35 41 0
-13 -22 -34 0
-24 -26 34 0
-3 -14 -40 0
-11 16 21 0
12 13 44 0
21 28 34 0
-10 23 33 0
23 -27 -38 0
-6 23 27 0
-10 -21 46 0
4 11 27 0
22 -27 -34 0
-2 -3 18 0
2 21 44 0
11 -33 -41 0
-4 16 39 0
1 2 -41 0
14 21 -42 0
9 -12 39 0
-4 33 -47 0
-13 18 37 0
9 -16 -29 0
7 -26 32 0
-40 -42 46 0
4 13 -44 0
9 -11 -12 0
-4 -20 50 0
-17 -37 41 0
16 34 -46 0
-23 -32 42 0
4 -16 -32 0
-4 6 -19 0
-4 8 35 0
-17 28 -34 0
23 -32 -42 0
20 25 -40 0
15 -33 -48 0
9 10 -21 0
-10 -11 -43 0
13 -39 44 0
-1 -26 -32 0
-10 -32 -50 0
4 20 21 0
-6 -27 28 0
18 -26 50 0
-15 35 -40 0
-11 13 44 0
23 -31 -44 0
-14 22 37 0
-25 29 37 0
-21 32 33 0
-18 25 -44 0
-9 15 19 0
-18 -37 39 0
27 -28 33 0
2 -7 21 0
-16 -24 -29 0
8 31 43 0
-6 24 -27 0
-17 -20 -30 0
-7 -23 -43 0
7 -17 21 0
9 -29 -30 0
1 11 -43 0
-17 36 -43 0
21 -26 28 0
-4 -35 -45 0
