c F1 random 3-CNF cnfgen RandomKCNF(3,100,426,seed=19) m/n=4.26
p cnf 100 426
6 67 -87 0
38 -45 68 0
-34 42 -53 0
3 40 73 0
-15 59 70 0
-3 -13 -54 0
39 -74 85 0
70 74 -100 0
-18 25 -81 0
1 -59 -62 0
48 55 70 0
-4 -12 60 0
-84 87 -91 0
-37 52 -58 0
39 40 57 0
-40 88 -97 0
-9 60 65 0
36 56 84 0
-22 37 56 0
61 -80 88 0
-2 50 -80 0
-27 33 34 0
36 84 100 0
38 -60 -68 0
-72 -92 -93 0
8 29 -62 0
15 -66 -76 0
-49 -88 -90 0
24 -43 -57 0
6 -47 -80 0
-47 59 -76 0
12 -34 36 0
22 61 85 0
6 -56 76 0
-5 70 94 0
-16 32 38 0
-40 58 -89 0
14 -87 95 0
45 -59 -72 0
8 57 75 0
-17 -50 -64 0
-7 58 68 0
40 72 -85 0
18 54 -82 0
-24 78 -92 0
52 57 97 0
-11 32 -35 0
34 55 60 0
-3 -23 -55 0
24 -32 40 0
7 -10 16 0
-5 -12 -49 0
20 36 44 0
-15 -24 -47 0
-33 81 92 0
-5 -22 -77 0
-3 27 69 0
30 63 93 0
22 50 -82 0
-14 -22 83 0
-10 -69 77 0
20 41 67 0
-34 -40 89 0
69 -89 90 0
-73 -80 -84 0
-50 58 -100 0
-17 69 70 0
51 90 97 0
11 -45 -96 0
-14 48 81 0
-3 71 -85 0
-20 57 -63 0
-40 -43 -67 0
50 52 79 0
22 25 47 0
-10 -38 -96 0
-48 -69 -82 0
9 -62 -97 0
20 -26 -37 0
-49 64 -67 0
46 -65 -75 0
36 -66 82 0
5 42 -64 0
-18 -71 -80 0
23 -41 87 0
-22 96 -98 0
-36 97 -98 0
17 41 56 0
-5 -57 -95 0
-39 -75 91 0
-10 47 -71 0
37 -39 -57 0
-30 44 64 0
-16 47 48 0
59 77 -96 0
-52 56 95 0
-15 27 44 0
-50 -69 -80 0
31 -87 -98 0
64 84 98 0
-53 81 99 0
11 -66 -71 0
45 -76 92 0
-23 -25 86 0
57 -62 -80 0
60 -75 90 0
4 63 -83 0
-1 -46 47 0
-41 62 -77 0
-16 -30 -58 0
41 46 -73 0
29 47 62 0
11 -51 54 0
-7 12 -85 0
47 -52 65 0
12 -44 -91 0
-14 41 48 0
-26 33 96 0
38 -64 71 0
-2 3 63 0
-86 -88 -100 0
7 13 90 0
-19 -70 -77 0
-48 -71 -85 0
-9 -27 49 0
-11 27 -78 0
-15 61 -79 0
50 -75 94 0
-16 -20 42 0
-17 -26 -98 0
-34 40 61 0
51 81 -100 0
-23 -42 -83 0
25 -53 75 0
-39 41 100 0
13 -27 -78 0
-27 76 100 0
-42 -84 -94 0
22 -28 64 0
-32 59 -89 0
45 -49 -94 0
-1 35 36 0
-8 -11 -26 0
24 -81 82 0
23 -35 53 0
9 -32 -94 0
-28 80 -87 0
23 -57 -66 0
-27 56 69 0
28 -84 -100 0
2 -35 -67 0
-12 -19 -86 0
-30 63 67 0
-65 68 88 0
23 -24 90 0
-19 35 -46 0
23 -57 59 0
11 27 -56 0
1 -2 84 0
37 39 -51 0
14 -55 -87 0
-43 68 84 0
37 -62 94 0
-39 -46 57 0
22 59 81 0
-28 33 68 0
-58 -59 83 0
9 -35 75 0
-10 -44 58 0
-21 43 75 0
3 -33 92 0
-30 -63 -82 0
27 -56 -73 0
-41 71 -92 0
-44 -76 -80 0
17 -18 63 0
-5 66 -95 0
-3 66 71 0
-35 -44 60 0
-39 58 -59 0
-17 43 -90 0
38 65 -90 0
-3 -66 94 0
-1 -37 54 0
17 -52 -77 0
5 -17 -78 0
1 60 -81 0
-8 86 -91 0
-30 74 85 0
71 -83 -93 0
24 91 93 0
-14 34 51 0
53 -68 -81 0
36 59 91 0
34 40 -69 0
41 98 100 0
-50 -92 -99 0
44 -51 -99 0
-52 74 -98 0
16 68 79 0
18 -48 -83 0
14 -92 -97 0
21 -54 93 0
-36 -46 -90 0
7 -54 83 0
-37 66 -88 0
59 -81 -97 0
-33 -39 94 0
8 16 83 0
11 -41 57 0
17 -80 -96 0
-17 -18 93 0
-15 -60 65 0
-44 -51 -98 0
-19 51 -73 0
23 -61 96 0
51 56 -64 0
65 -74 96 0
-60 65 84 0
-13 30 -73 0
24 37 -71 0
-64 78 99 0
-31 -40 -66 0
5 -17 -98 0
17 32 -84 0
-21 31 92 0
55 56 -98 0
32 -71 76 0
6 36 -40 0
-58 92 100 0
-37 -64 -94 0
32 55 69 0
-1 -17 -73 0
33 -48 98 0
40 55 78 0
-8 -20 100 0
16 -38 73 0
38 74 -87 0
5 -34 100 0
-36 48 75 0
56 61 94 0
-24 -36 -98 0
17 -42 -72 0
4 -34 43 0
-2 40 58 0
-14 75 -88 0
-19 -66 85 0
-54 -57 -61 0
-57 61 -85 0
-60 85 100 0
34 -74 96 0
23 80 -91 0
-28 33 -45 0
-40 -49 -90 0
49 51 -97 0
4 25 99 0
19 -41 -81 0
-10 14 -86 0
-9 42 -66 0
-7 -41 43 0
-12 59 96 0
-13 38 -91 0
-20 -56 -64 0
-9 25 30 0
12 -17 64 0
20 -22 -39 0
-15 70 -84 0
-31 88 98 0
-20 40 52 0
21 -63 -97 0
6 -25 33 0
51 59 -61 0
-16 59 94 0
65 93 -95 0
16 70 -95 0
24 59 71 0
4 10 14 0
-17 38 74 0
-18 -34 97 0
5 29 71 0
17 -28 89 0
47 -50 -74 0
-21 64 81 0
-22 -72 -95 0
79 93 96 0
-52 80 93 0
-34 53 60 0
20 60 79 0
21 -26 98 0
-4 -35 94 0
-11 39 57 0
-14 -43 72 0
-4 24 76 0
69 96 -100 0
-13 43 -77 0
17 21 -39 0
50 86 91 0
-37 -56 -79 0
-10 -52 58 0
-32 75 -76 0
2 -10 -87 0
19 -44 -65 0
29 66 -85 0
18 -23 -78 0
-27 -56 60 0
17 56 -69 0
24 -25 42 0
-19 20 -36 0
-25 -84 -96 0
-32 39 45 0
-64 71 -85 0
34 -78 83 0
-15 -22 80 0
39 -47 81 0
-1 7 14 0
19 -90 97 0
-71 -73 78 0
-44 59 -86 0
-19 -26 33 0
-20 25 38 0
12 -27 66 0
20 -24 86 0
16 -62 83 0
17 33 70 0
30 39 -81 0
-33 -34 58 0
24 48 100 0
46 55 -66 0
47 -93 -96 0
-45 -70 -87 0
-19 80 97 0
-17 44 69 0
-21 -44 -61 0
-20 -45 -77 0
-8 52 -64 0
34 63 72 0
-11 -23 -55 0
23 27 -60 0
-16 -71 81 0
-36 45 48 0
1 42 61 0
-21 -22 -80 0
-9 -21 37 0
37 59 -79 0
60 84 -92 0
45 77 -99 0
20 -24 91 0
37 -93 97 0
15 -56 -59 0
-39 49 51 0
-27 -71 -95 0
6 70 -77 0
-56 -83 -93 0
-30 67 -77 0
33 83 -91 0
6 -28 82 0
-3 -9 -22 0
88 -91 100 0
20 54 59 0
23 31 -79 0
-11 -32 65 0
62 76 -99 0
-22 -35 -50 0
3 -10 -90 0
47 -57 -83 0
-15 -23 33 0
62 -63 -85 0
26 29 -83 0
-2 20 -47 0
1 46 96 0
-7 -42 72 0
21 -41 78 0
-44 -81 88 0
-47 -68 72 0
15 40 76 0
-26 39 85 0
26 52 90 0
-14 -55 -67 0
-25 -69 86 0
6 69 -83 0
-7 -23 -96 0
-41 73 -74 0
2 -19 -65 0
81 83 98 0
6 8 -30 0
-52 75 -95 0
-14 43 -87 0
-27 -28 -71 0
-19 41 87 0
13 -25 45 0
-36 -79 86 0
-22 -33 -66 0
10 -35 98 0
-22 50 -52 0
35 60 81 0
21 -31 -76 0
35 -44 48 0
26 -36 91 0
17 48 72 0
49 -72 -96 0
-17 -58 96 0
36 -57 64 0
12 49 76 0
15 -75 94 0
14 31 42 0
-51 -57 -94 0
14 51 -93 0
15 33 55 0
-4 22 -55 0
7 -27 64 0
18 -38 -91 0
-12 43 -95 0
-13 15 68 0
36 54 95 0
17 21 -84 0
-22 -69 85 0
-22 34 99 0
-2 -12 62 0
-29 -57 75 0
37 -59 74 0
-3 -20 -43 0
-9 -22 -89 0
46 -62 87 0
34 58 -99 0
5 26 74 0
9 -11 -79 0
