c F1 random 3-CNF cnfgen RandomKCNF(3,200,852,seed=11) m/n=4.26
p cnf 200 852
-116 -144 200 0
48 122 -132 0
24 -37 -78 0
158 168 190 0
10 16 -49 0
84 113 -152 0
2 -128 -170 0
-22 -105 142 0
8 74 -132 0
28 75 99 0
-14 -54 -55 0
19 -108 -145 0
23 -80 86 0
35 64 181 0
46 -120 125 0
-34 -188 197 0
55 -102 -108 0
-6 48 54 0
-38 55 -114 0
19 76 99 0
63 -150 -163 0
-33 117 -160 0
-40 47 161 0
41 -49 -186 0
21 108 155 0
10 -66 -132 0
-108 126 153 0
33 -59 123 0
5 -53 -192 0
16 64 -115 0
95 136 -147 0
36 85 116 0
-92 122 180 0
-20 154 -163 0
19 -35 -82 0
12 -181 -189 0
22 -122 176 0
-4 -128 147 0
19 21 -156 0
-85 -107 -187 0
22 -119 139 0
6 -59 -124 0
-3 66 95 0
-44 -133 -193 0
-62 84 -104 0
-52 55 -194 0
-35 54 128 0
-29 -44 -71 0
-55 -98 -106 0
-9 20 -83 0
80 91 -147 0
-7 49 117 0
-13 30 -162 0
20 -51 -176 0
-3 46 183 0
-58 70 -200 0
-23 -58 180 0
51 -116 -117 0
84 119 167 0
55 -63 -100 0
-5 68 184 0
-88 -113 -141 0
-8 17 56 0
86 -137 176 0
-133 -174 186 0
-57 113 -195 0
80 -98 172 0
-70 135 -140 0
30 -129 138 0
-12 133 -138 0
24 -43 -177 0
-64 -69 104 0
-87 112 122 0
-8 108 159 0
10 40 -50 0
83 -91 186 0
128 -150 188 0
112 -136 -180 0
41 136 158 0
139 151 -157 0
-47 81 155 0
25 50 200 0
-23 67 -187 0
108 140 -181 0
5 161 -176 0
-30 93 181 0
7 -28 124 0
30 48 49 0
25 73 -173 0
-20 -25 -196 0
-91 110 -132 0
4 163 180 0
-93 -105 117 0
25 -43 155 0
104 -162 -181 0
30 -72 191 0
-85 -138 178 0
53 104 -185 0
26 -78 121 0
-60 -70 171 0
104 146 -169 0
128 132 -165 0
6 30 -148 0
103 114 -130 0
-3 -26 -67 0
-131 139 -141 0
20 -141 166 0
-44 99 -121 0
-73 -108 -127 0
-74 -124 -136 0
4 7 198 0
-105 176 -194 0
-13 102 192 0
-110 123 185 0
-26 134 186 0
30 -155 -181 0
-14 31 53 0
-36 -94 -114 0
-150 -164 175 0
33 -75 188 0
-80 -129 -130 0
157 -176 186 0
49 64 129 0
-3 67 70 0
-27 57 139 0
42 -141 -174 0
-54 -91 -123 0
20 -35 191 0
-109 -114 192 0
-40 -95 168 0
95 -110 -168 0
-21 -22 -140 0
3 -77 199 0
-21 -155 -170 0
-37 -57 -73 0
-31 -83 -182 0
-79 118 -136 0
64 -133 -187 0
-7 -94 174 0
-95 145 190 0
-23 -46 195 0
15 -57 133 0
-17 109 -167 0
21 -71 189 0
7 163 -168 0
-57 -63 -183 0
-87 90 -101 0
125 138 -185 0
90 -171 194 0
119 -139 164 0
29 38 -108 0
43 -83 -176 0
71 -75 -136 0
30 78 188 0
-5 118 -193 0
-28 48 51 0
121 -154 184 0
-45 -72 -104 0
88 -104 125 0
13 -56 -103 0
15 -61 -169 0
-64 116 -183 0
41 -83 198 0
-159 164 190 0
46 147 198 0
-22 33 -91 0
-22 120 178 0
50 -107 175 0
-10 106 -140 0
80 -81 -104 0
-18 171 184 0
-28 101 -171 0
-4 97 -183 0
30 118 145 0
-75 -97 -161 0
-23 143 171 0
-29 -97 -188 0
-121 -145 -186 0
24 27 37 0
47 -50 103 0
9 26 -59 0
-19 -105 198 0
53 -166 -197 0
85 -106 -160 0
63 -156 -170 0
-49 79 -88 0
-53 86 131 0
-65 138 -197 0
129 132 157 0
7 146 161 0
-63 -123 -148 0
-24 69 -93 0
35 -62 187 0
86 154 191 0
74 -94 176 0
48 -141 153 0
47 -104 -169 0
152 158 164 0
9 -106 120 0
-45 104 -146 0
63 86 146 0
104 -128 -154 0
-106 -160 -177 0
-105 119 177 0
-85 -134 135 0
-14 -76 -83 0
79 152 193 0
-63 115 -129 0
27 -135 -178 0
-18 -61 188 0
-57 167 192 0
26 -34 134 0
-63 76 -187 0
-17 -45 113 0
92 150 -178 0
-8 -81 -117 0
37 121 -199 0
-16 -51 -178 0
5 45 163 0
-13 -28 -167 0
-35 -108 -183 0
-21 44 58 0
47 -69 -185 0
96 135 -170 0
-47 58 171 0
20 113 119 0
-73 -151 154 0
43 73 194 0
72 141 188 0
-9 119 -160 0
-16 -17 -47 0
9 75 133 0
-61 -112 156 0
67 -126 -140 0
10 -52 153 0
39 -84 -156 0
-114 129 186 0
30 46 146 0
-11 -80 -109 0
23 -131 -167 0
-41 64 -128 0
94 106 120 0
126 194 -195 0
11 134 -191 0
-24 -37 -135 0
9 -20 -109 0
-31 -62 142 0
-59 80 94 0
42 -104 150 0
-55 -101 119 0
56 89 108 0
53 -103 -123 0
115 -121 126 0
99 108 -139 0
71 93 -159 0
101 -132 146 0
-15 40 93 0
-6 -31 -186 0
-22 84 -98 0
-62 101 156 0
39 132 153 0
-80 106 -109 0
-81 116 186 0
-72 -137 183 0
92 99 -133 0
89 95 157 0
-7 162 -192 0
18 -170 172 0
-61 96 -199 0
31 -101 -127 0
-73 85 128 0
52 -104 122 0
-24 -134 191 0
-66 123 -150 0
-17 -31 94 0
-97 -127 -150 0
7 -19 -65 0
-77 96 -145 0
-88 99 158 0
20 -161 -198 0
-17 -18 -71 0
-10 -35 -99 0
6 93 -122 0
59 67 175 0
1 -101 140 0
-144 -160 -177 0
5 -27 81 0
-41 -42 -50 0
-74 -95 107 0
-64 93 166 0
-17 18 -27 0
-132 174 198 0
106 -124 -160 0
-102 -130 -190 0
-95 175 -184 0
53 -145 195 0
69 160 190 0
-97 160 172 0
4 -121 -150 0
-65 -108 162 0
13 41 183 0
74 -92 -188 0
7 -124 139 0
-80 113 -167 0
105 -159 185 0
-38 73 140 0
-65 125 143 0
5 -70 -83 0
59 -71 83 0
67 94 142 0
2 80 195 0
36 -87 -124 0
-9 90 107 0
-141 -158 169 0
64 75 114 0
31 -44 -138 0
-7 143 -193 0
-3 17 -54 0
-63 -127 189 0
-103 -124 181 0
3 -37 -148 0
-95 -130 -186 0
72 -80 91 0
55 68 86 0
-34 140 191 0
28 -40 -89 0
6 -47 111 0
25 83 104 0
18 -83 -194 0
-57 122 -128 0
-18 100 -174 0
-3 38 135 0
-89 113 158 0
-177 -190 -191 0
99 -108 129 0
-9 -132 -136 0
12 -152 153 0
-85 -120 138 0
-121 142 189 0
29 126 193 0
-27 -30 131 0
-10 -48 -183 0
54 -117 138 0
72 126 165 0
-113 143 194 0
15 128 -198 0
26 -46 86 0
31 -74 107 0
-120 158 175 0
-53 137 -167 0
-4 -87 97 0
47 54 -178 0
11 -34 -72 0
-92 157 160 0
-18 -53 -178 0
-19 -38 -52 0
-72 105 157 0
-25 89 -132 0
31 -73 149 0
117 -166 -174 0
51 -106 191 0
-86 -94 -108 0
75 170 178 0
-34 -96 -106 0
27 72 -88 0
23 -54 94 0
-152 172 186 0
19 -93 -121 0
123 167 172 0
59 102 111 0
103 119 -168 0
-37 95 132 0
-1 -43 167 0
40 -111 -120 0
-7 28 90 0
78 130 145 0
-23 -34 -170 0
-63 -64 200 0
56 116 -151 0
27 36 129 0
105 -157 159 0
-29 40 -59 0
-8 136 -159 0
77 -140 -165 0
-21 55 -77 0
53 85 -126 0
-69 77 -161 0
-22 -110 -123 0
30 -86 116 0
-42 -98 136 0
-26 173 -183 0
-59 93 -124 0
27 -105 152 0
-94 -154 178 0
151 -156 196 0
-31 128 133 0
-55 -65 -151 0
23 74 -103 0
58 -65 85 0
-40 74 -165 0
13 102 -160 0
6 164 -184 0
86 108 174 0
113 -176 -193 0
-31 -112 174 0
30 92 -171 0
80 168 177 0
83 107 138 0
71 -105 -121 0
-52 -173 -180 0
-100 131 177 0
83 150 -198 0
-42 -90 -167 0
-119 148 -151 0
84 -102 181 0
-67 90 -162 0
17 66 -97 0
17 -144 -159 0
31 100 125 0
79 129 -174 0
-41 -142 -146 0
-39 -115 196 0
40 -56 64 0
42 -49 -196 0
-28 -94 184 0
6 -64 -92 0
65 -74 -144 0
-8 -20 70 0
41 100 140 0
-137 -169 193 0
93 -110 -200 0
89 -95 -176 0
20 60 -141 0
1 27 -145 0
37 80 91 0
8 106 -147 0
48 -135 -174 0
-27 51 -181 0
-21 50 178 0
-35 66 -77 0
-39 40 -139 0
-147 152 176 0
41 133 197 0
-7 77 78 0
48 155 -177 0
18 -56 -102 0
-57 86 89 0
-13 -68 -150 0
-61 117 167 0
-39 -55 65 0
-48 -61 86 0
48 -60 -80 0
53 186 190 0
21 -176 196 0
12 -107 -143 0
18 -19 100 0
-53 87 -98 0
4 -14 128 0
37 41 109 0
-58 82 127 0
37 82 183 0
35 -174 -180 0
-31 96 187 0
48 89 -186 0
47 -83 -150 0
68 135 196 0
5 20 -80 0
-27 -146 -164 0
-90 126 155 0
38 -121 -174 0
14 73 140 0
55 103 189 0
109 -128 157 0
4 -47 88 0
-67 -87 -159 0
82 -160 191 0
-107 -149 -157 0
60 -86 -126 0
-44 186 -196 0
-41 87 180 0
89 -123 -144 0
-1 -170 -176 0
-128 147 162 0
-82 128 164 0
-7 72 138 0
-13 61 -72 0
50 -130 -163 0
-15 -19 143 0
-75 81 171 0
77 115 -177 0
-31 -46 77 0
-6 -12 -132 0
17 165 -171 0
-74 80 -100 0
160 167 -182 0
101 -105 -197 0
-58 -126 164 0
6 42 128 0
-40 -133 -178 0
48 -70 177 0
-7 -14 -85 0
15 -86 199 0
17 125 134 0
122 -191 194 0
-62 -94 -149 0
-14 -18 -87 0
-56 61 105 0
-110 -111 -122 0
4 23 136 0
-39 -48 -158 0
11 -166 197 0
28 -111 122 0
-1 -19 -141 0
33 -109 128 0
105 158 175 0
-15 -63 147 0
-19 -99 191 0
-54 -63 190 0
6 -78 -86 0
9 -50 -66 0
-54 94 -170 0
55 -81 -112 0
-23 -160 -198 0
-97 169 174 0
-59 -76 186 0
58 -77 -168 0
-5 -89 107 0
-57 -98 158 0
-16 112 192 0
-18 -101 -167 0
-65 66 181 0
-35 193 -200 0
-88 -146 194 0
-127 -161 -170 0
26 -38 -174 0
113 -136 -143 0
14 111 -195 0
-44 140 -178 0
-38 71 -181 0
102 -104 169 0
7 46 53 0
49 -68 190 0
-8 -150 179 0
-93 -160 181 0
81 -122 -180 0
92 130 -156 0
-39 -88 166 0
47 -152 -174 0
90 -155 181 0
16 -94 123 0
17 179 -191 0
-12 -91 152 0
6 -27 107 0
-40 171 -179 0
57 -74 200 0
-1 -64 -93 0
-4 -5 94 0
29 45 -69 0
-49 -132 174 0
-93 -100 -106 0
136 -137 148 0
76 78 -101 0
-49 -74 -134 0
-24 117 191 0
-20 -29 -64 0
-10 75 133 0
4 -38 -100 0
140 152 196 0
-63 119 -191 0
87 140 167 0
55 169 -185 0
46 86 -144 0
49 58 -186 0
9 184 186 0
-42 -122 190 0
30 82 -163 0
-65 99 -169 0
10 -127 -168 0
22 -52 173 0
-61 98 -178 0
82 127 -184 0
99 -126 151 0
-8 -30 -93 0
38 152 165 0
128 -169 197 0
11 125 186 0
49 -99 -120 0
-42 191 -195 0
18 38 71 0
62 98 166 0
36 88 155 0
-47 49 -74 0
19 52 164 0
97 -105 138 0
-2 100 122 0
-3 -50 -86 0
74 139 -171 0
96 181 -182 0
73 75 77 0
-88 101 161 0
-107 -176 190 0
70 -124 -168 0
24 128 -145 0
72 -149 -161 0
50 -69 115 0
94 -130 178 0
-98 143 156 0
-1 -161 -177 0
7 -130 164 0
-46 -124 -185 0
-69 82 -144 0
119 186 190 0
42 -154 -158 0
47 -140 188 0
10 -26 -95 0
-66 -141 176 0
15 -165 166 0
8 26 151 0
33 -90 137 0
-96 -167 172 0
-14 -139 -174 0
-74 -163 199 0
-3 -113 122 0
16 -69 -131 0
-25 175 -187 0
-108 -130 -156 0
-102 123 175 0
12 103 -180 0
39 109 146 0
-76 -114 -167 0
3 55 -187 0
34 37 42 0
40 -146 -173 0
-14 47 -155 0
37 109 181 0
-86 121 167 0
-46 -121 -155 0
54 -107 199 0
-47 118 -159 0
11 -62 130 0
-44 133 -142 0
-63 87 -195 0
17 31 131 0
-63 -108 128 0
20 46 95 0
-24 -130 180 0
-96 106 -166 0
-91 120 -144 0
99 -165 -175 0
26 -81 -146 0
30 163 -180 0
126 195 200 0
91 -122 -180 0
-72 79 187 0
-146 -164 200 0
4 31 108 0
-62 -117 -120 0
-9 -108 -133 0
35 93 -160 0
24 46 162 0
-41 -106 -158 0
-21 76 -195 0
34 81 -200 0
-132 183 191 0
-13 42 -191 0
-36 -44 120 0
-1 -86 108 0
-18 55 -90 0
85 -134 -168 0
-11 16 66 0
-51 146 153 0
98 -161 -167 0
-46 180 194 0
43 94 110 0
33 91 -122 0
-138 -166 -185 0
-7 -120 -199 0
38 146 -179 0
9 -92 145 0
-8 21 -90 0
30 -36 -80 0
-27 46 -48 0
60 196 197 0
-49 81 -97 0
-12 116 -126 0
-17 -26 68 0
44 52 -85 0
-20 78 114 0
9 -107 -131 0
75 -103 108 0
-63 -104 106 0
17 -128 -199 0
-70 -75 -140 0
5 -117 -173 0
24 70 -97 0
41 77 195 0
6 -124 153 0
114 135 -138 0
-26 103 -143 0
-70 99 -193 0
119 137 -149 0
2 -34 97 0
126 -193 -195 0
-2 -58 85 0
105 119 182 0
-64 114 123 0
98 -119 149 0
70 142 -173 0
-99 -106 132 0
5 80 153 0
-118 -124 -165 0
5 34 168 0
26 61 169 0
-27 -68 -141 0
-33 -90 192 0
38 55 66 0
-10 105 180 0
-12 16 -101 0
-52 -171 -173 0
-16 -18 -164 0
-39 53 116 0
1 63 102 0
107 152 178 0
79 -158 188 0
-19 87 164 0
-120 156 -171 0
4 -118 -199 0
-2 -16 -166 0
9 -51 -152 0
-3 -142 182 0
-81 102 146 0
-79 148 191 0
-109 131 -154 0
-51 160 -176 0
-4 -78 -135 0
-126 -135 157 0
73 -90 -105 0
15 34 89 0
-28 -146 160 0
-81 99 -131 0
18 -99 189 0
-44 -56 -78 0
-54 -144 171 0
-20 149 154 0
58 184 185 0
-128 -188 198 0
69 115 -180 0
30 -85 -174 0
149 -185 -198 0
-74 76 -177 0
49 53 94 0
-151 193 -199 0
-13 -42 -181 0
22 60 70 0
-8 -41 -127 0
79 -81 141 0
8 92 119 0
60 83 -176 0
40 128 -129 0
14 56 -95 0
-1 11 -175 0
12 53 111 0
77 92 -137 0
-26 68 190 0
68 -101 148 0
-37 115 183 0
32 73 -124 0
13 107 -136 0
61 100 -185 0
2 54 -144 0
-22 -89 156 0
-4 36 165 0
66 -153 -165 0
37 103 -126 0
48 -127 -187 0
-15 -52 -114 0
-35 -71 75 0
70 78 197 0
-21 -94 119 0
-22 -97 190 0
-32 146 -160 0
17 36 -185 0
20 -28 36 0
71 150 158 0
25 89 -111 0
-12 -41 56 0
53 -55 121 0
24 -40 -103 0
48 -64 -158 0
-51 68 -195 0
44 -143 150 0
30 80 188 0
18 -26 -49 0
1 49 94 0
83 -150 -158 0
64 101 165 0
-31 63 -94 0
133 142 156 0
-32 -75 148 0
-6 -76 -148 0
22 -46 157 0
2 50 170 0
-150 -165 176 0
76 -119 130 0
-77 150 -158 0
-79 -96 196 0
-38 -92 130 0
23 99 -113 0
152 -184 -193 0
-155 -163 173 0
141 -173 -181 0
124 -187 -191 0
7 43 77 0
44 -133 146 0
2 -116 167 0
-42 -118 -164 0
-30 74 -158 0
-49 -83 154 0
-61 -125 -166 0
41 -60 114 0
-90 -109 -154 0
-46 -61 -163 0
-112 -128 -183 0
-101 103 -113 0
39 60 -144 0
4 -32 135 0
-27 46 127 0
4 -84 -176 0
122 126 158 0
-62 -154 -173 0
-29 -123 -185 0
-41 -52 -58 0
15 60 151 0
-48 85 130 0
-3 151 -177 0
62 117 -124 0
22 166 191 0
12 22 -139 0
-115 151 -197 0
142 -160 174 0
111 180 193 0
22 33 -130 0
-2 -73 -95 0
-3 -127 197 0
-104 -169 -198 0
-18 92 -135 0
2 -77 -124 0
-5 -64 -104 0
95 -134 -142 0
-65 -155 -194 0
21 91 -190 0
33 57 -192 0
