c F1 random 3-CNF cnfgen RandomKCNF(3,100,426,seed=16) m/n=4.26
p cnf 100 426
-47 -61 62 0
-1 53 58 0
-2 38 -39 0
-3 29 78 0
78 -81 -86 0
-77 81 -91 0
34 -47 -54 0
55 -67 83 0
-1 11 -37 0
-20 -39 -40 0
-9 22 -90 0
2 -61 63 0
3 64 -84 0
5 -48 -70 0
62 66 -86 0
12 13 91 0
6 51 -81 0
-20 82 89 0
2 31 75 0
-19 -35 83 0
-52 -60 -94 0
4 -5 -8 0
14 50 -65 0
14 -37 -81 0
19 31 -52 0
-29 56 -65 0
-23 64 -86 0
-3 39 63 0
-40 95 -97 0
27 -57 76 0
81 -86 98 0
11 -60 64 0
-13 -47 -92 0
-9 25 29 0
-1 -29 81 0
8 -35 82 0
19 69 -86 0
4 -66 -79 0
-18 45 92 0
-3 -12 25 0
5 20 -24 0
27 56 73 0
5 11 60 0
27 -54 99 0
-52 53 -88 0
-25 -46 -77 0
3 25 -45 0
8 -53 -76 0
-6 52 67 0
31 -42 54 0
-6 49 52 0
1 -22 -95 0
4 7 -16 0
-11 -78 79 0
-37 55 77 0
-6 -39 -79 0
-10 -41 -93 0
62 73 84 0
-35 -43 52 0
2 35 61 0
20 -54 -76 0
-14 74 -99 0
-22 -48 54 0
21 26 -84 0
1 -3 91 0
-14 -16 64 0
-1 -9 91 0
-43 -54 77 0
26 40 78 0
-23 50 95 0
4 -27 83 0
-34 -38 -90 0
26 -43 51 0
3 -45 -69 0
53 66 76 0
3 32 69 0
-29 34 -47 0
-17 -32 -41 0
-32 -43 93 0
-1 27 53 0
28 77 78 0
26 -66 -79 0
-2 -8 -59 0
43 89 100 0
-19 -37 -68 0
-11 16 -32 0
-32 35 -81 0
-8 45 66 0
-11 -46 -86 0
40 55 66 0
78 79 -93 0
24 71 95 0
-28 90 94 0
-19 55 80 0
-30 -84 90 0
8 82 87 0
13 85 86 0
-47 50 56 0
-23 -44 -90 0
-31 -69 70 0
-14 -45 -92 0
19 -46 -49 0
74 83 -98 0
-9 -71 98 0
2 -67 -79 0
9 -46 59 0
-13 -48 79 0
27 -56 -98 0
-31 70 -88 0
-32 -59 -66 0
41 57 -67 0
2 -32 -93 0
-21 46 -68 0
-44 79 82 0
-13 -48 88 0
-5 38 -43 0
-40 72 -97 0
-1 -49 -56 0
-48 -58 -96 0
39 -41 76 0
-46 64 69 0
9 -44 61 0
-63 -88 -93 0
-32 -39 -73 0
-35 43 91 0
26 40 45 0
-38 -54 -97 0
26 -54 -92 0
-11 40 -91 0
8 -40 73 0
50 72 -97 0
-10 -25 -26 0
-15 80 86 0
91 -97 -98 0
36 -93 -100 0
-12 32 100 0
-6 7 64 0
1 21 -70 0
18 47 51 0
2 5 -10 0
-2 50 -57 0
15 16 -28 0
9 -22 -35 0
11 47 76 0
26 27 -79 0
-33 -59 -66 0
40 59 66 0
-41 -58 68 0
14 -49 -67 0
-22 54 -90 0
-12 22 -35 0
-8 -58 97 0
-45 57 62 0
-1 -37 86 0
-13 63 -88 0
-17 45 76 0
29 -68 -77 0
2 19 -44 0
-13 60 -85 0
38 64 -74 0
15 29 45 0
-3 -77 81 0
-25 -28 -78 0
-20 32 79 0
-37 88 98 0
-16 -74 -97 0
-44 -72 -76 0
41 -82 84 0
58 -62 97 0
20 -70 78 0
8 9 59 0
40 55 -70 0
7 -76 -80 0
36 56 -79 0
26 -40 90 0
54 -69 79 0
-42 -57 -76 0
-47 -55 -86 0
23 -38 99 0
-25 -40 -68 0
64 -91 95 0
-39 40 -95 0
-35 45 -96 0
-49 59 75 0
16 -60 70 0
32 58 79 0
-17 -24 -86 0
4 15 35 0
7 48 -81 0
17 -59 84 0
-4 -5 -74 0
-37 -39 54 0
4 -40 -52 0
-4 50 84 0
-5 6 21 0
-2 -10 60 0
-4 63 84 0
-12 -46 -63 0
5 -14 -89 0
80 -84 97 0
-8 9 68 0
27 -46 -47 0
60 62 -77 0
-34 54 83 0
12 -17 69 0
26 42 -72 0
8 28 34 0
-7 34 36 0
-4 -70 96 0
-33 -88 -97 0
-62 70 -74 0
32 -64 -75 0
-6 -56 75 0
15 20 -57 0
-21 61 -86 0
16 -18 64 0
23 -37 47 0
54 -63 -86 0
-9 25 96 0
-44 -58 78 0
9 -43 71 0
52 73 -74 0
78 -84 95 0
32 -60 -81 0
17 -24 -29 0
27 30 66 0
-32 -35 85 0
-82 -90 -98 0
-31 -38 72 0
31 37 -76 0
-13 81 96 0
9 47 87 0
-7 13 -100 0
-59 -65 72 0
-46 69 94 0
4 -78 96 0
-11 -47 83 0
10 -43 -89 0
57 -87 -94 0
38 66 -76 0
-54 -62 -84 0
6 -7 -85 0
43 48 -77 0
49 61 99 0
-20 -64 -100 0
-31 -43 82 0
-53 -59 89 0
-1 53 55 0
-50 76 -77 0
-28 35 89 0
-2 -36 82 0
-20 -58 -86 0
44 59 -62 0
2 3 -32 0
6 -38 -98 0
-45 68 -73 0
54 75 -89 0
-28 -75 80 0
38 69 -87 0
38 -39 -80 0
10 13 -93 0
8 14 38 0
53 -70 -86 0
-6 57 -65 0
-4 36 -67 0
25 -53 76 0
45 89 -90 0
-62 94 -97 0
26 70 75 0
15 59 82 0
-65 67 -75 0
-10 -32 93 0
72 91 -93 0
8 24 -27 0
6 -24 -59 0
38 97 100 0
9 -50 -84 0
-2 -19 -85 0
-8 31 45 0
3 -17 48 0
46 67 -69 0
7 32 -70 0
-34 47 73 0
14 -35 -92 0
-24 -87 94 0
23 -45 -57 0
14 30 -44 0
35 65 87 0
-32 -39 88 0
-90 94 100 0
12 -60 64 0
18 -30 -99 0
2 -37 64 0
-49 59 86 0
-24 -52 62 0
-12 -17 -90 0
-6 -52 -69 0
-12 -48 100 0
64 -75 76 0
6 42 -43 0
-36 75 83 0
8 34 89 0
5 -19 43 0
-2 -48 82 0
29 -85 87 0
-6 20 43 0
23 -74 -100 0
26 28 -50 0
46 79 -92 0
9 -25 40 0
-5 8 60 0
-2 71 86 0
-19 -37 -81 0
26 69 -77 0
-3 -88 92 0
14 24 47 0
9 -68 77 0
8 12 97 0
-43 52 -94 0
36 64 89 0
9 22 -59 0
-27 -35 41 0
10 44 48 0
-28 59 -94 0
-27 83 85 0
-40 -48 -78 0
41 -65 -74 0
13 46 -91 0
-27 88 -100 0
19 -39 -98 0
17 -43 100 0
-41 63 85 0
-8 42 46 0
-39 -64 76 0
8 79 82 0
-2 14 -27 0
5 -21 53 0
-26 -52 -80 0
3 -80 83 0
-12 54 -72 0
-22 62 -89 0
11 25 90 0
68 -85 86 0
-14 70 97 0
4 40 -55 0
2 24 -70 0
-2 34 -86 0
-70 74 100 0
-29 64 -82 0
-35 45 53 0
13 22 -79 0
-39 42 84 0
15 -20 89 0
-31 -69 97 0
-14 -25 -97 0
-16 -27 -67 0
17 34 -82 0
-34 53 -79 0
1 18 -73 0
13 -82 97 0
-48 -50 -55 0
-57 -78 -91 0
-37 -41 44 0
34 43 -73 0
16 20 79 0
-46 77 99 0
19 -69 74 0
48 -93 -98 0
10 -16 20 0
7 44 91 0
11 54 -61 0
37 48 -92 0
11 76 88 0
-6 -69 89 0
-3 -31 88 0
22 -69 86 0
18 -39 41 0
78 -88 -97 0
38 55 -89 0
4 25 -51 0
-61 -72 99 0
-25 -41 64 0
38 -63 -80 0
34 57 84 0
22 -44 -100 0
42 -63 -91 0
-11 39 82 0
-17 -20 37 0
44 -45 -48 0
17 -53 -80 0
-30 83 -97 0
-69 -85 87 0
17 -39 -69 0
-5 32 85 0
36 -50 100 0
29 -41 76 0
-11 -34 -68 0
-19 -63 -69 0
18 25 81 0
17 62 -94 0
26 -33 -53 0
34 -35 55 0
10 32 -72 0
-24 61 -92 0
13 15 -44 0
-1 69 -77 0
54 -94 -99 0
-4 46 53 0
25 26 32 0
64 -88 96 0
-9 44 62 0
36 52 86 0
-50 -57 67 0
34 -45 96 0
-8 17 -44 0
22 72 94 0
51 68 90 0
30 48 64 0
10 43 -50 0
-44 -58 67 0
15 -26 40 0
-10 79 83 0
-58 -71 91 0
-20 -61 -65 0
-51 58 -96 0
-14 -57 84 0
