c F1 random 3-CNF cnfgen RandomKCNF(3,50,213,seed=4) m/n=4.26
p cnf 50 213
-7 -16 20 0
-2 -5 6 0
-15 -34 35 0
7 -14 -17 0
-11 -13 20 0
-22 39 43 0
16 -18 31 0
-19 37 -46 0
-19 -28 39 0
15 17 20 0
-18 -30 41 0
-5 13 -44 0
-12 -18 23 0
4 -7 21 0
-8 -12 22 0
3 -23 -45 0
-2 19 -21 0
-5 40 -44 0
-9 17 -19 0
1 -24 37 0
19 -24 37 0
8 14 28 0
11 39 -48 0
16 21 -38 0
27 -42 50 0
-16 27 29 0
-16 27 -29 0
-3 13 17 0
-15 27 -50 0
4 -21 37 0
-6 25 32 0
-19 -22 -43 0
-14 -34 -42 0
5 18 -32 0
-9 40 50 0
-30 -41 -45 0
1 -11 14 0
25 26 50 0
-11 -39 -43 0
2 -3 -6 0
9 -39 50 0
-1 -34 50 0
-6 30 -35 0
-15 -25 49 0
-5 -8 -40 0
29 46 -50 0
8 -28 31 0
-10 -12 -46 0
1 17 -35 0
-8 32 35 0
19 23 27 0
-4 -40 -44 0
-29 -33 40 0
-17 -39 50 0
6 28 -39 0
-13 24 37 0
-12 -26 -42 0
2 12 -20 0
-7 11 12 0
12 -31 -42 0
16 -32 -39 0
-15 -21 -48 0
-19 21 -29 0
-12 -30 -35 0
2 -10 -40 0
-6 -20 39 0
31 39 41 0
5 9 -20 0
-38 40 44 0
7 11 -49 0
6 -8 18 0
-10 42 47 0
24 36 -45 0
-10 14 -20 0
-11 -17 -33 0
11 -22 25 0
-2 18 44 0
8 11 39 0
1 -31 -36 0
12 22 -34 0
-20 23 40 0
-17 -38 -43 0
6 16 -21 0
23 31 34 0
32 34 35 0
5 -22 44 0
1 -5 33 0
-1 3 47 0
-16 -24 -48 0
26 39 -41 0
-5 -32 49 0
21 28 46 0
-18 -28 -31 0
21 -40 -49 0
-2 -6 -33 0
-9 42 44 0
6 -40 45 0
32 -42 49 0
14 30 37 0
-7 -8 34 0
5 43 48 0
14 -17 -44 0
-39 48 50 0
4 14 49 0
-17 44 46 0
-9 -26 -31 0
26 28 48 0
-10 15 -23 0
-13 -37 -40 0
8 35 -46 0
12 14 35 0
-13 -19 45 0
20 26 -47 0
-23 30 -40 0
9 -29 45 0
8 19 -22 0
11 34 44 0
2 -22 -39 0
9 15 38 0
-15 -19 -39 0
-11 -23 -47 0
-3 10 -35 0
5 8 31 0
9 -36 46 0
4 39 -46 0
-4 -19 40 0
-31 42 49 0
3 -19 -27 0
5 -13 28 0
13 19 44 0
6 46 48 0
19 28 -34 0
11 41 43 0
5 9 -28 0
-22 33 43 0
38 40 42 0
-3 -18 -50 0
-10 -34 49 0
-11 29 40 0
-17 -38 44 0
-11 -20 21 0
-31 -35 -40 0
11 21 -43 0
-12 13 -41 0
1 3 34 0
-15 -16 24 0
-29 -41 47 0
3 7 -22 0
-1 11 26 0
-22 24 33 0
-7 23 -24 0
23 -28 37 0
6 25 29 0
7 -9 -19 0
-23 -48 -49 0
20 -26 -43 0
-5 -33 -46 0
15 -37 -40 0
8 22 35 0
-15 -31 -50 0
27 -35 43 0
-28 -45 -49 0
-10 13 -22 0
-35 37 -46 0
-25 31 -48 0
17 38 40 0
-30 37 44 0
-1 15 -50 0
21 -29 37 0
-3 5 43 0
15 31 35 0
1 13 33 0
-21 -31 -33 0
-9 37 -46 0
-4 7 -17 0
5 14 -46 0
24 25 47 0
-29 -46 47 0
3 -10 -11 0
-24 29 -37 0
-1 -18 -37 0
19 45 46 0
-11 45 50 0
13 36 -40 0
-2 6 33 0
13 17 -18 0
-18 26 38 0
24 -26 -39 0
-13 46 48 0
11 22 49 0
-30 35 47 0
-24 -33 -38 0
21 -45 -49 0
10 -17 -18 0
-33 -39 42 0
18 -24 48 0
11 -25 -33 0
3 12 -21 0
-11 -13 -35 0
-18 22 25 0
37 44 48 0
-22 32 34 0
-4 -24 -46 0
-16 -23 29 0
9 -25 -48 0
-11 -17 -50 0
7 37 -50 0
33 40 -43 0
36 -43 46 0
-1 -28 -50 0
2 -7 -11 0
29 -36 -50 0
-35 46 48 0
