c F1 random 3-CNF cnfgen RandomKCNF(3,100,426,seed=11) m/n=4.26
p cnf 100 426
-58 -72 100 0
24 61 -66 0
12 -19 -39 0
79 84 95 0
5 8 -25 0
42 57 -76 0
1 -64 -85 0
-11 -53 71 0
4 37 -66 0
14 38 50 0
-7 -27 -28 0
10 -54 -73 0
12 -40 43 0
18 32 91 0
23 -60 63 0
-17 -94 99 0
28 -51 -54 0
-3 24 27 0
-19 28 -57 0
10 38 50 0
32 -75 -82 0
-17 59 -80 0
-20 24 81 0
21 -25 -93 0
11 54 78 0
5 -33 -66 0
-54 63 77 0
17 -30 62 0
3 -27 -96 0
8 32 -58 0
48 68 -74 0
18 43 58 0
-46 61 90 0
-10 77 -82 0
10 -18 -41 0
6 -91 -95 0
11 -61 88 0
-2 -64 74 0
10 11 -78 0
-43 -54 -94 0
11 -60 70 0
3 -30 -62 0
-2 33 48 0
-22 -67 -97 0
-31 42 -52 0
-26 28 -97 0
-18 27 64 0
-15 -22 -36 0
-28 -49 -53 0
-5 10 -42 0
40 46 -74 0
-4 25 59 0
-7 15 -81 0
10 -26 -88 0
-2 23 92 0
-29 35 -100 0
-12 -29 90 0
26 -58 -59 0
42 60 84 0
28 -32 -50 0
-3 34 92 0
-44 -57 -71 0
-4 9 28 0
43 -69 88 0
-67 -87 93 0
-29 57 -98 0
40 -49 86 0
-35 68 -70 0
15 -65 69 0
-6 67 -69 0
12 -22 -89 0
-32 -35 52 0
-44 56 61 0
-4 54 80 0
5 20 -25 0
42 -46 93 0
64 -75 94 0
56 -68 -90 0
21 68 79 0
70 76 -79 0
-24 41 78 0
13 25 100 0
-12 34 -94 0
54 70 -91 0
3 81 -88 0
-15 47 91 0
4 -14 62 0
15 24 25 0
13 37 -87 0
-10 -13 -98 0
-46 55 -66 0
2 82 90 0
-47 -53 59 0
13 -22 78 0
52 -81 -91 0
15 -36 96 0
-43 -69 89 0
27 52 -93 0
13 -39 61 0
-30 -35 86 0
52 73 -85 0
64 66 -83 0
3 15 -74 0
52 57 -65 0
-2 -13 -34 0
-66 70 -71 0
10 -71 83 0
-22 50 -61 0
-37 -54 -64 0
-37 -62 -68 0
2 4 99 0
-53 88 -97 0
-7 51 96 0
-55 62 93 0
-13 67 93 0
15 -78 -91 0
-7 16 27 0
-18 -47 -57 0
-75 -82 88 0
17 -38 94 0
-40 -65 -80 0
79 -88 93 0
25 32 65 0
-2 34 35 0
-14 29 70 0
21 -71 -87 0
-27 -46 -62 0
10 -18 96 0
-55 -57 96 0
-20 -48 84 0
48 -55 -84 0
-11 -56 -70 0
-2 10 100 0
-39 -64 89 0
-29 -46 85 0
-42 -57 -91 0
-29 41 59 0
-4 -47 87 0
-48 73 95 0
-12 -23 98 0
8 -29 67 0
-9 55 -84 0
11 -36 95 0
4 82 -84 0
-29 -32 -92 0
-44 45 -51 0
63 69 -93 0
45 -86 97 0
60 -70 82 0
15 19 -54 0
22 -42 -88 0
36 -38 -68 0
15 39 94 0
-3 59 -97 0
-14 24 26 0
61 -77 92 0
-23 -36 -52 0
44 -52 63 0
7 -28 -52 0
8 -31 -85 0
-32 58 -92 0
21 -42 99 0
-80 82 95 0
23 74 99 0
-11 17 -46 0
-11 60 89 0
25 -54 88 0
-5 53 -70 0
40 -41 -52 0
-9 86 92 0
-14 51 -86 0
-2 49 -92 0
15 59 73 0
-38 -49 -81 0
-12 72 86 0
-15 -49 -94 0
-61 -73 -93 0
12 14 19 0
24 -25 52 0
5 13 -30 0
-10 -53 99 0
27 -83 -99 0
43 -53 -80 0
32 -78 -85 0
-25 40 -44 0
-27 43 66 0
-33 69 -99 0
65 66 79 0
4 73 81 0
-32 -62 -74 0
-12 35 -47 0
18 -31 94 0
43 77 96 0
37 -47 88 0
24 -71 77 0
24 -52 -85 0
76 79 82 0
5 -53 60 0
-23 52 -73 0
32 43 73 0
52 -64 -77 0
-53 -80 -89 0
-53 60 89 0
-43 -67 68 0
-7 -38 -42 0
40 76 97 0
-32 58 -65 0
14 -68 -89 0
-9 -31 94 0
-29 84 96 0
13 -17 67 0
-32 38 -94 0
-9 -23 57 0
46 75 -89 0
-4 -41 -59 0
19 61 -100 0
-8 -26 -89 0
3 23 82 0
-7 -14 -84 0
-18 -54 -92 0
-11 22 29 0
24 -35 -93 0
48 68 -85 0
-24 29 86 0
10 57 60 0
-37 -76 77 0
22 37 97 0
36 71 94 0
-5 60 -80 0
-8 -9 -24 0
5 38 67 0
-31 -56 78 0
34 -63 -70 0
5 -26 77 0
20 -42 -78 0
-57 65 93 0
15 23 73 0
-6 -40 -55 0
12 -66 -84 0
-21 32 -64 0
47 53 60 0
63 97 -98 0
6 67 -96 0
-12 -19 -68 0
5 -10 -55 0
-16 -31 71 0
-30 40 47 0
21 -52 75 0
-28 -51 60 0
28 45 54 0
27 -52 -62 0
58 -61 63 0
50 54 -70 0
36 47 -80 0
51 -66 73 0
-8 20 47 0
-3 -16 -93 0
-11 42 -49 0
-31 51 78 0
20 66 77 0
-40 53 -55 0
-41 58 93 0
-36 -69 92 0
46 50 -67 0
45 48 79 0
-4 81 -96 0
9 -85 86 0
-31 48 -100 0
16 -51 -64 0
-37 43 64 0
26 -52 61 0
-12 -67 96 0
-33 62 -75 0
-9 -16 47 0
-49 -64 -75 0
4 -10 -33 0
-39 48 -73 0
-44 50 79 0
10 -81 -99 0
-9 -36 -60 0
-5 -18 -88 0
3 47 -61 0
30 34 88 0
1 -51 70 0
-72 -80 -89 0
3 -14 41 0
-21 -25 -43 0
-37 47 54 0
42 47 91 0
-9 14 -91 0
-66 87 99 0
53 -62 -80 0
-51 -65 -95 0
-48 88 -92 0
27 -73 98 0
35 80 95 0
-49 80 86 0
2 -61 -75 0
-33 -54 81 0
7 21 92 0
37 -46 -94 0
4 -62 70 0
-40 57 -84 0
53 -80 93 0
-19 37 70 0
-33 63 72 0
3 -35 -42 0
30 -36 42 0
34 47 71 0
1 40 98 0
18 -44 -62 0
-5 45 54 0
-71 -79 85 0
32 38 57 0
16 -22 -69 0
-4 72 -97 0
-2 9 -27 0
-32 -64 95 0
-52 -62 91 0
2 -19 -74 0
-48 -65 -93 0
36 -40 46 0
28 34 43 0
-17 70 96 0
14 -20 -45 0
3 -24 56 0
13 42 52 0
9 -42 -97 0
-29 61 -64 0
-9 50 -87 0
-2 19 68 0
-45 57 79 0
-89 -95 -96 0
50 -54 65 0
-5 -66 -68 0
6 -76 77 0
-43 -60 69 0
-61 71 95 0
15 63 97 0
-14 -15 66 0
-5 -24 -92 0
27 -59 69 0
36 63 83 0
-57 72 97 0
8 64 -99 0
13 -23 43 0
16 -37 54 0
-60 79 88 0
-27 69 -84 0
-2 -44 49 0
24 27 -89 0
6 -17 -36 0
-46 79 80 0
-9 -27 -89 0
-10 -19 -26 0
-36 53 79 0
-13 45 -66 0
16 -37 75 0
59 -83 -87 0
26 -53 96 0
-43 -47 -54 0
38 85 89 0
-17 -48 -53 0
14 36 -44 0
12 -27 47 0
-76 86 93 0
10 -47 -61 0
62 84 86 0
30 51 56 0
52 60 -84 0
-19 48 66 0
-1 -22 84 0
20 -56 -60 0
-4 14 45 0
39 65 73 0
-12 -17 -85 0
-32 -76 100 0
28 58 -76 0
14 18 65 0
53 -79 80 0
-15 20 -30 0
-4 68 -80 0
39 -70 -83 0
-11 28 -39 0
27 43 -63 0
-35 39 -81 0
-11 -55 -62 0
15 -43 58 0
-21 -49 68 0
-13 87 -92 0
-30 47 -62 0
14 -53 76 0
-47 -77 89 0
76 -78 98 0
-16 64 67 0
-28 -33 -76 0
12 37 -52 0
29 -33 43 0
-20 37 -83 0
7 51 -80 0
3 82 -92 0
43 54 87 0
57 -88 -97 0
-16 -56 87 0
15 46 -86 0
40 84 89 0
42 54 69 0
36 -53 -61 0
-26 -87 -90 0
-50 66 89 0
42 75 -99 0
-21 -45 -84 0
-60 74 -76 0
42 -51 91 0
-34 45 -81 0
9 33 -49 0
9 -72 -80 0
16 50 63 0
40 65 -87 0
-21 -71 -73 0
-20 -58 98 0
20 -28 32 0
21 -25 -98 0
-14 -47 92 0
3 -32 -46 0
33 -37 -72 0
