c F1 random 3-CNF cnfgen RandomKCNF(3,50,213,seed=1) m/n=4.26
p cnf 50 213
9 -37 49 0
-29 -32 49 0
-2 -7 32 0
18 29 -45 0
2 -35 42 0
2 -28 -47 0
15 23 -36 0
2 19 -27 0
-8 22 -48 0
-19 32 -38 0
-16 26 -48 0
-36 45 -50 0
7 -33 -43 0
-2 32 -47 0
-38 40 46 0
1 15 -33 0
-23 -33 -37 0
36 -39 43 0
34 -36 50 0
24 -31 -37 0
-1 -23 27 0
12 15 -41 0
3 5 -44 0
1 -18 49 0
-12 23 40 0
11 -17 -34 0
-21 -30 45 0
-2 -20 25 0
7 -17 47 0
2 15 26 0
-29 33 -46 0
15 -34 -42 0
28 -41 43 0
4 14 -20 0
-11 -20 48 0
1 -3 36 0
40 -46 50 0
-7 14 -23 0
-7 -25 43 0
-21 26 40 0
13 -21 -37 0
14 -18 -44 0
32 35 44 0
6 9 -11 0
-22 -39 -49 0
8 -19 22 0
36 -38 50 0
5 25 -27 0
-8 38 40 0
-6 -18 37 0
7 -18 30 0
1 -40 43 0
-3 13 16 0
11 29 44 0
-25 -28 -35 0
-7 14 21 0
-1 -19 -47 0
5 -21 -26 0
-8 -14 -17 0
-12 14 35 0
6 -18 24 0
22 -37 -42 0
-3 -12 21 0
7 22 35 0
2 -16 26 0
2 -5 -47 0
10 -31 32 0
12 33 43 0
-7 20 21 0
10 -35 47 0
12 20 28 0
-5 -17 -50 0
29 -30 -35 0
11 -17 32 0
4 23 45 0
-17 18 26 0
1 -15 -32 0
41 44 -47 0
31 -32 -44 0
-36 40 47 0
-5 33 49 0
-20 36 -45 0
-6 8 39 0
14 -17 -28 0
-23 41 46 0
6 -17 34 0
9 -40 50 0
25 -26 -28 0
9 32 -40 0
27 -35 -39 0
16 25 -48 0
2 -38 41 0
10 -12 -19 0
-17 38 -49 0
8 -27 32 0
2 7 -19 0
44 47 -49 0
-20 -28 37 0
-8 -29 -46 0
-22 26 -35 0
14 -25 36 0
-30 -34 39 0
29 -40 43 0
-25 -38 -44 0
38 -40 47 0
19 -41 42 0
-26 41 50 0
-1 -39 -50 0
20 -35 -44 0
11 -30 32 0
28 -38 48 0
2 29 43 0
-26 -41 45 0
-14 -16 34 0
-5 -34 45 0
-11 -20 42 0
-12 -26 -36 0
15 17 -46 0
21 -28 49 0
5 -41 47 0
17 30 39 0
-24 -29 46 0
-8 14 46 0
-15 21 26 0
3 4 39 0
-32 -34 -46 0
8 40 45 0
-15 -26 32 0
-15 -16 19 0
-17 -29 46 0
3 6 -14 0
-21 25 -38 0
11 42 49 0
10 -25 -43 0
-6 9 30 0
4 34 -35 0
8 28 50 0
-9 32 -41 0
-22 -25 41 0
4 -16 -38 0
36 -39 -45 0
-13 35 -46 0
40 -47 48 0
4 -7 10 0
-4 -6 41 0
3 -9 21 0
-26 46 -49 0
6 -17 21 0
-4 -25 47 0
-8 17 -25 0
16 -33 -36 0
-26 33 38 0
29 -34 42 0
-13 24 -25 0
9 23 -37 0
-21 -35 -42 0
18 21 23 0
21 -37 -47 0
-24 30 31 0
-4 -9 34 0
-37 -45 -48 0
-20 26 30 0
10 17 44 0
12 27 -50 0
-7 14 46 0
5 -14 42 0
-24 32 38 0
-16 -32 -39 0
13 -31 -35 0
-1 -13 48 0
-26 33 -40 0
-1 13 30 0
-20 -33 -48 0
-27 -34 -35 0
9 29 -33 0
1 -28 -41 0
19 26 43 0
-1 -18 -25 0
-31 -41 -48 0
8 -23 31 0
-2 12 -17 0
-17 -27 -33 0
-22 28 -50 0
26 28 46 0
10 14 -15 0
10 -31 50 0
1 6 -28 0
4 -23 42 0
17 -18 44 0
14 -42 44 0
-19 -29 43 0
7 -31 39 0
-11 -17 -34 0
-14 -35 41 0
-1 -47 49 0
-29 35 41 0
18 -33 46 0
-9 13 17 0
-18 -27 -31 0
-14 24 -32 0
12 -39 49 0
4 21 -33 0
-31 32 40 0
9 17 45 0
12 37 44 0
-33 -37 -43 0
-1 2 50 0
-15 -18 -48 0
-2 8 22 0
10 -17 50 0
-6 -7 47 0
-4 18 34 0
9 24 -26 0
