c F1 random 3-CNF cnfgen RandomKCNF(3,250,1065,seed=10) m/n=4.26
p cnf 250 1065
-9 110 147 0
-119 126 209 0
84 126 -134 0
12 -108 -221 0
-73 -108 212 0
-78 170 -176 0
-62 -197 221 0
2 61 -150 0
94 -138 -198 0
-17 112 121 0
62 106 -249 0
78 156 210 0
-99 146 243 0
198 -199 247 0
-49 -207 -243 0
-63 115 175 0
-31 -69 222 0
167 170 -242 0
-84 89 198 0
-12 -140 183 0
-21 68 -115 0
127 -223 -236 0
17 -128 -155 0
-35 -103 -230 0
-43 126 -180 0
10 -213 224 0
13 24 -90 0
125 -205 -214 0
-129 -199 -237 0
-179 -202 -230 0
134 167 -233 0
9 -159 176 0
-30 -207 247 0
75 184 228 0
-42 74 -210 0
103 -153 236 0
-21 50 152 0
-79 -176 -228 0
143 -171 -191 0
30 161 -201 0
-105 157 224 0
109 198 -205 0
-66 93 -117 0
-76 -120 -178 0
-88 -114 -164 0
-115 -219 232 0
-139 -177 185 0
107 -155 247 0
-84 152 -167 0
73 96 157 0
25 79 143 0
-50 108 -244 0
52 -87 218 0
149 169 -178 0
-102 221 240 0
-31 156 203 0
-138 186 -236 0
-113 148 226 0
-114 -222 -237 0
-45 -91 -155 0
-25 50 100 0
48 -221 -239 0
97 144 246 0
80 244 245 0
-26 145 -163 0
-11 -218 243 0
-50 89 195 0
-104 -193 208 0
45 -214 226 0
-132 165 -228 0
31 209 -246 0
-80 164 -185 0
-134 214 -233 0
-4 41 171 0
-131 164 -196 0
-56 74 150 0
143 160 -221 0
-5 -9 208 0
-13 -92 187 0
-5 33 53 0
-64 99 232 0
2 8 32 0
18 -99 178 0
108 160 231 0
-97 -149 -180 0
-9 -48 -103 0
-19 -36 171 0
4 -24 118 0
79 135 233 0
-74 159 -181 0
-163 193 239 0
15 156 163 0
-38 55 79 0
96 -133 -172 0
45 119 -218 0
40 -116 -156 0
-12 40 -126 0
-55 -71 -180 0
-39 -165 229 0
-14 15 -118 0
157 199 236 0
-3 -9 239 0
123 169 214 0
-94 -207 -246 0
-33 46 192 0
-40 185 -215 0
-176 210 213 0
138 187 192 0
102 117 169 0
46 -117 -171 0
-54 -64 -162 0
-16 -40 -125 0
-2 84 -173 0
73 118 -183 0
-24 31 110 0
97 137 -210 0
124 -147 231 0
-105 193 -218 0
-6 -114 -230 0
77 -144 169 0
-59 -121 -128 0
-142 192 -250 0
-162 -181 209 0
58 61 96 0
-15 43 108 0
-8 44 120 0
-5 -10 -37 0
-6 -108 162 0
11 40 66 0
-132 -183 -249 0
-82 -110 -142 0
-15 -28 -124 0
18 92 -121 0
-2 51 74 0
-42 -124 204 0
64 100 -203 0
-14 -210 225 0
191 200 233 0
44 -104 116 0
49 -106 -112 0
34 183 215 0
-21 49 185 0
-177 -203 -231 0
150 -227 236 0
97 -103 119 0
16 -28 64 0
-72 -180 -185 0
35 90 210 0
116 -194 198 0
-35 42 -153 0
17 -44 -119 0
40 -164 197 0
14 -169 -250 0
-80 -138 141 0
-86 119 -186 0
-75 181 -226 0
-81 -97 -161 0
30 43 71 0
-114 -195 -206 0
41 81 231 0
14 150 196 0
-76 -91 -148 0
19 -66 221 0
19 -166 190 0
-69 147 -160 0
-87 169 -185 0
-86 -123 126 0
-65 96 229 0
-83 100 -112 0
-24 -28 29 0
46 140 -175 0
42 88 164 0
-3 81 -88 0
-15 153 199 0
76 143 221 0
-128 -161 205 0
43 -100 245 0
-111 123 227 0
217 -221 -238 0
-50 -131 152 0
-58 88 139 0
4 38 -205 0
-20 -63 191 0
95 116 216 0
147 -158 209 0
-40 -76 224 0
33 -121 209 0
-127 -182 199 0
-12 76 123 0
91 110 135 0
12 -33 204 0
-20 238 -244 0
-86 -95 -218 0
4 -100 236 0
-18 -97 143 0
-13 -84 -150 0
-41 44 -89 0
-14 57 -81 0
-29 191 192 0
147 -222 225 0
-5 -91 -138 0
-115 160 236 0
76 -246 -248 0
-161 -209 245 0
-37 -58 -116 0
-64 151 176 0
59 98 197 0
-22 93 247 0
169 190 236 0
61 -106 -180 0
5 29 67 0
-196 -214 235 0
-30 84 155 0
-33 -115 -215 0
-14 52 -111 0
-37 66 -246 0
-171 223 -248 0
-25 104 182 0
101 139 175 0
29 57 -71 0
103 129 168 0
13 -79 -109 0
-73 113 158 0
42 171 238 0
-37 -158 -241 0
-135 154 240 0
-54 -148 -195 0
-101 -109 -147 0
83 -144 -218 0
-6 -11 194 0
-10 231 232 0
44 122 152 0
139 166 -189 0
157 199 -211 0
-37 62 182 0
15 26 127 0
-20 61 157 0
19 25 -206 0
20 113 214 0
-29 164 -244 0
49 -82 129 0
-115 -137 -211 0
1 -89 -197 0
-27 -157 -247 0
20 -77 111 0
-17 -29 222 0
62 -226 -237 0
102 -111 -197 0
102 182 -211 0
-59 218 222 0
53 216 238 0
31 -68 121 0
-150 -169 249 0
-102 105 -109 0
1 -86 129 0
-31 112 -155 0
20 68 -205 0
78 90 -221 0
86 -110 227 0
31 -111 -158 0
84 86 203 0
-123 -136 -177 0
-34 39 -101 0
-210 -213 -222 0
4 -76 146 0
53 130 156 0
-24 -85 -121 0
32 94 181 0
-134 170 -212 0
-154 -155 186 0
-22 -118 -198 0
111 208 -211 0
-91 114 -126 0
59 160 -209 0
10 145 202 0
-87 -152 235 0
3 -108 -118 0
8 -189 -194 0
48 134 -151 0
-106 -186 209 0
20 133 237 0
58 186 -216 0
-82 -147 -188 0
17 -147 -199 0
-109 -116 166 0
-119 175 207 0
-8 35 187 0
4 -39 201 0
45 -116 154 0
15 25 -140 0
-20 86 189 0
-194 -220 -243 0
-119 -221 -247 0
-160 -213 -218 0
140 239 243 0
76 211 -221 0
19 -84 -112 0
130 -133 -144 0
61 193 239 0
-61 -108 -173 0
-40 -79 116 0
-12 101 172 0
-7 104 250 0
-6 101 -173 0
-38 -178 228 0
-7 -124 -166 0
-118 135 227 0
24 114 -136 0
-46 -115 -225 0
-70 -161 216 0
-15 -70 212 0
79 -107 217 0
196 -206 212 0
-18 138 -144 0
-51 131 -166 0
17 -194 -213 0
-53 107 -134 0
147 -202 215 0
158 240 -242 0
69 130 243 0
102 105 208 0
-22 -26 86 0
69 102 107 0
152 178 205 0
100 -156 -250 0
-24 79 -148 0
83 190 240 0
-147 -242 247 0
-167 189 233 0
90 -110 153 0
-99 134 -181 0
-145 -158 -177 0
-27 -203 -221 0
-116 124 199 0
45 -70 199 0
-105 -133 -153 0
14 -80 114 0
-60 75 -159 0
-4 42 43 0
-82 -117 -203 0
-3 -27 -83 0
69 -83 -107 0
16 -119 -158 0
102 -168 -228 0
-7 143 -178 0
-88 -153 -194 0
30 -181 -242 0
49 128 138 0
-37 -121 152 0
92 203 225 0
-169 193 -249 0
-104 147 162 0
-44 -162 -207 0
-48 -86 219 0
-38 -142 -148 0
-21 152 192 0
13 114 -124 0
76 -202 -225 0
-45 -104 163 0
16 -24 76 0
-69 163 186 0
-93 -108 178 0
187 -226 -238 0
-59 -141 154 0
163 -194 -196 0
71 -112 -126 0
-173 -207 216 0
-150 -244 249 0
14 -50 -183 0
-102 -224 227 0
-20 31 203 0
45 -212 -217 0
-75 -149 188 0
-43 118 -211 0
-94 -102 180 0
4 112 234 0
-83 -150 245 0
-69 -127 -179 0
-141 222 -237 0
14 143 200 0
-34 39 247 0
-74 120 149 0
36 210 240 0
-5 -150 163 0
-18 179 203 0
41 -93 -170 0
5 -28 -162 0
135 236 -246 0
-57 -101 -119 0
24 36 67 0
-14 -180 -201 0
157 229 -246 0
38 -222 -242 0
-18 152 -195 0
-7 43 -102 0
-59 -156 -170 0
51 -67 93 0
34 -177 194 0
-56 107 217 0
58 103 108 0
60 -99 120 0
-27 45 237 0
-138 228 234 0
-77 135 158 0
14 186 230 0
-58 -68 -131 0
-158 167 -178 0
93 95 173 0
11 -31 -143 0
75 109 -133 0
60 113 247 0
70 180 -239 0
49 117 202 0
-17 -48 125 0
15 36 -61 0
-98 -128 196 0
-21 -29 54 0
-91 -136 -177 0
36 49 202 0
-113 -207 248 0
-1 -107 123 0
13 -143 -167 0
118 -146 -226 0
-4 -16 155 0
3 -34 216 0
-27 111 -184 0
81 94 -223 0
113 -117 -154 0
-139 -156 -223 0
-42 -165 250 0
30 63 129 0
-21 -41 -43 0
-79 -128 184 0
36 -93 -188 0
-165 -170 -240 0
156 -190 216 0
154 178 -244 0
-11 169 191 0
27 78 -202 0
61 -104 -140 0
63 -231 -233 0
-34 -89 185 0
-47 -158 174 0
-39 -93 240 0
-29 -159 -242 0
-125 -172 241 0
18 99 -196 0
-19 -188 238 0
25 49 -227 0
18 -81 241 0
-62 88 103 0
-2 71 -139 0
-3 129 204 0
-92 138 -198 0
42 -65 -141 0
-68 177 207 0
-104 123 -124 0
-33 129 237 0
-41 59 -67 0
3 10 -109 0
42 109 213 0
-6 -33 196 0
-84 -119 134 0
-35 -168 -225 0
127 153 187 0
-71 133 226 0
103 108 194 0
48 80 136 0
123 -139 -211 0
-11 -169 244 0
2 -72 -236 0
-58 91 128 0
-48 52 -156 0
-1 -11 20 0
-37 68 190 0
-45 -132 -234 0
-61 -171 240 0
-35 -63 65 0
21 -43 -136 0
-7 90 -151 0
-4 -96 249 0
102 -136 240 0
11 59 -105 0
-53 -54 -129 0
57 84 -132 0
-15 -69 205 0
-112 181 187 0
38 -39 96 0
53 106 -234 0
16 -174 222 0
-10 -22 114 0
11 36 53 0
-142 175 -195 0
-67 75 -162 0
-227 244 -248 0
68 -141 165 0
-45 -163 188 0
35 -110 151 0
-7 -11 -19 0
-93 -94 -237 0
-6 -185 -196 0
-51 108 215 0
49 -74 246 0
-19 -143 -165 0
-163 199 236 0
164 -224 236 0
26 95 218 0
31 57 -229 0
-9 -156 -157 0
-118 -124 151 0
40 137 -195 0
-3 8 208 0
172 181 182 0
39 -126 -186 0
-77 -230 -240 0
-108 205 212 0
-21 -157 -197 0
22 26 115 0
111 137 -175 0
12 172 -193 0
-42 137 -146 0
72 218 241 0
35 84 -93 0
-113 193 -213 0
26 35 -140 0
120 -170 -209 0
21 -27 -112 0
-66 -79 -195 0
-48 69 -108 0
-60 -153 -183 0
106 -135 -174 0
-119 132 -156 0
-60 103 144 0
-111 -187 -237 0
-43 180 -222 0
84 89 214 0
127 -162 206 0
126 172 -230 0
200 209 242 0
6 -36 205 0
95 -178 -233 0
-120 -140 -146 0
-26 -63 -172 0
15 -206 242 0
-103 191 -228 0
47 -215 -223 0
-13 -39 212 0
33 -75 153 0
-22 53 -226 0
75 -88 -122 0
-105 113 156 0
39 -63 217 0
102 -108 200 0
86 -164 -170 0
2 -24 225 0
11 200 224 0
200 -204 -232 0
-93 101 -203 0
63 138 163 0
29 -135 -144 0
-44 106 124 0
31 76 -90 0
141 -178 -237 0
-15 -196 -209 0
56 67 -85 0
-82 -108 -211 0
-132 -192 -240 0
-13 -80 164 0
29 38 186 0
-155 157 230 0
-43 -139 -227 0
45 -143 236 0
37 -99 114 0
111 138 -193 0
-5 -23 146 0
140 -171 213 0
-9 -10 34 0
4 9 -138 0
24 54 210 0
-13 -142 146 0
-35 -54 153 0
130 -192 200 0
-7 153 -245 0
44 54 80 0
59 -171 -244 0
-54 -73 103 0
84 169 250 0
-52 -200 228 0
78 192 -250 0
-39 -146 -218 0
-23 -181 190 0
-28 135 -246 0
49 149 152 0
75 -194 -226 0
96 184 -200 0
-131 -135 164 0
8 -10 178 0
-22 -169 249 0
-72 147 -220 0
-6 124 -151 0
-70 94 -189 0
36 48 145 0
-73 -174 219 0
-30 80 204 0
74 202 218 0
-57 -136 248 0
-104 -186 241 0
17 79 240 0
-27 -220 -228 0
59 -92 168 0
80 -195 206 0
15 -52 -221 0
-163 174 -182 0
-74 -186 198 0
-66 -75 158 0
-37 -183 -186 0
80 -106 188 0
-84 -90 -243 0
-18 -175 195 0
-37 44 -76 0
-130 135 -194 0
108 -141 -235 0
-32 -82 -94 0
-73 -80 134 0
-54 63 76 0
-74 -162 167 0
-64 -138 -146 0
183 202 -218 0
21 69 -79 0
-54 -140 150 0
-137 -220 226 0
-64 154 -179 0
-15 -82 246 0
50 -186 -242 0
-24 74 -163 0
-54 150 155 0
2 -149 -198 0
-154 204 -239 0
47 -67 -181 0
-64 -153 -217 0
-3 -5 -124 0
-141 -191 235 0
-36 -81 158 0
46 97 -192 0
-92 188 -222 0
-13 -96 -158 0
146 209 236 0
-115 -120 227 0
17 -212 -242 0
9 -153 -233 0
152 204 234 0
3 -40 -240 0
-106 -157 224 0
89 95 -222 0
143 162 238 0
-25 -27 -111 0
-6 35 127 0
33 -91 133 0
-31 49 181 0
-47 -113 -135 0
59 71 247 0
16 -145 -225 0
173 -200 -204 0
85 -93 185 0
-8 -153 -208 0
-95 -116 -243 0
-84 -235 243 0
58 -106 189 0
-13 15 69 0
98 208 229 0
6 -53 -217 0
76 -99 108 0
-124 202 240 0
-16 -27 -166 0
-88 -111 188 0
-35 -146 233 0
-123 -187 242 0
112 -153 -199 0
-66 -84 -131 0
-1 -99 112 0
-51 169 225 0
126 -201 218 0
-12 46 118 0
-38 -90 164 0
-27 112 147 0
-79 214 -223 0
28 -71 -190 0
-49 59 178 0
135 -208 211 0
-53 57 -69 0
-17 -237 -248 0
119 -130 245 0
-67 -132 -140 0
-58 176 228 0
-33 98 107 0
-31 167 -180 0
72 118 227 0
22 196 -226 0
-60 -105 -125 0
-127 -157 -201 0
61 121 -164 0
71 -111 174 0
110 170 203 0
-37 231 237 0
-32 87 194 0
-67 -157 -208 0
4 49 -130 0
-189 -218 -246 0
94 -183 -213 0
161 -195 -223 0
-89 93 -198 0
160 180 225 0
69 -121 191 0
-123 147 -170 0
-119 172 -241 0
160 -190 -238 0
-66 126 223 0
-91 136 -137 0
-74 -151 -178 0
-21 -183 -222 0
11 54 249 0
77 -115 -206 0
11 176 -180 0
54 166 -244 0
12 -51 -213 0
-20 -107 118 0
62 -145 -174 0
69 -130 -150 0
49 127 -195 0
42 45 -160 0
-112 114 -228 0
-57 -64 67 0
26 -48 60 0
-60 -141 150 0
-71 216 228 0
-180 -222 -230 0
-7 78 -229 0
182 -188 -223 0
-38 107 -170 0
10 90 -177 0
105 108 -209 0
177 240 -243 0
-66 -70 148 0
-1 -45 -50 0
-3 79 128 0
6 11 -165 0
-161 199 220 0
2 -38 248 0
-109 215 -216 0
58 -174 227 0
81 128 234 0
-4 -15 -70 0
6 -10 -240 0
-2 20 125 0
129 -132 159 0
27 -45 117 0
-37 -58 208 0
-177 183 -248 0
15 -73 211 0
6 -187 244 0
64 -92 233 0
16 25 38 0
166 -229 -240 0
35 117 -197 0
32 -125 196 0
-36 -92 109 0
46 -90 182 0
-78 -142 216 0
-34 -71 230 0
14 31 -74 0
-6 14 94 0
-103 -232 248 0
105 147 166 0
-113 147 -219 0
-26 73 182 0
21 45 107 0
-28 29 -194 0
-39 -105 -124 0
-59 167 -243 0
14 -145 206 0
-207 216 237 0
-55 -70 122 0
9 65 227 0
-72 -188 -246 0
-107 173 -215 0
-29 81 115 0
-93 -139 192 0
26 164 -194 0
12 -63 -116 0
-162 190 -250 0
-3 -70 -116 0
-19 -206 -231 0
-71 -75 -209 0
119 -206 -236 0
43 130 -189 0
140 144 -177 0
-83 -111 235 0
-76 -110 -133 0
33 -117 181 0
-18 75 -126 0
47 -84 -210 0
50 -80 -248 0
37 -89 -162 0
-84 -124 -143 0
-75 86 -93 0
-90 -133 -142 0
-30 -100 -119 0
-166 182 -188 0
26 90 -181 0
-16 -25 117 0
-64 -97 -125 0
-55 -81 106 0
119 129 -150 0
-39 -175 234 0
37 97 -151 0
57 90 147 0
-11 -18 93 0
-73 121 -237 0
2 -57 87 0
3 104 152 0
95 172 188 0
-50 65 95 0
-115 -164 -186 0
-7 168 -212 0
-32 -57 -239 0
55 -93 -196 0
-42 156 189 0
-19 60 111 0
-64 -88 250 0
-22 104 -139 0
-12 100 102 0
27 53 183 0
-12 41 222 0
-86 -195 239 0
-79 -189 -228 0
-29 -147 183 0
-3 -175 236 0
32 -138 234 0
123 134 -182 0
132 -173 -213 0
-52 61 115 0
10 -62 195 0
47 -151 214 0
-12 15 209 0
-60 -148 242 0
-91 -122 -213 0
-94 -109 245 0
-11 35 -143 0
-52 -77 222 0
-4 99 187 0
160 199 202 0
20 -24 -235 0
16 -19 155 0
-153 -215 -232 0
-192 198 -200 0
107 126 -205 0
14 -20 -183 0
26 -60 -66 0
-39 122 -142 0
-79 185 -217 0
-95 248 250 0
-115 148 -184 0
122 -124 127 0
-58 105 131 0
-122 -148 212 0
-62 -67 -188 0
9 166 191 0
-51 57 -195 0
162 163 -213 0
117 -214 -244 0
-120 -215 221 0
58 112 -162 0
31 73 -239 0
-24 -41 -188 0
34 142 -203 0
5 76 -142 0
-21 85 -156 0
1 111 141 0
-141 173 -240 0
135 234 -237 0
-181 -236 244 0
-47 121 147 0
-34 -37 -143 0
75 -173 -248 0
-13 132 243 0
-7 -11 220 0
115 -139 -150 0
85 135 -238 0
47 -125 229 0
90 227 -250 0
14 -207 243 0
67 133 -146 0
205 -208 245 0
-177 -236 -248 0
131 -219 -225 0
-17 193 218 0
-74 78 117 0
-32 -64 190 0
-42 -222 -248 0
-2 52 -180 0
10 -94 -184 0
89 141 176 0
82 107 -241 0
20 27 -145 0
-2 97 -216 0
10 -133 170 0
-80 -109 -228 0
9 29 -161 0
-10 -90 246 0
-32 77 197 0
-110 137 186 0
-41 42 221 0
75 -127 -190 0
-7 -10 -242 0
-160 -161 220 0
-39 92 -241 0
-9 -218 247 0
-41 136 -238 0
-27 112 215 0
56 150 -192 0
21 -44 105 0
31 -114 146 0
106 160 -185 0
13 -110 111 0
-29 -100 250 0
-35 -164 -195 0
40 89 186 0
-70 98 116 0
147 -155 244 0
134 -143 -188 0
79 107 -150 0
-31 71 -140 0
-16 199 228 0
96 -154 -238 0
17 -65 131 0
-171 -213 -238 0
108 -162 -178 0
55 -95 222 0
-44 -103 -203 0
-116 -128 -212 0
-45 -188 -202 0
142 154 250 0
41 138 -162 0
167 188 243 0
-34 -175 -192 0
31 -176 209 0
22 153 171 0
-108 134 232 0
84 -178 202 0
-69 163 196 0
118 -147 -185 0
-40 57 91 0
-80 143 153 0
-49 -53 196 0
65 94 -111 0
-50 -56 -128 0
154 159 -215 0
6 -51 -67 0
100 189 221 0
40 58 212 0
87 -139 166 0
61 -80 189 0
28 -193 -203 0
48 -94 -123 0
-137 -142 -239 0
127 177 -194 0
-26 -27 72 0
-176 -179 197 0
30 -85 -213 0
21 -54 -103 0
-27 -153 -154 0
-126 168 174 0
-9 -42 -105 0
135 -183 -196 0
-53 150 -184 0
-32 109 -213 0
-92 -201 216 0
10 -131 -208 0
39 62 182 0
-33 135 -243 0
-130 -160 171 0
101 122 157 0
-156 -181 224 0
15 -64 -151 0
43 198 -210 0
128 -168 227 0
-4 101 -165 0
-19 -31 -234 0
92 144 242 0
122 217 225 0
52 -137 -191 0
171 235 -242 0
-38 -127 -220 0
-3 -25 178 0
38 -91 -192 0
32 80 -149 0
-74 122 233 0
-20 65 -66 0
-49 -155 156 0
149 -178 215 0
28 114 -176 0
-139 -171 240 0
49 -95 -159 0
75 121 244 0
118 -191 -241 0
-161 208 213 0
-65 -90 -102 0
39 78 131 0
-135 249 -250 0
-3 -91 -228 0
24 -29 208 0
-48 53 161 0
81 180 -184 0
47 -144 -196 0
39 -64 -151 0
-100 -121 -123 0
-139 -142 -210 0
185 227 -245 0
-120 -226 235 0
-137 160 -204 0
-40 -100 128 0
30 -108 -115 0
22 61 -219 0
86 -137 230 0
-40 -193 210 0
-86 174 208 0
-168 -198 -212 0
14 -31 -250 0
41 75 212 0
17 -96 154 0
-22 132 -176 0
84 -117 157 0
107 230 -240 0
-13 19 -148 0
-90 -102 136 0
61 215 -237 0
78 -134 237 0
126 -155 -168 0
-81 -191 195 0
-33 -206 -212 0
67 -130 -170 0
55 -151 -221 0
43 84 -131 0
135 153 206 0
-133 213 -238 0
-30 -175 178 0
-74 -98 -108 0
-20 170 -197 0
5 93 188 0
34 151 203 0
-46 -122 -219 0
2 -68 103 0
-17 57 -162 0
-27 -133 -166 0
-51 179 -232 0
81 191 -238 0
-96 112 154 0
-44 99 112 0
-67 -173 245 0
185 -197 218 0
195 -200 226 0
104 188 -228 0
-108 183 -212 0
14 16 -199 0
16 -70 -237 0
