c F1 random 3-CNF cnfgen RandomKCNF(3,125,533,seed=11) m/n=4.26
p cnf 125 533
-58 -72 111 0
-24 66 103 0
19 39 -58 0
58 84 124 0
5 8 -25 0
42 57 -76 0
1 -64 -85 0
53 -71 -120 0
-30 66 98 0
-14 73 -99 0
9 50 123 0
27 -117 -119 0
51 54 -91 0
-12 40 -44 0
16 98 119 0
-2 8 60 0
25 -58 -66 0
15 51 -54 0
-103 111 125 0
24 51 110 0
28 -34 -57 0
10 12 50 0
-48 77 -80 0
-18 74 107 0
30 40 117 0
81 -95 -121 0
11 54 78 0
-5 66 -124 0
-33 -54 106 0
9 93 -119 0
72 -84 110 0
27 96 -118 0
32 53 58 0
37 48 -68 0
-18 58 115 0
-3 -61 119 0
3 -77 82 0
40 41 94 0
48 58 -70 0
-11 46 -88 0
-4 102 -121 0
2 49 75 0
-15 -33 -82 0
-89 -95 -120 0
11 -70 108 0
3 -30 -62 0
-2 -33 115 0
26 -79 -87 0
-31 -64 -115 0
26 56 -82 0
-29 75 118 0
18 45 -64 0
-15 -22 -106 0
-28 -107 -119 0
-41 -87 92 0
5 -36 -107 0
40 84 -102 0
-4 25 59 0
7 -81 102 0
-69 81 84 0
-26 61 106 0
61 69 97 0
35 -45 100 0
-12 53 -120 0
26 -59 -81 0
42 60 84 0
-28 32 -116 0
-69 -102 120 0
11 -45 -65 0
-54 -71 99 0
28 -104 112 0
23 -43 69 0
-67 -93 116 0
-29 57 -98 0
40 -49 86 0
-68 -70 124 0
15 -53 69 0
-6 69 -125 0
12 -22 -89 0
-103 -118 123 0
-17 -61 -64 0
14 -41 68 0
17 34 119 0
-2 -20 -30 0
32 -64 80 0
-66 80 -110 0
-3 49 82 0
69 81 111 0
-30 95 -118 0
41 78 115 0
13 18 114 0
-13 -34 50 0
26 52 81 0
-46 73 -88 0
65 88 -107 0
-4 5 14 0
15 24 -27 0
13 87 -119 0
-10 -13 -98 0
-46 55 -66 0
2 82 90 0
-47 -53 59 0
13 -22 78 0
-91 103 -108 0
-34 98 104 0
52 -105 -120 0
56 -98 99 0
-10 -24 -93 0
-2 13 114 0
-35 -121 124 0
52 73 -85 0
64 66 -83 0
3 15 -74 0
52 57 -65 0
-2 -13 -34 0
-66 70 -71 0
10 -83 104 0
50 -61 125 0
-55 -64 -121 0
-40 -47 -77 0
-37 72 119 0
32 75 -99 0
50 -88 -97 0
-7 75 93 0
-55 62 93 0
-13 67 120 0
15 -78 -91 0
16 -27 111 0
16 -47 -57 0
-34 -77 82 0
38 94 -122 0
-15 -65 -115 0
35 -79 88 0
25 32 122 0
-2 34 35 0
-14 29 70 0
21 -87 -117 0
-27 -46 -62 0
18 96 -108 0
80 -104 -106 0
34 -50 96 0
-77 -84 108 0
48 -55 -84 0
-11 -56 -70 0
2 -100 106 0
78 -85 -117 0
-89 -93 98 0
-29 -46 85 0
-42 -57 -91 0
-29 41 59 0
-4 -47 -107 0
-25 -95 102 0
73 76 108 0
-59 98 113 0
8 -67 70 0
-84 103 -108 0
-11 70 -101 0
-14 95 116 0
19 -82 84 0
-29 -63 -92 0
-44 45 -104 0
63 69 -104 0
-86 97 -106 0
-12 107 -114 0
2 -91 -103 0
19 -32 118 0
-27 -42 -50 0
-8 -114 125 0
20 39 -83 0
3 -62 75 0
24 26 -46 0
-29 66 -77 0
-23 -52 -117 0
-52 63 -114 0
29 52 111 0
-50 103 125 0
-2 -112 -115 0
-32 92 -102 0
21 -42 99 0
-80 82 95 0
23 74 99 0
-11 -17 106 0
-62 89 -114 0
-3 25 102 0
57 101 -106 0
-21 -64 -68 0
-10 -52 72 0
10 47 -88 0
60 -87 96 0
-49 92 -111 0
15 59 73 0
-38 -49 -81 0
-12 72 86 0
-15 -49 -94 0
-61 -73 -93 0
12 14 19 0
24 -25 52 0
5 13 -30 0
-10 -53 99 0
27 -83 -99 0
43 -53 -118 0
32 -101 -102 0
-25 40 -44 0
-27 43 66 0
-33 69 -99 0
65 66 79 0
4 73 121 0
-32 -62 -74 0
-12 -112 -119 0
16 58 114 0
34 -72 118 0
16 -106 -120 0
-31 74 98 0
71 -77 104 0
24 -52 -101 0
76 79 82 0
5 -53 60 0
-23 52 -73 0
-32 73 120 0
86 -93 -101 0
-14 -61 -77 0
-37 -63 -97 0
-15 -16 -73 0
4 -42 -116 0
-49 -77 94 0
-16 32 -109 0
7 61 -125 0
51 85 -121 0
54 70 -111 0
16 73 116 0
-16 69 -113 0
32 -39 94 0
-9 -57 115 0
46 75 -89 0
-4 -59 -116 0
-19 64 120 0
38 110 -119 0
-46 108 110 0
82 90 113 0
113 122 -125 0
-41 -93 105 0
-43 -90 123 0
-22 29 111 0
24 -35 -93 0
48 85 -103 0
24 -115 119 0
-12 82 -86 0
10 68 -118 0
33 55 -69 0
25 -32 97 0
24 102 -115 0
-75 97 -118 0
-8 -9 -24 0
-5 67 101 0
15 -56 -78 0
92 -101 -102 0
-29 -70 110 0
26 -77 125 0
20 -42 -78 0
-57 65 93 0
15 23 117 0
-6 -40 -55 0
12 -84 -106 0
-21 32 -64 0
47 53 60 0
63 97 -98 0
6 67 -96 0
19 -68 -114 0
55 61 120 0
16 -33 -38 0
-12 -30 -120 0
79 119 122 0
52 -75 84 0
51 -60 -111 0
-7 -28 101 0
24 -71 102 0
-28 -52 -77 0
58 -63 81 0
50 54 -70 0
36 47 -122 0
51 -66 73 0
-8 20 47 0
93 108 -117 0
50 -58 -108 0
33 -99 -113 0
31 63 78 0
17 66 -77 0
53 -55 -62 0
-58 86 93 0
-36 -69 107 0
-50 67 111 0
38 45 48 0
-4 96 -109 0
9 -85 86 0
-100 112 -123 0
12 -55 -103 0
-8 -50 -63 0
29 -36 91 0
-22 61 99 0
-44 96 -117 0
-33 75 -90 0
16 -47 -117 0
-7 -49 -64 0
10 33 -114 0
-42 -48 115 0
-50 -61 83 0
74 91 121 0
-53 70 -80 0
-9 -60 -107 0
-5 -18 -103 0
3 47 -61 0
30 34 88 0
51 70 -119 0
84 -98 -109 0
14 -45 114 0
51 88 90 0
-21 -43 -80 0
-37 47 54 0
42 47 91 0
-9 14 -105 0
-66 87 99 0
-53 80 -111 0
-33 -51 -65 0
-48 88 -92 0
27 -98 110 0
-80 95 107 0
-26 49 80 0
2 -61 -125 0
-33 -54 81 0
7 21 92 0
37 -46 -94 0
-4 107 -116 0
-9 40 -57 0
53 -80 93 0
37 -70 103 0
-14 -72 -107 0
16 -20 42 0
-36 -52 81 0
-11 -26 62 0
-1 9 20 0
24 44 -62 0
-5 -54 62 0
-28 -71 79 0
38 -111 121 0
4 23 110 0
-4 35 -46 0
2 -27 114 0
34 -68 -99 0
40 -69 -103 0
-53 91 108 0
-19 -30 -74 0
-36 -65 -85 0
-9 36 -40 0
28 43 95 0
-17 70 96 0
14 -20 -45 0
3 -24 56 0
13 42 52 0
9 -42 -97 0
61 -121 -124 0
91 -100 114 0
-50 87 -122 0
-2 19 68 0
-45 -79 114 0
-16 -95 -108 0
50 -54 108 0
-5 -66 -118 0
6 -76 77 0
-43 -60 69 0
-61 71 95 0
63 97 115 0
84 108 119 0
33 34 66 0
-33 -44 92 0
-2 69 -111 0
36 83 124 0
-57 72 101 0
64 103 110 0
23 -47 104 0
45 -119 123 0
-24 54 -79 0
10 63 -116 0
94 -113 -123 0
-2 -44 105 0
24 27 -89 0
6 -17 -36 0
-46 79 80 0
-9 -27 -89 0
-10 -19 -26 0
-53 -79 105 0
16 -65 -121 0
31 -64 75 0
37 -112 113 0
50 -62 120 0
-9 -58 -82 0
-37 -57 75 0
32 -79 -87 0
-17 -76 -115 0
14 36 -44 0
-12 27 -115 0
-4 76 93 0
10 -47 -61 0
62 84 86 0
51 56 102 0
-9 60 84 0
48 -64 107 0
11 95 -102 0
-85 104 -125 0
-3 -20 60 0
14 45 -53 0
16 65 73 0
-12 -66 -85 0
-32 -76 100 0
28 58 -76 0
18 109 116 0
68 -73 125 0
2 53 106 0
49 -92 95 0
-15 52 -64 0
11 -39 54 0
-54 -85 118 0
72 84 -114 0
-35 39 -81 0
-11 -55 -102 0
-43 56 84 0
40 68 -107 0
42 52 -71 0
-5 41 -47 0
-2 48 94 0
46 -76 -89 0
27 -39 108 0
-16 64 67 0
-28 -33 -76 0
12 37 -52 0
-29 33 -107 0
-20 -101 105 0
-7 63 98 0
44 82 119 0
-62 -95 106 0
-11 23 -101 0
-58 87 -97 0
41 95 -115 0
71 86 -107 0
40 89 123 0
42 54 69 0
-36 61 -112 0
-26 -49 -120 0
-50 89 103 0
42 75 -99 0
-21 -84 -106 0
-58 -74 76 0
-51 62 -91 0
-30 -34 81 0
-9 -33 118 0
28 56 -92 0
-59 -68 117 0
24 -30 97 0
5 -46 -90 0
-20 -58 63 0
20 32 -101 0
16 21 -98 0
42 -47 -89 0
15 32 -46 0
-37 38 -86 0
10 -35 -63 0
-20 66 121 0
12 -70 -79 0
-7 55 -120 0
-48 58 -88 0
45 73 94 0
74 -119 121 0
14 73 -120 0
40 46 112 0
4 19 -53 0
24 -68 -87 0
26 -113 119 0
-11 25 63 0
-18 -39 116 0
35 90 -121 0
-3 -102 120 0
12 67 99 0
-15 39 -112 0
5 20 107 0
9 -48 123 0
43 -45 -53 0
2 -99 116 0
-48 -68 -75 0
-31 84 120 0
-20 -28 33 0
43 101 -118 0
-67 74 77 0
-9 -30 40 0
5 87 102 0
65 -88 98 0
6 -54 -72 0
-9 10 -117 0
86 -101 102 0
37 -49 117 0
-5 7 -64 0
19 21 118 0
64 -113 -123 0
-18 19 120 0
18 -31 -90 0
-16 48 94 0
24 45 -93 0
24 -42 -75 0
-68 98 103 0
3 -29 84 0
21 -43 -124 0
-102 -115 -125 0
5 -25 60 0
-57 75 -98 0
-6 21 23 0
-4 29 -55 0
4 24 -44 0
-6 -44 -125 0
-33 80 -96 0
-19 -75 -114 0
-33 43 122 0
-60 66 -72 0
-31 72 -75 0
13 -37 -82 0
-15 64 -72 0
-35 52 64 0
-41 64 82 0
-4 36 125 0
7 -36 103 0
25 -33 -116 0
8 -72 -122 0
-20 38 41 0
-58 89 107 0
-92 -94 103 0
-16 61 105 0
