c F1 random 3-CNF cnfgen RandomKCNF(3,75,320,seed=7) m/n=4.26
p cnf 75 320
20 42 51 0
8 47 75 0
9 54 -56 0
8 16 -73 0
6 -7 -29 0
-16 19 70 0
-25 74 75 0
-8 -27 -73 0
-59 -60 75 0
-11 -24 -32 0
10 -37 58 0
-20 44 63 0
-41 -72 -74 0
9 -59 -75 0
-8 -9 -40 0
-3 45 60 0
-8 28 64 0
11 -51 -64 0
-18 -36 -71 0
30 46 49 0
-2 20 -30 0
-1 -19 -37 0
-7 -17 -66 0
-14 -51 52 0
-9 25 27 0
7 14 44 0
4 -10 47 0
-33 45 47 0
-60 -62 63 0
-14 -19 44 0
-3 27 67 0
-12 -39 68 0
-29 46 69 0
30 -31 -52 0
-4 36 -61 0
45 47 58 0
-26 30 -61 0
1 45 -62 0
-23 -26 62 0
51 52 60 0
-4 17 -20 0
20 45 71 0
-14 18 68 0
-4 28 -33 0
34 54 -70 0
-59 67 75 0
-3 66 68 0
-19 20 23 0
-42 67 68 0
25 32 -36 0
-4 -9 72 0
-36 58 -66 0
26 -58 72 0
41 51 -57 0
10 28 -39 0
-18 19 33 0
21 51 -63 0
-44 52 -66 0
12 -41 -47 0
-3 -50 57 0
14 -15 -30 0
6 -24 -35 0
-20 -52 69 0
-8 24 -36 0
3 12 34 0
16 -34 -59 0
6 17 35 0
7 -24 -34 0
-27 38 -68 0
3 33 45 0
-25 65 -71 0
-14 -56 64 0
26 -30 -44 0
2 -7 -17 0
-8 -11 21 0
6 38 -59 0
-1 -34 -58 0
5 -32 40 0
1 -43 -49 0
26 32 -65 0
12 -19 52 0
11 -30 -39 0
20 37 -64 0
18 65 68 0
-4 6 -18 0
7 58 -72 0
1 34 59 0
-10 33 61 0
-30 59 -64 0
6 26 -37 0
33 39 -73 0
8 35 -63 0
-37 -38 -67 0
-16 26 -71 0
3 -38 -59 0
10 27 -50 0
-17 47 -66 0
-30 63 64 0
-1 -58 63 0
-45 49 -54 0
-1 42 44 0
-2 33 -38 0
-10 -47 50 0
-7 14 36 0
-35 56 -66 0
4 52 55 0
-18 -53 58 0
-17 -22 -71 0
-33 -37 39 0
-39 62 72 0
-10 21 -27 0
43 55 58 0
12 -23 44 0
34 48 -73 0
50 -53 -68 0
-8 -44 64 0
28 -65 68 0
-50 -52 58 0
-5 -17 55 0
-10 -51 68 0
14 20 -29 0
6 11 71 0
5 -39 -73 0
-10 13 -15 0
1 -29 -34 0
-32 36 41 0
4 40 53 0
-11 54 -64 0
30 -48 -64 0
26 -47 51 0
-26 27 64 0
-29 34 -60 0
-24 29 63 0
7 28 -51 0
-7 -8 -24 0
-11 15 22 0
-5 -60 -68 0
22 43 57 0
-11 36 45 0
-40 46 49 0
-26 48 -61 0
-4 47 -61 0
-5 6 49 0
-9 -25 -33 0
-6 -34 -43 0
1 4 -9 0
-33 -50 60 0
-2 24 64 0
-41 42 59 0
-21 32 51 0
-62 70 -71 0
10 14 34 0
54 58 64 0
31 -54 -59 0
-35 -36 -73 0
26 32 57 0
20 -37 75 0
32 33 -51 0
-1 5 -14 0
6 38 48 0
-10 25 -75 0
-1 14 34 0
19 44 -48 0
-2 -5 -27 0
10 24 -40 0
-9 62 -71 0
20 69 -71 0
-35 -37 53 0
-40 -46 73 0
-26 47 51 0
21 55 -56 0
47 59 74 0
-7 19 -71 0
-19 -22 65 0
9 -22 -67 0
17 -26 -39 0
7 12 -50 0
24 26 -61 0
-21 50 67 0
6 -25 32 0
-50 -59 -71 0
-32 -55 -75 0
23 57 -65 0
-31 58 -60 0
9 -14 -52 0
12 47 57 0
11 41 -66 0
4 9 18 0
22 37 -63 0
-21 -33 42 0
33 -62 65 0
5 41 -48 0
-21 36 -42 0
-7 -15 68 0
-33 -51 -69 0
-19 -48 74 0
23 -30 -57 0
40 41 75 0
-20 -38 56 0
17 30 63 0
-1 46 -73 0
-29 53 69 0
21 47 61 0
13 20 -58 0
2 -34 -52 0
32 64 67 0
-4 8 69 0
8 14 21 0
-26 53 -67 0
-7 9 -39 0
-11 56 60 0
14 30 -34 0
-7 -34 -35 0
11 28 -65 0
-21 26 -31 0
-31 -43 49 0
-4 30 -56 0
10 73 75 0
4 -14 15 0
4 6 18 0
9 -26 47 0
15 27 32 0
13 37 62 0
-38 -41 44 0
33 -37 -45 0
37 -61 65 0
-13 -56 67 0
28 -69 73 0
1 -56 68 0
1 -45 63 0
-45 64 -66 0
28 30 64 0
-14 -63 72 0
-12 51 -52 0
-27 34 -39 0
17 -30 -59 0
-20 58 -67 0
33 57 -75 0
31 -60 -65 0
-20 32 42 0
25 34 42 0
20 -26 -50 0
26 36 -56 0
27 50 -60 0
-29 -56 65 0
19 33 -52 0
30 54 74 0
-41 56 -59 0
-21 -32 -52 0
3 -53 59 0
14 -50 63 0
-21 26 -67 0
27 -61 -70 0
27 -53 59 0
-8 -33 -46 0
-2 -8 -10 0
14 -34 -75 0
-29 51 68 0
-9 17 25 0
-46 53 -60 0
-30 -35 -46 0
-1 -24 62 0
-39 -42 62 0
-20 39 47 0
-18 42 73 0
-10 27 38 0
-24 30 58 0
22 -52 69 0
28 -64 68 0
-16 34 72 0
61 -64 -72 0
-19 32 63 0
-21 -42 -60 0
48 54 -55 0
-3 4 -6 0
5 -19 63 0
-13 -44 47 0
-37 -44 56 0
-38 -46 -64 0
-27 45 -65 0
25 39 41 0
52 -70 -71 0
1 -6 14 0
49 65 70 0
6 23 59 0
-2 13 -54 0
34 -39 72 0
3 -41 56 0
-16 -54 74 0
-2 -20 50 0
11 28 -61 0
1 2 16 0
-3 17 -61 0
7 24 -47 0
-59 64 72 0
-2 -8 -11 0
-8 -22 -63 0
19 -22 61 0
-50 -54 -62 0
-8 36 38 0
40 -55 -75 0
-30 49 -58 0
34 35 -55 0
-19 -36 74 0
-63 70 71 0
-8 40 -51 0
2 -50 59 0
-30 -51 -75 0
25 26 65 0
-24 -38 47 0
-6 32 -64 0
-11 20 -60 0
3 36 67 0
-28 -63 -73 0
-13 17 -58 0
24 26 49 0
-5 -48 72 0
-12 -16 51 0
12 -51 65 0
29 31 -48 0
