c F1 random 3-CNF cnfgen RandomKCNF(3,200,852,seed=7) m/n=4.26
p cnf 200 852
39 83 102 0
15 94 150 0
18 108 -112 0
16 32 -145 0
12 -13 -57 0
-31 37 139 0
147 -149 164 0
17 141 -183 0
-110 -137 -175 0
64 77 93 0
-77 -135 -148 0
19 -74 156 0
-39 -88 194 0
-20 -172 -196 0
-128 149 153 0
70 122 -179 0
-148 -166 -175 0
-6 -89 172 0
30 127 -157 0
-34 -64 -190 0
-21 -43 115 0
-72 -111 -141 0
22 39 60 0
-4 60 -169 0
-2 -38 -73 0
33 -132 -177 0
101 -102 -103 0
16 -18 49 0
29 88 154 0
39 -138 146 0
-19 54 -158 0
-89 94 155 0
-120 -123 125 0
-27 -37 -192 0
42 133 -178 0
38 -140 177 0
-67 133 -179 0
-58 137 198 0
62 103 -190 0
8 -92 -188 0
-50 -67 -178 0
21 57 -94 0
-51 53 -87 0
89 165 -168 0
-52 183 -193 0
-23 -86 -163 0
22 186 191 0
-8 39 -152 0
40 90 169 0
27 -167 186 0
8 -55 65 0
-84 -151 196 0
-16 -91 190 0
39 -135 137 0
2 156 199 0
122 159 -186 0
-133 136 175 0
49 64 -71 0
8 -144 -195 0
130 -156 -157 0
123 -131 137 0
36 -107 -115 0
19 -81 172 0
55 78 -172 0
-36 37 65 0
42 102 -125 0
-87 104 -132 0
-24 82 -185 0
113 -118 -142 0
76 133 160 0
-22 27 68 0
-34 -70 -194 0
-39 -132 138 0
15 -72 177 0
5 -69 163 0
-18 57 -156 0
-3 -87 142 0
12 135 182 0
13 -47 -68 0
-53 -136 195 0
-5 70 89 0
5 -130 188 0
-28 -115 -169 0
79 130 -177 0
51 -181 -187 0
4 -14 -34 0
-15 -22 42 0
-12 76 178 0
-1 -69 -115 0
63 -83 141 0
-1 -47 92 0
72 122 129 0
23 -24 68 0
-6 77 101 0
136 -150 -193 0
-39 127 185 0
-132 161 184 0
150 176 183 0
-11 35 -164 0
13 116 -143 0
1 68 117 0
-122 189 -191 0
61 187 -194 0
-20 -98 127 0
158 162 165 0
-66 85 167 0
-16 124 125 0
-75 -126 -173 0
31 -120 197 0
-5 75 -122 0
54 69 100 0
-37 -135 192 0
-131 155 -162 0
-60 125 128 0
-1 -126 -175 0
-37 -107 -187 0
-1 -31 -85 0
31 -51 -183 0
-17 96 -101 0
71 -110 194 0
14 74 -170 0
81 -112 -131 0
-8 162 195 0
-13 106 -188 0
13 125 -141 0
-73 -88 -107 0
-62 -104 -168 0
31 43 165 0
128 -129 -141 0
110 116 195 0
24 -45 88 0
67 95 -146 0
99 -106 -191 0
-16 -87 -193 0
33 129 -176 0
-64 -99 -103 0
-6 -9 -33 0
-1 -19 101 0
28 40 -58 0
22 142 199 0
-10 60 -146 0
112 136 163 0
77 -135 -150 0
1 -58 -154 0
72 -81 166 0
-8 -64 141 0
-6 50 -128 0
-59 109 -171 0
-9 -87 -179 0
2 51 -75 0
52 80 -197 0
-57 68 -195 0
-48 -58 157 0
38 101 153 0
37 107 153 0
-101 116 183 0
43 -49 85 0
-80 -171 -186 0
28 44 -114 0
21 90 -108 0
-80 92 197 0
-51 -122 181 0
-83 94 -189 0
-64 161 -197 0
9 -17 119 0
-17 -156 -192 0
-12 -86 -158 0
1 77 185 0
-28 -122 -184 0
-34 111 127 0
78 178 -190 0
82 93 -118 0
-41 64 193 0
-124 140 -142 0
19 27 68 0
-108 128 182 0
35 107 -118 0
-72 -76 -146 0
-51 67 189 0
-40 61 -63 0
17 65 102 0
10 119 -168 0
60 -96 115 0
13 31 -49 0
-46 115 132 0
-153 164 182 0
37 88 -95 0
10 154 -188 0
96 -105 174 0
-9 53 -127 0
26 102 170 0
-70 -102 -179 0
-14 -80 -107 0
5 -94 -197 0
2 -53 112 0
-24 -104 148 0
4 -14 34 0
95 147 -160 0
42 73 134 0
99 -126 193 0
12 -81 124 0
159 177 -183 0
51 122 158 0
-41 -103 133 0
39 64 186 0
-31 -83 -171 0
79 -108 -167 0
-95 115 169 0
-1 126 -159 0
-159 196 -200 0
18 -28 -103 0
24 94 114 0
22 81 -188 0
7 35 168 0
34 74 126 0
-90 157 -194 0
71 -117 -158 0
54 -68 -152 0
-10 47 -51 0
84 -97 174 0
-13 -136 197 0
-65 -138 -162 0
95 -97 -148 0
21 114 196 0
-65 -76 133 0
9 -57 -192 0
94 107 -132 0
59 157 168 0
-1 91 -146 0
-58 106 137 0
94 122 160 0
-39 63 182 0
-38 -164 -171 0
-3 -15 -166 0
1 43 64 0
48 61 104 0
4 142 -157 0
-52 133 -156 0
17 -77 161 0
-97 112 -191 0
-27 45 58 0
-32 86 -192 0
-142 -163 -174 0
22 56 -165 0
52 -61 191 0
85 -100 -154 0
121 136 -179 0
-60 147 -186 0
20 150 160 0
7 -28 29 0
8 11 180 0
-12 17 189 0
99 183 194 0
9 29 -53 0
26 34 -123 0
-82 87 -109 0
-13 -66 -73 0
74 -159 191 0
112 -133 -198 0
13 138 -181 0
1 -44 112 0
2 -90 126 0
-89 127 -152 0
-55 60 180 0
-21 163 -197 0
-25 92 -103 0
7 -96 -166 0
110 -129 140 0
33 -118 -137 0
-40 116 -134 0
-113 177 198 0
86 119 -165 0
78 181 194 0
-84 155 186 0
49 67 84 0
39 -51 -99 0
51 71 -112 0
53 100 -119 0
-57 -112 178 0
-37 66 155 0
-111 147 180 0
47 -165 -174 0
67 -81 161 0
103 -162 -183 0
-6 117 -124 0
-3 100 200 0
56 65 -140 0
26 -117 148 0
-95 -134 -164 0
-48 54 -176 0
-15 -65 -164 0
-4 -16 -20 0
28 -68 -149 0
-57 101 135 0
18 -34 199 0
-38 -91 -171 0
141 -167 -195 0
-59 -69 -181 0
48 -124 -174 0
-63 -78 -168 0
110 -160 164 0
15 -78 99 0
89 136 163 0
-19 76 168 0
-48 -60 199 0
54 104 -137 0
51 127 -178 0
30 -143 -172 0
-36 60 -122 0
-37 120 -180 0
43 139 -154 0
-120 -145 -179 0
96 108 -110 0
8 163 -166 0
-25 124 131 0
55 -107 184 0
-88 94 -169 0
-88 109 -112 0
-75 -91 -127 0
-53 89 -130 0
-50 82 183 0
-11 103 -186 0
2 28 -77 0
156 -169 197 0
161 173 179 0
118 163 171 0
10 108 -199 0
-36 -80 144 0
9 -82 108 0
128 134 -146 0
-104 148 179 0
100 -153 -175 0
-22 27 141 0
4 110 161 0
23 -32 56 0
71 -146 185 0
13 94 -199 0
-143 -161 -182 0
9 14 184 0
159 -167 -176 0
80 -154 187 0
-81 -95 148 0
30 -38 -93 0
-99 -116 -200 0
-16 72 160 0
-80 150 -154 0
97 -100 -176 0
-1 -83 -177 0
41 -151 196 0
-38 -71 147 0
-125 139 142 0
-15 -80 156 0
66 -151 -193 0
-23 138 139 0
-102 -134 -149 0
52 130 151 0
-24 -47 -180 0
104 133 200 0
-28 -96 127 0
40 -81 -153 0
6 133 156 0
125 -145 -151 0
25 -110 115 0
-47 52 87 0
-9 -14 -143 0
-17 154 164 0
66 82 -145 0
-41 47 115 0
-10 45 66 0
-13 67 132 0
38 82 -194 0
113 -151 -152 0
66 -96 -100 0
44 98 113 0
50 120 184 0
20 -96 159 0
6 -99 -161 0
60 -83 123 0
57 85 -189 0
38 -113 -142 0
40 -64 -106 0
-43 67 -86 0
30 117 124 0
74 -123 144 0
67 94 111 0
75 100 -107 0
-5 -37 164 0
-1 114 -135 0
11 -105 112 0
36 47 134 0
-21 -23 154 0
36 -53 157 0
-3 17 -178 0
-73 86 164 0
105 -123 196 0
48 94 -145 0
-2 -148 153 0
31 -92 -183 0
-16 148 -193 0
7 115 132 0
23 58 159 0
65 80 143 0
-50 179 -190 0
-62 134 -180 0
25 -46 184 0
-120 127 150 0
32 36 104 0
-119 147 172 0
-100 163 -178 0
-14 -93 199 0
-86 -112 184 0
-38 84 -133 0
-3 162 170 0
18 84 111 0
-36 102 108 0
-9 -159 165 0
26 65 -160 0
11 -61 -74 0
31 -43 166 0
120 -137 152 0
-34 -76 -131 0
-23 -63 189 0
-52 -99 -167 0
-121 123 157 0
-49 -57 86 0
-42 -62 -91 0
-56 70 73 0
-18 -41 142 0
-100 113 133 0
-40 -174 -190 0
-36 52 -173 0
69 -162 182 0
2 -106 -197 0
-39 107 -147 0
-116 -118 -178 0
-91 -101 135 0
-98 -128 191 0
-38 -78 138 0
23 -83 85 0
3 -7 -110 0
-77 -138 -199 0
92 -100 -119 0
3 18 -174 0
96 103 -129 0
-103 113 125 0
82 -93 94 0
-29 -76 168 0
75 131 -135 0
16 -47 162 0
3 -106 178 0
26 78 102 0
-45 128 197 0
32 106 155 0
8 -20 -26 0
16 -111 157 0
-61 91 184 0
26 -69 161 0
99 116 160 0
102 -150 196 0
62 64 159 0
45 -81 -151 0
-65 108 155 0
100 -173 -174 0
103 125 183 0
-44 45 92 0
-75 102 -144 0
-86 99 137 0
90 -109 142 0
73 -89 120 0
-7 72 171 0
24 -34 181 0
114 120 -143 0
-56 -91 185 0
77 122 -130 0
-34 -173 -181 0
64 104 137 0
-24 -132 174 0
146 -169 184 0
23 100 -182 0
28 -49 -170 0
-17 50 184 0
-33 -74 -184 0
104 -119 199 0
-8 -94 174 0
-169 180 -181 0
26 -91 161 0
70 156 -188 0
-11 42 -156 0
40 -98 190 0
-59 -145 -146 0
-148 172 176 0
-168 196 199 0
29 -63 175 0
89 -192 -199 0
-57 158 -192 0
-88 109 114 0
110 -132 173 0
-12 144 180 0
-61 164 200 0
-44 89 92 0
36 -80 -163 0
61 -62 181 0
-90 165 179 0
-62 145 -151 0
44 -174 -195 0
-30 53 -177 0
12 -53 -125 0
-29 -51 180 0
-42 -84 -114 0
19 44 -143 0
-22 -125 193 0
-112 126 -166 0
-3 -24 92 0
21 36 -192 0
38 76 95 0
-80 -185 191 0
82 -92 166 0
65 95 142 0
-28 146 161 0
109 -127 128 0
37 59 -177 0
23 -103 -164 0
-49 56 186 0
109 -131 157 0
-15 -132 170 0
3 113 -171 0
-2 76 -114 0
-22 -83 139 0
103 156 -159 0
-77 -156 -169 0
-36 -166 169 0
-49 57 174 0
-96 -149 170 0
-102 113 145 0
47 52 -141 0
-25 -49 167 0
58 118 -142 0
19 113 174 0
101 118 -176 0
-24 36 -199 0
13 61 96 0
31 -77 118 0
52 -145 160 0
88 -94 191 0
-62 -96 132 0
-26 -91 155 0
-9 -63 173 0
-6 115 178 0
-19 29 125 0
-75 142 -176 0
-138 -177 195 0
-7 -39 88 0
-10 -20 47 0
101 115 -178 0
-56 85 136 0
-44 -55 -93 0
81 -91 -100 0
6 -59 86 0
38 -162 -187 0
-17 -70 129 0
9 144 -179 0
-26 -147 163 0
-19 -37 -175 0
-63 -131 -163 0
-16 -87 -181 0
61 63 90 0
-2 -117 -172 0
78 146 198 0
-78 -79 185 0
21 -49 -150 0
-92 120 -199 0
-45 71 82 0
61 69 161 0
-52 103 115 0
15 62 188 0
19 88 148 0
70 -138 165 0
55 -83 -84 0
87 157 -174 0
-12 -23 -161 0
4 -66 -119 0
-15 107 158 0
5 40 -54 0
89 -93 109 0
-67 159 -190 0
-141 -167 -198 0
71 -134 136 0
-26 122 143 0
24 103 194 0
16 129 -140 0
94 156 189 0
8 -90 -136 0
-55 -89 163 0
7 28 -83 0
16 -90 -173 0
97 161 -169 0
-6 68 182 0
-53 -84 -91 0
56 -128 -146 0
-35 77 -193 0
2 -64 -125 0
14 -55 149 0
113 -199 200 0
7 77 176 0
-35 39 78 0
102 -119 -175 0
-165 -171 184 0
52 61 150 0
-60 130 153 0
13 17 -82 0
35 110 135 0
38 -139 -176 0
20 56 -90 0
-4 -46 181 0
12 -51 -131 0
3 -69 -84 0
-85 -141 -177 0
-82 -109 139 0
-99 100 195 0
-62 -129 156 0
30 51 170 0
-104 -143 -178 0
-1 -117 -148 0
98 -140 -152 0
-17 -101 183 0
140 -161 -171 0
-90 122 185 0
-17 136 194 0
62 94 -173 0
46 -164 -167 0
-32 93 -110 0
-27 -94 -97 0
-23 -71 -170 0
-29 116 178 0
-2 -34 175 0
-95 -134 -160 0
5 -52 143 0
-46 -79 -152 0
62 -68 113 0
-33 -52 109 0
-97 114 -184 0
-105 -111 166 0
34 -99 149 0
53 85 -171 0
-98 -101 135 0
-28 -145 -152 0
46 -107 -122 0
35 126 132 0
-11 -103 -139 0
31 118 198 0
-4 27 147 0
15 -117 -145 0
-15 141 -177 0
-13 -38 161 0
-2 -48 133 0
-66 -81 -99 0
-14 79 -175 0
-66 112 139 0
-14 -54 -138 0
-37 -150 182 0
117 -143 181 0
-18 105 -137 0
57 75 -113 0
104 114 187 0
47 112 164 0
19 128 153 0
-57 128 173 0
38 184 -200 0
24 -25 52 0
-66 -169 181 0
15 35 -179 0
-60 76 -195 0
67 84 141 0
-9 84 -101 0
58 140 -168 0
-39 -48 -187 0
10 30 91 0
75 -90 126 0
-52 72 125 0
36 -70 121 0
26 -149 154 0
39 77 -169 0
90 -116 -124 0
29 -46 77 0
29 -142 -192 0
9 -10 11 0
91 -107 148 0
44 -93 170 0
78 -123 166 0
28 -30 -62 0
-31 -138 139 0
42 -138 -146 0
51 73 104 0
129 137 187 0
14 28 126 0
-40 44 -193 0
101 -133 160 0
22 149 170 0
132 153 199 0
26 87 154 0
-22 78 88 0
82 105 106 0
38 131 -188 0
36 53 -198 0
-1 18 -182 0
85 135 200 0
-13 94 -161 0
-42 127 -150 0
-14 78 -178 0
-99 132 164 0
60 65 -193 0
61 -127 -144 0
-161 -175 -199 0
-23 -59 -168 0
2 77 -126 0
-106 -108 155 0
55 -86 -140 0
-9 -120 159 0
-48 -70 180 0
31 -56 175 0
70 -86 100 0
-58 -90 -157 0
82 130 -156 0
1 3 135 0
-117 -145 169 0
-142 189 -193 0
-20 -107 -171 0
-76 79 -93 0
94 127 178 0
-97 115 -143 0
9 84 -124 0
37 -49 151 0
-151 165 -192 0
-7 -140 198 0
-98 -164 -174 0
-42 83 -148 0
36 52 -133 0
-44 134 -190 0
93 -99 -199 0
-51 -122 -159 0
-28 -67 -175 0
69 99 -121 0
105 -129 164 0
-39 -72 194 0
-71 -93 101 0
67 116 -198 0
-91 93 155 0
-25 141 -193 0
43 -46 -166 0
-88 -103 -191 0
48 -90 -183 0
35 -55 87 0
1 -129 -147 0
-55 147 187 0
57 172 -194 0
-9 -167 191 0
-99 166 -181 0
-55 58 -156 0
-21 146 174 0
32 -56 84 0
71 -115 129 0
11 -120 138 0
-76 88 162 0
54 73 143 0
-8 -69 130 0
71 162 -186 0
-100 132 151 0
-85 96 -137 0
-35 -111 148 0
49 -88 158 0
50 73 -195 0
51 -181 200 0
-144 180 194 0
-17 53 -91 0
91 -143 -161 0
12 -27 -79 0
8 -117 183 0
-40 -94 200 0
82 87 -122 0
-54 -100 131 0
-50 -72 182 0
35 36 112 0
-137 150 187 0
23 119 200 0
-83 -87 160 0
-2 -53 63 0
26 -33 -152 0
-147 150 163 0
44 -103 -121 0
-31 -37 156 0
59 -62 180 0
163 166 190 0
-1 10 -52 0
57 -62 -199 0
11 -40 120 0
25 182 195 0
83 -132 158 0
8 19 143 0
-140 -158 -170 0
2 144 172 0
54 118 -130 0
-23 29 157 0
26 -62 -187 0
-78 80 -196 0
86 148 156 0
12 -20 -30 0
105 148 157 0
16 184 -187 0
-15 -47 -159 0
-35 -65 181 0
25 -84 98 0
-122 -168 196 0
4 -106 138 0
85 92 -140 0
21 42 -137 0
-87 109 161 0
42 55 -118 0
133 177 199 0
-4 -74 194 0
46 -113 -157 0
64 66 88 0
67 159 165 0
78 101 178 0
-4 19 138 0
-29 -143 -185 0
-26 -46 -66 0
-45 177 -179 0
53 -83 88 0
-28 -54 90 0
19 -23 -49 0
-12 37 47 0
66 99 167 0
-4 17 -76 0
94 139 -185 0
-65 95 189 0
-43 64 74 0
-50 -57 167 0
68 121 165 0
95 -97 170 0
113 121 -125 0
126 -143 183 0
45 -123 -125 0
16 -31 -49 0
-62 114 121 0
57 -124 131 0
16 111 135 0
55 81 -131 0
68 118 -120 0
26 -82 -162 0
-18 -31 -181 0
3 -47 131 0
-60 138 -166 0
