c F1 random 3-CNF cnfgen RandomKCNF(3,75,320,seed=9) m/n=4.26
p cnf 75 320
35 48 60 0
44 -60 65 0
-22 49 58 0
7 15 -31 0
14 -27 38 0
-27 -35 51 0
1 -26 -53 0
-4 18 31 0
16 -26 75 0
11 18 -70 0
26 -54 69 0
12 19 75 0
-20 35 72 0
21 -31 52 0
-15 -45 75 0
26 -52 -74 0
1 15 -56 0
-12 -35 42 0
-4 -8 -67 0
32 -45 73 0
-13 -52 66 0
22 34 38 0
16 22 34 0
-8 -27 58 0
-19 -37 46 0
12 38 -72 0
-19 58 -72 0
13 -45 64 0
11 21 23 0
-23 59 61 0
34 62 -71 0
40 -68 70 0
14 -18 -29 0
7 -8 63 0
-30 48 59 0
-7 11 53 0
5 24 25 0
-46 61 71 0
11 -42 -43 0
20 50 -62 0
17 30 58 0
7 15 -16 0
4 -14 60 0
1 31 -33 0
-3 14 -33 0
29 -41 61 0
-5 -24 39 0
-4 -13 39 0
-42 -54 -63 0
-11 -27 -36 0
-57 59 -73 0
8 42 -52 0
4 -25 70 0
-11 44 -58 0
-3 -10 71 0
42 -65 66 0
27 37 69 0
6 -12 41 0
35 -46 -66 0
23 24 -73 0
-3 36 -62 0
-19 -37 67 0
-19 23 -43 0
4 45 -75 0
18 -27 44 0
-26 66 73 0
46 -48 -64 0
25 56 60 0
-32 34 46 0
29 43 70 0
-26 44 -75 0
5 -39 51 0
-6 59 60 0
-26 67 -74 0
-5 -18 -51 0
-13 -24 -66 0
45 48 69 0
40 60 68 0
-16 -26 -60 0
-2 -23 -29 0
42 45 72 0
7 12 -27 0
46 57 -72 0
8 23 -55 0
-25 45 47 0
-36 -41 -70 0
55 56 -69 0
-29 -34 -53 0
9 53 66 0
42 -55 -64 0
11 -34 50 0
4 31 38 0
-14 -26 57 0
10 -40 68 0
-26 -40 -61 0
-8 60 65 0
-10 44 53 0
-53 63 69 0
37 -57 75 0
-1 -36 -43 0
-21 -23 -41 0
11 -37 -42 0
8 -51 -61 0
-30 -38 58 0
16 22 27 0
-2 37 -62 0
-12 21 22 0
-21 33 48 0
26 -64 -73 0
32 -52 -60 0
-3 20 -24 0
-14 -16 -64 0
18 -29 44 0
-1 -11 -14 0
29 -58 -70 0
-21 44 -75 0
-21 27 35 0
20 31 73 0
-17 -52 54 0
20 36 54 0
34 -62 68 0
37 73 75 0
-22 -62 72 0
3 22 44 0
-1 2 52 0
25 -39 70 0
12 27 66 0
5 -41 -59 0
-13 35 71 0
6 -11 47 0
31 34 73 0
1 45 55 0
-19 -59 -73 0
-26 -29 -64 0
8 61 -74 0
-15 -21 61 0
13 43 60 0
-9 33 -48 0
-28 53 -57 0
-41 51 66 0
-6 7 -9 0
-3 47 -54 0
-7 -8 33 0
4 35 -51 0
-8 14 -42 0
-11 38 67 0
21 53 -61 0
-46 51 -55 0
-3 44 62 0
-16 46 -49 0
-25 -54 62 0
-15 47 -73 0
40 -60 73 0
-42 -56 65 0
-8 10 58 0
-18 29 -75 0
8 22 38 0
3 -27 65 0
-8 13 -40 0
31 58 -65 0
7 -36 -48 0
1 11 -15 0
-4 -29 -66 0
14 -32 50 0
10 70 75 0
-11 14 44 0
7 -21 71 0
1 34 70 0
25 31 58 0
-42 64 68 0
4 12 -37 0
41 -50 72 0
3 16 49 0
9 21 -32 0
10 25 -61 0
-39 -43 64 0
-14 43 -45 0
-17 -20 -59 0
20 -28 -75 0
3 -21 69 0
10 31 55 0
28 53 -59 0
12 19 -41 0
-56 -64 -70 0
-17 -39 72 0
19 53 68 0
4 20 60 0
35 -68 69 0
-20 31 55 0
2 -14 -65 0
5 -20 32 0
2 -40 52 0
-25 32 -49 0
-16 -58 -63 0
-46 65 -71 0
19 -35 -54 0
5 -13 -51 0
3 36 -74 0
1 56 -67 0
-32 59 65 0
-32 -58 75 0
-10 -22 -44 0
-51 52 -65 0
24 57 -66 0
-22 25 -56 0
16 -25 51 0
6 -30 -44 0
52 -56 -74 0
2 58 -69 0
-24 48 60 0
14 -54 -72 0
-6 -7 -41 0
9 12 -55 0
-15 39 42 0
31 -52 -54 0
9 -34 69 0
-39 48 65 0
-25 -38 56 0
-14 -21 -31 0
57 61 -74 0
20 21 -37 0
4 53 61 0
31 35 40 0
-6 40 49 0
-8 34 51 0
-20 71 72 0
31 36 -58 0
-57 64 70 0
-17 46 62 0
47 60 62 0
-10 -54 69 0
16 57 -74 0
-8 -12 -71 0
52 -62 71 0
23 -36 -75 0
-2 13 -28 0
3 63 -74 0
-21 -44 -50 0
-10 -61 -67 0
29 -45 -50 0
11 -47 -61 0
20 22 35 0
12 32 -50 0
26 43 66 0
12 -42 49 0
14 -29 -68 0
-7 -42 -75 0
-18 -70 74 0
20 45 57 0
-5 35 67 0
5 29 44 0
14 -28 30 0
15 -48 51 0
15 -47 -61 0
30 -48 62 0
-4 35 49 0
-44 47 75 0
-11 43 -64 0
47 -69 -73 0
-9 36 -52 0
5 65 67 0
10 21 -40 0
40 59 -66 0
-25 46 62 0
5 32 -65 0
-50 -57 74 0
4 30 -36 0
18 33 70 0
-47 55 68 0
-62 -71 -75 0
-32 47 -67 0
44 -47 -51 0
25 38 -39 0
-22 -29 73 0
9 40 54 0
-15 -46 -74 0
-1 62 -72 0
57 -59 -60 0
35 -41 54 0
52 62 72 0
-22 -30 -40 0
19 -21 36 0
2 -25 56 0
-22 59 -63 0
-13 -21 49 0
42 -60 -61 0
15 -23 39 0
17 50 73 0
38 41 -48 0
37 49 -60 0
17 -69 -72 0
-17 -30 -64 0
45 -66 -71 0
46 48 -75 0
-2 -54 58 0
-5 8 25 0
-10 55 -58 0
2 62 -67 0
-4 -33 -50 0
7 22 -72 0
-28 44 67 0
-9 -45 65 0
-17 -25 -64 0
-18 24 -41 0
6 52 -58 0
40 -51 60 0
-47 -72 -73 0
-52 -59 62 0
-8 46 62 0
11 17 -72 0
-34 -46 -63 0
-28 -64 -68 0
11 16 55 0
40 43 -44 0
-8 -39 58 0
-12 32 35 0
-7 8 32 0
32 -37 47 0
-27 33 66 0
19 50 73 0
