c F1 random 3-CNF cnfgen RandomKCNF(3,200,852,seed=4) m/n=4.26
p cnf 200 852
-27 -61 78 0
-6 -18 24 0
-57 -134 138 0
28 -55 -68 0
-43 -50 80 0
-87 156 172 0
64 -72 122 0
-75 147 -181 0
-74 -109 154 0
60 67 79 0
-72 -119 161 0
-18 51 -173 0
-48 -71 92 0
16 -26 83 0
-32 -46 85 0
11 -92 -179 0
-5 74 -83 0
-20 159 -175 0
-35 65 -75 0
3 -94 147 0
75 -93 94 0
30 54 109 0
44 153 -189 0
64 83 -150 0
105 -167 199 0
-62 106 113 0
-64 108 -114 0
-9 -10 49 0
54 -135 -198 0
-14 37 -84 0
168 -184 -191 0
24 -54 -111 0
-121 -165 169 0
-69 -168 -176 0
20 72 -161 0
-33 159 197 0
-119 -163 -177 0
1 55 -56 0
-30 102 198 0
-42 -52 -172 0
7 -9 -21 0
36 -156 199 0
-3 -134 197 0
-22 117 -140 0
-60 -100 195 0
-20 -30 -159 0
114 183 -199 0
31 -109 123 0
-39 -46 -181 0
2 67 -139 0
-29 -31 140 0
-63 -106 134 0
47 161 -197 0
-120 -140 -146 0
-37 -65 101 0
22 111 -156 0
-51 96 148 0
-46 -104 -166 0
6 45 -77 0
-26 41 47 0
45 -123 -167 0
61 -126 -154 0
-59 -84 -191 0
-73 81 -113 0
-48 -118 -139 0
8 -40 -160 0
-24 -80 155 0
123 155 164 0
18 34 -77 0
-149 159 175 0
25 41 -193 0
21 -32 70 0
-39 168 188 0
94 144 -178 0
-40 56 -77 0
-42 -44 -66 0
44 -85 100 0
-5 72 174 0
30 41 156 0
3 -123 -142 0
45 87 -136 0
-79 92 159 0
-66 -149 -170 0
22 61 -81 0
91 122 135 0
128 133 140 0
19 -87 174 0
1 130 -131 0
5 160 -188 0
-38 55 -179 0
-77 100 162 0
-17 -106 127 0
83 112 181 0
-71 -112 -123 0
83 -159 -193 0
-8 -23 -131 0
-34 165 173 0
24 -159 180 0
128 -165 196 0
53 117 146 0
-25 -30 133 0
20 170 192 0
53 -68 -174 0
-156 189 198 0
13 56 194 0
-68 173 181 0
-36 -101 -123 0
104 111 191 0
-40 57 -92 0
-50 -147 -160 0
29 138 -182 0
48 55 137 0
-49 -76 177 0
79 101 -185 0
-90 119 -159 0
35 -115 179 0
30 76 -85 0
42 135 173 0
6 -86 -154 0
36 60 150 0
-60 -74 -155 0
-44 -89 -187 0
9 -138 140 0
31 121 127 0
37 142 -183 0
13 21 -182 0
-15 -76 160 0
-121 165 195 0
12 -74 -107 0
19 -52 111 0
51 73 174 0
21 184 192 0
-75 133 134 0
87 134 164 0
16 -17 177 0
-27 -133 -196 0
35 150 151 0
-12 -41 -197 0
92 -152 -195 0
64 -116 160 0
143 -146 -149 0
42 -78 -86 0
-54 -81 -181 0
-43 95 170 0
50 -85 164 0
9 80 134 0
143 168 176 0
-96 101 -166 0
75 -111 188 0
-15 25 -48 0
42 112 -176 0
88 90 -131 0
-25 94 -195 0
91 -111 147 0
23 100 115 0
26 -33 -74 0
-90 -189 -195 0
80 -102 -172 0
-20 -131 -182 0
59 -148 -160 0
32 86 137 0
-60 -123 -199 0
107 -137 171 0
-111 -179 -196 0
-37 51 -86 0
-139 145 -184 0
-99 123 -190 0
66 152 160 0
-118 147 176 0
-1 60 -198 0
84 -116 148 0
-10 17 172 0
58 122 138 0
2 50 51 0
-84 -124 -129 0
-34 148 -182 0
-15 25 -68 0
18 53 -183 0
94 100 188 0
-115 -181 186 0
9 -37 -44 0
-94 113 -145 0
-2 -70 -147 0
74 180 181 0
-42 178 199 0
49 144 -157 0
-8 21 130 0
51 68 -72 0
-70 103 150 0
93 -103 -154 0
-49 182 192 0
44 86 196 0
-120 138 187 0
-94 -132 -149 0
84 -177 -195 0
40 -67 -70 0
-129 -153 168 0
69 -96 192 0
41 -99 -131 0
9 46 -82 0
-43 -49 -137 0
-70 86 100 0
147 173 189 0
-86 127 136 0
-14 -96 -181 0
-64 -90 113 0
33 -100 -189 0
-44 -65 -197 0
27 145 -197 0
132 160 -170 0
144 -172 182 0
-1 -111 -197 0
8 -28 -43 0
116 -143 -199 0
-139 184 189 0
-65 -66 -88 0
16 -147 -157 0
26 61 -145 0
71 -105 -154 0
-120 134 -200 0
-45 -74 132 0
113 -133 -176 0
-67 120 -137 0
-96 119 159 0
60 -95 -157 0
-74 115 -167 0
-57 73 -100 0
-52 55 -113 0
-17 41 152 0
-82 85 102 0
-16 -131 153 0
-89 185 -192 0
-28 -131 -143 0
-33 -48 192 0
77 119 140 0
-49 113 185 0
41 -80 140 0
-59 -130 170 0
-11 89 -131 0
25 74 187 0
-136 176 190 0
35 36 -158 0
-13 -44 -175 0
39 -120 -122 0
-65 153 169 0
-114 137 -171 0
17 -67 181 0
-107 -120 -124 0
12 133 -145 0
-74 -149 156 0
38 -70 -108 0
-27 -55 188 0
-149 150 191 0
30 -172 185 0
26 104 146 0
43 -44 192 0
68 -181 194 0
-23 -145 -183 0
74 101 -134 0
-114 -117 -161 0
-50 92 -192 0
57 -142 -188 0
-37 95 -111 0
7 61 122 0
-90 -160 161 0
80 160 183 0
49 51 110 0
75 121 200 0
-54 -131 -194 0
6 -85 -98 0
-35 41 110 0
-25 -61 -67 0
48 -50 81 0
-73 -117 163 0
-101 -185 -188 0
-18 87 112 0
-5 -127 137 0
-57 -108 -156 0
-54 60 140 0
52 -90 143 0
-35 -69 156 0
3 27 167 0
22 109 -170 0
26 -112 177 0
-145 178 -183 0
74 -105 149 0
-100 154 177 0
-65 70 193 0
-15 17 183 0
110 -137 -194 0
-105 164 -173 0
-34 126 171 0
25 -56 -101 0
26 -71 -193 0
-1 -15 -164 0
110 146 -169 0
-40 -90 -176 0
-107 -131 196 0
26 -44 171 0
-90 149 -173 0
-3 -136 181 0
-158 -173 195 0
1 99 135 0
-85 151 -183 0
-16 -131 -165 0
112 114 143 0
45 61 -82 0
-17 -78 134 0
14 153 162 0
-11 63 178 0
-46 176 194 0
-86 98 -175 0
67 -117 -180 0
6 95 164 0
20 88 158 0
11 -166 -186 0
47 -91 181 0
-50 -111 -190 0
-15 33 173 0
43 82 137 0
-12 50 -148 0
-72 104 -106 0
97 -130 187 0
-33 -166 195 0
-112 -133 156 0
63 -111 135 0
-17 94 173 0
-26 94 -96 0
-68 -162 -169 0
6 146 173 0
64 -111 190 0
-17 46 108 0
-31 39 152 0
22 176 -197 0
-40 67 -84 0
-13 39 -181 0
-13 149 -180 0
46 67 -109 0
-99 121 195 0
-103 108 158 0
-109 -122 140 0
-40 45 -138 0
2 20 -200 0
-36 -80 125 0
94 -148 157 0
-55 -145 171 0
182 185 -190 0
-6 -18 145 0
-64 -84 -138 0
21 41 142 0
-86 153 -163 0
-37 92 -143 0
26 35 199 0
4 -85 197 0
45 -171 188 0
20 51 195 0
87 -121 -197 0
-139 143 176 0
66 -80 -136 0
-26 -87 116 0
-14 195 199 0
-52 -67 122 0
-84 87 112 0
-59 -136 160 0
-56 -76 -160 0
-114 -148 -180 0
79 -93 174 0
-13 -32 81 0
-130 -145 -195 0
78 135 187 0
-73 92 175 0
-1 17 30 0
71 101 155 0
62 79 -185 0
38 -137 -178 0
69 151 161 0
-82 -113 -157 0
20 -114 191 0
83 101 -145 0
-107 -108 -168 0
-10 24 -135 0
83 158 -185 0
78 92 149 0
-14 -153 186 0
23 46 85 0
110 -155 -181 0
12 112 192 0
-51 -150 164 0
23 -106 -172 0
10 38 161 0
-21 -159 -187 0
-15 -41 -57 0
3 -70 137 0
48 186 195 0
7 147 164 0
35 78 -84 0
-11 67 152 0
-45 -119 131 0
38 73 181 0
24 -88 165 0
-133 162 179 0
-57 70 -198 0
73 -102 -115 0
57 -100 145 0
61 132 142 0
7 147 181 0
15 -79 -198 0
-61 -63 -152 0
-96 -118 182 0
-1 10 68 0
-120 -144 -159 0
-70 98 160 0
67 -124 200 0
31 171 186 0
-63 -152 -183 0
46 135 -168 0
31 -58 -167 0
31 -55 96 0
-20 111 177 0
24 70 87 0
-24 38 120 0
-37 41 101 0
-9 -188 189 0
16 -23 82 0
-8 84 -180 0
-21 -134 190 0
1 8 86 0
-79 -160 -180 0
-96 113 -188 0
-36 -110 -177 0
-122 -159 179 0
47 -134 -160 0
-13 -60 200 0
-13 25 -37 0
58 -90 164 0
-58 162 178 0
67 86 -150 0
52 139 179 0
24 -56 -103 0
-53 -176 -180 0
-6 96 134 0
98 -112 -120 0
-1 158 180 0
65 -83 -102 0
-7 16 -24 0
-49 83 140 0
108 -112 135 0
29 130 135 0
28 -49 152 0
-101 -120 -200 0
-23 -75 -141 0
-23 -121 184 0
-125 -191 -200 0
81 140 170 0
-39 -40 -199 0
145 154 -196 0
2 97 -105 0
-52 137 144 0
-44 -49 -80 0
-17 -56 153 0
1 -64 73 0
-67 -127 194 0
-98 102 -189 0
-110 161 -194 0
2 81 -160 0
-67 -79 -81 0
-162 170 -178 0
97 -180 -196 0
77 166 171 0
-24 85 -190 0
7 35 -144 0
131 144 181 0
-46 104 142 0
-38 -74 -185 0
-46 77 -145 0
-69 -84 127 0
-52 -136 160 0
-62 111 182 0
-47 50 -92 0
-42 -99 154 0
69 132 140 0
14 33 -110 0
65 -124 -155 0
-9 107 111 0
-77 95 126 0
69 -138 158 0
-56 -181 -191 0
-95 128 173 0
-145 -153 -169 0
-19 -62 69 0
-119 125 144 0
-40 101 108 0
-100 137 192 0
1 -26 166 0
34 -121 177 0
-1 -18 -25 0
-67 126 -156 0
-35 -73 176 0
96 -127 177 0
-2 -138 -146 0
69 -71 -171 0
29 -54 -196 0
10 -53 142 0
-43 -55 -171 0
152 187 193 0
-12 124 -168 0
20 -133 -156 0
143 155 -167 0
-107 -155 -189 0
84 185 -189 0
17 22 -38 0
27 125 -186 0
-2 73 185 0
142 186 -189 0
42 68 -83 0
-119 -147 -148 0
5 -51 166 0
6 -106 -147 0
-31 -166 -192 0
-84 90 164 0
-60 -64 65 0
-41 63 168 0
87 142 -184 0
13 -15 39 0
65 144 -169 0
44 -88 143 0
50 -153 200 0
48 -110 -146 0
-26 -75 -126 0
-42 79 146 0
-59 61 -63 0
80 84 -117 0
-20 -24 190 0
-114 -171 -189 0
137 -147 200 0
-49 -62 -102 0
16 102 -131 0
-11 -32 189 0
-38 -78 80 0
73 -75 119 0
-14 64 185 0
57 60 80 0
-86 138 184 0
78 -140 -199 0
-30 -133 -150 0
57 -79 -188 0
2 -7 43 0
-15 55 63 0
34 59 101 0
21 -115 117 0
14 28 -150 0
-57 118 135 0
-109 -145 199 0
136 155 189 0
-29 38 -76 0
6 81 142 0
-41 -46 132 0
29 181 182 0
-22 85 187 0
16 -100 -167 0
-101 129 170 0
-118 -136 -180 0
28 109 146 0
-77 -82 129 0
-19 106 -120 0
-65 -124 184 0
-61 139 197 0
50 98 -158 0
-28 -43 52 0
-14 18 185 0
23 -110 198 0
25 -61 127 0
-82 130 135 0
19 99 157 0
-62 125 185 0
-91 95 116 0
146 156 160 0
60 -76 104 0
33 -178 198 0
9 118 -179 0
-27 -33 191 0
2 -142 -175 0
39 97 172 0
-23 -73 -104 0
54 84 -189 0
10 79 -177 0
-66 -143 -167 0
-64 109 136 0
82 148 -188 0
8 48 59 0
-6 108 177 0
17 121 155 0
-24 -174 193 0
-6 59 184 0
42 -120 -194 0
50 -124 161 0
29 120 152 0
-113 137 178 0
-38 79 113 0
-1 12 103 0
-13 120 140 0
53 61 -115 0
-14 -92 -97 0
38 -51 113 0
120 -129 -172 0
-74 -139 -191 0
-8 11 -165 0
-37 -143 181 0
-31 -47 176 0
77 -85 190 0
40 -89 -108 0
-131 -133 152 0
107 -141 198 0
-68 -155 170 0
67 -145 -154 0
9 160 -171 0
-33 -53 -80 0
31 39 42 0
44 -73 -190 0
116 168 -200 0
82 163 171 0
120 -161 -185 0
-143 150 -191 0
72 104 135 0
34 66 -119 0
-79 121 124 0
97 146 -165 0
8 -102 137 0
-11 43 -182 0
16 -48 185 0
15 121 -145 0
-10 -61 -111 0
27 -40 -121 0
-37 123 177 0
-6 -110 138 0
53 -129 -154 0
-45 86 126 0
-30 106 -164 0
175 177 -186 0
52 -78 -90 0
-42 45 63 0
-2 -27 85 0
-61 137 -190 0
-54 -65 -164 0
-95 -112 -183 0
9 -151 156 0
29 47 -81 0
-16 -48 176 0
101 -158 -166 0
15 -17 -167 0
9 -106 145 0
-44 60 -82 0
-11 -75 -190 0
-36 -104 -159 0
65 84 99 0
-10 -74 127 0
6 -65 -87 0
-8 -35 75 0
68 85 -105 0
-19 50 -93 0
5 -57 172 0
98 -105 182 0
174 -179 -182 0
-20 -116 -137 0
-5 -47 191 0
-13 -99 143 0
84 -139 172 0
-96 122 -192 0
-34 45 -116 0
-10 -26 -128 0
78 85 174 0
-140 149 -184 0
10 -20 56 0
-36 60 200 0
21 -22 64 0
19 46 -183 0
-149 164 183 0
-156 193 199 0
39 82 -158 0
29 34 -64 0
-25 101 -168 0
-48 -72 173 0
-56 -59 -90 0
10 36 -105 0
-80 141 -154 0
32 91 -116 0
-29 -52 -197 0
6 -75 142 0
-68 113 115 0
155 160 196 0
73 150 196 0
126 -137 190 0
91 93 148 0
-85 -176 190 0
26 -100 200 0
-27 48 83 0
-82 85 -123 0
123 135 -192 0
63 100 129 0
-39 -87 93 0
31 -78 -114 0
134 -139 -143 0
-126 -153 -198 0
-1 22 187 0
26 -100 123 0
-3 58 78 0
8 -110 -124 0
-10 94 -148 0
-27 -111 124 0
91 145 168 0
-73 -102 174 0
-44 -117 171 0
-71 145 -177 0
-49 -109 112 0
8 -99 -192 0
27 -124 -151 0
44 -119 139 0
4 -46 121 0
32 -131 -190 0
18 -36 -128 0
26 133 -134 0
44 71 -135 0
23 67 195 0
1 83 -156 0
-43 100 163 0
-17 61 -140 0
-108 118 128 0
-71 -110 -173 0
-17 -120 -157 0
151 -177 -196 0
-51 147 -173 0
-41 -70 87 0
-3 56 79 0
-2 -72 -102 0
-11 -98 190 0
-41 156 184 0
8 -55 -126 0
-38 -114 143 0
24 145 190 0
-126 -151 -167 0
-48 -69 -163 0
77 89 138 0
19 -50 83 0
19 -49 142 0
-49 -122 187 0
-18 -61 79 0
64 -134 162 0
-62 87 125 0
88 -136 -162 0
-139 180 192 0
-89 -100 -153 0
-68 -78 123 0
20 -114 -186 0
69 -82 -182 0
73 92 187 0
-152 -156 -173 0
-55 -100 -109 0
-51 125 164 0
-98 110 188 0
7 -141 -151 0
27 -29 -193 0
-77 109 200 0
-110 152 179 0
-3 149 -200 0
-71 -95 145 0
-46 -74 -149 0
61 122 -144 0
85 -129 -162 0
43 -108 -130 0
34 -149 -179 0
68 -136 -175 0
10 56 107 0
-133 -149 -175 0
39 -140 -149 0
-30 -52 157 0
-135 147 148 0
-86 141 194 0
89 108 157 0
12 124 150 0
-32 -82 126 0
59 -132 152 0
25 -32 -67 0
9 -70 -139 0
101 -119 -136 0
-112 132 170 0
6 12 -75 0
-5 -68 80 0
-75 110 181 0
-25 -98 -164 0
-60 166 -192 0
53 -69 -85 0
-71 156 181 0
-33 -92 140 0
-83 -129 -152 0
-11 19 -79 0
64 106 -162 0
25 41 -155 0
72 73 189 0
-99 -176 190 0
90 102 -139 0
94 123 135 0
124 146 166 0
1 -17 177 0
-57 -65 -196 0
-51 109 -192 0
25 40 -59 0
54 65 101 0
32 92 185 0
-72 90 139 0
-22 -42 114 0
64 152 -163 0
24 -87 -110 0
2 20 84 0
41 -86 -144 0
-67 -174 -193 0
15 -32 -63 0
43 -108 161 0
-122 147 182 0
-61 123 -146 0
-8 82 148 0
144 170 -195 0
-70 -143 144 0
31 36 -181 0
-8 -11 -32 0
-61 -138 -154 0
78 -106 -113 0
-34 -43 -190 0
-15 101 -131 0
14 26 -101 0
-15 26 196 0
-35 -78 -120 0
-18 -69 -168 0
-30 -47 65 0
47 -93 101 0
-7 -74 98 0
-62 122 198 0
-22 75 -166 0
40 -72 84 0
8 -49 170 0
34 -46 -192 0
-67 149 154 0
-29 45 198 0
38 89 176 0
-5 -181 184 0
-35 -36 -143 0
11 40 105 0
21 -27 -196 0
116 171 182 0
-132 157 -176 0
-66 100 -113 0
-11 -162 192 0
-18 -34 -121 0
