c F1 random 3-CNF cnfgen RandomKCNF(3,100,426,seed=2) m/n=4.26
p cnf 100 426
-8 11 -12 0
28 33 -78 0
-51 -82 -93 0
-4 -5 -47 0
22 55 68 0
4 23 -42 0
66 -72 -87 0
-68 -95 -98 0
-21 -58 97 0
-36 -63 -64 0
-45 -73 93 0
-22 -42 -90 0
-39 -65 91 0
47 -63 66 0
14 25 -96 0
30 76 -88 0
-8 27 32 0
23 32 47 0
4 -6 -9 0
17 21 -95 0
6 32 76 0
45 -79 -81 0
-4 40 -63 0
52 -80 97 0
-12 85 88 0
-17 -58 -67 0
-19 -34 44 0
18 -72 90 0
17 -21 22 0
5 66 -91 0
10 -11 -33 0
36 55 88 0
21 50 53 0
3 13 14 0
-4 -28 -67 0
49 69 -83 0
3 -55 66 0
-13 62 85 0
-38 -47 79 0
13 -53 88 0
-3 87 -100 0
60 63 82 0
-4 37 48 0
25 -63 -97 0
-18 -60 92 0
-11 -16 33 0
-4 14 -89 0
38 -46 -59 0
-62 -68 -93 0
-21 -30 -51 0
11 87 -90 0
-19 23 70 0
5 -83 -88 0
-30 -86 91 0
15 -37 68 0
-32 43 67 0
-31 -60 91 0
57 -60 93 0
-7 -51 -66 0
-33 -91 -94 0
43 71 92 0
49 -52 -86 0
60 68 92 0
-28 52 94 0
50 -72 99 0
18 -63 -79 0
33 -66 73 0
10 -45 98 0
-63 -76 -97 0
4 -59 65 0
-52 97 98 0
-21 -49 64 0
-2 37 -72 0
-5 49 -69 0
-18 -64 84 0
-34 -39 -41 0
12 -66 67 0
-12 65 81 0
-30 59 72 0
-15 49 -87 0
-10 -43 46 0
-38 57 -64 0
-28 35 82 0
-25 31 -61 0
-18 -30 -35 0
-36 -77 -93 0
69 -80 -82 0
-23 -51 -62 0
-12 -24 62 0
4 -14 45 0
-84 94 -98 0
-31 -50 77 0
-26 41 47 0
27 -33 -43 0
12 33 44 0
-6 -79 94 0
-9 -19 -23 0
17 -42 -67 0
-7 -30 -51 0
70 -77 -80 0
-22 -59 -89 0
6 14 58 0
-10 40 -51 0
14 45 86 0
19 -55 -86 0
7 -31 61 0
4 18 72 0
-1 67 70 0
1 48 63 0
14 28 -60 0
-44 80 83 0
20 -27 81 0
39 -44 56 0
39 41 -51 0
-35 -37 68 0
18 54 90 0
25 28 51 0
-34 90 96 0
19 41 77 0
18 82 -89 0
27 -38 -81 0
-9 -67 73 0
39 -59 85 0
-28 -43 54 0
17 -56 -99 0
-45 50 -61 0
-25 -57 -97 0
-10 22 48 0
-27 40 88 0
4 -26 -41 0
-44 86 -93 0
-3 61 92 0
-20 21 -78 0
-11 -36 83 0
20 39 -73 0
-76 -79 90 0
28 -72 83 0
-18 -80 94 0
-51 -59 61 0
8 29 31 0
-50 56 -91 0
-13 -47 66 0
59 -91 95 0
4 6 62 0
31 42 -69 0
14 83 -98 0
-5 -18 -91 0
-7 46 -72 0
-14 -45 -78 0
37 66 77 0
44 -56 82 0
-10 -85 -89 0
21 24 -31 0
24 38 87 0
29 -52 73 0
9 32 77 0
1 -52 89 0
-7 -67 68 0
-17 -20 55 0
-24 -67 -74 0
21 -64 77 0
3 33 -91 0
-33 -73 -81 0
-25 55 -56 0
-5 81 -97 0
-4 -39 -71 0
-32 -60 -92 0
32 -72 -85 0
47 54 -97 0
-15 -56 77 0
-50 -58 95 0
19 -30 -86 0
64 -91 -93 0
-41 -52 -74 0
2 52 -86 0
-2 -13 -15 0
-23 52 -94 0
-31 52 80 0
-4 39 45 0
-2 43 -52 0
27 -74 82 0
-39 -43 -100 0
11 -36 98 0
24 47 48 0
-31 -60 76 0
-1 -21 -66 0
24 84 -87 0
1 79 94 0
-1 11 80 0
35 51 -79 0
-5 -15 -40 0
10 16 -60 0
9 -35 83 0
-38 68 91 0
10 -17 -54 0
-6 -26 90 0
-20 -30 80 0
20 -25 29 0
14 35 -48 0
17 -55 94 0
3 44 97 0
-18 -64 -95 0
38 39 85 0
-1 12 -19 0
73 87 100 0
74 -93 100 0
24 -56 86 0
-43 55 64 0
-6 17 -85 0
95 -98 99 0
12 66 74 0
17 41 -69 0
52 -59 87 0
-7 14 45 0
34 -46 -96 0
6 18 30 0
-14 -20 -51 0
1 15 55 0
1 -25 -56 0
-20 -23 35 0
-40 -67 -73 0
-38 50 -99 0
-38 -59 74 0
-2 -33 73 0
-61 65 70 0
14 48 -95 0
-17 25 66 0
19 -40 59 0
-6 29 -71 0
39 70 -98 0
26 -29 -74 0
21 -34 78 0
-8 -25 63 0
-24 43 60 0
-33 -48 -96 0
7 -42 93 0
-24 50 -89 0
10 38 -89 0
9 69 75 0
-28 -47 -88 0
1 10 14 0
-4 20 38 0
-3 -76 83 0
50 -82 86 0
-21 28 -31 0
14 31 75 0
31 86 88 0
16 -26 -75 0
11 83 89 0
14 47 63 0
1 37 -50 0
-38 48 -84 0
12 -61 -65 0
-55 77 80 0
30 78 -83 0
-11 19 78 0
-25 49 -62 0
-14 -26 -44 0
-18 -32 -76 0
1 6 94 0
8 38 57 0
4 -5 10 0
-54 73 76 0
16 23 -26 0
35 67 -69 0
26 78 95 0
-1 -14 86 0
1 -76 83 0
31 36 89 0
-11 36 -55 0
-19 -77 80 0
-26 -29 76 0
-51 63 -84 0
6 -55 59 0
-52 68 -85 0
-37 39 96 0
16 -32 89 0
50 56 75 0
-5 8 27 0
45 -64 87 0
14 37 54 0
8 35 -99 0
-63 68 96 0
40 -53 68 0
59 60 -68 0
19 79 92 0
-7 -43 -93 0
74 77 81 0
-19 44 75 0
-7 25 77 0
-63 88 99 0
54 -77 84 0
32 -67 -68 0
-44 -64 93 0
1 43 -71 0
-54 -55 -79 0
1 33 98 0
45 78 83 0
-38 46 71 0
-44 87 93 0
-33 -34 -63 0
-67 -76 -98 0
11 51 -67 0
51 -62 -99 0
-35 58 -80 0
-47 69 81 0
-2 23 -87 0
-5 -55 85 0
-56 -65 -86 0
1 -34 35 0
-3 -24 26 0
-87 -90 97 0
3 -7 14 0
-18 40 -49 0
-5 -54 87 0
-19 -27 -58 0
35 -80 -91 0
-31 64 -81 0
-4 -34 -49 0
-28 74 82 0
-13 -22 24 0
26 84 -98 0
44 58 68 0
-16 -39 -68 0
-81 -89 100 0
-4 -57 59 0
-30 -42 -77 0
-18 36 47 0
48 -89 -100 0
28 -35 70 0
10 -74 82 0
2 -26 70 0
-24 -51 -77 0
20 -75 81 0
22 49 95 0
28 44 -59 0
-7 13 35 0
26 -49 91 0
62 81 84 0
11 47 -72 0
-46 61 -89 0
-65 82 97 0
-19 68 70 0
-29 -32 -98 0
18 -40 -88 0
18 40 -43 0
-5 -48 -77 0
12 -96 -98 0
6 61 -90 0
-42 -51 -87 0
54 76 90 0
28 82 95 0
-7 -10 54 0
17 41 -49 0
20 -53 78 0
14 15 24 0
6 -15 44 0
65 -94 98 0
37 68 92 0
-31 89 -95 0
39 63 90 0
-4 11 -45 0
-16 -30 50 0
10 32 60 0
-41 -57 -62 0
-17 -40 -99 0
-3 9 -13 0
7 40 100 0
-46 81 83 0
16 35 79 0
1 37 -76 0
-12 -40 45 0
8 -75 -98 0
-89 98 -100 0
-11 37 44 0
-10 44 66 0
-38 47 83 0
46 -75 -86 0
19 -34 85 0
50 -52 -96 0
33 -41 -64 0
-9 10 37 0
-16 -53 85 0
57 81 95 0
-2 17 58 0
71 93 -94 0
-20 27 -76 0
10 -62 94 0
32 33 -35 0
-34 49 -67 0
45 -79 87 0
8 45 -52 0
-16 83 -99 0
-21 -43 -57 0
-20 -35 92 0
-35 -41 83 0
-11 -18 -88 0
-9 -64 -72 0
-16 -69 87 0
69 -78 94 0
-4 76 -97 0
-26 -59 -72 0
43 -48 52 0
-26 62 95 0
-20 -51 69 0
-51 76 -88 0
40 -54 81 0
-32 -72 95 0
6 -43 -94 0
-89 -92 97 0
20 -75 -98 0
-23 -25 98 0
-10 -13 -56 0
-25 35 69 0
-2 25 -85 0
24 -80 -86 0
-62 -70 79 0
-2 26 94 0
-51 -67 -75 0
-22 -26 -93 0
-8 -26 54 0
63 -67 69 0
6 48 76 0
35 57 -60 0
-1 -63 73 0
25 38 -58 0
