c F1 random 3-CNF cnfgen RandomKCNF(3,250,1065,seed=12) m/n=4.26
p cnf 250 1065
-69 122 -169 0
-3 -96 124 0
1 -143 -170 0
42 87 232 0
-20 -132 176 0
5 16 -236 0
-29 114 -243 0
143 160 226 0
-22 -130 -209 0
99 123 156 0
-170 -202 -250 0
-99 177 -222 0
-61 86 94 0
-98 211 220 0
57 -110 173 0
27 156 198 0
-10 -71 -179 0
89 -155 -164 0
-54 -73 -87 0
-43 -62 245 0
49 192 -197 0
-198 206 235 0
3 129 204 0
93 129 -140 0
-172 202 226 0
-129 -135 -201 0
-68 176 -243 0
75 -158 -224 0
-132 221 -242 0
8 66 134 0
-69 143 227 0
52 -112 121 0
107 -111 151 0
-89 -143 149 0
5 177 182 0
-19 230 -234 0
-26 182 -203 0
-70 204 240 0
-137 154 180 0
83 -92 105 0
-24 -176 185 0
-169 -174 195 0
-8 -54 125 0
-15 -153 171 0
25 84 -227 0
72 -94 -218 0
57 -133 236 0
100 -119 -129 0
13 -202 -219 0
113 134 -173 0
90 -188 -196 0
-93 162 230 0
58 -123 -206 0
-12 -110 -206 0
-154 -161 -240 0
33 -38 -67 0
-109 -159 -169 0
-98 -127 197 0
-44 53 -202 0
-14 -134 228 0
80 220 -222 0
4 11 208 0
-51 184 208 0
80 140 -199 0
128 -138 176 0
2 -136 -167 0
-76 -120 -163 0
-8 133 229 0
-126 194 -220 0
-104 141 247 0
16 -60 90 0
15 207 215 0
29 145 -176 0
-53 -118 -162 0
62 -101 205 0
-176 196 -204 0
32 -125 237 0
-32 -51 -59 0
-104 -194 -212 0
-196 -221 226 0
-160 163 228 0
69 -88 -99 0
65 88 -108 0
45 -93 -141 0
-80 -86 -96 0
-19 45 -160 0
-94 158 -159 0
-86 87 -169 0
19 -138 166 0
-24 125 -208 0
18 59 73 0
32 71 -164 0
-80 191 -246 0
-101 -113 -120 0
184 193 -232 0
-129 -169 -170 0
7 -35 -79 0
-75 173 -248 0
-46 -81 -148 0
14 -37 213 0
63 79 136 0
-142 -200 -213 0
24 154 239 0
-98 -136 221 0
33 54 -234 0
-9 137 -140 0
48 -134 -159 0
-6 -99 127 0
-20 -140 236 0
-96 130 217 0
-19 -86 204 0
-72 77 105 0
-74 -167 -223 0
22 32 168 0
17 39 155 0
-141 212 -230 0
-5 -38 -170 0
84 -180 193 0
-74 111 194 0
-6 -239 -245 0
-25 -126 -157 0
-11 84 -145 0
-144 160 224 0
62 82 236 0
17 -157 -246 0
-12 69 -200 0
-14 -82 87 0
57 159 -221 0
127 207 -230 0
-100 137 199 0
-44 -152 175 0
-30 52 167 0
-19 -66 -160 0
-24 112 133 0
217 234 247 0
-43 139 180 0
-60 121 187 0
-23 220 234 0
127 -238 249 0
-135 -162 221 0
-42 101 -141 0
11 116 -154 0
143 197 221 0
3 -32 -188 0
-23 54 143 0
18 -76 204 0
86 216 246 0
-3 -21 -69 0
31 -92 185 0
-112 -180 -225 0
28 -93 -234 0
-59 -84 -179 0
2 -31 88 0
-41 -59 -113 0
18 -24 178 0
-177 -191 -217 0
61 187 247 0
-81 101 127 0
17 106 -206 0
-2 -82 -98 0
-20 80 87 0
-61 87 109 0
35 53 -107 0
14 28 -204 0
-23 138 220 0
112 160 248 0
-144 -193 237 0
-36 -46 -161 0
26 -48 -190 0
30 194 -235 0
14 -15 132 0
-43 -80 244 0
32 -85 221 0
-16 -121 -228 0
110 -128 -219 0
34 -51 -161 0
44 -185 -250 0
135 153 187 0
47 212 -213 0
-144 208 -226 0
42 -112 -170 0
-45 82 175 0
139 238 -242 0
-106 -184 -246 0
-117 161 241 0
32 164 170 0
51 137 196 0
99 -111 -113 0
12 46 -90 0
-27 -69 172 0
-54 101 176 0
-41 -54 237 0
41 161 196 0
-38 -147 -199 0
-32 -99 130 0
-38 -57 -174 0
-31 -174 243 0
-53 62 177 0
10 -104 -249 0
12 -39 -60 0
12 89 177 0
-72 152 206 0
96 126 -209 0
-81 93 -197 0
-182 196 221 0
-35 -76 121 0
17 178 193 0
-37 191 -197 0
29 -219 -239 0
124 142 -174 0
-52 107 247 0
139 -154 -219 0
-75 -222 -231 0
33 38 70 0
84 156 160 0
-45 -118 201 0
79 -139 -210 0
-107 -125 -148 0
-79 119 -182 0
-45 -148 241 0
89 -132 -137 0
-37 42 -206 0
-36 -57 -231 0
2 -23 -245 0
27 -66 -190 0
-72 114 231 0
-151 153 213 0
-31 -115 221 0
-35 -132 -227 0
99 147 164 0
-120 -143 -187 0
147 -173 -201 0
9 88 161 0
23 43 67 0
124 -224 239 0
-2 -70 202 0
-3 87 131 0
-89 -200 -245 0
-6 -118 -154 0
-8 -39 -135 0
105 -130 -238 0
160 167 -229 0
-15 -56 144 0
28 72 -156 0
13 135 -198 0
-6 -20 -98 0
25 -232 -248 0
132 -162 -167 0
-44 -143 145 0
128 -199 -216 0
-3 29 -159 0
67 -80 213 0
-88 -144 181 0
-103 -166 215 0
-21 66 143 0
2 88 -120 0
-1 142 -196 0
17 -147 221 0
-88 -116 -219 0
7 45 112 0
19 93 -98 0
113 117 -162 0
-67 94 117 0
25 -75 -208 0
38 -176 237 0
63 -93 145 0
10 172 -221 0
-65 -123 -132 0
-60 133 218 0
19 201 -239 0
88 -89 109 0
-9 -151 156 0
-70 115 235 0
-123 147 198 0
-82 179 243 0
-28 -140 248 0
90 176 215 0
-86 -189 -236 0
147 216 244 0
-112 213 241 0
-149 192 228 0
-100 117 -131 0
4 37 81 0
96 -163 -244 0
114 -190 -201 0
-20 131 166 0
-26 41 -77 0
80 -100 212 0
72 -79 130 0
3 26 -85 0
35 -39 -93 0
32 -154 188 0
14 31 -205 0
13 -33 176 0
-48 117 139 0
-37 -176 238 0
6 -18 -166 0
66 105 208 0
57 -59 114 0
90 160 -208 0
-193 206 -234 0
-24 -34 -233 0
30 79 -120 0
-157 -168 212 0
8 28 -71 0
108 119 208 0
54 -184 -232 0
-73 -175 232 0
6 -46 -149 0
22 38 -242 0
-66 -85 -95 0
30 -74 -230 0
87 -151 -162 0
14 40 101 0
180 200 238 0
9 -170 -198 0
-18 223 250 0
74 80 -175 0
-27 227 -237 0
44 -52 -184 0
-54 -121 -181 0
3 -94 214 0
-11 63 152 0
-51 -136 -235 0
-47 64 -234 0
66 -77 -171 0
-65 -112 185 0
170 -181 -222 0
-49 -188 196 0
-13 -65 -148 0
66 -135 142 0
-98 -131 166 0
-62 139 181 0
127 172 228 0
-8 -79 136 0
4 54 -154 0
-26 -83 -88 0
39 86 -163 0
-17 -18 -179 0
57 172 -221 0
137 217 -228 0
-51 -105 214 0
36 94 232 0
102 150 -158 0
144 169 183 0
-66 126 177 0
-31 50 93 0
50 53 70 0
94 95 -245 0
-114 -167 -210 0
141 162 -227 0
-42 -106 183 0
-111 -207 -211 0
9 -73 238 0
27 155 205 0
25 -37 -165 0
25 -195 -212 0
-15 24 -30 0
104 156 163 0
-40 229 245 0
42 -106 128 0
1 52 -239 0
-23 -37 156 0
-37 -141 -246 0
-46 124 224 0
26 -32 162 0
-65 79 220 0
68 116 -205 0
37 -129 -168 0
-129 -216 -247 0
24 -192 -218 0
-6 83 -221 0
-64 226 235 0
35 -73 -180 0
-20 79 235 0
25 103 -107 0
-74 -82 -224 0
44 108 -244 0
69 -174 -213 0
42 160 200 0
27 -155 -186 0
59 215 -249 0
115 -129 -183 0
162 165 -229 0
-10 27 -60 0
-4 -118 -171 0
91 112 149 0
-10 34 -170 0
147 231 240 0
-15 -170 -177 0
-27 170 249 0
36 -170 -185 0
-93 -135 -140 0
-59 -186 233 0
-35 -72 106 0
12 42 -141 0
22 -51 -177 0
3 -76 208 0
7 79 -245 0
178 214 237 0
-25 155 163 0
-77 178 221 0
50 86 204 0
17 52 233 0
-83 226 230 0
69 75 -203 0
-14 -68 156 0
-49 -129 -236 0
19 24 52 0
46 69 -155 0
-17 -66 153 0
100 141 -142 0
-19 -195 216 0
167 191 -200 0
62 115 -198 0
103 -197 -212 0
-8 -24 -172 0
-9 -86 187 0
-97 132 227 0
-2 -63 67 0
57 -97 100 0
-76 -130 181 0
-86 -102 215 0
25 175 193 0
92 185 228 0
-66 -190 226 0
-113 205 231 0
-51 -156 -191 0
-56 108 214 0
-24 32 -101 0
-120 164 -178 0
-83 -151 184 0
23 -95 -206 0
157 217 223 0
92 -95 -96 0
-143 -149 -235 0
-29 -96 162 0
73 129 198 0
-74 -87 169 0
-38 73 170 0
85 -155 -179 0
-55 -62 -133 0
167 175 236 0
9 -65 -198 0
75 105 230 0
7 71 89 0
-53 -94 225 0
29 106 -153 0
-92 -151 -220 0
-11 -41 134 0
5 -119 -185 0
50 -140 -232 0
149 229 -243 0
-65 -168 234 0
113 -136 155 0
115 -211 -219 0
49 58 200 0
-23 35 85 0
103 -108 -241 0
-11 143 -182 0
65 115 -195 0
-170 183 204 0
72 177 240 0
-54 -55 -163 0
-80 198 236 0
51 127 162 0
-29 101 200 0
8 -55 -83 0
147 148 227 0
51 207 -240 0
-147 -166 -245 0
83 118 -209 0
-155 177 244 0
78 115 182 0
58 74 -229 0
-20 -21 -68 0
-6 -149 190 0
-64 -86 -228 0
85 -99 103 0
-76 154 172 0
-7 83 174 0
-73 188 246 0
17 -44 245 0
199 225 -250 0
-110 -219 239 0
84 -222 234 0
-63 -109 191 0
-60 -78 212 0
18 -21 115 0
-39 72 -109 0
178 197 -205 0
-2 42 145 0
-13 113 -246 0
105 -147 -182 0
-64 -220 -221 0
31 34 -55 0
36 126 -136 0
70 -125 -209 0
-53 -86 201 0
-69 -192 245 0
-66 -105 -183 0
52 -131 250 0
-7 15 -134 0
-43 -49 -79 0
-48 -103 -169 0
43 64 244 0
-43 116 141 0
27 28 101 0
-127 -162 225 0
9 -125 -193 0
-14 -75 -161 0
-14 19 -207 0
-29 -75 125 0
23 167 169 0
-45 -183 -198 0
-46 111 219 0
23 -232 -248 0
-17 39 -240 0
-97 -133 -208 0
-173 -198 220 0
-17 56 133 0
83 -171 196 0
-7 -86 97 0
27 175 -189 0
117 210 -227 0
132 160 239 0
-65 -83 167 0
-29 210 214 0
106 -127 -134 0
79 -128 -225 0
122 -157 -213 0
19 -104 -186 0
85 86 103 0
-46 -141 -218 0
1 158 214 0
-24 175 -205 0
-127 -188 -189 0
-22 31 -183 0
85 -123 -144 0
4 87 147 0
-211 240 -247 0
-123 -126 -178 0
82 92 -125 0
-58 -238 -250 0
-71 84 -107 0
-96 220 -250 0
-15 -120 -130 0
15 -18 119 0
7 -116 158 0
-61 65 202 0
10 25 -116 0
4 -79 -150 0
-113 167 -197 0
-157 -164 197 0
-6 52 -120 0
93 -207 227 0
127 190 245 0
-11 82 -121 0
73 106 -188 0
133 -196 239 0
-49 -69 177 0
13 21 176 0
90 -136 231 0
109 -210 232 0
4 -223 246 0
-5 126 170 0
64 -111 184 0
-12 -53 -144 0
15 -89 161 0
12 138 -197 0
-99 -104 -233 0
52 161 246 0
21 62 -226 0
-181 -197 -205 0
4 41 -63 0
31 65 -159 0
-214 -215 -231 0
-153 158 -196 0
-13 -137 160 0
96 -149 -241 0
-3 7 200 0
26 138 218 0
-75 -157 214 0
22 73 172 0
-15 49 79 0
-96 104 -165 0
-68 78 150 0
123 -156 -214 0
-129 -211 -220 0
-1 68 87 0
88 -162 247 0
67 -156 -216 0
-53 75 -158 0
-85 101 117 0
89 -150 247 0
38 -131 -222 0
37 149 -189 0
-52 -96 -128 0
-98 243 -249 0
-1 8 139 0
-38 45 234 0
-85 -125 162 0
-39 -41 53 0
8 112 219 0
122 -142 -240 0
1 39 211 0
31 -85 -232 0
-88 163 237 0
135 -234 243 0
215 -221 -225 0
-48 181 -226 0
-15 -69 150 0
-68 -79 -181 0
32 70 -231 0
44 77 -243 0
28 -52 109 0
16 43 -245 0
-36 37 73 0
-76 -188 -191 0
61 -111 -208 0
-91 127 -135 0
31 -55 64 0
56 -57 -208 0
61 -131 -176 0
-36 138 239 0
-80 205 -210 0
98 -194 234 0
-119 120 -126 0
-167 190 205 0
-48 89 226 0
-179 196 -249 0
38 72 218 0
52 91 -107 0
115 122 185 0
-19 -47 141 0
49 -72 132 0
113 125 234 0
-44 -50 -232 0
-48 86 -136 0
-8 173 238 0
-7 23 -93 0
47 -165 185 0
-101 119 -181 0
68 108 148 0
63 -80 -172 0
-50 -76 151 0
35 -36 55 0
-95 -128 218 0
50 -57 129 0
43 112 204 0
86 -97 109 0
147 186 214 0
-2 -229 -234 0
-39 -214 230 0
111 -134 141 0
38 77 -83 0
60 -101 -187 0
-48 194 -195 0
-140 -162 205 0
76 -156 -219 0
-93 118 227 0
45 -48 -190 0
-5 -8 -83 0
-14 -147 -170 0
-69 194 212 0
50 -61 -78 0
-57 163 -176 0
-112 183 -220 0
49 214 232 0
1 47 55 0
29 -57 65 0
75 -96 172 0
98 -102 -124 0
-49 236 -240 0
10 -193 226 0
25 -98 211 0
-125 234 235 0
18 31 156 0
130 136 237 0
-25 -69 224 0
32 100 -145 0
-38 -62 120 0
-57 159 194 0
23 -50 76 0
-6 -101 -224 0
-56 184 -230 0
-150 -163 -200 0
10 18 180 0
149 161 182 0
-44 -126 204 0
-58 144 -148 0
2 -130 -178 0
-7 -22 -191 0
-97 154 -177 0
-71 87 -189 0
-58 243 247 0
-6 71 -103 0
-181 -210 -214 0
-32 155 -237 0
4 37 -165 0
-66 135 153 0
71 179 238 0
15 -144 212 0
-52 92 96 0
-39 -168 233 0
156 190 222 0
81 -123 -241 0
103 169 206 0
-64 160 187 0
132 183 -239 0
-132 -145 -151 0
-65 191 -237 0
3 -104 -191 0
201 -208 241 0
-131 187 -235 0
-7 15 91 0
-135 -162 178 0
-20 -134 -152 0
16 -107 -131 0
-41 -52 -100 0
-9 -25 153 0
133 -204 -247 0
22 -97 221 0
129 -134 229 0
-127 -153 248 0
-15 -99 -139 0
-146 -163 226 0
132 -207 217 0
-118 -192 241 0
34 125 -129 0
38 121 -140 0
55 -200 234 0
-49 -73 -235 0
-10 -148 -195 0
49 223 -228 0
-99 155 189 0
-18 -80 -131 0
-12 -13 -168 0
-112 -147 -233 0
164 210 -245 0
-41 129 -138 0
91 137 -248 0
6 -91 -167 0
-4 -66 181 0
4 77 80 0
-45 -79 235 0
-43 155 -162 0
16 75 -228 0
56 -75 148 0
-34 169 226 0
-25 -34 -165 0
23 45 49 0
-49 -124 -189 0
10 92 166 0
-31 201 238 0
-170 194 -199 0
-146 167 236 0
20 -50 -106 0
60 89 -192 0
24 153 202 0
-90 144 -207 0
-123 167 -228 0
3 -23 -108 0
-31 157 -193 0
-27 -57 205 0
-104 205 244 0
-4 -70 154 0
20 -81 -134 0
-86 -91 116 0
40 -166 177 0
210 236 -239 0
9 48 -132 0
186 240 -241 0
76 -120 -213 0
-43 198 202 0
-85 140 -203 0
-20 -200 201 0
-50 115 -233 0
-61 -116 141 0
-4 5 -102 0
-113 118 162 0
88 -139 -179 0
-72 119 -212 0
-42 123 200 0
211 -227 240 0
54 -183 -222 0
110 115 182 0
13 40 101 0
-43 -127 -165 0
-22 -133 136 0
11 37 -64 0
-20 -150 -232 0
112 -138 -194 0
16 38 233 0
108 186 228 0
36 -149 239 0
55 56 211 0
-27 -194 -247 0
-11 -137 168 0
-23 -71 -201 0
-9 -135 162 0
-192 -214 -240 0
-5 -165 187 0
53 89 -96 0
51 -156 237 0
49 97 -238 0
77 93 234 0
-28 158 201 0
111 147 -228 0
-64 -236 245 0
125 -144 -213 0
15 36 157 0
63 90 -116 0
97 -211 -229 0
80 -156 -224 0
69 155 166 0
-108 151 -246 0
56 -87 122 0
-40 -230 -237 0
101 -116 -123 0
69 138 219 0
101 -159 194 0
25 47 148 0
61 91 104 0
-4 -54 207 0
-52 72 -199 0
-95 107 -158 0
4 -81 -220 0
-117 135 -158 0
45 -58 -249 0
91 -96 138 0
-2 -75 -193 0
15 -39 -112 0
-6 -39 -81 0
-4 134 -235 0
47 221 -225 0
81 85 102 0
-214 215 229 0
-56 -127 -200 0
34 61 -233 0
120 192 229 0
46 -111 237 0
7 -27 -148 0
15 42 237 0
2 117 -135 0
-25 -116 -241 0
21 -142 -143 0
-33 -91 244 0
70 -76 -141 0
48 -110 196 0
-68 82 -226 0
-64 84 -105 0
100 -149 -218 0
11 27 53 0
-12 -51 127 0
-116 200 -247 0
82 164 -212 0
-6 -57 -136 0
16 -137 -201 0
21 -77 -205 0
-28 89 -163 0
3 -22 -215 0
92 -155 185 0
-27 -226 244 0
-32 -92 180 0
50 131 -220 0
-46 -92 -132 0
23 -29 -219 0
2 210 -220 0
90 -113 134 0
-7 -13 67 0
71 -87 -105 0
88 162 188 0
93 -195 216 0
7 -107 212 0
-58 117 -141 0
79 100 176 0
131 -220 237 0
-69 139 -216 0
148 162 198 0
20 -78 130 0
173 -202 247 0
-29 150 -238 0
60 -166 169 0
-6 -85 -103 0
39 189 -207 0
-47 -201 213 0
63 -196 223 0
-53 -120 250 0
99 -220 -238 0
73 -77 -147 0
3 108 -118 0
2 -133 235 0
34 59 -88 0
-106 -137 154 0
44 189 -238 0
-113 -164 220 0
187 -216 -236 0
86 101 -158 0
-29 -83 180 0
106 -159 181 0
1 -10 -47 0
-108 -175 -234 0
9 -152 222 0
164 201 -241 0
-194 202 223 0
-11 57 -227 0
5 -139 -218 0
-136 -148 195 0
102 106 -140 0
-17 -161 -233 0
-54 80 -242 0
79 93 141 0
-62 105 119 0
-169 215 -244 0
139 195 -233 0
36 141 250 0
-32 -114 189 0
-2 163 185 0
41 -75 206 0
157 -173 226 0
-30 -137 -157 0
179 -202 205 0
29 128 200 0
-79 208 -218 0
-17 38 -181 0
-47 -151 185 0
29 120 -222 0
-44 -61 66 0
36 -127 148 0
2 124 183 0
58 -75 -172 0
19 -170 -183 0
-1 211 -240 0
25 -195 -198 0
33 -81 160 0
-137 -198 246 0
87 -97 -224 0
58 -183 -206 0
-50 163 -206 0
10 -40 131 0
71 204 -245 0
-28 -248 -249 0
43 114 180 0
18 187 -231 0
85 -89 228 0
82 87 -104 0
63 210 213 0
17 -194 244 0
70 118 -243 0
42 169 -171 0
112 131 204 0
-151 180 -219 0
11 213 -235 0
-55 126 166 0
-93 -170 -234 0
-68 -214 223 0
-59 -176 208 0
-25 131 -147 0
-49 -57 -109 0
-75 -156 -224 0
-114 134 -208 0
-74 -150 200 0
80 125 -190 0
49 119 165 0
30 -117 -128 0
-138 -210 225 0
118 170 222 0
-22 73 -222 0
-27 71 -78 0
28 -83 -126 0
33 -101 -207 0
52 81 -120 0
96 -137 163 0
-90 -151 187 0
-48 -122 -157 0
-130 -191 -212 0
52 196 244 0
-15 -163 -231 0
-83 101 131 0
-130 179 -188 0
67 -157 159 0
36 -81 152 0
-6 -240 244 0
101 -145 -146 0
-38 -71 248 0
-226 -234 240 0
15 -117 162 0
-40 -145 183 0
165 170 -235 0
72 154 -224 0
-76 93 -160 0
-35 -133 -182 0
-92 -131 187 0
-98 110 176 0
-21 -32 -239 0
82 -169 -171 0
-17 -165 -241 0
19 -71 149 0
-72 127 190 0
45 -158 163 0
82 -89 -149 0
-28 33 179 0
-38 91 194 0
-122 -181 249 0
-97 -198 -216 0
-102 -107 158 0
84 106 -157 0
-13 -88 171 0
-119 -157 -220 0
167 -192 207 0
85 -89 -202 0
14 80 243 0
37 -161 214 0
-97 173 -239 0
-73 108 -191 0
79 220 229 0
43 108 184 0
83 -161 -210 0
-71 -126 183 0
-49 -106 -107 0
-62 154 214 0
15 67 249 0
-33 40 -141 0
45 -92 -250 0
-172 -190 219 0
-179 205 -222 0
-23 -130 172 0
-18 -174 -226 0
18 125 -191 0
-35 -60 164 0
-57 92 -205 0
-37 173 229 0
54 -83 -242 0
-79 -102 150 0
-153 -205 -238 0
-5 -116 191 0
30 -191 248 0
-91 121 -243 0
-150 -153 -162 0
64 108 244 0
-34 144 -189 0
28 198 230 0
-13 -71 -144 0
-68 186 239 0
-105 133 187 0
50 -85 232 0
-94 -130 -249 0
75 -99 -149 0
-58 -198 -203 0
34 -82 184 0
130 145 -215 0
146 -154 -171 0
200 -234 -236 0
87 -167 -244 0
-22 -173 219 0
45 -111 -148 0
42 170 185 0
-83 -114 -250 0
-21 67 -150 0
-1 70 247 0
62 136 153 0
-85 -147 -237 0
72 151 -164 0
106 111 -223 0
