c F1 random 3-CNF cnfgen RandomKCNF(3,250,1065,seed=14) m/n=4.26
p cnf 250 1065
28 -158 -180 0
-19 -75 -188 0
-102 176 -224 0
-58 -223 -231 0
93 162 -206 0
3 43 -167 0
8 -22 -71 0
113 150 -240 0
-25 47 -222 0
-56 -116 -160 0
27 -32 -210 0
-8 31 42 0
109 -123 -250 0
-80 -118 125 0
66 -101 -122 0
-18 -37 -146 0
-5 -181 212 0
-89 -146 -182 0
78 92 -136 0
-25 66 205 0
7 -50 -80 0
9 30 65 0
-59 65 224 0
-54 -155 -175 0
9 144 -236 0
-63 -99 -126 0
157 235 -244 0
87 -121 199 0
14 34 -52 0
-33 115 125 0
-66 -95 181 0
24 57 114 0
5 -172 233 0
-105 -120 -148 0
-20 222 239 0
-18 222 236 0
166 213 239 0
79 174 -204 0
39 -151 -227 0
127 -201 222 0
-64 70 249 0
-2 186 238 0
-98 -102 -115 0
-8 -36 65 0
-135 150 214 0
-88 -113 -148 0
-175 196 248 0
-97 184 -221 0
134 209 250 0
50 66 218 0
117 170 222 0
-173 -176 -208 0
58 191 231 0
96 -118 184 0
94 -122 -155 0
-128 137 213 0
118 -157 -163 0
79 137 232 0
-8 -134 -175 0
76 95 163 0
54 130 198 0
-80 -222 -232 0
-46 -64 -90 0
-4 -11 29 0
51 77 207 0
-73 100 -239 0
29 113 199 0
-53 140 152 0
-34 94 221 0
191 198 244 0
28 -231 -244 0
82 -99 131 0
-87 130 -231 0
124 -184 250 0
82 116 -138 0
52 -63 139 0
72 110 235 0
-88 109 -161 0
-40 -196 242 0
56 76 -207 0
63 132 163 0
55 65 101 0
-3 51 -190 0
-57 62 144 0
14 71 -208 0
-71 -129 163 0
13 -127 192 0
-165 183 -188 0
-32 127 -237 0
-84 -137 -249 0
83 139 -215 0
17 -42 -64 0
-114 -127 240 0
61 -103 147 0
131 -147 -155 0
-117 -183 -207 0
-122 -146 -221 0
5 -48 94 0
-127 186 209 0
6 121 -238 0
165 195 237 0
-11 54 99 0
17 84 131 0
22 143 -186 0
-14 -39 -226 0
107 -159 213 0
14 219 -231 0
50 153 159 0
6 78 -83 0
83 169 -198 0
-70 -210 247 0
125 174 -226 0
60 70 123 0
-86 100 173 0
-135 -151 -203 0
-109 140 199 0
10 92 137 0
16 85 -235 0
-98 125 -155 0
32 -50 -102 0
51 -77 219 0
-80 -153 -163 0
-11 63 -238 0
-30 -97 228 0
-23 86 -244 0
56 -211 -223 0
118 -181 -236 0
76 -142 -243 0
66 123 -173 0
-121 195 -247 0
-166 -236 -241 0
37 175 -184 0
153 159 -227 0
155 -223 -241 0
81 100 -106 0
-29 60 -83 0
-8 -115 -238 0
-111 -121 -191 0
-120 205 -212 0
-54 -187 -197 0
-143 -148 171 0
-11 -230 239 0
28 130 249 0
44 185 247 0
61 125 141 0
-10 122 224 0
-146 -179 207 0
25 44 127 0
-81 123 194 0
-68 -95 230 0
76 -112 -217 0
133 136 169 0
-102 113 218 0
-5 -142 -181 0
185 217 242 0
96 107 -230 0
-75 -103 182 0
2 16 -100 0
9 63 -141 0
38 67 -120 0
28 -83 142 0
-41 -107 156 0
-75 133 -227 0
8 -17 187 0
-28 113 212 0
-39 150 229 0
12 -230 242 0
35 60 239 0
53 -146 -181 0
124 152 243 0
-15 182 -249 0
-210 -235 241 0
-103 -125 206 0
92 193 235 0
-7 82 -89 0
-7 130 243 0
15 53 62 0
52 -83 -197 0
60 -83 159 0
120 124 -167 0
1 28 29 0
13 -97 121 0
102 -188 208 0
-44 -65 -170 0
66 -138 247 0
-136 189 210 0
-112 -134 -233 0
-56 -150 239 0
75 148 -192 0
100 142 176 0
-137 178 -206 0
167 207 211 0
82 -169 -170 0
126 -224 230 0
99 133 221 0
76 -123 154 0
-17 -43 -174 0
49 -65 -127 0
-58 92 150 0
31 -194 -226 0
29 45 213 0
79 -147 -189 0
12 79 -238 0
197 -199 240 0
133 -157 -169 0
-44 125 229 0
-26 -34 -100 0
-21 -41 -159 0
31 179 -214 0
37 87 -143 0
-22 -121 -237 0
54 131 144 0
-40 72 235 0
-18 82 -137 0
102 135 248 0
-27 -194 249 0
-58 172 -206 0
-56 -69 102 0
69 -129 -176 0
-65 205 -234 0
-47 147 -216 0
187 -193 200 0
-11 -45 -119 0
-30 92 222 0
-29 -130 -181 0
141 155 -173 0
-3 -38 54 0
-97 -107 -189 0
-76 91 -126 0
-50 96 214 0
-83 -116 -175 0
-1 -50 159 0
-110 170 -187 0
72 -102 122 0
-12 133 -233 0
-114 -138 205 0
15 -126 -219 0
43 66 -102 0
-146 211 237 0
-12 -230 247 0
-130 204 206 0
24 195 -209 0
32 53 138 0
5 41 125 0
161 227 238 0
2 -54 244 0
10 147 175 0
63 -171 173 0
35 -78 233 0
-94 -186 215 0
-7 -71 -117 0
-5 115 -158 0
-56 -136 -243 0
161 -169 -215 0
-129 149 218 0
2 206 -246 0
-36 -127 132 0
186 203 -209 0
-15 35 -210 0
-84 139 -165 0
-91 223 242 0
-15 -94 190 0
-49 -127 -178 0
-14 -169 -192 0
-38 139 163 0
96 -154 -197 0
55 -70 123 0
11 -120 176 0
29 172 -216 0
49 -86 -103 0
23 26 142 0
12 -114 -171 0
-73 -88 239 0
-43 -195 223 0
-40 -61 -229 0
-30 168 249 0
20 -183 -207 0
59 182 -193 0
29 -101 201 0
95 -148 -244 0
39 -80 -170 0
-177 -193 212 0
44 66 199 0
32 42 155 0
64 132 -187 0
57 -126 191 0
-156 -168 197 0
-113 163 236 0
18 52 -87 0
-84 127 -133 0
109 172 -221 0
-131 -192 -218 0
75 -105 -113 0
3 -49 155 0
-5 -56 -111 0
-74 98 -222 0
93 -127 -167 0
48 -68 93 0
-47 -196 -205 0
-57 -228 250 0
43 121 164 0
52 72 94 0
-26 44 221 0
-142 -201 235 0
45 65 185 0
112 -138 182 0
14 -37 194 0
-26 -78 -93 0
61 110 153 0
-64 208 -221 0
132 218 235 0
103 133 135 0
-27 76 196 0
-40 187 222 0
-87 95 98 0
122 143 -162 0
-39 211 222 0
47 -215 -225 0
-31 47 -113 0
-13 -15 75 0
-64 -91 -151 0
36 -66 -250 0
-37 86 227 0
106 215 234 0
-174 177 189 0
-35 172 -232 0
-58 125 207 0
157 -181 -249 0
91 118 -193 0
-103 -196 211 0
50 215 235 0
103 -192 222 0
28 116 -199 0
-62 119 -221 0
-192 218 247 0
-76 -183 -216 0
174 192 -223 0
-55 57 -72 0
-111 181 -250 0
46 140 -203 0
-7 -136 164 0
-18 -58 -122 0
86 -149 248 0
76 233 -246 0
-24 102 133 0
-137 -219 -244 0
48 139 232 0
-29 127 -166 0
97 227 -235 0
-58 -125 -147 0
8 -55 -72 0
-163 177 221 0
-112 -153 -213 0
-84 115 -120 0
-46 114 -238 0
58 -197 240 0
-9 73 206 0
-142 -168 191 0
-109 189 -191 0
85 -139 248 0
-26 -35 -73 0
-22 -101 167 0
-108 -186 209 0
77 104 137 0
31 91 129 0
-152 -220 -235 0
-37 -201 233 0
-94 -152 -213 0
10 -115 131 0
15 201 235 0
-55 171 206 0
112 -183 249 0
1 130 228 0
-137 143 154 0
-208 -233 -247 0
-91 -94 -209 0
-36 43 190 0
18 61 -204 0
-41 -151 246 0
-39 160 -226 0
-84 123 211 0
33 198 248 0
87 198 205 0
-160 226 -240 0
-31 -149 -192 0
72 -140 -166 0
-92 -166 -224 0
15 207 -218 0
-25 167 218 0
73 156 219 0
157 -180 -242 0
155 177 -184 0
-16 -41 193 0
39 -127 182 0
-98 -131 -250 0
-27 187 223 0
34 124 -147 0
56 115 -205 0
170 199 -233 0
17 -105 -130 0
9 -166 177 0
51 -72 128 0
-31 126 -249 0
84 -94 116 0
48 116 239 0
-1 14 175 0
82 -84 215 0
-20 21 -95 0
57 -98 -156 0
-15 67 -134 0
7 127 -231 0
41 -52 130 0
13 177 -193 0
57 245 248 0
-17 -46 237 0
76 -128 -237 0
10 61 -119 0
-35 182 -220 0
28 -68 -112 0
-43 -219 -225 0
143 -146 205 0
-78 -128 208 0
-46 211 -233 0
-20 -66 -200 0
-67 106 221 0
-18 -122 244 0
107 121 205 0
-16 56 65 0
45 -58 130 0
-8 -60 213 0
41 101 -162 0
-1 187 -241 0
11 169 -231 0
-29 -97 -126 0
-6 79 -184 0
-24 34 194 0
39 94 -206 0
47 -91 -146 0
-151 -164 194 0
-112 139 -164 0
1 3 143 0
62 -101 -227 0
-36 -93 -101 0
74 -219 -244 0
-103 170 205 0
-136 -148 178 0
-37 -52 -78 0
54 159 244 0
-15 -210 -235 0
-158 183 -219 0
12 -120 152 0
2 -29 58 0
11 -67 -170 0
55 111 197 0
-6 -39 -82 0
-86 103 -241 0
-34 84 -227 0
43 -79 122 0
11 -97 -161 0
-34 84 -154 0
87 114 -250 0
-12 136 -189 0
-66 -93 -136 0
-32 -213 235 0
52 69 -77 0
45 -210 217 0
61 104 -149 0
107 132 -215 0
-54 -110 196 0
10 38 141 0
199 -201 -226 0
124 -152 169 0
25 -145 -246 0
-13 -76 -101 0
-42 56 243 0
-40 -104 131 0
-159 190 205 0
99 -169 -220 0
-4 78 168 0
-110 -111 -202 0
-55 -150 -245 0
-15 126 -179 0
69 -133 225 0
-36 -142 -229 0
-18 -79 250 0
13 74 -80 0
-97 -116 -214 0
37 -86 -99 0
4 7 43 0
4 -220 -247 0
-1 13 -223 0
-3 -172 214 0
25 -85 -126 0
-64 96 -141 0
74 107 172 0
42 -77 81 0
-10 93 187 0
-33 219 248 0
-51 182 -234 0
-5 65 -176 0
17 118 -155 0
29 151 -229 0
-6 -22 -166 0
-35 36 -231 0
142 -245 -246 0
9 155 -230 0
-7 -38 -109 0
-160 -202 -237 0
83 -200 209 0
51 86 138 0
2 -12 222 0
-127 220 -228 0
54 -196 -243 0
85 -193 -194 0
-41 48 58 0
18 178 -212 0
-54 135 -219 0
-32 -124 -138 0
-32 89 -237 0
126 158 -212 0
-27 87 190 0
61 169 -172 0
-5 55 -164 0
12 47 185 0
-71 90 -144 0
-18 -72 -229 0
-28 51 -131 0
14 -127 -236 0
-85 170 182 0
-59 -167 235 0
-23 -34 158 0
-42 -180 -212 0
-120 -179 -244 0
-54 -73 213 0
-14 -33 141 0
15 72 204 0
-82 190 -212 0
66 118 -158 0
-45 -91 95 0
-23 102 -227 0
-18 59 137 0
35 -73 84 0
-19 82 218 0
-94 -135 -161 0
22 139 250 0
117 -123 -137 0
-78 213 -249 0
54 -76 206 0
174 -178 -192 0
22 -88 -94 0
-40 -57 185 0
129 -165 204 0
-9 82 132 0
38 -119 -146 0
64 -203 230 0
-108 -163 -182 0
-32 -44 223 0
58 -83 151 0
-105 -203 248 0
49 -122 213 0
-44 106 -164 0
37 -39 -46 0
-9 -36 235 0
-130 -147 160 0
33 -86 -90 0
16 161 -197 0
-14 -52 -124 0
4 79 -219 0
-128 -185 190 0
-91 107 -177 0
93 -97 226 0
20 45 -243 0
72 122 239 0
-29 -68 178 0
-157 -223 233 0
-40 93 161 0
94 155 -190 0
146 -167 -200 0
24 -127 -179 0
-36 -89 165 0
-147 152 244 0
-112 205 -230 0
58 -112 -160 0
-123 -124 222 0
-39 102 -225 0
-208 212 221 0
155 -156 -238 0
-133 -155 -168 0
-53 -157 221 0
-143 181 227 0
46 -72 -128 0
43 123 174 0
-45 -70 -218 0
-14 33 95 0
88 -106 -156 0
45 92 201 0
-115 -144 230 0
-11 -122 -201 0
20 48 -228 0
92 116 -222 0
81 116 -190 0
-112 146 237 0
115 212 -225 0
84 -165 197 0
-16 83 -242 0
-137 -142 -147 0
-55 -59 -190 0
-89 121 -244 0
-44 84 245 0
-65 -171 219 0
11 -53 91 0
62 -182 204 0
-70 -166 177 0
59 76 239 0
-92 -172 184 0
129 150 -180 0
85 131 -228 0
170 -175 225 0
17 91 -166 0
-27 -39 -145 0
37 49 -225 0
126 216 -238 0
-31 76 -117 0
66 -119 238 0
6 18 187 0
192 -227 234 0
94 -102 -123 0
14 23 105 0
-19 119 205 0
74 139 175 0
36 -52 60 0
-82 143 -244 0
193 -239 -244 0
19 179 185 0
-136 -143 219 0
-162 -177 -204 0
40 201 204 0
6 19 -174 0
-60 -97 173 0
-37 89 232 0
-96 142 -214 0
41 97 201 0
176 -218 -247 0
-118 195 226 0
-33 -135 -217 0
-30 -86 109 0
67 157 -232 0
30 -139 145 0
44 183 -215 0
-94 -149 -191 0
-136 157 -179 0
125 -161 212 0
146 -182 220 0
-197 207 246 0
24 106 -212 0
44 146 174 0
-130 -166 -234 0
-130 -145 245 0
-19 52 -118 0
-123 -126 142 0
121 -125 -239 0
2 -16 157 0
-28 -80 -98 0
201 -234 -247 0
89 93 221 0
67 100 216 0
-111 -144 234 0
143 -154 230 0
115 -136 201 0
40 83 -198 0
-8 43 -114 0
-54 82 -188 0
15 116 -157 0
-85 -213 220 0
-192 219 237 0
-34 109 -150 0
-62 196 215 0
-67 103 212 0
-23 -79 149 0
-98 -189 -224 0
-19 -110 162 0
95 -115 144 0
-76 -142 -188 0
-138 -141 208 0
19 28 237 0
32 -205 -217 0
-9 -22 161 0
-143 -196 -217 0
123 -167 -234 0
163 197 -206 0
-149 -184 221 0
170 174 -217 0
-7 152 -194 0
-2 241 -249 0
-2 10 54 0
12 -57 -193 0
-68 -205 -229 0
112 -146 -221 0
-123 172 -179 0
131 166 -249 0
52 53 -215 0
128 213 219 0
8 -15 247 0
189 -213 234 0
-21 -130 -146 0
-1 -38 137 0
22 -71 229 0
15 -110 -119 0
41 97 -233 0
5 -17 -221 0
-11 -55 171 0
-26 -40 -195 0
100 116 117 0
-69 -124 -161 0
22 -105 -202 0
-82 101 161 0
-25 124 -146 0
114 134 -162 0
72 150 204 0
20 47 223 0
-29 -155 -216 0
38 -140 164 0
29 -142 196 0
11 -95 189 0
-59 77 228 0
-88 181 -244 0
-19 164 222 0
36 -113 177 0
-190 -212 246 0
-50 -191 213 0
38 -105 182 0
-45 139 -172 0
4 -89 116 0
123 -174 189 0
-16 121 225 0
-18 -179 213 0
134 169 238 0
-57 59 -192 0
-105 155 177 0
-122 -216 -242 0
-20 119 -188 0
-30 121 -217 0
-49 -68 -85 0
6 53 230 0
35 50 -211 0
22 -108 198 0
6 -128 -230 0
112 145 243 0
-41 166 -167 0
50 -60 -89 0
164 -165 217 0
122 -134 245 0
89 118 137 0
-29 49 232 0
-17 -29 -181 0
9 -108 194 0
134 175 -214 0
-9 -29 -220 0
-118 -122 222 0
-128 -164 -182 0
15 167 179 0
-24 29 241 0
-152 -173 -198 0
-36 138 203 0
-22 77 -125 0
176 -191 224 0
-23 186 190 0
-7 -176 246 0
-1 -35 -172 0
54 -57 97 0
15 125 206 0
-180 -200 -209 0
-30 -140 -249 0
-127 -178 196 0
133 136 245 0
-63 -81 101 0
-13 24 -27 0
-22 -145 -207 0
80 -164 247 0
11 -21 223 0
-55 -125 168 0
6 93 -119 0
176 -185 225 0
-62 82 205 0
22 67 -223 0
34 155 185 0
46 178 211 0
39 127 -171 0
-125 150 184 0
-6 -135 218 0
-38 74 -232 0
92 101 -169 0
-25 123 -225 0
42 173 235 0
50 -68 -192 0
20 -55 -62 0
-113 217 -240 0
106 119 -143 0
56 -132 137 0
-34 37 -123 0
97 -106 243 0
48 56 93 0
99 -123 -133 0
-16 -137 -226 0
85 -156 -207 0
74 -185 197 0
89 113 228 0
-39 167 -228 0
94 -128 143 0
2 47 -97 0
-62 243 244 0
156 -180 -222 0
52 -140 170 0
-24 -190 249 0
-17 -194 -238 0
-40 92 -200 0
83 -127 -139 0
20 54 -247 0
-109 161 -213 0
17 118 132 0
10 190 -243 0
-24 -112 -222 0
-85 -169 -220 0
176 199 -239 0
-21 82 239 0
-54 -136 -215 0
47 108 -159 0
26 -70 97 0
-55 -75 176 0
135 -152 235 0
66 151 160 0
26 188 211 0
33 -102 190 0
-131 196 -242 0
113 -165 235 0
53 78 -151 0
-36 91 150 0
-14 79 -107 0
39 53 -175 0
137 -148 210 0
14 22 -130 0
-211 -228 -248 0
16 26 119 0
8 91 198 0
-41 124 -156 0
-4 -155 -236 0
-82 -128 162 0
23 -90 -91 0
37 -46 -236 0
40 80 105 0
-57 -103 -125 0
-71 121 -189 0
26 -200 -249 0
9 104 150 0
-34 44 124 0
-22 69 112 0
42 -136 144 0
-74 -82 231 0
-20 204 226 0
-150 -165 204 0
48 126 198 0
-20 -100 213 0
-175 -220 -244 0
12 50 -65 0
-10 63 151 0
153 -212 248 0
-91 211 -234 0
-11 -49 -145 0
-75 132 -157 0
26 103 -235 0
-105 154 -244 0
105 173 192 0
-48 -130 -209 0
-65 -90 -102 0
34 -51 67 0
33 -86 -120 0
-70 -99 -161 0
-37 87 146 0
90 -148 149 0
9 -50 218 0
-77 -141 -250 0
9 -57 -158 0
-91 -101 -232 0
20 -80 -153 0
-98 -210 236 0
2 21 -148 0
-94 -98 -165 0
141 -159 185 0
37 -179 184 0
135 167 235 0
-116 196 228 0
32 -160 -217 0
-17 -235 -242 0
-25 -88 149 0
191 235 242 0
22 165 -182 0
-21 -143 149 0
-4 -7 -89 0
-7 -214 229 0
-103 119 229 0
-71 -243 -248 0
61 154 176 0
-11 -214 236 0
-49 53 236 0
-80 96 -190 0
15 -36 -194 0
43 50 141 0
67 149 -195 0
-83 186 212 0
-32 116 -178 0
-135 -237 -245 0
26 38 171 0
-153 164 199 0
91 -190 241 0
59 -90 199 0
-65 110 112 0
138 171 -236 0
-66 -130 158 0
-29 -73 -135 0
-24 125 183 0
5 -27 110 0
-73 -163 169 0
6 -200 235 0
-107 -191 193 0
14 -145 -205 0
-51 -135 221 0
51 172 192 0
-13 107 -224 0
39 70 100 0
-121 151 -242 0
18 106 201 0
56 -84 -160 0
47 -109 197 0
-103 -138 -224 0
30 43 210 0
-32 -224 233 0
72 146 206 0
-35 -44 248 0
-8 -15 202 0
30 35 143 0
161 210 -232 0
-86 -97 140 0
-17 64 126 0
90 126 -178 0
154 216 -222 0
46 52 133 0
-102 170 211 0
51 -203 -220 0
-44 -65 -205 0
11 29 -166 0
-33 135 162 0
8 99 129 0
8 52 194 0
-70 -145 -164 0
-87 -163 173 0
119 141 168 0
-21 113 219 0
96 -180 -218 0
-85 138 235 0
-132 136 -155 0
58 -91 113 0
-53 190 214 0
-83 -133 -138 0
24 -56 57 0
53 139 -149 0
-99 -132 227 0
111 -163 -223 0
-84 -194 243 0
157 181 -213 0
95 117 161 0
6 -30 57 0
98 213 244 0
24 -30 146 0
44 163 221 0
121 -210 -243 0
-79 -166 243 0
76 -91 -209 0
74 167 194 0
-76 -81 -83 0
122 -175 228 0
78 -139 -170 0
85 -195 -200 0
9 -67 -236 0
-3 -132 -208 0
108 -139 161 0
-130 -144 -176 0
-164 -236 -243 0
69 91 106 0
76 -127 -149 0
2 -85 171 0
189 202 -249 0
23 59 157 0
52 97 123 0
171 -189 211 0
24 -55 -125 0
22 -94 -118 0
6 102 -223 0
-32 -83 188 0
22 133 -198 0
-2 -44 -72 0
-9 104 136 0
-11 19 -194 0
2 44 151 0
30 112 -136 0
162 -225 -228 0
51 -209 249 0
-94 115 129 0
104 -110 -137 0
-53 -112 235 0
-60 -107 158 0
5 94 244 0
-74 80 214 0
24 45 -98 0
22 -40 -130 0
-155 -220 -225 0
97 174 -217 0
80 -85 92 0
10 -239 -246 0
151 -185 -236 0
-209 224 -235 0
16 -147 -211 0
-2 -138 -241 0
-77 -140 217 0
-75 -146 -181 0
137 228 -248 0
78 88 123 0
85 -171 -196 0
94 221 -235 0
57 -92 -226 0
150 -214 -223 0
-33 78 -239 0
133 149 -246 0
-117 -179 228 0
51 -98 -180 0
-104 -117 -122 0
-21 -51 -113 0
102 -138 -247 0
-40 177 179 0
-58 -80 147 0
-55 84 -182 0
-144 -166 234 0
115 -149 -195 0
-49 132 -219 0
-32 45 -165 0
22 -58 106 0
-36 98 159 0
-70 -113 -139 0
-24 -54 -250 0
-132 -153 -244 0
80 95 -122 0
48 -57 134 0
-53 65 88 0
-55 -67 -218 0
-92 139 -158 0
8 82 -174 0
-114 -120 229 0
-85 -99 116 0
9 33 -73 0
-24 58 -224 0
-92 133 -197 0
71 205 -217 0
-12 -31 -250 0
-6 119 -191 0
100 -127 159 0
51 -148 -183 0
