c F1 random 3-CNF cnfgen RandomKCNF(3,200,852,seed=18) m/n=4.26
p cnf 200 852
-32 -47 170 0
-51 126 -161 0
68 -76 118 0
84 134 173 0
-52 61 -189 0
-56 77 -184 0
-57 -104 -198 0
-70 154 -182 0
123 -129 146 0
-49 53 -166 0
123 132 -147 0
-87 137 -169 0
-38 39 123 0
-24 140 -166 0
137 149 175 0
103 -104 -123 0
-34 -70 182 0
-86 87 -187 0
-5 139 179 0
-158 167 -190 0
-3 -26 -141 0
-123 -143 157 0
-45 -46 -58 0
-15 24 200 0
20 55 68 0
-28 77 -151 0
-23 -85 155 0
-102 105 -179 0
-12 -112 -192 0
23 -56 73 0
-166 174 178 0
-84 -176 194 0
-20 -57 182 0
24 -185 -195 0
-130 -136 -198 0
6 117 194 0
-22 102 170 0
55 -64 72 0
-34 -59 184 0
109 -135 -173 0
36 -128 -157 0
-16 135 -156 0
74 75 177 0
6 43 -77 0
18 -46 142 0
-22 -118 189 0
-49 -114 -195 0
-35 -51 -77 0
10 55 -96 0
-18 -24 127 0
-18 19 -123 0
-4 86 111 0
54 61 -74 0
6 52 -162 0
15 -39 -62 0
-83 -142 -177 0
-60 -73 -92 0
94 -107 -137 0
-40 -53 173 0
-49 73 -120 0
-79 -99 -177 0
50 -76 80 0
-173 194 196 0
-15 -92 172 0
-107 -158 -181 0
-52 -143 -173 0
63 147 183 0
-149 -193 -194 0
-92 -109 -174 0
151 -169 183 0
6 -10 81 0
84 -125 -144 0
37 -83 162 0
-57 -70 180 0
-18 -32 -107 0
53 160 186 0
3 43 -173 0
32 136 -145 0
57 -87 -104 0
13 -98 -140 0
-117 159 -176 0
-11 24 133 0
-174 189 -191 0
7 29 163 0
-69 -78 86 0
75 87 101 0
108 136 -157 0
82 135 172 0
-131 154 -200 0
-20 87 -130 0
48 -162 174 0
-54 77 140 0
-36 122 183 0
-39 -89 133 0
97 -115 157 0
-85 -155 -167 0
-64 110 -127 0
6 -41 -93 0
61 -80 110 0
-12 23 -178 0
-23 97 -174 0
-12 47 85 0
33 171 172 0
-11 -88 112 0
-55 125 167 0
22 -66 -109 0
99 153 163 0
-66 -122 -178 0
-110 118 -149 0
-127 139 171 0
144 -157 -196 0
-12 143 180 0
14 -43 58 0
7 -18 86 0
4 121 -197 0
1 -103 -152 0
-10 -52 92 0
-56 -80 -135 0
-66 71 195 0
-11 31 142 0
31 41 85 0
-1 -157 -197 0
-22 26 -48 0
54 -92 -112 0
50 -96 192 0
-39 133 -138 0
-105 151 167 0
-5 -129 -179 0
32 46 102 0
2 -76 81 0
-159 -175 197 0
7 -30 179 0
17 -36 -144 0
33 -88 103 0
-48 -100 120 0
45 55 156 0
38 -69 -111 0
11 26 -88 0
35 -134 159 0
93 -126 -128 0
-68 88 -156 0
19 -99 134 0
-55 -78 84 0
40 53 76 0
-4 -119 124 0
-60 -66 -178 0
4 62 -167 0
33 168 -193 0
79 -179 -197 0
-6 -135 136 0
24 -129 174 0
1 -75 196 0
-37 -123 -186 0
-65 -70 -146 0
-40 -55 191 0
-127 138 -177 0
-17 184 -195 0
52 -96 111 0
70 -75 -106 0
-49 102 162 0
-7 -76 120 0
-10 -148 174 0
110 166 170 0
-29 54 150 0
-29 33 -179 0
-159 175 -194 0
28 126 147 0
35 70 118 0
7 -42 164 0
6 90 142 0
-75 -189 -195 0
-78 -124 -156 0
77 -106 -155 0
22 113 -138 0
56 -83 -93 0
17 26 182 0
-61 -152 157 0
-59 -142 -170 0
-49 81 -159 0
7 151 -194 0
-11 -161 -177 0
-63 -87 -95 0
-47 68 -83 0
-7 -23 -28 0
55 75 164 0
4 -38 63 0
-9 15 -69 0
-1 74 128 0
30 67 -182 0
-3 -49 -177 0
12 68 113 0
43 -97 -141 0
103 -136 -165 0
-4 73 -96 0
-20 129 -138 0
102 -148 162 0
-37 -130 -178 0
-87 148 -187 0
-86 -103 -131 0
-19 74 129 0
14 55 -134 0
61 140 195 0
-48 82 123 0
-69 -78 162 0
7 100 148 0
9 38 -69 0
116 156 179 0
69 -92 -99 0
116 -182 -187 0
12 -13 -53 0
-13 -57 -157 0
-153 155 180 0
-15 -111 -186 0
-54 -64 134 0
13 127 -138 0
15 -41 116 0
-40 -132 160 0
-8 67 -194 0
-16 157 -190 0
-22 89 -91 0
-52 -66 151 0
-85 -166 186 0
-31 50 -104 0
85 87 135 0
104 -136 174 0
-14 68 -73 0
-48 115 -186 0
-18 -130 197 0
-8 35 196 0
44 72 -149 0
-78 151 -198 0
-3 8 150 0
-91 -98 -165 0
14 30 -160 0
-12 -127 151 0
-55 149 -195 0
129 -135 -138 0
14 -53 -127 0
-36 -64 -89 0
-21 151 190 0
-110 114 -142 0
4 52 -72 0
-1 14 120 0
90 181 -185 0
-128 -134 -186 0
-11 -107 -114 0
94 -134 -159 0
-45 70 177 0
131 182 192 0
-15 -91 -168 0
8 103 -173 0
-37 -149 156 0
-20 112 -141 0
34 66 98 0
19 -98 -183 0
37 -119 129 0
-111 -125 -145 0
61 77 -89 0
1 -49 187 0
-127 -158 -162 0
53 -80 133 0
-89 -184 -188 0
-124 127 197 0
-147 151 -158 0
47 91 -107 0
26 28 48 0
-36 182 -195 0
23 -84 -159 0
-117 -151 178 0
45 -136 162 0
92 102 184 0
21 53 77 0
-9 29 122 0
46 -154 177 0
28 -90 157 0
-77 -128 -180 0
-129 -171 177 0
-74 96 175 0
11 -146 -198 0
18 27 123 0
-64 106 112 0
-50 66 92 0
-25 65 -66 0
-19 40 100 0
86 -112 -144 0
15 78 -117 0
92 116 -139 0
-66 -168 195 0
-114 117 -148 0
-42 -80 -163 0
95 -112 -186 0
-19 31 186 0
5 -17 89 0
-49 138 -169 0
-41 94 -111 0
27 -68 -167 0
104 136 -155 0
3 113 196 0
33 37 -167 0
48 -91 -193 0
100 -158 -179 0
-110 -129 193 0
17 34 182 0
-96 -114 157 0
-11 46 -108 0
-31 -108 -184 0
-17 -59 74 0
-30 153 154 0
11 131 -147 0
-15 79 -163 0
-95 152 -175 0
10 -29 165 0
17 -26 70 0
-25 -74 -175 0
-42 66 -93 0
65 143 -155 0
-59 -144 -199 0
-77 111 -151 0
-130 187 190 0
-41 162 -170 0
14 76 128 0
120 188 -191 0
-21 -51 127 0
-22 -31 102 0
-23 -109 -154 0
-24 -48 129 0
-27 -36 -129 0
15 -78 137 0
64 -75 -142 0
31 -119 -188 0
-61 -96 -195 0
22 131 -173 0
-49 -101 -145 0
36 -158 169 0
-45 80 -163 0
-95 133 136 0
56 -153 -192 0
-183 187 189 0
-19 -101 -191 0
-28 59 179 0
33 -72 -166 0
54 123 -150 0
6 -49 143 0
132 163 183 0
-1 115 -198 0
100 -110 142 0
57 -83 -159 0
-39 43 129 0
49 91 162 0
-59 -71 84 0
155 170 -184 0
10 -136 179 0
-37 -120 171 0
42 -72 -181 0
-1 -5 115 0
68 -71 200 0
48 -52 -83 0
-51 83 -90 0
-55 -84 -135 0
-69 94 -189 0
75 86 -101 0
-40 -75 134 0
-18 -103 -191 0
-155 156 -197 0
81 160 -188 0
-18 -64 -139 0
27 146 -147 0
131 -140 -156 0
4 -22 -181 0
-138 161 198 0
77 -107 129 0
16 -36 57 0
-107 113 176 0
15 20 -145 0
-50 -143 -170 0
32 -74 -122 0
-29 62 -173 0
15 -153 -191 0
-23 94 -174 0
-16 173 -198 0
-8 72 127 0
43 -44 -74 0
-115 183 196 0
-29 31 -162 0
70 -124 -137 0
34 -145 -171 0
42 -69 194 0
16 -92 109 0
-33 -91 181 0
-1 76 -82 0
51 136 171 0
1 69 126 0
18 -68 -83 0
141 -161 166 0
62 -114 152 0
-37 -50 135 0
-1 -97 -168 0
17 -71 185 0
-142 147 -164 0
6 101 -107 0
87 -102 -199 0
62 77 -119 0
28 -59 177 0
160 175 187 0
-1 -86 118 0
5 -7 -64 0
2 22 -133 0
-52 53 -99 0
33 68 -102 0
50 53 -165 0
46 -52 -109 0
45 89 -200 0
-66 162 183 0
-85 -112 -184 0
-2 -129 -167 0
5 33 178 0
-67 130 -197 0
41 -53 -174 0
-34 61 -98 0
38 -69 75 0
44 92 -137 0
132 -145 167 0
-27 31 75 0
-27 37 -130 0
35 58 -150 0
-12 -76 -148 0
-28 58 142 0
31 66 87 0
17 -82 -163 0
-26 45 -171 0
-16 -146 -148 0
-34 -104 195 0
93 -97 -161 0
77 -116 193 0
-27 79 -193 0
34 -90 -161 0
-86 109 -200 0
57 -146 172 0
-18 -109 -177 0
123 132 188 0
-16 129 -185 0
28 -80 173 0
33 64 114 0
-39 131 -181 0
-27 65 -87 0
31 -62 198 0
-78 -95 124 0
40 75 78 0
56 -65 181 0
3 -153 177 0
5 20 150 0
47 -105 -137 0
-30 -99 -131 0
-128 -155 -193 0
-101 109 -118 0
88 -187 193 0
-53 171 191 0
41 65 -127 0
-58 85 -141 0
-30 129 -152 0
32 51 -111 0
22 -56 156 0
-16 29 -47 0
-69 140 141 0
-10 -130 -173 0
9 160 -181 0
-16 23 -122 0
-38 -97 -125 0
-5 -74 -197 0
-58 69 -112 0
-125 -132 145 0
-91 -107 -188 0
-80 83 176 0
-26 102 -149 0
6 71 -184 0
6 -31 -35 0
-98 -135 189 0
29 -61 182 0
79 97 172 0
-47 67 -111 0
24 -66 -145 0
132 -133 146 0
-38 -157 163 0
76 -141 200 0
-48 -65 -192 0
67 131 -143 0
35 -85 196 0
-45 123 191 0
-25 89 189 0
41 -148 -180 0
-14 -60 -199 0
48 84 131 0
58 105 148 0
-95 122 -181 0
32 -88 150 0
87 131 171 0
-57 142 -147 0
-53 60 -143 0
-83 -125 198 0
69 -94 165 0
70 -187 195 0
-97 -125 141 0
4 45 -120 0
-133 -139 196 0
11 29 40 0
85 143 -183 0
62 -72 -156 0
-27 -167 -185 0
-15 -39 170 0
-13 68 193 0
53 -63 -136 0
-22 -140 199 0
9 92 -101 0
-79 -136 171 0
-82 -91 182 0
-125 -140 152 0
-11 -25 -182 0
-13 16 -103 0
-93 -111 -133 0
-15 -92 188 0
157 -163 -176 0
62 -105 -191 0
-128 145 -171 0
-52 -107 163 0
-1 -3 -130 0
-1 -67 -141 0
82 113 175 0
13 164 -176 0
61 82 -90 0
38 -42 141 0
58 63 -110 0
127 166 184 0
-16 -153 -156 0
82 87 -139 0
4 -8 -28 0
-78 -116 166 0
-127 178 196 0
-32 34 198 0
68 -91 162 0
71 -99 125 0
101 124 -176 0
-11 76 -183 0
101 130 -143 0
13 -46 63 0
45 63 -124 0
-103 117 138 0
-63 -73 105 0
32 -96 -151 0
-22 -26 74 0
-53 137 189 0
2 -84 -191 0
9 -43 155 0
-32 71 -153 0
-37 -92 -117 0
72 -167 195 0
-28 -179 -187 0
72 128 -130 0
-3 -64 -77 0
-61 68 -137 0
80 -150 -190 0
-19 -93 -156 0
2 39 -174 0
152 -191 199 0
119 -156 -175 0
-134 -150 -165 0
-2 -35 62 0
91 92 -139 0
29 44 -161 0
-99 -109 -144 0
-96 -134 193 0
-48 103 -150 0
-20 -128 135 0
9 34 189 0
25 83 -178 0
97 102 168 0
-38 65 -106 0
33 123 157 0
7 -70 117 0
-163 192 -200 0
28 78 -115 0
-50 98 156 0
37 -63 -147 0
12 -53 -101 0
79 119 -156 0
69 141 -181 0
10 75 -195 0
-121 147 176 0
47 -117 161 0
9 11 191 0
86 -94 -116 0
41 130 181 0
-54 -162 -171 0
126 182 -194 0
124 -131 -144 0
17 159 -182 0
-44 -120 -171 0
-76 -100 109 0
52 -92 -102 0
-105 151 -168 0
2 -92 -173 0
62 -181 -192 0
81 139 -191 0
-7 46 156 0
-16 41 59 0
28 41 68 0
18 -103 161 0
29 109 -140 0
-84 157 -190 0
58 -86 -89 0
53 -113 134 0
-110 151 191 0
-37 73 -111 0
22 -52 -175 0
120 126 159 0
-92 114 123 0
35 -42 159 0
64 -124 -196 0
-70 154 -171 0
-12 -79 -117 0
-110 169 -187 0
127 -161 -183 0
31 -52 -53 0
-17 67 174 0
-1 -184 198 0
-66 138 152 0
-24 -41 -113 0
-29 -82 107 0
-52 83 -144 0
21 -100 166 0
76 111 -192 0
66 148 -199 0
48 -112 186 0
-40 127 -153 0
-7 10 171 0
-22 -171 190 0
-114 -152 -186 0
-37 142 175 0
-165 -188 189 0
-52 74 78 0
23 -112 196 0
-42 99 -171 0
-38 -159 186 0
4 101 -113 0
-38 145 -170 0
51 154 -184 0
-54 67 105 0
53 -131 -194 0
-83 -109 -140 0
-22 121 161 0
-13 142 -172 0
-117 122 -184 0
-111 191 -199 0
58 -154 -165 0
24 -51 147 0
26 111 128 0
9 39 71 0
-13 33 104 0
122 131 198 0
49 -123 128 0
-25 -26 -60 0
113 116 -152 0
-74 -132 -163 0
-46 90 -153 0
48 87 88 0
4 77 125 0
-19 69 122 0
33 108 -194 0
42 64 151 0
56 -105 -130 0
-31 110 192 0
155 158 -186 0
46 -137 -181 0
-41 76 -112 0
48 110 130 0
-33 130 169 0
-24 174 193 0
126 -175 -191 0
38 -125 180 0
-13 -88 164 0
-69 88 -175 0
-44 91 133 0
-133 142 -183 0
-55 170 -179 0
-11 -44 -58 0
-5 31 77 0
67 -135 189 0
78 102 -175 0
15 -129 155 0
-2 159 181 0
42 123 -163 0
-68 -109 -167 0
-37 -59 -127 0
56 -68 99 0
67 71 200 0
-38 42 55 0
1 -98 198 0
149 153 -196 0
-39 -79 158 0
77 -98 129 0
30 102 -198 0
-17 38 -98 0
-74 99 156 0
74 112 149 0
-29 126 -180 0
-83 100 -200 0
-31 -150 171 0
-8 28 124 0
-26 -57 92 0
108 135 -184 0
34 97 107 0
5 -15 -124 0
12 51 -152 0
85 -97 -179 0
13 -88 105 0
-4 66 -146 0
-14 143 195 0
139 141 167 0
-31 -40 -57 0
36 -40 -184 0
52 99 -165 0
50 -177 185 0
-76 88 110 0
56 148 197 0
93 -146 196 0
7 153 -194 0
-10 76 109 0
-49 -55 -83 0
47 110 -128 0
-9 101 -191 0
10 -73 171 0
63 114 116 0
59 -74 85 0
39 50 -153 0
28 40 -190 0
-4 18 -195 0
-20 25 161 0
26 -45 -190 0
-109 123 196 0
34 -101 -104 0
41 82 139 0
122 -136 -155 0
-105 138 185 0
19 47 191 0
-134 -145 -164 0
-102 -116 -184 0
-58 67 -85 0
-7 140 180 0
49 -171 172 0
59 128 168 0
-82 142 -196 0
-45 -80 82 0
39 61 -155 0
69 117 -165 0
-1 -65 149 0
-97 -111 -123 0
-35 -128 -146 0
-32 -46 58 0
-150 -160 171 0
6 17 -142 0
43 118 -163 0
-123 -124 198 0
-109 -132 169 0
-10 128 -135 0
-8 105 178 0
34 -62 -178 0
153 -159 -164 0
-117 164 -174 0
22 134 152 0
1 -18 -61 0
29 41 -119 0
-37 -51 80 0
-30 177 178 0
-98 128 -166 0
83 -150 154 0
-58 -92 134 0
80 156 -199 0
29 -169 -181 0
4 -18 73 0
-3 -125 -183 0
50 -101 108 0
-31 -70 -161 0
-31 52 -105 0
-12 61 -92 0
-79 -122 -182 0
56 163 175 0
98 -166 167 0
140 158 -185 0
54 100 -103 0
99 182 194 0
66 176 183 0
60 -114 -179 0
-43 -79 -118 0
1 -129 171 0
-3 -20 173 0
-30 108 177 0
85 157 -168 0
42 -58 116 0
34 -61 -100 0
-59 144 165 0
18 -142 184 0
-76 -171 -177 0
18 -65 104 0
38 -109 -156 0
79 -84 104 0
43 -105 -181 0
18 75 119 0
-104 -120 175 0
8 -117 -130 0
70 -128 -135 0
-89 158 -200 0
16 105 -127 0
-152 -168 179 0
69 97 138 0
-25 -27 -174 0
93 -177 -196 0
-17 -87 -159 0
-11 112 -151 0
-32 -70 129 0
-126 -187 -198 0
3 -26 69 0
51 57 -198 0
-49 79 164 0
-50 -128 -132 0
71 -78 -194 0
-94 -149 -181 0
55 -114 186 0
-2 -92 181 0
-9 141 200 0
9 -32 189 0
-82 -182 -193 0
-88 -169 171 0
-26 100 -155 0
-19 -27 180 0
-30 121 -180 0
2 -28 126 0
7 111 -120 0
48 156 170 0
41 165 190 0
24 -54 124 0
-103 -105 108 0
-73 124 169 0
-60 79 109 0
40 78 173 0
171 -186 190 0
-19 -170 -181 0
-102 136 -142 0
5 24 -195 0
71 182 -185 0
-107 149 -153 0
-80 135 139 0
-39 54 101 0
6 -10 106 0
