c F1 random 3-CNF cnfgen RandomKCNF(3,125,533,seed=14) m/n=4.26
p cnf 125 533
14 -79 -90 0
-10 -38 -94 0
-51 88 -112 0
-29 -112 -116 0
47 81 -103 0
2 22 -84 0
4 -11 -36 0
57 75 -120 0
-13 24 -111 0
-28 -58 -80 0
14 -16 -105 0
-4 16 21 0
55 -62 -125 0
-40 -59 63 0
33 -51 -61 0
-9 -19 -73 0
-3 -91 106 0
-45 -73 -91 0
39 46 -68 0
-13 33 103 0
4 -25 -40 0
5 15 33 0
-30 33 112 0
-27 -78 -88 0
5 72 -118 0
-32 -50 -63 0
79 118 -122 0
44 -61 100 0
7 17 -26 0
-17 58 63 0
-33 -48 91 0
12 29 57 0
3 -86 117 0
-53 -60 -74 0
-10 111 120 0
-9 111 118 0
83 107 120 0
40 87 -102 0
20 -76 -114 0
64 -101 111 0
-32 35 125 0
-1 93 119 0
-49 -51 -58 0
-4 -18 33 0
-68 75 107 0
-44 -57 -74 0
-88 98 124 0
-49 92 -111 0
67 105 125 0
25 33 109 0
59 85 111 0
-87 -88 -104 0
29 96 116 0
48 -59 92 0
47 -61 -78 0
-64 69 107 0
59 -79 -82 0
40 69 116 0
-4 -67 -88 0
38 48 82 0
27 65 99 0
-40 -111 -116 0
-23 -32 -45 0
-2 -6 15 0
26 39 104 0
-37 50 -120 0
15 57 100 0
-27 70 76 0
-17 47 111 0
96 99 122 0
14 -116 -122 0
41 -50 66 0
-44 65 -116 0
62 -92 125 0
41 58 -69 0
26 -32 70 0
36 55 118 0
-44 55 -81 0
-20 -98 121 0
28 38 -104 0
32 66 82 0
28 33 51 0
-2 26 -95 0
-29 31 72 0
7 36 -104 0
-36 -65 82 0
7 -64 96 0
-83 92 -94 0
-16 64 -119 0
-42 -69 -125 0
42 70 -108 0
9 -21 -32 0
-57 -64 120 0
31 -52 74 0
66 -74 -78 0
-59 -92 -104 0
-61 -73 -111 0
3 -24 47 0
-64 93 105 0
3 61 -119 0
83 98 119 0
-6 27 50 0
9 42 66 0
11 72 -93 0
-7 -20 -113 0
54 -80 107 0
7 110 -116 0
25 77 80 0
3 39 -42 0
42 85 -99 0
-35 -105 124 0
63 87 -113 0
30 35 62 0
-43 50 87 0
-68 -76 -102 0
-55 70 100 0
5 46 69 0
8 43 -118 0
-49 63 -78 0
16 -25 -51 0
26 -39 110 0
-40 -77 -82 0
-6 32 -119 0
-15 -49 114 0
-12 43 -122 0
28 -106 -112 0
59 -91 -118 0
38 -71 -122 0
33 62 -87 0
-61 98 -124 0
-83 -118 -121 0
19 88 -92 0
77 80 -114 0
78 -112 -121 0
41 50 -53 0
-15 30 -42 0
-4 -58 -119 0
-56 -61 -96 0
-60 103 -106 0
-27 -94 -99 0
-72 -74 86 0
-6 -115 120 0
14 65 125 0
22 93 124 0
31 63 71 0
-5 61 112 0
-73 -90 104 0
13 22 64 0
-41 62 97 0
-34 -48 115 0
38 -56 -109 0
67 68 85 0
-51 57 109 0
-3 -71 -91 0
93 109 121 0
48 54 -115 0
-38 -52 91 0
1 8 -50 0
5 32 -71 0
19 34 -60 0
14 -42 71 0
-21 -54 78 0
-38 67 -114 0
4 -9 94 0
-14 57 106 0
-20 75 115 0
6 -115 121 0
18 30 120 0
27 -73 -91 0
62 76 122 0
-8 91 -125 0
-105 -118 121 0
-52 -63 103 0
46 97 118 0
-4 41 -45 0
-4 65 122 0
8 27 31 0
26 -42 -99 0
30 -42 80 0
60 62 -84 0
1 14 15 0
7 -49 61 0
51 -94 104 0
-22 -33 -85 0
33 -69 124 0
-68 95 105 0
-56 -67 -117 0
-28 -75 120 0
38 74 -96 0
50 71 88 0
-69 89 -103 0
84 104 106 0
41 -85 -99 0
63 -112 115 0
50 67 111 0
38 -62 77 0
-9 -22 -87 0
25 -33 -64 0
-29 46 75 0
16 -97 -113 0
15 23 107 0
40 -74 -95 0
6 40 -119 0
99 -100 120 0
67 -79 -85 0
-22 63 115 0
-13 -17 -50 0
-11 -21 -80 0
16 90 -107 0
19 44 -72 0
-11 -61 -119 0
27 66 72 0
-20 36 118 0
-9 41 -69 0
51 68 124 0
-14 -97 125 0
-29 86 -103 0
-28 -35 51 0
35 -65 -88 0
-33 103 -117 0
-24 74 -108 0
94 -97 100 0
-6 -23 -60 0
-15 46 111 0
-15 -65 -91 0
71 78 -87 0
-2 -19 27 0
-49 -54 -95 0
-38 46 -63 0
-25 48 107 0
-42 -58 -88 0
-1 -25 80 0
-55 85 -94 0
36 -51 61 0
-6 67 -117 0
-57 -69 103 0
8 -63 -110 0
22 33 -51 0
-73 106 119 0
-6 -115 124 0
-65 102 103 0
12 98 -105 0
16 27 69 0
3 21 63 0
81 114 119 0
1 -27 122 0
5 74 88 0
32 -86 87 0
18 -39 117 0
-47 -93 108 0
-4 -36 -59 0
-3 58 -79 0
-28 -68 -122 0
81 -85 -108 0
-65 75 109 0
1 103 -123 0
-18 -64 66 0
93 102 -105 0
-8 18 -105 0
-42 70 -83 0
-46 112 121 0
-8 -47 95 0
-25 -64 -89 0
-7 -85 -96 0
-19 70 82 0
48 -77 -99 0
28 -35 62 0
6 -60 88 0
15 86 -108 0
25 -43 -52 0
12 13 71 0
6 -57 -86 0
-37 -44 120 0
-22 -98 112 0
-20 -31 -115 0
-15 84 125 0
10 -92 -104 0
30 91 -97 0
15 -51 101 0
48 -74 -122 0
20 -40 -85 0
-89 -97 106 0
22 33 100 0
16 21 78 0
32 66 -94 0
29 -63 96 0
-78 -84 99 0
-57 82 118 0
9 26 -44 0
-42 64 -67 0
55 86 -111 0
-66 -96 -109 0
38 -53 -57 0
2 -25 78 0
-3 -28 -56 0
-37 49 -111 0
47 -64 -84 0
24 -34 47 0
-24 -98 -103 0
-29 -114 125 0
22 61 82 0
26 36 47 0
-13 22 111 0
-71 -101 118 0
23 33 93 0
56 -69 91 0
7 -19 97 0
-13 -39 -47 0
31 55 77 0
-32 104 -111 0
66 109 118 0
52 67 68 0
-14 38 98 0
-20 94 111 0
-44 48 49 0
61 72 -81 0
-20 106 111 0
24 -108 -113 0
-16 24 -57 0
-7 -8 38 0
-32 -46 -76 0
18 -33 -125 0
-19 43 114 0
53 108 117 0
-87 89 95 0
-18 86 -116 0
-29 63 104 0
79 -91 -125 0
46 59 -97 0
-52 -98 106 0
25 108 118 0
52 -96 111 0
14 58 -100 0
-31 60 -111 0
-96 109 124 0
-38 -92 -108 0
87 96 -112 0
-28 29 -36 0
-56 91 -125 0
23 70 -102 0
-4 -68 82 0
-9 -29 -61 0
43 -75 124 0
38 117 -123 0
-12 51 67 0
-69 -110 -122 0
24 70 116 0
-15 64 -83 0
49 114 -118 0
-29 -63 -74 0
4 -28 -36 0
-82 89 111 0
-56 -77 -107 0
-42 58 -60 0
-23 57 -119 0
29 -99 120 0
-5 37 103 0
-71 -84 96 0
-55 95 -96 0
43 -70 124 0
-13 -18 -37 0
-11 -51 84 0
-54 -93 105 0
39 52 69 0
16 46 65 0
-76 -110 -118 0
-19 -101 117 0
-47 -76 -107 0
5 -58 66 0
8 101 118 0
-28 86 103 0
56 -92 125 0
1 65 114 0
-69 72 77 0
-104 -117 -124 0
-46 -47 -105 0
-18 22 95 0
9 31 -102 0
-21 -76 123 0
-20 80 -113 0
-42 62 106 0
17 99 124 0
44 99 103 0
-80 113 -120 0
-16 -75 -96 0
36 -70 -83 0
-46 -83 -112 0
8 104 -109 0
-13 84 109 0
37 78 110 0
79 -90 -121 0
78 89 -92 0
-8 -21 97 0
20 -64 91 0
-49 -66 -125 0
-14 94 112 0
17 62 -74 0
28 58 -103 0
85 100 -117 0
9 -53 -65 0
5 -83 89 0
26 -36 64 0
-16 63 -125 0
42 -47 58 0
24 58 120 0
-1 7 88 0
41 -42 108 0
-10 11 -48 0
29 -49 -78 0
-8 34 -67 0
4 64 -116 0
21 -26 65 0
7 89 -97 0
29 123 124 0
-9 -23 119 0
38 -64 -119 0
5 31 -60 0
-18 91 -110 0
14 -34 -56 0
-22 -110 -113 0
72 -73 103 0
-39 -64 104 0
-23 106 -117 0
-10 -33 -100 0
-34 53 111 0
-9 -61 122 0
54 61 103 0
-8 28 33 0
23 -29 65 0
-4 -30 107 0
21 51 -81 0
-1 94 -121 0
6 85 -116 0
-15 -49 -63 0
-3 40 -92 0
-12 17 97 0
20 47 -103 0
24 -46 -73 0
-76 -82 97 0
-56 70 -82 0
1 2 72 0
31 -51 -114 0
-18 -47 -51 0
37 -110 -122 0
-52 85 103 0
-68 -74 89 0
-19 -26 -39 0
27 80 122 0
-8 -105 -118 0
-79 92 -110 0
6 -60 76 0
1 -15 29 0
6 -34 -85 0
28 56 99 0
-3 -20 -41 0
-43 52 -121 0
-17 42 -114 0
22 -40 61 0
6 -49 -81 0
-17 42 -77 0
44 57 -125 0
-6 68 -95 0
-33 -47 -68 0
-16 -107 118 0
26 35 -39 0
23 -105 109 0
31 52 -75 0
54 66 -108 0
-27 -55 98 0
5 19 71 0
100 -101 -113 0
62 -76 85 0
13 -73 -123 0
-7 -38 -51 0
-21 28 122 0
-20 -52 66 0
-80 95 103 0
50 -85 -110 0
-2 39 84 0
-55 -56 -101 0
-28 -75 -123 0
-8 63 -90 0
35 -67 113 0
-18 -71 -115 0
-9 -40 125 0
7 37 -40 0
-49 -58 -107 0
19 -43 -50 0
2 4 22 0
2 -110 -124 0
-1 7 -112 0
-2 -86 107 0
13 -43 -63 0
-32 48 -71 0
37 54 86 0
21 -39 41 0
-5 47 94 0
-17 110 124 0
-26 91 -117 0
-3 33 -88 0
9 59 -78 0
15 76 -115 0
-3 -11 -83 0
18 -34 116 0
36 51 110 0
-4 54 -77 0
-33 -52 -77 0
42 -100 105 0
26 43 69 0
1 -6 111 0
-64 110 -114 0
27 -98 -122 0
-17 -43 97 0
-21 29 115 0
9 89 -106 0
-27 68 -110 0
-16 -62 -69 0
-16 45 -119 0
63 79 -106 0
-14 44 95 0
31 85 -86 0
-3 28 -82 0
6 24 93 0
-36 45 -72 0
-9 -36 -115 0
-14 26 -66 0
7 -64 -118 0
-43 85 91 0
-30 -84 118 0
-12 -17 79 0
-21 -90 -106 0
-60 -90 -122 0
-27 -37 107 0
