c F1 random 3-CNF cnfgen RandomKCNF(3,250,1065,seed=19) m/n=4.26
p cnf 250 1065
12 174 -201 0
75 -89 136 0
-67 84 -106 0
6 80 230 0
-30 117 139 0
-5 -26 -107 0
77 -147 169 0
140 148 -199 0
-35 36 -50 0
-2 117 -245 0
-127 -129 212 0
1 63 -228 0
-30 97 -116 0
-73 104 -116 0
78 79 113 0
-80 176 -248 0
-18 120 130 0
71 112 167 0
-44 74 111 0
121 -159 225 0
-3 99 -225 0
-54 -65 246 0
7 72 199 0
76 -120 -135 0
-144 -184 -227 0
123 212 240 0
11 118 -219 0
-120 -179 -184 0
-48 95 -114 0
-11 106 -159 0
-94 112 -118 0
23 -68 71 0
-43 44 250 0
-10 151 224 0
63 -84 157 0
38 -64 75 0
-19 -116 178 0
91 190 -202 0
36 -89 -118 0
-16 150 218 0
17 -127 -158 0
-90 126 -243 0
-7 58 148 0
103 107 202 0
-48 118 -184 0
103 113 194 0
216 -217 241 0
-42 -125 -190 0
6 109 206 0
-5 -110 -207 0
47 -64 80 0
13 -19 32 0
-10 -24 -248 0
72 87 96 0
12 93 -238 0
-65 91 126 0
-9 -44 -153 0
-5 54 138 0
125 185 202 0
43 99 163 0
-27 -43 65 0
-19 -138 153 0
39 82 134 0
-68 -177 -217 0
48 -177 247 0
-146 -159 -221 0
-116 -200 232 0
-34 124 217 0
101 180 194 0
-21 191 -217 0
95 -102 162 0
38 -141 220 0
-86 125 -227 0
-33 -73 -204 0
-75 -99 158 0
59 -142 204 0
4 49 -197 0
-20 -90 -135 0
-104 -105 137 0
-18 -195 245 0
-39 -51 -74 0
-47 -87 127 0
-109 119 -232 0
-21 83 240 0
149 -159 217 0
-141 -159 -212 0
-173 211 244 0
126 209 -210 0
-54 -150 -245 0
2 -95 111 0
46 -174 227 0
-66 -71 -91 0
36 -142 -169 0
-3 -203 -206 0
-47 113 -122 0
15 -75 128 0
93 116 -220 0
118 192 -221 0
-190 -201 -230 0
43 152 -194 0
-30 54 211 0
-100 -159 -218 0
62 -195 -223 0
127 167 196 0
-106 161 218 0
21 -132 -142 0
-152 183 -249 0
50 -62 -233 0
-46 -160 204 0
115 -120 121 0
7 126 -165 0
-2 -92 93 0
-124 -153 216 0
77 234 -240 0
-128 -135 -214 0
36 -81 145 0
94 124 215 0
-22 -203 -249 0
2 48 -92 0
-57 -175 -208 0
-27 130 -217 0
24 -181 -219 0
-27 -28 96 0
23 -65 244 0
-30 -142 144 0
-2 124 141 0
29 -73 -154 0
-177 205 249 0
49 189 241 0
-79 -202 -236 0
-76 -141 170 0
-17 -231 -244 0
22 -37 183 0
-30 113 -121 0
99 -149 187 0
31 -84 -230 0
33 34 -195 0
-127 -232 -237 0
80 95 -176 0
60 -166 181 0
-83 -165 -214 0
50 -105 150 0
-77 82 199 0
25 155 -232 0
112 -177 184 0
-11 -145 -188 0
56 73 -128 0
-1 178 -239 0
-33 -163 -197 0
-35 -154 -174 0
-1 71 139 0
22 -51 -230 0
104 161 -163 0
-35 45 -70 0
19 64 -132 0
124 -213 230 0
46 -114 -115 0
-54 -138 206 0
48 199 -232 0
3 -70 -115 0
-23 -38 -171 0
126 -134 205 0
-57 208 230 0
180 242 243 0
76 -175 195 0
78 -92 -175 0
-41 46 113 0
-218 236 241 0
-63 139 247 0
-23 -46 -125 0
-11 34 66 0
-106 -192 -245 0
-4 -31 139 0
-63 -72 -91 0
-25 115 235 0
7 -137 169 0
-4 -28 -107 0
18 -69 97 0
116 -230 -232 0
114 -187 201 0
117 149 197 0
65 -184 237 0
-60 -164 -216 0
-78 147 232 0
-116 -140 -158 0
-31 -88 -145 0
36 -118 223 0
107 159 -208 0
3 -96 131 0
-5 -70 -88 0
-36 -77 -216 0
-63 -171 178 0
122 -179 -238 0
57 -179 243 0
109 -126 225 0
-108 119 226 0
104 -144 -153 0
156 201 208 0
124 -128 246 0
14 -87 193 0
99 -148 170 0
52 -141 -182 0
48 181 186 0
-28 68 102 0
105 -136 -162 0
71 117 182 0
67 80 -138 0
-200 226 238 0
-51 -99 -132 0
-101 197 -223 0
-140 -171 -241 0
7 111 170 0
38 95 -243 0
84 184 -193 0
-129 135 -144 0
-15 135 -181 0
-92 -172 -199 0
13 -108 213 0
-73 132 -250 0
-161 194 -237 0
-66 -107 -209 0
16 46 165 0
149 -192 250 0
31 114 124 0
-91 152 186 0
-92 144 165 0
-29 -129 -242 0
-64 -221 -244 0
68 -107 -146 0
-18 168 -177 0
191 -230 234 0
102 111 -127 0
148 -192 205 0
-119 130 167 0
-25 59 -243 0
-206 220 225 0
-8 -204 -248 0
52 163 -219 0
-148 -164 -246 0
9 -33 -195 0
34 63 -168 0
-42 62 183 0
110 111 -196 0
63 -141 211 0
12 72 -80 0
-116 184 199 0
-74 -127 -188 0
-64 210 247 0
13 -33 -245 0
-111 -183 198 0
-37 -117 188 0
8 50 -240 0
5 -80 169 0
-28 83 249 0
68 99 -151 0
-5 -95 149 0
-51 121 187 0
-5 210 -223 0
-101 -172 197 0
-5 -143 191 0
68 -85 213 0
79 -115 233 0
138 142 -171 0
43 -94 -170 0
-54 -108 -183 0
-122 -131 -181 0
-14 -105 -181 0
-1 63 -230 0
142 215 247 0
-10 -56 -93 0
-15 -72 -224 0
-74 96 98 0
104 135 198 0
23 -145 226 0
146 -162 -177 0
19 -171 208 0
-18 -88 246 0
-14 -82 -97 0
-23 118 191 0
182 -207 -216 0
23 -120 -205 0
-125 -153 215 0
-50 60 211 0
23 -33 127 0
40 -44 -78 0
-29 140 -208 0
-62 175 196 0
79 -103 224 0
55 -175 247 0
-115 119 234 0
-31 -35 -73 0
2 -140 -177 0
31 90 221 0
25 122 139 0
47 107 117 0
7 19 27 0
225 -226 -238 0
180 233 244 0
-68 -189 231 0
9 58 142 0
33 -55 177 0
93 -99 -237 0
127 -214 243 0
131 149 -155 0
77 107 158 0
-103 160 186 0
-67 105 119 0
119 208 234 0
28 169 226 0
-171 239 -242 0
-8 -187 232 0
-21 -77 211 0
-24 -27 -144 0
182 220 231 0
-152 188 209 0
138 191 -199 0
-26 86 -153 0
-34 42 203 0
-83 171 182 0
-53 -73 -229 0
-19 -123 -181 0
-147 160 247 0
-63 149 -152 0
4 -19 -174 0
38 -87 -129 0
131 210 228 0
45 109 -208 0
84 -119 -222 0
-39 119 183 0
129 -193 245 0
50 -83 215 0
-37 39 -71 0
167 -168 -191 0
-78 81 -250 0
-55 -62 155 0
67 -120 155 0
29 -215 -229 0
-43 94 -161 0
64 215 232 0
112 159 166 0
-39 194 -216 0
-62 -85 -220 0
-41 -129 193 0
-52 80 225 0
-49 76 214 0
24 -54 132 0
48 172 -235 0
28 -32 124 0
33 66 139 0
59 78 -215 0
-65 -67 116 0
48 95 216 0
92 110 -131 0
93 -186 -192 0
-140 -205 -249 0
-37 107 159 0
-34 88 138 0
-41 -87 -215 0
-83 220 -232 0
-131 -153 -223 0
-16 103 -207 0
68 125 242 0
-22 -46 -109 0
46 53 -119 0
-31 -142 247 0
-72 -96 210 0
52 -151 -213 0
44 217 245 0
-42 -81 -159 0
-18 -41 221 0
73 117 -239 0
-168 184 218 0
-147 -196 243 0
25 47 -71 0
-46 179 -186 0
52 -112 219 0
-132 -151 -189 0
73 78 102 0
72 127 128 0
-123 -166 -185 0
68 -154 180 0
-124 143 181 0
56 127 -204 0
1 43 -239 0
89 -94 221 0
40 107 117 0
45 62 -158 0
-22 -64 130 0
123 152 -215 0
-43 -70 -99 0
5 -20 -180 0
-94 165 -237 0
29 -65 -84 0
-17 -202 216 0
-107 133 245 0
-36 50 -216 0
-40 -55 108 0
17 25 -173 0
-130 -207 218 0
41 -82 155 0
-88 -161 175 0
-93 -135 144 0
29 79 226 0
-52 77 170 0
52 104 241 0
-28 -110 -133 0
137 -172 -236 0
2 225 239 0
-14 -46 -70 0
-81 146 -147 0
3 217 -246 0
96 162 195 0
12 60 215 0
-72 -150 190 0
-135 179 -182 0
23 94 -120 0
-88 202 -229 0
48 74 173 0
51 -87 -89 0
48 -80 -210 0
-84 -224 227 0
-59 204 -228 0
-44 100 -177 0
70 119 162 0
61 152 -242 0
-114 -209 -213 0
-62 64 93 0
76 204 -248 0
21 -61 148 0
-83 -169 177 0
-17 -96 -99 0
-35 192 -245 0
23 43 151 0
149 -188 208 0
27 62 84 0
-102 -114 -187 0
27 102 -186 0
30 -65 219 0
166 196 -237 0
-7 44 -243 0
13 -54 127 0
36 -76 -214 0
-23 86 -190 0
-25 30 220 0
-107 190 202 0
7 41 168 0
-43 -111 137 0
-43 68 247 0
3 -123 -213 0
181 223 -245 0
-90 150 -241 0
-16 118 -148 0
-6 -40 68 0
-44 -179 -180 0
91 -124 218 0
67 116 -198 0
9 52 147 0
21 157 -228 0
16 -27 -84 0
43 68 -111 0
-12 187 243 0
94 -194 230 0
9 24 -150 0
-48 82 150 0
83 -113 244 0
71 86 212 0
16 117 -118 0
148 -181 -184 0
-44 124 -159 0
-91 -105 -181 0
-29 148 -197 0
21 92 -197 0
3 117 124 0
6 99 107 0
31 145 150 0
-45 82 -117 0
8 -51 -181 0
-88 -104 218 0
74 -169 241 0
-4 -5 104 0
-156 -182 196 0
-38 -64 -174 0
-90 -214 -223 0
140 -196 212 0
106 115 222 0
35 141 170 0
41 132 -167 0
142 229 231 0
-28 -80 120 0
-105 135 -215 0
82 -87 -145 0
-70 138 -237 0
-26 -119 -240 0
-165 -180 195 0
89 211 -214 0
-157 176 -208 0
10 -90 128 0
27 45 -244 0
-42 -57 209 0
18 -54 -159 0
-3 49 178 0
18 -126 181 0
-124 169 249 0
-16 67 230 0
88 186 -200 0
-125 -170 239 0
3 -31 204 0
40 -217 -235 0
-90 -114 -228 0
-12 -24 -214 0
-150 -159 164 0
-91 -193 -217 0
-7 -168 199 0
60 -152 -157 0
-94 105 228 0
-7 -91 190 0
124 -160 230 0
-96 -118 -179 0
-49 121 -199 0
14 84 158 0
4 7 85 0
12 20 239 0
7 -108 185 0
-14 89 -205 0
81 95 162 0
-139 -146 174 0
9 -96 -124 0
91 164 221 0
-73 -79 -172 0
39 -76 -244 0
-119 151 189 0
154 -172 -210 0
-101 -169 199 0
-68 140 -175 0
81 115 241 0
99 -170 197 0
-26 77 -191 0
-39 -112 -163 0
51 -97 188 0
5 61 -163 0
13 67 90 0
78 104 -183 0
-63 -91 -164 0
-36 83 -167 0
-120 -137 208 0
-123 151 -157 0
6 12 -180 0
87 151 179 0
37 54 196 0
38 153 210 0
-144 160 -171 0
72 98 130 0
65 77 113 0
-37 49 126 0
-107 164 -207 0
75 84 -130 0
18 59 160 0
-67 205 214 0
75 -162 -184 0
-30 43 238 0
106 -208 -229 0
98 137 -199 0
57 -100 -205 0
6 -231 248 0
-23 -138 -146 0
-30 85 182 0
22 -130 144 0
126 218 -249 0
15 -45 -185 0
-69 95 190 0
23 28 -200 0
-118 158 -171 0
-146 203 -218 0
79 137 215 0
-27 -90 198 0
-32 46 -103 0
-95 -165 205 0
-98 171 200 0
-111 125 185 0
-74 208 -244 0
29 43 -215 0
-134 -145 195 0
69 -148 201 0
-22 -31 90 0
-60 122 192 0
102 169 -175 0
146 -170 246 0
55 114 169 0
141 161 249 0
88 -130 -216 0
59 -90 -175 0
28 227 -244 0
-19 41 204 0
23 -120 210 0
-7 16 86 0
38 141 -223 0
95 205 213 0
-97 -113 183 0
11 -71 177 0
-164 200 202 0
-50 125 -242 0
43 -94 -167 0
-61 -62 214 0
34 52 81 0
-110 -188 204 0
-5 126 -178 0
31 71 76 0
-105 -214 218 0
95 -156 157 0
67 85 -194 0
-88 155 -236 0
99 -103 -199 0
52 -87 204 0
12 64 106 0
5 11 -174 0
-60 90 -191 0
-29 187 217 0
12 30 -209 0
67 143 245 0
-206 225 -226 0
84 -179 -189 0
-3 -37 75 0
84 -119 179 0
-167 168 202 0
60 -141 -199 0
-67 -98 176 0
-4 72 140 0
22 -78 135 0
-44 -136 206 0
102 164 -198 0
40 83 -191 0
-44 -112 227 0
154 -183 -219 0
81 -244 250 0
-17 -98 -117 0
-70 -132 -139 0
-28 115 -210 0
203 -209 234 0
-10 65 150 0
-17 203 228 0
-176 -187 198 0
124 147 218 0
-107 172 -248 0
81 121 143 0
32 72 -100 0
-81 122 226 0
3 -43 218 0
22 -74 219 0
89 -151 176 0
-20 96 144 0
85 -101 178 0
-33 164 240 0
-73 -167 -187 0
-56 -83 -88 0
-82 -102 134 0
17 -119 185 0
50 97 -172 0
-134 189 213 0
178 197 213 0
5 152 195 0
-163 -176 -210 0
81 121 -243 0
18 -44 -88 0
-49 52 63 0
-22 -68 226 0
3 50 -126 0
-30 177 221 0
-68 -116 173 0
20 -112 -125 0
165 229 231 0
-78 -133 176 0
-23 143 -161 0
84 -193 194 0
52 104 186 0
-59 128 -131 0
-73 -100 141 0
1 -44 223 0
-13 221 -239 0
85 -121 -222 0
2 82 221 0
-45 57 63 0
160 193 237 0
59 -94 132 0
-37 200 250 0
-185 203 223 0
-183 -204 -207 0
-64 -82 208 0
-43 -52 -141 0
-19 89 -172 0
-29 228 -244 0
-125 -146 246 0
-36 -38 91 0
-72 -143 179 0
-130 -235 -248 0
-19 107 223 0
-7 -64 -110 0
-47 -77 206 0
7 -17 129 0
-6 7 177 0
193 -218 -245 0
34 125 140 0
100 106 -181 0
57 216 250 0
192 215 228 0
-17 46 100 0
-55 195 -199 0
-116 166 -223 0
-127 164 -225 0
199 -206 213 0
-98 -155 -198 0
-18 -64 -180 0
-12 108 -203 0
83 170 244 0
76 107 188 0
127 -144 -167 0
176 -206 217 0
80 119 242 0
76 -116 146 0
93 158 246 0
-19 160 187 0
17 -69 244 0
-35 -77 226 0
-43 -196 -233 0
-4 179 -233 0
54 58 -177 0
-58 100 183 0
116 153 154 0
-10 24 -82 0
-137 214 247 0
-70 -168 233 0
58 -135 213 0
-123 166 248 0
-26 -123 173 0
-4 207 -217 0
62 -187 203 0
83 -184 245 0
-47 -78 249 0
22 139 142 0
-59 95 -210 0
-33 -111 130 0
8 55 129 0
-44 149 157 0
17 -197 -218 0
97 -203 225 0
189 243 -245 0
-33 -43 -124 0
24 81 218 0
-59 -120 200 0
-59 100 179 0
-62 90 -184 0
78 -225 235 0
87 -222 -227 0
-20 155 -174 0
66 -222 -244 0
13 -213 -247 0
-191 192 -207 0
40 139 -171 0
111 -149 177 0
69 136 -160 0
33 79 123 0
-121 142 -246 0
34 216 -233 0
152 -212 -238 0
-138 -155 -206 0
-116 126 135 0
-185 -186 226 0
-14 78 -140 0
34 162 210 0
13 130 245 0
-42 120 215 0
-71 89 -186 0
-10 -48 -228 0
44 -72 -80 0
-23 -49 62 0
140 161 247 0
77 -160 189 0
-19 191 -237 0
143 163 -225 0
119 -148 213 0
55 -71 163 0
21 211 228 0
-71 -171 -223 0
-89 -132 -134 0
-98 178 181 0
-100 -214 -236 0
175 181 229 0
56 193 -229 0
45 -213 239 0
-28 -97 -189 0
-109 147 -205 0
72 -74 127 0
-44 132 -185 0
143 154 185 0
130 156 224 0
24 -57 -100 0
73 -211 -226 0
-66 68 169 0
-166 -214 -248 0
-41 60 92 0
-44 98 172 0
117 -139 -150 0
115 134 -163 0
-34 78 230 0
53 -149 -232 0
-111 -114 -192 0
-217 242 249 0
-30 137 227 0
-49 60 -82 0
7 -60 -81 0
162 178 217 0
-87 -92 -111 0
42 74 -220 0
-15 104 125 0
-58 163 -247 0
93 116 -144 0
100 113 193 0
-38 205 232 0
25 99 -245 0
-77 92 196 0
-9 -103 166 0
122 -216 234 0
22 -54 76 0
-126 163 -209 0
71 83 -249 0
26 40 -186 0
-39 92 -131 0
84 166 -248 0
76 -79 -86 0
12 -78 89 0
7 -150 175 0
34 66 -226 0
27 -152 -247 0
23 -87 -171 0
-141 -164 195 0
-49 115 162 0
-125 -194 -224 0
-28 127 223 0
45 -46 76 0
-19 84 -162 0
150 -167 -191 0
-44 -117 181 0
-116 -128 169 0
-124 -219 222 0
-3 -69 174 0
153 170 239 0
-15 -48 -93 0
-145 -154 -247 0
-112 -160 -220 0
-7 -32 -87 0
-64 148 227 0
-102 -139 -170 0
140 224 -235 0
15 64 -204 0
-31 105 136 0
27 152 186 0
-156 191 -219 0
46 -66 -160 0
-7 -205 237 0
32 41 -75 0
183 203 218 0
81 83 -101 0
-65 -154 -182 0
38 -55 205 0
-21 -228 236 0
-62 121 -234 0
156 163 228 0
-39 -83 165 0
31 -54 207 0
-74 89 141 0
-169 -172 204 0
21 -47 186 0
15 -41 203 0
72 191 243 0
115 -151 -173 0
-205 207 213 0
-43 -151 224 0
-38 -149 169 0
-61 71 -236 0
-54 126 -150 0
-158 197 244 0
47 146 188 0
-31 -73 -215 0
105 -161 199 0
-127 133 -190 0
58 122 160 0
141 -154 163 0
64 126 -249 0
-68 190 -209 0
-32 -100 208 0
17 -18 105 0
63 168 248 0
-77 106 -238 0
44 160 185 0
-32 137 -222 0
-40 -153 193 0
-25 -56 169 0
7 22 -33 0
-21 137 -218 0
41 -148 220 0
-13 -133 218 0
77 -96 219 0
110 141 229 0
9 51 232 0
-75 -121 -203 0
106 131 -243 0
-51 -106 133 0
34 58 250 0
-141 174 181 0
82 105 -163 0
-29 -57 -186 0
92 -121 249 0
-50 -185 -203 0
-103 155 -162 0
13 74 83 0
182 189 242 0
-111 -190 238 0
-28 37 141 0
27 -125 239 0
-81 -186 222 0
39 -79 -172 0
-183 224 232 0
35 65 86 0
-50 -170 -218 0
-57 211 -235 0
-64 -173 -175 0
-58 165 -189 0
-45 127 -197 0
125 -215 237 0
-12 -66 -150 0
-149 196 206 0
23 57 243 0
-68 160 185 0
-96 178 233 0
-53 148 234 0
-54 64 -123 0
-115 -202 241 0
15 -24 -208 0
67 -124 -145 0
65 164 -189 0
84 90 220 0
-108 -128 -241 0
-25 104 -215 0
-101 -111 -193 0
-121 -137 -150 0
116 -181 208 0
-111 -117 133 0
-1 190 196 0
-73 191 -246 0
-42 -65 -112 0
-59 -68 235 0
136 -166 -173 0
160 166 177 0
39 -57 -214 0
-105 114 -222 0
-108 -224 -239 0
98 114 -189 0
89 -214 225 0
-83 133 169 0
41 -49 -211 0
94 158 249 0
52 -84 -169 0
-113 -115 -240 0
111 124 -167 0
-141 146 178 0
-19 96 99 0
-39 55 136 0
-124 137 -154 0
-6 81 164 0
-5 21 185 0
-32 173 -198 0
154 204 -205 0
-62 -121 192 0
91 -184 222 0
-35 -171 -218 0
210 -216 -247 0
-86 -207 -249 0
29 -52 224 0
13 38 157 0
42 -60 -70 0
88 174 -198 0
-104 134 -162 0
88 -92 154 0
72 161 -233 0
-59 -175 209 0
-55 -98 -226 0
-113 -156 193 0
15 115 -144 0
-145 -163 -218 0
-123 165 -175 0
-35 -57 -72 0
48 94 -112 0
-205 -211 -246 0
-8 -88 129 0
-44 99 164 0
-18 115 -134 0
-22 -33 125 0
47 -70 238 0
19 -164 176 0
120 203 -220 0
-44 -63 -162 0
130 -154 183 0
-11 -22 -197 0
8 85 -129 0
-40 -97 201 0
-127 223 240 0
-40 -47 189 0
-15 67 -119 0
76 -85 238 0
39 -92 -136 0
-141 160 -163 0
151 176 213 0
1 -166 -176 0
44 -198 -222 0
-68 84 -141 0
-39 47 224 0
50 55 -163 0
-89 -142 -146 0
5 6 119 0
-47 -86 225 0
-55 126 231 0
56 107 -247 0
57 -77 -138 0
120 -210 -237 0
107 160 226 0
48 159 -186 0
-126 195 232 0
16 160 -210 0
-49 -116 170 0
42 -192 222 0
-95 111 -230 0
-160 -193 211 0
-28 71 -119 0
59 103 140 0
65 80 -246 0
-115 -174 -175 0
29 -70 -188 0
10 -238 240 0
34 59 -228 0
80 -134 140 0
-4 27 -58 0
-135 198 -224 0
27 -124 -194 0
108 177 -197 0
55 -95 -124 0
98 151 -156 0
48 -150 216 0
-11 105 191 0
-179 182 -206 0
172 -229 250 0
120 -121 -134 0
-208 220 224 0
12 -87 109 0
-78 -80 135 0
-36 90 -97 0
-82 -184 -246 0
27 -185 221 0
26 -70 106 0
-88 112 204 0
146 197 -208 0
64 -152 173 0
-35 172 -246 0
13 33 -209 0
-39 -68 192 0
-51 123 188 0
46 -117 -161 0
