c F1 random 3-CNF cnfgen RandomKCNF(3,75,320,seed=0) m/n=4.26
p cnf 75 320
-6 -50 -54 0
39 46 -62 0
13 -18 33 0
10 -43 -61 0
-27 -41 -71 0
2 -8 71 0
-32 43 64 0
29 -31 73 0
-11 41 -66 0
-16 38 -71 0
-12 50 -57 0
-5 -24 25 0
12 17 -20 0
36 67 -68 0
-36 -58 75 0
-15 42 63 0
3 -15 35 0
8 43 55 0
6 69 74 0
-16 25 -74 0
3 5 15 0
8 -27 62 0
9 -29 -34 0
-8 24 56 0
-26 -34 51 0
8 -21 -27 0
16 -23 -57 0
-40 -66 -73 0
-2 20 -72 0
6 36 -70 0
-17 -37 -46 0
-1 11 25 0
-29 49 -58 0
6 -54 73 0
-21 34 58 0
-40 42 -64 0
11 25 -71 0
1 41 54 0
13 25 -68 0
-13 -24 36 0
3 -36 58 0
15 -45 67 0
-6 -27 34 0
-56 59 64 0
2 38 -49 0
43 -44 48 0
6 -21 -35 0
-17 51 -71 0
7 31 -40 0
-39 43 52 0
-61 -62 72 0
-15 62 -64 0
-20 22 43 0
11 -26 29 0
-13 -51 -72 0
28 -55 75 0
-22 34 -75 0
-4 9 15 0
33 51 64 0
-14 -19 -26 0
-14 20 -70 0
-55 -64 -67 0
26 -29 -70 0
5 -42 68 0
-38 49 75 0
6 9 67 0
-2 39 58 0
-48 59 65 0
10 -55 -67 0
30 50 62 0
-39 -65 73 0
-34 -39 -64 0
8 -17 -21 0
-5 8 -62 0
-11 20 -46 0
7 -50 59 0
-3 5 -17 0
25 50 -63 0
16 -38 -44 0
16 -25 -67 0
-25 48 59 0
6 33 63 0
-12 -65 68 0
-19 55 73 0
-9 13 54 0
54 -56 -58 0
11 33 -46 0
4 23 -45 0
10 19 27 0
1 38 48 0
-15 -24 -59 0
-4 -17 -27 0
38 42 71 0
40 -69 75 0
17 29 41 0
38 48 54 0
-10 -17 -51 0
-19 39 55 0
48 -57 -68 0
-2 42 -54 0
12 38 -61 0
-15 -20 72 0
23 -54 -56 0
-19 46 -67 0
-1 -27 38 0
-15 28 -39 0
12 -61 -64 0
3 16 -35 0
-51 -68 75 0
33 37 46 0
-10 34 40 0
-9 -21 54 0
27 -67 -74 0
-36 38 57 0
-16 49 -52 0
46 -54 -61 0
41 -64 -65 0
7 19 -64 0
2 51 -61 0
1 6 -47 0
-19 30 38 0
-43 56 -59 0
-19 54 -56 0
-17 -24 -27 0
50 55 -63 0
7 27 50 0
8 24 -47 0
-12 -37 -66 0
-7 -67 -71 0
-28 -33 61 0
-6 7 -21 0
-1 9 -18 0
29 -59 72 0
-11 -41 -42 0
4 -6 67 0
27 45 -68 0
-39 -40 -67 0
-6 31 45 0
57 -59 -64 0
16 57 59 0
13 -20 53 0
51 55 72 0
-17 -29 -63 0
-14 56 -72 0
-57 -60 66 0
3 -13 16 0
-1 28 37 0
-16 35 -50 0
-9 -29 31 0
37 48 62 0
-42 65 71 0
20 23 51 0
28 64 73 0
-17 46 50 0
-46 -63 68 0
-21 -29 -72 0
-11 18 -34 0
8 38 -50 0
32 -44 -57 0
-3 21 40 0
3 46 63 0
-2 6 29 0
18 -45 -55 0
19 -40 -46 0
-2 -49 53 0
-16 53 73 0
18 65 -66 0
23 31 32 0
-11 14 55 0
33 44 -49 0
12 -38 46 0
-21 -46 -65 0
-2 -51 -64 0
-5 69 -74 0
-16 -51 52 0
-3 -5 35 0
-44 -67 68 0
15 -43 73 0
2 20 -43 0
-38 -42 -47 0
1 -19 22 0
-2 44 62 0
36 55 71 0
-15 -21 -75 0
-2 -37 -40 0
-68 -69 71 0
1 -19 -56 0
-5 60 72 0
21 -47 -68 0
3 -32 74 0
-10 54 -74 0
13 -25 66 0
-35 -51 -55 0
12 -40 42 0
-26 -33 -51 0
-5 60 -75 0
-4 42 51 0
-11 45 73 0
-15 25 -70 0
4 -41 -51 0
19 40 52 0
6 -18 62 0
11 45 -75 0
-26 -34 -42 0
20 58 71 0
5 41 -66 0
31 -59 67 0
8 -61 72 0
-11 -14 -55 0
47 49 -66 0
3 -17 24 0
-6 -8 53 0
-10 22 -46 0
-33 -40 46 0
4 -34 59 0
13 -16 46 0
-2 -23 -52 0
-7 -11 61 0
-11 -13 67 0
-5 20 61 0
21 44 49 0
21 -32 -43 0
-6 -29 31 0
29 -31 -46 0
-18 47 73 0
1 50 75 0
4 42 66 0
15 -19 74 0
-54 56 73 0
-28 47 66 0
45 -53 -73 0
32 -49 61 0
51 -62 -75 0
48 -68 70 0
-6 36 42 0
-4 -19 -51 0
14 59 -60 0
-21 53 -61 0
-19 45 46 0
-23 -33 -75 0
-6 38 -71 0
-27 35 49 0
15 -22 -46 0
10 55 60 0
22 27 -30 0
37 -43 -46 0
-21 44 -65 0
-31 -40 -72 0
-40 -61 66 0
1 19 20 0
22 35 49 0
-15 47 -62 0
-33 48 75 0
10 71 72 0
-27 -53 -67 0
3 -18 50 0
-12 49 -52 0
-6 -14 -62 0
24 -34 61 0
19 39 -59 0
51 -53 -73 0
15 -30 38 0
8 18 72 0
52 -63 -72 0
1 13 -44 0
29 -36 -40 0
12 -44 -66 0
29 48 -49 0
-26 -46 62 0
-16 46 -52 0
-36 -46 -56 0
14 -38 62 0
-24 -32 45 0
-15 50 -60 0
40 -63 65 0
-12 41 -61 0
-6 7 -74 0
23 26 -42 0
4 -6 30 0
15 -17 26 0
1 54 67 0
-30 49 -54 0
-6 27 -49 0
44 48 -59 0
4 14 -35 0
27 -41 74 0
14 -61 -72 0
-23 59 -71 0
-11 33 -49 0
-32 45 -62 0
-1 52 -71 0
-31 33 62 0
-37 47 57 0
25 39 67 0
5 -43 -44 0
25 53 -64 0
7 -44 67 0
-67 70 -75 0
28 57 -74 0
26 41 72 0
18 32 -57 0
37 44 -64 0
-46 -57 -72 0
9 19 60 0
51 -60 70 0
3 -27 -52 0
1 -27 -70 0
49 69 -70 0
-2 -27 54 0
-3 4 -31 0
-15 34 -58 0
44 -50 65 0
-6 20 -41 0
41 50 -56 0
4 -18 19 0
-5 34 -35 0
25 -38 48 0
-3 -21 64 0
-13 45 -72 0
14 67 -74 0
