c F1 random 3-CNF cnfgen RandomKCNF(3,250,1065,seed=11) m/n=4.26
p cnf 250 1065
-116 -144 222 0
-48 132 206 0
37 78 -115 0
116 168 247 0
10 16 -49 0
84 113 -152 0
2 -128 -170 0
105 -142 -239 0
-59 132 195 0
-28 145 -197 0
18 99 246 0
54 -234 -238 0
102 108 -182 0
-23 80 -87 0
31 195 237 0
-3 16 120 0
49 -115 -131 0
30 102 -108 0
-222 249 250 0
48 101 219 0
55 -67 -114 0
19 20 99 0
-4 -95 154 0
124 -151 246 0
40 80 161 0
41 -162 -190 0
21 108 155 0
-10 132 -247 0
-66 -108 211 0
18 185 -238 0
144 -168 219 0
53 192 -235 0
64 106 115 0
73 95 -136 0
-36 116 229 0
-5 -122 237 0
6 -154 163 0
80 82 188 0
95 116 -140 0
-22 91 -176 0
-8 203 -242 0
4 98 150 0
-30 -66 -164 0
-178 -189 -240 0
22 -139 215 0
6 -59 -124 0
-3 -66 230 0
52 -157 -174 0
-62 -128 -229 0
51 111 -163 0
-57 150 236 0
35 90 -128 0
-29 -44 -211 0
-55 -213 -237 0
-81 -173 184 0
9 -72 -213 0
80 167 -203 0
-7 49 117 0
13 -162 204 0
-138 162 168 0
-52 122 211 0
121 137 194 0
70 -89 200 0
-23 106 -239 0
51 -117 -161 0
84 119 167 0
-55 63 -231 0
-138 -203 239 0
22 -90 -130 0
-108 -141 197 0
56 -208 223 0
45 -86 137 0
-133 -186 231 0
-57 113 -195 0
80 -98 172 0
-135 -140 248 0
30 -106 138 0
-12 138 -249 0
24 -43 -177 0
-205 -236 245 0
-33 -122 -127 0
28 -82 135 0
34 67 237 0
-4 -40 -59 0
63 -128 159 0
-131 160 -219 0
-6 97 163 0
137 162 222 0
-60 190 -235 0
81 155 229 0
25 35 228 0
-25 -67 100 0
52 104 161 0
-92 146 -175 0
129 176 -214 0
-7 10 28 0
30 48 -53 0
25 173 -238 0
-20 -25 -196 0
-91 110 -132 0
4 163 180 0
-93 -105 117 0
25 -43 155 0
-181 206 -216 0
-67 196 207 0
104 -209 -240 0
111 -196 197 0
-19 -48 -185 0
-3 26 228 0
-70 -242 247 0
104 146 -169 0
128 132 -165 0
6 30 -148 0
103 114 -130 0
-3 -26 -67 0
-131 139 -141 0
20 -166 208 0
99 -121 249 0
-110 -127 -242 0
-80 -94 -154 0
-73 144 238 0
63 150 -198 0
100 -176 -194 0
-13 149 186 0
-110 123 185 0
-26 134 240 0
30 -155 -181 0
31 -53 221 0
32 -94 -114 0
-68 -154 164 0
75 188 -244 0
-30 -129 -229 0
70 -157 176 0
49 64 244 0
-3 67 70 0
-27 57 139 0
42 -174 -234 0
-54 -91 -123 0
35 191 -215 0
160 -208 -211 0
67 -100 192 0
-153 -168 215 0
95 -110 -168 0
-21 -22 -140 0
77 199 -211 0
55 -170 -234 0
-178 -186 196 0
-57 -92 169 0
-83 -113 -182 0
-57 82 118 0
93 -94 -213 0
100 -150 -204 0
40 139 215 0
-117 195 226 0
15 -133 140 0
-167 206 -216 0
-22 140 -202 0
-27 189 231 0
37 -163 168 0
-57 -126 -183 0
-87 90 -207 0
125 138 -207 0
-171 194 -212 0
-23 214 -228 0
3 -182 -206 0
38 -63 235 0
-53 -83 -100 0
-16 -227 249 0
40 78 -166 0
5 -124 150 0
48 51 -92 0
-58 131 -153 0
-45 -104 -234 0
-104 125 -228 0
57 103 221 0
-99 205 206 0
-3 -224 -229 0
-64 183 -204 0
41 -83 198 0
-159 164 190 0
46 147 198 0
-22 -33 211 0
-123 178 -228 0
-5 49 203 0
113 201 -212 0
-41 -127 -135 0
-20 -104 143 0
20 93 -176 0
119 -174 192 0
-97 183 -222 0
30 118 145 0
-75 -97 -161 0
-23 143 171 0
-29 -97 -188 0
-121 -145 -186 0
24 27 37 0
47 -50 103 0
9 26 -59 0
-19 -105 198 0
53 -166 -197 0
85 -106 -236 0
63 -202 -203 0
-49 79 -88 0
-53 86 131 0
-65 138 -197 0
129 132 157 0
7 146 242 0
-63 -123 -148 0
-24 -224 -238 0
32 116 227 0
68 -144 235 0
32 -212 -240 0
-62 147 195 0
141 -153 208 0
47 -104 -201 0
152 158 164 0
9 -106 120 0
-45 104 -146 0
-63 146 239 0
172 -185 -202 0
-27 -121 -154 0
-73 -125 -193 0
-30 -31 -145 0
7 -83 -232 0
-97 -153 188 0
-32 63 -217 0
14 122 -249 0
102 169 -241 0
108 140 -222 0
32 146 232 0
-32 138 -226 0
63 -77 187 0
-17 -113 230 0
92 150 -178 0
-8 -117 -231 0
-37 128 240 0
76 220 -237 0
-91 215 220 0
163 179 226 0
226 244 -250 0
-81 -186 210 0
-86 -179 245 0
-44 58 221 0
47 -69 -185 0
96 170 -206 0
47 -230 238 0
-24 164 -171 0
19 136 -235 0
65 109 -138 0
49 -63 194 0
48 203 -230 0
-150 193 -235 0
-16 -17 -47 0
-9 133 201 0
29 -112 -156 0
184 -202 -203 0
-57 -140 219 0
52 -153 249 0
39 -84 -156 0
-114 129 186 0
30 46 233 0
-11 -80 -109 0
23 -167 -211 0
-41 64 -128 0
94 106 120 0
126 194 -195 0
11 134 -191 0
37 -135 -228 0
109 121 240 0
31 -65 -76 0
-23 -59 -239 0
157 237 243 0
104 -150 167 0
101 -119 -221 0
-13 -56 201 0
48 -141 204 0
-55 -103 -153 0
115 -126 161 0
99 108 -139 0
71 93 -243 0
101 -132 146 0
-15 40 93 0
186 215 -233 0
99 -116 -215 0
66 -198 -225 0
62 126 156 0
33 132 -153 0
106 -109 -123 0
-116 171 186 0
-72 -137 214 0
-99 133 222 0
75 89 95 0
-7 192 -218 0
18 -170 172 0
-199 223 -245 0
24 -110 -205 0
-16 -99 -126 0
57 -72 181 0
-43 122 197 0
-88 191 -233 0
-66 150 -180 0
31 -94 -233 0
-14 -97 -127 0
19 65 -227 0
-83 -96 229 0
-99 -121 165 0
148 182 242 0
-106 139 -159 0
-18 -119 -213 0
-10 -35 -206 0
6 93 -122 0
59 67 175 0
101 140 -238 0
167 -196 -218 0
27 -89 227 0
102 176 179 0
-41 -86 -160 0
-74 94 107 0
84 93 181 0
-18 27 -210 0
-132 174 198 0
-106 160 -222 0
-65 -102 -130 0
-95 175 -184 0
53 -195 220 0
-160 190 213 0
-52 97 160 0
4 -121 -250 0
-65 -108 162 0
13 41 183 0
74 -92 -188 0
-7 214 -232 0
-18 80 -113 0
105 -159 185 0
73 -140 205 0
-28 -143 -214 0
31 -39 83 0
-71 -103 161 0
-21 -52 124 0
-2 17 39 0
47 87 -124 0
-9 -107 124 0
-56 -141 158 0
75 -222 241 0
7 46 220 0
-7 70 -92 0
3 -54 227 0
68 -135 -197 0
79 -137 -206 0
-105 181 216 0
-37 -59 -148 0
-71 -130 -169 0
-18 72 -80 0
55 86 190 0
-34 140 191 0
28 -40 -89 0
6 -47 111 0
25 83 104 0
18 -83 -194 0
122 -241 -247 0
181 -200 228 0
-100 174 -243 0
-3 38 135 0
-89 -158 228 0
-32 -190 -215 0
99 -108 215 0
-9 -132 -236 0
12 -152 153 0
-85 -120 138 0
-121 142 189 0
126 193 230 0
167 216 237 0
65 67 131 0
-65 -88 183 0
-4 138 -222 0
72 165 247 0
-113 143 202 0
128 205 219 0
46 -94 208 0
89 -238 245 0
-47 107 -158 0
19 126 -231 0
187 -225 -245 0
-4 -87 210 0
47 54 -178 0
11 -34 -72 0
-92 157 160 0
-18 -53 -178 0
-19 -38 -52 0
-105 -157 210 0
32 -130 -242 0
61 -127 149 0
74 -224 225 0
100 -123 240 0
-17 -115 -164 0
-73 -113 150 0
63 -157 -173 0
-34 -152 -230 0
27 72 -88 0
-23 54 -230 0
-8 152 186 0
19 -93 -121 0
123 167 172 0
102 111 203 0
-18 119 168 0
95 -128 213 0
22 190 -204 0
-170 208 -249 0
-5 -40 120 0
28 90 -106 0
32 130 145 0
-23 -131 -170 0
-63 -64 200 0
56 116 -151 0
36 218 231 0
135 -145 249 0
3 106 211 0
97 -183 189 0
-29 104 -127 0
21 -77 107 0
-108 -169 236 0
144 168 -227 0
-69 77 -161 0
-22 -110 -203 0
-86 111 167 0
80 136 -214 0
83 103 -141 0
-9 81 -93 0
-3 96 188 0
92 -152 -177 0
54 -78 216 0
-31 128 133 0
-55 -65 -151 0
23 74 -103 0
-58 65 -213 0
-39 -40 210 0
-13 126 196 0
88 164 238 0
-123 -189 211 0
-22 45 -201 0
-115 174 -194 0
82 189 -230 0
141 171 -213 0
80 177 245 0
83 107 138 0
-71 121 -224 0
-52 -97 -239 0
-100 177 205 0
83 150 -198 0
-42 -167 -211 0
-116 -148 151 0
-102 124 -181 0
-60 -67 162 0
-17 -66 236 0
55 111 -184 0
-117 -136 233 0
48 -60 193 0
9 -91 -179 0
-39 -115 126 0
40 64 -201 0
31 42 -196 0
84 -94 -177 0
29 64 -92 0
-74 76 -171 0
20 -70 -125 0
-39 131 242 0
23 -140 -157 0
-14 110 -240 0
-95 116 -176 0
90 145 187 0
148 -238 241 0
27 145 -239 0
80 91 224 0
8 37 -106 0
48 -135 -174 0
51 -226 237 0
-21 50 125 0
-35 -77 231 0
70 180 -241 0
-6 -204 240 0
23 133 197 0
-29 77 -223 0
9 39 213 0
18 -96 246 0
86 -90 -105 0
4 -198 231 0
-95 -135 -150 0
-61 167 239 0
-39 -55 65 0
86 201 -236 0
-134 148 153 0
-17 -60 80 0
9 173 203 0
129 -176 196 0
12 -107 -143 0
-18 19 -234 0
172 -201 203 0
74 -98 233 0
-9 14 -128 0
37 41 235 0
127 -225 -246 0
35 -36 239 0
35 -50 -61 0
-31 96 187 0
48 89 -186 0
47 -83 -150 0
-135 196 206 0
5 -58 168 0
42 -85 -248 0
-203 -229 -249 0
10 -49 120 0
-113 150 -196 0
-12 42 45 0
-7 57 -109 0
7 47 -88 0
-11 -87 -249 0
-65 160 -191 0
-37 -149 -227 0
-66 86 244 0
-120 131 -144 0
-61 143 -150 0
25 -73 -164 0
-29 128 -144 0
-69 103 128 0
-82 128 164 0
-7 72 249 0
13 -72 205 0
50 -66 -232 0
15 -143 -243 0
-39 75 81 0
-115 177 214 0
-183 -187 205 0
-31 122 209 0
-6 -208 -236 0
165 239 241 0
-67 -74 -224 0
-48 157 178 0
-105 112 -223 0
-127 164 -242 0
11 91 -183 0
59 60 -204 0
70 81 -120 0
176 -198 -242 0
14 -234 -238 0
119 -199 247 0
-56 72 134 0
25 -181 221 0
-52 74 -239 0
-18 84 -102 0
-76 135 -221 0
-61 203 236 0
-110 -111 -122 0
4 23 136 0
-39 -48 -158 0
166 197 -205 0
16 -111 250 0
65 228 245 0
-69 119 -178 0
128 -147 201 0
-158 175 222 0
33 145 -182 0
5 -99 -104 0
28 -54 -159 0
-31 -164 238 0
-57 -214 222 0
9 -66 -203 0
-54 94 -170 0
55 -81 -112 0
-23 -160 -198 0
-97 169 174 0
-59 -76 186 0
58 -77 -168 0
-5 -107 -216 0
24 -98 -158 0
-51 192 -245 0
14 -150 211 0
-152 -183 -195 0
-65 66 181 0
-35 193 -200 0
-88 -146 194 0
-161 -204 -237 0
-207 232 248 0
-13 -118 156 0
-75 91 245 0
3 -77 140 0
71 -98 181 0
-96 102 -139 0
161 214 224 0
7 31 234 0
6 68 -126 0
-55 -85 -221 0
208 -225 -232 0
-8 -114 235 0
-58 141 -155 0
-113 202 228 0
152 -174 -235 0
90 -155 181 0
16 -94 123 0
179 191 218 0
-12 -83 -152 0
-17 27 204 0
12 -70 142 0
74 120 -200 0
1 -64 -93 0
-4 -5 -67 0
45 69 152 0
25 -121 -217 0
129 -178 -184 0
-68 -93 130 0
-6 -73 76 0
-11 -166 204 0
-95 -223 -237 0
24 102 129 0
-29 -64 -137 0
-10 75 221 0
-4 38 -222 0
-144 230 241 0
18 -119 191 0
-115 167 240 0
57 169 185 0
80 86 196 0
49 68 209 0
9 89 186 0
-42 -190 -227 0
190 -212 231 0
2 -158 -240 0
-169 -211 226 0
107 127 -168 0
52 70 -235 0
-48 -61 178 0
-163 -167 -172 0
-2 -16 106 0
13 65 -136 0
-96 -143 156 0
152 165 242 0
128 -169 197 0
11 125 186 0
49 -99 -120 0
-42 191 -195 0
-18 38 212 0
-8 62 230 0
-12 36 183 0
47 -59 74 0
19 52 112 0
-138 -203 212 0
97 -146 192 0
11 79 -122 0
-3 -109 -240 0
34 -171 -241 0
28 -181 -237 0
63 75 -77 0
-88 219 222 0
-107 -190 222 0
-124 168 -215 0
104 128 145 0
-112 149 -161 0
100 -156 -245 0
171 -220 221 0
94 -130 178 0
-98 143 156 0
-1 -161 -177 0
7 -130 164 0
-46 -124 -206 0
-69 82 -144 0
-186 190 201 0
33 154 -158 0
47 -106 217 0
26 95 -239 0
-66 -174 -212 0
15 -29 241 0
8 26 151 0
33 -90 137 0
-96 -167 172 0
-14 -174 -221 0
-74 -163 199 0
-3 -113 122 0
16 -69 -131 0
-25 175 -246 0
-108 -130 -156 0
-102 -175 238 0
-12 31 180 0
-39 114 146 0
-38 -114 -196 0
99 228 234 0
44 124 227 0
30 35 228 0
47 -86 115 0
-37 86 181 0
-10 -142 -250 0
203 231 236 0
-78 -121 127 0
165 -199 246 0
118 -159 243 0
107 186 232 0
-132 140 217 0
82 -133 142 0
87 -108 173 0
25 31 131 0
-108 -128 212 0
20 46 95 0
-24 -130 180 0
-96 -166 234 0
-65 -91 -166 0
174 -177 -205 0
-12 -165 -175 0
26 -146 -249 0
30 163 -180 0
126 195 200 0
91 -122 -180 0
-72 79 207 0
-146 -164 206 0
4 31 108 0
-62 -117 -120 0
-9 -108 -133 0
35 93 -249 0
24 162 207 0
46 -106 -158 0
-76 148 -230 0
10 -122 166 0
-41 -133 136 0
38 191 -210 0
-30 36 -113 0
-157 161 -200 0
-1 -108 206 0
55 -227 -232 0
166 -171 -197 0
-53 -134 168 0
-16 66 173 0
-51 146 153 0
98 -167 -214 0
-46 180 194 0
43 94 110 0
-33 122 216 0
-73 -166 -217 0
-7 -120 -199 0
146 179 249 0
-100 135 145 0
109 -172 230 0
-21 58 -82 0
-16 -36 202 0
27 -48 88 0
48 186 210 0
81 -97 121 0
91 -116 126 0
68 -204 -248 0
136 241 -246 0
52 206 -239 0
78 -114 232 0
23 107 -230 0
-74 -75 234 0
-153 210 -220 0
-63 -104 188 0
17 -128 -199 0
-70 -75 -140 0
5 -117 -173 0
-24 97 204 0
76 77 195 0
8 124 -206 0
2 114 -138 0
-26 103 -202 0
-70 99 -193 0
119 137 -246 0
2 -34 97 0
-193 195 -230 0
111 -210 227 0
-97 188 -229 0
119 182 188 0
-64 114 123 0
-98 149 -227 0
33 70 -142 0
-99 -106 132 0
80 153 241 0
-51 -118 -234 0
5 80 168 0
188 216 244 0
31 -63 202 0
-72 114 -248 0
-131 -197 233 0
38 66 249 0
30 -191 -246 0
20 146 -175 0
-16 132 -188 0
-52 -173 -219 0
-16 -18 -164 0
-39 -53 242 0
1 41 102 0
57 107 248 0
79 -158 188 0
-19 87 164 0
-120 156 -171 0
4 -118 -199 0
-2 -16 -166 0
51 152 -219 0
-163 230 -231 0
-16 -90 -235 0
17 -177 -225 0
-24 -32 191 0
87 -160 176 0
-4 -84 -135 0
-87 -126 219 0
-90 105 -229 0
-15 97 190 0
25 192 -216 0
-35 -119 -155 0
16 99 -113 0
-25 -44 -56 0
82 -171 -217 0
23 -149 154 0
132 177 243 0
34 -204 -212 0
-8 115 127 0
120 -174 237 0
85 -107 -180 0
-74 -177 222 0
94 102 198 0
-24 26 -247 0
-13 -42 -233 0
22 60 70 0
-8 -41 -218 0
-95 -141 244 0
-27 111 -137 0
156 159 224 0
60 83 -176 0
-40 129 248 0
-14 127 139 0
44 76 -175 0
-22 222 223 0
62 111 -243 0
15 -77 137 0
-68 190 207 0
-101 148 -211 0
-62 138 -183 0
-32 -51 58 0
-23 -131 142 0
-14 -31 136 0
-17 44 186 0
33 -63 -121 0
30 107 -245 0
-7 35 -153 0
-37 103 116 0
-175 207 -228 0
187 -207 -213 0
-15 -52 -114 0
-35 -71 75 0
-197 -226 237 0
174 228 -244 0
-21 -119 194 0
-22 -190 -219 0
15 -204 243 0
118 175 185 0
-21 131 168 0
20 -28 212 0
71 211 235 0
25 89 -111 0
-12 -41 56 0
53 -55 121 0
-24 207 212 0
88 90 148 0
-136 -192 -234 0
51 -67 195 0
143 -150 245 0
30 80 188 0
18 -26 -49 0
49 94 227 0
-60 150 -160 0
73 -146 155 0
58 185 -224 0
-31 35 112 0
142 -143 202 0
80 -113 148 0
-102 -133 148 0
157 203 -245 0
2 52 212 0
-45 -135 184 0
76 -119 130 0
-150 -239 250 0
-74 -79 96 0
-38 -92 245 0
23 99 -113 0
152 -184 -193 0
-155 -163 215 0
141 -173 -221 0
124 -187 -249 0
7 43 77 0
44 -133 146 0
116 167 -220 0
-20 164 -202 0
74 -95 113 0
-145 -154 203 0
-154 -175 245 0
-61 -166 -236 0
41 114 -127 0
-60 -90 -109 0
163 204 -239 0
-66 -93 -112 0
-156 -160 -221 0
101 -103 109 0
39 191 -244 0
4 -32 135 0
-46 202 -238 0
-6 43 247 0
-81 101 122 0
9 -173 -234 0
93 -123 -185 0
52 -58 -124 0
60 70 151 0
-15 48 85 0
-3 177 -239 0
62 117 -124 0
22 166 191 0
12 22 -139 0
-151 -197 204 0
119 -174 221 0
-180 193 215 0
27 200 209 0
-48 -144 160 0
-95 -111 242 0
68 -103 -127 0
82 -105 -177 0
57 -91 -198 0
-38 -132 -213 0
-5 -64 -82 0
-27 -142 -183 0
-77 110 -194 0
40 -147 162 0
33 192 -217 0
-4 95 187 0
120 -141 197 0
6 -130 200 0
146 155 205 0
-18 -49 -198 0
-107 -145 -163 0
-137 213 216 0
198 212 222 0
64 -74 -170 0
62 -110 231 0
-36 -82 -227 0
18 -110 -148 0
-115 -133 174 0
69 -107 -213 0
-3 -72 208 0
20 -232 250 0
40 -168 -226 0
165 173 -241 0
-58 86 -127 0
-16 -66 -197 0
18 -146 185 0
-154 -223 245 0
88 120 242 0
-142 -154 -219 0
-12 -62 120 0
49 -65 192 0
-117 135 -164 0
-74 84 169 0
-111 175 244 0
-29 -40 -188 0
-63 -86 97 0
41 -42 -103 0
-46 68 183 0
-127 -181 -216 0
-44 106 152 0
-84 -94 146 0
126 -194 249 0
125 186 216 0
82 171 -240 0
-148 192 -245 0
-80 -136 -219 0
16 -63 -137 0
177 183 211 0
60 -78 -97 0
30 96 179 0
125 187 -237 0
-41 -77 -112 0
8 -177 211 0
-28 212 247 0
-117 -217 240 0
69 -154 188 0
-44 -165 241 0
2 -76 -146 0
-62 -74 -83 0
-1 101 120 0
-99 201 247 0
-112 148 -204 0
116 -168 -173 0
60 110 135 0
-122 -249 -250 0
102 -116 194 0
70 143 -231 0
21 -169 -226 0
13 -106 131 0
128 -204 234 0
28 122 -244 0
-43 -54 118 0
43 82 224 0
-65 -187 244 0
-31 -167 238 0
22 73 188 0
45 77 191 0
94 187 -188 0
32 -106 219 0
-197 215 -222 0
3 -124 193 0
42 -97 -190 0
20 -41 118 0
-22 -145 209 0
106 -115 -119 0
-36 -70 -241 0
-8 77 198 0
113 -171 -182 0
74 -189 235 0
171 202 -238 0
-7 -119 245 0
-4 -92 162 0
8 -55 -166 0
23 78 134 0
-68 -124 -147 0
-50 -112 156 0
-130 -153 -241 0
-2 69 92 0
46 -236 -249 0
83 88 96 0
-83 98 -224 0
79 -98 143 0
-15 77 -122 0
25 159 174 0
-44 120 -202 0
32 130 -199 0
44 145 -222 0
74 -103 111 0
-19 -27 31 0
61 -148 153 0
-36 90 -202 0
20 -191 -210 0
-15 151 -239 0
-4 37 -118 0
36 -102 -131 0
101 -180 -233 0
-37 45 103 0
111 -165 234 0
47 -117 164 0
66 140 235 0
50 62 -155 0
180 -207 -219 0
-60 142 -242 0
-15 -22 66 0
-38 166 -225 0
129 -160 -248 0
-47 93 110 0
-2 -5 -123 0
-60 188 -237 0
-91 117 -206 0
-33 37 -190 0
30 -75 -110 0
128 204 -208 0
121 -178 -190 0
-94 137 241 0
-16 129 -148 0
-1 127 163 0
-102 -159 -205 0
-29 -177 239 0
114 -139 -158 0
-67 209 218 0
10 -60 97 0
57 151 185 0
34 -75 -158 0
