c F1 random 3-CNF cnfgen RandomKCNF(3,100,426,seed=4) m/n=4.26
p cnf 100 426
-14 -31 39 0
-3 -9 12 0
-29 -67 69 0
14 -28 -34 0
-22 -25 40 0
-44 78 86 0
32 -36 61 0
-38 74 -91 0
-37 -55 77 0
30 34 40 0
-36 -60 81 0
-9 26 -87 0
-24 -36 46 0
8 -13 42 0
-16 -23 43 0
6 -46 -90 0
-3 37 -42 0
-10 80 -88 0
-18 33 -38 0
2 -47 74 0
38 -47 74 0
15 27 55 0
22 77 -95 0
32 42 -75 0
53 -84 100 0
-31 53 57 0
-32 54 -57 0
-5 25 33 0
-30 54 -99 0
7 -41 73 0
-12 50 64 0
-38 -44 -85 0
-28 -68 -84 0
10 36 -64 0
-17 80 99 0
-60 -82 -89 0
1 -21 28 0
49 51 99 0
-21 -78 -86 0
4 -5 -11 0
18 -78 100 0
-2 -67 99 0
-11 59 -70 0
-30 -50 98 0
-10 -15 -80 0
57 92 -100 0
16 -55 62 0
-20 -23 -91 0
1 34 -70 0
-15 -16 70 0
-32 -53 67 0
24 81 -99 0
-60 -70 -73 0
-19 -33 51 0
11 56 -78 0
-26 48 74 0
-23 -52 -83 0
3 23 -39 0
-13 21 24 0
23 -62 -84 0
31 -63 -77 0
-30 -42 -96 0
-37 41 -57 0
-24 -59 -70 0
4 -20 -80 0
-12 -40 78 0
62 78 82 0
9 17 -39 0
-75 80 88 0
13 21 -97 0
11 -16 35 0
-20 84 94 0
47 72 -89 0
-20 28 -39 0
-21 -22 -33 0
22 -43 50 0
-3 36 87 0
15 21 78 0
2 -62 -71 0
23 44 -68 0
-40 46 80 0
-33 -75 -85 0
11 31 -41 0
46 61 68 0
64 67 70 0
10 -44 87 0
1 65 -66 0
3 80 -94 0
-19 28 -90 0
-39 50 81 0
-9 -53 64 0
42 56 91 0
-36 -56 -62 0
42 -80 -97 0
-4 -12 -66 0
-17 83 87 0
12 -80 90 0
64 -83 98 0
27 59 73 0
-13 -15 67 0
10 85 96 0
27 -34 -87 0
-78 95 99 0
7 28 97 0
-34 87 91 0
-18 -51 -62 0
52 56 96 0
-20 29 -46 0
-25 -74 -80 0
15 69 -91 0
24 28 69 0
-25 -38 89 0
40 51 -93 0
-45 60 -80 0
18 -58 90 0
15 38 -43 0
21 68 87 0
3 -43 -77 0
18 30 75 0
-30 -37 -78 0
-22 -45 -94 0
5 -69 70 0
16 61 64 0
19 71 -92 0
7 11 -91 0
-8 -38 80 0
-61 83 98 0
6 -37 -54 0
10 -26 56 0
26 37 87 0
11 92 96 0
-38 67 68 0
44 67 82 0
8 -9 89 0
-14 -67 -98 0
18 75 76 0
-6 -21 -99 0
46 -76 -98 0
32 -58 80 0
72 -73 -75 0
21 -39 -43 0
-27 -41 -91 0
-22 48 85 0
25 -43 82 0
5 40 67 0
72 84 88 0
-48 51 -83 0
38 -56 94 0
-8 13 -24 0
21 56 -88 0
44 45 -66 0
-13 47 -98 0
46 -56 74 0
12 50 58 0
13 -17 -37 0
-45 -95 -98 0
40 -51 -86 0
-10 -66 -91 0
30 -74 -80 0
16 43 69 0
-30 -62 -100 0
54 -69 86 0
-56 -90 -98 0
-19 26 -43 0
-70 73 -92 0
-50 62 -95 0
33 76 80 0
-59 74 88 0
-1 30 -99 0
42 -58 74 0
-5 9 86 0
29 61 69 0
1 25 26 0
-42 -62 -65 0
-17 74 -91 0
-8 13 -34 0
9 27 -92 0
47 50 94 0
-58 -91 93 0
5 -19 -22 0
-47 57 -73 0
-1 -35 -74 0
37 90 91 0
-21 89 100 0
25 72 -79 0
-4 11 65 0
26 34 -36 0
-35 52 75 0
47 -52 -77 0
-25 91 96 0
22 43 98 0
-60 69 94 0
-47 -66 -75 0
42 -89 -98 0
20 -34 -35 0
-65 -77 84 0
35 -48 96 0
21 -50 -66 0
5 23 -41 0
-22 -25 -69 0
-35 43 50 0
74 87 95 0
-43 64 68 0
-7 -48 -91 0
-32 -45 57 0
17 -50 -95 0
-22 -33 -99 0
14 73 -99 0
66 80 -85 0
72 -86 91 0
-1 -56 -99 0
4 -14 -22 0
58 -72 -100 0
-70 92 95 0
-33 -34 44 0
-23 -74 79 0
14 -31 -74 0
-16 -53 -94 0
58 -67 81 0
36 -37 45 0
-38 -86 -91 0
43 -68 -97 0
45 48 71 0
48 -77 -79 0
-37 58 -84 0
-29 37 -50 0
-26 28 -57 0
-9 21 76 0
-41 43 51 0
-8 -66 77 0
-45 93 -96 0
-14 -66 -72 0
-17 -24 96 0
39 60 70 0
-25 57 93 0
21 -40 70 0
-30 -65 85 0
-6 45 -66 0
13 37 94 0
-68 88 95 0
10 -18 79 0
-7 -44 -88 0
20 -61 -95 0
-33 77 85 0
-57 69 -86 0
9 -34 91 0
-54 -60 -62 0
6 67 -73 0
-37 -75 78 0
19 -35 -54 0
-14 -28 94 0
58 75 96 0
86 -92 93 0
13 52 73 0
-9 22 -96 0
11 -28 -39 0
-37 59 67 0
-50 -57 -59 0
-25 46 -96 0
29 -71 -94 0
-19 48 -56 0
4 31 61 0
-45 -80 81 0
40 80 92 0
25 26 55 0
38 61 100 0
-27 -66 -97 0
3 -43 -49 0
-18 21 55 0
-13 -31 -34 0
24 -25 41 0
-37 -59 82 0
-51 -93 -94 0
-9 44 56 0
-3 -64 69 0
-29 -54 -78 0
-27 30 70 0
26 -45 72 0
-18 -35 78 0
2 14 84 0
11 55 -85 0
13 -56 89 0
-73 89 -92 0
37 -53 75 0
-50 77 89 0
-33 35 97 0
-8 9 92 0
55 -69 -97 0
-53 82 -87 0
-17 63 86 0
13 -28 -51 0
13 -36 -97 0
-1 -8 -82 0
55 73 -85 0
-20 -45 -88 0
-54 -66 98 0
13 -22 86 0
-45 75 -87 0
-2 -68 91 0
-79 -87 98 0
1 50 68 0
-43 76 -92 0
-8 -66 -83 0
56 57 72 0
23 31 -41 0
-9 -39 67 0
7 77 81 0
-6 32 89 0
-23 88 97 0
-43 49 -88 0
34 -59 -90 0
3 48 82 0
10 44 79 0
6 -83 -93 0
24 -46 91 0
-25 -56 -95 0
-8 17 87 0
22 41 69 0
-6 25 -74 0
-36 52 -53 0
49 -65 94 0
-17 -83 98 0
-56 -67 78 0
32 -56 68 0
-9 47 87 0
-13 47 -48 0
-34 -81 -85 0
3 73 87 0
32 -56 95 0
-9 23 54 0
-16 20 76 0
11 88 -99 0
-20 34 -42 0
-7 20 -91 0
-7 75 -90 0
23 34 -55 0
-50 61 98 0
-52 54 79 0
-55 -61 70 0
-20 23 -69 0
1 10 -100 0
-18 -40 63 0
47 -74 79 0
-28 -73 86 0
91 93 -95 0
-3 -9 73 0
-32 -42 -69 0
11 21 71 0
-43 77 -82 0
-19 46 -72 0
13 18 100 0
2 -43 99 0
23 -86 94 0
10 26 98 0
44 -61 -99 0
-70 72 88 0
33 -40 -68 0
-13 -44 58 0
-7 98 100 0
-26 -34 61 0
-42 44 56 0
-30 -68 80 0
-28 -38 -80 0
-57 -74 -90 0
40 -47 87 0
-7 -16 41 0
-65 -73 -98 0
39 68 94 0
-37 46 88 0
-1 9 15 0
36 51 78 0
31 40 -93 0
19 -69 -89 0
35 76 81 0
-41 -57 -79 0
10 -57 96 0
42 51 -73 0
-54 -65 -84 0
-5 12 -68 0
42 79 -93 0
39 46 75 0
-7 -77 93 0
12 23 43 0
55 -78 -91 0
6 56 96 0
-26 -75 82 0
12 -53 -86 0
5 19 81 0
-11 -80 -94 0
-8 -21 -29 0
2 -35 69 0
24 93 98 0
4 74 82 0
18 39 -42 0
-6 34 76 0
-23 -60 66 0
19 37 91 0
12 -44 83 0
-67 81 90 0
-29 35 -99 0
37 -51 -58 0
29 -50 73 0
31 66 71 0
4 74 91 0
8 -40 -99 0
-31 -32 -76 0
-48 -59 91 0
-1 5 34 0
-60 -72 -80 0
-35 49 80 0
34 -62 100 0
16 86 93 0
-32 -76 -92 0
23 68 -84 0
16 -29 -84 0
16 -28 48 0
-10 56 89 0
12 35 44 0
-12 19 60 0
-19 21 51 0
-5 -94 95 0
8 -12 41 0
-4 42 -90 0
-11 -67 95 0
1 4 43 0
-40 -80 -90 0
