c F1 random 3-CNF cnfgen RandomKCNF(3,100,426,seed=9) m/n=4.26
p cnf 100 426
-48 60 79 0
-1 44 -87 0
71 -79 90 0
-58 91 93 0
7 15 -31 0
14 38 -96 0
12 -35 -99 0
6 -26 44 0
18 49 -63 0
15 77 95 0
2 26 43 0
-11 65 -74 0
9 25 51 0
6 -78 93 0
35 95 -96 0
21 -31 79 0
-15 -45 75 0
26 -52 -74 0
1 15 -56 0
-12 -35 42 0
-4 -8 -67 0
45 91 -100 0
-13 -30 -83 0
18 -38 86 0
7 23 34 0
-2 7 -8 0
-2 -38 79 0
36 62 -72 0
-9 -16 90 0
-72 91 -98 0
-77 -78 99 0
7 36 68 0
21 29 100 0
-59 61 76 0
-62 71 76 0
-56 70 -75 0
9 29 93 0
59 -63 90 0
-4 78 -87 0
-30 48 94 0
11 -77 -80 0
9 11 76 0
-4 -9 -11 0
4 -91 100 0
-2 42 -60 0
-14 18 -62 0
17 25 100 0
7 -10 16 0
4 -60 95 0
1 31 -33 0
3 -33 79 0
33 41 -61 0
5 -17 -39 0
1 -13 -39 0
-32 -54 -78 0
27 -52 -56 0
-60 -73 -79 0
24 -43 52 0
22 41 70 0
47 85 -92 0
-58 77 -78 0
-3 -10 86 0
42 -94 98 0
27 37 69 0
6 -12 41 0
-13 -66 -89 0
-18 -65 -76 0
26 42 50 0
2 -40 -88 0
-67 87 -97 0
-19 -37 67 0
-19 23 -43 0
4 45 -75 0
18 -27 44 0
-26 66 88 0
-46 -92 100 0
-48 52 60 0
-11 -22 76 0
61 68 -99 0
23 29 86 0
37 -44 -85 0
-5 10 -51 0
-6 60 89 0
-26 74 -92 0
-5 -18 -51 0
24 -86 -96 0
-33 48 79 0
-8 -83 95 0
-2 26 -27 0
29 38 -40 0
-35 -48 82 0
4 71 88 0
-3 -7 -27 0
46 72 -99 0
23 55 91 0
-54 66 -74 0
-66 67 93 0
-36 -41 -70 0
55 56 -69 0
85 -88 -94 0
47 -48 58 0
-9 -16 -83 0
3 -40 -56 0
25 61 75 0
2 38 91 0
-14 -57 79 0
-10 68 -85 0
-24 -26 -40 0
-65 -83 97 0
-69 76 82 0
-53 97 -100 0
21 -69 -76 0
15 -64 -69 0
-11 75 -90 0
-1 -43 -66 0
-21 -23 -99 0
-11 42 -62 0
-8 -39 78 0
-30 -40 -53 0
6 58 66 0
9 -11 74 0
38 -62 100 0
12 21 35 0
-33 48 81 0
87 -89 91 0
-53 -86 92 0
-12 -52 90 0
24 -94 95 0
16 -59 -64 0
18 -43 70 0
46 70 81 0
-1 -47 73 0
58 -70 -87 0
44 -75 88 0
27 -35 38 0
4 31 73 0
-10 79 -81 0
-36 89 -92 0
14 20 -36 0
-1 34 -68 0
1 -16 83 0
-46 67 85 0
44 86 87 0
-2 25 -98 0
3 88 -92 0
39 -70 83 0
27 66 87 0
-5 28 -41 0
-13 -46 76 0
6 8 -47 0
3 34 90 0
7 -55 75 0
-17 -19 -25 0
-58 77 94 0
35 -57 61 0
-19 21 -58 0
-24 -48 96 0
5 -18 86 0
33 -34 -66 0
28 -51 -53 0
41 46 66 0
6 -7 -43 0
47 -81 92 0
-57 94 98 0
34 59 -100 0
-7 27 -51 0
8 -52 84 0
38 45 -67 0
21 -24 -53 0
38 -46 -51 0
-3 62 84 0
-16 46 -49 0
54 -62 -85 0
32 -47 73 0
-40 -55 76 0
-27 -50 -65 0
24 44 70 0
26 44 58 0
-31 45 87 0
16 38 65 0
-27 30 65 0
13 -40 50 0
29 -58 -65 0
7 -36 -97 0
11 82 84 0
22 -29 -40 0
14 50 -59 0
2 70 87 0
-7 14 -80 0
6 7 -15 0
-28 78 95 0
7 -22 31 0
4 -71 -98 0
-4 11 56 0
-2 -12 33 0
10 50 -95 0
16 21 99 0
32 80 -85 0
10 25 -61 0
-39 -43 -91 0
12 -45 -89 0
24 -39 88 0
-59 64 66 0
-10 34 93 0
13 -49 69 0
31 78 97 0
-28 59 99 0
-38 73 99 0
-6 -9 -91 0
-48 -70 -75 0
72 -94 -100 0
-19 26 84 0
21 83 -91 0
19 -29 35 0
20 -55 92 0
2 7 -69 0
5 58 73 0
14 -39 -80 0
-2 10 -87 0
25 -32 49 0
-45 -58 -63 0
52 -93 -99 0
19 -54 -74 0
5 -13 -51 0
3 36 -74 0
-1 67 84 0
-32 -56 97 0
-17 -32 -88 0
10 -29 -86 0
-52 -64 -81 0
58 -82 -87 0
-5 9 24 0
-56 65 -87 0
16 -25 51 0
6 44 -86 0
-70 -85 -96 0
-27 -74 81 0
58 69 -83 0
-24 48 60 0
14 -54 -72 0
6 -41 -90 0
9 -43 84 0
5 -39 -53 0
-4 -25 31 0
-52 -66 100 0
-32 81 -86 0
-65 -91 96 0
12 -85 -87 0
50 51 65 0
-14 -39 -50 0
5 -74 75 0
20 37 -74 0
4 53 61 0
35 40 94 0
-2 70 -90 0
29 -55 -80 0
7 8 -37 0
-7 -32 77 0
-16 -23 -96 0
-66 70 96 0
-17 46 62 0
-47 -77 90 0
-10 -13 -31 0
23 57 74 0
8 -61 -71 0
-36 62 -100 0
32 36 -75 0
2 40 -89 0
-31 -83 99 0
-19 -23 -75 0
-21 -61 98 0
-54 -61 -97 0
29 -45 -98 0
-47 89 98 0
-59 70 94 0
35 79 84 0
12 50 99 0
26 43 66 0
49 -87 93 0
23 52 69 0
-35 46 -83 0
-64 72 -98 0
3 -53 -81 0
70 73 79 0
-5 35 67 0
-5 29 98 0
10 30 83 0
-30 33 51 0
-2 -40 -67 0
-12 -15 -82 0
30 -62 83 0
-4 -35 -93 0
-11 -29 -97 0
-18 -28 92 0
-2 40 -64 0
-41 72 -89 0
44 -66 90 0
13 25 67 0
40 69 -90 0
40 59 -66 0
-25 46 62 0
5 32 -65 0
-50 -57 74 0
30 36 89 0
33 62 94 0
-3 -68 -81 0
-18 -26 -84 0
36 -47 93 0
-44 -50 51 0
38 -46 63 0
22 -27 -59 0
5 40 54 0
23 -46 -89 0
46 -62 76 0
-51 -57 83 0
-49 -68 -90 0
-11 35 -79 0
62 72 76 0
30 -40 -91 0
36 60 79 0
17 -40 71 0
-6 68 -98 0
22 -53 59 0
-21 -49 79 0
42 -60 -61 0
15 -23 39 0
50 77 83 0
-5 38 48 0
-49 -54 -73 0
60 87 -98 0
17 69 -99 0
17 -52 -89 0
-60 64 -74 0
45 46 -48 0
58 -90 -95 0
10 42 93 0
34 85 -87 0
-10 -91 93 0
-54 74 97 0
-17 66 -91 0
-33 -82 -95 0
7 72 76 0
28 -44 61 0
-9 -12 -65 0
25 -29 -64 0
-18 -24 36 0
-58 60 95 0
-15 -75 -76 0
8 -34 -51 0
-39 -52 -53 0
48 -65 -88 0
-8 81 85 0
11 17 -78 0
-34 -46 -63 0
64 -92 -98 0
-73 -75 93 0
16 31 -81 0
40 43 -79 0
-8 -39 58 0
-12 -32 87 0
2 8 -85 0
3 -80 91 0
-23 47 94 0
-33 66 89 0
19 50 73 0
-57 -64 95 0
39 -47 64 0
-28 -72 -82 0
5 -60 83 0
1 -62 -86 0
26 35 69 0
-3 52 -59 0
73 76 -100 0
17 39 53 0
-13 79 -84 0
-67 -70 -85 0
34 -67 -73 0
1 -24 83 0
-56 -88 -92 0
72 -86 -95 0
6 -60 -66 0
13 -24 96 0
53 -56 98 0
30 -33 77 0
-6 -13 92 0
-3 69 99 0
-3 21 39 0
38 49 -77 0
40 -45 -60 0
-69 -71 -77 0
11 45 -51 0
12 -43 55 0
-51 -54 86 0
-16 80 85 0
10 27 82 0
-11 55 -92 0
9 16 36 0
40 60 -63 0
-9 -39 -67 0
-73 -78 -89 0
27 44 -57 0
38 -46 94 0
6 -41 -46 0
23 73 99 0
1 9 -38 0
4 -53 57 0
9 -54 -86 0
-34 -53 89 0
3 60 -65 0
-9 -63 100 0
-29 51 57 0
20 74 81 0
13 75 -91 0
-32 37 -64 0
-8 -51 -60 0
-21 66 -74 0
-30 37 -82 0
-18 -68 73 0
73 -86 -96 0
-3 -19 97 0
-3 -9 63 0
43 -60 -83 0
39 54 -91 0
-1 -10 -39 0
-17 23 -37 0
59 -69 -70 0
