c F1 random 3-CNF cnfgen RandomKCNF(3,75,320,seed=2) m/n=4.26
p cnf 75 320
-8 11 -12 0
5 -28 -33 0
-48 -66 70 0
-4 -47 -60 0
22 68 72 0
4 23 -42 0
-24 -66 -72 0
46 -47 -58 0
-32 -63 -68 0
-45 -59 60 0
-22 -35 -42 0
-65 -67 72 0
47 -63 66 0
8 -14 25 0
-14 18 67 0
5 -8 -55 0
4 23 32 0
-3 -4 6 0
21 -24 67 0
5 -20 32 0
37 -44 -63 0
-6 34 -71 0
12 29 -41 0
-17 -67 -75 0
-19 -34 44 0
-8 18 72 0
-13 21 22 0
30 -32 57 0
-30 -33 47 0
-5 20 50 0
12 31 66 0
14 24 -30 0
-40 59 69 0
55 56 -66 0
24 -68 -75 0
-3 -16 -67 0
3 40 -53 0
3 -26 -58 0
10 -27 60 0
10 -40 48 0
-15 -48 74 0
-16 45 51 0
11 43 51 0
-6 -61 -64 0
-19 -35 -48 0
38 51 -63 0
34 55 71 0
23 -46 70 0
-5 -12 17 0
-23 43 57 0
-13 55 -70 0
21 -22 -60 0
-19 60 -74 0
24 -51 -66 0
-33 -52 -53 0
11 -29 -69 0
-2 41 60 0
-3 28 52 0
-26 50 -72 0
-2 -18 56 0
-10 27 -60 0
-9 -63 -69 0
4 -59 65 0
18 33 -52 0
38 49 -60 0
-1 60 -72 0
-27 -57 73 0
39 -62 -69 0
-39 40 43 0
20 -51 68 0
30 -59 72 0
15 -47 -49 0
-10 43 -59 0
38 -57 60 0
21 35 -42 0
-24 25 48 0
-30 -35 -71 0
-36 -65 -75 0
-10 -48 -69 0
-23 -34 46 0
24 41 49 0
22 -45 46 0
-31 -42 -70 0
20 -41 47 0
-19 27 -43 0
-12 33 47 0
-6 31 44 0
-9 -23 56 0
42 -67 -74 0
-7 -30 -51 0
-12 -66 -70 0
-22 50 53 0
16 17 -58 0
-2 40 -59 0
4 -23 29 0
-7 44 60 0
18 62 72 0
7 -26 70 0
18 48 63 0
14 32 60 0
44 49 51 0
23 -27 -49 0
19 -55 -56 0
13 -39 -72 0
-37 63 -68 0
14 18 71 0
25 51 75 0
34 61 70 0
5 26 41 0
12 38 -60 0
36 -67 -73 0
5 -39 59 0
-28 -43 54 0
-17 -22 -56 0
33 -50 -61 0
-25 -61 74 0
22 48 -61 0
27 39 69 0
-8 -26 -41 0
-10 54 -57 0
17 74 75 0
-9 49 -58 0
-20 31 62 0
-43 51 68 0
8 34 -72 0
-16 -56 -59 0
28 37 49 0
12 68 -69 0
-30 52 -56 0
-47 66 -67 0
4 -29 36 0
-17 19 27 0
14 19 -38 0
-5 -18 40 0
44 -46 72 0
-36 -45 47 0
-4 6 -44 0
-7 -10 -69 0
21 24 -31 0
3 24 38 0
9 47 52 0
25 30 -71 0
11 36 -65 0
-17 20 -55 0
7 -48 -74 0
21 -58 64 0
3 -24 -33 0
57 -60 -61 0
29 -35 46 0
-4 -39 -55 0
-32 -59 60 0
-21 -69 -72 0
15 -54 65 0
-56 60 -67 0
-47 58 72 0
-23 -30 53 0
-34 -41 -53 0
2 41 -52 0
-2 -13 -15 0
23 -42 -52 0
13 -31 57 0
18 39 -64 0
-1 52 62 0
-22 -42 -43 0
11 -36 60 0
24 47 48 0
-31 51 60 0
-1 52 61 0
1 24 63 0
1 11 -59 0
-2 3 -51 0
-5 -47 74 0
10 -23 60 0
19 -35 -62 0
4 71 -72 0
-17 24 40 0
8 44 -59 0
14 25 40 0
16 -35 42 0
18 -45 65 0
3 -40 71 0
7 -10 -70 0
-38 46 62 0
1 -12 15 0
39 69 73 0
30 43 -74 0
-5 -27 -53 0
24 45 72 0
19 -49 54 0
12 66 74 0
17 41 -69 0
-14 52 59 0
14 45 -51 0
-31 -46 71 0
6 18 -22 0
-14 -20 39 0
1 15 55 0
-1 -25 56 0
23 -33 -35 0
-54 -64 -73 0
-23 -51 -54 0
42 70 -74 0
53 -59 -75 0
21 28 48 0
17 -56 66 0
10 40 -59 0
24 -29 71 0
39 51 -70 0
26 -29 -74 0
-4 21 34 0
-25 -63 71 0
-24 43 60 0
-33 -48 57 0
2 42 -54 0
-18 55 62 0
7 9 54 0
-28 -47 -73 0
1 10 14 0
-4 20 38 0
3 -36 45 0
2 31 -53 0
-5 70 74 0
7 32 75 0
1 16 -22 0
11 27 43 0
24 47 -63 0
1 -11 -37 0
38 -40 70 0
-18 -61 -65 0
13 55 69 0
9 -11 60 0
-20 -25 49 0
-14 -26 -56 0
-18 -32 -56 0
1 -6 15 0
29 57 65 0
-4 5 -15 0
55 66 73 0
16 -26 -29 0
15 24 39 0
-1 -4 14 0
1 30 -43 0
15 -22 -25 0
15 -35 -64 0
-26 29 -63 0
-8 41 -51 0
-31 59 -71 0
-16 -35 -58 0
22 31 -32 0
-17 50 69 0
6 -8 27 0
21 -45 64 0
14 37 54 0
8 -29 -35 0
-3 -5 58 0
-13 55 59 0
19 39 70 0
-7 -35 43 0
9 -32 -73 0
-7 25 28 0
20 -51 63 0
21 42 -68 0
-33 -44 64 0
1 43 -71 0
-54 -55 59 0
3 -4 33 0
-12 -28 -71 0
-7 15 44 0
-33 -34 -63 0
-60 -67 72 0
11 51 -67 0
51 -62 -75 0
35 -58 -62 0
11 26 -54 0
-4 -5 -38 0
-32 -56 -65 0
1 -34 35 0
-3 -24 26 0
17 44 50 0
-16 -32 53 0
26 -36 -52 0
-10 27 -44 0
35 -52 -62 0
31 -35 -64 0
-4 -34 -68 0
28 54 74 0
-22 24 44 0
-10 -14 -65 0
19 25 -65 0
-62 -63 -68 0
20 -57 -59 0
-24 -30 -42 0
-18 36 47 0
48 -67 -73 0
28 -35 70 0
-2 10 74 0
-2 9 -71 0
-24 39 54 0
60 -67 75 0
-16 24 -32 0
11 29 -40 0
-13 26 -56 0
32 62 73 0
11 47 -72 0
36 -46 -61 0
4 -12 70 0
-29 -31 -32 0
-1 -18 40 0
40 43 -67 0
-5 -48 53 0
-12 60 64 0
-32 -45 -51 0
-54 59 72 0
14 25 -28 0
-10 52 -70 0
1 -17 -49 0
-20 24 72 0
15 24 27 0
-5 43 68 0
31 -57 -71 0
