c F1 random 3-CNF cnfgen RandomKCNF(3,125,533,seed=2) m/n=4.26
p cnf 125 533
111 122 123 0
-22 -47 107 0
5 -75 -78 0
-93 -103 -111 0
5 -112 -116 0
-41 -117 120 0
23 31 72 0
-18 23 -42 0
-54 -95 -102 0
58 -110 -124 0
-32 -68 -84 0
-65 -66 -107 0
-45 -73 93 0
42 -105 -121 0
-39 -40 123 0
47 -63 66 0
25 105 117 0
30 35 -76 0
27 -32 106 0
8 23 47 0
9 15 123 0
17 33 48 0
6 50 76 0
1 -45 -121 0
-4 40 -63 0
52 -97 111 0
-12 85 88 0
58 -101 -112 0
-19 -42 -66 0
54 78 125 0
5 17 33 0
30 59 82 0
-10 57 92 0
-80 -102 -103 0
36 68 97 0
21 50 53 0
3 13 14 0
-4 -28 -67 0
49 69 -83 0
3 -55 66 0
-13 -85 118 0
67 -118 -123 0
-48 89 -120 0
13 14 -40 0
-8 -53 82 0
76 79 -114 0
4 40 -48 0
-15 -25 -74 0
-18 45 -97 0
-11 -16 79 0
-4 14 -89 0
-38 46 -123 0
-35 -62 -68 0
-38 88 108 0
-34 63 77 0
10 -23 46 0
12 103 -117 0
-30 -50 91 0
15 -37 68 0
-32 43 67 0
60 -91 -122 0
74 -98 -101 0
-4 93 -104 0
-7 -62 -66 0
-91 -94 -120 0
43 71 124 0
-52 86 -105 0
-60 68 92 0
3 -52 121 0
-13 114 -125 0
76 -96 118 0
-2 -79 -87 0
-23 66 73 0
-1 45 -116 0
-43 -87 -119 0
-4 11 -79 0
33 81 87 0
-49 60 64 0
37 -60 72 0
-49 69 -109 0
-18 -64 84 0
-34 -41 -106 0
51 83 -84 0
68 77 -109 0
-6 30 -122 0
8 -15 -123 0
28 -41 -46 0
-22 -47 -64 0
-18 115 -118 0
13 -21 42 0
-87 97 -109 0
-18 -30 -102 0
-96 -104 -106 0
-52 96 -97 0
40 -51 -62 0
12 -57 -62 0
4 -17 124 0
-10 46 -118 0
-31 -106 -107 0
-20 -82 116 0
13 64 -119 0
-19 -33 54 0
25 32 -44 0
48 83 121 0
-9 -56 109 0
42 -67 -74 0
-7 -30 -51 0
70 -80 -108 0
59 -89 -108 0
6 -58 68 0
16 118 -120 0
40 -59 103 0
29 45 86 0
-12 -55 86 0
61 110 -116 0
4 18 72 0
26 -70 118 0
18 48 63 0
14 32 60 0
-44 49 81 0
20 105 -107 0
-26 39 -44 0
-17 41 51 0
-35 -37 61 0
18 54 90 0
25 28 51 0
-34 90 96 0
-19 77 107 0
14 18 -82 0
38 81 -124 0
36 -90 -105 0
-5 -86 93 0
-82 90 94 0
-34 43 -54 0
17 -89 -99 0
-45 -50 125 0
57 -61 -75 0
-10 -22 40 0
79 -84 99 0
-69 106 108 0
4 -101 112 0
-33 -41 69 0
54 -61 107 0
-20 21 -28 0
36 -83 -118 0
101 103 -118 0
109 110 -124 0
-76 -79 90 0
28 -72 83 0
-18 -80 121 0
-51 -59 -125 0
28 31 37 0
70 78 -122 0
52 -56 91 0
-47 66 -67 0
-29 90 95 0
6 17 -62 0
7 -31 69 0
70 72 -83 0
-5 -18 -91 0
-7 -72 121 0
-14 -47 -78 0
-62 104 115 0
6 -44 56 0
-10 -85 -111 0
24 31 102 0
-76 98 -124 0
3 112 116 0
-9 52 117 0
30 32 71 0
-11 52 89 0
-67 -68 118 0
-17 -20 55 0
74 -123 -125 0
-77 106 -122 0
-17 77 110 0
24 -33 -91 0
57 -60 -61 0
-29 35 -100 0
-4 -80 107 0
-71 -117 -125 0
-32 -60 -92 0
32 -85 -117 0
-97 -120 122 0
65 -88 115 0
-56 60 -77 0
-58 -79 121 0
19 -30 -86 0
64 -91 -93 0
-41 -74 -117 0
-2 41 86 0
13 -15 -59 0
-41 78 -94 0
-11 -68 101 0
13 -57 114 0
18 39 -64 0
52 -62 84 0
-29 79 -95 0
-39 -100 -107 0
11 -36 98 0
47 48 109 0
27 -60 -76 0
27 66 -76 0
-61 95 99 0
78 -90 94 0
18 94 102 0
11 59 -80 0
51 79 -108 0
15 -40 -113 0
-10 16 49 0
-99 104 -113 0
19 -62 -112 0
4 71 -118 0
-17 -24 117 0
-6 -90 110 0
-20 -30 110 0
20 25 -109 0
-14 16 35 0
-17 45 -123 0
3 -71 98 0
10 93 -111 0
-46 -54 -87 0
9 81 114 0
12 -106 115 0
39 100 122 0
74 -93 100 0
-24 86 -113 0
-5 -84 -85 0
45 72 84 0
-17 88 -122 0
95 -98 99 0
12 66 107 0
41 69 122 0
-52 59 -87 0
7 -30 45 0
-15 -73 96 0
30 44 55 0
17 -120 123 0
-14 -39 83 0
1 15 55 0
-1 -25 56 0
-23 -35 110 0
-67 -122 -124 0
-62 -64 -111 0
-23 -84 -104 0
-55 68 74 0
-33 53 -119 0
36 68 -82 0
14 95 -105 0
17 -66 125 0
-10 40 111 0
48 87 95 0
-5 -56 72 0
21 52 94 0
-33 -65 115 0
-4 80 83 0
-25 -63 101 0
-24 43 60 0
-33 -48 -125 0
7 -42 93 0
-24 50 -89 0
10 38 -89 0
9 107 115 0
-28 -47 -125 0
1 14 108 0
68 93 109 0
16 33 -38 0
-14 36 -116 0
2 -28 31 0
14 36 74 0
28 86 105 0
16 22 -123 0
11 43 89 0
14 47 63 0
1 37 -50 0
-38 48 -84 0
12 -61 -125 0
-80 -117 124 0
24 69 122 0
11 -60 78 0
-20 -25 49 0
26 -56 -121 0
18 -40 -56 0
42 104 119 0
15 -27 38 0
27 32 108 0
-15 50 54 0
16 23 117 0
-36 92 115 0
39 77 99 0
4 88 -124 0
3 60 -83 0
-10 31 87 0
-11 -25 -123 0
15 -35 -77 0
-26 -29 76 0
-51 63 -84 0
6 -55 59 0
-85 -101 104 0
-37 39 58 0
32 89 -113 0
-17 -69 90 0
18 87 88 0
-5 106 117 0
45 -64 87 0
14 37 54 0
8 35 -99 0
-68 -96 113 0
5 -40 53 0
59 60 -68 0
19 79 121 0
43 -93 -101 0
42 77 125 0
-19 -75 118 0
104 109 115 0
-2 -8 47 0
-7 77 -91 0
21 67 -68 0
-33 -104 -108 0
60 -94 101 0
1 -79 -109 0
-54 -59 79 0
3 -4 33 0
28 -106 -122 0
44 117 -118 0
39 87 -93 0
-34 -63 -66 0
-67 -76 -98 0
11 51 -117 0
51 -62 -99 0
-58 -80 109 0
-64 -71 107 0
11 78 -107 0
4 -38 -92 0
-32 -51 -90 0
-1 35 -51 0
1 3 -26 0
36 -73 -101 0
3 17 76 0
-16 -53 85 0
26 -36 -52 0
-10 27 -44 0
-52 62 -91 0
-31 -59 81 0
-61 88 -111 0
-33 -68 117 0
-74 118 122 0
13 -24 -108 0
29 69 104 0
-33 -65 68 0
25 -30 -110 0
-59 -62 98 0
-4 -57 59 0
-30 -113 -118 0
-18 -57 -115 0
86 88 -114 0
88 -89 -105 0
-28 70 -103 0
31 75 -78 0
1 70 112 0
44 -71 83 0
-76 -77 -97 0
20 -75 121 0
49 95 101 0
16 -59 86 0
7 -11 -40 0
13 90 -124 0
25 -54 73 0
10 -18 109 0
-28 -46 -89 0
-24 58 117 0
-19 68 70 0
-29 -32 -107 0
18 -40 -88 0
-18 40 123 0
-68 -90 121 0
-53 -90 125 0
-12 60 64 0
-32 -45 -95 0
-33 -76 -77 0
17 90 95 0
14 28 -82 0
-10 52 -70 0
17 49 -99 0
20 -53 78 0
14 15 24 0
6 -15 44 0
65 -94 116 0
37 68 92 0
-31 95 -110 0
39 63 90 0
-4 11 -45 0
-16 -30 50 0
32 60 102 0
-4 -57 -62 0
40 -58 -99 0
9 40 -113 0
16 -41 96 0
27 -74 -118 0
84 103 -125 0
16 79 106 0
-1 113 114 0
45 -50 -105 0
59 84 102 0
-33 52 -93 0
-11 37 44 0
-10 44 66 0
-38 47 83 0
46 -75 -86 0
19 -34 117 0
50 -52 -112 0
-41 -123 -124 0
-5 40 51 0
-100 104 116 0
-16 -85 -106 0
-3 81 105 0
-2 -17 26 0
32 93 -105 0
76 104 -107 0
-28 -108 115 0
7 -20 -63 0
3 -77 -115 0
49 -57 -65 0
2 -29 -33 0
3 -66 78 0
59 -83 -99 0
-21 -41 -57 0
-20 -70 92 0
-35 -41 83 0
11 -107 -118 0
47 -64 -72 0
-16 -37 87 0
78 -112 125 0
-4 97 -125 0
-26 -59 -124 0
-48 52 -124 0
31 -62 95 0
15 -51 -113 0
-21 -76 113 0
-50 54 -81 0
-14 -32 72 0
-6 94 -117 0
-38 -108 117 0
20 -75 -98 0
98 108 -110 0
61 70 111 0
-39 -55 56 0
-69 81 95 0
25 -85 101 0
24 -53 -80 0
-62 -70 79 0
26 -94 116 0
-18 -67 -75 0
22 -47 -93 0
-8 53 -54 0
47 -66 72 0
44 -90 123 0
106 114 125 0
35 57 -60 0
-1 -63 73 0
-25 38 122 0
-50 93 -96 0
-4 -40 -48 0
-45 85 -107 0
-22 38 -57 0
-18 -52 93 0
-26 94 105 0
9 78 86 0
3 26 -93 0
11 -46 72 0
-53 108 -119 0
-8 21 -91 0
52 56 -100 0
-64 97 -125 0
29 50 -94 0
15 63 119 0
24 63 -84 0
8 -45 82 0
26 37 -107 0
-61 68 -77 0
12 21 -96 0
57 -102 107 0
-9 -104 -108 0
20 -67 69 0
46 -111 -121 0
11 76 -118 0
57 75 -99 0
-24 -27 36 0
-39 63 -92 0
35 -37 -120 0
-73 100 -113 0
-12 -25 92 0
34 -48 -67 0
12 -18 32 0
21 -98 -120 0
48 -74 -115 0
9 -119 124 0
-31 -53 -108 0
83 -100 -102 0
77 -97 122 0
-7 41 -90 0
7 -37 -57 0
84 105 125 0
28 68 -119 0
-39 70 88 0
-23 -42 -94 0
46 63 -78 0
-55 109 -124 0
77 -109 -117 0
-29 -87 -97 0
-44 69 -116 0
-55 88 -102 0
27 52 105 0
64 -90 -104 0
-50 76 116 0
15 32 43 0
-32 92 100 0
77 111 114 0
59 75 -96 0
47 -105 111 0
-73 82 104 0
44 51 71 0
-29 -40 -82 0
30 -48 53 0
10 -16 -120 0
22 -53 57 0
55 -64 114 0
38 103 124 0
-31 -67 103 0
-107 -109 -125 0
28 53 -56 0
-2 38 -44 0
19 -59 108 0
