c F1 random 3-CNF cnfgen RandomKCNF(3,175,746,seed=15) m/n=4.26
p cnf 175 746
3 54 134 0
5 -15 175 0
-30 -87 -120 0
59 -68 -89 0
-58 79 -131 0
-21 -108 -126 0
-81 -146 166 0
5 51 126 0
74 127 136 0
-13 -19 -102 0
-46 60 129 0
-43 -80 -161 0
-19 -87 114 0
-30 -127 174 0
24 67 -74 0
-16 -41 -66 0
-12 16 -129 0
-60 115 152 0
-15 -86 -167 0
-15 -78 159 0
-4 -99 111 0
-37 -64 -65 0
-63 -81 151 0
-58 91 155 0
-28 -130 165 0
-26 -81 -86 0
32 101 147 0
41 -119 -168 0
60 -104 143 0
-87 118 -155 0
-34 70 87 0
55 120 -150 0
-19 53 174 0
41 -83 -158 0
-44 58 108 0
-120 122 -123 0
-18 71 109 0
86 104 116 0
-118 157 -174 0
-116 -119 -153 0
104 114 -163 0
-85 116 123 0
-44 57 -142 0
-83 -85 175 0
-31 70 -107 0
-42 67 -148 0
62 -131 169 0
-56 -63 168 0
-74 -105 -158 0
-58 -83 -98 0
85 86 -171 0
58 59 -173 0
-56 -62 -66 0
-48 61 125 0
-137 144 155 0
16 -57 -67 0
-76 -85 -134 0
-108 142 -168 0
-59 146 163 0
32 36 112 0
-100 -155 162 0
51 89 138 0
67 -90 134 0
-2 -38 150 0
-37 44 175 0
-85 110 168 0
-47 -102 140 0
40 70 -133 0
-37 102 -114 0
-14 -57 172 0
29 -46 -51 0
48 -62 -175 0
35 124 145 0
133 -166 -169 0
22 -86 124 0
-15 -118 165 0
-62 -94 -104 0
-18 37 97 0
-18 25 -56 0
20 92 -111 0
-52 109 141 0
2 -22 -37 0
-47 106 133 0
26 40 -100 0
-73 -78 -142 0
118 130 157 0
-80 -86 -97 0
-45 -80 136 0
2 -95 -98 0
20 66 163 0
-9 93 -169 0
3 5 48 0
-156 159 -172 0
21 69 175 0
134 157 165 0
55 -66 -156 0
33 61 -132 0
14 130 -151 0
-23 38 143 0
27 96 100 0
43 -135 148 0
-49 146 166 0
16 108 -168 0
-141 150 -168 0
61 82 -122 0
36 -66 -78 0
-61 -138 -159 0
-90 -110 -140 0
51 -115 -170 0
-65 75 -91 0
-105 109 -118 0
20 -36 -133 0
-11 -58 -113 0
49 84 118 0
-37 -55 -172 0
-11 45 -131 0
82 -148 167 0
4 -60 -165 0
-41 62 153 0
33 37 -107 0
62 82 -155 0
-11 -14 132 0
-91 -126 -174 0
10 20 66 0
10 70 -141 0
-48 -59 114 0
-24 91 147 0
-45 -57 -164 0
67 -133 -152 0
-80 131 -174 0
-25 67 112 0
42 103 -146 0
80 -86 -109 0
-5 59 70 0
-18 107 117 0
-15 -37 45 0
-30 137 -156 0
50 154 -155 0
50 55 109 0
34 -35 109 0
-61 71 144 0
2 -7 -99 0
49 132 -138 0
-36 88 110 0
99 126 -151 0
-117 129 152 0
38 115 -125 0
-35 46 -133 0
-126 160 -175 0
-102 134 -171 0
-3 75 -151 0
27 88 101 0
-69 77 166 0
-11 -57 67 0
76 115 165 0
33 -71 -89 0
51 -54 -100 0
7 9 -144 0
26 -95 -111 0
46 -55 69 0
66 -70 -170 0
-20 86 109 0
25 -66 81 0
35 46 -94 0
22 174 -175 0
-39 112 -142 0
-108 139 162 0
-33 38 -66 0
-46 -121 -153 0
-31 54 112 0
37 51 -143 0
-33 84 -166 0
7 -39 164 0
34 55 -57 0
-11 113 122 0
72 -80 168 0
-49 -87 175 0
-69 97 -150 0
-19 38 -42 0
-19 27 100 0
3 -63 83 0
66 -67 -144 0
-14 42 -140 0
-47 -91 -170 0
-125 -168 173 0
53 122 130 0
121 -142 175 0
-67 -122 147 0
75 108 124 0
15 -69 119 0
39 -75 156 0
-68 76 -174 0
22 -135 -160 0
51 -72 136 0
-149 154 -175 0
58 -83 158 0
-61 91 113 0
-16 -18 153 0
69 -100 -131 0
-10 26 134 0
-41 51 -66 0
-53 83 112 0
10 42 -63 0
-114 115 -157 0
-3 90 -121 0
-66 71 -131 0
23 83 132 0
65 -73 -145 0
-143 160 167 0
-4 167 -171 0
-19 91 164 0
72 90 -129 0
-47 -114 -155 0
-11 68 -109 0
39 -83 152 0
4 105 -116 0
2 -16 -104 0
11 69 -80 0
-88 -109 -129 0
2 21 -117 0
-56 -89 -113 0
3 -92 172 0
89 -102 110 0
-31 32 -103 0
-3 14 76 0
18 44 -104 0
-30 -61 -158 0
-5 -108 -170 0
32 -64 -115 0
1 27 140 0
56 -70 116 0
-40 -73 -158 0
-27 126 -166 0
82 -141 -163 0
29 -43 -121 0
-106 122 175 0
-24 -57 -153 0
-1 -61 73 0
3 -117 139 0
21 49 86 0
90 -132 146 0
-38 -139 -156 0
-22 118 157 0
-98 106 -141 0
-57 94 -116 0
125 166 -174 0
-3 39 127 0
45 -70 97 0
-31 58 -112 0
28 61 121 0
17 24 -69 0
3 110 -139 0
-71 101 102 0
99 -148 165 0
-33 60 -175 0
-14 105 152 0
-119 -134 142 0
-12 -85 -167 0
1 -110 135 0
-8 -52 -160 0
-113 -142 170 0
5 -72 125 0
-55 85 147 0
-81 -118 -121 0
-36 75 122 0
19 -24 -132 0
56 -173 -174 0
68 -77 -172 0
-40 83 147 0
-2 53 -69 0
31 58 -68 0
-51 74 -82 0
-29 86 115 0
-23 -34 165 0
-7 -34 43 0
70 110 -152 0
20 -66 144 0
15 -20 -139 0
-27 -131 -140 0
-45 47 -57 0
43 59 -61 0
-10 -11 -131 0
8 32 -46 0
41 -111 -147 0
-30 -117 -120 0
16 -144 157 0
-34 -52 55 0
-47 101 132 0
28 72 111 0
49 63 -107 0
-41 42 65 0
36 -76 86 0
-68 -149 -166 0
-50 55 85 0
54 -69 -95 0
-93 99 -152 0
9 -74 -127 0
66 -103 -118 0
1 30 41 0
58 -87 94 0
-13 -115 -124 0
-92 115 -159 0
-24 48 52 0
34 44 -131 0
-21 -42 148 0
91 108 -149 0
-44 -52 77 0
35 -113 -120 0
1 -73 -133 0
15 53 121 0
-116 131 134 0
-34 74 -132 0
15 19 -118 0
17 -143 -174 0
36 -82 -105 0
4 60 -119 0
-64 135 151 0
62 77 -87 0
-42 -100 -105 0
-5 -71 -160 0
15 45 -100 0
54 63 112 0
-5 55 -109 0
-67 81 -140 0
-9 -35 -112 0
81 94 158 0
-11 -77 174 0
46 106 117 0
-16 -125 -161 0
17 97 103 0
78 -125 -166 0
89 -147 -148 0
-33 -46 130 0
-56 -98 -159 0
-64 88 124 0
-54 -125 -158 0
-27 72 97 0
90 -94 -119 0
-116 143 -144 0
44 -92 109 0
13 62 131 0
-33 59 123 0
-33 86 129 0
-55 169 -172 0
54 149 170 0
30 -44 -67 0
23 -41 -127 0
-16 -80 146 0
4 14 61 0
22 -42 102 0
-40 -130 141 0
-61 -159 -165 0
3 -37 -55 0
-52 -92 -133 0
-71 -100 -175 0
-49 107 -174 0
43 -61 -127 0
101 112 -152 0
-110 130 175 0
-53 -75 -172 0
-38 -98 163 0
32 33 -61 0
-46 -101 169 0
39 47 -75 0
-2 45 134 0
-38 -111 -168 0
25 -35 -129 0
99 103 -126 0
33 75 102 0
46 -86 -95 0
-95 -139 -144 0
-46 -97 118 0
76 103 -166 0
49 89 -110 0
6 48 -50 0
37 113 148 0
-40 -63 136 0
18 118 145 0
-56 -68 96 0
-16 68 -159 0
3 -10 126 0
-56 -128 130 0
32 90 -91 0
7 -82 161 0
-99 -115 -141 0
-58 -97 -99 0
32 -42 135 0
-18 25 146 0
-9 -28 138 0
51 -87 161 0
-35 -104 168 0
24 101 131 0
55 -62 -75 0
97 -99 -162 0
-61 78 128 0
24 92 162 0
1 36 -79 0
6 72 -153 0
-53 104 122 0
115 116 -150 0
53 92 106 0
-18 -92 -118 0
82 98 147 0
40 -45 -166 0
101 -103 -137 0
21 55 153 0
-115 134 154 0
9 15 112 0
-8 101 -137 0
111 143 -165 0
-126 -130 -174 0
28 -101 -147 0
-4 -105 154 0
13 -127 164 0
-9 -103 108 0
20 29 145 0
-21 96 -131 0
57 108 -110 0
25 -159 -160 0
32 -45 144 0
-25 -112 174 0
3 92 -110 0
-37 -107 -118 0
25 -40 -114 0
128 -142 -153 0
59 -143 174 0
59 74 -172 0
65 -104 -139 0
-46 140 -160 0
57 -82 124 0
66 -143 163 0
2 -91 171 0
47 54 -70 0
-51 -89 110 0
72 84 -131 0
-2 9 56 0
-70 -101 -135 0
97 125 163 0
-11 -111 169 0
-7 62 81 0
-24 -79 161 0
117 158 167 0
-47 -134 -158 0
-76 84 -154 0
-58 -116 -135 0
-13 -81 104 0
5 -6 -42 0
-30 -40 -105 0
41 -72 -89 0
-35 117 -133 0
56 -124 154 0
-84 -141 -144 0
-15 37 -88 0
-11 -80 98 0
-10 20 85 0
-43 -51 -121 0
-4 88 174 0
70 -78 83 0
-133 -134 -173 0
-3 66 102 0
80 -85 161 0
-23 80 -169 0
21 -24 -154 0
67 107 157 0
47 52 -58 0
12 -21 -112 0
44 -73 -168 0
69 -109 153 0
9 -44 -80 0
-78 -142 174 0
59 75 91 0
-34 -40 45 0
-60 131 -149 0
-62 -71 -90 0
-43 -51 -75 0
-21 65 144 0
-87 139 -163 0
33 59 79 0
72 -84 -157 0
-19 -125 164 0
-2 -36 -65 0
44 -59 -129 0
-83 111 -159 0
111 135 -151 0
44 95 132 0
57 118 168 0
-75 -120 -168 0
67 145 174 0
-34 -60 -69 0
-118 134 170 0
-40 76 -93 0
-6 -44 -84 0
-60 -122 -163 0
-25 101 121 0
71 98 -163 0
-102 116 136 0
25 65 68 0
-48 -89 149 0
99 112 -116 0
-39 88 99 0
29 -40 107 0
-19 -112 154 0
15 132 -157 0
53 -107 144 0
-1 -93 121 0
-1 9 121 0
-27 -91 -112 0
48 -60 -83 0
82 -84 -98 0
-22 53 -63 0
68 107 -142 0
73 99 104 0
-5 -41 86 0
61 -149 155 0
-111 -114 -152 0
-31 -74 -133 0
-51 54 159 0
-11 -50 -158 0
-8 41 -50 0
-7 -15 -51 0
33 -57 79 0
11 -39 -41 0
9 145 155 0
29 -55 -160 0
-75 120 -141 0
3 -54 84 0
57 102 110 0
-6 93 175 0
-54 64 -161 0
45 -64 101 0
9 48 -74 0
-10 12 116 0
-62 -95 137 0
12 -62 -150 0
-42 -44 86 0
81 -99 129 0
-20 67 75 0
43 -125 136 0
-23 -46 -173 0
-80 -97 144 0
25 83 153 0
-45 -82 -100 0
17 -34 -54 0
43 135 -140 0
16 -66 146 0
-19 111 132 0
36 51 -165 0
-82 -118 -125 0
35 126 -146 0
-18 29 146 0
-119 -147 -171 0
91 -139 -146 0
40 94 -124 0
-70 -74 128 0
-72 -76 94 0
-76 -103 -155 0
59 65 121 0
48 58 127 0
42 116 158 0
-16 -21 -103 0
-56 66 -141 0
47 -112 125 0
-54 61 157 0
72 -96 -170 0
108 136 158 0
10 -52 -71 0
-63 -91 175 0
-108 -110 152 0
19 -112 137 0
-63 -113 136 0
41 73 -87 0
-27 65 71 0
36 -73 -151 0
27 -72 143 0
30 -50 102 0
-15 62 -171 0
-3 -26 -144 0
1 22 -47 0
3 76 -158 0
7 72 -163 0
-42 -45 117 0
63 -82 125 0
-38 71 133 0
25 37 63 0
-59 128 -145 0
102 -153 -170 0
51 -92 112 0
-4 -5 131 0
47 -81 -168 0
28 -49 160 0
-5 69 -147 0
-60 -127 -145 0
6 22 -66 0
34 75 112 0
-11 82 124 0
-50 75 -92 0
-124 155 174 0
-3 -21 55 0
-1 26 -33 0
42 -56 57 0
37 121 144 0
-27 -42 -77 0
45 -64 113 0
67 94 160 0
46 48 -175 0
45 96 137 0
117 123 -129 0
-108 130 150 0
20 -89 131 0
-16 -20 -62 0
-67 -111 -112 0
-19 74 -137 0
23 -68 107 0
122 -129 -131 0
1 -57 105 0
94 133 148 0
-10 71 162 0
2 -14 -129 0
34 145 -171 0
-69 73 -167 0
-77 109 118 0
-21 -70 -146 0
16 87 94 0
-61 -71 -91 0
31 50 138 0
-20 46 75 0
50 -65 93 0
-38 157 166 0
72 86 -89 0
20 71 -155 0
-12 -78 -149 0
-21 51 114 0
-37 -48 113 0
-6 -107 -168 0
-38 88 -125 0
1 -94 -125 0
29 121 172 0
9 -65 -94 0
-19 134 -138 0
30 -60 -106 0
-85 -117 -128 0
-31 135 144 0
-46 -112 130 0
35 -58 -103 0
31 -51 102 0
56 78 83 0
-60 -145 159 0
-13 114 135 0
25 36 -50 0
29 -103 -138 0
82 -86 92 0
-64 -105 -139 0
81 105 -166 0
-1 -2 89 0
87 143 -173 0
11 59 -138 0
-2 -39 141 0
11 -112 116 0
-9 -31 -173 0
-14 -137 143 0
-34 -141 -174 0
12 93 -163 0
69 99 -103 0
75 101 -107 0
-8 73 -133 0
106 161 -164 0
-60 -85 -138 0
-109 138 169 0
-40 -59 63 0
12 33 134 0
85 -96 -157 0
-5 -75 122 0
81 87 162 0
-5 -53 64 0
64 83 -124 0
-46 101 -126 0
-9 67 -106 0
-32 -45 87 0
-111 -151 -173 0
-11 -146 -152 0
85 -148 149 0
-53 -73 76 0
-37 109 161 0
-46 48 -56 0
-81 121 -174 0
-96 171 -172 0
5 65 91 0
-85 94 -174 0
-27 81 -171 0
38 118 129 0
25 -56 -107 0
-13 -76 144 0
38 106 143 0
30 -46 -74 0
-24 -66 122 0
86 89 -161 0
-55 -98 158 0
49 -55 147 0
-11 42 106 0
-13 86 -147 0
-19 -65 -120 0
-69 -110 -117 0
-35 -157 160 0
-56 154 156 0
15 -28 115 0
-19 131 147 0
-3 111 -143 0
39 -131 160 0
-36 -136 173 0
-9 41 160 0
-48 -85 164 0
41 -137 -148 0
-10 11 -18 0
3 -110 160 0
-22 134 -159 0
28 32 82 0
-25 67 103 0
32 -53 -66 0
57 -153 -160 0
-54 116 175 0
15 41 57 0
-2 -40 -169 0
53 129 -175 0
-72 -141 -173 0
32 115 -152 0
40 -47 96 0
72 -151 -175 0
61 -120 134 0
40 -43 -62 0
52 -139 158 0
71 -112 114 0
12 54 150 0
-27 62 -146 0
45 -47 120 0
16 83 127 0
18 68 -109 0
-104 -151 -161 0
29 -129 169 0
6 14 173 0
39 -48 156 0
49 96 110 0
-76 -147 148 0
-27 139 -168 0
-42 68 122 0
-30 126 132 0
58 160 165 0
