c F1 random 3-CNF cnfgen RandomKCNF(3,125,533,seed=19) m/n=4.26
p cnf 125 533
6 87 -101 0
38 -45 68 0
-34 42 -53 0
3 40 115 0
-15 59 70 0
-3 -13 -54 0
39 -74 85 0
70 74 -100 0
-18 25 -81 0
-1 59 -123 0
-64 -65 106 0
1 32 -114 0
-15 49 -58 0
-37 52 -58 0
39 40 57 0
-40 88 -124 0
-9 60 65 0
36 56 84 0
-22 37 56 0
61 -80 113 0
-2 50 -113 0
-27 -33 123 0
4 36 100 0
38 -60 -68 0
-72 -92 -114 0
62 106 120 0
6 59 -110 0
-60 -90 -92 0
-24 48 -57 0
-6 53 -80 0
-47 56 -59 0
12 -34 36 0
22 61 125 0
6 -56 76 0
70 -94 107 0
19 -32 38 0
-10 -58 89 0
46 95 -101 0
18 -45 -59 0
-8 75 109 0
9 -64 -79 0
-45 63 -122 0
-4 29 74 0
52 54 101 0
-24 59 -92 0
52 57 97 0
108 -109 121 0
-21 -63 -95 0
3 55 103 0
-3 -55 -104 0
24 -32 40 0
7 -10 16 0
-5 -12 -124 0
36 44 48 0
6 47 -119 0
-33 46 63 0
-5 -22 -77 0
-3 27 69 0
63 93 101 0
22 50 82 0
-14 -22 33 0
-10 -69 77 0
20 41 67 0
-34 -89 -109 0
24 -89 124 0
-73 -80 -111 0
-58 -100 116 0
-17 62 109 0
51 90 97 0
-11 96 -109 0
48 -51 81 0
19 -71 110 0
-43 63 -114 0
-17 -37 -102 0
-38 -50 79 0
30 -71 102 0
2 25 -99 0
-10 -45 -68 0
-52 -53 69 0
-9 -98 123 0
-20 -26 -37 0
-24 -44 64 0
-55 60 -116 0
-11 42 120 0
75 -80 109 0
-71 -80 -106 0
-87 106 122 0
63 85 -105 0
-27 -75 -123 0
1 -48 56 0
23 -87 114 0
-33 -36 -46 0
18 -71 -85 0
-2 -102 -103 0
-24 57 -61 0
8 -38 64 0
47 58 -110 0
59 96 -111 0
-95 -101 -115 0
22 76 -97 0
-15 27 106 0
-50 -80 -109 0
31 -98 -112 0
64 84 98 0
-53 81 109 0
11 -66 -71 0
-76 92 -125 0
25 -31 -117 0
-23 -80 102 0
58 -60 61 0
4 63 -83 0
-1 -46 47 0
-62 -77 108 0
39 117 -120 0
-64 -68 -107 0
18 -41 73 0
47 62 108 0
-11 -102 -125 0
1 24 -46 0
-29 -88 -104 0
-14 65 -109 0
12 -91 -110 0
-14 -48 107 0
12 -33 122 0
-15 -71 72 0
-1 62 71 0
15 -37 -77 0
-89 103 125 0
25 95 121 0
-40 -101 -118 0
-38 -71 85 0
-9 -116 -122 0
11 -19 92 0
-15 57 -61 0
50 -75 94 0
16 -42 -115 0
17 98 -114 0
-64 -116 -119 0
40 48 -88 0
30 -83 91 0
-42 -83 -107 0
25 -53 75 0
-39 41 100 0
13 78 -116 0
56 -89 92 0
-6 -73 -94 0
28 37 -64 0
-1 89 -120 0
-17 -82 -99 0
-18 -77 -87 0
-1 36 70 0
11 -26 -115 0
52 81 -82 0
-18 23 -35 0
10 32 -66 0
62 -107 115 0
23 -57 -58 0
-27 -69 103 0
24 100 -116 0
2 -35 -58 0
-12 -19 -86 0
63 -67 103 0
-29 104 115 0
90 121 122 0
38 -88 98 0
39 -46 -88 0
-21 23 57 0
-109 118 121 0
-32 70 124 0
-12 -23 -63 0
-6 17 33 0
-53 -96 -123 0
-2 -16 70 0
-32 -36 -46 0
-13 58 118 0
4 -69 85 0
-2 -14 -54 0
9 -35 49 0
58 -115 -116 0
57 -94 101 0
59 75 99 0
33 -92 119 0
-30 -82 -108 0
-39 74 116 0
-58 -70 -79 0
-16 -44 -73 0
18 -59 112 0
54 80 -104 0
2 -48 66 0
-3 -35 -44 0
-18 -39 -108 0
-32 -86 89 0
61 -90 -119 0
29 -90 122 0
55 -63 113 0
-54 60 113 0
52 -72 -77 0
78 101 104 0
62 -64 123 0
7 -44 97 0
50 -74 85 0
26 -71 -91 0
24 91 93 0
-14 34 51 0
53 -68 -81 0
36 59 91 0
34 40 -69 0
-100 113 119 0
-26 -50 -66 0
-51 99 -112 0
-70 -86 -121 0
4 56 85 0
19 48 -122 0
42 92 -97 0
-65 68 -72 0
-8 68 -91 0
-46 -86 -100 0
7 -54 107 0
-37 66 -125 0
-81 97 -119 0
-33 -54 -105 0
8 23 83 0
75 -96 125 0
16 57 62 0
-46 76 93 0
-46 72 83 0
-15 -65 -121 0
-32 -111 -122 0
34 -54 -73 0
-9 84 -89 0
96 -115 117 0
51 56 -64 0
74 -96 103 0
-60 65 84 0
-13 30 -122 0
-103 110 113 0
-4 -102 -124 0
26 82 -110 0
-74 -82 -123 0
5 -17 -98 0
17 32 -84 0
-21 31 92 0
55 56 -98 0
32 -71 106 0
6 36 -40 0
-58 92 100 0
-37 -64 -94 0
-32 105 124 0
7 -17 -123 0
-56 -92 99 0
-19 -59 94 0
4 25 -120 0
3 -40 85 0
-14 42 125 0
34 50 -76 0
-3 -48 75 0
-26 61 94 0
-3 105 -112 0
-51 -86 99 0
-3 -72 96 0
34 -43 107 0
40 -58 117 0
69 71 -86 0
22 -47 -85 0
-27 -54 -92 0
-61 -66 -91 0
-7 -53 -91 0
-1 32 -115 0
71 108 124 0
-5 -28 -47 0
-8 -36 -112 0
-37 48 49 0
52 68 99 0
12 -73 113 0
73 -81 -89 0
10 -86 104 0
-9 -44 123 0
-7 -41 -49 0
-12 59 96 0
91 -104 -108 0
12 -60 -103 0
-63 -77 108 0
-25 30 106 0
12 -17 64 0
20 -22 -39 0
-15 70 -104 0
-31 88 98 0
40 -52 112 0
28 -88 124 0
-58 60 117 0
-16 -18 -37 0
1 -70 -89 0
16 45 111 0
13 61 70 0
24 54 59 0
4 10 14 0
-17 -113 119 0
18 -124 -125 0
45 119 120 0
68 70 86 0
17 -28 89 0
47 -50 -119 0
64 -107 122 0
66 75 -78 0
39 54 79 0
-52 80 93 0
-34 53 60 0
60 104 117 0
14 85 113 0
-86 120 -121 0
-4 -94 116 0
-11 -39 106 0
-12 -14 -72 0
91 110 116 0
-76 94 105 0
69 96 -100 0
-13 43 -77 0
-17 21 102 0
-42 86 91 0
-27 -37 -115 0
-10 -62 -91 0
-74 80 124 0
-32 75 -76 0
2 -10 -87 0
19 -44 -65 0
66 105 114 0
23 55 -104 0
42 -60 -111 0
-20 60 92 0
65 -97 123 0
25 -42 108 0
-19 20 -36 0
-25 -84 -96 0
39 -45 125 0
-31 64 -78 0
34 -78 83 0
15 -108 -115 0
-22 47 -81 0
32 108 116 0
56 80 83 0
-20 97 -108 0
-31 -43 -110 0
-21 -65 97 0
-26 40 113 0
-25 38 107 0
12 -27 66 0
24 86 -118 0
14 -16 62 0
17 33 70 0
30 39 -108 0
-33 -34 58 0
24 48 108 0
46 55 -66 0
47 -93 -96 0
-70 -103 -125 0
-19 54 80 0
-17 44 69 0
-21 -44 -108 0
-42 110 -116 0
-66 -77 -112 0
-8 52 -104 0
34 63 121 0
-11 -23 -55 0
23 27 -60 0
-16 -71 124 0
-36 -48 105 0
26 -76 -107 0
22 109 123 0
-21 -41 -80 0
-9 -21 111 0
37 59 -120 0
-84 92 109 0
-74 -98 122 0
13 24 -36 0
-23 90 -93 0
26 -56 110 0
-66 -76 -95 0
37 39 51 0
36 64 70 0
-62 -83 -93 0
34 -77 90 0
-62 72 91 0
28 64 -102 0
1 22 -120 0
45 -47 111 0
20 54 59 0
23 31 -79 0
-11 -32 65 0
62 76 -108 0
-22 -35 -50 0
3 -10 -90 0
-47 83 -119 0
15 -33 -42 0
-9 -101 108 0
-54 67 123 0
-18 25 -108 0
-20 -28 54 0
9 13 -87 0
-65 -104 109 0
21 -41 78 0
-44 -81 88 0
-47 -68 72 0
15 40 113 0
-26 39 85 0
26 52 121 0
-14 -55 -67 0
69 -86 -118 0
1 113 120 0
-7 -23 -35 0
-41 73 -74 0
2 109 -123 0
48 81 98 0
6 30 108 0
-36 -75 95 0
-68 90 -91 0
12 47 -60 0
-44 101 -115 0
24 37 87 0
26 -44 -45 0
24 -40 -105 0
-42 -112 114 0
-30 102 -114 0
-22 50 -89 0
35 60 81 0
31 76 -121 0
-57 -105 -107 0
-31 32 47 0
38 102 -124 0
11 -31 74 0
-42 -85 89 0
-9 -48 -50 0
-18 96 -123 0
12 22 76 0
75 -94 104 0
14 31 42 0
-51 -57 -94 0
14 51 -93 0
15 -33 110 0
83 98 -119 0
-4 22 -122 0
7 -27 64 0
18 -38 -107 0
-12 43 -95 0
-13 15 110 0
-54 95 101 0
4 21 84 0
-22 -56 69 0
-22 34 124 0
2 -62 -107 0
91 112 -123 0
-45 75 -121 0
-8 59 -74 0
-3 -20 34 0
-22 -90 -92 0
46 -62 109 0
34 58 -99 0
5 26 74 0
11 79 -114 0
8 -14 -42 0
22 34 -56 0
-6 94 122 0
47 -97 115 0
5 12 -75 0
-24 41 75 0
42 -57 122 0
36 43 106 0
8 59 -121 0
74 -91 -92 0
-22 62 -80 0
-46 -53 -91 0
-15 74 -99 0
11 46 -99 0
2 59 62 0
3 50 54 0
16 73 75 0
-23 41 -59 0
4 -26 -91 0
-44 -52 109 0
37 -85 121 0
-2 -3 52 0
-78 -91 98 0
-19 -32 -87 0
-45 -107 -112 0
70 -98 106 0
53 58 111 0
18 71 85 0
21 66 -84 0
71 115 116 0
-14 -40 60 0
-53 68 -108 0
41 -44 -73 0
-35 69 -119 0
-13 -60 -120 0
-83 -90 98 0
45 106 -107 0
-79 88 -104 0
5 -45 64 0
14 23 -122 0
-21 -29 105 0
9 -27 -80 0
-2 25 89 0
9 -63 91 0
-62 85 125 0
-8 34 115 0
44 93 -100 0
-63 -85 120 0
2 -16 102 0
20 -109 -118 0
-45 -57 -114 0
-6 -12 -107 0
-75 -80 82 0
-46 -97 -109 0
-4 -84 100 0
30 -76 -79 0
-47 53 114 0
-4 -46 95 0
62 -80 115 0
-48 -59 -90 0
-25 61 -100 0
7 42 79 0
2 4 43 0
6 10 120 0
4 -54 93 0
-7 45 -103 0
41 48 81 0
-70 -73 87 0
5 -48 -62 0
46 82 111 0
-37 -40 -86 0
20 -38 -122 0
-60 76 95 0
77 -86 -105 0
-51 -85 100 0
