c F1 random 3-CNF cnfgen RandomKCNF(3,225,959,seed=8) m/n=4.26
p cnf 225 959
59 95 97 0
22 -36 64 0
-117 -118 125 0
-23 104 213 0
-69 -134 -180 0
-30 170 186 0
-99 159 213 0
61 -87 177 0
37 149 -207 0
-38 -50 -180 0
-92 143 219 0
-25 -154 -196 0
-51 129 -160 0
73 131 -136 0
-4 63 -76 0
-9 -66 -109 0
45 102 169 0
-42 52 197 0
-98 196 -204 0
-36 -60 -105 0
-18 21 151 0
-22 28 -170 0
39 155 182 0
36 -88 -99 0
-1 84 94 0
9 159 -225 0
31 111 114 0
122 -128 208 0
-28 149 -185 0
-24 -132 -186 0
14 58 -117 0
28 29 -55 0
111 136 213 0
83 99 -135 0
-21 -76 157 0
-21 -76 -162 0
-78 -133 161 0
-51 -95 125 0
-75 -102 -157 0
-51 110 -173 0
-18 -42 128 0
-160 -212 -213 0
-130 -206 -212 0
-63 64 93 0
153 -208 -209 0
28 -200 204 0
-44 168 200 0
-6 49 157 0
-118 119 223 0
92 -156 222 0
22 -214 220 0
60 -186 209 0
-76 92 191 0
-90 157 185 0
-39 66 100 0
-22 57 -137 0
28 51 192 0
-44 -144 212 0
123 129 189 0
-34 58 -192 0
-35 44 -45 0
-150 -158 -171 0
-149 -176 -189 0
189 -200 -217 0
122 -175 -214 0
-130 137 -163 0
-35 -197 212 0
9 -75 -101 0
89 97 179 0
-21 48 -212 0
145 -149 162 0
-154 -168 184 0
-27 82 167 0
-94 -123 -148 0
96 161 -191 0
-9 -16 -60 0
-45 122 -144 0
-6 -201 -202 0
-76 -117 -216 0
115 -162 -169 0
35 -88 -149 0
-93 121 147 0
38 130 -201 0
-38 -56 163 0
-4 10 -30 0
2 8 -81 0
3 80 -164 0
-24 82 219 0
25 -175 -223 0
29 109 130 0
-169 -182 200 0
65 105 -178 0
-17 125 198 0
-15 -102 -212 0
71 -134 155 0
178 180 181 0
-168 198 -207 0
-22 -62 -168 0
-119 157 223 0
-25 57 121 0
57 -109 186 0
69 -145 -199 0
37 -147 170 0
-81 92 103 0
-99 -174 220 0
87 125 141 0
-156 -177 -181 0
27 149 225 0
21 71 114 0
-16 -20 -162 0
81 -125 -182 0
-16 123 161 0
-131 -132 -197 0
172 206 225 0
-76 85 -189 0
47 -77 -142 0
-15 -136 174 0
-64 -142 -214 0
49 123 -180 0
18 47 102 0
-48 125 184 0
-64 113 -197 0
-31 79 135 0
-95 -114 187 0
-27 -50 -224 0
26 177 -217 0
-33 -100 115 0
-98 121 201 0
-47 61 -185 0
144 156 215 0
86 94 -209 0
-144 -213 220 0
4 57 97 0
17 197 -218 0
-74 140 -224 0
-20 -74 -182 0
86 -112 124 0
27 -149 -174 0
-4 67 186 0
-17 140 160 0
-14 26 185 0
-93 -210 217 0
62 165 -223 0
26 108 161 0
-29 105 -196 0
-15 -58 84 0
-83 159 220 0
70 178 -188 0
37 78 142 0
11 -179 -185 0
-114 -172 -186 0
-35 -175 -183 0
-59 158 -178 0
147 -172 -195 0
30 70 -130 0
103 161 178 0
33 -161 -207 0
-57 144 -162 0
-76 -117 -194 0
192 -202 -216 0
-109 128 213 0
60 -144 -206 0
-63 68 -82 0
-61 -101 -108 0
16 125 -160 0
44 188 223 0
-16 172 210 0
-33 67 170 0
-21 124 -177 0
167 199 223 0
-29 -89 -165 0
36 176 -202 0
-3 -7 -113 0
-15 -59 -171 0
77 -106 -141 0
-18 20 -58 0
15 -76 -115 0
16 71 -105 0
9 199 224 0
-21 204 215 0
114 127 -221 0
-13 74 -142 0
-95 -130 220 0
16 -19 -62 0
-13 -30 -217 0
30 -174 -186 0
-176 -185 -222 0
125 -131 -174 0
-84 -98 -108 0
1 115 -190 0
20 137 162 0
3 -28 -225 0
-23 -53 -76 0
-40 -125 -223 0
-47 75 104 0
-5 57 186 0
36 212 -224 0
115 118 -222 0
-79 105 158 0
-1 157 200 0
91 -116 -192 0
-10 19 -25 0
-16 84 108 0
36 -122 148 0
-68 -121 -133 0
-82 -149 212 0
-42 -55 187 0
24 77 -80 0
-35 -67 150 0
-51 -144 -162 0
11 -72 186 0
21 120 202 0
30 33 -69 0
-40 -128 -176 0
-7 -53 -103 0
-6 -59 -105 0
21 -32 113 0
56 82 -86 0
65 170 178 0
-83 134 201 0
-12 39 90 0
98 -162 184 0
-11 90 94 0
-124 126 151 0
-150 -153 179 0
-143 173 -182 0
30 -39 92 0
11 55 -175 0
-31 45 76 0
-34 127 204 0
-45 -117 -156 0
-106 -124 165 0
122 -142 -211 0
36 105 -138 0
-60 -103 167 0
13 36 -188 0
9 95 -155 0
13 52 94 0
-132 -156 165 0
44 -97 180 0
-25 90 135 0
17 -106 155 0
89 -159 -199 0
-21 -28 -163 0
173 181 -183 0
-2 42 -80 0
-29 -98 123 0
-46 135 -147 0
-39 40 59 0
-7 -144 -206 0
98 -131 -189 0
-55 -135 -184 0
124 156 -173 0
-77 158 -193 0
75 190 208 0
-48 80 105 0
-48 -157 173 0
45 101 221 0
64 107 -136 0
-49 195 -199 0
-10 -72 -207 0
-70 143 168 0
8 -77 144 0
83 180 -224 0
40 180 -194 0
42 55 -183 0
88 119 -219 0
-18 156 -183 0
-31 177 -222 0
-95 -143 148 0
71 177 185 0
48 -79 151 0
-130 -167 -174 0
24 29 38 0
-4 -59 193 0
78 -154 -216 0
-85 -137 -188 0
70 163 194 0
55 170 207 0
8 130 144 0
51 -136 -218 0
-20 132 -169 0
-21 141 -183 0
72 -109 -201 0
119 -186 199 0
-22 100 141 0
-5 -23 125 0
130 196 205 0
-23 57 -198 0
57 -210 214 0
-65 86 -156 0
20 -67 105 0
47 55 102 0
-44 147 -154 0
5 -155 -164 0
46 190 211 0
-68 -87 -89 0
-129 180 192 0
-53 61 -96 0
62 98 148 0
101 109 187 0
-128 213 222 0
-1 -7 172 0
22 -38 77 0
-1 -101 -144 0
41 -57 88 0
-116 -138 -148 0
-21 -25 -177 0
80 -85 -196 0
-59 -127 219 0
33 -61 -141 0
-54 103 152 0
-9 126 216 0
129 131 223 0
70 98 115 0
128 148 216 0
-17 77 164 0
84 -150 -173 0
76 -186 207 0
17 -24 -148 0
-76 144 176 0
43 161 -200 0
69 73 -137 0
41 -121 203 0
38 149 175 0
-14 -83 178 0
-32 62 -205 0
-81 -145 165 0
-36 47 136 0
-39 -142 170 0
35 76 -181 0
70 130 -185 0
-11 105 -191 0
-71 -130 -194 0
-125 132 176 0
-41 154 -225 0
-1 162 -169 0
100 -200 204 0
28 -73 131 0
-171 197 -221 0
-49 -57 -114 0
3 -10 191 0
69 87 -138 0
74 -165 -190 0
-67 85 218 0
-38 39 205 0
-6 65 -138 0
-48 128 180 0
-22 31 -72 0
-67 -111 191 0
7 -149 197 0
69 -78 -102 0
54 119 -123 0
-18 -127 -158 0
18 88 139 0
106 141 183 0
-117 -162 -195 0
180 -192 -210 0
-78 -145 -225 0
-38 -69 -156 0
-7 17 -35 0
31 -74 -168 0
-57 105 214 0
-69 -105 121 0
-67 -187 -201 0
48 -126 132 0
24 91 93 0
43 -67 -209 0
-20 71 -91 0
-13 39 134 0
-37 -159 164 0
-19 115 -119 0
-117 123 176 0
10 93 -164 0
-35 -147 201 0
-112 -145 -160 0
84 127 -151 0
-59 78 169 0
51 85 -112 0
-63 95 217 0
62 95 -118 0
-93 -114 -145 0
65 98 190 0
-22 164 188 0
145 147 -172 0
99 -184 -197 0
21 147 -201 0
48 -101 139 0
44 -120 222 0
78 -88 123 0
-34 165 -215 0
-6 74 -189 0
21 -97 -125 0
138 139 -187 0
6 138 -189 0
70 144 -204 0
-19 -120 -126 0
93 -113 -201 0
30 -85 125 0
5 33 -130 0
-16 36 -78 0
111 129 214 0
125 140 -150 0
94 -154 187 0
-61 206 -224 0
19 -140 144 0
44 -70 -116 0
14 43 76 0
-24 94 -197 0
78 -136 -141 0
-30 62 -103 0
27 -117 203 0
-47 164 195 0
-20 -87 112 0
-29 61 -164 0
-8 142 -217 0
69 -186 -214 0
-90 123 -140 0
-39 83 -220 0
105 -145 -177 0
89 158 212 0
-121 -181 207 0
37 -81 -96 0
43 108 128 0
-103 174 -208 0
25 127 132 0
75 89 166 0
-49 -60 -112 0
-50 -162 186 0
-37 -65 -141 0
31 96 152 0
-73 81 -190 0
-14 60 -220 0
-22 112 -225 0
1 -129 187 0
62 123 -205 0
-30 -119 -192 0
20 -89 -135 0
59 -148 212 0
148 162 166 0
36 -76 -152 0
-27 -33 92 0
43 95 97 0
19 75 103 0
120 158 191 0
5 -99 190 0
39 -59 -61 0
67 -167 199 0
29 54 140 0
-39 -142 -217 0
-46 107 133 0
-35 -53 62 0
21 48 85 0
-90 -118 119 0
112 153 -155 0
-53 70 -87 0
74 -141 167 0
-48 -87 -172 0
-16 -117 209 0
42 90 -203 0
21 48 124 0
102 143 -193 0
34 38 -115 0
98 129 -194 0
110 -165 217 0
-40 42 117 0
46 -117 -219 0
-99 124 195 0
15 67 136 0
-47 57 -84 0
-179 199 -206 0
-52 -87 -201 0
5 19 -91 0
-44 -103 222 0
21 -56 -210 0
-87 135 205 0
-5 -6 25 0
-73 85 99 0
-8 -138 -157 0
-117 -127 -154 0
49 164 -188 0
-87 112 147 0
28 110 -122 0
-8 89 155 0
-113 160 -202 0
-117 175 -194 0
-31 -49 67 0
-45 -73 128 0
2 -199 -206 0
-24 97 100 0
-58 -59 97 0
-10 80 -133 0
59 83 -129 0
-6 48 165 0
8 -207 -216 0
-75 165 174 0
41 -82 214 0
-98 -182 191 0
-24 -85 104 0
-80 202 209 0
-43 -57 -133 0
20 73 -169 0
46 -93 196 0
53 76 -180 0
6 -149 213 0
-39 -156 -168 0
-79 -84 -204 0
15 -40 -113 0
-24 159 163 0
11 -143 210 0
26 -62 163 0
103 -157 162 0
50 -97 -137 0
-18 -71 209 0
-62 77 167 0
-2 -34 106 0
136 -166 -201 0
48 -187 206 0
128 137 -187 0
-11 146 -201 0
35 -108 164 0
95 -120 169 0
99 208 -223 0
9 -109 -163 0
2 44 -139 0
9 -132 -212 0
-85 159 -180 0
-3 -93 117 0
102 198 -218 0
-77 -144 179 0
94 113 140 0
66 158 -209 0
-49 56 166 0
161 162 -211 0
54 106 157 0
66 132 220 0
37 52 -102 0
1 48 80 0
34 -164 222 0
-58 -138 173 0
-18 -146 -198 0
-117 -129 200 0
59 -64 197 0
115 -166 177 0
110 -147 189 0
37 189 -194 0
19 20 119 0
-83 -215 217 0
145 -160 -207 0
-64 -69 176 0
-69 74 89 0
152 -187 218 0
-10 82 -210 0
11 102 -160 0
147 -204 213 0
127 213 -218 0
44 -126 147 0
-42 157 182 0
28 208 212 0
-35 -85 116 0
4 -45 -110 0
10 193 213 0
-159 196 207 0
112 184 225 0
-26 78 112 0
54 -115 142 0
1 18 175 0
-51 -133 -209 0
-123 176 -220 0
10 105 -155 0
-142 147 183 0
-137 -169 192 0
49 -116 -188 0
17 -126 169 0
-8 44 -67 0
-15 167 207 0
119 172 197 0
-46 137 195 0
12 108 -134 0
83 -103 -218 0
150 -184 218 0
12 29 -174 0
114 -164 223 0
41 -112 -122 0
73 -134 -145 0
130 170 -182 0
-53 -83 166 0
1 -173 -178 0
46 -140 -214 0
-4 -143 -219 0
-114 -138 -143 0
72 120 136 0
44 -45 -61 0
-98 -102 -201 0
39 129 131 0
38 44 151 0
-74 75 192 0
-12 -102 187 0
84 212 -215 0
22 -59 193 0
8 -174 210 0
14 -96 -108 0
-87 142 151 0
104 180 -187 0
32 172 -185 0
-11 -26 167 0
-54 -115 184 0
2 -153 160 0
-47 52 -164 0
-15 20 -76 0
113 -136 208 0
-79 167 202 0
76 208 219 0
-25 -63 125 0
19 82 -137 0
37 -179 203 0
-11 77 127 0
17 -37 -38 0
-48 56 -194 0
-7 -123 -214 0
43 -113 -191 0
1 -135 -179 0
-82 -111 118 0
-29 -33 -75 0
52 -63 172 0
12 163 -182 0
92 171 -203 0
53 78 -203 0
2 -147 184 0
58 -165 219 0
17 163 -214 0
-21 25 75 0
-133 -136 -193 0
119 128 159 0
-16 -100 -113 0
15 32 -143 0
-6 29 -217 0
-5 -148 181 0
109 -133 -174 0
35 97 -132 0
11 -157 -207 0
-122 -159 206 0
145 165 -168 0
-3 159 210 0
-117 -118 201 0
51 -62 -205 0
-98 127 168 0
-20 46 214 0
82 176 206 0
-15 -46 58 0
-15 55 -66 0
-119 -121 -214 0
-39 -145 201 0
-31 -93 168 0
-14 -99 -145 0
13 -138 -171 0
3 96 -124 0
42 85 101 0
62 -157 194 0
77 107 -161 0
9 12 -220 0
-28 192 222 0
57 166 225 0
-1 -84 85 0
-92 191 193 0
-67 154 184 0
-35 -54 123 0
-4 -46 54 0
149 200 -203 0
-18 -99 139 0
75 79 156 0
-184 -189 -192 0
-41 134 -205 0
14 138 -215 0
34 57 100 0
189 -193 203 0
-55 -113 123 0
-136 -185 -190 0
-154 -170 -213 0
-17 47 -209 0
-181 -206 217 0
-5 -112 -123 0
-10 -78 183 0
45 -105 -109 0
12 -115 142 0
-54 -90 138 0
-84 170 204 0
56 78 -100 0
42 -44 -69 0
16 -100 162 0
-51 62 -115 0
70 100 183 0
21 -60 -153 0
-9 119 -134 0
6 -127 159 0
82 165 198 0
52 -134 -188 0
-21 34 135 0
-138 -181 -200 0
89 90 -187 0
-27 -76 173 0
158 170 178 0
103 -115 -225 0
-117 172 -191 0
109 -131 -155 0
-66 86 95 0
-6 -21 -23 0
9 126 -191 0
20 34 -197 0
-158 -194 -204 0
4 30 -168 0
24 142 170 0
118 125 189 0
-61 144 -147 0
-4 -102 -205 0
-22 27 -148 0
-60 -81 133 0
110 -156 193 0
38 161 195 0
-33 -56 -130 0
-21 24 210 0
-22 -90 -150 0
84 110 122 0
-170 -180 -193 0
-32 47 146 0
6 -32 108 0
82 92 135 0
39 -77 174 0
3 -137 199 0
-139 143 174 0
-99 -187 -191 0
34 -54 108 0
-25 -70 115 0
-39 107 150 0
-79 134 215 0
-101 129 222 0
64 136 -156 0
-101 189 -194 0
77 -121 210 0
91 -97 -175 0
84 -129 179 0
116 195 197 0
-71 210 -221 0
-59 -167 178 0
130 196 221 0
-63 177 212 0
-6 -54 -150 0
-148 167 -216 0
-21 144 -189 0
-9 38 125 0
45 92 215 0
-33 -47 -167 0
20 25 67 0
45 104 188 0
13 70 -151 0
14 89 -107 0
-1 -191 -221 0
24 -35 -71 0
-174 -189 -213 0
1 90 -168 0
35 54 162 0
-2 -25 138 0
89 -136 -209 0
68 -75 217 0
13 -120 -177 0
87 -183 -202 0
31 -67 -141 0
37 -152 153 0
38 -92 -111 0
48 49 118 0
-87 -93 -179 0
43 -45 120 0
-51 -112 157 0
98 106 -149 0
5 -63 -113 0
-5 -44 221 0
-84 -88 197 0
-45 -64 -152 0
8 53 -115 0
134 -138 -185 0
60 97 172 0
-111 160 224 0
20 -58 62 0
105 122 156 0
-30 -37 -105 0
-28 -30 66 0
-8 -96 151 0
158 -173 214 0
50 -82 -174 0
-38 -50 174 0
58 -199 -213 0
-15 100 -124 0
-8 -143 182 0
30 -216 218 0
85 100 -225 0
-34 -50 103 0
-94 -184 -198 0
-99 125 160 0
-64 -84 199 0
-63 71 -220 0
-39 -96 -192 0
53 144 225 0
-7 -84 102 0
-22 -155 183 0
-34 89 -218 0
-10 -28 132 0
68 -99 161 0
1 -2 212 0
-8 56 105 0
53 71 -170 0
-25 -92 218 0
-116 117 -152 0
-71 -79 100 0
-27 -95 -124 0
34 136 -194 0
-14 114 -185 0
-64 -129 187 0
125 -151 225 0
-45 134 -194 0
-93 -135 -224 0
-10 -95 166 0
-58 -76 186 0
61 -149 157 0
-109 153 155 0
69 -80 131 0
2 -74 141 0
71 -101 -192 0
59 -161 -209 0
37 51 -108 0
27 -42 -61 0
-12 16 -85 0
69 -76 -166 0
73 -147 -168 0
-10 56 -137 0
48 -57 -122 0
99 169 206 0
23 145 -220 0
-120 -129 -152 0
89 157 -181 0
46 63 -157 0
8 -91 187 0
-36 -165 222 0
38 77 180 0
11 165 -172 0
28 -37 -154 0
-50 -115 161 0
6 152 -159 0
-8 19 -57 0
13 -76 -89 0
30 -92 -167 0
156 197 208 0
15 199 223 0
-33 -190 206 0
131 -145 147 0
-49 -79 100 0
4 36 -128 0
72 200 204 0
51 100 -101 0
-30 -87 179 0
40 103 -209 0
158 -167 170 0
93 133 182 0
-23 -123 -192 0
-49 77 -144 0
60 84 176 0
17 102 210 0
-42 69 74 0
-9 -137 192 0
-3 -120 -151 0
-4 91 -105 0
-8 157 197 0
-28 98 179 0
-92 98 189 0
-33 104 182 0
-20 -139 -148 0
-29 92 -153 0
-80 -120 147 0
90 115 -179 0
-185 -196 -198 0
-67 -155 -160 0
24 69 -118 0
17 36 39 0
-52 -68 212 0
112 -115 143 0
41 49 199 0
-49 105 -132 0
10 97 -205 0
-15 -93 -119 0
-174 218 222 0
-24 -33 209 0
-38 -76 -118 0
75 -124 -198 0
101 -103 210 0
32 107 -117 0
107 -138 -219 0
-18 -152 182 0
79 108 166 0
-10 -207 213 0
21 -119 -208 0
32 136 -155 0
4 -12 96 0
56 214 216 0
25 137 -161 0
-92 128 -210 0
95 154 190 0
46 -91 224 0
62 -108 196 0
38 89 168 0
-37 142 145 0
-38 -123 -131 0
-14 34 -58 0
17 88 -158 0
12 -139 147 0
149 172 -196 0
-97 -115 124 0
75 107 -121 0
-94 -168 210 0
-6 44 -73 0
103 -107 173 0
21 -163 -173 0
-43 109 173 0
-16 23 -145 0
134 150 198 0
-20 31 48 0
-3 16 -69 0
42 -45 -195 0
-48 -158 -182 0
-47 -56 84 0
8 -102 -201 0
123 188 -208 0
-24 89 -92 0
-6 67 148 0
-2 -78 98 0
19 89 -116 0
11 100 -104 0
1 -3 43 0
-82 -95 -171 0
-26 -48 -215 0
11 -100 -129 0
71 -164 173 0
-87 202 -209 0
5 -146 -214 0
-92 -100 -219 0
-50 -76 213 0
-18 32 -122 0
-32 -84 -184 0
71 130 212 0
122 186 225 0
-21 -70 -87 0
45 -175 -184 0
19 181 -185 0
-150 -199 -211 0
66 -102 -147 0
24 -75 -195 0
-43 -73 -99 0
-5 -20 -96 0
25 99 138 0
83 193 -211 0
-99 120 191 0
