c F1 random 3-CNF cnfgen RandomKCNF(3,175,746,seed=7) m/n=4.26
p cnf 175 746
39 83 102 0
15 94 150 0
18 108 -112 0
16 32 -145 0
12 -13 -57 0
-31 37 139 0
147 -149 164 0
17 141 -145 0
-110 -137 -175 0
64 77 93 0
-77 -135 -148 0
19 -74 156 0
-39 88 126 0
-81 -143 -147 0
18 -117 -149 0
-16 -17 -171 0
89 -99 -172 0
-30 44 157 0
-34 -64 -74 0
-21 -43 115 0
-72 -111 -141 0
22 39 60 0
-4 60 -169 0
-2 -38 -73 0
33 -132 -159 0
101 -102 -103 0
16 -18 49 0
29 88 154 0
39 -138 146 0
-19 54 -158 0
-89 94 155 0
-120 -123 125 0
-27 -37 88 0
-6 53 133 0
77 -136 -165 0
-43 58 92 0
59 -62 -103 0
-8 72 -121 0
90 94 115 0
-51 59 -121 0
-1 -157 160 0
31 -100 170 0
86 -112 -163 0
22 41 103 0
39 -120 -152 0
34 40 141 0
36 112 135 0
55 -65 -75 0
34 -108 -140 0
-133 150 170 0
-5 131 135 0
-37 39 45 0
-84 133 175 0
49 64 -71 0
-8 -17 144 0
-71 116 -131 0
52 -115 144 0
81 101 -114 0
-19 55 172 0
94 -165 170 0
-25 -57 120 0
-42 -58 -171 0
-51 92 -108 0
-5 -87 142 0
-85 99 133 0
-22 -27 59 0
-34 -47 -70 0
-39 -132 138 0
-15 47 -72 0
-5 23 163 0
-18 32 -68 0
69 107 142 0
29 42 68 0
79 -80 -161 0
-46 -129 173 0
4 10 -65 0
-28 -63 -115 0
56 -79 130 0
-36 104 163 0
-4 -19 161 0
-15 -22 171 0
12 76 -118 0
-1 -68 -115 0
9 -63 80 0
1 -86 -98 0
52 129 168 0
-23 37 -68 0
6 77 78 0
-100 -153 169 0
73 159 -165 0
36 130 135 0
-8 11 -35 0
13 116 -143 0
1 68 117 0
-20 65 122 0
-60 -118 167 0
12 74 123 0
-66 85 167 0
-16 124 125 0
-75 -126 -173 0
31 -120 141 0
-5 75 -122 0
54 69 100 0
-37 68 -135 0
-29 -60 -94 0
-1 -7 -41 0
-37 -78 -107 0
-1 -31 -85 0
-4 -31 -51 0
17 -100 -101 0
13 71 -72 0
-39 -64 -163 0
49 -96 110 0
-13 21 -106 0
13 125 -141 0
-73 -88 -107 0
-62 -104 -168 0
31 43 165 0
128 -129 -141 0
36 110 116 0
45 -88 143 0
67 95 -146 0
99 -106 -135 0
-16 -87 128 0
129 136 -162 0
-64 -99 -103 0
-6 -9 -33 0
-1 -19 101 0
28 40 -58 0
11 22 142 0
-10 146 -166 0
112 136 163 0
77 -135 -150 0
1 -58 -154 0
72 -81 166 0
-8 -64 141 0
-6 50 -128 0
-59 109 -171 0
-9 -87 108 0
2 75 -130 0
50 -52 80 0
-28 68 76 0
107 125 -171 0
7 -14 55 0
-16 -48 101 0
21 43 -85 0
-9 -80 -171 0
28 44 -114 0
21 90 -108 0
80 92 -111 0
-51 96 -139 0
-8 94 -122 0
-9 11 97 0
-17 -50 -66 0
-12 -86 -158 0
1 77 153 0
-28 -120 -122 0
34 127 -128 0
-39 -61 -156 0
21 -93 153 0
17 -64 -105 0
27 -42 110 0
-25 -54 108 0
-35 60 107 0
-72 -76 -146 0
51 67 113 0
40 -61 73 0
63 65 -102 0
-2 10 -27 0
11 76 96 0
49 150 -154 0
-46 115 132 0
-153 159 164 0
37 88 -95 0
10 154 -167 0
96 -105 174 0
-9 53 -127 0
26 102 170 0
-70 -102 -105 0
-14 -80 -146 0
5 -94 -165 0
2 -53 112 0
-24 -104 148 0
4 -14 34 0
95 147 -160 0
42 73 134 0
-51 99 126 0
-14 81 124 0
-57 159 -164 0
47 -56 145 0
32 92 99 0
11 -144 173 0
-100 -117 -154 0
-64 -109 -150 0
46 113 -129 0
-61 115 -120 0
18 -28 -103 0
24 94 114 0
22 81 -131 0
7 35 168 0
34 74 126 0
65 -90 -157 0
-37 66 -117 0
-61 -130 158 0
47 -51 -104 0
44 68 -97 0
116 -134 -143 0
-68 96 -97 0
21 85 114 0
-65 -76 133 0
-9 -39 -57 0
13 -94 132 0
12 157 168 0
78 -91 146 0
78 106 -150 0
41 122 160 0
25 39 -116 0
3 -68 -103 0
127 133 155 0
12 -16 137 0
15 41 61 0
-37 52 -106 0
17 -77 161 0
97 -112 120 0
27 58 67 0
-14 -68 -86 0
56 76 165 0
52 -61 67 0
85 -100 -154 0
2 -121 136 0
-55 79 147 0
7 9 38 0
8 37 89 0
11 163 165 0
52 -94 152 0
29 53 64 0
74 123 162 0
-53 -76 -166 0
-6 -67 90 0
-83 -95 155 0
8 -106 -112 0
13 138 -145 0
1 -44 112 0
2 -90 126 0
-89 127 -152 0
55 60 128 0
-27 -126 144 0
-23 102 -103 0
-53 68 -78 0
60 118 -162 0
84 -134 -149 0
-44 113 119 0
86 119 -165 0
40 78 -159 0
90 134 -155 0
27 49 67 0
-38 -39 -99 0
28 -51 71 0
9 -100 -119 0
-57 -129 162 0
-37 66 155 0
-111 147 151 0
47 -165 -174 0
67 -81 161 0
-41 -103 -162 0
-6 117 -160 0
3 100 -126 0
42 -56 140 0
117 -139 148 0
-95 -134 -164 0
48 -54 101 0
-65 71 98 0
-20 -108 161 0
58 -78 -103 0
34 43 -55 0
58 -144 -165 0
76 -120 -141 0
-59 -69 97 0
-1 72 -124 0
-83 123 -125 0
40 78 -99 0
36 89 136 0
-19 76 168 0
-48 60 116 0
43 -104 137 0
55 -127 136 0
-31 68 143 0
122 -127 -143 0
-37 64 126 0
-42 -83 -120 0
96 108 -110 0
8 163 -166 0
-25 124 131 0
55 -107 161 0
-88 94 -169 0
-88 109 -112 0
-75 -91 -127 0
-53 89 -130 0
50 77 82 0
103 -104 -142 0
2 -12 28 0
-129 140 157 0
-11 55 171 0
-10 47 170 0
-36 -80 95 0
9 -82 108 0
128 134 -146 0
104 115 -148 0
152 -153 -169 0
-22 27 141 0
4 110 161 0
23 -32 56 0
-63 71 146 0
-22 -38 -94 0
14 66 172 0
4 -159 -167 0
-43 80 -154 0
-95 113 148 0
30 -93 -166 0
-70 -99 -116 0
-16 160 167 0
-80 150 -154 0
97 -100 -155 0
-1 -68 83 0
11 74 -151 0
89 -128 -141 0
52 -60 -80 0
53 -66 -151 0
-23 138 139 0
-102 -134 -149 0
52 130 151 0
-24 -47 -75 0
39 -64 -133 0
-28 96 162 0
-8 -81 153 0
-9 25 -53 0
-25 72 -110 0
10 -52 87 0
-8 -9 -14 0
-17 154 164 0
66 82 -145 0
-41 47 115 0
-10 45 66 0
-13 67 132 0
2 -38 -82 0
-27 -121 -168 0
-32 -96 100 0
37 -62 113 0
10 -41 57 0
25 99 -115 0
-60 83 -87 0
37 57 -85 0
38 -113 -142 0
40 -64 -106 0
-43 67 -86 0
30 117 124 0
74 -123 144 0
67 94 111 0
75 100 -107 0
-5 -37 164 0
-1 114 -135 0
11 -105 112 0
36 47 134 0
-21 -23 154 0
36 -53 157 0
-3 17 -134 0
-73 86 164 0
-35 105 123 0
10 -94 145 0
92 115 -134 0
63 -83 98 0
115 127 132 0
23 58 63 0
65 80 143 0
-5 50 -67 0
25 27 -90 0
-32 120 127 0
32 36 104 0
-119 147 172 0
100 -108 163 0
87 -93 -103 0
83 -103 145 0
-64 91 -175 0
28 -48 -136 0
52 130 172 0
102 108 117 0
-69 159 165 0
32 -65 134 0
-11 -29 74 0
-16 31 -153 0
-38 137 152 0
-76 -105 148 0
-23 74 -140 0
-52 -94 -141 0
8 -80 121 0
-49 -132 140 0
-42 -62 -91 0
-56 70 73 0
-18 -41 142 0
-100 113 133 0
-40 -107 174 0
-52 158 -173 0
-33 69 162 0
106 -141 -150 0
-39 107 -147 0
-74 -116 -118 0
-101 -135 143 0
-98 114 -128 0
-38 112 148 0
83 -85 156 0
3 -7 -110 0
-77 -80 -138 0
-11 -92 119 0
18 135 -174 0
96 103 -129 0
-103 113 125 0
82 -93 94 0
-29 -76 168 0
75 131 -135 0
16 -47 162 0
-1 3 -106 0
26 102 151 0
-45 128 142 0
32 106 155 0
8 -20 -26 0
16 -111 157 0
61 71 -91 0
26 -150 161 0
99 116 160 0
-12 102 150 0
12 58 -64 0
-2 -78 -117 0
-18 63 -174 0
80 103 125 0
-44 45 92 0
-75 102 -144 0
-86 99 137 0
90 -109 142 0
73 -89 120 0
-7 72 171 0
-24 34 -51 0
-41 -62 120 0
97 -104 -162 0
-53 59 -130 0
-113 151 -153 0
55 131 156 0
70 99 -139 0
4 23 -100 0
28 -49 -170 0
17 50 -80 0
-33 -73 -103 0
34 71 -161 0
-90 170 -174 0
64 91 -103 0
30 70 -156 0
-11 42 -156 0
-11 40 98 0
-128 -134 -146 0
-1 29 168 0
29 -63 175 0
-23 89 -107 0
-24 -90 -135 0
116 129 -161 0
-33 132 173 0
45 67 -144 0
-16 -44 -64 0
-24 52 163 0
124 125 172 0
-35 -114 132 0
37 -145 151 0
44 -109 -141 0
30 -53 -75 0
-12 -16 53 0
29 80 -115 0
-114 -120 146 0
12 -19 -143 0
-22 85 -145 0
-49 112 -126 0
-24 74 165 0
-7 8 -36 0
48 95 -164 0
84 -98 -158 0
-35 -59 95 0
-11 15 28 0
109 -127 128 0
37 -42 -59 0
-11 23 113 0
-1 9 -96 0
-15 -19 170 0
3 113 -171 0
-2 76 -114 0
-22 -83 139 0
103 156 -159 0
-77 -156 -169 0
-36 -166 169 0
-49 57 174 0
-96 -149 170 0
-102 113 145 0
47 52 -141 0
-25 -49 167 0
58 118 -142 0
19 113 174 0
101 118 -140 0
24 -36 96 0
11 13 -96 0
-31 35 77 0
30 -91 -145 0
3 66 -175 0
-92 132 -135 0
-26 92 141 0
-63 66 -173 0
6 113 -149 0
19 29 -67 0
-37 -98 -172 0
4 -7 -88 0
9 -10 -20 0
41 101 -115 0
-56 85 136 0
-44 -55 -93 0
81 -91 -100 0
6 -59 86 0
38 -162 -172 0
-17 -70 129 0
9 -25 144 0
61 73 -93 0
88 -93 -131 0
-16 -86 -87 0
61 63 90 0
-2 -117 -172 0
44 78 -146 0
-65 79 147 0
-21 -46 -150 0
-18 -92 110 0
66 71 -140 0
6 -56 -61 0
52 73 155 0
15 34 154 0
35 88 -148 0
-4 138 165 0
-7 -83 -84 0
15 45 -107 0
-103 -127 154 0
-7 82 -145 0
41 85 158 0
37 -54 -136 0
89 -109 138 0
67 -123 -159 0
-72 93 -144 0
3 -122 143 0
59 103 161 0
16 32 -140 0
39 94 156 0
-63 90 -114 0
-55 100 118 0
-4 -17 169 0
-59 -97 145 0
-6 -8 65 0
-53 -60 -91 0
56 -77 -128 0
35 -73 77 0
-42 -64 125 0
-14 54 -149 0
-36 47 112 0
-3 35 -39 0
-25 44 -119 0
-87 -165 171 0
52 61 150 0
-60 130 153 0
13 17 -82 0
35 110 135 0
38 -139 -163 0
20 56 -90 0
-4 46 68 0
-13 -51 -131 0
-3 -11 -84 0
-69 -103 -106 0
-39 -99 100 0
-2 -62 163 0
30 51 170 0
-84 -104 -143 0
-1 -122 -148 0
-61 97 -162 0
-69 135 157 0
-68 -122 157 0
-17 37 136 0
62 94 -173 0
46 -164 -167 0
-32 93 -110 0
-27 -94 -97 0
-23 -71 -170 0
-29 116 163 0
-2 -34 175 0
-95 -134 -160 0
5 -52 143 0
-46 -79 -152 0
62 -68 113 0
-33 -52 109 0
94 -97 -114 0
-111 -156 166 0
34 -99 149 0
53 85 -171 0
-98 -101 135 0
-28 -145 -152 0
46 -107 -122 0
35 126 132 0
-11 -103 -139 0
24 31 118 0
23 -27 128 0
-52 86 -175 0
36 105 -150 0
49 86 -133 0
-23 -68 -134 0
-77 -143 170 0
-64 -78 -79 0
34 52 -79 0
119 -126 -169 0
52 -117 143 0
-18 105 -137 0
57 75 -113 0
53 104 114 0
32 112 164 0
47 128 -153 0
57 76 173 0
-26 53 133 0
13 -24 -107 0
15 40 109 0
-60 76 -115 0
67 84 141 0
-9 84 -101 0
58 140 -168 0
-39 -48 111 0
10 32 -91 0
-5 90 126 0
72 78 125 0
-59 70 121 0
1 -50 89 0
-45 -86 90 0
46 -85 94 0
25 117 -144 0
9 10 -119 0
-34 107 -166 0
42 93 -170 0
-2 123 -166 0
25 28 -62 0
70 -138 -139 0
42 -63 -146 0
51 73 104 0
62 129 137 0
14 126 147 0
40 -44 -68 0
-29 133 160 0
56 149 170 0
-19 63 154 0
-45 -56 159 0
47 -119 -152 0
9 23 105 0
36 39 89 0
-1 18 -85 0
18 85 135 0
-24 94 -106 0
-35 -128 173 0
120 -152 -175 0
77 132 -164 0
-51 60 -62 0
-13 -101 -148 0
-23 -59 -104 0
2 77 -126 0
-106 -108 155 0
55 -86 -140 0
-9 -120 159 0
-48 70 114 0
56 -161 175 0
70 -86 100 0
-58 -90 -157 0
82 130 -156 0
1 3 135 0
-117 -145 169 0
-132 142 -171 0
-20 -107 -171 0
-76 79 -93 0
5 94 -127 0
80 -115 132 0
36 -84 124 0
49 -148 151 0
72 -151 165 0
105 -108 -141 0
72 -83 93 0
36 89 137 0
-44 79 -134 0
-48 -93 -99 0
-51 -83 159 0
-67 -93 -175 0
29 -69 -121 0
41 81 -164 0
-121 138 -170 0
-93 101 -102 0
-4 -11 -116 0
18 -63 68 0
43 79 -166 0
-88 -101 -103 0
-37 -48 90 0
55 -87 175 0
1 -129 -147 0
55 71 147 0
62 -129 172 0
74 -98 -167 0
-18 131 155 0
25 -80 93 0
-19 32 133 0
-36 -118 162 0
115 143 -152 0
-29 -58 -124 0
59 136 -146 0
8 138 148 0
-69 109 -130 0
-23 -29 -150 0
-15 -58 -171 0
19 -123 -165 0
117 -159 175 0
-29 43 104 0
5 113 -133 0
52 76 144 0
53 -91 -107 0
-42 -145 -161 0
-12 -27 45 0
27 88 -117 0
-22 -121 -125 0
-28 -33 136 0
65 91 -169 0
99 -112 133 0
4 -29 36 0
3 23 119 0
-83 -87 160 0
-2 -53 63 0
26 -33 -152 0
-147 150 163 0
44 -103 -121 0
-31 -37 156 0
-2 59 62 0
25 52 -63 0
13 62 -103 0
-11 40 -68 0
25 27 -48 0
28 98 131 0
22 143 -166 0
102 118 172 0
