c F1 random 3-CNF cnfgen RandomKCNF(3,175,746,seed=10) m/n=4.26
p cnf 175 746
-9 110 147 0
72 119 -126 0
-20 64 -84 0
-36 -91 -155 0
68 -117 -173 0
-35 -62 117 0
2 61 -150 0
-62 -94 -138 0
-17 121 168 0
10 -62 -106 0
19 156 -169 0
96 146 154 0
-43 -49 -114 0
-63 115 175 0
-31 69 117 0
-46 -89 123 0
-2 -12 140 0
-21 68 -115 0
-62 -127 -173 0
-17 -43 126 0
-108 -139 -150 0
43 -113 144 0
1 113 -138 0
-24 -28 39 0
-112 -118 -129 0
85 109 -118 0
-9 51 159 0
-64 76 112 0
-28 141 -153 0
-37 93 -153 0
21 -47 152 0
-25 -79 119 0
69 94 153 0
-105 109 157 0
-15 -23 -109 0
-50 -109 -117 0
-68 -128 -130 0
-71 -90 -124 0
-22 94 -139 0
-17 145 -153 0
-19 -83 -167 0
48 -62 156 0
14 -57 143 0
113 -146 147 0
-49 87 148 0
-10 -94 145 0
-31 41 156 0
90 -131 -138 0
16 -90 -148 0
114 -116 -157 0
-88 -132 144 0
25 111 165 0
-49 -163 -164 0
13 -14 155 0
13 -46 149 0
-11 78 -102 0
42 -50 -126 0
10 -45 85 0
101 -132 165 0
-28 -61 109 0
-89 134 -159 0
-4 41 171 0
122 -131 164 0
18 74 91 0
-5 -9 103 0
-13 84 92 0
33 53 75 0
-99 140 158 0
2 8 32 0
-4 18 -99 0
13 -44 -142 0
48 -86 -117 0
94 126 -171 0
-24 46 65 0
-21 72 135 0
-31 74 -138 0
110 133 163 0
16 156 166 0
38 79 -108 0
-30 -133 -172 0
45 119 -161 0
40 -116 -156 0
-12 40 -126 0
-55 -71 127 0
34 -82 165 0
86 -136 173 0
9 -10 -33 0
57 123 169 0
-94 110 117 0
103 140 162 0
-56 -98 132 0
18 40 -138 0
23 -54 117 0
-44 94 171 0
-77 86 151 0
-92 107 -125 0
76 -129 -173 0
-30 -44 118 0
31 -42 119 0
-2 -134 141 0
-30 105 -108 0
-6 -114 -118 0
-40 144 169 0
-121 -128 -147 0
115 -142 -154 0
48 -61 78 0
7 136 139 0
43 79 108 0
11 81 120 0
-37 -126 174 0
-108 -162 175 0
11 40 66 0
-76 -122 -132 0
-76 85 153 0
-93 -124 -171 0
18 -41 -92 0
-2 51 150 0
-42 93 -124 0
52 -64 148 0
66 126 141 0
-44 -45 166 0
-59 109 112 0
34 93 124 0
21 49 -101 0
81 -126 150 0
97 -103 119 0
16 -28 64 0
-72 74 -88 0
33 146 -164 0
31 104 166 0
-62 105 122 0
-21 88 167 0
11 114 -134 0
-106 -136 -141 0
-35 -119 152 0
-67 75 -168 0
-81 -97 -161 0
30 43 71 0
-93 111 -114 0
49 164 175 0
44 145 -150 0
-91 -94 119 0
51 91 168 0
114 -139 -175 0
-13 -111 129 0
-86 -96 -123 0
-1 65 96 0
-83 100 -112 0
-24 -28 29 0
46 140 -175 0
42 88 164 0
-3 81 -88 0
15 123 -153 0
46 131 -134 0
-80 148 -161 0
37 -43 -97 0
105 146 156 0
-50 -71 104 0
-58 88 139 0
4 -34 38 0
20 -106 -126 0
1 55 -161 0
-8 -40 76 0
-20 33 -121 0
-15 -75 122 0
-18 -21 93 0
29 143 175 0
59 108 -172 0
-12 -95 -106 0
4 -66 100 0
-18 -97 143 0
-13 -84 -150 0
-41 44 -89 0
-14 57 -81 0
14 29 -93 0
59 -91 -138 0
-140 -163 -169 0
-2 33 -170 0
-89 -129 161 0
-37 -58 -116 0
64 112 151 0
41 54 -98 0
28 96 173 0
6 -61 -106 0
5 29 67 0
68 -97 166 0
-60 62 -77 0
76 -83 169 0
33 -66 112 0
-74 145 -171 0
25 67 -104 0
26 139 -175 0
16 -29 -57 0
9 129 -168 0
-13 -57 -79 0
-113 139 158 0
42 54 171 0
-70 -83 156 0
36 -140 -174 0
-109 -125 -147 0
83 -107 -144 0
-6 11 125 0
-9 62 115 0
62 166 168 0
96 156 -157 0
-37 62 172 0
15 26 127 0
-20 61 157 0
16 -19 -25 0
20 153 154 0
-29 148 -164 0
49 -82 129 0
-115 -120 137 0
-1 67 -89 0
78 -106 111 0
29 -37 -89 0
-12 -48 -62 0
-17 -102 -133 0
-3 64 -166 0
5 53 62 0
31 -68 121 0
-142 -150 169 0
-102 105 -109 0
1 -86 129 0
-31 112 -155 0
20 -30 -68 0
78 137 -155 0
-55 86 -110 0
-31 -119 125 0
-5 -11 -147 0
-34 -39 67 0
-94 -118 147 0
-40 76 146 0
34 130 159 0
-83 -85 121 0
25 -42 94 0
-94 -154 155 0
-22 -118 -166 0
-17 -24 -111 0
91 -104 166 0
12 56 98 0
-53 -87 152 0
3 -108 -118 0
-8 59 110 0
-49 -88 -132 0
20 47 133 0
1 -58 -149 0
-71 -147 175 0
-44 -82 -137 0
-100 109 -158 0
72 142 175 0
8 63 91 0
-24 160 -164 0
-11 45 154 0
15 140 -172 0
-20 86 140 0
-97 -123 -154 0
-86 -127 -152 0
17 140 -162 0
-20 34 -80 0
36 -98 -117 0
41 61 140 0
-103 -108 173 0
-79 115 -116 0
12 97 172 0
104 111 -141 0
6 -99 173 0
82 -113 154 0
-95 -103 -166 0
11 -64 136 0
-51 121 -157 0
-70 -79 126 0
-15 70 -108 0
29 107 -114 0
-18 57 -138 0
-51 131 -166 0
-17 -50 92 0
12 -77 109 0
-3 -48 158 0
-2 -24 131 0
10 -16 -22 0
121 -137 -146 0
32 102 155 0
41 -146 163 0
79 -83 127 0
83 94 146 0
-134 -147 154 0
62 -128 -167 0
58 -99 -156 0
-16 -139 -166 0
-27 -69 -134 0
110 116 -124 0
-45 63 -174 0
-133 -153 -161 0
14 -80 114 0
-60 75 -159 0
-4 42 43 0
-82 -85 117 0
-3 -70 -83 0
-9 -69 -107 0
16 -158 -159 0
-4 -102 168 0
115 -143 -153 0
-71 99 153 0
-98 116 138 0
39 -42 -121 0
29 57 -92 0
-51 -69 162 0
-44 -47 -162 0
-48 -86 148 0
-38 -142 -148 0
21 92 -152 0
13 114 -131 0
-7 76 -101 0
-33 72 94 0
-11 157 -164 0
-12 -22 -85 0
-134 141 146 0
-59 -84 96 0
-45 -157 -163 0
-5 -71 -112 0
87 -148 -150 0
14 -44 -50 0
93 102 113 0
93 149 166 0
-48 -86 -133 0
27 -66 118 0
-92 -94 102 0
4 112 166 0
-83 115 -150 0
-69 -111 -137 0
55 107 143 0
-10 34 39 0
-74 120 149 0
2 36 -57 0
93 129 -134 0
-30 63 155 0
5 105 -118 0
81 135 -175 0
-57 -101 -119 0
24 36 67 0
-14 -94 170 0
20 104 -145 0
-18 105 -152 0
-7 43 -102 0
-59 -156 -170 0
51 -67 93 0
34 -58 127 0
107 148 -167 0
21 58 -103 0
-14 60 120 0
27 -52 128 0
-47 77 135 0
14 56 -155 0
-58 -101 107 0
-93 127 173 0
31 58 -155 0
-75 126 133 0
60 81 113 0
-3 -15 70 0
3 -17 -52 0
18 61 71 0
-28 -97 -128 0
18 141 147 0
-101 134 -173 0
-98 112 136 0
33 -55 -156 0
96 134 -154 0
-106 123 162 0
-1 -78 136 0
16 -100 -111 0
3 -34 43 0
-27 111 -163 0
81 94 -158 0
113 -117 -154 0
-104 -139 156 0
73 82 165 0
54 129 170 0
-21 -41 -114 0
-121 128 -148 0
-7 -36 -147 0
75 -111 156 0
-2 43 -154 0
-19 27 36 0
-61 88 -143 0
63 -85 -167 0
-34 88 89 0
90 -116 158 0
35 -69 -79 0
-71 -125 172 0
6 -18 99 0
66 69 155 0
-47 50 -166 0
45 84 -150 0
88 103 -130 0
2 -71 139 0
27 -116 -129 0
61 65 -77 0
68 109 -117 0
93 -104 123 0
2 97 159 0
-67 147 -165 0
3 10 -109 0
42 109 161 0
-6 33 -106 0
-87 119 134 0
-73 -102 168 0
-29 48 71 0
63 103 108 0
22 -62 80 0
88 -121 -169 0
2 -50 -72 0
-58 91 128 0
-48 52 -156 0
-1 -11 20 0
-37 68 136 0
-45 -132 -140 0
-61 100 171 0
-63 65 96 0
-21 -28 -136 0
7 -106 175 0
96 -104 108 0
11 -63 80 0
30 122 -143 0
83 -93 147 0
29 -113 -161 0
94 -141 -154 0
16 -21 39 0
-38 91 129 0
56 78 -174 0
10 -30 -114 0
11 36 44 0
-61 142 -175 0
-67 75 -162 0
-28 -86 163 0
110 148 -159 0
33 80 -110 0
7 -19 -37 0
-93 -94 -128 0
-6 -66 83 0
50 125 -154 0
28 -57 -117 0
-87 145 147 0
-9 164 169 0
19 95 172 0
-11 21 -57 0
-122 -128 -137 0
12 40 -127 0
-3 8 170 0
8 142 -172 0
-9 -39 -114 0
-72 77 108 0
-21 -105 157 0
26 115 142 0
111 137 -175 0
12 141 -172 0
-42 137 -146 0
37 72 131 0
38 -84 -93 0
48 99 128 0
-17 77 -158 0
21 -27 -112 0
-66 -79 -159 0
-48 69 -108 0
-60 -97 -153 0
-54 -135 -174 0
127 -156 -173 0
60 88 -144 0
-67 74 -166 0
-54 89 112 0
55 -127 162 0
62 -126 172 0
36 41 -51 0
32 -95 -138 0
-120 -140 -146 0
-26 -63 -172 0
15 -149 166 0
-8 89 103 0
13 -83 -87 0
33 -54 75 0
-22 53 -155 0
75 -88 -122 0
-105 113 156 0
-39 60 -63 0
-54 108 -151 0
-22 -164 170 0
-2 34 170 0
14 25 -160 0
-86 93 -101 0
63 138 163 0
29 -135 -144 0
-44 106 124 0
31 76 -90 0
131 -141 -161 0
-15 -79 97 0
-22 -34 -85 0
-76 -108 -170 0
-13 -103 -164 0
51 167 174 0
162 165 -174 0
-2 -24 -43 0
-38 45 -143 0
37 -114 160 0
22 -111 138 0
-23 84 146 0
34 43 -71 0
14 106 138 0
46 96 135 0
-13 -27 33 0
-35 -54 153 0
-54 130 152 0
33 -99 128 0
41 55 144 0
-54 -86 -87 0
-49 70 129 0
-40 52 -122 0
35 -50 -112 0
-23 75 125 0
57 70 89 0
-8 -43 -75 0
-5 -32 98 0
-8 10 37 0
-115 137 -169 0
-1 76 -158 0
-5 -68 -154 0
24 67 87 0
52 -134 -167 0
3 -80 93 0
59 62 74 0
111 -128 -155 0
54 79 121 0
-27 -64 120 0
-31 92 -168 0
52 78 139 0
-35 103 -119 0
-74 106 -163 0
-66 -159 164 0
-37 -125 -169 0
36 -106 -118 0
-66 68 -136 0
-11 44 -122 0
-24 92 -133 0
108 -141 -155 0
-32 -82 -94 0
-73 -80 134 0
-54 63 76 0
-74 -162 167 0
-64 -138 -146 0
-22 -48 168 0
-19 42 -69 0
-58 -96 137 0
-64 154 -164 0
-15 82 94 0
60 -106 -108 0
9 -112 156 0
2 -51 -151 0
-139 152 -154 0
-47 -57 67 0
-116 -146 -153 0
-3 -5 -74 0
-26 121 -150 0
41 97 121 0
-88 92 -130 0
-13 -96 -158 0
54 135 -146 0
-79 120 153 0
-25 116 158 0
-105 153 155 0
3 -27 -40 0
-95 106 -157 0
56 -89 130 0
-23 25 -32 0
-135 -143 -163 0
-6 35 134 0
33 -91 133 0
-31 49 136 0
-47 -113 -135 0
59 71 155 0
-16 -55 145 0
-71 -108 145 0
16 -115 -153 0
-134 -148 -167 0
-99 -110 -134 0
-45 58 -124 0
15 -55 69 0
1 7 98 0
-6 -21 -168 0
-63 76 -99 0
19 44 -72 0
-85 -145 -175 0
56 -67 -87 0
-33 -123 174 0
-8 -112 -153 0
-78 -84 -131 0
-1 110 112 0
63 -89 137 0
25 113 -118 0
1 -31 -156 0
-11 -27 126 0
-40 79 -169 0
28 -71 -156 0
-49 59 132 0
-26 135 -145 0
53 -57 89 0
-94 106 -125 0
-16 -67 -132 0
58 81 -169 0
33 81 98 0
90 -146 -153 0
55 57 118 0
-33 -84 172 0
-72 -137 -165 0
-90 -157 167 0
121 129 -169 0
71 -111 174 0
110 144 170 0
37 84 168 0
63 -87 -107 0
49 87 101 0
-73 -76 109 0
94 -99 -161 0
89 -93 100 0
-11 55 -121 0
-55 -147 170 0
-66 119 -172 0
-19 -69 -160 0
20 -99 -126 0
-41 -129 -163 0
-113 139 -158 0
-69 157 166 0
28 158 -168 0
-26 -77 129 0
-32 58 129 0
40 75 136 0
-75 110 -118 0
79 130 138 0
-76 90 -161 0
49 119 -127 0
42 45 -160 0
112 -114 -123 0
-57 64 101 0
-26 58 60 0
-90 130 -150 0
62 -96 -175 0
-7 -111 161 0
-33 -69 163 0
87 -107 -170 0
-7 -10 -58 0
44 -155 175 0
-45 -91 -129 0
16 50 -67 0
-68 92 -139 0
64 124 153 0
-17 -22 150 0
38 55 -152 0
-29 109 -150 0
-36 58 -174 0
55 81 139 0
-15 -70 71 0
-10 -12 141 0
2 76 125 0
-38 45 70 0
22 -58 -93 0
47 -125 129 0
20 73 74 0
-130 134 166 0
14 79 92 0
25 28 -46 0
-35 67 168 0
32 -100 125 0
-36 -92 109 0
46 -90 166 0
-78 -132 142 0
-34 71 88 0
14 -32 74 0
6 71 -94 0
104 -126 137 0
19 -132 -152 0
5 -89 -172 0
-56 61 169 0
27 50 154 0
-36 -69 160 0
-83 99 -124 0
51 99 -145 0
34 108 -140 0
-55 70 91 0
11 65 -137 0
-82 -134 -147 0
-18 -80 173 0
42 -115 -123 0
21 26 -120 0
12 -63 -116 0
70 -140 -162 0
-3 -65 116 0
-70 -116 -125 0
112 -119 -127 0
39 -43 130 0
-8 -145 -161 0
93 -101 -166 0
-76 -128 168 0
8 -64 -126 0
-55 77 -133 0
-57 102 -139 0
-39 74 76 0
-84 -98 -115 0
-75 -102 -158 0
-55 -66 -171 0
-30 -77 -100 0
69 -86 -166 0
26 29 -94 0
73 85 -137 0
-75 -76 125 0
-65 81 -158 0
-14 43 -129 0
122 157 -161 0
-22 -62 151 0
8 152 154 0
-18 93 -101 0
-73 133 -156 0
2 -57 87 0
3 104 152 0
95 171 172 0
-50 65 95 0
-115 -130 -164 0
7 -99 168 0
-32 72 -96 0
-28 104 -158 0
-14 53 -60 0
-16 -45 -64 0
-4 22 -104 0
-12 100 102 0
27 46 53 0
12 -32 -67 0
-14 -69 -137 0
-29 -89 147 0
-3 68 175 0
35 -70 155 0
51 -86 -173 0
-52 61 115 0
-10 57 62 0
18 94 134 0
54 94 -165 0
-57 -91 -118 0
-94 -116 -138 0
-11 35 -47 0
-52 77 120 0
