c F1 random 3-CNF cnfgen RandomKCNF(3,125,533,seed=0) m/n=4.26
p cnf 125 533
-50 98 -109 0
-63 -66 -124 0
46 75 -115 0
-13 18 -97 0
-10 -13 94 0
41 -46 -56 0
34 67 111 0
52 -93 -108 0
32 42 94 0
31 -103 124 0
-11 41 -113 0
38 -71 91 0
-78 -103 124 0
-50 77 -103 0
24 25 -106 0
9 12 61 0
-11 -108 115 0
-28 -109 -115 0
-64 83 -85 0
-15 63 79 0
3 35 -94 0
-22 43 102 0
19 101 110 0
4 16 -82 0
12 48 107 0
25 124 -125 0
27 94 -103 0
-13 80 107 0
-10 -39 83 0
8 60 -65 0
-26 34 46 0
8 99 -124 0
-16 33 68 0
-53 -61 -88 0
33 85 -108 0
11 -43 95 0
-31 -98 -123 0
46 -76 -87 0
54 96 107 0
21 43 -90 0
-49 91 -113 0
-73 90 112 0
9 -34 -58 0
72 78 -117 0
-40 42 -108 0
25 71 124 0
-52 -87 122 0
2 28 92 0
16 -78 -84 0
-13 -24 89 0
-3 36 -117 0
-18 67 84 0
3 36 109 0
-34 -72 88 0
-96 -109 -124 0
48 69 -112 0
2 38 -76 0
-43 44 -102 0
5 -80 100 0
-20 -38 75 0
15 38 -62 0
23 -67 -110 0
-39 43 107 0
-62 -72 -117 0
-15 -16 62 0
39 43 -95 0
82 104 125 0
26 -29 96 0
-13 -51 -72 0
75 -92 101 0
29 -34 48 0
9 -15 46 0
-16 51 64 0
28 103 122 0
47 49 -59 0
-19 -52 -73 0
64 82 107 0
-44 -91 124 0
-19 68 -112 0
-38 75 92 0
67 112 118 0
6 -17 -39 0
21 -103 -111 0
49 65 116 0
55 -96 -116 0
-62 106 125 0
1 -85 -114 0
-9 -43 -64 0
8 50 104 0
-37 94 107 0
-19 54 62 0
46 -53 -104 0
-7 13 59 0
5 -77 80 0
-71 84 -90 0
63 100 -101 0
-79 81 -120 0
-17 -101 109 0
67 101 -111 0
48 -57 -97 0
10 81 -102 0
4 33 116 0
-100 -105 114 0
-19 55 115 0
-9 13 54 0
-56 58 -102 0
-111 -118 124 0
-10 16 -46 0
2 -23 45 0
19 77 115 0
85 87 -94 0
4 48 89 0
-15 -59 62 0
-4 -27 -124 0
-38 120 123 0
-14 69 -75 0
19 115 -122 0
31 -32 -66 0
6 54 -85 0
-10 -17 -90 0
-19 -95 -119 0
-11 32 -57 0
-2 -53 54 0
-38 48 122 0
14 36 -102 0
-24 -52 119 0
-32 59 -123 0
60 -81 82 0
-1 -38 107 0
-15 28 -39 0
61 -91 97 0
-52 70 98 0
35 86 -114 0
-51 -68 114 0
-33 46 96 0
-5 -10 -102 0
16 68 111 0
-38 54 111 0
-14 -53 -69 0
48 57 73 0
-16 -49 90 0
-39 -72 -86 0
-28 -62 63 0
-19 39 57 0
-4 46 61 0
-11 88 -111 0
6 -15 -80 0
30 -94 116 0
-14 -56 59 0
-43 54 -83 0
-19 91 120 0
-24 -57 -117 0
50 63 -104 0
27 -76 121 0
11 -30 82 0
82 87 -96 0
-12 -79 -91 0
-7 -59 -81 0
33 -61 -91 0
-6 7 -21 0
1 -18 84 0
51 -78 125 0
14 -44 -78 0
-59 -69 115 0
-6 25 67 0
45 68 -112 0
-87 -94 -95 0
33 45 -62 0
10 -71 -120 0
-7 -57 -93 0
11 16 57 0
-20 98 -106 0
-10 -79 105 0
-24 32 123 0
-36 -108 -112 0
-14 72 -116 0
-57 -66 -100 0
3 16 -30 0
28 -32 37 0
-16 50 -83 0
-30 87 92 0
-9 40 -67 0
37 62 81 0
-42 65 71 0
20 51 113 0
-27 98 101 0
17 -94 -105 0
-17 76 78 0
-46 -68 -77 0
2 -29 -123 0
41 -70 91 0
52 -78 -91 0
8 50 -121 0
93 -96 -124 0
85 -86 -93 0
21 -40 86 0
-20 81 -94 0
4 8 81 0
-29 84 122 0
-45 85 125 0
-19 -56 58 0
-43 -84 94 0
-34 53 115 0
50 53 123 0
80 85 -112 0
31 107 108 0
104 115 123 0
55 -111 119 0
-6 -78 -79 0
4 -81 120 0
38 -46 86 0
-21 -46 -65 0
-64 103 -121 0
-37 68 -116 0
-5 -88 120 0
45 52 -64 0
-5 33 -95 0
-50 107 125 0
43 -73 104 0
112 -116 118 0
7 -75 -105 0
-38 -42 -81 0
1 22 -101 0
17 -44 -119 0
25 -79 -96 0
23 107 122 0
-15 -75 -121 0
-2 -37 -40 0
-68 -69 71 0
56 91 101 0
-85 -90 -101 0
-5 72 122 0
47 68 -121 0
64 81 90 0
-24 36 -121 0
-31 92 96 0
22 -57 -119 0
-33 -35 -121 0
-4 12 -40 0
-26 -51 -98 0
90 -106 -113 0
-17 -73 107 0
51 61 118 0
-45 73 111 0
-15 25 -92 0
108 -109 -119 0
-17 -98 116 0
-19 52 77 0
-17 18 115 0
-72 89 -106 0
75 103 105 0
-26 -34 -105 0
-34 67 -101 0
5 20 -71 0
10 -105 122 0
59 -67 104 0
61 72 -99 0
1 100 -105 0
-46 -73 -78 0
47 66 -108 0
3 24 -119 0
25 -78 114 0
-40 90 102 0
46 -107 118 0
-46 -57 -78 0
-4 -24 53 0
-9 50 122 0
3 -4 45 0
-42 -59 102 0
-7 -69 110 0
13 -67 -83 0
13 61 -123 0
-1 -5 123 0
71 90 121 0
21 -100 118 0
-62 114 123 0
-31 37 82 0
-21 -29 -46 0
-18 73 113 0
-1 75 120 0
-3 4 106 0
7 100 119 0
49 -87 -101 0
-73 88 117 0
-28 47 66 0
-53 73 -85 0
-32 -56 115 0
-31 -51 118 0
-33 36 -107 0
31 -36 -113 0
14 81 -124 0
-4 -54 99 0
-59 78 92 0
44 -53 61 0
45 -48 -120 0
67 81 -97 0
-23 -75 -93 0
-6 38 -82 0
35 -49 94 0
-15 17 79 0
-51 56 74 0
55 70 100 0
22 27 -30 0
-46 -113 116 0
-103 -118 124 0
-44 65 -81 0
-72 95 -96 0
-45 -50 -122 0
13 53 105 0
75 77 82 0
35 -89 94 0
2 -5 -102 0
-14 -41 -87 0
63 86 104 0
66 100 110 0
53 -67 -113 0
3 -34 76 0
57 -73 114 0
-52 76 -83 0
6 -62 -80 0
-51 -71 83 0
30 -47 70 0
9 -59 -124 0
53 -73 -122 0
-15 30 -105 0
13 18 104 0
-1 -5 111 0
-61 -72 120 0
1 -31 -88 0
-2 -29 -36 0
-10 12 -40 0
49 111 -124 0
-26 -96 -120 0
17 -50 -79 0
61 -65 -112 0
-36 -46 56 0
38 -62 116 0
32 -45 -120 0
-15 -30 -88 0
60 -66 -120 0
30 41 -63 0
41 -51 115 0
-6 74 -99 0
26 42 93 0
47 90 103 0
2 49 69 0
78 106 -120 0
-1 26 109 0
-30 -54 119 0
27 -49 56 0
-45 -75 -91 0
18 -77 83 0
14 35 92 0
-27 49 -74 0
16 -65 66 0
-58 66 -115 0
-17 -44 -71 0
-11 65 -73 0
-32 45 -62 0
-1 -93 114 0
-31 -33 55 0
-30 -37 57 0
67 107 -125 0
67 81 120 0
5 -43 -44 0
-25 53 87 0
-7 51 -101 0
-24 67 -119 0
74 -85 116 0
-32 63 116 0
6 -8 18 0
-14 -85 -88 0
25 -64 -88 0
-51 -57 -92 0
9 19 -29 0
60 -91 122 0
3 -27 -52 0
27 70 -82 0
40 49 -70 0
-2 -27 -97 0
3 11 -96 0
20 -34 -60 0
-29 -108 -113 0
-30 76 106 0
-20 41 -81 0
41 50 -56 0
78 86 120 0
16 56 -91 0
-15 -34 -50 0
79 82 -103 0
2 -66 71 0
-34 82 -111 0
-13 72 -79 0
14 67 -74 0
5 -67 108 0
72 91 108 0
-26 -52 78 0
-35 93 125 0
41 -60 107 0
-11 -85 -105 0
5 -11 79 0
22 -36 -92 0
-12 54 65 0
42 -60 76 0
-56 81 87 0
-2 82 -107 0
-41 71 84 0
89 -109 114 0
-50 54 -101 0
-41 -117 122 0
22 48 -55 0
4 -31 50 0
24 -106 116 0
-47 97 115 0
-35 -37 -64 0
90 119 -120 0
20 -26 32 0
24 33 71 0
-93 106 111 0
17 72 -98 0
103 -110 112 0
-8 -22 53 0
-50 68 69 0
12 69 110 0
-32 -96 -124 0
-45 -53 125 0
21 98 115 0
7 -98 110 0
58 -91 100 0
-19 -45 -77 0
-65 83 89 0
62 -94 -104 0
39 -57 -61 0
-90 -104 -121 0
-51 52 75 0
28 34 -56 0
-34 -44 -118 0
68 84 -117 0
9 59 89 0
33 102 110 0
-23 -80 117 0
3 85 -87 0
-31 -106 -124 0
-12 46 110 0
-2 -23 99 0
50 -112 118 0
23 -64 102 0
-1 7 116 0
-11 -54 65 0
8 -44 -92 0
-62 -63 78 0
59 97 -103 0
-52 -72 92 0
54 78 119 0
-24 -96 108 0
-55 -88 98 0
46 66 82 0
2 78 -125 0
50 -62 101 0
11 51 90 0
53 116 -118 0
-17 -72 -94 0
107 -115 123 0
72 116 121 0
-12 -74 -107 0
28 33 52 0
-2 82 113 0
65 98 -107 0
-1 95 -106 0
9 -75 97 0
-33 -43 58 0
-11 -41 -57 0
55 67 71 0
-52 83 107 0
-5 19 20 0
-35 -68 -73 0
-52 -76 -105 0
30 -65 -100 0
44 66 102 0
-15 48 61 0
15 -65 67 0
-24 -47 -121 0
-62 97 118 0
-62 84 96 0
62 -95 -98 0
-75 88 113 0
59 -80 -91 0
42 -56 -75 0
-31 48 49 0
-31 -33 124 0
44 -77 80 0
-19 98 109 0
-58 115 119 0
46 77 -78 0
-27 -38 116 0
-46 53 109 0
25 -26 123 0
-33 -37 -65 0
-87 96 109 0
8 -43 -115 0
-40 -71 -116 0
29 87 122 0
-3 65 110 0
3 -6 101 0
-76 105 112 0
21 36 38 0
-17 -30 -113 0
-19 79 95 0
-18 108 115 0
-3 -76 112 0
-95 97 -105 0
77 95 102 0
27 -95 106 0
19 -63 69 0
-23 -59 86 0
-82 84 121 0
-35 -45 63 0
37 51 -71 0
15 76 -123 0
19 34 55 0
-34 -57 125 0
-45 -107 111 0
91 92 -99 0
-57 67 -79 0
12 -27 51 0
60 65 87 0
-13 -30 31 0
71 107 114 0
12 25 63 0
-67 -71 -74 0
61 -87 -103 0
27 99 -101 0
28 67 88 0
