c F1 random 3-CNF cnfgen RandomKCNF(3,175,746,seed=18) m/n=4.26
p cnf 175 746
-32 -47 170 0
-51 126 -161 0
68 -76 118 0
84 134 173 0
52 -61 94 0
-2 -68 77 0
-89 -104 -138 0
-30 73 -142 0
42 -49 162 0
105 123 -132 0
-87 137 -169 0
-38 39 123 0
-24 140 -166 0
137 149 175 0
103 -104 -123 0
-34 70 -102 0
78 -87 157 0
38 -109 147 0
-132 143 144 0
-66 -109 -156 0
39 58 -107 0
77 127 -161 0
46 135 -139 0
20 42 -147 0
28 -96 -151 0
-23 69 -155 0
105 -132 -134 0
-12 -66 145 0
-42 56 -73 0
-23 -28 84 0
-20 57 120 0
-57 -94 -138 0
79 117 174 0
-5 22 102 0
55 -64 72 0
-34 59 -115 0
-43 -132 173 0
-63 -128 157 0
90 -135 -156 0
4 74 159 0
43 -61 77 0
-8 46 -142 0
22 123 -125 0
-68 -83 164 0
-51 -97 -162 0
10 55 -170 0
-18 -24 127 0
-18 19 -123 0
-4 86 111 0
54 61 -74 0
6 52 -162 0
15 -39 -62 0
-83 -142 -150 0
-60 -73 -92 0
94 -107 -137 0
-40 -53 173 0
-49 73 -120 0
-79 -89 -99 0
50 -76 147 0
12 -101 173 0
-18 -101 -109 0
-52 -89 -143 0
63 135 147 0
-110 -132 -149 0
-81 -92 174 0
-10 45 73 0
-63 84 -99 0
37 -77 83 0
-57 70 105 0
-32 -81 107 0
8 23 160 0
-2 34 141 0
-54 -131 158 0
-36 -87 170 0
-53 -98 -140 0
-15 119 159 0
65 133 -153 0
-34 158 168 0
8 -14 -175 0
69 -77 -117 0
17 -21 75 0
-33 68 172 0
-5 131 -154 0
-20 87 -130 0
48 -162 174 0
-54 77 140 0
36 119 122 0
-89 93 -133 0
-56 115 -135 0
-100 -122 155 0
100 -110 140 0
41 -93 -142 0
61 -80 110 0
12 -23 123 0
-97 132 -174 0
-12 47 85 0
33 171 172 0
-11 -88 112 0
-55 125 167 0
22 -66 -109 0
99 153 163 0
-66 -122 -139 0
-110 118 -149 0
-127 139 171 0
-48 -144 157 0
37 49 122 0
24 43 -70 0
-62 160 -170 0
-4 -39 45 0
1 98 -109 0
-141 -151 168 0
-56 -80 -135 0
66 71 87 0
-11 142 171 0
31 41 85 0
-1 -66 157 0
26 -48 -120 0
54 -112 -140 0
-50 62 96 0
-133 138 -155 0
-105 151 167 0
-5 -129 -133 0
32 46 102 0
2 -76 81 0
-120 159 175 0
-30 62 146 0
-17 -36 -167 0
33 -103 138 0
-48 -100 120 0
45 55 156 0
38 -69 -111 0
11 26 -88 0
35 -134 159 0
93 -126 -128 0
-68 88 -156 0
19 -99 134 0
-55 -78 84 0
40 53 76 0
-4 -119 124 0
-60 -66 69 0
4 -11 167 0
-4 9 -124 0
-6 -106 135 0
24 -129 174 0
-1 24 75 0
-114 -123 -155 0
-65 -94 145 0
40 -84 -89 0
-34 137 -157 0
-17 111 119 0
73 -155 -174 0
-26 -106 -136 0
49 66 -162 0
-7 76 83 0
73 -110 131 0
33 146 174 0
20 25 -99 0
-58 -133 157 0
-28 102 147 0
44 70 118 0
7 -28 42 0
6 90 142 0
-75 -77 -111 0
-103 -108 -155 0
-40 82 119 0
-1 -56 121 0
-116 149 175 0
-24 -39 61 0
-59 -142 -170 0
-49 81 -159 0
7 -54 151 0
-96 -112 131 0
-95 -119 -124 0
47 -84 166 0
-7 -23 -91 0
8 55 164 0
-22 38 63 0
15 -69 -79 0
1 80 -128 0
30 -42 148 0
-49 -96 128 0
13 -53 68 0
-55 -141 -157 0
-6 77 -136 0
83 -96 131 0
-22 -74 138 0
-135 145 166 0
-113 -117 -130 0
-20 -86 -94 0
74 -117 129 0
44 55 134 0
67 146 168 0
-48 -61 123 0
-56 -69 -162 0
-3 7 132 0
38 56 69 0
116 119 141 0
69 -92 -99 0
-10 -116 133 0
-12 -53 61 0
-57 -105 -157 0
12 -61 -111 0
64 -78 -147 0
-13 29 164 0
-155 162 -169 0
41 -162 171 0
-40 -132 160 0
-8 67 -152 0
-16 150 -157 0
-22 89 -91 0
-52 -66 151 0
-80 85 166 0
50 -104 -113 0
12 -15 87 0
39 -103 -157 0
-19 -122 145 0
109 -130 158 0
-103 155 158 0
35 94 -173 0
44 149 -168 0
78 -98 151 0
-3 131 174 0
-91 -98 -165 0
14 30 -160 0
-12 -127 151 0
55 -81 149 0
92 94 127 0
-74 118 139 0
89 -92 100 0
-22 -153 -171 0
-52 60 106 0
26 -77 151 0
1 -18 94 0
-57 -74 -134 0
-125 164 -168 0
-118 -165 -168 0
-54 88 -159 0
20 31 84 0
-15 -91 -168 0
8 103 -173 0
-37 -149 156 0
-20 112 -141 0
34 66 98 0
19 -98 -131 0
37 -119 129 0
-111 -125 -145 0
61 77 -89 0
-1 20 -49 0
-75 -92 158 0
7 -102 -133 0
-124 -125 -133 0
-40 58 -132 0
47 91 -107 0
26 28 48 0
-36 152 -169 0
23 -84 -159 0
-117 -151 175 0
45 -136 162 0
18 92 102 0
53 60 77 0
29 104 122 0
-26 154 -164 0
28 -55 -126 0
-80 -85 92 0
-74 96 175 0
11 -146 -155 0
18 27 123 0
-64 106 112 0
-50 66 92 0
-25 65 -66 0
-19 40 100 0
86 -112 -144 0
15 78 -117 0
92 116 -139 0
-66 -160 168 0
-114 117 -148 0
-42 -80 -163 0
95 -112 -148 0
19 31 73 0
-5 62 89 0
95 -138 -169 0
41 -90 111 0
-34 -68 -167 0
-57 62 97 0
30 51 169 0
131 -152 160 0
-52 -73 91 0
-123 -135 -152 0
30 34 68 0
-4 -96 -165 0
30 -46 108 0
-31 -99 -108 0
-17 -59 74 0
-30 153 154 0
11 131 -147 0
-15 79 -163 0
-95 152 -175 0
10 -29 165 0
17 -26 70 0
-25 -74 -175 0
-42 66 -93 0
65 143 -155 0
-59 -87 -144 0
-77 151 -159 0
96 130 151 0
-153 162 -170 0
14 76 128 0
47 -120 135 0
-51 101 127 0
-31 65 -102 0
-23 -112 154 0
-24 -129 158 0
-27 -36 -129 0
15 -78 137 0
64 -75 -142 0
-17 -31 -119 0
-61 -89 149 0
131 144 -173 0
-49 -101 -145 0
36 -158 169 0
-45 80 -163 0
-95 133 136 0
-28 -56 -153 0
22 -49 -132 0
-107 134 135 0
1 -30 91 0
-54 92 121 0
49 125 -143 0
43 163 165 0
1 -102 -115 0
110 -142 173 0
57 -83 -159 0
-39 43 129 0
49 91 162 0
-59 -71 84 0
55 -155 170 0
-34 58 -103 0
57 72 -76 0
-1 -5 -77 0
63 -68 71 0
48 -52 -83 0
-51 83 -90 0
-55 -84 -135 0
69 -94 -117 0
22 -75 -86 0
-40 113 -134 0
-18 -91 105 0
81 115 -160 0
-18 -64 -139 0
27 146 -147 0
131 -140 -156 0
-4 -22 -56 0
-17 -29 129 0
60 112 173 0
32 -105 -160 0
5 83 173 0
-23 57 -168 0
-74 87 123 0
62 -109 115 0
15 -73 -153 0
-23 94 -174 0
-16 172 -173 0
-8 72 127 0
43 -44 -74 0
24 72 115 0
-57 -102 111 0
103 113 -171 0
69 114 -158 0
1 92 -109 0
-2 -33 91 0
-1 76 -82 0
51 136 171 0
1 69 126 0
18 -68 -83 0
141 -161 166 0
62 -114 152 0
-37 -50 135 0
-1 -97 -168 0
17 -71 130 0
-142 147 -164 0
6 101 -107 0
-18 -87 -102 0
62 77 -150 0
-28 29 59 0
31 146 -172 0
-80 86 154 0
-5 -7 12 0
22 -25 -132 0
52 -53 -87 0
23 -33 102 0
-15 46 50 0
-9 -92 109 0
-54 -57 -132 0
-12 -36 -130 0
83 -103 -167 0
5 33 95 0
-67 130 -138 0
41 -53 -174 0
-34 61 -98 0
38 -69 75 0
44 92 -137 0
132 -145 167 0
-27 31 75 0
-27 37 -130 0
35 58 -150 0
-12 -76 -148 0
-28 58 142 0
31 66 87 0
17 -82 -163 0
-26 45 -171 0
-16 -146 -148 0
-34 89 -104 0
-38 -97 -114 0
-1 130 -143 0
-17 -27 77 0
-26 -134 -154 0
-26 96 109 0
5 -109 -128 0
-96 132 160 0
-16 56 -129 0
28 -80 173 0
33 64 114 0
39 -86 -131 0
27 -65 94 0
31 -143 174 0
-78 -95 124 0
40 75 78 0
-12 56 65 0
-41 138 153 0
5 10 -150 0
-16 -47 137 0
-99 -104 -131 0
-132 -149 -155 0
-101 109 -118 0
-46 88 157 0
53 86 -171 0
41 65 -147 0
-58 85 -141 0
-30 129 -152 0
32 51 -111 0
22 -56 156 0
-16 29 -47 0
-69 140 141 0
-10 -130 -173 0
9 -53 -160 0
16 -23 124 0
-97 -109 125 0
-74 -90 -118 0
-37 -58 -81 0
-44 -93 -156 0
-87 -125 -156 0
-17 45 -94 0
-6 63 83 0
35 117 151 0
-96 -105 -171 0
29 -32 61 0
79 97 172 0
-47 67 -111 0
24 -66 -145 0
132 -133 146 0
-38 -157 163 0
-6 76 -141 0
-48 -111 123 0
-35 62 -111 0
-45 56 123 0
25 89 128 0
31 68 -82 0
89 -93 135 0
-2 47 58 0
-35 95 -122 0
32 -88 150 0
87 131 171 0
-57 142 -147 0
-53 60 -143 0
-83 118 -125 0
69 -165 166 0
15 -70 -81 0
59 -83 94 0
-24 -25 114 0
11 29 40 0
85 129 -143 0
62 -72 -156 0
-27 -76 167 0
-39 -168 170 0
-13 68 153 0
53 -63 -136 0
-22 117 -140 0
9 -64 -92 0
75 -79 -136 0
-50 -96 -113 0
-11 -15 -25 0
-13 16 -103 0
-93 -111 -133 0
-15 -92 129 0
-13 -157 -163 0
-1 -62 -114 0
13 -114 -167 0
3 -41 -69 0
67 -122 -150 0
-82 110 163 0
13 57 -164 0
61 82 -90 0
38 -42 141 0
58 63 -110 0
46 127 166 0
-66 -153 -156 0
82 139 -155 0
4 -8 -28 0
-78 -116 166 0
101 127 166 0
32 -52 -73 0
-25 -51 -96 0
-30 -54 116 0
-11 -28 88 0
81 101 -143 0
13 -46 63 0
45 63 -124 0
-103 117 138 0
-63 -73 105 0
32 -96 -151 0
-22 -26 74 0
53 120 137 0
-52 84 87 0
47 -54 -65 0
-37 -45 -74 0
-77 104 -167 0
-10 -28 -131 0
72 128 -130 0
-3 -64 -77 0
-61 68 -137 0
80 -150 -159 0
-19 -93 -156 0
2 39 -174 0
28 -125 152 0
-80 -111 -165 0
-2 -35 62 0
91 92 -139 0
29 44 -161 0
-99 -109 -144 0
-77 96 134 0
-103 150 -152 0
-20 -128 135 0
9 34 156 0
33 -83 -164 0
5 8 -97 0
-13 -65 110 0
-6 36 -43 0
22 -125 160 0
-28 78 83 0
-50 98 99 0
37 -63 -147 0
12 -53 -101 0
79 119 -156 0
41 -69 141 0
-27 -35 -75 0
60 -169 172 0
11 38 102 0
-23 -25 94 0
91 116 130 0
-13 -54 -162 0
17 -126 -171 0
-4 113 144 0
136 -152 155 0
-120 -122 -171 0
-76 109 -111 0
-21 -52 -92 0
-16 101 -150 0
-9 -156 173 0
-16 -162 -170 0
-47 49 151 0
22 37 90 0
106 150 170 0
28 68 149 0
18 -103 161 0
29 109 -140 0
-84 142 -157 0
58 -86 -89 0
53 -113 134 0
99 110 -151 0
37 -111 126 0
-22 -94 -154 0
-10 -21 -32 0
123 129 142 0
-42 145 159 0
-28 -91 -124 0
60 -93 -172 0
-73 -91 107 0
87 -127 -161 0
31 -52 -53 0
-17 67 174 0
1 -66 -108 0
24 -163 171 0
-24 -71 -170 0
-29 82 116 0
-83 134 -149 0
21 -100 166 0
76 111 -138 0
66 134 -148 0
-22 48 -112 0
-40 153 -175 0
-7 10 171 0
-22 92 -171 0
-66 88 -153 0
-9 -57 165 0
-52 74 78 0
23 -112 164 0
-42 99 -171 0
-38 119 159 0
1 -101 113 0
90 -162 170 0
-1 -25 -166 0
48 54 71 0
-67 -83 -113 0
-22 121 123 0
-13 142 -172 0
107 -117 -122 0
-15 102 129 0
92 95 147 0
32 -71 -137 0
11 14 -163 0
9 49 168 0
-13 33 104 0
122 131 137 0
49 -123 128 0
-25 -26 -60 0
113 116 -152 0
-74 -132 -163 0
-46 90 -153 0
48 87 88 0
4 77 125 0
-19 69 122 0
21 -33 108 0
42 50 151 0
-49 -105 130 0
110 114 143 0
26 121 -137 0
-41 -112 113 0
-48 124 151 0
30 -130 169 0
-7 24 174 0
126 -146 -175 0
-38 60 -125 0
-13 119 -164 0
-14 69 -139 0
58 -120 164 0
-156 167 -169 0
44 63 -97 0
-88 -152 156 0
11 -31 117 0
-23 -128 165 0
15 104 -129 0
-2 54 159 0
42 123 -163 0
-68 -109 -167 0
-37 -59 -127 0
56 -68 99 0
67 71 163 0
-38 42 55 0
-1 25 98 0
-14 102 -166 0
-134 160 -163 0
-55 98 -133 0
-2 -30 36 0
38 -87 -145 0
79 99 -156 0
2 -46 74 0
121 -145 -161 0
-55 78 -100 0
-135 144 168 0
28 124 139 0
-26 92 -108 0
-25 60 -135 0
11 48 97 0
-40 -124 141 0
-12 -35 -57 0
-63 -101 -146 0
10 -13 124 0
-146 165 -167 0
14 89 143 0
10 39 163 0
-107 125 163 0
-51 -108 132 0
54 -162 165 0
-27 131 -135 0
76 107 110 0
8 -38 141 0
98 132 146 0
-42 107 -142 0
31 99 136 0
-66 -83 144 0
26 -110 128 0
-61 85 -101 0
-27 155 -171 0
16 63 116 0
74 -85 171 0
39 50 -153 0
16 -28 40 0
-15 18 99 0
80 131 140 0
-21 -45 -107 0
32 -128 141 0
-36 -101 -136 0
41 50 -139 0
-41 -94 -140 0
47 51 140 0
-27 -145 -153 0
-96 -102 -116 0
58 -85 126 0
39 79 140 0
-34 109 160 0
-38 -45 142 0
80 -82 -85 0
3 39 -61 0
69 117 -165 0
-1 -65 149 0
-97 -111 -123 0
-35 -128 -146 0
-32 -46 58 0
-150 -160 171 0
6 17 -142 0
43 118 -163 0
-70 123 -124 0
-128 132 169 0
-128 135 -161 0
8 82 105 0
-34 52 -126 0
-117 121 -174 0
22 134 152 0
1 -18 -61 0
29 41 -119 0
-37 -51 80 0
23 -30 -78 0
-38 -125 129 0
50 -88 -134 0
-51 112 155 0
29 -92 -169 0
4 -18 73 0
-3 -125 -145 0
50 -101 108 0
-31 -70 -161 0
-31 52 -105 0
-12 61 -92 0
-79 -122 126 0
42 145 -174 0
156 -166 167 0
140 156 -158 0
