c F1 random 3-CNF cnfgen RandomKCNF(3,225,959,seed=11) m/n=4.26
p cnf 225 959
-116 -144 222 0
-48 132 206 0
37 78 -115 0
116 168 190 0
10 16 -49 0
84 113 -152 0
2 -128 -170 0
105 -142 -216 0
-59 132 195 0
-28 145 -197 0
5 18 99 0
-14 -97 121 0
-51 -145 162 0
-4 80 86 0
26 64 -181 0
46 -125 205 0
-34 -188 197 0
55 -102 -108 0
-6 48 54 0
-38 55 -114 0
76 99 213 0
54 150 -163 0
96 -117 160 0
47 -99 222 0
64 157 210 0
100 -124 176 0
-10 27 -28 0
-66 -108 211 0
18 -33 185 0
53 55 -72 0
64 106 115 0
73 95 -136 0
36 85 116 0
-92 122 180 0
-20 154 -163 0
19 -35 -82 0
12 -181 -189 0
22 -122 176 0
128 -147 -222 0
4 150 156 0
-30 -66 -164 0
-149 -178 -189 0
22 -139 215 0
6 -59 -124 0
-3 66 95 0
-44 -133 -193 0
-62 84 -104 0
194 206 -207 0
57 82 150 0
90 128 -215 0
-29 -44 -211 0
-55 -106 -213 0
-184 -215 216 0
9 -72 -213 0
80 167 -203 0
-7 49 117 0
13 -162 204 0
-138 162 168 0
-52 122 211 0
121 137 194 0
70 -89 200 0
-23 106 -185 0
51 -117 -161 0
84 119 167 0
55 -63 -100 0
68 -184 220 0
-10 -88 -113 0
8 -56 208 0
45 -86 137 0
-133 -186 216 0
-57 113 -195 0
80 -98 172 0
-70 135 -140 0
30 -129 138 0
-12 133 -138 0
24 -43 -177 0
69 -104 -205 0
-33 -87 112 0
50 -108 159 0
6 180 200 0
-4 -59 -176 0
63 -128 159 0
-131 160 -219 0
-6 97 163 0
137 162 222 0
-60 161 -190 0
50 81 155 0
34 -35 -62 0
-25 112 214 0
104 161 176 0
-92 146 -175 0
129 176 -214 0
-7 10 28 0
30 48 -53 0
25 149 -173 0
-20 -25 -196 0
-91 110 -132 0
4 163 180 0
-93 -105 117 0
25 -43 155 0
-181 206 -216 0
-67 196 207 0
-35 -104 -209 0
47 104 196 0
-78 88 205 0
92 160 -164 0
77 -87 171 0
-20 100 137 0
102 148 196 0
-61 -66 190 0
-51 166 195 0
-65 -67 71 0
114 164 -208 0
41 -99 121 0
-108 -110 -127 0
-74 -94 -136 0
-170 184 192 0
63 150 -198 0
100 -176 -194 0
-13 149 186 0
-110 123 185 0
-26 134 208 0
30 -155 -181 0
31 -53 221 0
32 -94 -114 0
-68 -154 164 0
33 -75 188 0
-80 -129 -201 0
157 -176 186 0
49 64 129 0
-3 67 70 0
-27 57 139 0
42 -141 -174 0
-54 -91 -123 0
35 191 -215 0
160 -208 -211 0
67 -100 192 0
-153 -168 215 0
95 -110 -168 0
-21 -22 -140 0
77 199 -211 0
55 -155 -170 0
-178 -186 196 0
-57 -92 169 0
-83 -113 -182 0
-57 82 118 0
93 -94 -213 0
100 -150 -204 0
40 139 215 0
-117 195 219 0
15 -133 140 0
-167 206 -216 0
-22 140 -202 0
27 81 189 0
-25 191 209 0
-126 -134 -196 0
-87 90 -207 0
125 138 -207 0
-171 194 -212 0
23 -119 214 0
-29 108 206 0
-42 163 -190 0
-53 -100 109 0
79 -121 188 0
-16 46 -199 0
10 81 205 0
56 -92 151 0
-48 72 -114 0
-141 -161 -210 0
88 -104 170 0
13 -56 -103 0
15 169 -202 0
96 -116 204 0
-41 107 -198 0
133 -208 223 0
39 147 198 0
39 211 -217 0
70 -158 -184 0
-22 151 192 0
50 -107 175 0
-10 106 -140 0
80 -81 -104 0
-18 171 184 0
-28 101 -171 0
-4 97 -222 0
30 118 145 0
-75 -97 -161 0
-23 143 171 0
-29 -97 -188 0
-121 -145 -186 0
24 27 37 0
47 -50 103 0
9 26 -59 0
-19 -105 198 0
53 -166 -197 0
85 -106 -160 0
63 -202 -203 0
-49 79 -88 0
-53 86 131 0
-65 138 -197 0
129 132 157 0
7 146 161 0
-63 -123 -148 0
-24 -93 224 0
35 116 -187 0
-44 191 210 0
-1 74 -212 0
43 -48 213 0
47 -104 -201 0
152 158 164 0
9 -106 120 0
-45 104 -146 0
63 86 146 0
104 -128 -154 0
-106 -160 -177 0
-119 -215 219 0
-30 -135 -145 0
-7 -14 -83 0
-83 153 193 0
32 -115 217 0
27 -122 -178 0
-18 -61 188 0
-57 167 192 0
26 134 -203 0
-1 63 -76 0
-17 -45 113 0
92 150 -178 0
-8 -81 -117 0
37 121 -199 0
16 -178 -220 0
5 45 121 0
-13 -28 -167 0
108 -183 -223 0
21 -44 107 0
-51 177 182 0
-76 -129 171 0
-59 133 152 0
34 -71 164 0
19 113 -136 0
65 109 -138 0
49 -63 194 0
39 -48 -203 0
1 16 -128 0
83 -124 169 0
153 198 -200 0
-61 113 -172 0
-57 -126 140 0
52 -153 183 0
39 -84 -156 0
-114 129 186 0
30 46 146 0
-11 -80 -109 0
23 -167 -211 0
-41 64 -128 0
94 106 120 0
126 194 -195 0
11 134 -191 0
-24 -37 -135 0
9 -20 -109 0
31 -142 -219 0
-23 -59 94 0
11 -42 104 0
101 -119 -221 0
-13 -56 201 0
48 -141 204 0
-55 -103 -153 0
115 -126 161 0
99 108 -139 0
71 93 -159 0
101 -132 146 0
-15 40 93 0
31 -186 -215 0
-22 -116 -219 0
133 -198 -225 0
62 126 156 0
33 132 -153 0
106 -109 -123 0
-116 171 186 0
-72 -137 214 0
-99 133 222 0
75 89 95 0
-7 192 -218 0
18 -170 172 0
96 -199 223 0
-31 -110 205 0
-85 -99 -126 0
41 -57 104 0
90 171 -183 0
-39 -109 -206 0
6 -101 180 0
-14 -70 -104 0
-84 121 185 0
-10 -83 -89 0
-48 -172 -209 0
8 93 148 0
-106 139 -159 0
-18 -119 -213 0
-10 -35 -206 0
6 93 -122 0
59 67 175 0
1 -101 140 0
-144 -160 -211 0
5 -27 81 0
42 -50 -212 0
-76 -145 -207 0
-94 172 192 0
84 93 181 0
-18 27 -210 0
-132 174 198 0
-106 160 -222 0
-65 -102 -130 0
-95 175 -184 0
53 -195 220 0
-160 190 213 0
-52 97 160 0
4 -121 -150 0
-65 -108 162 0
13 41 183 0
74 -92 -188 0
-7 139 -214 0
-18 80 -113 0
105 -159 185 0
73 -140 205 0
-28 -143 -214 0
31 -39 83 0
-71 -103 161 0
-21 -52 124 0
-2 17 39 0
47 87 -124 0
-9 -107 124 0
-56 -141 158 0
-64 75 222 0
7 44 -220 0
-7 92 -193 0
-3 17 -54 0
-63 -203 -208 0
137 -206 -212 0
-105 181 216 0
-37 -59 -148 0
-71 -130 -169 0
-18 72 -80 0
55 86 190 0
-34 140 191 0
28 -40 -89 0
6 -47 111 0
25 83 104 0
18 -83 -194 0
-57 122 -128 0
-18 100 -174 0
-3 38 135 0
-89 113 158 0
-177 -190 -215 0
99 -108 215 0
-9 -132 -136 0
12 -152 153 0
-85 -120 138 0
-121 142 189 0
29 126 193 0
30 -205 -213 0
17 -48 -223 0
-90 133 207 0
-51 -110 222 0
-19 -28 143 0
19 128 205 0
46 -94 208 0
-57 89 -222 0
47 -100 -158 0
19 -23 167 0
-111 144 -172 0
-81 180 217 0
33 -47 197 0
-30 -34 -72 0
3 51 -79 0
-80 198 223 0
-19 -69 -162 0
35 72 -117 0
107 -132 181 0
-32 73 -224 0
58 -100 123 0
-17 -115 -164 0
-73 -113 150 0
63 -157 -173 0
-34 -152 -222 0
27 72 -88 0
-23 54 -203 0
-8 152 186 0
19 -93 -121 0
123 167 172 0
102 111 203 0
-18 119 168 0
95 -128 213 0
22 190 -204 0
-170 188 -208 0
-5 -40 120 0
28 90 -106 0
32 130 145 0
-23 -131 -170 0
-63 -64 200 0
56 116 -151 0
27 36 218 0
105 -157 159 0
40 -59 205 0
76 -136 159 0
77 -127 -140 0
-21 55 -77 0
53 85 -126 0
-69 77 -161 0
-22 -110 -203 0
-86 111 167 0
80 136 -214 0
83 103 -141 0
-9 81 -93 0
-3 96 188 0
92 -152 -177 0
54 -78 216 0
-31 128 133 0
-55 -65 -151 0
23 74 -103 0
-58 65 -213 0
-39 -40 210 0
-13 126 196 0
88 164 184 0
-123 -189 211 0
-22 45 -201 0
-115 174 -194 0
82 187 -189 0
141 171 -213 0
80 168 177 0
83 107 138 0
-71 121 -224 0
-52 -97 -173 0
-100 177 205 0
83 150 -198 0
-42 -167 -211 0
-116 -148 151 0
-102 124 -181 0
-60 -67 162 0
-17 -66 206 0
55 111 -184 0
-100 117 136 0
48 -159 193 0
9 -91 -179 0
-39 -115 126 0
40 64 -201 0
31 42 -196 0
84 -94 -177 0
29 64 -92 0
-74 76 -171 0
20 -70 -125 0
-39 131 224 0
23 -140 -157 0
-14 110 -200 0
-95 116 -176 0
90 145 187 0
148 -169 191 0
27 -31 -145 0
37 91 224 0
8 106 -147 0
48 -135 -174 0
-27 51 -181 0
-21 50 178 0
-35 66 -77 0
39 -139 224 0
-126 156 204 0
41 133 197 0
77 -78 223 0
39 48 -213 0
-18 56 -204 0
-57 -86 90 0
62 -68 -198 0
-91 134 -173 0
39 -45 -52 0
-57 123 201 0
-157 -168 174 0
48 -60 -80 0
53 186 190 0
21 -176 196 0
12 -107 -143 0
-18 19 -214 0
172 -201 203 0
74 -98 144 0
-9 14 -128 0
18 37 -41 0
58 82 88 0
82 183 206 0
35 -174 -180 0
-31 96 187 0
48 89 -186 0
47 -83 -150 0
-135 196 206 0
5 -58 168 0
42 -85 -164 0
-118 -154 -203 0
-10 38 -49 0
103 -150 196 0
12 45 103 0
-57 109 -205 0
7 47 -88 0
-11 -67 -87 0
82 -160 191 0
-107 -149 -157 0
60 -86 -126 0
-44 186 -196 0
-41 87 180 0
89 -123 -144 0
-1 -170 -176 0
-128 147 217 0
-82 128 164 0
-7 72 138 0
13 -72 205 0
50 -66 -163 0
-15 -19 143 0
-75 81 216 0
-115 177 214 0
-183 -187 205 0
-31 122 209 0
-6 -132 -208 0
17 165 -222 0
-74 -100 224 0
-157 178 199 0
-105 112 -223 0
126 -127 -164 0
-6 11 42 0
159 168 -199 0
70 81 -120 0
-27 -176 198 0
-7 -75 137 0
28 -72 86 0
10 -25 221 0
-52 74 -149 0
-18 84 -102 0
-76 135 -221 0
61 122 -203 0
-111 -122 -176 0
4 23 136 0
-39 -48 -158 0
166 197 -205 0
-16 28 -111 0
15 -19 -141 0
113 -158 -178 0
147 -191 201 0
-158 175 222 0
33 145 -182 0
5 -99 -104 0
28 -54 -159 0
-31 86 164 0
-185 -214 222 0
9 -66 -203 0
-54 94 -170 0
55 -81 -112 0
-23 -160 -198 0
-97 169 174 0
-59 -76 186 0
58 -77 -168 0
-5 -107 -216 0
24 -98 -158 0
51 -112 192 0
-56 211 -215 0
-94 -149 -192 0
-144 175 181 0
-35 193 -200 0
-88 -146 194 0
-127 -161 -204 0
26 -38 -174 0
113 -136 -143 0
14 111 -195 0
-44 140 -178 0
-38 71 -181 0
102 -104 169 0
7 46 53 0
49 -68 190 0
-8 -150 179 0
-93 -160 181 0
-122 180 -217 0
-146 -202 208 0
-58 141 -155 0
111 113 202 0
-91 122 -155 0
-58 -219 224 0
59 127 184 0
-12 -25 -83 0
-17 27 204 0
12 -70 142 0
74 120 -200 0
1 -64 -93 0
-4 -5 -67 0
45 69 152 0
25 -121 -217 0
129 -178 -184 0
-68 -93 130 0
-6 -73 76 0
-11 -166 204 0
-95 -215 -223 0
24 102 129 0
-29 -64 -137 0
-10 75 221 0
-4 38 -222 0
112 144 152 0
-63 119 -191 0
-140 167 208 0
57 169 185 0
80 86 196 0
49 68 209 0
9 89 186 0
-42 -122 190 0
30 82 -163 0
-99 -169 211 0
107 127 -168 0
52 70 -173 0
-48 -61 178 0
-163 -167 -172 0
-2 -16 106 0
13 65 -136 0
-96 -143 156 0
152 156 165 0
128 -169 197 0
11 125 186 0
49 -99 -120 0
-42 191 -195 0
-18 38 212 0
-8 62 225 0
-12 36 183 0
47 -59 74 0
19 52 112 0
-138 -203 212 0
97 -146 192 0
11 79 -122 0
-3 -109 -202 0
-34 -42 171 0
-11 -68 -168 0
63 193 -201 0
-88 219 222 0
-107 -190 222 0
-124 168 -215 0
104 128 145 0
-112 149 -161 0
-50 -100 156 0
48 -68 94 0
-98 143 156 0
-1 -161 -177 0
7 -130 164 0
-46 -124 -206 0
-69 82 -144 0
-186 190 201 0
33 154 -158 0
47 -106 217 0
10 -26 -95 0
-66 -141 176 0
15 -165 166 0
8 26 151 0
33 -90 137 0
-96 -167 172 0
-14 -174 -221 0
-74 -163 199 0
-3 -113 122 0
16 -69 -131 0
-25 175 -203 0
-108 -130 -156 0
-102 123 175 0
12 103 -180 0
39 109 146 0
-76 -114 -167 0
3 55 -187 0
34 37 42 0
40 -146 -173 0
-14 47 -155 0
37 109 181 0
-86 121 167 0
-46 -121 -155 0
54 -107 199 0
-47 118 -159 0
11 204 -210 0
-44 64 -142 0
-63 87 -195 0
17 31 131 0
-63 -108 -212 0
20 51 95 0
-24 -33 180 0
-96 106 -166 0
-91 120 -144 0
99 -165 -175 0
26 -81 -146 0
30 163 -180 0
126 195 200 0
91 -122 -180 0
-72 79 207 0
-146 -164 206 0
4 31 108 0
-62 -117 -120 0
-9 -108 -133 0
35 93 -160 0
24 162 207 0
46 -106 -158 0
-21 76 -148 0
34 81 -200 0
-132 191 207 0
13 -191 221 0
36 -113 -120 0
-27 86 -217 0
24 97 -141 0
69 -166 -197 0
-53 -134 168 0
-16 66 173 0
-51 146 153 0
98 -167 -214 0
-46 180 194 0
43 94 110 0
-33 122 216 0
-73 -166 -217 0
-7 -120 -199 0
38 146 -179 0
9 -92 145 0
8 -90 215 0
30 80 -95 0
46 -48 87 0
114 196 197 0
-49 -52 97 0
78 -189 -216 0
23 -91 121 0
77 88 -154 0
52 -58 -206 0
-20 114 215 0
107 208 -222 0
-74 -75 207 0
-153 210 -220 0
-63 -104 188 0
17 -128 -199 0
-70 -75 -140 0
5 -117 -173 0
-24 97 204 0
76 77 195 0
8 124 -206 0
2 114 -138 0
-26 103 -202 0
-70 99 -193 0
119 137 -149 0
2 -34 97 0
126 -193 -195 0
-2 -58 85 0
105 119 182 0
-64 114 123 0
98 -119 149 0
70 142 -173 0
-99 -106 132 0
5 80 153 0
-118 -124 -165 0
5 34 168 0
26 61 169 0
68 -141 -224 0
121 -149 -184 0
-135 155 170 0
45 55 66 0
-105 180 216 0
-12 16 -101 0
-52 -173 -219 0
-16 -18 -164 0
-39 53 116 0
1 63 102 0
107 178 210 0
79 -158 188 0
-19 87 164 0
-120 156 -171 0
4 -118 -199 0
-2 -16 -166 0
51 152 -219 0
102 -163 -182 0
-16 -102 146 0
-25 -177 225 0
-24 -131 154 0
87 -160 176 0
-4 -84 -135 0
-87 -126 219 0
73 -90 -105 0
15 34 89 0
-28 -146 212 0
-81 99 -131 0
18 -99 211 0
-44 -56 -78 0
144 -171 -217 0
23 -149 154 0
33 132 177 0
-16 -198 -217 0
-8 115 180 0
-30 120 -174 0
85 -185 -198 0
-74 -177 222 0
94 102 198 0
-24 26 -193 0
-13 -42 -181 0
22 60 70 0
-8 -41 -218 0
-81 95 -141 0
-8 27 119 0
-33 60 180 0
-40 76 129 0
-14 127 139 0
44 76 -175 0
-22 222 223 0
62 111 -158 0
15 -77 137 0
-68 190 207 0
-101 148 -211 0
-62 138 -183 0
-32 -51 58 0
-23 -131 142 0
-14 -31 136 0
-17 44 186 0
33 -63 -121 0
30 107 -165 0
-7 35 -153 0
-37 103 116 0
-170 175 -207 0
187 -207 -213 0
-15 -52 -114 0
-35 -71 75 0
70 78 197 0
-21 -94 119 0
-22 -190 -219 0
15 -203 204 0
118 175 185 0
-21 131 168 0
20 -28 212 0
71 211 215 0
25 89 -111 0
-12 -41 56 0
53 -55 121 0
-24 207 212 0
88 90 148 0
-72 -136 192 0
67 -191 223 0
-7 143 -150 0
30 188 198 0
18 -26 -49 0
1 49 94 0
83 -150 -158 0
64 101 165 0
-31 63 -94 0
133 156 211 0
-32 -75 148 0
-6 -76 -148 0
46 157 -203 0
2 52 212 0
-45 -135 184 0
76 -119 130 0
-77 150 -158 0
-79 -96 196 0
-38 -92 130 0
23 99 -113 0
152 -184 -193 0
-155 -163 215 0
141 -173 -221 0
124 -187 -191 0
7 43 77 0
44 -133 146 0
116 167 -220 0
-20 164 -202 0
74 -95 113 0
-145 -154 203 0
-70 154 175 0
-74 89 -125 0
54 -60 -113 0
-70 120 154 0
-140 -159 -175 0
-112 -128 -183 0
-101 -113 223 0
112 134 141 0
24 32 -92 0
-8 46 -202 0
6 43 -84 0
81 122 126 0
-62 -154 -173 0
-29 -123 -185 0
-41 -52 -58 0
15 60 151 0
-48 85 130 0
-3 151 -177 0
62 117 -124 0
22 166 191 0
12 22 -139 0
-151 -197 204 0
119 -174 221 0
-180 193 215 0
27 200 209 0
-48 -144 160 0
-95 -111 209 0
68 -103 -127 0
82 -105 -177 0
57 -91 -198 0
-38 -132 -213 0
-5 -64 -82 0
-27 -142 -183 0
-77 110 -194 0
40 -147 162 0
33 192 -217 0
-4 95 187 0
120 -141 197 0
6 -130 200 0
146 155 205 0
-18 -49 -198 0
-107 -145 -163 0
-137 213 216 0
198 212 222 0
64 -74 -170 0
-45 62 110 0
-81 82 -120 0
148 -162 -194 0
-115 -133 174 0
69 -107 -213 0
-3 -72 208 0
-20 175 203 0
18 77 -89 0
-58 86 -127 0
-16 -66 -197 0
18 -146 185 0
-95 154 -223 0
53 -59 -120 0
-62 121 -149 0
108 -142 149 0
-7 -31 100 0
-96 -156 -169 0
182 191 -217 0
46 103 175 0
-78 95 -99 0
63 78 -93 0
-24 -75 170 0
-27 -53 -110 0
-44 106 116 0
-84 -94 146 0
-20 126 -194 0
14 186 -216 0
61 -158 -176 0
-63 -70 -136 0
16 -63 -83 0
177 183 211 0
60 -78 -97 0
30 96 179 0
21 -125 187 0
-77 -112 -201 0
8 -177 211 0
-28 168 212 0
-68 117 -217 0
38 123 -154 0
114 137 -174 0
-29 -146 -204 0
-62 -74 -201 0
-1 101 120 0
-99 201 225 0
-112 148 -204 0
116 -168 -173 0
60 110 135 0
-122 -157 -197 0
102 -116 194 0
70 143 -180 0
-12 -21 169 0
46 -81 106 0
-158 182 -217 0
28 -47 222 0
-43 69 118 0
11 82 -166 0
