c F1 random 3-CNF cnfgen RandomKCNF(3,75,320,seed=8) m/n=4.26
p cnf 75 320
30 48 49 0
11 -18 32 0
-50 59 -63 0
12 -30 -63 0
-15 49 61 0
14 -49 50 0
12 64 67 0
5 63 -70 0
-37 -57 75 0
-13 -21 -69 0
26 -40 -65 0
10 -65 66 0
2 -38 44 0
-33 -49 55 0
15 22 51 0
-2 -15 39 0
30 -56 -73 0
11 -53 54 0
-5 11 -14 0
9 20 -25 0
-16 -50 -74 0
1 47 64 0
-23 -44 75 0
-11 -26 29 0
-14 16 -49 0
-12 -61 -66 0
7 -26 29 0
1 -14 -28 0
12 65 -68 0
50 67 -68 0
-11 38 -42 0
-11 -54 -71 0
14 -38 -46 0
40 -49 -75 0
-46 -50 68 0
63 -65 68 0
-9 35 -64 0
-36 -38 -65 0
-32 47 65 0
-26 48 68 0
-11 22 50 0
3 25 -34 0
37 59 -73 0
5 9 -41 0
-5 10 -30 0
9 -42 -46 0
21 -33 50 0
13 -29 69 0
14 26 44 0
-22 42 -72 0
11 15 73 0
28 42 53 0
-8 -57 -58 0
-48 -73 75 0
35 -40 -61 0
-65 66 -69 0
18 -61 -63 0
-5 -48 -65 0
2 4 -19 0
17 -55 75 0
-14 46 -48 0
-22 -31 -62 0
5 -48 55 0
-5 -30 -66 0
-23 61 -72 0
-3 -37 -57 0
-38 52 -64 0
18 -44 -57 0
-47 61 74 0
5 -19 65 0
19 33 52 0
-5 -28 57 0
-1 -3 17 0
-6 28 -43 0
1 -13 -31 0
15 55 65 0
-7 -45 56 0
-4 -9 37 0
-8 -29 -51 0
-3 36 67 0
15 -25 64 0
-11 -45 -56 0
18 22 -61 0
21 -31 72 0
-17 44 -73 0
19 -42 74 0
-41 46 52 0
50 -53 -58 0
3 -26 -71 0
14 62 75 0
11 36 57 0
-8 -10 -43 0
21 -36 -63 0
32 -70 -75 0
21 61 -67 0
-38 70 -73 0
24 -39 -71 0
-8 52 68 0
-57 61 -71 0
9 38 -71 0
13 16 -71 0
31 -42 73 0
-4 -49 67 0
63 67 -68 0
33 43 48 0
-55 63 73 0
-4 -17 -46 0
-15 -55 -67 0
10 -17 24 0
20 36 -72 0
-12 -22 -47 0
18 29 49 0
9 -21 -29 0
-12 -50 70 0
-50 -57 -64 0
6 30 -40 0
-2 34 55 0
9 63 70 0
13 -18 -41 0
46 65 69 0
31 -36 66 0
-3 -15 25 0
29 -35 -65 0
49 -66 -68 0
3 21 -35 0
19 39 71 0
-6 -17 -67 0
34 -39 -45 0
-30 57 -67 0
-1 37 -74 0
-1 -2 75 0
1 -2 -17 0
29 -49 -72 0
-38 -52 67 0
-42 -50 -68 0
8 26 -69 0
-32 -41 54 0
-31 -39 -54 0
8 43 -63 0
21 22 -30 0
30 67 -74 0
-5 20 -38 0
-13 66 68 0
-7 -15 -45 0
8 -18 74 0
-4 -57 60 0
-8 -47 -60 0
18 35 55 0
-25 43 -68 0
-31 -38 -40 0
-1 2 8 0
14 -30 70 0
24 57 -64 0
-7 37 -71 0
-40 48 65 0
-8 -10 30 0
-15 -56 71 0
-18 -41 -54 0
-10 -63 -66 0
-40 -42 -54 0
-1 10 32 0
2 5 -18 0
27 -38 -58 0
-20 -39 -63 0
-24 38 52 0
3 29 53 0
-13 -23 34 0
-32 -49 -75 0
-1 4 21 0
-16 -46 58 0
5 -10 -37 0
8 43 54 0
17 -58 -61 0
-35 -50 -67 0
3 -28 -44 0
-12 24 40 0
34 -61 -75 0
-20 -26 -72 0
6 -36 66 0
11 27 60 0
17 35 -72 0
-20 -45 64 0
-4 -52 56 0
-30 -48 53 0
-6 16 -57 0
17 -28 -43 0
-3 -11 21 0
5 45 -68 0
17 -24 49 0
-6 45 47 0
43 62 -63 0
-29 64 -72 0
15 -20 46 0
6 -24 28 0
-16 38 74 0
17 37 -64 0
-23 -40 -54 0
-9 41 -45 0
52 53 69 0
-30 -52 57 0
7 -18 19 0
9 -48 66 0
7 47 69 0
40 46 -66 0
-9 23 -45 0
7 28 -53 0
-18 -21 45 0
-14 -33 69 0
-20 69 73 0
-3 -35 -40 0
15 33 -57 0
2 20 -34 0
9 -10 -72 0
49 -62 -66 0
-28 -56 -68 0
-1 -19 34 0
13 38 69 0
-40 53 70 0
24 52 -61 0
9 -13 31 0
-18 25 -57 0
-5 -36 -43 0
6 -24 47 0
30 38 -42 0
3 -20 65 0
-17 -28 -31 0
3 -12 60 0
16 -38 -53 0
40 -60 74 0
-14 29 72 0
-25 -33 -65 0
12 15 19 0
-2 -30 70 0
-29 -39 -72 0
-49 -54 69 0
6 9 28 0
4 65 72 0
-20 -26 68 0
47 -66 70 0
56 -70 -72 0
-18 -55 -66 0
8 -38 74 0
-14 32 62 0
12 51 59 0
12 -29 44 0
-19 -27 -40 0
-10 -12 48 0
19 34 51 0
3 -13 74 0
-3 -14 43 0
2 -19 -73 0
-45 -55 -70 0
11 12 -48 0
6 -46 74 0
-5 9 51 0
12 44 64 0
1 -42 60 0
-13 19 71 0
-41 -51 72 0
-16 29 -44 0
-60 62 74 0
-41 -42 48 0
-40 53 -72 0
17 31 -63 0
-33 67 -70 0
-5 -27 29 0
31 65 66 0
35 49 58 0
64 65 74 0
9 39 -48 0
-27 -35 75 0
25 37 65 0
-49 -63 72 0
69 73 74 0
-31 -54 69 0
16 48 -61 0
19 24 70 0
-7 42 62 0
-13 -16 -59 0
8 -18 61 0
-20 -25 71 0
18 -20 -38 0
-4 -19 65 0
-6 -57 -65 0
-36 -59 66 0
3 -21 39 0
64 -73 -75 0
-16 68 -73 0
-1 14 -69 0
-9 29 -54 0
2 53 -67 0
23 35 -44 0
-18 -34 -37 0
1 3 -62 0
2 -18 -69 0
-1 -24 48 0
-6 -11 16 0
-34 -56 58 0
-4 16 -75 0
-3 -35 39 0
1 -60 62 0
-33 -64 75 0
18 44 -70 0
4 -9 -67 0
-25 -63 -64 0
-51 62 -68 0
-33 36 68 0
-6 18 -34 0
16 -38 -50 0
-15 -22 -53 0
-15 -33 -34 0
24 -63 66 0
12 46 47 0
-5 -22 34 0
36 -37 46 0
20 35 67 0
57 -59 -73 0
-7 -10 -63 0
23 -30 53 0
2 -46 -74 0
