c F1 random 3-CNF cnfgen RandomKCNF(3,125,533,seed=1) m/n=4.26
p cnf 125 533
18 -73 109 0
-58 -64 98 0
-4 -13 63 0
35 58 -90 0
3 -4 84 0
55 93 -125 0
64 -71 121 0
-29 -87 98 0
54 108 -118 0
-16 43 -96 0
-37 -76 125 0
-32 -62 96 0
-47 71 -113 0
14 -66 -85 0
-4 63 -94 0
-79 91 109 0
2 30 -65 0
-45 -66 -122 0
71 -78 85 0
67 -72 100 0
47 -62 -112 0
-46 54 -105 0
4 59 77 0
-12 103 111 0
-3 11 -112 0
15 -32 -35 0
-9 21 -22 0
-38 -83 -92 0
-4 -15 -61 0
-25 54 -102 0
66 -94 116 0
3 29 51 0
-58 65 -91 0
29 -68 -84 0
55 -81 85 0
28 -113 124 0
-10 40 -110 0
17 33 73 0
-73 116 124 0
26 45 -49 0
25 -64 -76 0
-3 -64 -65 0
-3 21 -26 0
28 -35 -55 0
-108 113 118 0
6 11 93 0
-28 -69 -117 0
-15 44 -48 0
18 -71 75 0
10 49 -53 0
-15 76 79 0
-11 -73 -122 0
69 -73 -119 0
-6 14 101 0
12 15 53 0
54 76 -101 0
22 31 -88 0
-49 -117 -124 0
-13 27 41 0
-2 -101 -119 0
41 51 -52 0
59 -77 125 0
-80 -100 -101 0
-24 27 70 0
-11 47 -105 0
-12 74 -84 0
-6 40 -124 0
-75 102 -109 0
13 70 79 0
-3 32 -104 0
10 71 112 0
-38 -97 -102 0
20 -110 111 0
66 86 122 0
-19 -106 111 0
-66 91 107 0
19 -70 117 0
23 39 56 0
-9 -33 -100 0
-57 70 -109 0
-22 -44 108 0
-83 102 120 0
46 75 89 0
-34 -36 107 0
-12 30 79 0
-41 65 68 0
-41 64 -88 0
-44 72 79 0
-10 98 118 0
-39 -40 89 0
60 90 -95 0
-20 23 33 0
-51 -64 88 0
6 -70 94 0
35 95 117 0
57 -109 -119 0
-22 -51 117 0
63 80 -117 0
53 -69 -77 0
32 49 -96 0
3 -4 75 0
19 -23 -37 0
-33 75 -97 0
54 63 -110 0
27 37 104 0
-2 73 96 0
-48 -65 -74 0
42 68 -98 0
-45 -58 -92 0
-88 94 -101 0
27 -49 72 0
-60 -77 119 0
58 -80 86 0
-50 -75 -87 0
75 -80 111 0
-82 84 -124 0
-20 -81 93 0
10 -99 -105 0
-53 91 -103 0
34 -63 107 0
-13 35 -66 0
9 57 85 0
-12 -52 89 0
-27 -31 68 0
-10 -90 107 0
-22 -39 84 0
51 -52 -72 0
43 -79 111 0
-4 -85 -109 0
-32 98 120 0
-22 81 -94 0
21 59 -68 0
-40 47 97 0
-27 88 92 0
-30 42 51 0
6 8 104 0
-64 -68 -91 0
16 79 89 0
-30 -52 64 0
-30 -31 -125 0
-28 -58 -92 0
15 76 117 0
-1 -2 -103 0
37 -75 109 0
98 106 113 0
19 -50 -113 0
-11 17 60 0
8 68 -69 0
16 56 100 0
-17 64 -82 0
-43 -50 81 0
8 -32 -76 0
72 -78 -90 0
-26 69 -92 0
79 -93 96 0
13 20 -125 0
6 -7 -110 0
6 13 -41 0
-17 -86 115 0
35 -68 -95 0
-5 11 -39 0
-17 -41 95 0
39 -87 110 0
-27 -65 -72 0
-75 115 123 0
58 -84 105 0
-26 48 -50 0
17 45 -74 0
-84 -103 -105 0
-35 41 46 0
-20 -41 118 0
-36 -58 -62 0
105 114 119 0
-7 63 -68 0
-47 -103 -121 0
44 60 77 0
29 33 88 0
53 99 -121 0
-14 27 92 0
10 102 -110 0
-3 -48 76 0
-26 77 -115 0
47 -58 87 0
-105 -108 125 0
-2 -69 96 0
-52 79 -113 0
1 -59 109 0
-16 -70 -106 0
-53 -68 -70 0
-17 39 65 0
-2 33 -82 0
37 52 54 0
-1 -50 -109 0
-48 -101 -102 0
-15 -59 103 0
3 -19 -54 0
-17 -76 -110 0
-37 -66 -121 0
-43 100 -117 0
-52 122 125 0
17 27 124 0
-14 20 -33 0
24 84 -93 0
7 -79 -123 0
7 -84 122 0
34 -36 88 0
28 -87 101 0
-38 -58 86 0
62 78 -110 0
79 90 -116 0
-54 -96 114 0
-80 -98 101 0
-2 -94 97 0
-57 70 81 0
35 -36 66 0
-17 25 33 0
-35 -53 -122 0
-28 -35 -63 0
23 -31 44 0
8 42 -65 0
-62 64 80 0
-18 90 114 0
69 82 107 0
-26 -29 -73 0
-1 3 100 0
-29 -36 -96 0
-3 16 43 0
33 99 -116 0
10 -12 -93 0
32 -35 68 0
-11 -18 119 0
-13 43 -87 0
-15 122 -123 0
-12 -52 -87 0
-29 39 115 0
15 66 77 0
36 -56 -115 0
-34 68 -121 0
-14 91 -96 0
70 -72 -109 0
17 20 88 0
-62 -103 -108 0
-20 -21 -109 0
-16 -19 77 0
2 -69 122 0
-4 -59 -100 0
-48 -53 120 0
13 61 100 0
15 -76 -107 0
-73 -101 117 0
80 104 -119 0
15 -21 -112 0
-45 94 -113 0
-46 -49 -54 0
31 90 -103 0
15 -87 -115 0
16 -91 97 0
50 -81 107 0
-13 32 -43 0
-48 61 -96 0
52 -57 -70 0
17 -20 -108 0
4 14 -103 0
-49 86 99 0
68 -106 125 0
51 -60 104 0
-32 70 103 0
31 44 85 0
3 -49 75 0
6 102 120 0
51 60 -100 0
-12 13 72 0
-2 -3 -100 0
22 -54 -93 0
54 -65 -103 0
-26 -64 104 0
34 36 -73 0
-19 -44 -119 0
-36 45 50 0
17 33 123 0
69 -75 103 0
-18 -71 74 0
11 81 120 0
-4 -52 96 0
17 76 -77 0
-18 -26 37 0
29 -39 -91 0
-12 38 -69 0
3 -38 -103 0
8 -33 80 0
17 104 -123 0
32 -76 82 0
91 -116 117 0
-75 92 105 0
-26 -98 104 0
5 35 -82 0
-36 -99 -124 0
13 64 86 0
-6 59 -97 0
-69 94 106 0
10 -87 -96 0
23 -25 -123 0
26 -30 47 0
6 59 -107 0
6 -61 75 0
-52 -66 -102 0
46 -61 116 0
-39 55 -76 0
-9 -78 -111 0
4 67 102 0
-13 -43 116 0
48 -75 82 0
-58 70 109 0
42 47 117 0
-14 -52 -76 0
-34 44 110 0
-32 -81 -99 0
74 80 101 0
-116 -120 122 0
-17 37 71 0
-13 36 -93 0
101 104 -112 0
38 44 -119 0
47 103 -105 0
21 -54 96 0
26 116 125 0
65 -76 -125 0
-8 -26 -101 0
-79 119 124 0
2 -5 63 0
2 30 98 0
26 -68 -122 0
-32 -63 -65 0
10 84 121 0
-39 -80 -88 0
3 -63 -120 0
-10 44 -83 0
-107 -108 -122 0
-22 -35 -107 0
2 -33 -40 0
-30 46 -115 0
43 -90 -119 0
-7 15 -83 0
70 -95 -97 0
-2 42 44 0
11 43 92 0
-38 -89 100 0
4 -83 -124 0
-38 49 54 0
30 53 121 0
-32 51 92 0
-39 93 -96 0
22 57 -64 0
-44 -56 71 0
-38 -75 83 0
40 -97 108 0
-29 -65 -112 0
7 30 101 0
7 38 119 0
8 55 87 0
-2 -5 69 0
2 -72 79 0
-35 38 75 0
27 51 -114 0
-5 42 43 0
24 65 73 0
23 29 -39 0
19 -93 113 0
-6 -30 96 0
12 57 76 0
8 16 26 0
101 -104 -122 0
55 68 -112 0
-25 -42 -98 0
-98 -112 119 0
-32 -55 120 0
15 78 -84 0
-36 -69 -114 0
-47 -53 -59 0
61 -66 123 0
22 39 73 0
59 81 83 0
-11 79 -105 0
-22 -41 -83 0
-10 -20 55 0
-20 88 109 0
5 62 -69 0
-47 -95 -124 0
-16 24 -84 0
79 92 114 0
-39 -108 109 0
7 -47 99 0
13 26 -125 0
35 65 114 0
-10 -40 -74 0
-24 66 -111 0
10 36 103 0
18 27 -99 0
-7 24 47 0
87 90 -112 0
-26 83 84 0
-28 41 114 0
-47 64 -110 0
-9 -41 66 0
44 -54 62 0
-83 85 110 0
-29 -42 -117 0
-40 -112 122 0
-21 38 82 0
56 -79 -119 0
-84 -93 -99 0
23 -42 87 0
46 -51 -67 0
20 62 107 0
10 -11 -95 0
42 -90 -118 0
-2 50 -71 0
-7 -93 -108 0
-31 83 -89 0
46 98 112 0
57 -107 -120 0
-23 -104 125 0
30 -74 114 0
-27 52 -66 0
-18 22 34 0
-95 104 -117 0
-59 60 -66 0
76 -101 108 0
-1 88 -105 0
49 -84 -92 0
-57 69 105 0
11 -14 93 0
-24 -51 57 0
-25 -76 -122 0
38 -45 117 0
4 100 113 0
-41 -58 109 0
-7 -50 -96 0
43 60 -65 0
-55 70 -111 0
19 45 125 0
-28 101 104 0
14 -55 90 0
-42 -48 72 0
-50 -63 -92 0
-50 -75 83 0
-13 24 -63 0
-14 -16 -69 0
-72 -87 -122 0
-42 63 89 0
26 31 -69 0
80 -98 -116 0
-4 -45 -121 0
-27 101 -116 0
50 51 -90 0
-84 116 124 0
-9 -79 106 0
38 -91 112 0
-12 45 104 0
69 -94 102 0
-42 49 56 0
21 22 125 0
57 -67 75 0
-43 78 109 0
23 46 -100 0
5 63 -76 0
-19 27 -73 0
45 -95 -115 0
4 60 68 0
89 -103 117 0
35 67 105 0
99 -103 -105 0
-14 -58 92 0
-48 -56 -83 0
48 56 124 0
3 -19 -31 0
57 79 101 0
68 105 -106 0
-36 101 110 0
-85 -89 -99 0
-7 75 -96 0
8 45 75 0
20 -56 122 0
-4 20 -37 0
-9 97 -102 0
65 70 -78 0
-70 78 -83 0
-62 -94 107 0
-9 27 76 0
14 46 114 0
1 56 -66 0
-8 -63 -79 0
6 -81 -86 0
-29 -35 -57 0
8 -35 -69 0
38 -75 -76 0
-86 -98 -124 0
-29 81 97 0
19 -64 -125 0
-40 108 109 0
18 -59 -65 0
-73 -94 117 0
2 -92 125 0
37 -60 101 0
15 -52 -73 0
-12 64 79 0
8 22 79 0
40 68 72 0
28 -30 -111 0
-18 35 79 0
34 77 -110 0
-37 -79 -124 0
9 104 108 0
-82 -106 -120 0
46 66 121 0
30 -104 121 0
42 58 -112 0
-20 89 -115 0
88 -94 -116 0
-34 100 102 0
49 -82 -89 0
4 69 -111 0
-13 -83 114 0
13 43 -67 0
-15 -23 -74 0
-52 71 -125 0
-19 112 122 0
-38 50 79 0
-35 -62 77 0
42 -101 121 0
72 -85 -94 0
-13 34 97 0
-53 91 -125 0
