c F1 random 3-CNF cnfgen RandomKCNF(3,150,639,seed=11) m/n=4.26
p cnf 150 639
-116 120 144 0
48 -122 -132 0
24 -37 -138 0
4 41 136 0
-8 -49 -62 0
-51 -60 133 0
-22 72 -118 0
-59 81 132 0
28 -103 -145 0
1 5 18 0
-97 102 121 0
-23 -70 87 0
31 35 105 0
16 120 -125 0
-34 -49 131 0
55 -102 -108 0
-6 48 54 0
-38 55 -114 0
19 76 99 0
-4 -63 -150 0
33 -124 148 0
40 59 80 0
-51 100 -142 0
13 -27 28 0
-66 -101 108 0
-18 33 -59 0
5 -53 -55 0
16 64 -115 0
95 136 -147 0
36 85 116 0
80 92 122 0
-18 80 124 0
-20 116 140 0
-22 88 -91 0
8 -128 -147 0
4 19 150 0
-66 -85 -107 0
22 -119 139 0
6 -59 -124 0
-3 66 95 0
-44 -88 133 0
65 -84 104 0
-55 57 99 0
35 90 -128 0
-29 -44 116 0
-98 -106 -134 0
-9 20 -83 0
80 91 -147 0
-7 49 117 0
13 -30 115 0
-51 52 122 0
10 121 -137 0
89 -134 139 0
23 -100 -106 0
-2 -51 -97 0
26 32 -53 0
-23 -80 138 0
22 -90 -130 0
-71 108 141 0
9 -17 110 0
-39 -121 133 0
-57 113 -135 0
-54 80 -98 0
-52 128 147 0
8 -97 138 0
24 -43 -126 0
-64 -69 104 0
-87 112 122 0
8 67 108 0
40 -50 -59 0
63 -91 128 0
-51 65 -131 0
41 106 136 0
-35 60 -139 0
50 56 81 0
-23 -34 62 0
108 112 -140 0
-5 -25 52 0
88 129 -130 0
-7 10 28 0
30 48 -53 0
16 -25 149 0
-25 -84 -101 0
54 96 111 0
-47 -105 -117 0
25 -43 50 0
-49 -104 -146 0
30 -41 -104 0
47 104 111 0
78 88 -121 0
-13 -60 70 0
47 -104 -146 0
31 55 102 0
-61 66 114 0
-3 -26 -97 0
-88 139 -141 0
-12 20 -141 0
44 -121 -127 0
-73 -108 -135 0
-74 -124 -136 0
4 7 -63 0
-14 81 -100 0
-19 -58 110 0
-12 26 134 0
-13 30 107 0
14 92 -136 0
-36 -107 -114 0
-36 94 136 0
-30 -124 -129 0
-49 70 145 0
51 64 129 0
67 70 109 0
57 72 139 0
-61 -96 -141 0
-54 87 88 0
-31 -55 -115 0
39 -95 -100 0
-48 110 -141 0
21 -83 -140 0
3 -77 119 0
-21 -78 127 0
-57 84 -92 0
-72 -113 -146 0
57 82 -103 0
-7 94 -102 0
40 100 139 0
6 73 117 0
-6 76 -146 0
22 -86 140 0
7 22 -81 0
-57 -63 -126 0
86 -87 -90 0
-12 -19 138 0
23 -97 119 0
29 38 -108 0
-43 -53 -83 0
-16 71 -121 0
-16 40 -46 0
10 28 -81 0
56 -61 121 0
-45 -72 -104 0
88 -104 125 0
13 -56 -103 0
-3 -15 -61 0
-41 64 -108 0
38 -67 133 0
39 46 147 0
-22 33 -91 0
-22 120 140 0
-24 50 107 0
-106 135 -140 0
80 -81 -104 0
18 20 -93 0
32 -114 -119 0
61 -76 145 0
-39 -53 -75 0
-23 101 143 0
-29 -85 -97 0
85 98 115 0
25 34 -46 0
10 24 119 0
-32 41 -112 0
36 110 -131 0
85 -106 -124 0
-5 -63 136 0
79 -88 113 0
76 86 -131 0
77 -138 141 0
51 133 147 0
-22 -35 -63 0
-24 -85 93 0
35 -62 116 0
32 -38 -86 0
62 93 147 0
9 104 -117 0
5 -41 -98 0
-9 37 -136 0
45 -87 134 0
14 86 -146 0
-27 -121 -128 0
-73 -119 125 0
-30 -135 -145 0
-7 -14 -83 0
18 79 -83 0
63 -102 129 0
-62 -135 140 0
-18 95 140 0
32 108 146 0
-32 138 -148 0
-7 63 77 0
-113 116 -136 0
-12 60 -150 0
-79 81 -84 0
52 53 -76 0
5 91 121 0
-13 -28 -50 0
-35 -86 108 0
44 58 -79 0
-47 -61 -129 0
30 -133 135 0
34 -58 71 0
19 113 -136 0
65 109 -138 0
-46 49 63 0
-9 39 -119 0
-16 -17 -47 0
9 75 133 0
-61 112 -113 0
-57 -126 140 0
-14 52 -147 0
-5 -39 -128 0
8 19 30 0
14 -80 -109 0
23 -128 -131 0
-41 64 -128 0
94 106 120 0
-35 38 126 0
62 105 -135 0
-77 121 143 0
59 65 -76 0
-23 -59 -119 0
-11 42 -56 0
-46 119 -146 0
-13 -56 97 0
-42 48 -141 0
-55 -79 -120 0
-47 -53 125 0
-13 71 93 0
68 -101 132 0
-15 40 93 0
-6 -31 83 0
66 -84 -98 0
11 62 126 0
-9 -54 -80 0
-35 -133 -140 0
-38 -53 -97 0
-35 99 133 0
75 89 95 0
7 -124 145 0
56 -91 143 0
24 -67 -110 0
-16 -99 -126 0
-41 57 -72 0
43 -62 -90 0
-39 -123 150 0
31 -94 -101 0
-14 -97 -127 0
7 -19 -65 0
-77 96 -145 0
88 93 99 0
-13 106 -139 0
-18 -116 119 0
-35 -70 -130 0
6 -39 122 0
57 -61 67 0
62 -127 -141 0
-5 27 -89 0
41 -42 -50 0
-76 -95 -145 0
61 -128 -137 0
33 46 132 0
-29 80 116 0
-14 -106 -124 0
-65 -101 -130 0
47 -53 86 0
33 -42 -69 0
-4 48 -60 0
-65 -70 108 0
13 31 -41 0
-31 -92 138 0
-44 124 -139 0
-58 -73 113 0
-56 100 -148 0
-28 -45 -143 0
31 -39 83 0
71 83 -103 0
-52 94 142 0
2 17 80 0
36 -87 -124 0
-9 90 107 0
65 -71 141 0
13 114 147 0
-20 -31 138 0
-17 80 143 0
-3 17 -94 0
79 -103 -137 0
7 65 105 0
-83 -95 -100 0
72 -80 91 0
55 68 86 0
34 78 -140 0
-28 -37 40 0
-3 6 -111 0
25 83 138 0
-18 -28 -83 0
57 -105 128 0
-47 83 100 0
-15 -55 -97 0
30 -130 -146 0
99 -108 120 0
-9 -132 -136 0
12 -14 -84 0
-49 -66 81 0
29 33 126 0
-27 -30 131 0
-10 -48 -88 0
-4 54 -138 0
19 -62 -72 0
19 62 128 0
-26 46 -94 0
-31 57 -74 0
8 120 126 0
-51 -81 137 0
72 81 87 0
-33 44 149 0
-30 -67 -72 0
3 -18 -51 0
38 -52 -105 0
-72 96 105 0
-25 89 -132 0
31 -73 149 0
-58 117 -123 0
-17 -57 -115 0
-73 -113 150 0
-4 63 -106 0
-72 100 108 0
26 117 -140 0
-5 8 96 0
19 -93 -121 0
16 -57 -123 0
29 59 -139 0
56 -103 -133 0
37 102 132 0
43 -65 -122 0
-5 40 95 0
90 106 -138 0
32 130 145 0
-23 -131 -132 0
-63 64 106 0
44 -116 143 0
27 40 -129 0
3 31 106 0
41 -76 97 0
77 -127 -140 0
-21 55 -77 0
53 85 -126 0
67 -69 77 0
-99 -110 -123 0
-13 30 116 0
-98 -136 141 0
-9 -26 -96 0
-59 134 -135 0
-2 27 -105 0
54 -78 95 0
-31 128 133 0
-55 -65 -70 0
23 74 -147 0
58 -65 85 0
40 -73 74 0
22 -102 142 0
55 -140 -149 0
20 -45 86 0
97 -112 -115 0
19 30 -92 0
30 80 -144 0
36 83 -138 0
-9 -105 121 0
-100 112 127 0
52 -83 150 0
-90 -97 -134 0
-38 -92 -150 0
-24 -60 -126 0
12 -66 -148 0
55 63 -111 0
-100 117 136 0
27 48 -79 0
-41 -142 -146 0
-39 92 115 0
-40 52 56 0
-44 -49 -150 0
28 68 -75 0
-6 -45 -138 0
-34 -65 144 0
-8 70 -73 0
34 41 -140 0
-14 79 -110 0
89 -95 -116 0
20 60 -141 0
1 27 -145 0
37 80 91 0
8 106 -147 0
-23 -48 135 0
-27 36 107 0
8 125 -143 0
-57 66 86 0
-6 110 126 0
9 41 -133 0
7 78 107 0
22 -134 149 0
-56 -60 -102 0
57 89 -101 0
-13 -95 -150 0
45 61 107 0
65 -116 123 0
-61 67 134 0
-17 -60 80 0
9 64 139 0
-12 56 -114 0
-18 19 -92 0
-53 -60 87 0
-4 14 -122 0
17 41 109 0
-41 -58 127 0
35 37 82 0
-35 -61 117 0
19 -38 70 0
32 79 -83 0
-134 -135 139 0
5 -21 58 0
42 -85 -146 0
-90 118 126 0
-7 -38 121 0
12 -42 73 0
-6 -7 57 0
-7 47 120 0
-11 -78 -87 0
-43 65 -82 0
-110 -118 -139 0
-42 60 -120 0
-61 143 -150 0
-1 -25 73 0
98 -128 -132 0
-69 128 147 0
82 124 128 0
72 114 -138 0
-13 61 -150 0
-27 -50 130 0
19 -124 -126 0
51 -88 -129 0
-33 64 71 0
63 78 -122 0
17 103 -121 0
-74 80 -100 0
-15 -33 112 0
-68 127 -146 0
6 -11 91 0
-31 -40 -60 0
-7 48 -70 0
-7 -14 -85 0
-15 28 -86 0
10 -17 25 0
-52 74 -149 0
-18 84 -102 0
-76 135 -137 0
21 -61 -122 0
-107 -122 143 0
23 49 136 0
-48 -70 142 0
-15 16 -117 0
15 50 -65 0
-33 -113 119 0
62 104 105 0
-15 -63 147 0
-19 99 101 0
63 -81 -125 0
-6 -57 131 0
-9 -24 66 0
-53 -94 -112 0
-6 55 -106 0
-117 -122 141 0
-59 76 -117 0
-22 -58 139 0
-89 107 -110 0
57 -77 102 0
14 -128 150 0
-87 -94 -149 0
105 140 144 0
84 -131 -150 0
84 -127 -136 0
38 75 -108 0
-119 136 -143 0
14 91 -111 0
44 -94 -140 0
38 -92 -149 0
39 80 104 0
7 22 -31 0
6 -15 -126 0
-55 83 -93 0
-8 -81 114 0
58 -82 -141 0
45 -47 -111 0
56 -82 -90 0
16 59 127 0
-12 -25 -83 0
17 27 -107 0
12 -40 -83 0
-6 57 -144 0
-1 -64 75 0
-5 80 -94 0
29 -42 45 0
80 -114 -140 0
-68 -93 130 0
-6 -73 76 0
11 -74 -117 0
-24 96 117 0
-20 -29 -64 0
-10 75 133 0
4 -38 -100 0
15 140 -150 0
-56 -63 128 0
4 55 -57 0
46 86 -144 0
43 -49 58 0
8 -36 -52 0
48 67 82 0
-78 -99 145 0
10 -107 -127 0
-17 22 52 0
-31 -75 -98 0
-2 -16 106 0
13 65 -136 0
-85 96 143 0
-3 53 -129 0
11 49 125 0
49 -99 -120 0
-14 42 94 0
10 42 -71 0
12 -23 38 0
29 59 -74 0
29 52 112 0
-44 97 -138 0
-25 131 -146 0
8 -11 79 0
-75 101 109 0
28 -96 -99 0
63 75 -77 0
29 -65 -88 0
-60 -72 148 0
67 104 128 0
72 -112 -149 0
50 -69 115 0
-49 94 -130 0
1 87 143 0
71 85 -121 0
-46 -60 -124 0
-69 82 -144 0
39 119 138 0
10 106 -108 0
15 26 -95 0
-66 117 141 0
7 59 122 0
-17 42 137 0
-31 -89 96 0
-14 -84 -139 0
55 -109 -120 0
68 -124 131 0
-34 93 -138 0
-19 -117 -130 0
-102 123 124 0
12 103 -137 0
39 109 146 0
-76 -80 114 0
-1 3 44 0
30 35 42 0
47 -86 115 0
37 86 109 0
86 103 121 0
-78 -121 127 0
-19 41 -108 0
11 16 -107 0
-44 64 -142 0
63 -87 108 0
25 31 131 0
-108 125 -128 0
20 46 58 0
-111 130 -133 0
-32 -94 -106 0
69 -91 -144 0
-12 65 99 0
30 78 -97 0
25 -58 -126 0
-52 -75 -109 0
-8 -54 146 0
4 31 108 0
-62 -117 -120 0
-9 -108 -133 0
35 93 -148 0
24 46 143 0
-41 -77 -106 0
-10 21 -117 0
-31 -41 133 0
-13 38 -42 0
-36 -44 120 0
-1 -86 108 0
-18 55 -90 0
-53 -85 134 0
16 66 120 0
-137 139 146 0
-41 98 -122 0
-31 54 -150 0
-2 24 -60 0
-24 -62 -73 0
-7 -95 120 0
-12 -40 135 0
21 -109 141 0
-21 58 -82 0
-16 36 98 0
-4 27 88 0
-22 -49 -52 0
-12 -24 -78 0
-23 26 -121 0
25 -88 136 0
-32 -58 118 0
-23 53 82 0
-74 -75 76 0
19 -106 -107 0
59 113 -128 0
-70 -106 -140 0
5 -95 -117 0
24 70 -97 0
30 41 -77 0
6 -8 93 0
-7 -26 108 0
-70 89 -99 0
119 137 -149 0
2 -34 97 0
-29 79 -126 0
58 -71 -97 0
16 -20 -136 0
44 -64 -87 0
-32 33 115 0
-86 -99 106 0
5 80 136 0
-90 -118 124 0
24 34 54 0
-21 31 -63 0
72 -121 -149 0
35 -84 135 0
30 -45 -58 0
