c F1 random 3-CNF cnfgen RandomKCNF(3,150,639,seed=1) m/n=4.26
p cnf 150 639
-17 35 -146 0
98 116 -121 0
8 -100 -111 0
27 59 82 0
3 -98 139 0
-57 113 -136 0
-57 60 -118 0
-26 48 -143 0
109 -129 -130 0
101 -128 130 0
-45 -104 107 0
28 -113 -131 0
8 -121 -126 0
44 59 129 0
-89 -104 -132 0
2 99 -141 0
15 -94 -124 0
89 -92 -107 0
8 46 -59 0
9 -19 22 0
64 69 -72 0
18 -43 75 0
-70 -76 -117 0
-7 -30 -80 0
-28 49 -67 0
-5 6 58 0
-42 115 -130 0
-8 -58 -135 0
16 33 -77 0
-19 20 -80 0
34 65 145 0
44 -118 146 0
-26 53 -89 0
-27 76 -100 0
5 73 -103 0
-35 87 -145 0
-25 -98 141 0
11 17 22 0
-55 -69 -138 0
-30 87 -88 0
35 -142 149 0
19 98 -105 0
20 30 -97 0
76 -94 -145 0
12 28 76 0
11 30 -106 0
30 42 116 0
-27 -97 -112 0
-26 54 81 0
-3 -76 -82 0
-17 82 -103 0
-56 -121 139 0
54 79 -139 0
-21 23 -72 0
59 -79 100 0
78 -82 149 0
24 140 149 0
-19 63 103 0
-3 -6 -75 0
-26 40 129 0
-37 -39 46 0
33 76 132 0
53 -81 -142 0
13 -41 138 0
-111 -115 -141 0
3 -87 -102 0
7 107 -147 0
33 -36 -149 0
102 103 145 0
-2 -46 125 0
-62 81 -127 0
71 87 144 0
41 -95 -131 0
77 -96 142 0
-32 132 147 0
56 -65 -110 0
90 99 132 0
26 66 69 0
-62 -98 114 0
-33 84 113 0
105 -111 -137 0
64 97 -144 0
6 -8 149 0
38 -45 -73 0
65 -115 -150 0
-32 54 -108 0
7 -28 31 0
-20 -96 -129 0
1 -83 -136 0
-79 -90 -139 0
29 97 -98 0
-51 -119 131 0
-51 116 -136 0
-104 110 -149 0
-6 64 -75 0
19 -46 -70 0
78 -106 -140 0
44 -120 125 0
18 -91 109 0
42 -43 -130 0
54 78 -136 0
-18 -20 69 0
-44 -77 143 0
101 -103 -144 0
57 67 -85 0
-64 82 111 0
43 -114 -149 0
36 -42 -135 0
62 80 -103 0
-18 -28 -59 0
12 26 48 0
-9 -127 -136 0
25 -31 45 0
97 116 127 0
-73 119 -141 0
67 85 128 0
-2 -4 -12 0
-51 74 149 0
4 8 -100 0
-21 -34 66 0
10 16 -138 0
24 31 -111 0
-34 -50 -72 0
63 67 69 0
90 -110 -144 0
52 -109 138 0
25 46 65 0
12 -14 -110 0
11 26 -81 0
33 -102 115 0
-22 65 -84 0
15 -67 -81 0
-25 30 78 0
-85 -87 131 0
34 -115 135 0
-52 95 -100 0
33 89 -148 0
-81 -107 -137 0
70 84 134 0
82 -84 -147 0
-94 117 123 0
-13 -35 135 0
-87 -93 -147 0
88 119 137 0
57 65 145 0
-13 26 106 0
18 67 147 0
45 -111 -131 0
-52 57 -73 0
94 -116 140 0
52 -66 -105 0
-20 104 -131 0
-2 49 118 0
-78 -81 -132 0
-79 116 -149 0
-36 42 -141 0
-10 -95 -145 0
-2 -5 -24 0
-70 -96 -124 0
30 -91 124 0
-5 45 -67 0
-67 -106 -132 0
86 -111 -125 0
17 24 109 0
-7 27 -59 0
26 48 -103 0
-14 -56 141 0
27 -108 -142 0
13 46 -123 0
-32 -76 115 0
-28 39 123 0
-66 -107 134 0
27 -87 -125 0
-15 113 139 0
70 -71 131 0
-34 50 66 0
-70 -72 -106 0
-55 -126 128 0
-46 47 87 0
84 130 -136 0
85 123 127 0
23 58 66 0
-52 -58 -145 0
2 6 79 0
-69 72 88 0
36 -85 89 0
11 89 147 0
-64 77 -82 0
-8 -21 36 0
25 -71 85 0
-33 70 -91 0
-108 -138 145 0
35 78 141 0
-56 62 -112 0
-70 -136 138 0
27 -96 104 0
34 79 115 0
-56 -86 124 0
-40 98 113 0
3 70 -76 0
26 -118 -144 0
-71 -95 105 0
10 26 121 0
-36 -131 -136 0
62 -63 122 0
-11 -30 -81 0
-15 -107 -112 0
61 88 -113 0
-30 -45 132 0
6 -123 150 0
26 -59 -102 0
-63 -119 121 0
103 -111 -113 0
-4 -33 39 0
-7 -20 -47 0
-28 40 -135 0
-59 102 138 0
-41 46 109 0
42 -138 143 0
56 110 132 0
20 -130 -138 0
-13 31 146 0
12 123 133 0
-72 80 120 0
-82 -137 144 0
-52 -100 -102 0
-39 67 146 0
-37 -87 -93 0
-72 90 99 0
34 58 65 0
62 -110 -140 0
20 22 51 0
98 104 107 0
-36 62 -98 0
-46 58 -92 0
75 -126 138 0
6 -75 -119 0
-14 15 66 0
27 29 -112 0
32 -55 99 0
-31 -52 145 0
10 -43 -69 0
-70 103 108 0
-5 48 -144 0
-55 101 138 0
-11 20 109 0
-49 -129 131 0
-17 60 -93 0
-12 -38 46 0
-17 129 -150 0
-78 -132 -147 0
-13 121 -142 0
-39 78 -82 0
101 107 134 0
4 -136 -147 0
-9 95 -142 0
-22 115 139 0
55 84 93 0
-82 -104 -131 0
10 67 -95 0
73 102 141 0
22 -69 -106 0
-26 -54 61 0
53 -78 -132 0
35 -76 -133 0
-8 10 81 0
48 109 135 0
-32 -34 130 0
-15 -93 117 0
3 4 -126 0
3 11 142 0
9 -52 -136 0
-63 -126 -130 0
19 -47 -50 0
-6 94 122 0
-111 -148 150 0
-50 -108 -132 0
-43 -69 -121 0
4 -66 -80 0
-60 92 -131 0
-38 86 99 0
3 -66 -92 0
-4 84 87 0
21 31 -85 0
60 88 -105 0
-76 -78 97 0
51 60 105 0
63 98 -102 0
-1 -79 93 0
-8 -38 -95 0
-29 -82 -150 0
-3 23 80 0
68 96 112 0
42 -131 132 0
1 -18 56 0
3 -15 -17 0
3 -5 144 0
-69 76 149 0
16 -54 101 0
84 85 105 0
24 48 130 0
-16 26 78 0
39 -60 -114 0
15 23 114 0
15 31 52 0
-57 65 74 0
-50 -65 -84 0
-23 98 -99 0
30 46 -88 0
-71 -78 -137 0
-91 -94 -117 0
5 -95 131 0
33 78 -146 0
35 -39 42 0
-44 -81 -92 0
-20 -40 110 0
18 -40 81 0
-12 -50 -92 0
-31 48 -88 0
-16 -54 -64 0
13 -63 93 0
25 -35 -51 0
37 -42 -59 0
-113 132 -149 0
-19 51 111 0
35 37 -54 0
-13 48 93 0
23 -55 113 0
-5 -56 148 0
-14 94 -128 0
-18 -82 131 0
87 -107 124 0
-5 47 -83 0
-65 -68 79 0
42 75 -76 0
-56 -72 -111 0
45 -66 83 0
92 -102 -134 0
39 63 124 0
-10 -19 -133 0
-44 -134 145 0
-99 142 -144 0
-14 91 -95 0
23 92 114 0
-12 94 -114 0
3 123 -148 0
-42 -54 131 0
36 -68 81 0
47 -79 -136 0
-118 131 -142 0
40 -53 73 0
98 -109 -132 0
94 114 137 0
-25 28 -138 0
-47 102 122 0
-100 -116 126 0
8 47 70 0
-82 114 -115 0
-14 -72 -120 0
-25 -43 -130 0
39 -82 130 0
-50 56 58 0
-14 27 -109 0
-72 83 -144 0
-78 -115 -125 0
-26 45 -75 0
28 -40 -118 0
-88 -127 -144 0
101 125 138 0
52 -63 138 0
-8 -85 -108 0
54 -74 -105 0
-3 -45 99 0
-17 60 -82 0
-2 25 -112 0
29 -40 137 0
-84 97 112 0
41 43 138 0
114 -134 150 0
36 -82 86 0
-58 61 128 0
35 121 -137 0
36 -72 -90 0
8 119 136 0
-2 11 78 0
-28 29 -103 0
-124 134 -148 0
-90 -96 -99 0
51 53 141 0
-6 -62 101 0
14 45 -135 0
34 -72 -107 0
-13 88 -150 0
16 90 150 0
-5 39 112 0
7 -74 121 0
24 111 -121 0
-62 -105 -140 0
18 -30 113 0
25 28 91 0
1 111 -132 0
-16 -125 -147 0
-8 -11 71 0
-69 83 -123 0
-45 -113 132 0
-83 -102 -131 0
5 57 -79 0
-30 -67 93 0
-28 36 -129 0
-84 121 146 0
52 -69 -138 0
4 -69 129 0
-26 83 -147 0
12 88 136 0
-11 30 31 0
39 59 -137 0
69 -112 145 0
15 -18 -68 0
109 112 122 0
-9 -107 110 0
46 -58 59 0
56 -83 115 0
-28 98 -134 0
68 75 -80 0
9 98 118 0
-26 76 -127 0
-26 63 64 0
-92 -111 128 0
37 103 -109 0
25 -100 -111 0
68 -109 131 0
67 138 -144 0
-25 68 117 0
-8 98 -105 0
60 -126 131 0
22 -64 106 0
11 76 89 0
-12 -79 150 0
-92 121 -138 0
64 84 135 0
-79 -80 138 0
59 65 124 0
22 67 103 0
-19 81 142 0
-10 56 -115 0
-57 -75 131 0
18 -19 -60 0
-3 43 118 0
4 -63 -79 0
-68 69 90 0
3 11 -113 0
30 78 116 0
8 -35 50 0
59 122 144 0
5 -17 36 0
67 -133 139 0
-72 -91 -140 0
-120 136 137 0
101 123 145 0
14 82 -133 0
-11 102 105 0
-34 -106 143 0
-50 -56 78 0
49 69 146 0
43 -54 -123 0
4 -26 -39 0
-45 56 -145 0
-17 -33 -58 0
95 -111 -132 0
92 -99 104 0
20 -47 -89 0
16 -29 -118 0
24 -86 -132 0
-34 -43 -147 0
63 -99 126 0
7 -67 74 0
21 -57 -76 0
103 -116 121 0
-5 9 -16 0
-46 -80 138 0
61 -88 117 0
6 -113 132 0
-21 46 60 0
2 82 -117 0
-57 66 133 0
-97 -103 -106 0
7 -87 -145 0
42 -111 -140 0
-74 -89 -124 0
62 -74 92 0
19 -68 -100 0
-5 41 126 0
29 39 99 0
-25 120 141 0
-14 70 -136 0
-29 -87 -113 0
-22 -59 -75 0
69 111 112 0
85 -91 97 0
30 -38 137 0
42 -92 136 0
-36 -103 109 0
-7 20 137 0
-55 -102 -114 0
21 88 -124 0
3 24 46 0
-50 -72 -118 0
-27 -99 143 0
19 -35 81 0
-5 -75 89 0
81 -101 137 0
32 104 -109 0
45 90 -104 0
-43 -106 -133 0
-9 101 -139 0
44 101 -117 0
67 -101 126 0
69 -71 100 0
28 -31 120 0
11 58 61 0
10 -30 -149 0
30 -38 89 0
-41 138 -147 0
102 -132 145 0
-4 13 -148 0
-1 -13 -23 0
31 -99 118 0
-7 -129 131 0
40 -71 -111 0
37 55 85 0
-33 -92 -124 0
29 -65 -113 0
51 -54 -59 0
1 -66 -126 0
24 71 133 0
37 -104 110 0
-42 -56 -70 0
39 65 -146 0
-5 124 138 0
52 -59 -67 0
28 -49 -95 0
-85 -106 -147 0
-20 71 -91 0
8 73 89 0
-58 -113 -138 0
2 18 -102 0
-26 101 -127 0
56 -80 -143 0
-36 -65 132 0
-86 112 -134 0
-11 -80 -129 0
-41 -68 75 0
-67 100 -114 0
11 -24 150 0
-11 79 -134 0
3 -34 -89 0
22 -62 134 0
-7 44 -114 0
12 -43 -75 0
-29 -98 139 0
-59 86 108 0
46 -87 104 0
-56 102 -108 0
9 -22 -67 0
-26 79 -112 0
45 66 141 0
-3 103 -142 0
25 66 88 0
45 97 -148 0
-2 5 136 0
49 102 107 0
-116 -139 140 0
66 -100 -130 0
-38 69 93 0
6 -27 138 0
42 57 -83 0
-55 -66 68 0
-9 -40 -128 0
-51 -92 -104 0
-40 124 -149 0
16 -19 67 0
-11 -79 117 0
-109 -111 127 0
75 101 111 0
-87 -94 146 0
14 97 112 0
45 99 123 0
-83 89 -130 0
48 124 145 0
31 34 -71 0
-14 55 74 0
-18 41 108 0
42 -50 -107 0
17 45 128 0
39 -49 63 0
-21 -96 147 0
111 121 146 0
95 -110 -112 0
47 86 -146 0
-42 -119 120 0
-52 -118 140 0
33 57 73 0
-55 -109 132 0
-14 -53 97 0
-4 -110 117 0
27 -44 130 0
-5 -127 -132 0
8 100 112 0
10 -52 81 0
-37 -38 116 0
-19 -32 -132 0
-10 54 -136 0
44 -51 -61 0
123 130 -148 0
3 -32 146 0
46 -117 136 0
-12 -36 -140 0
49 -103 -119 0
-3 -55 73 0
-25 104 -115 0
57 85 86 0
-5 47 -119 0
17 70 135 0
-70 89 -106 0
29 79 -108 0
3 68 -146 0
20 39 90 0
36 85 103 0
-9 -30 -33 0
2 -3 -38 0
-35 -80 -102 0
-75 90 -115 0
3 -59 80 0
2 21 119 0
-57 100 101 0
-24 42 85 0
-53 -60 143 0
92 111 147 0
48 -91 -127 0
