c F1 random 3-CNF cnfgen RandomKCNF(3,250,1065,seed=7) m/n=4.26
p cnf 250 1065
-39 83 243 0
-25 138 211 0
-10 23 112 0
24 109 142 0
150 -161 162 0
12 -57 -250 0
-31 37 139 0
147 -149 164 0
17 141 -183 0
-110 -137 -175 0
64 77 93 0
-77 -135 -148 0
19 -74 156 0
-39 -88 194 0
-20 -172 -247 0
-128 149 153 0
70 122 -242 0
-148 -166 -175 0
89 -172 -228 0
-30 44 157 0
34 -74 -197 0
128 224 -235 0
72 -103 -141 0
-92 107 181 0
22 39 46 0
125 -151 -213 0
-2 -38 108 0
132 -177 -220 0
101 -102 -103 0
16 -18 49 0
29 88 154 0
39 -138 146 0
-19 54 -224 0
-89 -155 245 0
-30 -125 -218 0
22 -37 -80 0
123 178 213 0
93 136 -244 0
-24 -165 222 0
-58 92 198 0
-62 207 210 0
92 127 -133 0
-50 -67 -121 0
94 245 250 0
-51 59 -121 0
157 -160 -231 0
22 -165 205 0
-46 -123 228 0
-206 -243 -249 0
22 191 243 0
-8 39 -152 0
90 169 240 0
4 205 -249 0
50 212 -224 0
55 -75 -129 0
108 140 -214 0
-118 170 230 0
-5 131 135 0
39 199 -205 0
31 -159 -186 0
28 199 201 0
11 -71 198 0
195 -229 -234 0
130 -157 -250 0
-131 137 -207 0
144 -229 237 0
-32 -101 107 0
62 110 -172 0
32 -201 230 0
-36 65 227 0
102 125 227 0
-111 -132 -181 0
51 -82 92 0
-87 118 -142 0
-85 133 160 0
59 202 -236 0
11 -70 232 0
-109 -210 218 0
-132 -138 236 0
15 -72 205 0
5 -69 241 0
57 -156 220 0
-3 -87 117 0
12 135 182 0
13 -47 -68 0
-53 -136 195 0
70 -89 206 0
4 -5 188 0
-28 -115 -240 0
79 130 -249 0
51 -214 -226 0
14 34 -215 0
15 -42 -111 0
-63 154 -178 0
-41 48 -69 0
-85 94 247 0
80 -226 248 0
1 -86 -98 0
52 129 168 0
23 -68 210 0
-6 77 101 0
136 -150 -246 0
-39 127 185 0
-184 212 214 0
150 176 212 0
-11 35 -164 0
116 143 214 0
-1 68 126 0
-17 -135 169 0
61 68 -217 0
98 -127 -217 0
12 158 197 0
-66 85 167 0
-16 124 125 0
-75 -126 -173 0
31 -120 197 0
-5 -122 240 0
-130 -210 -248 0
54 235 243 0
-37 -135 192 0
-155 162 -210 0
-60 -128 230 0
-1 -41 -244 0
-37 -78 -187 0
-31 81 -216 0
-87 193 215 0
-4 -183 -231 0
17 -100 -101 0
71 -194 219 0
-14 170 214 0
-69 112 -249 0
110 -201 245 0
-13 -21 185 0
-74 165 223 0
-44 -107 -121 0
-66 -190 250 0
-78 124 143 0
20 -42 165 0
-86 -116 233 0
50 63 -141 0
24 -82 -143 0
52 -146 -208 0
106 -135 -191 0
-16 -87 -193 0
33 129 -176 0
-64 -99 -230 0
80 218 245 0
-109 -182 196 0
-19 -101 239 0
28 58 201 0
-185 212 242 0
1 33 -201 0
-33 -161 247 0
19 -26 -77 0
58 154 -203 0
-72 118 -246 0
61 135 -141 0
79 167 181 0
-128 173 -227 0
-59 109 -171 0
-9 -87 -179 0
-2 51 205 0
-52 127 249 0
-57 68 -120 0
48 -157 -230 0
15 -171 234 0
7 -55 250 0
-16 -48 -182 0
21 -29 188 0
-48 168 -240 0
-97 -171 -186 0
1 -28 44 0
90 108 -245 0
-92 -197 211 0
13 -122 -181 0
-50 83 -94 0
-64 161 -208 0
9 -17 119 0
-17 -192 -231 0
86 -245 -246 0
71 77 237 0
-28 -60 -212 0
-65 -203 234 0
47 -128 238 0
-61 -84 -156 0
21 -153 201 0
17 -64 -105 0
42 110 -227 0
22 -54 -160 0
115 182 249 0
107 118 -159 0
-72 -76 -146 0
-51 67 189 0
-40 61 -63 0
17 65 102 0
10 119 -168 0
-60 -210 227 0
60 76 225 0
154 212 -250 0
-46 -132 222 0
-28 153 164 0
37 88 -95 0
10 154 -188 0
96 -105 174 0
-9 -53 204 0
-26 105 204 0
-42 -102 -168 0
79 -107 -171 0
-5 107 -222 0
53 -104 187 0
30 -109 -211 0
42 118 198 0
-37 142 -165 0
44 -130 -189 0
42 44 -134 0
126 -193 207 0
-12 -215 242 0
-156 163 238 0
164 -202 220 0
47 122 -213 0
-41 -133 241 0
39 64 249 0
83 -171 -215 0
-141 -161 -218 0
-64 -109 -150 0
46 113 -129 0
-61 115 -120 0
18 -28 -103 0
-24 94 206 0
-22 34 163 0
-130 193 230 0
17 158 220 0
74 126 227 0
-90 157 -214 0
-71 158 -230 0
-129 236 -247 0
-61 -130 158 0
47 -51 -104 0
-44 97 230 0
-93 163 -220 0
-138 -162 -220 0
95 -97 -148 0
21 114 196 0
-76 -133 -210 0
1 188 192 0
-75 -158 -161 0
-13 34 230 0
-1 -6 14 0
92 -134 -137 0
-35 -53 151 0
4 35 -240 0
17 -25 -164 0
68 208 -248 0
-149 -153 166 0
1 43 232 0
48 61 104 0
4 142 -157 0
-52 133 -156 0
17 -77 161 0
-97 112 -217 0
-27 45 58 0
-32 86 -229 0
-142 -163 -174 0
165 238 248 0
44 67 232 0
84 -192 -235 0
-62 -98 154 0
7 -112 220 0
101 150 160 0
7 9 -29 0
8 37 180 0
163 165 178 0
-17 152 220 0
-194 223 226 0
9 29 -53 0
26 34 -123 0
-82 87 -109 0
66 -73 -239 0
-155 -197 247 0
-8 106 -202 0
13 121 -181 0
1 -44 112 0
2 -90 126 0
-127 -152 248 0
55 -73 209 0
29 -163 241 0
84 -92 -161 0
191 -228 229 0
-53 -78 96 0
98 -162 227 0
137 -153 -194 0
-40 -134 223 0
-113 119 177 0
86 119 -165 0
78 181 194 0
-84 155 186 0
-49 84 245 0
27 -169 247 0
-38 -78 -204 0
28 -51 164 0
100 119 -227 0
112 -203 -219 0
-6 37 66 0
-111 219 233 0
47 -165 -174 0
67 -81 161 0
103 -183 -201 0
-6 117 -124 0
-3 100 200 0
56 65 -140 0
-26 148 -217 0
-5 -132 -164 0
117 190 -243 0
132 -196 239 0
-65 71 98 0
-20 -108 -235 0
-28 58 -78 0
43 55 119 0
121 144 -165 0
-164 -171 -213 0
141 -167 -195 0
-59 -201 -218 0
-48 110 -174 0
-63 -92 -168 0
110 -125 160 0
-78 219 238 0
-145 212 -232 0
4 150 163 0
65 76 168 0
-48 116 199 0
104 203 -232 0
51 127 -178 0
30 -172 -226 0
-36 -60 212 0
120 -124 232 0
43 128 -139 0
-120 -145 -179 0
96 108 -110 0
8 163 -166 0
-25 -131 208 0
-9 55 -184 0
-25 -169 -221 0
135 -142 -200 0
65 -88 -109 0
-91 -127 -212 0
89 -130 224 0
-50 82 85 0
-11 103 -201 0
2 28 -77 0
156 -169 197 0
161 173 179 0
118 163 171 0
10 108 -223 0
-36 -211 -224 0
-9 48 -108 0
145 -149 165 0
-31 -199 -212 0
-4 18 -175 0
106 141 -198 0
39 -55 230 0
3 172 176 0
-32 34 -223 0
-63 146 185 0
94 192 -199 0
-143 -161 -182 0
14 234 247 0
4 -167 -227 0
80 -154 187 0
-81 -95 243 0
38 -205 248 0
-107 -162 -206 0
-70 -201 -242 0
-16 160 250 0
-80 154 -214 0
97 -100 -176 0
-1 -83 -177 0
41 -151 236 0
208 -223 -228 0
-22 -89 137 0
185 -193 202 0
102 -120 174 0
99 -118 203 0
-60 -102 -149 0
52 130 151 0
-24 -47 -207 0
104 133 200 0
96 -127 -237 0
-21 40 -202 0
72 133 156 0
-53 222 -223 0
-72 200 -237 0
152 -197 210 0
-47 52 87 0
-9 -14 -143 0
217 -233 243 0
-24 -181 246 0
-23 165 -245 0
41 95 218 0
-10 66 242 0
-13 -215 236 0
26 38 -82 0
113 -151 -152 0
66 -96 -100 0
44 98 113 0
120 184 234 0
57 -214 238 0
115 -200 246 0
-20 -116 161 0
-30 123 -161 0
15 -57 189 0
-39 -113 -223 0
-7 -40 -64 0
-43 67 -206 0
117 124 232 0
162 -202 -230 0
31 -66 -194 0
62 67 -237 0
75 107 -230 0
-5 -37 164 0
-1 114 -203 0
-11 112 -234 0
36 47 147 0
21 -51 -154 0
36 -45 53 0
-3 17 -178 0
-73 86 216 0
-105 196 -234 0
-48 64 145 0
96 -148 -180 0
19 -133 248 0
-210 -213 222 0
-28 -75 224 0
136 138 206 0
23 58 248 0
65 80 143 0
179 -190 238 0
-154 164 -215 0
27 90 223 0
-32 -70 120 0
32 104 227 0
-38 -147 172 0
-5 -212 243 0
102 -241 -249 0
-62 -103 -215 0
103 -209 217 0
-175 240 -246 0
-3 162 170 0
18 84 111 0
-36 -108 249 0
208 227 -250 0
-160 174 235 0
32 -65 134 0
11 -74 -244 0
31 -43 166 0
120 -137 152 0
-34 -131 -227 0
63 -71 -189 0
146 -157 178 0
-94 -141 -182 0
80 121 -210 0
-49 -57 132 0
42 -91 -237 0
70 -73 126 0
6 -41 -198 0
-16 -133 -169 0
28 189 -196 0
87 91 -172 0
133 -211 -215 0
162 -182 201 0
2 -106 -197 0
-39 -147 247 0
-98 -116 -219 0
-75 -91 101 0
-191 -202 -218 0
-48 77 -138 0
97 148 -149 0
83 -216 249 0
110 229 249 0
-66 -145 -230 0
-112 -138 -159 0
-11 -92 153 0
18 135 -174 0
96 103 -129 0
-103 113 125 0
82 -93 94 0
-29 -168 -229 0
-41 135 162 0
16 -47 106 0
3 -106 178 0
78 102 235 0
-45 51 128 0
32 106 155 0
8 -20 -26 0
111 157 -207 0
-37 -61 184 0
9 69 -161 0
-50 116 160 0
57 -102 228 0
62 64 159 0
151 -219 239 0
-209 -222 -231 0
-65 155 246 0
100 -173 -174 0
-103 183 225 0
-23 -44 45 0
-2 -226 -249 0
-30 -86 -137 0
17 -167 -247 0
63 -100 -142 0
61 -89 112 0
40 88 207 0
51 -70 -140 0
204 207 -215 0
-56 -91 185 0
77 122 -244 0
-34 -173 -242 0
64 104 137 0
-24 -132 174 0
146 -169 184 0
23 100 -182 0
49 170 -229 0
-129 195 207 0
23 -80 184 0
-103 -184 -210 0
119 -217 233 0
-8 -94 174 0
-169 180 -181 0
91 161 -232 0
30 70 -234 0
-11 42 -156 0
40 -98 190 0
-59 -145 -215 0
-148 172 176 0
-196 199 214 0
63 175 -250 0
-54 199 -235 0
101 -178 191 0
-90 -243 -244 0
-129 178 190 0
110 -132 173 0
-12 180 244 0
164 -200 249 0
-16 -44 -247 0
-24 52 163 0
-125 176 181 0
-2 132 -178 0
35 77 -179 0
-31 162 209 0
-119 154 215 0
-4 -75 177 0
-12 -16 230 0
-29 80 180 0
-84 -114 120 0
12 -19 -143 0
-22 -184 192 0
-126 -166 245 0
83 -140 201 0
-74 161 165 0
8 -36 192 0
48 76 -95 0
-84 158 -191 0
59 -82 -95 0
11 -15 62 0
-56 -127 242 0
77 149 155 0
-36 42 114 0
113 123 -218 0
-1 9 -216 0
-15 -19 170 0
3 113 -171 0
-2 76 -114 0
-22 -83 139 0
103 247 -250 0
-77 -156 -169 0
-36 -166 169 0
-49 57 218 0
-96 -149 170 0
-102 113 145 0
47 228 248 0
65 215 -221 0
-59 126 182 0
132 -189 233 0
35 113 -205 0
101 176 -213 0
-24 36 -199 0
13 61 96 0
31 -77 118 0
52 -160 224 0
-94 191 -216 0
-32 -62 96 0
91 -155 -210 0
29 155 -206 0
-50 91 -178 0
-6 30 203 0
48 -67 -205 0
-37 -151 -215 0
4 -7 -88 0
9 205 224 0
-159 -166 210 0
-115 178 217 0
85 -93 136 0
12 151 -160 0
-85 -120 -187 0
-2 -81 86 0
6 64 118 0
-17 -70 99 0
9 179 -235 0
-26 -147 163 0
204 224 -241 0
-88 196 -247 0
-141 -184 224 0
-87 -172 -181 0
63 -208 229 0
-2 -35 -53 0
-102 146 198 0
-37 -78 -185 0
19 49 -236 0
-91 -120 149 0
82 -125 -215 0
6 -140 195 0
6 -56 -181 0
-52 155 229 0
15 62 188 0
-19 208 209 0
49 -70 138 0
55 -83 -84 0
-157 174 205 0
107 204 -222 0
-127 -154 -199 0
-4 -7 224 0
-107 158 182 0
5 40 -54 0
-93 109 -209 0
-59 -159 190 0
-80 -166 -199 0
-134 136 -241 0
3 -122 143 0
59 103 161 0
16 32 -140 0
94 156 241 0
8 -90 -136 0
-55 -163 -234 0
55 83 203 0
-17 -166 207 0
-59 -97 145 0
-6 -8 65 0
-53 -60 -91 0
77 128 -226 0
-221 223 -240 0
23 -73 85 0
-42 82 175 0
-54 201 -227 0
47 -112 222 0
29 39 -207 0
-39 129 189 0
102 -119 -175 0
-165 -171 236 0
52 61 150 0
-60 130 153 0
13 82 229 0
125 -246 249 0
46 58 -176 0
128 -215 246 0
219 248 -249 0
-4 -46 181 0
12 -51 -248 0
3 -69 -84 0
-85 -141 -177 0
-82 -109 139 0
-99 100 195 0
-62 -129 156 0
51 170 212 0
-13 -184 -233 0
-81 141 -172 0
-166 -192 -219 0
-61 -162 212 0
-101 -135 250 0
140 -161 -205 0
-122 -216 233 0
-17 37 238 0
62 94 -209 0
46 -164 -243 0
-93 214 -222 0
-40 65 -180 0
-92 -170 206 0
-71 75 -102 0
123 163 188 0
-34 94 -175 0
-88 -134 206 0
-1 52 143 0
-79 -140 -184 0
-62 68 -214 0
23 -52 -220 0
96 -159 -200 0
-11 -94 -183 0
-156 -166 208 0
99 149 -218 0
-17 53 171 0
-98 -115 -194 0
165 231 -240 0
-119 -180 -240 0
-17 -46 -228 0
35 132 193 0
-11 -103 -139 0
31 118 198 0
4 -147 210 0
-56 193 218 0
86 -124 183 0
13 -105 -210 0
2 -49 -133 0
-23 -81 -99 0
108 -131 -227 0
-64 -98 -222 0
14 -34 -52 0
126 -169 -182 0
52 -117 236 0
-18 105 -137 0
-57 113 204 0
-152 -206 -250 0
15 -53 225 0
13 -36 221 0
4 -185 237 0
-173 185 192 0
38 200 -235 0
25 52 -201 0
-58 -169 -214 0
15 40 223 0
76 -115 215 0
-67 80 234 0
171 -205 243 0
-40 84 98 0
39 -51 -119 0
30 -103 174 0
54 -169 -237 0
-5 90 193 0
-72 125 222 0
36 -70 121 0
26 -149 154 0
-39 169 242 0
-86 90 -116 0
46 -94 191 0
117 144 186 0
101 119 153 0
-25 132 -149 0
91 -148 215 0
44 -93 170 0
-166 -216 224 0
25 28 67 0
70 -128 -138 0
42 -63 -146 0
-51 73 244 0
62 187 233 0
-14 28 242 0
23 -44 193 0
101 -109 160 0
22 149 170 0
153 199 201 0
26 87 154 0
78 -88 209 0
-3 -82 241 0
23 63 202 0
89 198 205 0
-57 176 237 0
123 -203 -226 0
18 193 233 0
-94 202 -217 0
-42 -150 206 0
-67 178 -213 0
202 -206 -214 0
-164 201 212 0
-201 202 248 0
51 -118 151 0
-101 -170 -201 0
23 -104 -243 0
-2 -79 203 0
-29 -225 -244 0
77 -118 155 0
-22 91 -101 0
23 -70 -86 0
138 170 207 0
-11 161 -175 0
70 -86 246 0
-58 -90 -228 0
82 225 -245 0
1 3 135 0
-117 -145 208 0
-142 189 -221 0
-20 -107 -171 0
-76 -93 246 0
-128 -168 233 0
15 -214 -225 0
80 -132 193 0
84 124 -243 0
37 -49 151 0
-151 165 -192 0
-7 -140 198 0
-174 -207 -244 0
-72 177 -232 0
-13 204 212 0
133 207 -225 0
-44 134 -190 0
-99 199 -249 0
-80 229 -242 0
104 -113 -238 0
-82 -99 101 0
-53 -233 238 0
81 200 -229 0
-121 138 -194 0
-93 -101 184 0
67 116 -198 0
-91 -155 241 0
18 -225 227 0
43 79 -239 0
-101 -216 -241 0
-87 128 207 0
-134 -137 189 0
55 -87 175 0
1 -129 -219 0
-55 147 187 0
57 172 -218 0
-9 -191 231 0
-166 -181 225 0
-155 198 212 0
25 -80 93 0
19 -133 180 0
1 -118 -162 0
16 115 -129 0
-29 -58 -124 0
59 136 -146 0
208 215 250 0
-8 -130 -208 0
-17 162 245 0
-100 103 132 0
-96 -206 247 0
123 -148 -165 0
-175 226 -249 0
-29 49 -158 0
20 -50 195 0
181 -191 203 0
-144 180 194 0
-17 53 -91 0
91 -143 -161 0
12 -27 -79 0
-8 206 -231 0
-28 -40 -220 0
-22 -87 234 0
-28 -136 218 0
65 91 -169 0
-133 -209 243 0
-208 216 230 0
-4 29 55 0
209 -213 250 0
53 -147 -228 0
-144 -160 227 0
-2 -53 63 0
26 152 -225 0
-117 147 150 0
-44 121 -221 0
121 178 -226 0
17 98 154 0
101 145 202 0
25 233 250 0
13 103 120 0
-143 -164 239 0
-5 40 120 0
37 -48 207 0
-131 202 245 0
8 143 218 0
-140 -158 -170 0
2 144 172 0
-130 208 213 0
167 -182 189 0
-23 157 250 0
62 187 -218 0
-71 78 -80 0
86 148 156 0
12 -20 -30 0
105 157 237 0
16 184 -215 0
15 -206 -225 0
-35 -66 -181 0
8 84 -98 0
-42 -168 -243 0
-4 64 -206 0
-60 -140 227 0
-62 198 199 0
-10 -27 -212 0
17 -94 138 0
14 -55 136 0
-55 56 -166 0
31 -111 184 0
-177 -191 243 0
66 88 246 0
67 159 165 0
78 101 178 0
-4 19 138 0
-29 -143 -185 0
-26 -46 -231 0
105 -177 179 0
-118 -221 239 0
8 100 213 0
-90 -172 206 0
19 49 -217 0
47 68 -170 0
-15 -25 215 0
58 146 -150 0
4 -69 -219 0
46 -139 -185 0
43 94 95 0
74 98 195 0
-57 -196 227 0
-121 165 229 0
-26 97 -170 0
-8 113 121 0
-118 143 -183 0
31 123 -125 0
16 31 -113 0
93 -114 121 0
-19 57 -131 0
-16 29 242 0
-44 131 134 0
-22 -68 123 0
-20 116 207 0
-72 170 203 0
-122 124 181 0
161 -168 208 0
-60 138 -166 0
-38 100 -206 0
167 169 232 0
118 -154 231 0
-10 74 218 0
78 81 -192 0
7 -43 -174 0
-17 -60 123 0
56 -160 232 0
-80 117 -201 0
-9 -46 105 0
96 146 198 0
-40 -156 -208 0
-141 144 -183 0
-31 -62 144 0
36 -134 234 0
43 60 -109 0
65 105 -203 0
-183 242 248 0
112 210 -235 0
19 74 -193 0
-19 97 -136 0
-63 128 -169 0
-20 -152 230 0
-178 221 -245 0
-94 135 245 0
121 -160 175 0
88 -114 -122 0
-60 202 249 0
103 105 -139 0
-93 -182 -189 0
33 -57 164 0
-10 -35 131 0
-117 -121 -150 0
-112 181 -195 0
5 -174 -178 0
-30 162 247 0
152 -181 -248 0
42 -66 167 0
-4 -51 230 0
2 18 205 0
2 -45 59 0
5 7 30 0
39 -86 -121 0
-75 -107 -192 0
-15 22 -238 0
17 -24 160 0
-187 -203 -223 0
37 49 -155 0
76 99 -184 0
-19 205 206 0
-39 -49 151 0
-24 -160 212 0
4 50 -239 0
-62 -67 193 0
8 59 -186 0
-55 164 184 0
-53 80 170 0
-16 -58 -119 0
-81 134 -185 0
-13 23 76 0
45 -162 239 0
-31 -51 -83 0
20 -28 -199 0
18 -65 -124 0
-123 -219 -241 0
-186 200 238 0
-23 117 197 0
220 233 -242 0
-9 159 -176 0
22 -112 134 0
184 189 -247 0
172 197 233 0
-42 81 210 0
-45 -100 -196 0
-32 63 229 0
-67 -190 242 0
-48 -155 -245 0
52 184 -188 0
-28 209 223 0
66 -121 -132 0
-45 187 -191 0
1 -15 211 0
66 196 -202 0
-59 -82 -218 0
-91 -96 -159 0
29 -59 242 0
165 210 236 0
-65 -79 -209 0
35 -79 215 0
89 -217 230 0
220 -241 -245 0
119 -121 -201 0
17 -26 64 0
7 -204 232 0
18 128 -158 0
-80 -103 -164 0
-162 -164 -228 0
-80 188 215 0
107 115 124 0
-54 93 139 0
-119 146 152 0
-24 -48 110 0
57 191 -204 0
-189 227 -242 0
-20 164 -182 0
78 -85 132 0
-37 172 224 0
5 -167 234 0
15 54 -237 0
40 144 239 0
113 -162 206 0
-67 155 -177 0
-56 132 161 0
-2 199 206 0
60 66 138 0
52 -224 232 0
70 -109 215 0
23 -114 223 0
44 -82 -118 0
63 185 197 0
-92 -105 -223 0
-42 56 163 0
50 -81 151 0
-107 -123 -216 0
71 -121 242 0
44 -60 -129 0
18 -104 -248 0
-86 91 -181 0
147 214 -222 0
-91 -131 -162 0
41 142 -168 0
-103 174 -219 0
-41 206 -242 0
30 -35 -230 0
-71 113 -127 0
-137 -141 203 0
-66 86 -100 0
-18 100 -205 0
