c F1 random 3-CNF cnfgen RandomKCNF(3,250,1065,seed=16) m/n=4.26
p cnf 250 1065
-93 -121 124 0
-2 105 115 0
-3 76 -78 0
-6 57 203 0
156 -171 -207 0
-154 161 -181 0
67 -93 -108 0
109 -133 165 0
22 -73 250 0
-40 -80 -126 0
-17 43 -117 0
126 -216 222 0
117 -157 214 0
37 -182 -248 0
-9 -12 -139 0
131 172 -244 0
24 26 182 0
12 101 -161 0
-40 164 231 0
3 62 150 0
-38 -69 165 0
-104 -119 -227 0
8 -10 -16 0
-129 237 248 0
30 -107 162 0
-37 112 117 0
-34 -225 227 0
-48 93 -102 0
54 -110 -169 0
76 147 -250 0
-62 128 -189 0
35 126 -129 0
-15 21 -119 0
-26 -44 -137 0
17 -58 101 0
4 162 -184 0
102 156 -160 0
-6 164 232 0
138 171 -245 0
8 -132 -158 0
-35 90 183 0
-6 -24 49 0
10 40 -48 0
53 112 146 0
21 119 227 0
174 186 -200 0
11 -91 -193 0
-32 67 -157 0
-96 113 -191 0
21 -50 -212 0
15 -201 -227 0
-12 104 133 0
-61 107 -247 0
-11 -15 97 0
37 230 248 0
-76 150 171 0
31 211 -231 0
-21 -156 158 0
-110 -153 242 0
177 199 -232 0
-68 -78 168 0
-209 -210 -232 0
-167 223 244 0
-30 -86 -228 0
75 -201 214 0
2 122 -180 0
40 -152 -246 0
-28 147 -197 0
-44 -96 -250 0
41 55 193 0
1 72 -181 0
-28 -31 -50 0
1 -6 -227 0
-31 -85 -223 0
61 -156 238 0
47 -58 -170 0
19 38 248 0
-195 206 -237 0
-211 -234 -241 0
-84 179 -201 0
7 -64 118 0
-105 113 139 0
62 137 179 0
12 -44 -68 0
10 -34 -128 0
-108 -162 243 0
75 -106 165 0
-53 210 245 0
55 224 226 0
52 -131 -229 0
-4 -15 -118 0
86 178 200 0
73 -135 -249 0
31 90 -212 0
14 -77 -162 0
-40 134 -188 0
-4 56 -98 0
-87 94 110 0
49 158 -228 0
48 142 189 0
-56 180 206 0
-37 109 160 0
-59 -201 245 0
163 238 245 0
23 170 172 0
-9 -100 112 0
-42 -46 -144 0
-191 196 -248 0
-40 105 -184 0
92 -98 126 0
-110 148 237 0
112 -141 -244 0
3 -27 -133 0
92 118 -207 0
-21 -25 -158 0
16 -154 195 0
70 -112 247 0
109 -117 -213 0
-81 93 133 0
87 185 204 0
-113 -157 173 0
96 -169 -235 0
127 157 163 0
-96 -136 173 0
-10 -86 205 0
-89 -144 194 0
98 -110 -112 0
-73 -191 -221 0
-78 -226 -238 0
-14 196 -200 0
-91 137 247 0
17 -87 122 0
-125 -176 -224 0
-63 -146 -224 0
-69 -98 235 0
-19 -52 236 0
-4 -27 -129 0
-51 96 -207 0
-21 -79 181 0
115 -145 168 0
-16 113 249 0
19 86 -129 0
-115 156 -198 0
7 -32 -194 0
71 -186 -219 0
-24 63 224 0
-11 13 128 0
1 41 -139 0
35 94 101 0
3 10 -19 0
99 -221 -245 0
1 56 116 0
-9 101 151 0
-2 -146 200 0
4 93 151 0
35 -54 -209 0
-65 -131 -235 0
79 118 132 0
-82 -136 -212 0
144 -165 219 0
-28 120 -127 0
64 102 -133 0
96 -169 -192 0
-16 -246 248 0
-124 -209 -226 0
14 196 -228 0
-66 172 -227 0
-26 175 -202 0
-34 89 151 0
58 -135 -153 0
38 87 235 0
-25 77 -120 0
-128 148 235 0
-29 81 181 0
61 142 -177 0
70 147 172 0
-86 95 145 0
113 226 -230 0
-204 216 230 0
-32 -147 -194 0
-88 -144 -206 0
-163 168 -220 0
-19 -220 228 0
74 200 211 0
70 191 -234 0
15 220 248 0
79 109 -140 0
14 -152 -159 0
72 112 -158 0
-51 180 -206 0
-26 157 -206 0
-40 -113 -210 0
-104 -109 -162 0
46 -76 101 0
-49 -79 -136 0
127 -182 190 0
-77 79 -189 0
-69 89 -216 0
-98 118 211 0
31 -120 140 0
116 158 225 0
41 232 -245 0
-109 -225 235 0
9 20 -30 0
41 -162 186 0
117 -167 241 0
-8 -9 -147 0
-74 -77 -234 0
-8 23 -79 0
-8 -121 180 0
4 11 -201 0
1 134 -192 0
4 69 -93 0
46 111 -132 0
-125 -229 -244 0
28 210 -234 0
71 -164 193 0
-16 17 135 0
53 -91 -93 0
-124 153 154 0
-98 -166 -205 0
4 58 138 0
105 -215 247 0
7 -61 89 0
36 46 -183 0
45 72 -96 0
71 -203 -214 0
-91 -109 139 0
-130 -211 -222 0
-34 63 -115 0
-92 218 244 0
29 -49 -114 0
-41 171 -211 0
35 -217 228 0
-11 -114 157 0
-48 145 -227 0
108 -171 -236 0
-18 50 191 0
-88 -115 156 0
-17 202 -250 0
-60 146 192 0
-144 150 -183 0
-59 63 -161 0
57 97 170 0
-202 -214 243 0
53 196 240 0
-170 239 -244 0
-60 -74 -179 0
-62 -75 143 0
73 151 250 0
-25 67 161 0
18 93 173 0
13 -199 238 0
-101 -117 129 0
-91 188 231 0
8 -192 240 0
-21 -94 166 0
19 -86 -178 0
113 -173 -187 0
75 131 -152 0
-108 -210 -233 0
-170 185 222 0
-1 -137 -169 0
28 -86 -154 0
122 197 206 0
-40 -127 -199 0
-61 -85 164 0
-105 -118 206 0
-2 -109 237 0
-45 -151 154 0
69 -116 178 0
9 -71 -183 0
41 -115 -145 0
-134 -148 -166 0
51 -124 223 0
5 64 -156 0
12 -75 -196 0
-90 145 -228 0
107 149 -178 0
-55 -149 246 0
76 173 -202 0
76 -78 -208 0
20 25 -209 0
28 75 232 0
-56 193 -220 0
113 -117 235 0
-82 153 -224 0
-32 89 196 0
95 -209 232 0
138 -218 -232 0
-188 193 -210 0
51 139 202 0
30 117 164 0
-130 133 -149 0
-19 -64 223 0
143 182 -231 0
15 48 238 0
11 -89 209 0
-141 -207 -209 0
28 194 199 0
100 -193 -223 0
-3 -37 -169 0
16 -89 226 0
4 -210 233 0
138 -182 237 0
92 133 -137 0
140 227 248 0
-52 -161 -244 0
103 145 -242 0
-28 46 -117 0
-23 98 -181 0
-32 77 201 0
26 -87 -237 0
30 156 -246 0
-63 -139 175 0
-179 187 199 0
23 -119 128 0
36 -60 -198 0
3 -74 128 0
-98 117 171 0
-219 -227 232 0
10 84 -114 0
-86 117 -138 0
-207 -209 -221 0
-23 -199 227 0
127 -149 220 0
84 86 243 0
-119 -150 237 0
-21 217 237 0
27 46 -248 0
-14 153 242 0
-96 -163 248 0
57 -170 174 0
-12 39 86 0
46 -147 -200 0
51 55 -99 0
91 157 -184 0
17 -49 79 0
-10 16 120 0
-3 142 171 0
-38 -220 -246 0
94 181 240 0
65 -176 -218 0
-6 27 47 0
10 -17 135 0
16 23 193 0
-85 86 -104 0
-128 177 203 0
13 117 179 0
135 -213 -249 0
-53 70 93 0
88 95 206 0
-55 117 -187 0
-53 165 170 0
-79 -155 -235 0
-70 148 -202 0
91 111 247 0
108 -199 214 0
77 121 -219 0
114 -212 222 0
-13 -100 126 0
-15 -21 92 0
-5 -160 -214 0
89 132 212 0
4 11 245 0
114 -210 225 0
-33 42 -106 0
-52 -114 160 0
27 -30 -96 0
42 103 -222 0
126 -177 178 0
50 218 250 0
136 -170 172 0
-28 140 194 0
8 79 -110 0
3 47 -139 0
-3 -171 248 0
-99 147 199 0
-58 127 -163 0
-90 -105 231 0
13 26 -43 0
-83 -168 246 0
129 170 176 0
23 119 -201 0
28 -61 -123 0
54 -125 -205 0
99 -165 185 0
-24 -89 105 0
110 183 247 0
-20 148 247 0
-8 -71 -99 0
-163 -168 -231 0
-156 -181 -211 0
-73 -88 -246 0
-44 67 241 0
85 157 212 0
-30 41 91 0
37 -137 147 0
95 -185 -195 0
20 -32 39 0
14 -182 222 0
-2 -31 223 0
-42 -44 -227 0
51 -170 183 0
14 21 -203 0
41 87 -241 0
128 200 244 0
-48 -99 211 0
-32 193 239 0
-72 -195 -220 0
18 -188 238 0
8 101 -250 0
-121 -144 197 0
-49 -127 -220 0
-49 126 -160 0
-67 -94 168 0
9 213 -226 0
-57 -69 -222 0
-16 -116 182 0
16 118 141 0
-73 -136 153 0
-87 95 -211 0
105 122 -159 0
-59 66 -193 0
-170 -174 221 0
34 -77 -137 0
-10 64 169 0
-99 200 -229 0
131 -156 195 0
147 -151 250 0
-21 -68 -136 0
-37 -126 -137 0
162 215 217 0
179 206 -223 0
33 152 -197 0
52 -65 -106 0
68 -69 110 0
20 63 -233 0
-47 122 -184 0
26 29 -88 0
-1 153 -204 0
107 -188 -197 0
-7 92 105 0
50 51 219 0
143 -153 235 0
85 -138 192 0
10 -75 -87 0
-8 -19 -23 0
90 -152 -165 0
29 -112 131 0
33 -121 225 0
14 143 -187 0
4 13 -136 0
128 187 192 0
85 100 201 0
-88 -175 -231 0
118 188 -230 0
-21 52 174 0
103 157 -248 0
-208 -215 222 0
-39 -129 -206 0
-128 -223 -232 0
-30 246 -249 0
-104 136 227 0
54 82 -246 0
87 -159 -219 0
-43 47 -144 0
5 -149 206 0
57 119 -211 0
36 106 146 0
-59 148 184 0
-9 -24 183 0
-112 -113 178 0
-100 -161 165 0
26 194 225 0
-16 162 -185 0
-1 129 148 0
228 -236 -240 0
-124 -167 246 0
-93 -185 -191 0
-9 127 146 0
-16 -75 145 0
70 137 -150 0
8 17 75 0
67 -171 -189 0
16 -98 228 0
8 -202 245 0
112 187 225 0
33 43 227 0
58 140 -200 0
-199 -207 -218 0
176 206 250 0
-24 80 -152 0
117 135 -184 0
59 183 193 0
29 -39 -106 0
98 -154 229 0
-27 28 -204 0
-28 -104 -145 0
-8 -113 220 0
-32 160 188 0
70 -78 190 0
-67 110 -222 0
8 106 118 0
64 -190 210 0
57 112 246 0
73 -128 167 0
-111 192 -230 0
99 169 -239 0
104 -165 -177 0
-13 -25 133 0
-14 -154 201 0
-61 73 -175 0
14 26 -117 0
187 190 205 0
2 42 117 0
-25 -155 -222 0
116 -230 247 0
-20 -27 -59 0
-37 -91 218 0
20 -199 -215 0
231 -240 -247 0
53 78 -213 0
-72 -184 193 0
194 -217 223 0
94 -115 -216 0
-25 190 -240 0
12 129 189 0
-70 -109 -210 0
42 119 221 0
-48 189 192 0
16 39 62 0
-21 -101 -131 0
-32 167 184 0
27 167 172 0
39 40 201 0
-76 -174 249 0
18 -208 -237 0
30 -225 231 0
23 -135 213 0
35 -36 171 0
44 58 -87 0
24 28 78 0
96 -98 178 0
-120 145 -151 0
-79 -134 200 0
31 -81 213 0
-167 193 -216 0
-62 155 -250 0
-31 -235 247 0
72 -96 168 0
167 -191 -216 0
64 170 197 0
-38 -197 239 0
-17 -69 128 0
-97 132 238 0
-20 128 -190 0
-109 -115 193 0
-75 156 250 0
-16 -19 120 0
65 -138 144 0
-32 -114 -228 0
80 -173 -205 0
17 -88 129 0
9 -157 -241 0
-152 160 -178 0
-109 -124 212 0
27 -165 -217 0
-114 -149 162 0
7 -51 -143 0
24 -29 -98 0
-126 156 -171 0
184 240 248 0
54 70 183 0
50 60 -68 0
-189 214 -230 0
22 -94 -185 0
43 -163 192 0
174 -204 -248 0
-189 207 213 0
-91 142 -192 0
-77 -85 164 0
-146 -209 213 0
138 149 -174 0
48 136 -208 0
17 29 -182 0
90 160 243 0
2 234 -246 0
72 175 -199 0
-86 95 -226 0
-59 129 214 0
13 43 184 0
-11 -32 -235 0
90 180 233 0
-71 119 125 0
198 226 235 0
1 51 223 0
-6 81 -120 0
91 -140 -203 0
-102 -106 -115 0
-6 64 -228 0
99 136 240 0
-34 -60 228 0
117 200 236 0
33 162 232 0
-136 -224 -226 0
-159 -226 231 0
-17 -165 -243 0
-57 -132 231 0
34 -188 214 0
-89 -224 -235 0
-40 -219 -234 0
-20 -187 -234 0
104 -146 -225 0
-12 -68 128 0
-16 63 192 0
134 175 210 0
37 39 244 0
-45 -53 -96 0
-66 -97 -133 0
98 193 -206 0
21 -81 171 0
38 151 -194 0
-53 210 233 0
-20 -54 109 0
44 -172 218 0
56 105 226 0
-1 -139 -154 0
89 -142 207 0
-57 65 -240 0
122 143 -157 0
137 -158 159 0
51 -208 245 0
50 122 -202 0
-81 -105 -131 0
-70 132 148 0
3 -96 215 0
36 -90 152 0
-94 -141 -221 0
-94 112 234 0
-156 174 -223 0
24 138 244 0
-202 218 -232 0
45 49 228 0
-55 -210 215 0
44 -122 -191 0
-53 -197 221 0
35 55 75 0
-49 -189 240 0
-58 -118 -236 0
-93 -97 -151 0
95 -158 244 0
-83 -93 -144 0
134 168 -228 0
181 -190 -227 0
158 170 -250 0
-49 81 -194 0
14 -207 -208 0
144 -204 -217 0
7 100 250 0
-11 -141 -248 0
-8 76 180 0
-46 -47 -238 0
-70 -115 -172 0
-46 217 245 0
61 88 -100 0
-75 118 -164 0
43 178 183 0
6 58 202 0
-66 -112 225 0
-57 62 74 0
81 -162 205 0
123 174 231 0
16 201 -231 0
-13 75 229 0
1 -211 231 0
65 188 240 0
-78 -136 250 0
24 -32 45 0
-32 -225 237 0
-47 -165 247 0
-139 -209 231 0
-22 -73 153 0
73 -161 -194 0
85 -88 -124 0
-31 -45 -176 0
18 -32 -92 0
100 143 -202 0
-47 -153 213 0
118 -143 198 0
47 214 232 0
90 -183 211 0
21 95 222 0
-85 148 205 0
106 131 -195 0
-203 232 249 0
71 121 -141 0
-1 20 191 0
-2 206 212 0
-1 -122 169 0
-17 85 -208 0
-19 34 -54 0
55 159 223 0
10 15 27 0
13 139 168 0
-1 -76 -110 0
-20 84 181 0
-44 154 -209 0
81 -185 -217 0
-50 -118 -149 0
-52 -70 -169 0
30 44 147 0
21 -89 -235 0
-10 69 78 0
41 -75 93 0
-40 145 -171 0
155 167 183 0
75 125 -167 0
70 -107 -192 0
81 91 175 0
52 131 191 0
-109 -110 -245 0
6 -49 155 0
12 -184 -231 0
-92 102 195 0
-131 -231 -235 0
-97 119 176 0
28 -62 -72 0
37 -53 -179 0
51 113 -116 0
-23 99 -163 0
10 99 -133 0
-17 -96 -240 0
-151 -230 236 0
114 -212 -223 0
-22 -63 183 0
-6 203 -209 0
-49 110 202 0
-34 36 -119 0
106 -124 -211 0
95 142 155 0
27 74 -124 0
129 151 185 0
71 136 -210 0
-114 116 224 0
77 -88 -187 0
-5 44 -111 0
169 225 248 0
-201 202 -243 0
-98 -161 170 0
76 140 -145 0
-105 -161 -169 0
29 -117 142 0
81 151 -204 0
-39 180 214 0
135 -186 -204 0
17 74 107 0
51 -83 191 0
-7 28 -126 0
12 155 170 0
37 108 -138 0
-108 160 170 0
92 125 -197 0
-24 79 -234 0
-144 173 192 0
-12 -38 -59 0
56 155 -190 0
-80 129 206 0
10 44 50 0
-12 -83 91 0
-53 -74 -193 0
58 -124 151 0
69 121 -240 0
82 -99 -148 0
-160 162 -223 0
60 109 -128 0
30 -101 133 0
-33 100 -105 0
5 -95 104 0
75 164 200 0
144 -200 -243 0
108 197 -250 0
19 70 -164 0
94 95 -195 0
-6 -66 -179 0
7 -31 132 0
7 -28 -93 0
46 -164 188 0
-167 177 -250 0
12 -155 -232 0
-57 66 172 0
-6 -84 -100 0
-3 -21 -144 0
12 126 -188 0
-117 -139 244 0
-177 179 226 0
68 -105 -166 0
66 -114 -121 0
-14 -209 -236 0
-42 -62 -134 0
105 108 127 0
107 -113 221 0
-53 -119 161 0
147 173 209 0
-74 199 205 0
-47 -50 200 0
66 -127 -157 0
-13 -25 -175 0
48 -60 -180 0
-11 -39 -96 0
167 -244 -250 0
-110 -131 -219 0
-73 -95 115 0
-8 -37 -103 0
4 -100 -165 0
115 123 -228 0
-60 -64 239 0
-39 199 240 0
-106 -120 -153 0
-27 -44 -240 0
9 -84 -193 0
-58 145 -175 0
93 105 -127 0
-26 72 219 0
35 -39 -217 0
-1 206 215 0
53 -102 167 0
26 37 242 0
88 117 181 0
22 128 -173 0
-55 157 235 0
-145 -171 -233 0
-47 -174 -203 0
-12 -104 165 0
-83 -112 134 0
-110 -200 -242 0
47 205 234 0
39 77 148 0
-215 -230 -231 0
-12 36 -186 0
7 -120 208 0
33 -185 -237 0
-106 151 -208 0
24 -206 -242 0
18 48 -202 0
6 53 176 0
-139 -158 -176 0
100 -147 195 0
-55 -68 83 0
-93 112 -151 0
104 -205 210 0
6 236 -249 0
23 -32 -107 0
-115 125 -235 0
-48 64 202 0
31 -149 -191 0
-133 -233 243 0
-56 -83 -137 0
161 205 224 0
-190 202 -228 0
104 162 198 0
67 -99 244 0
-10 148 192 0
90 231 232 0
64 -69 181 0
-224 -225 -241 0
-8 206 233 0
-1 -93 124 0
-7 -146 190 0
-2 18 -83 0
5 -30 172 0
-38 43 44 0
-23 -29 157 0
22 -68 248 0
-51 107 -131 0
86 179 -249 0
-46 -52 -115 0
125 161 -236 0
-91 -142 -178 0
157 -194 205 0
-73 83 -150 0
96 -135 163 0
-55 -182 200 0
-27 60 154 0
50 177 -214 0
-176 216 -224 0
-109 217 -218 0
81 -100 152 0
7 14 -181 0
114 -159 -202 0
-80 -186 -193 0
65 -123 155 0
22 105 219 0
65 114 -173 0
43 -193 -206 0
27 69 -226 0
-99 160 -169 0
55 132 -211 0
110 150 -161 0
-10 -158 234 0
-64 -142 -229 0
-16 33 -184 0
-30 -158 228 0
27 -69 164 0
-69 82 90 0
-39 -45 -82 0
-64 233 238 0
35 -221 -224 0
-77 170 -182 0
-95 -161 -187 0
67 143 186 0
74 136 207 0
10 217 -247 0
70 124 160 0
-61 -96 -185 0
110 -139 189 0
-49 -150 -234 0
-12 33 122 0
69 86 99 0
7 49 -190 0
6 -42 208 0
69 -83 -140 0
-35 -42 -211 0
-101 105 112 0
61 -72 187 0
11 173 -190 0
69 -97 -135 0
45 123 152 0
62 -93 107 0
32 -59 104 0
-9 -167 -242 0
191 192 -216 0
34 95 153 0
38 -128 172 0
3 -209 225 0
-70 -73 104 0
60 -132 215 0
15 126 160 0
112 -165 -215 0
18 -190 -233 0
-62 112 187 0
-4 -236 247 0
74 141 177 0
18 209 235 0
43 -122 -211 0
233 -238 -240 0
11 69 -228 0
90 -159 -247 0
94 -108 160 0
80 -131 207 0
-99 106 -194 0
11 -170 239 0
7 -125 159 0
116 -126 -171 0
-48 224 -235 0
155 -158 244 0
-141 177 212 0
-6 -118 212 0
18 -79 -111 0
-5 -33 239 0
95 177 234 0
37 -155 241 0
78 112 153 0
-71 73 -190 0
30 75 98 0
-93 155 -185 0
-133 149 168 0
-4 -42 -67 0
-153 165 -183 0
-21 -111 171 0
92 -113 171 0
83 107 192 0
-36 91 239 0
15 24 -209 0
-126 -211 216 0
-46 238 -245 0
-22 -50 227 0
-91 176 188 0
-56 -145 -240 0
-166 -174 190 0
-29 -185 -242 0
-9 22 -152 0
-43 46 -249 0
87 155 179 0
31 72 249 0
-123 -174 -195 0
70 -91 215 0
107 132 -152 0
103 120 -247 0
-11 -91 244 0
-31 150 247 0
27 -31 123 0
-15 58 62 0
157 -199 -245 0
-188 -236 248 0
-71 174 202 0
22 -81 -96 0
11 20 -154 0
157 -193 -206 0
3 121 -169 0
-46 -140 -249 0
73 179 221 0
34 -113 -158 0
-35 163 -234 0
8 77 240 0
-133 -174 213 0
-132 135 -146 0
-65 -102 165 0
14 -78 162 0
-8 -138 -207 0
77 139 233 0
12 -131 187 0
152 -232 249 0
60 -65 -222 0
56 -167 -177 0
120 148 -227 0
35 -42 234 0
-10 79 250 0
-55 74 -210 0
76 -162 -229 0
-57 78 223 0
93 -104 -155 0
-105 -113 234 0
-10 -199 208 0
-35 164 -178 0
-19 -36 51 0
-12 230 250 0
62 222 -234 0
80 96 150 0
54 -56 201 0
45 125 180 0
-106 -148 -228 0
-39 60 225 0
-76 -177 201 0
38 97 225 0
83 216 -247 0
15 40 139 0
92 -161 -188 0
90 96 97 0
-57 -197 205 0
26 -160 -193 0
-68 82 -127 0
50 54 232 0
-27 32 203 0
159 -172 -177 0
136 159 -216 0
48 -207 -215 0
-4 141 181 0
-45 172 -223 0
39 -135 -250 0
185 -211 -213 0
10 -34 139 0
70 -75 81 0
-29 45 192 0
-15 -22 -203 0
-99 129 -152 0
-84 136 -198 0
102 161 -173 0
-51 -101 -225 0
19 201 250 0
-71 236 238 0
45 -204 223 0
-27 37 -92 0
49 176 185 0
-27 68 -241 0
