c F1 random 3-CNF cnfgen RandomKCNF(3,200,852,seed=8) m/n=4.26
p cnf 200 852
59 95 97 0
22 -36 64 0
-117 -118 125 0
23 104 -125 0
-105 122 -134 0
-17 25 99 0
61 -87 177 0
37 149 -156 0
-38 -50 -180 0
92 110 143 0
-81 -137 177 0
-39 80 92 0
-4 -63 89 0
-9 -69 -109 0
-45 107 181 0
7 -52 170 0
-4 98 -196 0
-36 -60 -105 0
-18 21 151 0
-22 28 -170 0
39 155 182 0
36 -88 -99 0
-1 84 94 0
9 159 -195 0
31 111 114 0
-40 122 128 0
116 -149 185 0
-121 -145 -184 0
14 -51 58 0
28 55 -186 0
24 111 -136 0
99 135 -191 0
-21 -76 157 0
-21 -76 -162 0
-78 -133 161 0
-51 -95 125 0
-75 -102 -157 0
-51 110 -173 0
-18 -42 128 0
-71 -75 -160 0
-63 106 162 0
118 130 192 0
95 128 -200 0
-22 44 168 0
-6 49 157 0
-118 119 172 0
92 -156 168 0
-22 36 168 0
-10 154 -186 0
84 92 -191 0
-41 66 -112 0
17 26 -187 0
46 87 192 0
15 143 -189 0
-63 76 189 0
34 -36 192 0
44 -45 105 0
-115 -150 -178 0
-149 -176 -189 0
136 -189 -200 0
-33 -122 -175 0
-56 135 -146 0
-32 -122 166 0
-9 -96 -130 0
8 160 179 0
48 -115 149 0
-11 -96 129 0
-27 82 167 0
-94 -123 -148 0
96 161 -191 0
-9 -16 -60 0
-45 122 -144 0
-6 -113 -190 0
-75 -76 104 0
-113 128 168 0
-93 -154 -184 0
53 99 147 0
-23 141 171 0
65 103 163 0
10 -114 -184 0
2 8 -189 0
3 80 -164 0
24 82 107 0
-52 -131 133 0
38 109 -130 0
112 -153 -169 0
51 -170 178 0
81 125 198 0
-80 -102 -178 0
6 104 155 0
-29 168 -198 0
-22 -62 -168 0
94 119 -157 0
-25 57 133 0
57 -109 186 0
69 -145 -199 0
37 -147 170 0
-81 92 103 0
-99 -171 174 0
87 125 141 0
-156 -177 -181 0
27 149 157 0
21 71 114 0
-16 -20 -162 0
81 -125 -182 0
-16 123 161 0
-131 -132 -197 0
31 -41 -172 0
103 -140 146 0
-41 -77 192 0
-103 156 174 0
-142 -177 -183 0
49 123 -180 0
18 47 102 0
-48 125 184 0
-64 113 -197 0
-31 79 135 0
-95 -114 187 0
-27 -50 125 0
-8 34 -177 0
-86 115 -172 0
-121 163 174 0
-47 61 -185 0
144 156 171 0
23 -86 -94 0
35 -77 186 0
28 40 152 0
-38 -127 165 0
74 -113 -182 0
-86 112 -128 0
12 149 -174 0
109 -167 -181 0
11 161 -167 0
5 14 -129 0
-36 -64 93 0
49 -62 165 0
8 108 161 0
81 -105 196 0
-15 84 -92 0
-161 163 195 0
70 178 -188 0
37 78 142 0
11 -179 -185 0
-114 -172 -186 0
-35 -175 -183 0
-59 158 -178 0
147 -172 -195 0
30 70 -130 0
103 161 178 0
33 -144 -161 0
-57 144 -162 0
-76 -117 -194 0
-25 -100 -192 0
97 140 155 0
-41 -100 144 0
68 -87 141 0
-101 -108 -138 0
16 125 -160 0
42 44 188 0
98 167 172 0
67 76 -170 0
-21 26 94 0
13 -169 -183 0
71 90 188 0
3 -104 -194 0
59 -95 -104 0
-77 86 -141 0
18 -20 110 0
104 -136 -190 0
-61 -79 83 0
1 3 110 0
-21 27 140 0
114 127 -183 0
-13 74 -142 0
-79 95 130 0
-16 -19 59 0
-30 -112 142 0
-36 -180 -194 0
-97 125 -126 0
-84 -88 -98 0
1 115 -121 0
20 137 162 0
3 -28 -156 0
-23 -53 -76 0
-40 -125 -159 0
-47 75 104 0
-5 57 186 0
26 -36 -158 0
46 -115 -150 0
105 107 158 0
117 178 -200 0
-31 -116 192 0
10 -19 -73 0
16 86 108 0
-34 122 -163 0
-121 -133 -192 0
-75 82 149 0
-42 101 187 0
11 -77 -80 0
-35 -150 160 0
-51 -144 -162 0
11 -72 186 0
21 120 157 0
30 33 -69 0
-40 -128 -176 0
-7 -53 -103 0
-6 -59 -105 0
21 -32 113 0
56 82 -86 0
65 170 178 0
83 120 -134 0
12 39 -127 0
-42 162 -183 0
-11 94 141 0
-124 126 151 0
-150 -153 179 0
-143 173 -182 0
30 -39 92 0
11 55 -175 0
-31 45 76 0
34 73 -127 0
-45 -107 -156 0
-106 -160 165 0
-40 -122 -142 0
16 -36 -138 0
-60 103 167 0
36 -38 138 0
18 -95 155 0
13 94 164 0
-132 -156 165 0
44 -97 180 0
-25 90 135 0
17 -106 155 0
89 -159 -199 0
-21 -28 -163 0
173 181 -183 0
-2 42 -80 0
-29 -98 123 0
-46 135 -147 0
-39 40 59 0
-7 -127 -144 0
-42 116 -162 0
-94 122 173 0
-67 77 -193 0
75 137 190 0
-48 80 105 0
-48 -157 173 0
26 45 101 0
41 -107 136 0
-8 71 -88 0
-72 -121 189 0
-8 12 -144 0
60 83 -180 0
40 180 -194 0
42 55 -183 0
88 119 -192 0
-18 156 -183 0
31 -105 -177 0
80 -120 148 0
28 -144 196 0
18 -66 -199 0
29 38 109 0
130 176 186 0
-123 139 -152 0
-58 -104 -143 0
-88 97 163 0
11 55 170 0
8 130 144 0
-39 -51 136 0
93 -132 169 0
111 -140 -143 0
-35 -109 -131 0
16 -76 148 0
28 -123 197 0
-5 102 189 0
55 159 167 0
-58 87 136 0
-37 -80 86 0
-20 67 -95 0
37 55 102 0
25 -147 154 0
86 155 -164 0
46 66 190 0
-68 -87 -89 0
-129 180 192 0
-53 61 -96 0
62 98 148 0
101 109 187 0
-128 193 197 0
-1 -7 172 0
22 -38 77 0
-1 -101 -144 0
41 -57 88 0
-116 -138 -148 0
-21 -25 -177 0
80 -85 -196 0
-59 73 127 0
-28 -61 -141 0
54 107 152 0
-126 152 179 0
49 129 -131 0
98 115 178 0
128 130 148 0
-17 77 164 0
84 -150 -173 0
-20 76 186 0
-24 -54 -148 0
21 108 167 0
-61 -108 137 0
-31 -175 192 0
6 102 157 0
11 -13 -146 0
16 -62 69 0
-75 -81 145 0
-36 47 136 0
-39 -142 170 0
35 76 -181 0
70 130 -185 0
-11 105 -191 0
-71 -130 -194 0
-125 132 176 0
-41 154 -161 0
-1 162 -169 0
100 -135 200 0
28 -73 131 0
115 -171 197 0
-49 -114 -153 0
3 -10 191 0
69 87 -138 0
74 -165 -190 0
67 85 123 0
-38 139 186 0
-6 65 -138 0
-48 128 180 0
-22 31 -72 0
-67 -111 191 0
7 -149 197 0
69 -78 -102 0
54 119 -123 0
-18 -127 -158 0
18 88 139 0
106 141 183 0
-117 -162 -195 0
-49 -180 -192 0
-123 -135 158 0
-69 -156 -169 0
-7 17 -35 0
31 -74 -168 0
-57 105 152 0
-69 -105 121 0
-67 -156 -187 0
48 -126 132 0
24 91 93 0
-9 -43 67 0
71 -73 91 0
39 69 134 0
113 -117 -145 0
19 -126 -184 0
106 117 176 0
23 -93 164 0
-145 -154 180 0
-112 -145 -160 0
84 127 -151 0
-59 78 169 0
51 85 -112 0
-63 95 193 0
62 95 -118 0
-93 -114 -145 0
65 98 190 0
-22 164 188 0
145 147 -172 0
99 -184 -197 0
21 -29 147 0
101 -165 179 0
44 -120 186 0
78 -88 123 0
34 -93 -165 0
-6 145 -189 0
21 -97 -125 0
138 139 -187 0
6 138 -189 0
54 -70 144 0
-71 -120 -126 0
-61 -113 -160 0
-30 51 125 0
-5 -35 47 0
36 -112 -170 0
28 -48 129 0
63 -85 94 0
61 -92 188 0
41 108 -131 0
-57 70 -74 0
14 34 -57 0
-156 167 -198 0
78 -136 -141 0
-30 62 -103 0
-27 52 117 0
-161 194 200 0
-20 -87 112 0
-29 61 -164 0
-8 142 -184 0
69 -163 -186 0
-90 123 -140 0
39 -83 -92 0
-20 -110 197 0
-47 -59 121 0
37 -81 -96 0
43 108 128 0
103 -107 -174 0
25 43 -132 0
12 89 -166 0
-49 -60 -198 0
-50 -162 186 0
-37 -65 -141 0
31 96 152 0
-73 81 -190 0
14 -60 89 0
78 -112 194 0
30 112 -187 0
50 -136 -189 0
-30 -70 99 0
-53 106 145 0
39 91 148 0
36 -76 -152 0
-27 -33 92 0
43 95 97 0
19 75 103 0
120 158 191 0
5 -99 190 0
39 -59 -61 0
67 -167 199 0
29 54 140 0
-39 -90 -142 0
-46 133 145 0
-35 -53 62 0
21 48 85 0
-90 -118 119 0
112 153 -155 0
-53 70 -87 0
74 -141 167 0
-48 -87 -172 0
-16 89 117 0
-19 22 -90 0
21 51 -170 0
52 -144 191 0
34 -36 -115 0
129 137 -194 0
110 -141 165 0
-40 42 117 0
-41 -46 -117 0
24 -77 124 0
54 136 191 0
47 -84 -117 0
-61 -145 179 0
75 -76 90 0
1 -189 195 0
67 103 126 0
-36 -140 -187 0
50 97 135 0
-25 118 -193 0
73 85 125 0
-106 -138 -157 0
-72 -117 154 0
-2 -45 -188 0
-17 33 -127 0
-25 47 -180 0
65 155 -188 0
-39 -68 -164 0
-29 154 170 0
67 -100 117 0
-98 128 170 0
-12 -175 -199 0
24 85 97 0
-59 -97 173 0
-10 80 -133 0
59 83 -129 0
-6 48 165 0
-8 -52 -149 0
49 73 -165 0
1 -126 -165 0
-11 -24 -71 0
-11 -71 157 0
-28 -43 -57 0
20 73 -169 0
46 -93 196 0
53 76 -180 0
-6 19 149 0
-130 -156 -168 0
-79 -84 116 0
-15 -46 113 0
101 148 198 0
-2 143 154 0
62 -154 170 0
103 -157 162 0
50 -97 -137 0
-18 -71 171 0
-62 77 167 0
-2 -34 106 0
-28 -136 166 0
154 -164 175 0
128 137 -187 0
11 -127 -146 0
-7 35 -164 0
-29 120 -169 0
137 160 -196 0
9 -109 -163 0
2 44 -139 0
-9 -14 -132 0
101 -159 -180 0
-3 117 -125 0
-51 -60 -193 0
-23 94 102 0
-26 158 182 0
49 -121 166 0
12 162 -197 0
54 106 157 0
57 66 132 0
34 -52 102 0
1 64 80 0
-3 164 175 0
-77 150 191 0
-146 -190 -198 0
-117 -129 200 0
59 -64 197 0
115 -166 177 0
110 -147 189 0
37 189 -194 0
19 20 119 0
76 83 -121 0
-66 143 -154 0
-42 -74 -82 0
35 -51 171 0
10 -82 105 0
2 -102 181 0
74 -133 173 0
-7 65 181 0
118 169 -188 0
166 190 193 0
6 -43 176 0
87 -116 189 0
-4 -60 167 0
27 -43 142 0
1 112 184 0
-26 78 112 0
54 -115 142 0
1 18 175 0
-51 -87 -133 0
-4 110 -169 0
-29 -53 178 0
-51 -169 192 0
49 -116 -188 0
17 -126 169 0
-8 44 -67 0
15 67 -167 0
22 197 199 0
96 195 -197 0
12 134 -198 0
-34 -83 103 0
12 33 81 0
72 -114 164 0
41 -112 -122 0
73 -134 -145 0
130 170 -182 0
-53 -83 166 0
1 -173 -178 0
-46 -50 140 0
-91 -112 -195 0
-117 -127 137 0
11 149 174 0
-26 -45 -87 0
-124 127 154 0
9 35 151 0
-52 -58 75 0
-12 -20 -186 0
35 84 -199 0
22 -59 193 0
8 -151 174 0
14 -96 -108 0
-87 142 151 0
104 180 -187 0
32 172 -185 0
-11 -26 167 0
-54 -115 184 0
2 -153 160 0
-47 52 -164 0
-15 20 -76 0
-3 113 -136 0
69 175 -186 0
5 38 -48 0
67 -73 134 0
-21 33 141 0
126 156 -200 0
77 91 186 0
-17 -37 50 0
56 -121 194 0
-69 89 -123 0
32 104 -118 0
-82 -109 -155 0
97 160 -200 0
-33 -72 160 0
52 -139 172 0
12 163 -182 0
92 146 -171 0
53 78 -167 0
2 -147 184 0
-29 58 165 0
-31 64 77 0
8 -102 -130 0
96 119 128 0
-16 -100 -113 0
15 32 -143 0
-6 29 -194 0
-5 -148 181 0
109 -133 -174 0
35 97 -132 0
-11 -55 -157 0
-81 159 188 0
-3 22 125 0
-117 -118 177 0
-20 -51 -62 0
65 127 183 0
46 115 -164 0
16 47 59 0
-35 95 109 0
-34 -86 -92 0
-39 -97 169 0
-31 -93 168 0
-14 -99 -145 0
13 -138 -171 0
3 96 -124 0
42 85 101 0
62 -157 194 0
77 107 -161 0
9 -12 53 0
126 142 194 0
6 -15 181 0
82 -85 -94 0
-39 -42 154 0
-35 -54 -56 0
4 -26 -54 0
154 160 165 0
-152 -161 162 0
-91 133 -139 0
79 139 156 0
-184 -189 -192 0
-41 134 -171 0
4 -14 -138 0
34 57 191 0
168 -189 193 0
-55 -113 123 0
-136 -185 -190 0
-107 -154 170 0
-17 156 -164 0
-114 181 -182 0
-5 -110 -123 0
-10 106 -169 0
-3 -45 -109 0
-12 45 142 0
-90 -138 170 0
-84 147 170 0
56 78 -100 0
42 -44 -69 0
16 -100 162 0
-51 62 -115 0
70 100 183 0
21 -60 -153 0
-9 119 -134 0
6 -127 159 0
82 165 198 0
52 -134 -188 0
-21 34 135 0
-138 -181 -200 0
89 90 -187 0
-27 -76 173 0
158 170 178 0
-10 -103 -115 0
71 -172 -191 0
-34 -131 -155 0
-66 95 170 0
-6 -21 -23 0
9 126 -191 0
20 34 -197 0
-79 -158 194 0
-29 30 58 0
34 -139 -169 0
56 60 -160 0
36 -111 -144 0
22 -80 94 0
81 -96 -133 0
21 -110 176 0
38 161 195 0
-33 -56 -130 0
21 24 67 0
-90 -94 -150 0
52 84 -110 0
47 -101 122 0
-6 26 -32 0
-6 82 135 0
64 77 -174 0
6 137 -199 0
-17 139 174 0
-99 -187 -191 0
34 -54 108 0
-25 -70 115 0
-39 107 150 0
-79 134 138 0
97 101 129 0
44 -148 -163 0
93 -189 -194 0
34 -77 -83 0
-59 77 -100 0
21 116 195 0
-41 71 -119 0
20 99 196 0
-63 177 187 0
-6 -54 -150 0
72 -148 167 0
-144 174 -189 0
-9 38 125 0
45 92 145 0
-33 -47 -167 0
20 25 67 0
45 104 188 0
13 70 -151 0
14 89 -107 0
-1 -175 -191 0
24 -35 -71 0
-68 -174 -189 0
1 137 -168 0
35 54 162 0
-2 -25 138 0
-20 -89 -136 0
-39 75 156 0
-37 -120 -177 0
-52 121 -181 0
-39 -132 166 0
-11 152 -153 0
-27 -38 92 0
48 118 165 0
-87 -93 -179 0
43 -45 120 0
-51 -112 157 0
98 106 -149 0
5 -63 -113 0
-5 44 -80 0
-84 115 197 0
-64 -94 152 0
53 115 -173 0
134 -138 -185 0
60 97 172 0
101 111 160 0
-18 20 -62 0
18 105 -156 0
-30 -37 -120 0
-28 30 128 0
-96 -148 151 0
-29 158 -173 0
50 -156 -174 0
-38 -50 174 0
-38 -58 199 0
-100 124 -178 0
-8 -143 182 0
-30 32 -134 0
-14 -40 100 0
-34 72 -143 0
-184 -197 -198 0
-99 125 160 0
-64 -84 199 0
63 -71 94 0
-96 -141 -192 0
53 144 159 0
-7 -84 102 0
-22 -155 183 0
34 -89 117 0
-10 81 -176 0
99 -161 194 0
1 -2 198 0
-8 56 105 0
53 71 -170 0
-25 -92 132 0
-116 117 -152 0
-71 -79 100 0
-27 -95 -124 0
34 136 -194 0
-14 114 -185 0
-64 -129 187 0
-9 125 151 0
-134 151 -194 0
-93 -125 -135 0
-10 78 -166 0
-58 121 186 0
-40 -54 123 0
-35 80 -131 0
-46 151 154 0
119 -135 -149 0
-40 -187 192 0
-29 92 161 0
-32 54 108 0
-33 -61 188 0
16 -85 -126 0
-57 -69 97 0
88 97 -137 0
-41 135 154 0
-41 -48 -122 0
25 160 169 0
-2 -62 -145 0
-115 -148 161 0
9 105 159 0
44 -93 187 0
3 -100 -176 0
-12 38 180 0
30 165 186 0
28 -37 -117 0
-50 -115 161 0
6 152 -159 0
-8 19 -57 0
13 -76 -89 0
30 -92 -167 0
40 156 197 0
62 195 199 0
32 -78 122 0
-49 -79 100 0
4 36 -128 0
47 72 -200 0
13 -51 -101 0
-30 121 134 0
-44 48 -103 0
-44 133 173 0
33 -123 -192 0
77 -123 144 0
60 84 85 0
17 39 -102 0
-42 74 151 0
-9 -137 192 0
-3 -120 -151 0
-4 91 -105 0
-8 157 197 0
-28 98 179 0
-92 98 189 0
-33 104 182 0
-20 -139 -148 0
-29 92 -153 0
-80 -120 147 0
90 115 -179 0
-185 -196 -198 0
-67 -155 -160 0
24 69 -118 0
17 36 39 0
-52 -68 154 0
112 -115 143 0
41 49 199 0
-49 105 -132 0
