c F1 random 3-CNF cnfgen RandomKCNF(3,225,959,seed=14) m/n=4.26
p cnf 225 959
28 -158 -180 0
-19 -75 -188 0
-102 176 -224 0
-58 -81 -223 0
133 162 -206 0
3 43 -167 0
8 -22 -71 0
113 150 -156 0
-25 47 -222 0
-56 -116 -160 0
27 -32 -210 0
-8 31 42 0
109 -123 -176 0
-80 -118 125 0
66 -101 -122 0
-18 -37 -146 0
-5 -181 212 0
-89 -146 -182 0
78 92 -136 0
-25 66 205 0
7 -50 -80 0
9 30 65 0
-59 65 224 0
-54 -155 -175 0
9 144 -153 0
-63 -99 -126 0
-9 -64 -157 0
23 68 207 0
14 -37 -178 0
-33 115 140 0
-66 -95 181 0
24 57 114 0
-5 57 -172 0
-69 120 -121 0
16 165 -175 0
30 215 224 0
-1 174 204 0
39 -98 -151 0
127 -201 222 0
64 70 73 0
29 -92 -219 0
-76 89 -115 0
-36 73 -146 0
-7 -18 -166 0
-109 -154 204 0
-8 97 -201 0
31 134 209 0
66 218 221 0
117 170 222 0
-173 -176 -208 0
18 58 -191 0
-52 118 -177 0
-56 -122 -194 0
80 137 -213 0
-35 -210 -220 0
13 40 -137 0
-94 -125 163 0
7 34 205 0
-59 -151 -225 0
-155 208 -211 0
-64 -219 -221 0
-4 -11 29 0
51 77 207 0
-73 100 -153 0
29 113 199 0
-53 140 152 0
-34 94 221 0
24 191 198 0
-35 -122 -143 0
-17 131 -165 0
-43 -70 218 0
-11 -91 162 0
-16 137 193 0
27 -91 -139 0
13 -46 -193 0
-49 124 -211 0
-63 78 183 0
-31 168 179 0
-37 -53 55 0
3 -59 60 0
62 -71 144 0
-14 59 208 0
-141 -210 -217 0
62 -116 197 0
-54 117 -183 0
-32 127 -164 0
-84 -109 -137 0
18 -138 215 0
-42 -49 -64 0
-100 127 -182 0
61 -147 219 0
131 -147 -155 0
-117 -183 -207 0
-122 -146 -221 0
5 -48 94 0
-127 186 209 0
6 -14 121 0
52 -153 223 0
33 -54 -76 0
17 53 131 0
4 -143 198 0
-14 -86 146 0
123 139 161 0
25 110 183 0
27 78 83 0
-120 198 213 0
-70 -73 210 0
125 174 -192 0
60 70 123 0
-86 100 173 0
-135 -151 -203 0
-109 140 199 0
10 92 137 0
16 -20 -85 0
98 -147 -189 0
-32 -34 50 0
-32 77 -224 0
-69 -129 163 0
-11 155 -190 0
-30 97 -100 0
23 -76 166 0
-28 -83 214 0
-72 75 -142 0
-144 -177 -211 0
-23 -25 115 0
-77 -98 166 0
22 40 -69 0
-52 -155 -223 0
81 106 -211 0
-29 60 -83 0
-8 -115 -146 0
-111 -121 -191 0
-120 205 -212 0
-54 -187 -197 0
-143 -148 171 0
11 74 123 0
6 9 197 0
31 -141 210 0
44 148 -177 0
33 -84 -224 0
30 -44 148 0
43 -154 -189 0
42 -88 -194 0
68 -126 -131 0
-62 65 196 0
-49 102 113 0
-5 -142 -181 0
57 185 -217 0
107 136 -171 0
-75 -103 182 0
2 16 -100 0
9 63 -141 0
38 67 -120 0
28 -83 142 0
-41 -107 156 0
-75 133 -191 0
8 -17 187 0
-28 113 212 0
-39 150 200 0
-12 60 172 0
20 35 162 0
-45 -88 146 0
13 -47 146 0
-71 103 -210 0
82 -116 125 0
136 212 -216 0
7 -82 108 0
72 130 199 0
26 53 62 0
-30 -83 197 0
83 -159 161 0
120 124 -167 0
1 28 29 0
13 -97 121 0
102 -188 208 0
-44 -65 -170 0
66 -138 207 0
-136 189 210 0
-112 -134 -140 0
-56 -139 150 0
75 148 -192 0
100 142 176 0
-137 178 -206 0
167 207 211 0
82 -169 -170 0
126 -203 224 0
99 133 221 0
76 -123 154 0
-17 -43 -174 0
49 -65 -127 0
-58 92 150 0
-31 -55 194 0
29 42 -213 0
147 -157 -189 0
12 79 -188 0
197 -199 222 0
133 -157 -169 0
-44 125 200 0
-26 -34 -100 0
-21 -41 -159 0
31 179 -214 0
37 87 -143 0
-22 -116 121 0
2 175 -195 0
40 87 190 0
82 -120 -137 0
56 135 201 0
-67 138 194 0
48 -65 -80 0
-60 69 -102 0
-65 77 -205 0
-47 147 -216 0
187 -193 200 0
-11 -45 -119 0
-30 92 222 0
-29 -130 -181 0
141 155 -173 0
-3 -38 54 0
-97 -107 -189 0
-76 91 -126 0
-50 96 214 0
-83 -116 -175 0
-1 -50 159 0
-110 170 -187 0
72 -102 122 0
-12 133 -210 0
-114 -138 205 0
15 -126 -219 0
43 66 -102 0
-143 146 211 0
-12 80 -173 0
43 55 142 0
53 123 138 0
5 -8 201 0
3 20 144 0
2 -54 212 0
10 147 175 0
63 -171 173 0
-19 35 -78 0
38 -100 -122 0
-94 -120 172 0
101 -136 198 0
-66 -151 179 0
-79 104 206 0
2 165 -206 0
-36 -127 132 0
186 203 -209 0
-15 35 -210 0
-84 139 -165 0
91 97 223 0
-81 94 200 0
-101 114 -127 0
69 -96 164 0
47 -96 -154 0
55 -70 123 0
11 -120 176 0
29 172 -216 0
49 -86 -103 0
23 26 142 0
12 -114 -171 0
-73 88 118 0
76 119 223 0
-98 114 -210 0
14 17 -183 0
81 180 193 0
98 101 -209 0
64 -95 -148 0
39 -80 -170 0
-177 -193 212 0
44 66 199 0
32 42 155 0
64 132 -187 0
57 -126 191 0
-156 -168 197 0
-113 163 208 0
18 52 -87 0
-84 127 -133 0
109 172 -221 0
-131 -192 -218 0
75 -105 -113 0
3 -49 155 0
-5 -56 -111 0
-74 98 -222 0
93 -127 -167 0
48 -68 93 0
-47 -196 -205 0
-57 -184 210 0
43 121 164 0
52 72 94 0
-26 44 221 0
-106 142 201 0
6 65 -189 0
-5 138 182 0
37 -194 209 0
-26 -78 -93 0
61 110 153 0
-64 208 -221 0
132 136 218 0
103 133 135 0
-27 76 196 0
-40 187 222 0
-87 95 98 0
122 143 -162 0
-39 211 222 0
47 -215 -225 0
-31 47 -113 0
-13 -15 75 0
-64 -91 -151 0
36 -66 -173 0
-37 86 183 0
34 106 -215 0
-21 30 -35 0
-58 125 207 0
-39 -157 -181 0
118 145 -193 0
-103 -196 211 0
50 151 215 0
103 -192 222 0
28 116 -199 0
-62 119 -221 0
71 192 -218 0
105 108 -123 0
-55 57 -72 0
78 -111 181 0
50 -140 203 0
110 113 -152 0
-58 -80 -143 0
-16 149 -171 0
-3 -21 176 0
-133 141 185 0
-136 -137 -219 0
25 48 -139 0
29 -65 -166 0
-33 35 -71 0
72 97 115 0
-76 117 207 0
-112 -153 -213 0
-84 115 -120 0
46 -85 114 0
-14 197 -208 0
-9 152 168 0
-142 -168 191 0
-109 189 -191 0
-55 85 139 0
-26 -73 -76 0
-22 -167 218 0
-108 -186 209 0
77 104 137 0
31 91 129 0
-143 -152 -220 0
-37 -150 201 0
-94 -152 -213 0
10 -115 131 0
15 152 201 0
-55 171 206 0
-11 112 183 0
-2 32 53 0
-118 -171 -208 0
-94 -142 -209 0
-36 43 190 0
18 61 -204 0
-41 -151 203 0
39 -106 -160 0
-123 176 205 0
29 33 -198 0
173 198 205 0
69 -153 160 0
-118 -158 -192 0
140 -166 -169 0
-92 -166 -224 0
15 207 -218 0
-25 167 218 0
73 156 219 0
-13 -157 180 0
150 -186 221 0
-41 -193 204 0
39 -127 182 0
-98 -131 -165 0
-27 187 223 0
34 124 -147 0
56 115 -205 0
12 -170 -199 0
17 -130 -144 0
9 -166 177 0
51 -72 128 0
31 -95 -126 0
-41 84 -116 0
48 193 213 0
14 125 -175 0
-43 84 215 0
21 -95 -120 0
-23 -57 156 0
67 -76 134 0
63 -127 144 0
3 52 66 0
34 82 178 0
-17 -46 60 0
76 -128 -136 0
10 61 -119 0
-35 182 -220 0
28 -68 -112 0
-43 -219 -225 0
143 -146 205 0
-78 -128 208 0
-46 168 -211 0
-20 -66 -200 0
-67 106 221 0
-18 -122 169 0
107 121 205 0
-16 56 65 0
45 -58 130 0
-8 -60 213 0
41 101 -162 0
1 -76 187 0
30 -161 -211 0
-29 -97 -133 0
-6 79 -184 0
-24 34 194 0
39 94 -206 0
47 -91 -146 0
-151 -164 194 0
-112 139 -164 0
1 3 143 0
62 -101 -216 0
-36 -93 -101 0
-25 -74 -219 0
105 134 -198 0
95 130 -220 0
-52 -90 173 0
28 47 -159 0
-68 74 -193 0
12 -120 152 0
2 -29 58 0
11 -67 -170 0
55 111 197 0
-6 -39 -82 0
85 -86 -103 0
-34 57 -102 0
-28 79 191 0
-31 -97 161 0
84 -126 -154 0
40 -87 150 0
-136 189 -208 0
-66 -93 -136 0
-32 -129 213 0
52 69 -77 0
45 -210 217 0
61 104 -149 0
107 132 -215 0
-54 -110 196 0
10 38 141 0
-17 -199 -201 0
152 -169 177 0
-1 -25 145 0
-76 -101 127 0
56 72 162 0
-76 104 -136 0
-32 45 -159 0
-130 -194 222 0
21 -108 -138 0
-68 -167 176 0
-89 123 -161 0
-60 91 -118 0
173 198 -202 0
-136 -191 195 0
79 -107 -110 0
13 -60 -143 0
-66 -116 -145 0
-16 -37 99 0
4 7 167 0
-4 -40 220 0
13 -83 223 0
-90 203 -207 0
-25 -34 -126 0
-64 141 -213 0
74 107 172 0
42 -77 81 0
-10 93 187 0
33 91 219 0
-62 -67 177 0
-51 78 -191 0
1 5 70 0
-6 -22 -101 0
35 -36 67 0
71 101 220 0
-7 107 -153 0
-65 -103 -153 0
83 -200 209 0
51 86 138 0
2 -12 222 0
-127 201 -220 0
54 -159 -196 0
85 -193 -194 0
-41 48 58 0
18 178 -212 0
-54 135 -219 0
-32 -124 -138 0
32 -89 -105 0
-12 30 -212 0
40 106 190 0
-9 148 201 0
-28 99 206 0
36 167 -185 0
-13 71 -94 0
66 95 -103 0
-11 -177 195 0
-2 -172 -181 0
109 134 218 0
76 100 167 0
-158 -187 200 0
-42 -180 -212 0
-101 -120 179 0
-65 73 213 0
-33 73 145 0
46 72 -204 0
66 -190 -210 0
-14 24 -66 0
-91 98 -150 0
-23 47 88 0
-55 -61 122 0
-50 133 -134 0
19 94 -218 0
-90 97 201 0
61 -132 -202 0
-35 -137 -149 0
-18 91 -213 0
-28 154 215 0
-91 133 -161 0
88 -170 -217 0
-40 -57 185 0
129 -165 204 0
-9 82 132 0
38 -119 -146 0
-20 64 -203 0
-81 -163 223 0
-44 124 223 0
16 -83 -124 0
59 -75 148 0
57 -76 -200 0
46 50 123 0
-148 -177 183 0
-36 86 -183 0
-55 -111 154 0
-55 97 193 0
-43 130 -221 0
-14 -183 -222 0
4 79 -219 0
-128 -185 190 0
-91 107 -177 0
93 -97 180 0
15 -20 -45 0
72 160 218 0
-29 -68 178 0
-133 -157 223 0
-40 93 161 0
94 155 -190 0
146 -167 -200 0
24 -127 -179 0
-36 -89 165 0
-147 152 190 0
-112 130 -205 0
58 -112 -160 0
-123 -124 222 0
-39 102 -225 0
-208 212 221 0
155 -156 -216 0
-133 -155 -168 0
-53 -157 221 0
123 143 -181 0
46 -128 -165 0
43 123 174 0
-45 -70 -218 0
-14 33 95 0
88 -106 -156 0
45 92 201 0
-77 115 -144 0
-11 103 115 0
-45 -55 -218 0
40 -134 -144 0
20 -116 -190 0
113 146 -162 0
62 -203 -212 0
-53 165 -219 0
-16 -27 -107 0
59 -115 -190 0
-66 89 -121 0
44 84 -119 0
85 96 214 0
8 82 91 0
-45 -100 -177 0
24 59 76 0
-92 -172 184 0
129 150 -180 0
8 -85 131 0
122 194 -201 0
5 -166 204 0
-27 -132 -145 0
37 49 -225 0
126 160 -216 0
-31 76 -117 0
66 -119 143 0
6 18 187 0
10 -127 -192 0
-58 -102 198 0
23 32 -105 0
-19 223 224 0
74 139 175 0
36 -52 60 0
78 -82 143 0
80 110 179 0
-33 -199 213 0
-162 -177 -204 0
40 201 204 0
6 19 -174 0
-60 -97 173 0
-37 89 165 0
-96 142 -214 0
41 97 201 0
-24 -176 -218 0
91 195 212 0
-112 -135 -205 0
-30 82 -109 0
148 157 -210 0
30 -139 145 0
44 183 -215 0
-94 -149 -191 0
-136 157 -179 0
125 -161 212 0
146 -182 220 0
-197 207 215 0
24 106 -212 0
44 146 174 0
-120 -130 -166 0
41 120 -201 0
-147 208 -224 0
-123 -126 142 0
-61 -121 125 0
2 -134 157 0
-28 -80 -98 0
-32 -189 -201 0
89 203 221 0
67 100 216 0
-82 111 144 0
-10 121 -185 0
35 83 198 0
-162 218 221 0
-1 114 -115 0
-58 105 -188 0
-47 -51 -90 0
-37 134 192 0
-34 109 -150 0
-62 196 215 0
-67 103 212 0
-23 -79 149 0
-98 -189 -224 0
-19 -110 162 0
95 -115 144 0
-76 -142 -188 0
-138 -141 208 0
19 28 183 0
32 -205 -217 0
-9 -22 161 0
-143 -196 -217 0
123 -144 -167 0
163 197 -206 0
-149 -184 221 0
170 174 -217 0
-7 152 -194 0
-2 59 110 0
2 89 191 0
-12 -28 -92 0
-139 -190 -214 0
-54 -161 -193 0
-41 65 172 0
81 150 212 0
150 -156 -192 0
11 31 38 0
24 -120 195 0
-21 -130 -146 0
-1 -38 137 0
-22 50 71 0
110 -119 -129 0
41 -57 97 0
-17 -36 221 0
-55 -129 171 0
-26 -40 -195 0
100 116 117 0
-69 -124 -161 0
22 -105 -202 0
-82 101 161 0
-25 124 -146 0
114 134 -162 0
72 150 204 0
20 47 223 0
-29 -155 -216 0
38 -140 164 0
29 -142 196 0
11 -95 189 0
59 77 -81 0
78 -181 209 0
94 164 -222 0
-6 36 -177 0
50 -69 -213 0
133 -164 210 0
44 123 -141 0
-3 -188 -202 0
4 -58 108 0
-2 75 -197 0
50 -51 -179 0
54 134 187 0
-57 59 -192 0
-105 155 177 0
-76 -122 216 0
75 -119 -197 0
30 -106 -217 0
-49 -85 121 0
53 134 148 0
35 50 -211 0
22 -108 198 0
-6 -35 -128 0
14 60 -221 0
-30 134 197 0
-51 -89 171 0
106 -162 170 0
-32 -83 224 0
22 135 195 0
12 65 171 0
87 -91 125 0
59 85 -183 0
-9 -29 -220 0
-118 -122 222 0
-128 -164 -182 0
15 167 179 0
-24 29 162 0
-152 -173 -198 0
-36 138 203 0
-22 77 -125 0
176 -191 224 0
-23 186 190 0
-7 114 176 0
-1 77 -126 0
17 -54 116 0
18 -59 -206 0
-30 -88 -140 0
-127 -178 196 0
133 136 188 0
-63 -81 101 0
-13 24 -27 0
-22 -145 -207 0
80 -158 164 0
11 -21 223 0
-55 -125 168 0
6 93 -119 0
176 -185 225 0
-62 82 205 0
22 67 -223 0
34 155 185 0
46 178 211 0
39 127 -171 0
-125 150 184 0
-6 -135 218 0
-38 74 -149 0
92 101 -169 0
-25 123 -225 0
1 42 173 0
-26 -68 134 0
-9 -20 -62 0
80 -143 -196 0
119 143 -150 0
56 -132 137 0
-34 37 -123 0
97 -106 211 0
48 56 93 0
99 -123 -133 0
-16 -137 -170 0
85 -156 -207 0
74 -185 197 0
89 113 171 0
39 -128 -167 0
-27 94 137 0
2 -33 97 0
-152 179 207 0
156 -180 -222 0
52 -140 170 0
-24 -190 210 0
-17 -78 -194 0
40 -85 -200 0
-48 -83 139 0
54 146 -165 0
-109 161 -213 0
17 118 132 0
10 170 -190 0
-24 -112 -222 0
-85 -169 -220 0
27 -176 -199 0
21 31 -66 0
97 -128 159 0
27 -94 -220 0
-54 161 -168 0
-55 -154 176 0
135 -140 152 0
66 151 160 0
26 188 211 0
33 -102 190 0
79 -131 -196 0
5 -73 139 0
21 -163 -205 0
-36 146 153 0
-14 79 -107 0
39 53 -175 0
137 -148 210 0
14 22 -130 0
81 -92 211 0
18 -28 35 0
63 165 -169 0
-42 76 -163 0
-81 -82 -94 0
134 -136 201 0
-13 -90 195 0
-25 -37 111 0
80 208 215 0
-57 -103 -125 0
-71 121 -189 0
26 -200 -214 0
9 104 150 0
-34 44 124 0
-22 69 112 0
42 -136 144 0
-74 82 96 0
45 -103 -204 0
5 126 198 0
9 -147 -220 0
-61 -93 -142 0
12 50 -65 0
-10 63 151 0
153 -185 212 0
-91 181 -211 0
-11 -49 -145 0
-75 132 -157 0
26 103 -200 0
103 -105 -154 0
2 50 -170 0
-97 -101 -102 0
72 94 -197 0
153 -212 221 0
33 -86 -120 0
-70 -99 -161 0
-37 87 146 0
90 -148 149 0
9 -50 218 0
-77 -141 -144 0
9 -57 -158 0
-91 -101 -122 0
20 -186 -208 0
-87 98 210 0
2 -38 -148 0
-80 86 -94 0
37 -59 179 0
12 135 -167 0
79 150 196 0
-1 108 -136 0
75 -116 -149 0
53 83 191 0
22 165 -182 0
-21 -143 149 0
-4 -7 -89 0
-7 -214 221 0
72 103 -119 0
83 96 122 0
-11 -30 214 0
49 53 -72 0
76 -96 224 0
36 -194 -224 0
43 50 141 0
67 149 -195 0
-83 186 212 0
-32 116 -178 0
-78 -135 170 0
38 194 218 0
-153 164 199 0
-29 91 190 0
90 -199 204 0
-65 110 112 0
138 171 -198 0
-66 -130 158 0
-29 -73 -135 0
-24 125 183 0
5 -27 110 0
-73 -163 169 0
6 -200 210 0
-107 -191 193 0
14 -145 -205 0
-51 -135 221 0
51 172 192 0
-13 107 -224 0
39 70 100 0
103 -121 -151 0
18 20 201 0
84 -159 -160 0
47 -109 197 0
-103 -138 -224 0
30 43 210 0
-32 -150 224 0
72 146 206 0
-35 -44 143 0
-8 -15 202 0
30 35 143 0
21 -161 -210 0
-86 -140 171 0
-17 64 126 0
90 126 -178 0
154 216 -222 0
46 52 133 0
-102 170 211 0
51 -203 -220 0
-44 -65 -205 0
11 29 -166 0
-33 135 162 0
8 99 129 0
8 52 194 0
-70 -145 -164 0
-87 -163 173 0
119 141 168 0
-21 113 219 0
96 -180 -218 0
85 122 -138 0
-57 -159 224 0
113 -144 221 0
-53 190 214 0
-83 -133 -138 0
24 -56 57 0
53 139 -149 0
-99 -132 144 0
111 -163 -223 0
-84 96 194 0
-24 -123 131 0
6 25 51 0
-185 188 -221 0
60 64 214 0
21 64 70 0
20 -121 -155 0
-79 -166 177 0
76 -91 -209 0
74 167 194 0
-76 -81 -83 0
-19 122 -175 0
-7 -139 -170 0
-12 82 -129 0
-38 120 -152 0
-99 -182 195 0
-27 -100 -223 0
-161 -164 -184 0
69 91 106 0
76 -127 -149 0
2 -85 171 0
137 189 -202 0
23 59 157 0
52 97 123 0
171 -189 211 0
