c F1 random 3-CNF cnfgen RandomKCNF(3,75,320,seed=11) m/n=4.26
p cnf 75 320
-58 60 72 0
24 -61 -66 0
12 -19 -69 0
2 21 68 0
-4 -25 -31 0
-26 -30 67 0
-11 36 -59 0
-30 41 66 0
14 -52 -73 0
1 3 9 0
-49 51 61 0
-12 -35 44 0
16 18 53 0
8 60 -63 0
-17 -25 66 0
28 -51 -54 0
-3 24 27 0
-19 28 -57 0
10 38 50 0
-2 -32 -75 0
17 -62 74 0
20 30 40 0
-26 50 -71 0
-5 7 -14 0
-33 54 63 0
17 -30 62 0
-3 -9 -27 0
6 -8 -32 0
17 -68 74 0
43 58 67 0
40 46 61 0
-9 40 62 0
-10 58 70 0
-11 44 -46 0
4 -64 -74 0
2 10 75 0
-33 -43 -54 0
11 -60 70 0
3 -30 -62 0
-2 33 48 0
-22 -44 67 0
33 -42 52 0
-28 29 50 0
18 45 -64 0
-15 -22 58 0
-49 -53 -67 0
-5 10 -42 0
40 46 -74 0
-4 25 59 0
7 -15 58 0
26 33 -61 0
5 -23 -69 0
65 -67 70 0
12 -50 -53 0
-1 -26 -49 0
13 16 -27 0
-12 -40 69 0
11 -45 -65 0
-36 54 71 0
5 -9 55 0
-20 -61 67 0
-29 57 -68 0
-27 40 -49 0
-26 64 74 0
4 -49 69 0
12 -22 -63 0
-32 -35 52 0
-44 56 61 0
4 34 54 0
20 -25 -30 0
32 -46 64 0
-26 33 -66 0
21 53 68 0
-18 30 -70 0
25 28 41 0
-12 -17 31 0
54 56 -70 0
-3 -13 26 0
25 -44 65 0
-4 5 71 0
15 24 -27 0
8 -13 75 0
-13 -42 -51 0
27 48 56 0
-24 -53 -59 0
13 -22 25 0
-25 -52 -73 0
15 -21 -52 0
24 52 56 0
39 44 -61 0
-7 -30 35 0
24 -52 -73 0
16 28 51 0
-31 33 57 0
-2 -13 -49 0
-44 70 -71 0
-6 10 -71 0
22 -61 -64 0
-37 -54 -68 0
-37 -62 -68 0
2 4 -32 0
-7 41 -50 0
-10 -29 55 0
-6 13 67 0
-7 15 54 0
7 46 -68 0
-18 -54 -57 0
-18 47 68 0
-15 -62 -65 0
-25 35 73 0
26 32 65 0
34 35 55 0
29 36 70 0
-31 -48 -71 0
27 44 64 0
-28 -57 -58 0
-20 42 -48 0
-13 -48 75 0
-11 -56 -70 0
2 10 -40 0
37 42 -64 0
-16 -42 -47 0
-40 -57 68 0
32 -52 -67 0
-4 47 -51 0
20 50 70 0
3 37 59 0
-3 38 -73 0
11 -43 70 0
4 11 -41 0
-29 -32 -63 0
43 -44 -45 0
-6 -10 69 0
12 -49 60 0
15 19 -54 0
-22 -27 -42 0
-8 36 -61 0
-8 20 -23 0
5 14 -41 0
28 -31 61 0
-23 -36 -52 0
44 -52 63 0
7 -28 -52 0
-2 -8 -31 0
-21 32 -54 0
19 -34 67 0
20 23 74 0
-11 17 -46 0
-11 60 70 0
-12 25 54 0
-53 68 -70 0
40 -41 -52 0
9 10 -47 0
16 -57 -60 0
31 -38 73 0
-20 -27 -38 0
-12 51 72 0
-15 -43 -49 0
43 49 58 0
13 17 -23 0
5 12 60 0
-16 21 -56 0
18 55 -66 0
43 -53 -62 0
-3 -32 68 0
40 -44 57 0
38 43 -66 0
39 -69 71 0
26 67 74 0
-11 -18 -32 0
-12 -43 47 0
18 -31 58 0
16 -19 -43 0
31 47 74 0
5 52 -59 0
3 -21 -49 0
-5 19 -68 0
23 -44 67 0
7 43 -73 0
-14 -61 -64 0
-37 -60 63 0
-15 -68 -73 0
-4 -7 -42 0
9 40 -42 0
32 -51 65 0
-31 -68 70 0
-9 48 70 0
16 54 73 0
-16 69 -74 0
-4 32 39 0
-57 58 -68 0
-6 30 -75 0
-40 41 -42 0
26 27 -38 0
3 46 61 0
-7 -14 -25 0
-18 -43 54 0
22 29 -40 0
-24 -31 -65 0
15 -67 68 0
17 -29 36 0
10 57 -68 0
33 55 -69 0
-23 25 32 0
-5 20 -60 0
-8 -9 -24 0
5 38 67 0
-31 56 -57 0
-29 -63 70 0
-7 26 -74 0
-3 -20 -64 0
4 10 15 0
7 -40 -55 0
12 -64 -66 0
-21 32 -64 0
47 53 60 0
-18 19 63 0
31 53 -68 0
-39 61 72 0
30 33 -38 0
-12 -30 -60 0
-6 21 -28 0
-23 60 -73 0
-7 -28 49 0
-21 24 -71 0
-28 -40 -60 0
-24 -27 63 0
-7 36 47 0
34 -51 66 0
-8 20 47 0
-3 -16 42 0
33 -42 -49 0
6 31 63 0
-5 -27 -40 0
-18 -67 -70 0
-19 -27 -49 0
-18 50 67 0
38 45 48 0
4 -62 73 0
28 -46 72 0
12 -34 -55 0
-8 -50 -63 0
-21 29 -36 0
22 -31 -45 0
-20 -62 75 0
16 -47 -51 0
-7 -49 -64 0
4 -10 -33 0
-39 48 -73 0
44 47 50 0
-7 53 -70 0
-9 -58 60 0
-18 -35 -65 0
3 -20 61 0
29 -31 34 0
31 -64 -71 0
-3 14 -45 0
-21 -25 -43 0
-37 47 54 0
23 42 47 0
-14 -15 40 0
21 -53 -62 0
-33 -51 -65 0
24 -27 43 0
17 -21 -35 0
-2 24 -30 0
-33 -35 54 0
7 16 -21 0
-16 -46 69 0
-22 62 -70 0
-29 -37 57 0
-28 50 -74 0
-14 -23 -72 0
16 -20 42 0
36 42 -52 0
-26 47 71 0
1 9 40 0
18 -44 -62 0
-5 45 54 0
33 -36 71 0
7 57 74 0
-10 -16 69 0
-9 40 72 0
-2 9 -47 0
40 -52 -69 0
4 33 53 0
-42 -48 -50 0
36 -40 46 0
28 34 43 0
17 39 -70 0
-14 -19 20 0
-2 3 -56 0
13 42 69 0
-9 -14 -42 0
29 -53 64 0
-24 42 50 0
-8 -28 -49 0
15 -65 -73 0
50 -54 60 0
-5 -66 -68 0
6 -7 -42 0
-25 -33 41 0
15 17 63 0
-14 -15 66 0
-5 -24 -44 0
-2 27 -69 0
10 -31 -36 0
10 31 64 0
-13 23 -47 0
-16 29 -37 0
4 60 63 0
-26 -41 69 0
36 41 44 0
-17 22 75 0
-15 -34 -36 0
2 -9 -26 0
19 -26 -53 0
-36 48 53 0
-13 45 -66 0
16 -37 75 0
