c F1 random 3-CNF cnfgen RandomKCNF(3,225,959,seed=18) m/n=4.26
p cnf 225 959
-32 -47 170 0
-51 126 -161 0
68 -76 118 0
84 134 173 0
-52 61 -189 0
-56 77 -184 0
-57 -104 -198 0
-70 154 -212 0
123 -129 146 0
-49 53 -166 0
123 132 -147 0
-87 137 -217 0
-38 39 123 0
-24 140 -166 0
149 203 210 0
-103 123 -210 0
-34 -70 107 0
-86 87 -187 0
139 -179 222 0
-42 158 -197 0
-3 -26 -141 0
-123 -143 157 0
45 -58 -219 0
15 -127 200 0
39 -135 220 0
42 147 -215 0
28 -96 -151 0
-23 69 -155 0
-105 179 -213 0
112 -192 -206 0
-23 56 -71 0
-35 174 178 0
-84 -194 216 0
-20 -57 182 0
24 -185 -195 0
-130 -136 -198 0
6 117 194 0
-22 102 170 0
55 -64 72 0
-34 -59 184 0
109 -135 -173 0
36 -128 -157 0
-16 135 -156 0
-75 177 205 0
163 170 223 0
61 -77 215 0
142 213 -223 0
-64 140 -161 0
-49 -54 -123 0
35 -77 -111 0
-176 -179 189 0
10 168 -170 0
-18 -24 127 0
-18 19 -123 0
-4 86 111 0
54 74 209 0
89 162 209 0
-33 144 208 0
62 -172 -203 0
-83 -142 -177 0
-60 -73 -92 0
94 -107 -208 0
40 -173 -218 0
60 -73 120 0
-67 -79 -99 0
50 -76 80 0
-173 194 196 0
92 -172 -219 0
195 -213 -217 0
89 -124 -220 0
101 140 147 0
-18 -193 -194 0
-92 -109 -174 0
151 -169 183 0
6 -10 81 0
84 -125 -144 0
83 211 -213 0
-57 -58 70 0
-18 -32 -107 0
53 160 202 0
3 43 -173 0
32 136 -216 0
57 -87 -104 0
13 -98 -140 0
-117 159 -176 0
-11 24 133 0
-174 189 -191 0
7 29 163 0
-69 -78 86 0
-87 101 212 0
-60 136 157 0
-68 135 172 0
-5 131 -219 0
-20 87 -216 0
48 -162 174 0
-54 77 140 0
-36 -183 206 0
-13 -39 -184 0
-46 -129 180 0
-62 -93 -167 0
90 -127 -216 0
38 -121 197 0
142 -161 -211 0
61 -80 110 0
12 -178 201 0
-23 -111 158 0
-144 184 -195 0
47 61 89 0
-45 62 -211 0
-72 146 -213 0
55 95 167 0
-66 201 -203 0
-66 153 210 0
-20 -66 -178 0
-107 -118 149 0
-127 -139 176 0
45 -196 -222 0
-12 143 180 0
14 43 -207 0
-7 18 -43 0
64 121 197 0
-77 196 223 0
98 109 -223 0
-141 -151 168 0
-56 -135 -218 0
-71 -106 195 0
9 -31 173 0
131 -149 176 0
27 31 188 0
-66 -157 197 0
-26 48 -209 0
54 -92 -112 0
50 -96 192 0
-39 133 -208 0
-105 151 167 0
-5 -129 -179 0
32 102 207 0
32 76 -81 0
-27 -159 175 0
7 -30 179 0
17 144 -220 0
33 -88 103 0
-48 -100 120 0
45 55 156 0
38 -69 -111 0
11 26 -88 0
35 -159 218 0
93 -126 -128 0
-68 -201 222 0
99 112 -134 0
-14 -55 -84 0
11 76 202 0
61 -173 -199 0
-4 75 -224 0
-60 -69 178 0
4 -11 167 0
-4 -9 193 0
-98 178 -212 0
74 197 202 0
118 177 -214 0
-24 176 196 0
-114 -123 -186 0
-65 -145 -184 0
-40 -55 191 0
-138 -177 219 0
79 -137 195 0
96 111 -119 0
155 -183 -225 0
-26 -106 -219 0
49 66 -162 0
-7 76 83 0
73 -110 131 0
146 174 221 0
29 99 211 0
33 -110 -179 0
1 -102 207 0
-23 -44 175 0
30 35 202 0
-54 164 185 0
90 142 206 0
-189 -195 -205 0
-89 -156 -195 0
-155 -188 -196 0
-40 -106 -194 0
22 -41 138 0
-10 -83 93 0
17 39 182 0
-76 152 157 0
-79 -142 -170 0
49 -68 159 0
151 194 -198 0
-11 -161 -209 0
-63 -87 -95 0
-47 68 -83 0
-7 -23 -28 0
55 75 208 0
4 -38 63 0
-9 -15 219 0
-74 110 -216 0
10 33 67 0
3 -110 -142 0
-12 90 113 0
-32 138 168 0
-91 -157 160 0
-4 -77 -99 0
129 -132 180 0
-22 -74 138 0
-135 145 166 0
-130 -176 -178 0
-87 148 -187 0
-86 -103 -131 0
74 -129 212 0
44 55 134 0
-146 168 224 0
4 -61 -123 0
-27 -56 -162 0
78 200 -214 0
148 168 183 0
9 38 -69 0
116 156 179 0
-69 92 -209 0
65 -116 -187 0
12 -13 -53 0
-13 -57 -157 0
-153 155 180 0
-15 -111 -186 0
-54 -64 134 0
-13 207 213 0
-155 162 -169 0
41 -162 171 0
-40 -132 160 0
-8 67 -194 0
-16 157 -190 0
89 -91 224 0
66 -97 -151 0
-26 -186 -220 0
31 -41 104 0
-78 -135 206 0
12 -167 216 0
103 157 -205 0
68 -122 -145 0
-48 130 -186 0
-18 -130 197 0
-8 35 196 0
44 72 -149 0
-78 198 -220 0
-3 8 150 0
-91 -98 -165 0
30 211 214 0
110 -127 -192 0
35 -149 195 0
71 -129 -138 0
14 127 -224 0
89 118 -139 0
92 -100 214 0
153 -171 -181 0
60 -72 106 0
22 -151 172 0
-1 14 120 0
90 181 -185 0
-128 -134 -186 0
-11 -107 -114 0
94 -134 -159 0
-45 -177 208 0
20 182 192 0
-15 -91 -168 0
8 103 -173 0
-37 -149 156 0
112 -141 201 0
66 91 98 0
6 98 -191 0
37 -69 119 0
-111 -125 -145 0
61 77 -89 0
1 -49 187 0
-127 -158 -162 0
53 -80 133 0
-184 -188 -201 0
-124 127 197 0
-147 151 -158 0
47 91 -107 0
26 48 211 0
33 -182 195 0
-23 110 -159 0
-117 -123 200 0
45 -136 162 0
92 102 184 0
-21 212 219 0
144 149 194 0
-29 122 209 0
46 -154 177 0
90 157 -221 0
-36 -128 -180 0
-92 -171 177 0
-74 96 213 0
11 -146 -198 0
18 27 123 0
-64 106 112 0
66 -92 219 0
-21 -25 -139 0
43 -91 222 0
-156 163 184 0
86 -112 -144 0
78 117 224 0
-86 92 139 0
-116 -195 -224 0
-32 -200 -213 0
62 -80 -128 0
-94 95 -194 0
31 -84 178 0
3 -17 216 0
-30 49 -81 0
-41 94 -111 0
27 -68 -167 0
104 136 -155 0
3 113 196 0
33 37 -167 0
48 -91 -193 0
100 -158 -179 0
-110 -129 193 0
34 182 222 0
-4 -96 -165 0
196 -201 210 0
11 -82 -139 0
-31 -215 -217 0
-17 -59 74 0
-30 153 154 0
131 216 224 0
-15 79 -120 0
-95 175 -225 0
10 165 -219 0
2 26 -70 0
-25 -34 -175 0
-122 134 -140 0
-47 -104 139 0
-11 133 -166 0
-65 -120 -135 0
-27 72 187 0
-41 162 -170 0
14 76 128 0
120 188 -191 0
-21 -51 127 0
-22 -31 102 0
-23 -109 -154 0
-24 -48 129 0
-27 -36 -129 0
15 -78 137 0
64 -75 -142 0
31 -119 -188 0
-61 -96 -195 0
22 131 -201 0
-49 -101 -145 0
36 -158 224 0
-45 80 -163 0
-95 133 136 0
56 -153 -192 0
-183 187 189 0
-19 -191 -225 0
59 -89 134 0
1 -33 -72 0
54 123 -150 0
49 215 -223 0
43 165 183 0
-1 115 -198 0
100 -110 142 0
83 159 -213 0
-162 218 219 0
3 -86 129 0
-11 -21 27 0
89 99 217 0
10 -126 136 0
-37 -120 171 0
42 -72 -181 0
-1 -5 115 0
68 -71 200 0
48 -52 -83 0
-51 -90 208 0
-55 -84 -118 0
-69 94 -189 0
75 86 -101 0
-40 -75 134 0
103 -191 -207 0
-79 156 -218 0
81 160 -188 0
18 -139 -216 0
66 146 203 0
95 -131 -140 0
4 -22 -181 0
-138 161 198 0
-107 129 -224 0
57 60 192 0
105 -160 -193 0
83 202 213 0
20 168 -183 0
143 -170 -204 0
74 87 -122 0
62 -109 173 0
73 153 -191 0
-23 -71 191 0
-16 93 -173 0
-8 72 127 0
43 -44 -74 0
-115 183 196 0
162 223 -225 0
-57 70 -102 0
103 171 -211 0
69 114 -158 0
-1 -209 213 0
-2 61 -95 0
105 205 -218 0
82 -95 161 0
25 136 -171 0
1 13 -69 0
-18 -27 83 0
-7 62 -102 0
32 -37 -140 0
-1 -16 -212 0
103 -143 185 0
-36 77 -142 0
6 101 -107 0
87 -102 -199 0
62 77 -119 0
28 -59 222 0
160 175 187 0
-1 -118 -221 0
5 63 -64 0
93 133 198 0
60 73 -99 0
-53 -211 -225 0
23 -33 130 0
-15 46 50 0
-9 -109 -206 0
45 132 -196 0
-66 162 183 0
-85 -112 -184 0
-2 -167 -225 0
5 33 178 0
-67 130 -197 0
41 -53 -174 0
-34 -61 222 0
71 -175 -204 0
61 -82 183 0
-9 10 -220 0
-63 144 205 0
67 205 224 0
-27 207 -217 0
35 150 203 0
-79 144 -148 0
101 110 -220 0
-6 -13 31 0
34 -43 163 0
-97 129 217 0
-61 123 -130 0
-34 -102 -113 0
150 -170 -214 0
-38 -114 -190 0
143 -193 211 0
-27 79 -193 0
34 -90 -161 0
-86 109 -200 0
57 -146 172 0
-18 -109 -221 0
123 132 188 0
-16 129 -205 0
173 -213 225 0
-154 220 224 0
4 33 114 0
-6 -86 -182 0
-27 62 94 0
-6 143 -174 0
-95 -124 148 0
40 75 78 0
56 -65 181 0
3 -153 177 0
5 20 150 0
47 -105 -137 0
-30 -99 -131 0
-128 -155 -193 0
-101 109 -118 0
88 -187 193 0
53 -191 215 0
-18 41 127 0
-101 159 -214 0
10 -103 129 0
51 74 111 0
56 71 -183 0
11 29 -156 0
-50 69 127 0
-10 -130 -173 0
9 160 -181 0
16 -122 218 0
-38 -128 -132 0
-80 149 -203 0
-90 -118 -143 0
-58 179 -204 0
-125 -132 145 0
-91 -107 -188 0
-80 83 201 0
-26 102 -149 0
6 71 -184 0
6 -31 -35 0
-98 -189 215 0
29 -61 182 0
79 97 172 0
-47 67 -111 0
24 -66 -145 0
132 -133 146 0
-38 -157 163 0
76 -141 200 0
-48 -65 -192 0
67 131 -143 0
35 -85 196 0
-45 123 191 0
-25 89 189 0
41 -148 -180 0
-14 -60 -199 0
48 84 131 0
58 105 207 0
-95 -181 222 0
-32 125 -208 0
134 -150 220 0
49 143 -212 0
11 -60 84 0
-125 -128 -204 0
-25 -192 212 0
102 -214 215 0
-28 -81 -218 0
59 -83 177 0
-24 -25 -204 0
3 11 29 0
-3 143 183 0
-62 106 -217 0
95 -185 -203 0
15 -87 -170 0
42 -68 193 0
53 57 -136 0
-22 -105 209 0
9 92 -101 0
-79 -136 171 0
-82 -91 224 0
-140 -152 -212 0
11 -15 -223 0
13 -69 103 0
-75 -93 -111 0
92 -188 -217 0
6 -157 -218 0
62 -105 -191 0
-128 145 -171 0
-52 -107 163 0
-1 -3 -130 0
-1 -67 -141 0
82 113 175 0
13 164 -176 0
82 90 225 0
38 69 -141 0
-28 58 63 0
-119 166 184 0
19 -135 -205 0
-136 -138 -163 0
-43 53 155 0
4 -155 -208 0
-78 -116 209 0
-127 178 196 0
-32 34 198 0
-68 162 -224 0
-51 99 -125 0
-54 101 176 0
-11 -88 216 0
81 101 -143 0
13 -46 63 0
45 63 -124 0
-103 117 138 0
-63 -105 -209 0
32 -64 -96 0
-22 -26 74 0
-53 137 189 0
2 -84 -191 0
9 -43 155 0
-32 71 -217 0
-37 -117 -218 0
-104 167 -195 0
10 -179 -187 0
-114 128 130 0
-3 -64 -100 0
127 -137 -198 0
-4 124 -190 0
-19 -75 -201 0
2 110 174 0
75 -159 194 0
119 -175 -224 0
-150 -165 -220 0
2 -35 -213 0
-26 92 219 0
-150 173 210 0
137 161 -201 0
-99 -109 -144 0
-96 -134 193 0
-48 103 -150 0
-20 -135 -202 0
64 188 202 0
4 -60 156 0
-36 -87 168 0
-8 -38 -46 0
-13 -203 214 0
-6 36 -43 0
160 -207 209 0
-163 192 -200 0
28 78 -115 0
98 -208 221 0
37 40 -138 0
-154 211 -217 0
53 -138 -148 0
79 119 -201 0
69 141 -181 0
-10 195 204 0
-91 -147 216 0
-17 169 172 0
11 102 191 0
-23 -25 94 0
91 116 198 0
13 -204 -224 0
-103 147 194 0
65 -124 -131 0
17 182 -217 0
-44 -120 -171 0
-76 -100 109 0
52 -92 -102 0
-105 151 -168 0
2 -92 -173 0
62 -181 -192 0
-139 191 219 0
90 151 -156 0
22 37 219 0
106 170 199 0
28 68 212 0
18 -103 161 0
29 109 -140 0
-84 157 -190 0
58 -86 -89 0
53 -113 134 0
-110 151 191 0
73 -111 224 0
113 169 208 0
-69 -94 209 0
-21 -32 -92 0
129 142 189 0
-42 145 159 0
124 -176 -220 0
-70 154 -171 0
-12 -79 -218 0
-91 110 -169 0
127 -161 -217 0
31 52 -203 0
119 -166 -174 0
21 140 -198 0
-14 -66 138 0
31 113 -171 0
-84 -170 193 0
82 116 -118 0
-134 149 -164 0
-21 208 -220 0
52 76 -111 0
66 148 -199 0
48 -112 186 0
127 -153 215 0
98 151 -183 0
14 -56 -158 0
131 -160 -219 0
-66 153 -220 0
-9 -57 184 0
-52 74 78 0
23 -112 196 0
-42 99 -171 0
-38 -159 186 0
4 101 -113 0
145 -209 214 0
112 201 218 0
-107 -143 166 0
48 71 193 0
-67 -83 -113 0
-22 121 123 0
-13 142 -172 0
-117 122 -184 0
-111 191 -225 0
58 -154 -165 0
24 -51 147 0
-26 111 218 0
3 -163 211 0
49 168 220 0
-13 33 104 0
122 131 198 0
-49 128 -211 0
62 132 220 0
-117 -132 -221 0
-16 -31 -116 0
-79 -144 188 0
-59 -96 -215 0
48 56 -163 0
4 17 77 0
-69 122 193 0
33 108 -194 0
64 151 206 0
-12 56 -206 0
83 -154 -192 0
25 52 -158 0
46 -137 -181 0
-41 76 -112 0
48 110 130 0
-33 130 169 0
-24 174 193 0
126 -175 -208 0
38 -125 180 0
-13 -88 221 0
-69 88 -175 0
-44 -133 203 0
-18 201 -207 0
-55 170 -179 0
11 -44 -208 0
70 77 -156 0
11 -146 194 0
-23 -128 165 0
15 104 -129 0
-2 54 181 0
42 123 -209 0
-68 -109 -221 0
-37 -59 -127 0
56 -68 99 0
67 71 200 0
-38 42 55 0
1 -98 198 0
149 153 -196 0
-39 -79 212 0
-77 129 -212 0
-28 132 145 0
-2 120 196 0
87 -145 -188 0
-99 156 225 0
-112 149 224 0
28 -126 163 0
-83 -125 200 0
124 -159 -180 0
-8 -17 28 0
-33 57 -178 0
70 -164 179 0
-34 -60 98 0
5 -10 48 0
-73 176 183 0
-35 -57 -204 0
-63 -146 -179 0
13 -88 207 0
-4 66 -146 0
-14 143 195 0
139 141 167 0
-31 -40 -57 0
36 -40 -184 0
52 99 -165 0
50 -209 217 0
-76 88 110 0
56 148 197 0
93 -146 196 0
7 153 -194 0
-10 76 109 0
-49 -55 -83 0
-47 128 210 0
-9 -125 141 0
-10 78 -225 0
-61 63 114 0
-8 59 -85 0
50 55 153 0
40 128 190 0
117 133 -209 0
-15 170 196 0
80 131 140 0
-21 -45 -190 0
-109 196 205 0
34 -101 -104 0
41 82 139 0
-136 155 -207 0
-128 -146 174 0
19 47 211 0
-27 -145 -153 0
-102 -184 -206 0
-113 166 -180 0
-17 126 -146 0
25 39 -180 0
34 59 128 0
-82 142 -196 0
-45 -80 82 0
39 61 -214 0
69 117 -165 0
-1 -65 149 0
-97 -111 -123 0
-35 -128 -146 0
32 -58 -210 0
-41 -160 171 0
6 17 -142 0
43 118 -163 0
-123 -198 -204 0
142 -157 -175 0
56 -110 -169 0
36 -83 105 0
34 -39 -62 0
159 -164 -218 0
-117 164 -174 0
22 134 152 0
18 201 220 0
-97 105 202 0
-12 22 194 0
-80 -136 206 0
-30 177 178 0
-98 128 -166 0
83 -150 154 0
-58 -92 134 0
80 156 -199 0
29 -169 -181 0
4 -18 73 0
-3 -125 -183 0
101 108 -214 0
159 -177 196 0
-107 -149 161 0
-31 105 -222 0
61 -92 201 0
-79 -85 -141 0
100 163 175 0
3 -98 144 0
158 203 -206 0
54 100 -103 0
99 182 194 0
66 176 183 0
60 -114 -179 0
-43 -79 -202 0
-159 162 175 0
89 139 210 0
-140 -146 204 0
-30 -177 212 0
46 85 -138 0
58 116 -203 0
132 -209 217 0
-17 -34 138 0
106 137 211 0
-8 142 -184 0
-86 -93 210 0
13 -65 84 0
-23 -210 -215 0
-47 84 104 0
105 -156 -181 0
18 75 119 0
-104 -120 175 0
8 -117 -130 0
70 -128 -135 0
-89 158 -200 0
16 105 -127 0
-152 -168 210 0
69 97 138 0
-25 -27 -174 0
93 -177 -196 0
-17 -87 -217 0
-11 112 -151 0
-32 -70 129 0
-126 -187 -198 0
3 -26 69 0
51 57 -198 0
-49 79 164 0
-50 -128 -132 0
71 -78 -194 0
-149 -181 -212 0
98 114 -186 0
-2 -33 92 0
-9 141 200 0
9 -32 189 0
-82 -182 -193 0
-88 -171 224 0
-26 100 -155 0
27 -180 -215 0
46 -121 180 0
-160 -187 211 0
28 -197 223 0
7 111 -120 0
48 156 170 0
41 165 190 0
24 -54 124 0
-103 -105 108 0
-124 -169 207 0
-8 79 -206 0
1 149 -172 0
173 210 212 0
171 -186 203 0
-19 -170 -181 0
-102 136 -142 0
5 24 -195 0
71 182 -185 0
-107 149 -153 0
-80 135 139 0
-39 54 101 0
6 -10 106 0
-58 -67 -132 0
9 -22 -224 0
-101 151 178 0
-43 64 -185 0
18 71 85 0
39 64 -198 0
-48 114 -150 0
-83 -139 187 0
-62 -111 148 0
-111 -162 -169 0
-23 -57 69 0
12 105 152 0
-16 -92 165 0
9 78 138 0
-24 88 -218 0
109 135 204 0
-42 -109 134 0
35 99 -118 0
-108 163 225 0
-42 -53 -200 0
42 68 194 0
-52 100 -194 0
-47 93 174 0
58 142 -169 0
-44 95 -130 0
-101 -105 134 0
-18 106 -132 0
-128 173 199 0
-23 -32 182 0
-18 -147 -185 0
43 103 -110 0
74 75 143 0
-28 145 204 0
115 133 199 0
128 158 -160 0
53 -72 -208 0
150 176 222 0
-57 -141 -160 0
132 -171 193 0
-10 -103 172 0
-15 36 157 0
-135 182 -199 0
-43 64 181 0
92 95 -210 0
101 -149 -224 0
29 123 -187 0
-36 124 172 0
-111 -114 173 0
9 -49 128 0
-12 72 91 0
14 -100 -206 0
-59 128 214 0
-80 118 159 0
-34 90 171 0
92 183 206 0
133 171 -174 0
85 -112 145 0
-72 -81 -161 0
108 185 207 0
-59 -93 113 0
27 -75 167 0
-25 -39 -83 0
66 206 215 0
-10 170 176 0
