c F1 random 3-CNF cnfgen RandomKCNF(3,75,320,seed=1) m/n=4.26
p cnf 75 320
-9 18 -73 0
49 58 -61 0
4 -50 -56 0
14 30 41 0
2 -49 70 0
-29 57 -68 0
-29 30 -59 0
-13 24 -72 0
-25 -55 -65 0
-5 51 -65 0
-23 47 -54 0
-14 -21 -66 0
-4 -6 61 0
22 30 65 0
-45 -52 -66 0
1 50 -71 0
8 -47 -62 0
45 -46 -54 0
4 23 -30 0
5 -10 11 0
32 35 -36 0
9 -22 38 0
-35 -38 -59 0
-4 -15 -40 0
-14 25 -34 0
3 29 51 0
55 -58 65 0
-4 -51 68 0
17 -28 39 0
10 -39 -40 0
2 17 -72 0
-5 22 -66 0
-13 27 -74 0
-14 38 -50 0
3 37 -52 0
-18 44 -73 0
-13 -49 71 0
6 9 11 0
-28 -35 -69 0
15 -38 44 0
-14 71 -75 0
10 -19 49 0
10 49 -74 0
38 -47 -73 0
6 14 38 0
6 15 -53 0
15 21 58 0
-14 -49 -56 0
-13 27 41 0
-2 -38 -41 0
-9 41 -52 0
-28 -61 70 0
27 40 -70 0
-11 12 -36 0
30 -40 50 0
39 -41 75 0
12 70 75 0
-10 32 52 0
-2 -3 -38 0
-13 20 65 0
-19 -20 23 0
17 38 66 0
27 -41 -71 0
7 -21 69 0
-56 -58 -71 0
2 -44 -51 0
4 54 -74 0
17 -18 -75 0
51 52 73 0
-1 -23 63 0
-31 41 -64 0
36 44 72 0
21 -48 -66 0
39 -48 71 0
-16 66 74 0
28 -33 -55 0
45 50 66 0
13 33 35 0
-31 -49 57 0
-17 42 57 0
53 -56 -69 0
32 49 -72 0
3 -4 75 0
19 -23 -37 0
33 -58 -75 0
-16 27 -54 0
4 -14 16 0
-10 -48 -65 0
1 -42 -68 0
-40 -45 -70 0
15 -27 49 0
-53 60 -67 0
26 -47 -68 0
44 -52 75 0
3 -38 -53 0
-2 -10 -23 0
-20 -39 -70 0
22 -60 66 0
9 -46 55 0
21 -22 -65 0
27 39 -68 0
-9 -10 35 0
-22 -39 72 0
51 -52 -72 0
29 34 -43 0
-32 41 56 0
22 -57 -75 0
18 -21 -68 0
31 40 -52 0
-9 -14 -30 0
6 13 24 0
-5 -64 -68 0
13 -16 23 0
49 58 64 0
-37 60 -71 0
34 43 64 0
-1 -2 -6 0
-26 37 75 0
2 4 -50 0
-11 -17 33 0
5 8 -69 0
12 16 -56 0
-17 -25 -36 0
32 34 35 0
45 -55 -72 0
26 -55 69 0
13 23 33 0
6 -7 -55 0
6 13 -41 0
17 -51 58 0
-11 33 -42 0
8 -34 -41 0
-13 15 39 0
-43 -44 66 0
17 -58 68 0
-26 48 -50 0
17 45 -74 0
-41 -54 -69 0
35 42 67 0
41 -42 -74 0
-47 59 62 0
-7 -18 68 0
-44 -47 -74 0
44 60 69 0
29 33 73 0
-7 13 53 0
9 34 74 0
23 -56 -66 0
-26 29 -37 0
47 -58 70 0
26 -33 -53 0
-10 52 -66 0
-1 25 59 0
-39 -41 -66 0
-40 58 -75 0
-18 21 -71 0
-5 -48 -73 0
-1 -3 -12 0
-35 -48 -62 0
15 -46 62 0
-3 23 -34 0
-34 -53 -66 0
43 -56 -63 0
9 12 55 0
-4 14 -30 0
13 24 -52 0
-7 -28 71 0
14 -54 -71 0
7 23 -62 0
-16 -38 58 0
-14 20 62 0
-33 -54 67 0
14 -44 -63 0
-8 57 70 0
35 -36 66 0
-17 25 33 0
-35 -36 -53 0
-28 -63 64 0
-23 24 44 0
42 65 -68 0
43 62 64 0
12 29 33 0
-26 -29 -73 0
1 3 40 0
-35 36 44 0
18 -43 45 0
6 45 74 0
-32 39 -41 0
-4 -11 18 0
13 -36 43 0
-17 35 -46 0
-54 -69 73 0
18 39 71 0
-28 31 -56 0
-35 -68 69 0
14 -48 52 0
17 40 58 0
-28 -43 62 0
-20 49 57 0
2 35 -38 0
13 -59 -72 0
-36 -48 53 0
5 13 61 0
-18 -66 -68 0
31 -32 61 0
-6 -15 -41 0
-8 -54 -56 0
31 44 -57 0
-15 -23 66 0
3 -62 75 0
13 -30 -51 0
-32 -60 61 0
52 -56 -57 0
-2 -17 20 0
-4 -10 -24 0
-14 20 -68 0
-30 51 69 0
-21 23 55 0
21 -69 72 0
28 55 66 0
10 -65 -69 0
-7 16 73 0
6 62 67 0
-36 40 60 0
-41 -69 72 0
-26 -50 -51 0
-20 34 73 0
-19 -44 -47 0
-36 45 50 0
17 29 33 0
31 -55 -70 0
10 11 26 0
49 52 54 0
-18 31 -49 0
-23 29 -46 0
38 -63 69 0
3 -38 -60 0
-7 8 33 0
14 15 -56 0
16 -28 50 0
-16 -26 73 0
5 -22 -35 0
-35 52 54 0
-3 24 -72 0
-28 51 69 0
-6 10 55 0
-25 -65 66 0
-9 30 -47 0
-6 -19 23 0
-9 65 -75 0
-39 -66 -74 0
-7 61 -71 0
-20 39 -41 0
51 54 67 0
2 -68 -74 0
-5 48 -71 0
-11 58 70 0
28 42 47 0
-41 -52 -66 0
5 34 -48 0
37 51 71 0
11 -35 -53 0
-13 -27 31 0
27 -39 -66 0
18 -38 -67 0
-4 5 41 0
24 55 68 0
-16 -17 65 0
-8 -47 59 0
2 -5 63 0
2 11 30 0
27 -37 -57 0
10 42 51 0
-39 -55 75 0
-3 -14 -63 0
-10 -25 -54 0
-22 -35 -61 0
2 -33 -40 0
-30 46 -66 0
-19 43 50 0
2 -33 -46 0
-2 42 44 0
11 16 -43 0
30 44 -53 0
-38 -39 49 0
26 30 53 0
32 49 -51 0
-1 -40 47 0
-4 -19 -48 0
-15 -41 -75 0
-2 12 40 0
34 48 56 0
-17 21 66 0
-1 8 28 0
-2 -5 8 0
-2 28 -72 0
-38 71 75 0
8 -27 51 0
42 43 53 0
12 24 65 0
-8 13 39 0
20 -30 -57 0
8 12 57 0
8 16 26 0
-29 33 37 0
-25 -33 -42 0
-12 49 -50 0
15 23 -44 0
-36 -39 -69 0
-46 -47 -59 0
3 -48 66 0
17 39 -73 0
18 -20 21 0
-22 -41 -46 0
-10 -20 55 0
9 -20 41 0
-6 -25 -46 0
-16 24 -44 0
-8 -27 -32 0
7 -32 47 0
