c F8 mutilated chessboard 16x16, own encoding (one var per domino, exactly-one per cell, pairwise AMO); cnfgen MutilatedChessboard(16,16) has 476 vars 1592 clauses
p cnf 476 1592
1 2 0
-1 -2 0
1 3 4 0
-1 -3 0
-1 -4 0
-3 -4 0
3 5 6 0
-3 -5 0
-3 -6 0
-5 -6 0
5 7 8 0
-5 -7 0
-5 -8 0
-7 -8 0
7 9 10 0
-7 -9 0
-7 -10 0
-9 -10 0
9 11 12 0
-9 -11 0
-9 -12 0
-11 -12 0
11 13 14 0
-11 -13 0
-11 -14 0
-13 -14 0
13 15 16 0
-13 -15 0
-13 -16 0
-15 -16 0
15 17 18 0
-15 -17 0
-15 -18 0
-17 -18 0
17 19 20 0
-17 -19 0
-17 -20 0
-19 -20 0
19 21 22 0
-19 -21 0
-19 -22 0
-21 -22 0
21 23 24 0
-21 -23 0
-21 -24 0
-23 -24 0
23 25 26 0
-23 -25 0
-23 -26 0
-25 -26 0
25 27 28 0
-25 -27 0
-25 -28 0
-27 -28 0
27 29 0
-27 -29 0
30 31 0
-30 -31 0
2 30 32 33 0
-2 -30 0
-2 -32 0
-2 -33 0
-30 -32 0
-30 -33 0
-32 -33 0
4 32 34 35 0
-4 -32 0
-4 -34 0
-4 -35 0
-32 -34 0
-32 -35 0
-34 -35 0
6 34 36 37 0
-6 -34 0
-6 -36 0
-6 -37 0
-34 -36 0
-34 -37 0
-36 -37 0
8 36 38 39 0
-8 -36 0
-8 -38 0
-8 -39 0
-36 -38 0
-36 -39 0
-38 -39 0
10 38 40 41 0
-10 -38 0
-10 -40 0
-10 -41 0
-38 -40 0
-38 -41 0
-40 -41 0
12 40 42 43 0
-12 -40 0
-12 -42 0
-12 -43 0
-40 -42 0
-40 -43 0
-42 -43 0
14 42 44 45 0
-14 -42 0
-14 -44 0
-14 -45 0
-42 -44 0
-42 -45 0
-44 -45 0
16 44 46 47 0
-16 -44 0
-16 -46 0
-16 -47 0
-44 -46 0
-44 -47 0
-46 -47 0
18 46 48 49 0
-18 -46 0
-18 -48 0
-18 -49 0
-46 -48 0
-46 -49 0
-48 -49 0
20 48 50 51 0
-20 -48 0
-20 -50 0
-20 -51 0
-48 -50 0
-48 -51 0
-50 -51 0
22 50 52 53 0
-22 -50 0
-22 -52 0
-22 -53 0
-50 -52 0
-50 -53 0
-52 -53 0
24 52 54 55 0
-24 -52 0
-24 -54 0
-24 -55 0
-52 -54 0
-52 -55 0
-54 -55 0
26 54 56 57 0
-26 -54 0
-26 -56 0
-26 -57 0
-54 -56 0
-54 -57 0
-56 -57 0
28 56 58 59 0
-28 -56 0
-28 -58 0
-28 -59 0
-56 -58 0
-56 -59 0
-58 -59 0
29 58 60 0
-29 -58 0
-29 -60 0
-58 -60 0
31 61 62 0
-31 -61 0
-31 -62 0
-61 -62 0
33 61 63 64 0
-33 -61 0
-33 -63 0
-33 -64 0
-61 -63 0
-61 -64 0
-63 -64 0
35 63 65 66 0
-35 -63 0
-35 -65 0
-35 -66 0
-63 -65 0
-63 -66 0
-65 -66 0
37 65 67 68 0
-37 -65 0
-37 -67 0
-37 -68 0
-65 -67 0
-65 -68 0
-67 -68 0
39 67 69 70 0
-39 -67 0
-39 -69 0
-39 -70 0
-67 -69 0
-67 -70 0
-69 -70 0
41 69 71 72 0
-41 -69 0
-41 -71 0
-41 -72 0
-69 -71 0
-69 -72 0
-71 -72 0
43 71 73 74 0
-43 -71 0
-43 -73 0
-43 -74 0
-71 -73 0
-71 -74 0
-73 -74 0
45 73 75 76 0
-45 -73 0
-45 -75 0
-45 -76 0
-73 -75 0
-73 -76 0
-75 -76 0
47 75 77 78 0
-47 -75 0
-47 -77 0
-47 -78 0
-75 -77 0
-75 -78 0
-77 -78 0
49 77 79 80 0
-49 -77 0
-49 -79 0
-49 -80 0
-77 -79 0
-77 -80 0
-79 -80 0
51 79 81 82 0
-51 -79 0
-51 -81 0
-51 -82 0
-79 -81 0
-79 -82 0
-81 -82 0
53 81 83 84 0
-53 -81 0
-53 -83 0
-53 -84 0
-81 -83 0
-81 -84 0
-83 -84 0
55 83 85 86 0
-55 -83 0
-55 -85 0
-55 -86 0
-83 -85 0
-83 -86 0
-85 -86 0
57 85 87 88 0
-57 -85 0
-57 -87 0
-57 -88 0
-85 -87 0
-85 -88 0
-87 -88 0
59 87 89 90 0
-59 -87 0
-59 -89 0
-59 -90 0
-87 -89 0
-87 -90 0
-89 -90 0
60 89 91 0
-60 -89 0
-60 -91 0
-89 -91 0
62 92 93 0
-62 -92 0
-62 -93 0
-92 -93 0
64 92 94 95 0
-64 -92 0
-64 -94 0
-64 -95 0
-92 -94 0
-92 -95 0
-94 -95 0
66 94 96 97 0
-66 -94 0
-66 -96 0
-66 -97 0
-94 -96 0
-94 -97 0
-96 -97 0
68 96 98 99 0
-68 -96 0
-68 -98 0
-68 -99 0
-96 -98 0
-96 -99 0
-98 -99 0
70 98 100 101 0
-70 -98 0
-70 -100 0
-70 -101 0
-98 -100 0
-98 -101 0
-100 -101 0
72 100 102 103 0
-72 -100 0
-72 -102 0
-72 -103 0
-100 -102 0
-100 -103 0
-102 -103 0
74 102 104 105 0
-74 -102 0
-74 -104 0
-74 -105 0
-102 -104 0
-102 -105 0
-104 -105 0
76 104 106 107 0
-76 -104 0
-76 -106 0
-76 -107 0
-104 -106 0
-104 -107 0
-106 -107 0
78 106 108 109 0
-78 -106 0
-78 -108 0
-78 -109 0
-106 -108 0
-106 -109 0
-108 -109 0
80 108 110 111 0
-80 -108 0
-80 -110 0
-80 -111 0
-108 -110 0
-108 -111 0
-110 -111 0
82 110 112 113 0
-82 -110 0
-82 -112 0
-82 -113 0
-110 -112 0
-110 -113 0
-112 -113 0
84 112 114 115 0
-84 -112 0
-84 -114 0
-84 -115 0
-112 -114 0
-112 -115 0
-114 -115 0
86 114 116 117 0
-86 -114 0
-86 -116 0
-86 -117 0
-114 -116 0
-114 -117 0
-116 -117 0
88 116 118 119 0
-88 -116 0
-88 -118 0
-88 -119 0
-116 -118 0
-116 -119 0
-118 -119 0
90 118 120 121 0
-90 -118 0
-90 -120 0
-90 -121 0
-118 -120 0
-118 -121 0
-120 -121 0
91 120 122 0
-91 -120 0
-91 -122 0
-120 -122 0
93 123 124 0
-93 -123 0
-93 -124 0
-123 -124 0
95 123 125 126 0
-95 -123 0
-95 -125 0
-95 -126 0
-123 -125 0
-123 -126 0
-125 -126 0
97 125 127 128 0
-97 -125 0
-97 -127 0
-97 -128 0
-125 -127 0
-125 -128 0
-127 -128 0
99 127 129 130 0
-99 -127 0
-99 -129 0
-99 -130 0
-127 -129 0
-127 -130 0
-129 -130 0
101 129 131 132 0
-101 -129 0
-101 -131 0
-101 -132 0
-129 -131 0
-129 -132 0
-131 -132 0
103 131 133 134 0
-103 -131 0
-103 -133 0
-103 -134 0
-131 -133 0
-131 -134 0
-133 -134 0
105 133 135 136 0
-105 -133 0
-105 -135 0
-105 -136 0
-133 -135 0
-133 -136 0
-135 -136 0
107 135 137 138 0
-107 -135 0
-107 -137 0
-107 -138 0
-135 -137 0
-135 -138 0
-137 -138 0
109 137 139 140 0
-109 -137 0
-109 -139 0
-109 -140 0
-137 -139 0
-137 -140 0
-139 -140 0
111 139 141 142 0
-111 -139 0
-111 -141 0
-111 -142 0
-139 -141 0
-139 -142 0
-141 -142 0
113 141 143 144 0
-113 -141 0
-113 -143 0
-113 -144 0
-141 -143 0
-141 -144 0
-143 -144 0
115 143 145 146 0
-115 -143 0
-115 -145 0
-115 -146 0
-143 -145 0
-143 -146 0
-145 -146 0
117 145 147 148 0
-117 -145 0
-117 -147 0
-117 -148 0
-145 -147 0
-145 -148 0
-147 -148 0
119 147 149 150 0
-119 -147 0
-119 -149 0
-119 -150 0
-147 -149 0
-147 -150 0
-149 -150 0
121 149 151 152 0
-121 -149 0
-121 -151 0
-121 -152 0
-149 -151 0
-149 -152 0
-151 -152 0
122 151 153 0
-122 -151 0
-122 -153 0
-151 -153 0
124 154 155 0
-124 -154 0
-124 -155 0
-154 -155 0
126 154 156 157 0
-126 -154 0
-126 -156 0
-126 -157 0
-154 -156 0
-154 -157 0
-156 -157 0
128 156 158 159 0
-128 -156 0
-128 -158 0
-128 -159 0
-156 -158 0
-156 -159 0
-158 -159 0
130 158 160 161 0
-130 -158 0
-130 -160 0
-130 -161 0
-158 -160 0
-158 -161 0
-160 -161 0
132 160 162 163 0
-132 -160 0
-132 -162 0
-132 -163 0
-160 -162 0
-160 -163 0
-162 -163 0
134 162 164 165 0
-134 -162 0
-134 -164 0
-134 -165 0
-162 -164 0
-162 -165 0
-164 -165 0
136 164 166 167 0
-136 -164 0
-136 -166 0
-136 -167 0
-164 -166 0
-164 -167 0
-166 -167 0
138 166 168 169 0
-138 -166 0
-138 -168 0
-138 -169 0
-166 -168 0
-166 -169 0
-168 -169 0
140 168 170 171 0
-140 -168 0
-140 -170 0
-140 -171 0
-168 -170 0
-168 -171 0
-170 -171 0
142 170 172 173 0
-142 -170 0
-142 -172 0
-142 -173 0
-170 -172 0
-170 -173 0
-172 -173 0
144 172 174 175 0
-144 -172 0
-144 -174 0
-144 -175 0
-172 -174 0
-172 -175 0
-174 -175 0
146 174 176 177 0
-146 -174 0
-146 -176 0
-146 -177 0
-174 -176 0
-174 -177 0
-176 -177 0
148 176 178 179 0
-148 -176 0
-148 -178 0
-148 -179 0
-176 -178 0
-176 -179 0
-178 -179 0
150 178 180 181 0
-150 -178 0
-150 -180 0
-150 -181 0
-178 -180 0
-178 -181 0
-180 -181 0
152 180 182 183 0
-152 -180 0
-152 -182 0
-152 -183 0
-180 -182 0
-180 -183 0
-182 -183 0
153 182 184 0
-153 -182 0
-153 -184 0
-182 -184 0
155 185 186 0
-155 -185 0
-155 -186 0
-185 -186 0
157 185 187 188 0
-157 -185 0
-157 -187 0
-157 -188 0
-185 -187 0
-185 -188 0
-187 -188 0
159 187 189 190 0
-159 -187 0
-159 -189 0
-159 -190 0
-187 -189 0
-187 -190 0
-189 -190 0
161 189 191 192 0
-161 -189 0
-161 -191 0
-161 -192 0
-189 -191 0
-189 -192 0
-191 -192 0
163 191 193 194 0
-163 -191 0
-163 -193 0
-163 -194 0
-191 -193 0
-191 -194 0
-193 -194 0
165 193 195 196 0
-165 -193 0
-165 -195 0
-165 -196 0
-193 -195 0
-193 -196 0
-195 -196 0
167 195 197 198 0
-167 -195 0
-167 -197 0
-167 -198 0
-195 -197 0
-195 -198 0
-197 -198 0
169 197 199 200 0
-169 -197 0
-169 -199 0
-169 -200 0
-197 -199 0
-197 -200 0
-199 -200 0
171 199 201 202 0
-171 -199 0
-171 -201 0
-171 -202 0
-199 -201 0
-199 -202 0
-201 -202 0
173 201 203 204 0
-173 -201 0
-173 -203 0
-173 -204 0
-201 -203 0
-201 -204 0
-203 -204 0
175 203 205 206 0
-175 -203 0
-175 -205 0
-175 -206 0
-203 -205 0
-203 -206 0
-205 -206 0
177 205 207 208 0
-177 -205 0
-177 -207 0
-177 -208 0
-205 -207 0
-205 -208 0
-207 -208 0
179 207 209 210 0
-179 -207 0
-179 -209 0
-179 -210 0
-207 -209 0
-207 -210 0
-209 -210 0
181 209 211 212 0
-181 -209 0
-181 -211 0
-181 -212 0
-209 -211 0
-209 -212 0
-211 -212 0
183 211 213 214 0
-183 -211 0
-183 -213 0
-183 -214 0
-211 -213 0
-211 -214 0
-213 -214 0
184 213 215 0
-184 -213 0
-184 -215 0
-213 -215 0
186 216 217 0
-186 -216 0
-186 -217 0
-216 -217 0
188 216 218 219 0
-188 -216 0
-188 -218 0
-188 -219 0
-216 -218 0
-216 -219 0
-218 -219 0
190 218 220 221 0
-190 -218 0
-190 -220 0
-190 -221 0
-218 -220 0
-218 -221 0
-220 -221 0
192 220 222 223 0
-192 -220 0
-192 -222 0
-192 -223 0
-220 -222 0
-220 -223 0
-222 -223 0
194 222 224 225 0
-194 -222 0
-194 -224 0
-194 -225 0
-222 -224 0
-222 -225 0
-224 -225 0
196 224 226 227 0
-196 -224 0
-196 -226 0
-196 -227 0
-224 -226 0
-224 -227 0
-226 -227 0
198 226 228 229 0
-198 -226 0
-198 -228 0
-198 -229 0
-226 -228 0
-226 -229 0
-228 -229 0
200 228 230 231 0
-200 -228 0
-200 -230 0
-200 -231 0
-228 -230 0
-228 -231 0
-230 -231 0
202 230 232 233 0
-202 -230 0
-202 -232 0
-202 -233 0
-230 -232 0
-230 -233 0
-232 -233 0
204 232 234 235 0
-204 -232 0
-204 -234 0
-204 -235 0
-232 -234 0
-232 -235 0
-234 -235 0
206 234 236 237 0
-206 -234 0
-206 -236 0
-206 -237 0
-234 -236 0
-234 -237 0
-236 -237 0
208 236 238 239 0
-208 -236 0
-208 -238 0
-208 -239 0
-236 -238 0
-236 -239 0
-238 -239 0
210 238 240 241 0
-210 -238 0
-210 -240 0
-210 -241 0
-238 -240 0
-238 -241 0
-240 -241 0
212 240 242 243 0
-212 -240 0
-212 -242 0
-212 -243 0
-240 -242 0
-240 -243 0
-242 -243 0
214 242 244 245 0
-214 -242 0
-214 -244 0
-214 -245 0
-242 -244 0
-242 -245 0
-244 -245 0
215 244 246 0
-215 -244 0
-215 -246 0
-244 -246 0
217 247 248 0
-217 -247 0
-217 -248 0
-247 -248 0
219 247 249 250 0
-219 -247 0
-219 -249 0
-219 -250 0
-247 -249 0
-247 -250 0
-249 -250 0
221 249 251 252 0
-221 -249 0
-221 -251 0
-221 -252 0
-249 -251 0
-249 -252 0
-251 -252 0
223 251 253 254 0
-223 -251 0
-223 -253 0
-223 -254 0
-251 -253 0
-251 -254 0
-253 -254 0
225 253 255 256 0
-225 -253 0
-225 -255 0
-225 -256 0
-253 -255 0
-253 -256 0
-255 -256 0
227 255 257 258 0
-227 -255 0
-227 -257 0
-227 -258 0
-255 -257 0
-255 -258 0
-257 -258 0
229 257 259 260 0
-229 -257 0
-229 -259 0
-229 -260 0
-257 -259 0
-257 -260 0
-259 -260 0
231 259 261 262 0
-231 -259 0
-231 -261 0
-231 -262 0
-259 -261 0
-259 -262 0
-261 -262 0
233 261 263 264 0
-233 -261 0
-233 -263 0
-233 -264 0
-261 -263 0
-261 -264 0
-263 -264 0
235 263 265 266 0
-235 -263 0
-235 -265 0
-235 -266 0
-263 -265 0
-263 -266 0
-265 -266 0
237 265 267 268 0
-237 -265 0
-237 -267 0
-237 -268 0
-265 -267 0
-265 -268 0
-267 -268 0
239 267 269 270 0
-239 -267 0
-239 -269 0
-239 -270 0
-267 -269 0
-267 -270 0
-269 -270 0
241 269 271 272 0
-241 -269 0
-241 -271 0
-241 -272 0
-269 -271 0
-269 -272 0
-271 -272 0
243 271 273 274 0
-243 -271 0
-243 -273 0
-243 -274 0
-271 -273 0
-271 -274 0
-273 -274 0
245 273 275 276 0
-245 -273 0
-245 -275 0
-245 -276 0
-273 -275 0
-273 -276 0
-275 -276 0
246 275 277 0
-246 -275 0
-246 -277 0
-275 -277 0
248 278 279 0
-248 -278 0
-248 -279 0
-278 -279 0
250 278 280 281 0
-250 -278 0
-250 -280 0
-250 -281 0
-278 -280 0
-278 -281 0
-280 -281 0
252 280 282 283 0
-252 -280 0
-252 -282 0
-252 -283 0
-280 -282 0
-280 -283 0
-282 -283 0
254 282 284 285 0
-254 -282 0
-254 -284 0
-254 -285 0
-282 -284 0
-282 -285 0
-284 -285 0
256 284 286 287 0
-256 -284 0
-256 -286 0
-256 -287 0
-284 -286 0
-284 -287 0
-286 -287 0
258 286 288 289 0
-258 -286 0
-258 -288 0
-258 -289 0
-286 -288 0
-286 -289 0
-288 -289 0
260 288 290 291 0
-260 -288 0
-260 -290 0
-260 -291 0
-288 -290 0
-288 -291 0
-290 -291 0
262 290 292 293 0
-262 -290 0
-262 -292 0
-262 -293 0
-290 -292 0
-290 -293 0
-292 -293 0
264 292 294 295 0
-264 -292 0
-264 -294 0
-264 -295 0
-292 -294 0
-292 -295 0
-294 -295 0
266 294 296 297 0
-266 -294 0
-266 -296 0
-266 -297 0
-294 -296 0
-294 -297 0
-296 -297 0
268 296 298 299 0
-268 -296 0
-268 -298 0
-268 -299 0
-296 -298 0
-296 -299 0
-298 -299 0
270 298 300 301 0
-270 -298 0
-270 -300 0
-270 -301 0
-298 -300 0
-298 -301 0
-300 -301 0
272 300 302 303 0
-272 -300 0
-272 -302 0
-272 -303 0
-300 -302 0
-300 -303 0
-302 -303 0
274 302 304 305 0
-274 -302 0
-274 -304 0
-274 -305 0
-302 -304 0
-302 -305 0
-304 -305 0
276 304 306 307 0
-276 -304 0
-276 -306 0
-276 -307 0
-304 -306 0
-304 -307 0
-306 -307 0
277 306 308 0
-277 -306 0
-277 -308 0
-306 -308 0
279 309 310 0
-279 -309 0
-279 -310 0
-309 -310 0
281 309 311 312 0
-281 -309 0
-281 -311 0
-281 -312 0
-309 -311 0
-309 -312 0
-311 -312 0
283 311 313 314 0
-283 -311 0
-283 -313 0
-283 -314 0
-311 -313 0
-311 -314 0
-313 -314 0
285 313 315 316 0
-285 -313 0
-285 -315 0
-285 -316 0
-313 -315 0
-313 -316 0
-315 -316 0
287 315 317 318 0
-287 -315 0
-287 -317 0
-287 -318 0
-315 -317 0
-315 -318 0
-317 -318 0
289 317 319 320 0
-289 -317 0
-289 -319 0
-289 -320 0
-317 -319 0
-317 -320 0
-319 -320 0
291 319 321 322 0
-291 -319 0
-291 -321 0
-291 -322 0
-319 -321 0
-319 -322 0
-321 -322 0
293 321 323 324 0
-293 -321 0
-293 -323 0
-293 -324 0
-321 -323 0
-321 -324 0
-323 -324 0
295 323 325 326 0
-295 -323 0
-295 -325 0
-295 -326 0
-323 -325 0
-323 -326 0
-325 -326 0
297 325 327 328 0
-297 -325 0
-297 -327 0
-297 -328 0
-325 -327 0
-325 -328 0
-327 -328 0
299 327 329 330 0
-299 -327 0
-299 -329 0
-299 -330 0
-327 -329 0
-327 -330 0
-329 -330 0
301 329 331 332 0
-301 -329 0
-301 -331 0
-301 -332 0
-329 -331 0
-329 -332 0
-331 -332 0
303 331 333 334 0
-303 -331 0
-303 -333 0
-303 -334 0
-331 -333 0
-331 -334 0
-333 -334 0
305 333 335 336 0
-305 -333 0
-305 -335 0
-305 -336 0
-333 -335 0
-333 -336 0
-335 -336 0
307 335 337 338 0
-307 -335 0
-307 -337 0
-307 -338 0
-335 -337 0
-335 -338 0
-337 -338 0
308 337 339 0
-308 -337 0
-308 -339 0
-337 -339 0
310 340 341 0
-310 -340 0
-310 -341 0
-340 -341 0
312 340 342 343 0
-312 -340 0
-312 -342 0
-312 -343 0
-340 -342 0
-340 -343 0
-342 -343 0
314 342 344 345 0
-314 -342 0
-314 -344 0
-314 -345 0
-342 -344 0
-342 -345 0
-344 -345 0
316 344 346 347 0
-316 -344 0
-316 -346 0
-316 -347 0
-344 -346 0
-344 -347 0
-346 -347 0
318 346 348 349 0
-318 -346 0
-318 -348 0
-318 -349 0
-346 -348 0
-346 -349 0
-348 -349 0
320 348 350 351 0
-320 -348 0
-320 -350 0
-320 -351 0
-348 -350 0
-348 -351 0
-350 -351 0
322 350 352 353 0
-322 -350 0
-322 -352 0
-322 -353 0
-350 -352 0
-350 -353 0
-352 -353 0
324 352 354 355 0
-324 -352 0
-324 -354 0
-324 -355 0
-352 -354 0
-352 -355 0
-354 -355 0
326 354 356 357 0
-326 -354 0
-326 -356 0
-326 -357 0
-354 -356 0
-354 -357 0
-356 -357 0
328 356 358 359 0
-328 -356 0
-328 -358 0
-328 -359 0
-356 -358 0
-356 -359 0
-358 -359 0
330 358 360 361 0
-330 -358 0
-330 -360 0
-330 -361 0
-358 -360 0
-358 -361 0
-360 -361 0
332 360 362 363 0
-332 -360 0
-332 -362 0
-332 -363 0
-360 -362 0
-360 -363 0
-362 -363 0
334 362 364 365 0
-334 -362 0
-334 -364 0
-334 -365 0
-362 -364 0
-362 -365 0
-364 -365 0
336 364 366 367 0
-336 -364 0
-336 -366 0
-336 -367 0
-364 -366 0
-364 -367 0
-366 -367 0
338 366 368 369 0
-338 -366 0
-338 -368 0
-338 -369 0
-366 -368 0
-366 -369 0
-368 -369 0
339 368 370 0
-339 -368 0
-339 -370 0
-368 -370 0
341 371 372 0
-341 -371 0
-341 -372 0
-371 -372 0
343 371 373 374 0
-343 -371 0
-343 -373 0
-343 -374 0
-371 -373 0
-371 -374 0
-373 -374 0
345 373 375 376 0
-345 -373 0
-345 -375 0
-345 -376 0
-373 -375 0
-373 -376 0
-375 -376 0
347 375 377 378 0
-347 -375 0
-347 -377 0
-347 -378 0
-375 -377 0
-375 -378 0
-377 -378 0
349 377 379 380 0
-349 -377 0
-349 -379 0
-349 -380 0
-377 -379 0
-377 -380 0
-379 -380 0
351 379 381 382 0
-351 -379 0
-351 -381 0
-351 -382 0
-379 -381 0
-379 -382 0
-381 -382 0
353 381 383 384 0
-353 -381 0
-353 -383 0
-353 -384 0
-381 -383 0
-381 -384 0
-383 -384 0
355 383 385 386 0
-355 -383 0
-355 -385 0
-355 -386 0
-383 -385 0
-383 -386 0
-385 -386 0
357 385 387 388 0
-357 -385 0
-357 -387 0
-357 -388 0
-385 -387 0
-385 -388 0
-387 -388 0
359 387 389 390 0
-359 -387 0
-359 -389 0
-359 -390 0
-387 -389 0
-387 -390 0
-389 -390 0
361 389 391 392 0
-361 -389 0
-361 -391 0
-361 -392 0
-389 -391 0
-389 -392 0
-391 -392 0
363 391 393 394 0
-363 -391 0
-363 -393 0
-363 -394 0
-391 -393 0
-391 -394 0
-393 -394 0
365 393 395 396 0
-365 -393 0
-365 -395 0
-365 -396 0
-393 -395 0
-393 -396 0
-395 -396 0
367 395 397 398 0
-367 -395 0
-367 -397 0
-367 -398 0
-395 -397 0
-395 -398 0
-397 -398 0
369 397 399 400 0
-369 -397 0
-369 -399 0
-369 -400 0
-397 -399 0
-397 -400 0
-399 -400 0
370 399 401 0
-370 -399 0
-370 -401 0
-399 -401 0
372 402 403 0
-372 -402 0
-372 -403 0
-402 -403 0
374 402 404 405 0
-374 -402 0
-374 -404 0
-374 -405 0
-402 -404 0
-402 -405 0
-404 -405 0
376 404 406 407 0
-376 -404 0
-376 -406 0
-376 -407 0
-404 -406 0
-404 -407 0
-406 -407 0
378 406 408 409 0
-378 -406 0
-378 -408 0
-378 -409 0
-406 -408 0
-406 -409 0
-408 -409 0
380 408 410 411 0
-380 -408 0
-380 -410 0
-380 -411 0
-408 -410 0
-408 -411 0
-410 -411 0
382 410 412 413 0
-382 -410 0
-382 -412 0
-382 -413 0
-410 -412 0
-410 -413 0
-412 -413 0
384 412 414 415 0
-384 -412 0
-384 -414 0
-384 -415 0
-412 -414 0
-412 -415 0
-414 -415 0
386 414 416 417 0
-386 -414 0
-386 -416 0
-386 -417 0
-414 -416 0
-414 -417 0
-416 -417 0
388 416 418 419 0
-388 -416 0
-388 -418 0
-388 -419 0
-416 -418 0
-416 -419 0
-418 -419 0
390 418 420 421 0
-390 -418 0
-390 -420 0
-390 -421 0
-418 -420 0
-418 -421 0
-420 -421 0
392 420 422 423 0
-392 -420 0
-392 -422 0
-392 -423 0
-420 -422 0
-420 -423 0
-422 -423 0
394 422 424 425 0
-394 -422 0
-394 -424 0
-394 -425 0
-422 -424 0
-422 -425 0
-424 -425 0
396 424 426 427 0
-396 -424 0
-396 -426 0
-396 -427 0
-424 -426 0
-424 -427 0
-426 -427 0
398 426 428 429 0
-398 -426 0
-398 -428 0
-398 -429 0
-426 -428 0
-426 -429 0
-428 -429 0
400 428 430 431 0
-400 -428 0
-400 -430 0
-400 -431 0
-428 -430 0
-428 -431 0
-430 -431 0
401 430 432 0
-401 -430 0
-401 -432 0
-430 -432 0
403 433 434 0
-403 -433 0
-403 -434 0
-433 -434 0
405 433 435 436 0
-405 -433 0
-405 -435 0
-405 -436 0
-433 -435 0
-433 -436 0
-435 -436 0
407 435 437 438 0
-407 -435 0
-407 -437 0
-407 -438 0
-435 -437 0
-435 -438 0
-437 -438 0
409 437 439 440 0
-409 -437 0
-409 -439 0
-409 -440 0
-437 -439 0
-437 -440 0
-439 -440 0
411 439 441 442 0
-411 -439 0
-411 -441 0
-411 -442 0
-439 -441 0
-439 -442 0
-441 -442 0
413 441 443 444 0
-413 -441 0
-413 -443 0
-413 -444 0
-441 -443 0
-441 -444 0
-443 -444 0
415 443 445 446 0
-415 -443 0
-415 -445 0
-415 -446 0
-443 -445 0
-443 -446 0
-445 -446 0
417 445 447 448 0
-417 -445 0
-417 -447 0
-417 -448 0
-445 -447 0
-445 -448 0
-447 -448 0
419 447 449 450 0
-419 -447 0
-419 -449 0
-419 -450 0
-447 -449 0
-447 -450 0
-449 -450 0
421 449 451 452 0
-421 -449 0
-421 -451 0
-421 -452 0
-449 -451 0
-449 -452 0
-451 -452 0
423 451 453 454 0
-423 -451 0
-423 -453 0
-423 -454 0
-451 -453 0
-451 -454 0
-453 -454 0
425 453 455 456 0
-425 -453 0
-425 -455 0
-425 -456 0
-453 -455 0
-453 -456 0
-455 -456 0
427 455 457 458 0
-427 -455 0
-427 -457 0
-427 -458 0
-455 -457 0
-455 -458 0
-457 -458 0
429 457 459 460 0
-429 -457 0
-429 -459 0
-429 -460 0
-457 -459 0
-457 -460 0
-459 -460 0
431 459 461 462 0
-431 -459 0
-431 -461 0
-431 -462 0
-459 -461 0
-459 -462 0
-461 -462 0
432 461 0
-432 -461 0
434 463 0
-434 -463 0
436 463 464 0
-436 -463 0
-436 -464 0
-463 -464 0
438 464 465 0
-438 -464 0
-438 -465 0
-464 -465 0
440 465 466 0
-440 -465 0
-440 -466 0
-465 -466 0
442 466 467 0
-442 -466 0
-442 -467 0
-466 -467 0
444 467 468 0
-444 -467 0
-444 -468 0
-467 -468 0
446 468 469 0
-446 -468 0
-446 -469 0
-468 -469 0
448 469 470 0
-448 -469 0
-448 -470 0
-469 -470 0
450 470 471 0
-450 -470 0
-450 -471 0
-470 -471 0
452 471 472 0
-452 -471 0
-452 -472 0
-471 -472 0
454 472 473 0
-454 -472 0
-454 -473 0
-472 -473 0
456 473 474 0
-456 -473 0
-456 -474 0
-473 -474 0
458 474 475 0
-458 -474 0
-458 -475 0
-474 -475 0
460 475 476 0
-460 -475 0
-460 -476 0
-475 -476 0
462 476 0
-462 -476 0
