c F8 mutilated chessboard 10x10, own encoding (one var per domino, exactly-one per cell, pairwise AMO); cnfgen MutilatedChessboard(10,10) has 176 vars 572 clauses
p cnf 176 572
1 2 0
-1 -2 0
1 3 4 0
-1 -3 0
-1 -4 0
-3 -4 0
3 5 6 0
-3 -5 0
-3 -6 0
-5 -6 0
5 7 8 0
-5 -7 0
-5 -8 0
-7 -8 0
7 9 10 0
-7 -9 0
-7 -10 0
-9 -10 0
9 11 12 0
-9 -11 0
-9 -12 0
-11 -12 0
11 13 14 0
-11 -13 0
-11 -14 0
-13 -14 0
13 15 16 0
-13 -15 0
-13 -16 0
-15 -16 0
15 17 0
-15 -17 0
18 19 0
-18 -19 0
2 18 20 21 0
-2 -18 0
-2 -20 0
-2 -21 0
-18 -20 0
-18 -21 0
-20 -21 0
4 20 22 23 0
-4 -20 0
-4 -22 0
-4 -23 0
-20 -22 0
-20 -23 0
-22 -23 0
6 22 24 25 0
-6 -22 0
-6 -24 0
-6 -25 0
-22 -24 0
-22 -25 0
-24 -25 0
8 24 26 27 0
-8 -24 0
-8 -26 0
-8 -27 0
-24 -26 0
-24 -27 0
-26 -27 0
10 26 28 29 0
-10 -26 0
-10 -28 0
-10 -29 0
-26 -28 0
-26 -29 0
-28 -29 0
12 28 30 31 0
-12 -28 0
-12 -30 0
-12 -31 0
-28 -30 0
-28 -31 0
-30 -31 0
14 30 32 33 0
-14 -30 0
-14 -32 0
-14 -33 0
-30 -32 0
-30 -33 0
-32 -33 0
16 32 34 35 0
-16 -32 0
-16 -34 0
-16 -35 0
-32 -34 0
-32 -35 0
-34 -35 0
17 34 36 0
-17 -34 0
-17 -36 0
-34 -36 0
19 37 38 0
-19 -37 0
-19 -38 0
-37 -38 0
21 37 39 40 0
-21 -37 0
-21 -39 0
-21 -40 0
-37 -39 0
-37 -40 0
-39 -40 0
23 39 41 42 0
-23 -39 0
-23 -41 0
-23 -42 0
-39 -41 0
-39 -42 0
-41 -42 0
25 41 43 44 0
-25 -41 0
-25 -43 0
-25 -44 0
-41 -43 0
-41 -44 0
-43 -44 0
27 43 45 46 0
-27 -43 0
-27 -45 0
-27 -46 0
-43 -45 0
-43 -46 0
-45 -46 0
29 45 47 48 0
-29 -45 0
-29 -47 0
-29 -48 0
-45 -47 0
-45 -48 0
-47 -48 0
31 47 49 50 0
-31 -47 0
-31 -49 0
-31 -50 0
-47 -49 0
-47 -50 0
-49 -50 0
33 49 51 52 0
-33 -49 0
-33 -51 0
-33 -52 0
-49 -51 0
-49 -52 0
-51 -52 0
35 51 53 54 0
-35 -51 0
-35 -53 0
-35 -54 0
-51 -53 0
-51 -54 0
-53 -54 0
36 53 55 0
-36 -53 0
-36 -55 0
-53 -55 0
38 56 57 0
-38 -56 0
-38 -57 0
-56 -57 0
40 56 58 59 0
-40 -56 0
-40 -58 0
-40 -59 0
-56 -58 0
-56 -59 0
-58 -59 0
42 58 60 61 0
-42 -58 0
-42 -60 0
-42 -61 0
-58 -60 0
-58 -61 0
-60 -61 0
44 60 62 63 0
-44 -60 0
-44 -62 0
-44 -63 0
-60 -62 0
-60 -63 0
-62 -63 0
46 62 64 65 0
-46 -62 0
-46 -64 0
-46 -65 0
-62 -64 0
-62 -65 0
-64 -65 0
48 64 66 67 0
-48 -64 0
-48 -66 0
-48 -67 0
-64 -66 0
-64 -67 0
-66 -67 0
50 66 68 69 0
-50 -66 0
-50 -68 0
-50 -69 0
-66 -68 0
-66 -69 0
-68 -69 0
52 68 70 71 0
-52 -68 0
-52 -70 0
-52 -71 0
-68 -70 0
-68 -71 0
-70 -71 0
54 70 72 73 0
-54 -70 0
-54 -72 0
-54 -73 0
-70 -72 0
-70 -73 0
-72 -73 0
55 72 74 0
-55 -72 0
-55 -74 0
-72 -74 0
57 75 76 0
-57 -75 0
-57 -76 0
-75 -76 0
59 75 77 78 0
-59 -75 0
-59 -77 0
-59 -78 0
-75 -77 0
-75 -78 0
-77 -78 0
61 77 79 80 0
-61 -77 0
-61 -79 0
-61 -80 0
-77 -79 0
-77 -80 0
-79 -80 0
63 79 81 82 0
-63 -79 0
-63 -81 0
-63 -82 0
-79 -81 0
-79 -82 0
-81 -82 0
65 81 83 84 0
-65 -81 0
-65 -83 0
-65 -84 0
-81 -83 0
-81 -84 0
-83 -84 0
67 83 85 86 0
-67 -83 0
-67 -85 0
-67 -86 0
-83 -85 0
-83 -86 0
-85 -86 0
69 85 87 88 0
-69 -85 0
-69 -87 0
-69 -88 0
-85 -87 0
-85 -88 0
-87 -88 0
71 87 89 90 0
-71 -87 0
-71 -89 0
-71 -90 0
-87 -89 0
-87 -90 0
-89 -90 0
73 89 91 92 0
-73 -89 0
-73 -91 0
-73 -92 0
-89 -91 0
-89 -92 0
-91 -92 0
74 91 93 0
-74 -91 0
-74 -93 0
-91 -93 0
76 94 95 0
-76 -94 0
-76 -95 0
-94 -95 0
78 94 96 97 0
-78 -94 0
-78 -96 0
-78 -97 0
-94 -96 0
-94 -97 0
-96 -97 0
80 96 98 99 0
-80 -96 0
-80 -98 0
-80 -99 0
-96 -98 0
-96 -99 0
-98 -99 0
82 98 100 101 0
-82 -98 0
-82 -100 0
-82 -101 0
-98 -100 0
-98 -101 0
-100 -101 0
84 100 102 103 0
-84 -100 0
-84 -102 0
-84 -103 0
-100 -102 0
-100 -103 0
-102 -103 0
86 102 104 105 0
-86 -102 0
-86 -104 0
-86 -105 0
-102 -104 0
-102 -105 0
-104 -105 0
88 104 106 107 0
-88 -104 0
-88 -106 0
-88 -107 0
-104 -106 0
-104 -107 0
-106 -107 0
90 106 108 109 0
-90 -106 0
-90 -108 0
-90 -109 0
-106 -108 0
-106 -109 0
-108 -109 0
92 108 110 111 0
-92 -108 0
-92 -110 0
-92 -111 0
-108 -110 0
-108 -111 0
-110 -111 0
93 110 112 0
-93 -110 0
-93 -112 0
-110 -112 0
95 113 114 0
-95 -113 0
-95 -114 0
-113 -114 0
97 113 115 116 0
-97 -113 0
-97 -115 0
-97 -116 0
-113 -115 0
-113 -116 0
-115 -116 0
99 115 117 118 0
-99 -115 0
-99 -117 0
-99 -118 0
-115 -117 0
-115 -118 0
-117 -118 0
101 117 119 120 0
-101 -117 0
-101 -119 0
-101 -120 0
-117 -119 0
-117 -120 0
-119 -120 0
103 119 121 122 0
-103 -119 0
-103 -121 0
-103 -122 0
-119 -121 0
-119 -122 0
-121 -122 0
105 121 123 124 0
-105 -121 0
-105 -123 0
-105 -124 0
-121 -123 0
-121 -124 0
-123 -124 0
107 123 125 126 0
-107 -123 0
-107 -125 0
-107 -126 0
-123 -125 0
-123 -126 0
-125 -126 0
109 125 127 128 0
-109 -125 0
-109 -127 0
-109 -128 0
-125 -127 0
-125 -128 0
-127 -128 0
111 127 129 130 0
-111 -127 0
-111 -129 0
-111 -130 0
-127 -129 0
-127 -130 0
-129 -130 0
112 129 131 0
-112 -129 0
-112 -131 0
-129 -131 0
114 132 133 0
-114 -132 0
-114 -133 0
-132 -133 0
116 132 134 135 0
-116 -132 0
-116 -134 0
-116 -135 0
-132 -134 0
-132 -135 0
-134 -135 0
118 134 136 137 0
-118 -134 0
-118 -136 0
-118 -137 0
-134 -136 0
-134 -137 0
-136 -137 0
120 136 138 139 0
-120 -136 0
-120 -138 0
-120 -139 0
-136 -138 0
-136 -139 0
-138 -139 0
122 138 140 141 0
-122 -138 0
-122 -140 0
-122 -141 0
-138 -140 0
-138 -141 0
-140 -141 0
124 140 142 143 0
-124 -140 0
-124 -142 0
-124 -143 0
-140 -142 0
-140 -143 0
-142 -143 0
126 142 144 145 0
-126 -142 0
-126 -144 0
-126 -145 0
-142 -144 0
-142 -145 0
-144 -145 0
128 144 146 147 0
-128 -144 0
-128 -146 0
-128 -147 0
-144 -146 0
-144 -147 0
-146 -147 0
130 146 148 149 0
-130 -146 0
-130 -148 0
-130 -149 0
-146 -148 0
-146 -149 0
-148 -149 0
131 148 150 0
-131 -148 0
-131 -150 0
-148 -150 0
133 151 152 0
-133 -151 0
-133 -152 0
-151 -152 0
135 151 153 154 0
-135 -151 0
-135 -153 0
-135 -154 0
-151 -153 0
-151 -154 0
-153 -154 0
137 153 155 156 0
-137 -153 0
-137 -155 0
-137 -156 0
-153 -155 0
-153 -156 0
-155 -156 0
139 155 157 158 0
-139 -155 0
-139 -157 0
-139 -158 0
-155 -157 0
-155 -158 0
-157 -158 0
141 157 159 160 0
-141 -157 0
-141 -159 0
-141 -160 0
-157 -159 0
-157 -160 0
-159 -160 0
143 159 161 162 0
-143 -159 0
-143 -161 0
-143 -162 0
-159 -161 0
-159 -162 0
-161 -162 0
145 161 163 164 0
-145 -161 0
-145 -163 0
-145 -164 0
-161 -163 0
-161 -164 0
-163 -164 0
147 163 165 166 0
-147 -163 0
-147 -165 0
-147 -166 0
-163 -165 0
-163 -166 0
-165 -166 0
149 165 167 168 0
-149 -165 0
-149 -167 0
-149 -168 0
-165 -167 0
-165 -168 0
-167 -168 0
150 167 0
-150 -167 0
152 169 0
-152 -169 0
154 169 170 0
-154 -169 0
-154 -170 0
-169 -170 0
156 170 171 0
-156 -170 0
-156 -171 0
-170 -171 0
158 171 172 0
-158 -171 0
-158 -172 0
-171 -172 0
160 172 173 0
-160 -172 0
-160 -173 0
-172 -173 0
162 173 174 0
-162 -173 0
-162 -174 0
-173 -174 0
164 174 175 0
-164 -174 0
-164 -175 0
-174 -175 0
166 175 176 0
-166 -175 0
-166 -176 0
-175 -176 0
168 176 0
-168 -176 0
