c F8 mutilated chessboard 6x6, own encoding (one var per domino, exactly-one per cell, pairwise AMO); cnfgen MutilatedChessboard(6,6) has 56 vars 172 clauses
p cnf 56 172
1 2 0
-1 -2 0
1 3 4 0
-1 -3 0
-1 -4 0
-3 -4 0
3 5 6 0
-3 -5 0
-3 -6 0
-5 -6 0
5 7 8 0
-5 -7 0
-5 -8 0
-7 -8 0
7 9 0
-7 -9 0
10 11 0
-10 -11 0
2 10 12 13 0
-2 -10 0
-2 -12 0
-2 -13 0
-10 -12 0
-10 -13 0
-12 -13 0
4 12 14 15 0
-4 -12 0
-4 -14 0
-4 -15 0
-12 -14 0
-12 -15 0
-14 -15 0
6 14 16 17 0
-6 -14 0
-6 -16 0
-6 -17 0
-14 -16 0
-14 -17 0
-16 -17 0
8 16 18 19 0
-8 -16 0
-8 -18 0
-8 -19 0
-16 -18 0
-16 -19 0
-18 -19 0
9 18 20 0
-9 -18 0
-9 -20 0
-18 -20 0
11 21 22 0
-11 -21 0
-11 -22 0
-21 -22 0
13 21 23 24 0
-13 -21 0
-13 -23 0
-13 -24 0
-21 -23 0
-21 -24 0
-23 -24 0
15 23 25 26 0
-15 -23 0
-15 -25 0
-15 -26 0
-23 -25 0
-23 -26 0
-25 -26 0
17 25 27 28 0
-17 -25 0
-17 -27 0
-17 -28 0
-25 -27 0
-25 -28 0
-27 -28 0
19 27 29 30 0
-19 -27 0
-19 -29 0
-19 -30 0
-27 -29 0
-27 -30 0
-29 -30 0
20 29 31 0
-20 -29 0
-20 -31 0
-29 -31 0
22 32 33 0
-22 -32 0
-22 -33 0
-32 -33 0
24 32 34 35 0
-24 -32 0
-24 -34 0
-24 -35 0
-32 -34 0
-32 -35 0
-34 -35 0
26 34 36 37 0
-26 -34 0
-26 -36 0
-26 -37 0
-34 -36 0
-34 -37 0
-36 -37 0
28 36 38 39 0
-28 -36 0
-28 -38 0
-28 -39 0
-36 -38 0
-36 -39 0
-38 -39 0
30 38 40 41 0
-30 -38 0
-30 -40 0
-30 -41 0
-38 -40 0
-38 -41 0
-40 -41 0
31 40 42 0
-31 -40 0
-31 -42 0
-40 -42 0
33 43 44 0
-33 -43 0
-33 -44 0
-43 -44 0
35 43 45 46 0
-35 -43 0
-35 -45 0
-35 -46 0
-43 -45 0
-43 -46 0
-45 -46 0
37 45 47 48 0
-37 -45 0
-37 -47 0
-37 -48 0
-45 -47 0
-45 -48 0
-47 -48 0
39 47 49 50 0
-39 -47 0
-39 -49 0
-39 -50 0
-47 -49 0
-47 -50 0
-49 -50 0
41 49 51 52 0
-41 -49 0
-41 -51 0
-41 -52 0
-49 -51 0
-49 -52 0
-51 -52 0
42 51 0
-42 -51 0
44 53 0
-44 -53 0
46 53 54 0
-46 -53 0
-46 -54 0
-53 -54 0
48 54 55 0
-48 -54 0
-48 -55 0
-54 -55 0
50 55 56 0
-50 -55 0
-50 -56 0
-55 -56 0
52 56 0
-52 -56 0
