c F8 mutilated chessboard 8x8, own encoding (one var per domino, exactly-one per cell, pairwise AMO); cnfgen MutilatedChessboard(8,8) has 108 vars 344 clauses
p cnf 108 344
1 2 0
-1 -2 0
1 3 4 0
-1 -3 0
-1 -4 0
-3 -4 0
3 5 6 0
-3 -5 0
-3 -6 0
-5 -6 0
5 7 8 0
-5 -7 0
-5 -8 0
-7 -8 0
7 9 10 0
-7 -9 0
-7 -10 0
-9 -10 0
9 11 12 0
-9 -11 0
-9 -12 0
-11 -12 0
11 13 0
-11 -13 0
14 15 0
-14 -15 0
2 14 16 17 0
-2 -14 0
-2 -16 0
-2 -17 0
-14 -16 0
-14 -17 0
-16 -17 0
4 16 18 19 0
-4 -16 0
-4 -18 0
-4 -19 0
-16 -18 0
-16 -19 0
-18 -19 0
6 18 20 21 0
-6 -18 0
-6 -20 0
-6 -21 0
-18 -20 0
-18 -21 0
-20 -21 0
8 20 22 23 0
-8 -20 0
-8 -22 0
-8 -23 0
-20 -22 0
-20 -23 0
-22 -23 0
10 22 24 25 0
-10 -22 0
-10 -24 0
-10 -25 0
-22 -24 0
-22 -25 0
-24 -25 0
12 24 26 27 0
-12 -24 0
-12 -26 0
-12 -27 0
-24 -26 0
-24 -27 0
-26 -27 0
13 26 28 0
-13 -26 0
-13 -28 0
-26 -28 0
15 29 30 0
-15 -29 0
-15 -30 0
-29 -30 0
17 29 31 32 0
-17 -29 0
-17 -31 0
-17 -32 0
-29 -31 0
-29 -32 0
-31 -32 0
19 31 33 34 0
-19 -31 0
-19 -33 0
-19 -34 0
-31 -33 0
-31 -34 0
-33 -34 0
21 33 35 36 0
-21 -33 0
-21 -35 0
-21 -36 0
-33 -35 0
-33 -36 0
-35 -36 0
23 35 37 38 0
-23 -35 0
-23 -37 0
-23 -38 0
-35 -37 0
-35 -38 0
-37 -38 0
25 37 39 40 0
-25 -37 0
-25 -39 0
-25 -40 0
-37 -39 0
-37 -40 0
-39 -40 0
27 39 41 42 0
-27 -39 0
-27 -41 0
-27 -42 0
-39 -41 0
-39 -42 0
-41 -42 0
28 41 43 0
-28 -41 0
-28 -43 0
-41 -43 0
30 44 45 0
-30 -44 0
-30 -45 0
-44 -45 0
32 44 46 47 0
-32 -44 0
-32 -46 0
-32 -47 0
-44 -46 0
-44 -47 0
-46 -47 0
34 46 48 49 0
-34 -46 0
-34 -48 0
-34 -49 0
-46 -48 0
-46 -49 0
-48 -49 0
36 48 50 51 0
-36 -48 0
-36 -50 0
-36 -51 0
-48 -50 0
-48 -51 0
-50 -51 0
38 50 52 53 0
-38 -50 0
-38 -52 0
-38 -53 0
-50 -52 0
-50 -53 0
-52 -53 0
40 52 54 55 0
-40 -52 0
-40 -54 0
-40 -55 0
-52 -54 0
-52 -55 0
-54 -55 0
42 54 56 57 0
-42 -54 0
-42 -56 0
-42 -57 0
-54 -56 0
-54 -57 0
-56 -57 0
43 56 58 0
-43 -56 0
-43 -58 0
-56 -58 0
45 59 60 0
-45 -59 0
-45 -60 0
-59 -60 0
47 59 61 62 0
-47 -59 0
-47 -61 0
-47 -62 0
-59 -61 0
-59 -62 0
-61 -62 0
49 61 63 64 0
-49 -61 0
-49 -63 0
-49 -64 0
-61 -63 0
-61 -64 0
-63 -64 0
51 63 65 66 0
-51 -63 0
-51 -65 0
-51 -66 0
-63 -65 0
-63 -66 0
-65 -66 0
53 65 67 68 0
-53 -65 0
-53 -67 0
-53 -68 0
-65 -67 0
-65 -68 0
-67 -68 0
55 67 69 70 0
-55 -67 0
-55 -69 0
-55 -70 0
-67 -69 0
-67 -70 0
-69 -70 0
57 69 71 72 0
-57 -69 0
-57 -71 0
-57 -72 0
-69 -71 0
-69 -72 0
-71 -72 0
58 71 73 0
-58 -71 0
-58 -73 0
-71 -73 0
60 74 75 0
-60 -74 0
-60 -75 0
-74 -75 0
62 74 76 77 0
-62 -74 0
-62 -76 0
-62 -77 0
-74 -76 0
-74 -77 0
-76 -77 0
64 76 78 79 0
-64 -76 0
-64 -78 0
-64 -79 0
-76 -78 0
-76 -79 0
-78 -79 0
66 78 80 81 0
-66 -78 0
-66 -80 0
-66 -81 0
-78 -80 0
-78 -81 0
-80 -81 0
68 80 82 83 0
-68 -80 0
-68 -82 0
-68 -83 0
-80 -82 0
-80 -83 0
-82 -83 0
70 82 84 85 0
-70 -82 0
-70 -84 0
-70 -85 0
-82 -84 0
-82 -85 0
-84 -85 0
72 84 86 87 0
-72 -84 0
-72 -86 0
-72 -87 0
-84 -86 0
-84 -87 0
-86 -87 0
73 86 88 0
-73 -86 0
-73 -88 0
-86 -88 0
75 89 90 0
-75 -89 0
-75 -90 0
-89 -90 0
77 89 91 92 0
-77 -89 0
-77 -91 0
-77 -92 0
-89 -91 0
-89 -92 0
-91 -92 0
79 91 93 94 0
-79 -91 0
-79 -93 0
-79 -94 0
-91 -93 0
-91 -94 0
-93 -94 0
81 93 95 96 0
-81 -93 0
-81 -95 0
-81 -96 0
-93 -95 0
-93 -96 0
-95 -96 0
83 95 97 98 0
-83 -95 0
-83 -97 0
-83 -98 0
-95 -97 0
-95 -98 0
-97 -98 0
85 97 99 100 0
-85 -97 0
-85 -99 0
-85 -100 0
-97 -99 0
-97 -100 0
-99 -100 0
87 99 101 102 0
-87 -99 0
-87 -101 0
-87 -102 0
-99 -101 0
-99 -102 0
-101 -102 0
88 101 0
-88 -101 0
90 103 0
-90 -103 0
92 103 104 0
-92 -103 0
-92 -104 0
-103 -104 0
94 104 105 0
-94 -104 0
-94 -105 0
-104 -105 0
96 105 106 0
-96 -105 0
-96 -106 0
-105 -106 0
98 106 107 0
-98 -106 0
-98 -107 0
-106 -107 0
100 107 108 0
-100 -107 0
-100 -108 0
-107 -108 0
102 108 0
-102 -108 0
