c F8 mutilated chessboard 14x14, own encoding (one var per domino, exactly-one per cell, pairwise AMO); cnfgen MutilatedChessboard(14,14) has 360 vars 1196 clauses
p cnf 360 1196
1 2 0
-1 -2 0
1 3 4 0
-1 -3 0
-1 -4 0
-3 -4 0
3 5 6 0
-3 -5 0
-3 -6 0
-5 -6 0
5 7 8 0
-5 -7 0
-5 -8 0
-7 -8 0
7 9 10 0
-7 -9 0
-7 -10 0
-9 -10 0
9 11 12 0
-9 -11 0
-9 -12 0
-11 -12 0
11 13 14 0
-11 -13 0
-11 -14 0
-13 -14 0
13 15 16 0
-13 -15 0
-13 -16 0
-15 -16 0
15 17 18 0
-15 -17 0
-15 -18 0
-17 -18 0
17 19 20 0
-17 -19 0
-17 -20 0
-19 -20 0
19 21 22 0
-19 -21 0
-19 -22 0
-21 -22 0
21 23 24 0
-21 -23 0
-21 -24 0
-23 -24 0
23 25 0
-23 -25 0
26 27 0
-26 -27 0
2 26 28 29 0
-2 -26 0
-2 -28 0
-2 -29 0
-26 -28 0
-26 -29 0
-28 -29 0
4 28 30 31 0
-4 -28 0
-4 -30 0
-4 -31 0
-28 -30 0
-28 -31 0
-30 -31 0
6 30 32 33 0
-6 -30 0
-6 -32 0
-6 -33 0
-30 -32 0
-30 -33 0
-32 -33 0
8 32 34 35 0
-8 -32 0
-8 -34 0
-8 -35 0
-32 -34 0
-32 -35 0
-34 -35 0
10 34 36 37 0
-10 -34 0
-10 -36 0
-10 -37 0
-34 -36 0
-34 -37 0
-36 -37 0
12 36 38 39 0
-12 -36 0
-12 -38 0
-12 -39 0
-36 -38 0
-36 -39 0
-38 -39 0
14 38 40 41 0
-14 -38 0
-14 -40 0
-14 -41 0
-38 -40 0
-38 -41 0
-40 -41 0
16 40 42 43 0
-16 -40 0
-16 -42 0
-16 -43 0
-40 -42 0
-40 -43 0
-42 -43 0
18 42 44 45 0
-18 -42 0
-18 -44 0
-18 -45 0
-42 -44 0
-42 -45 0
-44 -45 0
20 44 46 47 0
-20 -44 0
-20 -46 0
-20 -47 0
-44 -46 0
-44 -47 0
-46 -47 0
22 46 48 49 0
-22 -46 0
-22 -48 0
-22 -49 0
-46 -48 0
-46 -49 0
-48 -49 0
24 48 50 51 0
-24 -48 0
-24 -50 0
-24 -51 0
-48 -50 0
-48 -51 0
-50 -51 0
25 50 52 0
-25 -50 0
-25 -52 0
-50 -52 0
27 53 54 0
-27 -53 0
-27 -54 0
-53 -54 0
29 53 55 56 0
-29 -53 0
-29 -55 0
-29 -56 0
-53 -55 0
-53 -56 0
-55 -56 0
31 55 57 58 0
-31 -55 0
-31 -57 0
-31 -58 0
-55 -57 0
-55 -58 0
-57 -58 0
33 57 59 60 0
-33 -57 0
-33 -59 0
-33 -60 0
-57 -59 0
-57 -60 0
-59 -60 0
35 59 61 62 0
-35 -59 0
-35 -61 0
-35 -62 0
-59 -61 0
-59 -62 0
-61 -62 0
37 61 63 64 0
-37 -61 0
-37 -63 0
-37 -64 0
-61 -63 0
-61 -64 0
-63 -64 0
39 63 65 66 0
-39 -63 0
-39 -65 0
-39 -66 0
-63 -65 0
-63 -66 0
-65 -66 0
41 65 67 68 0
-41 -65 0
-41 -67 0
-41 -68 0
-65 -67 0
-65 -68 0
-67 -68 0
43 67 69 70 0
-43 -67 0
-43 -69 0
-43 -70 0
-67 -69 0
-67 -70 0
-69 -70 0
45 69 71 72 0
-45 -69 0
-45 -71 0
-45 -72 0
-69 -71 0
-69 -72 0
-71 -72 0
47 71 73 74 0
-47 -71 0
-47 -73 0
-47 -74 0
-71 -73 0
-71 -74 0
-73 -74 0
49 73 75 76 0
-49 -73 0
-49 -75 0
-49 -76 0
-73 -75 0
-73 -76 0
-75 -76 0
51 75 77 78 0
-51 -75 0
-51 -77 0
-51 -78 0
-75 -77 0
-75 -78 0
-77 -78 0
52 77 79 0
-52 -77 0
-52 -79 0
-77 -79 0
54 80 81 0
-54 -80 0
-54 -81 0
-80 -81 0
56 80 82 83 0
-56 -80 0
-56 -82 0
-56 -83 0
-80 -82 0
-80 -83 0
-82 -83 0
58 82 84 85 0
-58 -82 0
-58 -84 0
-58 -85 0
-82 -84 0
-82 -85 0
-84 -85 0
60 84 86 87 0
-60 -84 0
-60 -86 0
-60 -87 0
-84 -86 0
-84 -87 0
-86 -87 0
62 86 88 89 0
-62 -86 0
-62 -88 0
-62 -89 0
-86 -88 0
-86 -89 0
-88 -89 0
64 88 90 91 0
-64 -88 0
-64 -90 0
-64 -91 0
-88 -90 0
-88 -91 0
-90 -91 0
66 90 92 93 0
-66 -90 0
-66 -92 0
-66 -93 0
-90 -92 0
-90 -93 0
-92 -93 0
68 92 94 95 0
-68 -92 0
-68 -94 0
-68 -95 0
-92 -94 0
-92 -95 0
-94 -95 0
70 94 96 97 0
-70 -94 0
-70 -96 0
-70 -97 0
-94 -96 0
-94 -97 0
-96 -97 0
72 96 98 99 0
-72 -96 0
-72 -98 0
-72 -99 0
-96 -98 0
-96 -99 0
-98 -99 0
74 98 100 101 0
-74 -98 0
-74 -100 0
-74 -101 0
-98 -100 0
-98 -101 0
-100 -101 0
76 100 102 103 0
-76 -100 0
-76 -102 0
-76 -103 0
-100 -102 0
-100 -103 0
-102 -103 0
78 102 104 105 0
-78 -102 0
-78 -104 0
-78 -105 0
-102 -104 0
-102 -105 0
-104 -105 0
79 104 106 0
-79 -104 0
-79 -106 0
-104 -106 0
81 107 108 0
-81 -107 0
-81 -108 0
-107 -108 0
83 107 109 110 0
-83 -107 0
-83 -109 0
-83 -110 0
-107 -109 0
-107 -110 0
-109 -110 0
85 109 111 112 0
-85 -109 0
-85 -111 0
-85 -112 0
-109 -111 0
-109 -112 0
-111 -112 0
87 111 113 114 0
-87 -111 0
-87 -113 0
-87 -114 0
-111 -113 0
-111 -114 0
-113 -114 0
89 113 115 116 0
-89 -113 0
-89 -115 0
-89 -116 0
-113 -115 0
-113 -116 0
-115 -116 0
91 115 117 118 0
-91 -115 0
-91 -117 0
-91 -118 0
-115 -117 0
-115 -118 0
-117 -118 0
93 117 119 120 0
-93 -117 0
-93 -119 0
-93 -120 0
-117 -119 0
-117 -120 0
-119 -120 0
95 119 121 122 0
-95 -119 0
-95 -121 0
-95 -122 0
-119 -121 0
-119 -122 0
-121 -122 0
97 121 123 124 0
-97 -121 0
-97 -123 0
-97 -124 0
-121 -123 0
-121 -124 0
-123 -124 0
99 123 125 126 0
-99 -123 0
-99 -125 0
-99 -126 0
-123 -125 0
-123 -126 0
-125 -126 0
101 125 127 128 0
-101 -125 0
-101 -127 0
-101 -128 0
-125 -127 0
-125 -128 0
-127 -128 0
103 127 129 130 0
-103 -127 0
-103 -129 0
-103 -130 0
-127 -129 0
-127 -130 0
-129 -130 0
105 129 131 132 0
-105 -129 0
-105 -131 0
-105 -132 0
-129 -131 0
-129 -132 0
-131 -132 0
106 131 133 0
-106 -131 0
-106 -133 0
-131 -133 0
108 134 135 0
-108 -134 0
-108 -135 0
-134 -135 0
110 134 136 137 0
-110 -134 0
-110 -136 0
-110 -137 0
-134 -136 0
-134 -137 0
-136 -137 0
112 136 138 139 0
-112 -136 0
-112 -138 0
-112 -139 0
-136 -138 0
-136 -139 0
-138 -139 0
114 138 140 141 0
-114 -138 0
-114 -140 0
-114 -141 0
-138 -140 0
-138 -141 0
-140 -141 0
116 140 142 143 0
-116 -140 0
-116 -142 0
-116 -143 0
-140 -142 0
-140 -143 0
-142 -143 0
118 142 144 145 0
-118 -142 0
-118 -144 0
-118 -145 0
-142 -144 0
-142 -145 0
-144 -145 0
120 144 146 147 0
-120 -144 0
-120 -146 0
-120 -147 0
-144 -146 0
-144 -147 0
-146 -147 0
122 146 148 149 0
-122 -146 0
-122 -148 0
-122 -149 0
-146 -148 0
-146 -149 0
-148 -149 0
124 148 150 151 0
-124 -148 0
-124 -150 0
-124 -151 0
-148 -150 0
-148 -151 0
-150 -151 0
126 150 152 153 0
-126 -150 0
-126 -152 0
-126 -153 0
-150 -152 0
-150 -153 0
-152 -153 0
128 152 154 155 0
-128 -152 0
-128 -154 0
-128 -155 0
-152 -154 0
-152 -155 0
-154 -155 0
130 154 156 157 0
-130 -154 0
-130 -156 0
-130 -157 0
-154 -156 0
-154 -157 0
-156 -157 0
132 156 158 159 0
-132 -156 0
-132 -158 0
-132 -159 0
-156 -158 0
-156 -159 0
-158 -159 0
133 158 160 0
-133 -158 0
-133 -160 0
-158 -160 0
135 161 162 0
-135 -161 0
-135 -162 0
-161 -162 0
137 161 163 164 0
-137 -161 0
-137 -163 0
-137 -164 0
-161 -163 0
-161 -164 0
-163 -164 0
139 163 165 166 0
-139 -163 0
-139 -165 0
-139 -166 0
-163 -165 0
-163 -166 0
-165 -166 0
141 165 167 168 0
-141 -165 0
-141 -167 0
-141 -168 0
-165 -167 0
-165 -168 0
-167 -168 0
143 167 169 170 0
-143 -167 0
-143 -169 0
-143 -170 0
-167 -169 0
-167 -170 0
-169 -170 0
145 169 171 172 0
-145 -169 0
-145 -171 0
-145 -172 0
-169 -171 0
-169 -172 0
-171 -172 0
147 171 173 174 0
-147 -171 0
-147 -173 0
-147 -174 0
-171 -173 0
-171 -174 0
-173 -174 0
149 173 175 176 0
-149 -173 0
-149 -175 0
-149 -176 0
-173 -175 0
-173 -176 0
-175 -176 0
151 175 177 178 0
-151 -175 0
-151 -177 0
-151 -178 0
-175 -177 0
-175 -178 0
-177 -178 0
153 177 179 180 0
-153 -177 0
-153 -179 0
-153 -180 0
-177 -179 0
-177 -180 0
-179 -180 0
155 179 181 182 0
-155 -179 0
-155 -181 0
-155 -182 0
-179 -181 0
-179 -182 0
-181 -182 0
157 181 183 184 0
-157 -181 0
-157 -183 0
-157 -184 0
-181 -183 0
-181 -184 0
-183 -184 0
159 183 185 186 0
-159 -183 0
-159 -185 0
-159 -186 0
-183 -185 0
-183 -186 0
-185 -186 0
160 185 187 0
-160 -185 0
-160 -187 0
-185 -187 0
162 188 189 0
-162 -188 0
-162 -189 0
-188 -189 0
164 188 190 191 0
-164 -188 0
-164 -190 0
-164 -191 0
-188 -190 0
-188 -191 0
-190 -191 0
166 190 192 193 0
-166 -190 0
-166 -192 0
-166 -193 0
-190 -192 0
-190 -193 0
-192 -193 0
168 192 194 195 0
-168 -192 0
-168 -194 0
-168 -195 0
-192 -194 0
-192 -195 0
-194 -195 0
170 194 196 197 0
-170 -194 0
-170 -196 0
-170 -197 0
-194 -196 0
-194 -197 0
-196 -197 0
172 196 198 199 0
-172 -196 0
-172 -198 0
-172 -199 0
-196 -198 0
-196 -199 0
-198 -199 0
174 198 200 201 0
-174 -198 0
-174 -200 0
-174 -201 0
-198 -200 0
-198 -201 0
-200 -201 0
176 200 202 203 0
-176 -200 0
-176 -202 0
-176 -203 0
-200 -202 0
-200 -203 0
-202 -203 0
178 202 204 205 0
-178 -202 0
-178 -204 0
-178 -205 0
-202 -204 0
-202 -205 0
-204 -205 0
180 204 206 207 0
-180 -204 0
-180 -206 0
-180 -207 0
-204 -206 0
-204 -207 0
-206 -207 0
182 206 208 209 0
-182 -206 0
-182 -208 0
-182 -209 0
-206 -208 0
-206 -209 0
-208 -209 0
184 208 210 211 0
-184 -208 0
-184 -210 0
-184 -211 0
-208 -210 0
-208 -211 0
-210 -211 0
186 210 212 213 0
-186 -210 0
-186 -212 0
-186 -213 0
-210 -212 0
-210 -213 0
-212 -213 0
187 212 214 0
-187 -212 0
-187 -214 0
-212 -214 0
189 215 216 0
-189 -215 0
-189 -216 0
-215 -216 0
191 215 217 218 0
-191 -215 0
-191 -217 0
-191 -218 0
-215 -217 0
-215 -218 0
-217 -218 0
193 217 219 220 0
-193 -217 0
-193 -219 0
-193 -220 0
-217 -219 0
-217 -220 0
-219 -220 0
195 219 221 222 0
-195 -219 0
-195 -221 0
-195 -222 0
-219 -221 0
-219 -222 0
-221 -222 0
197 221 223 224 0
-197 -221 0
-197 -223 0
-197 -224 0
-221 -223 0
-221 -224 0
-223 -224 0
199 223 225 226 0
-199 -223 0
-199 -225 0
-199 -226 0
-223 -225 0
-223 -226 0
-225 -226 0
201 225 227 228 0
-201 -225 0
-201 -227 0
-201 -228 0
-225 -227 0
-225 -228 0
-227 -228 0
203 227 229 230 0
-203 -227 0
-203 -229 0
-203 -230 0
-227 -229 0
-227 -230 0
-229 -230 0
205 229 231 232 0
-205 -229 0
-205 -231 0
-205 -232 0
-229 -231 0
-229 -232 0
-231 -232 0
207 231 233 234 0
-207 -231 0
-207 -233 0
-207 -234 0
-231 -233 0
-231 -234 0
-233 -234 0
209 233 235 236 0
-209 -233 0
-209 -235 0
-209 -236 0
-233 -235 0
-233 -236 0
-235 -236 0
211 235 237 238 0
-211 -235 0
-211 -237 0
-211 -238 0
-235 -237 0
-235 -238 0
-237 -238 0
213 237 239 240 0
-213 -237 0
-213 -239 0
-213 -240 0
-237 -239 0
-237 -240 0
-239 -240 0
214 239 241 0
-214 -239 0
-214 -241 0
-239 -241 0
216 242 243 0
-216 -242 0
-216 -243 0
-242 -243 0
218 242 244 245 0
-218 -242 0
-218 -244 0
-218 -245 0
-242 -244 0
-242 -245 0
-244 -245 0
220 244 246 247 0
-220 -244 0
-220 -246 0
-220 -247 0
-244 -246 0
-244 -247 0
-246 -247 0
222 246 248 249 0
-222 -246 0
-222 -248 0
-222 -249 0
-246 -248 0
-246 -249 0
-248 -249 0
224 248 250 251 0
-224 -248 0
-224 -250 0
-224 -251 0
-248 -250 0
-248 -251 0
-250 -251 0
226 250 252 253 0
-226 -250 0
-226 -252 0
-226 -253 0
-250 -252 0
-250 -253 0
-252 -253 0
228 252 254 255 0
-228 -252 0
-228 -254 0
-228 -255 0
-252 -254 0
-252 -255 0
-254 -255 0
230 254 256 257 0
-230 -254 0
-230 -256 0
-230 -257 0
-254 -256 0
-254 -257 0
-256 -257 0
232 256 258 259 0
-232 -256 0
-232 -258 0
-232 -259 0
-256 -258 0
-256 -259 0
-258 -259 0
234 258 260 261 0
-234 -258 0
-234 -260 0
-234 -261 0
-258 -260 0
-258 -261 0
-260 -261 0
236 260 262 263 0
-236 -260 0
-236 -262 0
-236 -263 0
-260 -262 0
-260 -263 0
-262 -263 0
238 262 264 265 0
-238 -262 0
-238 -264 0
-238 -265 0
-262 -264 0
-262 -265 0
-264 -265 0
240 264 266 267 0
-240 -264 0
-240 -266 0
-240 -267 0
-264 -266 0
-264 -267 0
-266 -267 0
241 266 268 0
-241 -266 0
-241 -268 0
-266 -268 0
243 269 270 0
-243 -269 0
-243 -270 0
-269 -270 0
245 269 271 272 0
-245 -269 0
-245 -271 0
-245 -272 0
-269 -271 0
-269 -272 0
-271 -272 0
247 271 273 274 0
-247 -271 0
-247 -273 0
-247 -274 0
-271 -273 0
-271 -274 0
-273 -274 0
249 273 275 276 0
-249 -273 0
-249 -275 0
-249 -276 0
-273 -275 0
-273 -276 0
-275 -276 0
251 275 277 278 0
-251 -275 0
-251 -277 0
-251 -278 0
-275 -277 0
-275 -278 0
-277 -278 0
253 277 279 280 0
-253 -277 0
-253 -279 0
-253 -280 0
-277 -279 0
-277 -280 0
-279 -280 0
255 279 281 282 0
-255 -279 0
-255 -281 0
-255 -282 0
-279 -281 0
-279 -282 0
-281 -282 0
257 281 283 284 0
-257 -281 0
-257 -283 0
-257 -284 0
-281 -283 0
-281 -284 0
-283 -284 0
259 283 285 286 0
-259 -283 0
-259 -285 0
-259 -286 0
-283 -285 0
-283 -286 0
-285 -286 0
261 285 287 288 0
-261 -285 0
-261 -287 0
-261 -288 0
-285 -287 0
-285 -288 0
-287 -288 0
263 287 289 290 0
-263 -287 0
-263 -289 0
-263 -290 0
-287 -289 0
-287 -290 0
-289 -290 0
265 289 291 292 0
-265 -289 0
-265 -291 0
-265 -292 0
-289 -291 0
-289 -292 0
-291 -292 0
267 291 293 294 0
-267 -291 0
-267 -293 0
-267 -294 0
-291 -293 0
-291 -294 0
-293 -294 0
268 293 295 0
-268 -293 0
-268 -295 0
-293 -295 0
270 296 297 0
-270 -296 0
-270 -297 0
-296 -297 0
272 296 298 299 0
-272 -296 0
-272 -298 0
-272 -299 0
-296 -298 0
-296 -299 0
-298 -299 0
274 298 300 301 0
-274 -298 0
-274 -300 0
-274 -301 0
-298 -300 0
-298 -301 0
-300 -301 0
276 300 302 303 0
-276 -300 0
-276 -302 0
-276 -303 0
-300 -302 0
-300 -303 0
-302 -303 0
278 302 304 305 0
-278 -302 0
-278 -304 0
-278 -305 0
-302 -304 0
-302 -305 0
-304 -305 0
280 304 306 307 0
-280 -304 0
-280 -306 0
-280 -307 0
-304 -306 0
-304 -307 0
-306 -307 0
282 306 308 309 0
-282 -306 0
-282 -308 0
-282 -309 0
-306 -308 0
-306 -309 0
-308 -309 0
284 308 310 311 0
-284 -308 0
-284 -310 0
-284 -311 0
-308 -310 0
-308 -311 0
-310 -311 0
286 310 312 313 0
-286 -310 0
-286 -312 0
-286 -313 0
-310 -312 0
-310 -313 0
-312 -313 0
288 312 314 315 0
-288 -312 0
-288 -314 0
-288 -315 0
-312 -314 0
-312 -315 0
-314 -315 0
290 314 316 317 0
-290 -314 0
-290 -316 0
-290 -317 0
-314 -316 0
-314 -317 0
-316 -317 0
292 316 318 319 0
-292 -316 0
-292 -318 0
-292 -319 0
-316 -318 0
-316 -319 0
-318 -319 0
294 318 320 321 0
-294 -318 0
-294 -320 0
-294 -321 0
-318 -320 0
-318 -321 0
-320 -321 0
295 320 322 0
-295 -320 0
-295 -322 0
-320 -322 0
297 323 324 0
-297 -323 0
-297 -324 0
-323 -324 0
299 323 325 326 0
-299 -323 0
-299 -325 0
-299 -326 0
-323 -325 0
-323 -326 0
-325 -326 0
301 325 327 328 0
-301 -325 0
-301 -327 0
-301 -328 0
-325 -327 0
-325 -328 0
-327 -328 0
303 327 329 330 0
-303 -327 0
-303 -329 0
-303 -330 0
-327 -329 0
-327 -330 0
-329 -330 0
305 329 331 332 0
-305 -329 0
-305 -331 0
-305 -332 0
-329 -331 0
-329 -332 0
-331 -332 0
307 331 333 334 0
-307 -331 0
-307 -333 0
-307 -334 0
-331 -333 0
-331 -334 0
-333 -334 0
309 333 335 336 0
-309 -333 0
-309 -335 0
-309 -336 0
-333 -335 0
-333 -336 0
-335 -336 0
311 335 337 338 0
-311 -335 0
-311 -337 0
-311 -338 0
-335 -337 0
-335 -338 0
-337 -338 0
313 337 339 340 0
-313 -337 0
-313 -339 0
-313 -340 0
-337 -339 0
-337 -340 0
-339 -340 0
315 339 341 342 0
-315 -339 0
-315 -341 0
-315 -342 0
-339 -341 0
-339 -342 0
-341 -342 0
317 341 343 344 0
-317 -341 0
-317 -343 0
-317 -344 0
-341 -343 0
-341 -344 0
-343 -344 0
319 343 345 346 0
-319 -343 0
-319 -345 0
-319 -346 0
-343 -345 0
-343 -346 0
-345 -346 0
321 345 347 348 0
-321 -345 0
-321 -347 0
-321 -348 0
-345 -347 0
-345 -348 0
-347 -348 0
322 347 0
-322 -347 0
324 349 0
-324 -349 0
326 349 350 0
-326 -349 0
-326 -350 0
-349 -350 0
328 350 351 0
-328 -350 0
-328 -351 0
-350 -351 0
330 351 352 0
-330 -351 0
-330 -352 0
-351 -352 0
332 352 353 0
-332 -352 0
-332 -353 0
-352 -353 0
334 353 354 0
-334 -353 0
-334 -354 0
-353 -354 0
336 354 355 0
-336 -354 0
-336 -355 0
-354 -355 0
338 355 356 0
-338 -355 0
-338 -356 0
-355 -356 0
340 356 357 0
-340 -356 0
-340 -357 0
-356 -357 0
342 357 358 0
-342 -357 0
-342 -358 0
-357 -358 0
344 358 359 0
-344 -358 0
-344 -359 0
-358 -359 0
346 359 360 0
-346 -359 0
-346 -360 0
-359 -360 0
348 360 0
-348 -360 0
