c F8 mutilated chessboard 12x12, own encoding (one var per domino, exactly-one per cell, pairwise AMO); cnfgen MutilatedChessboard(12,12) has 260 vars 856 clauses
p cnf 260 856
1 2 0
-1 -2 0
1 3 4 0
-1 -3 0
-1 -4 0
-3 -4 0
3 5 6 0
-3 -5 0
-3 -6 0
-5 -6 0
5 7 8 0
-5 -7 0
-5 -8 0
-7 -8 0
7 9 10 0
-7 -9 0
-7 -10 0
-9 -10 0
9 11 12 0
-9 -11 0
-9 -12 0
-11 -12 0
11 13 14 0
-11 -13 0
-11 -14 0
-13 -14 0
13 15 16 0
-13 -15 0
-13 -16 0
-15 -16 0
15 17 18 0
-15 -17 0
-15 -18 0
-17 -18 0
17 19 20 0
-17 -19 0
-17 -20 0
-19 -20 0
19 21 0
-19 -21 0
22 23 0
-22 -23 0
2 22 24 25 0
-2 -22 0
-2 -24 0
-2 -25 0
-22 -24 0
-22 -25 0
-24 -25 0
4 24 26 27 0
-4 -24 0
-4 -26 0
-4 -27 0
-24 -26 0
-24 -27 0
-26 -27 0
6 26 28 29 0
-6 -26 0
-6 -28 0
-6 -29 0
-26 -28 0
-26 -29 0
-28 -29 0
8 28 30 31 0
-8 -28 0
-8 -30 0
-8 -31 0
-28 -30 0
-28 -31 0
-30 -31 0
10 30 32 33 0
-10 -30 0
-10 -32 0
-10 -33 0
-30 -32 0
-30 -33 0
-32 -33 0
12 32 34 35 0
-12 -32 0
-12 -34 0
-12 -35 0
-32 -34 0
-32 -35 0
-34 -35 0
14 34 36 37 0
-14 -34 0
-14 -36 0
-14 -37 0
-34 -36 0
-34 -37 0
-36 -37 0
16 36 38 39 0
-16 -36 0
-16 -38 0
-16 -39 0
-36 -38 0
-36 -39 0
-38 -39 0
18 38 40 41 0
-18 -38 0
-18 -40 0
-18 -41 0
-38 -40 0
-38 -41 0
-40 -41 0
20 40 42 43 0
-20 -40 0
-20 -42 0
-20 -43 0
-40 -42 0
-40 -43 0
-42 -43 0
21 42 44 0
-21 -42 0
-21 -44 0
-42 -44 0
23 45 46 0
-23 -45 0
-23 -46 0
-45 -46 0
25 45 47 48 0
-25 -45 0
-25 -47 0
-25 -48 0
-45 -47 0
-45 -48 0
-47 -48 0
27 47 49 50 0
-27 -47 0
-27 -49 0
-27 -50 0
-47 -49 0
-47 -50 0
-49 -50 0
29 49 51 52 0
-29 -49 0
-29 -51 0
-29 -52 0
-49 -51 0
-49 -52 0
-51 -52 0
31 51 53 54 0
-31 -51 0
-31 -53 0
-31 -54 0
-51 -53 0
-51 -54 0
-53 -54 0
33 53 55 56 0
-33 -53 0
-33 -55 0
-33 -56 0
-53 -55 0
-53 -56 0
-55 -56 0
35 55 57 58 0
-35 -55 0
-35 -57 0
-35 -58 0
-55 -57 0
-55 -58 0
-57 -58 0
37 57 59 60 0
-37 -57 0
-37 -59 0
-37 -60 0
-57 -59 0
-57 -60 0
-59 -60 0
39 59 61 62 0
-39 -59 0
-39 -61 0
-39 -62 0
-59 -61 0
-59 -62 0
-61 -62 0
41 61 63 64 0
-41 -61 0
-41 -63 0
-41 -64 0
-61 -63 0
-61 -64 0
-63 -64 0
43 63 65 66 0
-43 -63 0
-43 -65 0
-43 -66 0
-63 -65 0
-63 -66 0
-65 -66 0
44 65 67 0
-44 -65 0
-44 -67 0
-65 -67 0
46 68 69 0
-46 -68 0
-46 -69 0
-68 -69 0
48 68 70 71 0
-48 -68 0
-48 -70 0
-48 -71 0
-68 -70 0
-68 -71 0
-70 -71 0
50 70 72 73 0
-50 -70 0
-50 -72 0
-50 -73 0
-70 -72 0
-70 -73 0
-72 -73 0
52 72 74 75 0
-52 -72 0
-52 -74 0
-52 -75 0
-72 -74 0
-72 -75 0
-74 -75 0
54 74 76 77 0
-54 -74 0
-54 -76 0
-54 -77 0
-74 -76 0
-74 -77 0
-76 -77 0
56 76 78 79 0
-56 -76 0
-56 -78 0
-56 -79 0
-76 -78 0
-76 -79 0
-78 -79 0
58 78 80 81 0
-58 -78 0
-58 -80 0
-58 -81 0
-78 -80 0
-78 -81 0
-80 -81 0
60 80 82 83 0
-60 -80 0
-60 -82 0
-60 -83 0
-80 -82 0
-80 -83 0
-82 -83 0
62 82 84 85 0
-62 -82 0
-62 -84 0
-62 -85 0
-82 -84 0
-82 -85 0
-84 -85 0
64 84 86 87 0
-64 -84 0
-64 -86 0
-64 -87 0
-84 -86 0
-84 -87 0
-86 -87 0
66 86 88 89 0
-66 -86 0
-66 -88 0
-66 -89 0
-86 -88 0
-86 -89 0
-88 -89 0
67 88 90 0
-67 -88 0
-67 -90 0
-88 -90 0
69 91 92 0
-69 -91 0
-69 -92 0
-91 -92 0
71 91 93 94 0
-71 -91 0
-71 -93 0
-71 -94 0
-91 -93 0
-91 -94 0
-93 -94 0
73 93 95 96 0
-73 -93 0
-73 -95 0
-73 -96 0
-93 -95 0
-93 -96 0
-95 -96 0
75 95 97 98 0
-75 -95 0
-75 -97 0
-75 -98 0
-95 -97 0
-95 -98 0
-97 -98 0
77 97 99 100 0
-77 -97 0
-77 -99 0
-77 -100 0
-97 -99 0
-97 -100 0
-99 -100 0
79 99 101 102 0
-79 -99 0
-79 -101 0
-79 -102 0
-99 -101 0
-99 -102 0
-101 -102 0
81 101 103 104 0
-81 -101 0
-81 -103 0
-81 -104 0
-101 -103 0
-101 -104 0
-103 -104 0
83 103 105 106 0
-83 -103 0
-83 -105 0
-83 -106 0
-103 -105 0
-103 -106 0
-105 -106 0
85 105 107 108 0
-85 -105 0
-85 -107 0
-85 -108 0
-105 -107 0
-105 -108 0
-107 -108 0
87 107 109 110 0
-87 -107 0
-87 -109 0
-87 -110 0
-107 -109 0
-107 -110 0
-109 -110 0
89 109 111 112 0
-89 -109 0
-89 -111 0
-89 -112 0
-109 -111 0
-109 -112 0
-111 -112 0
90 111 113 0
-90 -111 0
-90 -113 0
-111 -113 0
92 114 115 0
-92 -114 0
-92 -115 0
-114 -115 0
94 114 116 117 0
-94 -114 0
-94 -116 0
-94 -117 0
-114 -116 0
-114 -117 0
-116 -117 0
96 116 118 119 0
-96 -116 0
-96 -118 0
-96 -119 0
-116 -118 0
-116 -119 0
-118 -119 0
98 118 120 121 0
-98 -118 0
-98 -120 0
-98 -121 0
-118 -120 0
-118 -121 0
-120 -121 0
100 120 122 123 0
-100 -120 0
-100 -122 0
-100 -123 0
-120 -122 0
-120 -123 0
-122 -123 0
102 122 124 125 0
-102 -122 0
-102 -124 0
-102 -125 0
-122 -124 0
-122 -125 0
-124 -125 0
104 124 126 127 0
-104 -124 0
-104 -126 0
-104 -127 0
-124 -126 0
-124 -127 0
-126 -127 0
106 126 128 129 0
-106 -126 0
-106 -128 0
-106 -129 0
-126 -128 0
-126 -129 0
-128 -129 0
108 128 130 131 0
-108 -128 0
-108 -130 0
-108 -131 0
-128 -130 0
-128 -131 0
-130 -131 0
110 130 132 133 0
-110 -130 0
-110 -132 0
-110 -133 0
-130 -132 0
-130 -133 0
-132 -133 0
112 132 134 135 0
-112 -132 0
-112 -134 0
-112 -135 0
-132 -134 0
-132 -135 0
-134 -135 0
113 134 136 0
-113 -134 0
-113 -136 0
-134 -136 0
115 137 138 0
-115 -137 0
-115 -138 0
-137 -138 0
117 137 139 140 0
-117 -137 0
-117 -139 0
-117 -140 0
-137 -139 0
-137 -140 0
-139 -140 0
119 139 141 142 0
-119 -139 0
-119 -141 0
-119 -142 0
-139 -141 0
-139 -142 0
-141 -142 0
121 141 143 144 0
-121 -141 0
-121 -143 0
-121 -144 0
-141 -143 0
-141 -144 0
-143 -144 0
123 143 145 146 0
-123 -143 0
-123 -145 0
-123 -146 0
-143 -145 0
-143 -146 0
-145 -146 0
125 145 147 148 0
-125 -145 0
-125 -147 0
-125 -148 0
-145 -147 0
-145 -148 0
-147 -148 0
127 147 149 150 0
-127 -147 0
-127 -149 0
-127 -150 0
-147 -149 0
-147 -150 0
-149 -150 0
129 149 151 152 0
-129 -149 0
-129 -151 0
-129 -152 0
-149 -151 0
-149 -152 0
-151 -152 0
131 151 153 154 0
-131 -151 0
-131 -153 0
-131 -154 0
-151 -153 0
-151 -154 0
-153 -154 0
133 153 155 156 0
-133 -153 0
-133 -155 0
-133 -156 0
-153 -155 0
-153 -156 0
-155 -156 0
135 155 157 158 0
-135 -155 0
-135 -157 0
-135 -158 0
-155 -157 0
-155 -158 0
-157 -158 0
136 157 159 0
-136 -157 0
-136 -159 0
-157 -159 0
138 160 161 0
-138 -160 0
-138 -161 0
-160 -161 0
140 160 162 163 0
-140 -160 0
-140 -162 0
-140 -163 0
-160 -162 0
-160 -163 0
-162 -163 0
142 162 164 165 0
-142 -162 0
-142 -164 0
-142 -165 0
-162 -164 0
-162 -165 0
-164 -165 0
144 164 166 167 0
-144 -164 0
-144 -166 0
-144 -167 0
-164 -166 0
-164 -167 0
-166 -167 0
146 166 168 169 0
-146 -166 0
-146 -168 0
-146 -169 0
-166 -168 0
-166 -169 0
-168 -169 0
148 168 170 171 0
-148 -168 0
-148 -170 0
-148 -171 0
-168 -170 0
-168 -171 0
-170 -171 0
150 170 172 173 0
-150 -170 0
-150 -172 0
-150 -173 0
-170 -172 0
-170 -173 0
-172 -173 0
152 172 174 175 0
-152 -172 0
-152 -174 0
-152 -175 0
-172 -174 0
-172 -175 0
-174 -175 0
154 174 176 177 0
-154 -174 0
-154 -176 0
-154 -177 0
-174 -176 0
-174 -177 0
-176 -177 0
156 176 178 179 0
-156 -176 0
-156 -178 0
-156 -179 0
-176 -178 0
-176 -179 0
-178 -179 0
158 178 180 181 0
-158 -178 0
-158 -180 0
-158 -181 0
-178 -180 0
-178 -181 0
-180 -181 0
159 180 182 0
-159 -180 0
-159 -182 0
-180 -182 0
161 183 184 0
-161 -183 0
-161 -184 0
-183 -184 0
163 183 185 186 0
-163 -183 0
-163 -185 0
-163 -186 0
-183 -185 0
-183 -186 0
-185 -186 0
165 185 187 188 0
-165 -185 0
-165 -187 0
-165 -188 0
-185 -187 0
-185 -188 0
-187 -188 0
167 187 189 190 0
-167 -187 0
-167 -189 0
-167 -190 0
-187 -189 0
-187 -190 0
-189 -190 0
169 189 191 192 0
-169 -189 0
-169 -191 0
-169 -192 0
-189 -191 0
-189 -192 0
-191 -192 0
171 191 193 194 0
-171 -191 0
-171 -193 0
-171 -194 0
-191 -193 0
-191 -194 0
-193 -194 0
173 193 195 196 0
-173 -193 0
-173 -195 0
-173 -196 0
-193 -195 0
-193 -196 0
-195 -196 0
175 195 197 198 0
-175 -195 0
-175 -197 0
-175 -198 0
-195 -197 0
-195 -198 0
-197 -198 0
177 197 199 200 0
-177 -197 0
-177 -199 0
-177 -200 0
-197 -199 0
-197 -200 0
-199 -200 0
179 199 201 202 0
-179 -199 0
-179 -201 0
-179 -202 0
-199 -201 0
-199 -202 0
-201 -202 0
181 201 203 204 0
-181 -201 0
-181 -203 0
-181 -204 0
-201 -203 0
-201 -204 0
-203 -204 0
182 203 205 0
-182 -203 0
-182 -205 0
-203 -205 0
184 206 207 0
-184 -206 0
-184 -207 0
-206 -207 0
186 206 208 209 0
-186 -206 0
-186 -208 0
-186 -209 0
-206 -208 0
-206 -209 0
-208 -209 0
188 208 210 211 0
-188 -208 0
-188 -210 0
-188 -211 0
-208 -210 0
-208 -211 0
-210 -211 0
190 210 212 213 0
-190 -210 0
-190 -212 0
-190 -213 0
-210 -212 0
-210 -213 0
-212 -213 0
192 212 214 215 0
-192 -212 0
-192 -214 0
-192 -215 0
-212 -214 0
-212 -215 0
-214 -215 0
194 214 216 217 0
-194 -214 0
-194 -216 0
-194 -217 0
-214 -216 0
-214 -217 0
-216 -217 0
196 216 218 219 0
-196 -216 0
-196 -218 0
-196 -219 0
-216 -218 0
-216 -219 0
-218 -219 0
198 218 220 221 0
-198 -218 0
-198 -220 0
-198 -221 0
-218 -220 0
-218 -221 0
-220 -221 0
200 220 222 223 0
-200 -220 0
-200 -222 0
-200 -223 0
-220 -222 0
-220 -223 0
-222 -223 0
202 222 224 225 0
-202 -222 0
-202 -224 0
-202 -225 0
-222 -224 0
-222 -225 0
-224 -225 0
204 224 226 227 0
-204 -224 0
-204 -226 0
-204 -227 0
-224 -226 0
-224 -227 0
-226 -227 0
205 226 228 0
-205 -226 0
-205 -228 0
-226 -228 0
207 229 230 0
-207 -229 0
-207 -230 0
-229 -230 0
209 229 231 232 0
-209 -229 0
-209 -231 0
-209 -232 0
-229 -231 0
-229 -232 0
-231 -232 0
211 231 233 234 0
-211 -231 0
-211 -233 0
-211 -234 0
-231 -233 0
-231 -234 0
-233 -234 0
213 233 235 236 0
-213 -233 0
-213 -235 0
-213 -236 0
-233 -235 0
-233 -236 0
-235 -236 0
215 235 237 238 0
-215 -235 0
-215 -237 0
-215 -238 0
-235 -237 0
-235 -238 0
-237 -238 0
217 237 239 240 0
-217 -237 0
-217 -239 0
-217 -240 0
-237 -239 0
-237 -240 0
-239 -240 0
219 239 241 242 0
-219 -239 0
-219 -241 0
-219 -242 0
-239 -241 0
-239 -242 0
-241 -242 0
221 241 243 244 0
-221 -241 0
-221 -243 0
-221 -244 0
-241 -243 0
-241 -244 0
-243 -244 0
223 243 245 246 0
-223 -243 0
-223 -245 0
-223 -246 0
-243 -245 0
-243 -246 0
-245 -246 0
225 245 247 248 0
-225 -245 0
-225 -247 0
-225 -248 0
-245 -247 0
-245 -248 0
-247 -248 0
227 247 249 250 0
-227 -247 0
-227 -249 0
-227 -250 0
-247 -249 0
-247 -250 0
-249 -250 0
228 249 0
-228 -249 0
230 251 0
-230 -251 0
232 251 252 0
-232 -251 0
-232 -252 0
-251 -252 0
234 252 253 0
-234 -252 0
-234 -253 0
-252 -253 0
236 253 254 0
-236 -253 0
-236 -254 0
-253 -254 0
238 254 255 0
-238 -254 0
-238 -255 0
-254 -255 0
240 255 256 0
-240 -255 0
-240 -256 0
-255 -256 0
242 256 257 0
-242 -256 0
-242 -257 0
-256 -257 0
244 257 258 0
-244 -257 0
-244 -258 0
-257 -258 0
246 258 259 0
-246 -258 0
-246 -259 0
-258 -259 0
248 259 260 0
-248 -259 0
-248 -260 0
-259 -260 0
250 260 0
-250 -260 0
