c F4 Tseitin on networkx random_regular_graph(3,80,seed=2), connected=True, odd charge on vertex 1
p cnf 120 320
1 2 3 0
1 -2 -3 0
-1 2 -3 0
-1 -2 3 0
4 5 -6 0
4 -5 6 0
-4 5 6 0
-4 -5 -6 0
7 8 -9 0
7 -8 9 0
-7 8 9 0
-7 -8 -9 0
10 11 -12 0
10 -11 12 0
-10 11 12 0
-10 -11 -12 0
13 14 -15 0
13 -14 15 0
-13 14 15 0
-13 -14 -15 0
16 17 -18 0
16 -17 18 0
-16 17 18 0
-16 -17 -18 0
19 20 -21 0
19 -20 21 0
-19 20 21 0
-19 -20 -21 0
22 23 -24 0
22 -23 24 0
-22 23 24 0
-22 -23 -24 0
25 26 -27 0
25 -26 27 0
-25 26 27 0
-25 -26 -27 0
13 28 -29 0
13 -28 29 0
-13 28 29 0
-13 -28 -29 0
30 31 -32 0
30 -31 32 0
-30 31 32 0
-30 -31 -32 0
33 34 -35 0
33 -34 35 0
-33 34 35 0
-33 -34 -35 0
36 37 -38 0
36 -37 38 0
-36 37 38 0
-36 -37 -38 0
39 40 -41 0
39 -40 41 0
-39 40 41 0
-39 -40 -41 0
42 43 -44 0
42 -43 44 0
-42 43 44 0
-42 -43 -44 0
45 46 -47 0
45 -46 47 0
-45 46 47 0
-45 -46 -47 0
45 48 -49 0
45 -48 49 0
-45 48 49 0
-45 -48 -49 0
14 50 -51 0
14 -50 51 0
-14 50 51 0
-14 -50 -51 0
52 53 -54 0
52 -53 54 0
-52 53 54 0
-52 -53 -54 0
52 55 -56 0
52 -55 56 0
-52 55 56 0
-52 -55 -56 0
1 57 -58 0
1 -57 58 0
-1 57 58 0
-1 -57 -58 0
16 59 -60 0
16 -59 60 0
-16 59 60 0
-16 -59 -60 0
42 61 -62 0
42 -61 62 0
-42 61 62 0
-42 -61 -62 0
55 61 -63 0
55 -61 63 0
-55 61 63 0
-55 -61 -63 0
57 64 -65 0
57 -64 65 0
-57 64 65 0
-57 -64 -65 0
19 66 -67 0
19 -66 67 0
-19 66 67 0
-19 -66 -67 0
66 68 -69 0
66 -68 69 0
-66 68 69 0
-66 -68 -69 0
2 7 -39 0
2 -7 39 0
-2 7 39 0
-2 -7 -39 0
53 70 -71 0
53 -70 71 0
-53 70 71 0
-53 -70 -71 0
59 72 -73 0
59 -72 73 0
-59 72 73 0
-59 -72 -73 0
8 74 -75 0
8 -74 75 0
-8 74 75 0
-8 -74 -75 0
60 70 -76 0
60 -70 76 0
-60 70 76 0
-60 -70 -76 0
63 77 -78 0
63 -77 78 0
-63 77 78 0
-63 -77 -78 0
43 56 -79 0
43 -56 79 0
-43 56 79 0
-43 -56 -79 0
25 80 -81 0
25 -80 81 0
-25 80 81 0
-25 -80 -81 0
26 44 -46 0
26 -44 46 0
-26 44 46 0
-26 -44 -46 0
10 27 -82 0
10 -27 82 0
-10 27 82 0
-10 -27 -82 0
33 48 -83 0
33 -48 83 0
-33 48 83 0
-33 -48 -83 0
36 82 -84 0
36 -82 84 0
-36 82 84 0
-36 -82 -84 0
22 80 -85 0
22 -80 85 0
-22 80 85 0
-22 -80 -85 0
34 86 -87 0
34 -86 87 0
-34 86 87 0
-34 -86 -87 0
20 88 -89 0
20 -88 89 0
-20 88 89 0
-20 -88 -89 0
40 72 -90 0
40 -72 90 0
-40 72 90 0
-40 -72 -90 0
84 91 -92 0
84 -91 92 0
-84 91 92 0
-84 -91 -92 0
4 30 -93 0
4 -30 93 0
-4 30 93 0
-4 -30 -93 0
28 94 -95 0
28 -94 95 0
-28 94 95 0
-28 -94 -95 0
41 64 -68 0
41 -64 68 0
-41 64 68 0
-41 -64 -68 0
11 90 -96 0
11 -90 96 0
-11 90 96 0
-11 -90 -96 0
31 97 -98 0
31 -97 98 0
-31 97 98 0
-31 -97 -98 0
73 99 -100 0
73 -99 100 0
-73 99 100 0
-73 -99 -100 0
17 85 -101 0
17 -85 101 0
-17 85 101 0
-17 -85 -101 0
12 101 -102 0
12 -101 102 0
-12 101 102 0
-12 -101 -102 0
15 58 -103 0
15 -58 103 0
-15 58 103 0
-15 -58 -103 0
35 81 -91 0
35 -81 91 0
-35 81 91 0
-35 -81 -91 0
47 104 -105 0
47 -104 105 0
-47 104 105 0
-47 -104 -105 0
21 99 -106 0
21 -99 106 0
-21 99 106 0
-21 -99 -106 0
76 94 -107 0
76 -94 107 0
-76 94 107 0
-76 -94 -107 0
37 71 -108 0
37 -71 108 0
-37 71 108 0
-37 -71 -108 0
109 110 -111 0
109 -110 111 0
-109 110 111 0
-109 -110 -111 0
86 104 -112 0
86 -104 112 0
-86 104 112 0
-86 -104 -112 0
103 109 -113 0
103 -109 113 0
-103 109 113 0
-103 -109 -113 0
18 77 -100 0
18 -77 100 0
-18 77 100 0
-18 -77 -100 0
23 69 -79 0
23 -69 79 0
-23 69 79 0
-23 -69 -79 0
29 83 -113 0
29 -83 113 0
-29 83 113 0
-29 -83 -113 0
65 107 -114 0
65 -107 114 0
-65 107 114 0
-65 -107 -114 0
9 115 -116 0
9 -115 116 0
-9 115 116 0
-9 -115 -116 0
88 110 -117 0
88 -110 117 0
-88 110 117 0
-88 -110 -117 0
50 62 -115 0
50 -62 115 0
-50 62 115 0
-50 -62 -115 0
67 92 -118 0
67 -92 118 0
-67 92 118 0
-67 -92 -118 0
24 97 -105 0
24 -97 105 0
-24 97 105 0
-24 -97 -105 0
3 117 -119 0
3 -117 119 0
-3 117 119 0
-3 -117 -119 0
114 118 -120 0
114 -118 120 0
-114 118 120 0
-114 -118 -120 0
5 51 -112 0
5 -51 112 0
-5 51 112 0
-5 -51 -112 0
95 111 -120 0
95 -111 120 0
-95 111 120 0
-95 -111 -120 0
38 89 -98 0
38 -89 98 0
-38 89 98 0
-38 -89 -98 0
93 116 -119 0
93 -116 119 0
-93 116 119 0
-93 -116 -119 0
32 74 -102 0
32 -74 102 0
-32 74 102 0
-32 -74 -102 0
49 54 -78 0
49 -54 78 0
-49 54 78 0
-49 -54 -78 0
87 96 -106 0
87 -96 106 0
-87 96 106 0
-87 -96 -106 0
6 75 -108 0
6 -75 108 0
-6 75 108 0
-6 -75 -108 0
