c F4 Tseitin on networkx random_regular_graph(3,300,seed=8), connected=True, odd charge on vertex 1
p cnf 450 1200
1 2 3 0
1 -2 -3 0
-1 2 -3 0
-1 -2 3 0
4 5 -6 0
4 -5 6 0
-4 5 6 0
-4 -5 -6 0
7 8 -9 0
7 -8 9 0
-7 8 9 0
-7 -8 -9 0
10 11 -12 0
10 -11 12 0
-10 11 12 0
-10 -11 -12 0
13 14 -15 0
13 -14 15 0
-13 14 15 0
-13 -14 -15 0
16 17 -18 0
16 -17 18 0
-16 17 18 0
-16 -17 -18 0
19 20 -21 0
19 -20 21 0
-19 20 21 0
-19 -20 -21 0
22 23 -24 0
22 -23 24 0
-22 23 24 0
-22 -23 -24 0
25 26 -27 0
25 -26 27 0
-25 26 27 0
-25 -26 -27 0
28 29 -30 0
28 -29 30 0
-28 29 30 0
-28 -29 -30 0
10 19 -31 0
10 -19 31 0
-10 19 31 0
-10 -19 -31 0
32 33 -34 0
32 -33 34 0
-32 33 34 0
-32 -33 -34 0
35 36 -37 0
35 -36 37 0
-35 36 37 0
-35 -36 -37 0
38 39 -40 0
38 -39 40 0
-38 39 40 0
-38 -39 -40 0
41 42 -43 0
41 -42 43 0
-41 42 43 0
-41 -42 -43 0
44 45 -46 0
44 -45 46 0
-44 45 46 0
-44 -45 -46 0
47 48 -49 0
47 -48 49 0
-47 48 49 0
-47 -48 -49 0
50 51 -52 0
50 -51 52 0
-50 51 52 0
-50 -51 -52 0
53 54 -55 0
53 -54 55 0
-53 54 55 0
-53 -54 -55 0
56 57 -58 0
56 -57 58 0
-56 57 58 0
-56 -57 -58 0
59 60 -61 0
59 -60 61 0
-59 60 61 0
-59 -60 -61 0
62 63 -64 0
62 -63 64 0
-62 63 64 0
-62 -63 -64 0
65 66 -67 0
65 -66 67 0
-65 66 67 0
-65 -66 -67 0
68 69 -70 0
68 -69 70 0
-68 69 70 0
-68 -69 -70 0
28 71 -72 0
28 -71 72 0
-28 71 72 0
-28 -71 -72 0
73 74 -75 0
73 -74 75 0
-73 74 75 0
-73 -74 -75 0
76 77 -78 0
76 -77 78 0
-76 77 78 0
-76 -77 -78 0
79 80 -81 0
79 -80 81 0
-79 80 81 0
-79 -80 -81 0
82 83 -84 0
82 -83 84 0
-82 83 84 0
-82 -83 -84 0
13 85 -86 0
13 -85 86 0
-13 85 86 0
-13 -85 -86 0
87 88 -89 0
87 -88 89 0
-87 88 89 0
-87 -88 -89 0
90 91 -92 0
90 -91 92 0
-90 91 92 0
-90 -91 -92 0
93 94 -95 0
93 -94 95 0
-93 94 95 0
-93 -94 -95 0
96 97 -98 0
96 -97 98 0
-96 97 98 0
-96 -97 -98 0
99 100 -101 0
99 -100 101 0
-99 100 101 0
-99 -100 -101 0
4 82 -102 0
4 -82 102 0
-4 82 102 0
-4 -82 -102 0
103 104 -105 0
103 -104 105 0
-103 104 105 0
-103 -104 -105 0
106 107 -108 0
106 -107 108 0
-106 107 108 0
-106 -107 -108 0
73 109 -110 0
73 -109 110 0
-73 109 110 0
-73 -109 -110 0
111 112 -113 0
111 -112 113 0
-111 112 113 0
-111 -112 -113 0
114 115 -116 0
114 -115 116 0
-114 115 116 0
-114 -115 -116 0
117 118 -119 0
117 -118 119 0
-117 118 119 0
-117 -118 -119 0
120 121 -122 0
120 -121 122 0
-120 121 122 0
-120 -121 -122 0
123 124 -125 0
123 -124 125 0
-123 124 125 0
-123 -124 -125 0
126 127 -128 0
126 -127 128 0
-126 127 128 0
-126 -127 -128 0
129 130 -131 0
129 -130 131 0
-129 130 131 0
-129 -130 -131 0
132 133 -134 0
132 -133 134 0
-132 133 134 0
-132 -133 -134 0
135 136 -137 0
135 -136 137 0
-135 136 137 0
-135 -136 -137 0
138 139 -140 0
138 -139 140 0
-138 139 140 0
-138 -139 -140 0
5 50 -141 0
5 -50 141 0
-5 50 141 0
-5 -50 -141 0
142 143 -144 0
142 -143 144 0
-142 143 144 0
-142 -143 -144 0
74 123 -145 0
74 -123 145 0
-74 123 145 0
-74 -123 -145 0
146 147 -148 0
146 -147 148 0
-146 147 148 0
-146 -147 -148 0
149 150 -151 0
149 -150 151 0
-149 150 151 0
-149 -150 -151 0
135 152 -153 0
135 -152 153 0
-135 152 153 0
-135 -152 -153 0
154 155 -156 0
154 -155 156 0
-154 155 156 0
-154 -155 -156 0
157 158 -159 0
157 -158 159 0
-157 158 159 0
-157 -158 -159 0
142 160 -161 0
142 -160 161 0
-142 160 161 0
-142 -160 -161 0
87 162 -163 0
87 -162 163 0
-87 162 163 0
-87 -162 -163 0
102 164 -165 0
102 -164 165 0
-102 164 165 0
-102 -164 -165 0
166 167 -168 0
166 -167 168 0
-166 167 168 0
-166 -167 -168 0
169 170 -171 0
169 -170 171 0
-169 170 171 0
-169 -170 -171 0
172 173 -174 0
172 -173 174 0
-172 173 174 0
-172 -173 -174 0
175 176 -177 0
175 -176 177 0
-175 176 177 0
-175 -176 -177 0
178 179 -180 0
178 -179 180 0
-178 179 180 0
-178 -179 -180 0
181 182 -183 0
181 -182 183 0
-181 182 183 0
-181 -182 -183 0
184 185 -186 0
184 -185 186 0
-184 185 186 0
-184 -185 -186 0
187 188 -189 0
187 -188 189 0
-187 188 189 0
-187 -188 -189 0
14 190 -191 0
14 -190 191 0
-14 190 191 0
-14 -190 -191 0
53 76 -192 0
53 -76 192 0
-53 76 192 0
-53 -76 -192 0
193 194 -195 0
193 -194 195 0
-193 194 195 0
-193 -194 -195 0
196 197 -198 0
196 -197 198 0
-196 197 198 0
-196 -197 -198 0
199 200 -201 0
199 -200 201 0
-199 200 201 0
-199 -200 -201 0
202 203 -204 0
202 -203 204 0
-202 203 204 0
-202 -203 -204 0
109 205 -206 0
109 -205 206 0
-109 205 206 0
-109 -205 -206 0
207 208 -209 0
207 -208 209 0
-207 208 209 0
-207 -208 -209 0
178 196 -210 0
178 -196 210 0
-178 196 210 0
-178 -196 -210 0
149 211 -212 0
149 -211 212 0
-149 211 212 0
-149 -211 -212 0
213 214 -215 0
213 -214 215 0
-213 214 215 0
-213 -214 -215 0
197 216 -217 0
197 -216 217 0
-197 216 217 0
-197 -216 -217 0
193 202 -218 0
193 -202 218 0
-193 202 218 0
-193 -202 -218 0
219 220 -221 0
219 -220 221 0
-219 220 221 0
-219 -220 -221 0
175 199 -222 0
175 -199 222 0
-175 199 222 0
-175 -199 -222 0
223 224 -225 0
223 -224 225 0
-223 224 225 0
-223 -224 -225 0
16 226 -227 0
16 -226 227 0
-16 226 227 0
-16 -226 -227 0
228 229 -230 0
228 -229 230 0
-228 229 230 0
-228 -229 -230 0
35 231 -232 0
35 -231 232 0
-35 231 232 0
-35 -231 -232 0
79 233 -234 0
79 -233 234 0
-79 233 234 0
-79 -233 -234 0
184 235 -236 0
184 -235 236 0
-184 235 236 0
-184 -235 -236 0
237 238 -239 0
237 -238 239 0
-237 238 239 0
-237 -238 -239 0
38 240 -241 0
38 -240 241 0
-38 240 241 0
-38 -240 -241 0
233 242 -243 0
233 -242 243 0
-233 242 243 0
-233 -242 -243 0
194 244 -245 0
194 -244 245 0
-194 244 245 0
-194 -244 -245 0
36 246 -247 0
36 -246 247 0
-36 246 247 0
-36 -246 -247 0
248 249 -250 0
248 -249 250 0
-248 249 250 0
-248 -249 -250 0
242 248 -251 0
242 -248 251 0
-242 248 251 0
-242 -248 -251 0
252 253 -254 0
252 -253 254 0
-252 253 254 0
-252 -253 -254 0
255 256 -257 0
255 -256 257 0
-255 256 257 0
-255 -256 -257 0
7 258 -259 0
7 -258 259 0
-7 258 259 0
-7 -258 -259 0
260 261 -262 0
260 -261 262 0
-260 261 262 0
-260 -261 -262 0
120 138 -263 0
120 -138 263 0
-120 138 263 0
-120 -138 -263 0
71 141 -264 0
71 -141 264 0
-71 141 264 0
-71 -141 -264 0
111 265 -266 0
111 -265 266 0
-111 265 266 0
-111 -265 -266 0
20 267 -268 0
20 -267 268 0
-20 267 268 0
-20 -267 -268 0
103 235 -269 0
103 -235 269 0
-103 235 269 0
-103 -235 -269 0
39 270 -271 0
39 -270 271 0
-39 270 271 0
-39 -270 -271 0
126 272 -273 0
126 -272 273 0
-126 272 273 0
-126 -272 -273 0
146 274 -275 0
146 -274 275 0
-146 274 275 0
-146 -274 -275 0
41 276 -277 0
41 -276 277 0
-41 276 277 0
-41 -276 -277 0
59 190 -278 0
59 -190 278 0
-59 190 278 0
-59 -190 -278 0
83 279 -280 0
83 -279 280 0
-83 279 280 0
-83 -279 -280 0
117 176 -281 0
117 -176 281 0
-117 176 281 0
-117 -176 -281 0
51 282 -283 0
51 -282 283 0
-51 282 283 0
-51 -282 -283 0
121 124 -210 0
121 -124 210 0
-121 124 210 0
-121 -124 -210 0
154 284 -285 0
154 -284 285 0
-154 284 285 0
-154 -284 -285 0
11 32 -286 0
11 -32 286 0
-11 32 286 0
-11 -32 -286 0
37 185 -287 0
37 -185 287 0
-37 185 287 0
-37 -185 -287 0
68 288 -289 0
68 -288 289 0
-68 288 289 0
-68 -288 -289 0
166 290 -291 0
166 -290 291 0
-166 290 291 0
-166 -290 -291 0
278 292 -293 0
278 -292 293 0
-278 292 293 0
-278 -292 -293 0
29 294 -295 0
29 -294 295 0
-29 294 295 0
-29 -294 -295 0
65 296 -297 0
65 -296 297 0
-65 296 297 0
-65 -296 -297 0
160 181 -255 0
160 -181 255 0
-160 181 255 0
-160 -181 -255 0
54 267 -298 0
54 -267 298 0
-54 267 298 0
-54 -267 -298 0
17 161 -167 0
17 -161 167 0
-17 161 167 0
-17 -161 -167 0
256 299 -300 0
256 -299 300 0
-256 299 300 0
-256 -299 -300 0
290 301 -302 0
290 -301 302 0
-290 301 302 0
-290 -301 -302 0
18 203 -303 0
18 -203 303 0
-18 203 303 0
-18 -203 -303 0
265 296 -304 0
265 -296 304 0
-265 296 304 0
-265 -296 -304 0
88 260 -305 0
88 -260 305 0
-88 260 305 0
-88 -260 -305 0
155 306 -307 0
155 -306 307 0
-155 306 307 0
-155 -306 -307 0
308 309 -310 0
308 -309 310 0
-308 309 310 0
-308 -309 -310 0
22 129 -258 0
22 -129 258 0
-22 129 258 0
-22 -129 -258 0
204 249 -305 0
204 -249 305 0
-204 249 305 0
-204 -249 -305 0
169 284 -311 0
169 -284 311 0
-169 284 311 0
-169 -284 -311 0
303 312 -313 0
303 -312 313 0
-303 312 313 0
-303 -312 -313 0
294 314 -315 0
294 -314 315 0
-294 314 315 0
-294 -314 -315 0
30 96 -316 0
30 -96 316 0
-30 96 316 0
-30 -96 -316 0
200 317 -318 0
200 -317 318 0
-200 317 318 0
-200 -317 -318 0
132 279 -319 0
132 -279 319 0
-132 279 319 0
-132 -279 -319 0
77 228 -282 0
77 -228 282 0
-77 228 282 0
-77 -228 -282 0
60 320 -321 0
60 -320 321 0
-60 320 321 0
-60 -320 -321 0
130 234 -322 0
130 -234 322 0
-130 234 322 0
-130 -234 -322 0
80 150 -323 0
80 -150 323 0
-80 150 323 0
-80 -150 -323 0
219 274 -324 0
219 -274 324 0
-219 274 324 0
-219 -274 -324 0
104 325 -326 0
104 -325 326 0
-104 325 326 0
-104 -325 -326 0
152 327 -328 0
152 -327 328 0
-152 327 328 0
-152 -327 -328 0
118 211 -329 0
118 -211 329 0
-118 211 329 0
-118 -211 -329 0
47 330 -331 0
47 -330 331 0
-47 330 331 0
-47 -330 -331 0
332 333 -334 0
332 -333 334 0
-332 333 334 0
-332 -333 -334 0
187 329 -335 0
187 -329 335 0
-187 329 335 0
-187 -329 -335 0
192 336 -337 0
192 -336 337 0
-192 336 337 0
-192 -336 -337 0
89 338 -339 0
89 -338 339 0
-89 338 339 0
-89 -338 -339 0
299 340 -341 0
299 -340 341 0
-299 340 341 0
-299 -340 -341 0
69 342 -343 0
69 -342 343 0
-69 342 343 0
-69 -342 -343 0
340 344 -345 0
340 -344 345 0
-340 344 345 0
-340 -344 -345 0
306 346 -347 0
306 -346 347 0
-306 346 347 0
-306 -346 -347 0
1 62 -348 0
1 -62 348 0
-1 62 348 0
-1 -62 -348 0
93 349 -350 0
93 -349 350 0
-93 349 350 0
-93 -349 -350 0
351 352 -353 0
351 -352 353 0
-351 352 353 0
-351 -352 -353 0
23 81 -246 0
23 -81 246 0
-23 81 246 0
-23 -81 -246 0
244 354 -355 0
244 -354 355 0
-244 354 355 0
-244 -354 -355 0
223 356 -357 0
223 -356 357 0
-223 356 357 0
-223 -356 -357 0
48 63 -358 0
48 -63 358 0
-48 63 358 0
-48 -63 -358 0
191 359 -360 0
191 -359 360 0
-191 359 360 0
-191 -359 -360 0
61 85 -218 0
61 -85 218 0
-61 85 218 0
-61 -85 -218 0
40 361 -362 0
40 -361 362 0
-40 361 362 0
-40 -361 -362 0
172 363 -364 0
172 -363 364 0
-172 363 364 0
-172 -363 -364 0
168 226 -344 0
168 -226 344 0
-168 226 344 0
-168 -226 -344 0
33 365 -366 0
33 -365 366 0
-33 365 366 0
-33 -365 -366 0
114 119 -367 0
114 -119 367 0
-114 119 367 0
-114 -119 -367 0
97 368 -369 0
97 -368 369 0
-97 368 369 0
-97 -368 -369 0
99 325 -370 0
99 -325 370 0
-99 325 370 0
-99 -325 -370 0
351 359 -371 0
351 -359 371 0
-351 359 371 0
-351 -359 -371 0
292 314 -372 0
292 -314 372 0
-292 314 372 0
-292 -314 -372 0
373 374 -375 0
373 -374 375 0
-373 374 375 0
-373 -374 -375 0
376 377 -378 0
376 -377 378 0
-376 377 378 0
-376 -377 -378 0
151 379 -380 0
151 -379 380 0
-151 379 380 0
-151 -379 -380 0
2 156 -381 0
2 -156 381 0
-2 156 381 0
-2 -156 -381 0
55 272 -330 0
55 -272 330 0
-55 272 330 0
-55 -272 -330 0
125 382 -383 0
125 -382 383 0
-125 382 383 0
-125 -382 -383 0
286 327 -384 0
286 -327 384 0
-286 327 384 0
-286 -327 -384 0
385 386 -387 0
385 -386 387 0
-385 386 387 0
-385 -386 -387 0
133 298 -388 0
133 -298 388 0
-133 298 388 0
-133 -298 -388 0
136 287 -345 0
136 -287 345 0
-136 287 345 0
-136 -287 -345 0
308 389 -390 0
308 -389 390 0
-308 389 390 0
-308 -389 -390 0
220 332 -338 0
220 -332 338 0
-220 332 338 0
-220 -332 -338 0
137 188 -391 0
137 -188 391 0
-137 188 391 0
-137 -188 -391 0
247 295 -392 0
247 -295 392 0
-247 295 392 0
-247 -295 -392 0
339 393 -394 0
339 -393 394 0
-339 393 394 0
-339 -393 -394 0
229 395 -396 0
229 -395 396 0
-229 395 396 0
-229 -395 -396 0
216 250 -316 0
216 -250 316 0
-216 250 316 0
-216 -250 -316 0
25 222 -266 0
25 -222 266 0
-25 222 266 0
-25 -222 -266 0
309 397 -398 0
309 -397 398 0
-309 397 398 0
-309 -397 -398 0
12 231 -399 0
12 -231 399 0
-12 231 399 0
-12 -231 -399 0
320 342 -400 0
320 -342 400 0
-320 342 400 0
-320 -342 -400 0
70 106 -382 0
70 -106 382 0
-70 106 382 0
-70 -106 -382 0
173 321 -401 0
173 -321 401 0
-173 321 401 0
-173 -321 -401 0
352 365 -402 0
352 -365 402 0
-352 365 402 0
-352 -365 -402 0
94 236 -403 0
94 -236 403 0
-94 236 403 0
-94 -236 -403 0
224 323 -404 0
224 -323 404 0
-224 323 404 0
-224 -323 -404 0
52 115 -360 0
52 -115 360 0
-52 115 360 0
-52 -115 -360 0
252 371 -405 0
252 -371 405 0
-252 371 405 0
-252 -371 -405 0
400 406 -407 0
400 -406 407 0
-400 406 407 0
-400 -406 -407 0
276 363 -408 0
276 -363 408 0
-276 363 408 0
-276 -363 -408 0
127 409 -410 0
127 -409 410 0
-127 409 410 0
-127 -409 -410 0
381 385 -411 0
381 -385 411 0
-381 385 411 0
-381 -385 -411 0
31 182 -373 0
31 -182 373 0
-31 182 373 0
-31 -182 -373 0
341 412 -413 0
341 -412 413 0
-341 412 413 0
-341 -412 -413 0
356 370 -376 0
356 -370 376 0
-356 370 376 0
-356 -370 -376 0
277 404 -414 0
277 -404 414 0
-277 404 414 0
-277 -404 -414 0
245 312 -358 0
245 -312 358 0
-245 312 358 0
-245 -312 -358 0
44 336 -395 0
44 -336 395 0
-44 336 395 0
-44 -336 -395 0
26 297 -415 0
26 -297 415 0
-26 297 415 0
-26 -297 -415 0
78 205 -368 0
78 -205 368 0
-78 205 368 0
-78 -205 -368 0
213 374 -416 0
213 -374 416 0
-213 374 416 0
-213 -374 -416 0
15 42 -417 0
15 -42 417 0
-15 42 417 0
-15 -42 -417 0
270 293 -389 0
270 -293 389 0
-270 293 389 0
-270 -293 -389 0
6 162 -418 0
6 -162 418 0
-6 162 418 0
-6 -162 -418 0
43 201 -300 0
43 -201 300 0
-43 201 300 0
-43 -201 -300 0
177 273 -419 0
177 -273 419 0
-177 273 419 0
-177 -273 -419 0
8 331 -397 0
8 -331 397 0
-8 331 397 0
-8 -331 -397 0
170 207 -408 0
170 -207 408 0
-170 207 408 0
-170 -207 -408 0
208 420 -421 0
208 -420 421 0
-208 420 421 0
-208 -420 -421 0
90 179 -357 0
90 -179 357 0
-90 179 357 0
-90 -179 -357 0
134 361 -422 0
134 -361 422 0
-134 361 422 0
-134 -361 -422 0
9 326 -423 0
9 -326 423 0
-9 326 423 0
-9 -326 -423 0
49 139 -423 0
49 -139 423 0
-49 139 423 0
-49 -139 -423 0
186 384 -406 0
186 -384 406 0
-186 384 406 0
-186 -384 -406 0
107 354 -393 0
107 -354 393 0
-107 354 393 0
-107 -354 -393 0
108 198 -424 0
108 -198 424 0
-108 198 424 0
-108 -198 -424 0
214 317 -425 0
214 -317 425 0
-214 317 425 0
-214 -317 -425 0
157 301 -426 0
157 -301 426 0
-157 301 426 0
-157 -301 -426 0
264 285 -401 0
264 -285 401 0
-264 285 401 0
-264 -285 -401 0
240 367 -375 0
240 -367 375 0
-240 367 375 0
-240 -367 -375 0
307 386 -418 0
307 -386 418 0
-307 386 418 0
-307 -386 -418 0
355 399 -427 0
355 -399 427 0
-355 399 427 0
-355 -399 -427 0
91 333 -419 0
91 -333 419 0
-91 333 419 0
-91 -333 -419 0
116 428 -429 0
116 -428 429 0
-116 428 429 0
-116 -428 -429 0
45 280 -407 0
45 -280 407 0
-45 280 407 0
-45 -280 -407 0
46 158 -364 0
46 -158 364 0
-46 158 364 0
-46 -158 -364 0
304 328 -430 0
304 -328 430 0
-304 328 430 0
-304 -328 -430 0
75 253 -392 0
75 -253 392 0
-75 253 392 0
-75 -253 -392 0
269 409 -431 0
269 -409 431 0
-269 409 431 0
-269 -409 -431 0
394 432 -433 0
394 -432 433 0
-394 432 433 0
-394 -432 -433 0
174 337 -434 0
174 -337 434 0
-174 337 434 0
-174 -337 -434 0
95 164 -315 0
95 -164 315 0
-95 164 315 0
-95 -164 -315 0
56 159 -435 0
56 -159 435 0
-56 159 435 0
-56 -159 -435 0
72 436 -437 0
72 -436 437 0
-72 436 437 0
-72 -436 -437 0
263 349 -438 0
263 -349 438 0
-263 349 438 0
-263 -349 -438 0
66 215 -439 0
66 -215 439 0
-66 215 439 0
-66 -215 -439 0
189 403 -440 0
189 -403 440 0
-189 403 440 0
-189 -403 -440 0
209 412 -441 0
209 -412 441 0
-209 412 441 0
-209 -412 -441 0
180 291 -442 0
180 -291 442 0
-180 291 442 0
-180 -291 -442 0
112 431 -443 0
112 -431 443 0
-112 431 443 0
-112 -431 -443 0
57 346 -427 0
57 -346 427 0
-57 346 427 0
-57 -346 -427 0
27 302 -436 0
27 -302 436 0
-27 302 436 0
-27 -302 -436 0
122 420 -428 0
122 -420 428 0
-122 420 428 0
-122 -420 -428 0
227 261 -444 0
227 -261 444 0
-227 261 444 0
-227 -261 -444 0
128 335 -441 0
128 -335 441 0
-128 335 441 0
-128 -335 -441 0
206 350 -443 0
206 -350 443 0
-206 350 443 0
-206 -350 -443 0
24 98 -275 0
24 -98 275 0
-24 98 275 0
-24 -98 -275 0
67 416 -434 0
67 -416 434 0
-67 416 434 0
-67 -416 -434 0
257 445 -446 0
257 -445 446 0
-257 445 446 0
-257 -445 -446 0
195 390 -432 0
195 -390 432 0
-195 390 432 0
-195 -390 -432 0
21 217 -366 0
21 -217 366 0
-21 217 366 0
-21 -217 -366 0
153 171 -324 0
153 -171 324 0
-153 171 324 0
-153 -171 -324 0
369 398 -405 0
369 -398 405 0
-369 398 405 0
-369 -398 -405 0
131 230 -447 0
131 -230 447 0
-131 230 447 0
-131 -230 -447 0
310 413 -445 0
310 -413 445 0
-310 413 445 0
-310 -413 -445 0
212 437 -448 0
212 -437 448 0
-212 437 448 0
-212 -437 -448 0
147 259 -449 0
147 -259 449 0
-147 259 449 0
-147 -259 -449 0
237 377 -383 0
237 -377 383 0
-237 377 383 0
-237 -377 -383 0
238 262 -268 0
238 -262 268 0
-238 262 268 0
-238 -262 -268 0
232 241 -425 0
232 -241 425 0
-232 241 425 0
-232 -241 -425 0
319 430 -438 0
319 -430 438 0
-319 430 438 0
-319 -430 -438 0
113 402 -442 0
113 -402 442 0
-113 402 442 0
-113 -402 -442 0
100 148 -281 0
100 -148 281 0
-100 148 281 0
-100 -148 -281 0
58 140 -414 0
58 -140 414 0
-58 140 414 0
-58 -140 -414 0
343 415 -448 0
343 -415 448 0
-343 415 448 0
-343 -415 -448 0
243 318 -450 0
243 -318 450 0
-243 318 450 0
-243 -318 -450 0
84 362 -421 0
84 -362 421 0
-84 362 421 0
-84 -362 -421 0
92 347 -391 0
92 -347 391 0
-92 347 391 0
-92 -347 -391 0
34 163 -379 0
34 -163 379 0
-34 163 379 0
-34 -163 -379 0
143 288 -422 0
143 -288 422 0
-143 288 422 0
-143 -288 -422 0
183 271 -440 0
183 -271 440 0
-183 271 440 0
-183 -271 -440 0
334 372 -446 0
334 -372 446 0
-334 372 446 0
-334 -372 -446 0
322 410 -433 0
322 -410 433 0
-322 410 433 0
-322 -410 -433 0
105 348 -380 0
105 -348 380 0
-105 348 380 0
-105 -348 -380 0
86 388 -417 0
86 -388 417 0
-86 388 417 0
-86 -388 -417 0
396 439 -444 0
396 -439 444 0
-396 439 444 0
-396 -439 -444 0
353 378 -449 0
353 -378 449 0
-353 378 449 0
-353 -378 -449 0
165 283 -426 0
165 -283 426 0
-165 283 426 0
-165 -283 -426 0
225 311 -387 0
225 -311 387 0
-225 311 387 0
-225 -311 -387 0
144 289 -411 0
144 -289 411 0
-144 289 411 0
-144 -289 -411 0
3 64 -239 0
3 -64 239 0
-3 64 239 0
-3 -64 -239 0
254 313 -424 0
254 -313 424 0
-254 313 424 0
-254 -313 -424 0
101 145 -221 0
101 -145 221 0
-101 145 221 0
-101 -145 -221 0
251 435 -450 0
251 -435 450 0
-251 435 450 0
-251 -435 -450 0
110 429 -447 0
110 -429 447 0
-110 429 447 0
-110 -429 -447 0
