c F4 Tseitin on networkx random_regular_graph(3,100,seed=8), connected=True, odd charge on vertex 1
p cnf 150 400
1 2 3 0
1 -2 -3 0
-1 2 -3 0
-1 -2 3 0
4 5 -6 0
4 -5 6 0
-4 5 6 0
-4 -5 -6 0
7 8 -9 0
7 -8 9 0
-7 8 9 0
-7 -8 -9 0
10 11 -12 0
10 -11 12 0
-10 11 12 0
-10 -11 -12 0
13 14 -15 0
13 -14 15 0
-13 14 15 0
-13 -14 -15 0
16 17 -18 0
16 -17 18 0
-16 17 18 0
-16 -17 -18 0
19 20 -21 0
19 -20 21 0
-19 20 21 0
-19 -20 -21 0
16 22 -23 0
16 -22 23 0
-16 22 23 0
-16 -22 -23 0
24 25 -26 0
24 -25 26 0
-24 25 26 0
-24 -25 -26 0
27 28 -29 0
27 -28 29 0
-27 28 29 0
-27 -28 -29 0
30 31 -32 0
30 -31 32 0
-30 31 32 0
-30 -31 -32 0
33 34 -35 0
33 -34 35 0
-33 34 35 0
-33 -34 -35 0
27 36 -37 0
27 -36 37 0
-27 36 37 0
-27 -36 -37 0
38 39 -40 0
38 -39 40 0
-38 39 40 0
-38 -39 -40 0
41 42 -43 0
41 -42 43 0
-41 42 43 0
-41 -42 -43 0
44 45 -46 0
44 -45 46 0
-44 45 46 0
-44 -45 -46 0
47 48 -49 0
47 -48 49 0
-47 48 49 0
-47 -48 -49 0
50 51 -52 0
50 -51 52 0
-50 51 52 0
-50 -51 -52 0
53 54 -55 0
53 -54 55 0
-53 54 55 0
-53 -54 -55 0
30 56 -57 0
30 -56 57 0
-30 56 57 0
-30 -56 -57 0
58 59 -60 0
58 -59 60 0
-58 59 60 0
-58 -59 -60 0
47 61 -62 0
47 -61 62 0
-47 61 62 0
-47 -61 -62 0
63 64 -65 0
63 -64 65 0
-63 64 65 0
-63 -64 -65 0
66 67 -68 0
66 -67 68 0
-66 67 68 0
-66 -67 -68 0
33 53 -69 0
33 -53 69 0
-33 53 69 0
-33 -53 -69 0
56 70 -71 0
56 -70 71 0
-56 70 71 0
-56 -70 -71 0
72 73 -74 0
72 -73 74 0
-72 73 74 0
-72 -73 -74 0
1 61 -75 0
1 -61 75 0
-1 61 75 0
-1 -61 -75 0
76 77 -78 0
76 -77 78 0
-76 77 78 0
-76 -77 -78 0
76 79 -80 0
76 -79 80 0
-76 79 80 0
-76 -79 -80 0
81 82 -83 0
81 -82 83 0
-81 82 83 0
-81 -82 -83 0
13 36 -84 0
13 -36 84 0
-13 36 84 0
-13 -36 -84 0
85 86 -87 0
85 -86 87 0
-85 86 87 0
-85 -86 -87 0
54 66 -88 0
54 -66 88 0
-54 66 88 0
-54 -66 -88 0
28 88 -89 0
28 -88 89 0
-28 88 89 0
-28 -88 -89 0
14 44 -90 0
14 -44 90 0
-14 44 90 0
-14 -44 -90 0
91 92 -93 0
91 -92 93 0
-91 92 93 0
-91 -92 -93 0
17 94 -95 0
17 -94 95 0
-17 94 95 0
-17 -94 -95 0
38 75 -96 0
38 -75 96 0
-38 75 96 0
-38 -75 -96 0
97 98 -99 0
97 -98 99 0
-97 98 99 0
-97 -98 -99 0
10 100 -101 0
10 -100 101 0
-10 100 101 0
-10 -100 -101 0
79 102 -103 0
79 -102 103 0
-79 102 103 0
-79 -102 -103 0
24 104 -105 0
24 -104 105 0
-24 104 105 0
-24 -104 -105 0
7 31 -106 0
7 -31 106 0
-7 31 106 0
-7 -31 -106 0
41 45 -58 0
41 -45 58 0
-41 45 58 0
-41 -45 -58 0
96 107 -108 0
96 -107 108 0
-96 107 108 0
-96 -107 -108 0
81 109 -110 0
81 -109 110 0
-81 109 110 0
-81 -109 -110 0
67 111 -112 0
67 -111 112 0
-67 111 112 0
-67 -111 -112 0
48 59 -107 0
48 -59 107 0
-48 59 107 0
-48 -59 -107 0
70 85 -113 0
70 -85 113 0
-70 85 113 0
-70 -85 -113 0
50 60 -114 0
50 -60 114 0
-50 60 114 0
-50 -60 -114 0
19 91 -115 0
19 -91 115 0
-19 91 115 0
-19 -91 -115 0
116 117 -118 0
116 -117 118 0
-116 117 118 0
-116 -117 -118 0
69 119 -120 0
69 -119 120 0
-69 119 120 0
-69 -119 -120 0
20 57 -121 0
20 -57 121 0
-20 57 121 0
-20 -57 -121 0
72 116 -122 0
72 -116 122 0
-72 116 122 0
-72 -116 -122 0
51 97 -123 0
51 -97 123 0
-51 97 123 0
-51 -97 -123 0
8 90 -109 0
8 -90 109 0
-8 90 109 0
-8 -90 -109 0
29 124 -125 0
29 -124 125 0
-29 124 125 0
-29 -124 -125 0
34 73 -77 0
34 -73 77 0
-34 73 77 0
-34 -73 -77 0
42 117 -126 0
42 -117 126 0
-42 117 126 0
-42 -117 -126 0
22 43 -127 0
22 -43 127 0
-22 43 127 0
-22 -43 -127 0
123 128 -129 0
123 -128 129 0
-123 128 129 0
-123 -128 -129 0
4 32 -111 0
4 -32 111 0
-4 32 111 0
-4 -32 -111 0
18 100 -130 0
18 -100 130 0
-18 100 130 0
-18 -100 -130 0
25 74 -131 0
25 -74 131 0
-25 74 131 0
-25 -74 -131 0
84 92 -118 0
84 -92 118 0
-84 92 118 0
-84 -92 -118 0
93 127 -132 0
93 -127 132 0
-93 127 132 0
-93 -127 -132 0
26 82 -133 0
26 -82 133 0
-26 82 133 0
-26 -82 -133 0
5 104 -134 0
5 -104 134 0
-5 104 134 0
-5 -104 -134 0
39 78 -106 0
39 -78 106 0
-39 78 106 0
-39 -78 -106 0
110 115 -135 0
110 -115 135 0
-110 115 135 0
-110 -115 -135 0
35 94 -132 0
35 -94 132 0
-35 94 132 0
-35 -94 -132 0
40 80 -136 0
40 -80 136 0
-40 80 136 0
-40 -80 -136 0
63 83 -135 0
63 -83 135 0
-63 83 135 0
-63 -83 -135 0
11 15 -137 0
11 -15 137 0
-11 15 137 0
-11 -15 -137 0
137 138 -139 0
137 -138 139 0
-137 138 139 0
-137 -138 -139 0
128 138 -140 0
128 -138 140 0
-128 138 140 0
-128 -138 -140 0
37 86 -141 0
37 -86 141 0
-37 86 141 0
-37 -86 -141 0
114 133 -142 0
114 -133 142 0
-114 133 142 0
-114 -133 -142 0
55 124 -143 0
55 -124 143 0
-55 124 143 0
-55 -124 -143 0
89 140 -144 0
89 -140 144 0
-89 140 144 0
-89 -140 -144 0
68 143 -145 0
68 -143 145 0
-68 143 145 0
-68 -143 -145 0
112 131 -146 0
112 -131 146 0
-112 131 146 0
-112 -131 -146 0
2 23 -147 0
2 -23 147 0
-2 23 147 0
-2 -23 -147 0
64 113 -141 0
64 -113 141 0
-64 113 141 0
-64 -113 -141 0
142 148 -149 0
142 -148 149 0
-142 148 149 0
-142 -148 -149 0
71 119 -136 0
71 -119 136 0
-71 119 136 0
-71 -119 -136 0
121 129 -150 0
121 -129 150 0
-121 129 150 0
-121 -129 -150 0
3 49 -147 0
3 -49 147 0
-3 49 147 0
-3 -49 -147 0
98 102 -150 0
98 -102 150 0
-98 102 150 0
-98 -102 -150 0
46 105 -126 0
46 -105 126 0
-46 105 126 0
-46 -105 -126 0
99 130 -134 0
99 -130 134 0
-99 130 134 0
-99 -130 -134 0
108 122 -146 0
108 -122 146 0
-108 122 146 0
-108 -122 -146 0
125 144 -148 0
125 -144 148 0
-125 144 148 0
-125 -144 -148 0
21 52 -101 0
21 -52 101 0
-21 52 101 0
-21 -52 -101 0
95 103 -139 0
95 -103 139 0
-95 103 139 0
-95 -103 -139 0
12 62 -87 0
12 -62 87 0
-12 62 87 0
-12 -62 -87 0
9 65 -145 0
9 -65 145 0
-9 65 145 0
-9 -65 -145 0
6 120 -149 0
6 -120 149 0
-6 120 149 0
-6 -120 -149 0
