c F4 Tseitin on networkx random_regular_graph(3,40,seed=7), connected=True, odd charge on vertex 1
p cnf 60 160
1 2 3 0
1 -2 -3 0
-1 2 -3 0
-1 -2 3 0
4 5 -6 0
4 -5 6 0
-4 5 6 0
-4 -5 -6 0
7 8 -9 0
7 -8 9 0
-7 8 9 0
-7 -8 -9 0
10 11 -12 0
10 -11 12 0
-10 11 12 0
-10 -11 -12 0
13 14 -15 0
13 -14 15 0
-13 14 15 0
-13 -14 -15 0
16 17 -18 0
16 -17 18 0
-16 17 18 0
-16 -17 -18 0
19 20 -21 0
19 -20 21 0
-19 20 21 0
-19 -20 -21 0
22 23 -24 0
22 -23 24 0
-22 23 24 0
-22 -23 -24 0
7 25 -26 0
7 -25 26 0
-7 25 26 0
-7 -25 -26 0
19 27 -28 0
19 -27 28 0
-19 27 28 0
-19 -27 -28 0
10 29 -30 0
10 -29 30 0
-10 29 30 0
-10 -29 -30 0
11 13 -31 0
11 -13 31 0
-11 13 31 0
-11 -13 -31 0
20 32 -33 0
20 -32 33 0
-20 32 33 0
-20 -32 -33 0
34 35 -36 0
34 -35 36 0
-34 35 36 0
-34 -35 -36 0
12 37 -38 0
12 -37 38 0
-12 37 38 0
-12 -37 -38 0
34 39 -40 0
34 -39 40 0
-34 39 40 0
-34 -39 -40 0
1 41 -42 0
1 -41 42 0
-1 41 42 0
-1 -41 -42 0
4 27 -43 0
4 -27 43 0
-4 27 43 0
-4 -27 -43 0
5 22 -44 0
5 -22 44 0
-5 22 44 0
-5 -22 -44 0
6 14 -16 0
6 -14 16 0
-6 14 16 0
-6 -14 -16 0
8 31 -45 0
8 -31 45 0
-8 31 45 0
-8 -31 -45 0
28 46 -47 0
28 -46 47 0
-28 46 47 0
-28 -46 -47 0
44 48 -49 0
44 -48 49 0
-44 48 49 0
-44 -48 -49 0
9 48 -50 0
9 -48 50 0
-9 48 50 0
-9 -48 -50 0
35 51 -52 0
35 -51 52 0
-35 51 52 0
-35 -51 -52 0
29 53 -54 0
29 -53 54 0
-29 53 54 0
-29 -53 -54 0
49 50 -55 0
49 -50 55 0
-49 50 55 0
-49 -50 -55 0
51 53 -56 0
51 -53 56 0
-51 53 56 0
-51 -53 -56 0
2 37 -54 0
2 -37 54 0
-2 37 54 0
-2 -37 -54 0
32 38 -45 0
32 -38 45 0
-32 38 45 0
-32 -38 -45 0
25 52 -57 0
25 -52 57 0
-25 52 57 0
-25 -52 -57 0
17 23 -46 0
17 -23 46 0
-17 23 46 0
-17 -23 -46 0
39 55 -56 0
39 -55 56 0
-39 55 56 0
-39 -55 -56 0
41 58 -59 0
41 -58 59 0
-41 58 59 0
-41 -58 -59 0
18 24 -33 0
18 -24 33 0
-18 24 33 0
-18 -24 -33 0
36 47 -57 0
36 -47 57 0
-36 47 57 0
-36 -47 -57 0
21 42 -58 0
21 -42 58 0
-21 42 58 0
-21 -42 -58 0
30 43 -60 0
30 -43 60 0
-30 43 60 0
-30 -43 -60 0
15 40 -59 0
15 -40 59 0
-15 40 59 0
-15 -40 -59 0
3 26 -60 0
3 -26 60 0
-3 26 60 0
-3 -26 -60 0
