c F4 Tseitin on networkx random_regular_graph(3,80,seed=8), connected=True, odd charge on vertex 1
p cnf 120 320
1 2 3 0
1 -2 -3 0
-1 2 -3 0
-1 -2 3 0
4 5 -6 0
4 -5 6 0
-4 5 6 0
-4 -5 -6 0
7 8 -9 0
7 -8 9 0
-7 8 9 0
-7 -8 -9 0
10 11 -12 0
10 -11 12 0
-10 11 12 0
-10 -11 -12 0
13 14 -15 0
13 -14 15 0
-13 14 15 0
-13 -14 -15 0
16 17 -18 0
16 -17 18 0
-16 17 18 0
-16 -17 -18 0
19 20 -21 0
19 -20 21 0
-19 20 21 0
-19 -20 -21 0
13 22 -23 0
13 -22 23 0
-13 22 23 0
-13 -22 -23 0
1 24 -25 0
1 -24 25 0
-1 24 25 0
-1 -24 -25 0
26 27 -28 0
26 -27 28 0
-26 27 28 0
-26 -27 -28 0
29 30 -31 0
29 -30 31 0
-29 30 31 0
-29 -30 -31 0
7 32 -33 0
7 -32 33 0
-7 32 33 0
-7 -32 -33 0
34 35 -36 0
34 -35 36 0
-34 35 36 0
-34 -35 -36 0
14 37 -38 0
14 -37 38 0
-14 37 38 0
-14 -37 -38 0
39 40 -41 0
39 -40 41 0
-39 40 41 0
-39 -40 -41 0
29 34 -42 0
29 -34 42 0
-29 34 42 0
-29 -34 -42 0
43 44 -45 0
43 -44 45 0
-43 44 45 0
-43 -44 -45 0
46 47 -48 0
46 -47 48 0
-46 47 48 0
-46 -47 -48 0
49 50 -51 0
49 -50 51 0
-49 50 51 0
-49 -50 -51 0
52 53 -54 0
52 -53 54 0
-52 53 54 0
-52 -53 -54 0
4 55 -56 0
4 -55 56 0
-4 55 56 0
-4 -55 -56 0
32 57 -58 0
32 -57 58 0
-32 57 58 0
-32 -57 -58 0
39 59 -60 0
39 -59 60 0
-39 59 60 0
-39 -59 -60 0
59 61 -62 0
59 -61 62 0
-59 61 62 0
-59 -61 -62 0
43 63 -64 0
43 -63 64 0
-43 63 64 0
-43 -63 -64 0
10 65 -66 0
10 -65 66 0
-10 65 66 0
-10 -65 -66 0
67 68 -69 0
67 -68 69 0
-67 68 69 0
-67 -68 -69 0
70 71 -72 0
70 -71 72 0
-70 71 72 0
-70 -71 -72 0
24 73 -74 0
24 -73 74 0
-24 73 74 0
-24 -73 -74 0
65 75 -76 0
65 -75 76 0
-65 75 76 0
-65 -75 -76 0
77 78 -79 0
77 -78 79 0
-77 78 79 0
-77 -78 -79 0
46 80 -81 0
46 -80 81 0
-46 80 81 0
-46 -80 -81 0
5 44 -63 0
5 -44 63 0
-5 44 63 0
-5 -44 -63 0
82 83 -84 0
82 -83 84 0
-82 83 84 0
-82 -83 -84 0
16 75 -85 0
16 -75 85 0
-16 75 85 0
-16 -75 -85 0
86 87 -88 0
86 -87 88 0
-86 87 88 0
-86 -87 -88 0
52 77 -89 0
52 -77 89 0
-52 77 89 0
-52 -77 -89 0
17 61 -90 0
17 -61 90 0
-17 61 90 0
-17 -61 -90 0
2 6 -91 0
2 -6 91 0
-2 6 91 0
-2 -6 -91 0
15 55 -92 0
15 -55 92 0
-15 55 92 0
-15 -55 -92 0
76 93 -94 0
76 -93 94 0
-76 93 94 0
-76 -93 -94 0
40 47 -57 0
40 -47 57 0
-40 47 57 0
-40 -47 -57 0
35 80 -93 0
35 -80 93 0
-35 80 93 0
-35 -80 -93 0
73 95 -96 0
73 -95 96 0
-73 95 96 0
-73 -95 -96 0
58 90 -95 0
58 -90 95 0
-58 90 95 0
-58 -90 -95 0
97 98 -99 0
97 -98 99 0
-97 98 99 0
-97 -98 -99 0
100 101 -102 0
100 -101 102 0
-100 101 102 0
-100 -101 -102 0
19 22 -103 0
19 -22 103 0
-19 22 103 0
-19 -22 -103 0
96 104 -105 0
96 -104 105 0
-96 104 105 0
-96 -104 -105 0
56 103 -106 0
56 -103 106 0
-56 103 106 0
-56 -103 -106 0
49 107 -108 0
49 -107 108 0
-49 107 108 0
-49 -107 -108 0
20 26 -86 0
20 -26 86 0
-20 26 86 0
-20 -26 -86 0
48 109 -110 0
48 -109 110 0
-48 109 110 0
-48 -109 -110 0
60 64 -111 0
60 -64 111 0
-60 64 111 0
-60 -64 -111 0
45 106 -112 0
45 -106 112 0
-45 106 112 0
-45 -106 -112 0
8 111 -113 0
8 -111 113 0
-8 111 113 0
-8 -111 -113 0
25 78 -92 0
25 -78 92 0
-25 78 92 0
-25 -78 -92 0
97 114 -115 0
97 -114 115 0
-97 114 115 0
-97 -114 -115 0
27 41 -82 0
27 -41 82 0
-27 41 82 0
-27 -41 -82 0
104 116 -117 0
104 -116 117 0
-104 116 117 0
-104 -116 -117 0
21 67 -98 0
21 -67 98 0
-21 67 98 0
-21 -67 -98 0
37 85 -118 0
37 -85 118 0
-37 85 118 0
-37 -85 -118 0
11 33 -116 0
11 -33 116 0
-11 33 116 0
-11 -33 -116 0
30 87 -114 0
30 -87 114 0
-30 87 114 0
-30 -87 -114 0
53 68 -119 0
53 -68 119 0
-53 68 119 0
-53 -68 -119 0
31 74 -88 0
31 -74 88 0
-31 74 88 0
-31 -74 -88 0
28 100 -119 0
28 -100 119 0
-28 100 119 0
-28 -100 -119 0
101 105 -109 0
101 -105 109 0
-101 105 109 0
-101 -105 -109 0
54 89 -117 0
54 -89 117 0
-54 89 117 0
-54 -89 -117 0
112 118 -120 0
112 -118 120 0
-112 118 120 0
-112 -118 -120 0
3 12 -99 0
3 -12 99 0
-3 12 99 0
-3 -12 -99 0
9 81 -115 0
9 -81 115 0
-9 81 115 0
-9 -81 -115 0
42 70 -113 0
42 -70 113 0
-42 70 113 0
-42 -70 -113 0
79 83 -94 0
79 -83 94 0
-79 83 94 0
-79 -83 -94 0
18 36 -62 0
18 -36 62 0
-18 36 62 0
-18 -36 -62 0
23 91 -110 0
23 -91 110 0
-23 91 110 0
-23 -91 -110 0
66 69 -107 0
66 -69 107 0
-66 69 107 0
-66 -69 -107 0
38 50 -71 0
38 -50 71 0
-38 50 71 0
-38 -50 -71 0
51 72 -84 0
51 -72 84 0
-51 72 84 0
-51 -72 -84 0
102 108 -120 0
102 -108 120 0
-102 108 120 0
-102 -108 -120 0
