c F4 Tseitin on networkx random_regular_graph(3,200,seed=0), connected=True, odd charge on vertex 1
p cnf 300 800
1 2 3 0
1 -2 -3 0
-1 2 -3 0
-1 -2 3 0
4 5 -6 0
4 -5 6 0
-4 5 6 0
-4 -5 -6 0
7 8 -9 0
7 -8 9 0
-7 8 9 0
-7 -8 -9 0
10 11 -12 0
10 -11 12 0
-10 11 12 0
-10 -11 -12 0
13 14 -15 0
13 -14 15 0
-13 14 15 0
-13 -14 -15 0
16 17 -18 0
16 -17 18 0
-16 17 18 0
-16 -17 -18 0
19 20 -21 0
19 -20 21 0
-19 20 21 0
-19 -20 -21 0
13 22 -23 0
13 -22 23 0
-13 22 23 0
-13 -22 -23 0
24 25 -26 0
24 -25 26 0
-24 25 26 0
-24 -25 -26 0
27 28 -29 0
27 -28 29 0
-27 28 29 0
-27 -28 -29 0
30 31 -32 0
30 -31 32 0
-30 31 32 0
-30 -31 -32 0
33 34 -35 0
33 -34 35 0
-33 34 35 0
-33 -34 -35 0
36 37 -38 0
36 -37 38 0
-36 37 38 0
-36 -37 -38 0
22 39 -40 0
22 -39 40 0
-22 39 40 0
-22 -39 -40 0
41 42 -43 0
41 -42 43 0
-41 42 43 0
-41 -42 -43 0
44 45 -46 0
44 -45 46 0
-44 45 46 0
-44 -45 -46 0
47 48 -49 0
47 -48 49 0
-47 48 49 0
-47 -48 -49 0
50 51 -52 0
50 -51 52 0
-50 51 52 0
-50 -51 -52 0
53 54 -55 0
53 -54 55 0
-53 54 55 0
-53 -54 -55 0
56 57 -58 0
56 -57 58 0
-56 57 58 0
-56 -57 -58 0
59 60 -61 0
59 -60 61 0
-59 60 61 0
-59 -60 -61 0
59 62 -63 0
59 -62 63 0
-59 62 63 0
-59 -62 -63 0
64 65 -66 0
64 -65 66 0
-64 65 66 0
-64 -65 -66 0
53 67 -68 0
53 -67 68 0
-53 67 68 0
-53 -67 -68 0
69 70 -71 0
69 -70 71 0
-69 70 71 0
-69 -70 -71 0
7 72 -73 0
7 -72 73 0
-7 72 73 0
-7 -72 -73 0
56 74 -75 0
56 -74 75 0
-56 74 75 0
-56 -74 -75 0
76 77 -78 0
76 -77 78 0
-76 77 78 0
-76 -77 -78 0
47 79 -80 0
47 -79 80 0
-47 79 80 0
-47 -79 -80 0
60 81 -82 0
60 -81 82 0
-60 81 82 0
-60 -81 -82 0
83 84 -85 0
83 -84 85 0
-83 84 85 0
-83 -84 -85 0
50 86 -87 0
50 -86 87 0
-50 86 87 0
-50 -86 -87 0
88 89 -90 0
88 -89 90 0
-88 89 90 0
-88 -89 -90 0
91 92 -93 0
91 -92 93 0
-91 92 93 0
-91 -92 -93 0
33 94 -95 0
33 -94 95 0
-33 94 95 0
-33 -94 -95 0
83 96 -97 0
83 -96 97 0
-83 96 97 0
-83 -96 -97 0
98 99 -100 0
98 -99 100 0
-98 99 100 0
-98 -99 -100 0
39 101 -102 0
39 -101 102 0
-39 101 102 0
-39 -101 -102 0
103 104 -105 0
103 -104 105 0
-103 104 105 0
-103 -104 -105 0
61 106 -107 0
61 -106 107 0
-61 106 107 0
-61 -106 -107 0
94 108 -109 0
94 -108 109 0
-94 108 109 0
-94 -108 -109 0
44 110 -111 0
44 -110 111 0
-44 110 111 0
-44 -110 -111 0
41 86 -112 0
41 -86 112 0
-41 86 112 0
-41 -86 -112 0
113 114 -115 0
113 -114 115 0
-113 114 115 0
-113 -114 -115 0
116 117 -118 0
116 -117 118 0
-116 117 118 0
-116 -117 -118 0
57 119 -120 0
57 -119 120 0
-57 119 120 0
-57 -119 -120 0
121 122 -123 0
121 -122 123 0
-121 122 123 0
-121 -122 -123 0
124 125 -126 0
124 -125 126 0
-124 125 126 0
-124 -125 -126 0
127 128 -129 0
127 -128 129 0
-127 128 129 0
-127 -128 -129 0
130 131 -132 0
130 -131 132 0
-130 131 132 0
-130 -131 -132 0
133 134 -135 0
133 -134 135 0
-133 134 135 0
-133 -134 -135 0
103 136 -137 0
103 -136 137 0
-103 136 137 0
-103 -136 -137 0
87 138 -139 0
87 -138 139 0
-87 138 139 0
-87 -138 -139 0
30 140 -141 0
30 -140 141 0
-30 140 141 0
-30 -140 -141 0
34 142 -143 0
34 -142 143 0
-34 142 143 0
-34 -142 -143 0
144 145 -146 0
144 -145 146 0
-144 145 146 0
-144 -145 -146 0
147 148 -149 0
147 -148 149 0
-147 148 149 0
-147 -148 -149 0
108 150 -151 0
108 -150 151 0
-108 150 151 0
-108 -150 -151 0
144 152 -153 0
144 -152 153 0
-144 152 153 0
-144 -152 -153 0
154 155 -156 0
154 -155 156 0
-154 155 156 0
-154 -155 -156 0
31 54 -157 0
31 -54 157 0
-31 54 157 0
-31 -54 -157 0
1 158 -159 0
1 -158 159 0
-1 158 159 0
-1 -158 -159 0
160 161 -162 0
160 -161 162 0
-160 161 162 0
-160 -161 -162 0
119 163 -164 0
119 -163 164 0
-119 163 164 0
-119 -163 -164 0
64 165 -166 0
64 -165 166 0
-64 165 166 0
-64 -165 -166 0
110 127 -167 0
110 -127 167 0
-110 127 167 0
-110 -127 -167 0
163 168 -169 0
163 -168 169 0
-163 168 169 0
-163 -168 -169 0
96 170 -171 0
96 -170 171 0
-96 170 171 0
-96 -170 -171 0
113 172 -173 0
113 -172 173 0
-113 172 173 0
-113 -172 -173 0
76 174 -175 0
76 -174 175 0
-76 174 175 0
-76 -174 -175 0
176 177 -178 0
176 -177 178 0
-176 177 178 0
-176 -177 -178 0
62 69 -179 0
62 -69 179 0
-62 69 179 0
-62 -69 -179 0
51 114 -180 0
51 -114 180 0
-51 114 180 0
-51 -114 -180 0
167 181 -182 0
167 -181 182 0
-167 181 182 0
-167 -181 -182 0
101 183 -184 0
101 -183 184 0
-101 183 184 0
-101 -183 -184 0
136 185 -186 0
136 -185 186 0
-136 185 186 0
-136 -185 -186 0
106 187 -188 0
106 -187 188 0
-106 187 188 0
-106 -187 -188 0
170 183 -189 0
170 -183 189 0
-170 183 189 0
-170 -183 -189 0
52 190 -191 0
52 -190 191 0
-52 190 191 0
-52 -190 -191 0
152 192 -193 0
152 -192 193 0
-152 192 193 0
-152 -192 -193 0
27 194 -195 0
27 -194 195 0
-27 194 195 0
-27 -194 -195 0
128 158 -196 0
128 -158 196 0
-128 158 196 0
-128 -158 -196 0
111 138 -197 0
111 -138 197 0
-111 138 197 0
-111 -138 -197 0
198 199 -200 0
198 -199 200 0
-198 199 200 0
-198 -199 -200 0
67 79 -116 0
67 -79 116 0
-67 79 116 0
-67 -79 -116 0
88 154 -201 0
88 -154 201 0
-88 154 201 0
-88 -154 -201 0
10 185 -202 0
10 -185 202 0
-10 185 202 0
-10 -185 -202 0
176 190 -203 0
176 -190 203 0
-176 190 203 0
-176 -190 -203 0
204 205 -206 0
204 -205 206 0
-204 205 206 0
-204 -205 -206 0
74 142 -207 0
74 -142 207 0
-74 142 207 0
-74 -142 -207 0
208 209 -210 0
208 -209 210 0
-208 209 210 0
-208 -209 -210 0
109 211 -212 0
109 -211 212 0
-109 211 212 0
-109 -211 -212 0
213 214 -215 0
213 -214 215 0
-213 214 215 0
-213 -214 -215 0
153 216 -217 0
153 -216 217 0
-153 216 217 0
-153 -216 -217 0
145 218 -219 0
145 -218 219 0
-145 218 219 0
-145 -218 -219 0
24 220 -221 0
24 -220 221 0
-24 220 221 0
-24 -220 -221 0
181 222 -223 0
181 -222 223 0
-181 222 223 0
-181 -222 -223 0
224 225 -226 0
224 -225 226 0
-224 225 226 0
-224 -225 -226 0
227 228 -229 0
227 -228 229 0
-227 228 229 0
-227 -228 -229 0
35 177 -230 0
35 -177 230 0
-35 177 230 0
-35 -177 -230 0
198 231 -232 0
198 -231 232 0
-198 231 232 0
-198 -231 -232 0
70 186 -233 0
70 -186 233 0
-70 186 233 0
-70 -186 -233 0
140 178 -220 0
140 -178 220 0
-140 178 220 0
-140 -178 -220 0
172 174 -234 0
172 -174 234 0
-172 174 234 0
-172 -174 -234 0
227 235 -236 0
227 -235 236 0
-227 235 236 0
-227 -235 -236 0
4 95 -237 0
4 -95 237 0
-4 95 237 0
-4 -95 -237 0
146 168 -238 0
146 -168 238 0
-146 168 238 0
-146 -168 -238 0
239 240 -241 0
239 -240 241 0
-239 240 241 0
-239 -240 -241 0
147 242 -243 0
147 -242 243 0
-147 242 243 0
-147 -242 -243 0
244 245 -246 0
244 -245 246 0
-244 245 246 0
-244 -245 -246 0
42 98 -247 0
42 -98 247 0
-42 98 247 0
-42 -98 -247 0
242 248 -249 0
242 -248 249 0
-242 248 249 0
-242 -248 -249 0
194 250 -251 0
194 -250 251 0
-194 250 251 0
-194 -250 -251 0
97 155 -252 0
97 -155 252 0
-97 155 252 0
-97 -155 -252 0
253 254 -255 0
253 -254 255 0
-253 254 255 0
-253 -254 -255 0
253 256 -257 0
253 -256 257 0
-253 256 257 0
-253 -256 -257 0
68 102 -258 0
68 -102 258 0
-68 102 258 0
-68 -102 -258 0
5 171 -259 0
5 -171 259 0
-5 171 259 0
-5 -171 -259 0
84 137 -143 0
84 -137 143 0
-84 137 143 0
-84 -137 -143 0
196 230 -258 0
196 -230 258 0
-196 230 258 0
-196 -230 -258 0
16 150 -233 0
16 -150 233 0
-16 150 233 0
-16 -150 -233 0
260 261 -262 0
260 -261 262 0
-260 261 262 0
-260 -261 -262 0
77 175 -263 0
77 -175 263 0
-77 175 263 0
-77 -175 -263 0
28 224 -260 0
28 -224 260 0
-28 224 260 0
-28 -224 -260 0
25 124 -189 0
25 -124 189 0
-25 124 189 0
-25 -124 -189 0
8 264 -265 0
8 -264 265 0
-8 264 265 0
-8 -264 -265 0
81 191 -266 0
81 -191 266 0
-81 191 266 0
-81 -191 -266 0
197 213 -228 0
197 -213 228 0
-197 213 228 0
-197 -213 -228 0
148 157 -267 0
148 -157 267 0
-148 157 267 0
-148 -157 -267 0
133 208 -268 0
133 -208 268 0
-133 208 268 0
-133 -208 -268 0
160 261 -269 0
160 -261 269 0
-160 261 269 0
-160 -261 -269 0
99 173 -256 0
99 -173 256 0
-99 173 256 0
-99 -173 -256 0
89 270 -271 0
89 -270 271 0
-89 270 271 0
-89 -270 -271 0
141 165 -211 0
141 -165 211 0
-141 165 211 0
-141 -165 -211 0
195 239 -272 0
195 -239 272 0
-195 239 272 0
-195 -239 -272 0
161 187 -273 0
161 -187 273 0
-161 187 273 0
-161 -187 -273 0
201 274 -275 0
201 -274 275 0
-201 274 275 0
-201 -274 -275 0
72 104 -276 0
72 -104 276 0
-72 104 276 0
-72 -104 -276 0
199 277 -278 0
199 -277 278 0
-199 277 278 0
-199 -277 -278 0
23 207 -244 0
23 -207 244 0
-23 207 244 0
-23 -207 -244 0
26 105 -279 0
26 -105 279 0
-26 105 279 0
-26 -105 -279 0
36 121 -130 0
36 -121 130 0
-36 121 130 0
-36 -121 -130 0
17 204 -280 0
17 -204 280 0
-17 204 280 0
-17 -204 -280 0
19 91 -225 0
19 -91 225 0
-19 91 225 0
-19 -91 -225 0
235 281 -282 0
235 -281 282 0
-235 281 282 0
-235 -281 -282 0
117 149 -281 0
117 -149 281 0
-117 149 281 0
-117 -149 -281 0
11 32 -182 0
11 -32 182 0
-11 32 182 0
-11 -32 -182 0
2 131 -250 0
2 -131 250 0
-2 131 250 0
-2 -131 -250 0
280 283 -284 0
280 -283 284 0
-280 283 284 0
-280 -283 -284 0
14 164 -285 0
14 -164 285 0
-14 164 285 0
-14 -164 -285 0
45 209 -259 0
45 -209 259 0
-45 209 259 0
-45 -209 -259 0
115 222 -286 0
115 -222 286 0
-115 222 286 0
-115 -222 -286 0
58 180 -287 0
58 -180 287 0
-58 180 287 0
-58 -180 -287 0
100 107 -288 0
100 -107 288 0
-100 107 288 0
-100 -107 -288 0
129 287 -289 0
129 -287 289 0
-129 287 289 0
-129 -287 -289 0
37 48 -184 0
37 -48 184 0
-37 48 184 0
-37 -48 -184 0
216 231 -276 0
216 -231 276 0
-216 231 276 0
-216 -231 -276 0
71 73 -264 0
71 -73 264 0
-71 73 264 0
-71 -73 -264 0
203 267 -290 0
203 -267 290 0
-203 267 290 0
-203 -267 -290 0
245 270 -291 0
245 -270 291 0
-245 270 291 0
-245 -270 -291 0
46 200 -282 0
46 -200 282 0
-46 200 282 0
-46 -200 -282 0
40 43 -232 0
40 -43 232 0
-40 43 232 0
-40 -43 -232 0
118 292 -293 0
118 -292 293 0
-118 292 293 0
-118 -292 -293 0
166 192 -291 0
166 -192 291 0
-166 192 291 0
-166 -192 -291 0
49 265 -294 0
49 -265 294 0
-49 265 294 0
-49 -265 -294 0
221 295 -296 0
221 -295 296 0
-221 295 296 0
-221 -295 -296 0
112 205 -217 0
112 -205 217 0
-112 205 217 0
-112 -205 -217 0
206 218 -279 0
206 -218 279 0
-206 218 279 0
-206 -218 -279 0
80 214 -254 0
80 -214 254 0
-80 214 254 0
-80 -214 -254 0
92 247 -297 0
92 -247 297 0
-92 247 297 0
-92 -247 -297 0
55 169 -273 0
55 -169 273 0
-55 169 273 0
-55 -169 -273 0
134 252 -263 0
134 -252 263 0
-134 252 263 0
-134 -252 -263 0
240 269 -297 0
240 -269 297 0
-240 269 297 0
-240 -269 -297 0
6 125 -234 0
6 -125 234 0
-6 125 234 0
-6 -125 -234 0
248 277 -295 0
248 -277 295 0
-248 277 295 0
-248 -277 -295 0
65 179 -255 0
65 -179 255 0
-65 179 255 0
-65 -179 -255 0
210 268 -294 0
210 -268 294 0
-210 268 294 0
-210 -268 -294 0
12 236 -266 0
12 -236 266 0
-12 236 266 0
-12 -236 -266 0
15 162 -246 0
15 -162 246 0
-15 162 246 0
-15 -162 -246 0
38 93 -289 0
38 -93 289 0
-38 93 289 0
-38 -93 -289 0
122 193 -274 0
122 -193 274 0
-122 193 274 0
-122 -193 -274 0
151 159 -292 0
151 -159 292 0
-151 159 292 0
-151 -159 -292 0
20 257 -290 0
20 -257 290 0
-20 257 290 0
-20 -257 -290 0
139 212 -286 0
139 -212 286 0
-139 212 286 0
-139 -212 -286 0
90 237 -283 0
90 -237 283 0
-90 237 283 0
-90 -237 -283 0
63 120 -188 0
63 -120 188 0
-63 120 188 0
-63 -120 -188 0
156 298 -299 0
156 -298 299 0
-156 298 299 0
-156 -298 -299 0
9 29 -135 0
9 -29 135 0
-9 29 135 0
-9 -29 -135 0
21 226 -285 0
21 -226 285 0
-21 226 285 0
-21 -226 -285 0
123 215 -271 0
123 -215 271 0
-123 215 271 0
-123 -215 -271 0
241 251 -262 0
241 -251 262 0
-241 251 262 0
-241 -251 -262 0
288 296 -300 0
288 -296 300 0
-288 296 300 0
-288 -296 -300 0
82 223 -238 0
82 -223 238 0
-82 223 238 0
-82 -223 -238 0
66 298 -300 0
66 -298 300 0
-66 298 300 0
-66 -298 -300 0
18 85 -126 0
18 -85 126 0
-18 85 126 0
-18 -85 -126 0
78 132 -202 0
78 -132 202 0
-78 132 202 0
-78 -132 -202 0
75 219 -229 0
75 -219 229 0
-75 219 229 0
-75 -219 -229 0
3 243 -275 0
3 -243 275 0
-3 243 275 0
-3 -243 -275 0
249 272 -293 0
249 -272 293 0
-249 272 293 0
-249 -272 -293 0
278 284 -299 0
278 -284 299 0
-278 284 299 0
-278 -284 -299 0
