c F4 Tseitin on networkx random_regular_graph(3,20,seed=1), connected=True, odd charge on vertex 1
p cnf 30 80
1 2 3 0
1 -2 -3 0
-1 2 -3 0
-1 -2 3 0
4 5 -6 0
4 -5 6 0
-4 5 6 0
-4 -5 -6 0
1 7 -8 0
1 -7 8 0
-1 7 8 0
-1 -7 -8 0
9 10 -11 0
9 -10 11 0
-9 10 11 0
-9 -10 -11 0
4 12 -13 0
4 -12 13 0
-4 12 13 0
-4 -12 -13 0
2 7 -14 0
2 -7 14 0
-2 7 14 0
-2 -7 -14 0
15 16 -17 0
15 -16 17 0
-15 16 17 0
-15 -16 -17 0
8 15 -18 0
8 -15 18 0
-8 15 18 0
-8 -15 -18 0
12 19 -20 0
12 -19 20 0
-12 19 20 0
-12 -19 -20 0
9 21 -22 0
9 -21 22 0
-9 21 22 0
-9 -21 -22 0
19 23 -24 0
19 -23 24 0
-19 23 24 0
-19 -23 -24 0
10 25 -26 0
10 -25 26 0
-10 25 26 0
-10 -25 -26 0
23 27 -28 0
23 -27 28 0
-23 27 28 0
-23 -27 -28 0
16 27 -29 0
16 -27 29 0
-16 27 29 0
-16 -27 -29 0
5 13 -25 0
5 -13 25 0
-5 13 25 0
-5 -13 -25 0
21 26 -30 0
21 -26 30 0
-21 26 30 0
-21 -26 -30 0
6 18 -20 0
6 -18 20 0
-6 18 20 0
-6 -18 -20 0
14 22 -30 0
14 -22 30 0
-14 22 30 0
-14 -22 -30 0
3 11 -29 0
3 -11 29 0
-3 11 29 0
-3 -11 -29 0
17 24 -28 0
17 -24 28 0
-17 24 28 0
-17 -24 -28 0
