c F4 Tseitin on networkx random_regular_graph(3,200,seed=1), connected=True, odd charge on vertex 1
p cnf 300 800
1 2 3 0
1 -2 -3 0
-1 2 -3 0
-1 -2 3 0
4 5 -6 0
4 -5 6 0
-4 5 6 0
-4 -5 -6 0
7 8 -9 0
7 -8 9 0
-7 8 9 0
-7 -8 -9 0
10 11 -12 0
10 -11 12 0
-10 11 12 0
-10 -11 -12 0
13 14 -15 0
13 -14 15 0
-13 14 15 0
-13 -14 -15 0
16 17 -18 0
16 -17 18 0
-16 17 18 0
-16 -17 -18 0
10 19 -20 0
10 -19 20 0
-10 19 20 0
-10 -19 -20 0
21 22 -23 0
21 -22 23 0
-21 22 23 0
-21 -22 -23 0
24 25 -26 0
24 -25 26 0
-24 25 26 0
-24 -25 -26 0
27 28 -29 0
27 -28 29 0
-27 28 29 0
-27 -28 -29 0
30 31 -32 0
30 -31 32 0
-30 31 32 0
-30 -31 -32 0
33 34 -35 0
33 -34 35 0
-33 34 35 0
-33 -34 -35 0
36 37 -38 0
36 -37 38 0
-36 37 38 0
-36 -37 -38 0
39 40 -41 0
39 -40 41 0
-39 40 41 0
-39 -40 -41 0
42 43 -44 0
42 -43 44 0
-42 43 44 0
-42 -43 -44 0
7 45 -46 0
7 -45 46 0
-7 45 46 0
-7 -45 -46 0
47 48 -49 0
47 -48 49 0
-47 48 49 0
-47 -48 -49 0
50 51 -52 0
50 -51 52 0
-50 51 52 0
-50 -51 -52 0
53 54 -55 0
53 -54 55 0
-53 54 55 0
-53 -54 -55 0
1 56 -57 0
1 -56 57 0
-1 56 57 0
-1 -56 -57 0
58 59 -60 0
58 -59 60 0
-58 59 60 0
-58 -59 -60 0
61 62 -63 0
61 -62 63 0
-61 62 63 0
-61 -62 -63 0
64 65 -66 0
64 -65 66 0
-64 65 66 0
-64 -65 -66 0
64 67 -68 0
64 -67 68 0
-64 67 68 0
-64 -67 -68 0
69 70 -71 0
69 -70 71 0
-69 70 71 0
-69 -70 -71 0
72 73 -74 0
72 -73 74 0
-72 73 74 0
-72 -73 -74 0
65 75 -76 0
65 -75 76 0
-65 75 76 0
-65 -75 -76 0
39 77 -78 0
39 -77 78 0
-39 77 78 0
-39 -77 -78 0
79 80 -81 0
79 -80 81 0
-79 80 81 0
-79 -80 -81 0
82 83 -84 0
82 -83 84 0
-82 83 84 0
-82 -83 -84 0
85 86 -87 0
85 -86 87 0
-85 86 87 0
-85 -86 -87 0
24 88 -89 0
24 -88 89 0
-24 88 89 0
-24 -88 -89 0
36 90 -91 0
36 -90 91 0
-36 90 91 0
-36 -90 -91 0
58 92 -93 0
58 -92 93 0
-58 92 93 0
-58 -92 -93 0
77 94 -95 0
77 -94 95 0
-77 94 95 0
-77 -94 -95 0
53 96 -97 0
53 -96 97 0
-53 96 97 0
-53 -96 -97 0
69 98 -99 0
69 -98 99 0
-69 98 99 0
-69 -98 -99 0
13 25 -40 0
13 -25 40 0
-13 25 40 0
-13 -25 -40 0
4 100 -101 0
4 -100 101 0
-4 100 101 0
-4 -100 -101 0
5 102 -103 0
5 -102 103 0
-5 102 103 0
-5 -102 -103 0
104 105 -106 0
104 -105 106 0
-104 105 106 0
-104 -105 -106 0
19 107 -108 0
19 -107 108 0
-19 107 108 0
-19 -107 -108 0
50 98 -109 0
50 -98 109 0
-50 98 109 0
-50 -98 -109 0
8 110 -111 0
8 -110 111 0
-8 110 111 0
-8 -110 -111 0
33 112 -113 0
33 -112 113 0
-33 112 113 0
-33 -112 -113 0
114 115 -116 0
114 -115 116 0
-114 115 116 0
-114 -115 -116 0
26 79 -117 0
26 -79 117 0
-26 79 117 0
-26 -79 -117 0
118 119 -120 0
118 -119 120 0
-118 119 120 0
-118 -119 -120 0
41 121 -122 0
41 -121 122 0
-41 121 122 0
-41 -121 -122 0
123 124 -125 0
123 -124 125 0
-123 124 125 0
-123 -124 -125 0
51 126 -127 0
51 -126 127 0
-51 126 127 0
-51 -126 -127 0
67 117 -128 0
67 -117 128 0
-67 117 128 0
-67 -117 -128 0
90 129 -130 0
90 -129 130 0
-90 129 130 0
-90 -129 -130 0
30 131 -132 0
30 -131 132 0
-30 131 132 0
-30 -131 -132 0
109 133 -134 0
109 -133 134 0
-109 133 134 0
-109 -133 -134 0
135 136 -137 0
135 -136 137 0
-135 136 137 0
-135 -136 -137 0
129 138 -139 0
129 -138 139 0
-129 138 139 0
-129 -138 -139 0
140 141 -142 0
140 -141 142 0
-140 141 142 0
-140 -141 -142 0
143 144 -145 0
143 -144 145 0
-143 144 145 0
-143 -144 -145 0
146 147 -148 0
146 -147 148 0
-146 147 148 0
-146 -147 -148 0
149 150 -151 0
149 -150 151 0
-149 150 151 0
-149 -150 -151 0
6 152 -153 0
6 -152 153 0
-6 152 153 0
-6 -152 -153 0
104 154 -155 0
104 -154 155 0
-104 154 155 0
-104 -154 -155 0
16 140 -156 0
16 -140 156 0
-16 140 156 0
-16 -140 -156 0
152 157 -158 0
152 -157 158 0
-152 157 158 0
-152 -157 -158 0
159 160 -161 0
159 -160 161 0
-159 160 161 0
-159 -160 -161 0
68 159 -162 0
68 -159 162 0
-68 159 162 0
-68 -159 -162 0
163 164 -165 0
163 -164 165 0
-163 164 165 0
-163 -164 -165 0
110 166 -167 0
110 -166 167 0
-110 166 167 0
-110 -166 -167 0
168 169 -170 0
168 -169 170 0
-168 169 170 0
-168 -169 -170 0
171 172 -173 0
171 -172 173 0
-171 172 173 0
-171 -172 -173 0
174 175 -176 0
174 -175 176 0
-174 175 176 0
-174 -175 -176 0
138 177 -178 0
138 -177 178 0
-138 177 178 0
-138 -177 -178 0
179 180 -181 0
179 -180 181 0
-179 180 181 0
-179 -180 -181 0
54 123 -126 0
54 -123 126 0
-54 123 126 0
-54 -123 -126 0
182 183 -184 0
182 -183 184 0
-182 183 184 0
-182 -183 -184 0
37 185 -186 0
37 -185 186 0
-37 185 186 0
-37 -185 -186 0
118 187 -188 0
118 -187 188 0
-118 187 188 0
-118 -187 -188 0
179 189 -190 0
179 -189 190 0
-179 189 190 0
-179 -189 -190 0
45 135 -191 0
45 -135 191 0
-45 135 191 0
-45 -135 -191 0
85 192 -193 0
85 -192 193 0
-85 192 193 0
-85 -192 -193 0
194 195 -196 0
194 -195 196 0
-194 195 196 0
-194 -195 -196 0
72 133 -197 0
72 -133 197 0
-72 133 197 0
-72 -133 -197 0
149 198 -199 0
149 -198 199 0
-149 198 199 0
-149 -198 -199 0
180 200 -201 0
180 -200 201 0
-180 200 201 0
-180 -200 -201 0
102 202 -203 0
102 -202 203 0
-102 202 203 0
-102 -202 -203 0
55 171 -204 0
55 -171 204 0
-55 171 204 0
-55 -171 -204 0
205 206 -207 0
205 -206 207 0
-205 206 207 0
-205 -206 -207 0
59 124 -168 0
59 -124 168 0
-59 124 168 0
-59 -124 -168 0
94 189 -208 0
94 -189 208 0
-94 189 208 0
-94 -189 -208 0
209 210 -211 0
209 -210 211 0
-209 210 211 0
-209 -210 -211 0
96 163 -198 0
96 -163 198 0
-96 163 198 0
-96 -163 -198 0
105 119 -212 0
105 -119 212 0
-105 119 212 0
-105 -119 -212 0
139 213 -214 0
139 -213 214 0
-139 213 214 0
-139 -213 -214 0
14 215 -216 0
14 -215 216 0
-14 215 216 0
-14 -215 -216 0
31 217 -218 0
31 -217 218 0
-31 217 218 0
-31 -217 -218 0
172 219 -220 0
172 -219 220 0
-172 219 220 0
-172 -219 -220 0
114 185 -221 0
114 -185 221 0
-114 185 221 0
-114 -185 -221 0
154 222 -223 0
154 -222 223 0
-154 222 223 0
-154 -222 -223 0
130 194 -219 0
130 -194 219 0
-130 194 219 0
-130 -194 -219 0
111 156 -173 0
111 -156 173 0
-111 156 173 0
-111 -156 -173 0
61 224 -225 0
61 -224 225 0
-61 224 225 0
-61 -224 -225 0
226 227 -228 0
226 -227 228 0
-226 227 228 0
-226 -227 -228 0
229 230 -231 0
229 -230 231 0
-229 230 231 0
-229 -230 -231 0
95 232 -233 0
95 -232 233 0
-95 232 233 0
-95 -232 -233 0
205 234 -235 0
205 -234 235 0
-205 234 235 0
-205 -234 -235 0
234 236 -237 0
234 -236 237 0
-234 236 237 0
-234 -236 -237 0
42 238 -239 0
42 -238 239 0
-42 238 239 0
-42 -238 -239 0
204 235 -240 0
204 -235 240 0
-204 235 240 0
-204 -235 -240 0
88 174 -241 0
88 -174 241 0
-88 174 241 0
-88 -174 -241 0
187 242 -243 0
187 -242 243 0
-187 242 243 0
-187 -242 -243 0
192 209 -226 0
192 -209 226 0
-192 209 226 0
-192 -209 -226 0
107 244 -245 0
107 -244 245 0
-107 244 245 0
-107 -244 -245 0
100 217 -246 0
100 -217 246 0
-100 217 246 0
-100 -217 -246 0
86 199 -247 0
86 -199 247 0
-86 199 247 0
-86 -199 -247 0
32 112 -162 0
32 -112 162 0
-32 112 162 0
-32 -112 -162 0
17 127 -206 0
17 -127 206 0
-17 127 206 0
-17 -127 -206 0
9 34 -248 0
9 -34 248 0
-9 34 248 0
-9 -34 -248 0
143 207 -249 0
143 -207 249 0
-143 207 249 0
-143 -207 -249 0
186 224 -250 0
186 -224 250 0
-186 224 250 0
-186 -224 -250 0
238 242 -251 0
238 -242 251 0
-238 242 251 0
-238 -242 -251 0
252 253 -254 0
252 -253 254 0
-252 253 254 0
-252 -253 -254 0
244 251 -255 0
244 -251 255 0
-244 251 255 0
-244 -251 -255 0
208 229 -256 0
208 -229 256 0
-208 229 256 0
-208 -229 -256 0
177 257 -258 0
177 -257 258 0
-177 257 258 0
-177 -257 -258 0
89 115 -259 0
89 -115 259 0
-89 115 259 0
-89 -115 -259 0
131 169 -232 0
131 -169 232 0
-131 169 232 0
-131 -169 -232 0
144 260 -261 0
144 -260 261 0
-144 260 261 0
-144 -260 -261 0
141 252 -262 0
141 -252 262 0
-141 252 262 0
-141 -252 -262 0
155 200 -236 0
155 -200 236 0
-155 200 236 0
-155 -200 -236 0
47 246 -263 0
47 -246 263 0
-47 246 263 0
-47 -246 -263 0
264 265 -266 0
264 -265 266 0
-264 265 266 0
-264 -265 -266 0
128 136 -166 0
128 -136 166 0
-128 136 166 0
-128 -136 -166 0
27 267 -268 0
27 -267 268 0
-27 267 268 0
-27 -267 -268 0
195 201 -269 0
195 -201 269 0
-195 201 269 0
-195 -201 -269 0
2 218 -230 0
2 -218 230 0
-2 218 230 0
-2 -218 -230 0
82 241 -270 0
82 -241 270 0
-82 241 270 0
-82 -241 -270 0
157 182 -271 0
157 -182 271 0
-157 182 271 0
-157 -182 -271 0
28 38 -190 0
28 -38 190 0
-28 38 190 0
-28 -38 -190 0
80 270 -272 0
80 -270 272 0
-80 270 272 0
-80 -270 -272 0
78 175 -245 0
78 -175 245 0
-78 175 245 0
-78 -175 -245 0
15 35 -248 0
15 -35 248 0
-15 35 248 0
-15 -35 -248 0
56 160 -273 0
56 -160 273 0
-56 160 273 0
-56 -160 -273 0
146 202 -274 0
146 -202 274 0
-146 202 274 0
-146 -202 -274 0
18 87 -275 0
18 -87 275 0
-18 87 275 0
-18 -87 -275 0
215 263 -276 0
215 -263 276 0
-215 263 276 0
-215 -263 -276 0
3 259 -277 0
3 -259 277 0
-3 259 277 0
-3 -259 -277 0
147 278 -279 0
147 -278 279 0
-147 278 279 0
-147 -278 -279 0
92 280 -281 0
92 -280 281 0
-92 280 281 0
-92 -280 -281 0
125 212 -233 0
125 -212 233 0
-125 212 233 0
-125 -212 -233 0
150 278 -282 0
150 -278 282 0
-150 278 282 0
-150 -278 -282 0
164 222 -237 0
164 -222 237 0
-164 222 237 0
-164 -222 -237 0
43 216 -260 0
43 -216 260 0
-43 216 260 0
-43 -216 -260 0
101 183 -264 0
101 -183 264 0
-101 183 264 0
-101 -183 -264 0
29 73 -273 0
29 -73 273 0
-29 73 273 0
-29 -73 -273 0
158 272 -283 0
158 -272 283 0
-158 272 283 0
-158 -272 -283 0
70 106 -284 0
70 -106 284 0
-70 106 284 0
-70 -106 -284 0
52 145 -153 0
52 -145 153 0
-52 145 153 0
-52 -145 -153 0
60 285 -286 0
60 -285 286 0
-60 285 286 0
-60 -285 -286 0
74 287 -288 0
74 -287 288 0
-74 287 288 0
-74 -287 -288 0
81 249 -279 0
81 -249 279 0
-81 249 279 0
-81 -249 -279 0
20 134 -282 0
20 -134 282 0
-20 134 282 0
-20 -134 -282 0
93 262 -289 0
93 -262 289 0
-93 262 289 0
-93 -262 -289 0
213 283 -290 0
213 -283 290 0
-213 283 290 0
-213 -283 -290 0
142 265 -287 0
142 -265 287 0
-142 265 287 0
-142 -265 -287 0
176 181 -291 0
176 -181 291 0
-176 181 291 0
-176 -181 -291 0
167 214 -285 0
167 -214 285 0
-167 214 285 0
-167 -214 -285 0
21 257 -275 0
21 -257 275 0
-21 257 275 0
-21 -257 -275 0
197 220 -267 0
197 -220 267 0
-197 220 267 0
-197 -220 -267 0
120 255 -292 0
120 -255 292 0
-120 255 292 0
-120 -255 -292 0
99 103 -170 0
99 -103 170 0
-99 103 170 0
-99 -103 -170 0
250 269 -293 0
250 -269 293 0
-250 269 293 0
-250 -269 -293 0
108 247 -280 0
108 -247 280 0
-108 247 280 0
-108 -247 -280 0
11 57 -210 0
11 -57 210 0
-11 57 210 0
-11 -57 -210 0
12 75 -148 0
12 -75 148 0
-12 75 148 0
-12 -75 -148 0
46 151 -294 0
46 -151 294 0
-46 151 294 0
-46 -151 -294 0
48 223 -281 0
48 -223 281 0
-48 223 281 0
-48 -223 -281 0
71 76 -295 0
71 -76 295 0
-71 76 295 0
-71 -76 -295 0
253 296 -297 0
253 -296 297 0
-253 296 297 0
-253 -296 -297 0
211 225 -295 0
211 -225 295 0
-211 225 295 0
-211 -225 -295 0
178 266 -296 0
178 -266 296 0
-178 266 296 0
-178 -266 -296 0
284 291 -292 0
284 -291 292 0
-284 291 292 0
-284 -291 -292 0
49 271 -298 0
49 -271 298 0
-49 271 298 0
-49 -271 -298 0
274 290 -294 0
274 -290 294 0
-274 290 294 0
-274 -290 -294 0
227 298 -299 0
227 -298 299 0
-227 298 299 0
-227 -298 -299 0
83 137 -256 0
83 -137 256 0
-83 137 256 0
-83 -137 -256 0
22 116 -184 0
22 -116 184 0
-22 116 184 0
-22 -116 -184 0
91 203 -286 0
91 -203 286 0
-91 203 286 0
-91 -203 -286 0
44 62 -258 0
44 -62 258 0
-44 62 258 0
-44 -62 -258 0
23 268 -293 0
23 -268 293 0
-23 268 293 0
-23 -268 -293 0
63 228 -276 0
63 -228 276 0
-63 228 276 0
-63 -228 -276 0
231 277 -297 0
231 -277 297 0
-231 277 297 0
-231 -277 -297 0
97 191 -254 0
97 -191 254 0
-97 191 254 0
-97 -191 -254 0
188 196 -221 0
188 -196 221 0
-188 196 221 0
-188 -196 -221 0
121 165 -243 0
121 -165 243 0
-121 165 243 0
-121 -165 -243 0
193 289 -300 0
193 -289 300 0
-193 289 300 0
-193 -289 -300 0
113 239 -299 0
113 -239 299 0
-113 239 299 0
-113 -239 -299 0
122 240 -288 0
122 -240 288 0
-122 240 288 0
-122 -240 -288 0
66 161 -300 0
66 -161 300 0
-66 161 300 0
-66 -161 -300 0
84 132 -261 0
84 -132 261 0
-84 132 261 0
-84 -132 -261 0
