c F4 Tseitin on networkx random_regular_graph(3,60,seed=8), connected=True, odd charge on vertex 1
p cnf 90 240
1 2 3 0
1 -2 -3 0
-1 2 -3 0
-1 -2 3 0
4 5 -6 0
4 -5 6 0
-4 5 6 0
-4 -5 -6 0
7 8 -9 0
7 -8 9 0
-7 8 9 0
-7 -8 -9 0
10 11 -12 0
10 -11 12 0
-10 11 12 0
-10 -11 -12 0
13 14 -15 0
13 -14 15 0
-13 14 15 0
-13 -14 -15 0
16 17 -18 0
16 -17 18 0
-16 17 18 0
-16 -17 -18 0
7 19 -20 0
7 -19 20 0
-7 19 20 0
-7 -19 -20 0
21 22 -23 0
21 -22 23 0
-21 22 23 0
-21 -22 -23 0
24 25 -26 0
24 -25 26 0
-24 25 26 0
-24 -25 -26 0
8 10 -27 0
8 -10 27 0
-8 10 27 0
-8 -10 -27 0
24 28 -29 0
24 -28 29 0
-24 28 29 0
-24 -28 -29 0
30 31 -32 0
30 -31 32 0
-30 31 32 0
-30 -31 -32 0
21 33 -34 0
21 -33 34 0
-21 33 34 0
-21 -33 -34 0
25 35 -36 0
25 -35 36 0
-25 35 36 0
-25 -35 -36 0
37 38 -39 0
37 -38 39 0
-37 38 39 0
-37 -38 -39 0
28 37 -40 0
28 -37 40 0
-28 37 40 0
-28 -37 -40 0
11 33 -41 0
11 -33 41 0
-11 33 41 0
-11 -33 -41 0
42 43 -44 0
42 -43 44 0
-42 43 44 0
-42 -43 -44 0
45 46 -47 0
45 -46 47 0
-45 46 47 0
-45 -46 -47 0
13 48 -49 0
13 -48 49 0
-13 48 49 0
-13 -48 -49 0
9 50 -51 0
9 -50 51 0
-9 50 51 0
-9 -50 -51 0
52 53 -54 0
52 -53 54 0
-52 53 54 0
-52 -53 -54 0
4 55 -56 0
4 -55 56 0
-4 55 56 0
-4 -55 -56 0
57 58 -59 0
57 -58 59 0
-57 58 59 0
-57 -58 -59 0
16 19 -60 0
16 -19 60 0
-16 19 60 0
-16 -19 -60 0
27 61 -62 0
27 -61 62 0
-27 61 62 0
-27 -61 -62 0
20 38 -63 0
20 -38 63 0
-20 38 63 0
-20 -38 -63 0
60 63 -64 0
60 -63 64 0
-60 63 64 0
-60 -63 -64 0
1 65 -66 0
1 -65 66 0
-1 65 66 0
-1 -65 -66 0
50 67 -68 0
50 -67 68 0
-50 67 68 0
-50 -67 -68 0
14 35 -42 0
14 -35 42 0
-14 35 42 0
-14 -35 -42 0
5 57 -69 0
5 -57 69 0
-5 57 69 0
-5 -57 -69 0
34 69 -70 0
34 -69 70 0
-34 69 70 0
-34 -69 -70 0
65 71 -72 0
65 -71 72 0
-65 71 72 0
-65 -71 -72 0
48 71 -73 0
48 -71 73 0
-48 71 73 0
-48 -71 -73 0
36 52 -61 0
36 -52 61 0
-36 52 61 0
-36 -52 -61 0
55 70 -74 0
55 -70 74 0
-55 70 74 0
-55 -70 -74 0
2 67 -75 0
2 -67 75 0
-2 67 75 0
-2 -67 -75 0
40 41 -76 0
40 -41 76 0
-40 41 76 0
-40 -41 -76 0
17 62 -77 0
17 -62 77 0
-17 62 77 0
-17 -62 -77 0
68 78 -79 0
68 -78 79 0
-68 78 79 0
-68 -78 -79 0
22 43 -78 0
22 -43 78 0
-22 43 78 0
-22 -43 -78 0
80 81 -82 0
80 -81 82 0
-80 81 82 0
-80 -81 -82 0
75 83 -84 0
75 -83 84 0
-75 83 84 0
-75 -83 -84 0
6 23 -66 0
6 -23 66 0
-6 23 66 0
-6 -23 -66 0
12 30 -85 0
12 -30 85 0
-12 30 85 0
-12 -30 -85 0
29 76 -80 0
29 -76 80 0
-29 76 80 0
-29 -76 -80 0
56 72 -86 0
56 -72 86 0
-56 72 86 0
-56 -72 -86 0
45 58 -87 0
45 -58 87 0
-45 58 87 0
-45 -58 -87 0
31 74 -88 0
31 -74 88 0
-31 74 88 0
-31 -74 -88 0
46 83 -89 0
46 -83 89 0
-46 83 89 0
-46 -83 -89 0
47 49 -86 0
47 -49 86 0
-47 49 86 0
-47 -49 -86 0
32 79 -88 0
32 -79 88 0
-32 79 88 0
-32 -79 -88 0
39 53 -81 0
39 -53 81 0
-39 53 81 0
-39 -53 -81 0
3 44 -89 0
3 -44 89 0
-3 44 89 0
-3 -44 -89 0
84 85 -90 0
84 -85 90 0
-84 85 90 0
-84 -85 -90 0
26 77 -87 0
26 -77 87 0
-26 77 87 0
-26 -77 -87 0
15 64 -90 0
15 -64 90 0
-15 64 90 0
-15 -64 -90 0
51 59 -73 0
51 -59 73 0
-51 59 73 0
-51 -59 -73 0
18 54 -82 0
18 -54 82 0
-18 54 82 0
-18 -54 -82 0
