c F4 Tseitin on networkx random_regular_graph(3,20,seed=4), connected=True, odd charge on vertex 1
p cnf 30 80
1 2 3 0
1 -2 -3 0
-1 2 -3 0
-1 -2 3 0
4 5 -6 0
4 -5 6 0
-4 5 6 0
-4 -5 -6 0
1 7 -8 0
1 -7 8 0
-1 7 8 0
-1 -7 -8 0
9 10 -11 0
9 -10 11 0
-9 10 11 0
-9 -10 -11 0
4 12 -13 0
4 -12 13 0
-4 12 13 0
-4 -12 -13 0
14 15 -16 0
14 -15 16 0
-14 15 16 0
-14 -15 -16 0
14 17 -18 0
14 -17 18 0
-14 17 18 0
-14 -17 -18 0
2 19 -20 0
2 -19 20 0
-2 19 20 0
-2 -19 -20 0
12 19 -21 0
12 -19 21 0
-12 19 21 0
-12 -19 -21 0
15 22 -23 0
15 -22 23 0
-15 22 23 0
-15 -22 -23 0
16 24 -25 0
16 -24 25 0
-16 24 25 0
-16 -24 -25 0
3 7 -26 0
3 -7 26 0
-3 7 26 0
-3 -7 -26 0
5 20 -24 0
5 -20 24 0
-5 20 24 0
-5 -20 -24 0
25 27 -28 0
25 -27 28 0
-25 27 28 0
-25 -27 -28 0
9 17 -27 0
9 -17 27 0
-9 17 27 0
-9 -17 -27 0
18 22 -29 0
18 -22 29 0
-18 22 29 0
-18 -22 -29 0
10 21 -30 0
10 -21 30 0
-10 21 30 0
-10 -21 -30 0
23 26 -30 0
23 -26 30 0
-23 26 30 0
-23 -26 -30 0
6 11 -28 0
6 -11 28 0
-6 11 28 0
-6 -11 -28 0
8 13 -29 0
8 -13 29 0
-8 13 29 0
-8 -13 -29 0
