c F4 Tseitin on networkx random_regular_graph(3,20,seed=8), connected=True, odd charge on vertex 1
p cnf 30 80
1 2 3 0
1 -2 -3 0
-1 2 -3 0
-1 -2 3 0
1 4 -5 0
1 -4 5 0
-1 4 5 0
-1 -4 -5 0
6 7 -8 0
6 -7 8 0
-6 7 8 0
-6 -7 -8 0
9 10 -11 0
9 -10 11 0
-9 10 11 0
-9 -10 -11 0
12 13 -14 0
12 -13 14 0
-12 13 14 0
-12 -13 -14 0
2 15 -16 0
2 -15 16 0
-2 15 16 0
-2 -15 -16 0
6 15 -17 0
6 -15 17 0
-6 15 17 0
-6 -15 -17 0
12 18 -19 0
12 -18 19 0
-12 18 19 0
-12 -18 -19 0
9 17 -20 0
9 -17 20 0
-9 17 20 0
-9 -17 -20 0
10 13 -21 0
10 -13 21 0
-10 13 21 0
-10 -13 -21 0
22 23 -24 0
22 -23 24 0
-22 23 24 0
-22 -23 -24 0
7 22 -25 0
7 -22 25 0
-7 22 25 0
-7 -22 -25 0
4 8 -25 0
4 -8 25 0
-4 8 25 0
-4 -8 -25 0
3 5 -26 0
3 -5 26 0
-3 5 26 0
-3 -5 -26 0
27 28 -29 0
27 -28 29 0
-27 28 29 0
-27 -28 -29 0
11 27 -30 0
11 -27 30 0
-11 27 30 0
-11 -27 -30 0
18 20 -26 0
18 -20 26 0
-18 20 26 0
-18 -20 -26 0
16 23 -28 0
16 -23 28 0
-16 23 28 0
-16 -23 -28 0
14 21 -29 0
14 -21 29 0
-14 21 29 0
-14 -21 -29 0
19 24 -30 0
19 -24 30 0
-19 24 30 0
-19 -24 -30 0
