c F4 Tseitin on networkx random_regular_graph(3,150,seed=2), connected=True, odd charge on vertex 1
p cnf 225 600
1 2 3 0
1 -2 -3 0
-1 2 -3 0
-1 -2 3 0
4 5 -6 0
4 -5 6 0
-4 5 6 0
-4 -5 -6 0
7 8 -9 0
7 -8 9 0
-7 8 9 0
-7 -8 -9 0
10 11 -12 0
10 -11 12 0
-10 11 12 0
-10 -11 -12 0
10 13 -14 0
10 -13 14 0
-10 13 14 0
-10 -13 -14 0
15 16 -17 0
15 -16 17 0
-15 16 17 0
-15 -16 -17 0
18 19 -20 0
18 -19 20 0
-18 19 20 0
-18 -19 -20 0
21 22 -23 0
21 -22 23 0
-21 22 23 0
-21 -22 -23 0
24 25 -26 0
24 -25 26 0
-24 25 26 0
-24 -25 -26 0
27 28 -29 0
27 -28 29 0
-27 28 29 0
-27 -28 -29 0
30 31 -32 0
30 -31 32 0
-30 31 32 0
-30 -31 -32 0
33 34 -35 0
33 -34 35 0
-33 34 35 0
-33 -34 -35 0
24 36 -37 0
24 -36 37 0
-24 36 37 0
-24 -36 -37 0
36 38 -39 0
36 -38 39 0
-36 38 39 0
-36 -38 -39 0
27 40 -41 0
27 -40 41 0
-27 40 41 0
-27 -40 -41 0
42 43 -44 0
42 -43 44 0
-42 43 44 0
-42 -43 -44 0
45 46 -47 0
45 -46 47 0
-45 46 47 0
-45 -46 -47 0
48 49 -50 0
48 -49 50 0
-48 49 50 0
-48 -49 -50 0
51 52 -53 0
51 -52 53 0
-51 52 53 0
-51 -52 -53 0
4 54 -55 0
4 -54 55 0
-4 54 55 0
-4 -54 -55 0
15 56 -57 0
15 -56 57 0
-15 56 57 0
-15 -56 -57 0
11 58 -59 0
11 -58 59 0
-11 58 59 0
-11 -58 -59 0
60 61 -62 0
60 -61 62 0
-60 61 62 0
-60 -61 -62 0
63 64 -65 0
63 -64 65 0
-63 64 65 0
-63 -64 -65 0
66 67 -68 0
66 -67 68 0
-66 67 68 0
-66 -67 -68 0
63 69 -70 0
63 -69 70 0
-63 69 70 0
-63 -69 -70 0
45 71 -72 0
45 -71 72 0
-45 71 72 0
-45 -71 -72 0
73 74 -75 0
73 -74 75 0
-73 74 75 0
-73 -74 -75 0
46 76 -77 0
46 -76 77 0
-46 76 77 0
-46 -76 -77 0
5 78 -79 0
5 -78 79 0
-5 78 79 0
-5 -78 -79 0
28 80 -81 0
28 -80 81 0
-28 80 81 0
-28 -80 -81 0
82 83 -84 0
82 -83 84 0
-82 83 84 0
-82 -83 -84 0
80 85 -86 0
80 -85 86 0
-80 85 86 0
-80 -85 -86 0
87 88 -89 0
87 -88 89 0
-87 88 89 0
-87 -88 -89 0
78 90 -91 0
78 -90 91 0
-78 90 91 0
-78 -90 -91 0
21 92 -93 0
21 -92 93 0
-21 92 93 0
-21 -92 -93 0
30 94 -95 0
30 -94 95 0
-30 94 95 0
-30 -94 -95 0
48 87 -96 0
48 -87 96 0
-48 87 96 0
-48 -87 -96 0
97 98 -99 0
97 -98 99 0
-97 98 99 0
-97 -98 -99 0
13 76 -100 0
13 -76 100 0
-13 76 100 0
-13 -76 -100 0
40 60 -101 0
40 -60 101 0
-40 60 101 0
-40 -60 -101 0
71 102 -103 0
71 -102 103 0
-71 102 103 0
-71 -102 -103 0
104 105 -106 0
104 -105 106 0
-104 105 106 0
-104 -105 -106 0
33 107 -108 0
33 -107 108 0
-33 107 108 0
-33 -107 -108 0
94 109 -110 0
94 -109 110 0
-94 109 110 0
-94 -109 -110 0
111 112 -113 0
111 -112 113 0
-111 112 113 0
-111 -112 -113 0
42 47 -114 0
42 -47 114 0
-42 47 114 0
-42 -47 -114 0
115 116 -117 0
115 -116 117 0
-115 116 117 0
-115 -116 -117 0
118 119 -120 0
118 -119 120 0
-118 119 120 0
-118 -119 -120 0
121 122 -123 0
121 -122 123 0
-121 122 123 0
-121 -122 -123 0
16 124 -125 0
16 -124 125 0
-16 124 125 0
-16 -124 -125 0
126 127 -128 0
126 -127 128 0
-126 127 128 0
-126 -127 -128 0
129 130 -131 0
129 -130 131 0
-129 130 131 0
-129 -130 -131 0
132 133 -134 0
132 -133 134 0
-132 133 134 0
-132 -133 -134 0
69 129 -135 0
69 -129 135 0
-69 129 135 0
-69 -129 -135 0
25 136 -137 0
25 -136 137 0
-25 136 137 0
-25 -136 -137 0
121 138 -139 0
121 -138 139 0
-121 138 139 0
-121 -138 -139 0
66 140 -141 0
66 -140 141 0
-66 140 141 0
-66 -140 -141 0
104 142 -143 0
104 -142 143 0
-104 142 143 0
-104 -142 -143 0
12 64 -77 0
12 -64 77 0
-12 64 77 0
-12 -64 -77 0
61 144 -145 0
61 -144 145 0
-61 144 145 0
-61 -144 -145 0
34 115 -146 0
34 -115 146 0
-34 115 146 0
-34 -115 -146 0
126 147 -148 0
126 -147 148 0
-126 147 148 0
-126 -147 -148 0
135 149 -150 0
135 -149 150 0
-135 149 150 0
-135 -149 -150 0
7 151 -152 0
7 -151 152 0
-7 151 152 0
-7 -151 -152 0
118 153 -154 0
118 -153 154 0
-118 153 154 0
-118 -153 -154 0
153 155 -156 0
153 -155 156 0
-153 155 156 0
-153 -155 -156 0
142 144 -157 0
142 -144 157 0
-142 144 157 0
-142 -144 -157 0
85 158 -159 0
85 -158 159 0
-85 158 159 0
-85 -158 -159 0
73 88 -136 0
73 -88 136 0
-73 88 136 0
-73 -88 -136 0
8 95 -160 0
8 -95 160 0
-8 95 160 0
-8 -95 -160 0
161 162 -163 0
161 -162 163 0
-161 162 163 0
-161 -162 -163 0
164 165 -166 0
164 -165 166 0
-164 165 166 0
-164 -165 -166 0
72 97 -161 0
72 -97 161 0
-72 97 161 0
-72 -97 -161 0
167 168 -169 0
167 -168 169 0
-167 168 169 0
-167 -168 -169 0
82 170 -171 0
82 -170 171 0
-82 170 171 0
-82 -170 -171 0
86 172 -173 0
86 -172 173 0
-86 172 173 0
-86 -172 -173 0
43 90 -164 0
43 -90 164 0
-43 90 164 0
-43 -90 -164 0
158 174 -175 0
158 -174 175 0
-158 174 175 0
-158 -174 -175 0
17 167 -176 0
17 -167 176 0
-17 167 176 0
-17 -167 -176 0
98 130 -177 0
98 -130 177 0
-98 130 177 0
-98 -130 -177 0
124 178 -179 0
124 -178 179 0
-124 178 179 0
-124 -178 -179 0
180 181 -182 0
180 -181 182 0
-180 181 182 0
-180 -181 -182 0
180 183 -184 0
180 -183 184 0
-180 183 184 0
-180 -183 -184 0
185 186 -187 0
185 -186 187 0
-185 186 187 0
-185 -186 -187 0
58 92 -111 0
58 -92 111 0
-58 92 111 0
-58 -92 -111 0
9 35 -188 0
9 -35 188 0
-9 35 188 0
-9 -35 -188 0
112 147 -165 0
112 -147 165 0
-112 147 165 0
-112 -147 -165 0
6 189 -190 0
6 -189 190 0
-6 189 190 0
-6 -189 -190 0
96 178 -189 0
96 -178 189 0
-96 178 189 0
-96 -178 -189 0
81 137 -191 0
81 -137 191 0
-81 137 191 0
-81 -137 -191 0
105 116 -192 0
105 -116 192 0
-105 116 192 0
-105 -116 -192 0
51 149 -193 0
51 -149 193 0
-51 149 193 0
-51 -149 -193 0
18 101 -194 0
18 -101 194 0
-18 101 194 0
-18 -101 -194 0
100 170 -181 0
100 -170 181 0
-100 170 181 0
-100 -170 -181 0
109 168 -195 0
109 -168 195 0
-109 168 195 0
-109 -168 -195 0
29 150 -196 0
29 -150 196 0
-29 150 196 0
-29 -150 -196 0
102 132 -197 0
102 -132 197 0
-102 132 197 0
-102 -132 -197 0
179 198 -199 0
179 -198 199 0
-179 198 199 0
-179 -198 -199 0
138 200 -201 0
138 -200 201 0
-138 200 201 0
-138 -200 -201 0
38 44 -65 0
38 -44 65 0
-38 44 65 0
-38 -44 -65 0
143 185 -200 0
143 -185 200 0
-143 185 200 0
-143 -185 -200 0
174 202 -203 0
174 -202 203 0
-174 202 203 0
-174 -202 -203 0
125 159 -194 0
125 -159 194 0
-125 159 194 0
-125 -159 -194 0
22 151 -204 0
22 -151 204 0
-22 151 204 0
-22 -151 -204 0
183 198 -205 0
183 -198 205 0
-183 198 205 0
-183 -198 -205 0
176 184 -201 0
176 -184 201 0
-176 184 201 0
-176 -184 -201 0
67 162 -206 0
67 -162 206 0
-67 162 206 0
-67 -162 -206 0
59 145 -157 0
59 -145 157 0
-59 145 157 0
-59 -145 -157 0
39 207 -208 0
39 -207 208 0
-39 207 208 0
-39 -207 -208 0
74 117 -209 0
74 -117 209 0
-74 117 209 0
-74 -117 -209 0
1 110 -171 0
1 -110 171 0
-1 110 171 0
-1 -110 -171 0
37 160 -210 0
37 -160 210 0
-37 160 210 0
-37 -160 -210 0
197 211 -212 0
197 -211 212 0
-197 211 212 0
-197 -211 -212 0
140 169 -207 0
140 -169 207 0
-140 169 207 0
-140 -169 -207 0
119 127 -213 0
119 -127 213 0
-119 127 213 0
-119 -127 -213 0
62 107 -204 0
62 -107 204 0
-62 107 204 0
-62 -107 -204 0
214 215 -216 0
214 -215 216 0
-214 215 216 0
-214 -215 -216 0
202 214 -217 0
202 -214 217 0
-202 214 217 0
-202 -214 -217 0
23 56 -122 0
23 -56 122 0
-23 56 122 0
-23 -56 -122 0
217 218 -219 0
217 -218 219 0
-217 218 219 0
-217 -218 -219 0
133 172 -191 0
133 -172 191 0
-133 172 191 0
-133 -172 -191 0
19 154 -199 0
19 -154 199 0
-19 154 199 0
-19 -154 -199 0
123 203 -220 0
123 -203 220 0
-123 203 220 0
-123 -203 -220 0
31 211 -221 0
31 -211 221 0
-31 211 221 0
-31 -211 -221 0
26 52 -208 0
26 -52 208 0
-26 52 208 0
-26 -52 -208 0
41 152 -166 0
41 -152 166 0
-41 152 166 0
-41 -152 -166 0
70 128 -215 0
70 -128 215 0
-70 128 215 0
-70 -128 -215 0
54 106 -216 0
54 -106 216 0
-54 106 216 0
-54 -106 -216 0
79 155 -196 0
79 -155 196 0
-79 155 196 0
-79 -155 -196 0
120 141 -220 0
120 -141 220 0
-120 141 220 0
-120 -141 -220 0
75 108 -205 0
75 -108 205 0
-75 108 205 0
-75 -108 -205 0
32 89 -218 0
32 -89 218 0
-32 89 218 0
-32 -89 -218 0
182 222 -223 0
182 -222 223 0
-182 222 223 0
-182 -222 -223 0
20 53 -213 0
20 -53 213 0
-20 53 213 0
-20 -53 -213 0
57 212 -224 0
57 -212 224 0
-57 212 224 0
-57 -212 -224 0
83 206 -222 0
83 -206 222 0
-83 206 222 0
-83 -206 -222 0
113 131 -186 0
113 -131 186 0
-113 131 186 0
-113 -131 -186 0
173 177 -225 0
173 -177 225 0
-173 177 225 0
-173 -177 -225 0
49 134 -210 0
49 -134 210 0
-49 134 210 0
-49 -134 -210 0
99 195 -223 0
99 -195 223 0
-99 195 223 0
-99 -195 -223 0
2 50 -68 0
2 -50 68 0
-2 50 68 0
-2 -50 -68 0
84 114 -146 0
84 -114 146 0
-84 114 146 0
-84 -114 -146 0
14 163 -192 0
14 -163 192 0
-14 163 192 0
-14 -163 -192 0
3 139 -224 0
3 -139 224 0
-3 139 224 0
-3 -139 -224 0
91 190 -209 0
91 -190 209 0
-91 190 209 0
-91 -190 -209 0
55 148 -193 0
55 -148 193 0
-55 148 193 0
-55 -148 -193 0
156 219 -221 0
156 -219 221 0
-156 219 221 0
-156 -219 -221 0
93 187 -225 0
93 -187 225 0
-93 187 225 0
-93 -187 -225 0
103 175 -188 0
103 -175 188 0
-103 175 188 0
-103 -175 -188 0
