c F4 Tseitin on networkx random_regular_graph(3,20,seed=0), connected=True, odd charge on vertex 1
p cnf 30 80
1 2 3 0
1 -2 -3 0
-1 2 -3 0
-1 -2 3 0
1 4 -5 0
1 -4 5 0
-1 4 5 0
-1 -4 -5 0
6 7 -8 0
6 -7 8 0
-6 7 8 0
-6 -7 -8 0
9 10 -11 0
9 -10 11 0
-9 10 11 0
-9 -10 -11 0
4 6 -12 0
4 -6 12 0
-4 6 12 0
-4 -6 -12 0
13 14 -15 0
13 -14 15 0
-13 14 15 0
-13 -14 -15 0
7 9 -16 0
7 -9 16 0
-7 9 16 0
-7 -9 -16 0
10 13 -17 0
10 -13 17 0
-10 13 17 0
-10 -13 -17 0
18 19 -20 0
18 -19 20 0
-18 19 20 0
-18 -19 -20 0
2 21 -22 0
2 -21 22 0
-2 21 22 0
-2 -21 -22 0
14 17 -23 0
14 -17 23 0
-14 17 23 0
-14 -17 -23 0
11 15 -16 0
11 -15 16 0
-11 15 16 0
-11 -15 -16 0
24 25 -26 0
24 -25 26 0
-24 25 26 0
-24 -25 -26 0
24 27 -28 0
24 -27 28 0
-24 27 28 0
-24 -27 -28 0
12 21 -29 0
12 -21 29 0
-12 21 29 0
-12 -21 -29 0
3 29 -30 0
3 -29 30 0
-3 29 30 0
-3 -29 -30 0
18 22 -25 0
18 -22 25 0
-18 22 25 0
-18 -22 -25 0
8 26 -27 0
8 -26 27 0
-8 26 27 0
-8 -26 -27 0
5 19 -30 0
5 -19 30 0
-5 19 30 0
-5 -19 -30 0
20 23 -28 0
20 -23 28 0
-20 23 28 0
-20 -23 -28 0
