c F4 Tseitin on networkx random_regular_graph(3,20,seed=5), connected=True, odd charge on vertex 1
p cnf 30 80
1 2 3 0
1 -2 -3 0
-1 2 -3 0
-1 -2 3 0
4 5 -6 0
4 -5 6 0
-4 5 6 0
-4 -5 -6 0
4 7 -8 0
4 -7 8 0
-4 7 8 0
-4 -7 -8 0
9 10 -11 0
9 -10 11 0
-9 10 11 0
-9 -10 -11 0
12 13 -14 0
12 -13 14 0
-12 13 14 0
-12 -13 -14 0
9 15 -16 0
9 -15 16 0
-9 15 16 0
-9 -15 -16 0
10 17 -18 0
10 -17 18 0
-10 17 18 0
-10 -17 -18 0
7 19 -20 0
7 -19 20 0
-7 19 20 0
-7 -19 -20 0
11 21 -22 0
11 -21 22 0
-11 21 22 0
-11 -21 -22 0
23 24 -25 0
23 -24 25 0
-23 24 25 0
-23 -24 -25 0
1 19 -23 0
1 -19 23 0
-1 19 23 0
-1 -19 -23 0
2 12 -21 0
2 -12 21 0
-2 12 21 0
-2 -12 -21 0
8 15 -24 0
8 -15 24 0
-8 15 24 0
-8 -15 -24 0
17 26 -27 0
17 -26 27 0
-17 26 27 0
-17 -26 -27 0
18 22 -26 0
18 -22 26 0
-18 22 26 0
-18 -22 -26 0
5 27 -28 0
5 -27 28 0
-5 27 28 0
-5 -27 -28 0
3 13 -29 0
3 -13 29 0
-3 13 29 0
-3 -13 -29 0
14 16 -30 0
14 -16 30 0
-14 16 30 0
-14 -16 -30 0
25 28 -30 0
25 -28 30 0
-25 28 30 0
-25 -28 -30 0
6 20 -29 0
6 -20 29 0
-6 20 29 0
-6 -20 -29 0
