c F4 Tseitin on networkx random_regular_graph(3,150,seed=8), connected=True, odd charge on vertex 1
p cnf 225 600
1 2 3 0
1 -2 -3 0
-1 2 -3 0
-1 -2 3 0
4 5 -6 0
4 -5 6 0
-4 5 6 0
-4 -5 -6 0
7 8 -9 0
7 -8 9 0
-7 8 9 0
-7 -8 -9 0
10 11 -12 0
10 -11 12 0
-10 11 12 0
-10 -11 -12 0
13 14 -15 0
13 -14 15 0
-13 14 15 0
-13 -14 -15 0
16 17 -18 0
16 -17 18 0
-16 17 18 0
-16 -17 -18 0
4 19 -20 0
4 -19 20 0
-4 19 20 0
-4 -19 -20 0
21 22 -23 0
21 -22 23 0
-21 22 23 0
-21 -22 -23 0
24 25 -26 0
24 -25 26 0
-24 25 26 0
-24 -25 -26 0
27 28 -29 0
27 -28 29 0
-27 28 29 0
-27 -28 -29 0
30 31 -32 0
30 -31 32 0
-30 31 32 0
-30 -31 -32 0
33 34 -35 0
33 -34 35 0
-33 34 35 0
-33 -34 -35 0
21 36 -37 0
21 -36 37 0
-21 36 37 0
-21 -36 -37 0
38 39 -40 0
38 -39 40 0
-38 39 40 0
-38 -39 -40 0
41 42 -43 0
41 -42 43 0
-41 42 43 0
-41 -42 -43 0
44 45 -46 0
44 -45 46 0
-44 45 46 0
-44 -45 -46 0
47 48 -49 0
47 -48 49 0
-47 48 49 0
-47 -48 -49 0
50 51 -52 0
50 -51 52 0
-50 51 52 0
-50 -51 -52 0
53 54 -55 0
53 -54 55 0
-53 54 55 0
-53 -54 -55 0
36 56 -57 0
36 -56 57 0
-36 56 57 0
-36 -56 -57 0
24 58 -59 0
24 -58 59 0
-24 58 59 0
-24 -58 -59 0
25 60 -61 0
25 -60 61 0
-25 60 61 0
-25 -60 -61 0
62 63 -64 0
62 -63 64 0
-62 63 64 0
-62 -63 -64 0
19 65 -66 0
19 -65 66 0
-19 65 66 0
-19 -65 -66 0
67 68 -69 0
67 -68 69 0
-67 68 69 0
-67 -68 -69 0
70 71 -72 0
70 -71 72 0
-70 71 72 0
-70 -71 -72 0
73 74 -75 0
73 -74 75 0
-73 74 75 0
-73 -74 -75 0
76 77 -78 0
76 -77 78 0
-76 77 78 0
-76 -77 -78 0
44 60 -76 0
44 -60 76 0
-44 60 76 0
-44 -60 -76 0
79 80 -81 0
79 -80 81 0
-79 80 81 0
-79 -80 -81 0
82 83 -84 0
82 -83 84 0
-82 83 84 0
-82 -83 -84 0
85 86 -87 0
85 -86 87 0
-85 86 87 0
-85 -86 -87 0
88 89 -90 0
88 -89 90 0
-88 89 90 0
-88 -89 -90 0
91 92 -93 0
91 -92 93 0
-91 92 93 0
-91 -92 -93 0
10 94 -95 0
10 -94 95 0
-10 94 95 0
-10 -94 -95 0
5 96 -97 0
5 -96 97 0
-5 96 97 0
-5 -96 -97 0
98 99 -100 0
98 -99 100 0
-98 99 100 0
-98 -99 -100 0
47 101 -102 0
47 -101 102 0
-47 101 102 0
-47 -101 -102 0
79 103 -104 0
79 -103 104 0
-79 103 104 0
-79 -103 -104 0
53 105 -106 0
53 -105 106 0
-53 105 106 0
-53 -105 -106 0
54 107 -108 0
54 -107 108 0
-54 107 108 0
-54 -107 -108 0
101 109 -110 0
101 -109 110 0
-101 109 110 0
-101 -109 -110 0
111 112 -113 0
111 -112 113 0
-111 112 113 0
-111 -112 -113 0
62 114 -115 0
62 -114 115 0
-62 114 115 0
-62 -114 -115 0
116 117 -118 0
116 -117 118 0
-116 117 118 0
-116 -117 -118 0
119 120 -121 0
119 -120 121 0
-119 120 121 0
-119 -120 -121 0
122 123 -124 0
122 -123 124 0
-122 123 124 0
-122 -123 -124 0
50 125 -126 0
50 -125 126 0
-50 125 126 0
-50 -125 -126 0
127 128 -129 0
127 -128 129 0
-127 128 129 0
-127 -128 -129 0
88 130 -131 0
88 -130 131 0
-88 130 131 0
-88 -130 -131 0
38 70 -132 0
38 -70 132 0
-38 70 132 0
-38 -70 -132 0
13 133 -134 0
13 -133 134 0
-13 133 134 0
-13 -133 -134 0
135 136 -137 0
135 -136 137 0
-135 136 137 0
-135 -136 -137 0
103 116 -138 0
103 -116 138 0
-103 116 138 0
-103 -116 -138 0
139 140 -141 0
139 -140 141 0
-139 140 141 0
-139 -140 -141 0
114 142 -143 0
114 -142 143 0
-114 142 143 0
-114 -142 -143 0
63 119 -133 0
63 -119 133 0
-63 119 133 0
-63 -119 -133 0
85 144 -145 0
85 -144 145 0
-85 144 145 0
-85 -144 -145 0
146 147 -148 0
146 -147 148 0
-146 147 148 0
-146 -147 -148 0
135 149 -150 0
135 -149 150 0
-135 149 150 0
-135 -149 -150 0
16 151 -152 0
16 -151 152 0
-16 151 152 0
-16 -151 -152 0
61 73 -153 0
61 -73 153 0
-61 73 153 0
-61 -73 -153 0
82 154 -155 0
82 -154 155 0
-82 154 155 0
-82 -154 -155 0
156 157 -158 0
156 -157 158 0
-156 157 158 0
-156 -157 -158 0
111 159 -160 0
111 -159 160 0
-111 159 160 0
-111 -159 -160 0
80 83 -161 0
80 -83 161 0
-80 83 161 0
-80 -83 -161 0
41 162 -163 0
41 -162 163 0
-41 162 163 0
-41 -162 -163 0
33 164 -165 0
33 -164 165 0
-33 164 165 0
-33 -164 -165 0
42 166 -167 0
42 -166 167 0
-42 166 167 0
-42 -166 -167 0
45 136 -166 0
45 -136 166 0
-45 136 166 0
-45 -136 -166 0
168 169 -170 0
168 -169 170 0
-168 169 170 0
-168 -169 -170 0
127 146 -171 0
127 -146 171 0
-127 146 171 0
-127 -146 -171 0
96 172 -173 0
96 -172 173 0
-96 172 173 0
-96 -172 -173 0
156 174 -175 0
156 -174 175 0
-156 174 175 0
-156 -174 -175 0
144 176 -177 0
144 -176 177 0
-144 176 177 0
-144 -176 -177 0
178 179 -180 0
178 -179 180 0
-178 179 180 0
-178 -179 -180 0
162 168 -181 0
162 -168 181 0
-162 168 181 0
-162 -168 -181 0
161 167 -182 0
161 -167 182 0
-161 167 182 0
-161 -167 -182 0
138 183 -184 0
138 -183 184 0
-138 183 184 0
-138 -183 -184 0
1 120 -176 0
1 -120 176 0
-1 120 176 0
-1 -120 -176 0
91 117 -185 0
91 -117 185 0
-91 117 185 0
-91 -117 -185 0
22 94 -186 0
22 -94 186 0
-22 94 186 0
-22 -94 -186 0
130 187 -188 0
130 -187 188 0
-130 187 188 0
-130 -187 -188 0
189 190 -191 0
189 -190 191 0
-189 190 191 0
-189 -190 -191 0
58 92 -192 0
58 -92 192 0
-58 92 192 0
-58 -92 -192 0
39 159 -193 0
39 -159 193 0
-39 159 193 0
-39 -159 -193 0
2 181 -194 0
2 -181 194 0
-2 181 194 0
-2 -181 -194 0
14 121 -195 0
14 -121 195 0
-14 121 195 0
-14 -121 -195 0
30 48 -128 0
30 -48 128 0
-30 48 128 0
-30 -48 -128 0
97 157 -196 0
97 -157 196 0
-97 157 196 0
-97 -157 -196 0
197 198 -199 0
197 -198 199 0
-197 198 199 0
-197 -198 -199 0
64 122 -164 0
64 -122 164 0
-64 122 164 0
-64 -122 -164 0
3 118 -200 0
3 -118 200 0
-3 118 200 0
-3 -118 -200 0
51 189 -201 0
51 -189 201 0
-51 189 201 0
-51 -189 -201 0
15 37 -202 0
15 -37 202 0
-15 37 202 0
-15 -37 -202 0
43 203 -204 0
43 -203 204 0
-43 203 204 0
-43 -203 -204 0
77 177 -205 0
77 -177 205 0
-77 177 205 0
-77 -177 -205 0
197 206 -207 0
197 -206 207 0
-197 206 207 0
-197 -206 -207 0
11 151 -208 0
11 -151 208 0
-11 151 208 0
-11 -151 -208 0
31 178 -193 0
31 -178 193 0
-31 178 193 0
-31 -178 -193 0
107 134 -149 0
107 -134 149 0
-107 134 149 0
-107 -134 -149 0
26 209 -210 0
26 -209 210 0
-26 209 210 0
-26 -209 -210 0
27 211 -212 0
27 -211 212 0
-27 211 212 0
-27 -211 -212 0
169 187 -213 0
169 -187 213 0
-169 187 213 0
-169 -187 -213 0
40 89 -154 0
40 -89 154 0
-40 89 154 0
-40 -89 -154 0
6 17 -109 0
6 -17 109 0
-6 17 109 0
-6 -17 -109 0
125 179 -214 0
125 -179 214 0
-125 179 214 0
-125 -179 -214 0
56 67 -142 0
56 -67 142 0
-56 67 142 0
-56 -67 -142 0
32 132 -183 0
32 -132 183 0
-32 132 183 0
-32 -132 -183 0
145 215 -216 0
145 -215 216 0
-145 215 216 0
-145 -215 -216 0
34 155 -160 0
34 -155 160 0
-34 155 160 0
-34 -155 -160 0
35 86 -98 0
35 -86 98 0
-35 86 98 0
-35 -86 -98 0
192 198 -217 0
192 -198 217 0
-192 198 217 0
-192 -198 -217 0
49 180 -218 0
49 -180 218 0
-49 180 218 0
-49 -180 -218 0
126 211 -214 0
126 -211 214 0
-126 211 214 0
-126 -211 -214 0
71 188 -215 0
71 -188 215 0
-71 188 215 0
-71 -188 -215 0
105 147 -184 0
105 -147 184 0
-105 147 184 0
-105 -147 -184 0
123 139 -190 0
123 -139 190 0
-123 139 190 0
-123 -139 -190 0
52 59 -171 0
52 -59 171 0
-52 59 171 0
-52 -59 -171 0
7 95 -208 0
7 -95 208 0
-7 95 208 0
-7 -95 -208 0
65 219 -220 0
65 -219 220 0
-65 219 220 0
-65 -219 -220 0
203 218 -221 0
203 -218 221 0
-203 218 221 0
-203 -218 -221 0
201 216 -222 0
201 -216 222 0
-201 216 222 0
-201 -216 -222 0
28 74 -209 0
28 -74 209 0
-28 74 209 0
-28 -74 -209 0
72 75 -199 0
72 -75 199 0
-72 75 199 0
-72 -75 -199 0
196 204 -223 0
196 -204 223 0
-196 204 223 0
-196 -204 -223 0
12 57 -170 0
12 -57 170 0
-12 57 170 0
-12 -57 -170 0
20 29 -108 0
20 -29 108 0
-20 29 108 0
-20 -29 -108 0
131 153 -206 0
131 -153 206 0
-131 153 206 0
-131 -153 -206 0
81 137 -217 0
81 -137 217 0
-81 137 217 0
-81 -137 -217 0
163 200 -210 0
163 -200 210 0
-163 200 210 0
-163 -200 -210 0
18 152 -195 0
18 -152 195 0
-18 152 195 0
-18 -152 -195 0
106 165 -185 0
106 -165 185 0
-106 165 185 0
-106 -165 -185 0
8 46 -143 0
8 -46 143 0
-8 46 143 0
-8 -46 -143 0
84 172 -222 0
84 -172 222 0
-84 172 222 0
-84 -172 -222 0
66 90 -93 0
66 -90 93 0
-66 90 93 0
-66 -90 -93 0
148 205 -224 0
148 -205 224 0
-148 205 224 0
-148 -205 -224 0
87 112 -219 0
87 -112 219 0
-87 112 219 0
-87 -112 -219 0
99 150 -224 0
99 -150 224 0
-99 150 224 0
-99 -150 -224 0
207 212 -225 0
207 -212 225 0
-207 212 225 0
-207 -212 -225 0
55 78 -110 0
55 -78 110 0
-55 78 110 0
-55 -78 -110 0
102 104 -174 0
102 -104 174 0
-102 104 174 0
-102 -104 -174 0
100 113 -140 0
100 -113 140 0
-100 113 140 0
-100 -113 -140 0
68 115 -213 0
68 -115 213 0
-68 115 213 0
-68 -115 -213 0
124 141 -158 0
124 -141 158 0
-124 141 158 0
-124 -141 -158 0
194 220 -223 0
194 -220 223 0
-194 220 223 0
-194 -220 -223 0
182 186 -191 0
182 -186 191 0
-182 186 191 0
-182 -186 -191 0
9 129 -173 0
9 -129 173 0
-9 129 173 0
-9 -129 -173 0
69 202 -225 0
69 -202 225 0
-69 202 225 0
-69 -202 -225 0
23 175 -221 0
23 -175 221 0
-23 175 221 0
-23 -175 -221 0
