c F4 Tseitin on networkx random_regular_graph(3,150,seed=9), connected=True, odd charge on vertex 1
p cnf 225 600
1 2 3 0
1 -2 -3 0
-1 2 -3 0
-1 -2 3 0
4 5 -6 0
4 -5 6 0
-4 5 6 0
-4 -5 -6 0
7 8 -9 0
7 -8 9 0
-7 8 9 0
-7 -8 -9 0
10 11 -12 0
10 -11 12 0
-10 11 12 0
-10 -11 -12 0
13 14 -15 0
13 -14 15 0
-13 14 15 0
-13 -14 -15 0
4 16 -17 0
4 -16 17 0
-4 16 17 0
-4 -16 -17 0
18 19 -20 0
18 -19 20 0
-18 19 20 0
-18 -19 -20 0
21 22 -23 0
21 -22 23 0
-21 22 23 0
-21 -22 -23 0
24 25 -26 0
24 -25 26 0
-24 25 26 0
-24 -25 -26 0
27 28 -29 0
27 -28 29 0
-27 28 29 0
-27 -28 -29 0
1 30 -31 0
1 -30 31 0
-1 30 31 0
-1 -30 -31 0
32 33 -34 0
32 -33 34 0
-32 33 34 0
-32 -33 -34 0
35 36 -37 0
35 -36 37 0
-35 36 37 0
-35 -36 -37 0
38 39 -40 0
38 -39 40 0
-38 39 40 0
-38 -39 -40 0
41 42 -43 0
41 -42 43 0
-41 42 43 0
-41 -42 -43 0
44 45 -46 0
44 -45 46 0
-44 45 46 0
-44 -45 -46 0
47 48 -49 0
47 -48 49 0
-47 48 49 0
-47 -48 -49 0
50 51 -52 0
50 -51 52 0
-50 51 52 0
-50 -51 -52 0
2 53 -54 0
2 -53 54 0
-2 53 54 0
-2 -53 -54 0
13 55 -56 0
13 -55 56 0
-13 55 56 0
-13 -55 -56 0
57 58 -59 0
57 -58 59 0
-57 58 59 0
-57 -58 -59 0
60 61 -62 0
60 -61 62 0
-60 61 62 0
-60 -61 -62 0
63 64 -65 0
63 -64 65 0
-63 64 65 0
-63 -64 -65 0
10 66 -67 0
10 -66 67 0
-10 66 67 0
-10 -66 -67 0
68 69 -70 0
68 -69 70 0
-68 69 70 0
-68 -69 -70 0
11 44 -71 0
11 -44 71 0
-11 44 71 0
-11 -44 -71 0
72 73 -74 0
72 -73 74 0
-72 73 74 0
-72 -73 -74 0
60 75 -76 0
60 -75 76 0
-60 75 76 0
-60 -75 -76 0
16 77 -78 0
16 -77 78 0
-16 77 78 0
-16 -77 -78 0
41 79 -80 0
41 -79 80 0
-41 79 80 0
-41 -79 -80 0
5 61 -81 0
5 -61 81 0
-5 61 81 0
-5 -61 -81 0
21 68 -82 0
21 -68 82 0
-21 68 82 0
-21 -68 -82 0
83 84 -85 0
83 -84 85 0
-83 84 85 0
-83 -84 -85 0
86 87 -88 0
86 -87 88 0
-86 87 88 0
-86 -87 -88 0
89 90 -91 0
89 -90 91 0
-89 90 91 0
-89 -90 -91 0
47 92 -93 0
47 -92 93 0
-47 92 93 0
-47 -92 -93 0
94 95 -96 0
94 -95 96 0
-94 95 96 0
-94 -95 -96 0
97 98 -99 0
97 -98 99 0
-97 98 99 0
-97 -98 -99 0
50 100 -101 0
50 -100 101 0
-50 100 101 0
-50 -100 -101 0
89 94 -102 0
89 -94 102 0
-89 94 102 0
-89 -94 -102 0
103 104 -105 0
103 -104 105 0
-103 104 105 0
-103 -104 -105 0
27 106 -107 0
27 -106 107 0
-27 106 107 0
-27 -106 -107 0
72 108 -109 0
72 -108 109 0
-72 108 109 0
-72 -108 -109 0
110 111 -112 0
110 -111 112 0
-110 111 112 0
-110 -111 -112 0
57 113 -114 0
57 -113 114 0
-57 113 114 0
-57 -113 -114 0
48 115 -116 0
48 -115 116 0
-48 115 116 0
-48 -115 -116 0
81 117 -118 0
81 -117 118 0
-81 117 118 0
-81 -117 -118 0
7 75 -119 0
7 -75 119 0
-7 75 119 0
-7 -75 -119 0
49 106 -120 0
49 -106 120 0
-49 106 120 0
-49 -106 -120 0
3 30 -71 0
3 -30 71 0
-3 30 71 0
-3 -30 -71 0
121 122 -123 0
121 -122 123 0
-121 122 123 0
-121 -122 -123 0
124 125 -126 0
124 -125 126 0
-124 125 126 0
-124 -125 -126 0
117 127 -128 0
117 -127 128 0
-117 127 128 0
-117 -127 -128 0
129 130 -131 0
129 -130 131 0
-129 130 131 0
-129 -130 -131 0
132 133 -134 0
132 -133 134 0
-132 133 134 0
-132 -133 -134 0
69 135 -136 0
69 -135 136 0
-69 135 136 0
-69 -135 -136 0
137 138 -139 0
137 -138 139 0
-137 138 139 0
-137 -138 -139 0
14 140 -141 0
14 -140 141 0
-14 140 141 0
-14 -140 -141 0
45 83 -142 0
45 -83 142 0
-45 83 142 0
-45 -83 -142 0
143 144 -145 0
143 -144 145 0
-143 144 145 0
-143 -144 -145 0
6 77 -146 0
6 -77 146 0
-6 77 146 0
-6 -77 -146 0
73 147 -148 0
73 -147 148 0
-73 147 148 0
-73 -147 -148 0
8 149 -150 0
8 -149 150 0
-8 149 150 0
-8 -149 -150 0
140 151 -152 0
140 -151 152 0
-140 151 152 0
-140 -151 -152 0
121 135 -153 0
121 -135 153 0
-121 135 153 0
-121 -135 -153 0
32 113 -132 0
32 -113 132 0
-32 113 132 0
-32 -113 -132 0
95 154 -155 0
95 -154 155 0
-95 154 155 0
-95 -154 -155 0
137 151 -156 0
137 -151 156 0
-137 151 156 0
-137 -151 -156 0
108 157 -158 0
108 -157 158 0
-108 157 158 0
-108 -157 -158 0
12 154 -159 0
12 -154 159 0
-12 154 159 0
-12 -154 -159 0
120 160 -161 0
120 -160 161 0
-120 160 161 0
-120 -160 -161 0
35 155 -162 0
35 -155 162 0
-35 155 162 0
-35 -155 -162 0
24 58 -163 0
24 -58 163 0
-24 58 163 0
-24 -58 -163 0
36 66 -122 0
36 -66 122 0
-36 66 122 0
-36 -66 -122 0
164 165 -166 0
164 -165 166 0
-164 165 166 0
-164 -165 -166 0
17 18 -157 0
17 -18 157 0
-17 18 157 0
-17 -18 -157 0
86 141 -167 0
86 -141 167 0
-86 141 167 0
-86 -141 -167 0
124 168 -169 0
124 -168 169 0
-124 168 169 0
-124 -168 -169 0
46 164 -170 0
46 -164 170 0
-46 164 170 0
-46 -164 -170 0
138 153 -158 0
138 -153 158 0
-138 153 158 0
-138 -153 -158 0
171 172 -173 0
171 -172 173 0
-171 172 173 0
-171 -172 -173 0
78 146 -174 0
78 -146 174 0
-78 146 174 0
-78 -146 -174 0
42 175 -176 0
42 -175 176 0
-42 175 176 0
-42 -175 -176 0
19 25 -97 0
19 -25 97 0
-19 25 97 0
-19 -25 -97 0
147 177 -178 0
147 -177 178 0
-147 177 178 0
-147 -177 -178 0
55 175 -179 0
55 -175 179 0
-55 175 179 0
-55 -175 -179 0
114 180 -181 0
114 -180 181 0
-114 180 181 0
-114 -180 -181 0
38 182 -183 0
38 -182 183 0
-38 182 183 0
-38 -182 -183 0
33 184 -185 0
33 -184 185 0
-33 184 185 0
-33 -184 -185 0
109 186 -187 0
109 -186 187 0
-109 186 187 0
-109 -186 -187 0
39 53 -188 0
39 -53 188 0
-39 53 188 0
-39 -53 -188 0
34 189 -190 0
34 -189 190 0
-34 189 190 0
-34 -189 -190 0
63 67 -191 0
63 -67 191 0
-63 67 191 0
-63 -67 -191 0
28 90 -192 0
28 -90 192 0
-28 90 192 0
-28 -90 -192 0
91 129 -193 0
91 -129 193 0
-91 129 193 0
-91 -129 -193 0
160 193 -194 0
160 -193 194 0
-160 193 194 0
-160 -193 -194 0
84 152 -195 0
84 -152 195 0
-84 152 195 0
-84 -152 -195 0
119 177 -196 0
119 -177 196 0
-119 177 196 0
-119 -177 -196 0
87 180 -197 0
87 -180 197 0
-87 180 197 0
-87 -180 -197 0
148 198 -199 0
148 -198 199 0
-148 198 199 0
-148 -198 -199 0
165 200 -201 0
165 -200 201 0
-165 200 201 0
-165 -200 -201 0
98 110 -202 0
98 -110 202 0
-98 110 202 0
-98 -110 -202 0
22 64 -203 0
22 -64 203 0
-22 64 203 0
-22 -64 -203 0
92 171 -202 0
92 -171 202 0
-92 171 202 0
-92 -171 -202 0
115 176 -204 0
115 -176 204 0
-115 176 204 0
-115 -176 -204 0
100 103 -166 0
100 -103 166 0
-100 103 166 0
-100 -103 -166 0
29 111 -172 0
29 -111 172 0
-29 111 172 0
-29 -111 -172 0
130 186 -205 0
130 -186 205 0
-130 186 205 0
-130 -186 -205 0
37 189 -206 0
37 -189 206 0
-37 189 206 0
-37 -189 -206 0
9 207 -208 0
9 -207 208 0
-9 207 208 0
-9 -207 -208 0
104 162 -209 0
104 -162 209 0
-104 162 209 0
-104 -162 -209 0
105 163 -206 0
105 -163 206 0
-105 163 206 0
-105 -163 -206 0
99 133 -210 0
99 -133 210 0
-99 133 210 0
-99 -133 -210 0
88 101 -207 0
88 -101 207 0
-88 101 207 0
-88 -101 -207 0
65 208 -211 0
65 -208 211 0
-65 208 211 0
-65 -208 -211 0
200 212 -213 0
200 -212 213 0
-200 212 213 0
-200 -212 -213 0
143 214 -215 0
143 -214 215 0
-143 214 215 0
-143 -214 -215 0
144 212 -214 0
144 -212 214 0
-144 212 214 0
-144 -212 -214 0
168 178 -216 0
168 -178 216 0
-168 178 216 0
-168 -178 -216 0
76 123 -217 0
76 -123 217 0
-76 123 217 0
-76 -123 -217 0
188 190 -210 0
188 -190 210 0
-188 190 210 0
-188 -190 -210 0
74 127 -156 0
74 -127 156 0
-74 127 156 0
-74 -127 -156 0
142 218 -219 0
142 -218 219 0
-142 218 219 0
-142 -218 -219 0
161 191 -220 0
161 -191 220 0
-161 191 220 0
-161 -191 -220 0
20 221 -222 0
20 -221 222 0
-20 221 222 0
-20 -221 -222 0
79 169 -211 0
79 -169 211 0
-79 169 211 0
-79 -169 -211 0
26 187 -198 0
26 -187 198 0
-26 187 198 0
-26 -187 -198 0
82 218 -223 0
82 -218 223 0
-82 218 223 0
-82 -218 -223 0
173 184 -192 0
173 -184 192 0
-173 184 192 0
-173 -184 -192 0
93 134 -170 0
93 -134 170 0
-93 134 170 0
-93 -134 -170 0
125 159 -220 0
125 -159 220 0
-125 159 220 0
-125 -159 -220 0
59 145 -223 0
59 -145 223 0
-59 145 223 0
-59 -145 -223 0
181 182 -221 0
181 -182 221 0
-181 182 221 0
-181 -182 -221 0
62 80 -149 0
62 -80 149 0
-62 80 149 0
-62 -80 -149 0
51 136 -224 0
51 -136 224 0
-51 136 224 0
-51 -136 -224 0
209 213 -219 0
209 -213 219 0
-209 213 219 0
-209 -213 -219 0
107 116 -131 0
107 -116 131 0
-107 116 131 0
-107 -116 -131 0
167 185 -197 0
167 -185 197 0
-167 185 197 0
-167 -185 -197 0
40 222 -224 0
40 -222 224 0
-40 222 224 0
-40 -222 -224 0
196 199 -203 0
196 -199 203 0
-196 199 203 0
-196 -199 -203 0
15 54 -179 0
15 -54 179 0
-15 54 179 0
-15 -54 -179 0
126 201 -215 0
126 -201 215 0
-126 201 215 0
-126 -201 -215 0
195 216 -225 0
195 -216 225 0
-195 216 225 0
-195 -216 -225 0
70 118 -204 0
70 -118 204 0
-70 118 204 0
-70 -118 -204 0
43 52 -112 0
43 -52 112 0
-43 52 112 0
-43 -52 -112 0
23 85 -139 0
23 -85 139 0
-23 85 139 0
-23 -85 -139 0
102 150 -194 0
102 -150 194 0
-102 150 194 0
-102 -150 -194 0
31 174 -217 0
31 -174 217 0
-31 174 217 0
-31 -174 -217 0
56 183 -225 0
56 -183 225 0
-56 183 225 0
-56 -183 -225 0
96 128 -205 0
96 -128 205 0
-96 128 205 0
-96 -128 -205 0
