c F4 Tseitin on networkx random_regular_graph(3,60,seed=3), connected=True, odd charge on vertex 1
p cnf 90 240
1 2 3 0
1 -2 -3 0
-1 2 -3 0
-1 -2 3 0
4 5 -6 0
4 -5 6 0
-4 5 6 0
-4 -5 -6 0
7 8 -9 0
7 -8 9 0
-7 8 9 0
-7 -8 -9 0
10 11 -12 0
10 -11 12 0
-10 11 12 0
-10 -11 -12 0
13 14 -15 0
13 -14 15 0
-13 14 15 0
-13 -14 -15 0
16 17 -18 0
16 -17 18 0
-16 17 18 0
-16 -17 -18 0
1 7 -19 0
1 -7 19 0
-1 7 19 0
-1 -7 -19 0
20 21 -22 0
20 -21 22 0
-20 21 22 0
-20 -21 -22 0
20 23 -24 0
20 -23 24 0
-20 23 24 0
-20 -23 -24 0
25 26 -27 0
25 -26 27 0
-25 26 27 0
-25 -26 -27 0
28 29 -30 0
28 -29 30 0
-28 29 30 0
-28 -29 -30 0
31 32 -33 0
31 -32 33 0
-31 32 33 0
-31 -32 -33 0
34 35 -36 0
34 -35 36 0
-34 35 36 0
-34 -35 -36 0
34 37 -38 0
34 -37 38 0
-34 37 38 0
-34 -37 -38 0
23 39 -40 0
23 -39 40 0
-23 39 40 0
-23 -39 -40 0
24 41 -42 0
24 -41 42 0
-24 41 42 0
-24 -41 -42 0
43 44 -45 0
43 -44 45 0
-43 44 45 0
-43 -44 -45 0
2 28 -46 0
2 -28 46 0
-2 28 46 0
-2 -28 -46 0
21 47 -48 0
21 -47 48 0
-21 47 48 0
-21 -47 -48 0
13 49 -50 0
13 -49 50 0
-13 49 50 0
-13 -49 -50 0
47 49 -51 0
47 -49 51 0
-47 49 51 0
-47 -49 -51 0
29 39 -52 0
29 -39 52 0
-29 39 52 0
-29 -39 -52 0
4 53 -54 0
4 -53 54 0
-4 53 54 0
-4 -53 -54 0
35 55 -56 0
35 -55 56 0
-35 55 56 0
-35 -55 -56 0
36 57 -58 0
36 -57 58 0
-36 57 58 0
-36 -57 -58 0
22 30 -59 0
22 -30 59 0
-22 30 59 0
-22 -30 -59 0
60 61 -62 0
60 -61 62 0
-60 61 62 0
-60 -61 -62 0
55 60 -63 0
55 -60 63 0
-55 60 63 0
-55 -60 -63 0
43 64 -65 0
43 -64 65 0
-43 64 65 0
-43 -64 -65 0
16 61 -66 0
16 -61 66 0
-16 61 66 0
-16 -61 -66 0
14 67 -68 0
14 -67 68 0
-14 67 68 0
-14 -67 -68 0
3 37 -66 0
3 -37 66 0
-3 37 66 0
-3 -37 -66 0
46 56 -67 0
46 -56 67 0
-46 56 67 0
-46 -56 -67 0
50 57 -69 0
50 -57 69 0
-50 57 69 0
-50 -57 -69 0
31 44 -70 0
31 -44 70 0
-31 44 70 0
-31 -44 -70 0
10 32 -71 0
10 -32 71 0
-10 32 71 0
-10 -32 -71 0
45 58 -72 0
45 -58 72 0
-45 58 72 0
-45 -58 -72 0
8 17 -38 0
8 -17 38 0
-8 17 38 0
-8 -17 -38 0
25 73 -74 0
25 -73 74 0
-25 73 74 0
-25 -73 -74 0
15 69 -75 0
15 -69 75 0
-15 69 75 0
-15 -69 -75 0
5 9 -76 0
5 -9 76 0
-5 9 76 0
-5 -9 -76 0
26 68 -77 0
26 -68 77 0
-26 68 77 0
-26 -68 -77 0
11 41 -78 0
11 -41 78 0
-11 41 78 0
-11 -41 -78 0
78 79 -80 0
78 -79 80 0
-78 79 80 0
-78 -79 -80 0
72 73 -81 0
72 -73 81 0
-72 73 81 0
-72 -73 -81 0
33 53 -82 0
33 -53 82 0
-33 53 82 0
-33 -53 -82 0
83 84 -85 0
83 -84 85 0
-83 84 85 0
-83 -84 -85 0
83 86 -87 0
83 -86 87 0
-83 86 87 0
-83 -86 -87 0
18 54 -75 0
18 -54 75 0
-18 54 75 0
-18 -54 -75 0
74 86 -88 0
74 -86 88 0
-74 86 88 0
-74 -86 -88 0
59 76 -82 0
59 -76 82 0
-59 76 82 0
-59 -76 -82 0
84 87 -89 0
84 -87 89 0
-84 87 89 0
-84 -87 -89 0
27 40 -51 0
27 -40 51 0
-27 40 51 0
-27 -40 -51 0
70 77 -90 0
70 -77 90 0
-70 77 90 0
-70 -77 -90 0
6 48 -90 0
6 -48 90 0
-6 48 90 0
-6 -48 -90 0
19 62 -79 0
19 -62 79 0
-19 62 79 0
-19 -62 -79 0
12 88 -89 0
12 -88 89 0
-12 88 89 0
-12 -88 -89 0
63 64 -80 0
63 -64 80 0
-63 64 80 0
-63 -64 -80 0
42 65 -71 0
42 -65 71 0
-42 65 71 0
-42 -65 -71 0
52 81 -85 0
52 -81 85 0
-52 81 85 0
-52 -81 -85 0
