c F4 Tseitin on networkx random_regular_graph(3,80,seed=5), connected=True, odd charge on vertex 1
p cnf 120 320
1 2 3 0
1 -2 -3 0
-1 2 -3 0
-1 -2 3 0
1 4 -5 0
1 -4 5 0
-1 4 5 0
-1 -4 -5 0
6 7 -8 0
6 -7 8 0
-6 7 8 0
-6 -7 -8 0
9 10 -11 0
9 -10 11 0
-9 10 11 0
-9 -10 -11 0
12 13 -14 0
12 -13 14 0
-12 13 14 0
-12 -13 -14 0
15 16 -17 0
15 -16 17 0
-15 16 17 0
-15 -16 -17 0
18 19 -20 0
18 -19 20 0
-18 19 20 0
-18 -19 -20 0
4 21 -22 0
4 -21 22 0
-4 21 22 0
-4 -21 -22 0
23 24 -25 0
23 -24 25 0
-23 24 25 0
-23 -24 -25 0
26 27 -28 0
26 -27 28 0
-26 27 28 0
-26 -27 -28 0
6 29 -30 0
6 -29 30 0
-6 29 30 0
-6 -29 -30 0
31 32 -33 0
31 -32 33 0
-31 32 33 0
-31 -32 -33 0
15 34 -35 0
15 -34 35 0
-15 34 35 0
-15 -34 -35 0
2 36 -37 0
2 -36 37 0
-2 36 37 0
-2 -36 -37 0
38 39 -40 0
38 -39 40 0
-38 39 40 0
-38 -39 -40 0
18 41 -42 0
18 -41 42 0
-18 41 42 0
-18 -41 -42 0
12 36 -43 0
12 -36 43 0
-12 36 43 0
-12 -36 -43 0
44 45 -46 0
44 -45 46 0
-44 45 46 0
-44 -45 -46 0
47 48 -49 0
47 -48 49 0
-47 48 49 0
-47 -48 -49 0
50 51 -52 0
50 -51 52 0
-50 51 52 0
-50 -51 -52 0
53 54 -55 0
53 -54 55 0
-53 54 55 0
-53 -54 -55 0
50 56 -57 0
50 -56 57 0
-50 56 57 0
-50 -56 -57 0
31 58 -59 0
31 -58 59 0
-31 58 59 0
-31 -58 -59 0
13 60 -61 0
13 -60 61 0
-13 60 61 0
-13 -60 -61 0
16 62 -63 0
16 -62 63 0
-16 62 63 0
-16 -62 -63 0
17 47 -64 0
17 -47 64 0
-17 47 64 0
-17 -47 -64 0
65 66 -67 0
65 -66 67 0
-65 66 67 0
-65 -66 -67 0
68 69 -70 0
68 -69 70 0
-68 69 70 0
-68 -69 -70 0
41 71 -72 0
41 -71 72 0
-41 71 72 0
-41 -71 -72 0
32 73 -74 0
32 -73 74 0
-32 73 74 0
-32 -73 -74 0
53 65 -75 0
53 -65 75 0
-53 65 75 0
-53 -65 -75 0
73 76 -77 0
73 -76 77 0
-73 76 77 0
-73 -76 -77 0
26 74 -78 0
26 -74 78 0
-26 74 78 0
-26 -74 -78 0
9 78 -79 0
9 -78 79 0
-9 78 79 0
-9 -78 -79 0
23 62 -80 0
23 -62 80 0
-23 62 80 0
-23 -62 -80 0
7 48 -81 0
7 -48 81 0
-7 48 81 0
-7 -48 -81 0
82 83 -84 0
82 -83 84 0
-82 83 84 0
-82 -83 -84 0
58 85 -86 0
58 -85 86 0
-58 85 86 0
-58 -85 -86 0
8 87 -88 0
8 -87 88 0
-8 87 88 0
-8 -87 -88 0
21 29 -87 0
21 -29 87 0
-21 29 87 0
-21 -29 -87 0
37 79 -89 0
37 -79 89 0
-37 79 89 0
-37 -79 -89 0
27 90 -91 0
27 -90 91 0
-27 90 91 0
-27 -90 -91 0
59 76 -92 0
59 -76 92 0
-59 76 92 0
-59 -76 -92 0
43 71 -93 0
43 -71 93 0
-43 71 93 0
-43 -71 -93 0
77 94 -95 0
77 -94 95 0
-77 94 95 0
-77 -94 -95 0
96 97 -98 0
96 -97 98 0
-96 97 98 0
-96 -97 -98 0
56 82 -99 0
56 -82 99 0
-56 82 99 0
-56 -82 -99 0
34 100 -101 0
34 -100 101 0
-34 100 101 0
-34 -100 -101 0
102 103 -104 0
102 -103 104 0
-102 103 104 0
-102 -103 -104 0
60 83 -94 0
60 -83 94 0
-60 83 94 0
-60 -83 -94 0
105 106 -107 0
105 -106 107 0
-105 106 107 0
-105 -106 -107 0
24 108 -109 0
24 -108 109 0
-24 108 109 0
-24 -108 -109 0
44 100 -110 0
44 -100 110 0
-44 100 110 0
-44 -100 -110 0
38 51 -105 0
38 -51 105 0
-38 51 105 0
-38 -51 -105 0
54 96 -111 0
54 -96 111 0
-54 96 111 0
-54 -96 -111 0
19 68 -112 0
19 -68 112 0
-19 68 112 0
-19 -68 -112 0
69 102 -113 0
69 -102 113 0
-69 102 113 0
-69 -102 -113 0
90 103 -114 0
90 -103 114 0
-90 103 114 0
-90 -103 -114 0
10 85 -106 0
10 -85 106 0
-10 85 106 0
-10 -85 -106 0
14 45 -97 0
14 -45 97 0
-14 45 97 0
-14 -45 -97 0
70 99 -114 0
70 -99 114 0
-70 99 114 0
-70 -99 -114 0
25 55 -91 0
25 -55 91 0
-25 55 91 0
-25 -55 -91 0
52 75 -88 0
52 -75 88 0
-52 75 88 0
-52 -75 -88 0
28 61 -115 0
28 -61 115 0
-28 61 115 0
-28 -61 -115 0
5 35 -104 0
5 -35 104 0
-5 35 104 0
-5 -35 -104 0
89 116 -117 0
89 -116 117 0
-89 116 117 0
-89 -116 -117 0
42 66 -98 0
42 -66 98 0
-42 66 98 0
-42 -66 -98 0
57 86 -92 0
57 -86 92 0
-57 86 92 0
-57 -86 -92 0
67 93 -108 0
67 -93 108 0
-67 93 108 0
-67 -93 -108 0
95 111 -118 0
95 -111 118 0
-95 111 118 0
-95 -111 -118 0
72 116 -119 0
72 -116 119 0
-72 116 119 0
-72 -116 -119 0
63 84 -115 0
63 -84 115 0
-63 84 115 0
-63 -84 -115 0
20 80 -107 0
20 -80 107 0
-20 80 107 0
-20 -80 -107 0
22 64 -110 0
22 -64 110 0
-22 64 110 0
-22 -64 -110 0
3 109 -120 0
3 -109 120 0
-3 109 120 0
-3 -109 -120 0
39 113 -119 0
39 -113 119 0
-39 113 119 0
-39 -113 -119 0
11 46 -49 0
11 -46 49 0
-11 46 49 0
-11 -46 -49 0
112 118 -120 0
112 -118 120 0
-112 118 120 0
-112 -118 -120 0
30 40 -81 0
30 -40 81 0
-30 40 81 0
-30 -40 -81 0
33 101 -117 0
33 -101 117 0
-33 101 117 0
-33 -101 -117 0
