c F4 Tseitin on networkx random_regular_graph(3,100,seed=5), connected=True, odd charge on vertex 1
p cnf 150 400
1 2 3 0
1 -2 -3 0
-1 2 -3 0
-1 -2 3 0
4 5 -6 0
4 -5 6 0
-4 5 6 0
-4 -5 -6 0
1 7 -8 0
1 -7 8 0
-1 7 8 0
-1 -7 -8 0
9 10 -11 0
9 -10 11 0
-9 10 11 0
-9 -10 -11 0
4 12 -13 0
4 -12 13 0
-4 12 13 0
-4 -12 -13 0
14 15 -16 0
14 -15 16 0
-14 15 16 0
-14 -15 -16 0
17 18 -19 0
17 -18 19 0
-17 18 19 0
-17 -18 -19 0
20 21 -22 0
20 -21 22 0
-20 21 22 0
-20 -21 -22 0
23 24 -25 0
23 -24 25 0
-23 24 25 0
-23 -24 -25 0
26 27 -28 0
26 -27 28 0
-26 27 28 0
-26 -27 -28 0
17 29 -30 0
17 -29 30 0
-17 29 30 0
-17 -29 -30 0
31 32 -33 0
31 -32 33 0
-31 32 33 0
-31 -32 -33 0
34 35 -36 0
34 -35 36 0
-34 35 36 0
-34 -35 -36 0
37 38 -39 0
37 -38 39 0
-37 38 39 0
-37 -38 -39 0
40 41 -42 0
40 -41 42 0
-40 41 42 0
-40 -41 -42 0
43 44 -45 0
43 -44 45 0
-43 44 45 0
-43 -44 -45 0
9 46 -47 0
9 -46 47 0
-9 46 47 0
-9 -46 -47 0
48 49 -50 0
48 -49 50 0
-48 49 50 0
-48 -49 -50 0
51 52 -53 0
51 -52 53 0
-51 52 53 0
-51 -52 -53 0
54 55 -56 0
54 -55 56 0
-54 55 56 0
-54 -55 -56 0
23 57 -58 0
23 -57 58 0
-23 57 58 0
-23 -57 -58 0
46 59 -60 0
46 -59 60 0
-46 59 60 0
-46 -59 -60 0
61 62 -63 0
61 -62 63 0
-61 62 63 0
-61 -62 -63 0
64 65 -66 0
64 -65 66 0
-64 65 66 0
-64 -65 -66 0
18 26 -67 0
18 -26 67 0
-18 26 67 0
-18 -26 -67 0
68 69 -70 0
68 -69 70 0
-68 69 70 0
-68 -69 -70 0
71 72 -73 0
71 -72 73 0
-71 72 73 0
-71 -72 -73 0
74 75 -76 0
74 -75 76 0
-74 75 76 0
-74 -75 -76 0
34 61 -77 0
34 -61 77 0
-34 61 77 0
-34 -61 -77 0
78 79 -80 0
78 -79 80 0
-78 79 80 0
-78 -79 -80 0
81 82 -83 0
81 -82 83 0
-81 82 83 0
-81 -82 -83 0
43 84 -85 0
43 -84 85 0
-43 84 85 0
-43 -84 -85 0
54 86 -87 0
54 -86 87 0
-54 86 87 0
-54 -86 -87 0
40 88 -89 0
40 -88 89 0
-40 88 89 0
-40 -88 -89 0
10 90 -91 0
10 -90 91 0
-10 90 91 0
-10 -90 -91 0
19 92 -93 0
19 -92 93 0
-19 92 93 0
-19 -92 -93 0
51 94 -95 0
51 -94 95 0
-51 94 95 0
-51 -94 -95 0
90 96 -97 0
90 -96 97 0
-90 96 97 0
-90 -96 -97 0
74 98 -99 0
74 -98 99 0
-74 98 99 0
-74 -98 -99 0
78 96 -100 0
78 -96 100 0
-78 96 100 0
-78 -96 -100 0
12 71 -101 0
12 -71 101 0
-12 71 101 0
-12 -71 -101 0
81 88 -102 0
81 -88 102 0
-81 88 102 0
-81 -88 -102 0
35 103 -104 0
35 -103 104 0
-35 103 104 0
-35 -103 -104 0
24 105 -106 0
24 -105 106 0
-24 105 106 0
-24 -105 -106 0
84 89 -107 0
84 -89 107 0
-84 89 107 0
-84 -89 -107 0
75 108 -109 0
75 -108 109 0
-75 108 109 0
-75 -108 -109 0
13 102 -110 0
13 -102 110 0
-13 102 110 0
-13 -102 -110 0
14 91 -111 0
14 -91 111 0
-14 91 111 0
-14 -91 -111 0
110 112 -113 0
110 -112 113 0
-110 112 113 0
-110 -112 -113 0
37 55 -92 0
37 -55 92 0
-37 55 92 0
-37 -55 -92 0
114 115 -116 0
114 -115 116 0
-114 115 116 0
-114 -115 -116 0
31 117 -118 0
31 -117 118 0
-31 117 118 0
-31 -117 -118 0
119 120 -121 0
119 -120 121 0
-119 120 121 0
-119 -120 -121 0
59 94 -122 0
59 -94 122 0
-59 94 122 0
-59 -94 -122 0
15 27 -123 0
15 -27 123 0
-15 27 123 0
-15 -27 -123 0
68 98 -124 0
68 -98 124 0
-68 98 124 0
-68 -98 -124 0
2 77 -101 0
2 -77 101 0
-2 77 101 0
-2 -77 -101 0
44 125 -126 0
44 -125 126 0
-44 125 126 0
-44 -125 -126 0
52 127 -128 0
52 -127 128 0
-52 127 128 0
-52 -127 -128 0
114 129 -130 0
114 -129 130 0
-114 129 130 0
-114 -129 -130 0
69 105 -112 0
69 -105 112 0
-69 105 112 0
-69 -105 -112 0
107 131 -132 0
107 -131 132 0
-107 131 132 0
-107 -131 -132 0
53 79 -125 0
53 -79 125 0
-53 79 125 0
-53 -79 -125 0
25 41 -86 0
25 -41 86 0
-25 41 86 0
-25 -41 -86 0
57 127 -133 0
57 -127 133 0
-57 127 133 0
-57 -127 -133 0
16 29 -134 0
16 -29 134 0
-16 29 134 0
-16 -29 -134 0
87 135 -136 0
87 -135 136 0
-87 135 136 0
-87 -135 -136 0
7 133 -137 0
7 -133 137 0
-7 133 137 0
-7 -133 -137 0
62 64 -138 0
62 -64 138 0
-62 64 138 0
-62 -64 -138 0
5 45 -63 0
5 -45 63 0
-5 45 63 0
-5 -45 -63 0
134 139 -140 0
134 -139 140 0
-134 139 140 0
-134 -139 -140 0
36 42 -76 0
36 -42 76 0
-36 42 76 0
-36 -42 -76 0
47 113 -141 0
47 -113 141 0
-47 113 141 0
-47 -113 -141 0
8 128 -138 0
8 -128 138 0
-8 128 138 0
-8 -128 -138 0
20 67 -93 0
20 -67 93 0
-20 67 93 0
-20 -67 -93 0
28 142 -143 0
28 -142 143 0
-28 142 143 0
-28 -142 -143 0
21 99 -124 0
21 -99 124 0
-21 99 124 0
-21 -99 -124 0
30 137 -142 0
30 -137 142 0
-30 137 142 0
-30 -137 -142 0
65 144 -145 0
65 -144 145 0
-65 144 145 0
-65 -144 -145 0
3 100 -115 0
3 -100 115 0
-3 100 115 0
-3 -100 -115 0
38 58 -72 0
38 -58 72 0
-38 58 72 0
-38 -58 -72 0
95 117 -146 0
95 -117 146 0
-95 117 146 0
-95 -117 -146 0
22 48 -73 0
22 -48 73 0
-22 48 73 0
-22 -48 -73 0
82 103 -129 0
82 -103 129 0
-82 103 129 0
-82 -103 -129 0
6 32 -147 0
6 -32 147 0
-6 32 147 0
-6 -32 -147 0
49 108 -147 0
49 -108 147 0
-49 108 147 0
-49 -108 -147 0
139 143 -146 0
139 -143 146 0
-139 143 146 0
-139 -143 -146 0
97 122 -135 0
97 -122 135 0
-97 122 135 0
-97 -122 -135 0
85 140 -148 0
85 -140 148 0
-85 140 148 0
-85 -140 -148 0
70 80 -118 0
70 -80 118 0
-70 80 118 0
-70 -80 -118 0
111 126 -136 0
111 -126 136 0
-111 126 136 0
-111 -126 -136 0
39 56 -149 0
39 -56 149 0
-39 56 149 0
-39 -56 -149 0
119 123 -144 0
119 -123 144 0
-119 123 144 0
-119 -123 -144 0
83 131 -150 0
83 -131 150 0
-83 131 150 0
-83 -131 -150 0
66 120 -145 0
66 -120 145 0
-66 120 145 0
-66 -120 -145 0
33 106 -148 0
33 -106 148 0
-33 106 148 0
-33 -106 -148 0
109 121 -132 0
109 -121 132 0
-109 121 132 0
-109 -121 -132 0
50 116 -149 0
50 -116 149 0
-50 116 149 0
-50 -116 -149 0
11 104 -130 0
11 -104 130 0
-11 104 130 0
-11 -104 -130 0
60 141 -150 0
60 -141 150 0
-60 141 150 0
-60 -141 -150 0
