c F4 Tseitin on networkx random_regular_graph(3,200,seed=9), connected=True, odd charge on vertex 1
p cnf 300 800
1 2 3 0
1 -2 -3 0
-1 2 -3 0
-1 -2 3 0
4 5 -6 0
4 -5 6 0
-4 5 6 0
-4 -5 -6 0
7 8 -9 0
7 -8 9 0
-7 8 9 0
-7 -8 -9 0
10 11 -12 0
10 -11 12 0
-10 11 12 0
-10 -11 -12 0
13 14 -15 0
13 -14 15 0
-13 14 15 0
-13 -14 -15 0
16 17 -18 0
16 -17 18 0
-16 17 18 0
-16 -17 -18 0
19 20 -21 0
19 -20 21 0
-19 20 21 0
-19 -20 -21 0
22 23 -24 0
22 -23 24 0
-22 23 24 0
-22 -23 -24 0
25 26 -27 0
25 -26 27 0
-25 26 27 0
-25 -26 -27 0
28 29 -30 0
28 -29 30 0
-28 29 30 0
-28 -29 -30 0
31 32 -33 0
31 -32 33 0
-31 32 33 0
-31 -32 -33 0
34 35 -36 0
34 -35 36 0
-34 35 36 0
-34 -35 -36 0
28 37 -38 0
28 -37 38 0
-28 37 38 0
-28 -37 -38 0
39 40 -41 0
39 -40 41 0
-39 40 41 0
-39 -40 -41 0
42 43 -44 0
42 -43 44 0
-42 43 44 0
-42 -43 -44 0
45 46 -47 0
45 -46 47 0
-45 46 47 0
-45 -46 -47 0
48 49 -50 0
48 -49 50 0
-48 49 50 0
-48 -49 -50 0
51 52 -53 0
51 -52 53 0
-51 52 53 0
-51 -52 -53 0
54 55 -56 0
54 -55 56 0
-54 55 56 0
-54 -55 -56 0
45 57 -58 0
45 -57 58 0
-45 57 58 0
-45 -57 -58 0
59 60 -61 0
59 -60 61 0
-59 60 61 0
-59 -60 -61 0
62 63 -64 0
62 -63 64 0
-62 63 64 0
-62 -63 -64 0
39 65 -66 0
39 -65 66 0
-39 65 66 0
-39 -65 -66 0
67 68 -69 0
67 -68 69 0
-67 68 69 0
-67 -68 -69 0
59 70 -71 0
59 -70 71 0
-59 70 71 0
-59 -70 -71 0
62 72 -73 0
62 -72 73 0
-62 72 73 0
-62 -72 -73 0
74 75 -76 0
74 -75 76 0
-74 75 76 0
-74 -75 -76 0
77 78 -79 0
77 -78 79 0
-77 78 79 0
-77 -78 -79 0
65 80 -81 0
65 -80 81 0
-65 80 81 0
-65 -80 -81 0
82 83 -84 0
82 -83 84 0
-82 83 84 0
-82 -83 -84 0
34 85 -86 0
34 -85 86 0
-34 85 86 0
-34 -85 -86 0
87 88 -89 0
87 -88 89 0
-87 88 89 0
-87 -88 -89 0
35 90 -91 0
35 -90 91 0
-35 90 91 0
-35 -90 -91 0
92 93 -94 0
92 -93 94 0
-92 93 94 0
-92 -93 -94 0
90 95 -96 0
90 -95 96 0
-90 95 96 0
-90 -95 -96 0
97 98 -99 0
97 -98 99 0
-97 98 99 0
-97 -98 -99 0
100 101 -102 0
100 -101 102 0
-100 101 102 0
-100 -101 -102 0
103 104 -105 0
103 -104 105 0
-103 104 105 0
-103 -104 -105 0
29 106 -107 0
29 -106 107 0
-29 106 107 0
-29 -106 -107 0
108 109 -110 0
108 -109 110 0
-108 109 110 0
-108 -109 -110 0
111 112 -113 0
111 -112 113 0
-111 112 113 0
-111 -112 -113 0
25 114 -115 0
25 -114 115 0
-25 114 115 0
-25 -114 -115 0
116 117 -118 0
116 -117 118 0
-116 117 118 0
-116 -117 -118 0
119 120 -121 0
119 -120 121 0
-119 120 121 0
-119 -120 -121 0
122 123 -124 0
122 -123 124 0
-122 123 124 0
-122 -123 -124 0
60 125 -126 0
60 -125 126 0
-60 125 126 0
-60 -125 -126 0
13 127 -128 0
13 -127 128 0
-13 127 128 0
-13 -127 -128 0
85 97 -129 0
85 -97 129 0
-85 97 129 0
-85 -97 -129 0
130 131 -132 0
130 -131 132 0
-130 131 132 0
-130 -131 -132 0
133 134 -135 0
133 -134 135 0
-133 134 135 0
-133 -134 -135 0
136 137 -138 0
136 -137 138 0
-136 137 138 0
-136 -137 -138 0
1 16 -139 0
1 -16 139 0
-1 16 139 0
-1 -16 -139 0
67 139 -140 0
67 -139 140 0
-67 139 140 0
-67 -139 -140 0
26 141 -142 0
26 -141 142 0
-26 141 142 0
-26 -141 -142 0
143 144 -145 0
143 -144 145 0
-143 144 145 0
-143 -144 -145 0
146 147 -148 0
146 -147 148 0
-146 147 148 0
-146 -147 -148 0
149 150 -151 0
149 -150 151 0
-149 150 151 0
-149 -150 -151 0
48 152 -153 0
48 -152 153 0
-48 152 153 0
-48 -152 -153 0
37 154 -155 0
37 -154 155 0
-37 154 155 0
-37 -154 -155 0
143 156 -157 0
143 -156 157 0
-143 156 157 0
-143 -156 -157 0
42 130 -158 0
42 -130 158 0
-42 130 158 0
-42 -130 -158 0
159 160 -161 0
159 -160 161 0
-159 160 161 0
-159 -160 -161 0
146 162 -163 0
146 -162 163 0
-146 162 163 0
-146 -162 -163 0
164 165 -166 0
164 -165 166 0
-164 165 166 0
-164 -165 -166 0
133 167 -168 0
133 -167 168 0
-133 167 168 0
-133 -167 -168 0
149 169 -170 0
149 -169 170 0
-149 169 170 0
-149 -169 -170 0
19 51 -171 0
19 -51 171 0
-19 51 171 0
-19 -51 -171 0
14 100 -172 0
14 -100 172 0
-14 100 172 0
-14 -100 -172 0
92 173 -174 0
92 -173 174 0
-92 173 174 0
-92 -173 -174 0
103 119 -175 0
103 -119 175 0
-103 119 175 0
-103 -119 -175 0
176 177 -178 0
176 -177 178 0
-176 177 178 0
-176 -177 -178 0
30 122 -179 0
30 -122 179 0
-30 122 179 0
-30 -122 -179 0
127 180 -181 0
127 -180 181 0
-127 180 181 0
-127 -180 -181 0
176 182 -183 0
176 -182 183 0
-176 182 183 0
-176 -182 -183 0
7 36 -184 0
7 -36 184 0
-7 36 184 0
-7 -36 -184 0
8 136 -185 0
8 -136 185 0
-8 136 185 0
-8 -136 -185 0
186 187 -188 0
186 -187 188 0
-186 187 188 0
-186 -187 -188 0
189 190 -191 0
189 -190 191 0
-189 190 191 0
-189 -190 -191 0
192 193 -194 0
192 -193 194 0
-192 193 194 0
-192 -193 -194 0
46 195 -196 0
46 -195 196 0
-46 195 196 0
-46 -195 -196 0
197 198 -199 0
197 -198 199 0
-197 198 199 0
-197 -198 -199 0
123 200 -201 0
123 -200 201 0
-123 200 201 0
-123 -200 -201 0
202 203 -204 0
202 -203 204 0
-202 203 204 0
-202 -203 -204 0
101 173 -205 0
101 -173 205 0
-101 173 205 0
-101 -173 -205 0
200 206 -207 0
200 -206 207 0
-200 206 207 0
-200 -206 -207 0
114 208 -209 0
114 -208 209 0
-114 208 209 0
-114 -208 -209 0
57 104 -210 0
57 -104 210 0
-57 104 210 0
-57 -104 -210 0
43 70 -211 0
43 -70 211 0
-43 70 211 0
-43 -70 -211 0
4 164 -212 0
4 -164 212 0
-4 164 212 0
-4 -164 -212 0
98 202 -213 0
98 -202 213 0
-98 202 213 0
-98 -202 -213 0
74 162 -180 0
74 -162 180 0
-74 162 180 0
-74 -162 -180 0
111 131 -214 0
111 -131 214 0
-111 131 214 0
-111 -131 -214 0
22 215 -216 0
22 -215 216 0
-22 215 216 0
-22 -215 -216 0
82 217 -218 0
82 -217 218 0
-82 217 218 0
-82 -217 -218 0
219 220 -221 0
219 -220 221 0
-219 220 221 0
-219 -220 -221 0
105 144 -222 0
105 -144 222 0
-105 144 222 0
-105 -144 -222 0
54 223 -224 0
54 -223 224 0
-54 223 224 0
-54 -223 -224 0
215 219 -225 0
215 -219 225 0
-215 219 225 0
-215 -219 -225 0
226 227 -228 0
226 -227 228 0
-226 227 228 0
-226 -227 -228 0
27 167 -229 0
27 -167 229 0
-27 167 229 0
-27 -167 -229 0
106 140 -205 0
106 -140 205 0
-106 140 205 0
-106 -140 -205 0
137 217 -230 0
137 -217 230 0
-137 217 230 0
-137 -217 -230 0
231 232 -233 0
231 -232 233 0
-231 232 233 0
-231 -232 -233 0
38 234 -235 0
38 -234 235 0
-38 234 235 0
-38 -234 -235 0
63 236 -237 0
63 -236 237 0
-63 236 237 0
-63 -236 -237 0
150 152 -238 0
150 -152 238 0
-150 152 238 0
-150 -152 -238 0
93 239 -240 0
93 -239 240 0
-93 239 240 0
-93 -239 -240 0
145 184 -206 0
145 -184 206 0
-145 184 206 0
-145 -184 -206 0
80 192 -241 0
80 -192 241 0
-80 192 241 0
-80 -192 -241 0
108 242 -243 0
108 -242 243 0
-108 242 243 0
-108 -242 -243 0
9 31 -244 0
9 -31 244 0
-9 31 244 0
-9 -31 -244 0
241 245 -246 0
241 -245 246 0
-241 245 246 0
-241 -245 -246 0
179 225 -247 0
179 -225 247 0
-179 225 247 0
-179 -225 -247 0
116 141 -156 0
116 -141 156 0
-116 141 156 0
-116 -141 -156 0
5 231 -248 0
5 -231 248 0
-5 231 248 0
-5 -231 -248 0
40 249 -250 0
40 -249 250 0
-40 249 250 0
-40 -249 -250 0
125 185 -216 0
125 -185 216 0
-125 185 216 0
-125 -185 -216 0
197 232 -251 0
197 -232 251 0
-197 232 251 0
-197 -232 -251 0
58 147 -252 0
58 -147 252 0
-58 147 252 0
-58 -147 -252 0
10 129 -245 0
10 -129 245 0
-10 129 245 0
-10 -129 -245 0
253 254 -255 0
253 -254 255 0
-253 254 255 0
-253 -254 -255 0
52 112 -169 0
52 -112 169 0
-52 112 169 0
-52 -112 -169 0
68 256 -257 0
68 -256 257 0
-68 256 257 0
-68 -256 -257 0
75 175 -248 0
75 -175 248 0
-75 175 248 0
-75 -175 -248 0
117 181 -258 0
117 -181 258 0
-117 181 258 0
-117 -181 -258 0
107 198 -259 0
107 -198 259 0
-107 198 259 0
-107 -198 -259 0
61 120 -158 0
61 -120 158 0
-61 120 158 0
-61 -120 -158 0
69 260 -261 0
69 -260 261 0
-69 260 261 0
-69 -260 -261 0
66 256 -260 0
66 -256 260 0
-66 256 260 0
-66 -256 -260 0
99 154 -262 0
99 -154 262 0
-99 154 262 0
-99 -154 -262 0
109 263 -264 0
109 -263 264 0
-109 263 264 0
-109 -263 -264 0
165 186 -265 0
165 -186 265 0
-165 186 265 0
-165 -186 -265 0
17 23 -244 0
17 -23 244 0
-17 23 244 0
-17 -23 -244 0
172 229 -266 0
172 -229 266 0
-172 229 266 0
-172 -229 -266 0
195 261 -267 0
195 -261 267 0
-195 261 267 0
-195 -261 -267 0
132 230 -268 0
132 -230 268 0
-132 230 268 0
-132 -230 -268 0
44 269 -270 0
44 -269 270 0
-44 269 270 0
-44 -269 -270 0
249 258 -271 0
249 -258 271 0
-249 258 271 0
-249 -258 -271 0
76 115 -236 0
76 -115 236 0
-76 115 236 0
-76 -115 -236 0
55 91 -174 0
55 -91 174 0
-55 91 174 0
-55 -91 -174 0
121 157 -271 0
121 -157 271 0
-121 157 271 0
-121 -157 -271 0
210 213 -272 0
210 -213 272 0
-210 213 272 0
-210 -213 -272 0
15 49 -273 0
15 -49 273 0
-15 49 273 0
-15 -49 -273 0
126 211 -269 0
126 -211 269 0
-126 211 269 0
-126 -211 -269 0
6 171 -274 0
6 -171 274 0
-6 171 274 0
-6 -171 -274 0
128 267 -275 0
128 -267 275 0
-128 267 275 0
-128 -267 -275 0
32 142 -193 0
32 -142 193 0
-32 142 193 0
-32 -142 -193 0
159 226 -276 0
159 -226 276 0
-159 226 276 0
-159 -226 -276 0
18 77 -277 0
18 -77 277 0
-18 77 277 0
-18 -77 -277 0
53 95 -278 0
53 -95 278 0
-53 95 278 0
-53 -95 -278 0
87 182 -278 0
87 -182 278 0
-87 182 278 0
-87 -182 -278 0
177 252 -279 0
177 -252 279 0
-177 252 279 0
-177 -252 -279 0
24 257 -280 0
24 -257 280 0
-24 257 280 0
-24 -257 -280 0
223 233 -263 0
223 -233 263 0
-223 233 263 0
-223 -233 -263 0
94 246 -281 0
94 -246 281 0
-94 246 281 0
-94 -246 -281 0
187 242 -275 0
187 -242 275 0
-187 242 275 0
-187 -242 -275 0
50 118 -264 0
50 -118 264 0
-50 118 264 0
-50 -118 -264 0
183 218 -282 0
183 -218 282 0
-183 218 282 0
-183 -218 -282 0
283 284 -285 0
283 -284 285 0
-283 284 285 0
-283 -284 -285 0
110 227 -253 0
110 -227 253 0
-110 227 253 0
-110 -227 -253 0
20 138 -277 0
20 -138 277 0
-20 138 277 0
-20 -138 -277 0
178 224 -286 0
178 -224 286 0
-178 224 286 0
-178 -224 -286 0
47 134 -287 0
47 -134 287 0
-47 134 287 0
-47 -134 -287 0
124 288 -289 0
124 -288 289 0
-124 288 289 0
-124 -288 -289 0
189 290 -291 0
189 -290 291 0
-189 290 291 0
-189 -290 -291 0
234 254 -273 0
234 -254 273 0
-234 254 273 0
-234 -254 -273 0
2 83 -286 0
2 -83 286 0
-2 83 286 0
-2 -83 -286 0
155 279 -292 0
155 -279 292 0
-155 279 292 0
-155 -279 -292 0
11 81 -88 0
11 -81 88 0
-11 81 88 0
-11 -81 -88 0
160 265 -288 0
160 -265 288 0
-160 265 288 0
-160 -265 -288 0
86 190 -268 0
86 -190 268 0
-86 190 268 0
-86 -190 -268 0
12 270 -283 0
12 -270 283 0
-12 270 283 0
-12 -270 -283 0
89 203 -290 0
89 -203 290 0
-89 203 290 0
-89 -203 -290 0
96 170 -293 0
96 -170 293 0
-96 170 293 0
-96 -170 -293 0
220 228 -259 0
220 -228 259 0
-220 228 259 0
-220 -228 -259 0
166 188 -294 0
166 -188 294 0
-166 188 294 0
-166 -188 -294 0
78 295 -296 0
78 -295 296 0
-78 295 296 0
-78 -295 -296 0
56 151 -161 0
56 -151 161 0
-56 151 161 0
-56 -151 -161 0
194 239 -294 0
194 -239 294 0
-194 239 294 0
-194 -239 -294 0
148 251 -297 0
148 -251 297 0
-148 251 297 0
-148 -251 -297 0
102 212 -295 0
102 -212 295 0
-102 212 295 0
-102 -212 -295 0
72 113 -284 0
72 -113 284 0
-72 113 284 0
-72 -113 -284 0
71 266 -274 0
71 -266 274 0
-71 266 274 0
-71 -266 -274 0
135 163 -255 0
135 -163 255 0
-135 163 255 0
-135 -163 -255 0
204 285 -298 0
204 -285 298 0
-204 285 298 0
-204 -285 -298 0
3 41 -262 0
3 -41 262 0
-3 41 262 0
-3 -41 -262 0
207 280 -299 0
207 -280 299 0
-207 280 299 0
-207 -280 -299 0
33 221 -291 0
33 -221 291 0
-33 221 291 0
-33 -221 -291 0
79 247 -276 0
79 -247 276 0
-79 247 276 0
-79 -247 -276 0
64 287 -293 0
64 -287 293 0
-64 287 293 0
-64 -287 -293 0
238 281 -300 0
238 -281 300 0
-238 281 300 0
-238 -281 -300 0
84 208 -292 0
84 -208 292 0
-84 208 292 0
-84 -208 -292 0
209 214 -289 0
209 -214 289 0
-209 214 289 0
-209 -214 -289 0
168 235 -300 0
168 -235 300 0
-168 235 300 0
-168 -235 -300 0
21 237 -297 0
21 -237 297 0
-21 237 297 0
-21 -237 -297 0
73 240 -243 0
73 -240 243 0
-73 240 243 0
-73 -240 -243 0
282 296 -298 0
282 -296 298 0
-282 296 298 0
-282 -296 -298 0
191 196 -201 0
191 -196 201 0
-191 196 201 0
-191 -196 -201 0
222 250 -299 0
222 -250 299 0
-222 250 299 0
-222 -250 -299 0
153 199 -272 0
153 -199 272 0
-153 199 272 0
-153 -199 -272 0
