c F4 Tseitin on networkx random_regular_graph(3,150,seed=0), connected=True, odd charge on vertex 1
p cnf 225 600
1 2 3 0
1 -2 -3 0
-1 2 -3 0
-1 -2 3 0
4 5 -6 0
4 -5 6 0
-4 5 6 0
-4 -5 -6 0
7 8 -9 0
7 -8 9 0
-7 8 9 0
-7 -8 -9 0
10 11 -12 0
10 -11 12 0
-10 11 12 0
-10 -11 -12 0
13 14 -15 0
13 -14 15 0
-13 14 15 0
-13 -14 -15 0
16 17 -18 0
16 -17 18 0
-16 17 18 0
-16 -17 -18 0
19 20 -21 0
19 -20 21 0
-19 20 21 0
-19 -20 -21 0
10 22 -23 0
10 -22 23 0
-10 22 23 0
-10 -22 -23 0
24 25 -26 0
24 -25 26 0
-24 25 26 0
-24 -25 -26 0
27 28 -29 0
27 -28 29 0
-27 28 29 0
-27 -28 -29 0
30 31 -32 0
30 -31 32 0
-30 31 32 0
-30 -31 -32 0
1 33 -34 0
1 -33 34 0
-1 33 34 0
-1 -33 -34 0
35 36 -37 0
35 -36 37 0
-35 36 37 0
-35 -36 -37 0
27 38 -39 0
27 -38 39 0
-27 38 39 0
-27 -38 -39 0
35 40 -41 0
35 -40 41 0
-35 40 41 0
-35 -40 -41 0
42 43 -44 0
42 -43 44 0
-42 43 44 0
-42 -43 -44 0
45 46 -47 0
45 -46 47 0
-45 46 47 0
-45 -46 -47 0
24 48 -49 0
24 -48 49 0
-24 48 49 0
-24 -48 -49 0
50 51 -52 0
50 -51 52 0
-50 51 52 0
-50 -51 -52 0
53 54 -55 0
53 -54 55 0
-53 54 55 0
-53 -54 -55 0
56 57 -58 0
56 -57 58 0
-56 57 58 0
-56 -57 -58 0
59 60 -61 0
59 -60 61 0
-59 60 61 0
-59 -60 -61 0
62 63 -64 0
62 -63 64 0
-62 63 64 0
-62 -63 -64 0
65 66 -67 0
65 -66 67 0
-65 66 67 0
-65 -66 -67 0
13 68 -69 0
13 -68 69 0
-13 68 69 0
-13 -68 -69 0
70 71 -72 0
70 -71 72 0
-70 71 72 0
-70 -71 -72 0
19 73 -74 0
19 -73 74 0
-19 73 74 0
-19 -73 -74 0
75 76 -77 0
75 -76 77 0
-75 76 77 0
-75 -76 -77 0
59 78 -79 0
59 -78 79 0
-59 78 79 0
-59 -78 -79 0
75 80 -81 0
75 -80 81 0
-75 80 81 0
-75 -80 -81 0
82 83 -84 0
82 -83 84 0
-82 83 84 0
-82 -83 -84 0
85 86 -87 0
85 -86 87 0
-85 86 87 0
-85 -86 -87 0
88 89 -90 0
88 -89 90 0
-88 89 90 0
-88 -89 -90 0
91 92 -93 0
91 -92 93 0
-91 92 93 0
-91 -92 -93 0
42 65 -94 0
42 -65 94 0
-42 65 94 0
-42 -65 -94 0
95 96 -97 0
95 -96 97 0
-95 96 97 0
-95 -96 -97 0
2 98 -99 0
2 -98 99 0
-2 98 99 0
-2 -98 -99 0
100 101 -102 0
100 -101 102 0
-100 101 102 0
-100 -101 -102 0
88 103 -104 0
88 -103 104 0
-88 103 104 0
-88 -103 -104 0
22 105 -106 0
22 -105 106 0
-22 105 106 0
-22 -105 -106 0
45 107 -108 0
45 -107 108 0
-45 107 108 0
-45 -107 -108 0
4 11 -109 0
4 -11 109 0
-4 11 109 0
-4 -11 -109 0
78 110 -111 0
78 -110 111 0
-78 110 111 0
-78 -110 -111 0
70 91 -112 0
70 -91 112 0
-70 91 112 0
-70 -91 -112 0
62 113 -114 0
62 -113 114 0
-62 113 114 0
-62 -113 -114 0
7 115 -116 0
7 -115 116 0
-7 115 116 0
-7 -115 -116 0
117 118 -119 0
117 -118 119 0
-117 118 119 0
-117 -118 -119 0
43 120 -121 0
43 -120 121 0
-43 120 121 0
-43 -120 -121 0
122 123 -124 0
122 -123 124 0
-122 123 124 0
-122 -123 -124 0
125 126 -127 0
125 -126 127 0
-125 126 127 0
-125 -126 -127 0
53 128 -129 0
53 -128 129 0
-53 128 129 0
-53 -128 -129 0
68 130 -131 0
68 -130 131 0
-68 130 131 0
-68 -130 -131 0
103 132 -133 0
103 -132 133 0
-103 132 133 0
-103 -132 -133 0
134 135 -136 0
134 -135 136 0
-134 135 136 0
-134 -135 -136 0
137 138 -139 0
137 -138 139 0
-137 138 139 0
-137 -138 -139 0
140 141 -142 0
140 -141 142 0
-140 141 142 0
-140 -141 -142 0
82 143 -144 0
82 -143 144 0
-82 143 144 0
-82 -143 -144 0
14 73 -145 0
14 -73 145 0
-14 73 145 0
-14 -73 -145 0
92 117 -128 0
92 -117 128 0
-92 117 128 0
-92 -117 -128 0
40 100 -146 0
40 -100 146 0
-40 100 146 0
-40 -100 -146 0
33 83 -147 0
33 -83 147 0
-33 83 147 0
-33 -83 -147 0
66 148 -149 0
66 -148 149 0
-66 148 149 0
-66 -148 -149 0
146 150 -151 0
146 -150 151 0
-146 150 151 0
-146 -150 -151 0
5 20 -152 0
5 -20 152 0
-5 20 152 0
-5 -20 -152 0
98 153 -154 0
98 -153 154 0
-98 153 154 0
-98 -153 -154 0
21 155 -156 0
21 -155 156 0
-21 155 156 0
-21 -155 -156 0
122 157 -158 0
122 -157 158 0
-122 157 158 0
-122 -157 -158 0
3 56 -159 0
3 -56 159 0
-3 56 159 0
-3 -56 -159 0
160 161 -162 0
160 -161 162 0
-160 161 162 0
-160 -161 -162 0
160 163 -164 0
160 -163 164 0
-160 163 164 0
-160 -163 -164 0
101 165 -166 0
101 -165 166 0
-101 165 166 0
-101 -165 -166 0
140 143 -167 0
140 -143 167 0
-140 143 167 0
-140 -143 -167 0
63 85 -168 0
63 -85 168 0
-63 85 168 0
-63 -85 -168 0
25 80 -86 0
25 -80 86 0
-25 80 86 0
-25 -80 -86 0
54 163 -169 0
54 -163 169 0
-54 163 169 0
-54 -163 -169 0
6 170 -171 0
6 -170 171 0
-6 170 171 0
-6 -170 -171 0
8 157 -172 0
8 -157 172 0
-8 157 172 0
-8 -157 -172 0
71 152 -173 0
71 -152 173 0
-71 152 173 0
-71 -152 -173 0
104 125 -130 0
104 -125 130 0
-104 125 130 0
-104 -125 -130 0
26 55 -174 0
26 -55 174 0
-26 55 174 0
-26 -55 -174 0
113 145 -175 0
113 -145 175 0
-113 145 175 0
-113 -145 -175 0
153 176 -177 0
153 -176 177 0
-153 176 177 0
-153 -176 -177 0
60 148 -172 0
60 -148 172 0
-60 148 172 0
-60 -148 -172 0
150 155 -178 0
150 -155 178 0
-150 155 178 0
-150 -155 -178 0
12 112 -179 0
12 -112 179 0
-12 112 179 0
-12 -112 -179 0
95 118 -180 0
95 -118 180 0
-95 118 180 0
-95 -118 -180 0
181 182 -183 0
181 -182 183 0
-181 182 183 0
-181 -182 -183 0
184 185 -186 0
184 -185 186 0
-184 185 186 0
-184 -185 -186 0
48 89 -187 0
48 -89 187 0
-48 89 187 0
-48 -89 -187 0
64 187 -188 0
64 -187 188 0
-64 187 188 0
-64 -187 -188 0
134 154 -189 0
134 -154 189 0
-134 154 189 0
-134 -154 -189 0
30 69 -115 0
30 -69 115 0
-30 69 115 0
-30 -69 -115 0
94 110 -190 0
94 -110 190 0
-94 110 190 0
-94 -110 -190 0
15 31 -191 0
15 -31 191 0
-15 31 191 0
-15 -31 -191 0
175 188 -192 0
175 -188 192 0
-175 188 192 0
-175 -188 -192 0
46 105 -189 0
46 -105 189 0
-46 105 189 0
-46 -105 -189 0
123 126 -137 0
123 -126 137 0
-123 126 137 0
-123 -126 -137 0
72 161 -178 0
72 -161 178 0
-72 161 178 0
-72 -161 -178 0
76 93 -193 0
76 -93 193 0
-76 93 193 0
-76 -93 -193 0
16 77 -190 0
16 -77 190 0
-16 77 190 0
-16 -77 -190 0
17 44 -194 0
17 -44 194 0
-17 44 194 0
-17 -44 -194 0
129 135 -184 0
129 -135 184 0
-129 135 184 0
-129 -135 -184 0
28 41 -170 0
28 -41 170 0
-28 41 170 0
-28 -41 -170 0
38 147 -195 0
38 -147 195 0
-38 147 195 0
-38 -147 -195 0
61 136 -196 0
61 -136 196 0
-61 136 196 0
-61 -136 -196 0
79 162 -196 0
79 -162 196 0
-79 162 196 0
-79 -162 -196 0
131 159 -197 0
131 -159 197 0
-131 159 197 0
-131 -159 -197 0
34 49 -198 0
34 -49 198 0
-34 49 198 0
-34 -49 -198 0
107 199 -200 0
107 -199 200 0
-107 199 200 0
-107 -199 -200 0
185 201 -202 0
185 -201 202 0
-185 201 202 0
-185 -201 -202 0
106 199 -203 0
106 -199 203 0
-106 199 203 0
-106 -199 -203 0
111 138 -186 0
111 -138 186 0
-111 138 186 0
-111 -138 -186 0
36 87 -149 0
36 -87 149 0
-36 87 149 0
-36 -87 -149 0
204 205 -206 0
204 -205 206 0
-204 205 206 0
-204 -205 -206 0
57 132 -207 0
57 -132 207 0
-57 132 207 0
-57 -132 -207 0
174 198 -208 0
174 -198 208 0
-174 198 208 0
-174 -198 -208 0
50 144 -195 0
50 -144 195 0
-50 144 195 0
-50 -144 -195 0
120 209 -210 0
120 -209 210 0
-120 209 210 0
-120 -209 -210 0
51 211 -212 0
51 -211 212 0
-51 211 212 0
-51 -211 -212 0
32 109 -176 0
32 -109 176 0
-32 109 176 0
-32 -109 -176 0
90 204 -213 0
90 -204 213 0
-90 204 213 0
-90 -204 -213 0
116 180 -193 0
116 -180 193 0
-116 180 193 0
-116 -180 -193 0
29 214 -215 0
29 -214 215 0
-29 214 215 0
-29 -214 -215 0
121 177 -181 0
121 -177 181 0
-121 177 181 0
-121 -177 -181 0
67 216 -217 0
67 -216 217 0
-67 216 217 0
-67 -216 -217 0
151 173 -194 0
151 -173 194 0
-151 173 194 0
-151 -173 -194 0
203 218 -219 0
203 -218 219 0
-203 218 219 0
-203 -218 -219 0
167 169 -220 0
167 -169 220 0
-167 169 220 0
-167 -169 -220 0
39 108 -207 0
39 -108 207 0
-39 108 207 0
-39 -108 -207 0
37 96 -141 0
37 -96 141 0
-37 96 141 0
-37 -96 -141 0
58 182 -201 0
58 -182 201 0
-58 182 201 0
-58 -182 -201 0
23 197 -211 0
23 -197 211 0
-23 197 211 0
-23 -197 -211 0
133 179 -212 0
133 -179 212 0
-133 179 212 0
-133 -179 -212 0
47 208 -214 0
47 -208 214 0
-47 208 214 0
-47 -208 -214 0
9 18 -221 0
9 -18 221 0
-9 18 221 0
-9 -18 -221 0
205 218 -221 0
205 -218 221 0
-205 218 221 0
-205 -218 -221 0
52 209 -222 0
52 -209 222 0
-52 209 222 0
-52 -209 -222 0
74 216 -220 0
74 -216 220 0
-74 216 220 0
-74 -216 -220 0
139 168 -171 0
139 -168 171 0
-139 168 171 0
-139 -168 -171 0
81 223 -224 0
81 -223 224 0
-81 223 224 0
-81 -223 -224 0
158 213 -223 0
158 -213 223 0
-158 213 223 0
-158 -213 -223 0
142 191 -202 0
142 -191 202 0
-142 191 202 0
-142 -191 -202 0
124 165 -222 0
124 -165 222 0
-124 165 222 0
-124 -165 -222 0
119 156 -183 0
119 -156 183 0
-119 156 183 0
-119 -156 -183 0
127 164 -200 0
127 -164 200 0
-127 164 200 0
-127 -164 -200 0
99 192 -206 0
99 -192 206 0
-99 192 206 0
-99 -192 -206 0
97 166 -215 0
97 -166 215 0
-97 166 215 0
-97 -166 -215 0
84 102 -225 0
84 -102 225 0
-84 102 225 0
-84 -102 -225 0
114 217 -219 0
114 -217 219 0
-114 217 219 0
-114 -217 -219 0
210 224 -225 0
210 -224 225 0
-210 224 225 0
-210 -224 -225 0
