c F4 Tseitin on networkx random_regular_graph(3,80,seed=4), connected=True, odd charge on vertex 1
p cnf 120 320
1 2 3 0
1 -2 -3 0
-1 2 -3 0
-1 -2 3 0
4 5 -6 0
4 -5 6 0
-4 5 6 0
-4 -5 -6 0
7 8 -9 0
7 -8 9 0
-7 8 9 0
-7 -8 -9 0
10 11 -12 0
10 -11 12 0
-10 11 12 0
-10 -11 -12 0
13 14 -15 0
13 -14 15 0
-13 14 15 0
-13 -14 -15 0
16 17 -18 0
16 -17 18 0
-16 17 18 0
-16 -17 -18 0
19 20 -21 0
19 -20 21 0
-19 20 21 0
-19 -20 -21 0
22 23 -24 0
22 -23 24 0
-22 23 24 0
-22 -23 -24 0
25 26 -27 0
25 -26 27 0
-25 26 27 0
-25 -26 -27 0
28 29 -30 0
28 -29 30 0
-28 29 30 0
-28 -29 -30 0
31 32 -33 0
31 -32 33 0
-31 32 33 0
-31 -32 -33 0
34 35 -36 0
34 -35 36 0
-34 35 36 0
-34 -35 -36 0
31 37 -38 0
31 -37 38 0
-31 37 38 0
-31 -37 -38 0
32 39 -40 0
32 -39 40 0
-32 39 40 0
-32 -39 -40 0
41 42 -43 0
41 -42 43 0
-41 42 43 0
-41 -42 -43 0
44 45 -46 0
44 -45 46 0
-44 45 46 0
-44 -45 -46 0
7 47 -48 0
7 -47 48 0
-7 47 48 0
-7 -47 -48 0
49 50 -51 0
49 -50 51 0
-49 50 51 0
-49 -50 -51 0
13 52 -53 0
13 -52 53 0
-13 52 53 0
-13 -52 -53 0
25 54 -55 0
25 -54 55 0
-25 54 55 0
-25 -54 -55 0
26 56 -57 0
26 -56 57 0
-26 56 57 0
-26 -56 -57 0
58 59 -60 0
58 -59 60 0
-58 59 60 0
-58 -59 -60 0
22 34 -61 0
22 -34 61 0
-22 34 61 0
-22 -34 -61 0
62 63 -64 0
62 -63 64 0
-62 63 64 0
-62 -63 -64 0
65 66 -67 0
65 -66 67 0
-65 66 67 0
-65 -66 -67 0
68 69 -70 0
68 -69 70 0
-68 69 70 0
-68 -69 -70 0
65 71 -72 0
65 -71 72 0
-65 71 72 0
-65 -71 -72 0
73 74 -75 0
73 -74 75 0
-73 74 75 0
-73 -74 -75 0
76 77 -78 0
76 -77 78 0
-76 77 78 0
-76 -77 -78 0
58 79 -80 0
58 -79 80 0
-58 79 80 0
-58 -79 -80 0
41 81 -82 0
41 -81 82 0
-41 81 82 0
-41 -81 -82 0
62 71 -83 0
62 -71 83 0
-62 71 83 0
-62 -71 -83 0
19 52 -83 0
19 -52 83 0
-19 52 83 0
-19 -52 -83 0
8 49 -84 0
8 -49 84 0
-8 49 84 0
-8 -49 -84 0
73 85 -86 0
73 -85 86 0
-73 85 86 0
-73 -85 -86 0
87 88 -89 0
87 -88 89 0
-87 88 89 0
-87 -88 -89 0
79 90 -91 0
79 -90 91 0
-79 90 91 0
-79 -90 -91 0
84 92 -93 0
84 -92 93 0
-84 92 93 0
-84 -92 -93 0
10 27 -94 0
10 -27 94 0
-10 27 94 0
-10 -27 -94 0
28 50 -95 0
28 -50 95 0
-28 50 95 0
-28 -50 -95 0
51 96 -97 0
51 -96 97 0
-51 96 97 0
-51 -96 -97 0
35 56 -85 0
35 -56 85 0
-35 56 85 0
-35 -56 -85 0
33 44 -76 0
33 -44 76 0
-33 44 76 0
-33 -44 -76 0
4 98 -99 0
4 -98 99 0
-4 98 99 0
-4 -98 -99 0
1 16 -61 0
1 -16 61 0
-1 16 61 0
-1 -16 -61 0
77 100 -101 0
77 -100 101 0
-77 100 101 0
-77 -100 -101 0
20 98 -102 0
20 -98 102 0
-20 98 102 0
-20 -98 -102 0
42 90 -92 0
42 -90 92 0
-42 90 92 0
-42 -90 -92 0
17 66 -103 0
17 -66 103 0
-17 66 103 0
-17 -66 -103 0
72 104 -105 0
72 -104 105 0
-72 104 105 0
-72 -104 -105 0
2 78 -106 0
2 -78 106 0
-2 78 106 0
-2 -78 -106 0
39 63 -107 0
39 -63 107 0
-39 63 107 0
-39 -63 -107 0
37 108 -109 0
37 -108 109 0
-37 108 109 0
-37 -108 -109 0
87 99 -110 0
87 -99 110 0
-87 99 110 0
-87 -99 -110 0
96 100 -111 0
96 -100 111 0
-96 100 111 0
-96 -100 -111 0
54 101 -103 0
54 -101 103 0
-54 101 103 0
-54 -101 -103 0
29 112 -113 0
29 -112 113 0
-29 112 113 0
-29 -112 -113 0
104 112 -114 0
104 -112 114 0
-104 112 114 0
-104 -112 -114 0
102 115 -116 0
102 -115 116 0
-102 115 116 0
-102 -115 -116 0
59 117 -118 0
59 -117 118 0
-59 117 118 0
-59 -117 -118 0
55 91 -113 0
55 -91 113 0
-55 91 113 0
-55 -91 -113 0
40 94 -107 0
40 -94 107 0
-40 94 107 0
-40 -94 -107 0
5 68 -81 0
5 -68 81 0
-5 68 81 0
-5 -68 -81 0
23 60 -105 0
23 -60 105 0
-23 60 105 0
-23 -60 -105 0
6 88 -119 0
6 -88 119 0
-6 88 119 0
-6 -88 -119 0
97 119 -120 0
97 -119 120 0
-97 119 120 0
-97 -119 -120 0
106 108 -115 0
106 -108 115 0
-106 108 115 0
-106 -108 -115 0
24 57 -74 0
24 -57 74 0
-24 57 74 0
-24 -57 -74 0
14 45 -89 0
14 -45 89 0
-14 45 89 0
-14 -45 -89 0
3 47 -69 0
3 -47 69 0
-3 47 69 0
-3 -47 -69 0
82 86 -110 0
82 -86 110 0
-82 86 110 0
-82 -86 -110 0
18 30 -46 0
18 -30 46 0
-18 30 46 0
-18 -30 -46 0
53 114 -116 0
53 -114 116 0
-53 114 116 0
-53 -114 -116 0
70 75 -80 0
70 -75 80 0
-70 75 80 0
-70 -75 -80 0
21 38 -48 0
21 -38 48 0
-21 38 48 0
-21 -38 -48 0
15 36 -117 0
15 -36 117 0
-15 36 117 0
-15 -36 -117 0
9 11 -93 0
9 -11 93 0
-9 11 93 0
-9 -11 -93 0
12 43 -64 0
12 -43 64 0
-12 43 64 0
-12 -43 -64 0
111 118 -120 0
111 -118 120 0
-111 118 120 0
-111 -118 -120 0
67 95 -109 0
67 -95 109 0
-67 95 109 0
-67 -95 -109 0
