c F4 Tseitin on networkx random_regular_graph(3,60,seed=6), connected=True, odd charge on vertex 1
p cnf 90 240
1 2 3 0
1 -2 -3 0
-1 2 -3 0
-1 -2 3 0
4 5 -6 0
4 -5 6 0
-4 5 6 0
-4 -5 -6 0
7 8 -9 0
7 -8 9 0
-7 8 9 0
-7 -8 -9 0
10 11 -12 0
10 -11 12 0
-10 11 12 0
-10 -11 -12 0
13 14 -15 0
13 -14 15 0
-13 14 15 0
-13 -14 -15 0
16 17 -18 0
16 -17 18 0
-16 17 18 0
-16 -17 -18 0
13 19 -20 0
13 -19 20 0
-13 19 20 0
-13 -19 -20 0
21 22 -23 0
21 -22 23 0
-21 22 23 0
-21 -22 -23 0
21 24 -25 0
21 -24 25 0
-21 24 25 0
-21 -24 -25 0
1 16 -26 0
1 -16 26 0
-1 16 26 0
-1 -16 -26 0
27 28 -29 0
27 -28 29 0
-27 28 29 0
-27 -28 -29 0
30 31 -32 0
30 -31 32 0
-30 31 32 0
-30 -31 -32 0
22 33 -34 0
22 -33 34 0
-22 33 34 0
-22 -33 -34 0
35 36 -37 0
35 -36 37 0
-35 36 37 0
-35 -36 -37 0
38 39 -40 0
38 -39 40 0
-38 39 40 0
-38 -39 -40 0
41 42 -43 0
41 -42 43 0
-41 42 43 0
-41 -42 -43 0
4 44 -45 0
4 -44 45 0
-4 44 45 0
-4 -44 -45 0
46 47 -48 0
46 -47 48 0
-46 47 48 0
-46 -47 -48 0
49 50 -51 0
49 -50 51 0
-49 50 51 0
-49 -50 -51 0
52 53 -54 0
52 -53 54 0
-52 53 54 0
-52 -53 -54 0
55 56 -57 0
55 -56 57 0
-55 56 57 0
-55 -56 -57 0
23 58 -59 0
23 -58 59 0
-23 58 59 0
-23 -58 -59 0
7 60 -61 0
7 -60 61 0
-7 60 61 0
-7 -60 -61 0
41 62 -63 0
41 -62 63 0
-41 62 63 0
-41 -62 -63 0
33 49 -64 0
33 -49 64 0
-33 49 64 0
-33 -49 -64 0
27 42 -62 0
27 -42 62 0
-27 42 62 0
-27 -42 -62 0
38 44 -55 0
38 -44 55 0
-38 44 55 0
-38 -44 -55 0
39 56 -65 0
39 -56 65 0
-39 56 65 0
-39 -56 -65 0
46 57 -66 0
46 -57 66 0
-46 57 66 0
-46 -57 -66 0
24 67 -68 0
24 -67 68 0
-24 67 68 0
-24 -67 -68 0
2 50 -69 0
2 -50 69 0
-2 50 69 0
-2 -50 -69 0
69 70 -71 0
69 -70 71 0
-69 70 71 0
-69 -70 -71 0
19 35 -72 0
19 -35 72 0
-19 35 72 0
-19 -35 -72 0
52 60 -73 0
52 -60 73 0
-52 60 73 0
-52 -60 -73 0
10 74 -75 0
10 -74 75 0
-10 74 75 0
-10 -74 -75 0
43 58 -76 0
43 -58 76 0
-43 58 76 0
-43 -58 -76 0
25 53 -77 0
25 -53 77 0
-25 53 77 0
-25 -53 -77 0
8 78 -79 0
8 -78 79 0
-8 78 79 0
-8 -78 -79 0
3 5 -80 0
3 -5 80 0
-3 5 80 0
-3 -5 -80 0
30 59 -74 0
30 -59 74 0
-30 59 74 0
-30 -59 -74 0
9 54 -81 0
9 -54 81 0
-9 54 81 0
-9 -54 -81 0
36 82 -83 0
36 -82 83 0
-36 82 83 0
-36 -82 -83 0
11 31 -76 0
11 -31 76 0
-11 31 76 0
-11 -31 -76 0
26 28 -84 0
26 -28 84 0
-26 28 84 0
-26 -28 -84 0
17 72 -81 0
17 -72 81 0
-17 72 81 0
-17 -72 -81 0
47 63 -78 0
47 -63 78 0
-47 63 78 0
-47 -63 -78 0
37 82 -84 0
37 -82 84 0
-37 82 84 0
-37 -82 -84 0
85 86 -87 0
85 -86 87 0
-85 86 87 0
-85 -86 -87 0
6 61 -88 0
6 -61 88 0
-6 61 88 0
-6 -61 -88 0
64 79 -83 0
64 -79 83 0
-64 79 83 0
-64 -79 -83 0
18 48 -51 0
18 -48 51 0
-18 48 51 0
-18 -48 -51 0
32 80 -89 0
32 -80 89 0
-32 80 89 0
-32 -80 -89 0
12 29 -65 0
12 -29 65 0
-12 29 65 0
-12 -29 -65 0
14 45 -88 0
14 -45 88 0
-14 45 88 0
-14 -45 -88 0
20 75 -90 0
20 -75 90 0
-20 75 90 0
-20 -75 -90 0
73 77 -90 0
73 -77 90 0
-73 77 90 0
-73 -77 -90 0
34 67 -70 0
34 -67 70 0
-34 67 70 0
-34 -67 -70 0
66 71 -85 0
66 -71 85 0
-66 71 85 0
-66 -71 -85 0
68 86 -89 0
68 -86 89 0
-68 86 89 0
-68 -86 -89 0
15 40 -87 0
15 -40 87 0
-15 40 87 0
-15 -40 -87 0
