c F4 Tseitin on networkx random_regular_graph(3,60,seed=2), connected=True, odd charge on vertex 1
p cnf 90 240
1 2 3 0
1 -2 -3 0
-1 2 -3 0
-1 -2 3 0
4 5 -6 0
4 -5 6 0
-4 5 6 0
-4 -5 -6 0
7 8 -9 0
7 -8 9 0
-7 8 9 0
-7 -8 -9 0
10 11 -12 0
10 -11 12 0
-10 11 12 0
-10 -11 -12 0
13 14 -15 0
13 -14 15 0
-13 14 15 0
-13 -14 -15 0
16 17 -18 0
16 -17 18 0
-16 17 18 0
-16 -17 -18 0
19 20 -21 0
19 -20 21 0
-19 20 21 0
-19 -20 -21 0
22 23 -24 0
22 -23 24 0
-22 23 24 0
-22 -23 -24 0
25 26 -27 0
25 -26 27 0
-25 26 27 0
-25 -26 -27 0
13 28 -29 0
13 -28 29 0
-13 28 29 0
-13 -28 -29 0
10 30 -31 0
10 -30 31 0
-10 30 31 0
-10 -30 -31 0
16 19 -32 0
16 -19 32 0
-16 19 32 0
-16 -19 -32 0
7 11 -33 0
7 -11 33 0
-7 11 33 0
-7 -11 -33 0
25 30 -34 0
25 -30 34 0
-25 30 34 0
-25 -30 -34 0
26 34 -35 0
26 -34 35 0
-26 34 35 0
-26 -34 -35 0
31 36 -37 0
31 -36 37 0
-31 36 37 0
-31 -36 -37 0
38 39 -40 0
38 -39 40 0
-38 39 40 0
-38 -39 -40 0
41 42 -43 0
41 -42 43 0
-41 42 43 0
-41 -42 -43 0
41 44 -45 0
41 -44 45 0
-41 44 45 0
-41 -44 -45 0
36 46 -47 0
36 -46 47 0
-36 46 47 0
-36 -46 -47 0
4 48 -49 0
4 -48 49 0
-4 48 49 0
-4 -48 -49 0
32 50 -51 0
32 -50 51 0
-32 50 51 0
-32 -50 -51 0
52 53 -54 0
52 -53 54 0
-52 53 54 0
-52 -53 -54 0
55 56 -57 0
55 -56 57 0
-55 56 57 0
-55 -56 -57 0
58 59 -60 0
58 -59 60 0
-58 59 60 0
-58 -59 -60 0
58 61 -62 0
58 -61 62 0
-58 61 62 0
-58 -61 -62 0
63 64 -65 0
63 -64 65 0
-63 64 65 0
-63 -64 -65 0
20 50 -66 0
20 -50 66 0
-20 50 66 0
-20 -50 -66 0
38 67 -68 0
38 -67 68 0
-38 67 68 0
-38 -67 -68 0
51 69 -70 0
51 -69 70 0
-51 69 70 0
-51 -69 -70 0
22 46 -71 0
22 -46 71 0
-22 46 71 0
-22 -46 -71 0
14 72 -73 0
14 -72 73 0
-14 72 73 0
-14 -72 -73 0
37 52 -74 0
37 -52 74 0
-37 52 74 0
-37 -52 -74 0
8 17 -33 0
8 -17 33 0
-8 17 33 0
-8 -17 -33 0
23 39 -75 0
23 -39 75 0
-23 39 75 0
-23 -39 -75 0
40 48 -76 0
40 -48 76 0
-40 48 76 0
-40 -48 -76 0
27 77 -78 0
27 -77 78 0
-27 77 78 0
-27 -77 -78 0
15 18 -63 0
15 -18 63 0
-15 18 63 0
-15 -18 -63 0
24 61 -71 0
24 -61 71 0
-24 61 71 0
-24 -61 -71 0
67 69 -79 0
67 -69 79 0
-67 69 79 0
-67 -69 -79 0
74 80 -81 0
74 -80 81 0
-74 80 81 0
-74 -80 -81 0
9 82 -83 0
9 -82 83 0
-9 82 83 0
-9 -82 -83 0
62 84 -85 0
62 -84 85 0
-62 84 85 0
-62 -84 -85 0
12 72 -80 0
12 -72 80 0
-12 72 80 0
-12 -72 -80 0
68 86 -87 0
68 -86 87 0
-68 86 87 0
-68 -86 -87 0
1 28 -77 0
1 -28 77 0
-1 28 77 0
-1 -28 -77 0
21 78 -81 0
21 -78 81 0
-21 78 81 0
-21 -78 -81 0
29 55 -70 0
29 -55 70 0
-29 55 70 0
-29 -55 -70 0
2 42 -44 0
2 -42 44 0
-2 42 44 0
-2 -42 -44 0
43 82 -88 0
43 -82 88 0
-43 82 88 0
-43 -82 -88 0
56 59 -89 0
56 -59 89 0
-56 59 89 0
-56 -59 -89 0
60 66 -84 0
60 -66 84 0
-60 66 84 0
-60 -66 -84 0
53 75 -86 0
53 -75 86 0
-53 75 86 0
-53 -75 -86 0
57 89 -90 0
57 -89 90 0
-57 89 90 0
-57 -89 -90 0
54 73 -83 0
54 -73 83 0
-54 73 83 0
-54 -73 -83 0
5 47 -64 0
5 -47 64 0
-5 47 64 0
-5 -47 -64 0
45 65 -90 0
45 -65 90 0
-45 65 90 0
-45 -65 -90 0
6 49 -76 0
6 -49 76 0
-6 49 76 0
-6 -49 -76 0
3 35 -85 0
3 -35 85 0
-3 35 85 0
-3 -35 -85 0
79 87 -88 0
79 -87 88 0
-79 87 88 0
-79 -87 -88 0
