c F4 Tseitin on networkx random_regular_graph(3,40,seed=4), connected=True, odd charge on vertex 1
p cnf 60 160
1 2 3 0
1 -2 -3 0
-1 2 -3 0
-1 -2 3 0
4 5 -6 0
4 -5 6 0
-4 5 6 0
-4 -5 -6 0
7 8 -9 0
7 -8 9 0
-7 8 9 0
-7 -8 -9 0
10 11 -12 0
10 -11 12 0
-10 11 12 0
-10 -11 -12 0
13 14 -15 0
13 -14 15 0
-13 14 15 0
-13 -14 -15 0
16 17 -18 0
16 -17 18 0
-16 17 18 0
-16 -17 -18 0
16 19 -20 0
16 -19 20 0
-16 19 20 0
-16 -19 -20 0
13 21 -22 0
13 -21 22 0
-13 21 22 0
-13 -21 -22 0
7 23 -24 0
7 -23 24 0
-7 23 24 0
-7 -23 -24 0
21 25 -26 0
21 -25 26 0
-21 25 26 0
-21 -25 -26 0
10 25 -27 0
10 -25 27 0
-10 25 27 0
-10 -25 -27 0
28 29 -30 0
28 -29 30 0
-28 29 30 0
-28 -29 -30 0
27 31 -32 0
27 -31 32 0
-27 31 32 0
-27 -31 -32 0
17 33 -34 0
17 -33 34 0
-17 33 34 0
-17 -33 -34 0
1 22 -23 0
1 -22 23 0
-1 22 23 0
-1 -22 -23 0
14 35 -36 0
14 -35 36 0
-14 35 36 0
-14 -35 -36 0
28 37 -38 0
28 -37 38 0
-28 37 38 0
-28 -37 -38 0
4 8 -39 0
4 -8 39 0
-4 8 39 0
-4 -8 -39 0
40 41 -42 0
40 -41 42 0
-40 41 42 0
-40 -41 -42 0
29 43 -44 0
29 -43 44 0
-29 43 44 0
-29 -43 -44 0
2 9 -45 0
2 -9 45 0
-2 9 45 0
-2 -9 -45 0
40 46 -47 0
40 -46 47 0
-40 46 47 0
-40 -46 -47 0
18 48 -49 0
18 -48 49 0
-18 48 49 0
-18 -48 -49 0
19 33 -43 0
19 -33 43 0
-19 33 43 0
-19 -33 -43 0
34 50 -51 0
34 -50 51 0
-34 50 51 0
-34 -50 -51 0
31 45 -52 0
31 -45 52 0
-31 45 52 0
-31 -45 -52 0
52 53 -54 0
52 -53 54 0
-52 53 54 0
-52 -53 -54 0
32 41 -55 0
32 -41 55 0
-32 41 55 0
-32 -41 -55 0
11 15 -55 0
11 -15 55 0
-11 15 55 0
-11 -15 -55 0
26 50 -56 0
26 -50 56 0
-26 50 56 0
-26 -50 -56 0
35 48 -57 0
35 -48 57 0
-35 48 57 0
-35 -48 -57 0
5 53 -58 0
5 -53 58 0
-5 53 58 0
-5 -53 -58 0
39 42 -46 0
39 -42 46 0
-39 42 46 0
-39 -42 -46 0
6 58 -59 0
6 -58 59 0
-6 58 59 0
-6 -58 -59 0
49 51 -56 0
49 -51 56 0
-49 51 56 0
-49 -51 -56 0
30 36 -54 0
30 -36 54 0
-30 36 54 0
-30 -36 -54 0
3 24 -47 0
3 -24 47 0
-3 24 47 0
-3 -24 -47 0
12 44 -60 0
12 -44 60 0
-12 44 60 0
-12 -44 -60 0
20 37 -59 0
20 -37 59 0
-20 37 59 0
-20 -37 -59 0
38 57 -60 0
38 -57 60 0
-38 57 60 0
-38 -57 -60 0
