c F4 Tseitin on networkx random_regular_graph(3,40,seed=6), connected=True, odd charge on vertex 1
p cnf 60 160
1 2 3 0
1 -2 -3 0
-1 2 -3 0
-1 -2 3 0
4 5 -6 0
4 -5 6 0
-4 5 6 0
-4 -5 -6 0
7 8 -9 0
7 -8 9 0
-7 8 9 0
-7 -8 -9 0
10 11 -12 0
10 -11 12 0
-10 11 12 0
-10 -11 -12 0
13 14 -15 0
13 -14 15 0
-13 14 15 0
-13 -14 -15 0
16 17 -18 0
16 -17 18 0
-16 17 18 0
-16 -17 -18 0
19 20 -21 0
19 -20 21 0
-19 20 21 0
-19 -20 -21 0
22 23 -24 0
22 -23 24 0
-22 23 24 0
-22 -23 -24 0
4 22 -25 0
4 -22 25 0
-4 22 25 0
-4 -22 -25 0
10 26 -27 0
10 -26 27 0
-10 26 27 0
-10 -26 -27 0
1 28 -29 0
1 -28 29 0
-1 28 29 0
-1 -28 -29 0
2 30 -31 0
2 -30 31 0
-2 30 31 0
-2 -30 -31 0
25 32 -33 0
25 -32 33 0
-25 32 33 0
-25 -32 -33 0
30 34 -35 0
30 -34 35 0
-30 34 35 0
-30 -34 -35 0
11 16 -36 0
11 -16 36 0
-11 16 36 0
-11 -16 -36 0
7 32 -37 0
7 -32 37 0
-7 32 37 0
-7 -32 -37 0
17 26 -38 0
17 -26 38 0
-17 26 38 0
-17 -26 -38 0
19 39 -40 0
19 -39 40 0
-19 39 40 0
-19 -39 -40 0
18 41 -42 0
18 -41 42 0
-18 41 42 0
-18 -41 -42 0
5 43 -44 0
5 -43 44 0
-5 43 44 0
-5 -43 -44 0
43 45 -46 0
43 -45 46 0
-43 45 46 0
-43 -45 -46 0
13 38 -47 0
13 -38 47 0
-13 38 47 0
-13 -38 -47 0
14 20 -48 0
14 -20 48 0
-14 20 48 0
-14 -20 -48 0
23 41 -49 0
23 -41 49 0
-23 41 49 0
-23 -41 -49 0
39 50 -51 0
39 -50 51 0
-39 50 51 0
-39 -50 -51 0
24 42 -52 0
24 -42 52 0
-24 42 52 0
-24 -42 -52 0
8 28 -53 0
8 -28 53 0
-8 28 53 0
-8 -28 -53 0
53 54 -55 0
53 -54 55 0
-53 54 55 0
-53 -54 -55 0
37 40 -56 0
37 -40 56 0
-37 40 56 0
-37 -40 -56 0
9 52 -57 0
9 -52 57 0
-9 52 57 0
-9 -52 -57 0
3 15 -21 0
3 -15 21 0
-3 15 21 0
-3 -15 -21 0
57 58 -59 0
57 -58 59 0
-57 58 59 0
-57 -58 -59 0
27 33 -60 0
27 -33 60 0
-27 33 60 0
-27 -33 -60 0
34 44 -58 0
34 -44 58 0
-34 44 58 0
-34 -44 -58 0
6 48 -56 0
6 -48 56 0
-6 48 56 0
-6 -48 -56 0
45 47 -60 0
45 -47 60 0
-45 47 60 0
-45 -47 -60 0
12 29 -54 0
12 -29 54 0
-12 29 54 0
-12 -29 -54 0
46 50 -59 0
46 -50 59 0
-46 50 59 0
-46 -50 -59 0
31 35 -51 0
31 -35 51 0
-31 35 51 0
-31 -35 -51 0
36 49 -55 0
36 -49 55 0
-36 49 55 0
-36 -49 -55 0
