c F4 Tseitin on networkx random_regular_graph(3,60,seed=7), connected=True, odd charge on vertex 1
p cnf 90 240
1 2 3 0
1 -2 -3 0
-1 2 -3 0
-1 -2 3 0
4 5 -6 0
4 -5 6 0
-4 5 6 0
-4 -5 -6 0
7 8 -9 0
7 -8 9 0
-7 8 9 0
-7 -8 -9 0
10 11 -12 0
10 -11 12 0
-10 11 12 0
-10 -11 -12 0
7 13 -14 0
7 -13 14 0
-7 13 14 0
-7 -13 -14 0
15 16 -17 0
15 -16 17 0
-15 16 17 0
-15 -16 -17 0
18 19 -20 0
18 -19 20 0
-18 19 20 0
-18 -19 -20 0
1 21 -22 0
1 -21 22 0
-1 21 22 0
-1 -21 -22 0
23 24 -25 0
23 -24 25 0
-23 24 25 0
-23 -24 -25 0
26 27 -28 0
26 -27 28 0
-26 27 28 0
-26 -27 -28 0
29 30 -31 0
29 -30 31 0
-29 30 31 0
-29 -30 -31 0
32 33 -34 0
32 -33 34 0
-32 33 34 0
-32 -33 -34 0
21 35 -36 0
21 -35 36 0
-21 35 36 0
-21 -35 -36 0
37 38 -39 0
37 -38 39 0
-37 38 39 0
-37 -38 -39 0
10 13 -15 0
10 -13 15 0
-10 13 15 0
-10 -13 -15 0
35 40 -41 0
35 -40 41 0
-35 40 41 0
-35 -40 -41 0
29 42 -43 0
29 -42 43 0
-29 42 43 0
-29 -42 -43 0
44 45 -46 0
44 -45 46 0
-44 45 46 0
-44 -45 -46 0
4 37 -47 0
4 -37 47 0
-4 37 47 0
-4 -37 -47 0
23 48 -49 0
23 -48 49 0
-23 48 49 0
-23 -48 -49 0
5 50 -51 0
5 -50 51 0
-5 50 51 0
-5 -50 -51 0
26 52 -53 0
26 -52 53 0
-26 52 53 0
-26 -52 -53 0
11 18 -54 0
11 -18 54 0
-11 18 54 0
-11 -18 -54 0
55 56 -57 0
55 -56 57 0
-55 56 57 0
-55 -56 -57 0
2 19 -58 0
2 -19 58 0
-2 19 58 0
-2 -19 -58 0
30 48 -50 0
30 -48 50 0
-30 48 50 0
-30 -48 -50 0
59 60 -61 0
59 -60 61 0
-59 60 61 0
-59 -60 -61 0
55 59 -62 0
55 -59 62 0
-55 59 62 0
-55 -59 -62 0
56 63 -64 0
56 -63 64 0
-56 63 64 0
-56 -63 -64 0
12 38 -60 0
12 -38 60 0
-12 38 60 0
-12 -38 -60 0
42 65 -66 0
42 -65 66 0
-42 65 66 0
-42 -65 -66 0
52 67 -68 0
52 -67 68 0
-52 67 68 0
-52 -67 -68 0
32 44 -65 0
32 -44 65 0
-32 44 65 0
-32 -44 -65 0
69 70 -71 0
69 -70 71 0
-69 70 71 0
-69 -70 -71 0
16 72 -73 0
16 -72 73 0
-16 72 73 0
-16 -72 -73 0
63 74 -75 0
63 -74 75 0
-63 74 75 0
-63 -74 -75 0
54 62 -76 0
54 -62 76 0
-54 62 76 0
-54 -62 -76 0
8 77 -78 0
8 -77 78 0
-8 77 78 0
-8 -77 -78 0
72 79 -80 0
72 -79 80 0
-72 79 80 0
-72 -79 -80 0
3 33 -49 0
3 -33 49 0
-3 33 49 0
-3 -33 -49 0
51 67 -81 0
51 -67 81 0
-51 67 81 0
-51 -67 -81 0
69 79 -82 0
69 -79 82 0
-69 79 82 0
-69 -79 -82 0
47 53 -83 0
47 -53 83 0
-47 53 83 0
-47 -53 -83 0
20 58 -64 0
20 -58 64 0
-20 58 64 0
-20 -58 -64 0
84 85 -86 0
84 -85 86 0
-84 85 86 0
-84 -85 -86 0
74 77 -81 0
74 -77 81 0
-74 77 81 0
-74 -77 -81 0
9 75 -87 0
9 -75 87 0
-9 75 87 0
-9 -75 -87 0
66 70 -88 0
66 -70 88 0
-66 70 88 0
-66 -70 -88 0
31 78 -84 0
31 -78 84 0
-31 78 84 0
-31 -78 -84 0
40 83 -89 0
40 -83 89 0
-40 83 89 0
-40 -83 -89 0
36 39 -80 0
36 -39 80 0
-36 39 80 0
-36 -39 -80 0
24 27 -34 0
24 -27 34 0
-24 27 34 0
-24 -27 -34 0
22 82 -85 0
22 -82 85 0
-22 82 85 0
-22 -82 -85 0
43 68 -87 0
43 -68 87 0
-43 68 87 0
-43 -68 -87 0
45 57 -73 0
45 -57 73 0
-45 57 73 0
-45 -57 -73 0
17 25 -28 0
17 -25 28 0
-17 25 28 0
-17 -25 -28 0
61 89 -90 0
61 -89 90 0
-61 89 90 0
-61 -89 -90 0
14 41 -71 0
14 -41 71 0
-14 41 71 0
-14 -41 -71 0
6 86 -90 0
6 -86 90 0
-6 86 90 0
-6 -86 -90 0
46 76 -88 0
46 -76 88 0
-46 76 88 0
-46 -76 -88 0
