c F4 Tseitin on networkx random_regular_graph(3,80,seed=0), connected=True, odd charge on vertex 1
p cnf 120 320
1 2 3 0
1 -2 -3 0
-1 2 -3 0
-1 -2 3 0
4 5 -6 0
4 -5 6 0
-4 5 6 0
-4 -5 -6 0
7 8 -9 0
7 -8 9 0
-7 8 9 0
-7 -8 -9 0
10 11 -12 0
10 -11 12 0
-10 11 12 0
-10 -11 -12 0
13 14 -15 0
13 -14 15 0
-13 14 15 0
-13 -14 -15 0
16 17 -18 0
16 -17 18 0
-16 17 18 0
-16 -17 -18 0
19 20 -21 0
19 -20 21 0
-19 20 21 0
-19 -20 -21 0
22 23 -24 0
22 -23 24 0
-22 23 24 0
-22 -23 -24 0
25 26 -27 0
25 -26 27 0
-25 26 27 0
-25 -26 -27 0
7 28 -29 0
7 -28 29 0
-7 28 29 0
-7 -28 -29 0
30 31 -32 0
30 -31 32 0
-30 31 32 0
-30 -31 -32 0
1 33 -34 0
1 -33 34 0
-1 33 34 0
-1 -33 -34 0
22 35 -36 0
22 -35 36 0
-22 35 36 0
-22 -35 -36 0
8 37 -38 0
8 -37 38 0
-8 37 38 0
-8 -37 -38 0
39 40 -41 0
39 -40 41 0
-39 40 41 0
-39 -40 -41 0
42 43 -44 0
42 -43 44 0
-42 43 44 0
-42 -43 -44 0
45 46 -47 0
45 -46 47 0
-45 46 47 0
-45 -46 -47 0
48 49 -50 0
48 -49 50 0
-48 49 50 0
-48 -49 -50 0
42 51 -52 0
42 -51 52 0
-42 51 52 0
-42 -51 -52 0
53 54 -55 0
53 -54 55 0
-53 54 55 0
-53 -54 -55 0
13 56 -57 0
13 -56 57 0
-13 56 57 0
-13 -56 -57 0
58 59 -60 0
58 -59 60 0
-58 59 60 0
-58 -59 -60 0
58 61 -62 0
58 -61 62 0
-58 61 62 0
-58 -61 -62 0
23 63 -64 0
23 -63 64 0
-23 63 64 0
-23 -63 -64 0
63 65 -66 0
63 -65 66 0
-63 65 66 0
-63 -65 -66 0
56 67 -68 0
56 -67 68 0
-56 67 68 0
-56 -67 -68 0
4 67 -69 0
4 -67 69 0
-4 67 69 0
-4 -67 -69 0
30 45 -70 0
30 -45 70 0
-30 45 70 0
-30 -45 -70 0
71 72 -73 0
71 -72 73 0
-71 72 73 0
-71 -72 -73 0
25 35 -74 0
25 -35 74 0
-25 35 74 0
-25 -35 -74 0
53 75 -76 0
53 -75 76 0
-53 75 76 0
-53 -75 -76 0
31 77 -78 0
31 -77 78 0
-31 77 78 0
-31 -77 -78 0
19 74 -79 0
19 -74 79 0
-19 74 79 0
-19 -74 -79 0
61 80 -81 0
61 -80 81 0
-61 80 81 0
-61 -80 -81 0
71 82 -83 0
71 -82 83 0
-71 82 83 0
-71 -82 -83 0
28 84 -85 0
28 -84 85 0
-28 84 85 0
-28 -84 -85 0
2 86 -87 0
2 -86 87 0
-2 86 87 0
-2 -86 -87 0
75 88 -89 0
75 -88 89 0
-75 88 89 0
-75 -88 -89 0
26 29 -48 0
26 -29 48 0
-26 29 48 0
-26 -29 -48 0
9 72 -90 0
9 -72 90 0
-9 72 90 0
-9 -72 -90 0
14 39 -91 0
14 -39 91 0
-14 39 91 0
-14 -39 -91 0
49 92 -93 0
49 -92 93 0
-49 92 93 0
-49 -92 -93 0
88 94 -95 0
88 -94 95 0
-88 94 95 0
-88 -94 -95 0
5 96 -97 0
5 -96 97 0
-5 96 97 0
-5 -96 -97 0
50 64 -98 0
50 -64 98 0
-50 64 98 0
-50 -64 -98 0
46 59 -70 0
46 -59 70 0
-46 59 70 0
-46 -59 -70 0
16 73 -79 0
16 -73 79 0
-16 73 79 0
-16 -73 -79 0
99 100 -101 0
99 -100 101 0
-99 100 101 0
-99 -100 -101 0
47 96 -102 0
47 -96 102 0
-47 96 102 0
-47 -96 -102 0
84 103 -104 0
84 -103 104 0
-84 103 104 0
-84 -103 -104 0
33 94 -105 0
33 -94 105 0
-33 94 105 0
-33 -94 -105 0
76 106 -107 0
76 -106 107 0
-76 106 107 0
-76 -106 -107 0
10 91 -108 0
10 -91 108 0
-10 91 108 0
-10 -91 -108 0
80 92 -109 0
80 -92 109 0
-80 92 109 0
-80 -92 -109 0
65 86 -103 0
65 -86 103 0
-65 86 103 0
-65 -86 -103 0
104 110 -111 0
104 -110 111 0
-104 110 111 0
-104 -110 -111 0
51 57 -112 0
51 -57 112 0
-51 57 112 0
-51 -57 -112 0
52 68 -113 0
52 -68 113 0
-52 68 113 0
-52 -68 -113 0
106 114 -115 0
106 -114 115 0
-106 114 115 0
-106 -114 -115 0
82 113 -116 0
82 -113 116 0
-82 113 116 0
-82 -113 -116 0
11 32 -117 0
11 -32 117 0
-11 32 117 0
-11 -32 -117 0
81 87 -118 0
81 -87 118 0
-81 87 118 0
-81 -87 -118 0
12 36 -54 0
12 -36 54 0
-12 36 54 0
-12 -36 -54 0
20 97 -107 0
20 -97 107 0
-20 97 107 0
-20 -97 -107 0
17 98 -119 0
17 -98 119 0
-17 98 119 0
-17 -98 -119 0
27 69 -112 0
27 -69 112 0
-27 69 112 0
-27 -69 -112 0
43 105 -118 0
43 -105 118 0
-43 105 118 0
-43 -105 -118 0
55 83 -102 0
55 -83 102 0
-55 83 102 0
-55 -83 -102 0
15 62 -90 0
15 -62 90 0
-15 62 90 0
-15 -62 -90 0
34 109 -116 0
34 -109 116 0
-34 109 116 0
-34 -109 -116 0
40 117 -120 0
40 -117 120 0
-40 117 120 0
-40 -117 -120 0
37 60 -110 0
37 -60 110 0
-37 60 110 0
-37 -60 -110 0
6 85 -99 0
6 -85 99 0
-6 85 99 0
-6 -85 -99 0
44 77 -111 0
44 -77 111 0
-44 77 111 0
-44 -77 -111 0
78 93 -100 0
78 -93 100 0
-78 93 100 0
-78 -93 -100 0
21 24 -120 0
21 -24 120 0
-21 24 120 0
-21 -24 -120 0
3 114 -119 0
3 -114 119 0
-3 114 119 0
-3 -114 -119 0
95 101 -115 0
95 -101 115 0
-95 101 115 0
-95 -101 -115 0
18 41 -66 0
18 -41 66 0
-18 41 66 0
-18 -41 -66 0
38 89 -108 0
38 -89 108 0
-38 89 108 0
-38 -89 -108 0
