c F4 Tseitin on networkx random_regular_graph(3,300,seed=9), connected=True, odd charge on vertex 1
p cnf 450 1200
1 2 3 0
1 -2 -3 0
-1 2 -3 0
-1 -2 3 0
4 5 -6 0
4 -5 6 0
-4 5 6 0
-4 -5 -6 0
7 8 -9 0
7 -8 9 0
-7 8 9 0
-7 -8 -9 0
10 11 -12 0
10 -11 12 0
-10 11 12 0
-10 -11 -12 0
13 14 -15 0
13 -14 15 0
-13 14 15 0
-13 -14 -15 0
16 17 -18 0
16 -17 18 0
-16 17 18 0
-16 -17 -18 0
19 20 -21 0
19 -20 21 0
-19 20 21 0
-19 -20 -21 0
22 23 -24 0
22 -23 24 0
-22 23 24 0
-22 -23 -24 0
25 26 -27 0
25 -26 27 0
-25 26 27 0
-25 -26 -27 0
28 29 -30 0
28 -29 30 0
-28 29 30 0
-28 -29 -30 0
19 31 -32 0
19 -31 32 0
-19 31 32 0
-19 -31 -32 0
10 33 -34 0
10 -33 34 0
-10 33 34 0
-10 -33 -34 0
35 36 -37 0
35 -36 37 0
-35 36 37 0
-35 -36 -37 0
38 39 -40 0
38 -39 40 0
-38 39 40 0
-38 -39 -40 0
41 42 -43 0
41 -42 43 0
-41 42 43 0
-41 -42 -43 0
44 45 -46 0
44 -45 46 0
-44 45 46 0
-44 -45 -46 0
47 48 -49 0
47 -48 49 0
-47 48 49 0
-47 -48 -49 0
50 51 -52 0
50 -51 52 0
-50 51 52 0
-50 -51 -52 0
53 54 -55 0
53 -54 55 0
-53 54 55 0
-53 -54 -55 0
56 57 -58 0
56 -57 58 0
-56 57 58 0
-56 -57 -58 0
59 60 -61 0
59 -60 61 0
-59 60 61 0
-59 -60 -61 0
62 63 -64 0
62 -63 64 0
-62 63 64 0
-62 -63 -64 0
65 66 -67 0
65 -66 67 0
-65 66 67 0
-65 -66 -67 0
68 69 -70 0
68 -69 70 0
-68 69 70 0
-68 -69 -70 0
71 72 -73 0
71 -72 73 0
-71 72 73 0
-71 -72 -73 0
1 74 -75 0
1 -74 75 0
-1 74 75 0
-1 -74 -75 0
44 76 -77 0
44 -76 77 0
-44 76 77 0
-44 -76 -77 0
56 78 -79 0
56 -78 79 0
-56 78 79 0
-56 -78 -79 0
80 81 -82 0
80 -81 82 0
-80 81 82 0
-80 -81 -82 0
25 83 -84 0
25 -83 84 0
-25 83 84 0
-25 -83 -84 0
85 86 -87 0
85 -86 87 0
-85 86 87 0
-85 -86 -87 0
88 89 -90 0
88 -89 90 0
-88 89 90 0
-88 -89 -90 0
91 92 -93 0
91 -92 93 0
-91 92 93 0
-91 -92 -93 0
94 95 -96 0
94 -95 96 0
-94 95 96 0
-94 -95 -96 0
80 97 -98 0
80 -97 98 0
-80 97 98 0
-80 -97 -98 0
99 100 -101 0
99 -100 101 0
-99 100 101 0
-99 -100 -101 0
2 102 -103 0
2 -102 103 0
-2 102 103 0
-2 -102 -103 0
104 105 -106 0
104 -105 106 0
-104 105 106 0
-104 -105 -106 0
107 108 -109 0
107 -108 109 0
-107 108 109 0
-107 -108 -109 0
99 110 -111 0
99 -110 111 0
-99 110 111 0
-99 -110 -111 0
112 113 -114 0
112 -113 114 0
-112 113 114 0
-112 -113 -114 0
115 116 -117 0
115 -116 117 0
-115 116 117 0
-115 -116 -117 0
118 119 -120 0
118 -119 120 0
-118 119 120 0
-118 -119 -120 0
121 122 -123 0
121 -122 123 0
-121 122 123 0
-121 -122 -123 0
41 112 -124 0
41 -112 124 0
-41 112 124 0
-41 -112 -124 0
125 126 -127 0
125 -126 127 0
-125 126 127 0
-125 -126 -127 0
20 128 -129 0
20 -128 129 0
-20 128 129 0
-20 -128 -129 0
130 131 -132 0
130 -131 132 0
-130 131 132 0
-130 -131 -132 0
133 134 -135 0
133 -134 135 0
-133 134 135 0
-133 -134 -135 0
136 137 -138 0
136 -137 138 0
-136 137 138 0
-136 -137 -138 0
139 140 -141 0
139 -140 141 0
-139 140 141 0
-139 -140 -141 0
104 142 -143 0
104 -142 143 0
-104 142 143 0
-104 -142 -143 0
144 145 -146 0
144 -145 146 0
-144 145 146 0
-144 -145 -146 0
147 148 -149 0
147 -148 149 0
-147 148 149 0
-147 -148 -149 0
50 150 -151 0
50 -150 151 0
-50 150 151 0
-50 -150 -151 0
118 152 -153 0
118 -152 153 0
-118 152 153 0
-118 -152 -153 0
38 154 -155 0
38 -154 155 0
-38 154 155 0
-38 -154 -155 0
156 157 -158 0
156 -157 158 0
-156 157 158 0
-156 -157 -158 0
59 159 -160 0
59 -159 160 0
-59 159 160 0
-59 -159 -160 0
161 162 -163 0
161 -162 163 0
-161 162 163 0
-161 -162 -163 0
164 165 -166 0
164 -165 166 0
-164 165 166 0
-164 -165 -166 0
167 168 -169 0
167 -168 169 0
-167 168 169 0
-167 -168 -169 0
88 136 -170 0
88 -136 170 0
-88 136 170 0
-88 -136 -170 0
171 172 -173 0
171 -172 173 0
-171 172 173 0
-171 -172 -173 0
174 175 -176 0
174 -175 176 0
-174 175 176 0
-174 -175 -176 0
22 177 -178 0
22 -177 178 0
-22 177 178 0
-22 -177 -178 0
179 180 -181 0
179 -180 181 0
-179 180 181 0
-179 -180 -181 0
4 182 -183 0
4 -182 183 0
-4 182 183 0
-4 -182 -183 0
7 184 -185 0
7 -184 185 0
-7 184 185 0
-7 -184 -185 0
164 186 -187 0
164 -186 187 0
-164 186 187 0
-164 -186 -187 0
11 81 -188 0
11 -81 188 0
-11 81 188 0
-11 -81 -188 0
128 189 -190 0
128 -189 190 0
-128 189 190 0
-128 -189 -190 0
26 191 -192 0
26 -191 192 0
-26 191 192 0
-26 -191 -192 0
193 194 -195 0
193 -194 195 0
-193 194 195 0
-193 -194 -195 0
115 196 -197 0
115 -196 197 0
-115 196 197 0
-115 -196 -197 0
198 199 -200 0
198 -199 200 0
-198 199 200 0
-198 -199 -200 0
201 202 -203 0
201 -202 203 0
-201 202 203 0
-201 -202 -203 0
116 125 -204 0
116 -125 204 0
-116 125 204 0
-116 -125 -204 0
182 205 -206 0
182 -205 206 0
-182 205 206 0
-182 -205 -206 0
207 208 -209 0
207 -208 209 0
-207 208 209 0
-207 -208 -209 0
210 211 -212 0
210 -211 212 0
-210 211 212 0
-210 -211 -212 0
213 214 -215 0
213 -214 215 0
-213 214 215 0
-213 -214 -215 0
57 216 -217 0
57 -216 217 0
-57 216 217 0
-57 -216 -217 0
130 218 -219 0
130 -218 219 0
-130 218 219 0
-130 -218 -219 0
119 201 -220 0
119 -201 220 0
-119 201 220 0
-119 -201 -220 0
27 107 -221 0
27 -107 221 0
-27 107 221 0
-27 -107 -221 0
222 223 -224 0
222 -223 224 0
-222 223 224 0
-222 -223 -224 0
131 225 -226 0
131 -225 226 0
-131 225 226 0
-131 -225 -226 0
227 228 -229 0
227 -228 229 0
-227 228 229 0
-227 -228 -229 0
230 231 -232 0
230 -231 232 0
-230 231 232 0
-230 -231 -232 0
76 91 -233 0
76 -91 233 0
-76 91 233 0
-76 -91 -233 0
94 234 -235 0
94 -234 235 0
-94 234 235 0
-94 -234 -235 0
39 236 -237 0
39 -236 237 0
-39 236 237 0
-39 -236 -237 0
238 239 -240 0
238 -239 240 0
-238 239 240 0
-238 -239 -240 0
97 241 -242 0
97 -241 242 0
-97 241 242 0
-97 -241 -242 0
243 244 -245 0
243 -244 245 0
-243 244 245 0
-243 -244 -245 0
28 246 -247 0
28 -246 247 0
-28 246 247 0
-28 -246 -247 0
179 248 -249 0
179 -248 249 0
-179 248 249 0
-179 -248 -249 0
5 250 -251 0
5 -250 251 0
-5 250 251 0
-5 -250 -251 0
60 252 -253 0
60 -252 253 0
-60 252 253 0
-60 -252 -253 0
62 254 -255 0
62 -254 255 0
-62 254 255 0
-62 -254 -255 0
156 256 -257 0
156 -256 257 0
-156 256 257 0
-156 -256 -257 0
258 259 -260 0
258 -259 260 0
-258 259 260 0
-258 -259 -260 0
261 262 -263 0
261 -262 263 0
-261 262 263 0
-261 -262 -263 0
236 264 -265 0
236 -264 265 0
-236 264 265 0
-236 -264 -265 0
213 261 -266 0
213 -261 266 0
-213 261 266 0
-213 -261 -266 0
13 267 -268 0
13 -267 268 0
-13 267 268 0
-13 -267 -268 0
188 202 -269 0
188 -202 269 0
-188 202 269 0
-188 -202 -269 0
270 271 -272 0
270 -271 272 0
-270 271 272 0
-270 -271 -272 0
147 273 -274 0
147 -273 274 0
-147 273 274 0
-147 -273 -274 0
214 275 -276 0
214 -275 276 0
-214 275 276 0
-214 -275 -276 0
277 278 -279 0
277 -278 279 0
-277 278 279 0
-277 -278 -279 0
152 280 -281 0
152 -280 281 0
-152 280 281 0
-152 -280 -281 0
133 220 -282 0
133 -220 282 0
-133 220 282 0
-133 -220 -282 0
283 284 -285 0
283 -284 285 0
-283 284 285 0
-283 -284 -285 0
286 287 -288 0
286 -287 288 0
-286 287 288 0
-286 -287 -288 0
89 216 -289 0
89 -216 289 0
-89 216 289 0
-89 -216 -289 0
196 290 -291 0
196 -290 291 0
-196 290 291 0
-196 -290 -291 0
286 292 -293 0
286 -292 293 0
-286 292 293 0
-286 -292 -293 0
134 287 -294 0
134 -287 294 0
-134 287 294 0
-134 -287 -294 0
295 296 -297 0
295 -296 297 0
-295 296 297 0
-295 -296 -297 0
154 159 -191 0
154 -159 191 0
-154 159 191 0
-154 -159 -191 0
6 148 -298 0
6 -148 298 0
-6 148 298 0
-6 -148 -298 0
63 218 -295 0
63 -218 295 0
-63 218 295 0
-63 -218 -295 0
160 252 -299 0
160 -252 299 0
-160 252 299 0
-160 -252 -299 0
16 300 -301 0
16 -300 301 0
-16 300 301 0
-16 -300 -301 0
302 303 -304 0
302 -303 304 0
-302 303 304 0
-302 -303 -304 0
204 305 -306 0
204 -305 306 0
-204 305 306 0
-204 -305 -306 0
193 307 -308 0
193 -307 308 0
-193 307 308 0
-193 -307 -308 0
113 210 -309 0
113 -210 309 0
-113 210 309 0
-113 -210 -309 0
300 310 -311 0
300 -310 311 0
-300 310 311 0
-300 -310 -311 0
312 313 -314 0
312 -313 314 0
-312 313 314 0
-312 -313 -314 0
222 296 -315 0
222 -296 315 0
-222 296 315 0
-222 -296 -315 0
316 317 -318 0
316 -317 318 0
-316 317 318 0
-316 -317 -318 0
319 320 -321 0
319 -320 321 0
-319 320 321 0
-319 -320 -321 0
171 282 -322 0
171 -282 322 0
-171 282 322 0
-171 -282 -322 0
68 323 -324 0
68 -323 324 0
-68 323 324 0
-68 -323 -324 0
325 326 -327 0
325 -326 327 0
-325 326 327 0
-325 -326 -327 0
328 329 -330 0
328 -329 330 0
-328 329 330 0
-328 -329 -330 0
71 215 -325 0
71 -215 325 0
-71 215 325 0
-71 -215 -325 0
270 331 -332 0
270 -331 332 0
-270 331 332 0
-270 -331 -332 0
333 334 -335 0
333 -334 335 0
-333 334 335 0
-333 -334 -335 0
72 315 -336 0
72 -315 336 0
-72 315 336 0
-72 -315 -336 0
92 337 -338 0
92 -337 338 0
-92 337 338 0
-92 -337 -338 0
258 292 -339 0
258 -292 339 0
-258 292 339 0
-258 -292 -339 0
117 186 -243 0
117 -186 243 0
-117 186 243 0
-117 -186 -243 0
189 340 -341 0
189 -340 341 0
-189 340 341 0
-189 -340 -341 0
342 343 -344 0
342 -343 344 0
-342 343 344 0
-342 -343 -344 0
51 345 -346 0
51 -345 346 0
-51 345 346 0
-51 -345 -346 0
230 309 -347 0
230 -309 347 0
-230 309 347 0
-230 -309 -347 0
110 348 -349 0
110 -348 349 0
-110 348 349 0
-110 -348 -349 0
35 241 -350 0
35 -241 350 0
-35 241 350 0
-35 -241 -350 0
40 121 -351 0
40 -121 351 0
-40 121 351 0
-40 -121 -351 0
283 307 -352 0
283 -307 352 0
-283 307 352 0
-283 -307 -352 0
36 353 -354 0
36 -353 354 0
-36 353 354 0
-36 -353 -354 0
29 192 -355 0
29 -192 355 0
-29 192 355 0
-29 -192 -355 0
139 165 -205 0
139 -165 205 0
-139 165 205 0
-139 -165 -205 0
167 316 -356 0
167 -316 356 0
-167 316 356 0
-167 -316 -356 0
33 225 -310 0
33 -225 310 0
-33 225 310 0
-33 -225 -310 0
53 357 -358 0
53 -357 358 0
-53 357 358 0
-53 -357 -358 0
288 359 -360 0
288 -359 360 0
-288 359 360 0
-288 -359 -360 0
64 259 -361 0
64 -259 361 0
-64 259 361 0
-64 -259 -361 0
47 297 -362 0
47 -297 362 0
-47 297 362 0
-47 -297 -362 0
153 351 -363 0
153 -351 363 0
-153 351 363 0
-153 -351 -363 0
262 364 -365 0
262 -364 365 0
-262 364 365 0
-262 -364 -365 0
74 275 -366 0
74 -275 366 0
-74 275 366 0
-74 -275 -366 0
250 348 -367 0
250 -348 367 0
-250 348 367 0
-250 -348 -367 0
231 368 -369 0
231 -368 369 0
-231 368 369 0
-231 -368 -369 0
290 370 -371 0
290 -370 371 0
-290 370 371 0
-290 -370 -371 0
83 198 -372 0
83 -198 372 0
-83 198 372 0
-83 -198 -372 0
126 331 -373 0
126 -331 373 0
-126 331 373 0
-126 -331 -373 0
108 211 -374 0
108 -211 374 0
-108 211 374 0
-108 -211 -374 0
359 375 -376 0
359 -375 376 0
-359 375 376 0
-359 -375 -376 0
227 302 -377 0
227 -302 377 0
-227 302 377 0
-227 -302 -377 0
78 135 -378 0
78 -135 378 0
-78 135 378 0
-78 -135 -378 0
253 273 -345 0
253 -273 345 0
-253 273 345 0
-253 -273 -345 0
346 379 -380 0
346 -379 380 0
-346 379 380 0
-346 -379 -380 0
340 375 -381 0
340 -375 381 0
-340 375 381 0
-340 -375 -381 0
382 383 -384 0
382 -383 384 0
-382 383 384 0
-382 -383 -384 0
82 238 -355 0
82 -238 355 0
-82 238 355 0
-82 -238 -355 0
260 293 -385 0
260 -293 385 0
-260 293 385 0
-260 -293 -385 0
75 234 -386 0
75 -234 386 0
-75 234 386 0
-75 -234 -386 0
149 299 -328 0
149 -299 328 0
-149 299 328 0
-149 -299 -328 0
61 244 -329 0
61 -244 329 0
-61 244 329 0
-61 -244 -329 0
31 90 -387 0
31 -90 387 0
-31 90 387 0
-31 -90 -387 0
37 368 -388 0
37 -368 388 0
-37 368 388 0
-37 -368 -388 0
58 333 -389 0
58 -333 389 0
-58 333 389 0
-58 -333 -389 0
48 157 -390 0
48 -157 390 0
-48 157 390 0
-48 -157 -390 0
342 391 -392 0
342 -391 392 0
-342 391 392 0
-342 -391 -392 0
239 245 -382 0
239 -245 382 0
-239 245 382 0
-239 -245 -382 0
105 334 -373 0
105 -334 373 0
-105 334 373 0
-105 -334 -373 0
168 177 -232 0
168 -177 232 0
-168 177 232 0
-168 -177 -232 0
17 174 -339 0
17 -174 339 0
-17 174 339 0
-17 -174 -339 0
98 386 -393 0
98 -386 393 0
-98 386 393 0
-98 -386 -393 0
212 391 -394 0
212 -391 394 0
-212 391 394 0
-212 -391 -394 0
326 353 -395 0
326 -353 395 0
-326 353 395 0
-326 -353 -395 0
150 178 -357 0
150 -178 357 0
-150 178 357 0
-150 -178 -357 0
45 199 -396 0
45 -199 396 0
-45 199 396 0
-45 -199 -396 0
158 322 -396 0
158 -322 396 0
-158 322 396 0
-158 -322 -396 0
122 194 -397 0
122 -194 397 0
-122 194 397 0
-122 -194 -397 0
142 374 -398 0
142 -374 398 0
-142 374 398 0
-142 -374 -398 0
169 350 -399 0
169 -350 399 0
-169 350 399 0
-169 -350 -399 0
317 394 -400 0
317 -394 400 0
-317 394 400 0
-317 -394 -400 0
226 277 -401 0
226 -277 401 0
-226 277 401 0
-226 -277 -401 0
124 377 -402 0
124 -377 402 0
-124 377 402 0
-124 -377 -402 0
23 284 -378 0
23 -284 378 0
-23 284 378 0
-23 -284 -378 0
54 264 -397 0
54 -264 397 0
-54 264 397 0
-54 -264 -397 0
109 403 -404 0
109 -403 404 0
-109 403 404 0
-109 -403 -404 0
364 405 -406 0
364 -405 406 0
-364 405 406 0
-364 -405 -406 0
151 233 -407 0
151 -233 407 0
-151 233 407 0
-151 -233 -407 0
256 271 -366 0
256 -271 366 0
-256 271 366 0
-256 -271 -366 0
254 408 -409 0
254 -408 409 0
-254 408 409 0
-254 -408 -409 0
52 312 -410 0
52 -312 410 0
-52 312 410 0
-52 -312 -410 0
14 361 -389 0
14 -361 389 0
-14 361 389 0
-14 -361 -389 0
403 411 -412 0
403 -411 412 0
-403 411 412 0
-403 -411 -412 0
367 413 -414 0
367 -413 414 0
-367 413 414 0
-367 -413 -414 0
207 246 -381 0
207 -246 381 0
-207 246 381 0
-207 -246 -381 0
140 415 -416 0
140 -415 416 0
-140 415 416 0
-140 -415 -416 0
15 42 -417 0
15 -42 417 0
-15 42 417 0
-15 -42 -417 0
32 161 -418 0
32 -161 418 0
-32 161 418 0
-32 -161 -418 0
187 208 -332 0
187 -208 332 0
-187 208 332 0
-187 -208 -332 0
415 419 -420 0
415 -419 420 0
-415 419 420 0
-415 -419 -420 0
8 276 -421 0
8 -276 421 0
-8 276 421 0
-8 -276 -421 0
69 385 -422 0
69 -385 422 0
-69 385 422 0
-69 -385 -422 0
143 311 -423 0
143 -311 423 0
-143 311 423 0
-143 -311 -423 0
166 190 -424 0
166 -190 424 0
-166 190 424 0
-166 -190 -424 0
195 278 -404 0
195 -278 404 0
-195 278 404 0
-195 -278 -404 0
155 298 -417 0
155 -298 417 0
-155 298 417 0
-155 -298 -417 0
137 247 -305 0
137 -247 305 0
-137 247 305 0
-137 -247 -305 0
337 425 -426 0
337 -425 426 0
-337 425 426 0
-337 -425 -426 0
338 408 -427 0
338 -408 427 0
-338 408 427 0
-338 -408 -427 0
197 306 -428 0
197 -306 428 0
-197 306 428 0
-197 -306 -428 0
144 184 -429 0
144 -184 429 0
-144 184 429 0
-144 -184 -429 0
280 430 -431 0
280 -430 431 0
-280 430 431 0
-280 -430 -431 0
369 383 -432 0
369 -383 432 0
-369 383 432 0
-369 -383 -432 0
206 352 -424 0
206 -352 424 0
-206 352 424 0
-206 -352 -424 0
251 365 -433 0
251 -365 433 0
-251 365 433 0
-251 -365 -433 0
95 141 -388 0
95 -141 388 0
-95 141 388 0
-95 -141 -388 0
77 421 -425 0
77 -421 425 0
-77 421 425 0
-77 -421 -425 0
384 433 -434 0
384 -433 434 0
-384 433 434 0
-384 -433 -434 0
289 360 -435 0
289 -360 435 0
-289 360 435 0
-289 -360 -435 0
267 313 -435 0
267 -313 435 0
-267 313 435 0
-267 -313 -435 0
318 319 -436 0
318 -319 436 0
-318 319 436 0
-318 -319 -436 0
145 416 -437 0
145 -416 437 0
-145 416 437 0
-145 -416 -437 0
180 349 -409 0
180 -349 409 0
-180 349 409 0
-180 -349 -409 0
399 438 -439 0
399 -438 439 0
-399 438 439 0
-399 -438 -439 0
172 336 -422 0
172 -336 422 0
-172 336 422 0
-172 -336 -422 0
70 96 -410 0
70 -96 410 0
-70 96 410 0
-70 -96 -410 0
102 185 -343 0
102 -185 343 0
-102 185 343 0
-102 -185 -343 0
221 314 -372 0
221 -314 372 0
-221 314 372 0
-221 -314 -372 0
111 358 -405 0
111 -358 405 0
-111 358 405 0
-111 -358 -405 0
85 363 -440 0
85 -363 440 0
-85 363 440 0
-85 -363 -440 0
114 323 -423 0
114 -323 423 0
-114 323 423 0
-114 -323 -423 0
103 228 -430 0
103 -228 430 0
-103 228 430 0
-103 -228 -430 0
3 274 -303 0
3 -274 303 0
-3 274 303 0
-3 -274 -303 0
240 441 -442 0
240 -441 442 0
-240 441 442 0
-240 -441 -442 0
263 395 -432 0
263 -395 432 0
-263 395 432 0
-263 -395 -432 0
49 162 -418 0
49 -162 418 0
-49 162 418 0
-49 -162 -418 0
106 248 -308 0
106 -248 308 0
-106 248 308 0
-106 -248 -308 0
347 438 -441 0
347 -438 441 0
-347 438 441 0
-347 -438 -441 0
138 434 -443 0
138 -434 443 0
-138 434 443 0
-138 -434 -443 0
344 393 -429 0
344 -393 429 0
-344 393 429 0
-344 -393 -429 0
9 281 -427 0
9 -281 427 0
-9 281 427 0
-9 -281 -427 0
229 440 -444 0
229 -440 444 0
-229 440 444 0
-229 -440 -444 0
21 428 -437 0
21 -428 437 0
-21 428 437 0
-21 -428 -437 0
86 175 -406 0
86 -175 406 0
-86 175 406 0
-86 -175 -406 0
170 255 -445 0
170 -255 445 0
-170 255 445 0
-170 -255 -445 0
120 376 -439 0
120 -376 439 0
-120 376 439 0
-120 -376 -439 0
24 446 -447 0
24 -446 447 0
-24 446 447 0
-24 -446 -447 0
12 279 -370 0
12 -279 370 0
-12 279 370 0
-12 -279 -370 0
327 356 -431 0
327 -356 431 0
-327 356 431 0
-327 -356 -431 0
100 129 -448 0
100 -129 448 0
-100 129 448 0
-100 -129 -448 0
18 123 -449 0
18 -123 449 0
-18 123 449 0
-18 -123 -449 0
217 330 -390 0
217 -330 390 0
-217 330 390 0
-217 -330 -390 0
79 146 -354 0
79 -146 354 0
-79 146 354 0
-79 -146 -354 0
163 379 -450 0
163 -379 450 0
-163 379 450 0
-163 -379 -450 0
249 413 -446 0
249 -413 446 0
-249 413 446 0
-249 -413 -446 0
87 294 -414 0
87 -294 414 0
-87 294 414 0
-87 -294 -414 0
209 362 -445 0
209 -362 445 0
-209 362 445 0
-209 -362 -445 0
65 183 -285 0
65 -183 285 0
-65 183 285 0
-65 -183 -285 0
173 371 -426 0
173 -371 426 0
-173 371 426 0
-173 -371 -426 0
46 447 -449 0
46 -447 449 0
-46 447 449 0
-46 -447 -449 0
176 181 -443 0
176 -181 443 0
-176 181 443 0
-176 -181 -443 0
66 93 -269 0
66 -93 269 0
-66 93 269 0
-66 -93 -269 0
73 401 -450 0
73 -401 450 0
-73 401 450 0
-73 -401 -450 0
30 34 -257 0
30 -34 257 0
-30 34 257 0
-30 -34 -257 0
223 320 -407 0
223 -320 407 0
-223 320 407 0
-223 -320 -407 0
237 268 -442 0
237 -268 442 0
-237 268 442 0
-237 -268 -442 0
55 419 -436 0
55 -419 436 0
-55 419 436 0
-55 -419 -436 0
101 127 -321 0
101 -127 321 0
-101 127 321 0
-101 -127 -321 0
224 304 -387 0
224 -304 387 0
-224 304 387 0
-224 -304 -387 0
266 398 -448 0
266 -398 448 0
-266 398 448 0
-266 -398 -448 0
43 235 -400 0
43 -235 400 0
-43 235 400 0
-43 -235 -400 0
200 203 -291 0
200 -203 291 0
-200 203 291 0
-200 -203 -291 0
84 242 -335 0
84 -242 335 0
-84 242 335 0
-84 -242 -335 0
67 272 -324 0
67 -272 324 0
-67 272 324 0
-67 -272 -324 0
402 411 -444 0
402 -411 444 0
-402 411 444 0
-402 -411 -444 0
132 219 -392 0
132 -219 392 0
-132 219 392 0
-132 -219 -392 0
265 380 -420 0
265 -380 420 0
-265 380 420 0
-265 -380 -420 0
301 341 -412 0
301 -341 412 0
-301 341 412 0
-301 -341 -412 0
