c F4 Tseitin on networkx random_regular_graph(3,20,seed=2), connected=True, odd charge on vertex 1
p cnf 30 80
1 2 3 0
1 -2 -3 0
-1 2 -3 0
-1 -2 3 0
4 5 -6 0
4 -5 6 0
-4 5 6 0
-4 -5 -6 0
1 7 -8 0
1 -7 8 0
-1 7 8 0
-1 -7 -8 0
9 10 -11 0
9 -10 11 0
-9 10 11 0
-9 -10 -11 0
12 13 -14 0
12 -13 14 0
-12 13 14 0
-12 -13 -14 0
9 15 -16 0
9 -15 16 0
-9 15 16 0
-9 -15 -16 0
2 10 -17 0
2 -10 17 0
-2 10 17 0
-2 -10 -17 0
3 4 -7 0
3 -4 7 0
-3 4 7 0
-3 -4 -7 0
12 15 -18 0
12 -15 18 0
-12 15 18 0
-12 -15 -18 0
5 19 -20 0
5 -19 20 0
-5 19 20 0
-5 -19 -20 0
21 22 -23 0
21 -22 23 0
-21 22 23 0
-21 -22 -23 0
6 8 -19 0
6 -8 19 0
-6 8 19 0
-6 -8 -19 0
16 17 -24 0
16 -17 24 0
-16 17 24 0
-16 -17 -24 0
13 21 -25 0
13 -21 25 0
-13 21 25 0
-13 -21 -25 0
22 26 -27 0
22 -26 27 0
-22 26 27 0
-22 -26 -27 0
26 28 -29 0
26 -28 29 0
-26 28 29 0
-26 -28 -29 0
11 23 -30 0
11 -23 30 0
-11 23 30 0
-11 -23 -30 0
14 24 -28 0
14 -24 28 0
-14 24 28 0
-14 -24 -28 0
25 27 -29 0
25 -27 29 0
-25 27 29 0
-25 -27 -29 0
18 20 -30 0
18 -20 30 0
-18 20 30 0
-18 -20 -30 0
