c F4 Tseitin on networkx random_regular_graph(3,100,seed=0), connected=True, odd charge on vertex 1
p cnf 150 400
1 2 3 0
1 -2 -3 0
-1 2 -3 0
-1 -2 3 0
4 5 -6 0
4 -5 6 0
-4 5 6 0
-4 -5 -6 0
7 8 -9 0
7 -8 9 0
-7 8 9 0
-7 -8 -9 0
10 11 -12 0
10 -11 12 0
-10 11 12 0
-10 -11 -12 0
1 13 -14 0
1 -13 14 0
-1 13 14 0
-1 -13 -14 0
15 16 -17 0
15 -16 17 0
-15 16 17 0
-15 -16 -17 0
18 19 -20 0
18 -19 20 0
-18 19 20 0
-18 -19 -20 0
21 22 -23 0
21 -22 23 0
-21 22 23 0
-21 -22 -23 0
24 25 -26 0
24 -25 26 0
-24 25 26 0
-24 -25 -26 0
27 28 -29 0
27 -28 29 0
-27 28 29 0
-27 -28 -29 0
30 31 -32 0
30 -31 32 0
-30 31 32 0
-30 -31 -32 0
10 33 -34 0
10 -33 34 0
-10 33 34 0
-10 -33 -34 0
35 36 -37 0
35 -36 37 0
-35 36 37 0
-35 -36 -37 0
38 39 -40 0
38 -39 40 0
-38 39 40 0
-38 -39 -40 0
41 42 -43 0
41 -42 43 0
-41 42 43 0
-41 -42 -43 0
44 45 -46 0
44 -45 46 0
-44 45 46 0
-44 -45 -46 0
47 48 -49 0
47 -48 49 0
-47 48 49 0
-47 -48 -49 0
50 51 -52 0
50 -51 52 0
-50 51 52 0
-50 -51 -52 0
4 53 -54 0
4 -53 54 0
-4 53 54 0
-4 -53 -54 0
55 56 -57 0
55 -56 57 0
-55 56 57 0
-55 -56 -57 0
58 59 -60 0
58 -59 60 0
-58 59 60 0
-58 -59 -60 0
50 61 -62 0
50 -61 62 0
-50 61 62 0
-50 -61 -62 0
63 64 -65 0
63 -64 65 0
-63 64 65 0
-63 -64 -65 0
66 67 -68 0
66 -67 68 0
-66 67 68 0
-66 -67 -68 0
69 70 -71 0
69 -70 71 0
-69 70 71 0
-69 -70 -71 0
44 72 -73 0
44 -72 73 0
-44 72 73 0
-44 -72 -73 0
45 58 -74 0
45 -58 74 0
-45 58 74 0
-45 -58 -74 0
72 75 -76 0
72 -75 76 0
-72 75 76 0
-72 -75 -76 0
27 66 -77 0
27 -66 77 0
-27 66 77 0
-27 -66 -77 0
38 78 -79 0
38 -78 79 0
-38 78 79 0
-38 -78 -79 0
80 81 -82 0
80 -81 82 0
-80 81 82 0
-80 -81 -82 0
30 83 -84 0
30 -83 84 0
-30 83 84 0
-30 -83 -84 0
18 59 -85 0
18 -59 85 0
-18 59 85 0
-18 -59 -85 0
83 86 -87 0
83 -86 87 0
-83 86 87 0
-83 -86 -87 0
11 88 -89 0
11 -88 89 0
-11 88 89 0
-11 -88 -89 0
19 55 -90 0
19 -55 90 0
-19 55 90 0
-19 -55 -90 0
2 53 -91 0
2 -53 91 0
-2 53 91 0
-2 -53 -91 0
92 93 -94 0
92 -93 94 0
-92 93 94 0
-92 -93 -94 0
28 80 -95 0
28 -80 95 0
-28 80 95 0
-28 -80 -95 0
41 96 -97 0
41 -96 97 0
-41 96 97 0
-41 -96 -97 0
42 98 -99 0
42 -98 99 0
-42 98 99 0
-42 -98 -99 0
100 101 -102 0
100 -101 102 0
-100 101 102 0
-100 -101 -102 0
31 103 -104 0
31 -103 104 0
-31 103 104 0
-31 -103 -104 0
75 90 -105 0
75 -90 105 0
-75 90 105 0
-75 -90 -105 0
96 106 -107 0
96 -106 107 0
-96 106 107 0
-96 -106 -107 0
108 109 -110 0
108 -109 110 0
-108 109 110 0
-108 -109 -110 0
33 35 -111 0
33 -35 111 0
-33 35 111 0
-33 -35 -111 0
15 21 -108 0
15 -21 108 0
-15 21 108 0
-15 -21 -108 0
112 113 -114 0
112 -113 114 0
-112 113 114 0
-112 -113 -114 0
5 16 -115 0
5 -16 115 0
-5 16 115 0
-5 -16 -115 0
6 88 -92 0
6 -88 92 0
-6 88 92 0
-6 -88 -92 0
39 116 -117 0
39 -116 117 0
-39 116 117 0
-39 -116 -117 0
95 118 -119 0
95 -118 119 0
-95 118 119 0
-95 -118 -119 0
63 91 -100 0
63 -91 100 0
-63 91 100 0
-63 -91 -100 0
93 120 -121 0
93 -120 121 0
-93 120 121 0
-93 -120 -121 0
22 61 -122 0
22 -61 122 0
-22 61 122 0
-22 -61 -122 0
24 47 -123 0
24 -47 123 0
-24 47 123 0
-24 -47 -123 0
98 124 -125 0
98 -124 125 0
-98 124 125 0
-98 -124 -125 0
34 126 -127 0
34 -126 127 0
-34 126 127 0
-34 -126 -127 0
12 103 -128 0
12 -103 128 0
-12 103 128 0
-12 -103 -128 0
29 81 -129 0
29 -81 129 0
-29 81 129 0
-29 -81 -129 0
40 64 -112 0
40 -64 112 0
-40 64 112 0
-40 -64 -112 0
7 43 -73 0
7 -43 73 0
-7 43 73 0
-7 -43 -73 0
94 120 -130 0
94 -120 130 0
-94 120 130 0
-94 -120 -130 0
131 132 -133 0
131 -132 133 0
-131 132 133 0
-131 -132 -133 0
3 97 -131 0
3 -97 131 0
-3 97 131 0
-3 -97 -131 0
69 74 -134 0
69 -74 134 0
-69 74 134 0
-69 -74 -134 0
124 129 -135 0
124 -129 135 0
-124 129 135 0
-124 -129 -135 0
99 134 -135 0
99 -134 135 0
-99 134 135 0
-99 -134 -135 0
13 23 -101 0
13 -23 101 0
-13 23 101 0
-13 -23 -101 0
89 118 -136 0
89 -118 136 0
-89 118 136 0
-89 -118 -136 0
78 106 -137 0
78 -106 137 0
-78 106 137 0
-78 -106 -137 0
36 77 -138 0
36 -77 138 0
-36 77 138 0
-36 -77 -138 0
65 122 -139 0
65 -122 139 0
-65 122 139 0
-65 -122 -139 0
54 84 -140 0
54 -84 140 0
-54 84 140 0
-54 -84 -140 0
126 139 -141 0
126 -139 141 0
-126 139 141 0
-126 -139 -141 0
37 136 -142 0
37 -136 142 0
-37 136 142 0
-37 -136 -142 0
102 132 -138 0
102 -132 138 0
-102 132 138 0
-102 -132 -138 0
17 143 -144 0
17 -143 144 0
-17 143 144 0
-17 -143 -144 0
111 145 -146 0
111 -145 146 0
-111 145 146 0
-111 -145 -146 0
25 104 -140 0
25 -104 140 0
-25 104 140 0
-25 -104 -140 0
70 116 -130 0
70 -116 130 0
-70 116 130 0
-70 -116 -130 0
86 117 -147 0
86 -117 147 0
-86 117 147 0
-86 -117 -147 0
62 107 -142 0
62 -107 142 0
-62 107 142 0
-62 -107 -142 0
71 133 -145 0
71 -133 145 0
-71 133 145 0
-71 -133 -145 0
26 51 -56 0
26 -51 56 0
-26 51 56 0
-26 -51 -56 0
52 141 -148 0
52 -141 148 0
-52 141 148 0
-52 -141 -148 0
113 128 -149 0
113 -128 149 0
-113 128 149 0
-113 -128 -149 0
57 60 -125 0
57 -60 125 0
-57 60 125 0
-57 -60 -125 0
109 146 -149 0
109 -146 149 0
-109 146 149 0
-109 -146 -149 0
8 127 -148 0
8 -127 148 0
-8 127 148 0
-8 -127 -148 0
14 147 -150 0
14 -147 150 0
-14 147 150 0
-14 -147 -150 0
114 137 -143 0
114 -137 143 0
-114 137 143 0
-114 -137 -143 0
48 87 -110 0
48 -87 110 0
-48 87 110 0
-48 -87 -110 0
67 115 -144 0
67 -115 144 0
-67 115 144 0
-67 -115 -144 0
82 105 -119 0
82 -105 119 0
-82 105 119 0
-82 -105 -119 0
9 76 -123 0
9 -76 123 0
-9 76 123 0
-9 -76 -123 0
46 68 -85 0
46 -68 85 0
-46 68 85 0
-46 -68 -85 0
32 79 -150 0
32 -79 150 0
-32 79 150 0
-32 -79 -150 0
20 49 -121 0
20 -49 121 0
-20 49 121 0
-20 -49 -121 0
