c F4 Tseitin on networkx random_regular_graph(3,80,seed=3), connected=True, odd charge on vertex 1
p cnf 120 320
1 2 3 0
1 -2 -3 0
-1 2 -3 0
-1 -2 3 0
4 5 -6 0
4 -5 6 0
-4 5 6 0
-4 -5 -6 0
7 8 -9 0
7 -8 9 0
-7 8 9 0
-7 -8 -9 0
10 11 -12 0
10 -11 12 0
-10 11 12 0
-10 -11 -12 0
13 14 -15 0
13 -14 15 0
-13 14 15 0
-13 -14 -15 0
16 17 -18 0
16 -17 18 0
-16 17 18 0
-16 -17 -18 0
19 20 -21 0
19 -20 21 0
-19 20 21 0
-19 -20 -21 0
22 23 -24 0
22 -23 24 0
-22 23 24 0
-22 -23 -24 0
25 26 -27 0
25 -26 27 0
-25 26 27 0
-25 -26 -27 0
28 29 -30 0
28 -29 30 0
-28 29 30 0
-28 -29 -30 0
31 32 -33 0
31 -32 33 0
-31 32 33 0
-31 -32 -33 0
34 35 -36 0
34 -35 36 0
-34 35 36 0
-34 -35 -36 0
37 38 -39 0
37 -38 39 0
-37 38 39 0
-37 -38 -39 0
40 41 -42 0
40 -41 42 0
-40 41 42 0
-40 -41 -42 0
13 43 -44 0
13 -43 44 0
-13 43 44 0
-13 -43 -44 0
37 45 -46 0
37 -45 46 0
-37 45 46 0
-37 -45 -46 0
4 47 -48 0
4 -47 48 0
-4 47 48 0
-4 -47 -48 0
25 49 -50 0
25 -49 50 0
-25 49 50 0
-25 -49 -50 0
5 51 -52 0
5 -51 52 0
-5 51 52 0
-5 -51 -52 0
53 54 -55 0
53 -54 55 0
-53 54 55 0
-53 -54 -55 0
43 56 -57 0
43 -56 57 0
-43 56 57 0
-43 -56 -57 0
58 59 -60 0
58 -59 60 0
-58 59 60 0
-58 -59 -60 0
61 62 -63 0
61 -62 63 0
-61 62 63 0
-61 -62 -63 0
64 65 -66 0
64 -65 66 0
-64 65 66 0
-64 -65 -66 0
19 40 -67 0
19 -40 67 0
-19 40 67 0
-19 -40 -67 0
16 68 -69 0
16 -68 69 0
-16 68 69 0
-16 -68 -69 0
70 71 -72 0
70 -71 72 0
-70 71 72 0
-70 -71 -72 0
73 74 -75 0
73 -74 75 0
-73 74 75 0
-73 -74 -75 0
76 77 -78 0
76 -77 78 0
-76 77 78 0
-76 -77 -78 0
53 79 -80 0
53 -79 80 0
-53 79 80 0
-53 -79 -80 0
6 20 -34 0
6 -20 34 0
-6 20 34 0
-6 -20 -34 0
76 81 -82 0
76 -81 82 0
-76 81 82 0
-76 -81 -82 0
28 54 -83 0
28 -54 83 0
-28 54 83 0
-28 -54 -83 0
73 84 -85 0
73 -84 85 0
-73 84 85 0
-73 -84 -85 0
79 84 -86 0
79 -84 86 0
-79 84 86 0
-79 -84 -86 0
64 87 -88 0
64 -87 88 0
-64 87 88 0
-64 -87 -88 0
1 77 -89 0
1 -77 89 0
-1 77 89 0
-1 -77 -89 0
17 74 -90 0
17 -74 90 0
-17 74 90 0
-17 -74 -90 0
10 91 -92 0
10 -91 92 0
-10 91 92 0
-10 -91 -92 0
51 58 -61 0
51 -58 61 0
-51 58 61 0
-51 -58 -61 0
86 93 -94 0
86 -93 94 0
-86 93 94 0
-86 -93 -94 0
95 96 -97 0
95 -96 97 0
-95 96 97 0
-95 -96 -97 0
7 98 -99 0
7 -98 99 0
-7 98 99 0
-7 -98 -99 0
45 59 -98 0
45 -59 98 0
-45 59 98 0
-45 -59 -98 0
31 46 -100 0
31 -46 100 0
-31 46 100 0
-31 -46 -100 0
32 38 -101 0
32 -38 101 0
-32 38 101 0
-32 -38 -101 0
70 95 -102 0
70 -95 102 0
-70 95 102 0
-70 -95 -102 0
2 62 -103 0
2 -62 103 0
-2 62 103 0
-2 -62 -103 0
56 75 -104 0
56 -75 104 0
-56 75 104 0
-56 -75 -104 0
52 65 -68 0
52 -65 68 0
-52 65 68 0
-52 -65 -68 0
14 22 -105 0
14 -22 105 0
-14 22 105 0
-14 -22 -105 0
21 49 -106 0
21 -49 106 0
-21 49 106 0
-21 -49 -106 0
69 83 -107 0
69 -83 107 0
-69 83 107 0
-69 -83 -107 0
99 107 -108 0
99 -107 108 0
-99 107 108 0
-99 -107 -108 0
11 47 -71 0
11 -47 71 0
-11 47 71 0
-11 -47 -71 0
35 102 -109 0
35 -102 109 0
-35 102 109 0
-35 -102 -109 0
66 110 -111 0
66 -110 111 0
-66 110 111 0
-66 -110 -111 0
8 41 -80 0
8 -41 80 0
-8 41 80 0
-8 -41 -80 0
12 23 -112 0
12 -23 112 0
-12 23 112 0
-12 -23 -112 0
85 106 -113 0
85 -106 113 0
-85 106 113 0
-85 -106 -113 0
110 114 -115 0
110 -114 115 0
-110 114 115 0
-110 -114 -115 0
50 113 -116 0
50 -113 116 0
-50 113 116 0
-50 -113 -116 0
9 87 -104 0
9 -87 104 0
-9 87 104 0
-9 -87 -104 0
91 117 -118 0
91 -117 118 0
-91 117 118 0
-91 -117 -118 0
39 57 -101 0
39 -57 101 0
-39 57 101 0
-39 -57 -101 0
29 112 -116 0
29 -112 116 0
-29 112 116 0
-29 -112 -116 0
30 93 -114 0
30 -93 114 0
-30 93 114 0
-30 -93 -114 0
36 72 -103 0
36 -72 103 0
-36 72 103 0
-36 -72 -103 0
3 96 -109 0
3 -96 109 0
-3 96 109 0
-3 -96 -109 0
78 92 -111 0
78 -92 111 0
-78 92 111 0
-78 -92 -111 0
15 26 -94 0
15 -26 94 0
-15 26 94 0
-15 -26 -94 0
81 89 -115 0
81 -89 115 0
-81 89 115 0
-81 -89 -115 0
60 67 -82 0
60 -67 82 0
-60 67 82 0
-60 -67 -82 0
105 119 -120 0
105 -119 120 0
-105 119 120 0
-105 -119 -120 0
44 97 -108 0
44 -97 108 0
-44 97 108 0
-44 -97 -108 0
18 48 -119 0
18 -48 119 0
-18 48 119 0
-18 -48 -119 0
42 55 -117 0
42 -55 117 0
-42 55 117 0
-42 -55 -117 0
24 27 -118 0
24 -27 118 0
-24 27 118 0
-24 -27 -118 0
33 63 -90 0
33 -63 90 0
-33 63 90 0
-33 -63 -90 0
88 100 -120 0
88 -100 120 0
-88 100 120 0
-88 -100 -120 0
