c F4 Tseitin on networkx random_regular_graph(3,300,seed=4), connected=True, odd charge on vertex 1
p cnf 450 1200
1 2 3 0
1 -2 -3 0
-1 2 -3 0
-1 -2 3 0
4 5 -6 0
4 -5 6 0
-4 5 6 0
-4 -5 -6 0
7 8 -9 0
7 -8 9 0
-7 8 9 0
-7 -8 -9 0
10 11 -12 0
10 -11 12 0
-10 11 12 0
-10 -11 -12 0
13 14 -15 0
13 -14 15 0
-13 14 15 0
-13 -14 -15 0
16 17 -18 0
16 -17 18 0
-16 17 18 0
-16 -17 -18 0
4 19 -20 0
4 -19 20 0
-4 19 20 0
-4 -19 -20 0
21 22 -23 0
21 -22 23 0
-21 22 23 0
-21 -22 -23 0
24 25 -26 0
24 -25 26 0
-24 25 26 0
-24 -25 -26 0
27 28 -29 0
27 -28 29 0
-27 28 29 0
-27 -28 -29 0
13 30 -31 0
13 -30 31 0
-13 30 31 0
-13 -30 -31 0
32 33 -34 0
32 -33 34 0
-32 33 34 0
-32 -33 -34 0
35 36 -37 0
35 -36 37 0
-35 36 37 0
-35 -36 -37 0
38 39 -40 0
38 -39 40 0
-38 39 40 0
-38 -39 -40 0
41 42 -43 0
41 -42 43 0
-41 42 43 0
-41 -42 -43 0
44 45 -46 0
44 -45 46 0
-44 45 46 0
-44 -45 -46 0
47 48 -49 0
47 -48 49 0
-47 48 49 0
-47 -48 -49 0
50 51 -52 0
50 -51 52 0
-50 51 52 0
-50 -51 -52 0
35 53 -54 0
35 -53 54 0
-35 53 54 0
-35 -53 -54 0
55 56 -57 0
55 -56 57 0
-55 56 57 0
-55 -56 -57 0
58 59 -60 0
58 -59 60 0
-58 59 60 0
-58 -59 -60 0
61 62 -63 0
61 -62 63 0
-61 62 63 0
-61 -62 -63 0
64 65 -66 0
64 -65 66 0
-64 65 66 0
-64 -65 -66 0
67 68 -69 0
67 -68 69 0
-67 68 69 0
-67 -68 -69 0
38 70 -71 0
38 -70 71 0
-38 70 71 0
-38 -70 -71 0
72 73 -74 0
72 -73 74 0
-72 73 74 0
-72 -73 -74 0
75 76 -77 0
75 -76 77 0
-75 76 77 0
-75 -76 -77 0
58 78 -79 0
58 -78 79 0
-58 78 79 0
-58 -78 -79 0
80 81 -82 0
80 -81 82 0
-80 81 82 0
-80 -81 -82 0
16 83 -84 0
16 -83 84 0
-16 83 84 0
-16 -83 -84 0
53 85 -86 0
53 -85 86 0
-53 85 86 0
-53 -85 -86 0
32 87 -88 0
32 -87 88 0
-32 87 88 0
-32 -87 -88 0
1 89 -90 0
1 -89 90 0
-1 89 90 0
-1 -89 -90 0
91 92 -93 0
91 -92 93 0
-91 92 93 0
-91 -92 -93 0
94 95 -96 0
94 -95 96 0
-94 95 96 0
-94 -95 -96 0
97 98 -99 0
97 -98 99 0
-97 98 99 0
-97 -98 -99 0
100 101 -102 0
100 -101 102 0
-100 101 102 0
-100 -101 -102 0
103 104 -105 0
103 -104 105 0
-103 104 105 0
-103 -104 -105 0
106 107 -108 0
106 -107 108 0
-106 107 108 0
-106 -107 -108 0
109 110 -111 0
109 -110 111 0
-109 110 111 0
-109 -110 -111 0
112 113 -114 0
112 -113 114 0
-112 113 114 0
-112 -113 -114 0
61 115 -116 0
61 -115 116 0
-61 115 116 0
-61 -115 -116 0
39 117 -118 0
39 -117 118 0
-39 117 118 0
-39 -117 -118 0
33 119 -120 0
33 -119 120 0
-33 119 120 0
-33 -119 -120 0
10 121 -122 0
10 -121 122 0
-10 121 122 0
-10 -121 -122 0
59 123 -124 0
59 -123 124 0
-59 123 124 0
-59 -123 -124 0
125 126 -127 0
125 -126 127 0
-125 126 127 0
-125 -126 -127 0
50 128 -129 0
50 -128 129 0
-50 128 129 0
-50 -128 -129 0
130 131 -132 0
130 -131 132 0
-130 131 132 0
-130 -131 -132 0
80 133 -134 0
80 -133 134 0
-80 133 134 0
-80 -133 -134 0
135 136 -137 0
135 -136 137 0
-135 136 137 0
-135 -136 -137 0
138 139 -140 0
138 -139 140 0
-138 139 140 0
-138 -139 -140 0
64 141 -142 0
64 -141 142 0
-64 141 142 0
-64 -141 -142 0
7 143 -144 0
7 -143 144 0
-7 143 144 0
-7 -143 -144 0
145 146 -147 0
145 -146 147 0
-145 146 147 0
-145 -146 -147 0
17 148 -149 0
17 -148 149 0
-17 148 149 0
-17 -148 -149 0
150 151 -152 0
150 -151 152 0
-150 151 152 0
-150 -151 -152 0
130 153 -154 0
130 -153 154 0
-130 153 154 0
-130 -153 -154 0
155 156 -157 0
155 -156 157 0
-155 156 157 0
-155 -156 -157 0
67 141 -158 0
67 -141 158 0
-67 141 158 0
-67 -141 -158 0
159 160 -161 0
159 -160 161 0
-159 160 161 0
-159 -160 -161 0
44 162 -163 0
44 -162 163 0
-44 162 163 0
-44 -162 -163 0
164 165 -166 0
164 -165 166 0
-164 165 166 0
-164 -165 -166 0
167 168 -169 0
167 -168 169 0
-167 168 169 0
-167 -168 -169 0
170 171 -172 0
170 -171 172 0
-170 171 172 0
-170 -171 -172 0
119 173 -174 0
119 -173 174 0
-119 173 174 0
-119 -173 -174 0
175 176 -177 0
175 -176 177 0
-175 176 177 0
-175 -176 -177 0
70 178 -179 0
70 -178 179 0
-70 178 179 0
-70 -178 -179 0
60 180 -181 0
60 -180 181 0
-60 180 181 0
-60 -180 -181 0
180 182 -183 0
180 -182 183 0
-180 182 183 0
-180 -182 -183 0
131 184 -185 0
131 -184 185 0
-131 184 185 0
-131 -184 -185 0
173 186 -187 0
173 -186 187 0
-173 186 187 0
-173 -186 -187 0
27 155 -188 0
27 -155 188 0
-27 155 188 0
-27 -155 -188 0
189 190 -191 0
189 -190 191 0
-189 190 191 0
-189 -190 -191 0
192 193 -194 0
192 -193 194 0
-192 193 194 0
-192 -193 -194 0
162 195 -196 0
162 -195 196 0
-162 195 196 0
-162 -195 -196 0
197 198 -199 0
197 -198 199 0
-197 198 199 0
-197 -198 -199 0
72 200 -201 0
72 -200 201 0
-72 200 201 0
-72 -200 -201 0
202 203 -204 0
202 -203 204 0
-202 203 204 0
-202 -203 -204 0
150 205 -206 0
150 -205 206 0
-150 205 206 0
-150 -205 -206 0
97 207 -208 0
97 -207 208 0
-97 207 208 0
-97 -207 -208 0
209 210 -211 0
209 -210 211 0
-209 210 211 0
-209 -210 -211 0
148 212 -213 0
148 -212 213 0
-148 212 213 0
-148 -212 -213 0
24 128 -214 0
24 -128 214 0
-24 128 214 0
-24 -128 -214 0
133 215 -216 0
133 -215 216 0
-133 215 216 0
-133 -215 -216 0
75 100 -217 0
75 -100 217 0
-75 100 217 0
-75 -100 -217 0
125 218 -219 0
125 -218 219 0
-125 218 219 0
-125 -218 -219 0
220 221 -222 0
220 -221 222 0
-220 221 222 0
-220 -221 -222 0
209 223 -224 0
209 -223 224 0
-209 223 224 0
-209 -223 -224 0
225 226 -227 0
225 -226 227 0
-225 226 227 0
-225 -226 -227 0
178 200 -228 0
178 -200 228 0
-178 200 228 0
-178 -200 -228 0
94 159 -229 0
94 -159 229 0
-94 159 229 0
-94 -159 -229 0
230 231 -232 0
230 -231 232 0
-230 231 232 0
-230 -231 -232 0
233 234 -235 0
233 -234 235 0
-233 234 235 0
-233 -234 -235 0
236 237 -238 0
236 -237 238 0
-236 237 238 0
-236 -237 -238 0
239 240 -241 0
239 -240 241 0
-239 240 241 0
-239 -240 -241 0
205 239 -242 0
205 -239 242 0
-205 239 242 0
-205 -239 -242 0
220 243 -244 0
220 -243 244 0
-220 243 244 0
-220 -243 -244 0
91 245 -246 0
91 -245 246 0
-91 245 246 0
-91 -245 -246 0
247 248 -249 0
247 -248 249 0
-247 248 249 0
-247 -248 -249 0
250 251 -252 0
250 -251 252 0
-250 251 252 0
-250 -251 -252 0
207 253 -254 0
207 -253 254 0
-207 253 254 0
-207 -253 -254 0
255 256 -257 0
255 -256 257 0
-255 256 257 0
-255 -256 -257 0
87 258 -259 0
87 -258 259 0
-87 258 259 0
-87 -258 -259 0
175 260 -261 0
175 -260 261 0
-175 260 261 0
-175 -260 -261 0
89 262 -263 0
89 -262 263 0
-89 262 263 0
-89 -262 -263 0
264 265 -266 0
264 -265 266 0
-264 265 266 0
-264 -265 -266 0
253 267 -268 0
253 -267 268 0
-253 267 268 0
-253 -267 -268 0
236 269 -270 0
236 -269 270 0
-236 269 270 0
-236 -269 -270 0
192 271 -272 0
192 -271 272 0
-192 271 272 0
-192 -271 -272 0
145 212 -273 0
145 -212 273 0
-145 212 273 0
-145 -212 -273 0
83 188 -274 0
83 -188 274 0
-83 188 274 0
-83 -188 -274 0
126 275 -276 0
126 -275 276 0
-126 275 276 0
-126 -275 -276 0
218 247 -277 0
218 -247 277 0
-218 247 277 0
-218 -247 -277 0
215 278 -279 0
215 -278 279 0
-215 278 279 0
-215 -278 -279 0
25 280 -281 0
25 -280 281 0
-25 280 281 0
-25 -280 -281 0
282 283 -284 0
282 -283 284 0
-282 283 284 0
-282 -283 -284 0
193 285 -286 0
193 -285 286 0
-193 285 286 0
-193 -285 -286 0
255 275 -287 0
255 -275 287 0
-255 275 287 0
-255 -275 -287 0
88 288 -289 0
88 -288 289 0
-88 288 289 0
-88 -288 -289 0
65 98 -290 0
65 -98 290 0
-65 98 290 0
-65 -98 -290 0
291 292 -293 0
291 -292 293 0
-291 292 293 0
-291 -292 -293 0
294 295 -296 0
294 -295 296 0
-294 295 296 0
-294 -295 -296 0
297 298 -299 0
297 -298 299 0
-297 298 299 0
-297 -298 -299 0
300 301 -302 0
300 -301 302 0
-300 301 302 0
-300 -301 -302 0
109 167 -256 0
109 -167 256 0
-109 167 256 0
-109 -167 -256 0
47 182 -269 0
47 -182 269 0
-47 182 269 0
-47 -182 -269 0
303 304 -305 0
303 -304 305 0
-303 304 305 0
-303 -304 -305 0
237 278 -306 0
237 -278 306 0
-237 278 306 0
-237 -278 -306 0
18 202 -307 0
18 -202 307 0
-18 202 307 0
-18 -202 -307 0
95 203 -213 0
95 -203 213 0
-95 203 213 0
-95 -203 -213 0
285 308 -309 0
285 -308 309 0
-285 308 309 0
-285 -308 -309 0
248 271 -291 0
248 -271 291 0
-248 271 291 0
-248 -271 -291 0
297 310 -311 0
297 -310 311 0
-297 310 311 0
-297 -310 -311 0
176 312 -313 0
176 -312 313 0
-176 312 313 0
-176 -312 -313 0
112 153 -314 0
112 -153 314 0
-112 153 314 0
-112 -153 -314 0
121 312 -315 0
121 -312 315 0
-121 312 315 0
-121 -312 -315 0
81 316 -317 0
81 -316 317 0
-81 316 317 0
-81 -316 -317 0
164 262 -318 0
164 -262 318 0
-164 262 318 0
-164 -262 -318 0
221 257 -319 0
221 -257 319 0
-221 257 319 0
-221 -257 -319 0
41 320 -321 0
41 -320 321 0
-41 320 321 0
-41 -320 -321 0
117 204 -322 0
117 -204 322 0
-117 204 322 0
-117 -204 -322 0
92 323 -324 0
92 -323 324 0
-92 323 324 0
-92 -323 -324 0
306 315 -325 0
306 -315 325 0
-306 315 325 0
-306 -315 -325 0
2 326 -327 0
2 -326 327 0
-2 326 327 0
-2 -326 -327 0
90 240 -260 0
90 -240 260 0
-90 240 260 0
-90 -240 -260 0
170 328 -329 0
170 -328 329 0
-170 328 329 0
-170 -328 -329 0
11 330 -331 0
11 -330 331 0
-11 330 331 0
-11 -330 -331 0
138 332 -333 0
138 -332 333 0
-138 332 333 0
-138 -332 -333 0
118 334 -335 0
118 -334 335 0
-118 334 335 0
-118 -334 -335 0
78 250 -336 0
78 -250 336 0
-78 250 336 0
-78 -250 -336 0
26 129 -280 0
26 -129 280 0
-26 129 280 0
-26 -129 -280 0
171 337 -338 0
171 -337 338 0
-171 337 338 0
-171 -337 -338 0
177 233 -339 0
177 -233 339 0
-177 233 339 0
-177 -233 -339 0
307 328 -340 0
307 -328 340 0
-307 328 340 0
-307 -328 -340 0
288 341 -342 0
288 -341 342 0
-288 341 342 0
-288 -341 -342 0
179 308 -343 0
179 -308 343 0
-179 308 343 0
-179 -308 -343 0
19 234 -344 0
19 -234 344 0
-19 234 344 0
-19 -234 -344 0
230 345 -346 0
230 -345 346 0
-230 345 346 0
-230 -345 -346 0
210 267 -292 0
210 -267 292 0
-210 267 292 0
-210 -267 -292 0
243 347 -348 0
243 -347 348 0
-243 347 348 0
-243 -347 -348 0
219 223 -290 0
219 -223 290 0
-219 223 290 0
-219 -223 -290 0
36 322 -349 0
36 -322 349 0
-36 322 349 0
-36 -322 -349 0
350 351 -352 0
350 -351 352 0
-350 351 352 0
-350 -351 -352 0
8 110 -353 0
8 -110 353 0
-8 110 353 0
-8 -110 -353 0
123 354 -355 0
123 -354 355 0
-123 354 355 0
-123 -354 -355 0
101 208 -238 0
101 -208 238 0
-101 208 238 0
-101 -208 -238 0
310 356 -357 0
310 -356 357 0
-310 356 357 0
-310 -356 -357 0
184 358 -359 0
184 -358 359 0
-184 358 359 0
-184 -358 -359 0
264 332 -360 0
264 -332 360 0
-264 332 360 0
-264 -332 -360 0
194 361 -362 0
194 -361 362 0
-194 361 362 0
-194 -361 -362 0
313 363 -364 0
313 -363 364 0
-313 363 364 0
-313 -363 -364 0
28 365 -366 0
28 -365 366 0
-28 365 366 0
-28 -365 -366 0
115 189 -367 0
115 -189 367 0
-115 189 367 0
-115 -189 -367 0
330 360 -365 0
330 -360 365 0
-330 360 365 0
-330 -360 -365 0
102 363 -368 0
102 -363 368 0
-102 363 368 0
-102 -363 -368 0
197 369 -370 0
197 -369 370 0
-197 369 370 0
-197 -369 -370 0
45 79 -371 0
45 -79 371 0
-45 79 371 0
-45 -79 -371 0
139 372 -373 0
139 -372 373 0
-139 372 373 0
-139 -372 -373 0
73 374 -375 0
73 -374 375 0
-73 374 375 0
-73 -374 -375 0
111 186 -337 0
111 -186 337 0
-111 186 337 0
-111 -186 -337 0
334 367 -376 0
334 -367 376 0
-334 367 376 0
-334 -367 -376 0
286 377 -378 0
286 -377 378 0
-286 377 378 0
-286 -377 -378 0
103 160 -379 0
103 -160 379 0
-103 160 379 0
-103 -160 -379 0
5 380 -381 0
5 -380 381 0
-5 380 381 0
-5 -380 -381 0
21 336 -353 0
21 -336 353 0
-21 336 353 0
-21 -336 -353 0
281 350 -382 0
281 -350 382 0
-281 350 382 0
-281 -350 -382 0
258 383 -384 0
258 -383 384 0
-258 383 384 0
-258 -383 -384 0
316 351 -385 0
316 -351 385 0
-316 351 385 0
-316 -351 -385 0
251 369 -386 0
251 -369 386 0
-251 369 386 0
-251 -369 -386 0
140 263 -303 0
140 -263 303 0
-140 263 303 0
-140 -263 -303 0
62 151 -265 0
62 -151 265 0
-62 151 265 0
-62 -151 -265 0
113 244 -387 0
113 -244 387 0
-113 244 387 0
-113 -244 -387 0
63 388 -389 0
63 -388 389 0
-63 388 389 0
-63 -388 -389 0
356 390 -391 0
356 -390 391 0
-356 390 391 0
-356 -390 -391 0
124 392 -393 0
124 -392 393 0
-124 392 393 0
-124 -392 -393 0
340 394 -395 0
340 -394 395 0
-340 394 395 0
-340 -394 -395 0
114 185 -298 0
114 -185 298 0
-114 185 298 0
-114 -185 -298 0
272 358 -396 0
272 -358 396 0
-272 358 396 0
-272 -358 -396 0
397 398 -399 0
397 -398 399 0
-397 398 399 0
-397 -398 -399 0
143 225 -400 0
143 -225 400 0
-143 225 400 0
-143 -225 -400 0
226 401 -402 0
226 -401 402 0
-226 401 402 0
-226 -401 -402 0
394 403 -404 0
394 -403 404 0
-394 403 404 0
-394 -403 -404 0
323 352 -405 0
323 -352 405 0
-323 352 405 0
-323 -352 -405 0
231 406 -407 0
231 -406 407 0
-231 406 407 0
-231 -406 -407 0
397 408 -409 0
397 -408 409 0
-397 408 409 0
-397 -408 -409 0
300 320 -386 0
300 -320 386 0
-300 320 386 0
-300 -320 -386 0
135 142 -341 0
135 -142 341 0
-135 142 341 0
-135 -142 -341 0
42 254 -279 0
42 -254 279 0
-42 254 279 0
-42 -254 -279 0
14 401 -410 0
14 -401 410 0
-14 401 410 0
-14 -401 -410 0
54 387 -410 0
54 -387 410 0
-54 387 410 0
-54 -387 -410 0
76 301 -354 0
76 -301 354 0
-76 301 354 0
-76 -301 -354 0
195 201 -335 0
195 -201 335 0
-195 201 335 0
-195 -201 -335 0
411 412 -413 0
411 -412 413 0
-411 412 413 0
-411 -412 -413 0
46 51 -304 0
46 -51 304 0
-46 51 304 0
-46 -51 -304 0
154 294 -321 0
154 -294 321 0
-154 294 321 0
-154 -294 -321 0
122 136 -347 0
122 -136 347 0
-122 136 347 0
-122 -136 -347 0
282 380 -414 0
282 -380 414 0
-282 380 414 0
-282 -380 -414 0
214 268 -415 0
214 -268 415 0
-214 268 415 0
-214 -268 -415 0
77 416 -417 0
77 -416 417 0
-77 416 417 0
-77 -416 -417 0
318 368 -398 0
318 -368 398 0
-318 368 398 0
-318 -368 -398 0
227 418 -419 0
227 -418 419 0
-227 418 419 0
-227 -418 -419 0
156 324 -420 0
156 -324 420 0
-156 324 420 0
-156 -324 -420 0
12 343 -390 0
12 -343 390 0
-12 343 390 0
-12 -343 -390 0
104 206 -326 0
104 -206 326 0
-104 206 326 0
-104 -206 -326 0
149 273 -283 0
149 -273 283 0
-149 273 283 0
-149 -273 -283 0
137 421 -422 0
137 -421 422 0
-137 421 422 0
-137 -421 -422 0
245 372 -423 0
245 -372 423 0
-245 372 423 0
-245 -372 -423 0
196 364 -374 0
196 -364 374 0
-196 364 374 0
-196 -364 -374 0
66 402 -424 0
66 -402 424 0
-66 402 424 0
-66 -402 -424 0
3 259 -425 0
3 -259 425 0
-3 259 425 0
-3 -259 -425 0
241 426 -427 0
241 -426 427 0
-241 426 427 0
-241 -426 -427 0
84 388 -423 0
84 -388 423 0
-84 388 423 0
-84 -388 -423 0
309 349 -428 0
309 -349 428 0
-309 349 428 0
-309 -349 -428 0
105 116 -429 0
105 -116 429 0
-105 116 429 0
-105 -116 -429 0
99 211 -430 0
99 -211 430 0
-99 211 430 0
-99 -211 -430 0
329 395 -431 0
329 -395 431 0
-329 395 431 0
-329 -395 -431 0
229 411 -432 0
229 -411 432 0
-229 411 432 0
-229 -411 -432 0
355 433 -434 0
355 -433 434 0
-355 433 434 0
-355 -433 -434 0
174 299 -435 0
174 -299 435 0
-174 299 435 0
-174 -299 -435 0
106 144 -246 0
106 -144 246 0
-106 144 246 0
-106 -144 -246 0
30 377 -383 0
30 -377 383 0
-30 377 383 0
-30 -377 -383 0
20 414 -425 0
20 -414 425 0
-20 414 425 0
-20 -414 -425 0
34 55 -85 0
34 -55 85 0
-34 55 85 0
-34 -55 -85 0
373 384 -436 0
373 -384 436 0
-373 384 436 0
-373 -384 -436 0
48 437 -438 0
48 -437 438 0
-48 437 438 0
-48 -437 -438 0
120 370 -408 0
120 -370 408 0
-120 370 408 0
-120 -370 -408 0
168 317 -406 0
168 -317 406 0
-168 317 406 0
-168 -317 -406 0
152 432 -433 0
152 -432 433 0
-152 432 433 0
-152 -432 -433 0
181 418 -430 0
181 -418 430 0
-181 418 430 0
-181 -418 -430 0
161 409 -439 0
161 -409 439 0
-161 409 439 0
-161 -409 -439 0
428 440 -441 0
428 -440 441 0
-428 440 441 0
-428 -440 -441 0
165 242 -375 0
165 -242 375 0
-165 242 375 0
-165 -242 -375 0
378 407 -412 0
378 -407 412 0
-378 407 412 0
-378 -407 -412 0
15 415 -435 0
15 -415 435 0
-15 415 435 0
-15 -415 -435 0
382 442 -443 0
382 -442 443 0
-382 442 443 0
-382 -442 -443 0
222 228 -437 0
222 -228 437 0
-222 228 437 0
-222 -228 -437 0
266 327 -345 0
266 -327 345 0
-266 327 345 0
-266 -327 -345 0
93 277 -302 0
93 -277 302 0
-93 277 302 0
-93 -277 -302 0
339 403 -444 0
339 -403 444 0
-339 403 444 0
-339 -403 -444 0
22 346 -444 0
22 -346 444 0
-22 346 444 0
-22 -346 -444 0
96 158 -392 0
96 -158 392 0
-96 158 392 0
-96 -158 -392 0
9 274 -361 0
9 -274 361 0
-9 274 361 0
-9 -274 -361 0
287 431 -445 0
287 -431 445 0
-287 431 445 0
-287 -431 -445 0
6 157 -232 0
6 -157 232 0
-6 157 232 0
-6 -157 -232 0
37 82 -391 0
37 -82 391 0
-37 82 391 0
-37 -82 -391 0
166 421 -446 0
166 -421 446 0
-166 421 446 0
-166 -421 -446 0
146 305 -416 0
146 -305 416 0
-146 305 416 0
-146 -305 -416 0
270 311 -325 0
270 -311 325 0
-270 311 325 0
-270 -311 -325 0
31 74 -447 0
31 -74 447 0
-31 74 447 0
-31 -74 -447 0
216 235 -448 0
216 -235 448 0
-216 235 448 0
-216 -235 -448 0
198 405 -426 0
198 -405 426 0
-198 405 426 0
-198 -405 -426 0
252 362 -442 0
252 -362 442 0
-252 362 442 0
-252 -362 -442 0
56 71 -449 0
56 -71 449 0
-56 71 449 0
-56 -71 -449 0
127 331 -400 0
127 -331 400 0
-127 331 400 0
-127 -331 -400 0
107 132 -163 0
107 -132 163 0
-107 132 163 0
-107 -132 -163 0
172 419 -439 0
172 -419 439 0
-172 419 439 0
-172 -419 -439 0
183 424 -448 0
183 -424 448 0
-183 424 448 0
-183 -424 -448 0
289 295 -450 0
289 -295 450 0
-289 295 450 0
-289 -295 -450 0
344 446 -447 0
344 -446 447 0
-344 446 447 0
-344 -446 -447 0
147 169 -440 0
147 -169 440 0
-147 169 440 0
-147 -169 -440 0
333 357 -371 0
333 -357 371 0
-333 357 371 0
-333 -357 -371 0
379 385 -436 0
379 -385 436 0
-379 385 436 0
-379 -385 -436 0
276 396 -445 0
276 -396 445 0
-276 396 445 0
-276 -396 -445 0
284 359 -429 0
284 -359 429 0
-284 359 429 0
-284 -359 -429 0
57 249 -314 0
57 -249 314 0
-57 249 314 0
-57 -249 -314 0
293 381 -450 0
293 -381 450 0
-293 381 450 0
-293 -381 -450 0
52 427 -441 0
52 -427 441 0
-52 427 441 0
-52 -427 -441 0
224 399 -422 0
224 -399 422 0
-224 399 422 0
-224 -399 -422 0
348 404 -420 0
348 -404 420 0
-348 404 420 0
-348 -404 -420 0
43 68 -443 0
43 -68 443 0
-43 68 443 0
-43 -68 -443 0
190 296 -342 0
190 -296 342 0
-190 296 342 0
-190 -296 -342 0
134 199 -338 0
134 -199 338 0
-134 199 338 0
-134 -199 -338 0
69 389 -393 0
69 -389 393 0
-69 389 393 0
-69 -389 -393 0
29 108 -191 0
29 -108 191 0
-29 108 191 0
-29 -108 -191 0
40 366 -413 0
40 -366 413 0
-40 366 413 0
-40 -366 -413 0
217 417 -434 0
217 -417 434 0
-217 417 434 0
-217 -417 -434 0
49 261 -376 0
49 -261 376 0
-49 261 376 0
-49 -261 -376 0
23 86 -438 0
23 -86 438 0
-23 86 438 0
-23 -86 -438 0
187 319 -449 0
187 -319 449 0
-187 319 449 0
-187 -319 -449 0
