c F4 Tseitin on networkx random_regular_graph(3,100,seed=3), connected=True, odd charge on vertex 1
p cnf 150 400
1 2 3 0
1 -2 -3 0
-1 2 -3 0
-1 -2 3 0
1 4 -5 0
1 -4 5 0
-1 4 5 0
-1 -4 -5 0
6 7 -8 0
6 -7 8 0
-6 7 8 0
-6 -7 -8 0
9 10 -11 0
9 -10 11 0
-9 10 11 0
-9 -10 -11 0
12 13 -14 0
12 -13 14 0
-12 13 14 0
-12 -13 -14 0
15 16 -17 0
15 -16 17 0
-15 16 17 0
-15 -16 -17 0
18 19 -20 0
18 -19 20 0
-18 19 20 0
-18 -19 -20 0
21 22 -23 0
21 -22 23 0
-21 22 23 0
-21 -22 -23 0
24 25 -26 0
24 -25 26 0
-24 25 26 0
-24 -25 -26 0
27 28 -29 0
27 -28 29 0
-27 28 29 0
-27 -28 -29 0
30 31 -32 0
30 -31 32 0
-30 31 32 0
-30 -31 -32 0
9 33 -34 0
9 -33 34 0
-9 33 34 0
-9 -33 -34 0
35 36 -37 0
35 -36 37 0
-35 36 37 0
-35 -36 -37 0
38 39 -40 0
38 -39 40 0
-38 39 40 0
-38 -39 -40 0
24 41 -42 0
24 -41 42 0
-24 41 42 0
-24 -41 -42 0
43 44 -45 0
43 -44 45 0
-43 44 45 0
-43 -44 -45 0
46 47 -48 0
46 -47 48 0
-46 47 48 0
-46 -47 -48 0
15 49 -50 0
15 -49 50 0
-15 49 50 0
-15 -49 -50 0
51 52 -53 0
51 -52 53 0
-51 52 53 0
-51 -52 -53 0
4 54 -55 0
4 -54 55 0
-4 54 55 0
-4 -54 -55 0
43 56 -57 0
43 -56 57 0
-43 56 57 0
-43 -56 -57 0
58 59 -60 0
58 -59 60 0
-58 59 60 0
-58 -59 -60 0
6 41 -61 0
6 -41 61 0
-6 41 61 0
-6 -41 -61 0
62 63 -64 0
62 -63 64 0
-62 63 64 0
-62 -63 -64 0
18 65 -66 0
18 -65 66 0
-18 65 66 0
-18 -65 -66 0
67 68 -69 0
67 -68 69 0
-67 68 69 0
-67 -68 -69 0
70 71 -72 0
70 -71 72 0
-70 71 72 0
-70 -71 -72 0
7 42 -73 0
7 -42 73 0
-7 42 73 0
-7 -42 -73 0
35 74 -75 0
35 -74 75 0
-35 74 75 0
-35 -74 -75 0
44 76 -77 0
44 -76 77 0
-44 76 77 0
-44 -76 -77 0
33 74 -78 0
33 -74 78 0
-33 74 78 0
-33 -74 -78 0
46 79 -80 0
46 -79 80 0
-46 79 80 0
-46 -79 -80 0
10 21 -81 0
10 -21 81 0
-10 21 81 0
-10 -21 -81 0
5 82 -83 0
5 -82 83 0
-5 82 83 0
-5 -82 -83 0
12 84 -85 0
12 -84 85 0
-12 84 85 0
-12 -84 -85 0
86 87 -88 0
86 -87 88 0
-86 87 88 0
-86 -87 -88 0
89 90 -91 0
89 -90 91 0
-89 90 91 0
-89 -90 -91 0
84 92 -93 0
84 -92 93 0
-84 92 93 0
-84 -92 -93 0
16 94 -95 0
16 -94 95 0
-16 94 95 0
-16 -94 -95 0
96 97 -98 0
96 -97 98 0
-96 97 98 0
-96 -97 -98 0
19 62 -89 0
19 -62 89 0
-19 62 89 0
-19 -62 -89 0
99 100 -101 0
99 -100 101 0
-99 100 101 0
-99 -100 -101 0
82 102 -103 0
82 -102 103 0
-82 102 103 0
-82 -102 -103 0
104 105 -106 0
104 -105 106 0
-104 105 106 0
-104 -105 -106 0
56 107 -108 0
56 -107 108 0
-56 107 108 0
-56 -107 -108 0
58 70 -109 0
58 -70 109 0
-58 70 109 0
-58 -70 -109 0
109 110 -111 0
109 -110 111 0
-109 110 111 0
-109 -110 -111 0
112 113 -114 0
112 -113 114 0
-112 113 114 0
-112 -113 -114 0
2 13 -115 0
2 -13 115 0
-2 13 115 0
-2 -13 -115 0
51 90 -110 0
51 -90 110 0
-51 90 110 0
-51 -90 -110 0
36 112 -116 0
36 -112 116 0
-36 112 116 0
-36 -112 -116 0
94 117 -118 0
94 -117 118 0
-94 117 118 0
-94 -117 -118 0
76 83 -104 0
76 -83 104 0
-76 83 104 0
-76 -83 -104 0
73 119 -120 0
73 -119 120 0
-73 119 120 0
-73 -119 -120 0
45 121 -122 0
45 -121 122 0
-45 121 122 0
-45 -121 -122 0
38 61 -123 0
38 -61 123 0
-38 61 123 0
-38 -61 -123 0
124 125 -126 0
124 -125 126 0
-124 125 126 0
-124 -125 -126 0
124 127 -128 0
124 -127 128 0
-124 127 128 0
-124 -127 -128 0
47 71 -91 0
47 -71 91 0
-47 71 91 0
-47 -71 -91 0
25 79 -129 0
25 -79 129 0
-25 79 129 0
-25 -79 -129 0
77 121 -130 0
77 -121 130 0
-77 121 130 0
-77 -121 -130 0
96 131 -132 0
96 -131 132 0
-96 131 132 0
-96 -131 -132 0
67 122 -133 0
67 -122 133 0
-67 122 133 0
-67 -122 -133 0
63 68 -134 0
63 -68 134 0
-63 68 134 0
-63 -68 -134 0
30 39 -48 0
30 -39 48 0
-30 39 48 0
-30 -39 -48 0
127 135 -136 0
127 -135 136 0
-127 135 136 0
-127 -135 -136 0
99 102 -137 0
99 -102 137 0
-99 102 137 0
-99 -102 -137 0
97 138 -139 0
97 -138 139 0
-97 138 139 0
-97 -138 -139 0
49 100 -140 0
49 -100 140 0
-49 100 140 0
-49 -100 -140 0
115 119 -141 0
115 -119 141 0
-115 119 141 0
-115 -119 -141 0
80 95 -117 0
80 -95 117 0
-80 95 117 0
-80 -95 -117 0
26 123 -142 0
26 -123 142 0
-26 123 142 0
-26 -123 -142 0
8 85 -135 0
8 -85 135 0
-8 85 135 0
-8 -85 -135 0
64 105 -131 0
64 -105 131 0
-64 105 131 0
-64 -105 -131 0
103 125 -143 0
103 -125 143 0
-103 125 143 0
-103 -125 -143 0
27 65 -144 0
27 -65 144 0
-27 65 144 0
-27 -65 -144 0
133 144 -145 0
133 -144 145 0
-133 144 145 0
-133 -144 -145 0
11 50 -54 0
11 -50 54 0
-11 50 54 0
-11 -50 -54 0
59 78 -142 0
59 -78 142 0
-59 78 142 0
-59 -78 -142 0
28 86 -146 0
28 -86 146 0
-28 86 146 0
-28 -86 -146 0
129 146 -147 0
129 -146 147 0
-129 146 147 0
-129 -146 -147 0
60 106 -148 0
60 -106 148 0
-60 106 148 0
-60 -106 -148 0
81 138 -148 0
81 -138 148 0
-81 138 148 0
-81 -138 -148 0
57 130 -149 0
57 -130 149 0
-57 130 149 0
-57 -130 -149 0
31 75 -116 0
31 -75 116 0
-31 75 116 0
-31 -75 -116 0
29 118 -150 0
29 -118 150 0
-29 118 150 0
-29 -118 -150 0
22 92 -143 0
22 -92 143 0
-22 92 143 0
-22 -92 -143 0
101 126 -140 0
101 -126 140 0
-101 126 140 0
-101 -126 -140 0
14 32 -40 0
14 -32 40 0
-14 32 40 0
-14 -32 -40 0
111 137 -150 0
111 -137 150 0
-111 137 150 0
-111 -137 -150 0
52 69 -98 0
52 -69 98 0
-52 69 98 0
-52 -69 -98 0
34 37 -107 0
34 -37 107 0
-34 37 107 0
-34 -37 -107 0
141 145 -147 0
141 -145 147 0
-141 145 147 0
-141 -145 -147 0
17 72 -134 0
17 -72 134 0
-17 72 134 0
-17 -72 -134 0
3 23 -87 0
3 -23 87 0
-3 23 87 0
-3 -23 -87 0
88 93 -113 0
88 -93 113 0
-88 93 113 0
-88 -93 -113 0
20 132 -149 0
20 -132 149 0
-20 132 149 0
-20 -132 -149 0
108 114 -136 0
108 -114 136 0
-108 114 136 0
-108 -114 -136 0
53 55 -128 0
53 -55 128 0
-53 55 128 0
-53 -55 -128 0
66 120 -139 0
66 -120 139 0
-66 120 139 0
-66 -120 -139 0
