c F4 Tseitin on networkx random_regular_graph(3,150,seed=3), connected=True, odd charge on vertex 1
p cnf 225 600
1 2 3 0
1 -2 -3 0
-1 2 -3 0
-1 -2 3 0
4 5 -6 0
4 -5 6 0
-4 5 6 0
-4 -5 -6 0
7 8 -9 0
7 -8 9 0
-7 8 9 0
-7 -8 -9 0
10 11 -12 0
10 -11 12 0
-10 11 12 0
-10 -11 -12 0
13 14 -15 0
13 -14 15 0
-13 14 15 0
-13 -14 -15 0
16 17 -18 0
16 -17 18 0
-16 17 18 0
-16 -17 -18 0
19 20 -21 0
19 -20 21 0
-19 20 21 0
-19 -20 -21 0
7 22 -23 0
7 -22 23 0
-7 22 23 0
-7 -22 -23 0
24 25 -26 0
24 -25 26 0
-24 25 26 0
-24 -25 -26 0
27 28 -29 0
27 -28 29 0
-27 28 29 0
-27 -28 -29 0
30 31 -32 0
30 -31 32 0
-30 31 32 0
-30 -31 -32 0
33 34 -35 0
33 -34 35 0
-33 34 35 0
-33 -34 -35 0
36 37 -38 0
36 -37 38 0
-36 37 38 0
-36 -37 -38 0
39 40 -41 0
39 -40 41 0
-39 40 41 0
-39 -40 -41 0
42 43 -44 0
42 -43 44 0
-42 43 44 0
-42 -43 -44 0
42 45 -46 0
42 -45 46 0
-42 45 46 0
-42 -45 -46 0
47 48 -49 0
47 -48 49 0
-47 48 49 0
-47 -48 -49 0
33 50 -51 0
33 -50 51 0
-33 50 51 0
-33 -50 -51 0
34 52 -53 0
34 -52 53 0
-34 52 53 0
-34 -52 -53 0
54 55 -56 0
54 -55 56 0
-54 55 56 0
-54 -55 -56 0
57 58 -59 0
57 -58 59 0
-57 58 59 0
-57 -58 -59 0
47 60 -61 0
47 -60 61 0
-47 60 61 0
-47 -60 -61 0
39 62 -63 0
39 -62 63 0
-39 62 63 0
-39 -62 -63 0
64 65 -66 0
64 -65 66 0
-64 65 66 0
-64 -65 -66 0
67 68 -69 0
67 -68 69 0
-67 68 69 0
-67 -68 -69 0
70 71 -72 0
70 -71 72 0
-70 71 72 0
-70 -71 -72 0
73 74 -75 0
73 -74 75 0
-73 74 75 0
-73 -74 -75 0
35 76 -77 0
35 -76 77 0
-35 76 77 0
-35 -76 -77 0
78 79 -80 0
78 -79 80 0
-78 79 80 0
-78 -79 -80 0
57 81 -82 0
57 -81 82 0
-57 81 82 0
-57 -81 -82 0
83 84 -85 0
83 -84 85 0
-83 84 85 0
-83 -84 -85 0
86 87 -88 0
86 -87 88 0
-86 87 88 0
-86 -87 -88 0
86 89 -90 0
86 -89 90 0
-86 89 90 0
-86 -89 -90 0
13 87 -91 0
13 -87 91 0
-13 87 91 0
-13 -87 -91 0
92 93 -94 0
92 -93 94 0
-92 93 94 0
-92 -93 -94 0
73 95 -96 0
73 -95 96 0
-73 95 96 0
-73 -95 -96 0
97 98 -99 0
97 -98 99 0
-97 98 99 0
-97 -98 -99 0
16 52 -100 0
16 -52 100 0
-16 52 100 0
-16 -52 -100 0
81 100 -101 0
81 -100 101 0
-81 100 101 0
-81 -100 -101 0
27 102 -103 0
27 -102 103 0
-27 102 103 0
-27 -102 -103 0
36 104 -105 0
36 -104 105 0
-36 104 105 0
-36 -104 -105 0
106 107 -108 0
106 -107 108 0
-106 107 108 0
-106 -107 -108 0
43 109 -110 0
43 -109 110 0
-43 109 110 0
-43 -109 -110 0
111 112 -113 0
111 -112 113 0
-111 112 113 0
-111 -112 -113 0
114 115 -116 0
114 -115 116 0
-114 115 116 0
-114 -115 -116 0
117 118 -119 0
117 -118 119 0
-117 118 119 0
-117 -118 -119 0
83 120 -121 0
83 -120 121 0
-83 120 121 0
-83 -120 -121 0
122 123 -124 0
122 -123 124 0
-122 123 124 0
-122 -123 -124 0
125 126 -127 0
125 -126 127 0
-125 126 127 0
-125 -126 -127 0
128 129 -130 0
128 -129 130 0
-128 129 130 0
-128 -129 -130 0
76 106 -125 0
76 -106 125 0
-76 106 125 0
-76 -106 -125 0
107 131 -132 0
107 -131 132 0
-107 131 132 0
-107 -131 -132 0
24 133 -134 0
24 -133 134 0
-24 133 134 0
-24 -133 -134 0
135 136 -137 0
135 -136 137 0
-135 136 137 0
-135 -136 -137 0
22 138 -139 0
22 -138 139 0
-22 138 139 0
-22 -138 -139 0
140 141 -142 0
140 -141 142 0
-140 141 142 0
-140 -141 -142 0
143 144 -145 0
143 -144 145 0
-143 144 145 0
-143 -144 -145 0
64 92 -146 0
64 -92 146 0
-64 92 146 0
-64 -92 -146 0
147 148 -149 0
147 -148 149 0
-147 148 149 0
-147 -148 -149 0
44 120 -150 0
44 -120 150 0
-44 120 150 0
-44 -120 -150 0
117 135 -151 0
117 -135 151 0
-117 135 151 0
-117 -135 -151 0
152 153 -154 0
152 -153 154 0
-152 153 154 0
-152 -153 -154 0
155 156 -157 0
155 -156 157 0
-155 156 157 0
-155 -156 -157 0
8 158 -159 0
8 -158 159 0
-8 158 159 0
-8 -158 -159 0
4 138 -160 0
4 -138 160 0
-4 138 160 0
-4 -138 -160 0
25 161 -162 0
25 -161 162 0
-25 161 162 0
-25 -161 -162 0
77 128 -163 0
77 -128 163 0
-77 128 163 0
-77 -128 -163 0
158 164 -165 0
158 -164 165 0
-158 164 165 0
-158 -164 -165 0
19 166 -167 0
19 -166 167 0
-19 166 167 0
-19 -166 -167 0
89 168 -169 0
89 -168 169 0
-89 168 169 0
-89 -168 -169 0
78 129 -150 0
78 -129 150 0
-78 129 150 0
-78 -129 -150 0
28 91 -170 0
28 -91 170 0
-28 91 170 0
-28 -91 -170 0
102 166 -171 0
102 -166 171 0
-102 166 171 0
-102 -166 -171 0
67 172 -173 0
67 -172 173 0
-67 172 173 0
-67 -172 -173 0
10 65 -147 0
10 -65 147 0
-10 65 147 0
-10 -65 -147 0
40 174 -175 0
40 -174 175 0
-40 174 175 0
-40 -174 -175 0
97 176 -177 0
97 -176 177 0
-97 176 177 0
-97 -176 -177 0
114 143 -178 0
114 -143 178 0
-114 143 178 0
-114 -143 -178 0
30 163 -179 0
30 -163 179 0
-30 163 179 0
-30 -163 -179 0
115 161 -167 0
115 -161 167 0
-115 161 167 0
-115 -161 -167 0
155 180 -181 0
155 -180 181 0
-155 180 181 0
-155 -180 -181 0
121 182 -183 0
121 -182 183 0
-121 182 183 0
-121 -182 -183 0
122 180 -184 0
122 -180 184 0
-122 180 184 0
-122 -180 -184 0
185 186 -187 0
185 -186 187 0
-185 186 187 0
-185 -186 -187 0
109 164 -188 0
109 -164 188 0
-109 164 188 0
-109 -164 -188 0
37 133 -189 0
37 -133 189 0
-37 133 189 0
-37 -133 -189 0
152 190 -191 0
152 -190 191 0
-152 190 191 0
-152 -190 -191 0
148 192 -193 0
148 -192 193 0
-148 192 193 0
-148 -192 -193 0
14 111 -181 0
14 -111 181 0
-14 111 181 0
-14 -111 -181 0
5 123 -126 0
5 -123 126 0
-5 123 126 0
-5 -123 -126 0
50 188 -194 0
50 -188 194 0
-50 188 194 0
-50 -188 -194 0
11 62 -195 0
11 -62 195 0
-11 62 195 0
-11 -62 -195 0
31 98 -172 0
31 -98 172 0
-31 98 172 0
-31 -98 -172 0
131 159 -162 0
131 -159 162 0
-131 159 162 0
-131 -159 -162 0
140 196 -197 0
140 -196 197 0
-140 196 197 0
-140 -196 -197 0
17 68 -198 0
17 -68 198 0
-17 68 198 0
-17 -68 -198 0
29 58 -199 0
29 -58 199 0
-29 58 199 0
-29 -58 -199 0
32 165 -200 0
32 -165 200 0
-32 165 200 0
-32 -165 -200 0
12 201 -202 0
12 -201 202 0
-12 201 202 0
-12 -201 -202 0
134 182 -203 0
134 -182 203 0
-134 182 203 0
-134 -182 -203 0
112 185 -204 0
112 -185 204 0
-112 185 204 0
-112 -185 -204 0
141 201 -205 0
141 -201 205 0
-141 201 205 0
-141 -201 -205 0
20 151 -192 0
20 -151 192 0
-20 151 192 0
-20 -151 -192 0
206 207 -208 0
206 -207 208 0
-206 207 208 0
-206 -207 -208 0
51 196 -209 0
51 -196 209 0
-51 196 209 0
-51 -196 -209 0
18 116 -183 0
18 -116 183 0
-18 116 183 0
-18 -116 -183 0
26 110 -118 0
26 -110 118 0
-26 110 118 0
-26 -110 -118 0
70 103 -108 0
70 -103 108 0
-70 103 108 0
-70 -103 -108 0
95 104 -210 0
95 -104 210 0
-95 104 210 0
-95 -104 -210 0
211 212 -213 0
211 -212 213 0
-211 212 213 0
-211 -212 -213 0
1 153 -210 0
1 -153 210 0
-1 153 210 0
-1 -153 -210 0
45 211 -214 0
45 -211 214 0
-45 211 214 0
-45 -211 -214 0
2 178 -212 0
2 -178 212 0
-2 178 212 0
-2 -178 -212 0
142 168 -213 0
142 -168 213 0
-142 168 213 0
-142 -168 -213 0
48 105 -199 0
48 -105 199 0
-48 105 199 0
-48 -105 -199 0
46 66 -113 0
46 -66 113 0
-46 66 113 0
-46 -66 -113 0
214 215 -216 0
214 -215 216 0
-214 215 216 0
-214 -215 -216 0
71 179 -217 0
71 -179 217 0
-71 179 217 0
-71 -179 -217 0
144 203 -218 0
144 -203 218 0
-144 203 218 0
-144 -203 -218 0
54 194 -219 0
54 -194 219 0
-54 194 219 0
-54 -194 -219 0
145 215 -220 0
145 -215 220 0
-145 215 220 0
-145 -215 -220 0
21 74 -119 0
21 -74 119 0
-21 74 119 0
-21 -74 -119 0
60 75 -186 0
60 -75 186 0
-60 75 186 0
-60 -75 -186 0
174 176 -184 0
174 -176 184 0
-174 176 184 0
-174 -176 -184 0
204 221 -222 0
204 -221 222 0
-204 221 222 0
-204 -221 -222 0
136 197 -217 0
136 -197 217 0
-136 197 217 0
-136 -197 -217 0
61 130 -218 0
61 -130 218 0
-61 130 218 0
-61 -130 -218 0
84 132 -189 0
84 -132 189 0
-84 132 189 0
-84 -132 -189 0
53 63 -193 0
53 -63 193 0
-53 63 193 0
-53 -63 -193 0
169 202 -216 0
169 -202 216 0
-169 202 216 0
-169 -202 -216 0
79 156 -195 0
79 -156 195 0
-79 156 195 0
-79 -156 -195 0
38 93 -206 0
38 -93 206 0
-38 93 206 0
-38 -93 -206 0
219 223 -224 0
219 -223 224 0
-219 223 224 0
-219 -223 -224 0
80 101 -160 0
80 -101 160 0
-80 101 160 0
-80 -101 -160 0
3 190 -221 0
3 -190 221 0
-3 190 221 0
-3 -190 -221 0
6 55 -149 0
6 -55 149 0
-6 55 149 0
-6 -55 -149 0
96 207 -225 0
96 -207 225 0
-96 207 225 0
-96 -207 -225 0
198 200 -220 0
198 -200 220 0
-198 200 220 0
-198 -200 -220 0
9 205 -209 0
9 -205 209 0
-9 205 209 0
-9 -205 -209 0
127 139 -222 0
127 -139 222 0
-127 139 222 0
-127 -139 -222 0
124 173 -225 0
124 -173 225 0
-124 173 225 0
-124 -173 -225 0
56 154 -177 0
56 -154 177 0
-56 154 177 0
-56 -154 -177 0
137 170 -191 0
137 -170 191 0
-137 170 191 0
-137 -170 -191 0
23 59 -82 0
23 -59 82 0
-23 59 82 0
-23 -59 -82 0
72 171 -223 0
72 -171 223 0
-72 171 223 0
-72 -171 -223 0
90 157 -187 0
90 -157 187 0
-90 157 187 0
-90 -157 -187 0
69 88 -224 0
69 -88 224 0
-69 88 224 0
-69 -88 -224 0
15 99 -175 0
15 -99 175 0
-15 99 175 0
-15 -99 -175 0
41 49 -94 0
41 -49 94 0
-41 49 94 0
-41 -49 -94 0
85 146 -208 0
85 -146 208 0
-85 146 208 0
-85 -146 -208 0
