c F4 Tseitin on networkx random_regular_graph(3,300,seed=5), connected=True, odd charge on vertex 1
p cnf 450 1200
1 2 3 0
1 -2 -3 0
-1 2 -3 0
-1 -2 3 0
4 5 -6 0
4 -5 6 0
-4 5 6 0
-4 -5 -6 0
7 8 -9 0
7 -8 9 0
-7 8 9 0
-7 -8 -9 0
10 11 -12 0
10 -11 12 0
-10 11 12 0
-10 -11 -12 0
13 14 -15 0
13 -14 15 0
-13 14 15 0
-13 -14 -15 0
16 17 -18 0
16 -17 18 0
-16 17 18 0
-16 -17 -18 0
19 20 -21 0
19 -20 21 0
-19 20 21 0
-19 -20 -21 0
22 23 -24 0
22 -23 24 0
-22 23 24 0
-22 -23 -24 0
25 26 -27 0
25 -26 27 0
-25 26 27 0
-25 -26 -27 0
28 29 -30 0
28 -29 30 0
-28 29 30 0
-28 -29 -30 0
31 32 -33 0
31 -32 33 0
-31 32 33 0
-31 -32 -33 0
34 35 -36 0
34 -35 36 0
-34 35 36 0
-34 -35 -36 0
1 13 -37 0
1 -13 37 0
-1 13 37 0
-1 -13 -37 0
38 39 -40 0
38 -39 40 0
-38 39 40 0
-38 -39 -40 0
41 42 -43 0
41 -42 43 0
-41 42 43 0
-41 -42 -43 0
44 45 -46 0
44 -45 46 0
-44 45 46 0
-44 -45 -46 0
47 48 -49 0
47 -48 49 0
-47 48 49 0
-47 -48 -49 0
50 51 -52 0
50 -51 52 0
-50 51 52 0
-50 -51 -52 0
53 54 -55 0
53 -54 55 0
-53 54 55 0
-53 -54 -55 0
2 56 -57 0
2 -56 57 0
-2 56 57 0
-2 -56 -57 0
58 59 -60 0
58 -59 60 0
-58 59 60 0
-58 -59 -60 0
44 61 -62 0
44 -61 62 0
-44 61 62 0
-44 -61 -62 0
63 64 -65 0
63 -64 65 0
-63 64 65 0
-63 -64 -65 0
66 67 -68 0
66 -67 68 0
-66 67 68 0
-66 -67 -68 0
56 63 -69 0
56 -63 69 0
-56 63 69 0
-56 -63 -69 0
70 71 -72 0
70 -71 72 0
-70 71 72 0
-70 -71 -72 0
73 74 -75 0
73 -74 75 0
-73 74 75 0
-73 -74 -75 0
76 77 -78 0
76 -77 78 0
-76 77 78 0
-76 -77 -78 0
14 79 -80 0
14 -79 80 0
-14 79 80 0
-14 -79 -80 0
81 82 -83 0
81 -82 83 0
-81 82 83 0
-81 -82 -83 0
64 84 -85 0
64 -84 85 0
-64 84 85 0
-64 -84 -85 0
86 87 -88 0
86 -87 88 0
-86 87 88 0
-86 -87 -88 0
53 89 -90 0
53 -89 90 0
-53 89 90 0
-53 -89 -90 0
91 92 -93 0
91 -92 93 0
-91 92 93 0
-91 -92 -93 0
94 95 -96 0
94 -95 96 0
-94 95 96 0
-94 -95 -96 0
97 98 -99 0
97 -98 99 0
-97 98 99 0
-97 -98 -99 0
4 100 -101 0
4 -100 101 0
-4 100 101 0
-4 -100 -101 0
102 103 -104 0
102 -103 104 0
-102 103 104 0
-102 -103 -104 0
105 106 -107 0
105 -106 107 0
-105 106 107 0
-105 -106 -107 0
34 108 -109 0
34 -108 109 0
-34 108 109 0
-34 -108 -109 0
110 111 -112 0
110 -111 112 0
-110 111 112 0
-110 -111 -112 0
113 114 -115 0
113 -114 115 0
-113 114 115 0
-113 -114 -115 0
116 117 -118 0
116 -117 118 0
-116 117 118 0
-116 -117 -118 0
19 79 -119 0
19 -79 119 0
-19 79 119 0
-19 -79 -119 0
120 121 -122 0
120 -121 122 0
-120 121 122 0
-120 -121 -122 0
123 124 -125 0
123 -124 125 0
-123 124 125 0
-123 -124 -125 0
126 127 -128 0
126 -127 128 0
-126 127 128 0
-126 -127 -128 0
129 130 -131 0
129 -130 131 0
-129 130 131 0
-129 -130 -131 0
132 133 -134 0
132 -133 134 0
-132 133 134 0
-132 -133 -134 0
132 135 -136 0
132 -135 136 0
-132 135 136 0
-132 -135 -136 0
137 138 -139 0
137 -138 139 0
-137 138 139 0
-137 -138 -139 0
140 141 -142 0
140 -141 142 0
-140 141 142 0
-140 -141 -142 0
97 143 -144 0
97 -143 144 0
-97 143 144 0
-97 -143 -144 0
145 146 -147 0
145 -146 147 0
-145 146 147 0
-145 -146 -147 0
35 148 -149 0
35 -148 149 0
-35 148 149 0
-35 -148 -149 0
150 151 -152 0
150 -151 152 0
-150 151 152 0
-150 -151 -152 0
73 153 -154 0
73 -153 154 0
-73 153 154 0
-73 -153 -154 0
140 155 -156 0
140 -155 156 0
-140 155 156 0
-140 -155 -156 0
28 157 -158 0
28 -157 158 0
-28 157 158 0
-28 -157 -158 0
159 160 -161 0
159 -160 161 0
-159 160 161 0
-159 -160 -161 0
153 162 -163 0
153 -162 163 0
-153 162 163 0
-153 -162 -163 0
110 164 -165 0
110 -164 165 0
-110 164 165 0
-110 -164 -165 0
166 167 -168 0
166 -167 168 0
-166 167 168 0
-166 -167 -168 0
169 170 -171 0
169 -170 171 0
-169 170 171 0
-169 -170 -171 0
172 173 -174 0
172 -173 174 0
-172 173 174 0
-172 -173 -174 0
175 176 -177 0
175 -176 177 0
-175 176 177 0
-175 -176 -177 0
108 178 -179 0
108 -178 179 0
-108 178 179 0
-108 -178 -179 0
180 181 -182 0
180 -181 182 0
-180 181 182 0
-180 -181 -182 0
183 184 -185 0
183 -184 185 0
-183 184 185 0
-183 -184 -185 0
91 109 -186 0
91 -109 186 0
-91 109 186 0
-91 -109 -186 0
157 187 -188 0
157 -187 188 0
-157 187 188 0
-157 -187 -188 0
22 189 -190 0
22 -189 190 0
-22 189 190 0
-22 -189 -190 0
175 191 -192 0
175 -191 192 0
-175 191 192 0
-175 -191 -192 0
193 194 -195 0
193 -194 195 0
-193 194 195 0
-193 -194 -195 0
196 197 -198 0
196 -197 198 0
-196 197 198 0
-196 -197 -198 0
199 200 -201 0
199 -200 201 0
-199 200 201 0
-199 -200 -201 0
202 203 -204 0
202 -203 204 0
-202 203 204 0
-202 -203 -204 0
94 205 -206 0
94 -205 206 0
-94 205 206 0
-94 -205 -206 0
129 207 -208 0
129 -207 208 0
-129 207 208 0
-129 -207 -208 0
123 209 -210 0
123 -209 210 0
-123 209 210 0
-123 -209 -210 0
65 148 -211 0
65 -148 211 0
-65 148 211 0
-65 -148 -211 0
116 143 -202 0
116 -143 202 0
-116 143 202 0
-116 -143 -202 0
212 213 -214 0
212 -213 214 0
-212 213 214 0
-212 -213 -214 0
215 216 -217 0
215 -216 217 0
-215 216 217 0
-215 -216 -217 0
20 218 -219 0
20 -218 219 0
-20 218 219 0
-20 -218 -219 0
220 221 -222 0
220 -221 222 0
-220 221 222 0
-220 -221 -222 0
223 224 -225 0
223 -224 225 0
-223 224 225 0
-223 -224 -225 0
10 226 -227 0
10 -226 227 0
-10 226 227 0
-10 -226 -227 0
228 229 -230 0
228 -229 230 0
-228 229 230 0
-228 -229 -230 0
231 232 -233 0
231 -232 233 0
-231 232 233 0
-231 -232 -233 0
234 235 -236 0
234 -235 236 0
-234 235 236 0
-234 -235 -236 0
70 237 -238 0
70 -237 238 0
-70 237 238 0
-70 -237 -238 0
239 240 -241 0
239 -240 241 0
-239 240 241 0
-239 -240 -241 0
80 242 -243 0
80 -242 243 0
-80 242 243 0
-80 -242 -243 0
23 76 -244 0
23 -76 244 0
-23 76 244 0
-23 -76 -244 0
58 81 -245 0
58 -81 245 0
-58 81 245 0
-58 -81 -245 0
105 133 -246 0
105 -133 246 0
-105 133 246 0
-105 -133 -246 0
247 248 -249 0
247 -248 249 0
-247 248 249 0
-247 -248 -249 0
250 251 -252 0
250 -251 252 0
-250 251 252 0
-250 -251 -252 0
226 253 -254 0
226 -253 254 0
-226 253 254 0
-226 -253 -254 0
212 255 -256 0
212 -255 256 0
-212 255 256 0
-212 -255 -256 0
180 191 -257 0
180 -191 257 0
-180 191 257 0
-180 -191 -257 0
258 259 -260 0
258 -259 260 0
-258 259 260 0
-258 -259 -260 0
5 261 -262 0
5 -261 262 0
-5 261 262 0
-5 -261 -262 0
25 159 -263 0
25 -159 263 0
-25 159 263 0
-25 -159 -263 0
31 120 -196 0
31 -120 196 0
-31 120 196 0
-31 -120 -196 0
135 264 -265 0
135 -264 265 0
-135 264 265 0
-135 -264 -265 0
266 267 -268 0
266 -267 268 0
-266 267 268 0
-266 -267 -268 0
266 269 -270 0
266 -269 270 0
-266 269 270 0
-266 -269 -270 0
82 271 -272 0
82 -271 272 0
-82 271 272 0
-82 -271 -272 0
69 155 -273 0
69 -155 273 0
-69 155 273 0
-69 -155 -273 0
274 275 -276 0
274 -275 276 0
-274 275 276 0
-274 -275 -276 0
95 164 -277 0
95 -164 277 0
-95 164 277 0
-95 -164 -277 0
278 279 -280 0
278 -279 280 0
-278 279 280 0
-278 -279 -280 0
137 245 -267 0
137 -245 267 0
-137 245 267 0
-137 -245 -267 0
41 231 -281 0
41 -231 281 0
-41 231 281 0
-41 -231 -281 0
271 282 -283 0
271 -282 283 0
-271 282 283 0
-271 -282 -283 0
121 124 -284 0
121 -124 284 0
-121 124 284 0
-121 -124 -284 0
7 285 -286 0
7 -285 286 0
-7 285 286 0
-7 -285 -286 0
47 250 -287 0
47 -250 287 0
-47 250 287 0
-47 -250 -287 0
16 36 -288 0
16 -36 288 0
-16 36 288 0
-16 -36 -288 0
17 289 -290 0
17 -289 290 0
-17 289 290 0
-17 -289 -290 0
57 138 -291 0
57 -138 291 0
-57 138 291 0
-57 -138 -291 0
42 292 -293 0
42 -292 293 0
-42 292 293 0
-42 -292 -293 0
8 294 -295 0
8 -294 295 0
-8 294 295 0
-8 -294 -295 0
61 100 -296 0
61 -100 296 0
-61 100 296 0
-61 -100 -296 0
203 297 -298 0
203 -297 298 0
-203 297 298 0
-203 -297 -298 0
126 299 -300 0
126 -299 300 0
-126 299 300 0
-126 -299 -300 0
29 66 -301 0
29 -66 301 0
-29 66 301 0
-29 -66 -301 0
59 302 -303 0
59 -302 303 0
-59 302 303 0
-59 -302 -303 0
92 213 -304 0
92 -213 304 0
-92 213 304 0
-92 -213 -304 0
113 305 -306 0
113 -305 306 0
-113 305 306 0
-113 -305 -306 0
141 307 -308 0
141 -307 308 0
-141 307 308 0
-141 -307 -308 0
258 309 -310 0
258 -309 310 0
-258 309 310 0
-258 -309 -310 0
311 312 -313 0
311 -312 313 0
-311 312 313 0
-311 -312 -313 0
314 315 -316 0
314 -315 316 0
-314 315 316 0
-314 -315 -316 0
67 317 -318 0
67 -317 318 0
-67 317 318 0
-67 -317 -318 0
247 319 -320 0
247 -319 320 0
-247 319 320 0
-247 -319 -320 0
199 309 -321 0
199 -309 321 0
-199 309 321 0
-199 -309 -321 0
220 322 -323 0
220 -322 323 0
-220 322 323 0
-220 -322 -323 0
160 169 -324 0
160 -169 324 0
-160 169 324 0
-160 -169 -324 0
325 326 -327 0
325 -326 327 0
-325 326 327 0
-325 -326 -327 0
142 178 -328 0
142 -178 328 0
-142 178 328 0
-142 -178 -328 0
302 329 -330 0
302 -329 330 0
-302 329 330 0
-302 -329 -330 0
111 125 -331 0
111 -125 331 0
-111 125 331 0
-111 -125 -331 0
237 332 -333 0
237 -332 333 0
-237 332 333 0
-237 -332 -333 0
117 334 -335 0
117 -334 335 0
-117 334 335 0
-117 -334 -335 0
282 292 -336 0
282 -292 336 0
-282 292 336 0
-282 -292 -336 0
285 337 -338 0
285 -337 338 0
-285 337 338 0
-285 -337 -338 0
200 332 -339 0
200 -332 339 0
-200 332 339 0
-200 -332 -339 0
187 297 -340 0
187 -297 340 0
-187 297 340 0
-187 -297 -340 0
50 84 -341 0
50 -84 341 0
-50 84 341 0
-50 -84 -341 0
86 145 -342 0
86 -145 342 0
-86 145 342 0
-86 -145 -342 0
37 215 -343 0
37 -215 343 0
-37 215 343 0
-37 -215 -343 0
158 170 -344 0
158 -170 344 0
-158 170 344 0
-158 -170 -344 0
119 345 -346 0
119 -345 346 0
-119 345 346 0
-119 -345 -346 0
60 347 -348 0
60 -347 348 0
-60 347 348 0
-60 -347 -348 0
207 329 -349 0
207 -329 349 0
-207 329 349 0
-207 -329 -349 0
181 281 -350 0
181 -281 350 0
-181 281 350 0
-181 -281 -350 0
351 352 -353 0
351 -352 353 0
-351 352 353 0
-351 -352 -353 0
274 354 -355 0
274 -354 355 0
-274 354 355 0
-274 -354 -355 0
83 356 -357 0
83 -356 357 0
-83 356 357 0
-83 -356 -357 0
45 146 -358 0
45 -146 358 0
-45 146 358 0
-45 -146 -358 0
134 359 -360 0
134 -359 360 0
-134 359 360 0
-134 -359 -360 0
314 361 -362 0
314 -361 362 0
-314 361 362 0
-314 -361 -362 0
3 102 -315 0
3 -102 315 0
-3 102 315 0
-3 -102 -315 0
359 363 -364 0
359 -363 364 0
-359 363 364 0
-359 -363 -364 0
248 365 -366 0
248 -365 366 0
-248 365 366 0
-248 -365 -366 0
336 367 -368 0
336 -367 368 0
-336 367 368 0
-336 -367 -368 0
369 370 -371 0
369 -370 371 0
-369 370 371 0
-369 -370 -371 0
127 330 -361 0
127 -330 361 0
-127 330 361 0
-127 -330 -361 0
257 311 -372 0
257 -311 372 0
-257 311 372 0
-257 -311 -372 0
136 278 -286 0
136 -278 286 0
-136 278 286 0
-136 -278 -286 0
264 349 -373 0
264 -349 373 0
-264 349 373 0
-264 -349 -373 0
351 374 -375 0
351 -374 375 0
-351 374 375 0
-351 -374 -375 0
161 255 -376 0
161 -255 376 0
-161 255 376 0
-161 -255 -376 0
144 377 -378 0
144 -377 378 0
-144 377 378 0
-144 -377 -378 0
218 305 -369 0
218 -305 369 0
-218 305 369 0
-218 -305 -369 0
379 380 -381 0
379 -380 381 0
-379 380 381 0
-379 -380 -381 0
162 382 -383 0
162 -382 383 0
-162 382 383 0
-162 -382 -383 0
204 307 -384 0
204 -307 384 0
-204 307 384 0
-204 -307 -384 0
74 253 -347 0
74 -253 347 0
-74 253 347 0
-74 -253 -347 0
176 183 -223 0
176 -183 223 0
-176 183 223 0
-176 -183 -223 0
26 48 -385 0
26 -48 385 0
-26 48 385 0
-26 -48 -385 0
46 374 -386 0
46 -374 386 0
-46 374 386 0
-46 -374 -386 0
251 256 -387 0
251 -256 387 0
-251 256 387 0
-251 -256 -387 0
254 384 -388 0
254 -384 388 0
-254 384 388 0
-254 -384 -388 0
389 390 -391 0
389 -390 391 0
-389 390 391 0
-389 -390 -391 0
87 331 -392 0
87 -331 392 0
-87 331 392 0
-87 -331 -392 0
38 98 -340 0
38 -98 340 0
-38 98 340 0
-38 -98 -340 0
77 166 -177 0
77 -166 177 0
-77 166 177 0
-77 -166 -177 0
118 306 -393 0
118 -306 393 0
-118 306 393 0
-118 -306 -393 0
103 172 -394 0
103 -172 394 0
-103 172 394 0
-103 -172 -394 0
11 75 -395 0
11 -75 395 0
-11 75 395 0
-11 -75 -395 0
93 232 -396 0
93 -232 396 0
-93 232 396 0
-93 -232 -396 0
308 397 -398 0
308 -397 398 0
-308 397 398 0
-308 -397 -398 0
112 228 -325 0
112 -228 325 0
-112 228 325 0
-112 -228 -325 0
184 399 -400 0
184 -399 400 0
-184 399 400 0
-184 -399 -400 0
99 354 -360 0
99 -354 360 0
-99 354 360 0
-99 -354 -360 0
88 350 -385 0
88 -350 385 0
-88 350 385 0
-88 -350 -385 0
326 401 -402 0
326 -401 402 0
-326 401 402 0
-326 -401 -402 0
234 343 -403 0
234 -343 403 0
-234 343 403 0
-234 -343 -403 0
12 372 -401 0
12 -372 401 0
-12 372 401 0
-12 -372 -401 0
9 221 -269 0
9 -221 269 0
-9 221 269 0
-9 -221 -269 0
229 370 -404 0
229 -370 404 0
-229 370 404 0
-229 -370 -404 0
32 54 -402 0
32 -54 402 0
-32 54 402 0
-32 -54 -402 0
89 355 -405 0
89 -355 405 0
-89 355 405 0
-89 -355 -405 0
348 358 -406 0
348 -358 406 0
-348 358 406 0
-348 -358 -406 0
179 296 -339 0
179 -296 339 0
-179 296 339 0
-179 -296 -339 0
39 150 -188 0
39 -150 188 0
-39 150 188 0
-39 -150 -188 0
6 328 -407 0
6 -328 407 0
-6 328 407 0
-6 -328 -407 0
375 408 -409 0
375 -408 409 0
-375 408 409 0
-375 -408 -409 0
283 333 -410 0
283 -333 410 0
-283 333 410 0
-283 -333 -410 0
389 396 -411 0
389 -396 411 0
-389 396 411 0
-389 -396 -411 0
189 270 -412 0
189 -270 412 0
-189 270 412 0
-189 -270 -412 0
324 362 -404 0
324 -362 404 0
-324 362 404 0
-324 -362 -404 0
197 373 -413 0
197 -373 413 0
-197 373 413 0
-197 -373 -413 0
259 345 -414 0
259 -345 414 0
-259 345 414 0
-259 -345 -414 0
193 415 -416 0
193 -415 416 0
-193 415 416 0
-193 -415 -416 0
78 205 -242 0
78 -205 242 0
-78 205 242 0
-78 -205 -242 0
303 405 -417 0
303 -405 417 0
-303 405 417 0
-303 -405 -417 0
261 418 -419 0
261 -418 419 0
-261 418 419 0
-261 -418 -419 0
273 319 -420 0
273 -319 420 0
-273 319 420 0
-273 -319 -420 0
206 421 -422 0
206 -421 422 0
-206 421 422 0
-206 -421 -422 0
265 377 -379 0
265 -377 379 0
-265 377 379 0
-265 -377 -379 0
239 304 -423 0
239 -304 423 0
-239 304 423 0
-239 -304 -423 0
40 114 -337 0
40 -114 337 0
-40 114 337 0
-40 -114 -337 0
18 154 -424 0
18 -154 424 0
-18 154 424 0
-18 -154 -424 0
163 425 -426 0
163 -425 426 0
-163 425 426 0
-163 -425 -426 0
165 244 -418 0
165 -244 418 0
-165 244 418 0
-165 -244 -418 0
190 427 -428 0
190 -427 428 0
-190 427 428 0
-190 -427 -428 0
198 394 -429 0
198 -394 429 0
-198 394 429 0
-198 -394 -429 0
252 365 -430 0
252 -365 430 0
-252 365 430 0
-252 -365 -430 0
219 382 -431 0
219 -382 431 0
-219 382 431 0
-219 -382 -431 0
243 392 -429 0
243 -392 429 0
-243 392 429 0
-243 -392 -429 0
96 151 -294 0
96 -151 294 0
-96 151 294 0
-96 -151 -294 0
216 316 -432 0
216 -316 432 0
-216 316 432 0
-216 -316 -432 0
233 279 -380 0
233 -279 380 0
-233 279 380 0
-233 -279 -380 0
291 433 -434 0
291 -433 434 0
-291 433 434 0
-291 -433 -434 0
51 147 -433 0
51 -147 433 0
-51 147 433 0
-51 -147 -433 0
310 403 -435 0
310 -403 435 0
-310 403 435 0
-310 -403 -435 0
338 410 -436 0
338 -410 436 0
-338 410 436 0
-338 -410 -436 0
149 284 -322 0
149 -284 322 0
-149 284 322 0
-149 -284 -322 0
186 420 -437 0
186 -420 437 0
-186 420 437 0
-186 -420 -437 0
249 317 -438 0
249 -317 438 0
-249 317 438 0
-249 -317 -438 0
408 439 -440 0
408 -439 440 0
-408 439 440 0
-408 -439 -440 0
106 289 -363 0
106 -289 363 0
-106 289 363 0
-106 -289 -363 0
201 352 -441 0
201 -352 441 0
-201 352 441 0
-201 -352 -441 0
130 290 -383 0
130 -290 383 0
-130 290 383 0
-130 -290 -383 0
122 167 -182 0
122 -167 182 0
-122 167 182 0
-122 -167 -182 0
30 33 -356 0
30 -33 356 0
-30 33 356 0
-30 -33 -356 0
222 367 -438 0
222 -367 438 0
-222 367 438 0
-222 -367 -438 0
185 417 -442 0
185 -417 442 0
-185 417 442 0
-185 -417 -442 0
90 173 -434 0
90 -173 434 0
-90 173 434 0
-90 -173 -434 0
85 344 -431 0
85 -344 431 0
-85 344 431 0
-85 -344 -431 0
275 368 -427 0
275 -368 427 0
-275 368 427 0
-275 -368 -427 0
62 277 -443 0
62 -277 443 0
-62 277 443 0
-62 -277 -443 0
24 139 -425 0
24 -139 425 0
-24 139 425 0
-24 -139 -425 0
288 320 -444 0
288 -320 444 0
-288 320 444 0
-288 -320 -444 0
152 276 -423 0
152 -276 423 0
-152 276 423 0
-152 -276 -423 0
209 432 -445 0
209 -432 445 0
-209 432 445 0
-209 -432 -445 0
240 393 -435 0
240 -393 435 0
-240 393 435 0
-240 -393 -435 0
235 260 -390 0
235 -260 390 0
-235 260 390 0
-235 -260 -390 0
262 295 -428 0
262 -295 428 0
-262 295 428 0
-262 -295 -428 0
334 376 -421 0
334 -376 421 0
-334 376 421 0
-334 -376 -421 0
287 298 -411 0
287 -298 411 0
-287 298 411 0
-287 -298 -411 0
217 439 -446 0
217 -439 446 0
-217 439 446 0
-217 -439 -446 0
49 194 -366 0
49 -194 366 0
-49 194 366 0
-49 -194 -366 0
406 440 -447 0
406 -440 447 0
-406 440 447 0
-406 -440 -447 0
168 211 -353 0
168 -211 353 0
-168 211 353 0
-168 -211 -353 0
52 171 -224 0
52 -171 224 0
-52 171 224 0
-52 -171 -224 0
388 412 -441 0
388 -412 441 0
-388 412 441 0
-388 -412 -441 0
21 346 -357 0
21 -346 357 0
-21 346 357 0
-21 -346 -357 0
192 312 -335 0
192 -312 335 0
-192 312 335 0
-192 -312 -335 0
104 128 -246 0
104 -128 246 0
-104 128 246 0
-104 -128 -246 0
318 395 -426 0
318 -395 426 0
-318 395 426 0
-318 -395 -426 0
195 299 -447 0
195 -299 447 0
-195 299 447 0
-195 -299 -447 0
230 437 -444 0
230 -437 444 0
-230 437 444 0
-230 -437 -444 0
300 301 -415 0
300 -301 415 0
-300 301 415 0
-300 -301 -415 0
27 115 -293 0
27 -115 293 0
-27 115 293 0
-27 -115 -293 0
397 399 -442 0
397 -399 442 0
-397 399 442 0
-397 -399 -442 0
43 445 -448 0
43 -445 448 0
-43 445 448 0
-43 -445 -448 0
68 238 -381 0
68 -238 381 0
-68 238 381 0
-68 -238 -381 0
174 214 -436 0
174 -214 436 0
-174 214 436 0
-174 -214 -436 0
55 156 -443 0
55 -156 443 0
-55 156 443 0
-55 -156 -443 0
227 398 -416 0
227 -398 416 0
-227 398 416 0
-227 -398 -416 0
71 327 -419 0
71 -327 419 0
-71 327 419 0
-71 -327 -419 0
225 323 -414 0
225 -323 414 0
-225 323 414 0
-225 -323 -414 0
268 313 -430 0
268 -313 430 0
-268 313 430 0
-268 -313 -430 0
208 386 -391 0
208 -386 391 0
-208 386 391 0
-208 -386 -391 0
371 409 -449 0
371 -409 449 0
-371 409 449 0
-371 -409 -449 0
236 387 -450 0
236 -387 450 0
-236 387 450 0
-236 -387 -450 0
241 321 -424 0
241 -321 424 0
-241 321 424 0
-241 -321 -424 0
210 272 -400 0
210 -272 400 0
-210 272 400 0
-210 -272 -400 0
72 341 -449 0
72 -341 449 0
-72 341 449 0
-72 -341 -449 0
263 280 -378 0
263 -280 378 0
-263 280 378 0
-263 -280 -378 0
107 413 -450 0
107 -413 450 0
-107 413 450 0
-107 -413 -450 0
342 407 -448 0
342 -407 448 0
-342 407 448 0
-342 -407 -448 0
15 422 -446 0
15 -422 446 0
-15 422 446 0
-15 -422 -446 0
101 131 -364 0
101 -131 364 0
-101 131 364 0
-101 -131 -364 0
