c F4 Tseitin on networkx random_regular_graph(3,100,seed=2), connected=True, odd charge on vertex 1
p cnf 150 400
1 2 3 0
1 -2 -3 0
-1 2 -3 0
-1 -2 3 0
4 5 -6 0
4 -5 6 0
-4 5 6 0
-4 -5 -6 0
4 7 -8 0
4 -7 8 0
-4 7 8 0
-4 -7 -8 0
9 10 -11 0
9 -10 11 0
-9 10 11 0
-9 -10 -11 0
12 13 -14 0
12 -13 14 0
-12 13 14 0
-12 -13 -14 0
15 16 -17 0
15 -16 17 0
-15 16 17 0
-15 -16 -17 0
18 19 -20 0
18 -19 20 0
-18 19 20 0
-18 -19 -20 0
21 22 -23 0
21 -22 23 0
-21 22 23 0
-21 -22 -23 0
24 25 -26 0
24 -25 26 0
-24 25 26 0
-24 -25 -26 0
27 28 -29 0
27 -28 29 0
-27 28 29 0
-27 -28 -29 0
30 31 -32 0
30 -31 32 0
-30 31 32 0
-30 -31 -32 0
9 33 -34 0
9 -33 34 0
-9 33 34 0
-9 -33 -34 0
35 36 -37 0
35 -36 37 0
-35 36 37 0
-35 -36 -37 0
1 38 -39 0
1 -38 39 0
-1 38 39 0
-1 -38 -39 0
40 41 -42 0
40 -41 42 0
-40 41 42 0
-40 -41 -42 0
33 43 -44 0
33 -43 44 0
-33 43 44 0
-33 -43 -44 0
30 45 -46 0
30 -45 46 0
-30 45 46 0
-30 -45 -46 0
47 48 -49 0
47 -48 49 0
-47 48 49 0
-47 -48 -49 0
50 51 -52 0
50 -51 52 0
-50 51 52 0
-50 -51 -52 0
53 54 -55 0
53 -54 55 0
-53 54 55 0
-53 -54 -55 0
56 57 -58 0
56 -57 58 0
-56 57 58 0
-56 -57 -58 0
59 60 -61 0
59 -60 61 0
-59 60 61 0
-59 -60 -61 0
24 35 -62 0
24 -35 62 0
-24 35 62 0
-24 -35 -62 0
62 63 -64 0
62 -63 64 0
-62 63 64 0
-62 -63 -64 0
15 65 -66 0
15 -65 66 0
-15 65 66 0
-15 -65 -66 0
67 68 -69 0
67 -68 69 0
-67 68 69 0
-67 -68 -69 0
70 71 -72 0
70 -71 72 0
-70 71 72 0
-70 -71 -72 0
5 27 -73 0
5 -27 73 0
-5 27 73 0
-5 -27 -73 0
34 50 -74 0
34 -50 74 0
-34 50 74 0
-34 -50 -74 0
31 75 -76 0
31 -75 76 0
-31 75 76 0
-31 -75 -76 0
77 78 -79 0
77 -78 79 0
-77 78 79 0
-77 -78 -79 0
2 47 -80 0
2 -47 80 0
-2 47 80 0
-2 -47 -80 0
36 81 -82 0
36 -81 82 0
-36 81 82 0
-36 -81 -82 0
65 83 -84 0
65 -83 84 0
-65 83 84 0
-65 -83 -84 0
53 85 -86 0
53 -85 86 0
-53 85 86 0
-53 -85 -86 0
63 87 -88 0
63 -87 88 0
-63 87 88 0
-63 -87 -88 0
89 90 -91 0
89 -90 91 0
-89 90 91 0
-89 -90 -91 0
18 77 -92 0
18 -77 92 0
-18 77 92 0
-18 -77 -92 0
43 70 -93 0
43 -70 93 0
-43 70 93 0
-43 -70 -93 0
7 40 -64 0
7 -40 64 0
-7 40 64 0
-7 -40 -64 0
92 94 -95 0
92 -94 95 0
-92 94 95 0
-92 -94 -95 0
56 59 -96 0
56 -59 96 0
-56 59 96 0
-56 -59 -96 0
75 97 -98 0
75 -97 98 0
-75 97 98 0
-75 -97 -98 0
16 21 -99 0
16 -21 99 0
-16 21 99 0
-16 -21 -99 0
87 100 -101 0
87 -100 101 0
-87 100 101 0
-87 -100 -101 0
94 97 -102 0
94 -97 102 0
-94 97 102 0
-94 -97 -102 0
89 103 -104 0
89 -103 104 0
-89 103 104 0
-89 -103 -104 0
17 45 -105 0
17 -45 105 0
-17 45 105 0
-17 -45 -105 0
10 106 -107 0
10 -106 107 0
-10 106 107 0
-10 -106 -107 0
93 108 -109 0
93 -108 109 0
-93 108 109 0
-93 -108 -109 0
90 110 -111 0
90 -110 111 0
-90 110 111 0
-90 -110 -111 0
81 112 -113 0
81 -112 113 0
-81 112 113 0
-81 -112 -113 0
25 91 -114 0
25 -91 114 0
-25 91 114 0
-25 -91 -114 0
67 115 -116 0
67 -115 116 0
-67 115 116 0
-67 -115 -116 0
19 88 -117 0
19 -88 117 0
-19 88 117 0
-19 -88 -117 0
106 118 -119 0
106 -118 119 0
-106 118 119 0
-106 -118 -119 0
3 120 -121 0
3 -120 121 0
-3 120 121 0
-3 -120 -121 0
20 117 -122 0
20 -117 122 0
-20 117 122 0
-20 -117 -122 0
6 57 -68 0
6 -57 68 0
-6 57 68 0
-6 -57 -68 0
26 114 -123 0
26 -114 123 0
-26 114 123 0
-26 -114 -123 0
85 110 -124 0
85 -110 124 0
-85 110 124 0
-85 -110 -124 0
115 125 -126 0
115 -125 126 0
-115 125 126 0
-115 -125 -126 0
103 127 -128 0
103 -127 128 0
-103 127 128 0
-103 -127 -128 0
51 99 -129 0
51 -99 129 0
-51 99 129 0
-51 -99 -129 0
22 60 -130 0
22 -60 130 0
-22 60 130 0
-22 -60 -130 0
41 122 -131 0
41 -122 131 0
-41 122 131 0
-41 -122 -131 0
54 112 -132 0
54 -112 132 0
-54 112 132 0
-54 -112 -132 0
95 133 -134 0
95 -133 134 0
-95 133 134 0
-95 -133 -134 0
8 38 -135 0
8 -38 135 0
-8 38 135 0
-8 -38 -135 0
74 83 -136 0
74 -83 136 0
-74 83 136 0
-74 -83 -136 0
127 137 -138 0
127 -137 138 0
-127 137 138 0
-127 -137 -138 0
107 125 -139 0
107 -125 139 0
-107 125 139 0
-107 -125 -139 0
12 55 -140 0
12 -55 140 0
-12 55 140 0
-12 -55 -140 0
44 66 -80 0
44 -66 80 0
-44 66 80 0
-44 -66 -80 0
78 108 -111 0
78 -108 111 0
-78 108 111 0
-78 -108 -111 0
58 79 -102 0
58 -79 102 0
-58 79 102 0
-58 -79 -102 0
61 133 -141 0
61 -133 141 0
-61 133 141 0
-61 -133 -141 0
13 46 -142 0
13 -46 142 0
-13 46 142 0
-13 -46 -142 0
42 48 -137 0
42 -48 137 0
-42 48 137 0
-42 -48 -137 0
23 116 -136 0
23 -116 136 0
-23 116 136 0
-23 -116 -136 0
98 143 -144 0
98 -143 144 0
-98 143 144 0
-98 -143 -144 0
120 124 -145 0
120 -124 145 0
-120 124 145 0
-120 -124 -145 0
69 84 -104 0
69 -84 104 0
-69 84 104 0
-69 -84 -104 0
39 130 -146 0
39 -130 146 0
-39 130 146 0
-39 -130 -146 0
138 142 -143 0
138 -142 143 0
-138 142 143 0
-138 -142 -143 0
118 146 -147 0
118 -146 147 0
-118 146 147 0
-118 -146 -147 0
76 96 -148 0
76 -96 148 0
-76 96 148 0
-76 -96 -148 0
100 109 -141 0
100 -109 141 0
-100 109 141 0
-100 -109 -141 0
145 149 -150 0
145 -149 150 0
-145 149 150 0
-145 -149 -150 0
52 73 -139 0
52 -73 139 0
-52 73 139 0
-52 -73 -139 0
49 82 -140 0
49 -82 140 0
-49 82 140 0
-49 -82 -140 0
28 32 -135 0
28 -32 135 0
-28 32 135 0
-28 -32 -135 0
113 121 -144 0
113 -121 144 0
-113 121 144 0
-113 -121 -144 0
37 105 -149 0
37 -105 149 0
-37 105 149 0
-37 -105 -149 0
14 123 -126 0
14 -123 126 0
-14 123 126 0
-14 -123 -126 0
101 129 -150 0
101 -129 150 0
-101 129 150 0
-101 -129 -150 0
29 71 -131 0
29 -71 131 0
-29 71 131 0
-29 -71 -131 0
11 119 -147 0
11 -119 147 0
-11 119 147 0
-11 -119 -147 0
86 128 -134 0
86 -128 134 0
-86 128 134 0
-86 -128 -134 0
72 132 -148 0
72 -132 148 0
-72 132 148 0
-72 -132 -148 0
