c F4 Tseitin on networkx random_regular_graph(3,150,seed=7), connected=True, odd charge on vertex 1
p cnf 225 600
1 2 3 0
1 -2 -3 0
-1 2 -3 0
-1 -2 3 0
1 4 -5 0
1 -4 5 0
-1 4 5 0
-1 -4 -5 0
6 7 -8 0
6 -7 8 0
-6 7 8 0
-6 -7 -8 0
9 10 -11 0
9 -10 11 0
-9 10 11 0
-9 -10 -11 0
12 13 -14 0
12 -13 14 0
-12 13 14 0
-12 -13 -14 0
15 16 -17 0
15 -16 17 0
-15 16 17 0
-15 -16 -17 0
18 19 -20 0
18 -19 20 0
-18 19 20 0
-18 -19 -20 0
21 22 -23 0
21 -22 23 0
-21 22 23 0
-21 -22 -23 0
15 24 -25 0
15 -24 25 0
-15 24 25 0
-15 -24 -25 0
24 26 -27 0
24 -26 27 0
-24 26 27 0
-24 -26 -27 0
28 29 -30 0
28 -29 30 0
-28 29 30 0
-28 -29 -30 0
31 32 -33 0
31 -32 33 0
-31 32 33 0
-31 -32 -33 0
34 35 -36 0
34 -35 36 0
-34 35 36 0
-34 -35 -36 0
37 38 -39 0
37 -38 39 0
-37 38 39 0
-37 -38 -39 0
40 41 -42 0
40 -41 42 0
-40 41 42 0
-40 -41 -42 0
43 44 -45 0
43 -44 45 0
-43 44 45 0
-43 -44 -45 0
46 47 -48 0
46 -47 48 0
-46 47 48 0
-46 -47 -48 0
4 49 -50 0
4 -49 50 0
-4 49 50 0
-4 -49 -50 0
51 52 -53 0
51 -52 53 0
-51 52 53 0
-51 -52 -53 0
54 55 -56 0
54 -55 56 0
-54 55 56 0
-54 -55 -56 0
57 58 -59 0
57 -58 59 0
-57 58 59 0
-57 -58 -59 0
60 61 -62 0
60 -61 62 0
-60 61 62 0
-60 -61 -62 0
60 63 -64 0
60 -63 64 0
-60 63 64 0
-60 -63 -64 0
51 65 -66 0
51 -65 66 0
-51 65 66 0
-51 -65 -66 0
57 67 -68 0
57 -67 68 0
-57 67 68 0
-57 -67 -68 0
69 70 -71 0
69 -70 71 0
-69 70 71 0
-69 -70 -71 0
72 73 -74 0
72 -73 74 0
-72 73 74 0
-72 -73 -74 0
31 75 -76 0
31 -75 76 0
-31 75 76 0
-31 -75 -76 0
52 77 -78 0
52 -77 78 0
-52 77 78 0
-52 -77 -78 0
37 67 -79 0
37 -67 79 0
-37 67 79 0
-37 -67 -79 0
80 81 -82 0
80 -81 82 0
-80 81 82 0
-80 -81 -82 0
25 83 -84 0
25 -83 84 0
-25 83 84 0
-25 -83 -84 0
63 85 -86 0
63 -85 86 0
-63 85 86 0
-63 -85 -86 0
87 88 -89 0
87 -88 89 0
-87 88 89 0
-87 -88 -89 0
90 91 -92 0
90 -91 92 0
-90 91 92 0
-90 -91 -92 0
9 93 -94 0
9 -93 94 0
-9 93 94 0
-9 -93 -94 0
38 95 -96 0
38 -95 96 0
-38 95 96 0
-38 -95 -96 0
68 97 -98 0
68 -97 98 0
-68 97 98 0
-68 -97 -98 0
77 99 -100 0
77 -99 100 0
-77 99 100 0
-77 -99 -100 0
101 102 -103 0
101 -102 103 0
-101 102 103 0
-101 -102 -103 0
104 105 -106 0
104 -105 106 0
-104 105 106 0
-104 -105 -106 0
61 107 -108 0
61 -107 108 0
-61 107 108 0
-61 -107 -108 0
58 109 -110 0
58 -109 110 0
-58 109 110 0
-58 -109 -110 0
2 111 -112 0
2 -111 112 0
-2 111 112 0
-2 -111 -112 0
54 113 -114 0
54 -113 114 0
-54 113 114 0
-54 -113 -114 0
32 115 -116 0
32 -115 116 0
-32 115 116 0
-32 -115 -116 0
117 118 -119 0
117 -118 119 0
-117 118 119 0
-117 -118 -119 0
120 121 -122 0
120 -121 122 0
-120 121 122 0
-120 -121 -122 0
97 123 -124 0
97 -123 124 0
-97 123 124 0
-97 -123 -124 0
125 126 -127 0
125 -126 127 0
-125 126 127 0
-125 -126 -127 0
85 113 -128 0
85 -113 128 0
-85 113 128 0
-85 -113 -128 0
95 98 -129 0
95 -98 129 0
-95 98 129 0
-95 -98 -129 0
43 87 -130 0
43 -87 130 0
-43 87 130 0
-43 -87 -130 0
69 129 -131 0
69 -129 131 0
-69 129 131 0
-69 -129 -131 0
99 132 -133 0
99 -132 133 0
-99 132 133 0
-99 -132 -133 0
134 135 -136 0
134 -135 136 0
-134 135 136 0
-134 -135 -136 0
49 109 -120 0
49 -109 120 0
-49 109 120 0
-49 -109 -120 0
12 80 -137 0
12 -80 137 0
-12 80 137 0
-12 -80 -137 0
138 139 -140 0
138 -139 140 0
-138 139 140 0
-138 -139 -140 0
141 142 -143 0
141 -142 143 0
-141 142 143 0
-141 -142 -143 0
115 144 -145 0
115 -144 145 0
-115 144 145 0
-115 -144 -145 0
53 146 -147 0
53 -146 147 0
-53 146 147 0
-53 -146 -147 0
88 148 -149 0
88 -148 149 0
-88 148 149 0
-88 -148 -149 0
104 117 -150 0
104 -117 150 0
-104 117 150 0
-104 -117 -150 0
39 86 -151 0
39 -86 151 0
-39 86 151 0
-39 -86 -151 0
134 152 -153 0
134 -152 153 0
-134 152 153 0
-134 -152 -153 0
154 155 -156 0
154 -155 156 0
-154 155 156 0
-154 -155 -156 0
26 81 -157 0
26 -81 157 0
-26 81 157 0
-26 -81 -157 0
158 159 -160 0
158 -159 160 0
-158 159 160 0
-158 -159 -160 0
6 82 -161 0
6 -82 161 0
-6 82 161 0
-6 -82 -161 0
162 163 -164 0
162 -163 164 0
-162 163 164 0
-162 -163 -164 0
165 166 -167 0
165 -166 167 0
-165 166 167 0
-165 -166 -167 0
7 151 -162 0
7 -151 162 0
-7 151 162 0
-7 -151 -162 0
70 168 -169 0
70 -168 169 0
-70 168 169 0
-70 -168 -169 0
10 141 -148 0
10 -141 148 0
-10 141 148 0
-10 -141 -148 0
170 171 -172 0
170 -171 172 0
-170 171 172 0
-170 -171 -172 0
170 173 -174 0
170 -173 174 0
-170 173 174 0
-170 -173 -174 0
21 44 -175 0
21 -44 175 0
-21 44 175 0
-21 -44 -175 0
176 177 -178 0
176 -177 178 0
-176 177 178 0
-176 -177 -178 0
62 179 -180 0
62 -179 180 0
-62 179 180 0
-62 -179 -180 0
27 90 -181 0
27 -90 181 0
-27 90 181 0
-27 -90 -181 0
138 182 -183 0
138 -182 183 0
-138 182 183 0
-138 -182 -183 0
50 78 -184 0
50 -78 184 0
-50 78 184 0
-50 -78 -184 0
171 185 -186 0
171 -185 186 0
-171 185 186 0
-171 -185 -186 0
182 187 -188 0
182 -187 188 0
-182 187 188 0
-182 -187 -188 0
13 40 -165 0
13 -40 165 0
-13 40 165 0
-13 -40 -165 0
34 83 -189 0
34 -83 189 0
-34 83 189 0
-34 -83 -189 0
45 107 -132 0
45 -107 132 0
-45 107 132 0
-45 -107 -132 0
28 190 -191 0
28 -190 191 0
-28 190 191 0
-28 -190 -191 0
11 139 -152 0
11 -139 152 0
-11 139 152 0
-11 -139 -152 0
18 111 -179 0
18 -111 179 0
-18 111 179 0
-18 -111 -179 0
154 189 -192 0
154 -189 192 0
-154 189 192 0
-154 -189 -192 0
125 135 -193 0
125 -135 193 0
-125 135 193 0
-125 -135 -193 0
155 166 -194 0
155 -166 194 0
-155 166 194 0
-155 -166 -194 0
146 187 -190 0
146 -187 190 0
-146 187 190 0
-146 -187 -190 0
100 168 -195 0
100 -168 195 0
-100 168 195 0
-100 -168 -195 0
29 105 -196 0
29 -105 196 0
-29 105 196 0
-29 -105 -196 0
96 175 -197 0
96 -175 197 0
-96 175 197 0
-96 -175 -197 0
19 22 -198 0
19 -22 198 0
-19 22 198 0
-19 -22 -198 0
72 199 -200 0
72 -199 200 0
-72 199 200 0
-72 -199 -200 0
153 176 -201 0
153 -176 201 0
-153 176 201 0
-153 -176 -201 0
5 64 -140 0
5 -64 140 0
-5 64 140 0
-5 -64 -140 0
136 142 -147 0
136 -142 147 0
-136 142 147 0
-136 -142 -147 0
71 158 -202 0
71 -158 202 0
-71 158 202 0
-71 -158 -202 0
75 123 -203 0
75 -123 203 0
-75 123 203 0
-75 -123 -203 0
46 204 -205 0
46 -204 205 0
-46 204 205 0
-46 -204 -205 0
16 20 -91 0
16 -20 91 0
-16 20 91 0
-16 -20 -91 0
55 112 -149 0
55 -112 149 0
-55 112 149 0
-55 -112 -149 0
35 188 -206 0
35 -188 206 0
-35 188 206 0
-35 -188 -206 0
163 207 -208 0
163 -207 208 0
-163 207 208 0
-163 -207 -208 0
124 177 -209 0
124 -177 209 0
-124 177 209 0
-124 -177 -209 0
101 118 -191 0
101 -118 191 0
-101 118 191 0
-101 -118 -191 0
41 204 -210 0
41 -204 210 0
-41 204 210 0
-41 -204 -210 0
65 76 -206 0
65 -76 206 0
-65 76 206 0
-65 -76 -206 0
42 106 -150 0
42 -106 150 0
-42 106 150 0
-42 -106 -150 0
131 209 -211 0
131 -209 211 0
-131 209 211 0
-131 -209 -211 0
47 66 -184 0
47 -66 184 0
-47 66 184 0
-47 -66 -184 0
73 128 -178 0
73 -128 178 0
-73 128 178 0
-73 -128 -178 0
89 114 -173 0
89 -114 173 0
-89 114 173 0
-89 -114 -173 0
3 192 -212 0
3 -192 212 0
-3 192 212 0
-3 -192 -212 0
93 167 -213 0
93 -167 213 0
-93 167 213 0
-93 -167 -213 0
92 164 -214 0
92 -164 214 0
-92 164 214 0
-92 -164 -214 0
159 197 -215 0
159 -197 215 0
-159 197 215 0
-159 -197 -215 0
94 102 -216 0
94 -102 216 0
-94 102 216 0
-94 -102 -216 0
137 212 -213 0
137 -212 213 0
-137 212 213 0
-137 -212 -213 0
59 202 -217 0
59 -202 217 0
-59 202 217 0
-59 -202 -217 0
169 211 -218 0
169 -211 218 0
-169 211 218 0
-169 -211 -218 0
161 201 -219 0
161 -201 219 0
-161 201 219 0
-161 -201 -219 0
36 48 -126 0
36 -48 126 0
-36 48 126 0
-36 -48 -126 0
30 195 -199 0
30 -195 199 0
-30 195 199 0
-30 -195 -199 0
127 215 -220 0
127 -215 220 0
-127 215 220 0
-127 -215 -220 0
121 220 -221 0
121 -220 221 0
-121 220 221 0
-121 -220 -221 0
17 119 -222 0
17 -119 222 0
-17 119 222 0
-17 -119 -222 0
174 214 -223 0
174 -214 223 0
-174 214 223 0
-174 -214 -223 0
157 194 -224 0
157 -194 224 0
-157 194 224 0
-157 -194 -224 0
144 160 -181 0
144 -160 181 0
-144 160 181 0
-144 -160 -181 0
23 56 -103 0
23 -56 103 0
-23 56 103 0
-23 -56 -103 0
143 198 -203 0
143 -198 203 0
-143 198 203 0
-143 -198 -203 0
193 218 -219 0
193 -218 219 0
-193 218 219 0
-193 -218 -219 0
74 84 -216 0
74 -84 216 0
-74 84 216 0
-74 -84 -216 0
172 185 -207 0
172 -185 207 0
-172 185 207 0
-172 -185 -207 0
14 217 -224 0
14 -217 224 0
-14 217 224 0
-14 -217 -224 0
145 205 -221 0
145 -205 221 0
-145 205 221 0
-145 -205 -221 0
133 183 -196 0
133 -183 196 0
-133 183 196 0
-133 -183 -196 0
8 33 -108 0
8 -33 108 0
-8 33 108 0
-8 -33 -108 0
122 200 -225 0
122 -200 225 0
-122 200 225 0
-122 -200 -225 0
110 186 -210 0
110 -186 210 0
-110 186 210 0
-110 -186 -210 0
116 130 -180 0
116 -130 180 0
-116 130 180 0
-116 -130 -180 0
79 156 -222 0
79 -156 222 0
-79 156 222 0
-79 -156 -222 0
208 223 -225 0
208 -223 225 0
-208 223 225 0
-208 -223 -225 0
