c F4 Tseitin on networkx random_regular_graph(3,200,seed=5), connected=True, odd charge on vertex 1
p cnf 300 800
1 2 3 0
1 -2 -3 0
-1 2 -3 0
-1 -2 3 0
4 5 -6 0
4 -5 6 0
-4 5 6 0
-4 -5 -6 0
7 8 -9 0
7 -8 9 0
-7 8 9 0
-7 -8 -9 0
10 11 -12 0
10 -11 12 0
-10 11 12 0
-10 -11 -12 0
13 14 -15 0
13 -14 15 0
-13 14 15 0
-13 -14 -15 0
4 16 -17 0
4 -16 17 0
-4 16 17 0
-4 -16 -17 0
18 19 -20 0
18 -19 20 0
-18 19 20 0
-18 -19 -20 0
21 22 -23 0
21 -22 23 0
-21 22 23 0
-21 -22 -23 0
24 25 -26 0
24 -25 26 0
-24 25 26 0
-24 -25 -26 0
27 28 -29 0
27 -28 29 0
-27 28 29 0
-27 -28 -29 0
21 30 -31 0
21 -30 31 0
-21 30 31 0
-21 -30 -31 0
32 33 -34 0
32 -33 34 0
-32 33 34 0
-32 -33 -34 0
35 36 -37 0
35 -36 37 0
-35 36 37 0
-35 -36 -37 0
38 39 -40 0
38 -39 40 0
-38 39 40 0
-38 -39 -40 0
41 42 -43 0
41 -42 43 0
-41 42 43 0
-41 -42 -43 0
44 45 -46 0
44 -45 46 0
-44 45 46 0
-44 -45 -46 0
22 47 -48 0
22 -47 48 0
-22 47 48 0
-22 -47 -48 0
49 50 -51 0
49 -50 51 0
-49 50 51 0
-49 -50 -51 0
38 52 -53 0
38 -52 53 0
-38 52 53 0
-38 -52 -53 0
32 54 -55 0
32 -54 55 0
-32 54 55 0
-32 -54 -55 0
24 41 -56 0
24 -41 56 0
-24 41 56 0
-24 -41 -56 0
39 57 -58 0
39 -57 58 0
-39 57 58 0
-39 -57 -58 0
30 59 -60 0
30 -59 60 0
-30 59 60 0
-30 -59 -60 0
61 62 -63 0
61 -62 63 0
-61 62 63 0
-61 -62 -63 0
64 65 -66 0
64 -65 66 0
-64 65 66 0
-64 -65 -66 0
67 68 -69 0
67 -68 69 0
-67 68 69 0
-67 -68 -69 0
70 71 -72 0
70 -71 72 0
-70 71 72 0
-70 -71 -72 0
73 74 -75 0
73 -74 75 0
-73 74 75 0
-73 -74 -75 0
76 77 -78 0
76 -77 78 0
-76 77 78 0
-76 -77 -78 0
79 80 -81 0
79 -80 81 0
-79 80 81 0
-79 -80 -81 0
82 83 -84 0
82 -83 84 0
-82 83 84 0
-82 -83 -84 0
18 85 -86 0
18 -85 86 0
-18 85 86 0
-18 -85 -86 0
7 82 -87 0
7 -82 87 0
-7 82 87 0
-7 -82 -87 0
88 89 -90 0
88 -89 90 0
-88 89 90 0
-88 -89 -90 0
1 91 -92 0
1 -91 92 0
-1 91 92 0
-1 -91 -92 0
93 94 -95 0
93 -94 95 0
-93 94 95 0
-93 -94 -95 0
96 97 -98 0
96 -97 98 0
-96 97 98 0
-96 -97 -98 0
70 99 -100 0
70 -99 100 0
-70 99 100 0
-70 -99 -100 0
101 102 -103 0
101 -102 103 0
-101 102 103 0
-101 -102 -103 0
19 104 -105 0
19 -104 105 0
-19 104 105 0
-19 -104 -105 0
106 107 -108 0
106 -107 108 0
-106 107 108 0
-106 -107 -108 0
57 109 -110 0
57 -109 110 0
-57 109 110 0
-57 -109 -110 0
16 71 -111 0
16 -71 111 0
-16 71 111 0
-16 -71 -111 0
56 109 -112 0
56 -109 112 0
-56 109 112 0
-56 -109 -112 0
113 114 -115 0
113 -114 115 0
-113 114 115 0
-113 -114 -115 0
116 117 -118 0
116 -117 118 0
-116 117 118 0
-116 -117 -118 0
113 119 -120 0
113 -119 120 0
-113 119 120 0
-113 -119 -120 0
121 122 -123 0
121 -122 123 0
-121 122 123 0
-121 -122 -123 0
124 125 -126 0
124 -125 126 0
-124 125 126 0
-124 -125 -126 0
127 128 -129 0
127 -128 129 0
-127 128 129 0
-127 -128 -129 0
5 8 -130 0
5 -8 130 0
-5 8 130 0
-5 -8 -130 0
131 132 -133 0
131 -132 133 0
-131 132 133 0
-131 -132 -133 0
134 135 -136 0
134 -135 136 0
-134 135 136 0
-134 -135 -136 0
137 138 -139 0
137 -138 139 0
-137 138 139 0
-137 -138 -139 0
33 140 -141 0
33 -140 141 0
-33 140 141 0
-33 -140 -141 0
142 143 -144 0
142 -143 144 0
-142 143 144 0
-142 -143 -144 0
145 146 -147 0
145 -146 147 0
-145 146 147 0
-145 -146 -147 0
67 148 -149 0
67 -148 149 0
-67 148 149 0
-67 -148 -149 0
13 150 -151 0
13 -150 151 0
-13 150 151 0
-13 -150 -151 0
127 152 -153 0
127 -152 153 0
-127 152 153 0
-127 -152 -153 0
58 154 -155 0
58 -154 155 0
-58 154 155 0
-58 -154 -155 0
61 68 -156 0
61 -68 156 0
-61 68 156 0
-61 -68 -156 0
150 157 -158 0
150 -157 158 0
-150 157 158 0
-150 -157 -158 0
121 159 -160 0
121 -159 160 0
-121 159 160 0
-121 -159 -160 0
161 162 -163 0
161 -162 163 0
-161 162 163 0
-161 -162 -163 0
99 128 -164 0
99 -128 164 0
-99 128 164 0
-99 -128 -164 0
165 166 -167 0
165 -166 167 0
-165 166 167 0
-165 -166 -167 0
79 96 -168 0
79 -96 168 0
-79 96 168 0
-79 -96 -168 0
73 169 -170 0
73 -169 170 0
-73 169 170 0
-73 -169 -170 0
34 171 -172 0
34 -171 172 0
-34 171 172 0
-34 -171 -172 0
91 165 -173 0
91 -165 173 0
-91 165 173 0
-91 -165 -173 0
174 175 -176 0
174 -175 176 0
-174 175 176 0
-174 -175 -176 0
87 177 -178 0
87 -177 178 0
-87 177 178 0
-87 -177 -178 0
177 179 -180 0
177 -179 180 0
-177 179 180 0
-177 -179 -180 0
31 44 -181 0
31 -44 181 0
-31 44 181 0
-31 -44 -181 0
173 182 -183 0
173 -182 183 0
-173 182 183 0
-173 -182 -183 0
142 181 -184 0
142 -181 184 0
-142 181 184 0
-142 -181 -184 0
35 64 -185 0
35 -64 185 0
-35 64 185 0
-35 -64 -185 0
159 171 -186 0
159 -171 186 0
-159 171 186 0
-159 -171 -186 0
119 187 -188 0
119 -187 188 0
-119 187 188 0
-119 -187 -188 0
2 134 -189 0
2 -134 189 0
-2 134 189 0
-2 -134 -189 0
27 190 -191 0
27 -190 191 0
-27 190 191 0
-27 -190 -191 0
122 124 -182 0
122 -124 182 0
-122 124 182 0
-122 -124 -182 0
192 193 -194 0
192 -193 194 0
-192 193 194 0
-192 -193 -194 0
93 195 -196 0
93 -195 196 0
-93 195 196 0
-93 -195 -196 0
174 197 -198 0
174 -197 198 0
-174 197 198 0
-174 -197 -198 0
49 59 -199 0
49 -59 199 0
-49 59 199 0
-49 -59 -199 0
40 200 -201 0
40 -200 201 0
-40 200 201 0
-40 -200 -201 0
166 202 -203 0
166 -202 203 0
-166 202 203 0
-166 -202 -203 0
17 94 -204 0
17 -94 204 0
-17 94 204 0
-17 -94 -204 0
25 169 -205 0
25 -169 205 0
-25 169 205 0
-25 -169 -205 0
178 206 -207 0
178 -206 207 0
-178 206 207 0
-178 -206 -207 0
74 208 -209 0
74 -208 209 0
-74 208 209 0
-74 -208 -209 0
140 210 -211 0
140 -210 211 0
-140 210 211 0
-140 -210 -211 0
212 213 -214 0
212 -213 214 0
-212 213 214 0
-212 -213 -214 0
72 215 -216 0
72 -215 216 0
-72 215 216 0
-72 -215 -216 0
9 45 -217 0
9 -45 217 0
-9 45 217 0
-9 -45 -217 0
52 218 -219 0
52 -218 219 0
-52 218 219 0
-52 -218 -219 0
220 221 -222 0
220 -221 222 0
-220 221 222 0
-220 -221 -222 0
183 223 -224 0
183 -223 224 0
-183 223 224 0
-183 -223 -224 0
42 195 -225 0
42 -195 225 0
-42 195 225 0
-42 -195 -225 0
223 226 -227 0
223 -226 227 0
-223 226 227 0
-223 -226 -227 0
135 226 -228 0
135 -226 228 0
-135 226 228 0
-135 -226 -228 0
185 229 -230 0
185 -229 230 0
-185 229 230 0
-185 -229 -230 0
46 231 -232 0
46 -231 232 0
-46 231 232 0
-46 -231 -232 0
60 233 -234 0
60 -233 234 0
-60 233 234 0
-60 -233 -234 0
80 120 -235 0
80 -120 235 0
-80 120 235 0
-80 -120 -235 0
110 131 -236 0
110 -131 236 0
-110 131 236 0
-110 -131 -236 0
20 237 -238 0
20 -237 238 0
-20 237 238 0
-20 -237 -238 0
75 132 -239 0
75 -132 239 0
-75 132 239 0
-75 -132 -239 0
3 240 -241 0
3 -240 241 0
-3 240 241 0
-3 -240 -241 0
47 242 -243 0
47 -242 243 0
-47 242 243 0
-47 -242 -243 0
43 244 -245 0
43 -244 245 0
-43 244 245 0
-43 -244 -245 0
157 200 -246 0
157 -200 246 0
-157 200 246 0
-157 -200 -246 0
154 172 -247 0
154 -172 247 0
-154 172 247 0
-154 -172 -247 0
248 249 -250 0
248 -249 250 0
-248 249 250 0
-248 -249 -250 0
220 251 -252 0
220 -251 252 0
-220 251 252 0
-220 -251 -252 0
101 168 -192 0
101 -168 192 0
-101 168 192 0
-101 -168 -192 0
26 253 -254 0
26 -253 254 0
-26 253 254 0
-26 -253 -254 0
152 193 -240 0
152 -193 240 0
-152 193 240 0
-152 -193 -240 0
106 116 -255 0
106 -116 255 0
-106 116 255 0
-106 -116 -255 0
133 217 -256 0
133 -217 256 0
-133 217 256 0
-133 -217 -256 0
10 14 -257 0
10 -14 257 0
-10 14 257 0
-10 -14 -257 0
208 221 -244 0
208 -221 244 0
-208 221 244 0
-208 -221 -244 0
187 258 -259 0
187 -258 259 0
-187 258 259 0
-187 -258 -259 0
48 186 -260 0
48 -186 260 0
-48 186 260 0
-48 -186 -260 0
76 114 -261 0
76 -114 261 0
-76 114 261 0
-76 -114 -261 0
161 190 -206 0
161 -190 206 0
-161 190 206 0
-161 -190 -206 0
62 201 -262 0
62 -201 262 0
-62 201 262 0
-62 -201 -262 0
145 263 -264 0
145 -263 264 0
-145 263 264 0
-145 -263 -264 0
36 153 -265 0
36 -153 265 0
-36 153 265 0
-36 -153 -265 0
130 212 -266 0
130 -212 266 0
-130 212 266 0
-130 -212 -266 0
102 151 -224 0
102 -151 224 0
-102 151 224 0
-102 -151 -224 0
54 88 -213 0
54 -88 213 0
-54 88 213 0
-54 -88 -213 0
23 123 -267 0
23 -123 267 0
-23 123 267 0
-23 -123 -267 0
227 263 -268 0
227 -263 268 0
-227 263 268 0
-227 -263 -268 0
37 269 -270 0
37 -269 270 0
-37 269 270 0
-37 -269 -270 0
83 129 -241 0
83 -129 241 0
-83 129 241 0
-83 -129 -241 0
77 155 -271 0
77 -155 271 0
-77 155 271 0
-77 -155 -271 0
104 160 -237 0
104 -160 237 0
-104 160 237 0
-104 -160 -237 0
117 162 -272 0
117 -162 272 0
-117 162 272 0
-117 -162 -272 0
233 238 -273 0
233 -238 273 0
-233 238 273 0
-233 -238 -273 0
81 143 -274 0
81 -143 274 0
-81 143 274 0
-81 -143 -274 0
125 146 -275 0
125 -146 275 0
-125 146 275 0
-125 -146 -275 0
115 118 -266 0
115 -118 266 0
-115 118 266 0
-115 -118 -266 0
85 202 -276 0
85 -202 276 0
-85 202 276 0
-85 -202 -276 0
11 97 -107 0
11 -97 107 0
-11 97 107 0
-11 -97 -107 0
251 255 -277 0
251 -255 277 0
-251 255 277 0
-251 -255 -277 0
89 204 -257 0
89 -204 257 0
-89 204 257 0
-89 -204 -257 0
50 278 -279 0
50 -278 279 0
-50 278 279 0
-50 -278 -279 0
260 262 -280 0
260 -262 280 0
-260 262 280 0
-260 -262 -280 0
214 215 -281 0
214 -215 281 0
-214 215 281 0
-214 -215 -281 0
12 179 -282 0
12 -179 282 0
-12 179 282 0
-12 -179 -282 0
188 283 -284 0
188 -283 284 0
-188 283 284 0
-188 -283 -284 0
105 277 -285 0
105 -277 285 0
-105 277 285 0
-105 -277 -285 0
184 225 -261 0
184 -225 261 0
-184 225 261 0
-184 -225 -261 0
189 286 -287 0
189 -286 287 0
-189 286 287 0
-189 -286 -287 0
53 86 -229 0
53 -86 229 0
-53 86 229 0
-53 -86 -229 0
126 197 -253 0
126 -197 253 0
-126 197 253 0
-126 -197 -253 0
248 281 -288 0
248 -281 288 0
-248 281 288 0
-248 -281 -288 0
137 274 -289 0
137 -274 289 0
-137 274 289 0
-137 -274 -289 0
167 170 -280 0
167 -170 280 0
-167 170 280 0
-167 -170 -280 0
108 286 -290 0
108 -286 290 0
-108 286 290 0
-108 -286 -290 0
180 246 -276 0
180 -246 276 0
-180 246 276 0
-180 -246 -276 0
268 290 -291 0
268 -290 291 0
-268 290 291 0
-268 -290 -291 0
103 210 -292 0
103 -210 292 0
-103 210 292 0
-103 -210 -292 0
63 275 -293 0
63 -275 293 0
-63 275 293 0
-63 -275 -293 0
156 218 -278 0
156 -218 278 0
-156 218 278 0
-156 -218 -278 0
65 211 -279 0
65 -211 279 0
-65 211 279 0
-65 -211 -279 0
66 138 -294 0
66 -138 294 0
-66 138 294 0
-66 -138 -294 0
111 254 -294 0
111 -254 294 0
-111 254 294 0
-111 -254 -294 0
90 283 -295 0
90 -283 295 0
-90 283 295 0
-90 -283 -295 0
258 284 -285 0
258 -284 285 0
-258 284 285 0
-258 -284 -285 0
207 209 -242 0
207 -209 242 0
-207 209 242 0
-207 -209 -242 0
78 267 -282 0
78 -267 282 0
-78 267 282 0
-78 -267 -282 0
219 264 -296 0
219 -264 296 0
-219 264 296 0
-219 -264 -296 0
136 228 -231 0
136 -228 231 0
-136 228 231 0
-136 -228 -231 0
144 216 -243 0
144 -216 243 0
-144 216 243 0
-144 -216 -243 0
15 112 -222 0
15 -112 222 0
-15 112 222 0
-15 -112 -222 0
28 203 -256 0
28 -203 256 0
-28 203 256 0
-28 -203 -256 0
194 249 -289 0
194 -249 289 0
-194 249 289 0
-194 -249 -289 0
92 141 -296 0
92 -141 296 0
-92 141 296 0
-92 -141 -296 0
100 250 -297 0
100 -250 297 0
-100 250 297 0
-100 -250 -297 0
247 293 -298 0
247 -293 298 0
-247 293 298 0
-247 -293 -298 0
148 259 -291 0
148 -259 291 0
-148 259 291 0
-148 -259 -291 0
29 245 -288 0
29 -245 288 0
-29 245 288 0
-29 -245 -288 0
95 269 -299 0
95 -269 299 0
-95 269 299 0
-95 -269 -299 0
84 265 -272 0
84 -265 272 0
-84 265 272 0
-84 -265 -272 0
205 235 -295 0
205 -235 295 0
-205 235 295 0
-205 -235 -295 0
234 273 -287 0
234 -273 287 0
-234 273 287 0
-234 -273 -287 0
164 175 -198 0
164 -175 198 0
-164 175 198 0
-164 -175 -198 0
176 196 -270 0
176 -196 270 0
-176 196 270 0
-176 -196 -270 0
6 55 -292 0
6 -55 292 0
-6 55 292 0
-6 -55 -292 0
149 252 -300 0
149 -252 300 0
-149 252 300 0
-149 -252 -300 0
98 232 -300 0
98 -232 300 0
-98 232 300 0
-98 -232 -300 0
147 236 -271 0
147 -236 271 0
-147 236 271 0
-147 -236 -271 0
51 163 -297 0
51 -163 297 0
-51 163 297 0
-51 -163 -297 0
191 199 -230 0
191 -199 230 0
-191 199 230 0
-191 -199 -230 0
139 158 -299 0
139 -158 299 0
-139 158 299 0
-139 -158 -299 0
69 239 -298 0
69 -239 298 0
-69 239 298 0
-69 -239 -298 0
