c F4 Tseitin on networkx random_regular_graph(3,20,seed=7), connected=True, odd charge on vertex 1
p cnf 30 80
1 2 3 0
1 -2 -3 0
-1 2 -3 0
-1 -2 3 0
4 5 -6 0
4 -5 6 0
-4 5 6 0
-4 -5 -6 0
7 8 -9 0
7 -8 9 0
-7 8 9 0
-7 -8 -9 0
10 11 -12 0
10 -11 12 0
-10 11 12 0
-10 -11 -12 0
10 13 -14 0
10 -13 14 0
-10 13 14 0
-10 -13 -14 0
4 7 -15 0
4 -7 15 0
-4 7 15 0
-4 -7 -15 0
11 16 -17 0
11 -16 17 0
-11 16 17 0
-11 -16 -17 0
8 16 -18 0
8 -16 18 0
-8 16 18 0
-8 -16 -18 0
9 12 -19 0
9 -12 19 0
-9 12 19 0
-9 -12 -19 0
1 19 -20 0
1 -19 20 0
-1 19 20 0
-1 -19 -20 0
2 21 -22 0
2 -21 22 0
-2 21 22 0
-2 -21 -22 0
13 23 -24 0
13 -23 24 0
-13 23 24 0
-13 -23 -24 0
15 25 -26 0
15 -25 26 0
-15 25 26 0
-15 -25 -26 0
21 25 -27 0
21 -25 27 0
-21 25 27 0
-21 -25 -27 0
18 26 -28 0
18 -26 28 0
-18 26 28 0
-18 -26 -28 0
14 28 -29 0
14 -28 29 0
-14 28 29 0
-14 -28 -29 0
20 22 -30 0
20 -22 30 0
-20 22 30 0
-20 -22 -30 0
5 29 -30 0
5 -29 30 0
-5 29 30 0
-5 -29 -30 0
17 23 -27 0
17 -23 27 0
-17 23 27 0
-17 -23 -27 0
3 6 -24 0
3 -6 24 0
-3 6 24 0
-3 -6 -24 0
