c F4 Tseitin on networkx random_regular_graph(3,100,seed=1), connected=True, odd charge on vertex 1
p cnf 150 400
1 2 3 0
1 -2 -3 0
-1 2 -3 0
-1 -2 3 0
4 5 -6 0
4 -5 6 0
-4 5 6 0
-4 -5 -6 0
7 8 -9 0
7 -8 9 0
-7 8 9 0
-7 -8 -9 0
10 11 -12 0
10 -11 12 0
-10 11 12 0
-10 -11 -12 0
13 14 -15 0
13 -14 15 0
-13 14 15 0
-13 -14 -15 0
16 17 -18 0
16 -17 18 0
-16 17 18 0
-16 -17 -18 0
10 19 -20 0
10 -19 20 0
-10 19 20 0
-10 -19 -20 0
21 22 -23 0
21 -22 23 0
-21 22 23 0
-21 -22 -23 0
21 24 -25 0
21 -24 25 0
-21 24 25 0
-21 -24 -25 0
26 27 -28 0
26 -27 28 0
-26 27 28 0
-26 -27 -28 0
19 29 -30 0
19 -29 30 0
-19 29 30 0
-19 -29 -30 0
31 32 -33 0
31 -32 33 0
-31 32 33 0
-31 -32 -33 0
34 35 -36 0
34 -35 36 0
-34 35 36 0
-34 -35 -36 0
31 37 -38 0
31 -37 38 0
-31 37 38 0
-31 -37 -38 0
39 40 -41 0
39 -40 41 0
-39 40 41 0
-39 -40 -41 0
42 43 -44 0
42 -43 44 0
-42 43 44 0
-42 -43 -44 0
29 45 -46 0
29 -45 46 0
-29 45 46 0
-29 -45 -46 0
47 48 -49 0
47 -48 49 0
-47 48 49 0
-47 -48 -49 0
24 50 -51 0
24 -50 51 0
-24 50 51 0
-24 -50 -51 0
52 53 -54 0
52 -53 54 0
-52 53 54 0
-52 -53 -54 0
55 56 -57 0
55 -56 57 0
-55 56 57 0
-55 -56 -57 0
4 50 -58 0
4 -50 58 0
-4 50 58 0
-4 -50 -58 0
59 60 -61 0
59 -60 61 0
-59 60 61 0
-59 -60 -61 0
62 63 -64 0
62 -63 64 0
-62 63 64 0
-62 -63 -64 0
37 62 -65 0
37 -62 65 0
-37 62 65 0
-37 -62 -65 0
66 67 -68 0
66 -67 68 0
-66 67 68 0
-66 -67 -68 0
69 70 -71 0
69 -70 71 0
-69 70 71 0
-69 -70 -71 0
66 72 -73 0
66 -72 73 0
-66 72 73 0
-66 -72 -73 0
74 75 -76 0
74 -75 76 0
-74 75 76 0
-74 -75 -76 0
34 77 -78 0
34 -77 78 0
-34 77 78 0
-34 -77 -78 0
47 79 -80 0
47 -79 80 0
-47 79 80 0
-47 -79 -80 0
81 82 -83 0
81 -82 83 0
-81 82 83 0
-81 -82 -83 0
69 79 -84 0
69 -79 84 0
-69 79 84 0
-69 -79 -84 0
85 86 -87 0
85 -86 87 0
-85 86 87 0
-85 -86 -87 0
16 32 -88 0
16 -32 88 0
-16 32 88 0
-16 -32 -88 0
35 89 -90 0
35 -89 90 0
-35 89 90 0
-35 -89 -90 0
59 74 -91 0
59 -74 91 0
-59 74 91 0
-59 -74 -91 0
1 81 -92 0
1 -81 92 0
-1 81 92 0
-1 -81 -92 0
2 45 -93 0
2 -45 93 0
-2 45 93 0
-2 -45 -93 0
25 89 -94 0
25 -89 94 0
-25 89 94 0
-25 -89 -94 0
70 82 -95 0
70 -82 95 0
-70 82 95 0
-70 -82 -95 0
11 80 -96 0
11 -80 96 0
-11 80 96 0
-11 -80 -96 0
5 17 -97 0
5 -17 97 0
-5 17 97 0
-5 -17 -97 0
84 85 -98 0
84 -85 98 0
-84 85 98 0
-84 -85 -98 0
39 72 -99 0
39 -72 99 0
-39 72 99 0
-39 -72 -99 0
100 101 -102 0
100 -101 102 0
-100 101 102 0
-100 -101 -102 0
26 103 -104 0
26 -103 104 0
-26 103 104 0
-26 -103 -104 0
3 75 -105 0
3 -75 105 0
-3 75 105 0
-3 -75 -105 0
106 107 -108 0
106 -107 108 0
-106 107 108 0
-106 -107 -108 0
106 109 -110 0
106 -109 110 0
-106 109 110 0
-106 -109 -110 0
86 94 -111 0
86 -94 111 0
-86 94 111 0
-86 -94 -111 0
13 38 -112 0
13 -38 112 0
-13 38 112 0
-13 -38 -112 0
40 48 -71 0
40 -48 71 0
-40 48 71 0
-40 -48 -71 0
6 113 -114 0
6 -113 114 0
-6 113 114 0
-6 -113 -114 0
14 115 -116 0
14 -115 116 0
-14 115 116 0
-14 -115 -116 0
7 77 -117 0
7 -77 117 0
-7 77 117 0
-7 -77 -117 0
42 92 -118 0
42 -92 118 0
-42 92 118 0
-42 -92 -118 0
60 118 -119 0
60 -118 119 0
-60 118 119 0
-60 -118 -119 0
12 93 -120 0
12 -93 120 0
-12 93 120 0
-12 -93 -120 0
55 121 -122 0
55 -121 122 0
-55 121 122 0
-55 -121 -122 0
56 113 -123 0
56 -113 123 0
-56 113 123 0
-56 -113 -123 0
20 63 -124 0
20 -63 124 0
-20 63 124 0
-20 -63 -124 0
43 61 -125 0
43 -61 125 0
-43 61 125 0
-43 -61 -125 0
97 126 -127 0
97 -126 127 0
-97 126 127 0
-97 -126 -127 0
119 121 -128 0
119 -121 128 0
-119 121 128 0
-119 -121 -128 0
98 129 -130 0
98 -129 130 0
-98 129 130 0
-98 -129 -130 0
18 109 -131 0
18 -109 131 0
-18 109 131 0
-18 -109 -131 0
58 122 -132 0
58 -122 132 0
-58 122 132 0
-58 -122 -132 0
133 134 -135 0
133 -134 135 0
-133 134 135 0
-133 -134 -135 0
115 126 -136 0
115 -126 136 0
-115 126 136 0
-115 -126 -136 0
91 99 -137 0
91 -99 137 0
-91 99 137 0
-91 -99 -137 0
64 87 -125 0
64 -87 125 0
-64 87 125 0
-64 -87 -125 0
100 111 -138 0
100 -111 138 0
-100 111 138 0
-100 -111 -138 0
33 136 -139 0
33 -136 139 0
-33 136 139 0
-33 -136 -139 0
52 116 -132 0
52 -116 132 0
-52 116 132 0
-52 -116 -132 0
44 90 -103 0
44 -90 103 0
-44 90 103 0
-44 -90 -103 0
51 123 -140 0
51 -123 140 0
-51 123 140 0
-51 -123 -140 0
107 127 -141 0
107 -127 141 0
-107 127 141 0
-107 -127 -141 0
8 129 -142 0
8 -129 142 0
-8 129 142 0
-8 -129 -142 0
67 114 -143 0
67 -114 143 0
-67 114 143 0
-67 -114 -143 0
27 142 -144 0
27 -142 144 0
-27 142 144 0
-27 -142 -144 0
28 133 -145 0
28 -133 145 0
-28 133 145 0
-28 -133 -145 0
76 88 -139 0
76 -88 139 0
-76 88 139 0
-76 -88 -139 0
36 128 -146 0
36 -128 146 0
-36 128 146 0
-36 -128 -146 0
147 148 -149 0
147 -148 149 0
-147 148 149 0
-147 -148 -149 0
78 101 -117 0
78 -101 117 0
-78 101 117 0
-78 -101 -117 0
96 104 -147 0
96 -104 147 0
-96 104 147 0
-96 -104 -147 0
22 131 -137 0
22 -131 137 0
-22 131 137 0
-22 -131 -137 0
105 138 -148 0
105 -138 148 0
-105 138 148 0
-105 -138 -148 0
83 102 -141 0
83 -102 141 0
-83 102 141 0
-83 -102 -141 0
124 145 -146 0
124 -145 146 0
-124 145 146 0
-124 -145 -146 0
65 110 -134 0
65 -110 134 0
-65 110 134 0
-65 -110 -134 0
46 53 -108 0
46 -53 108 0
-46 53 108 0
-46 -53 -108 0
95 130 -150 0
95 -130 150 0
-95 130 150 0
-95 -130 -150 0
23 54 -68 0
23 -54 68 0
-23 54 68 0
-23 -54 -68 0
15 112 -150 0
15 -112 150 0
-15 112 150 0
-15 -112 -150 0
9 49 -73 0
9 -49 73 0
-9 49 73 0
-9 -49 -73 0
30 57 -140 0
30 -57 140 0
-30 57 140 0
-30 -57 -140 0
120 143 -149 0
120 -143 149 0
-120 143 149 0
-120 -143 -149 0
41 135 -144 0
41 -135 144 0
-41 135 144 0
-41 -135 -144 0
