c F4 Tseitin on networkx random_regular_graph(3,80,seed=7), connected=True, odd charge on vertex 1
p cnf 120 320
1 2 3 0
1 -2 -3 0
-1 2 -3 0
-1 -2 3 0
1 4 -5 0
1 -4 5 0
-1 4 5 0
-1 -4 -5 0
6 7 -8 0
6 -7 8 0
-6 7 8 0
-6 -7 -8 0
9 10 -11 0
9 -10 11 0
-9 10 11 0
-9 -10 -11 0
4 12 -13 0
4 -12 13 0
-4 12 13 0
-4 -12 -13 0
14 15 -16 0
14 -15 16 0
-14 15 16 0
-14 -15 -16 0
5 17 -18 0
5 -17 18 0
-5 17 18 0
-5 -17 -18 0
19 20 -21 0
19 -20 21 0
-19 20 21 0
-19 -20 -21 0
6 22 -23 0
6 -22 23 0
-6 22 23 0
-6 -22 -23 0
24 25 -26 0
24 -25 26 0
-24 25 26 0
-24 -25 -26 0
24 27 -28 0
24 -27 28 0
-24 27 28 0
-24 -27 -28 0
29 30 -31 0
29 -30 31 0
-29 30 31 0
-29 -30 -31 0
32 33 -34 0
32 -33 34 0
-32 33 34 0
-32 -33 -34 0
35 36 -37 0
35 -36 37 0
-35 36 37 0
-35 -36 -37 0
38 39 -40 0
38 -39 40 0
-38 39 40 0
-38 -39 -40 0
41 42 -43 0
41 -42 43 0
-41 42 43 0
-41 -42 -43 0
25 44 -45 0
25 -44 45 0
-25 44 45 0
-25 -44 -45 0
46 47 -48 0
46 -47 48 0
-46 47 48 0
-46 -47 -48 0
32 49 -50 0
32 -49 50 0
-32 49 50 0
-32 -49 -50 0
27 51 -52 0
27 -51 52 0
-27 51 52 0
-27 -51 -52 0
53 54 -55 0
53 -54 55 0
-53 54 55 0
-53 -54 -55 0
17 51 -56 0
17 -51 56 0
-17 51 56 0
-17 -51 -56 0
26 57 -58 0
26 -57 58 0
-26 57 58 0
-26 -57 -58 0
28 59 -60 0
28 -59 60 0
-28 59 60 0
-28 -59 -60 0
14 35 -61 0
14 -35 61 0
-14 35 61 0
-14 -35 -61 0
9 62 -63 0
9 -62 63 0
-9 62 63 0
-9 -62 -63 0
44 64 -65 0
44 -64 65 0
-44 64 65 0
-44 -64 -65 0
66 67 -68 0
66 -67 68 0
-66 67 68 0
-66 -67 -68 0
41 66 -69 0
41 -66 69 0
-41 66 69 0
-41 -66 -69 0
2 15 -53 0
2 -15 53 0
-2 15 53 0
-2 -15 -53 0
70 71 -72 0
70 -71 72 0
-70 71 72 0
-70 -71 -72 0
67 73 -74 0
67 -73 74 0
-67 73 74 0
-67 -73 -74 0
57 75 -76 0
57 -75 76 0
-57 75 76 0
-57 -75 -76 0
77 78 -79 0
77 -78 79 0
-77 78 79 0
-77 -78 -79 0
10 80 -81 0
10 -80 81 0
-10 80 81 0
-10 -80 -81 0
77 82 -83 0
77 -82 83 0
-77 82 83 0
-77 -82 -83 0
33 84 -85 0
33 -84 85 0
-33 84 85 0
-33 -84 -85 0
75 86 -87 0
75 -86 87 0
-75 86 87 0
-75 -86 -87 0
7 29 -88 0
7 -29 88 0
-7 29 88 0
-7 -29 -88 0
11 16 -89 0
11 -16 89 0
-11 16 89 0
-11 -16 -89 0
90 91 -92 0
90 -91 92 0
-90 91 92 0
-90 -91 -92 0
34 93 -94 0
34 -93 94 0
-34 93 94 0
-34 -93 -94 0
88 95 -96 0
88 -95 96 0
-88 95 96 0
-88 -95 -96 0
59 95 -97 0
59 -95 97 0
-59 95 97 0
-59 -95 -97 0
12 36 -84 0
12 -36 84 0
-12 36 84 0
-12 -36 -84 0
22 56 -98 0
22 -56 98 0
-22 56 98 0
-22 -56 -98 0
19 38 -89 0
19 -38 89 0
-19 38 89 0
-19 -38 -89 0
54 99 -100 0
54 -99 100 0
-54 99 100 0
-54 -99 -100 0
42 68 -101 0
42 -68 101 0
-42 68 101 0
-42 -68 -101 0
78 102 -103 0
78 -102 103 0
-78 102 103 0
-78 -102 -103 0
90 104 -105 0
90 -104 105 0
-90 104 105 0
-90 -104 -105 0
82 106 -107 0
82 -106 107 0
-82 106 107 0
-82 -106 -107 0
8 96 -99 0
8 -96 99 0
-8 96 99 0
-8 -96 -99 0
39 86 -97 0
39 -86 97 0
-39 86 97 0
-39 -86 -97 0
20 45 -102 0
20 -45 102 0
-20 45 102 0
-20 -45 -102 0
61 62 -64 0
61 -62 64 0
-61 62 64 0
-61 -62 -64 0
30 73 -108 0
30 -73 108 0
-30 73 108 0
-30 -73 -108 0
74 104 -109 0
74 -104 109 0
-74 104 109 0
-74 -104 -109 0
63 70 -85 0
63 -70 85 0
-63 70 85 0
-63 -70 -85 0
13 91 -110 0
13 -91 110 0
-13 91 110 0
-13 -91 -110 0
55 111 -112 0
55 -111 112 0
-55 111 112 0
-55 -111 -112 0
46 60 -110 0
46 -60 110 0
-46 60 110 0
-46 -60 -110 0
71 80 -113 0
71 -80 113 0
-71 80 113 0
-71 -80 -113 0
105 114 -115 0
105 -114 115 0
-105 114 115 0
-105 -114 -115 0
69 106 -109 0
69 -106 109 0
-69 106 109 0
-69 -106 -109 0
18 31 -92 0
18 -31 92 0
-18 31 92 0
-18 -31 -92 0
72 93 -116 0
72 -93 116 0
-72 93 116 0
-72 -93 -116 0
37 100 -103 0
37 -100 103 0
-37 100 103 0
-37 -100 -103 0
47 65 -79 0
47 -65 79 0
-47 65 79 0
-47 -65 -79 0
40 94 -108 0
40 -94 108 0
-40 94 108 0
-40 -94 -108 0
23 52 -107 0
23 -52 107 0
-23 52 107 0
-23 -52 -107 0
98 111 -117 0
98 -111 117 0
-98 111 117 0
-98 -111 -117 0
49 76 -83 0
49 -76 83 0
-49 76 83 0
-49 -76 -83 0
48 81 -116 0
48 -81 116 0
-48 81 116 0
-48 -81 -116 0
3 113 -118 0
3 -113 118 0
-3 113 118 0
-3 -113 -118 0
43 118 -119 0
43 -118 119 0
-43 118 119 0
-43 -118 -119 0
21 112 -114 0
21 -112 114 0
-21 112 114 0
-21 -112 -114 0
58 119 -120 0
58 -119 120 0
-58 119 120 0
-58 -119 -120 0
50 101 -115 0
50 -101 115 0
-50 101 115 0
-50 -101 -115 0
87 117 -120 0
87 -117 120 0
-87 117 120 0
-87 -117 -120 0
