c F4 Tseitin on networkx random_regular_graph(3,200,seed=4), connected=True, odd charge on vertex 1
p cnf 300 800
1 2 3 0
1 -2 -3 0
-1 2 -3 0
-1 -2 3 0
4 5 -6 0
4 -5 6 0
-4 5 6 0
-4 -5 -6 0
7 8 -9 0
7 -8 9 0
-7 8 9 0
-7 -8 -9 0
10 11 -12 0
10 -11 12 0
-10 11 12 0
-10 -11 -12 0
13 14 -15 0
13 -14 15 0
-13 14 15 0
-13 -14 -15 0
4 16 -17 0
4 -16 17 0
-4 16 17 0
-4 -16 -17 0
18 19 -20 0
18 -19 20 0
-18 19 20 0
-18 -19 -20 0
21 22 -23 0
21 -22 23 0
-21 22 23 0
-21 -22 -23 0
24 25 -26 0
24 -25 26 0
-24 25 26 0
-24 -25 -26 0
13 27 -28 0
13 -27 28 0
-13 27 28 0
-13 -27 -28 0
29 30 -31 0
29 -30 31 0
-29 30 31 0
-29 -30 -31 0
32 33 -34 0
32 -33 34 0
-32 33 34 0
-32 -33 -34 0
35 36 -37 0
35 -36 37 0
-35 36 37 0
-35 -36 -37 0
38 39 -40 0
38 -39 40 0
-38 39 40 0
-38 -39 -40 0
41 42 -43 0
41 -42 43 0
-41 42 43 0
-41 -42 -43 0
44 45 -46 0
44 -45 46 0
-44 45 46 0
-44 -45 -46 0
47 48 -49 0
47 -48 49 0
-47 48 49 0
-47 -48 -49 0
50 51 -52 0
50 -51 52 0
-50 51 52 0
-50 -51 -52 0
53 54 -55 0
53 -54 55 0
-53 54 55 0
-53 -54 -55 0
56 57 -58 0
56 -57 58 0
-56 57 58 0
-56 -57 -58 0
59 60 -61 0
59 -60 61 0
-59 60 61 0
-59 -60 -61 0
62 63 -64 0
62 -63 64 0
-62 63 64 0
-62 -63 -64 0
65 66 -67 0
65 -66 67 0
-65 66 67 0
-65 -66 -67 0
10 21 -68 0
10 -21 68 0
-10 21 68 0
-10 -21 -68 0
11 69 -70 0
11 -69 70 0
-11 69 70 0
-11 -69 -70 0
71 72 -73 0
71 -72 73 0
-71 72 73 0
-71 -72 -73 0
74 75 -76 0
74 -75 76 0
-74 75 76 0
-74 -75 -76 0
77 78 -79 0
77 -78 79 0
-77 78 79 0
-77 -78 -79 0
35 80 -81 0
35 -80 81 0
-35 80 81 0
-35 -80 -81 0
82 83 -84 0
82 -83 84 0
-82 83 84 0
-82 -83 -84 0
85 86 -87 0
85 -86 87 0
-85 86 87 0
-85 -86 -87 0
47 88 -89 0
47 -88 89 0
-47 88 89 0
-47 -88 -89 0
24 90 -91 0
24 -90 91 0
-24 90 91 0
-24 -90 -91 0
90 92 -93 0
90 -92 93 0
-90 92 93 0
-90 -92 -93 0
94 95 -96 0
94 -95 96 0
-94 95 96 0
-94 -95 -96 0
94 97 -98 0
94 -97 98 0
-94 97 98 0
-94 -97 -98 0
16 99 -100 0
16 -99 100 0
-16 99 100 0
-16 -99 -100 0
101 102 -103 0
101 -102 103 0
-101 102 103 0
-101 -102 -103 0
104 105 -106 0
104 -105 106 0
-104 105 106 0
-104 -105 -106 0
74 107 -108 0
74 -107 108 0
-74 107 108 0
-74 -107 -108 0
92 109 -110 0
92 -109 110 0
-92 109 110 0
-92 -109 -110 0
111 112 -113 0
111 -112 113 0
-111 112 113 0
-111 -112 -113 0
114 115 -116 0
114 -115 116 0
-114 115 116 0
-114 -115 -116 0
85 117 -118 0
85 -117 118 0
-85 117 118 0
-85 -117 -118 0
56 119 -120 0
56 -119 120 0
-56 119 120 0
-56 -119 -120 0
121 122 -123 0
121 -122 123 0
-121 122 123 0
-121 -122 -123 0
57 124 -125 0
57 -124 125 0
-57 124 125 0
-57 -124 -125 0
68 126 -127 0
68 -126 127 0
-68 126 127 0
-68 -126 -127 0
128 129 -130 0
128 -129 130 0
-128 129 130 0
-128 -129 -130 0
82 131 -132 0
82 -131 132 0
-82 131 132 0
-82 -131 -132 0
133 134 -135 0
133 -134 135 0
-133 134 135 0
-133 -134 -135 0
71 136 -137 0
71 -136 137 0
-71 136 137 0
-71 -136 -137 0
86 131 -138 0
86 -131 138 0
-86 131 138 0
-86 -131 -138 0
139 140 -141 0
139 -140 141 0
-139 140 141 0
-139 -140 -141 0
114 142 -143 0
114 -142 143 0
-114 142 143 0
-114 -142 -143 0
53 80 -144 0
53 -80 144 0
-53 80 144 0
-53 -80 -144 0
115 145 -146 0
115 -145 146 0
-115 145 146 0
-115 -145 -146 0
147 148 -149 0
147 -148 149 0
-147 148 149 0
-147 -148 -149 0
150 151 -152 0
150 -151 152 0
-150 151 152 0
-150 -151 -152 0
29 121 -153 0
29 -121 153 0
-29 121 153 0
-29 -121 -153 0
117 154 -155 0
117 -154 155 0
-117 154 155 0
-117 -154 -155 0
147 156 -157 0
147 -156 157 0
-147 156 157 0
-147 -156 -157 0
59 158 -159 0
59 -158 159 0
-59 158 159 0
-59 -158 -159 0
41 160 -161 0
41 -160 161 0
-41 160 161 0
-41 -160 -161 0
107 162 -163 0
107 -162 163 0
-107 162 163 0
-107 -162 -163 0
58 164 -165 0
58 -164 165 0
-58 164 165 0
-58 -164 -165 0
166 167 -168 0
166 -167 168 0
-166 167 168 0
-166 -167 -168 0
22 169 -170 0
22 -169 170 0
-22 169 170 0
-22 -169 -170 0
38 44 -122 0
38 -44 122 0
-38 44 122 0
-38 -44 -122 0
156 162 -171 0
156 -162 171 0
-156 162 171 0
-156 -162 -171 0
172 173 -174 0
172 -173 174 0
-172 173 174 0
-172 -173 -174 0
27 169 -175 0
27 -169 175 0
-27 169 175 0
-27 -169 -175 0
142 176 -177 0
142 -176 177 0
-142 176 177 0
-142 -176 -177 0
157 178 -179 0
157 -178 179 0
-157 178 179 0
-157 -178 -179 0
158 180 -181 0
158 -180 181 0
-158 180 181 0
-158 -180 -181 0
145 166 -182 0
145 -166 182 0
-145 166 182 0
-145 -166 -182 0
183 184 -185 0
183 -184 185 0
-183 184 185 0
-183 -184 -185 0
118 146 -150 0
118 -146 150 0
-118 146 150 0
-118 -146 -150 0
136 186 -187 0
136 -186 187 0
-136 186 187 0
-136 -186 -187 0
104 188 -189 0
104 -188 189 0
-104 188 189 0
-104 -188 -189 0
175 190 -191 0
175 -190 191 0
-175 190 191 0
-175 -190 -191 0
69 192 -193 0
69 -192 193 0
-69 192 193 0
-69 -192 -193 0
18 119 -171 0
18 -119 171 0
-18 119 171 0
-18 -119 -171 0
186 194 -195 0
186 -194 195 0
-186 194 195 0
-186 -194 -195 0
1 62 -154 0
1 -62 154 0
-1 62 154 0
-1 -62 -154 0
196 197 -198 0
196 -197 198 0
-196 197 198 0
-196 -197 -198 0
199 200 -201 0
199 -200 201 0
-199 200 201 0
-199 -200 -201 0
139 202 -203 0
139 -202 203 0
-139 202 203 0
-139 -202 -203 0
65 204 -205 0
65 -204 205 0
-65 204 205 0
-65 -204 -205 0
206 207 -208 0
206 -207 208 0
-206 207 208 0
-206 -207 -208 0
60 206 -209 0
60 -206 209 0
-60 206 209 0
-60 -206 -209 0
210 211 -212 0
210 -211 212 0
-210 211 212 0
-210 -211 -212 0
25 101 -213 0
25 -101 213 0
-25 101 213 0
-25 -101 -213 0
199 214 -215 0
199 -214 215 0
-199 214 215 0
-199 -214 -215 0
196 216 -217 0
196 -216 217 0
-196 216 217 0
-196 -216 -217 0
128 218 -219 0
128 -218 219 0
-128 218 219 0
-128 -218 -219 0
220 221 -222 0
220 -221 222 0
-220 221 222 0
-220 -221 -222 0
19 223 -224 0
19 -223 224 0
-19 223 224 0
-19 -223 -224 0
7 187 -225 0
7 -187 225 0
-7 187 225 0
-7 -187 -225 0
5 105 -176 0
5 -105 176 0
-5 105 176 0
-5 -105 -176 0
99 180 -226 0
99 -180 226 0
-99 180 226 0
-99 -180 -226 0
227 228 -229 0
227 -228 229 0
-227 228 229 0
-227 -228 -229 0
63 230 -231 0
63 -230 231 0
-63 230 231 0
-63 -230 -231 0
50 200 -232 0
50 -200 232 0
-50 200 232 0
-50 -200 -232 0
153 233 -234 0
153 -233 234 0
-153 233 234 0
-153 -233 -234 0
77 132 -214 0
77 -132 214 0
-77 132 214 0
-77 -132 -214 0
64 235 -236 0
64 -235 236 0
-64 235 236 0
-64 -235 -236 0
235 237 -238 0
235 -237 238 0
-235 237 238 0
-235 -237 -238 0
218 239 -240 0
218 -239 240 0
-218 239 240 0
-218 -239 -240 0
54 241 -242 0
54 -241 242 0
-54 241 242 0
-54 -241 -242 0
243 244 -245 0
243 -244 245 0
-243 244 245 0
-243 -244 -245 0
182 207 -246 0
182 -207 246 0
-182 207 246 0
-182 -207 -246 0
247 248 -249 0
247 -248 249 0
-247 248 249 0
-247 -248 -249 0
106 190 -227 0
106 -190 227 0
-106 190 227 0
-106 -190 -227 0
81 172 -178 0
81 -172 178 0
-81 172 178 0
-81 -172 -178 0
12 183 -250 0
12 -183 250 0
-12 183 250 0
-12 -183 -250 0
164 251 -252 0
164 -251 252 0
-164 251 252 0
-164 -251 -252 0
192 253 -254 0
192 -253 254 0
-192 253 254 0
-192 -253 -254 0
102 247 -255 0
102 -247 255 0
-102 247 255 0
-102 -247 -255 0
32 201 -256 0
32 -201 256 0
-32 201 256 0
-32 -201 -256 0
2 111 -257 0
2 -111 257 0
-2 111 257 0
-2 -111 -257 0
233 258 -259 0
233 -258 259 0
-233 258 259 0
-233 -258 -259 0
116 137 -260 0
116 -137 260 0
-116 137 260 0
-116 -137 -260 0
148 165 -261 0
148 -165 261 0
-148 165 261 0
-148 -165 -261 0
129 133 -262 0
129 -133 262 0
-129 133 262 0
-129 -133 -262 0
130 263 -264 0
130 -263 264 0
-130 263 264 0
-130 -263 -264 0
223 226 -265 0
223 -226 265 0
-223 226 265 0
-223 -226 -265 0
6 95 -155 0
6 -95 155 0
-6 95 155 0
-6 -95 -155 0
61 266 -267 0
61 -266 267 0
-61 266 267 0
-61 -266 -267 0
143 268 -269 0
143 -268 269 0
-143 268 269 0
-143 -268 -269 0
219 237 -270 0
219 -237 270 0
-219 237 270 0
-219 -237 -270 0
248 262 -271 0
248 -262 271 0
-248 262 271 0
-248 -262 -271 0
17 238 -253 0
17 -238 253 0
-17 238 253 0
-17 -238 -253 0
124 159 -272 0
124 -159 272 0
-124 159 272 0
-124 -159 -272 0
251 258 -273 0
251 -258 273 0
-251 258 273 0
-251 -258 -273 0
42 103 -210 0
42 -103 210 0
-42 103 210 0
-42 -103 -210 0
83 243 -260 0
83 -243 260 0
-83 243 260 0
-83 -243 -260 0
78 181 -274 0
78 -181 274 0
-78 181 274 0
-78 -181 -274 0
108 249 -274 0
108 -249 274 0
-108 249 274 0
-108 -249 -274 0
177 275 -276 0
177 -275 276 0
-177 275 276 0
-177 -275 -276 0
277 278 -279 0
277 -278 279 0
-277 278 279 0
-277 -278 -279 0
45 280 -281 0
45 -280 281 0
-45 280 281 0
-45 -280 -281 0
8 234 -268 0
8 -234 268 0
-8 234 268 0
-8 -234 -268 0
33 97 -282 0
33 -97 282 0
-33 97 282 0
-33 -97 -282 0
140 254 -283 0
140 -254 283 0
-140 254 283 0
-140 -254 -283 0
98 255 -284 0
98 -255 284 0
-98 255 284 0
-98 -255 -284 0
48 70 -266 0
48 -70 266 0
-48 70 266 0
-48 -70 -266 0
191 202 -285 0
191 -202 285 0
-191 202 285 0
-191 -202 -285 0
109 203 -259 0
109 -203 259 0
-109 203 259 0
-109 -203 -259 0
263 275 -284 0
263 -275 284 0
-263 275 284 0
-263 -275 -284 0
84 246 -276 0
84 -246 276 0
-84 246 276 0
-84 -246 -276 0
79 197 -244 0
79 -197 244 0
-79 197 244 0
-79 -197 -244 0
9 66 -286 0
9 -66 286 0
-9 66 286 0
-9 -66 -286 0
149 287 -288 0
149 -287 288 0
-149 287 288 0
-149 -287 -288 0
188 272 -289 0
188 -272 289 0
-188 272 289 0
-188 -272 -289 0
144 170 -280 0
144 -170 280 0
-144 170 280 0
-144 -170 -280 0
30 220 -286 0
30 -220 286 0
-30 220 286 0
-30 -220 -286 0
221 241 -283 0
221 -241 283 0
-221 241 283 0
-221 -241 -283 0
49 252 -270 0
49 -252 270 0
-49 252 270 0
-49 -252 -270 0
31 34 -230 0
31 -34 230 0
-31 34 230 0
-31 -34 -230 0
72 75 -228 0
72 -75 228 0
-72 75 228 0
-72 -75 -228 0
209 211 -290 0
209 -211 290 0
-209 211 290 0
-209 -211 -290 0
88 173 -291 0
88 -173 291 0
-88 173 291 0
-88 -173 -291 0
239 292 -293 0
239 -292 293 0
-239 292 293 0
-239 -292 -293 0
179 231 -294 0
179 -231 294 0
-179 231 294 0
-179 -231 -294 0
277 295 -296 0
277 -295 296 0
-277 295 296 0
-277 -295 -296 0
91 163 -290 0
91 -163 290 0
-91 163 290 0
-91 -163 -290 0
96 184 -204 0
96 -184 204 0
-96 184 204 0
-96 -184 -204 0
141 212 -278 0
141 -212 278 0
-141 212 278 0
-141 -212 -278 0
112 285 -297 0
112 -285 297 0
-112 285 297 0
-112 -285 -297 0
174 205 -236 0
174 -205 236 0
-174 205 236 0
-174 -205 -236 0
55 292 -298 0
55 -292 298 0
-55 292 298 0
-55 -292 -298 0
100 245 -291 0
100 -245 291 0
-100 245 291 0
-100 -245 -291 0
193 208 -267 0
193 -208 267 0
-193 208 267 0
-193 -208 -267 0
39 93 -242 0
39 -93 242 0
-39 93 242 0
-39 -93 -242 0
167 232 -256 0
167 -232 256 0
-167 232 256 0
-167 -232 -256 0
125 126 -189 0
125 -126 189 0
-125 126 189 0
-125 -126 -189 0
51 89 -134 0
51 -89 134 0
-51 89 134 0
-51 -89 -134 0
20 216 -257 0
20 -216 257 0
-20 216 257 0
-20 -216 -257 0
151 265 -281 0
151 -265 281 0
-151 265 281 0
-151 -265 -281 0
168 198 -297 0
168 -198 297 0
-168 198 297 0
-168 -198 -297 0
185 215 -273 0
185 -215 273 0
-185 215 273 0
-185 -215 -273 0
14 28 -224 0
14 -28 224 0
-14 28 224 0
-14 -28 -224 0
36 67 -289 0
36 -67 289 0
-36 67 289 0
-36 -67 -289 0
269 294 -295 0
269 -294 295 0
-269 294 295 0
-269 -294 -295 0
293 296 -299 0
293 -296 299 0
-293 296 299 0
-293 -296 -299 0
127 160 -299 0
127 -160 299 0
-127 160 299 0
-127 -160 -299 0
87 282 -300 0
87 -282 300 0
-87 282 300 0
-87 -282 -300 0
43 52 -300 0
43 -52 300 0
-43 52 300 0
-43 -52 -300 0
135 194 -217 0
135 -194 217 0
-135 194 217 0
-135 -194 -217 0
23 26 -152 0
23 -26 152 0
-23 26 152 0
-23 -26 -152 0
40 261 -264 0
40 -261 264 0
-40 261 264 0
-40 -261 -264 0
138 195 -271 0
138 -195 271 0
-138 195 271 0
-138 -195 -271 0
37 161 -287 0
37 -161 287 0
-37 161 287 0
-37 -161 -287 0
120 123 -279 0
120 -123 279 0
-120 123 279 0
-120 -123 -279 0
73 113 -229 0
73 -113 229 0
-73 113 229 0
-73 -113 -229 0
225 288 -298 0
225 -288 298 0
-225 288 298 0
-225 -288 -298 0
46 110 -240 0
46 -110 240 0
-46 110 240 0
-46 -110 -240 0
3 213 -222 0
3 -213 222 0
-3 213 222 0
-3 -213 -222 0
15 76 -250 0
15 -76 250 0
-15 76 250 0
-15 -76 -250 0
