c F4 Tseitin on networkx random_regular_graph(3,100,seed=4), connected=True, odd charge on vertex 1
p cnf 150 400
1 2 3 0
1 -2 -3 0
-1 2 -3 0
-1 -2 3 0
4 5 -6 0
4 -5 6 0
-4 5 6 0
-4 -5 -6 0
7 8 -9 0
7 -8 9 0
-7 8 9 0
-7 -8 -9 0
10 11 -12 0
10 -11 12 0
-10 11 12 0
-10 -11 -12 0
13 14 -15 0
13 -14 15 0
-13 14 15 0
-13 -14 -15 0
16 17 -18 0
16 -17 18 0
-16 17 18 0
-16 -17 -18 0
19 20 -21 0
19 -20 21 0
-19 20 21 0
-19 -20 -21 0
22 23 -24 0
22 -23 24 0
-22 23 24 0
-22 -23 -24 0
19 25 -26 0
19 -25 26 0
-19 25 26 0
-19 -25 -26 0
27 28 -29 0
27 -28 29 0
-27 28 29 0
-27 -28 -29 0
30 31 -32 0
30 -31 32 0
-30 31 32 0
-30 -31 -32 0
33 34 -35 0
33 -34 35 0
-33 34 35 0
-33 -34 -35 0
36 37 -38 0
36 -37 38 0
-36 37 38 0
-36 -37 -38 0
39 40 -41 0
39 -40 41 0
-39 40 41 0
-39 -40 -41 0
4 42 -43 0
4 -42 43 0
-4 42 43 0
-4 -42 -43 0
44 45 -46 0
44 -45 46 0
-44 45 46 0
-44 -45 -46 0
47 48 -49 0
47 -48 49 0
-47 48 49 0
-47 -48 -49 0
13 50 -51 0
13 -50 51 0
-13 50 51 0
-13 -50 -51 0
39 52 -53 0
39 -52 53 0
-39 52 53 0
-39 -52 -53 0
54 55 -56 0
54 -55 56 0
-54 55 56 0
-54 -55 -56 0
44 57 -58 0
44 -57 58 0
-44 57 58 0
-44 -57 -58 0
59 60 -61 0
59 -60 61 0
-59 60 61 0
-59 -60 -61 0
36 62 -63 0
36 -62 63 0
-36 62 63 0
-36 -62 -63 0
54 64 -65 0
54 -64 65 0
-54 64 65 0
-54 -64 -65 0
66 67 -68 0
66 -67 68 0
-66 67 68 0
-66 -67 -68 0
69 70 -71 0
69 -70 71 0
-69 70 71 0
-69 -70 -71 0
1 72 -73 0
1 -72 73 0
-1 72 73 0
-1 -72 -73 0
52 74 -75 0
52 -74 75 0
-52 74 75 0
-52 -74 -75 0
76 77 -78 0
76 -77 78 0
-76 77 78 0
-76 -77 -78 0
7 79 -80 0
7 -79 80 0
-7 79 80 0
-7 -79 -80 0
20 50 -81 0
20 -50 81 0
-20 50 81 0
-20 -50 -81 0
82 83 -84 0
82 -83 84 0
-82 83 84 0
-82 -83 -84 0
55 85 -86 0
55 -85 86 0
-55 85 86 0
-55 -85 -86 0
14 33 -59 0
14 -33 59 0
-14 33 59 0
-14 -33 -59 0
30 62 -87 0
30 -62 87 0
-30 62 87 0
-30 -62 -87 0
42 45 -88 0
42 -45 88 0
-42 45 88 0
-42 -45 -88 0
60 89 -90 0
60 -89 90 0
-60 89 90 0
-60 -89 -90 0
15 91 -92 0
15 -91 92 0
-15 91 92 0
-15 -91 -92 0
93 94 -95 0
93 -94 95 0
-93 94 95 0
-93 -94 -95 0
22 91 -96 0
22 -91 96 0
-22 91 96 0
-22 -91 -96 0
69 81 -97 0
69 -81 97 0
-69 81 97 0
-69 -81 -97 0
37 76 -98 0
37 -76 98 0
-37 76 98 0
-37 -76 -98 0
46 77 -99 0
46 -77 99 0
-46 77 99 0
-46 -77 -99 0
99 100 -101 0
99 -100 101 0
-99 100 101 0
-99 -100 -101 0
89 102 -103 0
89 -102 103 0
-89 102 103 0
-89 -102 -103 0
104 105 -106 0
104 -105 106 0
-104 105 106 0
-104 -105 -106 0
98 107 -108 0
98 -107 108 0
-98 107 108 0
-98 -107 -108 0
10 93 -109 0
10 -93 109 0
-10 93 109 0
-10 -93 -109 0
97 110 -111 0
97 -110 111 0
-97 110 111 0
-97 -110 -111 0
66 107 -109 0
66 -107 109 0
-66 107 109 0
-66 -107 -109 0
25 31 -112 0
25 -31 112 0
-25 31 112 0
-25 -31 -112 0
34 113 -114 0
34 -113 114 0
-34 113 114 0
-34 -113 -114 0
67 115 -116 0
67 -115 116 0
-67 115 116 0
-67 -115 -116 0
79 117 -118 0
79 -117 118 0
-79 117 118 0
-79 -117 -118 0
104 119 -120 0
104 -119 120 0
-104 119 120 0
-104 -119 -120 0
61 117 -121 0
61 -117 121 0
-61 117 121 0
-61 -117 -121 0
53 96 -122 0
53 -96 122 0
-53 96 122 0
-53 -96 -122 0
38 123 -124 0
38 -123 124 0
-38 123 124 0
-38 -123 -124 0
64 125 -126 0
64 -125 126 0
-64 125 126 0
-64 -125 -126 0
70 82 -127 0
70 -82 127 0
-70 82 127 0
-70 -82 -127 0
47 74 -119 0
47 -74 119 0
-47 74 119 0
-47 -74 -119 0
113 125 -127 0
113 -125 127 0
-113 125 127 0
-113 -125 -127 0
2 48 -128 0
2 -48 128 0
-2 48 128 0
-2 -48 -128 0
83 129 -130 0
83 -129 130 0
-83 129 130 0
-83 -129 -130 0
11 92 -131 0
11 -92 131 0
-11 92 131 0
-11 -92 -131 0
12 85 -102 0
12 -85 102 0
-12 85 102 0
-12 -85 -102 0
63 65 -71 0
63 -65 71 0
-63 65 71 0
-63 -65 -71 0
5 32 -118 0
5 -32 118 0
-5 32 118 0
-5 -32 -118 0
94 100 -123 0
94 -100 123 0
-94 100 123 0
-94 -100 -123 0
95 126 -132 0
95 -126 132 0
-95 126 132 0
-95 -126 -132 0
16 27 -133 0
16 -27 133 0
-16 27 133 0
-16 -27 -133 0
121 128 -134 0
121 -128 134 0
-121 128 134 0
-121 -128 -134 0
78 90 -135 0
78 -90 135 0
-78 90 135 0
-78 -90 -135 0
86 105 -115 0
86 -105 115 0
-86 105 115 0
-86 -105 -115 0
49 110 -131 0
49 -110 131 0
-49 110 131 0
-49 -110 -131 0
35 72 -136 0
35 -72 136 0
-35 72 136 0
-35 -72 -136 0
137 138 -139 0
137 -138 139 0
-137 138 139 0
-137 -138 -139 0
8 137 -140 0
8 -137 140 0
-8 137 140 0
-8 -137 -140 0
9 138 -141 0
9 -138 141 0
-9 138 141 0
-9 -138 -141 0
111 122 -142 0
111 -122 142 0
-111 122 142 0
-111 -122 -142 0
6 56 -136 0
6 -56 136 0
-6 56 136 0
-6 -56 -136 0
23 26 -143 0
23 -26 143 0
-23 26 143 0
-23 -26 -143 0
51 88 -133 0
51 -88 133 0
-51 88 133 0
-51 -88 -133 0
84 140 -144 0
84 -140 144 0
-84 140 144 0
-84 -140 -144 0
101 145 -146 0
101 -145 146 0
-101 145 146 0
-101 -145 -146 0
57 116 -147 0
57 -116 147 0
-57 116 147 0
-57 -116 -147 0
28 40 -145 0
28 -40 145 0
-28 40 145 0
-28 -40 -145 0
68 132 -143 0
68 -132 143 0
-68 132 143 0
-68 -132 -143 0
73 129 -148 0
73 -129 148 0
-73 129 148 0
-73 -129 -148 0
108 130 -149 0
108 -130 149 0
-108 130 149 0
-108 -130 -149 0
17 139 -144 0
17 -139 144 0
-17 139 144 0
-17 -139 -144 0
18 21 -106 0
18 -21 106 0
-18 21 106 0
-18 -21 -106 0
3 103 -148 0
3 -103 148 0
-3 103 148 0
-3 -103 -148 0
87 124 -141 0
87 -124 141 0
-87 124 141 0
-87 -124 -141 0
80 142 -150 0
80 -142 150 0
-80 142 150 0
-80 -142 -150 0
24 75 -112 0
24 -75 112 0
-24 75 112 0
-24 -75 -112 0
41 114 -135 0
41 -114 135 0
-41 114 135 0
-41 -114 -135 0
29 120 -146 0
29 -120 146 0
-29 120 146 0
-29 -120 -146 0
43 134 -150 0
43 -134 150 0
-43 134 150 0
-43 -134 -150 0
58 147 -149 0
58 -147 149 0
-58 147 149 0
-58 -147 -149 0
