c F4 Tseitin on networkx random_regular_graph(3,300,seed=0), connected=True, odd charge on vertex 1
p cnf 450 1200
1 2 3 0
1 -2 -3 0
-1 2 -3 0
-1 -2 3 0
4 5 -6 0
4 -5 6 0
-4 5 6 0
-4 -5 -6 0
7 8 -9 0
7 -8 9 0
-7 8 9 0
-7 -8 -9 0
10 11 -12 0
10 -11 12 0
-10 11 12 0
-10 -11 -12 0
13 14 -15 0
13 -14 15 0
-13 14 15 0
-13 -14 -15 0
16 17 -18 0
16 -17 18 0
-16 17 18 0
-16 -17 -18 0
19 20 -21 0
19 -20 21 0
-19 20 21 0
-19 -20 -21 0
22 23 -24 0
22 -23 24 0
-22 23 24 0
-22 -23 -24 0
25 26 -27 0
25 -26 27 0
-25 26 27 0
-25 -26 -27 0
28 29 -30 0
28 -29 30 0
-28 29 30 0
-28 -29 -30 0
31 32 -33 0
31 -32 33 0
-31 32 33 0
-31 -32 -33 0
34 35 -36 0
34 -35 36 0
-34 35 36 0
-34 -35 -36 0
37 38 -39 0
37 -38 39 0
-37 38 39 0
-37 -38 -39 0
40 41 -42 0
40 -41 42 0
-40 41 42 0
-40 -41 -42 0
43 44 -45 0
43 -44 45 0
-43 44 45 0
-43 -44 -45 0
46 47 -48 0
46 -47 48 0
-46 47 48 0
-46 -47 -48 0
37 49 -50 0
37 -49 50 0
-37 49 50 0
-37 -49 -50 0
38 40 -51 0
38 -40 51 0
-38 40 51 0
-38 -40 -51 0
52 53 -54 0
52 -53 54 0
-52 53 54 0
-52 -53 -54 0
25 55 -56 0
25 -55 56 0
-25 55 56 0
-25 -55 -56 0
57 58 -59 0
57 -58 59 0
-57 58 59 0
-57 -58 -59 0
55 60 -61 0
55 -60 61 0
-55 60 61 0
-55 -60 -61 0
46 62 -63 0
46 -62 63 0
-46 62 63 0
-46 -62 -63 0
64 65 -66 0
64 -65 66 0
-64 65 66 0
-64 -65 -66 0
67 68 -69 0
67 -68 69 0
-67 68 69 0
-67 -68 -69 0
13 70 -71 0
13 -70 71 0
-13 70 71 0
-13 -70 -71 0
72 73 -74 0
72 -73 74 0
-72 73 74 0
-72 -73 -74 0
75 76 -77 0
75 -76 77 0
-75 76 77 0
-75 -76 -77 0
78 79 -80 0
78 -79 80 0
-78 79 80 0
-78 -79 -80 0
34 81 -82 0
34 -81 82 0
-34 81 82 0
-34 -81 -82 0
83 84 -85 0
83 -84 85 0
-83 84 85 0
-83 -84 -85 0
67 86 -87 0
67 -86 87 0
-67 86 87 0
-67 -86 -87 0
88 89 -90 0
88 -89 90 0
-88 89 90 0
-88 -89 -90 0
10 43 -91 0
10 -43 91 0
-10 43 91 0
-10 -43 -91 0
92 93 -94 0
92 -93 94 0
-92 93 94 0
-92 -93 -94 0
11 44 -95 0
11 -44 95 0
-11 44 95 0
-11 -44 -95 0
35 96 -97 0
35 -96 97 0
-35 96 97 0
-35 -96 -97 0
75 98 -99 0
75 -98 99 0
-75 98 99 0
-75 -98 -99 0
100 101 -102 0
100 -101 102 0
-100 101 102 0
-100 -101 -102 0
103 104 -105 0
103 -104 105 0
-103 104 105 0
-103 -104 -105 0
103 106 -107 0
103 -106 107 0
-103 106 107 0
-103 -106 -107 0
108 109 -110 0
108 -109 110 0
-108 109 110 0
-108 -109 -110 0
111 112 -113 0
111 -112 113 0
-111 112 113 0
-111 -112 -113 0
114 115 -116 0
114 -115 116 0
-114 115 116 0
-114 -115 -116 0
28 114 -117 0
28 -114 117 0
-28 114 117 0
-28 -114 -117 0
118 119 -120 0
118 -119 120 0
-118 119 120 0
-118 -119 -120 0
14 121 -122 0
14 -121 122 0
-14 121 122 0
-14 -121 -122 0
62 123 -124 0
62 -123 124 0
-62 123 124 0
-62 -123 -124 0
125 126 -127 0
125 -126 127 0
-125 126 127 0
-125 -126 -127 0
128 129 -130 0
128 -129 130 0
-128 129 130 0
-128 -129 -130 0
131 132 -133 0
131 -132 133 0
-131 132 133 0
-131 -132 -133 0
134 135 -136 0
134 -135 136 0
-134 135 136 0
-134 -135 -136 0
7 137 -138 0
7 -137 138 0
-7 137 138 0
-7 -137 -138 0
139 140 -141 0
139 -140 141 0
-139 140 141 0
-139 -140 -141 0
142 143 -144 0
142 -143 144 0
-142 143 144 0
-142 -143 -144 0
123 145 -146 0
123 -145 146 0
-123 145 146 0
-123 -145 -146 0
147 148 -149 0
147 -148 149 0
-147 148 149 0
-147 -148 -149 0
150 151 -152 0
150 -151 152 0
-150 151 152 0
-150 -151 -152 0
153 154 -155 0
153 -154 155 0
-153 154 155 0
-153 -154 -155 0
118 156 -157 0
118 -156 157 0
-118 156 157 0
-118 -156 -157 0
1 49 -76 0
1 -49 76 0
-1 49 76 0
-1 -49 -76 0
158 159 -160 0
158 -159 160 0
-158 159 160 0
-158 -159 -160 0
161 162 -163 0
161 -162 163 0
-161 162 163 0
-161 -162 -163 0
72 164 -165 0
72 -164 165 0
-72 164 165 0
-72 -164 -165 0
134 166 -167 0
134 -166 167 0
-134 166 167 0
-134 -166 -167 0
4 168 -169 0
4 -168 169 0
-4 168 169 0
-4 -168 -169 0
170 171 -172 0
170 -171 172 0
-170 171 172 0
-170 -171 -172 0
173 174 -175 0
173 -174 175 0
-173 174 175 0
-173 -174 -175 0
176 177 -178 0
176 -177 178 0
-176 177 178 0
-176 -177 -178 0
19 179 -180 0
19 -179 180 0
-19 179 180 0
-19 -179 -180 0
64 181 -182 0
64 -181 182 0
-64 181 182 0
-64 -181 -182 0
183 184 -185 0
183 -184 185 0
-183 184 185 0
-183 -184 -185 0
186 187 -188 0
186 -187 188 0
-186 187 188 0
-186 -187 -188 0
189 190 -191 0
189 -190 191 0
-189 190 191 0
-189 -190 -191 0
192 193 -194 0
192 -193 194 0
-192 193 194 0
-192 -193 -194 0
52 195 -196 0
52 -195 196 0
-52 195 196 0
-52 -195 -196 0
142 197 -198 0
142 -197 198 0
-142 197 198 0
-142 -197 -198 0
115 179 -199 0
115 -179 199 0
-115 179 199 0
-115 -179 -199 0
200 201 -202 0
200 -201 202 0
-200 201 202 0
-200 -201 -202 0
128 203 -204 0
128 -203 204 0
-128 203 204 0
-128 -203 -204 0
60 205 -206 0
60 -205 206 0
-60 205 206 0
-60 -205 -206 0
124 166 -207 0
124 -166 207 0
-124 166 207 0
-124 -166 -207 0
208 209 -210 0
208 -209 210 0
-208 209 210 0
-208 -209 -210 0
211 212 -213 0
211 -212 213 0
-211 212 213 0
-211 -212 -213 0
214 215 -216 0
214 -215 216 0
-214 215 216 0
-214 -215 -216 0
125 217 -218 0
125 -217 218 0
-125 217 218 0
-125 -217 -218 0
126 219 -220 0
126 -219 220 0
-126 219 220 0
-126 -219 -220 0
73 221 -222 0
73 -221 222 0
-73 221 222 0
-73 -221 -222 0
77 223 -224 0
77 -223 224 0
-77 223 224 0
-77 -223 -224 0
225 226 -227 0
225 -226 227 0
-225 226 227 0
-225 -226 -227 0
74 228 -229 0
74 -228 229 0
-74 228 229 0
-74 -228 -229 0
230 231 -232 0
230 -231 232 0
-230 231 232 0
-230 -231 -232 0
233 234 -235 0
233 -234 235 0
-233 234 235 0
-233 -234 -235 0
139 236 -237 0
139 -236 237 0
-139 236 237 0
-139 -236 -237 0
8 238 -239 0
8 -238 239 0
-8 238 239 0
-8 -238 -239 0
240 241 -242 0
240 -241 242 0
-240 241 242 0
-240 -241 -242 0
95 243 -244 0
95 -243 244 0
-95 243 244 0
-95 -243 -244 0
131 192 -245 0
131 -192 245 0
-131 192 245 0
-131 -192 -245 0
63 246 -247 0
63 -246 247 0
-63 246 247 0
-63 -246 -247 0
104 248 -249 0
104 -248 249 0
-104 248 249 0
-104 -248 -249 0
250 251 -252 0
250 -251 252 0
-250 251 252 0
-250 -251 -252 0
41 186 -253 0
41 -186 253 0
-41 186 253 0
-41 -186 -253 0
153 183 -254 0
153 -183 254 0
-153 183 254 0
-153 -183 -254 0
106 211 -255 0
106 -211 255 0
-106 211 255 0
-106 -211 -255 0
57 217 -256 0
57 -217 256 0
-57 217 256 0
-57 -217 -256 0
257 258 -259 0
257 -258 259 0
-257 258 259 0
-257 -258 -259 0
65 135 -260 0
65 -135 260 0
-65 135 260 0
-65 -135 -260 0
261 262 -263 0
261 -262 263 0
-261 262 263 0
-261 -262 -263 0
264 265 -266 0
264 -265 266 0
-264 265 266 0
-264 -265 -266 0
98 267 -268 0
98 -267 268 0
-98 267 268 0
-98 -267 -268 0
269 270 -271 0
269 -270 271 0
-269 270 271 0
-269 -270 -271 0
272 273 -274 0
272 -273 274 0
-272 273 274 0
-272 -273 -274 0
197 275 -276 0
197 -275 276 0
-197 275 276 0
-197 -275 -276 0
277 278 -279 0
277 -278 279 0
-277 278 279 0
-277 -278 -279 0
280 281 -282 0
280 -281 282 0
-280 281 282 0
-280 -281 -282 0
189 228 -283 0
189 -228 283 0
-189 228 283 0
-189 -228 -283 0
26 284 -285 0
26 -284 285 0
-26 284 285 0
-26 -284 -285 0
22 286 -287 0
22 -286 287 0
-22 286 287 0
-22 -286 -287 0
96 111 -288 0
96 -111 288 0
-96 111 288 0
-96 -111 -288 0
219 289 -290 0
219 -289 290 0
-219 289 290 0
-219 -289 -290 0
291 292 -293 0
291 -292 293 0
-291 292 293 0
-291 -292 -293 0
81 294 -295 0
81 -294 295 0
-81 294 295 0
-81 -294 -295 0
127 296 -297 0
127 -296 297 0
-127 296 297 0
-127 -296 -297 0
230 298 -299 0
230 -298 299 0
-230 298 299 0
-230 -298 -299 0
291 300 -301 0
291 -300 301 0
-291 300 301 0
-291 -300 -301 0
302 303 -304 0
302 -303 304 0
-302 303 304 0
-302 -303 -304 0
225 305 -306 0
225 -305 306 0
-225 305 306 0
-225 -305 -306 0
2 307 -308 0
2 -307 308 0
-2 307 308 0
-2 -307 -308 0
212 309 -310 0
212 -309 310 0
-212 309 310 0
-212 -309 -310 0
5 311 -312 0
5 -311 312 0
-5 311 312 0
-5 -311 -312 0
180 213 -313 0
180 -213 313 0
-180 213 313 0
-180 -213 -313 0
136 314 -315 0
136 -314 315 0
-136 314 315 0
-136 -314 -315 0
66 140 -198 0
66 -140 198 0
-66 140 198 0
-66 -140 -198 0
100 117 -250 0
100 -117 250 0
-100 117 250 0
-100 -117 -250 0
257 316 -317 0
257 -316 317 0
-257 316 317 0
-257 -316 -317 0
147 305 -318 0
147 -305 318 0
-147 305 318 0
-147 -305 -318 0
88 112 -319 0
88 -112 319 0
-88 112 319 0
-88 -112 -319 0
158 280 -320 0
158 -280 320 0
-158 280 320 0
-158 -280 -320 0
12 168 -256 0
12 -168 256 0
-12 168 256 0
-12 -168 -256 0
78 321 -322 0
78 -321 322 0
-78 321 322 0
-78 -321 -322 0
323 324 -325 0
323 -324 325 0
-323 324 325 0
-323 -324 -325 0
208 269 -326 0
208 -269 326 0
-208 269 326 0
-208 -269 -326 0
190 226 -258 0
190 -226 258 0
-190 226 258 0
-190 -226 -258 0
23 286 -327 0
23 -286 327 0
-23 286 327 0
-23 -286 -327 0
328 329 -330 0
328 -329 330 0
-328 329 330 0
-328 -329 -330 0
170 331 -332 0
170 -331 332 0
-170 331 332 0
-170 -331 -332 0
42 333 -334 0
42 -333 334 0
-42 333 334 0
-42 -333 -334 0
335 336 -337 0
335 -336 337 0
-335 336 337 0
-335 -336 -337 0
101 338 -339 0
101 -338 339 0
-101 338 339 0
-101 -338 -339 0
302 340 -341 0
302 -340 341 0
-302 340 341 0
-302 -340 -341 0
58 91 -292 0
58 -91 292 0
-58 91 292 0
-58 -91 -292 0
331 342 -343 0
331 -342 343 0
-331 342 343 0
-331 -342 -343 0
344 345 -346 0
344 -345 346 0
-344 345 346 0
-344 -345 -346 0
51 347 -348 0
51 -347 348 0
-51 347 348 0
-51 -347 -348 0
24 156 -349 0
24 -156 349 0
-24 156 349 0
-24 -156 -349 0
229 350 -351 0
229 -350 351 0
-229 350 351 0
-229 -350 -351 0
284 309 -352 0
284 -309 352 0
-284 309 352 0
-284 -309 -352 0
298 353 -354 0
298 -353 354 0
-298 353 354 0
-298 -353 -354 0
231 259 -303 0
231 -259 303 0
-231 259 303 0
-231 -259 -303 0
232 254 -355 0
232 -254 355 0
-232 254 355 0
-232 -254 -355 0
154 161 -289 0
154 -161 289 0
-154 161 289 0
-154 -161 -289 0
264 356 -357 0
264 -356 357 0
-264 356 357 0
-264 -356 -357 0
310 358 -359 0
310 -358 359 0
-310 358 359 0
-310 -358 -359 0
333 360 -361 0
333 -360 361 0
-333 360 361 0
-333 -360 -361 0
267 362 -363 0
267 -362 363 0
-267 362 363 0
-267 -362 -363 0
364 365 -366 0
364 -365 366 0
-364 365 366 0
-364 -365 -366 0
89 261 -367 0
89 -261 367 0
-89 261 367 0
-89 -261 -367 0
368 369 -370 0
368 -369 370 0
-368 369 370 0
-368 -369 -370 0
275 347 -371 0
275 -347 371 0
-275 347 371 0
-275 -347 -371 0
294 328 -372 0
294 -328 372 0
-294 328 372 0
-294 -328 -372 0
83 334 -373 0
83 -334 373 0
-83 334 373 0
-83 -334 -373 0
6 329 -355 0
6 -329 355 0
-6 329 355 0
-6 -329 -355 0
203 236 -374 0
203 -236 374 0
-203 236 374 0
-203 -236 -374 0
56 148 -375 0
56 -148 375 0
-56 148 375 0
-56 -148 -375 0
348 376 -377 0
348 -376 377 0
-348 376 377 0
-348 -376 -377 0
132 323 -378 0
132 -323 378 0
-132 323 378 0
-132 -323 -378 0
270 352 -379 0
270 -352 379 0
-270 352 379 0
-270 -352 -379 0
277 335 -380 0
277 -335 380 0
-277 335 380 0
-277 -335 -380 0
316 332 -381 0
316 -332 381 0
-316 332 381 0
-316 -332 -381 0
338 382 -383 0
338 -382 383 0
-338 382 383 0
-338 -382 -383 0
240 384 -385 0
240 -384 385 0
-240 384 385 0
-240 -384 -385 0
176 233 -386 0
176 -233 386 0
-176 233 386 0
-176 -233 -386 0
251 387 -388 0
251 -387 388 0
-251 387 388 0
-251 -387 -388 0
389 390 -391 0
389 -390 391 0
-389 390 391 0
-389 -390 -391 0
360 392 -393 0
360 -392 393 0
-360 392 393 0
-360 -392 -393 0
39 214 -394 0
39 -214 394 0
-39 214 394 0
-39 -214 -394 0
200 395 -396 0
200 -395 396 0
-200 395 396 0
-200 -395 -396 0
184 349 -397 0
184 -349 397 0
-184 349 397 0
-184 -349 -397 0
238 276 -398 0
238 -276 398 0
-238 276 398 0
-238 -276 -398 0
159 223 -327 0
159 -223 327 0
-159 223 327 0
-159 -223 -327 0
195 252 -399 0
195 -252 399 0
-195 252 399 0
-195 -252 -399 0
116 400 -401 0
116 -400 401 0
-116 400 401 0
-116 -400 -401 0
304 402 -403 0
304 -402 403 0
-304 402 403 0
-304 -402 -403 0
79 394 -404 0
79 -394 404 0
-79 394 404 0
-79 -394 -404 0
199 405 -406 0
199 -405 406 0
-199 405 406 0
-199 -405 -406 0
3 262 -299 0
3 -262 299 0
-3 262 299 0
-3 -262 -299 0
16 70 -407 0
16 -70 407 0
-16 70 407 0
-16 -70 -407 0
59 362 -364 0
59 -362 364 0
-59 362 364 0
-59 -362 -364 0
181 408 -409 0
181 -408 409 0
-181 408 409 0
-181 -408 -409 0
243 283 -410 0
243 -283 410 0
-243 283 410 0
-243 -283 -410 0
17 342 -411 0
17 -342 411 0
-17 342 411 0
-17 -342 -411 0
326 365 -389 0
326 -365 389 0
-326 365 389 0
-326 -365 -389 0
162 412 -413 0
162 -412 413 0
-162 412 413 0
-162 -412 -413 0
414 415 -416 0
414 -415 416 0
-414 415 416 0
-414 -415 -416 0
173 234 -288 0
173 -234 288 0
-173 234 288 0
-173 -234 -288 0
121 296 -417 0
121 -296 417 0
-121 296 417 0
-121 -296 -417 0
31 379 -402 0
31 -379 402 0
-31 379 402 0
-31 -379 -402 0
141 201 -418 0
141 -201 418 0
-141 201 418 0
-141 -201 -418 0
86 246 -419 0
86 -246 419 0
-86 246 419 0
-86 -246 -419 0
143 340 -372 0
143 -340 372 0
-143 340 372 0
-143 -340 -372 0
53 145 -420 0
53 -145 420 0
-53 145 420 0
-53 -145 -420 0
361 419 -421 0
361 -419 421 0
-361 419 421 0
-361 -419 -421 0
235 317 -376 0
235 -317 376 0
-235 317 376 0
-235 -317 -376 0
400 403 -410 0
400 -403 410 0
-400 403 410 0
-400 -403 -410 0
209 297 -411 0
209 -297 411 0
-209 297 411 0
-209 -297 -411 0
18 272 -422 0
18 -272 422 0
-18 272 422 0
-18 -272 -422 0
122 350 -423 0
122 -350 423 0
-122 350 423 0
-122 -350 -423 0
313 398 -424 0
313 -398 424 0
-313 398 424 0
-313 -398 -424 0
113 343 -425 0
113 -343 425 0
-113 343 425 0
-113 -343 -425 0
27 61 -408 0
27 -61 408 0
-27 61 408 0
-27 -61 -408 0
97 210 -382 0
97 -210 382 0
-97 210 382 0
-97 -210 -382 0
311 321 -426 0
311 -321 426 0
-311 321 426 0
-311 -321 -426 0
157 386 -407 0
157 -386 407 0
-157 386 407 0
-157 -386 -407 0
80 300 -412 0
80 -300 412 0
-80 300 412 0
-80 -300 -412 0
20 295 -363 0
20 -295 363 0
-20 295 363 0
-20 -295 -363 0
221 278 -336 0
221 -278 336 0
-221 278 336 0
-221 -278 -336 0
320 344 -427 0
320 -344 427 0
-320 344 427 0
-320 -344 -427 0
244 255 -371 0
244 -255 371 0
-244 255 371 0
-244 -255 -371 0
273 279 -390 0
273 -279 390 0
-273 279 390 0
-273 -279 -390 0
108 307 -428 0
108 -307 428 0
-108 307 428 0
-108 -307 -428 0
150 171 -395 0
150 -171 395 0
-150 171 395 0
-150 -171 -395 0
90 107 -429 0
90 -107 429 0
-90 107 429 0
-90 -107 -429 0
241 248 -330 0
241 -248 330 0
-241 248 330 0
-241 -248 -330 0
204 413 -430 0
204 -413 430 0
-204 413 430 0
-204 -413 -430 0
119 133 -281 0
119 -133 281 0
-119 133 281 0
-119 -133 -281 0
174 282 -431 0
174 -282 431 0
-174 282 431 0
-174 -282 -431 0
185 414 -432 0
185 -414 432 0
-185 414 432 0
-185 -414 -432 0
50 144 -378 0
50 -144 378 0
-50 144 378 0
-50 -144 -378 0
84 245 -380 0
84 -245 380 0
-84 245 380 0
-84 -245 -380 0
92 177 -265 0
92 -177 265 0
-92 177 265 0
-92 -177 -265 0
21 187 -318 0
21 -187 318 0
-21 187 318 0
-21 -187 -318 0
105 423 -433 0
105 -423 433 0
-105 423 433 0
-105 -423 -433 0
71 215 -409 0
71 -215 409 0
-71 215 409 0
-71 -215 -409 0
99 425 -434 0
99 -425 434 0
-99 425 434 0
-99 -425 -434 0
163 312 -353 0
163 -312 353 0
-163 312 353 0
-163 -312 -353 0
15 137 -207 0
15 -137 207 0
-15 137 207 0
-15 -137 -207 0
253 308 -368 0
253 -308 368 0
-253 308 368 0
-253 -308 -368 0
87 218 -324 0
87 -218 324 0
-87 218 324 0
-87 -218 -324 0
47 85 -432 0
47 -85 432 0
-47 85 432 0
-47 -85 -432 0
129 268 -381 0
129 -268 381 0
-129 268 381 0
-129 -268 -381 0
205 260 -322 0
205 -260 322 0
-205 260 322 0
-205 -260 -322 0
172 193 -202 0
172 -193 202 0
-172 193 202 0
-172 -193 -202 0
130 167 -384 0
130 -167 384 0
-130 167 384 0
-130 -167 -384 0
32 138 -169 0
32 -138 169 0
-32 138 169 0
-32 -138 -169 0
68 227 -301 0
68 -227 301 0
-68 227 301 0
-68 -227 -301 0
375 392 -428 0
375 -392 428 0
-375 392 428 0
-375 -392 -428 0
314 435 -436 0
314 -435 436 0
-314 435 436 0
-314 -435 -436 0
224 430 -437 0
224 -430 437 0
-224 430 437 0
-224 -430 -437 0
29 109 -306 0
29 -109 306 0
-29 109 306 0
-29 -109 -306 0
387 438 -439 0
387 -438 439 0
-387 438 439 0
-387 -438 -439 0
293 345 -417 0
293 -345 417 0
-293 345 417 0
-293 -345 -417 0
82 274 -391 0
82 -274 391 0
-82 274 391 0
-82 -274 -391 0
401 405 -440 0
401 -405 440 0
-401 405 440 0
-401 -405 -440 0
93 383 -422 0
93 -383 422 0
-93 383 422 0
-93 -383 -422 0
36 377 -441 0
36 -377 441 0
-36 377 441 0
-36 -377 -441 0
102 149 -194 0
102 -149 194 0
-102 149 194 0
-102 -149 -194 0
33 48 -429 0
33 -48 429 0
-33 48 429 0
-33 -48 -429 0
249 358 -442 0
249 -358 442 0
-249 358 442 0
-249 -358 -442 0
239 287 -369 0
239 -287 369 0
-239 287 369 0
-239 -287 -369 0
354 366 -443 0
354 -366 443 0
-354 366 443 0
-354 -366 -443 0
290 444 -445 0
290 -444 445 0
-290 444 445 0
-290 -444 -445 0
356 427 -433 0
356 -427 433 0
-356 427 433 0
-356 -427 -433 0
120 155 -431 0
120 -155 431 0
-120 155 431 0
-120 -155 -431 0
393 418 -446 0
393 -418 446 0
-393 418 446 0
-393 -418 -446 0
54 341 -447 0
54 -341 447 0
-54 341 447 0
-54 -341 -447 0
206 440 -443 0
206 -440 443 0
-206 440 443 0
-206 -440 -443 0
146 160 -404 0
146 -160 404 0
-146 160 404 0
-146 -160 -404 0
220 399 -424 0
220 -399 424 0
-220 399 424 0
-220 -399 -424 0
30 191 -222 0
30 -191 222 0
-30 191 222 0
-30 -191 -222 0
374 421 -442 0
374 -421 442 0
-374 421 442 0
-374 -421 -442 0
9 151 -346 0
9 -151 346 0
-9 151 346 0
-9 -151 -346 0
94 337 -415 0
94 -337 415 0
-94 337 415 0
-94 -337 -415 0
319 351 -416 0
319 -351 416 0
-319 351 416 0
-319 -351 -416 0
164 263 -359 0
164 -263 359 0
-164 263 359 0
-164 -263 -359 0
165 373 -396 0
165 -373 396 0
-165 373 396 0
-165 -373 -396 0
175 315 -444 0
175 -315 444 0
-175 315 444 0
-175 -315 -444 0
45 242 -448 0
45 -242 448 0
-45 242 448 0
-45 -242 -448 0
110 420 -437 0
110 -420 437 0
-110 420 437 0
-110 -420 -437 0
188 434 -438 0
188 -434 438 0
-188 434 438 0
-188 -434 -438 0
266 435 -446 0
266 -435 446 0
-266 435 446 0
-266 -435 -446 0
385 447 -449 0
385 -447 449 0
-385 447 449 0
-385 -447 -449 0
216 271 -441 0
216 -271 441 0
-216 271 441 0
-216 -271 -441 0
237 397 -445 0
237 -397 445 0
-237 397 445 0
-237 -397 -445 0
406 439 -450 0
406 -439 450 0
-406 439 450 0
-406 -439 -450 0
325 367 -448 0
325 -367 448 0
-325 367 448 0
-325 -367 -448 0
339 370 -426 0
339 -370 426 0
-339 370 426 0
-339 -370 -426 0
182 436 -450 0
182 -436 450 0
-182 436 450 0
-182 -436 -450 0
178 357 -449 0
178 -357 449 0
-178 357 449 0
-178 -357 -449 0
69 247 -388 0
69 -247 388 0
-69 247 388 0
-69 -247 -388 0
152 196 -285 0
152 -196 285 0
-152 196 285 0
-152 -196 -285 0
