c F4 Tseitin on networkx random_regular_graph(3,60,seed=4), connected=True, odd charge on vertex 1
p cnf 90 240
1 2 3 0
1 -2 -3 0
-1 2 -3 0
-1 -2 3 0
4 5 -6 0
4 -5 6 0
-4 5 6 0
-4 -5 -6 0
7 8 -9 0
7 -8 9 0
-7 8 9 0
-7 -8 -9 0
10 11 -12 0
10 -11 12 0
-10 11 12 0
-10 -11 -12 0
1 13 -14 0
1 -13 14 0
-1 13 14 0
-1 -13 -14 0
15 16 -17 0
15 -16 17 0
-15 16 17 0
-15 -16 -17 0
7 18 -19 0
7 -18 19 0
-7 18 19 0
-7 -18 -19 0
20 21 -22 0
20 -21 22 0
-20 21 22 0
-20 -21 -22 0
23 24 -25 0
23 -24 25 0
-23 24 25 0
-23 -24 -25 0
26 27 -28 0
26 -27 28 0
-26 27 28 0
-26 -27 -28 0
29 30 -31 0
29 -30 31 0
-29 30 31 0
-29 -30 -31 0
32 33 -34 0
32 -33 34 0
-32 33 34 0
-32 -33 -34 0
4 35 -36 0
4 -35 36 0
-4 35 36 0
-4 -35 -36 0
37 38 -39 0
37 -38 39 0
-37 38 39 0
-37 -38 -39 0
40 41 -42 0
40 -41 42 0
-40 41 42 0
-40 -41 -42 0
2 43 -44 0
2 -43 44 0
-2 43 44 0
-2 -43 -44 0
40 45 -46 0
40 -45 46 0
-40 45 46 0
-40 -45 -46 0
15 47 -48 0
15 -47 48 0
-15 47 48 0
-15 -47 -48 0
49 50 -51 0
49 -50 51 0
-49 50 51 0
-49 -50 -51 0
32 52 -53 0
32 -52 53 0
-32 52 53 0
-32 -52 -53 0
54 55 -56 0
54 -55 56 0
-54 55 56 0
-54 -55 -56 0
41 45 -57 0
41 -45 57 0
-41 45 57 0
-41 -45 -57 0
10 58 -59 0
10 -58 59 0
-10 58 59 0
-10 -58 -59 0
37 46 -60 0
37 -46 60 0
-37 46 60 0
-37 -46 -60 0
33 54 -61 0
33 -54 61 0
-33 54 61 0
-33 -54 -61 0
47 55 -62 0
47 -55 62 0
-47 55 62 0
-47 -55 -62 0
11 63 -64 0
11 -63 64 0
-11 63 64 0
-11 -63 -64 0
20 35 -65 0
20 -35 65 0
-20 35 65 0
-20 -35 -65 0
29 52 -66 0
29 -52 66 0
-29 52 66 0
-29 -52 -66 0
13 62 -67 0
13 -62 67 0
-13 62 67 0
-13 -62 -67 0
68 69 -70 0
68 -69 70 0
-68 69 70 0
-68 -69 -70 0
43 71 -72 0
43 -71 72 0
-43 71 72 0
-43 -71 -72 0
26 73 -74 0
26 -73 74 0
-26 73 74 0
-26 -73 -74 0
27 68 -75 0
27 -68 75 0
-27 68 75 0
-27 -68 -75 0
38 48 -76 0
38 -48 76 0
-38 48 76 0
-38 -48 -76 0
39 69 -77 0
39 -69 77 0
-39 69 77 0
-39 -69 -77 0
18 56 -78 0
18 -56 78 0
-18 56 78 0
-18 -56 -78 0
5 58 -79 0
5 -58 79 0
-5 58 79 0
-5 -58 -79 0
23 67 -80 0
23 -67 80 0
-23 67 80 0
-23 -67 -80 0
19 81 -82 0
19 -81 82 0
-19 81 82 0
-19 -81 -82 0
12 21 -75 0
12 -21 75 0
-12 21 75 0
-12 -21 -75 0
73 83 -84 0
73 -83 84 0
-73 83 84 0
-73 -83 -84 0
24 63 -85 0
24 -63 85 0
-24 63 85 0
-24 -63 -85 0
16 30 -70 0
16 -30 70 0
-16 30 70 0
-16 -30 -70 0
53 74 -80 0
53 -74 80 0
-53 74 80 0
-53 -74 -80 0
76 79 -86 0
76 -79 86 0
-76 79 86 0
-76 -79 -86 0
31 49 -87 0
31 -49 87 0
-31 49 87 0
-31 -49 -87 0
50 78 -88 0
50 -78 88 0
-50 78 88 0
-50 -78 -88 0
34 89 -90 0
34 -89 90 0
-34 89 90 0
-34 -89 -90 0
17 65 -81 0
17 -65 81 0
-17 65 81 0
-17 -65 -81 0
14 60 -89 0
14 -60 89 0
-14 60 89 0
-14 -60 -89 0
8 36 -88 0
8 -36 88 0
-8 36 88 0
-8 -36 -88 0
66 71 -90 0
66 -71 90 0
-66 71 90 0
-66 -71 -90 0
42 77 -83 0
42 -77 83 0
-42 77 83 0
-42 -77 -83 0
3 59 -86 0
3 -59 86 0
-3 59 86 0
-3 -59 -86 0
6 44 -51 0
6 -44 51 0
-6 44 51 0
-6 -44 -51 0
22 25 -72 0
22 -25 72 0
-22 25 72 0
-22 -25 -72 0
57 61 -85 0
57 -61 85 0
-57 61 85 0
-57 -61 -85 0
28 64 -82 0
28 -64 82 0
-28 64 82 0
-28 -64 -82 0
9 84 -87 0
9 -84 87 0
-9 84 87 0
-9 -84 -87 0
