c F4 Tseitin on networkx random_regular_graph(3,300,seed=2), connected=True, odd charge on vertex 1
p cnf 450 1200
1 2 3 0
1 -2 -3 0
-1 2 -3 0
-1 -2 3 0
4 5 -6 0
4 -5 6 0
-4 5 6 0
-4 -5 -6 0
7 8 -9 0
7 -8 9 0
-7 8 9 0
-7 -8 -9 0
10 11 -12 0
10 -11 12 0
-10 11 12 0
-10 -11 -12 0
13 14 -15 0
13 -14 15 0
-13 14 15 0
-13 -14 -15 0
16 17 -18 0
16 -17 18 0
-16 17 18 0
-16 -17 -18 0
19 20 -21 0
19 -20 21 0
-19 20 21 0
-19 -20 -21 0
22 23 -24 0
22 -23 24 0
-22 23 24 0
-22 -23 -24 0
25 26 -27 0
25 -26 27 0
-25 26 27 0
-25 -26 -27 0
28 29 -30 0
28 -29 30 0
-28 29 30 0
-28 -29 -30 0
31 32 -33 0
31 -32 33 0
-31 32 33 0
-31 -32 -33 0
34 35 -36 0
34 -35 36 0
-34 35 36 0
-34 -35 -36 0
37 38 -39 0
37 -38 39 0
-37 38 39 0
-37 -38 -39 0
40 41 -42 0
40 -41 42 0
-40 41 42 0
-40 -41 -42 0
43 44 -45 0
43 -44 45 0
-43 44 45 0
-43 -44 -45 0
46 47 -48 0
46 -47 48 0
-46 47 48 0
-46 -47 -48 0
31 49 -50 0
31 -49 50 0
-31 49 50 0
-31 -49 -50 0
51 52 -53 0
51 -52 53 0
-51 52 53 0
-51 -52 -53 0
54 55 -56 0
54 -55 56 0
-54 55 56 0
-54 -55 -56 0
57 58 -59 0
57 -58 59 0
-57 58 59 0
-57 -58 -59 0
60 61 -62 0
60 -61 62 0
-60 61 62 0
-60 -61 -62 0
63 64 -65 0
63 -64 65 0
-63 64 65 0
-63 -64 -65 0
66 67 -68 0
66 -67 68 0
-66 67 68 0
-66 -67 -68 0
69 70 -71 0
69 -70 71 0
-69 70 71 0
-69 -70 -71 0
72 73 -74 0
72 -73 74 0
-72 73 74 0
-72 -73 -74 0
75 76 -77 0
75 -76 77 0
-75 76 77 0
-75 -76 -77 0
78 79 -80 0
78 -79 80 0
-78 79 80 0
-78 -79 -80 0
81 82 -83 0
81 -82 83 0
-81 82 83 0
-81 -82 -83 0
84 85 -86 0
84 -85 86 0
-84 85 86 0
-84 -85 -86 0
87 88 -89 0
87 -88 89 0
-87 88 89 0
-87 -88 -89 0
7 90 -91 0
7 -90 91 0
-7 90 91 0
-7 -90 -91 0
92 93 -94 0
92 -93 94 0
-92 93 94 0
-92 -93 -94 0
95 96 -97 0
95 -96 97 0
-95 96 97 0
-95 -96 -97 0
98 99 -100 0
98 -99 100 0
-98 99 100 0
-98 -99 -100 0
87 101 -102 0
87 -101 102 0
-87 101 102 0
-87 -101 -102 0
103 104 -105 0
103 -104 105 0
-103 104 105 0
-103 -104 -105 0
63 106 -107 0
63 -106 107 0
-63 106 107 0
-63 -106 -107 0
13 108 -109 0
13 -108 109 0
-13 108 109 0
-13 -108 -109 0
110 111 -112 0
110 -111 112 0
-110 111 112 0
-110 -111 -112 0
113 114 -115 0
113 -114 115 0
-113 114 115 0
-113 -114 -115 0
43 116 -117 0
43 -116 117 0
-43 116 117 0
-43 -116 -117 0
75 118 -119 0
75 -118 119 0
-75 118 119 0
-75 -118 -119 0
120 121 -122 0
120 -121 122 0
-120 121 122 0
-120 -121 -122 0
123 124 -125 0
123 -124 125 0
-123 124 125 0
-123 -124 -125 0
10 126 -127 0
10 -126 127 0
-10 126 127 0
-10 -126 -127 0
128 129 -130 0
128 -129 130 0
-128 129 130 0
-128 -129 -130 0
131 132 -133 0
131 -132 133 0
-131 132 133 0
-131 -132 -133 0
134 135 -136 0
134 -135 136 0
-134 135 136 0
-134 -135 -136 0
34 103 -137 0
34 -103 137 0
-34 103 137 0
-34 -103 -137 0
76 138 -139 0
76 -138 139 0
-76 138 139 0
-76 -138 -139 0
140 141 -142 0
140 -141 142 0
-140 141 142 0
-140 -141 -142 0
143 144 -145 0
143 -144 145 0
-143 144 145 0
-143 -144 -145 0
84 146 -147 0
84 -146 147 0
-84 146 147 0
-84 -146 -147 0
148 149 -150 0
148 -149 150 0
-148 149 150 0
-148 -149 -150 0
81 151 -152 0
81 -151 152 0
-81 151 152 0
-81 -151 -152 0
123 153 -154 0
123 -153 154 0
-123 153 154 0
-123 -153 -154 0
32 155 -156 0
32 -155 156 0
-32 155 156 0
-32 -155 -156 0
157 158 -159 0
157 -158 159 0
-157 158 159 0
-157 -158 -159 0
22 160 -161 0
22 -160 161 0
-22 160 161 0
-22 -160 -161 0
162 163 -164 0
162 -163 164 0
-162 163 164 0
-162 -163 -164 0
134 165 -166 0
134 -165 166 0
-134 165 166 0
-134 -165 -166 0
167 168 -169 0
167 -168 169 0
-167 168 169 0
-167 -168 -169 0
37 170 -171 0
37 -170 171 0
-37 170 171 0
-37 -170 -171 0
146 172 -173 0
146 -172 173 0
-146 172 173 0
-146 -172 -173 0
120 174 -175 0
120 -174 175 0
-120 174 175 0
-120 -174 -175 0
82 176 -177 0
82 -176 177 0
-82 176 177 0
-82 -176 -177 0
178 179 -180 0
178 -179 180 0
-178 179 180 0
-178 -179 -180 0
28 181 -182 0
28 -181 182 0
-28 181 182 0
-28 -181 -182 0
140 183 -184 0
140 -183 184 0
-140 183 184 0
-140 -183 -184 0
185 186 -187 0
185 -186 187 0
-185 186 187 0
-185 -186 -187 0
170 188 -189 0
170 -188 189 0
-170 188 189 0
-170 -188 -189 0
160 190 -191 0
160 -190 191 0
-160 190 191 0
-160 -190 -191 0
192 193 -194 0
192 -193 194 0
-192 193 194 0
-192 -193 -194 0
88 195 -196 0
88 -195 196 0
-88 195 196 0
-88 -195 -196 0
57 176 -197 0
57 -176 197 0
-57 176 197 0
-57 -176 -197 0
192 198 -199 0
192 -198 199 0
-192 198 199 0
-192 -198 -199 0
69 200 -201 0
69 -200 201 0
-69 200 201 0
-69 -200 -201 0
110 202 -203 0
110 -202 203 0
-110 202 203 0
-110 -202 -203 0
204 205 -206 0
204 -205 206 0
-204 205 206 0
-204 -205 -206 0
207 208 -209 0
207 -208 209 0
-207 208 209 0
-207 -208 -209 0
210 211 -212 0
210 -211 212 0
-210 211 212 0
-210 -211 -212 0
213 214 -215 0
213 -214 215 0
-213 214 215 0
-213 -214 -215 0
64 216 -217 0
64 -216 217 0
-64 216 217 0
-64 -216 -217 0
218 219 -220 0
218 -219 220 0
-218 219 220 0
-218 -219 -220 0
221 222 -223 0
221 -222 223 0
-221 222 223 0
-221 -222 -223 0
54 70 -224 0
54 -70 224 0
-54 70 224 0
-54 -70 -224 0
98 185 -225 0
98 -185 225 0
-98 185 225 0
-98 -185 -225 0
66 226 -227 0
66 -226 227 0
-66 226 227 0
-66 -226 -227 0
183 221 -228 0
183 -221 228 0
-183 221 228 0
-183 -221 -228 0
78 229 -230 0
78 -229 230 0
-78 229 230 0
-78 -229 -230 0
135 231 -232 0
135 -231 232 0
-135 231 232 0
-135 -231 -232 0
128 233 -234 0
128 -233 234 0
-128 233 234 0
-128 -233 -234 0
202 235 -236 0
202 -235 236 0
-202 235 236 0
-202 -235 -236 0
90 157 -237 0
90 -157 237 0
-90 157 237 0
-90 -157 -237 0
4 238 -239 0
4 -238 239 0
-4 238 239 0
-4 -238 -239 0
240 241 -242 0
240 -241 242 0
-240 241 242 0
-240 -241 -242 0
67 243 -244 0
67 -243 244 0
-67 243 244 0
-67 -243 -244 0
245 246 -247 0
245 -246 247 0
-245 246 247 0
-245 -246 -247 0
195 248 -249 0
195 -248 249 0
-195 248 249 0
-195 -248 -249 0
172 250 -251 0
172 -250 251 0
-172 250 251 0
-172 -250 -251 0
40 198 -252 0
40 -198 252 0
-40 198 252 0
-40 -198 -252 0
213 253 -254 0
213 -253 254 0
-213 253 254 0
-213 -253 -254 0
60 148 -190 0
60 -148 190 0
-60 148 190 0
-60 -148 -190 0
149 167 -255 0
149 -167 255 0
-149 167 255 0
-149 -167 -255 0
150 191 -256 0
150 -191 256 0
-150 191 256 0
-150 -191 -256 0
138 257 -258 0
138 -257 258 0
-138 257 258 0
-138 -257 -258 0
259 260 -261 0
259 -260 261 0
-259 260 261 0
-259 -260 -261 0
131 262 -263 0
131 -262 263 0
-131 262 263 0
-131 -262 -263 0
235 264 -265 0
235 -264 265 0
-235 264 265 0
-235 -264 -265 0
266 267 -268 0
266 -267 268 0
-266 267 268 0
-266 -267 -268 0
35 196 -269 0
35 -196 269 0
-35 196 269 0
-35 -196 -269 0
106 270 -271 0
106 -270 271 0
-106 270 271 0
-106 -270 -271 0
1 44 -272 0
1 -44 272 0
-1 44 272 0
-1 -44 -272 0
181 273 -274 0
181 -273 274 0
-181 273 274 0
-181 -273 -274 0
155 275 -276 0
155 -275 276 0
-155 275 276 0
-155 -275 -276 0
33 121 -214 0
33 -121 214 0
-33 121 214 0
-33 -121 -214 0
58 124 -277 0
58 -124 277 0
-58 124 277 0
-58 -124 -277 0
118 186 -229 0
118 -186 229 0
-118 186 229 0
-118 -186 -229 0
237 278 -279 0
237 -278 279 0
-237 278 279 0
-237 -278 -279 0
104 280 -281 0
104 -280 281 0
-104 280 281 0
-104 -280 -281 0
153 282 -283 0
153 -282 283 0
-153 282 283 0
-153 -282 -283 0
171 280 -284 0
171 -280 284 0
-171 280 284 0
-171 -280 -284 0
45 79 -252 0
45 -79 252 0
-45 79 252 0
-45 -79 -252 0
285 286 -287 0
285 -286 287 0
-285 286 287 0
-285 -286 -287 0
288 289 -290 0
288 -289 290 0
-288 289 290 0
-288 -289 -290 0
259 291 -292 0
259 -291 292 0
-259 291 292 0
-259 -291 -292 0
156 293 -294 0
156 -293 294 0
-156 293 294 0
-156 -293 -294 0
222 295 -296 0
222 -295 296 0
-222 295 296 0
-222 -295 -296 0
255 297 -298 0
255 -297 298 0
-255 297 298 0
-255 -297 -298 0
173 204 -299 0
173 -204 299 0
-173 204 299 0
-173 -204 -299 0
285 300 -301 0
285 -300 301 0
-285 300 301 0
-285 -300 -301 0
111 210 -302 0
111 -210 302 0
-111 210 302 0
-111 -210 -302 0
162 303 -304 0
162 -303 304 0
-162 303 304 0
-162 -303 -304 0
233 305 -306 0
233 -305 306 0
-233 305 306 0
-233 -305 -306 0
95 101 -307 0
95 -101 307 0
-95 101 307 0
-95 -101 -307 0
116 308 -309 0
116 -308 309 0
-116 308 309 0
-116 -308 -309 0
281 310 -311 0
281 -310 311 0
-281 310 311 0
-281 -310 -311 0
312 313 -314 0
312 -313 314 0
-312 313 314 0
-312 -313 -314 0
253 257 -315 0
253 -257 315 0
-253 257 315 0
-253 -257 -315 0
300 316 -317 0
300 -316 317 0
-300 316 317 0
-300 -316 -317 0
318 319 -320 0
318 -319 320 0
-318 319 320 0
-318 -319 -320 0
321 322 -323 0
321 -322 323 0
-321 322 323 0
-321 -322 -323 0
163 324 -325 0
163 -324 325 0
-163 324 325 0
-163 -324 -325 0
326 327 -328 0
326 -327 328 0
-326 327 328 0
-326 -327 -328 0
174 218 -329 0
174 -218 329 0
-174 218 329 0
-174 -218 -329 0
256 330 -331 0
256 -330 331 0
-256 330 331 0
-256 -330 -331 0
99 332 -333 0
99 -332 333 0
-99 332 333 0
-99 -332 -333 0
8 334 -335 0
8 -334 335 0
-8 334 335 0
-8 -334 -335 0
330 336 -337 0
330 -336 337 0
-330 336 337 0
-330 -336 -337 0
338 339 -340 0
338 -339 340 0
-338 339 340 0
-338 -339 -340 0
282 293 -341 0
282 -293 341 0
-282 293 341 0
-282 -293 -341 0
5 91 -342 0
5 -91 342 0
-5 91 342 0
-5 -91 -342 0
151 343 -344 0
151 -343 344 0
-151 343 344 0
-151 -343 -344 0
200 240 -345 0
200 -240 345 0
-200 240 345 0
-200 -240 -345 0
346 347 -348 0
346 -347 348 0
-346 347 348 0
-346 -347 -348 0
283 349 -350 0
283 -349 350 0
-283 349 350 0
-283 -349 -350 0
303 351 -352 0
303 -351 352 0
-303 351 352 0
-303 -351 -352 0
266 272 -353 0
266 -272 353 0
-266 272 353 0
-266 -272 -353 0
55 310 -354 0
55 -310 354 0
-55 310 354 0
-55 -310 -354 0
158 341 -355 0
158 -341 355 0
-158 341 355 0
-158 -341 -355 0
29 326 -356 0
29 -326 356 0
-29 326 356 0
-29 -326 -356 0
226 357 -358 0
226 -357 358 0
-226 357 358 0
-226 -357 -358 0
49 264 -321 0
49 -264 321 0
-49 264 321 0
-49 -264 -321 0
25 89 -267 0
25 -89 267 0
-25 89 267 0
-25 -89 -267 0
248 273 -359 0
248 -273 359 0
-248 273 359 0
-248 -273 -359 0
360 361 -362 0
360 -361 362 0
-360 361 362 0
-360 -361 -362 0
38 363 -364 0
38 -363 364 0
-38 363 364 0
-38 -363 -364 0
56 215 -322 0
56 -215 322 0
-56 215 322 0
-56 -215 -322 0
178 365 -366 0
178 -365 366 0
-178 365 366 0
-178 -365 -366 0
367 368 -369 0
367 -368 369 0
-367 368 369 0
-367 -368 -369 0
277 304 -370 0
277 -304 370 0
-277 304 370 0
-277 -304 -370 0
278 288 -371 0
278 -288 371 0
-278 288 371 0
-278 -288 -371 0
188 268 -372 0
188 -268 372 0
-188 268 372 0
-188 -268 -372 0
334 373 -374 0
334 -373 374 0
-334 373 374 0
-334 -373 -374 0
9 375 -376 0
9 -375 376 0
-9 375 376 0
-9 -375 -376 0
335 377 -378 0
335 -377 378 0
-335 377 378 0
-335 -377 -378 0
126 193 -379 0
126 -193 379 0
-126 193 379 0
-126 -193 -379 0
113 316 -336 0
113 -316 336 0
-113 316 336 0
-113 -316 -336 0
23 30 -380 0
23 -30 380 0
-23 30 380 0
-23 -30 -380 0
46 302 -381 0
46 -302 381 0
-46 302 381 0
-46 -302 -381 0
96 205 -230 0
96 -205 230 0
-96 205 230 0
-96 -205 -230 0
297 382 -383 0
297 -382 383 0
-297 382 383 0
-297 -382 -383 0
165 324 -346 0
165 -324 346 0
-165 324 346 0
-165 -324 -346 0
68 338 -380 0
68 -338 380 0
-68 338 380 0
-68 -338 -380 0
270 353 -384 0
270 -353 384 0
-270 353 384 0
-270 -353 -384 0
72 243 -385 0
72 -243 385 0
-72 243 385 0
-72 -243 -385 0
271 351 -386 0
271 -351 386 0
-271 351 386 0
-271 -351 -386 0
2 147 -387 0
2 -147 387 0
-2 147 387 0
-2 -147 -387 0
3 356 -388 0
3 -356 388 0
-3 356 388 0
-3 -356 -388 0
152 154 -241 0
152 -154 241 0
-152 154 241 0
-152 -154 -241 0
389 390 -391 0
389 -390 391 0
-389 390 391 0
-389 -390 -391 0
14 238 -392 0
14 -238 392 0
-14 238 392 0
-14 -238 -392 0
15 323 -384 0
15 -323 384 0
-15 323 384 0
-15 -323 -384 0
393 394 -395 0
393 -394 395 0
-393 394 395 0
-393 -394 -395 0
119 159 -396 0
119 -159 396 0
-119 159 396 0
-119 -159 -396 0
26 397 -398 0
26 -397 398 0
-26 397 398 0
-26 -397 -398 0
244 279 -399 0
244 -279 399 0
-244 279 399 0
-244 -279 -399 0
375 388 -400 0
375 -388 400 0
-375 388 400 0
-375 -388 -400 0
41 197 -393 0
41 -197 393 0
-41 197 393 0
-41 -197 -393 0
143 401 -402 0
143 -401 402 0
-143 401 402 0
-143 -401 -402 0
16 294 -403 0
16 -294 403 0
-16 294 403 0
-16 -294 -403 0
312 325 -404 0
312 -325 404 0
-312 325 404 0
-312 -325 -404 0
231 286 -405 0
231 -286 405 0
-231 286 405 0
-231 -286 -405 0
42 225 -406 0
42 -225 406 0
-42 225 406 0
-42 -225 -406 0
377 394 -407 0
377 -394 407 0
-377 394 407 0
-377 -394 -407 0
219 260 -408 0
219 -260 408 0
-219 260 408 0
-219 -260 -408 0
51 144 -409 0
51 -144 409 0
-51 144 409 0
-51 -144 -409 0
97 318 -410 0
97 -318 410 0
-97 318 410 0
-97 -318 -410 0
24 406 -411 0
24 -406 411 0
-24 406 411 0
-24 -406 -411 0
139 387 -412 0
139 -387 412 0
-139 387 412 0
-139 -387 -412 0
11 295 -413 0
11 -295 413 0
-11 295 413 0
-11 -295 -413 0
132 168 -269 0
132 -168 269 0
-132 168 269 0
-132 -168 -269 0
337 413 -414 0
337 -413 414 0
-337 413 414 0
-337 -413 -414 0
127 179 -236 0
127 -179 236 0
-127 179 236 0
-127 -179 -236 0
415 416 -417 0
415 -416 417 0
-415 416 417 0
-415 -416 -417 0
289 399 -418 0
289 -399 418 0
-289 399 418 0
-289 -399 -418 0
287 415 -419 0
287 -415 419 0
-287 415 419 0
-287 -415 -419 0
61 105 -420 0
61 -105 420 0
-61 105 420 0
-61 -105 -420 0
117 245 -421 0
117 -245 421 0
-117 245 421 0
-117 -245 -421 0
182 246 -422 0
182 -246 422 0
-182 246 422 0
-182 -246 -422 0
47 347 -423 0
47 -347 423 0
-47 347 423 0
-47 -347 -423 0
129 211 -424 0
129 -211 424 0
-129 211 424 0
-129 -211 -424 0
262 319 -425 0
262 -319 425 0
-262 319 425 0
-262 -319 -425 0
102 308 -426 0
102 -308 426 0
-102 308 426 0
-102 -308 -426 0
403 405 -421 0
403 -405 421 0
-403 405 421 0
-403 -405 -421 0
274 360 -427 0
274 -360 427 0
-274 360 427 0
-274 -360 -427 0
19 184 -329 0
19 -184 329 0
-19 184 329 0
-19 -184 -329 0
332 428 -429 0
332 -428 429 0
-332 428 429 0
-332 -428 -429 0
85 100 -345 0
85 -100 345 0
-85 100 345 0
-85 -100 -345 0
258 315 -422 0
258 -315 422 0
-258 315 422 0
-258 -315 -422 0
242 376 -430 0
242 -376 430 0
-242 376 430 0
-242 -376 -430 0
145 284 -357 0
145 -284 357 0
-145 284 357 0
-145 -284 -357 0
249 363 -372 0
249 -363 372 0
-249 363 372 0
-249 -363 -372 0
203 359 -410 0
203 -359 410 0
-203 359 410 0
-203 -359 -410 0
370 431 -432 0
370 -431 432 0
-370 431 432 0
-370 -431 -432 0
6 265 -311 0
6 -265 311 0
-6 265 311 0
-6 -265 -311 0
73 261 -385 0
73 -261 385 0
-73 261 385 0
-73 -261 -385 0
92 141 -343 0
92 -141 343 0
-92 141 343 0
-92 -141 -343 0
298 305 -433 0
298 -305 433 0
-298 305 433 0
-298 -305 -433 0
407 423 -434 0
407 -423 434 0
-407 423 434 0
-407 -423 -434 0
333 365 -414 0
333 -365 414 0
-333 365 414 0
-333 -365 -414 0
207 382 -428 0
207 -382 428 0
-207 382 428 0
-207 -382 -428 0
361 392 -435 0
361 -392 435 0
-361 392 435 0
-361 -392 -435 0
187 194 -436 0
187 -194 436 0
-187 194 436 0
-187 -194 -436 0
122 420 -437 0
122 -420 437 0
-122 420 437 0
-122 -420 -437 0
107 114 -438 0
107 -114 438 0
-107 114 438 0
-107 -114 -438 0
36 254 -426 0
36 -254 426 0
-36 254 426 0
-36 -254 -426 0
83 379 -439 0
83 -379 439 0
-83 379 439 0
-83 -379 -439 0
52 239 -440 0
52 -239 440 0
-52 239 440 0
-52 -239 -440 0
275 309 -425 0
275 -309 425 0
-275 309 425 0
-275 -309 -425 0
418 441 -442 0
418 -441 442 0
-418 441 442 0
-418 -441 -442 0
108 291 -443 0
108 -291 443 0
-108 291 443 0
-108 -291 -443 0
206 429 -433 0
206 -429 433 0
-206 429 433 0
-206 -429 -433 0
175 250 -349 0
175 -250 349 0
-175 250 349 0
-175 -250 -349 0
125 223 -444 0
125 -223 444 0
-125 223 444 0
-125 -223 -444 0
373 411 -436 0
373 -411 436 0
-373 411 436 0
-373 -411 -436 0
93 216 -397 0
93 -216 397 0
-93 216 397 0
-93 -216 -397 0
48 350 -427 0
48 -350 427 0
-48 350 427 0
-48 -350 -427 0
65 232 -251 0
65 -232 251 0
-65 232 251 0
-65 -232 -251 0
53 342 -389 0
53 -342 389 0
-53 342 389 0
-53 -342 -389 0
71 290 -435 0
71 -290 435 0
-71 290 435 0
-71 -290 -435 0
169 301 -367 0
169 -301 367 0
-169 301 367 0
-169 -301 -367 0
77 339 -445 0
77 -339 445 0
-77 339 445 0
-77 -339 -445 0
352 424 -444 0
352 -424 444 0
-352 424 444 0
-352 -424 -444 0
59 374 -390 0
59 -374 390 0
-59 374 390 0
-59 -374 -390 0
142 383 -446 0
142 -383 446 0
-142 383 446 0
-142 -383 -446 0
208 416 -437 0
208 -416 437 0
-208 416 437 0
-208 -416 -437 0
80 348 -447 0
80 -348 447 0
-80 348 447 0
-80 -348 -447 0
94 227 -446 0
94 -227 446 0
-94 227 446 0
-94 -227 -446 0
74 234 -448 0
74 -234 448 0
-74 234 448 0
-74 -234 -448 0
133 199 -327 0
133 -199 327 0
-133 199 327 0
-133 -199 -327 0
201 328 -434 0
201 -328 434 0
-201 328 434 0
-201 -328 -434 0
320 386 -441 0
320 -386 441 0
-320 386 441 0
-320 -386 -441 0
20 366 -449 0
20 -366 449 0
-20 366 449 0
-20 -366 -449 0
224 354 -417 0
224 -354 417 0
-224 354 417 0
-224 -354 -417 0
228 398 -430 0
228 -398 430 0
-228 398 430 0
-228 -398 -430 0
136 408 -431 0
136 -408 431 0
-136 408 431 0
-136 -408 -431 0
115 292 -307 0
115 -292 307 0
-115 292 307 0
-115 -292 -307 0
12 209 -400 0
12 -209 400 0
-12 209 400 0
-12 -209 -400 0
17 306 -401 0
17 -306 401 0
-17 306 401 0
-17 -306 -401 0
368 378 -449 0
368 -378 449 0
-368 378 449 0
-368 -378 -449 0
164 313 -317 0
164 -313 317 0
-164 313 317 0
-164 -313 -317 0
86 180 -450 0
86 -180 450 0
-86 180 450 0
-86 -180 -450 0
419 448 -450 0
419 -448 450 0
-419 448 450 0
-419 -448 -450 0
364 445 -447 0
364 -445 447 0
-364 445 447 0
-364 -445 -447 0
299 331 -404 0
299 -331 404 0
-299 331 404 0
-299 -331 -404 0
109 263 -371 0
109 -263 371 0
-109 263 371 0
-109 -263 -371 0
355 432 -440 0
355 -432 440 0
-355 432 440 0
-355 -432 -440 0
166 220 -402 0
166 -220 402 0
-166 220 402 0
-166 -220 -402 0
161 189 -344 0
161 -189 344 0
-161 189 344 0
-161 -189 -344 0
21 62 -177 0
21 -62 177 0
-21 62 177 0
-21 -62 -177 0
18 112 -296 0
18 -112 296 0
-18 112 296 0
-18 -112 -296 0
130 358 -396 0
130 -358 396 0
-130 358 396 0
-130 -358 -396 0
276 340 -442 0
276 -340 442 0
-276 340 442 0
-276 -340 -442 0
27 50 -439 0
27 -50 439 0
-27 50 439 0
-27 -50 -439 0
137 247 -314 0
137 -247 314 0
-137 247 314 0
-137 -247 -314 0
217 381 -443 0
217 -381 443 0
-217 381 443 0
-217 -381 -443 0
369 395 -412 0
369 -395 412 0
-369 395 412 0
-369 -395 -412 0
39 391 -438 0
39 -391 438 0
-39 391 438 0
-39 -391 -438 0
212 362 -409 0
212 -362 409 0
-212 362 409 0
-212 -362 -409 0
