c F4 Tseitin on networkx random_regular_graph(3,150,seed=6), connected=True, odd charge on vertex 1
p cnf 225 600
1 2 3 0
1 -2 -3 0
-1 2 -3 0
-1 -2 3 0
4 5 -6 0
4 -5 6 0
-4 5 6 0
-4 -5 -6 0
7 8 -9 0
7 -8 9 0
-7 8 9 0
-7 -8 -9 0
10 11 -12 0
10 -11 12 0
-10 11 12 0
-10 -11 -12 0
13 14 -15 0
13 -14 15 0
-13 14 15 0
-13 -14 -15 0
16 17 -18 0
16 -17 18 0
-16 17 18 0
-16 -17 -18 0
19 20 -21 0
19 -20 21 0
-19 20 21 0
-19 -20 -21 0
22 23 -24 0
22 -23 24 0
-22 23 24 0
-22 -23 -24 0
25 26 -27 0
25 -26 27 0
-25 26 27 0
-25 -26 -27 0
28 29 -30 0
28 -29 30 0
-28 29 30 0
-28 -29 -30 0
31 32 -33 0
31 -32 33 0
-31 32 33 0
-31 -32 -33 0
34 35 -36 0
34 -35 36 0
-34 35 36 0
-34 -35 -36 0
37 38 -39 0
37 -38 39 0
-37 38 39 0
-37 -38 -39 0
40 41 -42 0
40 -41 42 0
-40 41 42 0
-40 -41 -42 0
43 44 -45 0
43 -44 45 0
-43 44 45 0
-43 -44 -45 0
46 47 -48 0
46 -47 48 0
-46 47 48 0
-46 -47 -48 0
49 50 -51 0
49 -50 51 0
-49 50 51 0
-49 -50 -51 0
49 52 -53 0
49 -52 53 0
-49 52 53 0
-49 -52 -53 0
54 55 -56 0
54 -55 56 0
-54 55 56 0
-54 -55 -56 0
57 58 -59 0
57 -58 59 0
-57 58 59 0
-57 -58 -59 0
60 61 -62 0
60 -61 62 0
-60 61 62 0
-60 -61 -62 0
54 63 -64 0
54 -63 64 0
-54 63 64 0
-54 -63 -64 0
65 66 -67 0
65 -66 67 0
-65 66 67 0
-65 -66 -67 0
4 37 -68 0
4 -37 68 0
-4 37 68 0
-4 -37 -68 0
43 69 -70 0
43 -69 70 0
-43 69 70 0
-43 -69 -70 0
40 71 -72 0
40 -71 72 0
-40 71 72 0
-40 -71 -72 0
28 50 -60 0
28 -50 60 0
-28 50 60 0
-28 -50 -60 0
16 73 -74 0
16 -73 74 0
-16 73 74 0
-16 -73 -74 0
75 76 -77 0
75 -76 77 0
-75 76 77 0
-75 -76 -77 0
19 78 -79 0
19 -78 79 0
-19 78 79 0
-19 -78 -79 0
57 80 -81 0
57 -80 81 0
-57 80 81 0
-57 -80 -81 0
46 61 -82 0
46 -61 82 0
-46 61 82 0
-46 -61 -82 0
17 22 -83 0
17 -22 83 0
-17 22 83 0
-17 -22 -83 0
23 84 -85 0
23 -84 85 0
-23 84 85 0
-23 -84 -85 0
86 87 -88 0
86 -87 88 0
-86 87 88 0
-86 -87 -88 0
89 90 -91 0
89 -90 91 0
-89 90 91 0
-89 -90 -91 0
31 92 -93 0
31 -92 93 0
-31 92 93 0
-31 -92 -93 0
69 94 -95 0
69 -94 95 0
-69 94 95 0
-69 -94 -95 0
10 96 -97 0
10 -96 97 0
-10 96 97 0
-10 -96 -97 0
1 98 -99 0
1 -98 99 0
-1 98 99 0
-1 -98 -99 0
100 101 -102 0
100 -101 102 0
-100 101 102 0
-100 -101 -102 0
103 104 -105 0
103 -104 105 0
-103 104 105 0
-103 -104 -105 0
44 106 -107 0
44 -106 107 0
-44 106 107 0
-44 -106 -107 0
108 109 -110 0
108 -109 110 0
-108 109 110 0
-108 -109 -110 0
84 111 -112 0
84 -111 112 0
-84 111 112 0
-84 -111 -112 0
11 89 -113 0
11 -89 113 0
-11 89 113 0
-11 -89 -113 0
80 114 -115 0
80 -114 115 0
-80 114 115 0
-80 -114 -115 0
63 116 -117 0
63 -116 117 0
-63 116 117 0
-63 -116 -117 0
118 119 -120 0
118 -119 120 0
-118 119 120 0
-118 -119 -120 0
121 122 -123 0
121 -122 123 0
-121 122 123 0
-121 -122 -123 0
124 125 -126 0
124 -125 126 0
-124 125 126 0
-124 -125 -126 0
38 86 -127 0
38 -86 127 0
-38 86 127 0
-38 -86 -127 0
65 128 -129 0
65 -128 129 0
-65 128 129 0
-65 -128 -129 0
66 92 -130 0
66 -92 130 0
-66 92 130 0
-66 -92 -130 0
131 132 -133 0
131 -132 133 0
-131 132 133 0
-131 -132 -133 0
7 58 -134 0
7 -58 134 0
-7 58 134 0
-7 -58 -134 0
135 136 -137 0
135 -136 137 0
-135 136 137 0
-135 -136 -137 0
98 135 -138 0
98 -135 138 0
-98 135 138 0
-98 -135 -138 0
131 139 -140 0
131 -139 140 0
-131 139 140 0
-131 -139 -140 0
90 141 -142 0
90 -141 142 0
-90 141 142 0
-90 -141 -142 0
99 143 -144 0
99 -143 144 0
-99 143 144 0
-99 -143 -144 0
145 146 -147 0
145 -146 147 0
-145 146 147 0
-145 -146 -147 0
13 32 -45 0
13 -32 45 0
-13 32 45 0
-13 -32 -45 0
64 148 -149 0
64 -148 149 0
-64 148 149 0
-64 -148 -149 0
52 150 -151 0
52 -150 151 0
-52 150 151 0
-52 -150 -151 0
82 85 -152 0
82 -85 152 0
-82 85 152 0
-82 -85 -152 0
14 153 -154 0
14 -153 154 0
-14 153 154 0
-14 -153 -154 0
113 155 -156 0
113 -155 156 0
-113 155 156 0
-113 -155 -156 0
33 71 -157 0
33 -71 157 0
-33 71 157 0
-33 -71 -157 0
94 143 -158 0
94 -143 158 0
-94 143 158 0
-94 -143 -158 0
18 25 -132 0
18 -25 132 0
-18 25 132 0
-18 -25 -132 0
100 155 -159 0
100 -155 159 0
-100 155 159 0
-100 -155 -159 0
103 160 -161 0
103 -160 161 0
-103 160 161 0
-103 -160 -161 0
162 163 -164 0
162 -163 164 0
-162 163 164 0
-162 -163 -164 0
2 70 -124 0
2 -70 124 0
-2 70 124 0
-2 -70 -124 0
75 165 -166 0
75 -165 166 0
-75 165 166 0
-75 -165 -166 0
104 127 -134 0
104 -127 134 0
-104 127 134 0
-104 -127 -134 0
111 159 -167 0
111 -159 167 0
-111 159 167 0
-111 -159 -167 0
76 165 -168 0
76 -165 168 0
-76 165 168 0
-76 -165 -168 0
169 170 -171 0
169 -170 171 0
-169 170 171 0
-169 -170 -171 0
78 172 -173 0
78 -172 173 0
-78 172 173 0
-78 -172 -173 0
55 169 -174 0
55 -169 174 0
-55 169 174 0
-55 -169 -174 0
41 153 -175 0
41 -153 175 0
-41 153 175 0
-41 -153 -175 0
95 176 -177 0
95 -176 177 0
-95 176 177 0
-95 -176 -177 0
178 179 -180 0
178 -179 180 0
-178 179 180 0
-178 -179 -180 0
87 93 -106 0
87 -93 106 0
-87 93 106 0
-87 -93 -106 0
26 150 -181 0
26 -150 181 0
-26 150 181 0
-26 -150 -181 0
59 62 -182 0
59 -62 182 0
-59 62 182 0
-59 -62 -182 0
29 183 -184 0
29 -183 184 0
-29 183 184 0
-29 -183 -184 0
47 185 -186 0
47 -185 186 0
-47 185 186 0
-47 -185 -186 0
107 183 -187 0
107 -183 187 0
-107 183 187 0
-107 -183 -187 0
77 166 -188 0
77 -166 188 0
-77 166 188 0
-77 -166 -188 0
145 189 -190 0
145 -189 190 0
-145 189 190 0
-145 -189 -190 0
48 148 -160 0
48 -148 160 0
-48 148 160 0
-48 -148 -160 0
42 73 -178 0
42 -73 178 0
-42 73 178 0
-42 -73 -178 0
83 191 -192 0
83 -191 192 0
-83 191 192 0
-83 -191 -192 0
20 168 -189 0
20 -168 189 0
-20 168 189 0
-20 -168 -189 0
139 193 -194 0
139 -193 194 0
-139 193 194 0
-139 -193 -194 0
112 118 -187 0
112 -118 187 0
-112 118 187 0
-112 -118 -187 0
88 190 -195 0
88 -190 195 0
-88 190 195 0
-88 -190 -195 0
181 196 -197 0
181 -196 197 0
-181 196 197 0
-181 -196 -197 0
72 162 -191 0
72 -162 191 0
-72 162 191 0
-72 -162 -191 0
91 163 -198 0
91 -163 198 0
-91 163 198 0
-91 -163 -198 0
149 158 -164 0
149 -158 164 0
-149 158 164 0
-149 -158 -164 0
108 114 -199 0
108 -114 199 0
-108 114 199 0
-108 -114 -199 0
101 200 -201 0
101 -200 201 0
-101 200 201 0
-101 -200 -201 0
15 202 -203 0
15 -202 203 0
-15 202 203 0
-15 -202 -203 0
138 204 -205 0
138 -204 205 0
-138 204 205 0
-138 -204 -205 0
8 179 -206 0
8 -179 206 0
-8 179 206 0
-8 -179 -206 0
141 184 -202 0
141 -184 202 0
-141 184 202 0
-141 -184 -202 0
154 196 -207 0
154 -196 207 0
-154 196 207 0
-154 -196 -207 0
34 208 -209 0
34 -208 209 0
-34 208 209 0
-34 -208 -209 0
140 161 -197 0
140 -161 197 0
-140 161 197 0
-140 -161 -197 0
35 192 -195 0
35 -192 195 0
-35 192 195 0
-35 -192 -195 0
157 180 -193 0
157 -180 193 0
-157 180 193 0
-157 -180 -193 0
115 185 -210 0
115 -185 210 0
-115 185 210 0
-115 -185 -210 0
136 172 -211 0
136 -172 211 0
-136 172 211 0
-136 -172 -211 0
204 212 -213 0
204 -212 213 0
-204 212 213 0
-204 -212 -213 0
116 200 -214 0
116 -200 214 0
-116 200 214 0
-116 -200 -214 0
39 125 -137 0
39 -125 137 0
-39 125 137 0
-39 -125 -137 0
105 109 -215 0
105 -109 215 0
-105 109 215 0
-105 -109 -215 0
207 212 -216 0
207 -212 216 0
-207 212 216 0
-207 -212 -216 0
102 217 -218 0
102 -217 218 0
-102 217 218 0
-102 -217 -218 0
53 175 -199 0
53 -175 199 0
-53 175 199 0
-53 -175 -199 0
119 133 -219 0
119 -133 219 0
-119 133 219 0
-119 -133 -219 0
146 201 -220 0
146 -201 220 0
-146 201 220 0
-146 -201 -220 0
51 121 -221 0
51 -121 221 0
-51 121 221 0
-51 -121 -221 0
142 205 -210 0
142 -205 210 0
-142 205 210 0
-142 -205 -210 0
167 211 -213 0
167 -211 213 0
-167 211 213 0
-167 -211 -213 0
3 128 -151 0
3 -128 151 0
-3 128 151 0
-3 -128 -151 0
12 126 -144 0
12 -126 144 0
-12 126 144 0
-12 -126 -144 0
24 129 -219 0
24 -129 219 0
-24 129 219 0
-24 -129 -219 0
130 194 -208 0
130 -194 208 0
-130 194 208 0
-130 -194 -208 0
56 217 -222 0
56 -217 222 0
-56 217 222 0
-56 -217 -222 0
21 206 -218 0
21 -206 218 0
-21 206 218 0
-21 -206 -218 0
5 110 -221 0
5 -110 221 0
-5 110 221 0
-5 -110 -221 0
120 174 -223 0
120 -174 223 0
-120 174 223 0
-120 -174 -223 0
30 170 -214 0
30 -170 214 0
-30 170 214 0
-30 -170 -214 0
74 156 -222 0
74 -156 222 0
-74 156 222 0
-74 -156 -222 0
9 36 -209 0
9 -36 209 0
-9 36 209 0
-9 -36 -209 0
96 188 -216 0
96 -188 216 0
-96 188 216 0
-96 -188 -216 0
79 173 -215 0
79 -173 215 0
-79 173 215 0
-79 -173 -215 0
176 198 -224 0
176 -198 224 0
-176 198 224 0
-176 -198 -224 0
97 186 -203 0
97 -186 203 0
-97 186 203 0
-97 -186 -203 0
81 147 -220 0
81 -147 220 0
-81 147 220 0
-81 -147 -220 0
6 152 -182 0
6 -152 182 0
-6 152 182 0
-6 -152 -182 0
27 224 -225 0
27 -224 225 0
-27 224 225 0
-27 -224 -225 0
67 68 -223 0
67 -68 223 0
-67 68 223 0
-67 -68 -223 0
122 171 -225 0
122 -171 225 0
-122 171 225 0
-122 -171 -225 0
117 123 -177 0
117 -123 177 0
-117 123 177 0
-117 -123 -177 0
