c F4 Tseitin on networkx random_regular_graph(3,20,seed=6), connected=True, odd charge on vertex 1
p cnf 30 80
1 2 3 0
1 -2 -3 0
-1 2 -3 0
-1 -2 3 0
1 4 -5 0
1 -4 5 0
-1 4 5 0
-1 -4 -5 0
6 7 -8 0
6 -7 8 0
-6 7 8 0
-6 -7 -8 0
6 9 -10 0
6 -9 10 0
-6 9 10 0
-6 -9 -10 0
11 12 -13 0
11 -12 13 0
-11 12 13 0
-11 -12 -13 0
14 15 -16 0
14 -15 16 0
-14 15 16 0
-14 -15 -16 0
4 17 -18 0
4 -17 18 0
-4 17 18 0
-4 -17 -18 0
19 20 -21 0
19 -20 21 0
-19 20 21 0
-19 -20 -21 0
22 23 -24 0
22 -23 24 0
-22 23 24 0
-22 -23 -24 0
2 11 -19 0
2 -11 19 0
-2 11 19 0
-2 -11 -19 0
9 12 -25 0
9 -12 25 0
-9 12 25 0
-9 -12 -25 0
14 22 -26 0
14 -22 26 0
-14 22 26 0
-14 -22 -26 0
15 17 -27 0
15 -17 27 0
-15 17 27 0
-15 -17 -27 0
10 23 -28 0
10 -23 28 0
-10 23 28 0
-10 -23 -28 0
16 24 -29 0
16 -24 29 0
-16 24 29 0
-16 -24 -29 0
26 28 -30 0
26 -28 30 0
-26 28 30 0
-26 -28 -30 0
7 20 -25 0
7 -20 25 0
-7 20 25 0
-7 -20 -25 0
5 8 -30 0
5 -8 30 0
-5 8 30 0
-5 -8 -30 0
13 21 -27 0
13 -21 27 0
-13 21 27 0
-13 -21 -27 0
3 18 -29 0
3 -18 29 0
-3 18 29 0
-3 -18 -29 0
