c F4 Tseitin on networkx random_regular_graph(3,300,seed=3), connected=True, odd charge on vertex 1
p cnf 450 1200
1 2 3 0
1 -2 -3 0
-1 2 -3 0
-1 -2 3 0
4 5 -6 0
4 -5 6 0
-4 5 6 0
-4 -5 -6 0
7 8 -9 0
7 -8 9 0
-7 8 9 0
-7 -8 -9 0
10 11 -12 0
10 -11 12 0
-10 11 12 0
-10 -11 -12 0
13 14 -15 0
13 -14 15 0
-13 14 15 0
-13 -14 -15 0
16 17 -18 0
16 -17 18 0
-16 17 18 0
-16 -17 -18 0
19 20 -21 0
19 -20 21 0
-19 20 21 0
-19 -20 -21 0
22 23 -24 0
22 -23 24 0
-22 23 24 0
-22 -23 -24 0
25 26 -27 0
25 -26 27 0
-25 26 27 0
-25 -26 -27 0
28 29 -30 0
28 -29 30 0
-28 29 30 0
-28 -29 -30 0
31 32 -33 0
31 -32 33 0
-31 32 33 0
-31 -32 -33 0
34 35 -36 0
34 -35 36 0
-34 35 36 0
-34 -35 -36 0
37 38 -39 0
37 -38 39 0
-37 38 39 0
-37 -38 -39 0
40 41 -42 0
40 -41 42 0
-40 41 42 0
-40 -41 -42 0
43 44 -45 0
43 -44 45 0
-43 44 45 0
-43 -44 -45 0
37 46 -47 0
37 -46 47 0
-37 46 47 0
-37 -46 -47 0
48 49 -50 0
48 -49 50 0
-48 49 50 0
-48 -49 -50 0
51 52 -53 0
51 -52 53 0
-51 52 53 0
-51 -52 -53 0
54 55 -56 0
54 -55 56 0
-54 55 56 0
-54 -55 -56 0
57 58 -59 0
57 -58 59 0
-57 58 59 0
-57 -58 -59 0
1 40 -60 0
1 -40 60 0
-1 40 60 0
-1 -40 -60 0
61 62 -63 0
61 -62 63 0
-61 62 63 0
-61 -62 -63 0
64 65 -66 0
64 -65 66 0
-64 65 66 0
-64 -65 -66 0
67 68 -69 0
67 -68 69 0
-67 68 69 0
-67 -68 -69 0
70 71 -72 0
70 -71 72 0
-70 71 72 0
-70 -71 -72 0
73 74 -75 0
73 -74 75 0
-73 74 75 0
-73 -74 -75 0
76 77 -78 0
76 -77 78 0
-76 77 78 0
-76 -77 -78 0
46 79 -80 0
46 -79 80 0
-46 79 80 0
-46 -79 -80 0
81 82 -83 0
81 -82 83 0
-81 82 83 0
-81 -82 -83 0
57 84 -85 0
57 -84 85 0
-57 84 85 0
-57 -84 -85 0
10 86 -87 0
10 -86 87 0
-10 86 87 0
-10 -86 -87 0
88 89 -90 0
88 -89 90 0
-88 89 90 0
-88 -89 -90 0
91 92 -93 0
91 -92 93 0
-91 92 93 0
-91 -92 -93 0
94 95 -96 0
94 -95 96 0
-94 95 96 0
-94 -95 -96 0
97 98 -99 0
97 -98 99 0
-97 98 99 0
-97 -98 -99 0
100 101 -102 0
100 -101 102 0
-100 101 102 0
-100 -101 -102 0
103 104 -105 0
103 -104 105 0
-103 104 105 0
-103 -104 -105 0
106 107 -108 0
106 -107 108 0
-106 107 108 0
-106 -107 -108 0
2 81 -109 0
2 -81 109 0
-2 81 109 0
-2 -81 -109 0
110 111 -112 0
110 -111 112 0
-110 111 112 0
-110 -111 -112 0
113 114 -115 0
113 -114 115 0
-113 114 115 0
-113 -114 -115 0
84 116 -117 0
84 -116 117 0
-84 116 117 0
-84 -116 -117 0
113 118 -119 0
113 -118 119 0
-113 118 119 0
-113 -118 -119 0
25 120 -121 0
25 -120 121 0
-25 120 121 0
-25 -120 -121 0
122 123 -124 0
122 -123 124 0
-122 123 124 0
-122 -123 -124 0
125 126 -127 0
125 -126 127 0
-125 126 127 0
-125 -126 -127 0
91 128 -129 0
91 -128 129 0
-91 128 129 0
-91 -128 -129 0
61 130 -131 0
61 -130 131 0
-61 130 131 0
-61 -130 -131 0
132 133 -134 0
132 -133 134 0
-132 133 134 0
-132 -133 -134 0
135 136 -137 0
135 -136 137 0
-135 136 137 0
-135 -136 -137 0
138 139 -140 0
138 -139 140 0
-138 139 140 0
-138 -139 -140 0
103 141 -142 0
103 -141 142 0
-103 141 142 0
-103 -141 -142 0
31 143 -144 0
31 -143 144 0
-31 143 144 0
-31 -143 -144 0
97 145 -146 0
97 -145 146 0
-97 145 146 0
-97 -145 -146 0
79 147 -148 0
79 -147 148 0
-79 147 148 0
-79 -147 -148 0
7 149 -150 0
7 -149 150 0
-7 149 150 0
-7 -149 -150 0
4 151 -152 0
4 -151 152 0
-4 151 152 0
-4 -151 -152 0
11 153 -154 0
11 -153 154 0
-11 153 154 0
-11 -153 -154 0
155 156 -157 0
155 -156 157 0
-155 156 157 0
-155 -156 -157 0
158 159 -160 0
158 -159 160 0
-158 159 160 0
-158 -159 -160 0
161 162 -163 0
161 -162 163 0
-161 162 163 0
-161 -162 -163 0
164 165 -166 0
164 -165 166 0
-164 165 166 0
-164 -165 -166 0
58 167 -168 0
58 -167 168 0
-58 167 168 0
-58 -167 -168 0
169 170 -171 0
169 -170 171 0
-169 170 171 0
-169 -170 -171 0
172 173 -174 0
172 -173 174 0
-172 173 174 0
-172 -173 -174 0
175 176 -177 0
175 -176 177 0
-175 176 177 0
-175 -176 -177 0
8 178 -179 0
8 -178 179 0
-8 178 179 0
-8 -178 -179 0
180 181 -182 0
180 -181 182 0
-180 181 182 0
-180 -181 -182 0
70 143 -183 0
70 -143 183 0
-70 143 183 0
-70 -143 -183 0
9 34 -184 0
9 -34 184 0
-9 34 184 0
-9 -34 -184 0
185 186 -187 0
185 -186 187 0
-185 186 187 0
-185 -186 -187 0
188 189 -190 0
188 -189 190 0
-188 189 190 0
-188 -189 -190 0
48 191 -192 0
48 -191 192 0
-48 191 192 0
-48 -191 -192 0
193 194 -195 0
193 -194 195 0
-193 194 195 0
-193 -194 -195 0
196 197 -198 0
196 -197 198 0
-196 197 198 0
-196 -197 -198 0
149 199 -200 0
149 -199 200 0
-149 199 200 0
-149 -199 -200 0
94 201 -202 0
94 -201 202 0
-94 201 202 0
-94 -201 -202 0
51 203 -204 0
51 -203 204 0
-51 203 204 0
-51 -203 -204 0
22 54 -205 0
22 -54 205 0
-22 54 205 0
-22 -54 -205 0
43 185 -199 0
43 -185 199 0
-43 185 199 0
-43 -185 -199 0
206 207 -208 0
206 -207 208 0
-206 207 208 0
-206 -207 -208 0
209 210 -211 0
209 -210 211 0
-209 210 211 0
-209 -210 -211 0
212 213 -214 0
212 -213 214 0
-212 213 214 0
-212 -213 -214 0
135 153 -215 0
135 -153 215 0
-135 153 215 0
-135 -153 -215 0
216 217 -218 0
216 -217 218 0
-216 217 218 0
-216 -217 -218 0
52 219 -220 0
52 -219 220 0
-52 219 220 0
-52 -219 -220 0
221 222 -223 0
221 -222 223 0
-221 222 223 0
-221 -222 -223 0
132 224 -225 0
132 -224 225 0
-132 224 225 0
-132 -224 -225 0
122 226 -227 0
122 -226 227 0
-122 226 227 0
-122 -226 -227 0
12 228 -229 0
12 -228 229 0
-12 228 229 0
-12 -228 -229 0
230 231 -232 0
230 -231 232 0
-230 231 232 0
-230 -231 -232 0
233 234 -235 0
233 -234 235 0
-233 234 235 0
-233 -234 -235 0
62 110 -203 0
62 -110 203 0
-62 110 203 0
-62 -110 -203 0
71 236 -237 0
71 -236 237 0
-71 236 237 0
-71 -236 -237 0
32 180 -238 0
32 -180 238 0
-32 180 238 0
-32 -180 -238 0
239 240 -241 0
239 -240 241 0
-239 240 241 0
-239 -240 -241 0
82 242 -243 0
82 -242 243 0
-82 242 243 0
-82 -242 -243 0
158 244 -245 0
158 -244 245 0
-158 244 245 0
-158 -244 -245 0
85 246 -247 0
85 -246 247 0
-85 246 247 0
-85 -246 -247 0
104 248 -249 0
104 -248 249 0
-104 248 249 0
-104 -248 -249 0
250 251 -252 0
250 -251 252 0
-250 251 252 0
-250 -251 -252 0
200 221 -253 0
200 -221 253 0
-200 221 253 0
-200 -221 -253 0
161 254 -255 0
161 -254 255 0
-161 254 255 0
-161 -254 -255 0
219 256 -257 0
219 -256 257 0
-219 256 257 0
-219 -256 -257 0
236 258 -259 0
236 -258 259 0
-236 258 259 0
-236 -258 -259 0
67 260 -261 0
67 -260 261 0
-67 260 261 0
-67 -260 -261 0
147 262 -263 0
147 -262 263 0
-147 262 263 0
-147 -262 -263 0
128 264 -265 0
128 -264 265 0
-128 264 265 0
-128 -264 -265 0
41 55 -266 0
41 -55 266 0
-41 55 266 0
-41 -55 -266 0
28 267 -268 0
28 -267 268 0
-28 267 268 0
-28 -267 -268 0
44 239 -269 0
44 -239 269 0
-44 239 269 0
-44 -239 -269 0
23 83 -233 0
23 -83 233 0
-23 83 233 0
-23 -83 -233 0
270 271 -272 0
270 -271 272 0
-270 271 272 0
-270 -271 -272 0
169 273 -274 0
169 -273 274 0
-169 273 274 0
-169 -273 -274 0
19 209 -275 0
19 -209 275 0
-19 209 275 0
-19 -209 -275 0
222 276 -277 0
222 -276 277 0
-222 276 277 0
-222 -276 -277 0
35 42 -278 0
35 -42 278 0
-35 42 278 0
-35 -42 -278 0
3 279 -280 0
3 -279 280 0
-3 279 280 0
-3 -279 -280 0
167 281 -282 0
167 -281 282 0
-167 281 282 0
-167 -281 -282 0
283 284 -285 0
283 -284 285 0
-283 284 285 0
-283 -284 -285 0
155 286 -287 0
155 -286 287 0
-155 286 287 0
-155 -286 -287 0
125 138 -193 0
125 -138 193 0
-125 138 193 0
-125 -138 -193 0
288 289 -290 0
288 -289 290 0
-288 289 290 0
-288 -289 -290 0
98 291 -292 0
98 -291 292 0
-98 291 292 0
-98 -291 -292 0
256 293 -294 0
256 -293 294 0
-256 293 294 0
-256 -293 -294 0
295 296 -297 0
295 -296 297 0
-295 296 297 0
-295 -296 -297 0
26 298 -299 0
26 -298 299 0
-26 298 299 0
-26 -298 -299 0
172 300 -301 0
172 -300 301 0
-172 300 301 0
-172 -300 -301 0
302 303 -304 0
302 -303 304 0
-302 303 304 0
-302 -303 -304 0
63 130 -305 0
63 -130 305 0
-63 130 305 0
-63 -130 -305 0
262 298 -302 0
262 -298 302 0
-262 298 302 0
-262 -298 -302 0
306 307 -308 0
306 -307 308 0
-306 307 308 0
-306 -307 -308 0
136 257 -309 0
136 -257 309 0
-136 257 309 0
-136 -257 -309 0
144 310 -311 0
144 -310 311 0
-144 310 311 0
-144 -310 -311 0
173 312 -313 0
173 -312 313 0
-173 312 313 0
-173 -312 -313 0
223 314 -315 0
223 -314 315 0
-223 314 315 0
-223 -314 -315 0
131 242 -316 0
131 -242 316 0
-131 242 316 0
-131 -242 -316 0
196 258 -317 0
196 -258 317 0
-196 258 317 0
-196 -258 -317 0
105 318 -319 0
105 -318 319 0
-105 318 319 0
-105 -318 -319 0
95 228 -320 0
95 -228 320 0
-95 228 320 0
-95 -228 -320 0
321 322 -323 0
321 -322 323 0
-321 322 323 0
-321 -322 -323 0
183 324 -325 0
183 -324 325 0
-183 324 325 0
-183 -324 -325 0
267 326 -327 0
267 -326 327 0
-267 326 327 0
-267 -326 -327 0
164 248 -328 0
164 -248 328 0
-164 248 328 0
-164 -248 -328 0
151 156 -324 0
151 -156 324 0
-151 156 324 0
-151 -156 -324 0
152 329 -330 0
152 -329 330 0
-152 329 330 0
-152 -329 -330 0
197 226 -331 0
197 -226 331 0
-197 226 331 0
-197 -226 -331 0
332 333 -334 0
332 -333 334 0
-332 333 334 0
-332 -333 -334 0
64 335 -336 0
64 -335 336 0
-64 335 336 0
-64 -335 -336 0
264 269 -337 0
264 -269 337 0
-264 269 337 0
-264 -269 -337 0
45 303 -338 0
45 -303 338 0
-45 303 338 0
-45 -303 -338 0
120 240 -339 0
120 -240 339 0
-120 240 339 0
-120 -240 -339 0
206 300 -340 0
206 -300 340 0
-206 300 340 0
-206 -300 -340 0
118 341 -342 0
118 -341 342 0
-118 341 342 0
-118 -341 -342 0
212 314 -343 0
212 -314 343 0
-212 314 343 0
-212 -314 -343 0
139 344 -345 0
139 -344 345 0
-139 344 345 0
-139 -344 -345 0
291 346 -347 0
291 -346 347 0
-291 346 347 0
-291 -346 -347 0
295 348 -349 0
295 -348 349 0
-295 348 349 0
-295 -348 -349 0
106 315 -350 0
106 -315 350 0
-106 315 350 0
-106 -315 -350 0
47 351 -352 0
47 -351 352 0
-47 351 352 0
-47 -351 -352 0
353 354 -355 0
353 -354 355 0
-353 354 355 0
-353 -354 -355 0
207 281 -356 0
207 -281 356 0
-207 281 356 0
-207 -281 -356 0
92 279 -357 0
92 -279 357 0
-92 279 357 0
-92 -279 -357 0
175 230 -358 0
175 -230 358 0
-175 230 358 0
-175 -230 -358 0
38 201 -250 0
38 -201 250 0
-38 201 250 0
-38 -201 -250 0
204 216 -359 0
204 -216 359 0
-204 216 359 0
-204 -216 -359 0
194 360 -361 0
194 -360 361 0
-194 360 361 0
-194 -360 -361 0
121 276 -306 0
121 -276 306 0
-121 276 306 0
-121 -276 -306 0
312 362 -363 0
312 -362 363 0
-312 362 363 0
-312 -362 -363 0
107 283 -364 0
107 -283 364 0
-107 283 364 0
-107 -283 -364 0
109 310 -357 0
109 -310 357 0
-109 310 357 0
-109 -310 -357 0
364 365 -366 0
364 -365 366 0
-364 365 366 0
-364 -365 -366 0
68 96 -367 0
68 -96 367 0
-68 96 367 0
-68 -96 -367 0
210 234 -368 0
210 -234 368 0
-210 234 368 0
-210 -234 -368 0
170 369 -370 0
170 -369 370 0
-170 369 370 0
-170 -369 -370 0
145 148 -367 0
145 -148 367 0
-145 148 367 0
-145 -148 -367 0
16 270 -371 0
16 -270 371 0
-16 270 371 0
-16 -270 -371 0
165 220 -346 0
165 -220 346 0
-165 220 346 0
-165 -220 -346 0
372 373 -374 0
372 -373 374 0
-372 373 374 0
-372 -373 -374 0
129 360 -375 0
129 -360 375 0
-129 360 375 0
-129 -360 -375 0
39 86 -376 0
39 -86 376 0
-39 86 376 0
-39 -86 -376 0
191 313 -377 0
191 -313 377 0
-191 313 377 0
-191 -313 -377 0
162 266 -378 0
162 -266 378 0
-162 266 378 0
-162 -266 -378 0
254 379 -380 0
254 -379 380 0
-254 379 380 0
-254 -379 -380 0
29 36 -301 0
29 -36 301 0
-29 36 301 0
-29 -36 -301 0
114 224 -326 0
114 -224 326 0
-114 224 326 0
-114 -224 -326 0
171 211 -277 0
171 -211 277 0
-171 211 277 0
-171 -211 -277 0
335 344 -381 0
335 -344 381 0
-335 344 381 0
-335 -344 -381 0
20 382 -383 0
20 -382 383 0
-20 382 383 0
-20 -382 -383 0
60 192 -316 0
60 -192 316 0
-60 192 316 0
-60 -192 -316 0
76 273 -384 0
76 -273 384 0
-76 273 384 0
-76 -273 -384 0
246 329 -385 0
246 -329 385 0
-246 329 385 0
-246 -329 -385 0
174 386 -387 0
174 -386 387 0
-174 386 387 0
-174 -386 -387 0
338 372 -388 0
338 -372 388 0
-338 372 388 0
-338 -372 -388 0
157 186 -389 0
157 -186 389 0
-157 186 389 0
-157 -186 -389 0
225 231 -390 0
225 -231 390 0
-225 231 390 0
-225 -231 -390 0
111 391 -392 0
111 -391 392 0
-111 391 392 0
-111 -391 -392 0
5 116 -393 0
5 -116 393 0
-5 116 393 0
-5 -116 -393 0
59 88 -394 0
59 -88 394 0
-59 88 394 0
-59 -88 -394 0
259 268 -282 0
259 -268 282 0
-259 268 282 0
-259 -268 -282 0
251 391 -395 0
251 -391 395 0
-251 391 395 0
-251 -391 -395 0
65 166 -396 0
65 -166 396 0
-65 166 396 0
-65 -166 -396 0
238 365 -397 0
238 -365 397 0
-238 365 397 0
-238 -365 -397 0
284 321 -351 0
284 -321 351 0
-284 321 351 0
-284 -321 -351 0
13 126 -229 0
13 -126 229 0
-13 126 229 0
-13 -126 -229 0
178 202 -398 0
178 -202 398 0
-178 202 398 0
-178 -202 -398 0
77 80 -320 0
77 -80 320 0
-77 80 320 0
-77 -80 -320 0
176 307 -361 0
176 -307 361 0
-176 307 361 0
-176 -307 -361 0
141 271 -348 0
141 -271 348 0
-141 271 348 0
-141 -271 -348 0
69 382 -399 0
69 -382 399 0
-69 382 399 0
-69 -382 -399 0
188 322 -400 0
188 -322 400 0
-188 322 400 0
-188 -322 -400 0
14 213 -401 0
14 -213 401 0
-14 213 401 0
-14 -213 -401 0
214 402 -403 0
214 -402 403 0
-214 402 403 0
-214 -402 -403 0
395 399 -404 0
395 -399 404 0
-395 399 404 0
-395 -399 -404 0
78 405 -406 0
78 -405 406 0
-78 405 406 0
-78 -405 -406 0
146 217 -407 0
146 -217 407 0
-146 217 407 0
-146 -217 -407 0
189 408 -409 0
189 -408 409 0
-189 408 409 0
-189 -408 -409 0
252 275 -410 0
252 -275 410 0
-252 275 410 0
-252 -275 -410 0
179 190 -411 0
179 -190 411 0
-179 190 411 0
-179 -190 -411 0
181 241 -285 0
181 -241 285 0
-181 241 285 0
-181 -241 -285 0
330 394 -412 0
330 -394 412 0
-330 394 412 0
-330 -394 -412 0
397 413 -414 0
397 -413 414 0
-397 413 414 0
-397 -413 -414 0
309 383 -415 0
309 -383 415 0
-309 383 415 0
-309 -383 -415 0
56 411 -416 0
56 -411 416 0
-56 411 416 0
-56 -411 -416 0
100 154 -195 0
100 -154 195 0
-100 154 195 0
-100 -154 -195 0
133 163 -417 0
133 -163 417 0
-133 163 417 0
-133 -163 -417 0
159 356 -418 0
159 -356 418 0
-159 356 418 0
-159 -356 -418 0
101 402 -405 0
101 -402 405 0
-101 402 405 0
-101 -402 -405 0
208 332 -419 0
208 -332 419 0
-208 332 419 0
-208 -332 -419 0
336 420 -421 0
336 -420 421 0
-336 420 421 0
-336 -420 -421 0
150 317 -375 0
150 -317 375 0
-150 317 375 0
-150 -317 -375 0
243 418 -422 0
243 -418 422 0
-243 418 422 0
-243 -418 -422 0
115 137 -366 0
115 -137 366 0
-115 137 366 0
-115 -137 -366 0
33 73 -393 0
33 -73 393 0
-33 73 393 0
-33 -73 -393 0
253 255 -333 0
253 -255 333 0
-253 255 333 0
-253 -255 -333 0
249 337 -398 0
249 -337 398 0
-249 337 398 0
-249 -337 -398 0
89 384 -423 0
89 -384 423 0
-89 384 423 0
-89 -384 -423 0
334 343 -424 0
334 -343 424 0
-334 343 424 0
-334 -343 -424 0
53 72 -328 0
53 -72 328 0
-53 72 328 0
-53 -72 -328 0
177 331 -392 0
177 -331 392 0
-177 331 392 0
-177 -331 -392 0
112 369 -389 0
112 -369 389 0
-112 369 389 0
-112 -369 -389 0
410 425 -426 0
410 -425 426 0
-410 425 426 0
-410 -425 -426 0
390 425 -427 0
390 -425 427 0
-390 425 427 0
-390 -425 -427 0
21 237 -428 0
21 -237 428 0
-21 237 428 0
-21 -237 -428 0
102 127 -235 0
102 -127 235 0
-102 127 235 0
-102 -127 -235 0
17 247 -429 0
17 -247 429 0
-17 247 429 0
-17 -247 -429 0
407 416 -430 0
407 -416 430 0
-407 416 430 0
-407 -416 -430 0
49 142 -296 0
49 -142 296 0
-49 142 296 0
-49 -142 -296 0
90 93 -431 0
90 -93 431 0
-90 93 431 0
-90 -93 -431 0
378 401 -424 0
378 -401 424 0
-378 401 424 0
-378 -401 -424 0
286 373 -432 0
286 -373 432 0
-286 373 432 0
-286 -373 -432 0
123 187 -433 0
123 -187 433 0
-123 187 433 0
-123 -187 -433 0
244 293 -434 0
244 -293 434 0
-244 293 434 0
-244 -293 -434 0
87 359 -435 0
87 -359 435 0
-87 359 435 0
-87 -359 -435 0
99 184 -198 0
99 -184 198 0
-99 184 198 0
-99 -184 -198 0
140 396 -412 0
140 -396 412 0
-140 396 412 0
-140 -396 -412 0
358 435 -436 0
358 -435 436 0
-358 435 436 0
-358 -435 -436 0
311 376 -437 0
311 -376 437 0
-311 376 437 0
-311 -376 -437 0
304 308 -438 0
304 -308 438 0
-304 308 438 0
-304 -308 -438 0
263 327 -431 0
263 -327 431 0
-263 327 431 0
-263 -327 -431 0
385 434 -439 0
385 -434 439 0
-385 434 439 0
-385 -434 -439 0
341 349 -353 0
341 -349 353 0
-341 349 353 0
-341 -349 -353 0
381 433 -440 0
381 -433 440 0
-381 433 440 0
-381 -433 -440 0
15 427 -441 0
15 -427 441 0
-15 427 441 0
-15 -427 -441 0
415 442 -443 0
415 -442 443 0
-415 442 443 0
-415 -442 -443 0
218 272 -442 0
218 -272 442 0
-218 272 442 0
-218 -272 -442 0
403 404 -420 0
403 -404 420 0
-403 404 420 0
-403 -404 -420 0
419 422 -444 0
419 -422 444 0
-419 422 444 0
-419 -422 -444 0
339 350 -408 0
339 -350 408 0
-339 350 408 0
-339 -350 -408 0
108 260 -352 0
108 -260 352 0
-108 260 352 0
-108 -260 -352 0
24 274 -400 0
24 -274 400 0
-24 274 400 0
-24 -274 -400 0
50 297 -386 0
50 -297 386 0
-50 297 386 0
-50 -297 -386 0
124 261 -439 0
124 -261 439 0
-124 261 439 0
-124 -261 -439 0
287 426 -445 0
287 -426 445 0
-287 426 445 0
-287 -426 -445 0
318 388 -423 0
318 -388 423 0
-318 388 423 0
-318 -388 -423 0
119 319 -428 0
119 -319 428 0
-119 319 428 0
-119 -319 -428 0
30 232 -446 0
30 -232 446 0
-30 232 446 0
-30 -232 -446 0
134 325 -413 0
134 -325 413 0
-134 325 413 0
-134 -325 -413 0
168 368 -447 0
168 -368 447 0
-168 368 447 0
-168 -368 -447 0
265 362 -417 0
265 -362 417 0
-265 362 417 0
-265 -362 -417 0
292 377 -429 0
292 -377 429 0
-292 377 429 0
-292 -377 -429 0
305 379 -447 0
305 -379 447 0
-305 379 447 0
-305 -379 -447 0
6 374 -448 0
6 -374 448 0
-6 374 448 0
-6 -374 -448 0
215 323 -438 0
215 -323 438 0
-215 323 438 0
-215 -323 -438 0
74 406 -449 0
74 -406 449 0
-74 406 449 0
-74 -406 -449 0
409 448 -449 0
409 -448 449 0
-409 448 449 0
-409 -448 -449 0
278 380 -450 0
278 -380 450 0
-278 380 450 0
-278 -380 -450 0
160 294 -446 0
160 -294 446 0
-160 294 446 0
-160 -294 -446 0
288 387 -440 0
288 -387 440 0
-288 387 440 0
-288 -387 -440 0
340 443 -450 0
340 -443 450 0
-340 443 450 0
-340 -443 -450 0
205 345 -414 0
205 -345 414 0
-205 345 414 0
-205 -345 -414 0
371 432 -445 0
371 -432 445 0
-371 432 445 0
-371 -432 -445 0
117 245 -444 0
117 -245 444 0
-117 245 444 0
-117 -245 -444 0
66 289 -354 0
66 -289 354 0
-66 289 354 0
-66 -289 -354 0
182 227 -347 0
182 -227 347 0
-182 227 347 0
-182 -227 -347 0
370 436 -437 0
370 -436 437 0
-370 436 437 0
-370 -436 -437 0
27 342 -363 0
27 -342 363 0
-27 342 363 0
-27 -342 -363 0
290 299 -355 0
290 -299 355 0
-290 299 355 0
-290 -299 -355 0
18 75 -280 0
18 -75 280 0
-18 75 280 0
-18 -75 -280 0
421 430 -441 0
421 -430 441 0
-421 430 441 0
-421 -430 -441 0
