c F4 Tseitin on networkx random_regular_graph(3,80,seed=6), connected=True, odd charge on vertex 1
p cnf 120 320
1 2 3 0
1 -2 -3 0
-1 2 -3 0
-1 -2 3 0
4 5 -6 0
4 -5 6 0
-4 5 6 0
-4 -5 -6 0
7 8 -9 0
7 -8 9 0
-7 8 9 0
-7 -8 -9 0
10 11 -12 0
10 -11 12 0
-10 11 12 0
-10 -11 -12 0
13 14 -15 0
13 -14 15 0
-13 14 15 0
-13 -14 -15 0
16 17 -18 0
16 -17 18 0
-16 17 18 0
-16 -17 -18 0
19 20 -21 0
19 -20 21 0
-19 20 21 0
-19 -20 -21 0
1 4 -22 0
1 -4 22 0
-1 4 22 0
-1 -4 -22 0
23 24 -25 0
23 -24 25 0
-23 24 25 0
-23 -24 -25 0
19 26 -27 0
19 -26 27 0
-19 26 27 0
-19 -26 -27 0
28 29 -30 0
28 -29 30 0
-28 29 30 0
-28 -29 -30 0
31 32 -33 0
31 -32 33 0
-31 32 33 0
-31 -32 -33 0
34 35 -36 0
34 -35 36 0
-34 35 36 0
-34 -35 -36 0
13 34 -37 0
13 -34 37 0
-13 34 37 0
-13 -34 -37 0
31 38 -39 0
31 -38 39 0
-31 38 39 0
-31 -38 -39 0
2 40 -41 0
2 -40 41 0
-2 40 41 0
-2 -40 -41 0
42 43 -44 0
42 -43 44 0
-42 43 44 0
-42 -43 -44 0
7 45 -46 0
7 -45 46 0
-7 45 46 0
-7 -45 -46 0
5 47 -48 0
5 -47 48 0
-5 47 48 0
-5 -47 -48 0
49 50 -51 0
49 -50 51 0
-49 50 51 0
-49 -50 -51 0
42 52 -53 0
42 -52 53 0
-42 52 53 0
-42 -52 -53 0
47 54 -55 0
47 -54 55 0
-47 54 55 0
-47 -54 -55 0
56 57 -58 0
56 -57 58 0
-56 57 58 0
-56 -57 -58 0
14 59 -60 0
14 -59 60 0
-14 59 60 0
-14 -59 -60 0
61 62 -63 0
61 -62 63 0
-61 62 63 0
-61 -62 -63 0
45 64 -65 0
45 -64 65 0
-45 64 65 0
-45 -64 -65 0
66 67 -68 0
66 -67 68 0
-66 67 68 0
-66 -67 -68 0
69 70 -71 0
69 -70 71 0
-69 70 71 0
-69 -70 -71 0
72 73 -74 0
72 -73 74 0
-72 73 74 0
-72 -73 -74 0
23 43 -75 0
23 -43 75 0
-23 43 75 0
-23 -43 -75 0
35 76 -77 0
35 -76 77 0
-35 76 77 0
-35 -76 -77 0
28 69 -78 0
28 -69 78 0
-28 69 78 0
-28 -69 -78 0
24 75 -79 0
24 -75 79 0
-24 75 79 0
-24 -75 -79 0
29 52 -80 0
29 -52 80 0
-29 52 80 0
-29 -52 -80 0
8 81 -82 0
8 -81 82 0
-8 81 82 0
-8 -81 -82 0
38 49 -83 0
38 -49 83 0
-38 49 83 0
-38 -49 -83 0
10 84 -85 0
10 -84 85 0
-10 84 85 0
-10 -84 -85 0
86 87 -88 0
86 -87 88 0
-86 87 88 0
-86 -87 -88 0
89 90 -91 0
89 -90 91 0
-89 90 91 0
-89 -90 -91 0
61 92 -93 0
61 -92 93 0
-61 92 93 0
-61 -92 -93 0
20 39 -94 0
20 -39 94 0
-20 39 94 0
-20 -39 -94 0
56 95 -96 0
56 -95 96 0
-56 95 96 0
-56 -95 -96 0
76 86 -97 0
76 -86 97 0
-76 86 97 0
-76 -86 -97 0
53 98 -99 0
53 -98 99 0
-53 98 99 0
-53 -98 -99 0
77 89 -100 0
77 -89 100 0
-77 89 100 0
-77 -89 -100 0
48 54 -101 0
48 -54 101 0
-48 54 101 0
-48 -54 -101 0
16 102 -103 0
16 -102 103 0
-16 102 103 0
-16 -102 -103 0
98 104 -105 0
98 -104 105 0
-98 104 105 0
-98 -104 -105 0
26 106 -107 0
26 -106 107 0
-26 106 107 0
-26 -106 -107 0
57 78 -108 0
57 -78 108 0
-57 78 108 0
-57 -78 -108 0
83 84 -102 0
83 -84 102 0
-83 84 102 0
-83 -84 -102 0
30 97 -106 0
30 -97 106 0
-30 97 106 0
-30 -97 -106 0
90 109 -110 0
90 -109 110 0
-90 109 110 0
-90 -109 -110 0
36 80 -111 0
36 -80 111 0
-36 80 111 0
-36 -80 -111 0
87 112 -113 0
87 -112 113 0
-87 112 113 0
-87 -112 -113 0
27 112 -114 0
27 -112 114 0
-27 112 114 0
-27 -112 -114 0
17 91 -115 0
17 -91 115 0
-17 91 115 0
-17 -91 -115 0
6 62 -66 0
6 -62 66 0
-6 62 66 0
-6 -62 -66 0
92 116 -117 0
92 -116 117 0
-92 116 117 0
-92 -116 -117 0
3 15 -113 0
3 -15 113 0
-3 15 113 0
-3 -15 -113 0
11 70 -118 0
11 -70 118 0
-11 70 118 0
-11 -70 -118 0
32 64 -99 0
32 -64 99 0
-32 64 99 0
-32 -64 -99 0
100 109 -118 0
100 -109 118 0
-100 109 118 0
-100 -109 -118 0
25 67 -71 0
25 -67 71 0
-25 67 71 0
-25 -67 -71 0
12 18 -68 0
12 -18 68 0
-12 18 68 0
-12 -18 -68 0
81 103 -111 0
81 -103 111 0
-81 103 111 0
-81 -103 -111 0
40 46 -59 0
40 -46 59 0
-40 46 59 0
-40 -46 -59 0
33 41 -65 0
33 -41 65 0
-33 41 65 0
-33 -41 -65 0
55 88 -119 0
55 -88 119 0
-55 88 119 0
-55 -88 -119 0
50 101 -108 0
50 -101 108 0
-50 101 108 0
-50 -101 -108 0
95 115 -116 0
95 -115 116 0
-95 115 116 0
-95 -115 -116 0
58 60 -72 0
58 -60 72 0
-58 60 72 0
-58 -60 -72 0
21 79 -117 0
21 -79 117 0
-21 79 117 0
-21 -79 -117 0
44 114 -119 0
44 -114 119 0
-44 114 119 0
-44 -114 -119 0
51 96 -120 0
51 -96 120 0
-51 96 120 0
-51 -96 -120 0
73 94 -104 0
73 -94 104 0
-73 94 104 0
-73 -94 -104 0
9 105 -120 0
9 -105 120 0
-9 105 120 0
-9 -105 -120 0
22 82 -110 0
22 -82 110 0
-22 82 110 0
-22 -82 -110 0
37 85 -93 0
37 -85 93 0
-37 85 93 0
-37 -85 -93 0
63 74 -107 0
63 -74 107 0
-63 74 107 0
-63 -74 -107 0
