c F4 Tseitin on networkx random_regular_graph(3,200,seed=7), connected=True, odd charge on vertex 1
p cnf 300 800
1 2 3 0
1 -2 -3 0
-1 2 -3 0
-1 -2 3 0
4 5 -6 0
4 -5 6 0
-4 5 6 0
-4 -5 -6 0
7 8 -9 0
7 -8 9 0
-7 8 9 0
-7 -8 -9 0
10 11 -12 0
10 -11 12 0
-10 11 12 0
-10 -11 -12 0
13 14 -15 0
13 -14 15 0
-13 14 15 0
-13 -14 -15 0
16 17 -18 0
16 -17 18 0
-16 17 18 0
-16 -17 -18 0
19 20 -21 0
19 -20 21 0
-19 20 21 0
-19 -20 -21 0
22 23 -24 0
22 -23 24 0
-22 23 24 0
-22 -23 -24 0
25 26 -27 0
25 -26 27 0
-25 26 27 0
-25 -26 -27 0
28 29 -30 0
28 -29 30 0
-28 29 30 0
-28 -29 -30 0
31 32 -33 0
31 -32 33 0
-31 32 33 0
-31 -32 -33 0
34 35 -36 0
34 -35 36 0
-34 35 36 0
-34 -35 -36 0
37 38 -39 0
37 -38 39 0
-37 38 39 0
-37 -38 -39 0
40 41 -42 0
40 -41 42 0
-40 41 42 0
-40 -41 -42 0
43 44 -45 0
43 -44 45 0
-43 44 45 0
-43 -44 -45 0
43 46 -47 0
43 -46 47 0
-43 46 47 0
-43 -46 -47 0
48 49 -50 0
48 -49 50 0
-48 49 50 0
-48 -49 -50 0
51 52 -53 0
51 -52 53 0
-51 52 53 0
-51 -52 -53 0
37 54 -55 0
37 -54 55 0
-37 54 55 0
-37 -54 -55 0
56 57 -58 0
56 -57 58 0
-56 57 58 0
-56 -57 -58 0
59 60 -61 0
59 -60 61 0
-59 60 61 0
-59 -60 -61 0
62 63 -64 0
62 -63 64 0
-62 63 64 0
-62 -63 -64 0
65 66 -67 0
65 -66 67 0
-65 66 67 0
-65 -66 -67 0
19 68 -69 0
19 -68 69 0
-19 68 69 0
-19 -68 -69 0
70 71 -72 0
70 -71 72 0
-70 71 72 0
-70 -71 -72 0
40 73 -74 0
40 -73 74 0
-40 73 74 0
-40 -73 -74 0
75 76 -77 0
75 -76 77 0
-75 76 77 0
-75 -76 -77 0
75 78 -79 0
75 -78 79 0
-75 78 79 0
-75 -78 -79 0
62 80 -81 0
62 -80 81 0
-62 80 81 0
-62 -80 -81 0
82 83 -84 0
82 -83 84 0
-82 83 84 0
-82 -83 -84 0
22 85 -86 0
22 -85 86 0
-22 85 86 0
-22 -85 -86 0
87 88 -89 0
87 -88 89 0
-87 88 89 0
-87 -88 -89 0
90 91 -92 0
90 -91 92 0
-90 91 92 0
-90 -91 -92 0
80 93 -94 0
80 -93 94 0
-80 93 94 0
-80 -93 -94 0
95 96 -97 0
95 -96 97 0
-95 96 97 0
-95 -96 -97 0
31 48 -98 0
31 -48 98 0
-31 48 98 0
-31 -48 -98 0
28 32 -99 0
28 -32 99 0
-28 32 99 0
-28 -32 -99 0
70 100 -101 0
70 -100 101 0
-70 100 101 0
-70 -100 -101 0
25 102 -103 0
25 -102 103 0
-25 102 103 0
-25 -102 -103 0
82 104 -105 0
82 -104 105 0
-82 104 105 0
-82 -104 -105 0
106 107 -108 0
106 -107 108 0
-106 107 108 0
-106 -107 -108 0
38 109 -110 0
38 -109 110 0
-38 109 110 0
-38 -109 -110 0
51 111 -112 0
51 -111 112 0
-51 111 112 0
-51 -111 -112 0
113 114 -115 0
113 -114 115 0
-113 114 115 0
-113 -114 -115 0
116 117 -118 0
116 -117 118 0
-116 117 118 0
-116 -117 -118 0
119 120 -121 0
119 -120 121 0
-119 120 121 0
-119 -120 -121 0
122 123 -124 0
122 -123 124 0
-122 123 124 0
-122 -123 -124 0
10 125 -126 0
10 -125 126 0
-10 125 126 0
-10 -125 -126 0
16 46 -127 0
16 -46 127 0
-16 46 127 0
-16 -46 -127 0
128 129 -130 0
128 -129 130 0
-128 129 130 0
-128 -129 -130 0
99 131 -132 0
99 -131 132 0
-99 131 132 0
-99 -131 -132 0
54 133 -134 0
54 -133 134 0
-54 133 134 0
-54 -133 -134 0
135 136 -137 0
135 -136 137 0
-135 136 137 0
-135 -136 -137 0
138 139 -140 0
138 -139 140 0
-138 139 140 0
-138 -139 -140 0
141 142 -143 0
141 -142 143 0
-141 142 143 0
-141 -142 -143 0
29 144 -145 0
29 -144 145 0
-29 144 145 0
-29 -144 -145 0
146 147 -148 0
146 -147 148 0
-146 147 148 0
-146 -147 -148 0
149 150 -151 0
149 -150 151 0
-149 150 151 0
-149 -150 -151 0
106 152 -153 0
106 -152 153 0
-106 152 153 0
-106 -152 -153 0
49 128 -141 0
49 -128 141 0
-49 128 141 0
-49 -128 -141 0
154 155 -156 0
154 -155 156 0
-154 155 156 0
-154 -155 -156 0
68 157 -158 0
68 -157 158 0
-68 157 158 0
-68 -157 -158 0
159 160 -161 0
159 -160 161 0
-159 160 161 0
-159 -160 -161 0
85 162 -163 0
85 -162 163 0
-85 162 163 0
-85 -162 -163 0
7 129 -164 0
7 -129 164 0
-7 129 164 0
-7 -129 -164 0
107 165 -166 0
107 -165 166 0
-107 165 166 0
-107 -165 -166 0
138 167 -168 0
138 -167 168 0
-138 167 168 0
-138 -167 -168 0
169 170 -171 0
169 -170 171 0
-169 170 171 0
-169 -170 -171 0
119 172 -173 0
119 -172 173 0
-119 172 173 0
-119 -172 -173 0
113 174 -175 0
113 -174 175 0
-113 174 175 0
-113 -174 -175 0
11 176 -177 0
11 -176 177 0
-11 176 177 0
-11 -176 -177 0
108 169 -178 0
108 -169 178 0
-108 169 178 0
-108 -169 -178 0
111 122 -179 0
111 -122 179 0
-111 122 179 0
-111 -122 -179 0
180 181 -182 0
180 -181 182 0
-180 181 182 0
-180 -181 -182 0
183 184 -185 0
183 -184 185 0
-183 184 185 0
-183 -184 -185 0
78 186 -187 0
78 -186 187 0
-78 186 187 0
-78 -186 -187 0
26 152 -188 0
26 -152 188 0
-26 152 188 0
-26 -152 -188 0
170 189 -190 0
170 -189 190 0
-170 189 190 0
-170 -189 -190 0
191 192 -193 0
191 -192 193 0
-191 192 193 0
-191 -192 -193 0
194 195 -196 0
194 -195 196 0
-194 195 196 0
-194 -195 -196 0
197 198 -199 0
197 -198 199 0
-197 198 199 0
-197 -198 -199 0
4 200 -201 0
4 -200 201 0
-4 200 201 0
-4 -200 -201 0
27 114 -202 0
27 -114 202 0
-27 114 202 0
-27 -114 -202 0
123 203 -204 0
123 -203 204 0
-123 203 204 0
-123 -203 -204 0
52 205 -206 0
52 -205 206 0
-52 205 206 0
-52 -205 -206 0
125 162 -171 0
125 -162 171 0
-125 162 171 0
-125 -162 -171 0
59 207 -208 0
59 -207 208 0
-59 207 208 0
-59 -207 -208 0
87 209 -210 0
87 -209 210 0
-87 209 210 0
-87 -209 -210 0
102 209 -211 0
102 -209 211 0
-102 209 211 0
-102 -209 -211 0
5 55 -212 0
5 -55 212 0
-5 55 212 0
-5 -55 -212 0
189 213 -214 0
189 -213 214 0
-189 213 214 0
-189 -213 -214 0
146 215 -216 0
146 -215 216 0
-146 215 216 0
-146 -215 -216 0
120 186 -217 0
120 -186 217 0
-120 186 217 0
-120 -186 -217 0
39 164 -218 0
39 -164 218 0
-39 164 218 0
-39 -164 -218 0
213 219 -220 0
213 -219 220 0
-213 219 220 0
-213 -219 -220 0
93 221 -222 0
93 -221 222 0
-93 221 222 0
-93 -221 -222 0
174 221 -223 0
174 -221 223 0
-174 221 223 0
-174 -221 -223 0
159 180 -224 0
159 -180 224 0
-159 180 224 0
-159 -180 -224 0
225 226 -227 0
225 -226 227 0
-225 226 227 0
-225 -226 -227 0
228 229 -230 0
228 -229 230 0
-228 229 230 0
-228 -229 -230 0
71 179 -231 0
71 -179 231 0
-71 179 231 0
-71 -179 -231 0
104 131 -187 0
104 -131 187 0
-104 131 187 0
-104 -131 -187 0
17 232 -233 0
17 -232 233 0
-17 232 233 0
-17 -232 -233 0
33 56 -211 0
33 -56 211 0
-33 56 211 0
-33 -56 -211 0
94 200 -234 0
94 -200 234 0
-94 200 234 0
-94 -200 -234 0
23 34 -178 0
23 -34 178 0
-23 34 178 0
-23 -34 -178 0
1 103 -235 0
1 -103 235 0
-1 103 235 0
-1 -103 -235 0
236 237 -238 0
236 -237 238 0
-236 237 238 0
-236 -237 -238 0
41 57 -239 0
41 -57 239 0
-41 57 239 0
-41 -57 -239 0
116 212 -225 0
116 -212 225 0
-116 212 225 0
-116 -212 -225 0
240 241 -242 0
240 -241 242 0
-240 241 242 0
-240 -241 -242 0
126 243 -244 0
126 -243 244 0
-126 243 244 0
-126 -243 -244 0
13 95 -245 0
13 -95 245 0
-13 95 245 0
-13 -95 -245 0
44 60 -100 0
44 -60 100 0
-44 60 100 0
-44 -60 -100 0
246 247 -248 0
246 -247 248 0
-246 247 248 0
-246 -247 -248 0
181 249 -250 0
181 -249 250 0
-181 249 250 0
-181 -249 -250 0
65 251 -252 0
65 -251 252 0
-65 251 252 0
-65 -251 -252 0
105 117 -253 0
105 -117 253 0
-105 117 253 0
-105 -117 -253 0
101 254 -255 0
101 -254 255 0
-101 254 255 0
-101 -254 -255 0
76 256 -257 0
76 -256 257 0
-76 256 257 0
-76 -256 -257 0
90 135 -258 0
90 -135 258 0
-90 135 258 0
-90 -135 -258 0
14 147 -228 0
14 -147 228 0
-14 147 228 0
-14 -147 -228 0
165 194 -240 0
165 -194 240 0
-165 194 240 0
-165 -194 -240 0
61 259 -260 0
61 -259 260 0
-61 259 260 0
-61 -259 -260 0
20 203 -226 0
20 -203 226 0
-20 203 226 0
-20 -203 -226 0
118 243 -246 0
118 -243 246 0
-118 243 246 0
-118 -243 -246 0
176 229 -258 0
176 -229 258 0
-176 229 258 0
-176 -229 -258 0
79 190 -261 0
79 -190 261 0
-79 190 261 0
-79 -190 -261 0
154 224 -251 0
154 -224 251 0
-154 224 251 0
-154 -224 -251 0
177 262 -263 0
177 -262 263 0
-177 262 263 0
-177 -262 -263 0
63 219 -264 0
63 -219 264 0
-63 219 264 0
-63 -219 -264 0
50 183 -265 0
50 -183 265 0
-50 183 265 0
-50 -183 -265 0
30 215 -236 0
30 -215 236 0
-30 215 236 0
-30 -215 -236 0
172 266 -267 0
172 -266 267 0
-172 266 267 0
-172 -266 -267 0
210 266 -268 0
210 -266 268 0
-210 266 268 0
-210 -266 -268 0
124 197 -269 0
124 -197 269 0
-124 197 269 0
-124 -197 -269 0
66 112 -270 0
66 -112 270 0
-66 112 270 0
-66 -112 -270 0
83 132 -271 0
83 -132 271 0
-83 132 271 0
-83 -132 -271 0
167 220 -272 0
167 -220 272 0
-167 220 272 0
-167 -220 -272 0
6 155 -273 0
6 -155 273 0
-6 155 273 0
-6 -155 -273 0
256 261 -274 0
256 -261 274 0
-256 261 274 0
-256 -261 -274 0
96 130 -275 0
96 -130 275 0
-96 130 275 0
-96 -130 -275 0
223 259 -270 0
223 -259 270 0
-223 259 270 0
-223 -259 -270 0
142 175 -276 0
142 -175 276 0
-142 175 276 0
-142 -175 -276 0
58 245 -277 0
58 -245 277 0
-58 245 277 0
-58 -245 -277 0
18 115 -247 0
18 -115 247 0
-18 115 247 0
-18 -115 -247 0
84 272 -278 0
84 -272 278 0
-84 272 278 0
-84 -272 -278 0
45 127 -207 0
45 -127 207 0
-45 127 207 0
-45 -127 -207 0
133 214 -249 0
133 -214 249 0
-133 214 249 0
-133 -214 -249 0
166 204 -217 0
166 -204 217 0
-166 204 217 0
-166 -204 -217 0
156 195 -279 0
156 -195 279 0
-156 195 279 0
-156 -195 -279 0
202 234 -271 0
202 -234 271 0
-202 234 271 0
-202 -234 -271 0
98 264 -280 0
98 -264 280 0
-98 264 280 0
-98 -264 -280 0
139 235 -281 0
139 -235 281 0
-139 235 281 0
-139 -235 -281 0
282 283 -284 0
282 -283 284 0
-282 283 284 0
-282 -283 -284 0
136 163 -201 0
136 -163 201 0
-136 163 201 0
-136 -163 -201 0
262 285 -286 0
262 -285 286 0
-262 285 286 0
-262 -285 -286 0
81 153 -191 0
81 -153 191 0
-81 153 191 0
-81 -153 -191 0
216 265 -282 0
216 -265 282 0
-216 265 282 0
-216 -265 -282 0
35 148 -237 0
35 -148 237 0
-35 148 237 0
-35 -148 -237 0
149 192 -287 0
149 -192 287 0
-149 192 287 0
-149 -192 -287 0
157 288 -289 0
157 -288 289 0
-157 288 289 0
-157 -288 -289 0
241 283 -290 0
241 -283 290 0
-241 283 290 0
-241 -283 -290 0
158 232 -291 0
158 -232 291 0
-158 232 291 0
-158 -232 -291 0
140 218 -292 0
140 -218 292 0
-140 218 292 0
-140 -218 -292 0
21 109 -293 0
21 -109 293 0
-21 109 293 0
-21 -109 -293 0
2 88 -198 0
2 -88 198 0
-2 88 198 0
-2 -88 -198 0
73 280 -294 0
73 -280 294 0
-73 280 294 0
-73 -280 -294 0
110 184 -239 0
110 -184 239 0
-110 184 239 0
-110 -184 -239 0
86 150 -238 0
86 -150 238 0
-86 150 238 0
-86 -150 -238 0
67 89 -160 0
67 -89 160 0
-67 89 160 0
-67 -89 -160 0
134 222 -253 0
134 -222 253 0
-134 222 253 0
-134 -222 -253 0
284 291 -295 0
284 -291 295 0
-284 291 295 0
-284 -291 -295 0
285 287 -296 0
285 -287 296 0
-285 287 296 0
-285 -287 -296 0
74 242 -268 0
74 -242 268 0
-74 242 268 0
-74 -242 -268 0
231 273 -277 0
231 -273 277 0
-231 273 277 0
-231 -273 -277 0
42 91 -297 0
42 -91 297 0
-42 91 297 0
-42 -91 -297 0
8 151 -248 0
8 -151 248 0
-8 151 248 0
-8 -151 -248 0
185 298 -299 0
185 -298 299 0
-185 298 299 0
-185 -298 -299 0
53 295 -298 0
53 -295 298 0
-53 295 298 0
-53 -295 -298 0
72 196 -244 0
72 -196 244 0
-72 196 244 0
-72 -196 -244 0
9 47 -205 0
9 -47 205 0
-9 47 205 0
-9 -47 -205 0
173 250 -252 0
173 -250 252 0
-173 250 252 0
-173 -250 -252 0
15 257 -278 0
15 -257 278 0
-15 257 278 0
-15 -257 -278 0
276 288 -296 0
276 -288 296 0
-276 288 296 0
-276 -288 -296 0
12 77 -161 0
12 -77 161 0
-12 77 161 0
-12 -77 -161 0
144 254 -274 0
144 -254 274 0
-144 254 274 0
-144 -254 -274 0
143 199 -289 0
143 -199 289 0
-143 199 289 0
-143 -199 -289 0
69 137 -293 0
69 -137 293 0
-69 137 293 0
-69 -137 -293 0
92 230 -292 0
92 -230 292 0
-92 230 292 0
-92 -230 -292 0
97 263 -286 0
97 -263 286 0
-97 263 286 0
-97 -263 -286 0
3 193 -300 0
3 -193 300 0
-3 193 300 0
-3 -193 -300 0
208 275 -297 0
208 -275 297 0
-208 275 297 0
-208 -275 -297 0
24 64 -290 0
24 -64 290 0
-24 64 290 0
-24 -64 -290 0
188 233 -299 0
188 -233 299 0
-188 233 299 0
-188 -233 -299 0
182 227 -300 0
182 -227 300 0
-182 227 300 0
-182 -227 -300 0
36 269 -279 0
36 -269 279 0
-36 269 279 0
-36 -269 -279 0
255 260 -281 0
255 -260 281 0
-255 260 281 0
-255 -260 -281 0
145 267 -294 0
145 -267 294 0
-145 267 294 0
-145 -267 -294 0
121 168 -206 0
121 -168 206 0
-121 168 206 0
-121 -168 -206 0
