c F4 Tseitin on networkx random_regular_graph(3,100,seed=7), connected=True, odd charge on vertex 1
p cnf 150 400
1 2 3 0
1 -2 -3 0
-1 2 -3 0
-1 -2 3 0
4 5 -6 0
4 -5 6 0
-4 5 6 0
-4 -5 -6 0
7 8 -9 0
7 -8 9 0
-7 8 9 0
-7 -8 -9 0
10 11 -12 0
10 -11 12 0
-10 11 12 0
-10 -11 -12 0
13 14 -15 0
13 -14 15 0
-13 14 15 0
-13 -14 -15 0
4 16 -17 0
4 -16 17 0
-4 16 17 0
-4 -16 -17 0
1 18 -19 0
1 -18 19 0
-1 18 19 0
-1 -18 -19 0
20 21 -22 0
20 -21 22 0
-20 21 22 0
-20 -21 -22 0
23 24 -25 0
23 -24 25 0
-23 24 25 0
-23 -24 -25 0
26 27 -28 0
26 -27 28 0
-26 27 28 0
-26 -27 -28 0
29 30 -31 0
29 -30 31 0
-29 30 31 0
-29 -30 -31 0
23 32 -33 0
23 -32 33 0
-23 32 33 0
-23 -32 -33 0
34 35 -36 0
34 -35 36 0
-34 35 36 0
-34 -35 -36 0
37 38 -39 0
37 -38 39 0
-37 38 39 0
-37 -38 -39 0
13 40 -41 0
13 -40 41 0
-13 40 41 0
-13 -40 -41 0
42 43 -44 0
42 -43 44 0
-42 43 44 0
-42 -43 -44 0
34 45 -46 0
34 -45 46 0
-34 45 46 0
-34 -45 -46 0
24 47 -48 0
24 -47 48 0
-24 47 48 0
-24 -47 -48 0
49 50 -51 0
49 -50 51 0
-49 50 51 0
-49 -50 -51 0
52 53 -54 0
52 -53 54 0
-52 53 54 0
-52 -53 -54 0
55 56 -57 0
55 -56 57 0
-55 56 57 0
-55 -56 -57 0
14 58 -59 0
14 -58 59 0
-14 58 59 0
-14 -58 -59 0
60 61 -62 0
60 -61 62 0
-60 61 62 0
-60 -61 -62 0
10 63 -64 0
10 -63 64 0
-10 63 64 0
-10 -63 -64 0
40 65 -66 0
40 -65 66 0
-40 65 66 0
-40 -65 -66 0
26 67 -68 0
26 -67 68 0
-26 67 68 0
-26 -67 -68 0
37 45 -69 0
37 -45 69 0
-37 45 69 0
-37 -45 -69 0
11 55 -70 0
11 -55 70 0
-11 55 70 0
-11 -55 -70 0
71 72 -73 0
71 -72 73 0
-71 72 73 0
-71 -72 -73 0
70 74 -75 0
70 -74 75 0
-70 74 75 0
-70 -74 -75 0
12 76 -77 0
12 -76 77 0
-12 76 77 0
-12 -76 -77 0
65 78 -79 0
65 -78 79 0
-65 78 79 0
-65 -78 -79 0
80 81 -82 0
80 -81 82 0
-80 81 82 0
-80 -81 -82 0
83 84 -85 0
83 -84 85 0
-83 84 85 0
-83 -84 -85 0
78 86 -87 0
78 -86 87 0
-78 86 87 0
-78 -86 -87 0
5 83 -88 0
5 -83 88 0
-5 83 88 0
-5 -83 -88 0
63 86 -89 0
63 -86 89 0
-63 86 89 0
-63 -86 -89 0
90 91 -92 0
90 -91 92 0
-90 91 92 0
-90 -91 -92 0
74 76 -93 0
74 -76 93 0
-74 76 93 0
-74 -76 -93 0
94 95 -96 0
94 -95 96 0
-94 95 96 0
-94 -95 -96 0
2 97 -98 0
2 -97 98 0
-2 97 98 0
-2 -97 -98 0
77 94 -99 0
77 -94 99 0
-77 94 99 0
-77 -94 -99 0
84 90 -100 0
84 -90 100 0
-84 90 100 0
-84 -90 -100 0
47 101 -102 0
47 -101 102 0
-47 101 102 0
-47 -101 -102 0
85 103 -104 0
85 -103 104 0
-85 103 104 0
-85 -103 -104 0
7 105 -106 0
7 -105 106 0
-7 105 106 0
-7 -105 -106 0
41 71 -107 0
41 -71 107 0
-41 71 107 0
-41 -71 -107 0
67 108 -109 0
67 -108 109 0
-67 108 109 0
-67 -108 -109 0
35 64 -69 0
35 -64 69 0
-35 64 69 0
-35 -64 -69 0
95 99 -110 0
95 -99 110 0
-95 99 110 0
-95 -99 -110 0
38 68 -111 0
38 -68 111 0
-38 68 111 0
-38 -68 -111 0
93 97 -112 0
93 -97 112 0
-93 97 112 0
-93 -97 -112 0
101 113 -114 0
101 -113 114 0
-101 113 114 0
-101 -113 -114 0
107 115 -116 0
107 -115 116 0
-107 115 116 0
-107 -115 -116 0
105 117 -118 0
105 -117 118 0
-105 117 118 0
-105 -117 -118 0
49 52 -119 0
49 -52 119 0
-49 52 119 0
-49 -52 -119 0
25 58 -120 0
25 -58 120 0
-25 58 120 0
-25 -58 -120 0
108 121 -122 0
108 -121 122 0
-108 121 122 0
-108 -121 -122 0
6 42 -123 0
6 -42 123 0
-6 42 123 0
-6 -42 -123 0
16 88 -124 0
16 -88 124 0
-16 88 124 0
-16 -88 -124 0
3 48 -50 0
3 -48 50 0
-3 48 50 0
-3 -48 -50 0
17 117 -121 0
17 -117 121 0
-17 117 121 0
-17 -117 -121 0
29 53 -120 0
29 -53 120 0
-29 53 120 0
-29 -53 -120 0
51 125 -126 0
51 -125 126 0
-51 125 126 0
-51 -125 -126 0
111 127 -128 0
111 -127 128 0
-111 127 128 0
-111 -127 -128 0
60 109 -113 0
60 -109 113 0
-60 109 113 0
-60 -109 -113 0
103 115 -129 0
103 -115 129 0
-103 115 129 0
-103 -115 -129 0
18 56 -130 0
18 -56 130 0
-18 56 130 0
-18 -56 -130 0
59 80 -131 0
59 -80 131 0
-59 80 131 0
-59 -80 -131 0
96 132 -133 0
96 -132 133 0
-96 132 133 0
-96 -132 -133 0
27 30 -102 0
27 -30 102 0
-27 30 102 0
-27 -30 -102 0
72 123 -134 0
72 -123 134 0
-72 123 134 0
-72 -123 -134 0
20 100 -135 0
20 -100 135 0
-20 100 135 0
-20 -100 -135 0
125 136 -137 0
125 -136 137 0
-125 136 137 0
-125 -136 -137 0
61 132 -138 0
61 -132 138 0
-61 132 138 0
-61 -132 -138 0
8 104 -136 0
8 -104 136 0
-8 104 136 0
-8 -104 -136 0
21 106 -135 0
21 -106 135 0
-21 106 135 0
-21 -106 -135 0
124 139 -140 0
124 -139 140 0
-124 139 140 0
-124 -139 -140 0
32 66 -122 0
32 -66 122 0
-32 66 122 0
-32 -66 -122 0
141 142 -143 0
141 -142 143 0
-141 142 143 0
-141 -142 -143 0
15 110 -119 0
15 -110 119 0
-15 110 119 0
-15 -110 -119 0
81 144 -145 0
81 -144 145 0
-81 144 145 0
-81 -144 -145 0
28 126 -146 0
28 -126 146 0
-28 126 146 0
-28 -126 -146 0
36 91 -147 0
36 -91 147 0
-36 91 147 0
-36 -91 -147 0
73 92 -116 0
73 -92 116 0
-73 92 116 0
-73 -92 -116 0
19 112 -131 0
19 -112 131 0
-19 112 131 0
-19 -112 -131 0
43 144 -147 0
43 -144 147 0
-43 144 147 0
-43 -144 -147 0
62 129 -148 0
62 -129 148 0
-62 129 148 0
-62 -129 -148 0
98 146 -149 0
98 -146 149 0
-98 146 149 0
-98 -146 -149 0
89 133 -150 0
89 -133 150 0
-89 133 150 0
-89 -133 -150 0
87 114 -139 0
87 -114 139 0
-87 114 139 0
-87 -114 -139 0
134 145 -148 0
134 -145 148 0
-134 145 148 0
-134 -145 -148 0
79 130 -141 0
79 -130 141 0
-79 130 141 0
-79 -130 -141 0
39 118 -150 0
39 -118 150 0
-39 118 150 0
-39 -118 -150 0
9 31 -127 0
9 -31 127 0
-9 31 127 0
-9 -31 -127 0
46 75 -140 0
46 -75 140 0
-46 75 140 0
-46 -75 -140 0
33 57 -149 0
33 -57 149 0
-33 57 149 0
-33 -57 -149 0
44 54 -128 0
44 -54 128 0
-44 54 128 0
-44 -54 -128 0
22 137 -142 0
22 -137 142 0
-22 137 142 0
-22 -137 -142 0
82 138 -143 0
82 -138 143 0
-82 138 143 0
-82 -138 -143 0
