c F4 Tseitin on networkx random_regular_graph(3,40,seed=1), connected=True, odd charge on vertex 1
p cnf 60 160
1 2 3 0
1 -2 -3 0
-1 2 -3 0
-1 -2 3 0
4 5 -6 0
4 -5 6 0
-4 5 6 0
-4 -5 -6 0
7 8 -9 0
7 -8 9 0
-7 8 9 0
-7 -8 -9 0
10 11 -12 0
10 -11 12 0
-10 11 12 0
-10 -11 -12 0
13 14 -15 0
13 -14 15 0
-13 14 15 0
-13 -14 -15 0
13 16 -17 0
13 -16 17 0
-13 16 17 0
-13 -16 -17 0
18 19 -20 0
18 -19 20 0
-18 19 20 0
-18 -19 -20 0
21 22 -23 0
21 -22 23 0
-21 22 23 0
-21 -22 -23 0
10 24 -25 0
10 -24 25 0
-10 24 25 0
-10 -24 -25 0
11 26 -27 0
11 -26 27 0
-11 26 27 0
-11 -26 -27 0
28 29 -30 0
28 -29 30 0
-28 29 30 0
-28 -29 -30 0
31 32 -33 0
31 -32 33 0
-31 32 33 0
-31 -32 -33 0
34 35 -36 0
34 -35 36 0
-34 35 36 0
-34 -35 -36 0
1 37 -38 0
1 -37 38 0
-1 37 38 0
-1 -37 -38 0
16 26 -39 0
16 -26 39 0
-16 26 39 0
-16 -26 -39 0
39 40 -41 0
39 -40 41 0
-39 40 41 0
-39 -40 -41 0
37 42 -43 0
37 -42 43 0
-37 42 43 0
-37 -42 -43 0
24 44 -45 0
24 -44 45 0
-24 44 45 0
-24 -44 -45 0
21 46 -47 0
21 -46 47 0
-21 46 47 0
-21 -46 -47 0
18 46 -48 0
18 -46 48 0
-18 46 48 0
-18 -46 -48 0
28 44 -49 0
28 -44 49 0
-28 44 49 0
-28 -44 -49 0
7 17 -22 0
7 -17 22 0
-7 17 22 0
-7 -17 -22 0
34 50 -51 0
34 -50 51 0
-34 50 51 0
-34 -50 -51 0
25 38 -52 0
25 -38 52 0
-25 38 52 0
-25 -38 -52 0
19 31 -48 0
19 -31 48 0
-19 31 48 0
-19 -31 -48 0
8 29 -53 0
8 -29 53 0
-8 29 53 0
-8 -29 -53 0
49 54 -55 0
49 -54 55 0
-49 54 55 0
-49 -54 -55 0
23 54 -56 0
23 -54 56 0
-23 54 56 0
-23 -54 -56 0
4 50 -56 0
4 -50 56 0
-4 50 56 0
-4 -50 -56 0
5 27 -57 0
5 -27 57 0
-5 27 57 0
-5 -27 -57 0
2 32 -55 0
2 -32 55 0
-2 32 55 0
-2 -32 -55 0
33 42 -58 0
33 -42 58 0
-33 42 58 0
-33 -42 -58 0
12 40 -45 0
12 -40 45 0
-12 40 45 0
-12 -40 -45 0
3 35 -43 0
3 -35 43 0
-3 35 43 0
-3 -35 -43 0
36 58 -59 0
36 -58 59 0
-36 58 59 0
-36 -58 -59 0
52 57 -59 0
52 -57 59 0
-52 57 59 0
-52 -57 -59 0
9 47 -60 0
9 -47 60 0
-9 47 60 0
-9 -47 -60 0
20 41 -53 0
20 -41 53 0
-20 41 53 0
-20 -41 -53 0
14 30 -51 0
14 -30 51 0
-14 30 51 0
-14 -30 -51 0
6 15 -60 0
6 -15 60 0
-6 15 60 0
-6 -15 -60 0
