c F4 Tseitin on networkx random_regular_graph(3,300,seed=7), connected=True, odd charge on vertex 1
p cnf 450 1200
1 2 3 0
1 -2 -3 0
-1 2 -3 0
-1 -2 3 0
4 5 -6 0
4 -5 6 0
-4 5 6 0
-4 -5 -6 0
7 8 -9 0
7 -8 9 0
-7 8 9 0
-7 -8 -9 0
10 11 -12 0
10 -11 12 0
-10 11 12 0
-10 -11 -12 0
10 13 -14 0
10 -13 14 0
-10 13 14 0
-10 -13 -14 0
15 16 -17 0
15 -16 17 0
-15 16 17 0
-15 -16 -17 0
18 19 -20 0
18 -19 20 0
-18 19 20 0
-18 -19 -20 0
21 22 -23 0
21 -22 23 0
-21 22 23 0
-21 -22 -23 0
24 25 -26 0
24 -25 26 0
-24 25 26 0
-24 -25 -26 0
27 28 -29 0
27 -28 29 0
-27 28 29 0
-27 -28 -29 0
30 31 -32 0
30 -31 32 0
-30 31 32 0
-30 -31 -32 0
33 34 -35 0
33 -34 35 0
-33 34 35 0
-33 -34 -35 0
4 36 -37 0
4 -36 37 0
-4 36 37 0
-4 -36 -37 0
38 39 -40 0
38 -39 40 0
-38 39 40 0
-38 -39 -40 0
41 42 -43 0
41 -42 43 0
-41 42 43 0
-41 -42 -43 0
44 45 -46 0
44 -45 46 0
-44 45 46 0
-44 -45 -46 0
47 48 -49 0
47 -48 49 0
-47 48 49 0
-47 -48 -49 0
50 51 -52 0
50 -51 52 0
-50 51 52 0
-50 -51 -52 0
15 53 -54 0
15 -53 54 0
-15 53 54 0
-15 -53 -54 0
55 56 -57 0
55 -56 57 0
-55 56 57 0
-55 -56 -57 0
58 59 -60 0
58 -59 60 0
-58 59 60 0
-58 -59 -60 0
61 62 -63 0
61 -62 63 0
-61 62 63 0
-61 -62 -63 0
64 65 -66 0
64 -65 66 0
-64 65 66 0
-64 -65 -66 0
67 68 -69 0
67 -68 69 0
-67 68 69 0
-67 -68 -69 0
30 70 -71 0
30 -70 71 0
-30 70 71 0
-30 -70 -71 0
13 72 -73 0
13 -72 73 0
-13 72 73 0
-13 -72 -73 0
74 75 -76 0
74 -75 76 0
-74 75 76 0
-74 -75 -76 0
1 77 -78 0
1 -77 78 0
-1 77 78 0
-1 -77 -78 0
79 80 -81 0
79 -80 81 0
-79 80 81 0
-79 -80 -81 0
47 82 -83 0
47 -82 83 0
-47 82 83 0
-47 -82 -83 0
84 85 -86 0
84 -85 86 0
-84 85 86 0
-84 -85 -86 0
87 88 -89 0
87 -88 89 0
-87 88 89 0
-87 -88 -89 0
53 90 -91 0
53 -90 91 0
-53 90 91 0
-53 -90 -91 0
38 92 -93 0
38 -92 93 0
-38 92 93 0
-38 -92 -93 0
94 95 -96 0
94 -95 96 0
-94 95 96 0
-94 -95 -96 0
77 97 -98 0
77 -97 98 0
-77 97 98 0
-77 -97 -98 0
5 58 -99 0
5 -58 99 0
-5 58 99 0
-5 -58 -99 0
100 101 -102 0
100 -101 102 0
-100 101 102 0
-100 -101 -102 0
103 104 -105 0
103 -104 105 0
-103 104 105 0
-103 -104 -105 0
106 107 -108 0
106 -107 108 0
-106 107 108 0
-106 -107 -108 0
109 110 -111 0
109 -110 111 0
-109 110 111 0
-109 -110 -111 0
55 112 -113 0
55 -112 113 0
-55 112 113 0
-55 -112 -113 0
24 114 -115 0
24 -114 115 0
-24 114 115 0
-24 -114 -115 0
87 116 -117 0
87 -116 117 0
-87 116 117 0
-87 -116 -117 0
118 119 -120 0
118 -119 120 0
-118 119 120 0
-118 -119 -120 0
121 122 -123 0
121 -122 123 0
-121 122 123 0
-121 -122 -123 0
124 125 -126 0
124 -125 126 0
-124 125 126 0
-124 -125 -126 0
59 127 -128 0
59 -127 128 0
-59 127 128 0
-59 -127 -128 0
129 130 -131 0
129 -130 131 0
-129 130 131 0
-129 -130 -131 0
132 133 -134 0
132 -133 134 0
-132 133 134 0
-132 -133 -134 0
135 136 -137 0
135 -136 137 0
-135 136 137 0
-135 -136 -137 0
138 139 -140 0
138 -139 140 0
-138 139 140 0
-138 -139 -140 0
50 141 -142 0
50 -141 142 0
-50 141 142 0
-50 -141 -142 0
94 143 -144 0
94 -143 144 0
-94 143 144 0
-94 -143 -144 0
145 146 -147 0
145 -146 147 0
-145 146 147 0
-145 -146 -147 0
148 149 -150 0
148 -149 150 0
-148 149 150 0
-148 -149 -150 0
48 64 -151 0
48 -64 151 0
-48 64 151 0
-48 -64 -151 0
27 152 -153 0
27 -152 153 0
-27 152 153 0
-27 -152 -153 0
154 155 -156 0
154 -155 156 0
-154 155 156 0
-154 -155 -156 0
157 158 -159 0
157 -158 159 0
-157 158 159 0
-157 -158 -159 0
160 161 -162 0
160 -161 162 0
-160 161 162 0
-160 -161 -162 0
163 164 -165 0
163 -164 165 0
-163 164 165 0
-163 -164 -165 0
166 167 -168 0
166 -167 168 0
-166 167 168 0
-166 -167 -168 0
79 169 -170 0
79 -169 170 0
-79 169 170 0
-79 -169 -170 0
171 172 -173 0
171 -172 173 0
-171 172 173 0
-171 -172 -173 0
41 49 -174 0
41 -49 174 0
-41 49 174 0
-41 -49 -174 0
175 176 -177 0
175 -176 177 0
-175 176 177 0
-175 -176 -177 0
178 179 -180 0
178 -179 180 0
-178 179 180 0
-178 -179 -180 0
181 182 -183 0
181 -182 183 0
-181 182 183 0
-181 -182 -183 0
184 185 -186 0
184 -185 186 0
-184 185 186 0
-184 -185 -186 0
187 188 -189 0
187 -188 189 0
-187 188 189 0
-187 -188 -189 0
190 191 -192 0
190 -191 192 0
-190 191 192 0
-190 -191 -192 0
88 193 -194 0
88 -193 194 0
-88 193 194 0
-88 -193 -194 0
154 195 -196 0
154 -195 196 0
-154 195 196 0
-154 -195 -196 0
145 197 -198 0
145 -197 198 0
-145 197 198 0
-145 -197 -198 0
199 200 -201 0
199 -200 201 0
-199 200 201 0
-199 -200 -201 0
65 202 -203 0
65 -202 203 0
-65 202 203 0
-65 -202 -203 0
204 205 -206 0
204 -205 206 0
-204 205 206 0
-204 -205 -206 0
207 208 -209 0
207 -208 209 0
-207 208 209 0
-207 -208 -209 0
14 210 -211 0
14 -210 211 0
-14 210 211 0
-14 -210 -211 0
7 212 -213 0
7 -212 213 0
-7 212 213 0
-7 -212 -213 0
214 215 -216 0
214 -215 216 0
-214 215 216 0
-214 -215 -216 0
116 217 -218 0
116 -217 218 0
-116 217 218 0
-116 -217 -218 0
219 220 -221 0
219 -220 221 0
-219 220 221 0
-219 -220 -221 0
97 138 -222 0
97 -138 222 0
-97 138 222 0
-97 -138 -222 0
98 223 -224 0
98 -223 224 0
-98 223 224 0
-98 -223 -224 0
2 225 -226 0
2 -225 226 0
-2 225 226 0
-2 -225 -226 0
127 217 -227 0
127 -217 227 0
-127 217 227 0
-127 -217 -227 0
228 229 -230 0
228 -229 230 0
-228 229 230 0
-228 -229 -230 0
231 232 -233 0
231 -232 233 0
-231 232 233 0
-231 -232 -233 0
234 235 -236 0
234 -235 236 0
-234 235 236 0
-234 -235 -236 0
237 238 -239 0
237 -238 239 0
-237 238 239 0
-237 -238 -239 0
195 240 -241 0
195 -240 241 0
-195 240 241 0
-195 -240 -241 0
242 243 -244 0
242 -243 244 0
-242 243 244 0
-242 -243 -244 0
181 245 -246 0
181 -245 246 0
-181 245 246 0
-181 -245 -246 0
152 247 -248 0
152 -247 248 0
-152 247 248 0
-152 -247 -248 0
33 249 -250 0
33 -249 250 0
-33 249 250 0
-33 -249 -250 0
178 251 -252 0
178 -251 252 0
-178 251 252 0
-178 -251 -252 0
253 254 -255 0
253 -254 255 0
-253 254 255 0
-253 -254 -255 0
160 179 -256 0
160 -179 256 0
-160 179 256 0
-160 -179 -256 0
257 258 -259 0
257 -258 259 0
-257 258 259 0
-257 -258 -259 0
193 260 -261 0
193 -260 261 0
-193 260 261 0
-193 -260 -261 0
262 263 -264 0
262 -263 264 0
-262 263 264 0
-262 -263 -264 0
262 265 -266 0
262 -265 266 0
-262 265 266 0
-262 -265 -266 0
100 265 -267 0
100 -265 267 0
-100 265 267 0
-100 -265 -267 0
268 269 -270 0
268 -269 270 0
-268 269 270 0
-268 -269 -270 0
11 271 -272 0
11 -271 272 0
-11 271 272 0
-11 -271 -272 0
196 273 -274 0
196 -273 274 0
-196 273 274 0
-196 -273 -274 0
157 275 -276 0
157 -275 276 0
-157 275 276 0
-157 -275 -276 0
277 278 -279 0
277 -278 279 0
-277 278 279 0
-277 -278 -279 0
3 280 -281 0
3 -280 281 0
-3 280 281 0
-3 -280 -281 0
282 283 -284 0
282 -283 284 0
-282 283 284 0
-282 -283 -284 0
124 223 -285 0
124 -223 285 0
-124 223 285 0
-124 -223 -285 0
184 286 -287 0
184 -286 287 0
-184 286 287 0
-184 -286 -287 0
112 288 -289 0
112 -288 289 0
-112 288 289 0
-112 -288 -289 0
240 290 -291 0
240 -290 291 0
-240 290 291 0
-240 -290 -291 0
292 293 -294 0
292 -293 294 0
-292 293 294 0
-292 -293 -294 0
234 277 -295 0
234 -277 295 0
-234 277 295 0
-234 -277 -295 0
207 247 -296 0
207 -247 296 0
-207 247 296 0
-207 -247 -296 0
297 298 -299 0
297 -298 299 0
-297 298 299 0
-297 -298 -299 0
125 300 -301 0
125 -300 301 0
-125 300 301 0
-125 -300 -301 0
28 302 -303 0
28 -302 303 0
-28 302 303 0
-28 -302 -303 0
135 139 -304 0
135 -139 304 0
-135 139 304 0
-135 -139 -304 0
99 305 -306 0
99 -305 306 0
-99 305 306 0
-99 -305 -306 0
305 307 -308 0
305 -307 308 0
-305 307 308 0
-305 -307 -308 0
121 166 -309 0
121 -166 309 0
-121 166 309 0
-121 -166 -309 0
143 310 -311 0
143 -310 311 0
-143 310 311 0
-143 -310 -311 0
214 307 -312 0
214 -307 312 0
-214 307 312 0
-214 -307 -312 0
313 314 -315 0
313 -314 315 0
-313 314 315 0
-313 -314 -315 0
61 316 -317 0
61 -316 317 0
-61 316 317 0
-61 -316 -317 0
118 219 -318 0
118 -219 318 0
-118 219 318 0
-118 -219 -318 0
34 253 -319 0
34 -253 319 0
-34 253 319 0
-34 -253 -319 0
95 161 -320 0
95 -161 320 0
-95 161 320 0
-95 -161 -320 0
292 321 -322 0
292 -321 322 0
-292 321 322 0
-292 -321 -322 0
44 220 -323 0
44 -220 323 0
-44 220 323 0
-44 -220 -323 0
208 324 -325 0
208 -324 325 0
-208 324 325 0
-208 -324 -325 0
310 326 -327 0
310 -326 327 0
-310 326 327 0
-310 -326 -327 0
74 187 -328 0
74 -187 328 0
-74 187 328 0
-74 -187 -328 0
62 329 -330 0
62 -329 330 0
-62 329 330 0
-62 -329 -330 0
221 295 -331 0
221 -295 331 0
-221 295 331 0
-221 -295 -331 0
282 332 -333 0
282 -332 333 0
-282 332 333 0
-282 -332 -333 0
122 334 -335 0
122 -334 335 0
-122 334 335 0
-122 -334 -335 0
212 231 -336 0
212 -231 336 0
-212 231 336 0
-212 -231 -336 0
119 232 -337 0
119 -232 337 0
-119 232 337 0
-119 -232 -337 0
129 271 -338 0
129 -271 338 0
-129 271 338 0
-129 -271 -338 0
199 309 -339 0
199 -309 339 0
-199 309 339 0
-199 -309 -339 0
210 225 -340 0
210 -225 340 0
-210 225 340 0
-210 -225 -340 0
290 341 -342 0
290 -341 342 0
-290 341 342 0
-290 -341 -342 0
332 343 -344 0
332 -343 344 0
-332 343 344 0
-332 -343 -344 0
245 263 -345 0
245 -263 345 0
-245 263 345 0
-245 -263 -345 0
67 285 -291 0
67 -285 291 0
-67 285 291 0
-67 -285 -291 0
84 180 -213 0
84 -180 213 0
-84 180 213 0
-84 -180 -213 0
257 346 -347 0
257 -346 347 0
-257 346 347 0
-257 -346 -347 0
106 348 -349 0
106 -348 349 0
-106 348 349 0
-106 -348 -349 0
31 80 -228 0
31 -80 228 0
-31 80 228 0
-31 -80 -228 0
174 316 -350 0
174 -316 350 0
-174 316 350 0
-174 -316 -350 0
90 304 -351 0
90 -304 351 0
-90 304 351 0
-90 -304 -351 0
352 353 -354 0
352 -353 354 0
-352 353 354 0
-352 -353 -354 0
254 350 -355 0
254 -350 355 0
-254 350 355 0
-254 -350 -355 0
54 334 -356 0
54 -334 356 0
-54 334 356 0
-54 -334 -356 0
114 338 -357 0
114 -338 357 0
-114 338 357 0
-114 -338 -357 0
249 329 -358 0
249 -329 358 0
-249 329 358 0
-249 -329 -358 0
171 348 -359 0
171 -348 359 0
-171 348 359 0
-171 -348 -359 0
260 349 -360 0
260 -349 360 0
-260 349 360 0
-260 -349 -360 0
326 361 -362 0
326 -361 362 0
-326 361 362 0
-326 -361 -362 0
75 163 -317 0
75 -163 317 0
-75 163 317 0
-75 -163 -317 0
85 321 -337 0
85 -321 337 0
-85 321 337 0
-85 -321 -337 0
242 272 -363 0
242 -272 363 0
-242 272 363 0
-242 -272 -363 0
327 335 -364 0
327 -335 364 0
-327 335 364 0
-327 -335 -364 0
175 215 -365 0
175 -215 365 0
-175 215 365 0
-175 -215 -365 0
51 209 -366 0
51 -209 366 0
-51 209 366 0
-51 -209 -366 0
25 141 -367 0
25 -141 367 0
-25 141 367 0
-25 -141 -367 0
148 357 -368 0
148 -357 368 0
-148 357 368 0
-148 -357 -368 0
369 370 -371 0
369 -370 371 0
-369 370 371 0
-369 -370 -371 0
72 132 -372 0
72 -132 372 0
-72 132 372 0
-72 -132 -372 0
172 369 -373 0
172 -369 373 0
-172 369 373 0
-172 -369 -373 0
86 374 -375 0
86 -374 375 0
-86 374 375 0
-86 -374 -375 0
136 374 -376 0
136 -374 376 0
-136 374 376 0
-136 -374 -376 0
377 378 -379 0
377 -378 379 0
-377 378 379 0
-377 -378 -379 0
18 36 -356 0
18 -36 356 0
-18 36 356 0
-18 -36 -356 0
185 328 -340 0
185 -328 340 0
-185 328 340 0
-185 -328 -340 0
323 380 -381 0
323 -380 381 0
-323 380 381 0
-323 -380 -381 0
158 288 -313 0
158 -288 313 0
-158 288 313 0
-158 -288 -313 0
261 364 -382 0
261 -364 382 0
-261 364 382 0
-261 -364 -382 0
56 103 -383 0
56 -103 383 0
-56 103 383 0
-56 -103 -383 0
89 300 -343 0
89 -300 343 0
-89 300 343 0
-89 -300 -343 0
384 385 -386 0
384 -385 386 0
-384 385 386 0
-384 -385 -386 0
26 107 -387 0
26 -107 387 0
-26 107 387 0
-26 -107 -387 0
126 153 -164 0
126 -153 164 0
-126 153 164 0
-126 -153 -164 0
182 359 -388 0
182 -359 388 0
-182 359 388 0
-182 -359 -388 0
21 149 -389 0
21 -149 389 0
-21 149 389 0
-21 -149 -389 0
70 380 -390 0
70 -380 390 0
-70 380 390 0
-70 -380 -390 0
370 391 -392 0
370 -391 392 0
-370 391 392 0
-370 -391 -392 0
91 204 -393 0
91 -204 393 0
-91 204 393 0
-91 -204 -393 0
205 330 -390 0
205 -330 390 0
-205 330 390 0
-205 -330 -390 0
101 109 -394 0
101 -109 394 0
-101 109 394 0
-101 -109 -394 0
137 395 -396 0
137 -395 396 0
-137 395 396 0
-137 -395 -396 0
224 352 -397 0
224 -352 397 0
-224 352 397 0
-224 -352 -397 0
57 183 -398 0
57 -183 398 0
-57 183 398 0
-57 -183 -398 0
243 264 -377 0
243 -264 377 0
-243 264 377 0
-243 -264 -377 0
82 383 -399 0
82 -383 399 0
-82 383 399 0
-82 -383 -399 0
289 365 -400 0
289 -365 400 0
-289 365 400 0
-289 -365 -400 0
268 341 -401 0
268 -341 401 0
-268 341 401 0
-268 -341 -401 0
202 345 -402 0
202 -345 402 0
-202 345 402 0
-202 -345 -402 0
96 146 -403 0
96 -146 403 0
-96 146 403 0
-96 -146 -403 0
333 404 -405 0
333 -404 405 0
-333 404 405 0
-333 -404 -405 0
37 159 -360 0
37 -159 360 0
-37 159 360 0
-37 -159 -360 0
404 406 -407 0
404 -406 407 0
-404 406 407 0
-404 -406 -407 0
123 246 -324 0
123 -246 324 0
-123 246 324 0
-123 -246 -324 0
173 200 -408 0
173 -200 408 0
-173 200 408 0
-173 -200 -408 0
186 398 -409 0
186 -398 409 0
-186 398 409 0
-186 -398 -409 0
42 60 -410 0
42 -60 410 0
-42 60 410 0
-42 -60 -410 0
233 391 -411 0
233 -391 411 0
-233 391 411 0
-233 -391 -411 0
226 237 -412 0
226 -237 412 0
-226 237 412 0
-226 -237 -412 0
411 413 -414 0
411 -413 414 0
-411 413 414 0
-411 -413 -414 0
39 409 -415 0
39 -409 415 0
-39 409 415 0
-39 -409 -415 0
19 351 -373 0
19 -351 373 0
-19 351 373 0
-19 -351 -373 0
151 169 -368 0
151 -169 368 0
-151 169 368 0
-151 -169 -368 0
16 150 -167 0
16 -150 167 0
-16 150 167 0
-16 -150 -167 0
280 325 -416 0
280 -325 416 0
-280 325 416 0
-280 -325 -416 0
190 412 -417 0
190 -412 417 0
-190 412 417 0
-190 -412 -417 0
115 275 -283 0
115 -275 283 0
-115 275 283 0
-115 -275 -283 0
155 203 -418 0
155 -203 418 0
-155 203 418 0
-155 -203 -418 0
322 419 -420 0
322 -419 420 0
-322 419 420 0
-322 -419 -420 0
363 401 -415 0
363 -401 415 0
-363 401 415 0
-363 -401 -415 0
147 267 -293 0
147 -267 293 0
-147 267 293 0
-147 -267 -293 0
375 376 -421 0
375 -376 421 0
-375 376 421 0
-375 -376 -421 0
258 296 -422 0
258 -296 422 0
-258 296 422 0
-258 -296 -422 0
201 241 -408 0
201 -241 408 0
-201 241 408 0
-201 -241 -408 0
130 235 -284 0
130 -235 284 0
-130 235 284 0
-130 -235 -284 0
92 133 -423 0
92 -133 423 0
-92 133 423 0
-92 -133 -423 0
176 229 -424 0
176 -229 424 0
-176 229 424 0
-176 -229 -424 0
211 419 -421 0
211 -419 421 0
-211 419 421 0
-211 -419 -421 0
170 425 -426 0
170 -425 426 0
-170 425 426 0
-170 -425 -426 0
255 389 -427 0
255 -389 427 0
-255 389 427 0
-255 -389 -427 0
346 388 -428 0
346 -388 428 0
-346 388 428 0
-346 -388 -428 0
222 384 -420 0
222 -384 420 0
-222 384 420 0
-222 -384 -420 0
22 402 -429 0
22 -402 429 0
-22 402 429 0
-22 -402 -429 0
131 314 -385 0
131 -314 385 0
-131 314 385 0
-131 -314 -385 0
52 144 -278 0
52 -144 278 0
-52 144 278 0
-52 -144 -278 0
188 430 -431 0
188 -430 431 0
-188 430 431 0
-188 -430 -431 0
45 63 -432 0
45 -63 432 0
-45 63 432 0
-45 -63 -432 0
12 40 -43 0
12 -40 43 0
-12 40 43 0
-12 -40 -43 0
134 162 -406 0
134 -162 406 0
-134 162 406 0
-134 -162 -406 0
433 434 -435 0
433 -434 435 0
-433 434 435 0
-433 -434 -435 0
259 281 -397 0
259 -281 397 0
-259 281 397 0
-259 -281 -397 0
29 302 -436 0
29 -302 436 0
-29 302 436 0
-29 -302 -436 0
315 358 -395 0
315 -358 395 0
-315 358 395 0
-315 -358 -395 0
266 336 -437 0
266 -336 437 0
-266 336 437 0
-266 -336 -437 0
73 438 -439 0
73 -438 439 0
-73 438 439 0
-73 -438 -439 0
17 32 -361 0
17 -32 361 0
-17 32 361 0
-17 -32 -361 0
177 230 -308 0
177 -230 308 0
-177 230 308 0
-177 -230 -308 0
83 250 -378 0
83 -250 378 0
-83 250 378 0
-83 -250 -378 0
110 128 -417 0
110 -128 417 0
-110 128 417 0
-110 -128 -417 0
216 244 -400 0
216 -244 400 0
-216 244 400 0
-216 -244 -400 0
353 399 -440 0
353 -399 440 0
-353 399 440 0
-353 -399 -440 0
23 306 -410 0
23 -306 410 0
-23 306 410 0
-23 -306 -410 0
93 113 -394 0
93 -113 394 0
-93 113 394 0
-93 -113 -394 0
423 441 -442 0
423 -441 442 0
-423 441 442 0
-423 -441 -442 0
189 303 -443 0
189 -303 443 0
-189 303 443 0
-189 -303 -443 0
372 430 -444 0
372 -430 444 0
-372 430 444 0
-372 -430 -444 0
108 142 -297 0
108 -142 297 0
-108 142 297 0
-108 -142 -297 0
238 248 -386 0
238 -248 386 0
-238 248 386 0
-238 -248 -386 0
165 279 -425 0
165 -279 425 0
-165 279 425 0
-165 -279 -425 0
66 227 -432 0
66 -227 432 0
-66 227 432 0
-66 -227 -432 0
78 393 -403 0
78 -393 403 0
-78 393 403 0
-78 -393 -403 0
168 433 -444 0
168 -433 444 0
-168 433 444 0
-168 -433 -444 0
251 342 -437 0
251 -342 437 0
-251 342 437 0
-251 -342 -437 0
120 206 -445 0
120 -206 445 0
-120 206 445 0
-120 -206 -445 0
256 318 -441 0
256 -318 441 0
-256 318 441 0
-256 -318 -441 0
35 76 -446 0
35 -76 446 0
-35 76 446 0
-35 -76 -446 0
331 379 -446 0
331 -379 446 0
-331 379 446 0
-331 -379 -446 0
276 347 -445 0
276 -347 445 0
-276 347 445 0
-276 -347 -445 0
46 366 -447 0
46 -366 447 0
-46 366 447 0
-46 -366 -447 0
298 311 -387 0
298 -311 387 0
-298 311 387 0
-298 -311 -387 0
422 431 -448 0
422 -431 448 0
-422 431 448 0
-422 -431 -448 0
344 427 -434 0
344 -427 434 0
-344 427 434 0
-344 -427 -434 0
273 371 -442 0
273 -371 442 0
-273 371 442 0
-273 -371 -442 0
197 405 -429 0
197 -405 429 0
-197 405 429 0
-197 -405 -429 0
435 443 -449 0
435 -443 449 0
-435 443 449 0
-435 -443 -449 0
269 407 -413 0
269 -407 413 0
-269 407 413 0
-269 -407 -413 0
236 362 -414 0
236 -362 414 0
-236 362 414 0
-236 -362 -414 0
71 418 -447 0
71 -418 447 0
-71 418 447 0
-71 -418 -447 0
104 111 -156 0
104 -111 156 0
-104 111 156 0
-104 -111 -156 0
416 424 -448 0
416 -424 448 0
-416 424 448 0
-416 -424 -448 0
8 68 -319 0
8 -68 319 0
-8 68 319 0
-8 -68 -319 0
191 218 -239 0
191 -218 239 0
-191 218 239 0
-191 -218 -239 0
69 192 -449 0
69 -192 449 0
-69 192 449 0
-69 -192 -449 0
270 354 -381 0
270 -354 381 0
-270 354 381 0
-270 -354 -381 0
426 436 -438 0
426 -436 438 0
-426 436 438 0
-426 -436 -438 0
299 301 -367 0
299 -301 367 0
-299 301 367 0
-299 -301 -367 0
286 428 -450 0
286 -428 450 0
-286 428 450 0
-286 -428 -450 0
6 392 -439 0
6 -392 439 0
-6 392 439 0
-6 -392 -439 0
102 294 -382 0
102 -294 382 0
-102 294 382 0
-102 -294 -382 0
9 252 -339 0
9 -252 339 0
-9 252 339 0
-9 -252 -339 0
117 198 -287 0
117 -198 287 0
-117 198 287 0
-117 -198 -287 0
105 194 -396 0
105 -194 396 0
-105 194 396 0
-105 -194 -396 0
81 140 -440 0
81 -140 440 0
-81 140 440 0
-81 -140 -440 0
312 320 -450 0
312 -320 450 0
-312 320 450 0
-312 -320 -450 0
20 274 -355 0
20 -274 355 0
-20 274 355 0
-20 -274 -355 0
