c F4 Tseitin on networkx random_regular_graph(3,200,seed=2), connected=True, odd charge on vertex 1
p cnf 300 800
1 2 3 0
1 -2 -3 0
-1 2 -3 0
-1 -2 3 0
4 5 -6 0
4 -5 6 0
-4 5 6 0
-4 -5 -6 0
7 8 -9 0
7 -8 9 0
-7 8 9 0
-7 -8 -9 0
10 11 -12 0
10 -11 12 0
-10 11 12 0
-10 -11 -12 0
13 14 -15 0
13 -14 15 0
-13 14 15 0
-13 -14 -15 0
16 17 -18 0
16 -17 18 0
-16 17 18 0
-16 -17 -18 0
19 20 -21 0
19 -20 21 0
-19 20 21 0
-19 -20 -21 0
22 23 -24 0
22 -23 24 0
-22 23 24 0
-22 -23 -24 0
25 26 -27 0
25 -26 27 0
-25 26 27 0
-25 -26 -27 0
22 28 -29 0
22 -28 29 0
-22 28 29 0
-22 -28 -29 0
30 31 -32 0
30 -31 32 0
-30 31 32 0
-30 -31 -32 0
33 34 -35 0
33 -34 35 0
-33 34 35 0
-33 -34 -35 0
36 37 -38 0
36 -37 38 0
-36 37 38 0
-36 -37 -38 0
39 40 -41 0
39 -40 41 0
-39 40 41 0
-39 -40 -41 0
42 43 -44 0
42 -43 44 0
-42 43 44 0
-42 -43 -44 0
45 46 -47 0
45 -46 47 0
-45 46 47 0
-45 -46 -47 0
48 49 -50 0
48 -49 50 0
-48 49 50 0
-48 -49 -50 0
42 51 -52 0
42 -51 52 0
-42 51 52 0
-42 -51 -52 0
53 54 -55 0
53 -54 55 0
-53 54 55 0
-53 -54 -55 0
56 57 -58 0
56 -57 58 0
-56 57 58 0
-56 -57 -58 0
48 59 -60 0
48 -59 60 0
-48 59 60 0
-48 -59 -60 0
61 62 -63 0
61 -62 63 0
-61 62 63 0
-61 -62 -63 0
64 65 -66 0
64 -65 66 0
-64 65 66 0
-64 -65 -66 0
67 68 -69 0
67 -68 69 0
-67 68 69 0
-67 -68 -69 0
70 71 -72 0
70 -71 72 0
-70 71 72 0
-70 -71 -72 0
73 74 -75 0
73 -74 75 0
-73 74 75 0
-73 -74 -75 0
53 67 -76 0
53 -67 76 0
-53 67 76 0
-53 -67 -76 0
77 78 -79 0
77 -78 79 0
-77 78 79 0
-77 -78 -79 0
19 80 -81 0
19 -80 81 0
-19 80 81 0
-19 -80 -81 0
82 83 -84 0
82 -83 84 0
-82 83 84 0
-82 -83 -84 0
70 85 -86 0
70 -85 86 0
-70 85 86 0
-70 -85 -86 0
87 88 -89 0
87 -88 89 0
-87 88 89 0
-87 -88 -89 0
56 82 -90 0
56 -82 90 0
-56 82 90 0
-56 -82 -90 0
13 91 -92 0
13 -91 92 0
-13 91 92 0
-13 -91 -92 0
33 93 -94 0
33 -93 94 0
-33 93 94 0
-33 -93 -94 0
95 96 -97 0
95 -96 97 0
-95 96 97 0
-95 -96 -97 0
98 99 -100 0
98 -99 100 0
-98 99 100 0
-98 -99 -100 0
101 102 -103 0
101 -102 103 0
-101 102 103 0
-101 -102 -103 0
61 104 -105 0
61 -104 105 0
-61 104 105 0
-61 -104 -105 0
106 107 -108 0
106 -107 108 0
-106 107 108 0
-106 -107 -108 0
109 110 -111 0
109 -110 111 0
-109 110 111 0
-109 -110 -111 0
112 113 -114 0
112 -113 114 0
-112 113 114 0
-112 -113 -114 0
112 115 -116 0
112 -115 116 0
-112 115 116 0
-112 -115 -116 0
117 118 -119 0
117 -118 119 0
-117 118 119 0
-117 -118 -119 0
120 121 -122 0
120 -121 122 0
-120 121 122 0
-120 -121 -122 0
123 124 -125 0
123 -124 125 0
-123 124 125 0
-123 -124 -125 0
113 126 -127 0
113 -126 127 0
-113 126 127 0
-113 -126 -127 0
123 128 -129 0
123 -128 129 0
-123 128 129 0
-123 -128 -129 0
14 95 -130 0
14 -95 130 0
-14 95 130 0
-14 -95 -130 0
34 131 -132 0
34 -131 132 0
-34 131 132 0
-34 -131 -132 0
45 124 -133 0
45 -124 133 0
-45 124 133 0
-45 -124 -133 0
1 54 -134 0
1 -54 134 0
-1 54 134 0
-1 -54 -134 0
135 136 -137 0
135 -136 137 0
-135 136 137 0
-135 -136 -137 0
109 115 -138 0
109 -115 138 0
-109 115 138 0
-109 -115 -138 0
110 139 -140 0
110 -139 140 0
-110 139 140 0
-110 -139 -140 0
4 77 -141 0
4 -77 141 0
-4 77 141 0
-4 -77 -141 0
23 142 -143 0
23 -142 143 0
-23 142 143 0
-23 -142 -143 0
36 144 -145 0
36 -144 145 0
-36 144 145 0
-36 -144 -145 0
146 147 -148 0
146 -147 148 0
-146 147 148 0
-146 -147 -148 0
149 150 -151 0
149 -150 151 0
-149 150 151 0
-149 -150 -151 0
117 152 -153 0
117 -152 153 0
-117 152 153 0
-117 -152 -153 0
138 141 -154 0
138 -141 154 0
-138 141 154 0
-138 -141 -154 0
30 155 -156 0
30 -155 156 0
-30 155 156 0
-30 -155 -156 0
157 158 -159 0
157 -158 159 0
-157 158 159 0
-157 -158 -159 0
160 161 -162 0
160 -161 162 0
-160 161 162 0
-160 -161 -162 0
31 163 -164 0
31 -163 164 0
-31 163 164 0
-31 -163 -164 0
55 165 -166 0
55 -165 166 0
-55 165 166 0
-55 -165 -166 0
167 168 -169 0
167 -168 169 0
-167 168 169 0
-167 -168 -169 0
28 87 -170 0
28 -87 170 0
-28 87 170 0
-28 -87 -170 0
171 172 -173 0
171 -172 173 0
-171 172 173 0
-171 -172 -173 0
10 174 -175 0
10 -174 175 0
-10 174 175 0
-10 -174 -175 0
126 176 -177 0
126 -176 177 0
-126 176 177 0
-126 -176 -177 0
24 57 -178 0
24 -57 178 0
-24 57 178 0
-24 -57 -178 0
16 59 -179 0
16 -59 179 0
-16 59 179 0
-16 -59 -179 0
39 64 -180 0
39 -64 180 0
-39 64 180 0
-39 -64 -180 0
11 128 -181 0
11 -128 181 0
-11 128 181 0
-11 -128 -181 0
40 167 -182 0
40 -167 182 0
-40 167 182 0
-40 -167 -182 0
171 183 -184 0
171 -183 184 0
-171 183 184 0
-171 -183 -184 0
32 127 -185 0
32 -127 185 0
-32 127 185 0
-32 -127 -185 0
186 187 -188 0
186 -187 188 0
-186 187 188 0
-186 -187 -188 0
189 190 -191 0
189 -190 191 0
-189 190 191 0
-189 -190 -191 0
2 131 -192 0
2 -131 192 0
-2 131 192 0
-2 -131 -192 0
193 194 -195 0
193 -194 195 0
-193 194 195 0
-193 -194 -195 0
7 196 -197 0
7 -196 197 0
-7 196 197 0
-7 -196 -197 0
85 152 -198 0
85 -152 198 0
-85 152 198 0
-85 -152 -198 0
146 199 -200 0
146 -199 200 0
-146 199 200 0
-146 -199 -200 0
46 201 -202 0
46 -201 202 0
-46 201 202 0
-46 -201 -202 0
134 157 -163 0
134 -157 163 0
-134 157 163 0
-134 -157 -163 0
203 204 -205 0
203 -204 205 0
-203 204 205 0
-203 -204 -205 0
96 206 -207 0
96 -206 207 0
-96 206 207 0
-96 -206 -207 0
120 178 -208 0
120 -178 208 0
-120 178 208 0
-120 -178 -208 0
189 209 -210 0
189 -209 210 0
-189 209 210 0
-189 -209 -210 0
209 211 -212 0
209 -211 212 0
-209 211 212 0
-209 -211 -212 0
213 214 -215 0
213 -214 215 0
-213 214 215 0
-213 -214 -215 0
8 216 -217 0
8 -216 217 0
-8 216 217 0
-8 -216 -217 0
218 219 -220 0
218 -219 220 0
-218 219 220 0
-218 -219 -220 0
3 176 -186 0
3 -176 186 0
-3 176 186 0
-3 -176 -186 0
58 221 -222 0
58 -221 222 0
-58 221 222 0
-58 -221 -222 0
111 135 -223 0
111 -135 223 0
-111 135 223 0
-111 -135 -223 0
168 224 -225 0
168 -224 225 0
-168 224 225 0
-168 -224 -225 0
226 227 -228 0
226 -227 228 0
-226 227 228 0
-226 -227 -228 0
43 177 -199 0
43 -177 199 0
-43 177 199 0
-43 -177 -199 0
106 187 -229 0
106 -187 229 0
-106 187 229 0
-106 -187 -229 0
172 213 -230 0
172 -213 230 0
-172 213 230 0
-172 -213 -230 0
5 91 -224 0
5 -91 224 0
-5 91 224 0
-5 -91 -224 0
51 104 -173 0
51 -104 173 0
-51 104 173 0
-51 -104 -173 0
98 231 -232 0
98 -231 232 0
-98 231 232 0
-98 -231 -232 0
192 203 -233 0
192 -203 233 0
-192 203 233 0
-192 -203 -233 0
149 193 -204 0
149 -193 204 0
-149 193 204 0
-149 -193 -204 0
44 114 -234 0
44 -114 234 0
-44 114 234 0
-44 -114 -234 0
221 235 -236 0
221 -235 236 0
-221 235 236 0
-221 -235 -236 0
147 216 -237 0
147 -216 237 0
-147 216 237 0
-147 -216 -237 0
121 238 -239 0
121 -238 239 0
-121 238 239 0
-121 -238 -239 0
9 160 -206 0
9 -160 206 0
-9 160 206 0
-9 -160 -206 0
107 240 -241 0
107 -240 241 0
-107 240 241 0
-107 -240 -241 0
78 242 -243 0
78 -242 243 0
-78 242 243 0
-78 -242 -243 0
20 150 -244 0
20 -150 244 0
-20 150 244 0
-20 -150 -244 0
47 245 -246 0
47 -245 246 0
-47 245 246 0
-47 -245 -246 0
25 247 -248 0
25 -247 248 0
-25 247 248 0
-25 -247 -248 0
249 250 -251 0
249 -250 251 0
-249 250 251 0
-249 -250 -251 0
252 253 -254 0
252 -253 254 0
-252 253 254 0
-252 -253 -254 0
183 238 -255 0
183 -238 255 0
-183 238 255 0
-183 -238 -255 0
130 233 -256 0
130 -233 256 0
-130 233 256 0
-130 -233 -256 0
21 92 -257 0
21 -92 257 0
-21 92 257 0
-21 -92 -257 0
125 211 -258 0
125 -211 258 0
-125 211 258 0
-125 -211 -258 0
259 260 -261 0
259 -260 261 0
-259 260 261 0
-259 -260 -261 0
151 207 -262 0
151 -207 262 0
-151 207 262 0
-151 -207 -262 0
62 136 -263 0
62 -136 263 0
-62 136 263 0
-62 -136 -263 0
116 264 -265 0
116 -264 265 0
-116 264 265 0
-116 -264 -265 0
83 154 -266 0
83 -154 266 0
-83 154 266 0
-83 -154 -266 0
60 80 -252 0
60 -80 252 0
-60 80 252 0
-60 -80 -252 0
155 247 -267 0
155 -247 267 0
-155 247 267 0
-155 -247 -267 0
49 68 -105 0
49 -68 105 0
-49 68 105 0
-49 -68 -105 0
214 268 -269 0
214 -268 269 0
-214 268 269 0
-214 -268 -269 0
69 101 -198 0
69 -101 198 0
-69 101 198 0
-69 -101 -198 0
185 270 -271 0
185 -270 271 0
-185 270 271 0
-185 -270 -271 0
17 272 -273 0
17 -272 273 0
-17 272 273 0
-17 -272 -273 0
190 200 -274 0
190 -200 274 0
-190 200 274 0
-190 -200 -274 0
65 153 -275 0
65 -153 275 0
-65 153 275 0
-65 -153 -275 0
73 144 -276 0
73 -144 276 0
-73 144 276 0
-73 -144 -276 0
6 66 -277 0
6 -66 277 0
-6 66 277 0
-6 -66 -277 0
37 278 -279 0
37 -278 279 0
-37 278 279 0
-37 -278 -279 0
81 259 -280 0
81 -259 280 0
-81 259 280 0
-81 -259 -280 0
148 245 -281 0
148 -245 281 0
-148 245 281 0
-148 -245 -281 0
86 264 -282 0
86 -264 282 0
-86 264 282 0
-86 -264 -282 0
29 196 -231 0
29 -196 231 0
-29 196 231 0
-29 -196 -231 0
52 122 -249 0
52 -122 249 0
-52 122 249 0
-52 -122 -249 0
158 283 -284 0
158 -283 284 0
-158 283 284 0
-158 -283 -284 0
88 285 -286 0
88 -285 286 0
-88 285 286 0
-88 -285 -286 0
174 242 -287 0
174 -242 287 0
-174 242 287 0
-174 -242 -287 0
102 210 -212 0
102 -210 212 0
-102 210 212 0
-102 -210 -212 0
50 267 -288 0
50 -267 288 0
-50 267 288 0
-50 -267 -288 0
71 226 -289 0
71 -226 289 0
-71 226 289 0
-71 -226 -289 0
165 218 -278 0
165 -218 278 0
-165 218 278 0
-165 -218 -278 0
290 291 -292 0
290 -291 292 0
-290 291 292 0
-290 -291 -292 0
26 161 -260 0
26 -161 260 0
-26 161 260 0
-26 -161 -260 0
89 175 -266 0
89 -175 266 0
-89 175 266 0
-89 -175 -266 0
219 283 -293 0
219 -283 293 0
-219 283 293 0
-219 -283 -293 0
90 99 -279 0
90 -99 279 0
-90 99 279 0
-90 -99 -279 0
97 129 -232 0
97 -129 232 0
-97 129 232 0
-97 -129 -232 0
12 220 -294 0
12 -220 294 0
-12 220 294 0
-12 -220 -294 0
100 118 -182 0
100 -118 182 0
-100 118 182 0
-100 -118 -182 0
208 235 -284 0
208 -235 284 0
-208 235 284 0
-208 -235 -284 0
179 237 -263 0
179 -237 263 0
-179 237 263 0
-179 -237 -263 0
145 234 -236 0
145 -234 236 0
-145 234 236 0
-145 -234 -236 0
181 194 -227 0
181 -194 227 0
-181 194 227 0
-181 -194 -227 0
191 262 -294 0
191 -262 294 0
-191 262 294 0
-191 -262 -294 0
15 295 -296 0
15 -295 296 0
-15 295 296 0
-15 -295 -296 0
239 290 -297 0
239 -290 297 0
-239 290 297 0
-239 -290 -297 0
93 142 -229 0
93 -142 229 0
-93 142 229 0
-93 -142 -229 0
180 268 -293 0
180 -268 293 0
-180 268 293 0
-180 -268 -293 0
201 253 -295 0
201 -253 295 0
-201 253 295 0
-201 -253 -295 0
184 217 -244 0
184 -217 244 0
-184 217 244 0
-184 -217 -244 0
63 250 -255 0
63 -250 255 0
-63 250 255 0
-63 -250 -255 0
254 269 -289 0
254 -269 289 0
-254 269 289 0
-254 -269 -289 0
215 265 -298 0
215 -265 298 0
-215 265 298 0
-215 -265 -298 0
222 248 -275 0
222 -248 275 0
-222 248 275 0
-222 -248 -275 0
74 169 -240 0
74 -169 240 0
-74 169 240 0
-74 -169 -240 0
18 108 -119 0
18 -108 119 0
-18 108 119 0
-18 -108 -119 0
132 156 -188 0
132 -156 188 0
-132 156 188 0
-132 -156 -188 0
38 205 -299 0
38 -205 299 0
-38 205 299 0
-38 -205 -299 0
162 270 -282 0
162 -270 282 0
-162 270 282 0
-162 -270 -282 0
139 246 -298 0
139 -246 298 0
-139 246 298 0
-139 -246 -298 0
164 258 -272 0
164 -258 272 0
-164 258 272 0
-164 -258 -272 0
27 35 -300 0
27 -35 300 0
-27 35 300 0
-27 -35 -300 0
84 251 -288 0
84 -251 288 0
-84 251 288 0
-84 -251 -288 0
276 291 -297 0
276 -291 297 0
-276 291 297 0
-276 -291 -297 0
140 271 -281 0
140 -271 281 0
-140 271 281 0
-140 -271 -281 0
256 261 -300 0
256 -261 300 0
-256 261 300 0
-256 -261 -300 0
72 166 -277 0
72 -166 277 0
-72 166 277 0
-72 -166 -277 0
223 228 -299 0
223 -228 299 0
-223 228 299 0
-223 -228 -299 0
41 133 -202 0
41 -133 202 0
-41 133 202 0
-41 -133 -202 0
79 137 -170 0
79 -137 170 0
-79 137 170 0
-79 -137 -170 0
225 230 -285 0
225 -230 285 0
-225 230 285 0
-225 -230 -285 0
75 195 -286 0
75 -195 286 0
-75 195 286 0
-75 -195 -286 0
76 159 -287 0
76 -159 287 0
-76 159 287 0
-76 -159 -287 0
143 243 -273 0
143 -243 273 0
-143 243 273 0
-143 -243 -273 0
241 257 -274 0
241 -257 274 0
-241 257 274 0
-241 -257 -274 0
197 280 -296 0
197 -280 296 0
-197 280 296 0
-197 -280 -296 0
94 103 -292 0
94 -103 292 0
-94 103 292 0
-94 -103 -292 0
