c F4 Tseitin on networkx random_regular_graph(3,80,seed=9), connected=True, odd charge on vertex 1
p cnf 120 320
1 2 3 0
1 -2 -3 0
-1 2 -3 0
-1 -2 3 0
4 5 -6 0
4 -5 6 0
-4 5 6 0
-4 -5 -6 0
7 8 -9 0
7 -8 9 0
-7 8 9 0
-7 -8 -9 0
10 11 -12 0
10 -11 12 0
-10 11 12 0
-10 -11 -12 0
13 14 -15 0
13 -14 15 0
-13 14 15 0
-13 -14 -15 0
16 17 -18 0
16 -17 18 0
-16 17 18 0
-16 -17 -18 0
19 20 -21 0
19 -20 21 0
-19 20 21 0
-19 -20 -21 0
22 23 -24 0
22 -23 24 0
-22 23 24 0
-22 -23 -24 0
25 26 -27 0
25 -26 27 0
-25 26 27 0
-25 -26 -27 0
28 29 -30 0
28 -29 30 0
-28 29 30 0
-28 -29 -30 0
1 31 -32 0
1 -31 32 0
-1 31 32 0
-1 -31 -32 0
33 34 -35 0
33 -34 35 0
-33 34 35 0
-33 -34 -35 0
10 36 -37 0
10 -36 37 0
-10 36 37 0
-10 -36 -37 0
38 39 -40 0
38 -39 40 0
-38 39 40 0
-38 -39 -40 0
22 25 -41 0
22 -25 41 0
-22 25 41 0
-22 -25 -41 0
42 43 -44 0
42 -43 44 0
-42 43 44 0
-42 -43 -44 0
45 46 -47 0
45 -46 47 0
-45 46 47 0
-45 -46 -47 0
38 41 -48 0
38 -41 48 0
-38 41 48 0
-38 -41 -48 0
45 49 -50 0
45 -49 50 0
-45 49 50 0
-45 -49 -50 0
28 51 -52 0
28 -51 52 0
-28 51 52 0
-28 -51 -52 0
53 54 -55 0
53 -54 55 0
-53 54 55 0
-53 -54 -55 0
49 56 -57 0
49 -56 57 0
-49 56 57 0
-49 -56 -57 0
58 59 -60 0
58 -59 60 0
-58 59 60 0
-58 -59 -60 0
61 62 -63 0
61 -62 63 0
-61 62 63 0
-61 -62 -63 0
51 64 -65 0
51 -64 65 0
-51 64 65 0
-51 -64 -65 0
64 66 -67 0
64 -66 67 0
-64 66 67 0
-64 -66 -67 0
4 68 -69 0
4 -68 69 0
-4 68 69 0
-4 -68 -69 0
13 16 -70 0
13 -16 70 0
-13 16 70 0
-13 -16 -70 0
5 71 -72 0
5 -71 72 0
-5 71 72 0
-5 -71 -72 0
73 74 -75 0
73 -74 75 0
-73 74 75 0
-73 -74 -75 0
2 76 -77 0
2 -76 77 0
-2 76 77 0
-2 -76 -77 0
78 79 -80 0
78 -79 80 0
-78 79 80 0
-78 -79 -80 0
81 82 -83 0
81 -82 83 0
-81 82 83 0
-81 -82 -83 0
14 70 -84 0
14 -70 84 0
-14 70 84 0
-14 -70 -84 0
7 23 -73 0
7 -23 73 0
-7 23 73 0
-7 -23 -73 0
33 85 -86 0
33 -85 86 0
-33 85 86 0
-33 -85 -86 0
50 53 -65 0
50 -53 65 0
-50 53 65 0
-50 -53 -65 0
52 74 -87 0
52 -74 87 0
-52 74 87 0
-52 -74 -87 0
61 78 -88 0
61 -78 88 0
-61 78 88 0
-61 -78 -88 0
62 87 -89 0
62 -87 89 0
-62 87 89 0
-62 -87 -89 0
26 90 -91 0
26 -90 91 0
-26 90 91 0
-26 -90 -91 0
29 75 -92 0
29 -75 92 0
-29 75 92 0
-29 -75 -92 0
66 93 -94 0
66 -93 94 0
-66 93 94 0
-66 -93 -94 0
68 95 -96 0
68 -95 96 0
-68 95 96 0
-68 -95 -96 0
46 58 -97 0
46 -58 97 0
-46 58 97 0
-46 -58 -97 0
34 39 -98 0
34 -39 98 0
-34 39 98 0
-34 -39 -98 0
40 99 -100 0
40 -99 100 0
-40 99 100 0
-40 -99 -100 0
31 101 -102 0
31 -101 102 0
-31 101 102 0
-31 -101 -102 0
48 103 -104 0
48 -103 104 0
-48 103 104 0
-48 -103 -104 0
35 93 -99 0
35 -93 99 0
-35 93 99 0
-35 -93 -99 0
103 105 -106 0
103 -105 106 0
-103 105 106 0
-103 -105 -106 0
42 107 -108 0
42 -107 108 0
-42 107 108 0
-42 -107 -108 0
59 69 -81 0
59 -69 81 0
-59 69 81 0
-59 -69 -81 0
47 79 -109 0
47 -79 109 0
-47 79 109 0
-47 -79 -109 0
43 110 -111 0
43 -110 111 0
-43 110 111 0
-43 -110 -111 0
11 71 -104 0
11 -71 104 0
-11 71 104 0
-11 -71 -104 0
8 84 -112 0
8 -84 112 0
-8 84 112 0
-8 -84 -112 0
60 89 -97 0
60 -89 97 0
-60 89 97 0
-60 -89 -97 0
30 112 -113 0
30 -112 113 0
-30 112 113 0
-30 -112 -113 0
32 36 -114 0
32 -36 114 0
-32 36 114 0
-32 -36 -114 0
12 115 -116 0
12 -115 116 0
-12 115 116 0
-12 -115 -116 0
3 24 -94 0
3 -24 94 0
-3 24 94 0
-3 -24 -94 0
27 37 -63 0
27 -37 63 0
-27 37 63 0
-27 -37 -63 0
90 105 -109 0
90 -105 109 0
-90 105 109 0
-90 -105 -109 0
15 101 -117 0
15 -101 117 0
-15 101 117 0
-15 -101 -117 0
19 44 -107 0
19 -44 107 0
-19 44 107 0
-19 -44 -107 0
72 80 -108 0
72 -80 108 0
-72 80 108 0
-72 -80 -108 0
115 118 -119 0
115 -118 119 0
-115 118 119 0
-115 -118 -119 0
76 102 -118 0
76 -102 118 0
-76 102 118 0
-76 -102 -118 0
6 67 -91 0
6 -67 91 0
-6 67 91 0
-6 -67 -91 0
54 56 -116 0
54 -56 116 0
-54 56 116 0
-54 -56 -116 0
92 114 -119 0
92 -114 119 0
-92 114 119 0
-92 -114 -119 0
20 95 -110 0
20 -95 110 0
-20 95 110 0
-20 -95 -110 0
85 88 -100 0
85 -88 100 0
-85 88 100 0
-85 -88 -100 0
17 21 -120 0
17 -21 120 0
-17 21 120 0
-17 -21 -120 0
18 55 -82 0
18 -55 82 0
-18 55 82 0
-18 -55 -82 0
57 83 -117 0
57 -83 117 0
-57 83 117 0
-57 -83 -117 0
96 106 -113 0
96 -106 113 0
-96 106 113 0
-96 -106 -113 0
77 98 -111 0
77 -98 111 0
-77 98 111 0
-77 -98 -111 0
9 86 -120 0
9 -86 120 0
-9 86 120 0
-9 -86 -120 0
