c F4 Tseitin on networkx random_regular_graph(3,150,seed=4), connected=True, odd charge on vertex 1
p cnf 225 600
1 2 3 0
1 -2 -3 0
-1 2 -3 0
-1 -2 3 0
4 5 -6 0
4 -5 6 0
-4 5 6 0
-4 -5 -6 0
7 8 -9 0
7 -8 9 0
-7 8 9 0
-7 -8 -9 0
10 11 -12 0
10 -11 12 0
-10 11 12 0
-10 -11 -12 0
13 14 -15 0
13 -14 15 0
-13 14 15 0
-13 -14 -15 0
16 17 -18 0
16 -17 18 0
-16 17 18 0
-16 -17 -18 0
19 20 -21 0
19 -20 21 0
-19 20 21 0
-19 -20 -21 0
13 22 -23 0
13 -22 23 0
-13 22 23 0
-13 -22 -23 0
24 25 -26 0
24 -25 26 0
-24 25 26 0
-24 -25 -26 0
27 28 -29 0
27 -28 29 0
-27 28 29 0
-27 -28 -29 0
30 31 -32 0
30 -31 32 0
-30 31 32 0
-30 -31 -32 0
33 34 -35 0
33 -34 35 0
-33 34 35 0
-33 -34 -35 0
36 37 -38 0
36 -37 38 0
-36 37 38 0
-36 -37 -38 0
1 39 -40 0
1 -39 40 0
-1 39 40 0
-1 -39 -40 0
4 41 -42 0
4 -41 42 0
-4 41 42 0
-4 -41 -42 0
43 44 -45 0
43 -44 45 0
-43 44 45 0
-43 -44 -45 0
2 46 -47 0
2 -46 47 0
-2 46 47 0
-2 -46 -47 0
48 49 -50 0
48 -49 50 0
-48 49 50 0
-48 -49 -50 0
51 52 -53 0
51 -52 53 0
-51 52 53 0
-51 -52 -53 0
16 54 -55 0
16 -54 55 0
-16 54 55 0
-16 -54 -55 0
56 57 -58 0
56 -57 58 0
-56 57 58 0
-56 -57 -58 0
30 59 -60 0
30 -59 60 0
-30 59 60 0
-30 -59 -60 0
61 62 -63 0
61 -62 63 0
-61 62 63 0
-61 -62 -63 0
64 65 -66 0
64 -65 66 0
-64 65 66 0
-64 -65 -66 0
67 68 -69 0
67 -68 69 0
-67 68 69 0
-67 -68 -69 0
70 71 -72 0
70 -71 72 0
-70 71 72 0
-70 -71 -72 0
36 51 -73 0
36 -51 73 0
-36 51 73 0
-36 -51 -73 0
10 74 -75 0
10 -74 75 0
-10 74 75 0
-10 -74 -75 0
76 77 -78 0
76 -77 78 0
-76 77 78 0
-76 -77 -78 0
79 80 -81 0
79 -80 81 0
-79 80 81 0
-79 -80 -81 0
82 83 -84 0
82 -83 84 0
-82 83 84 0
-82 -83 -84 0
85 86 -87 0
85 -86 87 0
-85 86 87 0
-85 -86 -87 0
88 89 -90 0
88 -89 90 0
-88 89 90 0
-88 -89 -90 0
91 92 -93 0
91 -92 93 0
-91 92 93 0
-91 -92 -93 0
31 94 -95 0
31 -94 95 0
-31 94 95 0
-31 -94 -95 0
96 97 -98 0
96 -97 98 0
-96 97 98 0
-96 -97 -98 0
14 99 -100 0
14 -99 100 0
-14 99 100 0
-14 -99 -100 0
96 101 -102 0
96 -101 102 0
-96 101 102 0
-96 -101 -102 0
5 103 -104 0
5 -103 104 0
-5 103 104 0
-5 -103 -104 0
48 105 -106 0
48 -105 106 0
-48 105 106 0
-48 -105 -106 0
107 108 -109 0
107 -108 109 0
-107 108 109 0
-107 -108 -109 0
64 110 -111 0
64 -110 111 0
-64 110 111 0
-64 -110 -111 0
22 76 -112 0
22 -76 112 0
-22 76 112 0
-22 -76 -112 0
61 113 -114 0
61 -113 114 0
-61 113 114 0
-61 -113 -114 0
32 115 -116 0
32 -115 116 0
-32 115 116 0
-32 -115 -116 0
101 117 -118 0
101 -117 118 0
-101 117 118 0
-101 -117 -118 0
77 88 -119 0
77 -88 119 0
-77 88 119 0
-77 -88 -119 0
74 120 -121 0
74 -120 121 0
-74 120 121 0
-74 -120 -121 0
27 33 -122 0
27 -33 122 0
-27 33 122 0
-27 -33 -122 0
123 124 -125 0
123 -124 125 0
-123 124 125 0
-123 -124 -125 0
115 126 -127 0
115 -126 127 0
-115 126 127 0
-115 -126 -127 0
85 128 -129 0
85 -128 129 0
-85 128 129 0
-85 -128 -129 0
130 131 -132 0
130 -131 132 0
-130 131 132 0
-130 -131 -132 0
7 133 -134 0
7 -133 134 0
-7 133 134 0
-7 -133 -134 0
135 136 -137 0
135 -136 137 0
-135 136 137 0
-135 -136 -137 0
112 138 -139 0
112 -138 139 0
-112 138 139 0
-112 -138 -139 0
140 141 -142 0
140 -141 142 0
-140 141 142 0
-140 -141 -142 0
143 144 -145 0
143 -144 145 0
-143 144 145 0
-143 -144 -145 0
146 147 -148 0
146 -147 148 0
-146 147 148 0
-146 -147 -148 0
149 150 -151 0
149 -150 151 0
-149 150 151 0
-149 -150 -151 0
143 152 -153 0
143 -152 153 0
-143 152 153 0
-143 -152 -153 0
154 155 -156 0
154 -155 156 0
-154 155 156 0
-154 -155 -156 0
75 157 -158 0
75 -157 158 0
-75 157 158 0
-75 -157 -158 0
67 159 -160 0
67 -159 160 0
-67 159 160 0
-67 -159 -160 0
149 161 -162 0
149 -161 162 0
-149 161 162 0
-149 -161 -162 0
163 164 -165 0
163 -164 165 0
-163 164 165 0
-163 -164 -165 0
19 79 -113 0
19 -79 113 0
-19 79 113 0
-19 -79 -113 0
154 166 -167 0
154 -166 167 0
-154 166 167 0
-154 -166 -167 0
99 168 -169 0
99 -168 169 0
-99 168 169 0
-99 -168 -169 0
130 170 -171 0
130 -170 171 0
-130 170 171 0
-130 -170 -171 0
135 172 -173 0
135 -172 173 0
-135 172 173 0
-135 -172 -173 0
8 54 -168 0
8 -54 168 0
-8 54 168 0
-8 -54 -168 0
9 144 -174 0
9 -144 174 0
-9 144 174 0
-9 -144 -174 0
89 159 -175 0
89 -159 175 0
-89 159 175 0
-89 -159 -175 0
70 107 -176 0
70 -107 176 0
-70 107 176 0
-70 -107 -176 0
52 65 -73 0
52 -65 73 0
-52 65 73 0
-52 -65 -73 0
17 34 -177 0
17 -34 177 0
-17 34 177 0
-17 -34 -177 0
120 126 -178 0
120 -126 178 0
-120 126 178 0
-120 -126 -178 0
152 179 -180 0
152 -179 180 0
-152 179 180 0
-152 -179 -180 0
43 119 -181 0
43 -119 181 0
-43 119 181 0
-43 -119 -181 0
163 182 -183 0
163 -182 183 0
-163 182 183 0
-163 -182 -183 0
184 185 -186 0
184 -185 186 0
-184 185 186 0
-184 -185 -186 0
62 179 -184 0
62 -179 184 0
-62 179 184 0
-62 -179 -184 0
41 97 -114 0
41 -97 114 0
-41 97 114 0
-41 -97 -114 0
24 39 -187 0
24 -39 187 0
-24 39 187 0
-24 -39 -187 0
123 131 -188 0
123 -131 188 0
-123 131 188 0
-123 -131 -188 0
25 56 -185 0
25 -56 185 0
-25 56 185 0
-25 -56 -185 0
82 166 -180 0
82 -166 180 0
-82 166 180 0
-82 -166 -180 0
189 190 -191 0
189 -190 191 0
-189 190 191 0
-189 -190 -191 0
103 177 -189 0
103 -177 189 0
-103 177 189 0
-103 -177 -189 0
55 192 -193 0
55 -192 193 0
-55 192 193 0
-55 -192 -193 0
83 146 -194 0
83 -146 194 0
-83 146 194 0
-83 -146 -194 0
46 195 -196 0
46 -195 196 0
-46 195 196 0
-46 -195 -196 0
84 105 -197 0
84 -105 197 0
-84 105 197 0
-84 -105 -197 0
170 198 -199 0
170 -198 199 0
-170 198 199 0
-170 -198 -199 0
108 132 -200 0
108 -132 200 0
-108 132 200 0
-108 -132 -200 0
121 201 -202 0
121 -201 202 0
-121 201 202 0
-121 -201 -202 0
94 133 -140 0
94 -133 140 0
-94 133 140 0
-94 -133 -140 0
102 178 -203 0
102 -178 203 0
-102 178 203 0
-102 -178 -203 0
127 204 -205 0
127 -204 205 0
-127 204 205 0
-127 -204 -205 0
98 116 -206 0
98 -116 206 0
-98 116 206 0
-98 -116 -206 0
44 207 -208 0
44 -207 208 0
-44 207 208 0
-44 -207 -208 0
6 198 -209 0
6 -198 209 0
-6 198 209 0
-6 -198 -209 0
37 71 -207 0
37 -71 207 0
-37 71 207 0
-37 -71 -207 0
110 150 -161 0
110 -150 161 0
-110 150 161 0
-110 -150 -161 0
23 201 -210 0
23 -201 210 0
-23 201 210 0
-23 -201 -210 0
57 167 -176 0
57 -167 176 0
-57 167 176 0
-57 -167 -176 0
91 147 -202 0
91 -147 202 0
-91 147 202 0
-91 -147 -202 0
35 203 -211 0
35 -203 211 0
-35 203 211 0
-35 -203 -211 0
40 122 -212 0
40 -122 212 0
-40 122 212 0
-40 -122 -212 0
28 92 -171 0
28 -92 171 0
-28 92 171 0
-28 -92 -171 0
93 211 -213 0
93 -211 213 0
-93 211 213 0
-93 -211 -213 0
164 186 -192 0
164 -186 192 0
-164 186 192 0
-164 -186 -192 0
38 78 -214 0
38 -78 214 0
-38 78 214 0
-38 -78 -214 0
29 124 -157 0
29 -124 157 0
-29 124 157 0
-29 -124 -157 0
175 215 -216 0
175 -215 216 0
-175 215 216 0
-175 -215 -216 0
155 214 -217 0
155 -214 217 0
-155 214 217 0
-155 -214 -217 0
66 217 -218 0
66 -217 218 0
-66 217 218 0
-66 -217 -218 0
151 160 -162 0
151 -160 162 0
-151 160 162 0
-151 -160 -162 0
20 100 -141 0
20 -100 141 0
-20 100 141 0
-20 -100 -141 0
18 109 -188 0
18 -109 188 0
-18 109 188 0
-18 -109 -188 0
21 158 -195 0
21 -158 195 0
-21 158 195 0
-21 -158 -195 0
15 47 -59 0
15 -47 59 0
-15 47 59 0
-15 -47 -59 0
86 156 -190 0
86 -156 190 0
-86 156 190 0
-86 -156 -190 0
95 111 -219 0
95 -111 219 0
-95 111 219 0
-95 -111 -219 0
3 210 -215 0
3 -210 215 0
-3 210 215 0
-3 -210 -215 0
145 196 -220 0
145 -196 220 0
-145 196 220 0
-145 -196 -220 0
182 194 -221 0
182 -194 221 0
-182 194 221 0
-182 -194 -221 0
117 193 -216 0
117 -193 216 0
-117 193 216 0
-117 -193 -216 0
58 199 -222 0
58 -199 222 0
-58 199 222 0
-58 -199 -222 0
11 172 -222 0
11 -172 222 0
-11 172 222 0
-11 -172 -222 0
138 197 -220 0
138 -197 220 0
-138 197 220 0
-138 -197 -220 0
63 134 -200 0
63 -134 200 0
-63 134 200 0
-63 -134 -200 0
42 49 -223 0
42 -49 223 0
-42 49 223 0
-42 -49 -223 0
136 148 -224 0
136 -148 224 0
-136 148 224 0
-136 -148 -224 0
68 72 -139 0
68 -72 139 0
-68 72 139 0
-68 -72 -139 0
53 187 -223 0
53 -187 223 0
-53 187 223 0
-53 -187 -223 0
60 104 -224 0
60 -104 224 0
-60 104 224 0
-60 -104 -224 0
69 87 -225 0
69 -87 225 0
-69 87 225 0
-69 -87 -225 0
26 204 -206 0
26 -204 206 0
-26 204 206 0
-26 -204 -206 0
208 209 -221 0
208 -209 221 0
-208 209 221 0
-208 -209 -221 0
90 191 -205 0
90 -191 205 0
-90 191 205 0
-90 -191 -205 0
125 128 -218 0
125 -128 218 0
-125 128 218 0
-125 -128 -218 0
106 118 -153 0
106 -118 153 0
-106 118 153 0
-106 -118 -153 0
165 169 -183 0
165 -169 183 0
-165 169 183 0
-165 -169 -183 0
80 174 -225 0
80 -174 225 0
-80 174 225 0
-80 -174 -225 0
50 181 -219 0
50 -181 219 0
-50 181 219 0
-50 -181 -219 0
81 173 -213 0
81 -173 213 0
-81 173 213 0
-81 -173 -213 0
45 142 -212 0
45 -142 212 0
-45 142 212 0
-45 -142 -212 0
12 129 -137 0
12 -129 137 0
-12 129 137 0
-12 -129 -137 0
