c F4 Tseitin on networkx random_regular_graph(3,100,seed=6), connected=True, odd charge on vertex 1
p cnf 150 400
1 2 3 0
1 -2 -3 0
-1 2 -3 0
-1 -2 3 0
4 5 -6 0
4 -5 6 0
-4 5 6 0
-4 -5 -6 0
7 8 -9 0
7 -8 9 0
-7 8 9 0
-7 -8 -9 0
10 11 -12 0
10 -11 12 0
-10 11 12 0
-10 -11 -12 0
13 14 -15 0
13 -14 15 0
-13 14 15 0
-13 -14 -15 0
16 17 -18 0
16 -17 18 0
-16 17 18 0
-16 -17 -18 0
19 20 -21 0
19 -20 21 0
-19 20 21 0
-19 -20 -21 0
16 22 -23 0
16 -22 23 0
-16 22 23 0
-16 -22 -23 0
24 25 -26 0
24 -25 26 0
-24 25 26 0
-24 -25 -26 0
27 28 -29 0
27 -28 29 0
-27 28 29 0
-27 -28 -29 0
30 31 -32 0
30 -31 32 0
-30 31 32 0
-30 -31 -32 0
33 34 -35 0
33 -34 35 0
-33 34 35 0
-33 -34 -35 0
36 37 -38 0
36 -37 38 0
-36 37 38 0
-36 -37 -38 0
39 40 -41 0
39 -40 41 0
-39 40 41 0
-39 -40 -41 0
42 43 -44 0
42 -43 44 0
-42 43 44 0
-42 -43 -44 0
45 46 -47 0
45 -46 47 0
-45 46 47 0
-45 -46 -47 0
24 48 -49 0
24 -48 49 0
-24 48 49 0
-24 -48 -49 0
13 50 -51 0
13 -50 51 0
-13 50 51 0
-13 -50 -51 0
1 52 -53 0
1 -52 53 0
-1 52 53 0
-1 -52 -53 0
54 55 -56 0
54 -55 56 0
-54 55 56 0
-54 -55 -56 0
27 30 -57 0
27 -30 57 0
-27 30 57 0
-27 -30 -57 0
14 39 -58 0
14 -39 58 0
-14 39 58 0
-14 -39 -58 0
42 58 -59 0
42 -58 59 0
-42 58 59 0
-42 -58 -59 0
7 60 -61 0
7 -60 61 0
-7 60 61 0
-7 -60 -61 0
62 63 -64 0
62 -63 64 0
-62 63 64 0
-62 -63 -64 0
57 65 -66 0
57 -65 66 0
-57 65 66 0
-57 -65 -66 0
17 67 -68 0
17 -67 68 0
-17 67 68 0
-17 -67 -68 0
22 69 -70 0
22 -69 70 0
-22 69 70 0
-22 -69 -70 0
69 71 -72 0
69 -71 72 0
-69 71 72 0
-69 -71 -72 0
10 73 -74 0
10 -73 74 0
-10 73 74 0
-10 -73 -74 0
4 25 -75 0
4 -25 75 0
-4 25 75 0
-4 -25 -75 0
76 77 -78 0
76 -77 78 0
-76 77 78 0
-76 -77 -78 0
19 54 -79 0
19 -54 79 0
-19 54 79 0
-19 -54 -79 0
80 81 -82 0
80 -81 82 0
-80 81 82 0
-80 -81 -82 0
83 84 -85 0
83 -84 85 0
-83 84 85 0
-83 -84 -85 0
76 86 -87 0
76 -86 87 0
-76 86 87 0
-76 -86 -87 0
33 88 -89 0
33 -88 89 0
-33 88 89 0
-33 -88 -89 0
77 90 -91 0
77 -90 91 0
-77 90 91 0
-77 -90 -91 0
65 92 -93 0
65 -92 93 0
-65 92 93 0
-65 -92 -93 0
34 94 -95 0
34 -94 95 0
-34 94 95 0
-34 -94 -95 0
43 88 -96 0
43 -88 96 0
-43 88 96 0
-43 -88 -96 0
97 98 -99 0
97 -98 99 0
-97 98 99 0
-97 -98 -99 0
48 60 -100 0
48 -60 100 0
-48 60 100 0
-48 -60 -100 0
5 15 -101 0
5 -15 101 0
-5 15 101 0
-5 -15 -101 0
20 62 -102 0
20 -62 102 0
-20 62 102 0
-20 -62 -102 0
45 50 -103 0
45 -50 103 0
-45 50 103 0
-45 -50 -103 0
23 51 -75 0
23 -51 75 0
-23 51 75 0
-23 -51 -75 0
49 102 -104 0
49 -102 104 0
-49 102 104 0
-49 -102 -104 0
8 80 -105 0
8 -80 105 0
-8 80 105 0
-8 -80 -105 0
55 106 -107 0
55 -106 107 0
-55 106 107 0
-55 -106 -107 0
6 73 -108 0
6 -73 108 0
-6 73 108 0
-6 -73 -108 0
11 79 -109 0
11 -79 109 0
-11 79 109 0
-11 -79 -109 0
92 110 -111 0
92 -110 111 0
-92 110 111 0
-92 -110 -111 0
110 112 -113 0
110 -112 113 0
-110 112 113 0
-110 -112 -113 0
56 67 -106 0
56 -67 106 0
-56 67 106 0
-56 -67 -106 0
114 115 -116 0
114 -115 116 0
-114 115 116 0
-114 -115 -116 0
117 118 -119 0
117 -118 119 0
-117 118 119 0
-117 -118 -119 0
86 120 -121 0
86 -120 121 0
-86 120 121 0
-86 -120 -121 0
83 122 -123 0
83 -122 123 0
-83 122 123 0
-83 -122 -123 0
28 40 -114 0
28 -40 114 0
-28 40 114 0
-28 -40 -114 0
2 84 -124 0
2 -84 124 0
-2 84 124 0
-2 -84 -124 0
59 71 -122 0
59 -71 122 0
-59 71 122 0
-59 -71 -122 0
36 125 -126 0
36 -125 126 0
-36 125 126 0
-36 -125 -126 0
94 127 -128 0
94 -127 128 0
-94 127 128 0
-94 -127 -128 0
18 108 -129 0
18 -108 129 0
-18 108 129 0
-18 -108 -129 0
112 129 -130 0
112 -129 130 0
-112 129 130 0
-112 -129 -130 0
78 90 -131 0
78 -90 131 0
-78 90 131 0
-78 -90 -131 0
117 132 -133 0
117 -132 133 0
-117 132 133 0
-117 -132 -133 0
134 135 -136 0
134 -135 136 0
-134 135 136 0
-134 -135 -136 0
95 125 -137 0
95 -125 137 0
-95 125 137 0
-95 -125 -137 0
123 138 -139 0
123 -138 139 0
-123 138 139 0
-123 -138 -139 0
93 104 -140 0
93 -104 140 0
-93 104 140 0
-93 -104 -140 0
68 138 -141 0
68 -138 141 0
-68 138 141 0
-68 -138 -141 0
41 66 -85 0
41 -66 85 0
-41 66 85 0
-41 -66 -85 0
37 96 -134 0
37 -96 134 0
-37 96 134 0
-37 -96 -134 0
35 111 -135 0
35 -111 135 0
-35 111 135 0
-35 -111 -135 0
31 105 -132 0
31 -105 132 0
-31 105 132 0
-31 -105 -132 0
52 100 -142 0
52 -100 142 0
-52 100 142 0
-52 -100 -142 0
63 70 -143 0
63 -70 143 0
-63 70 143 0
-63 -70 -143 0
115 126 -136 0
115 -126 136 0
-115 126 136 0
-115 -126 -136 0
142 144 -145 0
142 -144 145 0
-142 144 145 0
-142 -144 -145 0
53 137 -146 0
53 -137 146 0
-53 137 146 0
-53 -137 -146 0
3 116 -147 0
3 -116 147 0
-3 116 147 0
-3 -116 -147 0
26 81 -118 0
26 -81 118 0
-26 81 118 0
-26 -81 -118 0
44 101 -107 0
44 -101 107 0
-44 101 107 0
-44 -101 -107 0
29 89 -130 0
29 -89 130 0
-29 89 130 0
-29 -89 -130 0
64 97 -119 0
64 -97 119 0
-64 97 119 0
-64 -97 -119 0
46 131 -144 0
46 -131 144 0
-46 131 144 0
-46 -131 -144 0
109 148 -149 0
109 -148 149 0
-109 148 149 0
-109 -148 -149 0
133 139 -148 0
133 -139 148 0
-133 139 148 0
-133 -139 -148 0
47 113 -146 0
47 -113 146 0
-47 113 146 0
-47 -113 -146 0
32 91 -127 0
32 -91 127 0
-32 91 127 0
-32 -91 -127 0
74 82 -103 0
74 -82 103 0
-74 82 103 0
-74 -82 -103 0
21 98 -147 0
21 -98 147 0
-21 98 147 0
-21 -98 -147 0
38 72 -150 0
38 -72 150 0
-38 72 150 0
-38 -72 -150 0
141 143 -149 0
141 -143 149 0
-141 143 149 0
-141 -143 -149 0
12 145 -150 0
12 -145 150 0
-12 145 150 0
-12 -145 -150 0
9 61 -124 0
9 -61 124 0
-9 61 124 0
-9 -61 -124 0
87 99 -120 0
87 -99 120 0
-87 99 120 0
-87 -99 -120 0
121 128 -140 0
121 -128 140 0
-121 128 140 0
-121 -128 -140 0
