c F4 Tseitin on networkx random_regular_graph(3,40,seed=3), connected=True, odd charge on vertex 1
p cnf 60 160
1 2 3 0
1 -2 -3 0
-1 2 -3 0
-1 -2 3 0
4 5 -6 0
4 -5 6 0
-4 5 6 0
-4 -5 -6 0
7 8 -9 0
7 -8 9 0
-7 8 9 0
-7 -8 -9 0
10 11 -12 0
10 -11 12 0
-10 11 12 0
-10 -11 -12 0
13 14 -15 0
13 -14 15 0
-13 14 15 0
-13 -14 -15 0
16 17 -18 0
16 -17 18 0
-16 17 18 0
-16 -17 -18 0
19 20 -21 0
19 -20 21 0
-19 20 21 0
-19 -20 -21 0
22 23 -24 0
22 -23 24 0
-22 23 24 0
-22 -23 -24 0
1 25 -26 0
1 -25 26 0
-1 25 26 0
-1 -25 -26 0
27 28 -29 0
27 -28 29 0
-27 28 29 0
-27 -28 -29 0
13 30 -31 0
13 -30 31 0
-13 30 31 0
-13 -30 -31 0
30 32 -33 0
30 -32 33 0
-30 32 33 0
-30 -32 -33 0
19 34 -35 0
19 -34 35 0
-19 34 35 0
-19 -34 -35 0
20 36 -37 0
20 -36 37 0
-20 36 37 0
-20 -36 -37 0
27 38 -39 0
27 -38 39 0
-27 38 39 0
-27 -38 -39 0
21 40 -41 0
21 -40 41 0
-21 40 41 0
-21 -40 -41 0
42 43 -44 0
42 -43 44 0
-42 43 44 0
-42 -43 -44 0
34 42 -45 0
34 -42 45 0
-34 42 45 0
-34 -42 -45 0
4 16 -22 0
4 -16 22 0
-4 16 22 0
-4 -16 -22 0
5 14 -46 0
5 -14 46 0
-5 14 46 0
-5 -14 -46 0
2 31 -47 0
2 -31 47 0
-2 31 47 0
-2 -31 -47 0
7 10 -48 0
7 -10 48 0
-7 10 48 0
-7 -10 -48 0
49 50 -51 0
49 -50 51 0
-49 50 51 0
-49 -50 -51 0
40 52 -53 0
40 -52 53 0
-40 52 53 0
-40 -52 -53 0
38 54 -55 0
38 -54 55 0
-38 54 55 0
-38 -54 -55 0
3 32 -41 0
3 -32 41 0
-3 32 41 0
-3 -32 -41 0
8 33 -39 0
8 -33 39 0
-8 33 39 0
-8 -33 -39 0
9 52 -56 0
9 -52 56 0
-9 52 56 0
-9 -52 -56 0
25 28 -57 0
25 -28 57 0
-25 28 57 0
-25 -28 -57 0
43 48 -54 0
43 -48 54 0
-43 48 54 0
-43 -48 -54 0
17 58 -59 0
17 -58 59 0
-17 58 59 0
-17 -58 -59 0
23 36 -60 0
23 -36 60 0
-23 36 60 0
-23 -36 -60 0
15 37 -49 0
15 -37 49 0
-15 37 49 0
-15 -37 -49 0
44 56 -58 0
44 -56 58 0
-44 56 58 0
-44 -56 -58 0
6 11 -26 0
6 -11 26 0
-6 11 26 0
-6 -11 -26 0
53 59 -60 0
53 -59 60 0
-53 59 60 0
-53 -59 -60 0
35 45 -50 0
35 -45 50 0
-35 45 50 0
-35 -45 -50 0
24 51 -55 0
24 -51 55 0
-24 51 55 0
-24 -51 -55 0
18 29 -47 0
18 -29 47 0
-18 29 47 0
-18 -29 -47 0
12 46 -57 0
12 -46 57 0
-12 46 57 0
-12 -46 -57 0
