c F4 Tseitin on networkx random_regular_graph(3,40,seed=8), connected=True, odd charge on vertex 1
p cnf 60 160
1 2 3 0
1 -2 -3 0
-1 2 -3 0
-1 -2 3 0
4 5 -6 0
4 -5 6 0
-4 5 6 0
-4 -5 -6 0
7 8 -9 0
7 -8 9 0
-7 8 9 0
-7 -8 -9 0
10 11 -12 0
10 -11 12 0
-10 11 12 0
-10 -11 -12 0
4 13 -14 0
4 -13 14 0
-4 13 14 0
-4 -13 -14 0
15 16 -17 0
15 -16 17 0
-15 16 17 0
-15 -16 -17 0
18 19 -20 0
18 -19 20 0
-18 19 20 0
-18 -19 -20 0
21 22 -23 0
21 -22 23 0
-21 22 23 0
-21 -22 -23 0
24 25 -26 0
24 -25 26 0
-24 25 26 0
-24 -25 -26 0
10 27 -28 0
10 -27 28 0
-10 27 28 0
-10 -27 -28 0
29 30 -31 0
29 -30 31 0
-29 30 31 0
-29 -30 -31 0
13 32 -33 0
13 -32 33 0
-13 32 33 0
-13 -32 -33 0
11 34 -35 0
11 -34 35 0
-11 34 35 0
-11 -34 -35 0
24 36 -37 0
24 -36 37 0
-24 36 37 0
-24 -36 -37 0
36 38 -39 0
36 -38 39 0
-36 38 39 0
-36 -38 -39 0
27 40 -41 0
27 -40 41 0
-27 40 41 0
-27 -40 -41 0
15 21 -42 0
15 -21 42 0
-15 21 42 0
-15 -21 -42 0
1 43 -44 0
1 -43 44 0
-1 43 44 0
-1 -43 -44 0
34 45 -46 0
34 -45 46 0
-34 45 46 0
-34 -45 -46 0
5 12 -47 0
5 -12 47 0
-5 12 47 0
-5 -12 -47 0
7 25 -38 0
7 -25 38 0
-7 25 38 0
-7 -25 -38 0
22 40 -43 0
22 -40 43 0
-22 40 43 0
-22 -40 -43 0
48 49 -50 0
48 -49 50 0
-48 49 50 0
-48 -49 -50 0
2 42 -51 0
2 -42 51 0
-2 42 51 0
-2 -42 -51 0
8 52 -53 0
8 -52 53 0
-8 52 53 0
-8 -52 -53 0
16 32 -48 0
16 -32 48 0
-16 32 48 0
-16 -32 -48 0
41 45 -54 0
41 -45 54 0
-41 45 54 0
-41 -45 -54 0
23 28 -55 0
23 -28 55 0
-23 28 55 0
-23 -28 -55 0
44 51 -55 0
44 -51 55 0
-44 51 55 0
-44 -51 -55 0
14 47 -56 0
14 -47 56 0
-14 47 56 0
-14 -47 -56 0
3 37 -57 0
3 -37 57 0
-3 37 57 0
-3 -37 -57 0
35 58 -59 0
35 -58 59 0
-35 58 59 0
-35 -58 -59 0
33 52 -56 0
33 -52 56 0
-33 52 56 0
-33 -52 -56 0
18 26 -57 0
18 -26 57 0
-18 26 57 0
-18 -26 -57 0
19 29 -39 0
19 -29 39 0
-19 29 39 0
-19 -29 -39 0
30 49 -60 0
30 -49 60 0
-30 49 60 0
-30 -49 -60 0
17 46 -53 0
17 -46 53 0
-17 46 53 0
-17 -46 -53 0
9 20 -54 0
9 -20 54 0
-9 20 54 0
-9 -20 -54 0
31 50 -58 0
31 -50 58 0
-31 50 58 0
-31 -50 -58 0
6 59 -60 0
6 -59 60 0
-6 59 60 0
-6 -59 -60 0
