c F4 Tseitin on networkx random_regular_graph(3,100,seed=9), connected=True, odd charge on vertex 1
p cnf 150 400
1 2 3 0
1 -2 -3 0
-1 2 -3 0
-1 -2 3 0
4 5 -6 0
4 -5 6 0
-4 5 6 0
-4 -5 -6 0
7 8 -9 0
7 -8 9 0
-7 8 9 0
-7 -8 -9 0
10 11 -12 0
10 -11 12 0
-10 11 12 0
-10 -11 -12 0
13 14 -15 0
13 -14 15 0
-13 14 15 0
-13 -14 -15 0
16 17 -18 0
16 -17 18 0
-16 17 18 0
-16 -17 -18 0
19 20 -21 0
19 -20 21 0
-19 20 21 0
-19 -20 -21 0
22 23 -24 0
22 -23 24 0
-22 23 24 0
-22 -23 -24 0
25 26 -27 0
25 -26 27 0
-25 26 27 0
-25 -26 -27 0
28 29 -30 0
28 -29 30 0
-28 29 30 0
-28 -29 -30 0
31 32 -33 0
31 -32 33 0
-31 32 33 0
-31 -32 -33 0
34 35 -36 0
34 -35 36 0
-34 35 36 0
-34 -35 -36 0
37 38 -39 0
37 -38 39 0
-37 38 39 0
-37 -38 -39 0
28 31 -40 0
28 -31 40 0
-28 31 40 0
-28 -31 -40 0
13 37 -41 0
13 -37 41 0
-13 37 41 0
-13 -37 -41 0
42 43 -44 0
42 -43 44 0
-42 43 44 0
-42 -43 -44 0
45 46 -47 0
45 -46 47 0
-45 46 47 0
-45 -46 -47 0
4 48 -49 0
4 -48 49 0
-4 48 49 0
-4 -48 -49 0
50 51 -52 0
50 -51 52 0
-50 51 52 0
-50 -51 -52 0
53 54 -55 0
53 -54 55 0
-53 54 55 0
-53 -54 -55 0
56 57 -58 0
56 -57 58 0
-56 57 58 0
-56 -57 -58 0
59 60 -61 0
59 -60 61 0
-59 60 61 0
-59 -60 -61 0
62 63 -64 0
62 -63 64 0
-62 63 64 0
-62 -63 -64 0
65 66 -67 0
65 -66 67 0
-65 66 67 0
-65 -66 -67 0
68 69 -70 0
68 -69 70 0
-68 69 70 0
-68 -69 -70 0
56 71 -72 0
56 -71 72 0
-56 71 72 0
-56 -71 -72 0
45 73 -74 0
45 -73 74 0
-45 73 74 0
-45 -73 -74 0
29 75 -76 0
29 -75 76 0
-29 75 76 0
-29 -75 -76 0
14 32 -59 0
14 -32 59 0
-14 32 59 0
-14 -32 -59 0
34 77 -78 0
34 -77 78 0
-34 77 78 0
-34 -77 -78 0
79 80 -81 0
79 -80 81 0
-79 80 81 0
-79 -80 -81 0
1 82 -83 0
1 -82 83 0
-1 82 83 0
-1 -82 -83 0
84 85 -86 0
84 -85 86 0
-84 85 86 0
-84 -85 -86 0
16 87 -88 0
16 -87 88 0
-16 87 88 0
-16 -87 -88 0
79 89 -90 0
79 -89 90 0
-79 89 90 0
-79 -89 -90 0
7 48 -91 0
7 -48 91 0
-7 48 91 0
-7 -48 -91 0
50 71 -92 0
50 -71 92 0
-50 71 92 0
-50 -71 -92 0
75 93 -94 0
75 -93 94 0
-75 93 94 0
-75 -93 -94 0
89 95 -96 0
89 -95 96 0
-89 95 96 0
-89 -95 -96 0
53 97 -98 0
53 -97 98 0
-53 97 98 0
-53 -97 -98 0
65 99 -100 0
65 -99 100 0
-65 99 100 0
-65 -99 -100 0
54 101 -102 0
54 -101 102 0
-54 101 102 0
-54 -101 -102 0
103 104 -105 0
103 -104 105 0
-103 104 105 0
-103 -104 -105 0
10 66 -106 0
10 -66 106 0
-10 66 106 0
-10 -66 -106 0
42 107 -108 0
42 -107 108 0
-42 107 108 0
-42 -107 -108 0
51 109 -110 0
51 -109 110 0
-51 109 110 0
-51 -109 -110 0
90 111 -112 0
90 -111 112 0
-90 111 112 0
-90 -111 -112 0
25 113 -114 0
25 -113 114 0
-25 113 114 0
-25 -113 -114 0
68 115 -116 0
68 -115 116 0
-68 115 116 0
-68 -115 -116 0
117 118 -119 0
117 -118 119 0
-117 118 119 0
-117 -118 -119 0
77 120 -121 0
77 -120 121 0
-77 120 121 0
-77 -120 -121 0
52 107 -122 0
52 -107 122 0
-52 107 122 0
-52 -107 -122 0
111 117 -123 0
111 -117 123 0
-111 117 123 0
-111 -117 -123 0
11 43 -124 0
11 -43 124 0
-11 43 124 0
-11 -43 -124 0
41 60 -125 0
41 -60 125 0
-41 60 125 0
-41 -60 -125 0
126 127 -128 0
126 -127 128 0
-126 127 128 0
-126 -127 -128 0
73 129 -130 0
73 -129 130 0
-73 129 130 0
-73 -129 -130 0
44 131 -132 0
44 -131 132 0
-44 131 132 0
-44 -131 -132 0
19 49 -133 0
19 -49 133 0
-19 49 133 0
-19 -49 -133 0
2 123 -134 0
2 -123 134 0
-2 123 134 0
-2 -123 -134 0
26 135 -136 0
26 -135 136 0
-26 135 136 0
-26 -135 -136 0
5 72 -126 0
5 -72 126 0
-5 72 126 0
-5 -72 -126 0
87 137 -138 0
87 -137 138 0
-87 137 138 0
-87 -137 -138 0
40 118 -139 0
40 -118 139 0
-40 118 139 0
-40 -118 -139 0
17 69 -140 0
17 -69 140 0
-17 69 140 0
-17 -69 -140 0
120 141 -142 0
120 -141 142 0
-120 141 142 0
-120 -141 -142 0
22 101 -112 0
22 -101 112 0
-22 101 112 0
-22 -101 -112 0
134 143 -144 0
134 -143 144 0
-134 143 144 0
-134 -143 -144 0
57 93 -129 0
57 -93 129 0
-57 93 129 0
-57 -93 -129 0
62 80 -103 0
62 -80 103 0
-62 80 103 0
-62 -80 -103 0
18 63 -92 0
18 -63 92 0
-18 63 92 0
-18 -63 -92 0
20 95 -145 0
20 -95 145 0
-20 95 145 0
-20 -95 -145 0
15 88 -146 0
15 -88 146 0
-15 88 146 0
-15 -88 -146 0
76 131 -143 0
76 -131 143 0
-76 131 143 0
-76 -131 -143 0
64 106 -133 0
64 -106 133 0
-64 106 133 0
-64 -106 -133 0
30 99 -144 0
30 -99 144 0
-30 99 144 0
-30 -99 -144 0
135 137 -141 0
135 -137 141 0
-135 137 141 0
-135 -137 -141 0
70 104 -121 0
70 -104 121 0
-70 104 121 0
-70 -104 -121 0
3 125 -146 0
3 -125 146 0
-3 125 146 0
-3 -125 -146 0
84 100 -105 0
84 -100 105 0
-84 100 105 0
-84 -100 -105 0
46 97 -108 0
46 -97 108 0
-46 97 108 0
-46 -97 -108 0
35 109 -147 0
35 -109 147 0
-35 109 147 0
-35 -109 -147 0
33 138 -142 0
33 -138 142 0
-33 138 142 0
-33 -138 -142 0
38 139 -145 0
38 -139 145 0
-38 139 145 0
-38 -139 -145 0
6 127 -136 0
6 -127 136 0
-6 127 136 0
-6 -127 -136 0
23 61 -98 0
23 -61 98 0
-23 61 98 0
-23 -61 -98 0
47 82 -148 0
47 -82 148 0
-47 82 148 0
-47 -82 -148 0
36 39 -74 0
36 -39 74 0
-36 39 74 0
-36 -39 -74 0
85 115 -149 0
85 -115 149 0
-85 115 149 0
-85 -115 -149 0
67 113 -150 0
67 -113 150 0
-67 113 150 0
-67 -113 -150 0
96 124 -130 0
96 -124 130 0
-96 124 130 0
-96 -124 -130 0
94 110 -150 0
94 -110 150 0
-94 110 150 0
-94 -110 -150 0
27 119 -128 0
27 -119 128 0
-27 119 128 0
-27 -119 -128 0
8 122 -140 0
8 -122 140 0
-8 122 140 0
-8 -122 -140 0
9 58 -91 0
9 -58 91 0
-9 58 91 0
-9 -58 -91 0
12 81 -116 0
12 -81 116 0
-12 81 116 0
-12 -81 -116 0
83 86 -114 0
83 -86 114 0
-83 86 114 0
-83 -86 -114 0
21 24 -132 0
21 -24 132 0
-21 24 132 0
-21 -24 -132 0
147 148 -149 0
147 -148 149 0
-147 148 149 0
-147 -148 -149 0
55 78 -102 0
55 -78 102 0
-55 78 102 0
-55 -78 -102 0
