c F4 Tseitin on networkx random_regular_graph(3,80,seed=1), connected=True, odd charge on vertex 1
p cnf 120 320
1 2 3 0
1 -2 -3 0
-1 2 -3 0
-1 -2 3 0
4 5 -6 0
4 -5 6 0
-4 5 6 0
-4 -5 -6 0
7 8 -9 0
7 -8 9 0
-7 8 9 0
-7 -8 -9 0
10 11 -12 0
10 -11 12 0
-10 11 12 0
-10 -11 -12 0
13 14 -15 0
13 -14 15 0
-13 14 15 0
-13 -14 -15 0
16 17 -18 0
16 -17 18 0
-16 17 18 0
-16 -17 -18 0
16 19 -20 0
16 -19 20 0
-16 19 20 0
-16 -19 -20 0
21 22 -23 0
21 -22 23 0
-21 22 23 0
-21 -22 -23 0
24 25 -26 0
24 -25 26 0
-24 25 26 0
-24 -25 -26 0
27 28 -29 0
27 -28 29 0
-27 28 29 0
-27 -28 -29 0
27 30 -31 0
27 -30 31 0
-27 30 31 0
-27 -30 -31 0
32 33 -34 0
32 -33 34 0
-32 33 34 0
-32 -33 -34 0
19 35 -36 0
19 -35 36 0
-19 35 36 0
-19 -35 -36 0
37 38 -39 0
37 -38 39 0
-37 38 39 0
-37 -38 -39 0
40 41 -42 0
40 -41 42 0
-40 41 42 0
-40 -41 -42 0
32 43 -44 0
32 -43 44 0
-32 43 44 0
-32 -43 -44 0
10 45 -46 0
10 -45 46 0
-10 45 46 0
-10 -45 -46 0
20 21 -47 0
20 -21 47 0
-20 21 47 0
-20 -21 -47 0
33 48 -49 0
33 -48 49 0
-33 48 49 0
-33 -48 -49 0
50 51 -52 0
50 -51 52 0
-50 51 52 0
-50 -51 -52 0
47 53 -54 0
47 -53 54 0
-47 53 54 0
-47 -53 -54 0
28 55 -56 0
28 -55 56 0
-28 55 56 0
-28 -55 -56 0
1 43 -57 0
1 -43 57 0
-1 43 57 0
-1 -43 -57 0
55 57 -58 0
55 -57 58 0
-55 57 58 0
-55 -57 -58 0
11 59 -60 0
11 -59 60 0
-11 59 60 0
-11 -59 -60 0
13 61 -62 0
13 -61 62 0
-13 61 62 0
-13 -61 -62 0
63 64 -65 0
63 -64 65 0
-63 64 65 0
-63 -64 -65 0
37 66 -67 0
37 -66 67 0
-37 66 67 0
-37 -66 -67 0
61 68 -69 0
61 -68 69 0
-61 68 69 0
-61 -68 -69 0
70 71 -72 0
70 -71 72 0
-70 71 72 0
-70 -71 -72 0
50 73 -74 0
50 -73 74 0
-50 73 74 0
-50 -73 -74 0
75 76 -77 0
75 -76 77 0
-75 76 77 0
-75 -76 -77 0
14 66 -78 0
14 -66 78 0
-14 66 78 0
-14 -66 -78 0
62 79 -80 0
62 -79 80 0
-62 79 80 0
-62 -79 -80 0
48 81 -82 0
48 -81 82 0
-48 81 82 0
-48 -81 -82 0
4 45 -83 0
4 -45 83 0
-4 45 83 0
-4 -45 -83 0
2 7 -84 0
2 -7 84 0
-2 7 84 0
-2 -7 -84 0
22 53 -75 0
22 -53 75 0
-22 53 75 0
-22 -53 -75 0
85 86 -87 0
85 -86 87 0
-85 86 87 0
-85 -86 -87 0
76 88 -89 0
76 -88 89 0
-76 88 89 0
-76 -88 -89 0
83 90 -91 0
83 -90 91 0
-83 90 91 0
-83 -90 -91 0
67 92 -93 0
67 -92 93 0
-67 92 93 0
-67 -92 -93 0
24 70 -85 0
24 -70 85 0
-24 70 85 0
-24 -70 -85 0
68 94 -95 0
68 -94 95 0
-68 94 95 0
-68 -94 -95 0
51 59 -96 0
51 -59 96 0
-51 59 96 0
-51 -59 -96 0
40 97 -98 0
40 -97 98 0
-40 97 98 0
-40 -97 -98 0
81 99 -100 0
81 -99 100 0
-81 99 100 0
-81 -99 -100 0
5 25 -101 0
5 -25 101 0
-5 25 101 0
-5 -25 -101 0
12 17 -102 0
12 -17 102 0
-12 17 102 0
-12 -17 -102 0
71 103 -104 0
71 -103 104 0
-71 103 104 0
-71 -103 -104 0
38 73 -92 0
38 -73 92 0
-38 73 92 0
-38 -73 -92 0
105 106 -107 0
105 -106 107 0
-105 106 107 0
-105 -106 -107 0
108 109 -110 0
108 -109 110 0
-108 109 110 0
-108 -109 -110 0
23 41 -93 0
23 -41 93 0
-23 41 93 0
-23 -41 -93 0
42 69 -103 0
42 -69 103 0
-42 69 103 0
-42 -69 -103 0
44 90 -96 0
44 -90 96 0
-44 90 96 0
-44 -90 -96 0
30 78 -97 0
30 -78 97 0
-30 78 97 0
-30 -78 -97 0
56 72 -88 0
56 -72 88 0
-56 72 88 0
-56 -72 -88 0
111 112 -113 0
111 -112 113 0
-111 112 113 0
-111 -112 -113 0
3 26 -114 0
3 -26 114 0
-3 26 114 0
-3 -26 -114 0
39 108 -111 0
39 -108 111 0
-39 108 111 0
-39 -108 -111 0
6 99 -115 0
6 -99 115 0
-6 99 115 0
-6 -99 -115 0
58 63 -77 0
58 -63 77 0
-58 63 77 0
-58 -63 -77 0
52 54 -116 0
52 -54 116 0
-52 54 116 0
-52 -54 -116 0
46 94 -98 0
46 -94 98 0
-46 94 98 0
-46 -94 -98 0
74 82 -117 0
74 -82 117 0
-74 82 117 0
-74 -82 -117 0
8 101 -114 0
8 -101 114 0
-8 101 114 0
-8 -101 -114 0
35 86 -112 0
35 -86 112 0
-35 86 112 0
-35 -86 -112 0
60 79 -118 0
60 -79 118 0
-60 79 118 0
-60 -79 -118 0
36 87 -105 0
36 -87 105 0
-36 87 105 0
-36 -87 -105 0
15 106 -119 0
15 -106 119 0
-15 106 119 0
-15 -106 -119 0
64 100 -115 0
64 -100 115 0
-64 100 115 0
-64 -100 -115 0
49 119 -120 0
49 -119 120 0
-49 119 120 0
-49 -119 -120 0
29 116 -117 0
29 -116 117 0
-29 116 117 0
-29 -116 -117 0
9 89 -95 0
9 -89 95 0
-9 89 95 0
-9 -89 -95 0
80 118 -120 0
80 -118 120 0
-80 118 120 0
-80 -118 -120 0
65 109 -113 0
65 -109 113 0
-65 109 113 0
-65 -109 -113 0
102 104 -110 0
102 -104 110 0
-102 104 110 0
-102 -104 -110 0
18 31 -34 0
18 -31 34 0
-18 31 34 0
-18 -31 -34 0
84 91 -107 0
84 -91 107 0
-84 91 107 0
-84 -91 -107 0
