c F4 Tseitin on networkx random_regular_graph(3,300,seed=6), connected=True, odd charge on vertex 1
p cnf 450 1200
1 2 3 0
1 -2 -3 0
-1 2 -3 0
-1 -2 3 0
4 5 -6 0
4 -5 6 0
-4 5 6 0
-4 -5 -6 0
7 8 -9 0
7 -8 9 0
-7 8 9 0
-7 -8 -9 0
10 11 -12 0
10 -11 12 0
-10 11 12 0
-10 -11 -12 0
13 14 -15 0
13 -14 15 0
-13 14 15 0
-13 -14 -15 0
16 17 -18 0
16 -17 18 0
-16 17 18 0
-16 -17 -18 0
19 20 -21 0
19 -20 21 0
-19 20 21 0
-19 -20 -21 0
22 23 -24 0
22 -23 24 0
-22 23 24 0
-22 -23 -24 0
25 26 -27 0
25 -26 27 0
-25 26 27 0
-25 -26 -27 0
28 29 -30 0
28 -29 30 0
-28 29 30 0
-28 -29 -30 0
31 32 -33 0
31 -32 33 0
-31 32 33 0
-31 -32 -33 0
34 35 -36 0
34 -35 36 0
-34 35 36 0
-34 -35 -36 0
37 38 -39 0
37 -38 39 0
-37 38 39 0
-37 -38 -39 0
40 41 -42 0
40 -41 42 0
-40 41 42 0
-40 -41 -42 0
43 44 -45 0
43 -44 45 0
-43 44 45 0
-43 -44 -45 0
7 46 -47 0
7 -46 47 0
-7 46 47 0
-7 -46 -47 0
48 49 -50 0
48 -49 50 0
-48 49 50 0
-48 -49 -50 0
51 52 -53 0
51 -52 53 0
-51 52 53 0
-51 -52 -53 0
51 54 -55 0
51 -54 55 0
-51 54 55 0
-51 -54 -55 0
56 57 -58 0
56 -57 58 0
-56 57 58 0
-56 -57 -58 0
59 60 -61 0
59 -60 61 0
-59 60 61 0
-59 -60 -61 0
62 63 -64 0
62 -63 64 0
-62 63 64 0
-62 -63 -64 0
65 66 -67 0
65 -66 67 0
-65 66 67 0
-65 -66 -67 0
68 69 -70 0
68 -69 70 0
-68 69 70 0
-68 -69 -70 0
71 72 -73 0
71 -72 73 0
-71 72 73 0
-71 -72 -73 0
62 74 -75 0
62 -74 75 0
-62 74 75 0
-62 -74 -75 0
76 77 -78 0
76 -77 78 0
-76 77 78 0
-76 -77 -78 0
56 79 -80 0
56 -79 80 0
-56 79 80 0
-56 -79 -80 0
46 81 -82 0
46 -81 82 0
-46 81 82 0
-46 -81 -82 0
22 83 -84 0
22 -83 84 0
-22 83 84 0
-22 -83 -84 0
85 86 -87 0
85 -86 87 0
-85 86 87 0
-85 -86 -87 0
88 89 -90 0
88 -89 90 0
-88 89 90 0
-88 -89 -90 0
91 92 -93 0
91 -92 93 0
-91 92 93 0
-91 -92 -93 0
94 95 -96 0
94 -95 96 0
-94 95 96 0
-94 -95 -96 0
34 97 -98 0
34 -97 98 0
-34 97 98 0
-34 -97 -98 0
94 99 -100 0
94 -99 100 0
-94 99 100 0
-94 -99 -100 0
54 101 -102 0
54 -101 102 0
-54 101 102 0
-54 -101 -102 0
103 104 -105 0
103 -104 105 0
-103 104 105 0
-103 -104 -105 0
106 107 -108 0
106 -107 108 0
-106 107 108 0
-106 -107 -108 0
109 110 -111 0
109 -110 111 0
-109 110 111 0
-109 -110 -111 0
112 113 -114 0
112 -113 114 0
-112 113 114 0
-112 -113 -114 0
115 116 -117 0
115 -116 117 0
-115 116 117 0
-115 -116 -117 0
118 119 -120 0
118 -119 120 0
-118 119 120 0
-118 -119 -120 0
121 122 -123 0
121 -122 123 0
-121 122 123 0
-121 -122 -123 0
88 124 -125 0
88 -124 125 0
-88 124 125 0
-88 -124 -125 0
81 126 -127 0
81 -126 127 0
-81 126 127 0
-81 -126 -127 0
124 128 -129 0
124 -128 129 0
-124 128 129 0
-124 -128 -129 0
4 130 -131 0
4 -130 131 0
-4 130 131 0
-4 -130 -131 0
83 130 -132 0
83 -130 132 0
-83 130 132 0
-83 -130 -132 0
19 133 -134 0
19 -133 134 0
-19 133 134 0
-19 -133 -134 0
135 136 -137 0
135 -136 137 0
-135 136 137 0
-135 -136 -137 0
138 139 -140 0
138 -139 140 0
-138 139 140 0
-138 -139 -140 0
141 142 -143 0
141 -142 143 0
-141 142 143 0
-141 -142 -143 0
23 144 -145 0
23 -144 145 0
-23 144 145 0
-23 -144 -145 0
97 146 -147 0
97 -146 147 0
-97 146 147 0
-97 -146 -147 0
148 149 -150 0
148 -149 150 0
-148 149 150 0
-148 -149 -150 0
25 63 -151 0
25 -63 151 0
-25 63 151 0
-25 -63 -151 0
152 153 -154 0
152 -153 154 0
-152 153 154 0
-152 -153 -154 0
155 156 -157 0
155 -156 157 0
-155 156 157 0
-155 -156 -157 0
28 158 -159 0
28 -158 159 0
-28 158 159 0
-28 -158 -159 0
160 161 -162 0
160 -161 162 0
-160 161 162 0
-160 -161 -162 0
37 163 -164 0
37 -163 164 0
-37 163 164 0
-37 -163 -164 0
141 165 -166 0
141 -165 166 0
-141 165 166 0
-141 -165 -166 0
112 167 -168 0
112 -167 168 0
-112 167 168 0
-112 -167 -168 0
169 170 -171 0
169 -170 171 0
-169 170 171 0
-169 -170 -171 0
35 172 -173 0
35 -172 173 0
-35 172 173 0
-35 -172 -173 0
133 174 -175 0
133 -174 175 0
-133 174 175 0
-133 -174 -175 0
165 169 -176 0
165 -169 176 0
-165 169 176 0
-165 -169 -176 0
132 177 -178 0
132 -177 178 0
-132 177 178 0
-132 -177 -178 0
179 180 -181 0
179 -180 181 0
-179 180 181 0
-179 -180 -181 0
182 183 -184 0
182 -183 184 0
-182 183 184 0
-182 -183 -184 0
179 185 -186 0
179 -185 186 0
-179 185 186 0
-179 -185 -186 0
187 188 -189 0
187 -188 189 0
-187 188 189 0
-187 -188 -189 0
65 190 -191 0
65 -190 191 0
-65 190 191 0
-65 -190 -191 0
103 192 -193 0
103 -192 193 0
-103 192 193 0
-103 -192 -193 0
155 194 -195 0
155 -194 195 0
-155 194 195 0
-155 -194 -195 0
196 197 -198 0
196 -197 198 0
-196 197 198 0
-196 -197 -198 0
196 199 -200 0
196 -199 200 0
-196 199 200 0
-196 -199 -200 0
1 201 -202 0
1 -201 202 0
-1 201 202 0
-1 -201 -202 0
203 204 -205 0
203 -204 205 0
-203 204 205 0
-203 -204 -205 0
10 206 -207 0
10 -206 207 0
-10 206 207 0
-10 -206 -207 0
208 209 -210 0
208 -209 210 0
-208 209 210 0
-208 -209 -210 0
211 212 -213 0
211 -212 213 0
-211 212 213 0
-211 -212 -213 0
40 203 -214 0
40 -203 214 0
-40 203 214 0
-40 -203 -214 0
185 215 -216 0
185 -215 216 0
-185 215 216 0
-185 -215 -216 0
89 101 -217 0
89 -101 217 0
-89 101 217 0
-89 -101 -217 0
218 219 -220 0
218 -219 220 0
-218 219 220 0
-218 -219 -220 0
221 222 -223 0
221 -222 223 0
-221 222 223 0
-221 -222 -223 0
224 225 -226 0
224 -225 226 0
-224 225 226 0
-224 -225 -226 0
227 228 -229 0
227 -228 229 0
-227 228 229 0
-227 -228 -229 0
230 231 -232 0
230 -231 232 0
-230 231 232 0
-230 -231 -232 0
233 234 -235 0
233 -234 235 0
-233 234 235 0
-233 -234 -235 0
236 237 -238 0
236 -237 238 0
-236 237 238 0
-236 -237 -238 0
239 240 -241 0
239 -240 241 0
-239 240 241 0
-239 -240 -241 0
242 243 -244 0
242 -243 244 0
-242 243 244 0
-242 -243 -244 0
13 121 -245 0
13 -121 245 0
-13 121 245 0
-13 -121 -245 0
102 246 -247 0
102 -246 247 0
-102 246 247 0
-102 -246 -247 0
248 249 -250 0
248 -249 250 0
-248 249 250 0
-248 -249 -250 0
251 252 -253 0
251 -252 253 0
-251 252 253 0
-251 -252 -253 0
8 128 -254 0
8 -128 254 0
-8 128 254 0
-8 -128 -254 0
187 255 -256 0
187 -255 256 0
-187 255 256 0
-187 -255 -256 0
158 230 -257 0
158 -230 257 0
-158 230 257 0
-158 -230 -257 0
71 239 -258 0
71 -239 258 0
-71 239 258 0
-71 -239 -258 0
259 260 -261 0
259 -260 261 0
-259 260 261 0
-259 -260 -261 0
257 262 -263 0
257 -262 263 0
-257 262 263 0
-257 -262 -263 0
204 224 -264 0
204 -224 264 0
-204 224 264 0
-204 -224 -264 0
135 221 -265 0
135 -221 265 0
-135 221 265 0
-135 -221 -265 0
251 266 -267 0
251 -266 267 0
-251 266 267 0
-251 -266 -267 0
152 268 -269 0
152 -268 269 0
-152 268 269 0
-152 -268 -269 0
270 271 -272 0
270 -271 272 0
-270 271 272 0
-270 -271 -272 0
273 274 -275 0
273 -274 275 0
-273 274 275 0
-273 -274 -275 0
217 276 -277 0
217 -276 277 0
-217 276 277 0
-217 -276 -277 0
278 279 -280 0
278 -279 280 0
-278 279 280 0
-278 -279 -280 0
281 282 -283 0
281 -282 283 0
-281 282 283 0
-281 -282 -283 0
160 284 -285 0
160 -284 285 0
-160 284 285 0
-160 -284 -285 0
64 286 -287 0
64 -286 287 0
-64 286 287 0
-64 -286 -287 0
270 288 -289 0
270 -288 289 0
-270 288 289 0
-270 -288 -289 0
136 161 -290 0
136 -161 290 0
-136 161 290 0
-136 -161 -290 0
222 291 -292 0
222 -291 292 0
-222 291 292 0
-222 -291 -292 0
163 293 -294 0
163 -293 294 0
-163 293 294 0
-163 -293 -294 0
295 296 -297 0
295 -296 297 0
-295 296 297 0
-295 -296 -297 0
26 142 -298 0
26 -142 298 0
-26 142 298 0
-26 -142 -298 0
11 31 -299 0
11 -31 299 0
-11 31 299 0
-11 -31 -299 0
300 301 -302 0
300 -301 302 0
-300 301 302 0
-300 -301 -302 0
240 303 -304 0
240 -303 304 0
-240 303 304 0
-240 -303 -304 0
59 199 -208 0
59 -199 208 0
-59 199 208 0
-59 -199 -208 0
305 306 -307 0
305 -306 307 0
-305 306 307 0
-305 -306 -307 0
295 308 -309 0
295 -308 309 0
-295 308 309 0
-295 -308 -309 0
276 310 -311 0
276 -310 311 0
-276 310 311 0
-276 -310 -311 0
245 310 -312 0
245 -310 312 0
-245 310 312 0
-245 -310 -312 0
277 313 -314 0
277 -313 314 0
-277 313 314 0
-277 -313 -314 0
76 197 -305 0
76 -197 305 0
-76 197 305 0
-76 -197 -305 0
315 316 -317 0
315 -316 317 0
-315 316 317 0
-315 -316 -317 0
84 318 -319 0
84 -318 319 0
-84 318 319 0
-84 -318 -319 0
231 300 -320 0
231 -300 320 0
-231 300 320 0
-231 -300 -320 0
303 321 -322 0
303 -321 322 0
-303 321 322 0
-303 -321 -322 0
201 323 -324 0
201 -323 324 0
-201 323 324 0
-201 -323 -324 0
278 299 -325 0
278 -299 325 0
-278 299 325 0
-278 -299 -325 0
255 326 -327 0
255 -326 327 0
-255 326 327 0
-255 -326 -327 0
153 328 -329 0
153 -328 329 0
-153 328 329 0
-153 -328 -329 0
48 60 -330 0
48 -60 330 0
-48 60 330 0
-48 -60 -330 0
95 331 -332 0
95 -331 332 0
-95 331 332 0
-95 -331 -332 0
333 334 -335 0
333 -334 335 0
-333 334 335 0
-333 -334 -335 0
138 248 -336 0
138 -248 336 0
-138 248 336 0
-138 -248 -336 0
215 262 -337 0
215 -262 337 0
-215 262 337 0
-215 -262 -337 0
57 182 -338 0
57 -182 338 0
-57 182 338 0
-57 -182 -338 0
339 340 -341 0
339 -340 341 0
-339 340 341 0
-339 -340 -341 0
106 271 -342 0
106 -271 342 0
-106 271 342 0
-106 -271 -342 0
236 343 -344 0
236 -343 344 0
-236 343 344 0
-236 -343 -344 0
2 77 -273 0
2 -77 273 0
-2 77 273 0
-2 -77 -273 0
5 306 -345 0
5 -306 345 0
-5 306 345 0
-5 -306 -345 0
259 346 -347 0
259 -346 347 0
-259 346 347 0
-259 -346 -347 0
131 211 -348 0
131 -211 348 0
-131 211 348 0
-131 -211 -348 0
349 350 -351 0
349 -350 351 0
-349 350 351 0
-349 -350 -351 0
206 352 -353 0
206 -352 353 0
-206 352 353 0
-206 -352 -353 0
109 172 -354 0
109 -172 354 0
-109 172 354 0
-109 -172 -354 0
91 115 -218 0
91 -115 218 0
-91 115 218 0
-91 -115 -218 0
41 227 -264 0
41 -227 264 0
-41 227 264 0
-41 -227 -264 0
290 355 -356 0
290 -355 356 0
-290 355 356 0
-290 -355 -356 0
20 357 -358 0
20 -357 358 0
-20 357 358 0
-20 -357 -358 0
107 242 -315 0
107 -242 315 0
-107 242 315 0
-107 -242 -315 0
32 228 -359 0
32 -228 359 0
-32 228 359 0
-32 -228 -359 0
104 116 -360 0
104 -116 360 0
-104 116 360 0
-104 -116 -360 0
177 249 -361 0
177 -249 361 0
-177 249 361 0
-177 -249 -361 0
27 92 -118 0
27 -92 118 0
-27 92 118 0
-27 -92 -118 0
362 363 -364 0
362 -363 364 0
-362 363 364 0
-362 -363 -364 0
98 365 -366 0
98 -365 366 0
-98 365 366 0
-98 -365 -366 0
72 286 -367 0
72 -286 367 0
-72 286 367 0
-72 -286 -367 0
325 349 -368 0
325 -349 368 0
-325 349 368 0
-325 -349 -368 0
151 258 -369 0
151 -258 369 0
-151 258 369 0
-151 -258 -369 0
43 233 -370 0
43 -233 370 0
-43 233 370 0
-43 -233 -370 0
126 146 -371 0
126 -146 371 0
-126 146 371 0
-126 -146 -371 0
49 180 -343 0
49 -180 343 0
-49 180 343 0
-49 -180 -343 0
52 183 -372 0
52 -183 372 0
-52 183 372 0
-52 -183 -372 0
373 374 -375 0
373 -374 375 0
-373 374 375 0
-373 -374 -375 0
216 376 -377 0
216 -376 377 0
-216 376 377 0
-216 -376 -377 0
55 378 -379 0
55 -378 379 0
-55 378 379 0
-55 -378 -379 0
125 380 -381 0
125 -380 381 0
-125 380 381 0
-125 -380 -381 0
90 284 -382 0
90 -284 382 0
-90 284 382 0
-90 -284 -382 0
14 383 -384 0
14 -383 384 0
-14 383 384 0
-14 -383 -384 0
225 385 -386 0
225 -385 386 0
-225 385 386 0
-225 -385 -386 0
79 380 -387 0
79 -380 387 0
-79 380 387 0
-79 -380 -387 0
139 279 -323 0
139 -279 323 0
-139 279 323 0
-139 -279 -323 0
85 113 -355 0
85 -113 355 0
-85 113 355 0
-85 -113 -355 0
82 313 -331 0
82 -313 331 0
-82 313 331 0
-82 -313 -331 0
373 388 -389 0
373 -388 389 0
-373 388 389 0
-373 -388 -389 0
156 274 -390 0
156 -274 390 0
-156 274 390 0
-156 -274 -390 0
134 391 -392 0
134 -391 392 0
-134 391 392 0
-134 -391 -392 0
80 350 -393 0
80 -350 393 0
-80 350 393 0
-80 -350 -393 0
268 291 -318 0
268 -291 318 0
-268 291 318 0
-268 -291 -318 0
188 272 -394 0
188 -272 394 0
-188 272 394 0
-188 -272 -394 0
143 337 -362 0
143 -337 362 0
-143 337 362 0
-143 -337 -362 0
382 395 -396 0
382 -395 396 0
-382 395 396 0
-382 -395 -396 0
38 162 -330 0
38 -162 330 0
-38 162 330 0
-38 -162 -330 0
147 174 -352 0
147 -174 352 0
-147 174 352 0
-147 -174 -352 0
73 226 -383 0
73 -226 383 0
-73 226 383 0
-73 -226 -383 0
246 371 -385 0
246 -371 385 0
-246 371 385 0
-246 -371 -385 0
166 247 -397 0
166 -247 397 0
-166 247 397 0
-166 -247 -397 0
194 344 -398 0
194 -344 398 0
-194 344 398 0
-194 -344 -398 0
328 391 -395 0
328 -391 395 0
-328 391 395 0
-328 -391 -395 0
144 324 -399 0
144 -324 399 0
-144 324 399 0
-144 -324 -399 0
68 281 -372 0
68 -281 372 0
-68 281 372 0
-68 -281 -372 0
342 400 -401 0
342 -400 401 0
-342 400 401 0
-342 -400 -401 0
250 293 -338 0
250 -293 338 0
-250 293 338 0
-250 -293 -338 0
119 154 -381 0
119 -154 381 0
-119 154 381 0
-119 -154 -381 0
9 374 -402 0
9 -374 402 0
-9 374 402 0
-9 -374 -402 0
367 376 -403 0
367 -376 403 0
-367 376 403 0
-367 -376 -403 0
93 99 -404 0
93 -99 404 0
-93 99 404 0
-93 -99 -404 0
120 311 -388 0
120 -311 388 0
-120 311 388 0
-120 -311 -388 0
336 397 -405 0
336 -397 405 0
-336 397 405 0
-336 -397 -405 0
69 333 -406 0
69 -333 406 0
-69 333 406 0
-69 -333 -406 0
122 326 -384 0
122 -326 384 0
-122 326 384 0
-122 -326 -384 0
234 407 -408 0
234 -407 408 0
-234 407 408 0
-234 -407 -408 0
100 365 -409 0
100 -365 409 0
-100 365 409 0
-100 -365 -409 0
36 316 -410 0
36 -316 410 0
-36 316 410 0
-36 -316 -410 0
411 412 -413 0
411 -412 413 0
-411 412 413 0
-411 -412 -413 0
74 375 -414 0
74 -375 414 0
-74 375 414 0
-74 -375 -414 0
53 190 -235 0
53 -190 235 0
-53 190 235 0
-53 -190 -235 0
176 339 -415 0
176 -339 415 0
-176 339 415 0
-176 -339 -415 0
184 403 -416 0
184 -403 416 0
-184 403 416 0
-184 -403 -416 0
195 398 -405 0
195 -398 405 0
-195 398 405 0
-195 -398 -405 0
70 191 -399 0
70 -191 399 0
-70 191 399 0
-70 -191 -399 0
15 159 -417 0
15 -159 417 0
-15 159 417 0
-15 -159 -417 0
260 377 -390 0
260 -377 390 0
-260 377 390 0
-260 -377 -390 0
6 61 -288 0
6 -61 288 0
-6 61 288 0
-6 -61 -288 0
29 205 -418 0
29 -205 418 0
-29 205 418 0
-29 -205 -418 0
108 320 -419 0
108 -320 419 0
-108 320 419 0
-108 -320 -419 0
263 334 -420 0
263 -334 420 0
-263 334 420 0
-263 -334 -420 0
16 192 -332 0
16 -192 332 0
-16 192 332 0
-16 -192 -332 0
202 363 -402 0
202 -363 402 0
-202 363 402 0
-202 -363 -402 0
289 378 -421 0
289 -378 421 0
-289 378 421 0
-289 -378 -421 0
170 387 -422 0
170 -387 422 0
-170 387 422 0
-170 -387 -422 0
137 157 -423 0
137 -157 423 0
-137 157 423 0
-137 -157 -423 0
181 379 -411 0
181 -379 411 0
-181 379 411 0
-181 -379 -411 0
212 243 -421 0
212 -243 421 0
-212 243 421 0
-212 -243 -421 0
17 361 -424 0
17 -361 424 0
-17 361 424 0
-17 -361 -424 0
86 392 -425 0
86 -392 425 0
-86 392 425 0
-86 -392 -425 0
198 244 -386 0
198 -244 386 0
-198 244 386 0
-198 -244 -386 0
329 394 -414 0
329 -394 414 0
-329 394 414 0
-329 -394 -414 0
229 426 -427 0
229 -426 427 0
-229 426 427 0
-229 -426 -427 0
219 266 -275 0
219 -266 275 0
-219 266 275 0
-219 -266 -275 0
117 213 -407 0
117 -213 407 0
-117 213 407 0
-117 -213 -407 0
189 428 -429 0
189 -428 429 0
-189 428 429 0
-189 -428 -429 0
267 282 -415 0
267 -282 415 0
-267 282 415 0
-267 -282 -415 0
237 430 -431 0
237 -430 431 0
-237 430 431 0
-237 -430 -431 0
364 426 -432 0
364 -426 432 0
-364 426 432 0
-364 -426 -432 0
200 428 -433 0
200 -428 433 0
-200 428 433 0
-200 -428 -433 0
317 346 -434 0
317 -346 434 0
-317 346 434 0
-317 -346 -434 0
96 148 -261 0
96 -148 261 0
-96 148 261 0
-96 -148 -261 0
24 114 -432 0
24 -114 432 0
-24 114 432 0
-24 -114 -432 0
435 436 -437 0
435 -436 437 0
-435 436 437 0
-435 -436 -437 0
301 308 -347 0
301 -308 347 0
-301 308 347 0
-301 -308 -347 0
252 412 -438 0
252 -412 438 0
-252 412 438 0
-252 -412 -438 0
186 220 -439 0
186 -220 439 0
-186 220 439 0
-186 -220 -439 0
12 238 -425 0
12 -238 425 0
-12 238 425 0
-12 -238 -425 0
292 430 -435 0
292 -430 435 0
-292 430 435 0
-292 -430 -435 0
312 354 -427 0
312 -354 427 0
-312 354 427 0
-312 -354 -427 0
171 307 -440 0
171 -307 440 0
-171 307 440 0
-171 -307 -440 0
214 400 -436 0
214 -400 436 0
-214 400 436 0
-214 -400 -436 0
254 340 -441 0
254 -340 441 0
-254 340 441 0
-254 -340 -441 0
78 296 -327 0
78 -296 327 0
-78 296 327 0
-78 -296 -327 0
87 302 -442 0
87 -302 442 0
-87 302 442 0
-87 -302 -442 0
47 396 -443 0
47 -396 443 0
-47 396 443 0
-47 -396 -443 0
66 207 -297 0
66 -207 297 0
-66 207 297 0
-66 -207 -297 0
129 314 -423 0
129 -314 423 0
-129 314 423 0
-129 -314 -423 0
30 280 -319 0
30 -280 319 0
-30 280 319 0
-30 -280 -319 0
75 294 -444 0
75 -294 444 0
-75 294 444 0
-75 -294 -444 0
105 287 -445 0
105 -287 445 0
-105 287 445 0
-105 -287 -445 0
3 404 -429 0
3 -404 429 0
-3 404 429 0
-3 -404 -429 0
18 351 -446 0
18 -351 446 0
-18 351 446 0
-18 -351 -446 0
167 406 -446 0
167 -406 446 0
-167 406 446 0
-167 -406 -446 0
223 341 -445 0
223 -341 445 0
-223 341 445 0
-223 -341 -445 0
309 360 -438 0
309 -360 438 0
-309 360 438 0
-309 -360 -438 0
21 39 -265 0
21 -39 265 0
-21 39 265 0
-21 -39 -265 0
58 193 -433 0
58 -193 433 0
-58 193 433 0
-58 -193 -433 0
298 304 -356 0
298 -304 356 0
-298 304 356 0
-298 -304 -356 0
145 168 -444 0
145 -168 444 0
-145 168 444 0
-145 -168 -444 0
44 149 -419 0
44 -149 419 0
-44 149 419 0
-44 -149 -419 0
209 434 -447 0
209 -434 447 0
-209 434 447 0
-209 -434 -447 0
67 150 -357 0
67 -150 357 0
-67 150 357 0
-67 -150 -357 0
33 440 -448 0
33 -440 448 0
-33 440 448 0
-33 -440 -448 0
210 409 -437 0
210 -409 437 0
-210 409 437 0
-210 -409 -437 0
256 345 -416 0
256 -345 416 0
-256 345 416 0
-256 -345 -416 0
164 285 -393 0
164 -285 393 0
-164 285 393 0
-164 -285 -393 0
42 45 -358 0
42 -45 358 0
-42 45 358 0
-42 -45 -358 0
410 439 -449 0
410 -439 449 0
-410 439 449 0
-410 -439 -449 0
348 447 -448 0
348 -447 448 0
-348 447 448 0
-348 -447 -448 0
127 335 -408 0
127 -335 408 0
-127 335 408 0
-127 -335 -408 0
353 369 -450 0
353 -369 450 0
-353 369 450 0
-353 -369 -450 0
110 417 -420 0
110 -417 420 0
-110 417 420 0
-110 -417 -420 0
50 269 -449 0
50 -269 449 0
-50 269 449 0
-50 -269 -449 0
140 366 -418 0
140 -366 418 0
-140 366 418 0
-140 -366 -418 0
178 232 -443 0
178 -232 443 0
-178 232 443 0
-178 -232 -443 0
173 175 -442 0
173 -175 442 0
-173 175 442 0
-173 -175 -442 0
321 370 -441 0
321 -370 441 0
-321 370 441 0
-321 -370 -441 0
389 401 -450 0
389 -401 450 0
-389 401 450 0
-389 -401 -450 0
253 424 -431 0
253 -424 431 0
-253 424 431 0
-253 -424 -431 0
123 283 -359 0
123 -283 359 0
-123 283 359 0
-123 -283 -359 0
322 368 -413 0
322 -368 413 0
-322 368 413 0
-322 -368 -413 0
111 241 -422 0
111 -241 422 0
-111 241 422 0
-111 -241 -422 0
