c F4 Tseitin on networkx random_regular_graph(3,200,seed=8), connected=True, odd charge on vertex 1
p cnf 300 800
1 2 3 0
1 -2 -3 0
-1 2 -3 0
-1 -2 3 0
4 5 -6 0
4 -5 6 0
-4 5 6 0
-4 -5 -6 0
7 8 -9 0
7 -8 9 0
-7 8 9 0
-7 -8 -9 0
10 11 -12 0
10 -11 12 0
-10 11 12 0
-10 -11 -12 0
13 14 -15 0
13 -14 15 0
-13 14 15 0
-13 -14 -15 0
16 17 -18 0
16 -17 18 0
-16 17 18 0
-16 -17 -18 0
19 20 -21 0
19 -20 21 0
-19 20 21 0
-19 -20 -21 0
22 23 -24 0
22 -23 24 0
-22 23 24 0
-22 -23 -24 0
25 26 -27 0
25 -26 27 0
-25 26 27 0
-25 -26 -27 0
28 29 -30 0
28 -29 30 0
-28 29 30 0
-28 -29 -30 0
31 32 -33 0
31 -32 33 0
-31 32 33 0
-31 -32 -33 0
34 35 -36 0
34 -35 36 0
-34 35 36 0
-34 -35 -36 0
37 38 -39 0
37 -38 39 0
-37 38 39 0
-37 -38 -39 0
25 40 -41 0
25 -40 41 0
-25 40 41 0
-25 -40 -41 0
31 40 -42 0
31 -40 42 0
-31 40 42 0
-31 -40 -42 0
43 44 -45 0
43 -44 45 0
-43 44 45 0
-43 -44 -45 0
46 47 -48 0
46 -47 48 0
-46 47 48 0
-46 -47 -48 0
49 50 -51 0
49 -50 51 0
-49 50 51 0
-49 -50 -51 0
52 53 -54 0
52 -53 54 0
-52 53 54 0
-52 -53 -54 0
55 56 -57 0
55 -56 57 0
-55 56 57 0
-55 -56 -57 0
46 58 -59 0
46 -58 59 0
-46 58 59 0
-46 -58 -59 0
34 60 -61 0
34 -60 61 0
-34 60 61 0
-34 -60 -61 0
62 63 -64 0
62 -63 64 0
-62 63 64 0
-62 -63 -64 0
65 66 -67 0
65 -66 67 0
-65 66 67 0
-65 -66 -67 0
43 68 -69 0
43 -68 69 0
-43 68 69 0
-43 -68 -69 0
70 71 -72 0
70 -71 72 0
-70 71 72 0
-70 -71 -72 0
73 74 -75 0
73 -74 75 0
-73 74 75 0
-73 -74 -75 0
76 77 -78 0
76 -77 78 0
-76 77 78 0
-76 -77 -78 0
79 80 -81 0
79 -80 81 0
-79 80 81 0
-79 -80 -81 0
82 83 -84 0
82 -83 84 0
-82 83 84 0
-82 -83 -84 0
85 86 -87 0
85 -86 87 0
-85 86 87 0
-85 -86 -87 0
88 89 -90 0
88 -89 90 0
-88 89 90 0
-88 -89 -90 0
91 92 -93 0
91 -92 93 0
-91 92 93 0
-91 -92 -93 0
94 95 -96 0
94 -95 96 0
-94 95 96 0
-94 -95 -96 0
94 97 -98 0
94 -97 98 0
-94 97 98 0
-94 -97 -98 0
99 100 -101 0
99 -100 101 0
-99 100 101 0
-99 -100 -101 0
22 102 -103 0
22 -102 103 0
-22 102 103 0
-22 -102 -103 0
97 104 -105 0
97 -104 105 0
-97 104 105 0
-97 -104 -105 0
23 106 -107 0
23 -106 107 0
-23 106 107 0
-23 -106 -107 0
58 108 -109 0
58 -108 109 0
-58 108 109 0
-58 -108 -109 0
110 111 -112 0
110 -111 112 0
-110 111 112 0
-110 -111 -112 0
113 114 -115 0
113 -114 115 0
-113 114 115 0
-113 -114 -115 0
7 13 -116 0
7 -13 116 0
-7 13 116 0
-7 -13 -116 0
49 117 -118 0
49 -117 118 0
-49 117 118 0
-49 -117 -118 0
1 47 -119 0
1 -47 119 0
-1 47 119 0
-1 -47 -119 0
120 121 -122 0
120 -121 122 0
-120 121 122 0
-120 -121 -122 0
123 124 -125 0
123 -124 125 0
-123 124 125 0
-123 -124 -125 0
126 127 -128 0
126 -127 128 0
-126 127 128 0
-126 -127 -128 0
129 130 -131 0
129 -130 131 0
-129 130 131 0
-129 -130 -131 0
14 37 -132 0
14 -37 132 0
-14 37 132 0
-14 -37 -132 0
76 133 -134 0
76 -133 134 0
-76 133 134 0
-76 -133 -134 0
135 136 -137 0
135 -136 137 0
-135 136 137 0
-135 -136 -137 0
138 139 -140 0
138 -139 140 0
-138 139 140 0
-138 -139 -140 0
106 141 -142 0
106 -141 142 0
-106 141 142 0
-106 -141 -142 0
44 143 -144 0
44 -143 144 0
-44 143 144 0
-44 -143 -144 0
145 146 -147 0
145 -146 147 0
-145 146 147 0
-145 -146 -147 0
60 91 -120 0
60 -91 120 0
-60 91 120 0
-60 -91 -120 0
126 148 -149 0
126 -148 149 0
-126 148 149 0
-126 -148 -149 0
73 150 -151 0
73 -150 151 0
-73 150 151 0
-73 -150 -151 0
117 152 -153 0
117 -152 153 0
-117 152 153 0
-117 -152 -153 0
154 155 -156 0
154 -155 156 0
-154 155 156 0
-154 -155 -156 0
157 158 -159 0
157 -158 159 0
-157 158 159 0
-157 -158 -159 0
145 160 -161 0
145 -160 161 0
-145 160 161 0
-145 -160 -161 0
55 162 -163 0
55 -162 163 0
-55 162 163 0
-55 -162 -163 0
164 165 -166 0
164 -165 166 0
-164 165 166 0
-164 -165 -166 0
104 167 -168 0
104 -167 168 0
-104 167 168 0
-104 -167 -168 0
169 170 -171 0
169 -170 171 0
-169 170 171 0
-169 -170 -171 0
146 172 -173 0
146 -172 173 0
-146 172 173 0
-146 -172 -173 0
70 174 -175 0
70 -174 175 0
-70 174 175 0
-70 -174 -175 0
176 177 -178 0
176 -177 178 0
-176 177 178 0
-176 -177 -178 0
61 65 -88 0
61 -65 88 0
-61 65 88 0
-61 -65 -88 0
28 179 -180 0
28 -179 180 0
-28 179 180 0
-28 -179 -180 0
121 181 -182 0
121 -181 182 0
-121 181 182 0
-121 -181 -182 0
152 183 -184 0
152 -183 184 0
-152 183 184 0
-152 -183 -184 0
62 95 -185 0
62 -95 185 0
-62 95 185 0
-62 -95 -185 0
186 187 -188 0
186 -187 188 0
-186 187 188 0
-186 -187 -188 0
113 169 -189 0
113 -169 189 0
-113 169 189 0
-113 -169 -189 0
190 191 -192 0
190 -191 192 0
-190 191 192 0
-190 -191 -192 0
41 82 -193 0
41 -82 193 0
-41 82 193 0
-41 -82 -193 0
194 195 -196 0
194 -195 196 0
-194 195 196 0
-194 -195 -196 0
197 198 -199 0
197 -198 199 0
-197 198 199 0
-197 -198 -199 0
63 200 -201 0
63 -200 201 0
-63 200 201 0
-63 -200 -201 0
102 202 -203 0
102 -202 203 0
-102 202 203 0
-102 -202 -203 0
204 205 -206 0
204 -205 206 0
-204 205 206 0
-204 -205 -206 0
207 208 -209 0
207 -208 209 0
-207 208 209 0
-207 -208 -209 0
50 210 -211 0
50 -210 211 0
-50 210 211 0
-50 -210 -211 0
122 186 -212 0
122 -186 212 0
-122 186 212 0
-122 -186 -212 0
213 214 -215 0
213 -214 215 0
-213 214 215 0
-213 -214 -215 0
79 110 -216 0
79 -110 216 0
-79 110 216 0
-79 -110 -216 0
204 217 -218 0
204 -217 218 0
-204 217 218 0
-204 -217 -218 0
148 219 -220 0
148 -219 220 0
-148 219 220 0
-148 -219 -220 0
4 221 -222 0
4 -221 222 0
-4 221 222 0
-4 -221 -222 0
56 138 -223 0
56 -138 223 0
-56 138 223 0
-56 -138 -223 0
135 157 -224 0
135 -157 224 0
-135 157 224 0
-135 -157 -224 0
32 52 -225 0
32 -52 225 0
-32 52 225 0
-32 -52 -225 0
83 123 -164 0
83 -123 164 0
-83 123 164 0
-83 -123 -164 0
53 108 -221 0
53 -108 221 0
-53 108 221 0
-53 -108 -221 0
26 226 -227 0
26 -226 227 0
-26 226 227 0
-26 -226 -227 0
35 143 -228 0
35 -143 228 0
-35 143 228 0
-35 -143 -228 0
124 165 -229 0
124 -165 229 0
-124 165 229 0
-124 -165 -229 0
10 107 -139 0
10 -107 139 0
-10 107 139 0
-10 -107 -139 0
71 114 -216 0
71 -114 216 0
-71 114 216 0
-71 -114 -216 0
116 170 -230 0
116 -170 230 0
-116 170 230 0
-116 -170 -230 0
74 231 -232 0
74 -231 232 0
-74 231 232 0
-74 -231 -232 0
48 207 -233 0
48 -207 233 0
-48 207 233 0
-48 -207 -233 0
75 234 -235 0
75 -234 235 0
-75 234 235 0
-75 -234 -235 0
236 237 -238 0
236 -237 238 0
-236 237 238 0
-236 -237 -238 0
147 176 -200 0
147 -176 200 0
-147 176 200 0
-147 -176 -200 0
64 167 -239 0
64 -167 239 0
-64 167 239 0
-64 -167 -239 0
92 208 -240 0
92 -208 240 0
-92 208 240 0
-92 -208 -240 0
202 210 -241 0
202 -210 241 0
-202 210 241 0
-202 -210 -241 0
236 242 -243 0
236 -242 243 0
-236 242 243 0
-236 -242 -243 0
45 244 -245 0
45 -244 245 0
-45 244 245 0
-45 -244 -245 0
36 194 -246 0
36 -194 246 0
-36 194 246 0
-36 -194 -246 0
15 247 -248 0
15 -247 248 0
-15 247 248 0
-15 -247 -248 0
242 249 -250 0
242 -249 250 0
-242 249 250 0
-242 -249 -250 0
8 160 -251 0
8 -160 251 0
-8 160 251 0
-8 -160 -251 0
98 195 -252 0
98 -195 252 0
-98 195 252 0
-98 -195 -252 0
141 162 -177 0
141 -162 177 0
-141 162 177 0
-141 -162 -177 0
183 253 -254 0
183 -253 254 0
-183 253 254 0
-183 -253 -254 0
154 255 -256 0
154 -255 256 0
-154 255 256 0
-154 -255 -256 0
68 161 -257 0
68 -161 257 0
-68 161 257 0
-68 -161 -257 0
80 172 -222 0
80 -172 222 0
-80 172 222 0
-80 -172 -222 0
85 163 -258 0
85 -163 258 0
-85 163 258 0
-85 -163 -258 0
86 233 -247 0
86 -233 247 0
-86 233 247 0
-86 -233 -247 0
190 259 -260 0
190 -259 260 0
-190 259 260 0
-190 -259 -260 0
140 258 -261 0
140 -258 261 0
-140 258 261 0
-140 -258 -261 0
136 150 -246 0
136 -150 246 0
-136 150 246 0
-136 -150 -246 0
179 262 -263 0
179 -262 263 0
-179 262 263 0
-179 -262 -263 0
240 264 -265 0
240 -264 265 0
-240 264 265 0
-240 -264 -265 0
42 77 -197 0
42 -77 197 0
-42 77 197 0
-42 -77 -197 0
89 185 -266 0
89 -185 266 0
-89 185 266 0
-89 -185 -266 0
29 184 -225 0
29 -184 225 0
-29 184 225 0
-29 -184 -225 0
30 66 -267 0
30 -66 267 0
-30 66 267 0
-30 -66 -267 0
78 219 -231 0
78 -219 231 0
-78 219 231 0
-78 -219 -231 0
203 268 -269 0
203 -268 269 0
-203 268 269 0
-203 -268 -269 0
19 137 -270 0
19 -137 270 0
-19 137 270 0
-19 -137 -270 0
99 213 -271 0
99 -213 271 0
-99 213 271 0
-99 -213 -271 0
103 171 -272 0
103 -171 272 0
-103 171 272 0
-103 -171 -272 0
144 155 -273 0
144 -155 273 0
-144 155 273 0
-144 -155 -273 0
214 274 -275 0
214 -274 275 0
-214 274 275 0
-214 -274 -275 0
33 244 -261 0
33 -244 261 0
-33 244 261 0
-33 -244 -261 0
27 118 -276 0
27 -118 276 0
-27 118 276 0
-27 -118 -276 0
180 277 -278 0
180 -277 278 0
-180 277 278 0
-180 -277 -278 0
100 132 -237 0
100 -132 237 0
-100 132 237 0
-100 -132 -237 0
38 220 -279 0
38 -220 279 0
-38 220 279 0
-38 -220 -279 0
153 209 -257 0
153 -209 257 0
-153 209 257 0
-153 -209 -257 0
101 255 -280 0
101 -255 280 0
-101 255 280 0
-101 -255 -280 0
16 232 -281 0
16 -232 281 0
-16 232 281 0
-16 -232 -281 0
69 248 -282 0
69 -248 282 0
-69 248 282 0
-69 -248 -282 0
111 133 -283 0
111 -133 283 0
-111 133 283 0
-111 -133 -283 0
2 230 -284 0
2 -230 284 0
-2 230 284 0
-2 -230 -284 0
9 72 -168 0
9 -72 168 0
-9 72 168 0
-9 -72 -168 0
142 201 -285 0
142 -201 285 0
-142 201 285 0
-142 -201 -285 0
174 277 -286 0
174 -277 286 0
-174 277 286 0
-174 -277 -286 0
87 282 -287 0
87 -282 287 0
-87 282 287 0
-87 -282 -287 0
3 51 -211 0
3 -51 211 0
-3 51 211 0
-3 -51 -211 0
127 266 -288 0
127 -266 288 0
-127 266 288 0
-127 -266 -288 0
5 158 -289 0
5 -158 289 0
-5 158 289 0
-5 -158 -289 0
129 198 -234 0
129 -198 234 0
-129 198 234 0
-129 -198 -234 0
191 235 -290 0
191 -235 290 0
-191 235 290 0
-191 -235 -290 0
226 245 -280 0
226 -245 280 0
-226 245 280 0
-226 -245 -280 0
90 189 -291 0
90 -189 291 0
-90 189 291 0
-90 -189 -291 0
20 57 -267 0
20 -57 267 0
-20 57 267 0
-20 -57 -267 0
21 217 -285 0
21 -217 285 0
-21 217 285 0
-21 -217 -285 0
223 252 -292 0
223 -252 292 0
-223 252 292 0
-223 -252 -292 0
115 193 -272 0
115 -193 272 0
-115 193 272 0
-115 -193 -272 0
130 292 -293 0
130 -292 293 0
-130 292 293 0
-130 -292 -293 0
239 291 -293 0
239 -291 293 0
-239 291 293 0
-239 -291 -293 0
227 286 -294 0
227 -286 294 0
-227 286 294 0
-227 -286 -294 0
192 253 -295 0
192 -253 295 0
-192 253 295 0
-192 -253 -295 0
125 131 -181 0
125 -131 181 0
-125 131 181 0
-125 -131 -181 0
59 205 -296 0
59 -205 296 0
-59 205 296 0
-59 -205 -296 0
173 297 -298 0
173 -297 298 0
-173 297 298 0
-173 -297 -298 0
224 264 -294 0
224 -264 294 0
-224 264 294 0
-224 -264 -294 0
279 289 -299 0
279 -289 299 0
-279 289 299 0
-279 -289 -299 0
249 295 -296 0
249 -295 296 0
-249 295 296 0
-249 -295 -296 0
11 262 -274 0
11 -262 274 0
-11 262 274 0
-11 -262 -274 0
151 159 -300 0
151 -159 300 0
-151 159 300 0
-151 -159 -300 0
17 93 -290 0
17 -93 290 0
-17 93 290 0
-17 -93 -290 0
84 273 -287 0
84 -273 287 0
-84 273 287 0
-84 -273 -287 0
187 243 -259 0
187 -243 259 0
-187 243 259 0
-187 -243 -259 0
250 256 -276 0
250 -256 276 0
-250 256 276 0
-250 -256 -276 0
96 128 -297 0
96 -128 297 0
-96 128 297 0
-96 -128 -297 0
178 188 -265 0
178 -188 265 0
-178 188 265 0
-178 -188 -265 0
54 67 -156 0
54 -67 156 0
-54 67 156 0
-54 -67 -156 0
241 260 -268 0
241 -260 268 0
-241 260 268 0
-241 -260 -268 0
6 270 -298 0
6 -270 298 0
-6 270 298 0
-6 -270 -298 0
109 251 -263 0
109 -251 263 0
-109 251 263 0
-109 -251 -263 0
199 206 -215 0
199 -206 215 0
-199 206 215 0
-199 -206 -215 0
218 278 -300 0
218 -278 300 0
-218 278 300 0
-218 -278 -300 0
24 134 -283 0
24 -134 283 0
-24 134 283 0
-24 -134 -283 0
18 228 -254 0
18 -228 254 0
-18 228 254 0
-18 -228 -254 0
81 229 -281 0
81 -229 281 0
-81 229 281 0
-81 -229 -281 0
149 269 -299 0
149 -269 299 0
-149 269 299 0
-149 -269 -299 0
166 196 -271 0
166 -196 271 0
-166 196 271 0
-166 -196 -271 0
39 105 -212 0
39 -105 212 0
-39 105 212 0
-39 -105 -212 0
12 112 -119 0
12 -112 119 0
-12 112 119 0
-12 -112 -119 0
182 275 -284 0
182 -275 284 0
-182 275 284 0
-182 -275 -284 0
175 238 -288 0
175 -238 288 0
-175 238 288 0
-175 -238 -288 0
