c F4 Tseitin on networkx random_regular_graph(3,300,seed=1), connected=True, odd charge on vertex 1
p cnf 450 1200
1 2 3 0
1 -2 -3 0
-1 2 -3 0
-1 -2 3 0
4 5 -6 0
4 -5 6 0
-4 5 6 0
-4 -5 -6 0
7 8 -9 0
7 -8 9 0
-7 8 9 0
-7 -8 -9 0
10 11 -12 0
10 -11 12 0
-10 11 12 0
-10 -11 -12 0
13 14 -15 0
13 -14 15 0
-13 14 15 0
-13 -14 -15 0
16 17 -18 0
16 -17 18 0
-16 17 18 0
-16 -17 -18 0
19 20 -21 0
19 -20 21 0
-19 20 21 0
-19 -20 -21 0
22 23 -24 0
22 -23 24 0
-22 23 24 0
-22 -23 -24 0
25 26 -27 0
25 -26 27 0
-25 26 27 0
-25 -26 -27 0
28 29 -30 0
28 -29 30 0
-28 29 30 0
-28 -29 -30 0
31 32 -33 0
31 -32 33 0
-31 32 33 0
-31 -32 -33 0
34 35 -36 0
34 -35 36 0
-34 35 36 0
-34 -35 -36 0
37 38 -39 0
37 -38 39 0
-37 38 39 0
-37 -38 -39 0
22 40 -41 0
22 -40 41 0
-22 40 41 0
-22 -40 -41 0
42 43 -44 0
42 -43 44 0
-42 43 44 0
-42 -43 -44 0
45 46 -47 0
45 -46 47 0
-45 46 47 0
-45 -46 -47 0
48 49 -50 0
48 -49 50 0
-48 49 50 0
-48 -49 -50 0
51 52 -53 0
51 -52 53 0
-51 52 53 0
-51 -52 -53 0
54 55 -56 0
54 -55 56 0
-54 55 56 0
-54 -55 -56 0
57 58 -59 0
57 -58 59 0
-57 58 59 0
-57 -58 -59 0
60 61 -62 0
60 -61 62 0
-60 61 62 0
-60 -61 -62 0
63 64 -65 0
63 -64 65 0
-63 64 65 0
-63 -64 -65 0
66 67 -68 0
66 -67 68 0
-66 67 68 0
-66 -67 -68 0
69 70 -71 0
69 -70 71 0
-69 70 71 0
-69 -70 -71 0
72 73 -74 0
72 -73 74 0
-72 73 74 0
-72 -73 -74 0
75 76 -77 0
75 -76 77 0
-75 76 77 0
-75 -76 -77 0
66 78 -79 0
66 -78 79 0
-66 78 79 0
-66 -78 -79 0
31 80 -81 0
31 -80 81 0
-31 80 81 0
-31 -80 -81 0
34 42 -82 0
34 -42 82 0
-34 42 82 0
-34 -42 -82 0
23 83 -84 0
23 -83 84 0
-23 83 84 0
-23 -83 -84 0
85 86 -87 0
85 -86 87 0
-85 86 87 0
-85 -86 -87 0
75 88 -89 0
75 -88 89 0
-75 88 89 0
-75 -88 -89 0
90 91 -92 0
90 -91 92 0
-90 91 92 0
-90 -91 -92 0
93 94 -95 0
93 -94 95 0
-93 94 95 0
-93 -94 -95 0
25 96 -97 0
25 -96 97 0
-25 96 97 0
-25 -96 -97 0
10 98 -99 0
10 -98 99 0
-10 98 99 0
-10 -98 -99 0
100 101 -102 0
100 -101 102 0
-100 101 102 0
-100 -101 -102 0
19 103 -104 0
19 -103 104 0
-19 103 104 0
-19 -103 -104 0
13 80 -105 0
13 -80 105 0
-13 80 105 0
-13 -80 -105 0
106 107 -108 0
106 -107 108 0
-106 107 108 0
-106 -107 -108 0
109 110 -111 0
109 -110 111 0
-109 110 111 0
-109 -110 -111 0
112 113 -114 0
112 -113 114 0
-112 113 114 0
-112 -113 -114 0
115 116 -117 0
115 -116 117 0
-115 116 117 0
-115 -116 -117 0
14 118 -119 0
14 -118 119 0
-14 118 119 0
-14 -118 -119 0
120 121 -122 0
120 -121 122 0
-120 121 122 0
-120 -121 -122 0
123 124 -125 0
123 -124 125 0
-123 124 125 0
-123 -124 -125 0
82 126 -127 0
82 -126 127 0
-82 126 127 0
-82 -126 -127 0
128 129 -130 0
128 -129 130 0
-128 129 130 0
-128 -129 -130 0
126 131 -132 0
126 -131 132 0
-126 131 132 0
-126 -131 -132 0
133 134 -135 0
133 -134 135 0
-133 134 135 0
-133 -134 -135 0
136 137 -138 0
136 -137 138 0
-136 137 138 0
-136 -137 -138 0
139 140 -141 0
139 -140 141 0
-139 140 141 0
-139 -140 -141 0
142 143 -144 0
142 -143 144 0
-142 143 144 0
-142 -143 -144 0
145 146 -147 0
145 -146 147 0
-145 146 147 0
-145 -146 -147 0
4 148 -149 0
4 -148 149 0
-4 148 149 0
-4 -148 -149 0
51 150 -151 0
51 -150 151 0
-51 150 151 0
-51 -150 -151 0
131 152 -153 0
131 -152 153 0
-131 152 153 0
-131 -152 -153 0
154 155 -156 0
154 -155 156 0
-154 155 156 0
-154 -155 -156 0
57 157 -158 0
57 -157 158 0
-57 157 158 0
-57 -157 -158 0
159 160 -161 0
159 -160 161 0
-159 160 161 0
-159 -160 -161 0
162 163 -164 0
162 -163 164 0
-162 163 164 0
-162 -163 -164 0
165 166 -167 0
165 -166 167 0
-165 166 167 0
-165 -166 -167 0
152 168 -169 0
152 -168 169 0
-152 168 169 0
-152 -168 -169 0
5 32 -148 0
5 -32 148 0
-5 32 148 0
-5 -32 -148 0
170 171 -172 0
170 -171 172 0
-170 171 172 0
-170 -171 -172 0
159 173 -174 0
159 -173 174 0
-159 173 174 0
-159 -173 -174 0
162 175 -176 0
162 -175 176 0
-162 175 176 0
-162 -175 -176 0
177 178 -179 0
177 -178 179 0
-177 178 179 0
-177 -178 -179 0
180 181 -182 0
180 -181 182 0
-180 181 182 0
-180 -181 -182 0
183 184 -185 0
183 -184 185 0
-183 184 185 0
-183 -184 -185 0
45 186 -187 0
45 -186 187 0
-45 186 187 0
-45 -186 -187 0
35 188 -189 0
35 -188 189 0
-35 188 189 0
-35 -188 -189 0
190 191 -192 0
190 -191 192 0
-190 191 192 0
-190 -191 -192 0
58 193 -194 0
58 -193 194 0
-58 193 194 0
-58 -193 -194 0
195 196 -197 0
195 -196 197 0
-195 196 197 0
-195 -196 -197 0
177 198 -199 0
177 -198 199 0
-177 198 199 0
-177 -198 -199 0
149 200 -201 0
149 -200 201 0
-149 200 201 0
-149 -200 -201 0
202 203 -204 0
202 -203 204 0
-202 203 204 0
-202 -203 -204 0
52 205 -206 0
52 -205 206 0
-52 205 206 0
-52 -205 -206 0
207 208 -209 0
207 -208 209 0
-207 208 209 0
-207 -208 -209 0
205 210 -211 0
205 -210 211 0
-205 210 211 0
-205 -210 -211 0
69 165 -212 0
69 -165 212 0
-69 165 212 0
-69 -165 -212 0
213 214 -215 0
213 -214 215 0
-213 214 215 0
-213 -214 -215 0
216 217 -218 0
216 -217 218 0
-216 217 218 0
-216 -217 -218 0
219 220 -221 0
219 -220 221 0
-219 220 221 0
-219 -220 -221 0
53 123 -133 0
53 -123 133 0
-53 123 133 0
-53 -123 -133 0
93 112 -222 0
93 -112 222 0
-93 112 222 0
-93 -112 -222 0
223 224 -225 0
223 -224 225 0
-223 224 225 0
-223 -224 -225 0
178 226 -227 0
178 -226 227 0
-178 226 227 0
-178 -226 -227 0
190 195 -228 0
190 -195 228 0
-190 195 228 0
-190 -195 -228 0
11 28 -229 0
11 -28 229 0
-11 28 229 0
-11 -28 -229 0
230 231 -232 0
230 -231 232 0
-230 231 232 0
-230 -231 -232 0
233 234 -235 0
233 -234 235 0
-233 234 235 0
-233 -234 -235 0
236 237 -238 0
236 -237 238 0
-236 237 238 0
-236 -237 -238 0
188 239 -240 0
188 -239 240 0
-188 239 240 0
-188 -239 -240 0
59 241 -242 0
59 -241 242 0
-59 241 242 0
-59 -241 -242 0
48 183 -243 0
48 -183 243 0
-48 183 243 0
-48 -183 -243 0
136 230 -244 0
136 -230 244 0
-136 230 244 0
-136 -230 -244 0
49 245 -246 0
49 -245 246 0
-49 245 246 0
-49 -245 -246 0
247 248 -249 0
247 -248 249 0
-247 248 249 0
-247 -248 -249 0
100 200 -250 0
100 -200 250 0
-100 200 250 0
-100 -200 -250 0
150 251 -252 0
150 -251 252 0
-150 251 252 0
-150 -251 -252 0
154 253 -254 0
154 -253 254 0
-154 253 254 0
-154 -253 -254 0
115 255 -256 0
115 -255 256 0
-115 255 256 0
-115 -255 -256 0
16 257 -258 0
16 -257 258 0
-16 257 258 0
-16 -257 -258 0
116 231 -259 0
116 -231 259 0
-116 231 259 0
-116 -231 -259 0
54 260 -261 0
54 -260 261 0
-54 260 261 0
-54 -260 -261 0
88 262 -263 0
88 -262 263 0
-88 262 263 0
-88 -262 -263 0
60 264 -265 0
60 -264 265 0
-60 264 265 0
-60 -264 -265 0
196 210 -266 0
196 -210 266 0
-196 210 266 0
-196 -210 -266 0
267 268 -269 0
267 -268 269 0
-267 268 269 0
-267 -268 -269 0
94 184 -270 0
94 -184 270 0
-94 184 270 0
-94 -184 -270 0
271 272 -273 0
271 -272 273 0
-271 272 273 0
-271 -272 -273 0
274 275 -276 0
274 -275 276 0
-274 275 276 0
-274 -275 -276 0
277 278 -279 0
277 -278 279 0
-277 278 279 0
-277 -278 -279 0
280 281 -282 0
280 -281 282 0
-280 281 282 0
-280 -281 -282 0
40 72 -109 0
40 -72 109 0
-40 72 109 0
-40 -72 -109 0
134 283 -284 0
134 -283 284 0
-134 283 284 0
-134 -283 -284 0
166 280 -285 0
166 -280 285 0
-166 280 285 0
-166 -280 -285 0
286 287 -288 0
286 -287 288 0
-286 287 288 0
-286 -287 -288 0
46 289 -290 0
46 -289 290 0
-46 289 290 0
-46 -289 -290 0
170 228 -291 0
170 -228 291 0
-170 228 291 0
-170 -228 -291 0
185 281 -292 0
185 -281 292 0
-185 281 292 0
-185 -281 -292 0
142 293 -294 0
142 -293 294 0
-142 293 294 0
-142 -293 -294 0
41 211 -295 0
41 -211 295 0
-41 211 295 0
-41 -211 -295 0
296 297 -298 0
296 -297 298 0
-296 297 298 0
-296 -297 -298 0
73 299 -300 0
73 -299 300 0
-73 299 300 0
-73 -299 -300 0
20 90 -301 0
20 -90 301 0
-20 90 301 0
-20 -90 -301 0
17 302 -303 0
17 -302 303 0
-17 302 303 0
-17 -302 -303 0
202 304 -305 0
202 -304 305 0
-202 304 305 0
-202 -304 -305 0
180 306 -307 0
180 -306 307 0
-180 306 307 0
-180 -306 -307 0
139 155 -308 0
139 -155 308 0
-139 155 308 0
-139 -155 -308 0
241 309 -310 0
241 -309 310 0
-241 309 310 0
-241 -309 -310 0
311 312 -313 0
311 -312 313 0
-311 312 313 0
-311 -312 -313 0
127 233 -314 0
127 -233 314 0
-127 233 314 0
-127 -233 -314 0
213 266 -315 0
213 -266 315 0
-213 266 315 0
-213 -266 -315 0
78 156 -316 0
78 -156 316 0
-78 156 316 0
-78 -156 -316 0
157 317 -318 0
157 -317 318 0
-157 317 318 0
-157 -317 -318 0
128 319 -320 0
128 -319 320 0
-128 319 320 0
-128 -319 -320 0
226 239 -321 0
226 -239 321 0
-226 239 321 0
-226 -239 -321 0
277 322 -323 0
277 -322 323 0
-277 322 323 0
-277 -322 -323 0
12 186 -324 0
12 -186 324 0
-12 186 324 0
-12 -186 -324 0
61 325 -326 0
61 -325 326 0
-61 325 326 0
-61 -325 -326 0
247 286 -309 0
247 -286 309 0
-247 286 309 0
-247 -286 -309 0
319 327 -328 0
319 -327 328 0
-319 327 328 0
-319 -327 -328 0
329 330 -331 0
329 -330 331 0
-329 330 331 0
-329 -330 -331 0
18 47 -171 0
18 -47 171 0
-18 47 171 0
-18 -47 -171 0
203 332 -333 0
203 -332 333 0
-203 332 333 0
-203 -332 -333 0
219 334 -335 0
219 -334 335 0
-219 334 335 0
-219 -334 -335 0
101 227 -336 0
101 -227 336 0
-101 227 336 0
-101 -227 -336 0
85 262 -299 0
85 -262 299 0
-85 262 299 0
-85 -262 -299 0
26 325 -337 0
26 -325 337 0
-26 325 337 0
-26 -325 -337 0
1 236 -338 0
1 -236 338 0
-1 236 338 0
-1 -236 -338 0
295 339 -340 0
295 -339 340 0
-295 339 340 0
-295 -339 -340 0
86 255 -296 0
86 -255 296 0
-86 255 296 0
-86 -255 -296 0
216 341 -342 0
216 -341 342 0
-216 341 342 0
-216 -341 -342 0
251 271 -343 0
251 -271 343 0
-251 271 343 0
-251 -271 -343 0
341 344 -345 0
341 -344 345 0
-341 344 345 0
-341 -344 -345 0
346 347 -348 0
346 -347 348 0
-346 347 348 0
-346 -347 -348 0
129 163 -349 0
129 -163 349 0
-129 163 349 0
-129 -163 -349 0
79 293 -350 0
79 -293 350 0
-79 293 350 0
-79 -293 -350 0
223 274 -351 0
223 -274 351 0
-223 274 351 0
-223 -274 -351 0
130 140 -206 0
130 -140 206 0
-130 140 206 0
-130 -140 -206 0
43 113 -352 0
43 -113 352 0
-43 113 352 0
-43 -113 -352 0
353 354 -355 0
353 -354 355 0
-353 354 355 0
-353 -354 -355 0
83 220 -356 0
83 -220 356 0
-83 220 356 0
-83 -220 -356 0
357 358 -359 0
357 -358 359 0
-357 358 359 0
-357 -358 -359 0
267 338 -360 0
267 -338 360 0
-267 338 360 0
-267 -338 -360 0
221 361 -362 0
221 -361 362 0
-221 361 362 0
-221 -361 -362 0
70 106 -363 0
70 -106 363 0
-70 106 363 0
-70 -106 -363 0
315 364 -365 0
315 -364 365 0
-315 364 365 0
-315 -364 -365 0
189 366 -367 0
189 -366 367 0
-189 366 367 0
-189 -366 -367 0
368 369 -370 0
368 -369 370 0
-368 369 370 0
-368 -369 -370 0
63 145 -316 0
63 -145 316 0
-63 145 316 0
-63 -145 -316 0
76 168 -371 0
76 -168 371 0
-76 168 371 0
-76 -168 -371 0
366 372 -373 0
366 -372 373 0
-366 372 373 0
-366 -372 -373 0
175 275 -306 0
175 -275 306 0
-175 275 306 0
-175 -275 -306 0
179 198 -357 0
179 -198 357 0
-179 198 357 0
-179 -198 -357 0
268 360 -374 0
268 -360 374 0
-268 360 374 0
-268 -360 -374 0
282 342 -375 0
282 -342 375 0
-282 342 375 0
-282 -342 -375 0
67 120 -181 0
67 -120 181 0
-67 120 181 0
-67 -120 -181 0
297 343 -376 0
297 -343 376 0
-297 343 376 0
-297 -343 -376 0
172 339 -377 0
172 -339 377 0
-172 339 377 0
-172 -339 -377 0
317 350 -353 0
317 -350 353 0
-317 350 353 0
-317 -350 -353 0
15 114 -153 0
15 -114 153 0
-15 114 153 0
-15 -114 -153 0
7 378 -379 0
7 -378 379 0
-7 378 379 0
-7 -378 -379 0
21 380 -381 0
21 -380 381 0
-21 380 381 0
-21 -380 -381 0
382 383 -384 0
382 -383 384 0
-382 383 384 0
-382 -383 -384 0
68 135 -385 0
68 -135 385 0
-68 135 385 0
-68 -135 -385 0
91 107 -332 0
91 -107 332 0
-91 107 332 0
-91 -107 -332 0
121 207 -224 0
121 -207 224 0
-121 207 224 0
-121 -207 -224 0
298 329 -386 0
298 -329 386 0
-298 329 386 0
-298 -329 -386 0
193 242 -387 0
193 -242 387 0
-193 242 387 0
-193 -242 -387 0
388 389 -390 0
388 -389 390 0
-388 389 390 0
-388 -389 -390 0
137 222 -229 0
137 -222 229 0
-137 222 229 0
-137 -222 -229 0
55 391 -392 0
55 -391 392 0
-55 391 392 0
-55 -391 -392 0
269 294 -322 0
269 -294 322 0
-269 294 322 0
-269 -294 -322 0
393 394 -395 0
393 -394 395 0
-393 394 395 0
-393 -394 -395 0
393 396 -397 0
393 -396 397 0
-393 396 397 0
-393 -396 -397 0
50 243 -398 0
50 -243 398 0
-50 243 398 0
-50 -243 -398 0
56 354 -399 0
56 -354 399 0
-56 354 399 0
-56 -354 -399 0
151 208 -374 0
151 -208 374 0
-151 208 374 0
-151 -208 -374 0
352 368 -400 0
352 -368 400 0
-352 368 400 0
-352 -368 -400 0
29 401 -402 0
29 -401 402 0
-29 401 402 0
-29 -401 -402 0
2 396 -403 0
2 -396 403 0
-2 396 403 0
-2 -396 -403 0
225 248 -404 0
225 -248 404 0
-225 248 404 0
-225 -248 -404 0
164 240 -405 0
164 -240 405 0
-164 240 405 0
-164 -240 -405 0
118 375 -406 0
118 -375 406 0
-118 375 406 0
-118 -375 -406 0
119 191 -378 0
119 -191 378 0
-119 191 378 0
-119 -191 -378 0
143 263 -272 0
143 -263 272 0
-143 263 272 0
-143 -263 -272 0
304 407 -408 0
304 -407 408 0
-304 407 408 0
-304 -407 -408 0
6 245 -409 0
6 -245 409 0
-6 245 409 0
-6 -245 -409 0
302 410 -411 0
302 -410 411 0
-302 410 411 0
-302 -410 -411 0
77 87 -412 0
77 -87 412 0
-77 87 412 0
-77 -87 -412 0
369 406 -413 0
369 -406 413 0
-369 406 413 0
-369 -406 -413 0
169 333 -414 0
169 -333 414 0
-169 333 414 0
-169 -333 -414 0
278 367 -415 0
278 -367 415 0
-278 367 415 0
-278 -367 -415 0
132 204 -253 0
132 -204 253 0
-132 204 253 0
-132 -204 -253 0
321 336 -416 0
321 -336 416 0
-321 336 416 0
-321 -336 -416 0
273 414 -417 0
273 -414 417 0
-273 414 417 0
-273 -414 -417 0
209 292 -418 0
209 -292 418 0
-209 292 418 0
-209 -292 -418 0
98 254 -419 0
98 -254 419 0
-98 254 419 0
-98 -254 -419 0
330 405 -420 0
330 -405 420 0
-330 405 420 0
-330 -405 -420 0
74 276 -421 0
74 -276 421 0
-74 276 421 0
-74 -276 -421 0
160 234 -237 0
160 -234 237 0
-160 234 237 0
-160 -234 -237 0
161 400 -422 0
161 -400 422 0
-161 400 422 0
-161 -400 -422 0
279 423 -424 0
279 -423 424 0
-279 423 424 0
-279 -423 -424 0
425 426 -427 0
425 -426 427 0
-425 426 427 0
-425 -426 -427 0
124 351 -380 0
124 -351 380 0
-124 351 380 0
-124 -351 -380 0
217 289 -391 0
217 -289 391 0
-217 289 391 0
-217 -289 -391 0
64 326 -428 0
64 -326 428 0
-64 326 428 0
-64 -326 -428 0
283 291 -310 0
283 -291 310 0
-283 291 310 0
-283 -291 -310 0
37 346 -401 0
37 -346 401 0
-37 346 401 0
-37 -346 -401 0
201 413 -429 0
201 -413 429 0
-201 413 429 0
-201 -413 -429 0
410 430 -431 0
410 -430 431 0
-410 430 431 0
-410 -430 -431 0
138 287 -381 0
138 -287 381 0
-138 287 381 0
-138 -287 -381 0
146 344 -432 0
146 -344 432 0
-146 344 432 0
-146 -344 -432 0
305 402 -433 0
305 -402 433 0
-305 402 433 0
-305 -402 -433 0
103 434 -435 0
103 -434 435 0
-103 434 435 0
-103 -434 -435 0
311 371 -436 0
311 -371 436 0
-311 371 436 0
-311 -371 -436 0
167 176 -437 0
167 -176 437 0
-167 176 437 0
-167 -176 -437 0
44 382 -407 0
44 -382 407 0
-44 382 407 0
-44 -382 -407 0
8 232 -361 0
8 -232 361 0
-8 232 361 0
-8 -232 -361 0
363 404 -438 0
363 -404 438 0
-363 404 438 0
-363 -404 -438 0
372 383 -409 0
372 -383 409 0
-372 383 409 0
-372 -383 -409 0
214 218 -323 0
214 -218 323 0
-214 218 323 0
-214 -218 -323 0
81 436 -439 0
81 -436 439 0
-81 436 439 0
-81 -436 -439 0
259 428 -440 0
259 -428 440 0
-259 428 440 0
-259 -428 -440 0
252 386 -429 0
252 -386 429 0
-252 386 429 0
-252 -386 -429 0
110 122 -264 0
110 -122 264 0
-110 122 264 0
-110 -122 -264 0
399 412 -439 0
399 -412 439 0
-399 412 439 0
-399 -412 -439 0
65 377 -441 0
65 -377 441 0
-65 377 441 0
-65 -377 -441 0
373 388 -403 0
373 -388 403 0
-373 388 403 0
-373 -388 -403 0
423 441 -442 0
423 -441 442 0
-423 441 442 0
-423 -441 -442 0
173 307 -434 0
173 -307 434 0
-173 307 434 0
-173 -307 -434 0
84 425 -443 0
84 -425 443 0
-84 425 443 0
-84 -425 -443 0
257 340 -397 0
257 -340 397 0
-257 340 397 0
-257 -340 -397 0
301 422 -440 0
301 -422 440 0
-301 422 440 0
-301 -422 -440 0
308 312 -430 0
308 -312 430 0
-308 312 430 0
-308 -312 -430 0
270 331 -444 0
270 -331 444 0
-270 331 444 0
-270 -331 -444 0
108 187 -445 0
108 -187 445 0
-108 187 445 0
-108 -187 -445 0
288 290 -364 0
288 -290 364 0
-288 290 364 0
-288 -290 -364 0
96 334 -446 0
96 -334 446 0
-96 334 446 0
-96 -334 -446 0
27 376 -447 0
27 -376 447 0
-27 376 447 0
-27 -376 -447 0
238 387 -432 0
238 -387 432 0
-238 387 432 0
-238 -387 -432 0
197 249 -358 0
197 -249 358 0
-197 249 358 0
-197 -249 -358 0
349 424 -435 0
349 -424 435 0
-349 424 435 0
-349 -424 -435 0
416 419 -448 0
416 -419 448 0
-416 419 448 0
-416 -419 -448 0
62 125 -158 0
62 -125 158 0
-62 125 158 0
-62 -125 -158 0
71 300 -313 0
71 -300 313 0
-71 300 313 0
-71 -300 -313 0
111 324 -438 0
111 -324 438 0
-111 324 438 0
-111 -324 -438 0
246 285 -392 0
246 -285 392 0
-246 285 392 0
-246 -285 -392 0
314 320 -355 0
314 -320 355 0
-314 320 355 0
-314 -320 -355 0
105 345 -370 0
105 -345 370 0
-105 345 370 0
-105 -345 -370 0
3 244 -408 0
3 -244 408 0
-3 244 408 0
-3 -244 -408 0
104 199 -398 0
104 -199 398 0
-104 199 398 0
-104 -199 -398 0
97 99 -442 0
97 -99 442 0
-97 99 442 0
-97 -99 -442 0
38 182 -303 0
38 -182 303 0
-38 182 303 0
-38 -182 -303 0
141 433 -449 0
141 -433 449 0
-141 433 449 0
-141 -433 -449 0
192 260 -385 0
192 -260 385 0
-192 260 385 0
-192 -260 -385 0
265 411 -417 0
265 -411 417 0
-265 411 417 0
-265 -411 -417 0
394 418 -437 0
394 -418 437 0
-394 418 437 0
-394 -418 -437 0
117 318 -450 0
117 -318 450 0
-117 318 450 0
-117 -318 -450 0
389 446 -448 0
389 -446 448 0
-389 446 448 0
-389 -446 -448 0
327 395 -420 0
327 -395 420 0
-327 395 420 0
-327 -395 -420 0
102 174 -347 0
102 -174 347 0
-102 174 347 0
-102 -174 -347 0
39 235 -445 0
39 -235 445 0
-39 235 445 0
-39 -235 -445 0
384 426 -443 0
384 -426 443 0
-384 426 443 0
-384 -426 -443 0
30 194 -421 0
30 -194 421 0
-30 194 421 0
-30 -194 -421 0
89 250 -258 0
89 -250 258 0
-89 250 258 0
-89 -250 -258 0
33 348 -365 0
33 -348 365 0
-33 348 365 0
-33 -348 -365 0
144 212 -335 0
144 -212 335 0
-144 212 335 0
-144 -212 -335 0
256 337 -444 0
256 -337 444 0
-256 337 444 0
-256 -337 -444 0
24 95 -359 0
24 -95 359 0
-24 95 359 0
-24 -95 -359 0
9 36 -92 0
9 -36 92 0
-9 36 92 0
-9 -36 -92 0
147 328 -427 0
147 -328 427 0
-147 328 427 0
-147 -328 -427 0
362 431 -447 0
362 -431 447 0
-362 431 447 0
-362 -431 -447 0
356 390 -449 0
356 -390 449 0
-356 390 449 0
-356 -390 -449 0
215 284 -379 0
215 -284 379 0
-215 284 379 0
-215 -284 -379 0
261 415 -450 0
261 -415 450 0
-261 415 450 0
-261 -415 -450 0
