c F4 Tseitin on networkx random_regular_graph(3,40,seed=0), connected=True, odd charge on vertex 1
p cnf 60 160
1 2 3 0
1 -2 -3 0
-1 2 -3 0
-1 -2 3 0
4 5 -6 0
4 -5 6 0
-4 5 6 0
-4 -5 -6 0
4 7 -8 0
4 -7 8 0
-4 7 8 0
-4 -7 -8 0
9 10 -11 0
9 -10 11 0
-9 10 11 0
-9 -10 -11 0
5 9 -12 0
5 -9 12 0
-5 9 12 0
-5 -9 -12 0
13 14 -15 0
13 -14 15 0
-13 14 15 0
-13 -14 -15 0
16 17 -18 0
16 -17 18 0
-16 17 18 0
-16 -17 -18 0
7 19 -20 0
7 -19 20 0
-7 19 20 0
-7 -19 -20 0
21 22 -23 0
21 -22 23 0
-21 22 23 0
-21 -22 -23 0
24 25 -26 0
24 -25 26 0
-24 25 26 0
-24 -25 -26 0
21 27 -28 0
21 -27 28 0
-21 27 28 0
-21 -27 -28 0
29 30 -31 0
29 -30 31 0
-29 30 31 0
-29 -30 -31 0
6 32 -33 0
6 -32 33 0
-6 32 33 0
-6 -32 -33 0
13 32 -34 0
13 -32 34 0
-13 32 34 0
-13 -32 -34 0
22 35 -36 0
22 -35 36 0
-22 35 36 0
-22 -35 -36 0
1 35 -37 0
1 -35 37 0
-1 35 37 0
-1 -35 -37 0
38 39 -40 0
38 -39 40 0
-38 39 40 0
-38 -39 -40 0
41 42 -43 0
41 -42 43 0
-41 42 43 0
-41 -42 -43 0
10 12 -44 0
10 -12 44 0
-10 12 44 0
-10 -12 -44 0
11 45 -46 0
11 -45 46 0
-11 45 46 0
-11 -45 -46 0
37 47 -48 0
37 -47 48 0
-37 47 48 0
-37 -47 -48 0
38 49 -50 0
38 -49 50 0
-38 49 50 0
-38 -49 -50 0
16 29 -51 0
16 -29 51 0
-16 29 51 0
-16 -29 -51 0
2 41 -52 0
2 -41 52 0
-2 41 52 0
-2 -41 -52 0
27 34 -53 0
27 -34 53 0
-27 34 53 0
-27 -34 -53 0
24 54 -55 0
24 -54 55 0
-24 54 55 0
-24 -54 -55 0
39 47 -56 0
39 -47 56 0
-39 47 56 0
-39 -47 -56 0
23 52 -53 0
23 -52 53 0
-23 52 53 0
-23 -52 -53 0
25 57 -58 0
25 -57 58 0
-25 57 58 0
-25 -57 -58 0
14 19 -36 0
14 -19 36 0
-14 19 36 0
-14 -19 -36 0
30 54 -59 0
30 -54 59 0
-30 54 59 0
-30 -54 -59 0
17 45 -48 0
17 -45 48 0
-17 45 48 0
-17 -45 -48 0
31 49 -57 0
31 -49 57 0
-31 49 57 0
-31 -49 -57 0
42 51 -55 0
42 -51 55 0
-42 51 55 0
-42 -51 -55 0
15 58 -60 0
15 -58 60 0
-15 58 60 0
-15 -58 -60 0
18 40 -46 0
18 -40 46 0
-18 40 46 0
-18 -40 -46 0
8 20 -43 0
8 -20 43 0
-8 20 43 0
-8 -20 -43 0
3 26 -28 0
3 -26 28 0
-3 26 28 0
-3 -26 -28 0
50 56 -60 0
50 -56 60 0
-50 56 60 0
-50 -56 -60 0
33 44 -59 0
33 -44 59 0
-33 44 59 0
-33 -44 -59 0
