c F4 Tseitin on networkx random_regular_graph(3,200,seed=6), connected=True, odd charge on vertex 1
p cnf 300 800
1 2 3 0
1 -2 -3 0
-1 2 -3 0
-1 -2 3 0
4 5 -6 0
4 -5 6 0
-4 5 6 0
-4 -5 -6 0
7 8 -9 0
7 -8 9 0
-7 8 9 0
-7 -8 -9 0
10 11 -12 0
10 -11 12 0
-10 11 12 0
-10 -11 -12 0
13 14 -15 0
13 -14 15 0
-13 14 15 0
-13 -14 -15 0
16 17 -18 0
16 -17 18 0
-16 17 18 0
-16 -17 -18 0
4 19 -20 0
4 -19 20 0
-4 19 20 0
-4 -19 -20 0
13 21 -22 0
13 -21 22 0
-13 21 22 0
-13 -21 -22 0
23 24 -25 0
23 -24 25 0
-23 24 25 0
-23 -24 -25 0
26 27 -28 0
26 -27 28 0
-26 27 28 0
-26 -27 -28 0
29 30 -31 0
29 -30 31 0
-29 30 31 0
-29 -30 -31 0
32 33 -34 0
32 -33 34 0
-32 33 34 0
-32 -33 -34 0
35 36 -37 0
35 -36 37 0
-35 36 37 0
-35 -36 -37 0
38 39 -40 0
38 -39 40 0
-38 39 40 0
-38 -39 -40 0
41 42 -43 0
41 -42 43 0
-41 42 43 0
-41 -42 -43 0
16 44 -45 0
16 -44 45 0
-16 44 45 0
-16 -44 -45 0
46 47 -48 0
46 -47 48 0
-46 47 48 0
-46 -47 -48 0
49 50 -51 0
49 -50 51 0
-49 50 51 0
-49 -50 -51 0
52 53 -54 0
52 -53 54 0
-52 53 54 0
-52 -53 -54 0
55 56 -57 0
55 -56 57 0
-55 56 57 0
-55 -56 -57 0
58 59 -60 0
58 -59 60 0
-58 59 60 0
-58 -59 -60 0
61 62 -63 0
61 -62 63 0
-61 62 63 0
-61 -62 -63 0
64 65 -66 0
64 -65 66 0
-64 65 66 0
-64 -65 -66 0
67 68 -69 0
67 -68 69 0
-67 68 69 0
-67 -68 -69 0
70 71 -72 0
70 -71 72 0
-70 71 72 0
-70 -71 -72 0
73 74 -75 0
73 -74 75 0
-73 74 75 0
-73 -74 -75 0
76 77 -78 0
76 -77 78 0
-76 77 78 0
-76 -77 -78 0
35 79 -80 0
35 -79 80 0
-35 79 80 0
-35 -79 -80 0
81 82 -83 0
81 -82 83 0
-81 82 83 0
-81 -82 -83 0
29 84 -85 0
29 -84 85 0
-29 84 85 0
-29 -84 -85 0
86 87 -88 0
86 -87 88 0
-86 87 88 0
-86 -87 -88 0
89 90 -91 0
89 -90 91 0
-89 90 91 0
-89 -90 -91 0
52 92 -93 0
52 -92 93 0
-52 92 93 0
-52 -92 -93 0
94 95 -96 0
94 -95 96 0
-94 95 96 0
-94 -95 -96 0
97 98 -99 0
97 -98 99 0
-97 98 99 0
-97 -98 -99 0
100 101 -102 0
100 -101 102 0
-100 101 102 0
-100 -101 -102 0
103 104 -105 0
103 -104 105 0
-103 104 105 0
-103 -104 -105 0
36 106 -107 0
36 -106 107 0
-36 106 107 0
-36 -106 -107 0
108 109 -110 0
108 -109 110 0
-108 109 110 0
-108 -109 -110 0
111 112 -113 0
111 -112 113 0
-111 112 113 0
-111 -112 -113 0
53 114 -115 0
53 -114 115 0
-53 114 115 0
-53 -114 -115 0
111 116 -117 0
111 -116 117 0
-111 116 117 0
-111 -116 -117 0
118 119 -120 0
118 -119 120 0
-118 119 120 0
-118 -119 -120 0
121 122 -123 0
121 -122 123 0
-121 122 123 0
-121 -122 -123 0
46 124 -125 0
46 -124 125 0
-46 124 125 0
-46 -124 -125 0
67 126 -127 0
67 -126 127 0
-67 126 127 0
-67 -126 -127 0
128 129 -130 0
128 -129 130 0
-128 129 130 0
-128 -129 -130 0
37 97 -131 0
37 -97 131 0
-37 97 131 0
-37 -97 -131 0
132 133 -134 0
132 -133 134 0
-132 133 134 0
-132 -133 -134 0
23 61 -135 0
23 -61 135 0
-23 61 135 0
-23 -61 -135 0
136 137 -138 0
136 -137 138 0
-136 137 138 0
-136 -137 -138 0
73 139 -140 0
73 -139 140 0
-73 139 140 0
-73 -139 -140 0
44 141 -142 0
44 -141 142 0
-44 141 142 0
-44 -141 -142 0
124 143 -144 0
124 -143 144 0
-124 143 144 0
-124 -143 -144 0
7 19 -145 0
7 -19 145 0
-7 19 145 0
-7 -19 -145 0
114 146 -147 0
114 -146 147 0
-114 146 147 0
-114 -146 -147 0
148 149 -150 0
148 -149 150 0
-148 149 150 0
-148 -149 -150 0
151 152 -153 0
151 -152 153 0
-151 152 153 0
-151 -152 -153 0
126 154 -155 0
126 -154 155 0
-126 154 155 0
-126 -154 -155 0
156 157 -158 0
156 -157 158 0
-156 157 158 0
-156 -157 -158 0
159 160 -161 0
159 -160 161 0
-159 160 161 0
-159 -160 -161 0
92 162 -163 0
92 -162 163 0
-92 162 163 0
-92 -162 -163 0
62 164 -165 0
62 -164 165 0
-62 164 165 0
-62 -164 -165 0
151 166 -167 0
151 -166 167 0
-151 166 167 0
-151 -166 -167 0
168 169 -170 0
168 -169 170 0
-168 169 170 0
-168 -169 -170 0
26 108 -171 0
26 -108 171 0
-26 108 171 0
-26 -108 -171 0
63 121 -172 0
63 -121 172 0
-63 121 172 0
-63 -121 -172 0
173 174 -175 0
173 -174 175 0
-173 174 175 0
-173 -174 -175 0
86 176 -177 0
86 -176 177 0
-86 176 177 0
-86 -176 -177 0
64 178 -179 0
64 -178 179 0
-64 178 179 0
-64 -178 -179 0
68 116 -180 0
68 -116 180 0
-68 116 180 0
-68 -116 -180 0
1 87 -181 0
1 -87 181 0
-1 87 181 0
-1 -87 -181 0
98 182 -183 0
98 -182 183 0
-98 182 183 0
-98 -182 -183 0
184 185 -186 0
184 -185 186 0
-184 185 186 0
-184 -185 -186 0
187 188 -189 0
187 -188 189 0
-187 188 189 0
-187 -188 -189 0
70 190 -191 0
70 -190 191 0
-70 190 191 0
-70 -190 -191 0
166 192 -193 0
166 -192 193 0
-166 192 193 0
-166 -192 -193 0
24 194 -195 0
24 -194 195 0
-24 194 195 0
-24 -194 -195 0
49 196 -197 0
49 -196 197 0
-49 196 197 0
-49 -196 -197 0
156 198 -199 0
156 -198 199 0
-156 198 199 0
-156 -198 -199 0
200 201 -202 0
200 -201 202 0
-200 201 202 0
-200 -201 -202 0
180 203 -204 0
180 -203 204 0
-180 203 204 0
-180 -203 -204 0
192 205 -206 0
192 -205 206 0
-192 205 206 0
-192 -205 -206 0
207 208 -209 0
207 -208 209 0
-207 208 209 0
-207 -208 -209 0
127 141 -210 0
127 -141 210 0
-127 141 210 0
-127 -141 -210 0
17 115 -128 0
17 -115 128 0
-17 115 128 0
-17 -115 -128 0
76 94 -159 0
76 -94 159 0
-76 94 159 0
-76 -94 -159 0
211 212 -213 0
211 -212 213 0
-211 212 213 0
-211 -212 -213 0
77 214 -215 0
77 -214 215 0
-77 214 215 0
-77 -214 -215 0
148 216 -217 0
148 -216 217 0
-148 216 217 0
-148 -216 -217 0
81 139 -218 0
81 -139 218 0
-81 139 218 0
-81 -139 -218 0
55 219 -220 0
55 -219 220 0
-55 219 220 0
-55 -219 -220 0
8 178 -221 0
8 -178 221 0
-8 178 221 0
-8 -178 -221 0
135 193 -222 0
135 -193 222 0
-135 193 222 0
-135 -193 -222 0
100 152 -223 0
100 -152 223 0
-100 152 223 0
-100 -152 -223 0
224 225 -226 0
224 -225 226 0
-224 225 226 0
-224 -225 -226 0
74 146 -227 0
74 -146 227 0
-74 146 227 0
-74 -146 -227 0
228 229 -230 0
228 -229 230 0
-228 229 230 0
-228 -229 -230 0
27 231 -232 0
27 -231 232 0
-27 231 232 0
-27 -231 -232 0
89 142 -167 0
89 -142 167 0
-89 142 167 0
-89 -142 -167 0
196 233 -234 0
196 -233 234 0
-196 233 234 0
-196 -233 -234 0
90 132 -235 0
90 -132 235 0
-90 132 235 0
-90 -132 -235 0
149 203 -219 0
149 -203 219 0
-149 203 219 0
-149 -203 -219 0
84 214 -236 0
84 -214 236 0
-84 214 236 0
-84 -214 -236 0
181 237 -238 0
181 -237 238 0
-181 237 238 0
-181 -237 -238 0
198 236 -239 0
198 -236 239 0
-198 236 239 0
-198 -236 -239 0
32 41 -240 0
32 -41 240 0
-32 41 240 0
-32 -41 -240 0
75 103 -241 0
75 -103 241 0
-75 103 241 0
-75 -103 -241 0
101 224 -242 0
101 -224 242 0
-101 224 242 0
-101 -224 -242 0
82 243 -244 0
82 -243 244 0
-82 243 244 0
-82 -243 -244 0
136 164 -245 0
136 -164 245 0
-136 164 245 0
-136 -164 -245 0
143 231 -246 0
143 -231 246 0
-143 231 246 0
-143 -231 -246 0
5 205 -211 0
5 -205 211 0
-5 205 211 0
-5 -205 -211 0
14 122 -247 0
14 -122 247 0
-14 122 247 0
-14 -122 -247 0
93 95 -200 0
93 -95 200 0
-93 95 200 0
-93 -95 -200 0
248 249 -250 0
248 -249 250 0
-248 249 250 0
-248 -249 -250 0
251 252 -253 0
251 -252 253 0
-251 252 253 0
-251 -252 -253 0
129 157 -199 0
129 -157 199 0
-129 157 199 0
-129 -157 -199 0
96 254 -255 0
96 -254 255 0
-96 254 255 0
-96 -254 -255 0
85 154 -176 0
85 -154 176 0
-85 154 176 0
-85 -154 -176 0
118 173 -256 0
118 -173 256 0
-118 173 256 0
-118 -173 -256 0
257 258 -259 0
257 -258 259 0
-257 258 259 0
-257 -258 -259 0
79 207 -260 0
79 -207 260 0
-79 207 260 0
-79 -207 -260 0
144 220 -261 0
144 -220 261 0
-144 220 261 0
-144 -220 -261 0
10 254 -262 0
10 -254 262 0
-10 254 262 0
-10 -254 -262 0
216 251 -263 0
216 -251 263 0
-216 251 263 0
-216 -251 -263 0
145 218 -264 0
145 -218 264 0
-145 218 264 0
-145 -218 -264 0
78 130 -235 0
78 -130 235 0
-78 130 235 0
-78 -130 -235 0
42 50 -187 0
42 -50 187 0
-42 50 187 0
-42 -50 -187 0
69 162 -265 0
69 -162 265 0
-69 162 265 0
-69 -162 -265 0
147 266 -267 0
147 -266 267 0
-147 266 267 0
-147 -266 -267 0
109 137 -268 0
109 -137 268 0
-109 137 268 0
-109 -137 -268 0
83 174 -269 0
83 -174 269 0
-83 174 269 0
-83 -174 -269 0
119 155 -257 0
119 -155 257 0
-119 155 257 0
-119 -155 -257 0
20 56 -270 0
20 -56 270 0
-20 56 270 0
-20 -56 -270 0
30 271 -272 0
30 -271 272 0
-30 271 272 0
-30 -271 -272 0
88 233 -273 0
88 -233 273 0
-88 233 273 0
-88 -233 -273 0
38 99 -260 0
38 -99 260 0
-38 99 260 0
-38 -99 -260 0
2 222 -274 0
2 -222 274 0
-2 222 274 0
-2 -222 -274 0
11 204 -275 0
11 -204 275 0
-11 204 275 0
-11 -204 -275 0
117 172 -268 0
117 -172 268 0
-117 172 268 0
-117 -172 -268 0
258 266 -276 0
258 -266 276 0
-258 266 276 0
-258 -266 -276 0
58 277 -278 0
58 -277 278 0
-58 277 278 0
-58 -277 -278 0
168 201 -228 0
168 -201 228 0
-168 201 228 0
-168 -201 -228 0
45 248 -279 0
45 -248 279 0
-45 248 279 0
-45 -248 -279 0
28 270 -280 0
28 -270 280 0
-28 270 280 0
-28 -270 -280 0
112 194 -255 0
112 -194 255 0
-112 194 255 0
-112 -194 -255 0
18 133 -263 0
18 -133 263 0
-18 133 263 0
-18 -133 -263 0
25 273 -281 0
25 -273 281 0
-25 273 281 0
-25 -273 -281 0
15 160 -282 0
15 -160 282 0
-15 160 282 0
-15 -160 -282 0
59 110 -283 0
59 -110 283 0
-59 110 283 0
-59 -110 -283 0
12 169 -281 0
12 -169 281 0
-12 169 281 0
-12 -169 -281 0
256 277 -284 0
256 -277 284 0
-256 277 284 0
-256 -277 -284 0
182 202 -275 0
182 -202 275 0
-182 202 275 0
-182 -202 -275 0
208 252 -285 0
208 -252 285 0
-208 252 285 0
-208 -252 -285 0
161 286 -287 0
161 -286 287 0
-161 286 287 0
-161 -286 -287 0
113 125 -269 0
113 -125 269 0
-113 125 269 0
-113 -125 -269 0
60 210 -247 0
60 -210 247 0
-60 210 247 0
-60 -210 -247 0
47 288 -289 0
47 -288 289 0
-47 288 289 0
-47 -288 -289 0
48 195 -290 0
48 -195 290 0
-48 195 290 0
-48 -195 -290 0
6 262 -291 0
6 -262 291 0
-6 262 291 0
-6 -262 -291 0
39 51 -134 0
39 -51 134 0
-39 51 134 0
-39 -51 -134 0
65 245 -292 0
65 -245 292 0
-65 245 292 0
-65 -245 -292 0
209 265 -293 0
209 -265 293 0
-209 265 293 0
-209 -265 -293 0
138 294 -295 0
138 -294 295 0
-138 294 295 0
-138 -294 -295 0
31 91 -296 0
31 -91 296 0
-31 91 296 0
-31 -91 -296 0
3 71 -261 0
3 -71 261 0
-3 71 261 0
-3 -71 -261 0
237 278 -291 0
237 -278 291 0
-237 278 291 0
-237 -278 -291 0
190 234 -242 0
190 -234 242 0
-190 234 242 0
-190 -234 -242 0
140 183 -225 0
140 -183 225 0
-140 183 225 0
-140 -183 -225 0
241 292 -297 0
241 -292 297 0
-241 292 297 0
-241 -292 -297 0
188 280 -298 0
188 -280 298 0
-188 280 298 0
-188 -280 -298 0
206 240 -276 0
206 -240 276 0
-206 240 276 0
-206 -240 -276 0
72 120 -274 0
72 -120 274 0
-72 120 274 0
-72 -120 -274 0
102 104 -271 0
102 -104 271 0
-102 104 271 0
-102 -104 -271 0
66 279 -299 0
66 -279 299 0
-66 279 299 0
-66 -279 -299 0
171 286 -293 0
171 -286 293 0
-171 286 293 0
-171 -286 -293 0
106 239 -249 0
106 -239 249 0
-106 239 249 0
-106 -239 -249 0
33 80 -297 0
33 -80 297 0
-33 80 297 0
-33 -80 -297 0
227 264 -300 0
227 -264 300 0
-227 264 300 0
-227 -264 -300 0
179 184 -226 0
179 -184 226 0
-179 184 226 0
-179 -184 -226 0
107 163 -223 0
107 -163 223 0
-107 163 223 0
-107 -163 -223 0
221 243 -259 0
221 -243 259 0
-221 243 259 0
-221 -243 -259 0
229 244 -284 0
229 -244 284 0
-229 244 284 0
-229 -244 -284 0
43 177 -299 0
43 -177 299 0
-43 177 299 0
-43 -177 -299 0
158 170 -300 0
158 -170 300 0
-158 170 300 0
-158 -170 -300 0
9 34 -298 0
9 -34 298 0
-9 34 298 0
-9 -34 -298 0
105 175 -288 0
105 -175 288 0
-105 175 288 0
-105 -175 -288 0
153 165 -212 0
153 -165 212 0
-153 165 212 0
-153 -165 -212 0
150 197 -296 0
150 -197 296 0
-150 197 296 0
-150 -197 -296 0
21 232 -282 0
21 -232 282 0
-21 232 282 0
-21 -232 -282 0
185 283 -294 0
185 -283 294 0
-185 283 294 0
-185 -283 -294 0
189 287 -295 0
189 -287 295 0
-189 287 295 0
-189 -287 -295 0
22 213 -289 0
22 -213 289 0
-22 213 289 0
-22 -213 -289 0
191 215 -285 0
191 -215 285 0
-191 215 285 0
-191 -215 -285 0
246 267 -290 0
246 -267 290 0
-246 267 290 0
-246 -267 -290 0
131 186 -230 0
131 -186 230 0
-131 186 230 0
-131 -186 -230 0
40 217 -272 0
40 -217 272 0
-40 217 272 0
-40 -217 -272 0
54 57 -250 0
54 -57 250 0
-54 57 250 0
-54 -57 -250 0
123 238 -253 0
123 -238 253 0
-123 238 253 0
-123 -238 -253 0
