c F4 Tseitin on networkx random_regular_graph(3,40,seed=5), connected=True, odd charge on vertex 1
p cnf 60 160
1 2 3 0
1 -2 -3 0
-1 2 -3 0
-1 -2 3 0
4 5 -6 0
4 -5 6 0
-4 5 6 0
-4 -5 -6 0
7 8 -9 0
7 -8 9 0
-7 8 9 0
-7 -8 -9 0
10 11 -12 0
10 -11 12 0
-10 11 12 0
-10 -11 -12 0
7 13 -14 0
7 -13 14 0
-7 13 14 0
-7 -13 -14 0
15 16 -17 0
15 -16 17 0
-15 16 17 0
-15 -16 -17 0
18 19 -20 0
18 -19 20 0
-18 19 20 0
-18 -19 -20 0
21 22 -23 0
21 -22 23 0
-21 22 23 0
-21 -22 -23 0
24 25 -26 0
24 -25 26 0
-24 25 26 0
-24 -25 -26 0
21 27 -28 0
21 -27 28 0
-21 27 28 0
-21 -27 -28 0
29 30 -31 0
29 -30 31 0
-29 30 31 0
-29 -30 -31 0
4 32 -33 0
4 -32 33 0
-4 32 33 0
-4 -32 -33 0
34 35 -36 0
34 -35 36 0
-34 35 36 0
-34 -35 -36 0
10 13 -37 0
10 -13 37 0
-10 13 37 0
-10 -13 -37 0
5 15 -22 0
5 -15 22 0
-5 15 22 0
-5 -15 -22 0
24 38 -39 0
24 -38 39 0
-24 38 39 0
-24 -38 -39 0
1 40 -41 0
1 -40 41 0
-1 40 41 0
-1 -40 -41 0
27 34 -42 0
27 -34 42 0
-27 34 42 0
-27 -34 -42 0
6 35 -43 0
6 -35 43 0
-6 35 43 0
-6 -35 -43 0
40 44 -45 0
40 -44 45 0
-40 44 45 0
-40 -44 -45 0
18 46 -47 0
18 -46 47 0
-18 46 47 0
-18 -46 -47 0
25 32 -43 0
25 -32 43 0
-25 32 43 0
-25 -32 -43 0
14 28 -48 0
14 -28 48 0
-14 28 48 0
-14 -28 -48 0
8 48 -49 0
8 -48 49 0
-8 48 49 0
-8 -48 -49 0
29 50 -51 0
29 -50 51 0
-29 50 51 0
-29 -50 -51 0
2 46 -52 0
2 -46 52 0
-2 46 52 0
-2 -46 -52 0
30 53 -54 0
30 -53 54 0
-30 53 54 0
-30 -53 -54 0
11 36 -55 0
11 -36 55 0
-11 36 55 0
-11 -36 -55 0
16 31 -50 0
16 -31 50 0
-16 31 50 0
-16 -31 -50 0
26 42 -53 0
26 -42 53 0
-26 42 53 0
-26 -42 -53 0
9 19 -56 0
9 -19 56 0
-9 19 56 0
-9 -19 -56 0
3 38 -57 0
3 -38 57 0
-3 38 57 0
-3 -38 -57 0
44 58 -59 0
44 -58 59 0
-44 58 59 0
-44 -58 -59 0
12 17 -37 0
12 -17 37 0
-12 17 37 0
-12 -17 -37 0
20 56 -60 0
20 -56 60 0
-20 56 60 0
-20 -56 -60 0
33 47 -49 0
33 -47 49 0
-33 47 49 0
-33 -47 -49 0
39 41 -45 0
39 -41 45 0
-39 41 45 0
-39 -41 -45 0
55 58 -60 0
55 -58 60 0
-55 58 60 0
-55 -58 -60 0
23 54 -57 0
23 -54 57 0
-23 54 57 0
-23 -54 -57 0
51 52 -59 0
51 -52 59 0
-51 52 59 0
-51 -52 -59 0
