c F4 Tseitin on networkx random_regular_graph(3,150,seed=1), connected=True, odd charge on vertex 1
p cnf 225 600
1 2 3 0
1 -2 -3 0
-1 2 -3 0
-1 -2 3 0
4 5 -6 0
4 -5 6 0
-4 5 6 0
-4 -5 -6 0
7 8 -9 0
7 -8 9 0
-7 8 9 0
-7 -8 -9 0
10 11 -12 0
10 -11 12 0
-10 11 12 0
-10 -11 -12 0
13 14 -15 0
13 -14 15 0
-13 14 15 0
-13 -14 -15 0
16 17 -18 0
16 -17 18 0
-16 17 18 0
-16 -17 -18 0
19 20 -21 0
19 -20 21 0
-19 20 21 0
-19 -20 -21 0
22 23 -24 0
22 -23 24 0
-22 23 24 0
-22 -23 -24 0
25 26 -27 0
25 -26 27 0
-25 26 27 0
-25 -26 -27 0
7 28 -29 0
7 -28 29 0
-7 28 29 0
-7 -28 -29 0
30 31 -32 0
30 -31 32 0
-30 31 32 0
-30 -31 -32 0
33 34 -35 0
33 -34 35 0
-33 34 35 0
-33 -34 -35 0
36 37 -38 0
36 -37 38 0
-36 37 38 0
-36 -37 -38 0
19 39 -40 0
19 -39 40 0
-19 39 40 0
-19 -39 -40 0
41 42 -43 0
41 -42 43 0
-41 42 43 0
-41 -42 -43 0
44 45 -46 0
44 -45 46 0
-44 45 46 0
-44 -45 -46 0
33 47 -48 0
33 -47 48 0
-33 47 48 0
-33 -47 -48 0
49 50 -51 0
49 -50 51 0
-49 50 51 0
-49 -50 -51 0
8 52 -53 0
8 -52 53 0
-8 52 53 0
-8 -52 -53 0
54 55 -56 0
54 -55 56 0
-54 55 56 0
-54 -55 -56 0
57 58 -59 0
57 -58 59 0
-57 58 59 0
-57 -58 -59 0
60 61 -62 0
60 -61 62 0
-60 61 62 0
-60 -61 -62 0
63 64 -65 0
63 -64 65 0
-63 64 65 0
-63 -64 -65 0
66 67 -68 0
66 -67 68 0
-66 67 68 0
-66 -67 -68 0
22 69 -70 0
22 -69 70 0
-22 69 70 0
-22 -69 -70 0
16 71 -72 0
16 -71 72 0
-16 71 72 0
-16 -71 -72 0
30 73 -74 0
30 -73 74 0
-30 73 74 0
-30 -73 -74 0
75 76 -77 0
75 -76 77 0
-75 76 77 0
-75 -76 -77 0
44 47 -78 0
44 -47 78 0
-44 47 78 0
-44 -47 -78 0
79 80 -81 0
79 -80 81 0
-79 80 81 0
-79 -80 -81 0
36 82 -83 0
36 -82 83 0
-36 82 83 0
-36 -82 -83 0
28 84 -85 0
28 -84 85 0
-28 84 85 0
-28 -84 -85 0
86 87 -88 0
86 -87 88 0
-86 87 88 0
-86 -87 -88 0
89 90 -91 0
89 -90 91 0
-89 90 91 0
-89 -90 -91 0
54 92 -93 0
54 -92 93 0
-54 92 93 0
-54 -92 -93 0
34 94 -95 0
34 -94 95 0
-34 94 95 0
-34 -94 -95 0
96 97 -98 0
96 -97 98 0
-96 97 98 0
-96 -97 -98 0
41 99 -100 0
41 -99 100 0
-41 99 100 0
-41 -99 -100 0
13 35 -101 0
13 -35 101 0
-13 35 101 0
-13 -35 -101 0
79 102 -103 0
79 -102 103 0
-79 102 103 0
-79 -102 -103 0
104 105 -106 0
104 -105 106 0
-104 105 106 0
-104 -105 -106 0
107 108 -109 0
107 -108 109 0
-107 108 109 0
-107 -108 -109 0
110 111 -112 0
110 -111 112 0
-110 111 112 0
-110 -111 -112 0
113 114 -115 0
113 -114 115 0
-113 114 115 0
-113 -114 -115 0
55 116 -117 0
55 -116 117 0
-55 116 117 0
-55 -116 -117 0
118 119 -120 0
118 -119 120 0
-118 119 120 0
-118 -119 -120 0
78 121 -122 0
78 -121 122 0
-78 121 122 0
-78 -121 -122 0
82 123 -124 0
82 -123 124 0
-82 123 124 0
-82 -123 -124 0
63 107 -125 0
63 -107 125 0
-63 107 125 0
-63 -107 -125 0
49 86 -121 0
49 -86 121 0
-49 86 121 0
-49 -86 -121 0
110 126 -127 0
110 -126 127 0
-110 126 127 0
-110 -126 -127 0
66 128 -129 0
66 -128 129 0
-66 128 129 0
-66 -128 -129 0
113 116 -130 0
113 -116 130 0
-113 116 130 0
-113 -116 -130 0
52 131 -132 0
52 -131 132 0
-52 131 132 0
-52 -131 -132 0
133 134 -135 0
133 -134 135 0
-133 134 135 0
-133 -134 -135 0
99 136 -137 0
99 -136 137 0
-99 136 137 0
-99 -136 -137 0
20 138 -139 0
20 -138 139 0
-20 138 139 0
-20 -138 -139 0
136 140 -141 0
136 -140 141 0
-136 140 141 0
-136 -140 -141 0
125 133 -142 0
125 -133 142 0
-125 133 142 0
-125 -133 -142 0
143 144 -145 0
143 -144 145 0
-143 144 145 0
-143 -144 -145 0
4 29 -146 0
4 -29 146 0
-4 29 146 0
-4 -29 -146 0
73 147 -148 0
73 -147 148 0
-73 147 148 0
-73 -147 -148 0
149 150 -151 0
149 -150 151 0
-149 150 151 0
-149 -150 -151 0
134 152 -153 0
134 -152 153 0
-134 152 153 0
-134 -152 -153 0
1 39 -154 0
1 -39 154 0
-1 39 154 0
-1 -39 -154 0
94 108 -155 0
94 -108 155 0
-94 108 155 0
-94 -108 -155 0
2 156 -157 0
2 -156 157 0
-2 156 157 0
-2 -156 -157 0
14 80 -138 0
14 -80 138 0
-14 80 138 0
-14 -80 -138 0
87 143 -156 0
87 -143 156 0
-87 143 156 0
-87 -143 -156 0
144 158 -159 0
144 -158 159 0
-144 158 159 0
-144 -158 -159 0
10 160 -161 0
10 -160 161 0
-10 160 161 0
-10 -160 -161 0
109 162 -163 0
109 -162 163 0
-109 162 163 0
-109 -162 -163 0
25 164 -165 0
25 -164 165 0
-25 164 165 0
-25 -164 -165 0
75 96 -166 0
75 -96 166 0
-75 96 166 0
-75 -96 -166 0
167 168 -169 0
167 -168 169 0
-167 168 169 0
-167 -168 -169 0
160 170 -171 0
160 -170 171 0
-160 170 171 0
-160 -170 -171 0
67 164 -172 0
67 -164 172 0
-67 164 172 0
-67 -164 -172 0
173 174 -175 0
173 -174 175 0
-173 174 175 0
-173 -174 -175 0
161 176 -177 0
161 -176 177 0
-161 176 177 0
-161 -176 -177 0
88 118 -178 0
88 -118 178 0
-88 118 178 0
-88 -118 -178 0
69 179 -180 0
69 -179 180 0
-69 179 180 0
-69 -179 -180 0
92 101 -181 0
92 -101 181 0
-92 101 181 0
-92 -101 -181 0
176 182 -183 0
176 -182 183 0
-176 182 183 0
-176 -182 -183 0
97 157 -170 0
97 -157 170 0
-97 157 170 0
-97 -157 -170 0
104 184 -185 0
104 -184 185 0
-104 184 185 0
-104 -184 -185 0
93 186 -187 0
93 -186 187 0
-93 186 187 0
-93 -186 -187 0
173 188 -189 0
173 -188 189 0
-173 188 189 0
-173 -188 -189 0
68 114 -117 0
68 -114 117 0
-68 114 117 0
-68 -114 -117 0
105 149 -190 0
105 -149 190 0
-105 149 190 0
-105 -149 -190 0
5 48 -191 0
5 -48 191 0
-5 48 191 0
-5 -48 -191 0
11 150 -192 0
11 -150 192 0
-11 150 192 0
-11 -150 -192 0
126 193 -194 0
126 -193 194 0
-126 193 194 0
-126 -193 -194 0
60 195 -196 0
60 -195 196 0
-60 195 196 0
-60 -195 -196 0
131 142 -146 0
131 -142 146 0
-131 142 146 0
-131 -142 -146 0
123 190 -195 0
123 -190 195 0
-123 190 195 0
-123 -190 -195 0
197 198 -199 0
197 -198 199 0
-197 198 199 0
-197 -198 -199 0
115 200 -201 0
115 -200 201 0
-115 200 201 0
-115 -200 -201 0
162 193 -200 0
162 -193 200 0
-162 193 200 0
-162 -193 -200 0
202 203 -204 0
202 -203 204 0
-202 203 204 0
-202 -203 -204 0
26 119 -205 0
26 -119 205 0
-26 119 205 0
-26 -119 -205 0
45 64 -201 0
45 -64 201 0
-45 64 201 0
-45 -64 -201 0
98 206 -207 0
98 -206 207 0
-98 206 207 0
-98 -206 -207 0
186 192 -208 0
186 -192 208 0
-186 192 208 0
-186 -192 -208 0
71 165 -197 0
71 -165 197 0
-71 165 197 0
-71 -165 -197 0
50 89 -152 0
50 -89 152 0
-50 89 152 0
-50 -89 -152 0
208 209 -210 0
208 -209 210 0
-208 209 210 0
-208 -209 -210 0
90 202 -211 0
90 -202 211 0
-90 202 211 0
-90 -202 -211 0
51 57 -127 0
51 -57 127 0
-51 57 127 0
-51 -57 -127 0
42 56 -147 0
42 -56 147 0
-42 56 147 0
-42 -56 -147 0
205 206 -212 0
205 -206 212 0
-205 206 212 0
-205 -206 -212 0
23 53 -102 0
23 -53 102 0
-23 53 102 0
-23 -53 -102 0
74 213 -214 0
74 -213 214 0
-74 213 214 0
-74 -213 -214 0
31 215 -216 0
31 -215 216 0
-31 215 216 0
-31 -215 -216 0
17 27 -61 0
17 -27 61 0
-17 27 61 0
-17 -27 -61 0
70 182 -217 0
70 -182 217 0
-70 182 217 0
-70 -182 -217 0
76 191 -194 0
76 -191 194 0
-76 191 194 0
-76 -191 -194 0
15 128 -171 0
15 -128 171 0
-15 128 171 0
-15 -128 -171 0
95 155 -218 0
95 -155 218 0
-95 155 218 0
-95 -155 -218 0
122 207 -215 0
122 -207 215 0
-122 207 215 0
-122 -207 -215 0
12 139 -219 0
12 -139 219 0
-12 139 219 0
-12 -139 -219 0
37 137 -174 0
37 -137 174 0
-37 137 174 0
-37 -137 -174 0
148 213 -218 0
148 -213 218 0
-148 213 218 0
-148 -213 -218 0
32 111 -130 0
32 -111 130 0
-32 111 130 0
-32 -111 -130 0
24 175 -188 0
24 -175 188 0
-24 175 188 0
-24 -175 -188 0
184 198 -220 0
184 -198 220 0
-184 198 220 0
-184 -198 -220 0
62 145 -163 0
62 -145 163 0
-62 145 163 0
-62 -145 -163 0
103 219 -221 0
103 -219 221 0
-103 219 221 0
-103 -219 -221 0
167 214 -222 0
167 -214 222 0
-167 214 222 0
-167 -214 -222 0
129 179 -223 0
129 -179 223 0
-129 179 223 0
-129 -179 -223 0
72 158 -221 0
72 -158 221 0
-72 158 221 0
-72 -158 -221 0
106 196 -217 0
106 -196 217 0
-106 196 217 0
-106 -196 -217 0
211 223 -224 0
211 -223 224 0
-211 223 224 0
-211 -223 -224 0
203 216 -225 0
203 -216 225 0
-203 216 225 0
-203 -216 -225 0
21 183 -209 0
21 -183 209 0
-21 183 209 0
-21 -183 -209 0
58 168 -189 0
58 -168 189 0
-58 168 189 0
-58 -168 -189 0
43 46 -172 0
43 -46 172 0
-43 46 172 0
-43 -46 -172 0
65 112 -181 0
65 -112 181 0
-65 112 181 0
-65 -112 -181 0
84 100 -225 0
84 -100 225 0
-84 100 225 0
-84 -100 -225 0
132 135 -187 0
132 -135 187 0
-132 135 187 0
-132 -135 -187 0
3 166 -220 0
3 -166 220 0
-3 166 220 0
-3 -166 -220 0
38 81 -85 0
38 -81 85 0
-38 81 85 0
-38 -81 -85 0
120 140 -180 0
120 -140 180 0
-120 140 180 0
-120 -140 -180 0
59 153 -222 0
59 -153 222 0
-59 153 222 0
-59 -153 -222 0
6 177 -199 0
6 -177 199 0
-6 177 199 0
-6 -177 -199 0
77 159 -212 0
77 -159 212 0
-77 159 212 0
-77 -159 -212 0
83 124 -178 0
83 -124 178 0
-83 124 178 0
-83 -124 -178 0
18 151 -204 0
18 -151 204 0
-18 151 204 0
-18 -151 -204 0
40 141 -224 0
40 -141 224 0
-40 141 224 0
-40 -141 -224 0
9 154 -185 0
9 -154 185 0
-9 154 185 0
-9 -154 -185 0
91 169 -210 0
91 -169 210 0
-91 169 210 0
-91 -169 -210 0
