c F4 Tseitin on networkx random_regular_graph(3,20,seed=3), connected=True, odd charge on vertex 1
p cnf 30 80
1 2 3 0
1 -2 -3 0
-1 2 -3 0
-1 -2 3 0
4 5 -6 0
4 -5 6 0
-4 5 6 0
-4 -5 -6 0
7 8 -9 0
7 -8 9 0
-7 8 9 0
-7 -8 -9 0
1 7 -10 0
1 -7 10 0
-1 7 10 0
-1 -7 -10 0
4 11 -12 0
4 -11 12 0
-4 11 12 0
-4 -11 -12 0
8 13 -14 0
8 -13 14 0
-8 13 14 0
-8 -13 -14 0
15 16 -17 0
15 -16 17 0
-15 16 17 0
-15 -16 -17 0
2 18 -19 0
2 -18 19 0
-2 18 19 0
-2 -18 -19 0
11 18 -20 0
11 -18 20 0
-11 18 20 0
-11 -18 -20 0
21 22 -23 0
21 -22 23 0
-21 22 23 0
-21 -22 -23 0
15 19 -24 0
15 -19 24 0
-15 19 24 0
-15 -19 -24 0
9 13 -20 0
9 -13 20 0
-9 13 20 0
-9 -13 -20 0
25 26 -27 0
25 -26 27 0
-25 26 27 0
-25 -26 -27 0
14 25 -28 0
14 -25 28 0
-14 25 28 0
-14 -25 -28 0
21 26 -28 0
21 -26 28 0
-21 26 28 0
-21 -26 -28 0
5 10 -29 0
5 -10 29 0
-5 10 29 0
-5 -10 -29 0
12 22 -30 0
12 -22 30 0
-12 22 30 0
-12 -22 -30 0
23 24 -27 0
23 -24 27 0
-23 24 27 0
-23 -24 -27 0
3 6 -16 0
3 -6 16 0
-3 6 16 0
-3 -6 -16 0
17 29 -30 0
17 -29 30 0
-17 29 30 0
-17 -29 -30 0
