c F4 Tseitin on networkx random_regular_graph(3,60,seed=5), connected=True, odd charge on vertex 1
p cnf 90 240
1 2 3 0
1 -2 -3 0
-1 2 -3 0
-1 -2 3 0
4 5 -6 0
4 -5 6 0
-4 5 6 0
-4 -5 -6 0
4 7 -8 0
4 -7 8 0
-4 7 8 0
-4 -7 -8 0
9 10 -11 0
9 -10 11 0
-9 10 11 0
-9 -10 -11 0
12 13 -14 0
12 -13 14 0
-12 13 14 0
-12 -13 -14 0
1 15 -16 0
1 -15 16 0
-1 15 16 0
-1 -15 -16 0
9 17 -18 0
9 -17 18 0
-9 17 18 0
-9 -17 -18 0
12 15 -19 0
12 -15 19 0
-12 15 19 0
-12 -15 -19 0
20 21 -22 0
20 -21 22 0
-20 21 22 0
-20 -21 -22 0
16 23 -24 0
16 -23 24 0
-16 23 24 0
-16 -23 -24 0
25 26 -27 0
25 -26 27 0
-25 26 27 0
-25 -26 -27 0
7 28 -29 0
7 -28 29 0
-7 28 29 0
-7 -28 -29 0
30 31 -32 0
30 -31 32 0
-30 31 32 0
-30 -31 -32 0
10 33 -34 0
10 -33 34 0
-10 33 34 0
-10 -33 -34 0
35 36 -37 0
35 -36 37 0
-35 36 37 0
-35 -36 -37 0
25 38 -39 0
25 -38 39 0
-25 38 39 0
-25 -38 -39 0
40 41 -42 0
40 -41 42 0
-40 41 42 0
-40 -41 -42 0
17 20 -43 0
17 -20 43 0
-17 20 43 0
-17 -20 -43 0
44 45 -46 0
44 -45 46 0
-44 45 46 0
-44 -45 -46 0
5 47 -48 0
5 -47 48 0
-5 47 48 0
-5 -47 -48 0
28 49 -50 0
28 -49 50 0
-28 49 50 0
-28 -49 -50 0
40 51 -52 0
40 -51 52 0
-40 51 52 0
-40 -51 -52 0
53 54 -55 0
53 -54 55 0
-53 54 55 0
-53 -54 -55 0
26 29 -56 0
26 -29 56 0
-26 29 56 0
-26 -29 -56 0
35 57 -58 0
35 -57 58 0
-35 57 58 0
-35 -57 -58 0
59 60 -61 0
59 -60 61 0
-59 60 61 0
-59 -60 -61 0
19 33 -62 0
19 -33 62 0
-19 33 62 0
-19 -33 -62 0
38 63 -64 0
38 -63 64 0
-38 63 64 0
-38 -63 -64 0
65 66 -67 0
65 -66 67 0
-65 66 67 0
-65 -66 -67 0
39 53 -68 0
39 -53 68 0
-39 53 68 0
-39 -53 -68 0
21 62 -69 0
21 -62 69 0
-21 62 69 0
-21 -62 -69 0
41 49 -70 0
41 -49 70 0
-41 49 70 0
-41 -49 -70 0
22 30 -57 0
22 -30 57 0
-22 30 57 0
-22 -30 -57 0
8 44 -69 0
8 -44 69 0
-8 44 69 0
-8 -44 -69 0
63 71 -72 0
63 -71 72 0
-63 71 72 0
-63 -71 -72 0
56 73 -74 0
56 -73 74 0
-56 73 74 0
-56 -73 -74 0
42 59 -75 0
42 -59 75 0
-42 59 75 0
-42 -59 -75 0
51 60 -65 0
51 -60 65 0
-51 60 65 0
-51 -60 -65 0
76 77 -78 0
76 -77 78 0
-76 77 78 0
-76 -77 -78 0
36 73 -79 0
36 -73 79 0
-36 73 79 0
-36 -73 -79 0
37 50 -80 0
37 -50 80 0
-37 50 80 0
-37 -50 -80 0
6 45 -81 0
6 -45 81 0
-6 45 81 0
-6 -45 -81 0
23 61 -82 0
23 -61 82 0
-23 61 82 0
-23 -61 -82 0
2 82 -83 0
2 -82 83 0
-2 82 83 0
-2 -82 -83 0
13 43 -66 0
13 -43 66 0
-13 43 66 0
-13 -43 -66 0
47 80 -84 0
47 -80 84 0
-47 80 84 0
-47 -80 -84 0
54 85 -86 0
54 -85 86 0
-54 85 86 0
-54 -85 -86 0
3 14 -87 0
3 -14 87 0
-3 14 87 0
-3 -14 -87 0
24 55 -76 0
24 -55 76 0
-24 55 76 0
-24 -55 -76 0
87 88 -89 0
87 -88 89 0
-87 88 89 0
-87 -88 -89 0
11 64 -68 0
11 -64 68 0
-11 64 68 0
-11 -64 -68 0
31 52 -90 0
31 -52 90 0
-31 52 90 0
-31 -52 -90 0
77 81 -83 0
77 -81 83 0
-77 81 83 0
-77 -81 -83 0
27 46 -67 0
27 -46 67 0
-27 46 67 0
-27 -46 -67 0
48 74 -78 0
48 -74 78 0
-48 74 78 0
-48 -74 -78 0
58 75 -85 0
58 -75 85 0
-58 75 85 0
-58 -75 -85 0
18 79 -84 0
18 -79 84 0
-18 79 84 0
-18 -79 -84 0
71 88 -90 0
71 -88 90 0
-71 88 90 0
-71 -88 -90 0
34 70 -86 0
34 -70 86 0
-34 70 86 0
-34 -70 -86 0
32 72 -89 0
32 -72 89 0
-32 72 89 0
-32 -72 -89 0
