c F4 Tseitin on networkx random_regular_graph(3,60,seed=0), connected=True, odd charge on vertex 1
p cnf 90 240
1 2 3 0
1 -2 -3 0
-1 2 -3 0
-1 -2 3 0
4 5 -6 0
4 -5 6 0
-4 5 6 0
-4 -5 -6 0
7 8 -9 0
7 -8 9 0
-7 8 9 0
-7 -8 -9 0
10 11 -12 0
10 -11 12 0
-10 11 12 0
-10 -11 -12 0
13 14 -15 0
13 -14 15 0
-13 14 15 0
-13 -14 -15 0
16 17 -18 0
16 -17 18 0
-16 17 18 0
-16 -17 -18 0
19 20 -21 0
19 -20 21 0
-19 20 21 0
-19 -20 -21 0
22 23 -24 0
22 -23 24 0
-22 23 24 0
-22 -23 -24 0
25 26 -27 0
25 -26 27 0
-25 26 27 0
-25 -26 -27 0
19 28 -29 0
19 -28 29 0
-19 28 29 0
-19 -28 -29 0
13 20 -30 0
13 -20 30 0
-13 20 30 0
-13 -20 -30 0
31 32 -33 0
31 -32 33 0
-31 32 33 0
-31 -32 -33 0
34 35 -36 0
34 -35 36 0
-34 35 36 0
-34 -35 -36 0
4 37 -38 0
4 -37 38 0
-4 37 38 0
-4 -37 -38 0
39 40 -41 0
39 -40 41 0
-39 40 41 0
-39 -40 -41 0
22 42 -43 0
22 -42 43 0
-22 42 43 0
-22 -42 -43 0
14 44 -45 0
14 -44 45 0
-14 44 45 0
-14 -44 -45 0
23 46 -47 0
23 -46 47 0
-23 46 47 0
-23 -46 -47 0
48 49 -50 0
48 -49 50 0
-48 49 50 0
-48 -49 -50 0
31 51 -52 0
31 -51 52 0
-31 51 52 0
-31 -51 -52 0
39 42 -53 0
39 -42 53 0
-39 42 53 0
-39 -42 -53 0
54 55 -56 0
54 -55 56 0
-54 55 56 0
-54 -55 -56 0
57 58 -59 0
57 -58 59 0
-57 58 59 0
-57 -58 -59 0
1 7 -10 0
1 -7 10 0
-1 7 10 0
-1 -7 -10 0
48 60 -61 0
48 -60 61 0
-48 60 61 0
-48 -60 -61 0
21 51 -60 0
21 -51 60 0
-21 51 60 0
-21 -51 -60 0
43 62 -63 0
43 -62 63 0
-43 62 63 0
-43 -62 -63 0
32 62 -64 0
32 -62 64 0
-32 62 64 0
-32 -62 -64 0
40 65 -66 0
40 -65 66 0
-40 65 66 0
-40 -65 -66 0
57 67 -68 0
57 -67 68 0
-57 67 68 0
-57 -67 -68 0
63 69 -70 0
63 -69 70 0
-63 69 70 0
-63 -69 -70 0
8 16 -34 0
8 -16 34 0
-8 16 34 0
-8 -16 -34 0
17 71 -72 0
17 -71 72 0
-17 71 72 0
-17 -71 -72 0
2 15 -35 0
2 -15 35 0
-2 15 35 0
-2 -15 -35 0
65 73 -74 0
65 -73 74 0
-65 73 74 0
-65 -73 -74 0
28 58 -75 0
28 -58 75 0
-28 58 75 0
-28 -58 -75 0
46 52 -69 0
46 -52 69 0
-46 52 69 0
-46 -52 -69 0
25 73 -76 0
25 -73 76 0
-25 73 76 0
-25 -73 -76 0
37 61 -77 0
37 -61 77 0
-37 61 77 0
-37 -61 -77 0
49 78 -79 0
49 -78 79 0
-49 78 79 0
-49 -78 -79 0
26 59 -80 0
26 -59 80 0
-26 59 80 0
-26 -59 -80 0
66 81 -82 0
66 -81 82 0
-66 81 82 0
-66 -81 -82 0
3 30 -83 0
3 -30 83 0
-3 30 83 0
-3 -30 -83 0
47 50 -84 0
47 -50 84 0
-47 50 84 0
-47 -50 -84 0
18 24 -81 0
18 -24 81 0
-18 24 81 0
-18 -24 -81 0
11 54 -85 0
11 -54 85 0
-11 54 85 0
-11 -54 -85 0
5 9 -36 0
5 -9 36 0
-5 9 36 0
-5 -9 -36 0
12 71 -77 0
12 -71 77 0
-12 71 77 0
-12 -71 -77 0
44 72 -86 0
44 -72 86 0
-44 72 86 0
-44 -72 -86 0
45 87 -88 0
45 -87 88 0
-45 87 88 0
-45 -87 -88 0
67 86 -89 0
67 -86 89 0
-67 86 89 0
-67 -86 -89 0
53 76 -90 0
53 -76 90 0
-53 76 90 0
-53 -76 -90 0
55 80 -87 0
55 -80 87 0
-55 80 87 0
-55 -80 -87 0
64 84 -90 0
64 -84 90 0
-64 84 90 0
-64 -84 -90 0
70 78 -89 0
70 -78 89 0
-70 78 89 0
-70 -78 -89 0
68 74 -83 0
68 -74 83 0
-68 74 83 0
-68 -74 -83 0
6 38 -56 0
6 -38 56 0
-6 38 56 0
-6 -38 -56 0
29 33 -88 0
29 -33 88 0
-29 33 88 0
-29 -33 -88 0
41 75 -85 0
41 -75 85 0
-41 75 85 0
-41 -75 -85 0
27 79 -82 0
27 -79 82 0
-27 79 82 0
-27 -79 -82 0
