c F4 Tseitin on networkx random_regular_graph(3,60,seed=1), connected=True, odd charge on vertex 1
p cnf 90 240
1 2 3 0
1 -2 -3 0
-1 2 -3 0
-1 -2 3 0
4 5 -6 0
4 -5 6 0
-4 5 6 0
-4 -5 -6 0
7 8 -9 0
7 -8 9 0
-7 8 9 0
-7 -8 -9 0
10 11 -12 0
10 -11 12 0
-10 11 12 0
-10 -11 -12 0
13 14 -15 0
13 -14 15 0
-13 14 15 0
-13 -14 -15 0
10 16 -17 0
10 -16 17 0
-10 16 17 0
-10 -16 -17 0
18 19 -20 0
18 -19 20 0
-18 19 20 0
-18 -19 -20 0
4 21 -22 0
4 -21 22 0
-4 21 22 0
-4 -21 -22 0
7 23 -24 0
7 -23 24 0
-7 23 24 0
-7 -23 -24 0
25 26 -27 0
25 -26 27 0
-25 26 27 0
-25 -26 -27 0
28 29 -30 0
28 -29 30 0
-28 29 30 0
-28 -29 -30 0
1 8 -31 0
1 -8 31 0
-1 8 31 0
-1 -8 -31 0
32 33 -34 0
32 -33 34 0
-32 33 34 0
-32 -33 -34 0
11 35 -36 0
11 -35 36 0
-11 35 36 0
-11 -35 -36 0
37 38 -39 0
37 -38 39 0
-37 38 39 0
-37 -38 -39 0
40 41 -42 0
40 -41 42 0
-40 41 42 0
-40 -41 -42 0
40 43 -44 0
40 -43 44 0
-40 43 44 0
-40 -43 -44 0
45 46 -47 0
45 -46 47 0
-45 46 47 0
-45 -46 -47 0
32 48 -49 0
32 -48 49 0
-32 48 49 0
-32 -48 -49 0
48 50 -51 0
48 -50 51 0
-48 50 51 0
-48 -50 -51 0
28 52 -53 0
28 -52 53 0
-28 52 53 0
-28 -52 -53 0
41 54 -55 0
41 -54 55 0
-41 54 55 0
-41 -54 -55 0
25 56 -57 0
25 -56 57 0
-25 56 57 0
-25 -56 -57 0
12 58 -59 0
12 -58 59 0
-12 58 59 0
-12 -58 -59 0
5 9 -60 0
5 -9 60 0
-5 9 60 0
-5 -9 -60 0
61 62 -63 0
61 -62 63 0
-61 62 63 0
-61 -62 -63 0
35 64 -65 0
35 -64 65 0
-35 64 65 0
-35 -64 -65 0
13 64 -66 0
13 -64 66 0
-13 64 66 0
-13 -64 -66 0
31 33 -54 0
31 -33 54 0
-31 33 54 0
-31 -33 -54 0
18 67 -68 0
18 -67 68 0
-18 67 68 0
-18 -67 -68 0
19 36 -58 0
19 -36 58 0
-19 36 58 0
-19 -36 -58 0
37 69 -70 0
37 -69 70 0
-37 69 70 0
-37 -69 -70 0
71 72 -73 0
71 -72 73 0
-71 72 73 0
-71 -72 -73 0
21 74 -75 0
21 -74 75 0
-21 74 75 0
-21 -74 -75 0
2 76 -77 0
2 -76 77 0
-2 76 77 0
-2 -76 -77 0
60 78 -79 0
60 -78 79 0
-60 78 79 0
-60 -78 -79 0
71 80 -81 0
71 -80 81 0
-71 80 81 0
-71 -80 -81 0
26 74 -82 0
26 -74 82 0
-26 74 82 0
-26 -74 -82 0
22 50 -69 0
22 -50 69 0
-22 50 69 0
-22 -50 -69 0
42 76 -83 0
42 -76 83 0
-42 76 83 0
-42 -76 -83 0
38 70 -84 0
38 -70 84 0
-38 70 84 0
-38 -70 -84 0
14 23 -85 0
14 -23 85 0
-14 23 85 0
-14 -23 -85 0
24 77 -86 0
24 -77 86 0
-24 77 86 0
-24 -77 -86 0
15 43 -49 0
15 -43 49 0
-15 43 49 0
-15 -43 -49 0
44 45 -87 0
44 -45 87 0
-44 45 87 0
-44 -45 -87 0
16 67 -88 0
16 -67 88 0
-16 67 88 0
-16 -67 -88 0
39 75 -84 0
39 -75 84 0
-39 75 84 0
-39 -75 -84 0
59 66 -87 0
59 -66 87 0
-59 66 87 0
-59 -66 -87 0
20 83 -89 0
20 -83 89 0
-20 83 89 0
-20 -83 -89 0
27 52 -61 0
27 -52 61 0
-27 52 61 0
-27 -52 -61 0
62 78 -90 0
62 -78 90 0
-62 78 90 0
-62 -78 -90 0
80 86 -88 0
80 -86 88 0
-80 86 88 0
-80 -86 -88 0
46 81 -89 0
46 -81 89 0
-46 81 89 0
-46 -81 -89 0
29 53 -63 0
29 -53 63 0
-29 53 63 0
-29 -53 -63 0
72 79 -85 0
72 -79 85 0
-72 79 85 0
-72 -79 -85 0
6 34 -65 0
6 -34 65 0
-6 34 65 0
-6 -34 -65 0
51 56 -90 0
51 -56 90 0
-51 56 90 0
-51 -56 -90 0
17 68 -82 0
17 -68 82 0
-17 68 82 0
-17 -68 -82 0
47 55 -73 0
47 -55 73 0
-47 55 73 0
-47 -55 -73 0
3 30 -57 0
3 -30 57 0
-3 30 57 0
-3 -30 -57 0
