c F4 Tseitin on networkx random_regular_graph(3,60,seed=9), connected=True, odd charge on vertex 1
p cnf 90 240
1 2 3 0
1 -2 -3 0
-1 2 -3 0
-1 -2 3 0
4 5 -6 0
4 -5 6 0
-4 5 6 0
-4 -5 -6 0
7 8 -9 0
7 -8 9 0
-7 8 9 0
-7 -8 -9 0
10 11 -12 0
10 -11 12 0
-10 11 12 0
-10 -11 -12 0
13 14 -15 0
13 -14 15 0
-13 14 15 0
-13 -14 -15 0
16 17 -18 0
16 -17 18 0
-16 17 18 0
-16 -17 -18 0
19 20 -21 0
19 -20 21 0
-19 20 21 0
-19 -20 -21 0
22 23 -24 0
22 -23 24 0
-22 23 24 0
-22 -23 -24 0
25 26 -27 0
25 -26 27 0
-25 26 27 0
-25 -26 -27 0
28 29 -30 0
28 -29 30 0
-28 29 30 0
-28 -29 -30 0
13 31 -32 0
13 -31 32 0
-13 31 32 0
-13 -31 -32 0
33 34 -35 0
33 -34 35 0
-33 34 35 0
-33 -34 -35 0
36 37 -38 0
36 -37 38 0
-36 37 38 0
-36 -37 -38 0
10 39 -40 0
10 -39 40 0
-10 39 40 0
-10 -39 -40 0
33 41 -42 0
33 -41 42 0
-33 41 42 0
-33 -41 -42 0
1 43 -44 0
1 -43 44 0
-1 43 44 0
-1 -43 -44 0
4 36 -45 0
4 -36 45 0
-4 36 45 0
-4 -36 -45 0
46 47 -48 0
46 -47 48 0
-46 47 48 0
-46 -47 -48 0
31 49 -50 0
31 -49 50 0
-31 49 50 0
-31 -49 -50 0
51 52 -53 0
51 -52 53 0
-51 52 53 0
-51 -52 -53 0
39 54 -55 0
39 -54 55 0
-39 54 55 0
-39 -54 -55 0
25 56 -57 0
25 -56 57 0
-25 56 57 0
-25 -56 -57 0
46 58 -59 0
46 -58 59 0
-46 58 59 0
-46 -58 -59 0
11 60 -61 0
11 -60 61 0
-11 60 61 0
-11 -60 -61 0
28 62 -63 0
28 -62 63 0
-28 62 63 0
-28 -62 -63 0
58 64 -65 0
58 -64 65 0
-58 64 65 0
-58 -64 -65 0
19 59 -66 0
19 -59 66 0
-19 59 66 0
-19 -59 -66 0
16 67 -68 0
16 -67 68 0
-16 67 68 0
-16 -67 -68 0
60 69 -70 0
60 -69 70 0
-60 69 70 0
-60 -69 -70 0
47 62 -64 0
47 -62 64 0
-47 62 64 0
-47 -62 -64 0
43 67 -71 0
43 -67 71 0
-43 67 71 0
-43 -67 -71 0
5 61 -72 0
5 -61 72 0
-5 61 72 0
-5 -61 -72 0
32 44 -73 0
32 -44 73 0
-32 44 73 0
-32 -44 -73 0
56 74 -75 0
56 -74 75 0
-56 74 75 0
-56 -74 -75 0
7 49 -76 0
7 -49 76 0
-7 49 76 0
-7 -49 -76 0
20 34 -77 0
20 -34 77 0
-20 34 77 0
-20 -34 -77 0
2 78 -79 0
2 -78 79 0
-2 78 79 0
-2 -78 -79 0
8 48 -66 0
8 -48 66 0
-8 48 66 0
-8 -48 -66 0
17 80 -81 0
17 -80 81 0
-17 80 81 0
-17 -80 -81 0
9 41 -51 0
9 -41 51 0
-9 41 51 0
-9 -41 -51 0
42 74 -82 0
42 -74 82 0
-42 74 82 0
-42 -74 -82 0
68 83 -84 0
68 -83 84 0
-68 83 84 0
-68 -83 -84 0
75 78 -85 0
75 -78 85 0
-75 78 85 0
-75 -78 -85 0
37 71 -86 0
37 -71 86 0
-37 71 86 0
-37 -71 -86 0
38 57 -80 0
38 -57 80 0
-38 57 80 0
-38 -57 -80 0
3 6 -69 0
3 -6 69 0
-3 6 69 0
-3 -6 -69 0
18 50 -86 0
18 -50 86 0
-18 50 86 0
-18 -50 -86 0
45 72 -87 0
45 -72 87 0
-45 72 87 0
-45 -72 -87 0
35 54 -88 0
35 -54 88 0
-35 54 88 0
-35 -54 -88 0
52 55 -85 0
52 -55 85 0
-52 55 85 0
-52 -55 -85 0
21 70 -89 0
21 -70 89 0
-21 70 89 0
-21 -70 -89 0
12 22 -53 0
12 -22 53 0
-12 22 53 0
-12 -22 -53 0
14 77 -88 0
14 -77 88 0
-14 77 88 0
-14 -77 -88 0
15 26 -82 0
15 -26 82 0
-15 26 82 0
-15 -26 -82 0
29 63 -73 0
29 -63 73 0
-29 63 73 0
-29 -63 -73 0
23 76 -79 0
23 -76 79 0
-23 76 79 0
-23 -76 -79 0
83 87 -90 0
83 -87 90 0
-83 87 90 0
-83 -87 -90 0
65 89 -90 0
65 -89 90 0
-65 89 90 0
-65 -89 -90 0
40 81 -84 0
40 -81 84 0
-40 81 84 0
-40 -81 -84 0
24 27 -30 0
24 -27 30 0
-24 27 30 0
-24 -27 -30 0
