c F4 Tseitin on networkx random_regular_graph(3,40,seed=2), connected=True, odd charge on vertex 1
p cnf 60 160
1 2 3 0
1 -2 -3 0
-1 2 -3 0
-1 -2 3 0
4 5 -6 0
4 -5 6 0
-4 5 6 0
-4 -5 -6 0
7 8 -9 0
7 -8 9 0
-7 8 9 0
-7 -8 -9 0
10 11 -12 0
10 -11 12 0
-10 11 12 0
-10 -11 -12 0
13 14 -15 0
13 -14 15 0
-13 14 15 0
-13 -14 -15 0
4 7 -16 0
4 -7 16 0
-4 7 16 0
-4 -7 -16 0
17 18 -19 0
17 -18 19 0
-17 18 19 0
-17 -18 -19 0
20 21 -22 0
20 -21 22 0
-20 21 22 0
-20 -21 -22 0
1 8 -23 0
1 -8 23 0
-1 8 23 0
-1 -8 -23 0
24 25 -26 0
24 -25 26 0
-24 25 26 0
-24 -25 -26 0
17 27 -28 0
17 -27 28 0
-17 27 28 0
-17 -27 -28 0
18 20 -29 0
18 -20 29 0
-18 20 29 0
-18 -20 -29 0
27 30 -31 0
27 -30 31 0
-27 30 31 0
-27 -30 -31 0
13 29 -32 0
13 -29 32 0
-13 29 32 0
-13 -29 -32 0
33 34 -35 0
33 -34 35 0
-33 34 35 0
-33 -34 -35 0
2 5 -36 0
2 -5 36 0
-2 5 36 0
-2 -5 -36 0
37 38 -39 0
37 -38 39 0
-37 38 39 0
-37 -38 -39 0
40 41 -42 0
40 -41 42 0
-40 41 42 0
-40 -41 -42 0
24 33 -43 0
24 -33 43 0
-24 33 43 0
-24 -33 -43 0
25 44 -45 0
25 -44 45 0
-25 44 45 0
-25 -44 -45 0
19 21 -28 0
19 -21 28 0
-19 21 28 0
-19 -21 -28 0
10 46 -47 0
10 -46 47 0
-10 46 47 0
-10 -46 -47 0
30 48 -49 0
30 -48 49 0
-30 48 49 0
-30 -48 -49 0
34 40 -50 0
34 -40 50 0
-34 40 50 0
-34 -40 -50 0
51 52 -53 0
51 -52 53 0
-51 52 53 0
-51 -52 -53 0
22 31 -50 0
22 -31 50 0
-22 31 50 0
-22 -31 -50 0
37 46 -54 0
37 -46 54 0
-37 46 54 0
-37 -46 -54 0
35 44 -55 0
35 -44 55 0
-35 44 55 0
-35 -44 -55 0
11 54 -56 0
11 -54 56 0
-11 54 56 0
-11 -54 -56 0
23 38 -57 0
23 -38 57 0
-23 38 57 0
-23 -38 -57 0
47 48 -56 0
47 -48 56 0
-47 48 56 0
-47 -48 -56 0
36 51 -58 0
36 -51 58 0
-36 51 58 0
-36 -51 -58 0
41 58 -59 0
41 -58 59 0
-41 58 59 0
-41 -58 -59 0
9 49 -55 0
9 -49 55 0
-9 49 55 0
-9 -49 -55 0
14 45 -52 0
14 -45 52 0
-14 45 52 0
-14 -45 -52 0
15 42 -60 0
15 -42 60 0
-15 42 60 0
-15 -42 -60 0
3 39 -57 0
3 -39 57 0
-3 39 57 0
-3 -39 -57 0
32 43 -59 0
32 -43 59 0
-32 43 59 0
-32 -43 -59 0
26 53 -60 0
26 -53 60 0
-26 53 60 0
-26 -53 -60 0
6 12 -16 0
6 -12 16 0
-6 12 16 0
-6 -12 -16 0
