c F4 Tseitin on networkx random_regular_graph(3,20,seed=9), connected=True, odd charge on vertex 1
p cnf 30 80
1 2 3 0
1 -2 -3 0
-1 2 -3 0
-1 -2 3 0
4 5 -6 0
4 -5 6 0
-4 5 6 0
-4 -5 -6 0
7 8 -9 0
7 -8 9 0
-7 8 9 0
-7 -8 -9 0
1 10 -11 0
1 -10 11 0
-1 10 11 0
-1 -10 -11 0
2 7 -12 0
2 -7 12 0
-2 7 12 0
-2 -7 -12 0
13 14 -15 0
13 -14 15 0
-13 14 15 0
-13 -14 -15 0
3 8 -16 0
3 -8 16 0
-3 8 16 0
-3 -8 -16 0
4 10 -17 0
4 -10 17 0
-4 10 17 0
-4 -10 -17 0
18 19 -20 0
18 -19 20 0
-18 19 20 0
-18 -19 -20 0
13 21 -22 0
13 -21 22 0
-13 21 22 0
-13 -21 -22 0
18 21 -23 0
18 -21 23 0
-18 21 23 0
-18 -21 -23 0
14 19 -24 0
14 -19 24 0
-14 19 24 0
-14 -19 -24 0
5 9 -25 0
5 -9 25 0
-5 9 25 0
-5 -9 -25 0
12 16 -26 0
12 -16 26 0
-12 16 26 0
-12 -16 -26 0
6 26 -27 0
6 -26 27 0
-6 26 27 0
-6 -26 -27 0
20 23 -28 0
20 -23 28 0
-20 23 28 0
-20 -23 -28 0
25 27 -29 0
25 -27 29 0
-25 27 29 0
-25 -27 -29 0
11 15 -29 0
11 -15 29 0
-11 15 29 0
-11 -15 -29 0
17 28 -30 0
17 -28 30 0
-17 28 30 0
-17 -28 -30 0
22 24 -30 0
22 -24 30 0
-22 24 30 0
-22 -24 -30 0
