c F4 Tseitin on networkx random_regular_graph(3,150,seed=5), connected=True, odd charge on vertex 1
p cnf 225 600
1 2 3 0
1 -2 -3 0
-1 2 -3 0
-1 -2 3 0
1 4 -5 0
1 -4 5 0
-1 4 5 0
-1 -4 -5 0
6 7 -8 0
6 -7 8 0
-6 7 8 0
-6 -7 -8 0
9 10 -11 0
9 -10 11 0
-9 10 11 0
-9 -10 -11 0
12 13 -14 0
12 -13 14 0
-12 13 14 0
-12 -13 -14 0
15 16 -17 0
15 -16 17 0
-15 16 17 0
-15 -16 -17 0
18 19 -20 0
18 -19 20 0
-18 19 20 0
-18 -19 -20 0
21 22 -23 0
21 -22 23 0
-21 22 23 0
-21 -22 -23 0
12 24 -25 0
12 -24 25 0
-12 24 25 0
-12 -24 -25 0
26 27 -28 0
26 -27 28 0
-26 27 28 0
-26 -27 -28 0
29 30 -31 0
29 -30 31 0
-29 30 31 0
-29 -30 -31 0
32 33 -34 0
32 -33 34 0
-32 33 34 0
-32 -33 -34 0
26 35 -36 0
26 -35 36 0
-26 35 36 0
-26 -35 -36 0
37 38 -39 0
37 -38 39 0
-37 38 39 0
-37 -38 -39 0
40 41 -42 0
40 -41 42 0
-40 41 42 0
-40 -41 -42 0
43 44 -45 0
43 -44 45 0
-43 44 45 0
-43 -44 -45 0
46 47 -48 0
46 -47 48 0
-46 47 48 0
-46 -47 -48 0
49 50 -51 0
49 -50 51 0
-49 50 51 0
-49 -50 -51 0
4 43 -52 0
4 -43 52 0
-4 43 52 0
-4 -43 -52 0
53 54 -55 0
53 -54 55 0
-53 54 55 0
-53 -54 -55 0
56 57 -58 0
56 -57 58 0
-56 57 58 0
-56 -57 -58 0
59 60 -61 0
59 -60 61 0
-59 60 61 0
-59 -60 -61 0
44 62 -63 0
44 -62 63 0
-44 62 63 0
-44 -62 -63 0
64 65 -66 0
64 -65 66 0
-64 65 66 0
-64 -65 -66 0
67 68 -69 0
67 -68 69 0
-67 68 69 0
-67 -68 -69 0
70 71 -72 0
70 -71 72 0
-70 71 72 0
-70 -71 -72 0
73 74 -75 0
73 -74 75 0
-73 74 75 0
-73 -74 -75 0
76 77 -78 0
76 -77 78 0
-76 77 78 0
-76 -77 -78 0
6 79 -80 0
6 -79 80 0
-6 79 80 0
-6 -79 -80 0
46 81 -82 0
46 -81 82 0
-46 81 82 0
-46 -81 -82 0
83 84 -85 0
83 -84 85 0
-83 84 85 0
-83 -84 -85 0
18 86 -87 0
18 -86 87 0
-18 86 87 0
-18 -86 -87 0
62 88 -89 0
62 -88 89 0
-62 88 89 0
-62 -88 -89 0
53 90 -91 0
53 -90 91 0
-53 90 91 0
-53 -90 -91 0
32 37 -92 0
32 -37 92 0
-32 37 92 0
-32 -37 -92 0
93 94 -95 0
93 -94 95 0
-93 94 95 0
-93 -94 -95 0
96 97 -98 0
96 -97 98 0
-96 97 98 0
-96 -97 -98 0
35 99 -100 0
35 -99 100 0
-35 99 100 0
-35 -99 -100 0
5 101 -102 0
5 -101 102 0
-5 101 102 0
-5 -101 -102 0
103 104 -105 0
103 -104 105 0
-103 104 105 0
-103 -104 -105 0
106 107 -108 0
106 -107 108 0
-106 107 108 0
-106 -107 -108 0
86 109 -110 0
86 -109 110 0
-86 109 110 0
-86 -109 -110 0
111 112 -113 0
111 -112 113 0
-111 112 113 0
-111 -112 -113 0
21 114 -115 0
21 -114 115 0
-21 114 115 0
-21 -114 -115 0
116 117 -118 0
116 -117 118 0
-116 117 118 0
-116 -117 -118 0
33 119 -120 0
33 -119 120 0
-33 119 120 0
-33 -119 -120 0
7 79 -121 0
7 -79 121 0
-7 79 121 0
-7 -79 -121 0
56 122 -123 0
56 -122 123 0
-56 122 123 0
-56 -122 -123 0
124 125 -126 0
124 -125 126 0
-124 125 126 0
-124 -125 -126 0
22 127 -128 0
22 -127 128 0
-22 127 128 0
-22 -127 -128 0
129 130 -131 0
129 -130 131 0
-129 130 131 0
-129 -130 -131 0
88 132 -133 0
88 -132 133 0
-88 132 133 0
-88 -132 -133 0
27 134 -135 0
27 -134 135 0
-27 134 135 0
-27 -134 -135 0
124 136 -137 0
124 -136 137 0
-124 136 137 0
-124 -136 -137 0
138 139 -140 0
138 -139 140 0
-138 139 140 0
-138 -139 -140 0
103 141 -142 0
103 -141 142 0
-103 141 142 0
-103 -141 -142 0
73 143 -144 0
73 -143 144 0
-73 143 144 0
-73 -143 -144 0
47 106 -145 0
47 -106 145 0
-47 106 145 0
-47 -106 -145 0
146 147 -148 0
146 -147 148 0
-146 147 148 0
-146 -147 -148 0
149 150 -151 0
149 -150 151 0
-149 150 151 0
-149 -150 -151 0
152 153 -154 0
152 -153 154 0
-152 153 154 0
-152 -153 -154 0
70 138 -155 0
70 -138 155 0
-70 138 155 0
-70 -138 -155 0
64 104 -156 0
64 -104 156 0
-64 104 156 0
-64 -104 -156 0
49 105 -157 0
49 -105 157 0
-49 105 157 0
-49 -105 -157 0
99 158 -159 0
99 -158 159 0
-99 158 159 0
-99 -158 -159 0
111 160 -161 0
111 -160 161 0
-111 160 161 0
-111 -160 -161 0
71 101 -149 0
71 -101 149 0
-71 101 149 0
-71 -101 -149 0
2 162 -163 0
2 -162 163 0
-2 162 163 0
-2 -162 -163 0
164 165 -166 0
164 -165 166 0
-164 165 166 0
-164 -165 -166 0
23 72 -136 0
23 -72 136 0
-23 72 136 0
-23 -72 -136 0
116 152 -167 0
116 -152 167 0
-116 152 167 0
-116 -152 -167 0
9 96 -121 0
9 -96 121 0
-9 96 121 0
-9 -96 -121 0
3 59 -168 0
3 -59 168 0
-3 59 168 0
-3 -59 -168 0
93 169 -170 0
93 -169 170 0
-93 169 170 0
-93 -169 -170 0
171 172 -173 0
171 -172 173 0
-171 172 173 0
-171 -172 -173 0
94 127 -141 0
94 -127 141 0
-94 127 141 0
-94 -127 -141 0
38 107 -174 0
38 -107 174 0
-38 107 174 0
-38 -107 -174 0
45 125 -158 0
45 -125 158 0
-45 125 158 0
-45 -125 -158 0
175 176 -177 0
175 -176 177 0
-175 176 177 0
-175 -176 -177 0
90 126 -178 0
90 -126 178 0
-90 126 178 0
-90 -126 -178 0
74 112 -114 0
74 -112 114 0
-74 112 114 0
-74 -112 -114 0
13 128 -160 0
13 -128 160 0
-13 128 160 0
-13 -128 -160 0
67 179 -180 0
67 -179 180 0
-67 179 180 0
-67 -179 -180 0
76 92 -181 0
76 -92 181 0
-76 92 181 0
-76 -92 -181 0
182 183 -184 0
182 -183 184 0
-182 183 184 0
-182 -183 -184 0
182 185 -186 0
182 -185 186 0
-182 185 186 0
-182 -185 -186 0
36 75 -168 0
36 -75 168 0
-36 75 168 0
-36 -75 -168 0
162 187 -188 0
162 -187 188 0
-162 187 188 0
-162 -187 -188 0
40 54 -189 0
40 -54 189 0
-40 54 189 0
-40 -54 -189 0
129 159 -167 0
129 -159 167 0
-129 159 167 0
-129 -159 -167 0
81 190 -191 0
81 -190 191 0
-81 190 191 0
-81 -190 -191 0
83 161 -192 0
83 -161 192 0
-83 161 192 0
-83 -161 -192 0
65 193 -194 0
65 -193 194 0
-65 193 194 0
-65 -193 -194 0
15 146 -193 0
15 -146 193 0
-15 146 193 0
-15 -146 -193 0
34 145 -195 0
34 -145 195 0
-34 145 195 0
-34 -145 -195 0
196 197 -198 0
196 -197 198 0
-196 197 198 0
-196 -197 -198 0
143 199 -200 0
143 -199 200 0
-143 199 200 0
-143 -199 -200 0
80 164 -189 0
80 -164 189 0
-80 164 189 0
-80 -164 -189 0
169 171 -195 0
169 -171 195 0
-169 171 195 0
-169 -171 -195 0
41 156 -201 0
41 -156 201 0
-41 156 201 0
-41 -156 -201 0
57 199 -202 0
57 -199 202 0
-57 199 202 0
-57 -199 -202 0
119 132 -203 0
119 -132 203 0
-119 132 203 0
-119 -132 -203 0
58 60 -204 0
58 -60 204 0
-58 60 204 0
-58 -60 -204 0
87 183 -205 0
87 -183 205 0
-87 183 205 0
-87 -183 -205 0
196 206 -207 0
196 -206 207 0
-196 206 207 0
-196 -206 -207 0
179 192 -208 0
179 -192 208 0
-179 192 208 0
-179 -192 -208 0
68 77 -181 0
68 -77 181 0
-68 77 181 0
-68 -77 -181 0
8 137 -201 0
8 -137 201 0
-8 137 201 0
-8 -137 -201 0
139 190 -209 0
139 -190 209 0
-139 190 209 0
-139 -190 -209 0
48 82 -210 0
48 -82 210 0
-48 82 210 0
-48 -82 -210 0
130 172 -211 0
130 -172 211 0
-130 172 211 0
-130 -172 -211 0
16 194 -212 0
16 -194 212 0
-16 194 212 0
-16 -194 -212 0
14 163 -165 0
14 -163 165 0
-14 163 165 0
-14 -163 -165 0
78 100 -175 0
78 -100 175 0
-78 100 175 0
-78 -100 -175 0
213 214 -215 0
213 -214 215 0
-213 214 215 0
-213 -214 -215 0
178 185 -187 0
178 -185 187 0
-178 185 187 0
-178 -185 -187 0
140 188 -216 0
140 -188 216 0
-140 188 216 0
-140 -188 -216 0
206 216 -217 0
206 -216 217 0
-206 216 217 0
-206 -216 -217 0
84 170 -218 0
84 -170 218 0
-84 170 218 0
-84 -170 -218 0
10 142 -209 0
10 -142 209 0
-10 142 209 0
-10 -142 -209 0
29 200 -219 0
29 -200 219 0
-29 200 219 0
-29 -200 -219 0
91 102 -174 0
91 -102 174 0
-91 102 174 0
-91 -102 -174 0
55 131 -220 0
55 -131 220 0
-55 131 220 0
-55 -131 -220 0
11 109 -221 0
11 -109 221 0
-11 109 221 0
-11 -109 -221 0
108 157 -219 0
108 -157 219 0
-108 157 219 0
-108 -157 -219 0
95 110 -153 0
95 -110 153 0
-95 110 153 0
-95 -110 -153 0
191 203 -220 0
191 -203 220 0
-191 203 220 0
-191 -203 -220 0
24 89 -217 0
24 -89 217 0
-24 89 217 0
-24 -89 -217 0
66 117 -218 0
66 -117 218 0
-66 117 218 0
-66 -117 -218 0
122 176 -222 0
122 -176 222 0
-122 176 222 0
-122 -176 -222 0
52 177 -221 0
52 -177 221 0
-52 177 221 0
-52 -177 -221 0
28 115 -186 0
28 -115 186 0
-28 115 186 0
-28 -115 -186 0
204 212 -223 0
204 -212 223 0
-204 212 223 0
-204 -212 -223 0
120 207 -223 0
120 -207 223 0
-120 207 223 0
-120 -207 -223 0
50 205 -224 0
50 -205 224 0
-50 205 224 0
-50 -205 -224 0
19 173 -180 0
19 -173 180 0
-19 173 180 0
-19 -173 -180 0
17 166 -224 0
17 -166 224 0
-17 166 224 0
-17 -166 -224 0
118 197 -210 0
118 -197 210 0
-118 197 210 0
-118 -197 -210 0
30 208 -225 0
30 -208 225 0
-30 208 225 0
-30 -208 -225 0
123 154 -184 0
123 -154 184 0
-123 154 184 0
-123 -154 -184 0
155 198 -213 0
155 -198 213 0
-155 198 213 0
-155 -198 -213 0
69 97 -147 0
69 -97 147 0
-69 97 147 0
-69 -97 -147 0
51 134 -211 0
51 -134 211 0
-51 134 211 0
-51 -134 -211 0
42 135 -148 0
42 -135 148 0
-42 135 148 0
-42 -135 -148 0
61 63 -202 0
61 -63 202 0
-61 63 202 0
-61 -63 -202 0
133 214 -225 0
133 -214 225 0
-133 214 225 0
-133 -214 -225 0
113 144 -150 0
113 -144 150 0
-113 144 150 0
-113 -144 -150 0
25 85 -215 0
25 -85 215 0
-25 85 215 0
-25 -85 -215 0
20 31 -98 0
20 -31 98 0
-20 31 98 0
-20 -31 -98 0
39 151 -222 0
39 -151 222 0
-39 151 222 0
-39 -151 -222 0
