c F4 Tseitin on networkx random_regular_graph(3,200,seed=3), connected=True, odd charge on vertex 1
p cnf 300 800
1 2 3 0
1 -2 -3 0
-1 2 -3 0
-1 -2 3 0
4 5 -6 0
4 -5 6 0
-4 5 6 0
-4 -5 -6 0
7 8 -9 0
7 -8 9 0
-7 8 9 0
-7 -8 -9 0
10 11 -12 0
10 -11 12 0
-10 11 12 0
-10 -11 -12 0
13 14 -15 0
13 -14 15 0
-13 14 15 0
-13 -14 -15 0
16 17 -18 0
16 -17 18 0
-16 17 18 0
-16 -17 -18 0
19 20 -21 0
19 -20 21 0
-19 20 21 0
-19 -20 -21 0
22 23 -24 0
22 -23 24 0
-22 23 24 0
-22 -23 -24 0
22 25 -26 0
22 -25 26 0
-22 25 26 0
-22 -25 -26 0
27 28 -29 0
27 -28 29 0
-27 28 29 0
-27 -28 -29 0
30 31 -32 0
30 -31 32 0
-30 31 32 0
-30 -31 -32 0
16 33 -34 0
16 -33 34 0
-16 33 34 0
-16 -33 -34 0
25 35 -36 0
25 -35 36 0
-25 35 36 0
-25 -35 -36 0
13 37 -38 0
13 -37 38 0
-13 37 38 0
-13 -37 -38 0
39 40 -41 0
39 -40 41 0
-39 40 41 0
-39 -40 -41 0
42 43 -44 0
42 -43 44 0
-42 43 44 0
-42 -43 -44 0
45 46 -47 0
45 -46 47 0
-45 46 47 0
-45 -46 -47 0
37 48 -49 0
37 -48 49 0
-37 48 49 0
-37 -48 -49 0
50 51 -52 0
50 -51 52 0
-50 51 52 0
-50 -51 -52 0
53 54 -55 0
53 -54 55 0
-53 54 55 0
-53 -54 -55 0
56 57 -58 0
56 -57 58 0
-56 57 58 0
-56 -57 -58 0
35 59 -60 0
35 -59 60 0
-35 59 60 0
-35 -59 -60 0
7 61 -62 0
7 -61 62 0
-7 61 62 0
-7 -61 -62 0
63 64 -65 0
63 -64 65 0
-63 64 65 0
-63 -64 -65 0
39 66 -67 0
39 -66 67 0
-39 66 67 0
-39 -66 -67 0
68 69 -70 0
68 -69 70 0
-68 69 70 0
-68 -69 -70 0
1 71 -72 0
1 -71 72 0
-1 71 72 0
-1 -71 -72 0
73 74 -75 0
73 -74 75 0
-73 74 75 0
-73 -74 -75 0
68 76 -77 0
68 -76 77 0
-68 76 77 0
-68 -76 -77 0
78 79 -80 0
78 -79 80 0
-78 79 80 0
-78 -79 -80 0
81 82 -83 0
81 -82 83 0
-81 82 83 0
-81 -82 -83 0
84 85 -86 0
84 -85 86 0
-84 85 86 0
-84 -85 -86 0
87 88 -89 0
87 -88 89 0
-87 88 89 0
-87 -88 -89 0
90 91 -92 0
90 -91 92 0
-90 91 92 0
-90 -91 -92 0
93 94 -95 0
93 -94 95 0
-93 94 95 0
-93 -94 -95 0
14 71 -96 0
14 -71 96 0
-14 71 96 0
-14 -71 -96 0
97 98 -99 0
97 -98 99 0
-97 98 99 0
-97 -98 -99 0
4 100 -101 0
4 -100 101 0
-4 100 101 0
-4 -100 -101 0
45 59 -102 0
45 -59 102 0
-45 59 102 0
-45 -59 -102 0
103 104 -105 0
103 -104 105 0
-103 104 105 0
-103 -104 -105 0
106 107 -108 0
106 -107 108 0
-106 107 108 0
-106 -107 -108 0
109 110 -111 0
109 -110 111 0
-109 110 111 0
-109 -110 -111 0
84 112 -113 0
84 -112 113 0
-84 112 113 0
-84 -112 -113 0
114 115 -116 0
114 -115 116 0
-114 115 116 0
-114 -115 -116 0
117 118 -119 0
117 -118 119 0
-117 118 119 0
-117 -118 -119 0
2 46 -120 0
2 -46 120 0
-2 46 120 0
-2 -46 -120 0
121 122 -123 0
121 -122 123 0
-121 122 123 0
-121 -122 -123 0
19 124 -125 0
19 -124 125 0
-19 124 125 0
-19 -124 -125 0
126 127 -128 0
126 -127 128 0
-126 127 128 0
-126 -127 -128 0
47 129 -130 0
47 -129 130 0
-47 129 130 0
-47 -129 -130 0
10 131 -132 0
10 -131 132 0
-10 131 132 0
-10 -131 -132 0
17 87 -133 0
17 -87 133 0
-17 87 133 0
-17 -87 -133 0
134 135 -136 0
134 -135 136 0
-134 135 136 0
-134 -135 -136 0
137 138 -139 0
137 -138 139 0
-137 138 139 0
-137 -138 -139 0
48 61 -140 0
48 -61 140 0
-48 61 140 0
-48 -61 -140 0
88 141 -142 0
88 -141 142 0
-88 141 142 0
-88 -141 -142 0
63 143 -144 0
63 -143 144 0
-63 143 144 0
-63 -143 -144 0
145 146 -147 0
145 -146 147 0
-145 146 147 0
-145 -146 -147 0
148 149 -150 0
148 -149 150 0
-148 149 150 0
-148 -149 -150 0
121 151 -152 0
121 -151 152 0
-121 151 152 0
-121 -151 -152 0
122 134 -153 0
122 -134 153 0
-122 134 153 0
-122 -134 -153 0
153 154 -155 0
153 -154 155 0
-153 154 155 0
-153 -154 -155 0
156 157 -158 0
156 -157 158 0
-156 157 158 0
-156 -157 -158 0
40 159 -160 0
40 -159 160 0
-40 159 160 0
-40 -159 -160 0
145 161 -162 0
145 -161 162 0
-145 161 162 0
-145 -161 -162 0
163 164 -165 0
163 -164 165 0
-163 164 165 0
-163 -164 -165 0
73 166 -167 0
73 -166 167 0
-73 166 167 0
-73 -166 -167 0
137 168 -169 0
137 -168 169 0
-137 168 169 0
-137 -168 -169 0
135 170 -171 0
135 -170 171 0
-135 170 171 0
-135 -170 -171 0
172 173 -174 0
172 -173 174 0
-172 173 174 0
-172 -173 -174 0
106 166 -175 0
106 -166 175 0
-106 166 175 0
-106 -166 -175 0
93 109 -176 0
93 -109 176 0
-93 109 176 0
-93 -109 -176 0
177 178 -179 0
177 -178 179 0
-177 178 179 0
-177 -178 -179 0
90 180 -181 0
90 -180 181 0
-90 180 181 0
-90 -180 -181 0
148 182 -183 0
148 -182 183 0
-148 182 183 0
-148 -182 -183 0
36 100 -175 0
36 -100 175 0
-36 100 175 0
-36 -100 -175 0
53 163 -184 0
53 -163 184 0
-53 163 184 0
-53 -163 -184 0
54 151 -185 0
54 -151 185 0
-54 151 185 0
-54 -151 -185 0
186 187 -188 0
186 -187 188 0
-186 187 188 0
-186 -187 -188 0
172 189 -190 0
172 -189 190 0
-172 189 190 0
-172 -189 -190 0
76 156 -170 0
76 -156 170 0
-76 156 170 0
-76 -156 -170 0
136 191 -192 0
136 -191 192 0
-136 191 192 0
-136 -191 -192 0
152 193 -194 0
152 -193 194 0
-152 193 194 0
-152 -193 -194 0
27 117 -195 0
27 -117 195 0
-27 117 195 0
-27 -117 -195 0
42 196 -197 0
42 -196 197 0
-42 196 197 0
-42 -196 -197 0
81 196 -198 0
81 -196 198 0
-81 196 198 0
-81 -196 -198 0
168 182 -199 0
168 -182 199 0
-168 182 199 0
-168 -182 -199 0
66 123 -200 0
66 -123 200 0
-66 123 200 0
-66 -123 -200 0
97 201 -202 0
97 -201 202 0
-97 201 202 0
-97 -201 -202 0
85 203 -204 0
85 -203 204 0
-85 203 204 0
-85 -203 -204 0
141 205 -206 0
141 -205 206 0
-141 205 206 0
-141 -205 -206 0
26 207 -208 0
26 -207 208 0
-26 207 208 0
-26 -207 -208 0
133 186 -209 0
133 -186 209 0
-133 186 209 0
-133 -186 -209 0
23 180 -210 0
23 -180 210 0
-23 180 210 0
-23 -180 -210 0
131 203 -211 0
131 -203 211 0
-131 203 211 0
-131 -203 -211 0
78 107 -212 0
78 -107 212 0
-78 107 212 0
-78 -107 -212 0
126 157 -184 0
126 -157 184 0
-126 157 184 0
-126 -157 -184 0
69 98 -193 0
69 -98 193 0
-69 98 193 0
-69 -98 -193 0
149 213 -214 0
149 -213 214 0
-149 213 214 0
-149 -213 -214 0
138 146 -215 0
138 -146 215 0
-138 146 215 0
-138 -146 -215 0
41 43 -216 0
41 -43 216 0
-41 43 216 0
-41 -43 -216 0
173 201 -217 0
173 -201 217 0
-173 201 217 0
-173 -201 -217 0
218 219 -220 0
218 -219 220 0
-218 219 220 0
-218 -219 -220 0
127 221 -222 0
127 -221 222 0
-127 221 222 0
-127 -221 -222 0
120 217 -223 0
120 -217 223 0
-120 217 223 0
-120 -217 -223 0
210 224 -225 0
210 -224 225 0
-210 224 225 0
-210 -224 -225 0
55 226 -227 0
55 -226 227 0
-55 226 227 0
-55 -226 -227 0
191 218 -228 0
191 -218 228 0
-191 218 228 0
-191 -218 -228 0
128 143 -229 0
128 -143 229 0
-128 143 229 0
-128 -143 -229 0
103 159 -230 0
103 -159 230 0
-103 159 230 0
-103 -159 -230 0
56 231 -232 0
56 -231 232 0
-56 231 232 0
-56 -231 -232 0
147 233 -234 0
147 -233 234 0
-147 233 234 0
-147 -233 -234 0
3 160 -192 0
3 -160 192 0
-3 160 192 0
-3 -160 -192 0
60 235 -236 0
60 -235 236 0
-60 235 236 0
-60 -235 -236 0
28 33 -237 0
28 -33 237 0
-28 33 237 0
-28 -33 -237 0
195 238 -239 0
195 -238 239 0
-195 238 239 0
-195 -238 -239 0
112 154 -209 0
112 -154 209 0
-112 154 209 0
-112 -154 -209 0
200 205 -240 0
200 -205 240 0
-200 205 240 0
-200 -205 -240 0
241 242 -243 0
241 -242 243 0
-241 242 243 0
-241 -242 -243 0
241 244 -245 0
241 -244 245 0
-241 244 245 0
-241 -244 -245 0
30 91 -140 0
30 -91 140 0
-30 91 140 0
-30 -91 -140 0
114 246 -247 0
114 -246 247 0
-114 246 247 0
-114 -246 -247 0
244 248 -249 0
244 -248 249 0
-244 248 249 0
-244 -248 -249 0
50 129 -132 0
50 -129 132 0
-50 129 132 0
-50 -129 -132 0
86 224 -250 0
86 -224 250 0
-86 224 250 0
-86 -224 -250 0
5 118 -197 0
5 -118 197 0
-5 118 197 0
-5 -118 -197 0
233 240 -251 0
233 -240 251 0
-233 240 251 0
-233 -240 -251 0
94 252 -253 0
94 -252 253 0
-94 252 253 0
-94 -252 -253 0
108 213 -215 0
108 -213 215 0
-108 213 215 0
-108 -213 -215 0
6 51 -254 0
6 -51 254 0
-6 51 254 0
-6 -51 -254 0
104 252 -255 0
104 -252 255 0
-104 252 255 0
-104 -252 -255 0
11 256 -257 0
11 -256 257 0
-11 256 257 0
-11 -256 -257 0
144 254 -258 0
144 -254 258 0
-144 254 258 0
-144 -254 -258 0
206 259 -260 0
206 -259 260 0
-206 259 260 0
-206 -259 -260 0
74 261 -262 0
74 -261 262 0
-74 261 262 0
-74 -261 -262 0
64 158 -263 0
64 -158 263 0
-64 158 263 0
-64 -158 -263 0
251 264 -265 0
251 -264 265 0
-251 264 265 0
-251 -264 -265 0
65 198 -266 0
65 -198 266 0
-65 198 266 0
-65 -198 -266 0
267 268 -269 0
267 -268 269 0
-267 268 269 0
-267 -268 -269 0
15 67 -270 0
15 -67 270 0
-15 67 270 0
-15 -67 -270 0
29 124 -238 0
29 -124 238 0
-29 124 238 0
-29 -124 -238 0
99 177 -258 0
99 -177 258 0
-99 177 258 0
-99 -177 -258 0
8 57 -164 0
8 -57 164 0
-8 57 164 0
-8 -57 -164 0
110 261 -271 0
110 -261 271 0
-110 261 271 0
-110 -261 -271 0
62 214 -272 0
62 -214 272 0
-62 214 272 0
-62 -214 -272 0
115 165 -273 0
115 -165 273 0
-115 165 273 0
-115 -165 -273 0
202 231 -274 0
202 -231 274 0
-202 231 274 0
-202 -231 -274 0
139 275 -276 0
139 -275 276 0
-139 275 276 0
-139 -275 -276 0
221 277 -278 0
221 -277 278 0
-221 277 278 0
-221 -277 -278 0
70 82 -226 0
70 -82 226 0
-70 82 226 0
-70 -82 -226 0
130 169 -204 0
130 -169 204 0
-130 169 204 0
-130 -169 -204 0
161 256 -266 0
161 -256 266 0
-161 256 266 0
-161 -256 -266 0
223 267 -279 0
223 -267 279 0
-223 267 279 0
-223 -267 -279 0
181 268 -275 0
181 -268 275 0
-181 268 275 0
-181 -268 -275 0
272 280 -281 0
272 -280 281 0
-272 280 281 0
-272 -280 -281 0
229 282 -283 0
229 -282 283 0
-229 282 283 0
-229 -282 -283 0
162 280 -284 0
162 -280 284 0
-162 280 284 0
-162 -280 -284 0
58 253 -255 0
58 -253 255 0
-58 253 255 0
-58 -253 -255 0
199 285 -286 0
199 -285 286 0
-199 285 286 0
-199 -285 -286 0
18 31 -167 0
18 -31 167 0
-18 31 167 0
-18 -31 -167 0
92 113 -273 0
92 -113 273 0
-92 113 273 0
-92 -113 -273 0
49 189 -245 0
49 -189 245 0
-49 189 245 0
-49 -189 -245 0
242 264 -279 0
242 -264 279 0
-242 264 279 0
-242 -264 -279 0
232 269 -287 0
232 -269 287 0
-232 269 287 0
-232 -269 -287 0
228 277 -282 0
228 -277 282 0
-228 277 282 0
-228 -277 -282 0
174 190 -234 0
174 -190 234 0
-174 190 234 0
-174 -190 -234 0
102 119 -219 0
102 -119 219 0
-102 119 219 0
-102 -119 -219 0
83 237 -288 0
83 -237 288 0
-83 237 288 0
-83 -237 -288 0
20 212 -289 0
20 -212 289 0
-20 212 289 0
-20 -212 -289 0
187 265 -284 0
187 -265 284 0
-187 265 284 0
-187 -265 -284 0
9 290 -291 0
9 -290 291 0
-9 290 291 0
-9 -290 -291 0
79 178 -292 0
79 -178 292 0
-79 178 292 0
-79 -178 -292 0
270 293 -294 0
270 -293 294 0
-270 293 294 0
-270 -293 -294 0
116 257 -295 0
116 -257 295 0
-116 257 295 0
-116 -257 -295 0
235 274 -296 0
235 -274 296 0
-235 274 296 0
-235 -274 -296 0
44 77 -293 0
44 -77 293 0
-44 77 293 0
-44 -77 -293 0
105 176 -216 0
105 -176 216 0
-105 176 216 0
-105 -176 -216 0
194 278 -297 0
194 -278 297 0
-194 278 297 0
-194 -278 -297 0
32 111 -298 0
32 -111 298 0
-32 111 298 0
-32 -111 -298 0
183 236 -299 0
183 -236 299 0
-183 236 299 0
-183 -236 -299 0
185 222 -294 0
185 -222 294 0
-185 222 294 0
-185 -222 -294 0
89 155 -285 0
89 -155 285 0
-89 155 285 0
-89 -155 -285 0
188 207 -211 0
188 -207 211 0
-188 207 211 0
-188 -207 -211 0
34 101 -290 0
34 -101 290 0
-34 101 290 0
-34 -101 -290 0
142 227 -286 0
142 -227 286 0
-142 227 286 0
-142 -227 -286 0
72 281 -299 0
72 -281 299 0
-72 281 299 0
-72 -281 -299 0
75 95 -263 0
75 -95 263 0
-75 95 263 0
-75 -95 -263 0
220 287 -288 0
220 -287 288 0
-220 287 288 0
-220 -287 -288 0
248 298 -300 0
248 -298 300 0
-248 298 300 0
-248 -298 -300 0
179 225 -297 0
179 -225 297 0
-179 225 297 0
-179 -225 -297 0
150 292 -296 0
150 -292 296 0
-150 292 296 0
-150 -292 -296 0
171 230 -249 0
171 -230 249 0
-171 230 249 0
-171 -230 -249 0
21 259 -276 0
21 -259 276 0
-21 259 276 0
-21 -259 -276 0
12 239 -295 0
12 -239 295 0
-12 239 295 0
-12 -239 -295 0
208 260 -291 0
208 -260 291 0
-208 260 291 0
-208 -260 -291 0
246 250 -300 0
246 -250 300 0
-246 250 300 0
-246 -250 -300 0
247 262 -271 0
247 -262 271 0
-247 262 271 0
-247 -262 -271 0
38 52 -125 0
38 -52 125 0
-38 52 125 0
-38 -52 -125 0
24 96 -289 0
24 -96 289 0
-24 96 289 0
-24 -96 -289 0
80 243 -283 0
80 -243 283 0
-80 243 283 0
-80 -243 -283 0
