c F4 Tseitin on networkx random_regular_graph(3,40,seed=9), connected=True, odd charge on vertex 1
p cnf 60 160
1 2 3 0
1 -2 -3 0
-1 2 -3 0
-1 -2 3 0
4 5 -6 0
4 -5 6 0
-4 5 6 0
-4 -5 -6 0
7 8 -9 0
7 -8 9 0
-7 8 9 0
-7 -8 -9 0
1 10 -11 0
1 -10 11 0
-1 10 11 0
-1 -10 -11 0
10 12 -13 0
10 -12 13 0
-10 12 13 0
-10 -12 -13 0
7 14 -15 0
7 -14 15 0
-7 14 15 0
-7 -14 -15 0
16 17 -18 0
16 -17 18 0
-16 17 18 0
-16 -17 -18 0
19 20 -21 0
19 -20 21 0
-19 20 21 0
-19 -20 -21 0
2 22 -23 0
2 -22 23 0
-2 22 23 0
-2 -22 -23 0
22 24 -25 0
22 -24 25 0
-22 24 25 0
-22 -24 -25 0
26 27 -28 0
26 -27 28 0
-26 27 28 0
-26 -27 -28 0
29 30 -31 0
29 -30 31 0
-29 30 31 0
-29 -30 -31 0
8 19 -32 0
8 -19 32 0
-8 19 32 0
-8 -19 -32 0
14 29 -33 0
14 -29 33 0
-14 29 33 0
-14 -29 -33 0
32 34 -35 0
32 -34 35 0
-32 34 35 0
-32 -34 -35 0
36 37 -38 0
36 -37 38 0
-36 37 38 0
-36 -37 -38 0
34 36 -39 0
34 -36 39 0
-34 36 39 0
-34 -36 -39 0
26 40 -41 0
26 -40 41 0
-26 40 41 0
-26 -40 -41 0
42 43 -44 0
42 -43 44 0
-42 43 44 0
-42 -43 -44 0
45 46 -47 0
45 -46 47 0
-45 46 47 0
-45 -46 -47 0
40 42 -48 0
40 -42 48 0
-40 42 48 0
-40 -42 -48 0
23 49 -50 0
23 -49 50 0
-23 49 50 0
-23 -49 -50 0
16 45 -51 0
16 -45 51 0
-16 45 51 0
-16 -45 -51 0
20 24 -41 0
20 -24 41 0
-20 24 41 0
-20 -24 -41 0
52 53 -54 0
52 -53 54 0
-52 53 54 0
-52 -53 -54 0
4 49 -55 0
4 -49 55 0
-4 49 55 0
-4 -49 -55 0
3 12 -56 0
3 -12 56 0
-3 12 56 0
-3 -12 -56 0
15 30 -48 0
15 -30 48 0
-15 30 48 0
-15 -30 -48 0
35 56 -57 0
35 -56 57 0
-35 56 57 0
-35 -56 -57 0
37 43 -58 0
37 -43 58 0
-37 43 58 0
-37 -43 -58 0
9 17 -51 0
9 -17 51 0
-9 17 51 0
-9 -17 -51 0
13 18 -55 0
13 -18 55 0
-13 18 55 0
-13 -18 -55 0
5 39 -46 0
5 -39 46 0
-5 39 46 0
-5 -39 -46 0
50 52 -59 0
50 -52 59 0
-50 52 59 0
-50 -52 -59 0
21 38 -60 0
21 -38 60 0
-21 38 60 0
-21 -38 -60 0
11 27 -58 0
11 -27 58 0
-11 27 58 0
-11 -27 -58 0
6 31 -57 0
6 -31 57 0
-6 31 57 0
-6 -31 -57 0
28 33 -44 0
28 -33 44 0
-28 33 44 0
-28 -33 -44 0
25 47 -53 0
25 -47 53 0
-25 47 53 0
-25 -47 -53 0
54 59 -60 0
54 -59 60 0
-54 59 60 0
-54 -59 -60 0
