c F5 clique-colouring cnfgen CliqueColoring(8,3,2)
p cnf 68 351
29 30 31 32 33 34 35 36 0
37 38 39 40 41 42 43 44 0
45 46 47 48 49 50 51 52 0
-29 -30 0
-29 -31 0
-29 -32 0
-29 -33 0
-29 -34 0
-29 -35 0
-29 -36 0
-30 -31 0
-30 -32 0
-30 -33 0
-30 -34 0
-30 -35 0
-30 -36 0
-31 -32 0
-31 -33 0
-31 -34 0
-31 -35 0
-31 -36 0
-32 -33 0
-32 -34 0
-32 -35 0
-32 -36 0
-33 -34 0
-33 -35 0
-33 -36 0
-34 -35 0
-34 -36 0
-35 -36 0
-37 -38 0
-37 -39 0
-37 -40 0
-37 -41 0
-37 -42 0
-37 -43 0
-37 -44 0
-38 -39 0
-38 -40 0
-38 -41 0
-38 -42 0
-38 -43 0
-38 -44 0
-39 -40 0
-39 -41 0
-39 -42 0
-39 -43 0
-39 -44 0
-40 -41 0
-40 -42 0
-40 -43 0
-40 -44 0
-41 -42 0
-41 -43 0
-41 -44 0
-42 -43 0
-42 -44 0
-43 -44 0
-45 -46 0
-45 -47 0
-45 -48 0
-45 -49 0
-45 -50 0
-45 -51 0
-45 -52 0
-46 -47 0
-46 -48 0
-46 -49 0
-46 -50 0
-46 -51 0
-46 -52 0
-47 -48 0
-47 -49 0
-47 -50 0
-47 -51 0
-47 -52 0
-48 -49 0
-48 -50 0
-48 -51 0
-48 -52 0
-49 -50 0
-49 -51 0
-49 -52 0
-50 -51 0
-50 -52 0
-51 -52 0
-29 -37 0
-29 -45 0
-37 -45 0
-30 -38 0
-30 -46 0
-38 -46 0
-31 -39 0
-31 -47 0
-39 -47 0
-32 -40 0
-32 -48 0
-40 -48 0
-33 -41 0
-33 -49 0
-41 -49 0
-34 -42 0
-34 -50 0
-42 -50 0
-35 -43 0
-35 -51 0
-43 -51 0
-36 -44 0
-36 -52 0
-44 -52 0
1 -29 -38 0
1 -30 -37 0
1 -29 -46 0
1 -30 -45 0
1 -37 -46 0
1 -38 -45 0
2 -29 -39 0
2 -31 -37 0
2 -29 -47 0
2 -31 -45 0
2 -37 -47 0
2 -39 -45 0
3 -29 -40 0
3 -32 -37 0
3 -29 -48 0
3 -32 -45 0
3 -37 -48 0
3 -40 -45 0
4 -29 -41 0
4 -33 -37 0
4 -29 -49 0
4 -33 -45 0
4 -37 -49 0
4 -41 -45 0
5 -29 -42 0
5 -34 -37 0
5 -29 -50 0
5 -34 -45 0
5 -37 -50 0
5 -42 -45 0
6 -29 -43 0
6 -35 -37 0
6 -29 -51 0
6 -35 -45 0
6 -37 -51 0
6 -43 -45 0
7 -29 -44 0
7 -36 -37 0
7 -29 -52 0
7 -36 -45 0
7 -37 -52 0
7 -44 -45 0
8 -30 -39 0
8 -31 -38 0
8 -30 -47 0
8 -31 -46 0
8 -38 -47 0
8 -39 -46 0
9 -30 -40 0
9 -32 -38 0
9 -30 -48 0
9 -32 -46 0
9 -38 -48 0
9 -40 -46 0
10 -30 -41 0
10 -33 -38 0
10 -30 -49 0
10 -33 -46 0
10 -38 -49 0
10 -41 -46 0
11 -30 -42 0
11 -34 -38 0
11 -30 -50 0
11 -34 -46 0
11 -38 -50 0
11 -42 -46 0
12 -30 -43 0
12 -35 -38 0
12 -30 -51 0
12 -35 -46 0
12 -38 -51 0
12 -43 -46 0
13 -30 -44 0
13 -36 -38 0
13 -30 -52 0
13 -36 -46 0
13 -38 -52 0
13 -44 -46 0
14 -31 -40 0
14 -32 -39 0
14 -31 -48 0
14 -32 -47 0
14 -39 -48 0
14 -40 -47 0
15 -31 -41 0
15 -33 -39 0
15 -31 -49 0
15 -33 -47 0
15 -39 -49 0
15 -41 -47 0
16 -31 -42 0
16 -34 -39 0
16 -31 -50 0
16 -34 -47 0
16 -39 -50 0
16 -42 -47 0
17 -31 -43 0
17 -35 -39 0
17 -31 -51 0
17 -35 -47 0
17 -39 -51 0
17 -43 -47 0
18 -31 -44 0
18 -36 -39 0
18 -31 -52 0
18 -36 -47 0
18 -39 -52 0
18 -44 -47 0
19 -32 -41 0
19 -33 -40 0
19 -32 -49 0
19 -33 -48 0
19 -40 -49 0
19 -41 -48 0
20 -32 -42 0
20 -34 -40 0
20 -32 -50 0
20 -34 -48 0
20 -40 -50 0
20 -42 -48 0
21 -32 -43 0
21 -35 -40 0
21 -32 -51 0
21 -35 -48 0
21 -40 -51 0
21 -43 -48 0
22 -32 -44 0
22 -36 -40 0
22 -32 -52 0
22 -36 -48 0
22 -40 -52 0
22 -44 -48 0
23 -33 -42 0
23 -34 -41 0
23 -33 -50 0
23 -34 -49 0
23 -41 -50 0
23 -42 -49 0
24 -33 -43 0
24 -35 -41 0
24 -33 -51 0
24 -35 -49 0
24 -41 -51 0
24 -43 -49 0
25 -33 -44 0
25 -36 -41 0
25 -33 -52 0
25 -36 -49 0
25 -41 -52 0
25 -44 -49 0
26 -34 -43 0
26 -35 -42 0
26 -34 -51 0
26 -35 -50 0
26 -42 -51 0
26 -43 -50 0
27 -34 -44 0
27 -36 -42 0
27 -34 -52 0
27 -36 -50 0
27 -42 -52 0
27 -44 -50 0
28 -35 -44 0
28 -36 -43 0
28 -35 -52 0
28 -36 -51 0
28 -43 -52 0
28 -44 -51 0
53 54 0
55 56 0
57 58 0
59 60 0
61 62 0
63 64 0
65 66 0
67 68 0
-53 -54 0
-55 -56 0
-57 -58 0
-59 -60 0
-61 -62 0
-63 -64 0
-65 -66 0
-67 -68 0
-1 -53 -55 0
-1 -54 -56 0
-2 -53 -57 0
-2 -54 -58 0
-3 -53 -59 0
-3 -54 -60 0
-4 -53 -61 0
-4 -54 -62 0
-5 -53 -63 0
-5 -54 -64 0
-6 -53 -65 0
-6 -54 -66 0
-7 -53 -67 0
-7 -54 -68 0
-8 -55 -57 0
-8 -56 -58 0
-9 -55 -59 0
-9 -56 -60 0
-10 -55 -61 0
-10 -56 -62 0
-11 -55 -63 0
-11 -56 -64 0
-12 -55 -65 0
-12 -56 -66 0
-13 -55 -67 0
-13 -56 -68 0
-14 -57 -59 0
-14 -58 -60 0
-15 -57 -61 0
-15 -58 -62 0
-16 -57 -63 0
-16 -58 -64 0
-17 -57 -65 0
-17 -58 -66 0
-18 -57 -67 0
-18 -58 -68 0
-19 -59 -61 0
-19 -60 -62 0
-20 -59 -63 0
-20 -60 -64 0
-21 -59 -65 0
-21 -60 -66 0
-22 -59 -67 0
-22 -60 -68 0
-23 -61 -63 0
-23 -62 -64 0
-24 -61 -65 0
-24 -62 -66 0
-25 -61 -67 0
-25 -62 -68 0
-26 -63 -65 0
-26 -64 -66 0
-27 -63 -67 0
-27 -64 -68 0
-28 -65 -67 0
-28 -66 -68 0
