c F5 clique-colouring cnfgen CliqueColoring(30,6,5)
p cnf 765 18621
436 437 438 439 440 441 442 443 444 445 446 447 448 449 450 451 452 453 454 455 456 457 458 459 460 461 462 463 464 465 0
466 467 468 469 470 471 472 473 474 475 476 477 478 479 480 481 482 483 484 485 486 487 488 489 490 491 492 493 494 495 0
496 497 498 499 500 501 502 503 504 505 506 507 508 509 510 511 512 513 514 515 516 517 518 519 520 521 522 523 524 525 0
526 527 528 529 530 531 532 533 534 535 536 537 538 539 540 541 542 543 544 545 546 547 548 549 550 551 552 553 554 555 0
556 557 558 559 560 561 562 563 564 565 566 567 568 569 570 571 572 573 574 575 576 577 578 579 580 581 582 583 584 585 0
586 587 588 589 590 591 592 593 594 595 596 597 598 599 600 601 602 603 604 605 606 607 608 609 610 611 612 613 614 615 0
-436 -437 0
-436 -438 0
-436 -439 0
-436 -440 0
-436 -441 0
-436 -442 0
-436 -443 0
-436 -444 0
-436 -445 0
-436 -446 0
-436 -447 0
-436 -448 0
-436 -449 0
-436 -450 0
-436 -451 0
-436 -452 0
-436 -453 0
-436 -454 0
-436 -455 0
-436 -456 0
-436 -457 0
-436 -458 0
-436 -459 0
-436 -460 0
-436 -461 0
-436 -462 0
-436 -463 0
-436 -464 0
-436 -465 0
-437 -438 0
-437 -439 0
-437 -440 0
-437 -441 0
-437 -442 0
-437 -443 0
-437 -444 0
-437 -445 0
-437 -446 0
-437 -447 0
-437 -448 0
-437 -449 0
-437 -450 0
-437 -451 0
-437 -452 0
-437 -453 0
-437 -454 0
-437 -455 0
-437 -456 0
-437 -457 0
-437 -458 0
-437 -459 0
-437 -460 0
-437 -461 0
-437 -462 0
-437 -463 0
-437 -464 0
-437 -465 0
-438 -439 0
-438 -440 0
-438 -441 0
-438 -442 0
-438 -443 0
-438 -444 0
-438 -445 0
-438 -446 0
-438 -447 0
-438 -448 0
-438 -449 0
-438 -450 0
-438 -451 0
-438 -452 0
-438 -453 0
-438 -454 0
-438 -455 0
-438 -456 0
-438 -457 0
-438 -458 0
-438 -459 0
-438 -460 0
-438 -461 0
-438 -462 0
-438 -463 0
-438 -464 0
-438 -465 0
-439 -440 0
-439 -441 0
-439 -442 0
-439 -443 0
-439 -444 0
-439 -445 0
-439 -446 0
-439 -447 0
-439 -448 0
-439 -449 0
-439 -450 0
-439 -451 0
-439 -452 0
-439 -453 0
-439 -454 0
-439 -455 0
-439 -456 0
-439 -457 0
-439 -458 0
-439 -459 0
-439 -460 0
-439 -461 0
-439 -462 0
-439 -463 0
-439 -464 0
-439 -465 0
-440 -441 0
-440 -442 0
-440 -443 0
-440 -444 0
-440 -445 0
-440 -446 0
-440 -447 0
-440 -448 0
-440 -449 0
-440 -450 0
-440 -451 0
-440 -452 0
-440 -453 0
-440 -454 0
-440 -455 0
-440 -456 0
-440 -457 0
-440 -458 0
-440 -459 0
-440 -460 0
-440 -461 0
-440 -462 0
-440 -463 0
-440 -464 0
-440 -465 0
-441 -442 0
-441 -443 0
-441 -444 0
-441 -445 0
-441 -446 0
-441 -447 0
-441 -448 0
-441 -449 0
-441 -450 0
-441 -451 0
-441 -452 0
-441 -453 0
-441 -454 0
-441 -455 0
-441 -456 0
-441 -457 0
-441 -458 0
-441 -459 0
-441 -460 0
-441 -461 0
-441 -462 0
-441 -463 0
-441 -464 0
-441 -465 0
-442 -443 0
-442 -444 0
-442 -445 0
-442 -446 0
-442 -447 0
-442 -448 0
-442 -449 0
-442 -450 0
-442 -451 0
-442 -452 0
-442 -453 0
-442 -454 0
-442 -455 0
-442 -456 0
-442 -457 0
-442 -458 0
-442 -459 0
-442 -460 0
-442 -461 0
-442 -462 0
-442 -463 0
-442 -464 0
-442 -465 0
-443 -444 0
-443 -445 0
-443 -446 0
-443 -447 0
-443 -448 0
-443 -449 0
-443 -450 0
-443 -451 0
-443 -452 0
-443 -453 0
-443 -454 0
-443 -455 0
-443 -456 0
-443 -457 0
-443 -458 0
-443 -459 0
-443 -460 0
-443 -461 0
-443 -462 0
-443 -463 0
-443 -464 0
-443 -465 0
-444 -445 0
-444 -446 0
-444 -447 0
-444 -448 0
-444 -449 0
-444 -450 0
-444 -451 0
-444 -452 0
-444 -453 0
-444 -454 0
-444 -455 0
-444 -456 0
-444 -457 0
-444 -458 0
-444 -459 0
-444 -460 0
-444 -461 0
-444 -462 0
-444 -463 0
-444 -464 0
-444 -465 0
-445 -446 0
-445 -447 0
-445 -448 0
-445 -449 0
-445 -450 0
-445 -451 0
-445 -452 0
-445 -453 0
-445 -454 0
-445 -455 0
-445 -456 0
-445 -457 0
-445 -458 0
-445 -459 0
-445 -460 0
-445 -461 0
-445 -462 0
-445 -463 0
-445 -464 0
-445 -465 0
-446 -447 0
-446 -448 0
-446 -449 0
-446 -450 0
-446 -451 0
-446 -452 0
-446 -453 0
-446 -454 0
-446 -455 0
-446 -456 0
-446 -457 0
-446 -458 0
-446 -459 0
-446 -460 0
-446 -461 0
-446 -462 0
-446 -463 0
-446 -464 0
-446 -465 0
-447 -448 0
-447 -449 0
-447 -450 0
-447 -451 0
-447 -452 0
-447 -453 0
-447 -454 0
-447 -455 0
-447 -456 0
-447 -457 0
-447 -458 0
-447 -459 0
-447 -460 0
-447 -461 0
-447 -462 0
-447 -463 0
-447 -464 0
-447 -465 0
-448 -449 0
-448 -450 0
-448 -451 0
-448 -452 0
-448 -453 0
-448 -454 0
-448 -455 0
-448 -456 0
-448 -457 0
-448 -458 0
-448 -459 0
-448 -460 0
-448 -461 0
-448 -462 0
-448 -463 0
-448 -464 0
-448 -465 0
-449 -450 0
-449 -451 0
-449 -452 0
-449 -453 0
-449 -454 0
-449 -455 0
-449 -456 0
-449 -457 0
-449 -458 0
-449 -459 0
-449 -460 0
-449 -461 0
-449 -462 0
-449 -463 0
-449 -464 0
-449 -465 0
-450 -451 0
-450 -452 0
-450 -453 0
-450 -454 0
-450 -455 0
-450 -456 0
-450 -457 0
-450 -458 0
-450 -459 0
-450 -460 0
-450 -461 0
-450 -462 0
-450 -463 0
-450 -464 0
-450 -465 0
-451 -452 0
-451 -453 0
-451 -454 0
-451 -455 0
-451 -456 0
-451 -457 0
-451 -458 0
-451 -459 0
-451 -460 0
-451 -461 0
-451 -462 0
-451 -463 0
-451 -464 0
-451 -465 0
-452 -453 0
-452 -454 0
-452 -455 0
-452 -456 0
-452 -457 0
-452 -458 0
-452 -459 0
-452 -460 0
-452 -461 0
-452 -462 0
-452 -463 0
-452 -464 0
-452 -465 0
-453 -454 0
-453 -455 0
-453 -456 0
-453 -457 0
-453 -458 0
-453 -459 0
-453 -460 0
-453 -461 0
-453 -462 0
-453 -463 0
-453 -464 0
-453 -465 0
-454 -455 0
-454 -456 0
-454 -457 0
-454 -458 0
-454 -459 0
-454 -460 0
-454 -461 0
-454 -462 0
-454 -463 0
-454 -464 0
-454 -465 0
-455 -456 0
-455 -457 0
-455 -458 0
-455 -459 0
-455 -460 0
-455 -461 0
-455 -462 0
-455 -463 0
-455 -464 0
-455 -465 0
-456 -457 0
-456 -458 0
-456 -459 0
-456 -460 0
-456 -461 0
-456 -462 0
-456 -463 0
-456 -464 0
-456 -465 0
-457 -458 0
-457 -459 0
-457 -460 0
-457 -461 0
-457 -462 0
-457 -463 0
-457 -464 0
-457 -465 0
-458 -459 0
-458 -460 0
-458 -461 0
-458 -462 0
-458 -463 0
-458 -464 0
-458 -465 0
-459 -460 0
-459 -461 0
-459 -462 0
-459 -463 0
-459 -464 0
-459 -465 0
-460 -461 0
-460 -462 0
-460 -463 0
-460 -464 0
-460 -465 0
-461 -462 0
-461 -463 0
-461 -464 0
-461 -465 0
-462 -463 0
-462 -464 0
-462 -465 0
-463 -464 0
-463 -465 0
-464 -465 0
-466 -467 0
-466 -468 0
-466 -469 0
-466 -470 0
-466 -471 0
-466 -472 0
-466 -473 0
-466 -474 0
-466 -475 0
-466 -476 0
-466 -477 0
-466 -478 0
-466 -479 0
-466 -480 0
-466 -481 0
-466 -482 0
-466 -483 0
-466 -484 0
-466 -485 0
-466 -486 0
-466 -487 0
-466 -488 0
-466 -489 0
-466 -490 0
-466 -491 0
-466 -492 0
-466 -493 0
-466 -494 0
-466 -495 0
-467 -468 0
-467 -469 0
-467 -470 0
-467 -471 0
-467 -472 0
-467 -473 0
-467 -474 0
-467 -475 0
-467 -476 0
-467 -477 0
-467 -478 0
-467 -479 0
-467 -480 0
-467 -481 0
-467 -482 0
-467 -483 0
-467 -484 0
-467 -485 0
-467 -486 0
-467 -487 0
-467 -488 0
-467 -489 0
-467 -490 0
-467 -491 0
-467 -492 0
-467 -493 0
-467 -494 0
-467 -495 0
-468 -469 0
-468 -470 0
-468 -471 0
-468 -472 0
-468 -473 0
-468 -474 0
-468 -475 0
-468 -476 0
-468 -477 0
-468 -478 0
-468 -479 0
-468 -480 0
-468 -481 0
-468 -482 0
-468 -483 0
-468 -484 0
-468 -485 0
-468 -486 0
-468 -487 0
-468 -488 0
-468 -489 0
-468 -490 0
-468 -491 0
-468 -492 0
-468 -493 0
-468 -494 0
-468 -495 0
-469 -470 0
-469 -471 0
-469 -472 0
-469 -473 0
-469 -474 0
-469 -475 0
-469 -476 0
-469 -477 0
-469 -478 0
-469 -479 0
-469 -480 0
-469 -481 0
-469 -482 0
-469 -483 0
-469 -484 0
-469 -485 0
-469 -486 0
-469 -487 0
-469 -488 0
-469 -489 0
-469 -490 0
-469 -491 0
-469 -492 0
-469 -493 0
-469 -494 0
-469 -495 0
-470 -471 0
-470 -472 0
-470 -473 0
-470 -474 0
-470 -475 0
-470 -476 0
-470 -477 0
-470 -478 0
-470 -479 0
-470 -480 0
-470 -481 0
-470 -482 0
-470 -483 0
-470 -484 0
-470 -485 0
-470 -486 0
-470 -487 0
-470 -488 0
-470 -489 0
-470 -490 0
-470 -491 0
-470 -492 0
-470 -493 0
-470 -494 0
-470 -495 0
-471 -472 0
-471 -473 0
-471 -474 0
-471 -475 0
-471 -476 0
-471 -477 0
-471 -478 0
-471 -479 0
-471 -480 0
-471 -481 0
-471 -482 0
-471 -483 0
-471 -484 0
-471 -485 0
-471 -486 0
-471 -487 0
-471 -488 0
-471 -489 0
-471 -490 0
-471 -491 0
-471 -492 0
-471 -493 0
-471 -494 0
-471 -495 0
-472 -473 0
-472 -474 0
-472 -475 0
-472 -476 0
-472 -477 0
-472 -478 0
-472 -479 0
-472 -480 0
-472 -481 0
-472 -482 0
-472 -483 0
-472 -484 0
-472 -485 0
-472 -486 0
-472 -487 0
-472 -488 0
-472 -489 0
-472 -490 0
-472 -491 0
-472 -492 0
-472 -493 0
-472 -494 0
-472 -495 0
-473 -474 0
-473 -475 0
-473 -476 0
-473 -477 0
-473 -478 0
-473 -479 0
-473 -480 0
-473 -481 0
-473 -482 0
-473 -483 0
-473 -484 0
-473 -485 0
-473 -486 0
-473 -487 0
-473 -488 0
-473 -489 0
-473 -490 0
-473 -491 0
-473 -492 0
-473 -493 0
-473 -494 0
-473 -495 0
-474 -475 0
-474 -476 0
-474 -477 0
-474 -478 0
-474 -479 0
-474 -480 0
-474 -481 0
-474 -482 0
-474 -483 0
-474 -484 0
-474 -485 0
-474 -486 0
-474 -487 0
-474 -488 0
-474 -489 0
-474 -490 0
-474 -491 0
-474 -492 0
-474 -493 0
-474 -494 0
-474 -495 0
-475 -476 0
-475 -477 0
-475 -478 0
-475 -479 0
-475 -480 0
-475 -481 0
-475 -482 0
-475 -483 0
-475 -484 0
-475 -485 0
-475 -486 0
-475 -487 0
-475 -488 0
-475 -489 0
-475 -490 0
-475 -491 0
-475 -492 0
-475 -493 0
-475 -494 0
-475 -495 0
-476 -477 0
-476 -478 0
-476 -479 0
-476 -480 0
-476 -481 0
-476 -482 0
-476 -483 0
-476 -484 0
-476 -485 0
-476 -486 0
-476 -487 0
-476 -488 0
-476 -489 0
-476 -490 0
-476 -491 0
-476 -492 0
-476 -493 0
-476 -494 0
-476 -495 0
-477 -478 0
-477 -479 0
-477 -480 0
-477 -481 0
-477 -482 0
-477 -483 0
-477 -484 0
-477 -485 0
-477 -486 0
-477 -487 0
-477 -488 0
-477 -489 0
-477 -490 0
-477 -491 0
-477 -492 0
-477 -493 0
-477 -494 0
-477 -495 0
-478 -479 0
-478 -480 0
-478 -481 0
-478 -482 0
-478 -483 0
-478 -484 0
-478 -485 0
-478 -486 0
-478 -487 0
-478 -488 0
-478 -489 0
-478 -490 0
-478 -491 0
-478 -492 0
-478 -493 0
-478 -494 0
-478 -495 0
-479 -480 0
-479 -481 0
-479 -482 0
-479 -483 0
-479 -484 0
-479 -485 0
-479 -486 0
-479 -487 0
-479 -488 0
-479 -489 0
-479 -490 0
-479 -491 0
-479 -492 0
-479 -493 0
-479 -494 0
-479 -495 0
-480 -481 0
-480 -482 0
-480 -483 0
-480 -484 0
-480 -485 0
-480 -486 0
-480 -487 0
-480 -488 0
-480 -489 0
-480 -490 0
-480 -491 0
-480 -492 0
-480 -493 0
-480 -494 0
-480 -495 0
-481 -482 0
-481 -483 0
-481 -484 0
-481 -485 0
-481 -486 0
-481 -487 0
-481 -488 0
-481 -489 0
-481 -490 0
-481 -491 0
-481 -492 0
-481 -493 0
-481 -494 0
-481 -495 0
-482 -483 0
-482 -484 0
-482 -485 0
-482 -486 0
-482 -487 0
-482 -488 0
-482 -489 0
-482 -490 0
-482 -491 0
-482 -492 0
-482 -493 0
-482 -494 0
-482 -495 0
-483 -484 0
-483 -485 0
-483 -486 0
-483 -487 0
-483 -488 0
-483 -489 0
-483 -490 0
-483 -491 0
-483 -492 0
-483 -493 0
-483 -494 0
-483 -495 0
-484 -485 0
-484 -486 0
-484 -487 0
-484 -488 0
-484 -489 0
-484 -490 0
-484 -491 0
-484 -492 0
-484 -493 0
-484 -494 0
-484 -495 0
-485 -486 0
-485 -487 0
-485 -488 0
-485 -489 0
-485 -490 0
-485 -491 0
-485 -492 0
-485 -493 0
-485 -494 0
-485 -495 0
-486 -487 0
-486 -488 0
-486 -489 0
-486 -490 0
-486 -491 0
-486 -492 0
-486 -493 0
-486 -494 0
-486 -495 0
-487 -488 0
-487 -489 0
-487 -490 0
-487 -491 0
-487 -492 0
-487 -493 0
-487 -494 0
-487 -495 0
-488 -489 0
-488 -490 0
-488 -491 0
-488 -492 0
-488 -493 0
-488 -494 0
-488 -495 0
-489 -490 0
-489 -491 0
-489 -492 0
-489 -493 0
-489 -494 0
-489 -495 0
-490 -491 0
-490 -492 0
-490 -493 0
-490 -494 0
-490 -495 0
-491 -492 0
-491 -493 0
-491 -494 0
-491 -495 0
-492 -493 0
-492 -494 0
-492 -495 0
-493 -494 0
-493 -495 0
-494 -495 0
-496 -497 0
-496 -498 0
-496 -499 0
-496 -500 0
-496 -501 0
-496 -502 0
-496 -503 0
-496 -504 0
-496 -505 0
-496 -506 0
-496 -507 0
-496 -508 0
-496 -509 0
-496 -510 0
-496 -511 0
-496 -512 0
-496 -513 0
-496 -514 0
-496 -515 0
-496 -516 0
-496 -517 0
-496 -518 0
-496 -519 0
-496 -520 0
-496 -521 0
-496 -522 0
-496 -523 0
-496 -524 0
-496 -525 0
-497 -498 0
-497 -499 0
-497 -500 0
-497 -501 0
-497 -502 0
-497 -503 0
-497 -504 0
-497 -505 0
-497 -506 0
-497 -507 0
-497 -508 0
-497 -509 0
-497 -510 0
-497 -511 0
-497 -512 0
-497 -513 0
-497 -514 0
-497 -515 0
-497 -516 0
-497 -517 0
-497 -518 0
-497 -519 0
-497 -520 0
-497 -521 0
-497 -522 0
-497 -523 0
-497 -524 0
-497 -525 0
-498 -499 0
-498 -500 0
-498 -501 0
-498 -502 0
-498 -503 0
-498 -504 0
-498 -505 0
-498 -506 0
-498 -507 0
-498 -508 0
-498 -509 0
-498 -510 0
-498 -511 0
-498 -512 0
-498 -513 0
-498 -514 0
-498 -515 0
-498 -516 0
-498 -517 0
-498 -518 0
-498 -519 0
-498 -520 0
-498 -521 0
-498 -522 0
-498 -523 0
-498 -524 0
-498 -525 0
-499 -500 0
-499 -501 0
-499 -502 0
-499 -503 0
-499 -504 0
-499 -505 0
-499 -506 0
-499 -507 0
-499 -508 0
-499 -509 0
-499 -510 0
-499 -511 0
-499 -512 0
-499 -513 0
-499 -514 0
-499 -515 0
-499 -516 0
-499 -517 0
-499 -518 0
-499 -519 0
-499 -520 0
-499 -521 0
-499 -522 0
-499 -523 0
-499 -524 0
-499 -525 0
-500 -501 0
-500 -502 0
-500 -503 0
-500 -504 0
-500 -505 0
-500 -506 0
-500 -507 0
-500 -508 0
-500 -509 0
-500 -510 0
-500 -511 0
-500 -512 0
-500 -513 0
-500 -514 0
-500 -515 0
-500 -516 0
-500 -517 0
-500 -518 0
-500 -519 0
-500 -520 0
-500 -521 0
-500 -522 0
-500 -523 0
-500 -524 0
-500 -525 0
-501 -502 0
-501 -503 0
-501 -504 0
-501 -505 0
-501 -506 0
-501 -507 0
-501 -508 0
-501 -509 0
-501 -510 0
-501 -511 0
-501 -512 0
-501 -513 0
-501 -514 0
-501 -515 0
-501 -516 0
-501 -517 0
-501 -518 0
-501 -519 0
-501 -520 0
-501 -521 0
-501 -522 0
-501 -523 0
-501 -524 0
-501 -525 0
-502 -503 0
-502 -504 0
-502 -505 0
-502 -506 0
-502 -507 0
-502 -508 0
-502 -509 0
-502 -510 0
-502 -511 0
-502 -512 0
-502 -513 0
-502 -514 0
-502 -515 0
-502 -516 0
-502 -517 0
-502 -518 0
-502 -519 0
-502 -520 0
-502 -521 0
-502 -522 0
-502 -523 0
-502 -524 0
-502 -525 0
-503 -504 0
-503 -505 0
-503 -506 0
-503 -507 0
-503 -508 0
-503 -509 0
-503 -510 0
-503 -511 0
-503 -512 0
-503 -513 0
-503 -514 0
-503 -515 0
-503 -516 0
-503 -517 0
-503 -518 0
-503 -519 0
-503 -520 0
-503 -521 0
-503 -522 0
-503 -523 0
-503 -524 0
-503 -525 0
-504 -505 0
-504 -506 0
-504 -507 0
-504 -508 0
-504 -509 0
-504 -510 0
-504 -511 0
-504 -512 0
-504 -513 0
-504 -514 0
-504 -515 0
-504 -516 0
-504 -517 0
-504 -518 0
-504 -519 0
-504 -520 0
-504 -521 0
-504 -522 0
-504 -523 0
-504 -524 0
-504 -525 0
-505 -506 0
-505 -507 0
-505 -508 0
-505 -509 0
-505 -510 0
-505 -511 0
-505 -512 0
-505 -513 0
-505 -514 0
-505 -515 0
-505 -516 0
-505 -517 0
-505 -518 0
-505 -519 0
-505 -520 0
-505 -521 0
-505 -522 0
-505 -523 0
-505 -524 0
-505 -525 0
-506 -507 0
-506 -508 0
-506 -509 0
-506 -510 0
-506 -511 0
-506 -512 0
-506 -513 0
-506 -514 0
-506 -515 0
-506 -516 0
-506 -517 0
-506 -518 0
-506 -519 0
-506 -520 0
-506 -521 0
-506 -522 0
-506 -523 0
-506 -524 0
-506 -525 0
-507 -508 0
-507 -509 0
-507 -510 0
-507 -511 0
-507 -512 0
-507 -513 0
-507 -514 0
-507 -515 0
-507 -516 0
-507 -517 0
-507 -518 0
-507 -519 0
-507 -520 0
-507 -521 0
-507 -522 0
-507 -523 0
-507 -524 0
-507 -525 0
-508 -509 0
-508 -510 0
-508 -511 0
-508 -512 0
-508 -513 0
-508 -514 0
-508 -515 0
-508 -516 0
-508 -517 0
-508 -518 0
-508 -519 0
-508 -520 0
-508 -521 0
-508 -522 0
-508 -523 0
-508 -524 0
-508 -525 0
-509 -510 0
-509 -511 0
-509 -512 0
-509 -513 0
-509 -514 0
-509 -515 0
-509 -516 0
-509 -517 0
-509 -518 0
-509 -519 0
-509 -520 0
-509 -521 0
-509 -522 0
-509 -523 0
-509 -524 0
-509 -525 0
-510 -511 0
-510 -512 0
-510 -513 0
-510 -514 0
-510 -515 0
-510 -516 0
-510 -517 0
-510 -518 0
-510 -519 0
-510 -520 0
-510 -521 0
-510 -522 0
-510 -523 0
-510 -524 0
-510 -525 0
-511 -512 0
-511 -513 0
-511 -514 0
-511 -515 0
-511 -516 0
-511 -517 0
-511 -518 0
-511 -519 0
-511 -520 0
-511 -521 0
-511 -522 0
-511 -523 0
-511 -524 0
-511 -525 0
-512 -513 0
-512 -514 0
-512 -515 0
-512 -516 0
-512 -517 0
-512 -518 0
-512 -519 0
-512 -520 0
-512 -521 0
-512 -522 0
-512 -523 0
-512 -524 0
-512 -525 0
-513 -514 0
-513 -515 0
-513 -516 0
-513 -517 0
-513 -518 0
-513 -519 0
-513 -520 0
-513 -521 0
-513 -522 0
-513 -523 0
-513 -524 0
-513 -525 0
-514 -515 0
-514 -516 0
-514 -517 0
-514 -518 0
-514 -519 0
-514 -520 0
-514 -521 0
-514 -522 0
-514 -523 0
-514 -524 0
-514 -525 0
-515 -516 0
-515 -517 0
-515 -518 0
-515 -519 0
-515 -520 0
-515 -521 0
-515 -522 0
-515 -523 0
-515 -524 0
-515 -525 0
-516 -517 0
-516 -518 0
-516 -519 0
-516 -520 0
-516 -521 0
-516 -522 0
-516 -523 0
-516 -524 0
-516 -525 0
-517 -518 0
-517 -519 0
-517 -520 0
-517 -521 0
-517 -522 0
-517 -523 0
-517 -524 0
-517 -525 0
-518 -519 0
-518 -520 0
-518 -521 0
-518 -522 0
-518 -523 0
-518 -524 0
-518 -525 0
-519 -520 0
-519 -521 0
-519 -522 0
-519 -523 0
-519 -524 0
-519 -525 0
-520 -521 0
-520 -522 0
-520 -523 0
-520 -524 0
-520 -525 0
-521 -522 0
-521 -523 0
-521 -524 0
-521 -525 0
-522 -523 0
-522 -524 0
-522 -525 0
-523 -524 0
-523 -525 0
-524 -525 0
-526 -527 0
-526 -528 0
-526 -529 0
-526 -530 0
-526 -531 0
-526 -532 0
-526 -533 0
-526 -534 0
-526 -535 0
-526 -536 0
-526 -537 0
-526 -538 0
-526 -539 0
-526 -540 0
-526 -541 0
-526 -542 0
-526 -543 0
-526 -544 0
-526 -545 0
-526 -546 0
-526 -547 0
-526 -548 0
-526 -549 0
-526 -550 0
-526 -551 0
-526 -552 0
-526 -553 0
-526 -554 0
-526 -555 0
-527 -528 0
-527 -529 0
-527 -530 0
-527 -531 0
-527 -532 0
-527 -533 0
-527 -534 0
-527 -535 0
-527 -536 0
-527 -537 0
-527 -538 0
-527 -539 0
-527 -540 0
-527 -541 0
-527 -542 0
-527 -543 0
-527 -544 0
-527 -545 0
-527 -546 0
-527 -547 0
-527 -548 0
-527 -549 0
-527 -550 0
-527 -551 0
-527 -552 0
-527 -553 0
-527 -554 0
-527 -555 0
-528 -529 0
-528 -530 0
-528 -531 0
-528 -532 0
-528 -533 0
-528 -534 0
-528 -535 0
-528 -536 0
-528 -537 0
-528 -538 0
-528 -539 0
-528 -540 0
-528 -541 0
-528 -542 0
-528 -543 0
-528 -544 0
-528 -545 0
-528 -546 0
-528 -547 0
-528 -548 0
-528 -549 0
-528 -550 0
-528 -551 0
-528 -552 0
-528 -553 0
-528 -554 0
-528 -555 0
-529 -530 0
-529 -531 0
-529 -532 0
-529 -533 0
-529 -534 0
-529 -535 0
-529 -536 0
-529 -537 0
-529 -538 0
-529 -539 0
-529 -540 0
-529 -541 0
-529 -542 0
-529 -543 0
-529 -544 0
-529 -545 0
-529 -546 0
-529 -547 0
-529 -548 0
-529 -549 0
-529 -550 0
-529 -551 0
-529 -552 0
-529 -553 0
-529 -554 0
-529 -555 0
-530 -531 0
-530 -532 0
-530 -533 0
-530 -534 0
-530 -535 0
-530 -536 0
-530 -537 0
-530 -538 0
-530 -539 0
-530 -540 0
-530 -541 0
-530 -542 0
-530 -543 0
-530 -544 0
-530 -545 0
-530 -546 0
-530 -547 0
-530 -548 0
-530 -549 0
-530 -550 0
-530 -551 0
-530 -552 0
-530 -553 0
-530 -554 0
-530 -555 0
-531 -532 0
-531 -533 0
-531 -534 0
-531 -535 0
-531 -536 0
-531 -537 0
-531 -538 0
-531 -539 0
-531 -540 0
-531 -541 0
-531 -542 0
-531 -543 0
-531 -544 0
-531 -545 0
-531 -546 0
-531 -547 0
-531 -548 0
-531 -549 0
-531 -550 0
-531 -551 0
-531 -552 0
-531 -553 0
-531 -554 0
-531 -555 0
-532 -533 0
-532 -534 0
-532 -535 0
-532 -536 0
-532 -537 0
-532 -538 0
-532 -539 0
-532 -540 0
-532 -541 0
-532 -542 0
-532 -543 0
-532 -544 0
-532 -545 0
-532 -546 0
-532 -547 0
-532 -548 0
-532 -549 0
-532 -550 0
-532 -551 0
-532 -552 0
-532 -553 0
-532 -554 0
-532 -555 0
-533 -534 0
-533 -535 0
-533 -536 0
-533 -537 0
-533 -538 0
-533 -539 0
-533 -540 0
-533 -541 0
-533 -542 0
-533 -543 0
-533 -544 0
-533 -545 0
-533 -546 0
-533 -547 0
-533 -548 0
-533 -549 0
-533 -550 0
-533 -551 0
-533 -552 0
-533 -553 0
-533 -554 0
-533 -555 0
-534 -535 0
-534 -536 0
-534 -537 0
-534 -538 0
-534 -539 0
-534 -540 0
-534 -541 0
-534 -542 0
-534 -543 0
-534 -544 0
-534 -545 0
-534 -546 0
-534 -547 0
-534 -548 0
-534 -549 0
-534 -550 0
-534 -551 0
-534 -552 0
-534 -553 0
-534 -554 0
-534 -555 0
-535 -536 0
-535 -537 0
-535 -538 0
-535 -539 0
-535 -540 0
-535 -541 0
-535 -542 0
-535 -543 0
-535 -544 0
-535 -545 0
-535 -546 0
-535 -547 0
-535 -548 0
-535 -549 0
-535 -550 0
-535 -551 0
-535 -552 0
-535 -553 0
-535 -554 0
-535 -555 0
-536 -537 0
-536 -538 0
-536 -539 0
-536 -540 0
-536 -541 0
-536 -542 0
-536 -543 0
-536 -544 0
-536 -545 0
-536 -546 0
-536 -547 0
-536 -548 0
-536 -549 0
-536 -550 0
-536 -551 0
-536 -552 0
-536 -553 0
-536 -554 0
-536 -555 0
-537 -538 0
-537 -539 0
-537 -540 0
-537 -541 0
-537 -542 0
-537 -543 0
-537 -544 0
-537 -545 0
-537 -546 0
-537 -547 0
-537 -548 0
-537 -549 0
-537 -550 0
-537 -551 0
-537 -552 0
-537 -553 0
-537 -554 0
-537 -555 0
-538 -539 0
-538 -540 0
-538 -541 0
-538 -542 0
-538 -543 0
-538 -544 0
-538 -545 0
-538 -546 0
-538 -547 0
-538 -548 0
-538 -549 0
-538 -550 0
-538 -551 0
-538 -552 0
-538 -553 0
-538 -554 0
-538 -555 0
-539 -540 0
-539 -541 0
-539 -542 0
-539 -543 0
-539 -544 0
-539 -545 0
-539 -546 0
-539 -547 0
-539 -548 0
-539 -549 0
-539 -550 0
-539 -551 0
-539 -552 0
-539 -553 0
-539 -554 0
-539 -555 0
-540 -541 0
-540 -542 0
-540 -543 0
-540 -544 0
-540 -545 0
-540 -546 0
-540 -547 0
-540 -548 0
-540 -549 0
-540 -550 0
-540 -551 0
-540 -552 0
-540 -553 0
-540 -554 0
-540 -555 0
-541 -542 0
-541 -543 0
-541 -544 0
-541 -545 0
-541 -546 0
-541 -547 0
-541 -548 0
-541 -549 0
-541 -550 0
-541 -551 0
-541 -552 0
-541 -553 0
-541 -554 0
-541 -555 0
-542 -543 0
-542 -544 0
-542 -545 0
-542 -546 0
-542 -547 0
-542 -548 0
-542 -549 0
-542 -550 0
-542 -551 0
-542 -552 0
-542 -553 0
-542 -554 0
-542 -555 0
-543 -544 0
-543 -545 0
-543 -546 0
-543 -547 0
-543 -548 0
-543 -549 0
-543 -550 0
-543 -551 0
-543 -552 0
-543 -553 0
-543 -554 0
-543 -555 0
-544 -545 0
-544 -546 0
-544 -547 0
-544 -548 0
-544 -549 0
-544 -550 0
-544 -551 0
-544 -552 0
-544 -553 0
-544 -554 0
-544 -555 0
-545 -546 0
-545 -547 0
-545 -548 0
-545 -549 0
-545 -550 0
-545 -551 0
-545 -552 0
-545 -553 0
-545 -554 0
-545 -555 0
-546 -547 0
-546 -548 0
-546 -549 0
-546 -550 0
-546 -551 0
-546 -552 0
-546 -553 0
-546 -554 0
-546 -555 0
-547 -548 0
-547 -549 0
-547 -550 0
-547 -551 0
-547 -552 0
-547 -553 0
-547 -554 0
-547 -555 0
-548 -549 0
-548 -550 0
-548 -551 0
-548 -552 0
-548 -553 0
-548 -554 0
-548 -555 0
-549 -550 0
-549 -551 0
-549 -552 0
-549 -553 0
-549 -554 0
-549 -555 0
-550 -551 0
-550 -552 0
-550 -553 0
-550 -554 0
-550 -555 0
-551 -552 0
-551 -553 0
-551 -554 0
-551 -555 0
-552 -553 0
-552 -554 0
-552 -555 0
-553 -554 0
-553 -555 0
-554 -555 0
-556 -557 0
-556 -558 0
-556 -559 0
-556 -560 0
-556 -561 0
-556 -562 0
-556 -563 0
-556 -564 0
-556 -565 0
-556 -566 0
-556 -567 0
-556 -568 0
-556 -569 0
-556 -570 0
-556 -571 0
-556 -572 0
-556 -573 0
-556 -574 0
-556 -575 0
-556 -576 0
-556 -577 0
-556 -578 0
-556 -579 0
-556 -580 0
-556 -581 0
-556 -582 0
-556 -583 0
-556 -584 0
-556 -585 0
-557 -558 0
-557 -559 0
-557 -560 0
-557 -561 0
-557 -562 0
-557 -563 0
-557 -564 0
-557 -565 0
-557 -566 0
-557 -567 0
-557 -568 0
-557 -569 0
-557 -570 0
-557 -571 0
-557 -572 0
-557 -573 0
-557 -574 0
-557 -575 0
-557 -576 0
-557 -577 0
-557 -578 0
-557 -579 0
-557 -580 0
-557 -581 0
-557 -582 0
-557 -583 0
-557 -584 0
-557 -585 0
-558 -559 0
-558 -560 0
-558 -561 0
-558 -562 0
-558 -563 0
-558 -564 0
-558 -565 0
-558 -566 0
-558 -567 0
-558 -568 0
-558 -569 0
-558 -570 0
-558 -571 0
-558 -572 0
-558 -573 0
-558 -574 0
-558 -575 0
-558 -576 0
-558 -577 0
-558 -578 0
-558 -579 0
-558 -580 0
-558 -581 0
-558 -582 0
-558 -583 0
-558 -584 0
-558 -585 0
-559 -560 0
-559 -561 0
-559 -562 0
-559 -563 0
-559 -564 0
-559 -565 0
-559 -566 0
-559 -567 0
-559 -568 0
-559 -569 0
-559 -570 0
-559 -571 0
-559 -572 0
-559 -573 0
-559 -574 0
-559 -575 0
-559 -576 0
-559 -577 0
-559 -578 0
-559 -579 0
-559 -580 0
-559 -581 0
-559 -582 0
-559 -583 0
-559 -584 0
-559 -585 0
-560 -561 0
-560 -562 0
-560 -563 0
-560 -564 0
-560 -565 0
-560 -566 0
-560 -567 0
-560 -568 0
-560 -569 0
-560 -570 0
-560 -571 0
-560 -572 0
-560 -573 0
-560 -574 0
-560 -575 0
-560 -576 0
-560 -577 0
-560 -578 0
-560 -579 0
-560 -580 0
-560 -581 0
-560 -582 0
-560 -583 0
-560 -584 0
-560 -585 0
-561 -562 0
-561 -563 0
-561 -564 0
-561 -565 0
-561 -566 0
-561 -567 0
-561 -568 0
-561 -569 0
-561 -570 0
-561 -571 0
-561 -572 0
-561 -573 0
-561 -574 0
-561 -575 0
-561 -576 0
-561 -577 0
-561 -578 0
-561 -579 0
-561 -580 0
-561 -581 0
-561 -582 0
-561 -583 0
-561 -584 0
-561 -585 0
-562 -563 0
-562 -564 0
-562 -565 0
-562 -566 0
-562 -567 0
-562 -568 0
-562 -569 0
-562 -570 0
-562 -571 0
-562 -572 0
-562 -573 0
-562 -574 0
-562 -575 0
-562 -576 0
-562 -577 0
-562 -578 0
-562 -579 0
-562 -580 0
-562 -581 0
-562 -582 0
-562 -583 0
-562 -584 0
-562 -585 0
-563 -564 0
-563 -565 0
-563 -566 0
-563 -567 0
-563 -568 0
-563 -569 0
-563 -570 0
-563 -571 0
-563 -572 0
-563 -573 0
-563 -574 0
-563 -575 0
-563 -576 0
-563 -577 0
-563 -578 0
-563 -579 0
-563 -580 0
-563 -581 0
-563 -582 0
-563 -583 0
-563 -584 0
-563 -585 0
-564 -565 0
-564 -566 0
-564 -567 0
-564 -568 0
-564 -569 0
-564 -570 0
-564 -571 0
-564 -572 0
-564 -573 0
-564 -574 0
-564 -575 0
-564 -576 0
-564 -577 0
-564 -578 0
-564 -579 0
-564 -580 0
-564 -581 0
-564 -582 0
-564 -583 0
-564 -584 0
-564 -585 0
-565 -566 0
-565 -567 0
-565 -568 0
-565 -569 0
-565 -570 0
-565 -571 0
-565 -572 0
-565 -573 0
-565 -574 0
-565 -575 0
-565 -576 0
-565 -577 0
-565 -578 0
-565 -579 0
-565 -580 0
-565 -581 0
-565 -582 0
-565 -583 0
-565 -584 0
-565 -585 0
-566 -567 0
-566 -568 0
-566 -569 0
-566 -570 0
-566 -571 0
-566 -572 0
-566 -573 0
-566 -574 0
-566 -575 0
-566 -576 0
-566 -577 0
-566 -578 0
-566 -579 0
-566 -580 0
-566 -581 0
-566 -582 0
-566 -583 0
-566 -584 0
-566 -585 0
-567 -568 0
-567 -569 0
-567 -570 0
-567 -571 0
-567 -572 0
-567 -573 0
-567 -574 0
-567 -575 0
-567 -576 0
-567 -577 0
-567 -578 0
-567 -579 0
-567 -580 0
-567 -581 0
-567 -582 0
-567 -583 0
-567 -584 0
-567 -585 0
-568 -569 0
-568 -570 0
-568 -571 0
-568 -572 0
-568 -573 0
-568 -574 0
-568 -575 0
-568 -576 0
-568 -577 0
-568 -578 0
-568 -579 0
-568 -580 0
-568 -581 0
-568 -582 0
-568 -583 0
-568 -584 0
-568 -585 0
-569 -570 0
-569 -571 0
-569 -572 0
-569 -573 0
-569 -574 0
-569 -575 0
-569 -576 0
-569 -577 0
-569 -578 0
-569 -579 0
-569 -580 0
-569 -581 0
-569 -582 0
-569 -583 0
-569 -584 0
-569 -585 0
-570 -571 0
-570 -572 0
-570 -573 0
-570 -574 0
-570 -575 0
-570 -576 0
-570 -577 0
-570 -578 0
-570 -579 0
-570 -580 0
-570 -581 0
-570 -582 0
-570 -583 0
-570 -584 0
-570 -585 0
-571 -572 0
-571 -573 0
-571 -574 0
-571 -575 0
-571 -576 0
-571 -577 0
-571 -578 0
-571 -579 0
-571 -580 0
-571 -581 0
-571 -582 0
-571 -583 0
-571 -584 0
-571 -585 0
-572 -573 0
-572 -574 0
-572 -575 0
-572 -576 0
-572 -577 0
-572 -578 0
-572 -579 0
-572 -580 0
-572 -581 0
-572 -582 0
-572 -583 0
-572 -584 0
-572 -585 0
-573 -574 0
-573 -575 0
-573 -576 0
-573 -577 0
-573 -578 0
-573 -579 0
-573 -580 0
-573 -581 0
-573 -582 0
-573 -583 0
-573 -584 0
-573 -585 0
-574 -575 0
-574 -576 0
-574 -577 0
-574 -578 0
-574 -579 0
-574 -580 0
-574 -581 0
-574 -582 0
-574 -583 0
-574 -584 0
-574 -585 0
-575 -576 0
-575 -577 0
-575 -578 0
-575 -579 0
-575 -580 0
-575 -581 0
-575 -582 0
-575 -583 0
-575 -584 0
-575 -585 0
-576 -577 0
-576 -578 0
-576 -579 0
-576 -580 0
-576 -581 0
-576 -582 0
-576 -583 0
-576 -584 0
-576 -585 0
-577 -578 0
-577 -579 0
-577 -580 0
-577 -581 0
-577 -582 0
-577 -583 0
-577 -584 0
-577 -585 0
-578 -579 0
-578 -580 0
-578 -581 0
-578 -582 0
-578 -583 0
-578 -584 0
-578 -585 0
-579 -580 0
-579 -581 0
-579 -582 0
-579 -583 0
-579 -584 0
-579 -585 0
-580 -581 0
-580 -582 0
-580 -583 0
-580 -584 0
-580 -585 0
-581 -582 0
-581 -583 0
-581 -584 0
-581 -585 0
-582 -583 0
-582 -584 0
-582 -585 0
-583 -584 0
-583 -585 0
-584 -585 0
-586 -587 0
-586 -588 0
-586 -589 0
-586 -590 0
-586 -591 0
-586 -592 0
-586 -593 0
-586 -594 0
-586 -595 0
-586 -596 0
-586 -597 0
-586 -598 0
-586 -599 0
-586 -600 0
-586 -601 0
-586 -602 0
-586 -603 0
-586 -604 0
-586 -605 0
-586 -606 0
-586 -607 0
-586 -608 0
-586 -609 0
-586 -610 0
-586 -611 0
-586 -612 0
-586 -613 0
-586 -614 0
-586 -615 0
-587 -588 0
-587 -589 0
-587 -590 0
-587 -591 0
-587 -592 0
-587 -593 0
-587 -594 0
-587 -595 0
-587 -596 0
-587 -597 0
-587 -598 0
-587 -599 0
-587 -600 0
-587 -601 0
-587 -602 0
-587 -603 0
-587 -604 0
-587 -605 0
-587 -606 0
-587 -607 0
-587 -608 0
-587 -609 0
-587 -610 0
-587 -611 0
-587 -612 0
-587 -613 0
-587 -614 0
-587 -615 0
-588 -589 0
-588 -590 0
-588 -591 0
-588 -592 0
-588 -593 0
-588 -594 0
-588 -595 0
-588 -596 0
-588 -597 0
-588 -598 0
-588 -599 0
-588 -600 0
-588 -601 0
-588 -602 0
-588 -603 0
-588 -604 0
-588 -605 0
-588 -606 0
-588 -607 0
-588 -608 0
-588 -609 0
-588 -610 0
-588 -611 0
-588 -612 0
-588 -613 0
-588 -614 0
-588 -615 0
-589 -590 0
-589 -591 0
-589 -592 0
-589 -593 0
-589 -594 0
-589 -595 0
-589 -596 0
-589 -597 0
-589 -598 0
-589 -599 0
-589 -600 0
-589 -601 0
-589 -602 0
-589 -603 0
-589 -604 0
-589 -605 0
-589 -606 0
-589 -607 0
-589 -608 0
-589 -609 0
-589 -610 0
-589 -611 0
-589 -612 0
-589 -613 0
-589 -614 0
-589 -615 0
-590 -591 0
-590 -592 0
-590 -593 0
-590 -594 0
-590 -595 0
-590 -596 0
-590 -597 0
-590 -598 0
-590 -599 0
-590 -600 0
-590 -601 0
-590 -602 0
-590 -603 0
-590 -604 0
-590 -605 0
-590 -606 0
-590 -607 0
-590 -608 0
-590 -609 0
-590 -610 0
-590 -611 0
-590 -612 0
-590 -613 0
-590 -614 0
-590 -615 0
-591 -592 0
-591 -593 0
-591 -594 0
-591 -595 0
-591 -596 0
-591 -597 0
-591 -598 0
-591 -599 0
-591 -600 0
-591 -601 0
-591 -602 0
-591 -603 0
-591 -604 0
-591 -605 0
-591 -606 0
-591 -607 0
-591 -608 0
-591 -609 0
-591 -610 0
-591 -611 0
-591 -612 0
-591 -613 0
-591 -614 0
-591 -615 0
-592 -593 0
-592 -594 0
-592 -595 0
-592 -596 0
-592 -597 0
-592 -598 0
-592 -599 0
-592 -600 0
-592 -601 0
-592 -602 0
-592 -603 0
-592 -604 0
-592 -605 0
-592 -606 0
-592 -607 0
-592 -608 0
-592 -609 0
-592 -610 0
-592 -611 0
-592 -612 0
-592 -613 0
-592 -614 0
-592 -615 0
-593 -594 0
-593 -595 0
-593 -596 0
-593 -597 0
-593 -598 0
-593 -599 0
-593 -600 0
-593 -601 0
-593 -602 0
-593 -603 0
-593 -604 0
-593 -605 0
-593 -606 0
-593 -607 0
-593 -608 0
-593 -609 0
-593 -610 0
-593 -611 0
-593 -612 0
-593 -613 0
-593 -614 0
-593 -615 0
-594 -595 0
-594 -596 0
-594 -597 0
-594 -598 0
-594 -599 0
-594 -600 0
-594 -601 0
-594 -602 0
-594 -603 0
-594 -604 0
-594 -605 0
-594 -606 0
-594 -607 0
-594 -608 0
-594 -609 0
-594 -610 0
-594 -611 0
-594 -612 0
-594 -613 0
-594 -614 0
-594 -615 0
-595 -596 0
-595 -597 0
-595 -598 0
-595 -599 0
-595 -600 0
-595 -601 0
-595 -602 0
-595 -603 0
-595 -604 0
-595 -605 0
-595 -606 0
-595 -607 0
-595 -608 0
-595 -609 0
-595 -610 0
-595 -611 0
-595 -612 0
-595 -613 0
-595 -614 0
-595 -615 0
-596 -597 0
-596 -598 0
-596 -599 0
-596 -600 0
-596 -601 0
-596 -602 0
-596 -603 0
-596 -604 0
-596 -605 0
-596 -606 0
-596 -607 0
-596 -608 0
-596 -609 0
-596 -610 0
-596 -611 0
-596 -612 0
-596 -613 0
-596 -614 0
-596 -615 0
-597 -598 0
-597 -599 0
-597 -600 0
-597 -601 0
-597 -602 0
-597 -603 0
-597 -604 0
-597 -605 0
-597 -606 0
-597 -607 0
-597 -608 0
-597 -609 0
-597 -610 0
-597 -611 0
-597 -612 0
-597 -613 0
-597 -614 0
-597 -615 0
-598 -599 0
-598 -600 0
-598 -601 0
-598 -602 0
-598 -603 0
-598 -604 0
-598 -605 0
-598 -606 0
-598 -607 0
-598 -608 0
-598 -609 0
-598 -610 0
-598 -611 0
-598 -612 0
-598 -613 0
-598 -614 0
-598 -615 0
-599 -600 0
-599 -601 0
-599 -602 0
-599 -603 0
-599 -604 0
-599 -605 0
-599 -606 0
-599 -607 0
-599 -608 0
-599 -609 0
-599 -610 0
-599 -611 0
-599 -612 0
-599 -613 0
-599 -614 0
-599 -615 0
-600 -601 0
-600 -602 0
-600 -603 0
-600 -604 0
-600 -605 0
-600 -606 0
-600 -607 0
-600 -608 0
-600 -609 0
-600 -610 0
-600 -611 0
-600 -612 0
-600 -613 0
-600 -614 0
-600 -615 0
-601 -602 0
-601 -603 0
-601 -604 0
-601 -605 0
-601 -606 0
-601 -607 0
-601 -608 0
-601 -609 0
-601 -610 0
-601 -611 0
-601 -612 0
-601 -613 0
-601 -614 0
-601 -615 0
-602 -603 0
-602 -604 0
-602 -605 0
-602 -606 0
-602 -607 0
-602 -608 0
-602 -609 0
-602 -610 0
-602 -611 0
-602 -612 0
-602 -613 0
-602 -614 0
-602 -615 0
-603 -604 0
-603 -605 0
-603 -606 0
-603 -607 0
-603 -608 0
-603 -609 0
-603 -610 0
-603 -611 0
-603 -612 0
-603 -613 0
-603 -614 0
-603 -615 0
-604 -605 0
-604 -606 0
-604 -607 0
-604 -608 0
-604 -609 0
-604 -610 0
-604 -611 0
-604 -612 0
-604 -613 0
-604 -614 0
-604 -615 0
-605 -606 0
-605 -607 0
-605 -608 0
-605 -609 0
-605 -610 0
-605 -611 0
-605 -612 0
-605 -613 0
-605 -614 0
-605 -615 0
-606 -607 0
-606 -608 0
-606 -609 0
-606 -610 0
-606 -611 0
-606 -612 0
-606 -613 0
-606 -614 0
-606 -615 0
-607 -608 0
-607 -609 0
-607 -610 0
-607 -611 0
-607 -612 0
-607 -613 0
-607 -614 0
-607 -615 0
-608 -609 0
-608 -610 0
-608 -611 0
-608 -612 0
-608 -613 0
-608 -614 0
-608 -615 0
-609 -610 0
-609 -611 0
-609 -612 0
-609 -613 0
-609 -614 0
-609 -615 0
-610 -611 0
-610 -612 0
-610 -613 0
-610 -614 0
-610 -615 0
-611 -612 0
-611 -613 0
-611 -614 0
-611 -615 0
-612 -613 0
-612 -614 0
-612 -615 0
-613 -614 0
-613 -615 0
-614 -615 0
-436 -466 0
-436 -496 0
-436 -526 0
-436 -556 0
-436 -586 0
-466 -496 0
-466 -526 0
-466 -556 0
-466 -586 0
-496 -526 0
-496 -556 0
-496 -586 0
-526 -556 0
-526 -586 0
-556 -586 0
-437 -467 0
-437 -497 0
-437 -527 0
-437 -557 0
-437 -587 0
-467 -497 0
-467 -527 0
-467 -557 0
-467 -587 0
-497 -527 0
-497 -557 0
-497 -587 0
-527 -557 0
-527 -587 0
-557 -587 0
-438 -468 0
-438 -498 0
-438 -528 0
-438 -558 0
-438 -588 0
-468 -498 0
-468 -528 0
-468 -558 0
-468 -588 0
-498 -528 0
-498 -558 0
-498 -588 0
-528 -558 0
-528 -588 0
-558 -588 0
-439 -469 0
-439 -499 0
-439 -529 0
-439 -559 0
-439 -589 0
-469 -499 0
-469 -529 0
-469 -559 0
-469 -589 0
-499 -529 0
-499 -559 0
-499 -589 0
-529 -559 0
-529 -589 0
-559 -589 0
-440 -470 0
-440 -500 0
-440 -530 0
-440 -560 0
-440 -590 0
-470 -500 0
-470 -530 0
-470 -560 0
-470 -590 0
-500 -530 0
-500 -560 0
-500 -590 0
-530 -560 0
-530 -590 0
-560 -590 0
-441 -471 0
-441 -501 0
-441 -531 0
-441 -561 0
-441 -591 0
-471 -501 0
-471 -531 0
-471 -561 0
-471 -591 0
-501 -531 0
-501 -561 0
-501 -591 0
-531 -561 0
-531 -591 0
-561 -591 0
-442 -472 0
-442 -502 0
-442 -532 0
-442 -562 0
-442 -592 0
-472 -502 0
-472 -532 0
-472 -562 0
-472 -592 0
-502 -532 0
-502 -562 0
-502 -592 0
-532 -562 0
-532 -592 0
-562 -592 0
-443 -473 0
-443 -503 0
-443 -533 0
-443 -563 0
-443 -593 0
-473 -503 0
-473 -533 0
-473 -563 0
-473 -593 0
-503 -533 0
-503 -563 0
-503 -593 0
-533 -563 0
-533 -593 0
-563 -593 0
-444 -474 0
-444 -504 0
-444 -534 0
-444 -564 0
-444 -594 0
-474 -504 0
-474 -534 0
-474 -564 0
-474 -594 0
-504 -534 0
-504 -564 0
-504 -594 0
-534 -564 0
-534 -594 0
-564 -594 0
-445 -475 0
-445 -505 0
-445 -535 0
-445 -565 0
-445 -595 0
-475 -505 0
-475 -535 0
-475 -565 0
-475 -595 0
-505 -535 0
-505 -565 0
-505 -595 0
-535 -565 0
-535 -595 0
-565 -595 0
-446 -476 0
-446 -506 0
-446 -536 0
-446 -566 0
-446 -596 0
-476 -506 0
-476 -536 0
-476 -566 0
-476 -596 0
-506 -536 0
-506 -566 0
-506 -596 0
-536 -566 0
-536 -596 0
-566 -596 0
-447 -477 0
-447 -507 0
-447 -537 0
-447 -567 0
-447 -597 0
-477 -507 0
-477 -537 0
-477 -567 0
-477 -597 0
-507 -537 0
-507 -567 0
-507 -597 0
-537 -567 0
-537 -597 0
-567 -597 0
-448 -478 0
-448 -508 0
-448 -538 0
-448 -568 0
-448 -598 0
-478 -508 0
-478 -538 0
-478 -568 0
-478 -598 0
-508 -538 0
-508 -568 0
-508 -598 0
-538 -568 0
-538 -598 0
-568 -598 0
-449 -479 0
-449 -509 0
-449 -539 0
-449 -569 0
-449 -599 0
-479 -509 0
-479 -539 0
-479 -569 0
-479 -599 0
-509 -539 0
-509 -569 0
-509 -599 0
-539 -569 0
-539 -599 0
-569 -599 0
-450 -480 0
-450 -510 0
-450 -540 0
-450 -570 0
-450 -600 0
-480 -510 0
-480 -540 0
-480 -570 0
-480 -600 0
-510 -540 0
-510 -570 0
-510 -600 0
-540 -570 0
-540 -600 0
-570 -600 0
-451 -481 0
-451 -511 0
-451 -541 0
-451 -571 0
-451 -601 0
-481 -511 0
-481 -541 0
-481 -571 0
-481 -601 0
-511 -541 0
-511 -571 0
-511 -601 0
-541 -571 0
-541 -601 0
-571 -601 0
-452 -482 0
-452 -512 0
-452 -542 0
-452 -572 0
-452 -602 0
-482 -512 0
-482 -542 0
-482 -572 0
-482 -602 0
-512 -542 0
-512 -572 0
-512 -602 0
-542 -572 0
-542 -602 0
-572 -602 0
-453 -483 0
-453 -513 0
-453 -543 0
-453 -573 0
-453 -603 0
-483 -513 0
-483 -543 0
-483 -573 0
-483 -603 0
-513 -543 0
-513 -573 0
-513 -603 0
-543 -573 0
-543 -603 0
-573 -603 0
-454 -484 0
-454 -514 0
-454 -544 0
-454 -574 0
-454 -604 0
-484 -514 0
-484 -544 0
-484 -574 0
-484 -604 0
-514 -544 0
-514 -574 0
-514 -604 0
-544 -574 0
-544 -604 0
-574 -604 0
-455 -485 0
-455 -515 0
-455 -545 0
-455 -575 0
-455 -605 0
-485 -515 0
-485 -545 0
-485 -575 0
-485 -605 0
-515 -545 0
-515 -575 0
-515 -605 0
-545 -575 0
-545 -605 0
-575 -605 0
-456 -486 0
-456 -516 0
-456 -546 0
-456 -576 0
-456 -606 0
-486 -516 0
-486 -546 0
-486 -576 0
-486 -606 0
-516 -546 0
-516 -576 0
-516 -606 0
-546 -576 0
-546 -606 0
-576 -606 0
-457 -487 0
-457 -517 0
-457 -547 0
-457 -577 0
-457 -607 0
-487 -517 0
-487 -547 0
-487 -577 0
-487 -607 0
-517 -547 0
-517 -577 0
-517 -607 0
-547 -577 0
-547 -607 0
-577 -607 0
-458 -488 0
-458 -518 0
-458 -548 0
-458 -578 0
-458 -608 0
-488 -518 0
-488 -548 0
-488 -578 0
-488 -608 0
-518 -548 0
-518 -578 0
-518 -608 0
-548 -578 0
-548 -608 0
-578 -608 0
-459 -489 0
-459 -519 0
-459 -549 0
-459 -579 0
-459 -609 0
-489 -519 0
-489 -549 0
-489 -579 0
-489 -609 0
-519 -549 0
-519 -579 0
-519 -609 0
-549 -579 0
-549 -609 0
-579 -609 0
-460 -490 0
-460 -520 0
-460 -550 0
-460 -580 0
-460 -610 0
-490 -520 0
-490 -550 0
-490 -580 0
-490 -610 0
-520 -550 0
-520 -580 0
-520 -610 0
-550 -580 0
-550 -610 0
-580 -610 0
-461 -491 0
-461 -521 0
-461 -551 0
-461 -581 0
-461 -611 0
-491 -521 0
-491 -551 0
-491 -581 0
-491 -611 0
-521 -551 0
-521 -581 0
-521 -611 0
-551 -581 0
-551 -611 0
-581 -611 0
-462 -492 0
-462 -522 0
-462 -552 0
-462 -582 0
-462 -612 0
-492 -522 0
-492 -552 0
-492 -582 0
-492 -612 0
-522 -552 0
-522 -582 0
-522 -612 0
-552 -582 0
-552 -612 0
-582 -612 0
-463 -493 0
-463 -523 0
-463 -553 0
-463 -583 0
-463 -613 0
-493 -523 0
-493 -553 0
-493 -583 0
-493 -613 0
-523 -553 0
-523 -583 0
-523 -613 0
-553 -583 0
-553 -613 0
-583 -613 0
-464 -494 0
-464 -524 0
-464 -554 0
-464 -584 0
-464 -614 0
-494 -524 0
-494 -554 0
-494 -584 0
-494 -614 0
-524 -554 0
-524 -584 0
-524 -614 0
-554 -584 0
-554 -614 0
-584 -614 0
-465 -495 0
-465 -525 0
-465 -555 0
-465 -585 0
-465 -615 0
-495 -525 0
-495 -555 0
-495 -585 0
-495 -615 0
-525 -555 0
-525 -585 0
-525 -615 0
-555 -585 0
-555 -615 0
-585 -615 0
1 -436 -467 0
1 -437 -466 0
1 -436 -497 0
1 -437 -496 0
1 -436 -527 0
1 -437 -526 0
1 -436 -557 0
1 -437 -556 0
1 -436 -587 0
1 -437 -586 0
1 -466 -497 0
1 -467 -496 0
1 -466 -527 0
1 -467 -526 0
1 -466 -557 0
1 -467 -556 0
1 -466 -587 0
1 -467 -586 0
1 -496 -527 0
1 -497 -526 0
1 -496 -557 0
1 -497 -556 0
1 -496 -587 0
1 -497 -586 0
1 -526 -557 0
1 -527 -556 0
1 -526 -587 0
1 -527 -586 0
1 -556 -587 0
1 -557 -586 0
2 -436 -468 0
2 -438 -466 0
2 -436 -498 0
2 -438 -496 0
2 -436 -528 0
2 -438 -526 0
2 -436 -558 0
2 -438 -556 0
2 -436 -588 0
2 -438 -586 0
2 -466 -498 0
2 -468 -496 0
2 -466 -528 0
2 -468 -526 0
2 -466 -558 0
2 -468 -556 0
2 -466 -588 0
2 -468 -586 0
2 -496 -528 0
2 -498 -526 0
2 -496 -558 0
2 -498 -556 0
2 -496 -588 0
2 -498 -586 0
2 -526 -558 0
2 -528 -556 0
2 -526 -588 0
2 -528 -586 0
2 -556 -588 0
2 -558 -586 0
3 -436 -469 0
3 -439 -466 0
3 -436 -499 0
3 -439 -496 0
3 -436 -529 0
3 -439 -526 0
3 -436 -559 0
3 -439 -556 0
3 -436 -589 0
3 -439 -586 0
3 -466 -499 0
3 -469 -496 0
3 -466 -529 0
3 -469 -526 0
3 -466 -559 0
3 -469 -556 0
3 -466 -589 0
3 -469 -586 0
3 -496 -529 0
3 -499 -526 0
3 -496 -559 0
3 -499 -556 0
3 -496 -589 0
3 -499 -586 0
3 -526 -559 0
3 -529 -556 0
3 -526 -589 0
3 -529 -586 0
3 -556 -589 0
3 -559 -586 0
4 -436 -470 0
4 -440 -466 0
4 -436 -500 0
4 -440 -496 0
4 -436 -530 0
4 -440 -526 0
4 -436 -560 0
4 -440 -556 0
4 -436 -590 0
4 -440 -586 0
4 -466 -500 0
4 -470 -496 0
4 -466 -530 0
4 -470 -526 0
4 -466 -560 0
4 -470 -556 0
4 -466 -590 0
4 -470 -586 0
4 -496 -530 0
4 -500 -526 0
4 -496 -560 0
4 -500 -556 0
4 -496 -590 0
4 -500 -586 0
4 -526 -560 0
4 -530 -556 0
4 -526 -590 0
4 -530 -586 0
4 -556 -590 0
4 -560 -586 0
5 -436 -471 0
5 -441 -466 0
5 -436 -501 0
5 -441 -496 0
5 -436 -531 0
5 -441 -526 0
5 -436 -561 0
5 -441 -556 0
5 -436 -591 0
5 -441 -586 0
5 -466 -501 0
5 -471 -496 0
5 -466 -531 0
5 -471 -526 0
5 -466 -561 0
5 -471 -556 0
5 -466 -591 0
5 -471 -586 0
5 -496 -531 0
5 -501 -526 0
5 -496 -561 0
5 -501 -556 0
5 -496 -591 0
5 -501 -586 0
5 -526 -561 0
5 -531 -556 0
5 -526 -591 0
5 -531 -586 0
5 -556 -591 0
5 -561 -586 0
6 -436 -472 0
6 -442 -466 0
6 -436 -502 0
6 -442 -496 0
6 -436 -532 0
6 -442 -526 0
6 -436 -562 0
6 -442 -556 0
6 -436 -592 0
6 -442 -586 0
6 -466 -502 0
6 -472 -496 0
6 -466 -532 0
6 -472 -526 0
6 -466 -562 0
6 -472 -556 0
6 -466 -592 0
6 -472 -586 0
6 -496 -532 0
6 -502 -526 0
6 -496 -562 0
6 -502 -556 0
6 -496 -592 0
6 -502 -586 0
6 -526 -562 0
6 -532 -556 0
6 -526 -592 0
6 -532 -586 0
6 -556 -592 0
6 -562 -586 0
7 -436 -473 0
7 -443 -466 0
7 -436 -503 0
7 -443 -496 0
7 -436 -533 0
7 -443 -526 0
7 -436 -563 0
7 -443 -556 0
7 -436 -593 0
7 -443 -586 0
7 -466 -503 0
7 -473 -496 0
7 -466 -533 0
7 -473 -526 0
7 -466 -563 0
7 -473 -556 0
7 -466 -593 0
7 -473 -586 0
7 -496 -533 0
7 -503 -526 0
7 -496 -563 0
7 -503 -556 0
7 -496 -593 0
7 -503 -586 0
7 -526 -563 0
7 -533 -556 0
7 -526 -593 0
7 -533 -586 0
7 -556 -593 0
7 -563 -586 0
8 -436 -474 0
8 -444 -466 0
8 -436 -504 0
8 -444 -496 0
8 -436 -534 0
8 -444 -526 0
8 -436 -564 0
8 -444 -556 0
8 -436 -594 0
8 -444 -586 0
8 -466 -504 0
8 -474 -496 0
8 -466 -534 0
8 -474 -526 0
8 -466 -564 0
8 -474 -556 0
8 -466 -594 0
8 -474 -586 0
8 -496 -534 0
8 -504 -526 0
8 -496 -564 0
8 -504 -556 0
8 -496 -594 0
8 -504 -586 0
8 -526 -564 0
8 -534 -556 0
8 -526 -594 0
8 -534 -586 0
8 -556 -594 0
8 -564 -586 0
9 -436 -475 0
9 -445 -466 0
9 -436 -505 0
9 -445 -496 0
9 -436 -535 0
9 -445 -526 0
9 -436 -565 0
9 -445 -556 0
9 -436 -595 0
9 -445 -586 0
9 -466 -505 0
9 -475 -496 0
9 -466 -535 0
9 -475 -526 0
9 -466 -565 0
9 -475 -556 0
9 -466 -595 0
9 -475 -586 0
9 -496 -535 0
9 -505 -526 0
9 -496 -565 0
9 -505 -556 0
9 -496 -595 0
9 -505 -586 0
9 -526 -565 0
9 -535 -556 0
9 -526 -595 0
9 -535 -586 0
9 -556 -595 0
9 -565 -586 0
10 -436 -476 0
10 -446 -466 0
10 -436 -506 0
10 -446 -496 0
10 -436 -536 0
10 -446 -526 0
10 -436 -566 0
10 -446 -556 0
10 -436 -596 0
10 -446 -586 0
10 -466 -506 0
10 -476 -496 0
10 -466 -536 0
10 -476 -526 0
10 -466 -566 0
10 -476 -556 0
10 -466 -596 0
10 -476 -586 0
10 -496 -536 0
10 -506 -526 0
10 -496 -566 0
10 -506 -556 0
10 -496 -596 0
10 -506 -586 0
10 -526 -566 0
10 -536 -556 0
10 -526 -596 0
10 -536 -586 0
10 -556 -596 0
10 -566 -586 0
11 -436 -477 0
11 -447 -466 0
11 -436 -507 0
11 -447 -496 0
11 -436 -537 0
11 -447 -526 0
11 -436 -567 0
11 -447 -556 0
11 -436 -597 0
11 -447 -586 0
11 -466 -507 0
11 -477 -496 0
11 -466 -537 0
11 -477 -526 0
11 -466 -567 0
11 -477 -556 0
11 -466 -597 0
11 -477 -586 0
11 -496 -537 0
11 -507 -526 0
11 -496 -567 0
11 -507 -556 0
11 -496 -597 0
11 -507 -586 0
11 -526 -567 0
11 -537 -556 0
11 -526 -597 0
11 -537 -586 0
11 -556 -597 0
11 -567 -586 0
12 -436 -478 0
12 -448 -466 0
12 -436 -508 0
12 -448 -496 0
12 -436 -538 0
12 -448 -526 0
12 -436 -568 0
12 -448 -556 0
12 -436 -598 0
12 -448 -586 0
12 -466 -508 0
12 -478 -496 0
12 -466 -538 0
12 -478 -526 0
12 -466 -568 0
12 -478 -556 0
12 -466 -598 0
12 -478 -586 0
12 -496 -538 0
12 -508 -526 0
12 -496 -568 0
12 -508 -556 0
12 -496 -598 0
12 -508 -586 0
12 -526 -568 0
12 -538 -556 0
12 -526 -598 0
12 -538 -586 0
12 -556 -598 0
12 -568 -586 0
13 -436 -479 0
13 -449 -466 0
13 -436 -509 0
13 -449 -496 0
13 -436 -539 0
13 -449 -526 0
13 -436 -569 0
13 -449 -556 0
13 -436 -599 0
13 -449 -586 0
13 -466 -509 0
13 -479 -496 0
13 -466 -539 0
13 -479 -526 0
13 -466 -569 0
13 -479 -556 0
13 -466 -599 0
13 -479 -586 0
13 -496 -539 0
13 -509 -526 0
13 -496 -569 0
13 -509 -556 0
13 -496 -599 0
13 -509 -586 0
13 -526 -569 0
13 -539 -556 0
13 -526 -599 0
13 -539 -586 0
13 -556 -599 0
13 -569 -586 0
14 -436 -480 0
14 -450 -466 0
14 -436 -510 0
14 -450 -496 0
14 -436 -540 0
14 -450 -526 0
14 -436 -570 0
14 -450 -556 0
14 -436 -600 0
14 -450 -586 0
14 -466 -510 0
14 -480 -496 0
14 -466 -540 0
14 -480 -526 0
14 -466 -570 0
14 -480 -556 0
14 -466 -600 0
14 -480 -586 0
14 -496 -540 0
14 -510 -526 0
14 -496 -570 0
14 -510 -556 0
14 -496 -600 0
14 -510 -586 0
14 -526 -570 0
14 -540 -556 0
14 -526 -600 0
14 -540 -586 0
14 -556 -600 0
14 -570 -586 0
15 -436 -481 0
15 -451 -466 0
15 -436 -511 0
15 -451 -496 0
15 -436 -541 0
15 -451 -526 0
15 -436 -571 0
15 -451 -556 0
15 -436 -601 0
15 -451 -586 0
15 -466 -511 0
15 -481 -496 0
15 -466 -541 0
15 -481 -526 0
15 -466 -571 0
15 -481 -556 0
15 -466 -601 0
15 -481 -586 0
15 -496 -541 0
15 -511 -526 0
15 -496 -571 0
15 -511 -556 0
15 -496 -601 0
15 -511 -586 0
15 -526 -571 0
15 -541 -556 0
15 -526 -601 0
15 -541 -586 0
15 -556 -601 0
15 -571 -586 0
16 -436 -482 0
16 -452 -466 0
16 -436 -512 0
16 -452 -496 0
16 -436 -542 0
16 -452 -526 0
16 -436 -572 0
16 -452 -556 0
16 -436 -602 0
16 -452 -586 0
16 -466 -512 0
16 -482 -496 0
16 -466 -542 0
16 -482 -526 0
16 -466 -572 0
16 -482 -556 0
16 -466 -602 0
16 -482 -586 0
16 -496 -542 0
16 -512 -526 0
16 -496 -572 0
16 -512 -556 0
16 -496 -602 0
16 -512 -586 0
16 -526 -572 0
16 -542 -556 0
16 -526 -602 0
16 -542 -586 0
16 -556 -602 0
16 -572 -586 0
17 -436 -483 0
17 -453 -466 0
17 -436 -513 0
17 -453 -496 0
17 -436 -543 0
17 -453 -526 0
17 -436 -573 0
17 -453 -556 0
17 -436 -603 0
17 -453 -586 0
17 -466 -513 0
17 -483 -496 0
17 -466 -543 0
17 -483 -526 0
17 -466 -573 0
17 -483 -556 0
17 -466 -603 0
17 -483 -586 0
17 -496 -543 0
17 -513 -526 0
17 -496 -573 0
17 -513 -556 0
17 -496 -603 0
17 -513 -586 0
17 -526 -573 0
17 -543 -556 0
17 -526 -603 0
17 -543 -586 0
17 -556 -603 0
17 -573 -586 0
18 -436 -484 0
18 -454 -466 0
18 -436 -514 0
18 -454 -496 0
18 -436 -544 0
18 -454 -526 0
18 -436 -574 0
18 -454 -556 0
18 -436 -604 0
18 -454 -586 0
18 -466 -514 0
18 -484 -496 0
18 -466 -544 0
18 -484 -526 0
18 -466 -574 0
18 -484 -556 0
18 -466 -604 0
18 -484 -586 0
18 -496 -544 0
18 -514 -526 0
18 -496 -574 0
18 -514 -556 0
18 -496 -604 0
18 -514 -586 0
18 -526 -574 0
18 -544 -556 0
18 -526 -604 0
18 -544 -586 0
18 -556 -604 0
18 -574 -586 0
19 -436 -485 0
19 -455 -466 0
19 -436 -515 0
19 -455 -496 0
19 -436 -545 0
19 -455 -526 0
19 -436 -575 0
19 -455 -556 0
19 -436 -605 0
19 -455 -586 0
19 -466 -515 0
19 -485 -496 0
19 -466 -545 0
19 -485 -526 0
19 -466 -575 0
19 -485 -556 0
19 -466 -605 0
19 -485 -586 0
19 -496 -545 0
19 -515 -526 0
19 -496 -575 0
19 -515 -556 0
19 -496 -605 0
19 -515 -586 0
19 -526 -575 0
19 -545 -556 0
19 -526 -605 0
19 -545 -586 0
19 -556 -605 0
19 -575 -586 0
20 -436 -486 0
20 -456 -466 0
20 -436 -516 0
20 -456 -496 0
20 -436 -546 0
20 -456 -526 0
20 -436 -576 0
20 -456 -556 0
20 -436 -606 0
20 -456 -586 0
20 -466 -516 0
20 -486 -496 0
20 -466 -546 0
20 -486 -526 0
20 -466 -576 0
20 -486 -556 0
20 -466 -606 0
20 -486 -586 0
20 -496 -546 0
20 -516 -526 0
20 -496 -576 0
20 -516 -556 0
20 -496 -606 0
20 -516 -586 0
20 -526 -576 0
20 -546 -556 0
20 -526 -606 0
20 -546 -586 0
20 -556 -606 0
20 -576 -586 0
21 -436 -487 0
21 -457 -466 0
21 -436 -517 0
21 -457 -496 0
21 -436 -547 0
21 -457 -526 0
21 -436 -577 0
21 -457 -556 0
21 -436 -607 0
21 -457 -586 0
21 -466 -517 0
21 -487 -496 0
21 -466 -547 0
21 -487 -526 0
21 -466 -577 0
21 -487 -556 0
21 -466 -607 0
21 -487 -586 0
21 -496 -547 0
21 -517 -526 0
21 -496 -577 0
21 -517 -556 0
21 -496 -607 0
21 -517 -586 0
21 -526 -577 0
21 -547 -556 0
21 -526 -607 0
21 -547 -586 0
21 -556 -607 0
21 -577 -586 0
22 -436 -488 0
22 -458 -466 0
22 -436 -518 0
22 -458 -496 0
22 -436 -548 0
22 -458 -526 0
22 -436 -578 0
22 -458 -556 0
22 -436 -608 0
22 -458 -586 0
22 -466 -518 0
22 -488 -496 0
22 -466 -548 0
22 -488 -526 0
22 -466 -578 0
22 -488 -556 0
22 -466 -608 0
22 -488 -586 0
22 -496 -548 0
22 -518 -526 0
22 -496 -578 0
22 -518 -556 0
22 -496 -608 0
22 -518 -586 0
22 -526 -578 0
22 -548 -556 0
22 -526 -608 0
22 -548 -586 0
22 -556 -608 0
22 -578 -586 0
23 -436 -489 0
23 -459 -466 0
23 -436 -519 0
23 -459 -496 0
23 -436 -549 0
23 -459 -526 0
23 -436 -579 0
23 -459 -556 0
23 -436 -609 0
23 -459 -586 0
23 -466 -519 0
23 -489 -496 0
23 -466 -549 0
23 -489 -526 0
23 -466 -579 0
23 -489 -556 0
23 -466 -609 0
23 -489 -586 0
23 -496 -549 0
23 -519 -526 0
23 -496 -579 0
23 -519 -556 0
23 -496 -609 0
23 -519 -586 0
23 -526 -579 0
23 -549 -556 0
23 -526 -609 0
23 -549 -586 0
23 -556 -609 0
23 -579 -586 0
24 -436 -490 0
24 -460 -466 0
24 -436 -520 0
24 -460 -496 0
24 -436 -550 0
24 -460 -526 0
24 -436 -580 0
24 -460 -556 0
24 -436 -610 0
24 -460 -586 0
24 -466 -520 0
24 -490 -496 0
24 -466 -550 0
24 -490 -526 0
24 -466 -580 0
24 -490 -556 0
24 -466 -610 0
24 -490 -586 0
24 -496 -550 0
24 -520 -526 0
24 -496 -580 0
24 -520 -556 0
24 -496 -610 0
24 -520 -586 0
24 -526 -580 0
24 -550 -556 0
24 -526 -610 0
24 -550 -586 0
24 -556 -610 0
24 -580 -586 0
25 -436 -491 0
25 -461 -466 0
25 -436 -521 0
25 -461 -496 0
25 -436 -551 0
25 -461 -526 0
25 -436 -581 0
25 -461 -556 0
25 -436 -611 0
25 -461 -586 0
25 -466 -521 0
25 -491 -496 0
25 -466 -551 0
25 -491 -526 0
25 -466 -581 0
25 -491 -556 0
25 -466 -611 0
25 -491 -586 0
25 -496 -551 0
25 -521 -526 0
25 -496 -581 0
25 -521 -556 0
25 -496 -611 0
25 -521 -586 0
25 -526 -581 0
25 -551 -556 0
25 -526 -611 0
25 -551 -586 0
25 -556 -611 0
25 -581 -586 0
26 -436 -492 0
26 -462 -466 0
26 -436 -522 0
26 -462 -496 0
26 -436 -552 0
26 -462 -526 0
26 -436 -582 0
26 -462 -556 0
26 -436 -612 0
26 -462 -586 0
26 -466 -522 0
26 -492 -496 0
26 -466 -552 0
26 -492 -526 0
26 -466 -582 0
26 -492 -556 0
26 -466 -612 0
26 -492 -586 0
26 -496 -552 0
26 -522 -526 0
26 -496 -582 0
26 -522 -556 0
26 -496 -612 0
26 -522 -586 0
26 -526 -582 0
26 -552 -556 0
26 -526 -612 0
26 -552 -586 0
26 -556 -612 0
26 -582 -586 0
27 -436 -493 0
27 -463 -466 0
27 -436 -523 0
27 -463 -496 0
27 -436 -553 0
27 -463 -526 0
27 -436 -583 0
27 -463 -556 0
27 -436 -613 0
27 -463 -586 0
27 -466 -523 0
27 -493 -496 0
27 -466 -553 0
27 -493 -526 0
27 -466 -583 0
27 -493 -556 0
27 -466 -613 0
27 -493 -586 0
27 -496 -553 0
27 -523 -526 0
27 -496 -583 0
27 -523 -556 0
27 -496 -613 0
27 -523 -586 0
27 -526 -583 0
27 -553 -556 0
27 -526 -613 0
27 -553 -586 0
27 -556 -613 0
27 -583 -586 0
28 -436 -494 0
28 -464 -466 0
28 -436 -524 0
28 -464 -496 0
28 -436 -554 0
28 -464 -526 0
28 -436 -584 0
28 -464 -556 0
28 -436 -614 0
28 -464 -586 0
28 -466 -524 0
28 -494 -496 0
28 -466 -554 0
28 -494 -526 0
28 -466 -584 0
28 -494 -556 0
28 -466 -614 0
28 -494 -586 0
28 -496 -554 0
28 -524 -526 0
28 -496 -584 0
28 -524 -556 0
28 -496 -614 0
28 -524 -586 0
28 -526 -584 0
28 -554 -556 0
28 -526 -614 0
28 -554 -586 0
28 -556 -614 0
28 -584 -586 0
29 -436 -495 0
29 -465 -466 0
29 -436 -525 0
29 -465 -496 0
29 -436 -555 0
29 -465 -526 0
29 -436 -585 0
29 -465 -556 0
29 -436 -615 0
29 -465 -586 0
29 -466 -525 0
29 -495 -496 0
29 -466 -555 0
29 -495 -526 0
29 -466 -585 0
29 -495 -556 0
29 -466 -615 0
29 -495 -586 0
29 -496 -555 0
29 -525 -526 0
29 -496 -585 0
29 -525 -556 0
29 -496 -615 0
29 -525 -586 0
29 -526 -585 0
29 -555 -556 0
29 -526 -615 0
29 -555 -586 0
29 -556 -615 0
29 -585 -586 0
30 -437 -468 0
30 -438 -467 0
30 -437 -498 0
30 -438 -497 0
30 -437 -528 0
30 -438 -527 0
30 -437 -558 0
30 -438 -557 0
30 -437 -588 0
30 -438 -587 0
30 -467 -498 0
30 -468 -497 0
30 -467 -528 0
30 -468 -527 0
30 -467 -558 0
30 -468 -557 0
30 -467 -588 0
30 -468 -587 0
30 -497 -528 0
30 -498 -527 0
30 -497 -558 0
30 -498 -557 0
30 -497 -588 0
30 -498 -587 0
30 -527 -558 0
30 -528 -557 0
30 -527 -588 0
30 -528 -587 0
30 -557 -588 0
30 -558 -587 0
31 -437 -469 0
31 -439 -467 0
31 -437 -499 0
31 -439 -497 0
31 -437 -529 0
31 -439 -527 0
31 -437 -559 0
31 -439 -557 0
31 -437 -589 0
31 -439 -587 0
31 -467 -499 0
31 -469 -497 0
31 -467 -529 0
31 -469 -527 0
31 -467 -559 0
31 -469 -557 0
31 -467 -589 0
31 -469 -587 0
31 -497 -529 0
31 -499 -527 0
31 -497 -559 0
31 -499 -557 0
31 -497 -589 0
31 -499 -587 0
31 -527 -559 0
31 -529 -557 0
31 -527 -589 0
31 -529 -587 0
31 -557 -589 0
31 -559 -587 0
32 -437 -470 0
32 -440 -467 0
32 -437 -500 0
32 -440 -497 0
32 -437 -530 0
32 -440 -527 0
32 -437 -560 0
32 -440 -557 0
32 -437 -590 0
32 -440 -587 0
32 -467 -500 0
32 -470 -497 0
32 -467 -530 0
32 -470 -527 0
32 -467 -560 0
32 -470 -557 0
32 -467 -590 0
32 -470 -587 0
32 -497 -530 0
32 -500 -527 0
32 -497 -560 0
32 -500 -557 0
32 -497 -590 0
32 -500 -587 0
32 -527 -560 0
32 -530 -557 0
32 -527 -590 0
32 -530 -587 0
32 -557 -590 0
32 -560 -587 0
33 -437 -471 0
33 -441 -467 0
33 -437 -501 0
33 -441 -497 0
33 -437 -531 0
33 -441 -527 0
33 -437 -561 0
33 -441 -557 0
33 -437 -591 0
33 -441 -587 0
33 -467 -501 0
33 -471 -497 0
33 -467 -531 0
33 -471 -527 0
33 -467 -561 0
33 -471 -557 0
33 -467 -591 0
33 -471 -587 0
33 -497 -531 0
33 -501 -527 0
33 -497 -561 0
33 -501 -557 0
33 -497 -591 0
33 -501 -587 0
33 -527 -561 0
33 -531 -557 0
33 -527 -591 0
33 -531 -587 0
33 -557 -591 0
33 -561 -587 0
34 -437 -472 0
34 -442 -467 0
34 -437 -502 0
34 -442 -497 0
34 -437 -532 0
34 -442 -527 0
34 -437 -562 0
34 -442 -557 0
34 -437 -592 0
34 -442 -587 0
34 -467 -502 0
34 -472 -497 0
34 -467 -532 0
34 -472 -527 0
34 -467 -562 0
34 -472 -557 0
34 -467 -592 0
34 -472 -587 0
34 -497 -532 0
34 -502 -527 0
34 -497 -562 0
34 -502 -557 0
34 -497 -592 0
34 -502 -587 0
34 -527 -562 0
34 -532 -557 0
34 -527 -592 0
34 -532 -587 0
34 -557 -592 0
34 -562 -587 0
35 -437 -473 0
35 -443 -467 0
35 -437 -503 0
35 -443 -497 0
35 -437 -533 0
35 -443 -527 0
35 -437 -563 0
35 -443 -557 0
35 -437 -593 0
35 -443 -587 0
35 -467 -503 0
35 -473 -497 0
35 -467 -533 0
35 -473 -527 0
35 -467 -563 0
35 -473 -557 0
35 -467 -593 0
35 -473 -587 0
35 -497 -533 0
35 -503 -527 0
35 -497 -563 0
35 -503 -557 0
35 -497 -593 0
35 -503 -587 0
35 -527 -563 0
35 -533 -557 0
35 -527 -593 0
35 -533 -587 0
35 -557 -593 0
35 -563 -587 0
36 -437 -474 0
36 -444 -467 0
36 -437 -504 0
36 -444 -497 0
36 -437 -534 0
36 -444 -527 0
36 -437 -564 0
36 -444 -557 0
36 -437 -594 0
36 -444 -587 0
36 -467 -504 0
36 -474 -497 0
36 -467 -534 0
36 -474 -527 0
36 -467 -564 0
36 -474 -557 0
36 -467 -594 0
36 -474 -587 0
36 -497 -534 0
36 -504 -527 0
36 -497 -564 0
36 -504 -557 0
36 -497 -594 0
36 -504 -587 0
36 -527 -564 0
36 -534 -557 0
36 -527 -594 0
36 -534 -587 0
36 -557 -594 0
36 -564 -587 0
37 -437 -475 0
37 -445 -467 0
37 -437 -505 0
37 -445 -497 0
37 -437 -535 0
37 -445 -527 0
37 -437 -565 0
37 -445 -557 0
37 -437 -595 0
37 -445 -587 0
37 -467 -505 0
37 -475 -497 0
37 -467 -535 0
37 -475 -527 0
37 -467 -565 0
37 -475 -557 0
37 -467 -595 0
37 -475 -587 0
37 -497 -535 0
37 -505 -527 0
37 -497 -565 0
37 -505 -557 0
37 -497 -595 0
37 -505 -587 0
37 -527 -565 0
37 -535 -557 0
37 -527 -595 0
37 -535 -587 0
37 -557 -595 0
37 -565 -587 0
38 -437 -476 0
38 -446 -467 0
38 -437 -506 0
38 -446 -497 0
38 -437 -536 0
38 -446 -527 0
38 -437 -566 0
38 -446 -557 0
38 -437 -596 0
38 -446 -587 0
38 -467 -506 0
38 -476 -497 0
38 -467 -536 0
38 -476 -527 0
38 -467 -566 0
38 -476 -557 0
38 -467 -596 0
38 -476 -587 0
38 -497 -536 0
38 -506 -527 0
38 -497 -566 0
38 -506 -557 0
38 -497 -596 0
38 -506 -587 0
38 -527 -566 0
38 -536 -557 0
38 -527 -596 0
38 -536 -587 0
38 -557 -596 0
38 -566 -587 0
39 -437 -477 0
39 -447 -467 0
39 -437 -507 0
39 -447 -497 0
39 -437 -537 0
39 -447 -527 0
39 -437 -567 0
39 -447 -557 0
39 -437 -597 0
39 -447 -587 0
39 -467 -507 0
39 -477 -497 0
39 -467 -537 0
39 -477 -527 0
39 -467 -567 0
39 -477 -557 0
39 -467 -597 0
39 -477 -587 0
39 -497 -537 0
39 -507 -527 0
39 -497 -567 0
39 -507 -557 0
39 -497 -597 0
39 -507 -587 0
39 -527 -567 0
39 -537 -557 0
39 -527 -597 0
39 -537 -587 0
39 -557 -597 0
39 -567 -587 0
40 -437 -478 0
40 -448 -467 0
40 -437 -508 0
40 -448 -497 0
40 -437 -538 0
40 -448 -527 0
40 -437 -568 0
40 -448 -557 0
40 -437 -598 0
40 -448 -587 0
40 -467 -508 0
40 -478 -497 0
40 -467 -538 0
40 -478 -527 0
40 -467 -568 0
40 -478 -557 0
40 -467 -598 0
40 -478 -587 0
40 -497 -538 0
40 -508 -527 0
40 -497 -568 0
40 -508 -557 0
40 -497 -598 0
40 -508 -587 0
40 -527 -568 0
40 -538 -557 0
40 -527 -598 0
40 -538 -587 0
40 -557 -598 0
40 -568 -587 0
41 -437 -479 0
41 -449 -467 0
41 -437 -509 0
41 -449 -497 0
41 -437 -539 0
41 -449 -527 0
41 -437 -569 0
41 -449 -557 0
41 -437 -599 0
41 -449 -587 0
41 -467 -509 0
41 -479 -497 0
41 -467 -539 0
41 -479 -527 0
41 -467 -569 0
41 -479 -557 0
41 -467 -599 0
41 -479 -587 0
41 -497 -539 0
41 -509 -527 0
41 -497 -569 0
41 -509 -557 0
41 -497 -599 0
41 -509 -587 0
41 -527 -569 0
41 -539 -557 0
41 -527 -599 0
41 -539 -587 0
41 -557 -599 0
41 -569 -587 0
42 -437 -480 0
42 -450 -467 0
42 -437 -510 0
42 -450 -497 0
42 -437 -540 0
42 -450 -527 0
42 -437 -570 0
42 -450 -557 0
42 -437 -600 0
42 -450 -587 0
42 -467 -510 0
42 -480 -497 0
42 -467 -540 0
42 -480 -527 0
42 -467 -570 0
42 -480 -557 0
42 -467 -600 0
42 -480 -587 0
42 -497 -540 0
42 -510 -527 0
42 -497 -570 0
42 -510 -557 0
42 -497 -600 0
42 -510 -587 0
42 -527 -570 0
42 -540 -557 0
42 -527 -600 0
42 -540 -587 0
42 -557 -600 0
42 -570 -587 0
43 -437 -481 0
43 -451 -467 0
43 -437 -511 0
43 -451 -497 0
43 -437 -541 0
43 -451 -527 0
43 -437 -571 0
43 -451 -557 0
43 -437 -601 0
43 -451 -587 0
43 -467 -511 0
43 -481 -497 0
43 -467 -541 0
43 -481 -527 0
43 -467 -571 0
43 -481 -557 0
43 -467 -601 0
43 -481 -587 0
43 -497 -541 0
43 -511 -527 0
43 -497 -571 0
43 -511 -557 0
43 -497 -601 0
43 -511 -587 0
43 -527 -571 0
43 -541 -557 0
43 -527 -601 0
43 -541 -587 0
43 -557 -601 0
43 -571 -587 0
44 -437 -482 0
44 -452 -467 0
44 -437 -512 0
44 -452 -497 0
44 -437 -542 0
44 -452 -527 0
44 -437 -572 0
44 -452 -557 0
44 -437 -602 0
44 -452 -587 0
44 -467 -512 0
44 -482 -497 0
44 -467 -542 0
44 -482 -527 0
44 -467 -572 0
44 -482 -557 0
44 -467 -602 0
44 -482 -587 0
44 -497 -542 0
44 -512 -527 0
44 -497 -572 0
44 -512 -557 0
44 -497 -602 0
44 -512 -587 0
44 -527 -572 0
44 -542 -557 0
44 -527 -602 0
44 -542 -587 0
44 -557 -602 0
44 -572 -587 0
45 -437 -483 0
45 -453 -467 0
45 -437 -513 0
45 -453 -497 0
45 -437 -543 0
45 -453 -527 0
45 -437 -573 0
45 -453 -557 0
45 -437 -603 0
45 -453 -587 0
45 -467 -513 0
45 -483 -497 0
45 -467 -543 0
45 -483 -527 0
45 -467 -573 0
45 -483 -557 0
45 -467 -603 0
45 -483 -587 0
45 -497 -543 0
45 -513 -527 0
45 -497 -573 0
45 -513 -557 0
45 -497 -603 0
45 -513 -587 0
45 -527 -573 0
45 -543 -557 0
45 -527 -603 0
45 -543 -587 0
45 -557 -603 0
45 -573 -587 0
46 -437 -484 0
46 -454 -467 0
46 -437 -514 0
46 -454 -497 0
46 -437 -544 0
46 -454 -527 0
46 -437 -574 0
46 -454 -557 0
46 -437 -604 0
46 -454 -587 0
46 -467 -514 0
46 -484 -497 0
46 -467 -544 0
46 -484 -527 0
46 -467 -574 0
46 -484 -557 0
46 -467 -604 0
46 -484 -587 0
46 -497 -544 0
46 -514 -527 0
46 -497 -574 0
46 -514 -557 0
46 -497 -604 0
46 -514 -587 0
46 -527 -574 0
46 -544 -557 0
46 -527 -604 0
46 -544 -587 0
46 -557 -604 0
46 -574 -587 0
47 -437 -485 0
47 -455 -467 0
47 -437 -515 0
47 -455 -497 0
47 -437 -545 0
47 -455 -527 0
47 -437 -575 0
47 -455 -557 0
47 -437 -605 0
47 -455 -587 0
47 -467 -515 0
47 -485 -497 0
47 -467 -545 0
47 -485 -527 0
47 -467 -575 0
47 -485 -557 0
47 -467 -605 0
47 -485 -587 0
47 -497 -545 0
47 -515 -527 0
47 -497 -575 0
47 -515 -557 0
47 -497 -605 0
47 -515 -587 0
47 -527 -575 0
47 -545 -557 0
47 -527 -605 0
47 -545 -587 0
47 -557 -605 0
47 -575 -587 0
48 -437 -486 0
48 -456 -467 0
48 -437 -516 0
48 -456 -497 0
48 -437 -546 0
48 -456 -527 0
48 -437 -576 0
48 -456 -557 0
48 -437 -606 0
48 -456 -587 0
48 -467 -516 0
48 -486 -497 0
48 -467 -546 0
48 -486 -527 0
48 -467 -576 0
48 -486 -557 0
48 -467 -606 0
48 -486 -587 0
48 -497 -546 0
48 -516 -527 0
48 -497 -576 0
48 -516 -557 0
48 -497 -606 0
48 -516 -587 0
48 -527 -576 0
48 -546 -557 0
48 -527 -606 0
48 -546 -587 0
48 -557 -606 0
48 -576 -587 0
49 -437 -487 0
49 -457 -467 0
49 -437 -517 0
49 -457 -497 0
49 -437 -547 0
49 -457 -527 0
49 -437 -577 0
49 -457 -557 0
49 -437 -607 0
49 -457 -587 0
49 -467 -517 0
49 -487 -497 0
49 -467 -547 0
49 -487 -527 0
49 -467 -577 0
49 -487 -557 0
49 -467 -607 0
49 -487 -587 0
49 -497 -547 0
49 -517 -527 0
49 -497 -577 0
49 -517 -557 0
49 -497 -607 0
49 -517 -587 0
49 -527 -577 0
49 -547 -557 0
49 -527 -607 0
49 -547 -587 0
49 -557 -607 0
49 -577 -587 0
50 -437 -488 0
50 -458 -467 0
50 -437 -518 0
50 -458 -497 0
50 -437 -548 0
50 -458 -527 0
50 -437 -578 0
50 -458 -557 0
50 -437 -608 0
50 -458 -587 0
50 -467 -518 0
50 -488 -497 0
50 -467 -548 0
50 -488 -527 0
50 -467 -578 0
50 -488 -557 0
50 -467 -608 0
50 -488 -587 0
50 -497 -548 0
50 -518 -527 0
50 -497 -578 0
50 -518 -557 0
50 -497 -608 0
50 -518 -587 0
50 -527 -578 0
50 -548 -557 0
50 -527 -608 0
50 -548 -587 0
50 -557 -608 0
50 -578 -587 0
51 -437 -489 0
51 -459 -467 0
51 -437 -519 0
51 -459 -497 0
51 -437 -549 0
51 -459 -527 0
51 -437 -579 0
51 -459 -557 0
51 -437 -609 0
51 -459 -587 0
51 -467 -519 0
51 -489 -497 0
51 -467 -549 0
51 -489 -527 0
51 -467 -579 0
51 -489 -557 0
51 -467 -609 0
51 -489 -587 0
51 -497 -549 0
51 -519 -527 0
51 -497 -579 0
51 -519 -557 0
51 -497 -609 0
51 -519 -587 0
51 -527 -579 0
51 -549 -557 0
51 -527 -609 0
51 -549 -587 0
51 -557 -609 0
51 -579 -587 0
52 -437 -490 0
52 -460 -467 0
52 -437 -520 0
52 -460 -497 0
52 -437 -550 0
52 -460 -527 0
52 -437 -580 0
52 -460 -557 0
52 -437 -610 0
52 -460 -587 0
52 -467 -520 0
52 -490 -497 0
52 -467 -550 0
52 -490 -527 0
52 -467 -580 0
52 -490 -557 0
52 -467 -610 0
52 -490 -587 0
52 -497 -550 0
52 -520 -527 0
52 -497 -580 0
52 -520 -557 0
52 -497 -610 0
52 -520 -587 0
52 -527 -580 0
52 -550 -557 0
52 -527 -610 0
52 -550 -587 0
52 -557 -610 0
52 -580 -587 0
53 -437 -491 0
53 -461 -467 0
53 -437 -521 0
53 -461 -497 0
53 -437 -551 0
53 -461 -527 0
53 -437 -581 0
53 -461 -557 0
53 -437 -611 0
53 -461 -587 0
53 -467 -521 0
53 -491 -497 0
53 -467 -551 0
53 -491 -527 0
53 -467 -581 0
53 -491 -557 0
53 -467 -611 0
53 -491 -587 0
53 -497 -551 0
53 -521 -527 0
53 -497 -581 0
53 -521 -557 0
53 -497 -611 0
53 -521 -587 0
53 -527 -581 0
53 -551 -557 0
53 -527 -611 0
53 -551 -587 0
53 -557 -611 0
53 -581 -587 0
54 -437 -492 0
54 -462 -467 0
54 -437 -522 0
54 -462 -497 0
54 -437 -552 0
54 -462 -527 0
54 -437 -582 0
54 -462 -557 0
54 -437 -612 0
54 -462 -587 0
54 -467 -522 0
54 -492 -497 0
54 -467 -552 0
54 -492 -527 0
54 -467 -582 0
54 -492 -557 0
54 -467 -612 0
54 -492 -587 0
54 -497 -552 0
54 -522 -527 0
54 -497 -582 0
54 -522 -557 0
54 -497 -612 0
54 -522 -587 0
54 -527 -582 0
54 -552 -557 0
54 -527 -612 0
54 -552 -587 0
54 -557 -612 0
54 -582 -587 0
55 -437 -493 0
55 -463 -467 0
55 -437 -523 0
55 -463 -497 0
55 -437 -553 0
55 -463 -527 0
55 -437 -583 0
55 -463 -557 0
55 -437 -613 0
55 -463 -587 0
55 -467 -523 0
55 -493 -497 0
55 -467 -553 0
55 -493 -527 0
55 -467 -583 0
55 -493 -557 0
55 -467 -613 0
55 -493 -587 0
55 -497 -553 0
55 -523 -527 0
55 -497 -583 0
55 -523 -557 0
55 -497 -613 0
55 -523 -587 0
55 -527 -583 0
55 -553 -557 0
55 -527 -613 0
55 -553 -587 0
55 -557 -613 0
55 -583 -587 0
56 -437 -494 0
56 -464 -467 0
56 -437 -524 0
56 -464 -497 0
56 -437 -554 0
56 -464 -527 0
56 -437 -584 0
56 -464 -557 0
56 -437 -614 0
56 -464 -587 0
56 -467 -524 0
56 -494 -497 0
56 -467 -554 0
56 -494 -527 0
56 -467 -584 0
56 -494 -557 0
56 -467 -614 0
56 -494 -587 0
56 -497 -554 0
56 -524 -527 0
56 -497 -584 0
56 -524 -557 0
56 -497 -614 0
56 -524 -587 0
56 -527 -584 0
56 -554 -557 0
56 -527 -614 0
56 -554 -587 0
56 -557 -614 0
56 -584 -587 0
57 -437 -495 0
57 -465 -467 0
57 -437 -525 0
57 -465 -497 0
57 -437 -555 0
57 -465 -527 0
57 -437 -585 0
57 -465 -557 0
57 -437 -615 0
57 -465 -587 0
57 -467 -525 0
57 -495 -497 0
57 -467 -555 0
57 -495 -527 0
57 -467 -585 0
57 -495 -557 0
57 -467 -615 0
57 -495 -587 0
57 -497 -555 0
57 -525 -527 0
57 -497 -585 0
57 -525 -557 0
57 -497 -615 0
57 -525 -587 0
57 -527 -585 0
57 -555 -557 0
57 -527 -615 0
57 -555 -587 0
57 -557 -615 0
57 -585 -587 0
58 -438 -469 0
58 -439 -468 0
58 -438 -499 0
58 -439 -498 0
58 -438 -529 0
58 -439 -528 0
58 -438 -559 0
58 -439 -558 0
58 -438 -589 0
58 -439 -588 0
58 -468 -499 0
58 -469 -498 0
58 -468 -529 0
58 -469 -528 0
58 -468 -559 0
58 -469 -558 0
58 -468 -589 0
58 -469 -588 0
58 -498 -529 0
58 -499 -528 0
58 -498 -559 0
58 -499 -558 0
58 -498 -589 0
58 -499 -588 0
58 -528 -559 0
58 -529 -558 0
58 -528 -589 0
58 -529 -588 0
58 -558 -589 0
58 -559 -588 0
59 -438 -470 0
59 -440 -468 0
59 -438 -500 0
59 -440 -498 0
59 -438 -530 0
59 -440 -528 0
59 -438 -560 0
59 -440 -558 0
59 -438 -590 0
59 -440 -588 0
59 -468 -500 0
59 -470 -498 0
59 -468 -530 0
59 -470 -528 0
59 -468 -560 0
59 -470 -558 0
59 -468 -590 0
59 -470 -588 0
59 -498 -530 0
59 -500 -528 0
59 -498 -560 0
59 -500 -558 0
59 -498 -590 0
59 -500 -588 0
59 -528 -560 0
59 -530 -558 0
59 -528 -590 0
59 -530 -588 0
59 -558 -590 0
59 -560 -588 0
60 -438 -471 0
60 -441 -468 0
60 -438 -501 0
60 -441 -498 0
60 -438 -531 0
60 -441 -528 0
60 -438 -561 0
60 -441 -558 0
60 -438 -591 0
60 -441 -588 0
60 -468 -501 0
60 -471 -498 0
60 -468 -531 0
60 -471 -528 0
60 -468 -561 0
60 -471 -558 0
60 -468 -591 0
60 -471 -588 0
60 -498 -531 0
60 -501 -528 0
60 -498 -561 0
60 -501 -558 0
60 -498 -591 0
60 -501 -588 0
60 -528 -561 0
60 -531 -558 0
60 -528 -591 0
60 -531 -588 0
60 -558 -591 0
60 -561 -588 0
61 -438 -472 0
61 -442 -468 0
61 -438 -502 0
61 -442 -498 0
61 -438 -532 0
61 -442 -528 0
61 -438 -562 0
61 -442 -558 0
61 -438 -592 0
61 -442 -588 0
61 -468 -502 0
61 -472 -498 0
61 -468 -532 0
61 -472 -528 0
61 -468 -562 0
61 -472 -558 0
61 -468 -592 0
61 -472 -588 0
61 -498 -532 0
61 -502 -528 0
61 -498 -562 0
61 -502 -558 0
61 -498 -592 0
61 -502 -588 0
61 -528 -562 0
61 -532 -558 0
61 -528 -592 0
61 -532 -588 0
61 -558 -592 0
61 -562 -588 0
62 -438 -473 0
62 -443 -468 0
62 -438 -503 0
62 -443 -498 0
62 -438 -533 0
62 -443 -528 0
62 -438 -563 0
62 -443 -558 0
62 -438 -593 0
62 -443 -588 0
62 -468 -503 0
62 -473 -498 0
62 -468 -533 0
62 -473 -528 0
62 -468 -563 0
62 -473 -558 0
62 -468 -593 0
62 -473 -588 0
62 -498 -533 0
62 -503 -528 0
62 -498 -563 0
62 -503 -558 0
62 -498 -593 0
62 -503 -588 0
62 -528 -563 0
62 -533 -558 0
62 -528 -593 0
62 -533 -588 0
62 -558 -593 0
62 -563 -588 0
63 -438 -474 0
63 -444 -468 0
63 -438 -504 0
63 -444 -498 0
63 -438 -534 0
63 -444 -528 0
63 -438 -564 0
63 -444 -558 0
63 -438 -594 0
63 -444 -588 0
63 -468 -504 0
63 -474 -498 0
63 -468 -534 0
63 -474 -528 0
63 -468 -564 0
63 -474 -558 0
63 -468 -594 0
63 -474 -588 0
63 -498 -534 0
63 -504 -528 0
63 -498 -564 0
63 -504 -558 0
63 -498 -594 0
63 -504 -588 0
63 -528 -564 0
63 -534 -558 0
63 -528 -594 0
63 -534 -588 0
63 -558 -594 0
63 -564 -588 0
64 -438 -475 0
64 -445 -468 0
64 -438 -505 0
64 -445 -498 0
64 -438 -535 0
64 -445 -528 0
64 -438 -565 0
64 -445 -558 0
64 -438 -595 0
64 -445 -588 0
64 -468 -505 0
64 -475 -498 0
64 -468 -535 0
64 -475 -528 0
64 -468 -565 0
64 -475 -558 0
64 -468 -595 0
64 -475 -588 0
64 -498 -535 0
64 -505 -528 0
64 -498 -565 0
64 -505 -558 0
64 -498 -595 0
64 -505 -588 0
64 -528 -565 0
64 -535 -558 0
64 -528 -595 0
64 -535 -588 0
64 -558 -595 0
64 -565 -588 0
65 -438 -476 0
65 -446 -468 0
65 -438 -506 0
65 -446 -498 0
65 -438 -536 0
65 -446 -528 0
65 -438 -566 0
65 -446 -558 0
65 -438 -596 0
65 -446 -588 0
65 -468 -506 0
65 -476 -498 0
65 -468 -536 0
65 -476 -528 0
65 -468 -566 0
65 -476 -558 0
65 -468 -596 0
65 -476 -588 0
65 -498 -536 0
65 -506 -528 0
65 -498 -566 0
65 -506 -558 0
65 -498 -596 0
65 -506 -588 0
65 -528 -566 0
65 -536 -558 0
65 -528 -596 0
65 -536 -588 0
65 -558 -596 0
65 -566 -588 0
66 -438 -477 0
66 -447 -468 0
66 -438 -507 0
66 -447 -498 0
66 -438 -537 0
66 -447 -528 0
66 -438 -567 0
66 -447 -558 0
66 -438 -597 0
66 -447 -588 0
66 -468 -507 0
66 -477 -498 0
66 -468 -537 0
66 -477 -528 0
66 -468 -567 0
66 -477 -558 0
66 -468 -597 0
66 -477 -588 0
66 -498 -537 0
66 -507 -528 0
66 -498 -567 0
66 -507 -558 0
66 -498 -597 0
66 -507 -588 0
66 -528 -567 0
66 -537 -558 0
66 -528 -597 0
66 -537 -588 0
66 -558 -597 0
66 -567 -588 0
67 -438 -478 0
67 -448 -468 0
67 -438 -508 0
67 -448 -498 0
67 -438 -538 0
67 -448 -528 0
67 -438 -568 0
67 -448 -558 0
67 -438 -598 0
67 -448 -588 0
67 -468 -508 0
67 -478 -498 0
67 -468 -538 0
67 -478 -528 0
67 -468 -568 0
67 -478 -558 0
67 -468 -598 0
67 -478 -588 0
67 -498 -538 0
67 -508 -528 0
67 -498 -568 0
67 -508 -558 0
67 -498 -598 0
67 -508 -588 0
67 -528 -568 0
67 -538 -558 0
67 -528 -598 0
67 -538 -588 0
67 -558 -598 0
67 -568 -588 0
68 -438 -479 0
68 -449 -468 0
68 -438 -509 0
68 -449 -498 0
68 -438 -539 0
68 -449 -528 0
68 -438 -569 0
68 -449 -558 0
68 -438 -599 0
68 -449 -588 0
68 -468 -509 0
68 -479 -498 0
68 -468 -539 0
68 -479 -528 0
68 -468 -569 0
68 -479 -558 0
68 -468 -599 0
68 -479 -588 0
68 -498 -539 0
68 -509 -528 0
68 -498 -569 0
68 -509 -558 0
68 -498 -599 0
68 -509 -588 0
68 -528 -569 0
68 -539 -558 0
68 -528 -599 0
68 -539 -588 0
68 -558 -599 0
68 -569 -588 0
69 -438 -480 0
69 -450 -468 0
69 -438 -510 0
69 -450 -498 0
69 -438 -540 0
69 -450 -528 0
69 -438 -570 0
69 -450 -558 0
69 -438 -600 0
69 -450 -588 0
69 -468 -510 0
69 -480 -498 0
69 -468 -540 0
69 -480 -528 0
69 -468 -570 0
69 -480 -558 0
69 -468 -600 0
69 -480 -588 0
69 -498 -540 0
69 -510 -528 0
69 -498 -570 0
69 -510 -558 0
69 -498 -600 0
69 -510 -588 0
69 -528 -570 0
69 -540 -558 0
69 -528 -600 0
69 -540 -588 0
69 -558 -600 0
69 -570 -588 0
70 -438 -481 0
70 -451 -468 0
70 -438 -511 0
70 -451 -498 0
70 -438 -541 0
70 -451 -528 0
70 -438 -571 0
70 -451 -558 0
70 -438 -601 0
70 -451 -588 0
70 -468 -511 0
70 -481 -498 0
70 -468 -541 0
70 -481 -528 0
70 -468 -571 0
70 -481 -558 0
70 -468 -601 0
70 -481 -588 0
70 -498 -541 0
70 -511 -528 0
70 -498 -571 0
70 -511 -558 0
70 -498 -601 0
70 -511 -588 0
70 -528 -571 0
70 -541 -558 0
70 -528 -601 0
70 -541 -588 0
70 -558 -601 0
70 -571 -588 0
71 -438 -482 0
71 -452 -468 0
71 -438 -512 0
71 -452 -498 0
71 -438 -542 0
71 -452 -528 0
71 -438 -572 0
71 -452 -558 0
71 -438 -602 0
71 -452 -588 0
71 -468 -512 0
71 -482 -498 0
71 -468 -542 0
71 -482 -528 0
71 -468 -572 0
71 -482 -558 0
71 -468 -602 0
71 -482 -588 0
71 -498 -542 0
71 -512 -528 0
71 -498 -572 0
71 -512 -558 0
71 -498 -602 0
71 -512 -588 0
71 -528 -572 0
71 -542 -558 0
71 -528 -602 0
71 -542 -588 0
71 -558 -602 0
71 -572 -588 0
72 -438 -483 0
72 -453 -468 0
72 -438 -513 0
72 -453 -498 0
72 -438 -543 0
72 -453 -528 0
72 -438 -573 0
72 -453 -558 0
72 -438 -603 0
72 -453 -588 0
72 -468 -513 0
72 -483 -498 0
72 -468 -543 0
72 -483 -528 0
72 -468 -573 0
72 -483 -558 0
72 -468 -603 0
72 -483 -588 0
72 -498 -543 0
72 -513 -528 0
72 -498 -573 0
72 -513 -558 0
72 -498 -603 0
72 -513 -588 0
72 -528 -573 0
72 -543 -558 0
72 -528 -603 0
72 -543 -588 0
72 -558 -603 0
72 -573 -588 0
73 -438 -484 0
73 -454 -468 0
73 -438 -514 0
73 -454 -498 0
73 -438 -544 0
73 -454 -528 0
73 -438 -574 0
73 -454 -558 0
73 -438 -604 0
73 -454 -588 0
73 -468 -514 0
73 -484 -498 0
73 -468 -544 0
73 -484 -528 0
73 -468 -574 0
73 -484 -558 0
73 -468 -604 0
73 -484 -588 0
73 -498 -544 0
73 -514 -528 0
73 -498 -574 0
73 -514 -558 0
73 -498 -604 0
73 -514 -588 0
73 -528 -574 0
73 -544 -558 0
73 -528 -604 0
73 -544 -588 0
73 -558 -604 0
73 -574 -588 0
74 -438 -485 0
74 -455 -468 0
74 -438 -515 0
74 -455 -498 0
74 -438 -545 0
74 -455 -528 0
74 -438 -575 0
74 -455 -558 0
74 -438 -605 0
74 -455 -588 0
74 -468 -515 0
74 -485 -498 0
74 -468 -545 0
74 -485 -528 0
74 -468 -575 0
74 -485 -558 0
74 -468 -605 0
74 -485 -588 0
74 -498 -545 0
74 -515 -528 0
74 -498 -575 0
74 -515 -558 0
74 -498 -605 0
74 -515 -588 0
74 -528 -575 0
74 -545 -558 0
74 -528 -605 0
74 -545 -588 0
74 -558 -605 0
74 -575 -588 0
75 -438 -486 0
75 -456 -468 0
75 -438 -516 0
75 -456 -498 0
75 -438 -546 0
75 -456 -528 0
75 -438 -576 0
75 -456 -558 0
75 -438 -606 0
75 -456 -588 0
75 -468 -516 0
75 -486 -498 0
75 -468 -546 0
75 -486 -528 0
75 -468 -576 0
75 -486 -558 0
75 -468 -606 0
75 -486 -588 0
75 -498 -546 0
75 -516 -528 0
75 -498 -576 0
75 -516 -558 0
75 -498 -606 0
75 -516 -588 0
75 -528 -576 0
75 -546 -558 0
75 -528 -606 0
75 -546 -588 0
75 -558 -606 0
75 -576 -588 0
76 -438 -487 0
76 -457 -468 0
76 -438 -517 0
76 -457 -498 0
76 -438 -547 0
76 -457 -528 0
76 -438 -577 0
76 -457 -558 0
76 -438 -607 0
76 -457 -588 0
76 -468 -517 0
76 -487 -498 0
76 -468 -547 0
76 -487 -528 0
76 -468 -577 0
76 -487 -558 0
76 -468 -607 0
76 -487 -588 0
76 -498 -547 0
76 -517 -528 0
76 -498 -577 0
76 -517 -558 0
76 -498 -607 0
76 -517 -588 0
76 -528 -577 0
76 -547 -558 0
76 -528 -607 0
76 -547 -588 0
76 -558 -607 0
76 -577 -588 0
77 -438 -488 0
77 -458 -468 0
77 -438 -518 0
77 -458 -498 0
77 -438 -548 0
77 -458 -528 0
77 -438 -578 0
77 -458 -558 0
77 -438 -608 0
77 -458 -588 0
77 -468 -518 0
77 -488 -498 0
77 -468 -548 0
77 -488 -528 0
77 -468 -578 0
77 -488 -558 0
77 -468 -608 0
77 -488 -588 0
77 -498 -548 0
77 -518 -528 0
77 -498 -578 0
77 -518 -558 0
77 -498 -608 0
77 -518 -588 0
77 -528 -578 0
77 -548 -558 0
77 -528 -608 0
77 -548 -588 0
77 -558 -608 0
77 -578 -588 0
78 -438 -489 0
78 -459 -468 0
78 -438 -519 0
78 -459 -498 0
78 -438 -549 0
78 -459 -528 0
78 -438 -579 0
78 -459 -558 0
78 -438 -609 0
78 -459 -588 0
78 -468 -519 0
78 -489 -498 0
78 -468 -549 0
78 -489 -528 0
78 -468 -579 0
78 -489 -558 0
78 -468 -609 0
78 -489 -588 0
78 -498 -549 0
78 -519 -528 0
78 -498 -579 0
78 -519 -558 0
78 -498 -609 0
78 -519 -588 0
78 -528 -579 0
78 -549 -558 0
78 -528 -609 0
78 -549 -588 0
78 -558 -609 0
78 -579 -588 0
79 -438 -490 0
79 -460 -468 0
79 -438 -520 0
79 -460 -498 0
79 -438 -550 0
79 -460 -528 0
79 -438 -580 0
79 -460 -558 0
79 -438 -610 0
79 -460 -588 0
79 -468 -520 0
79 -490 -498 0
79 -468 -550 0
79 -490 -528 0
79 -468 -580 0
79 -490 -558 0
79 -468 -610 0
79 -490 -588 0
79 -498 -550 0
79 -520 -528 0
79 -498 -580 0
79 -520 -558 0
79 -498 -610 0
79 -520 -588 0
79 -528 -580 0
79 -550 -558 0
79 -528 -610 0
79 -550 -588 0
79 -558 -610 0
79 -580 -588 0
80 -438 -491 0
80 -461 -468 0
80 -438 -521 0
80 -461 -498 0
80 -438 -551 0
80 -461 -528 0
80 -438 -581 0
80 -461 -558 0
80 -438 -611 0
80 -461 -588 0
80 -468 -521 0
80 -491 -498 0
80 -468 -551 0
80 -491 -528 0
80 -468 -581 0
80 -491 -558 0
80 -468 -611 0
80 -491 -588 0
80 -498 -551 0
80 -521 -528 0
80 -498 -581 0
80 -521 -558 0
80 -498 -611 0
80 -521 -588 0
80 -528 -581 0
80 -551 -558 0
80 -528 -611 0
80 -551 -588 0
80 -558 -611 0
80 -581 -588 0
81 -438 -492 0
81 -462 -468 0
81 -438 -522 0
81 -462 -498 0
81 -438 -552 0
81 -462 -528 0
81 -438 -582 0
81 -462 -558 0
81 -438 -612 0
81 -462 -588 0
81 -468 -522 0
81 -492 -498 0
81 -468 -552 0
81 -492 -528 0
81 -468 -582 0
81 -492 -558 0
81 -468 -612 0
81 -492 -588 0
81 -498 -552 0
81 -522 -528 0
81 -498 -582 0
81 -522 -558 0
81 -498 -612 0
81 -522 -588 0
81 -528 -582 0
81 -552 -558 0
81 -528 -612 0
81 -552 -588 0
81 -558 -612 0
81 -582 -588 0
82 -438 -493 0
82 -463 -468 0
82 -438 -523 0
82 -463 -498 0
82 -438 -553 0
82 -463 -528 0
82 -438 -583 0
82 -463 -558 0
82 -438 -613 0
82 -463 -588 0
82 -468 -523 0
82 -493 -498 0
82 -468 -553 0
82 -493 -528 0
82 -468 -583 0
82 -493 -558 0
82 -468 -613 0
82 -493 -588 0
82 -498 -553 0
82 -523 -528 0
82 -498 -583 0
82 -523 -558 0
82 -498 -613 0
82 -523 -588 0
82 -528 -583 0
82 -553 -558 0
82 -528 -613 0
82 -553 -588 0
82 -558 -613 0
82 -583 -588 0
83 -438 -494 0
83 -464 -468 0
83 -438 -524 0
83 -464 -498 0
83 -438 -554 0
83 -464 -528 0
83 -438 -584 0
83 -464 -558 0
83 -438 -614 0
83 -464 -588 0
83 -468 -524 0
83 -494 -498 0
83 -468 -554 0
83 -494 -528 0
83 -468 -584 0
83 -494 -558 0
83 -468 -614 0
83 -494 -588 0
83 -498 -554 0
83 -524 -528 0
83 -498 -584 0
83 -524 -558 0
83 -498 -614 0
83 -524 -588 0
83 -528 -584 0
83 -554 -558 0
83 -528 -614 0
83 -554 -588 0
83 -558 -614 0
83 -584 -588 0
84 -438 -495 0
84 -465 -468 0
84 -438 -525 0
84 -465 -498 0
84 -438 -555 0
84 -465 -528 0
84 -438 -585 0
84 -465 -558 0
84 -438 -615 0
84 -465 -588 0
84 -468 -525 0
84 -495 -498 0
84 -468 -555 0
84 -495 -528 0
84 -468 -585 0
84 -495 -558 0
84 -468 -615 0
84 -495 -588 0
84 -498 -555 0
84 -525 -528 0
84 -498 -585 0
84 -525 -558 0
84 -498 -615 0
84 -525 -588 0
84 -528 -585 0
84 -555 -558 0
84 -528 -615 0
84 -555 -588 0
84 -558 -615 0
84 -585 -588 0
85 -439 -470 0
85 -440 -469 0
85 -439 -500 0
85 -440 -499 0
85 -439 -530 0
85 -440 -529 0
85 -439 -560 0
85 -440 -559 0
85 -439 -590 0
85 -440 -589 0
85 -469 -500 0
85 -470 -499 0
85 -469 -530 0
85 -470 -529 0
85 -469 -560 0
85 -470 -559 0
85 -469 -590 0
85 -470 -589 0
85 -499 -530 0
85 -500 -529 0
85 -499 -560 0
85 -500 -559 0
85 -499 -590 0
85 -500 -589 0
85 -529 -560 0
85 -530 -559 0
85 -529 -590 0
85 -530 -589 0
85 -559 -590 0
85 -560 -589 0
86 -439 -471 0
86 -441 -469 0
86 -439 -501 0
86 -441 -499 0
86 -439 -531 0
86 -441 -529 0
86 -439 -561 0
86 -441 -559 0
86 -439 -591 0
86 -441 -589 0
86 -469 -501 0
86 -471 -499 0
86 -469 -531 0
86 -471 -529 0
86 -469 -561 0
86 -471 -559 0
86 -469 -591 0
86 -471 -589 0
86 -499 -531 0
86 -501 -529 0
86 -499 -561 0
86 -501 -559 0
86 -499 -591 0
86 -501 -589 0
86 -529 -561 0
86 -531 -559 0
86 -529 -591 0
86 -531 -589 0
86 -559 -591 0
86 -561 -589 0
87 -439 -472 0
87 -442 -469 0
87 -439 -502 0
87 -442 -499 0
87 -439 -532 0
87 -442 -529 0
87 -439 -562 0
87 -442 -559 0
87 -439 -592 0
87 -442 -589 0
87 -469 -502 0
87 -472 -499 0
87 -469 -532 0
87 -472 -529 0
87 -469 -562 0
87 -472 -559 0
87 -469 -592 0
87 -472 -589 0
87 -499 -532 0
87 -502 -529 0
87 -499 -562 0
87 -502 -559 0
87 -499 -592 0
87 -502 -589 0
87 -529 -562 0
87 -532 -559 0
87 -529 -592 0
87 -532 -589 0
87 -559 -592 0
87 -562 -589 0
88 -439 -473 0
88 -443 -469 0
88 -439 -503 0
88 -443 -499 0
88 -439 -533 0
88 -443 -529 0
88 -439 -563 0
88 -443 -559 0
88 -439 -593 0
88 -443 -589 0
88 -469 -503 0
88 -473 -499 0
88 -469 -533 0
88 -473 -529 0
88 -469 -563 0
88 -473 -559 0
88 -469 -593 0
88 -473 -589 0
88 -499 -533 0
88 -503 -529 0
88 -499 -563 0
88 -503 -559 0
88 -499 -593 0
88 -503 -589 0
88 -529 -563 0
88 -533 -559 0
88 -529 -593 0
88 -533 -589 0
88 -559 -593 0
88 -563 -589 0
89 -439 -474 0
89 -444 -469 0
89 -439 -504 0
89 -444 -499 0
89 -439 -534 0
89 -444 -529 0
89 -439 -564 0
89 -444 -559 0
89 -439 -594 0
89 -444 -589 0
89 -469 -504 0
89 -474 -499 0
89 -469 -534 0
89 -474 -529 0
89 -469 -564 0
89 -474 -559 0
89 -469 -594 0
89 -474 -589 0
89 -499 -534 0
89 -504 -529 0
89 -499 -564 0
89 -504 -559 0
89 -499 -594 0
89 -504 -589 0
89 -529 -564 0
89 -534 -559 0
89 -529 -594 0
89 -534 -589 0
89 -559 -594 0
89 -564 -589 0
90 -439 -475 0
90 -445 -469 0
90 -439 -505 0
90 -445 -499 0
90 -439 -535 0
90 -445 -529 0
90 -439 -565 0
90 -445 -559 0
90 -439 -595 0
90 -445 -589 0
90 -469 -505 0
90 -475 -499 0
90 -469 -535 0
90 -475 -529 0
90 -469 -565 0
90 -475 -559 0
90 -469 -595 0
90 -475 -589 0
90 -499 -535 0
90 -505 -529 0
90 -499 -565 0
90 -505 -559 0
90 -499 -595 0
90 -505 -589 0
90 -529 -565 0
90 -535 -559 0
90 -529 -595 0
90 -535 -589 0
90 -559 -595 0
90 -565 -589 0
91 -439 -476 0
91 -446 -469 0
91 -439 -506 0
91 -446 -499 0
91 -439 -536 0
91 -446 -529 0
91 -439 -566 0
91 -446 -559 0
91 -439 -596 0
91 -446 -589 0
91 -469 -506 0
91 -476 -499 0
91 -469 -536 0
91 -476 -529 0
91 -469 -566 0
91 -476 -559 0
91 -469 -596 0
91 -476 -589 0
91 -499 -536 0
91 -506 -529 0
91 -499 -566 0
91 -506 -559 0
91 -499 -596 0
91 -506 -589 0
91 -529 -566 0
91 -536 -559 0
91 -529 -596 0
91 -536 -589 0
91 -559 -596 0
91 -566 -589 0
92 -439 -477 0
92 -447 -469 0
92 -439 -507 0
92 -447 -499 0
92 -439 -537 0
92 -447 -529 0
92 -439 -567 0
92 -447 -559 0
92 -439 -597 0
92 -447 -589 0
92 -469 -507 0
92 -477 -499 0
92 -469 -537 0
92 -477 -529 0
92 -469 -567 0
92 -477 -559 0
92 -469 -597 0
92 -477 -589 0
92 -499 -537 0
92 -507 -529 0
92 -499 -567 0
92 -507 -559 0
92 -499 -597 0
92 -507 -589 0
92 -529 -567 0
92 -537 -559 0
92 -529 -597 0
92 -537 -589 0
92 -559 -597 0
92 -567 -589 0
93 -439 -478 0
93 -448 -469 0
93 -439 -508 0
93 -448 -499 0
93 -439 -538 0
93 -448 -529 0
93 -439 -568 0
93 -448 -559 0
93 -439 -598 0
93 -448 -589 0
93 -469 -508 0
93 -478 -499 0
93 -469 -538 0
93 -478 -529 0
93 -469 -568 0
93 -478 -559 0
93 -469 -598 0
93 -478 -589 0
93 -499 -538 0
93 -508 -529 0
93 -499 -568 0
93 -508 -559 0
93 -499 -598 0
93 -508 -589 0
93 -529 -568 0
93 -538 -559 0
93 -529 -598 0
93 -538 -589 0
93 -559 -598 0
93 -568 -589 0
94 -439 -479 0
94 -449 -469 0
94 -439 -509 0
94 -449 -499 0
94 -439 -539 0
94 -449 -529 0
94 -439 -569 0
94 -449 -559 0
94 -439 -599 0
94 -449 -589 0
94 -469 -509 0
94 -479 -499 0
94 -469 -539 0
94 -479 -529 0
94 -469 -569 0
94 -479 -559 0
94 -469 -599 0
94 -479 -589 0
94 -499 -539 0
94 -509 -529 0
94 -499 -569 0
94 -509 -559 0
94 -499 -599 0
94 -509 -589 0
94 -529 -569 0
94 -539 -559 0
94 -529 -599 0
94 -539 -589 0
94 -559 -599 0
94 -569 -589 0
95 -439 -480 0
95 -450 -469 0
95 -439 -510 0
95 -450 -499 0
95 -439 -540 0
95 -450 -529 0
95 -439 -570 0
95 -450 -559 0
95 -439 -600 0
95 -450 -589 0
95 -469 -510 0
95 -480 -499 0
95 -469 -540 0
95 -480 -529 0
95 -469 -570 0
95 -480 -559 0
95 -469 -600 0
95 -480 -589 0
95 -499 -540 0
95 -510 -529 0
95 -499 -570 0
95 -510 -559 0
95 -499 -600 0
95 -510 -589 0
95 -529 -570 0
95 -540 -559 0
95 -529 -600 0
95 -540 -589 0
95 -559 -600 0
95 -570 -589 0
96 -439 -481 0
96 -451 -469 0
96 -439 -511 0
96 -451 -499 0
96 -439 -541 0
96 -451 -529 0
96 -439 -571 0
96 -451 -559 0
96 -439 -601 0
96 -451 -589 0
96 -469 -511 0
96 -481 -499 0
96 -469 -541 0
96 -481 -529 0
96 -469 -571 0
96 -481 -559 0
96 -469 -601 0
96 -481 -589 0
96 -499 -541 0
96 -511 -529 0
96 -499 -571 0
96 -511 -559 0
96 -499 -601 0
96 -511 -589 0
96 -529 -571 0
96 -541 -559 0
96 -529 -601 0
96 -541 -589 0
96 -559 -601 0
96 -571 -589 0
97 -439 -482 0
97 -452 -469 0
97 -439 -512 0
97 -452 -499 0
97 -439 -542 0
97 -452 -529 0
97 -439 -572 0
97 -452 -559 0
97 -439 -602 0
97 -452 -589 0
97 -469 -512 0
97 -482 -499 0
97 -469 -542 0
97 -482 -529 0
97 -469 -572 0
97 -482 -559 0
97 -469 -602 0
97 -482 -589 0
97 -499 -542 0
97 -512 -529 0
97 -499 -572 0
97 -512 -559 0
97 -499 -602 0
97 -512 -589 0
97 -529 -572 0
97 -542 -559 0
97 -529 -602 0
97 -542 -589 0
97 -559 -602 0
97 -572 -589 0
98 -439 -483 0
98 -453 -469 0
98 -439 -513 0
98 -453 -499 0
98 -439 -543 0
98 -453 -529 0
98 -439 -573 0
98 -453 -559 0
98 -439 -603 0
98 -453 -589 0
98 -469 -513 0
98 -483 -499 0
98 -469 -543 0
98 -483 -529 0
98 -469 -573 0
98 -483 -559 0
98 -469 -603 0
98 -483 -589 0
98 -499 -543 0
98 -513 -529 0
98 -499 -573 0
98 -513 -559 0
98 -499 -603 0
98 -513 -589 0
98 -529 -573 0
98 -543 -559 0
98 -529 -603 0
98 -543 -589 0
98 -559 -603 0
98 -573 -589 0
99 -439 -484 0
99 -454 -469 0
99 -439 -514 0
99 -454 -499 0
99 -439 -544 0
99 -454 -529 0
99 -439 -574 0
99 -454 -559 0
99 -439 -604 0
99 -454 -589 0
99 -469 -514 0
99 -484 -499 0
99 -469 -544 0
99 -484 -529 0
99 -469 -574 0
99 -484 -559 0
99 -469 -604 0
99 -484 -589 0
99 -499 -544 0
99 -514 -529 0
99 -499 -574 0
99 -514 -559 0
99 -499 -604 0
99 -514 -589 0
99 -529 -574 0
99 -544 -559 0
99 -529 -604 0
99 -544 -589 0
99 -559 -604 0
99 -574 -589 0
100 -439 -485 0
100 -455 -469 0
100 -439 -515 0
100 -455 -499 0
100 -439 -545 0
100 -455 -529 0
100 -439 -575 0
100 -455 -559 0
100 -439 -605 0
100 -455 -589 0
100 -469 -515 0
100 -485 -499 0
100 -469 -545 0
100 -485 -529 0
100 -469 -575 0
100 -485 -559 0
100 -469 -605 0
100 -485 -589 0
100 -499 -545 0
100 -515 -529 0
100 -499 -575 0
100 -515 -559 0
100 -499 -605 0
100 -515 -589 0
100 -529 -575 0
100 -545 -559 0
100 -529 -605 0
100 -545 -589 0
100 -559 -605 0
100 -575 -589 0
101 -439 -486 0
101 -456 -469 0
101 -439 -516 0
101 -456 -499 0
101 -439 -546 0
101 -456 -529 0
101 -439 -576 0
101 -456 -559 0
101 -439 -606 0
101 -456 -589 0
101 -469 -516 0
101 -486 -499 0
101 -469 -546 0
101 -486 -529 0
101 -469 -576 0
101 -486 -559 0
101 -469 -606 0
101 -486 -589 0
101 -499 -546 0
101 -516 -529 0
101 -499 -576 0
101 -516 -559 0
101 -499 -606 0
101 -516 -589 0
101 -529 -576 0
101 -546 -559 0
101 -529 -606 0
101 -546 -589 0
101 -559 -606 0
101 -576 -589 0
102 -439 -487 0
102 -457 -469 0
102 -439 -517 0
102 -457 -499 0
102 -439 -547 0
102 -457 -529 0
102 -439 -577 0
102 -457 -559 0
102 -439 -607 0
102 -457 -589 0
102 -469 -517 0
102 -487 -499 0
102 -469 -547 0
102 -487 -529 0
102 -469 -577 0
102 -487 -559 0
102 -469 -607 0
102 -487 -589 0
102 -499 -547 0
102 -517 -529 0
102 -499 -577 0
102 -517 -559 0
102 -499 -607 0
102 -517 -589 0
102 -529 -577 0
102 -547 -559 0
102 -529 -607 0
102 -547 -589 0
102 -559 -607 0
102 -577 -589 0
103 -439 -488 0
103 -458 -469 0
103 -439 -518 0
103 -458 -499 0
103 -439 -548 0
103 -458 -529 0
103 -439 -578 0
103 -458 -559 0
103 -439 -608 0
103 -458 -589 0
103 -469 -518 0
103 -488 -499 0
103 -469 -548 0
103 -488 -529 0
103 -469 -578 0
103 -488 -559 0
103 -469 -608 0
103 -488 -589 0
103 -499 -548 0
103 -518 -529 0
103 -499 -578 0
103 -518 -559 0
103 -499 -608 0
103 -518 -589 0
103 -529 -578 0
103 -548 -559 0
103 -529 -608 0
103 -548 -589 0
103 -559 -608 0
103 -578 -589 0
104 -439 -489 0
104 -459 -469 0
104 -439 -519 0
104 -459 -499 0
104 -439 -549 0
104 -459 -529 0
104 -439 -579 0
104 -459 -559 0
104 -439 -609 0
104 -459 -589 0
104 -469 -519 0
104 -489 -499 0
104 -469 -549 0
104 -489 -529 0
104 -469 -579 0
104 -489 -559 0
104 -469 -609 0
104 -489 -589 0
104 -499 -549 0
104 -519 -529 0
104 -499 -579 0
104 -519 -559 0
104 -499 -609 0
104 -519 -589 0
104 -529 -579 0
104 -549 -559 0
104 -529 -609 0
104 -549 -589 0
104 -559 -609 0
104 -579 -589 0
105 -439 -490 0
105 -460 -469 0
105 -439 -520 0
105 -460 -499 0
105 -439 -550 0
105 -460 -529 0
105 -439 -580 0
105 -460 -559 0
105 -439 -610 0
105 -460 -589 0
105 -469 -520 0
105 -490 -499 0
105 -469 -550 0
105 -490 -529 0
105 -469 -580 0
105 -490 -559 0
105 -469 -610 0
105 -490 -589 0
105 -499 -550 0
105 -520 -529 0
105 -499 -580 0
105 -520 -559 0
105 -499 -610 0
105 -520 -589 0
105 -529 -580 0
105 -550 -559 0
105 -529 -610 0
105 -550 -589 0
105 -559 -610 0
105 -580 -589 0
106 -439 -491 0
106 -461 -469 0
106 -439 -521 0
106 -461 -499 0
106 -439 -551 0
106 -461 -529 0
106 -439 -581 0
106 -461 -559 0
106 -439 -611 0
106 -461 -589 0
106 -469 -521 0
106 -491 -499 0
106 -469 -551 0
106 -491 -529 0
106 -469 -581 0
106 -491 -559 0
106 -469 -611 0
106 -491 -589 0
106 -499 -551 0
106 -521 -529 0
106 -499 -581 0
106 -521 -559 0
106 -499 -611 0
106 -521 -589 0
106 -529 -581 0
106 -551 -559 0
106 -529 -611 0
106 -551 -589 0
106 -559 -611 0
106 -581 -589 0
107 -439 -492 0
107 -462 -469 0
107 -439 -522 0
107 -462 -499 0
107 -439 -552 0
107 -462 -529 0
107 -439 -582 0
107 -462 -559 0
107 -439 -612 0
107 -462 -589 0
107 -469 -522 0
107 -492 -499 0
107 -469 -552 0
107 -492 -529 0
107 -469 -582 0
107 -492 -559 0
107 -469 -612 0
107 -492 -589 0
107 -499 -552 0
107 -522 -529 0
107 -499 -582 0
107 -522 -559 0
107 -499 -612 0
107 -522 -589 0
107 -529 -582 0
107 -552 -559 0
107 -529 -612 0
107 -552 -589 0
107 -559 -612 0
107 -582 -589 0
108 -439 -493 0
108 -463 -469 0
108 -439 -523 0
108 -463 -499 0
108 -439 -553 0
108 -463 -529 0
108 -439 -583 0
108 -463 -559 0
108 -439 -613 0
108 -463 -589 0
108 -469 -523 0
108 -493 -499 0
108 -469 -553 0
108 -493 -529 0
108 -469 -583 0
108 -493 -559 0
108 -469 -613 0
108 -493 -589 0
108 -499 -553 0
108 -523 -529 0
108 -499 -583 0
108 -523 -559 0
108 -499 -613 0
108 -523 -589 0
108 -529 -583 0
108 -553 -559 0
108 -529 -613 0
108 -553 -589 0
108 -559 -613 0
108 -583 -589 0
109 -439 -494 0
109 -464 -469 0
109 -439 -524 0
109 -464 -499 0
109 -439 -554 0
109 -464 -529 0
109 -439 -584 0
109 -464 -559 0
109 -439 -614 0
109 -464 -589 0
109 -469 -524 0
109 -494 -499 0
109 -469 -554 0
109 -494 -529 0
109 -469 -584 0
109 -494 -559 0
109 -469 -614 0
109 -494 -589 0
109 -499 -554 0
109 -524 -529 0
109 -499 -584 0
109 -524 -559 0
109 -499 -614 0
109 -524 -589 0
109 -529 -584 0
109 -554 -559 0
109 -529 -614 0
109 -554 -589 0
109 -559 -614 0
109 -584 -589 0
110 -439 -495 0
110 -465 -469 0
110 -439 -525 0
110 -465 -499 0
110 -439 -555 0
110 -465 -529 0
110 -439 -585 0
110 -465 -559 0
110 -439 -615 0
110 -465 -589 0
110 -469 -525 0
110 -495 -499 0
110 -469 -555 0
110 -495 -529 0
110 -469 -585 0
110 -495 -559 0
110 -469 -615 0
110 -495 -589 0
110 -499 -555 0
110 -525 -529 0
110 -499 -585 0
110 -525 -559 0
110 -499 -615 0
110 -525 -589 0
110 -529 -585 0
110 -555 -559 0
110 -529 -615 0
110 -555 -589 0
110 -559 -615 0
110 -585 -589 0
111 -440 -471 0
111 -441 -470 0
111 -440 -501 0
111 -441 -500 0
111 -440 -531 0
111 -441 -530 0
111 -440 -561 0
111 -441 -560 0
111 -440 -591 0
111 -441 -590 0
111 -470 -501 0
111 -471 -500 0
111 -470 -531 0
111 -471 -530 0
111 -470 -561 0
111 -471 -560 0
111 -470 -591 0
111 -471 -590 0
111 -500 -531 0
111 -501 -530 0
111 -500 -561 0
111 -501 -560 0
111 -500 -591 0
111 -501 -590 0
111 -530 -561 0
111 -531 -560 0
111 -530 -591 0
111 -531 -590 0
111 -560 -591 0
111 -561 -590 0
112 -440 -472 0
112 -442 -470 0
112 -440 -502 0
112 -442 -500 0
112 -440 -532 0
112 -442 -530 0
112 -440 -562 0
112 -442 -560 0
112 -440 -592 0
112 -442 -590 0
112 -470 -502 0
112 -472 -500 0
112 -470 -532 0
112 -472 -530 0
112 -470 -562 0
112 -472 -560 0
112 -470 -592 0
112 -472 -590 0
112 -500 -532 0
112 -502 -530 0
112 -500 -562 0
112 -502 -560 0
112 -500 -592 0
112 -502 -590 0
112 -530 -562 0
112 -532 -560 0
112 -530 -592 0
112 -532 -590 0
112 -560 -592 0
112 -562 -590 0
113 -440 -473 0
113 -443 -470 0
113 -440 -503 0
113 -443 -500 0
113 -440 -533 0
113 -443 -530 0
113 -440 -563 0
113 -443 -560 0
113 -440 -593 0
113 -443 -590 0
113 -470 -503 0
113 -473 -500 0
113 -470 -533 0
113 -473 -530 0
113 -470 -563 0
113 -473 -560 0
113 -470 -593 0
113 -473 -590 0
113 -500 -533 0
113 -503 -530 0
113 -500 -563 0
113 -503 -560 0
113 -500 -593 0
113 -503 -590 0
113 -530 -563 0
113 -533 -560 0
113 -530 -593 0
113 -533 -590 0
113 -560 -593 0
113 -563 -590 0
114 -440 -474 0
114 -444 -470 0
114 -440 -504 0
114 -444 -500 0
114 -440 -534 0
114 -444 -530 0
114 -440 -564 0
114 -444 -560 0
114 -440 -594 0
114 -444 -590 0
114 -470 -504 0
114 -474 -500 0
114 -470 -534 0
114 -474 -530 0
114 -470 -564 0
114 -474 -560 0
114 -470 -594 0
114 -474 -590 0
114 -500 -534 0
114 -504 -530 0
114 -500 -564 0
114 -504 -560 0
114 -500 -594 0
114 -504 -590 0
114 -530 -564 0
114 -534 -560 0
114 -530 -594 0
114 -534 -590 0
114 -560 -594 0
114 -564 -590 0
115 -440 -475 0
115 -445 -470 0
115 -440 -505 0
115 -445 -500 0
115 -440 -535 0
115 -445 -530 0
115 -440 -565 0
115 -445 -560 0
115 -440 -595 0
115 -445 -590 0
115 -470 -505 0
115 -475 -500 0
115 -470 -535 0
115 -475 -530 0
115 -470 -565 0
115 -475 -560 0
115 -470 -595 0
115 -475 -590 0
115 -500 -535 0
115 -505 -530 0
115 -500 -565 0
115 -505 -560 0
115 -500 -595 0
115 -505 -590 0
115 -530 -565 0
115 -535 -560 0
115 -530 -595 0
115 -535 -590 0
115 -560 -595 0
115 -565 -590 0
116 -440 -476 0
116 -446 -470 0
116 -440 -506 0
116 -446 -500 0
116 -440 -536 0
116 -446 -530 0
116 -440 -566 0
116 -446 -560 0
116 -440 -596 0
116 -446 -590 0
116 -470 -506 0
116 -476 -500 0
116 -470 -536 0
116 -476 -530 0
116 -470 -566 0
116 -476 -560 0
116 -470 -596 0
116 -476 -590 0
116 -500 -536 0
116 -506 -530 0
116 -500 -566 0
116 -506 -560 0
116 -500 -596 0
116 -506 -590 0
116 -530 -566 0
116 -536 -560 0
116 -530 -596 0
116 -536 -590 0
116 -560 -596 0
116 -566 -590 0
117 -440 -477 0
117 -447 -470 0
117 -440 -507 0
117 -447 -500 0
117 -440 -537 0
117 -447 -530 0
117 -440 -567 0
117 -447 -560 0
117 -440 -597 0
117 -447 -590 0
117 -470 -507 0
117 -477 -500 0
117 -470 -537 0
117 -477 -530 0
117 -470 -567 0
117 -477 -560 0
117 -470 -597 0
117 -477 -590 0
117 -500 -537 0
117 -507 -530 0
117 -500 -567 0
117 -507 -560 0
117 -500 -597 0
117 -507 -590 0
117 -530 -567 0
117 -537 -560 0
117 -530 -597 0
117 -537 -590 0
117 -560 -597 0
117 -567 -590 0
118 -440 -478 0
118 -448 -470 0
118 -440 -508 0
118 -448 -500 0
118 -440 -538 0
118 -448 -530 0
118 -440 -568 0
118 -448 -560 0
118 -440 -598 0
118 -448 -590 0
118 -470 -508 0
118 -478 -500 0
118 -470 -538 0
118 -478 -530 0
118 -470 -568 0
118 -478 -560 0
118 -470 -598 0
118 -478 -590 0
118 -500 -538 0
118 -508 -530 0
118 -500 -568 0
118 -508 -560 0
118 -500 -598 0
118 -508 -590 0
118 -530 -568 0
118 -538 -560 0
118 -530 -598 0
118 -538 -590 0
118 -560 -598 0
118 -568 -590 0
119 -440 -479 0
119 -449 -470 0
119 -440 -509 0
119 -449 -500 0
119 -440 -539 0
119 -449 -530 0
119 -440 -569 0
119 -449 -560 0
119 -440 -599 0
119 -449 -590 0
119 -470 -509 0
119 -479 -500 0
119 -470 -539 0
119 -479 -530 0
119 -470 -569 0
119 -479 -560 0
119 -470 -599 0
119 -479 -590 0
119 -500 -539 0
119 -509 -530 0
119 -500 -569 0
119 -509 -560 0
119 -500 -599 0
119 -509 -590 0
119 -530 -569 0
119 -539 -560 0
119 -530 -599 0
119 -539 -590 0
119 -560 -599 0
119 -569 -590 0
120 -440 -480 0
120 -450 -470 0
120 -440 -510 0
120 -450 -500 0
120 -440 -540 0
120 -450 -530 0
120 -440 -570 0
120 -450 -560 0
120 -440 -600 0
120 -450 -590 0
120 -470 -510 0
120 -480 -500 0
120 -470 -540 0
120 -480 -530 0
120 -470 -570 0
120 -480 -560 0
120 -470 -600 0
120 -480 -590 0
120 -500 -540 0
120 -510 -530 0
120 -500 -570 0
120 -510 -560 0
120 -500 -600 0
120 -510 -590 0
120 -530 -570 0
120 -540 -560 0
120 -530 -600 0
120 -540 -590 0
120 -560 -600 0
120 -570 -590 0
121 -440 -481 0
121 -451 -470 0
121 -440 -511 0
121 -451 -500 0
121 -440 -541 0
121 -451 -530 0
121 -440 -571 0
121 -451 -560 0
121 -440 -601 0
121 -451 -590 0
121 -470 -511 0
121 -481 -500 0
121 -470 -541 0
121 -481 -530 0
121 -470 -571 0
121 -481 -560 0
121 -470 -601 0
121 -481 -590 0
121 -500 -541 0
121 -511 -530 0
121 -500 -571 0
121 -511 -560 0
121 -500 -601 0
121 -511 -590 0
121 -530 -571 0
121 -541 -560 0
121 -530 -601 0
121 -541 -590 0
121 -560 -601 0
121 -571 -590 0
122 -440 -482 0
122 -452 -470 0
122 -440 -512 0
122 -452 -500 0
122 -440 -542 0
122 -452 -530 0
122 -440 -572 0
122 -452 -560 0
122 -440 -602 0
122 -452 -590 0
122 -470 -512 0
122 -482 -500 0
122 -470 -542 0
122 -482 -530 0
122 -470 -572 0
122 -482 -560 0
122 -470 -602 0
122 -482 -590 0
122 -500 -542 0
122 -512 -530 0
122 -500 -572 0
122 -512 -560 0
122 -500 -602 0
122 -512 -590 0
122 -530 -572 0
122 -542 -560 0
122 -530 -602 0
122 -542 -590 0
122 -560 -602 0
122 -572 -590 0
123 -440 -483 0
123 -453 -470 0
123 -440 -513 0
123 -453 -500 0
123 -440 -543 0
123 -453 -530 0
123 -440 -573 0
123 -453 -560 0
123 -440 -603 0
123 -453 -590 0
123 -470 -513 0
123 -483 -500 0
123 -470 -543 0
123 -483 -530 0
123 -470 -573 0
123 -483 -560 0
123 -470 -603 0
123 -483 -590 0
123 -500 -543 0
123 -513 -530 0
123 -500 -573 0
123 -513 -560 0
123 -500 -603 0
123 -513 -590 0
123 -530 -573 0
123 -543 -560 0
123 -530 -603 0
123 -543 -590 0
123 -560 -603 0
123 -573 -590 0
124 -440 -484 0
124 -454 -470 0
124 -440 -514 0
124 -454 -500 0
124 -440 -544 0
124 -454 -530 0
124 -440 -574 0
124 -454 -560 0
124 -440 -604 0
124 -454 -590 0
124 -470 -514 0
124 -484 -500 0
124 -470 -544 0
124 -484 -530 0
124 -470 -574 0
124 -484 -560 0
124 -470 -604 0
124 -484 -590 0
124 -500 -544 0
124 -514 -530 0
124 -500 -574 0
124 -514 -560 0
124 -500 -604 0
124 -514 -590 0
124 -530 -574 0
124 -544 -560 0
124 -530 -604 0
124 -544 -590 0
124 -560 -604 0
124 -574 -590 0
125 -440 -485 0
125 -455 -470 0
125 -440 -515 0
125 -455 -500 0
125 -440 -545 0
125 -455 -530 0
125 -440 -575 0
125 -455 -560 0
125 -440 -605 0
125 -455 -590 0
125 -470 -515 0
125 -485 -500 0
125 -470 -545 0
125 -485 -530 0
125 -470 -575 0
125 -485 -560 0
125 -470 -605 0
125 -485 -590 0
125 -500 -545 0
125 -515 -530 0
125 -500 -575 0
125 -515 -560 0
125 -500 -605 0
125 -515 -590 0
125 -530 -575 0
125 -545 -560 0
125 -530 -605 0
125 -545 -590 0
125 -560 -605 0
125 -575 -590 0
126 -440 -486 0
126 -456 -470 0
126 -440 -516 0
126 -456 -500 0
126 -440 -546 0
126 -456 -530 0
126 -440 -576 0
126 -456 -560 0
126 -440 -606 0
126 -456 -590 0
126 -470 -516 0
126 -486 -500 0
126 -470 -546 0
126 -486 -530 0
126 -470 -576 0
126 -486 -560 0
126 -470 -606 0
126 -486 -590 0
126 -500 -546 0
126 -516 -530 0
126 -500 -576 0
126 -516 -560 0
126 -500 -606 0
126 -516 -590 0
126 -530 -576 0
126 -546 -560 0
126 -530 -606 0
126 -546 -590 0
126 -560 -606 0
126 -576 -590 0
127 -440 -487 0
127 -457 -470 0
127 -440 -517 0
127 -457 -500 0
127 -440 -547 0
127 -457 -530 0
127 -440 -577 0
127 -457 -560 0
127 -440 -607 0
127 -457 -590 0
127 -470 -517 0
127 -487 -500 0
127 -470 -547 0
127 -487 -530 0
127 -470 -577 0
127 -487 -560 0
127 -470 -607 0
127 -487 -590 0
127 -500 -547 0
127 -517 -530 0
127 -500 -577 0
127 -517 -560 0
127 -500 -607 0
127 -517 -590 0
127 -530 -577 0
127 -547 -560 0
127 -530 -607 0
127 -547 -590 0
127 -560 -607 0
127 -577 -590 0
128 -440 -488 0
128 -458 -470 0
128 -440 -518 0
128 -458 -500 0
128 -440 -548 0
128 -458 -530 0
128 -440 -578 0
128 -458 -560 0
128 -440 -608 0
128 -458 -590 0
128 -470 -518 0
128 -488 -500 0
128 -470 -548 0
128 -488 -530 0
128 -470 -578 0
128 -488 -560 0
128 -470 -608 0
128 -488 -590 0
128 -500 -548 0
128 -518 -530 0
128 -500 -578 0
128 -518 -560 0
128 -500 -608 0
128 -518 -590 0
128 -530 -578 0
128 -548 -560 0
128 -530 -608 0
128 -548 -590 0
128 -560 -608 0
128 -578 -590 0
129 -440 -489 0
129 -459 -470 0
129 -440 -519 0
129 -459 -500 0
129 -440 -549 0
129 -459 -530 0
129 -440 -579 0
129 -459 -560 0
129 -440 -609 0
129 -459 -590 0
129 -470 -519 0
129 -489 -500 0
129 -470 -549 0
129 -489 -530 0
129 -470 -579 0
129 -489 -560 0
129 -470 -609 0
129 -489 -590 0
129 -500 -549 0
129 -519 -530 0
129 -500 -579 0
129 -519 -560 0
129 -500 -609 0
129 -519 -590 0
129 -530 -579 0
129 -549 -560 0
129 -530 -609 0
129 -549 -590 0
129 -560 -609 0
129 -579 -590 0
130 -440 -490 0
130 -460 -470 0
130 -440 -520 0
130 -460 -500 0
130 -440 -550 0
130 -460 -530 0
130 -440 -580 0
130 -460 -560 0
130 -440 -610 0
130 -460 -590 0
130 -470 -520 0
130 -490 -500 0
130 -470 -550 0
130 -490 -530 0
130 -470 -580 0
130 -490 -560 0
130 -470 -610 0
130 -490 -590 0
130 -500 -550 0
130 -520 -530 0
130 -500 -580 0
130 -520 -560 0
130 -500 -610 0
130 -520 -590 0
130 -530 -580 0
130 -550 -560 0
130 -530 -610 0
130 -550 -590 0
130 -560 -610 0
130 -580 -590 0
131 -440 -491 0
131 -461 -470 0
131 -440 -521 0
131 -461 -500 0
131 -440 -551 0
131 -461 -530 0
131 -440 -581 0
131 -461 -560 0
131 -440 -611 0
131 -461 -590 0
131 -470 -521 0
131 -491 -500 0
131 -470 -551 0
131 -491 -530 0
131 -470 -581 0
131 -491 -560 0
131 -470 -611 0
131 -491 -590 0
131 -500 -551 0
131 -521 -530 0
131 -500 -581 0
131 -521 -560 0
131 -500 -611 0
131 -521 -590 0
131 -530 -581 0
131 -551 -560 0
131 -530 -611 0
131 -551 -590 0
131 -560 -611 0
131 -581 -590 0
132 -440 -492 0
132 -462 -470 0
132 -440 -522 0
132 -462 -500 0
132 -440 -552 0
132 -462 -530 0
132 -440 -582 0
132 -462 -560 0
132 -440 -612 0
132 -462 -590 0
132 -470 -522 0
132 -492 -500 0
132 -470 -552 0
132 -492 -530 0
132 -470 -582 0
132 -492 -560 0
132 -470 -612 0
132 -492 -590 0
132 -500 -552 0
132 -522 -530 0
132 -500 -582 0
132 -522 -560 0
132 -500 -612 0
132 -522 -590 0
132 -530 -582 0
132 -552 -560 0
132 -530 -612 0
132 -552 -590 0
132 -560 -612 0
132 -582 -590 0
133 -440 -493 0
133 -463 -470 0
133 -440 -523 0
133 -463 -500 0
133 -440 -553 0
133 -463 -530 0
133 -440 -583 0
133 -463 -560 0
133 -440 -613 0
133 -463 -590 0
133 -470 -523 0
133 -493 -500 0
133 -470 -553 0
133 -493 -530 0
133 -470 -583 0
133 -493 -560 0
133 -470 -613 0
133 -493 -590 0
133 -500 -553 0
133 -523 -530 0
133 -500 -583 0
133 -523 -560 0
133 -500 -613 0
133 -523 -590 0
133 -530 -583 0
133 -553 -560 0
133 -530 -613 0
133 -553 -590 0
133 -560 -613 0
133 -583 -590 0
134 -440 -494 0
134 -464 -470 0
134 -440 -524 0
134 -464 -500 0
134 -440 -554 0
134 -464 -530 0
134 -440 -584 0
134 -464 -560 0
134 -440 -614 0
134 -464 -590 0
134 -470 -524 0
134 -494 -500 0
134 -470 -554 0
134 -494 -530 0
134 -470 -584 0
134 -494 -560 0
134 -470 -614 0
134 -494 -590 0
134 -500 -554 0
134 -524 -530 0
134 -500 -584 0
134 -524 -560 0
134 -500 -614 0
134 -524 -590 0
134 -530 -584 0
134 -554 -560 0
134 -530 -614 0
134 -554 -590 0
134 -560 -614 0
134 -584 -590 0
135 -440 -495 0
135 -465 -470 0
135 -440 -525 0
135 -465 -500 0
135 -440 -555 0
135 -465 -530 0
135 -440 -585 0
135 -465 -560 0
135 -440 -615 0
135 -465 -590 0
135 -470 -525 0
135 -495 -500 0
135 -470 -555 0
135 -495 -530 0
135 -470 -585 0
135 -495 -560 0
135 -470 -615 0
135 -495 -590 0
135 -500 -555 0
135 -525 -530 0
135 -500 -585 0
135 -525 -560 0
135 -500 -615 0
135 -525 -590 0
135 -530 -585 0
135 -555 -560 0
135 -530 -615 0
135 -555 -590 0
135 -560 -615 0
135 -585 -590 0
136 -441 -472 0
136 -442 -471 0
136 -441 -502 0
136 -442 -501 0
136 -441 -532 0
136 -442 -531 0
136 -441 -562 0
136 -442 -561 0
136 -441 -592 0
136 -442 -591 0
136 -471 -502 0
136 -472 -501 0
136 -471 -532 0
136 -472 -531 0
136 -471 -562 0
136 -472 -561 0
136 -471 -592 0
136 -472 -591 0
136 -501 -532 0
136 -502 -531 0
136 -501 -562 0
136 -502 -561 0
136 -501 -592 0
136 -502 -591 0
136 -531 -562 0
136 -532 -561 0
136 -531 -592 0
136 -532 -591 0
136 -561 -592 0
136 -562 -591 0
137 -441 -473 0
137 -443 -471 0
137 -441 -503 0
137 -443 -501 0
137 -441 -533 0
137 -443 -531 0
137 -441 -563 0
137 -443 -561 0
137 -441 -593 0
137 -443 -591 0
137 -471 -503 0
137 -473 -501 0
137 -471 -533 0
137 -473 -531 0
137 -471 -563 0
137 -473 -561 0
137 -471 -593 0
137 -473 -591 0
137 -501 -533 0
137 -503 -531 0
137 -501 -563 0
137 -503 -561 0
137 -501 -593 0
137 -503 -591 0
137 -531 -563 0
137 -533 -561 0
137 -531 -593 0
137 -533 -591 0
137 -561 -593 0
137 -563 -591 0
138 -441 -474 0
138 -444 -471 0
138 -441 -504 0
138 -444 -501 0
138 -441 -534 0
138 -444 -531 0
138 -441 -564 0
138 -444 -561 0
138 -441 -594 0
138 -444 -591 0
138 -471 -504 0
138 -474 -501 0
138 -471 -534 0
138 -474 -531 0
138 -471 -564 0
138 -474 -561 0
138 -471 -594 0
138 -474 -591 0
138 -501 -534 0
138 -504 -531 0
138 -501 -564 0
138 -504 -561 0
138 -501 -594 0
138 -504 -591 0
138 -531 -564 0
138 -534 -561 0
138 -531 -594 0
138 -534 -591 0
138 -561 -594 0
138 -564 -591 0
139 -441 -475 0
139 -445 -471 0
139 -441 -505 0
139 -445 -501 0
139 -441 -535 0
139 -445 -531 0
139 -441 -565 0
139 -445 -561 0
139 -441 -595 0
139 -445 -591 0
139 -471 -505 0
139 -475 -501 0
139 -471 -535 0
139 -475 -531 0
139 -471 -565 0
139 -475 -561 0
139 -471 -595 0
139 -475 -591 0
139 -501 -535 0
139 -505 -531 0
139 -501 -565 0
139 -505 -561 0
139 -501 -595 0
139 -505 -591 0
139 -531 -565 0
139 -535 -561 0
139 -531 -595 0
139 -535 -591 0
139 -561 -595 0
139 -565 -591 0
140 -441 -476 0
140 -446 -471 0
140 -441 -506 0
140 -446 -501 0
140 -441 -536 0
140 -446 -531 0
140 -441 -566 0
140 -446 -561 0
140 -441 -596 0
140 -446 -591 0
140 -471 -506 0
140 -476 -501 0
140 -471 -536 0
140 -476 -531 0
140 -471 -566 0
140 -476 -561 0
140 -471 -596 0
140 -476 -591 0
140 -501 -536 0
140 -506 -531 0
140 -501 -566 0
140 -506 -561 0
140 -501 -596 0
140 -506 -591 0
140 -531 -566 0
140 -536 -561 0
140 -531 -596 0
140 -536 -591 0
140 -561 -596 0
140 -566 -591 0
141 -441 -477 0
141 -447 -471 0
141 -441 -507 0
141 -447 -501 0
141 -441 -537 0
141 -447 -531 0
141 -441 -567 0
141 -447 -561 0
141 -441 -597 0
141 -447 -591 0
141 -471 -507 0
141 -477 -501 0
141 -471 -537 0
141 -477 -531 0
141 -471 -567 0
141 -477 -561 0
141 -471 -597 0
141 -477 -591 0
141 -501 -537 0
141 -507 -531 0
141 -501 -567 0
141 -507 -561 0
141 -501 -597 0
141 -507 -591 0
141 -531 -567 0
141 -537 -561 0
141 -531 -597 0
141 -537 -591 0
141 -561 -597 0
141 -567 -591 0
142 -441 -478 0
142 -448 -471 0
142 -441 -508 0
142 -448 -501 0
142 -441 -538 0
142 -448 -531 0
142 -441 -568 0
142 -448 -561 0
142 -441 -598 0
142 -448 -591 0
142 -471 -508 0
142 -478 -501 0
142 -471 -538 0
142 -478 -531 0
142 -471 -568 0
142 -478 -561 0
142 -471 -598 0
142 -478 -591 0
142 -501 -538 0
142 -508 -531 0
142 -501 -568 0
142 -508 -561 0
142 -501 -598 0
142 -508 -591 0
142 -531 -568 0
142 -538 -561 0
142 -531 -598 0
142 -538 -591 0
142 -561 -598 0
142 -568 -591 0
143 -441 -479 0
143 -449 -471 0
143 -441 -509 0
143 -449 -501 0
143 -441 -539 0
143 -449 -531 0
143 -441 -569 0
143 -449 -561 0
143 -441 -599 0
143 -449 -591 0
143 -471 -509 0
143 -479 -501 0
143 -471 -539 0
143 -479 -531 0
143 -471 -569 0
143 -479 -561 0
143 -471 -599 0
143 -479 -591 0
143 -501 -539 0
143 -509 -531 0
143 -501 -569 0
143 -509 -561 0
143 -501 -599 0
143 -509 -591 0
143 -531 -569 0
143 -539 -561 0
143 -531 -599 0
143 -539 -591 0
143 -561 -599 0
143 -569 -591 0
144 -441 -480 0
144 -450 -471 0
144 -441 -510 0
144 -450 -501 0
144 -441 -540 0
144 -450 -531 0
144 -441 -570 0
144 -450 -561 0
144 -441 -600 0
144 -450 -591 0
144 -471 -510 0
144 -480 -501 0
144 -471 -540 0
144 -480 -531 0
144 -471 -570 0
144 -480 -561 0
144 -471 -600 0
144 -480 -591 0
144 -501 -540 0
144 -510 -531 0
144 -501 -570 0
144 -510 -561 0
144 -501 -600 0
144 -510 -591 0
144 -531 -570 0
144 -540 -561 0
144 -531 -600 0
144 -540 -591 0
144 -561 -600 0
144 -570 -591 0
145 -441 -481 0
145 -451 -471 0
145 -441 -511 0
145 -451 -501 0
145 -441 -541 0
145 -451 -531 0
145 -441 -571 0
145 -451 -561 0
145 -441 -601 0
145 -451 -591 0
145 -471 -511 0
145 -481 -501 0
145 -471 -541 0
145 -481 -531 0
145 -471 -571 0
145 -481 -561 0
145 -471 -601 0
145 -481 -591 0
145 -501 -541 0
145 -511 -531 0
145 -501 -571 0
145 -511 -561 0
145 -501 -601 0
145 -511 -591 0
145 -531 -571 0
145 -541 -561 0
145 -531 -601 0
145 -541 -591 0
145 -561 -601 0
145 -571 -591 0
146 -441 -482 0
146 -452 -471 0
146 -441 -512 0
146 -452 -501 0
146 -441 -542 0
146 -452 -531 0
146 -441 -572 0
146 -452 -561 0
146 -441 -602 0
146 -452 -591 0
146 -471 -512 0
146 -482 -501 0
146 -471 -542 0
146 -482 -531 0
146 -471 -572 0
146 -482 -561 0
146 -471 -602 0
146 -482 -591 0
146 -501 -542 0
146 -512 -531 0
146 -501 -572 0
146 -512 -561 0
146 -501 -602 0
146 -512 -591 0
146 -531 -572 0
146 -542 -561 0
146 -531 -602 0
146 -542 -591 0
146 -561 -602 0
146 -572 -591 0
147 -441 -483 0
147 -453 -471 0
147 -441 -513 0
147 -453 -501 0
147 -441 -543 0
147 -453 -531 0
147 -441 -573 0
147 -453 -561 0
147 -441 -603 0
147 -453 -591 0
147 -471 -513 0
147 -483 -501 0
147 -471 -543 0
147 -483 -531 0
147 -471 -573 0
147 -483 -561 0
147 -471 -603 0
147 -483 -591 0
147 -501 -543 0
147 -513 -531 0
147 -501 -573 0
147 -513 -561 0
147 -501 -603 0
147 -513 -591 0
147 -531 -573 0
147 -543 -561 0
147 -531 -603 0
147 -543 -591 0
147 -561 -603 0
147 -573 -591 0
148 -441 -484 0
148 -454 -471 0
148 -441 -514 0
148 -454 -501 0
148 -441 -544 0
148 -454 -531 0
148 -441 -574 0
148 -454 -561 0
148 -441 -604 0
148 -454 -591 0
148 -471 -514 0
148 -484 -501 0
148 -471 -544 0
148 -484 -531 0
148 -471 -574 0
148 -484 -561 0
148 -471 -604 0
148 -484 -591 0
148 -501 -544 0
148 -514 -531 0
148 -501 -574 0
148 -514 -561 0
148 -501 -604 0
148 -514 -591 0
148 -531 -574 0
148 -544 -561 0
148 -531 -604 0
148 -544 -591 0
148 -561 -604 0
148 -574 -591 0
149 -441 -485 0
149 -455 -471 0
149 -441 -515 0
149 -455 -501 0
149 -441 -545 0
149 -455 -531 0
149 -441 -575 0
149 -455 -561 0
149 -441 -605 0
149 -455 -591 0
149 -471 -515 0
149 -485 -501 0
149 -471 -545 0
149 -485 -531 0
149 -471 -575 0
149 -485 -561 0
149 -471 -605 0
149 -485 -591 0
149 -501 -545 0
149 -515 -531 0
149 -501 -575 0
149 -515 -561 0
149 -501 -605 0
149 -515 -591 0
149 -531 -575 0
149 -545 -561 0
149 -531 -605 0
149 -545 -591 0
149 -561 -605 0
149 -575 -591 0
150 -441 -486 0
150 -456 -471 0
150 -441 -516 0
150 -456 -501 0
150 -441 -546 0
150 -456 -531 0
150 -441 -576 0
150 -456 -561 0
150 -441 -606 0
150 -456 -591 0
150 -471 -516 0
150 -486 -501 0
150 -471 -546 0
150 -486 -531 0
150 -471 -576 0
150 -486 -561 0
150 -471 -606 0
150 -486 -591 0
150 -501 -546 0
150 -516 -531 0
150 -501 -576 0
150 -516 -561 0
150 -501 -606 0
150 -516 -591 0
150 -531 -576 0
150 -546 -561 0
150 -531 -606 0
150 -546 -591 0
150 -561 -606 0
150 -576 -591 0
151 -441 -487 0
151 -457 -471 0
151 -441 -517 0
151 -457 -501 0
151 -441 -547 0
151 -457 -531 0
151 -441 -577 0
151 -457 -561 0
151 -441 -607 0
151 -457 -591 0
151 -471 -517 0
151 -487 -501 0
151 -471 -547 0
151 -487 -531 0
151 -471 -577 0
151 -487 -561 0
151 -471 -607 0
151 -487 -591 0
151 -501 -547 0
151 -517 -531 0
151 -501 -577 0
151 -517 -561 0
151 -501 -607 0
151 -517 -591 0
151 -531 -577 0
151 -547 -561 0
151 -531 -607 0
151 -547 -591 0
151 -561 -607 0
151 -577 -591 0
152 -441 -488 0
152 -458 -471 0
152 -441 -518 0
152 -458 -501 0
152 -441 -548 0
152 -458 -531 0
152 -441 -578 0
152 -458 -561 0
152 -441 -608 0
152 -458 -591 0
152 -471 -518 0
152 -488 -501 0
152 -471 -548 0
152 -488 -531 0
152 -471 -578 0
152 -488 -561 0
152 -471 -608 0
152 -488 -591 0
152 -501 -548 0
152 -518 -531 0
152 -501 -578 0
152 -518 -561 0
152 -501 -608 0
152 -518 -591 0
152 -531 -578 0
152 -548 -561 0
152 -531 -608 0
152 -548 -591 0
152 -561 -608 0
152 -578 -591 0
153 -441 -489 0
153 -459 -471 0
153 -441 -519 0
153 -459 -501 0
153 -441 -549 0
153 -459 -531 0
153 -441 -579 0
153 -459 -561 0
153 -441 -609 0
153 -459 -591 0
153 -471 -519 0
153 -489 -501 0
153 -471 -549 0
153 -489 -531 0
153 -471 -579 0
153 -489 -561 0
153 -471 -609 0
153 -489 -591 0
153 -501 -549 0
153 -519 -531 0
153 -501 -579 0
153 -519 -561 0
153 -501 -609 0
153 -519 -591 0
153 -531 -579 0
153 -549 -561 0
153 -531 -609 0
153 -549 -591 0
153 -561 -609 0
153 -579 -591 0
154 -441 -490 0
154 -460 -471 0
154 -441 -520 0
154 -460 -501 0
154 -441 -550 0
154 -460 -531 0
154 -441 -580 0
154 -460 -561 0
154 -441 -610 0
154 -460 -591 0
154 -471 -520 0
154 -490 -501 0
154 -471 -550 0
154 -490 -531 0
154 -471 -580 0
154 -490 -561 0
154 -471 -610 0
154 -490 -591 0
154 -501 -550 0
154 -520 -531 0
154 -501 -580 0
154 -520 -561 0
154 -501 -610 0
154 -520 -591 0
154 -531 -580 0
154 -550 -561 0
154 -531 -610 0
154 -550 -591 0
154 -561 -610 0
154 -580 -591 0
155 -441 -491 0
155 -461 -471 0
155 -441 -521 0
155 -461 -501 0
155 -441 -551 0
155 -461 -531 0
155 -441 -581 0
155 -461 -561 0
155 -441 -611 0
155 -461 -591 0
155 -471 -521 0
155 -491 -501 0
155 -471 -551 0
155 -491 -531 0
155 -471 -581 0
155 -491 -561 0
155 -471 -611 0
155 -491 -591 0
155 -501 -551 0
155 -521 -531 0
155 -501 -581 0
155 -521 -561 0
155 -501 -611 0
155 -521 -591 0
155 -531 -581 0
155 -551 -561 0
155 -531 -611 0
155 -551 -591 0
155 -561 -611 0
155 -581 -591 0
156 -441 -492 0
156 -462 -471 0
156 -441 -522 0
156 -462 -501 0
156 -441 -552 0
156 -462 -531 0
156 -441 -582 0
156 -462 -561 0
156 -441 -612 0
156 -462 -591 0
156 -471 -522 0
156 -492 -501 0
156 -471 -552 0
156 -492 -531 0
156 -471 -582 0
156 -492 -561 0
156 -471 -612 0
156 -492 -591 0
156 -501 -552 0
156 -522 -531 0
156 -501 -582 0
156 -522 -561 0
156 -501 -612 0
156 -522 -591 0
156 -531 -582 0
156 -552 -561 0
156 -531 -612 0
156 -552 -591 0
156 -561 -612 0
156 -582 -591 0
157 -441 -493 0
157 -463 -471 0
157 -441 -523 0
157 -463 -501 0
157 -441 -553 0
157 -463 -531 0
157 -441 -583 0
157 -463 -561 0
157 -441 -613 0
157 -463 -591 0
157 -471 -523 0
157 -493 -501 0
157 -471 -553 0
157 -493 -531 0
157 -471 -583 0
157 -493 -561 0
157 -471 -613 0
157 -493 -591 0
157 -501 -553 0
157 -523 -531 0
157 -501 -583 0
157 -523 -561 0
157 -501 -613 0
157 -523 -591 0
157 -531 -583 0
157 -553 -561 0
157 -531 -613 0
157 -553 -591 0
157 -561 -613 0
157 -583 -591 0
158 -441 -494 0
158 -464 -471 0
158 -441 -524 0
158 -464 -501 0
158 -441 -554 0
158 -464 -531 0
158 -441 -584 0
158 -464 -561 0
158 -441 -614 0
158 -464 -591 0
158 -471 -524 0
158 -494 -501 0
158 -471 -554 0
158 -494 -531 0
158 -471 -584 0
158 -494 -561 0
158 -471 -614 0
158 -494 -591 0
158 -501 -554 0
158 -524 -531 0
158 -501 -584 0
158 -524 -561 0
158 -501 -614 0
158 -524 -591 0
158 -531 -584 0
158 -554 -561 0
158 -531 -614 0
158 -554 -591 0
158 -561 -614 0
158 -584 -591 0
159 -441 -495 0
159 -465 -471 0
159 -441 -525 0
159 -465 -501 0
159 -441 -555 0
159 -465 -531 0
159 -441 -585 0
159 -465 -561 0
159 -441 -615 0
159 -465 -591 0
159 -471 -525 0
159 -495 -501 0
159 -471 -555 0
159 -495 -531 0
159 -471 -585 0
159 -495 -561 0
159 -471 -615 0
159 -495 -591 0
159 -501 -555 0
159 -525 -531 0
159 -501 -585 0
159 -525 -561 0
159 -501 -615 0
159 -525 -591 0
159 -531 -585 0
159 -555 -561 0
159 -531 -615 0
159 -555 -591 0
159 -561 -615 0
159 -585 -591 0
160 -442 -473 0
160 -443 -472 0
160 -442 -503 0
160 -443 -502 0
160 -442 -533 0
160 -443 -532 0
160 -442 -563 0
160 -443 -562 0
160 -442 -593 0
160 -443 -592 0
160 -472 -503 0
160 -473 -502 0
160 -472 -533 0
160 -473 -532 0
160 -472 -563 0
160 -473 -562 0
160 -472 -593 0
160 -473 -592 0
160 -502 -533 0
160 -503 -532 0
160 -502 -563 0
160 -503 -562 0
160 -502 -593 0
160 -503 -592 0
160 -532 -563 0
160 -533 -562 0
160 -532 -593 0
160 -533 -592 0
160 -562 -593 0
160 -563 -592 0
161 -442 -474 0
161 -444 -472 0
161 -442 -504 0
161 -444 -502 0
161 -442 -534 0
161 -444 -532 0
161 -442 -564 0
161 -444 -562 0
161 -442 -594 0
161 -444 -592 0
161 -472 -504 0
161 -474 -502 0
161 -472 -534 0
161 -474 -532 0
161 -472 -564 0
161 -474 -562 0
161 -472 -594 0
161 -474 -592 0
161 -502 -534 0
161 -504 -532 0
161 -502 -564 0
161 -504 -562 0
161 -502 -594 0
161 -504 -592 0
161 -532 -564 0
161 -534 -562 0
161 -532 -594 0
161 -534 -592 0
161 -562 -594 0
161 -564 -592 0
162 -442 -475 0
162 -445 -472 0
162 -442 -505 0
162 -445 -502 0
162 -442 -535 0
162 -445 -532 0
162 -442 -565 0
162 -445 -562 0
162 -442 -595 0
162 -445 -592 0
162 -472 -505 0
162 -475 -502 0
162 -472 -535 0
162 -475 -532 0
162 -472 -565 0
162 -475 -562 0
162 -472 -595 0
162 -475 -592 0
162 -502 -535 0
162 -505 -532 0
162 -502 -565 0
162 -505 -562 0
162 -502 -595 0
162 -505 -592 0
162 -532 -565 0
162 -535 -562 0
162 -532 -595 0
162 -535 -592 0
162 -562 -595 0
162 -565 -592 0
163 -442 -476 0
163 -446 -472 0
163 -442 -506 0
163 -446 -502 0
163 -442 -536 0
163 -446 -532 0
163 -442 -566 0
163 -446 -562 0
163 -442 -596 0
163 -446 -592 0
163 -472 -506 0
163 -476 -502 0
163 -472 -536 0
163 -476 -532 0
163 -472 -566 0
163 -476 -562 0
163 -472 -596 0
163 -476 -592 0
163 -502 -536 0
163 -506 -532 0
163 -502 -566 0
163 -506 -562 0
163 -502 -596 0
163 -506 -592 0
163 -532 -566 0
163 -536 -562 0
163 -532 -596 0
163 -536 -592 0
163 -562 -596 0
163 -566 -592 0
164 -442 -477 0
164 -447 -472 0
164 -442 -507 0
164 -447 -502 0
164 -442 -537 0
164 -447 -532 0
164 -442 -567 0
164 -447 -562 0
164 -442 -597 0
164 -447 -592 0
164 -472 -507 0
164 -477 -502 0
164 -472 -537 0
164 -477 -532 0
164 -472 -567 0
164 -477 -562 0
164 -472 -597 0
164 -477 -592 0
164 -502 -537 0
164 -507 -532 0
164 -502 -567 0
164 -507 -562 0
164 -502 -597 0
164 -507 -592 0
164 -532 -567 0
164 -537 -562 0
164 -532 -597 0
164 -537 -592 0
164 -562 -597 0
164 -567 -592 0
165 -442 -478 0
165 -448 -472 0
165 -442 -508 0
165 -448 -502 0
165 -442 -538 0
165 -448 -532 0
165 -442 -568 0
165 -448 -562 0
165 -442 -598 0
165 -448 -592 0
165 -472 -508 0
165 -478 -502 0
165 -472 -538 0
165 -478 -532 0
165 -472 -568 0
165 -478 -562 0
165 -472 -598 0
165 -478 -592 0
165 -502 -538 0
165 -508 -532 0
165 -502 -568 0
165 -508 -562 0
165 -502 -598 0
165 -508 -592 0
165 -532 -568 0
165 -538 -562 0
165 -532 -598 0
165 -538 -592 0
165 -562 -598 0
165 -568 -592 0
166 -442 -479 0
166 -449 -472 0
166 -442 -509 0
166 -449 -502 0
166 -442 -539 0
166 -449 -532 0
166 -442 -569 0
166 -449 -562 0
166 -442 -599 0
166 -449 -592 0
166 -472 -509 0
166 -479 -502 0
166 -472 -539 0
166 -479 -532 0
166 -472 -569 0
166 -479 -562 0
166 -472 -599 0
166 -479 -592 0
166 -502 -539 0
166 -509 -532 0
166 -502 -569 0
166 -509 -562 0
166 -502 -599 0
166 -509 -592 0
166 -532 -569 0
166 -539 -562 0
166 -532 -599 0
166 -539 -592 0
166 -562 -599 0
166 -569 -592 0
167 -442 -480 0
167 -450 -472 0
167 -442 -510 0
167 -450 -502 0
167 -442 -540 0
167 -450 -532 0
167 -442 -570 0
167 -450 -562 0
167 -442 -600 0
167 -450 -592 0
167 -472 -510 0
167 -480 -502 0
167 -472 -540 0
167 -480 -532 0
167 -472 -570 0
167 -480 -562 0
167 -472 -600 0
167 -480 -592 0
167 -502 -540 0
167 -510 -532 0
167 -502 -570 0
167 -510 -562 0
167 -502 -600 0
167 -510 -592 0
167 -532 -570 0
167 -540 -562 0
167 -532 -600 0
167 -540 -592 0
167 -562 -600 0
167 -570 -592 0
168 -442 -481 0
168 -451 -472 0
168 -442 -511 0
168 -451 -502 0
168 -442 -541 0
168 -451 -532 0
168 -442 -571 0
168 -451 -562 0
168 -442 -601 0
168 -451 -592 0
168 -472 -511 0
168 -481 -502 0
168 -472 -541 0
168 -481 -532 0
168 -472 -571 0
168 -481 -562 0
168 -472 -601 0
168 -481 -592 0
168 -502 -541 0
168 -511 -532 0
168 -502 -571 0
168 -511 -562 0
168 -502 -601 0
168 -511 -592 0
168 -532 -571 0
168 -541 -562 0
168 -532 -601 0
168 -541 -592 0
168 -562 -601 0
168 -571 -592 0
169 -442 -482 0
169 -452 -472 0
169 -442 -512 0
169 -452 -502 0
169 -442 -542 0
169 -452 -532 0
169 -442 -572 0
169 -452 -562 0
169 -442 -602 0
169 -452 -592 0
169 -472 -512 0
169 -482 -502 0
169 -472 -542 0
169 -482 -532 0
169 -472 -572 0
169 -482 -562 0
169 -472 -602 0
169 -482 -592 0
169 -502 -542 0
169 -512 -532 0
169 -502 -572 0
169 -512 -562 0
169 -502 -602 0
169 -512 -592 0
169 -532 -572 0
169 -542 -562 0
169 -532 -602 0
169 -542 -592 0
169 -562 -602 0
169 -572 -592 0
170 -442 -483 0
170 -453 -472 0
170 -442 -513 0
170 -453 -502 0
170 -442 -543 0
170 -453 -532 0
170 -442 -573 0
170 -453 -562 0
170 -442 -603 0
170 -453 -592 0
170 -472 -513 0
170 -483 -502 0
170 -472 -543 0
170 -483 -532 0
170 -472 -573 0
170 -483 -562 0
170 -472 -603 0
170 -483 -592 0
170 -502 -543 0
170 -513 -532 0
170 -502 -573 0
170 -513 -562 0
170 -502 -603 0
170 -513 -592 0
170 -532 -573 0
170 -543 -562 0
170 -532 -603 0
170 -543 -592 0
170 -562 -603 0
170 -573 -592 0
171 -442 -484 0
171 -454 -472 0
171 -442 -514 0
171 -454 -502 0
171 -442 -544 0
171 -454 -532 0
171 -442 -574 0
171 -454 -562 0
171 -442 -604 0
171 -454 -592 0
171 -472 -514 0
171 -484 -502 0
171 -472 -544 0
171 -484 -532 0
171 -472 -574 0
171 -484 -562 0
171 -472 -604 0
171 -484 -592 0
171 -502 -544 0
171 -514 -532 0
171 -502 -574 0
171 -514 -562 0
171 -502 -604 0
171 -514 -592 0
171 -532 -574 0
171 -544 -562 0
171 -532 -604 0
171 -544 -592 0
171 -562 -604 0
171 -574 -592 0
172 -442 -485 0
172 -455 -472 0
172 -442 -515 0
172 -455 -502 0
172 -442 -545 0
172 -455 -532 0
172 -442 -575 0
172 -455 -562 0
172 -442 -605 0
172 -455 -592 0
172 -472 -515 0
172 -485 -502 0
172 -472 -545 0
172 -485 -532 0
172 -472 -575 0
172 -485 -562 0
172 -472 -605 0
172 -485 -592 0
172 -502 -545 0
172 -515 -532 0
172 -502 -575 0
172 -515 -562 0
172 -502 -605 0
172 -515 -592 0
172 -532 -575 0
172 -545 -562 0
172 -532 -605 0
172 -545 -592 0
172 -562 -605 0
172 -575 -592 0
173 -442 -486 0
173 -456 -472 0
173 -442 -516 0
173 -456 -502 0
173 -442 -546 0
173 -456 -532 0
173 -442 -576 0
173 -456 -562 0
173 -442 -606 0
173 -456 -592 0
173 -472 -516 0
173 -486 -502 0
173 -472 -546 0
173 -486 -532 0
173 -472 -576 0
173 -486 -562 0
173 -472 -606 0
173 -486 -592 0
173 -502 -546 0
173 -516 -532 0
173 -502 -576 0
173 -516 -562 0
173 -502 -606 0
173 -516 -592 0
173 -532 -576 0
173 -546 -562 0
173 -532 -606 0
173 -546 -592 0
173 -562 -606 0
173 -576 -592 0
174 -442 -487 0
174 -457 -472 0
174 -442 -517 0
174 -457 -502 0
174 -442 -547 0
174 -457 -532 0
174 -442 -577 0
174 -457 -562 0
174 -442 -607 0
174 -457 -592 0
174 -472 -517 0
174 -487 -502 0
174 -472 -547 0
174 -487 -532 0
174 -472 -577 0
174 -487 -562 0
174 -472 -607 0
174 -487 -592 0
174 -502 -547 0
174 -517 -532 0
174 -502 -577 0
174 -517 -562 0
174 -502 -607 0
174 -517 -592 0
174 -532 -577 0
174 -547 -562 0
174 -532 -607 0
174 -547 -592 0
174 -562 -607 0
174 -577 -592 0
175 -442 -488 0
175 -458 -472 0
175 -442 -518 0
175 -458 -502 0
175 -442 -548 0
175 -458 -532 0
175 -442 -578 0
175 -458 -562 0
175 -442 -608 0
175 -458 -592 0
175 -472 -518 0
175 -488 -502 0
175 -472 -548 0
175 -488 -532 0
175 -472 -578 0
175 -488 -562 0
175 -472 -608 0
175 -488 -592 0
175 -502 -548 0
175 -518 -532 0
175 -502 -578 0
175 -518 -562 0
175 -502 -608 0
175 -518 -592 0
175 -532 -578 0
175 -548 -562 0
175 -532 -608 0
175 -548 -592 0
175 -562 -608 0
175 -578 -592 0
176 -442 -489 0
176 -459 -472 0
176 -442 -519 0
176 -459 -502 0
176 -442 -549 0
176 -459 -532 0
176 -442 -579 0
176 -459 -562 0
176 -442 -609 0
176 -459 -592 0
176 -472 -519 0
176 -489 -502 0
176 -472 -549 0
176 -489 -532 0
176 -472 -579 0
176 -489 -562 0
176 -472 -609 0
176 -489 -592 0
176 -502 -549 0
176 -519 -532 0
176 -502 -579 0
176 -519 -562 0
176 -502 -609 0
176 -519 -592 0
176 -532 -579 0
176 -549 -562 0
176 -532 -609 0
176 -549 -592 0
176 -562 -609 0
176 -579 -592 0
177 -442 -490 0
177 -460 -472 0
177 -442 -520 0
177 -460 -502 0
177 -442 -550 0
177 -460 -532 0
177 -442 -580 0
177 -460 -562 0
177 -442 -610 0
177 -460 -592 0
177 -472 -520 0
177 -490 -502 0
177 -472 -550 0
177 -490 -532 0
177 -472 -580 0
177 -490 -562 0
177 -472 -610 0
177 -490 -592 0
177 -502 -550 0
177 -520 -532 0
177 -502 -580 0
177 -520 -562 0
177 -502 -610 0
177 -520 -592 0
177 -532 -580 0
177 -550 -562 0
177 -532 -610 0
177 -550 -592 0
177 -562 -610 0
177 -580 -592 0
178 -442 -491 0
178 -461 -472 0
178 -442 -521 0
178 -461 -502 0
178 -442 -551 0
178 -461 -532 0
178 -442 -581 0
178 -461 -562 0
178 -442 -611 0
178 -461 -592 0
178 -472 -521 0
178 -491 -502 0
178 -472 -551 0
178 -491 -532 0
178 -472 -581 0
178 -491 -562 0
178 -472 -611 0
178 -491 -592 0
178 -502 -551 0
178 -521 -532 0
178 -502 -581 0
178 -521 -562 0
178 -502 -611 0
178 -521 -592 0
178 -532 -581 0
178 -551 -562 0
178 -532 -611 0
178 -551 -592 0
178 -562 -611 0
178 -581 -592 0
179 -442 -492 0
179 -462 -472 0
179 -442 -522 0
179 -462 -502 0
179 -442 -552 0
179 -462 -532 0
179 -442 -582 0
179 -462 -562 0
179 -442 -612 0
179 -462 -592 0
179 -472 -522 0
179 -492 -502 0
179 -472 -552 0
179 -492 -532 0
179 -472 -582 0
179 -492 -562 0
179 -472 -612 0
179 -492 -592 0
179 -502 -552 0
179 -522 -532 0
179 -502 -582 0
179 -522 -562 0
179 -502 -612 0
179 -522 -592 0
179 -532 -582 0
179 -552 -562 0
179 -532 -612 0
179 -552 -592 0
179 -562 -612 0
179 -582 -592 0
180 -442 -493 0
180 -463 -472 0
180 -442 -523 0
180 -463 -502 0
180 -442 -553 0
180 -463 -532 0
180 -442 -583 0
180 -463 -562 0
180 -442 -613 0
180 -463 -592 0
180 -472 -523 0
180 -493 -502 0
180 -472 -553 0
180 -493 -532 0
180 -472 -583 0
180 -493 -562 0
180 -472 -613 0
180 -493 -592 0
180 -502 -553 0
180 -523 -532 0
180 -502 -583 0
180 -523 -562 0
180 -502 -613 0
180 -523 -592 0
180 -532 -583 0
180 -553 -562 0
180 -532 -613 0
180 -553 -592 0
180 -562 -613 0
180 -583 -592 0
181 -442 -494 0
181 -464 -472 0
181 -442 -524 0
181 -464 -502 0
181 -442 -554 0
181 -464 -532 0
181 -442 -584 0
181 -464 -562 0
181 -442 -614 0
181 -464 -592 0
181 -472 -524 0
181 -494 -502 0
181 -472 -554 0
181 -494 -532 0
181 -472 -584 0
181 -494 -562 0
181 -472 -614 0
181 -494 -592 0
181 -502 -554 0
181 -524 -532 0
181 -502 -584 0
181 -524 -562 0
181 -502 -614 0
181 -524 -592 0
181 -532 -584 0
181 -554 -562 0
181 -532 -614 0
181 -554 -592 0
181 -562 -614 0
181 -584 -592 0
182 -442 -495 0
182 -465 -472 0
182 -442 -525 0
182 -465 -502 0
182 -442 -555 0
182 -465 -532 0
182 -442 -585 0
182 -465 -562 0
182 -442 -615 0
182 -465 -592 0
182 -472 -525 0
182 -495 -502 0
182 -472 -555 0
182 -495 -532 0
182 -472 -585 0
182 -495 -562 0
182 -472 -615 0
182 -495 -592 0
182 -502 -555 0
182 -525 -532 0
182 -502 -585 0
182 -525 -562 0
182 -502 -615 0
182 -525 -592 0
182 -532 -585 0
182 -555 -562 0
182 -532 -615 0
182 -555 -592 0
182 -562 -615 0
182 -585 -592 0
183 -443 -474 0
183 -444 -473 0
183 -443 -504 0
183 -444 -503 0
183 -443 -534 0
183 -444 -533 0
183 -443 -564 0
183 -444 -563 0
183 -443 -594 0
183 -444 -593 0
183 -473 -504 0
183 -474 -503 0
183 -473 -534 0
183 -474 -533 0
183 -473 -564 0
183 -474 -563 0
183 -473 -594 0
183 -474 -593 0
183 -503 -534 0
183 -504 -533 0
183 -503 -564 0
183 -504 -563 0
183 -503 -594 0
183 -504 -593 0
183 -533 -564 0
183 -534 -563 0
183 -533 -594 0
183 -534 -593 0
183 -563 -594 0
183 -564 -593 0
184 -443 -475 0
184 -445 -473 0
184 -443 -505 0
184 -445 -503 0
184 -443 -535 0
184 -445 -533 0
184 -443 -565 0
184 -445 -563 0
184 -443 -595 0
184 -445 -593 0
184 -473 -505 0
184 -475 -503 0
184 -473 -535 0
184 -475 -533 0
184 -473 -565 0
184 -475 -563 0
184 -473 -595 0
184 -475 -593 0
184 -503 -535 0
184 -505 -533 0
184 -503 -565 0
184 -505 -563 0
184 -503 -595 0
184 -505 -593 0
184 -533 -565 0
184 -535 -563 0
184 -533 -595 0
184 -535 -593 0
184 -563 -595 0
184 -565 -593 0
185 -443 -476 0
185 -446 -473 0
185 -443 -506 0
185 -446 -503 0
185 -443 -536 0
185 -446 -533 0
185 -443 -566 0
185 -446 -563 0
185 -443 -596 0
185 -446 -593 0
185 -473 -506 0
185 -476 -503 0
185 -473 -536 0
185 -476 -533 0
185 -473 -566 0
185 -476 -563 0
185 -473 -596 0
185 -476 -593 0
185 -503 -536 0
185 -506 -533 0
185 -503 -566 0
185 -506 -563 0
185 -503 -596 0
185 -506 -593 0
185 -533 -566 0
185 -536 -563 0
185 -533 -596 0
185 -536 -593 0
185 -563 -596 0
185 -566 -593 0
186 -443 -477 0
186 -447 -473 0
186 -443 -507 0
186 -447 -503 0
186 -443 -537 0
186 -447 -533 0
186 -443 -567 0
186 -447 -563 0
186 -443 -597 0
186 -447 -593 0
186 -473 -507 0
186 -477 -503 0
186 -473 -537 0
186 -477 -533 0
186 -473 -567 0
186 -477 -563 0
186 -473 -597 0
186 -477 -593 0
186 -503 -537 0
186 -507 -533 0
186 -503 -567 0
186 -507 -563 0
186 -503 -597 0
186 -507 -593 0
186 -533 -567 0
186 -537 -563 0
186 -533 -597 0
186 -537 -593 0
186 -563 -597 0
186 -567 -593 0
187 -443 -478 0
187 -448 -473 0
187 -443 -508 0
187 -448 -503 0
187 -443 -538 0
187 -448 -533 0
187 -443 -568 0
187 -448 -563 0
187 -443 -598 0
187 -448 -593 0
187 -473 -508 0
187 -478 -503 0
187 -473 -538 0
187 -478 -533 0
187 -473 -568 0
187 -478 -563 0
187 -473 -598 0
187 -478 -593 0
187 -503 -538 0
187 -508 -533 0
187 -503 -568 0
187 -508 -563 0
187 -503 -598 0
187 -508 -593 0
187 -533 -568 0
187 -538 -563 0
187 -533 -598 0
187 -538 -593 0
187 -563 -598 0
187 -568 -593 0
188 -443 -479 0
188 -449 -473 0
188 -443 -509 0
188 -449 -503 0
188 -443 -539 0
188 -449 -533 0
188 -443 -569 0
188 -449 -563 0
188 -443 -599 0
188 -449 -593 0
188 -473 -509 0
188 -479 -503 0
188 -473 -539 0
188 -479 -533 0
188 -473 -569 0
188 -479 -563 0
188 -473 -599 0
188 -479 -593 0
188 -503 -539 0
188 -509 -533 0
188 -503 -569 0
188 -509 -563 0
188 -503 -599 0
188 -509 -593 0
188 -533 -569 0
188 -539 -563 0
188 -533 -599 0
188 -539 -593 0
188 -563 -599 0
188 -569 -593 0
189 -443 -480 0
189 -450 -473 0
189 -443 -510 0
189 -450 -503 0
189 -443 -540 0
189 -450 -533 0
189 -443 -570 0
189 -450 -563 0
189 -443 -600 0
189 -450 -593 0
189 -473 -510 0
189 -480 -503 0
189 -473 -540 0
189 -480 -533 0
189 -473 -570 0
189 -480 -563 0
189 -473 -600 0
189 -480 -593 0
189 -503 -540 0
189 -510 -533 0
189 -503 -570 0
189 -510 -563 0
189 -503 -600 0
189 -510 -593 0
189 -533 -570 0
189 -540 -563 0
189 -533 -600 0
189 -540 -593 0
189 -563 -600 0
189 -570 -593 0
190 -443 -481 0
190 -451 -473 0
190 -443 -511 0
190 -451 -503 0
190 -443 -541 0
190 -451 -533 0
190 -443 -571 0
190 -451 -563 0
190 -443 -601 0
190 -451 -593 0
190 -473 -511 0
190 -481 -503 0
190 -473 -541 0
190 -481 -533 0
190 -473 -571 0
190 -481 -563 0
190 -473 -601 0
190 -481 -593 0
190 -503 -541 0
190 -511 -533 0
190 -503 -571 0
190 -511 -563 0
190 -503 -601 0
190 -511 -593 0
190 -533 -571 0
190 -541 -563 0
190 -533 -601 0
190 -541 -593 0
190 -563 -601 0
190 -571 -593 0
191 -443 -482 0
191 -452 -473 0
191 -443 -512 0
191 -452 -503 0
191 -443 -542 0
191 -452 -533 0
191 -443 -572 0
191 -452 -563 0
191 -443 -602 0
191 -452 -593 0
191 -473 -512 0
191 -482 -503 0
191 -473 -542 0
191 -482 -533 0
191 -473 -572 0
191 -482 -563 0
191 -473 -602 0
191 -482 -593 0
191 -503 -542 0
191 -512 -533 0
191 -503 -572 0
191 -512 -563 0
191 -503 -602 0
191 -512 -593 0
191 -533 -572 0
191 -542 -563 0
191 -533 -602 0
191 -542 -593 0
191 -563 -602 0
191 -572 -593 0
192 -443 -483 0
192 -453 -473 0
192 -443 -513 0
192 -453 -503 0
192 -443 -543 0
192 -453 -533 0
192 -443 -573 0
192 -453 -563 0
192 -443 -603 0
192 -453 -593 0
192 -473 -513 0
192 -483 -503 0
192 -473 -543 0
192 -483 -533 0
192 -473 -573 0
192 -483 -563 0
192 -473 -603 0
192 -483 -593 0
192 -503 -543 0
192 -513 -533 0
192 -503 -573 0
192 -513 -563 0
192 -503 -603 0
192 -513 -593 0
192 -533 -573 0
192 -543 -563 0
192 -533 -603 0
192 -543 -593 0
192 -563 -603 0
192 -573 -593 0
193 -443 -484 0
193 -454 -473 0
193 -443 -514 0
193 -454 -503 0
193 -443 -544 0
193 -454 -533 0
193 -443 -574 0
193 -454 -563 0
193 -443 -604 0
193 -454 -593 0
193 -473 -514 0
193 -484 -503 0
193 -473 -544 0
193 -484 -533 0
193 -473 -574 0
193 -484 -563 0
193 -473 -604 0
193 -484 -593 0
193 -503 -544 0
193 -514 -533 0
193 -503 -574 0
193 -514 -563 0
193 -503 -604 0
193 -514 -593 0
193 -533 -574 0
193 -544 -563 0
193 -533 -604 0
193 -544 -593 0
193 -563 -604 0
193 -574 -593 0
194 -443 -485 0
194 -455 -473 0
194 -443 -515 0
194 -455 -503 0
194 -443 -545 0
194 -455 -533 0
194 -443 -575 0
194 -455 -563 0
194 -443 -605 0
194 -455 -593 0
194 -473 -515 0
194 -485 -503 0
194 -473 -545 0
194 -485 -533 0
194 -473 -575 0
194 -485 -563 0
194 -473 -605 0
194 -485 -593 0
194 -503 -545 0
194 -515 -533 0
194 -503 -575 0
194 -515 -563 0
194 -503 -605 0
194 -515 -593 0
194 -533 -575 0
194 -545 -563 0
194 -533 -605 0
194 -545 -593 0
194 -563 -605 0
194 -575 -593 0
195 -443 -486 0
195 -456 -473 0
195 -443 -516 0
195 -456 -503 0
195 -443 -546 0
195 -456 -533 0
195 -443 -576 0
195 -456 -563 0
195 -443 -606 0
195 -456 -593 0
195 -473 -516 0
195 -486 -503 0
195 -473 -546 0
195 -486 -533 0
195 -473 -576 0
195 -486 -563 0
195 -473 -606 0
195 -486 -593 0
195 -503 -546 0
195 -516 -533 0
195 -503 -576 0
195 -516 -563 0
195 -503 -606 0
195 -516 -593 0
195 -533 -576 0
195 -546 -563 0
195 -533 -606 0
195 -546 -593 0
195 -563 -606 0
195 -576 -593 0
196 -443 -487 0
196 -457 -473 0
196 -443 -517 0
196 -457 -503 0
196 -443 -547 0
196 -457 -533 0
196 -443 -577 0
196 -457 -563 0
196 -443 -607 0
196 -457 -593 0
196 -473 -517 0
196 -487 -503 0
196 -473 -547 0
196 -487 -533 0
196 -473 -577 0
196 -487 -563 0
196 -473 -607 0
196 -487 -593 0
196 -503 -547 0
196 -517 -533 0
196 -503 -577 0
196 -517 -563 0
196 -503 -607 0
196 -517 -593 0
196 -533 -577 0
196 -547 -563 0
196 -533 -607 0
196 -547 -593 0
196 -563 -607 0
196 -577 -593 0
197 -443 -488 0
197 -458 -473 0
197 -443 -518 0
197 -458 -503 0
197 -443 -548 0
197 -458 -533 0
197 -443 -578 0
197 -458 -563 0
197 -443 -608 0
197 -458 -593 0
197 -473 -518 0
197 -488 -503 0
197 -473 -548 0
197 -488 -533 0
197 -473 -578 0
197 -488 -563 0
197 -473 -608 0
197 -488 -593 0
197 -503 -548 0
197 -518 -533 0
197 -503 -578 0
197 -518 -563 0
197 -503 -608 0
197 -518 -593 0
197 -533 -578 0
197 -548 -563 0
197 -533 -608 0
197 -548 -593 0
197 -563 -608 0
197 -578 -593 0
198 -443 -489 0
198 -459 -473 0
198 -443 -519 0
198 -459 -503 0
198 -443 -549 0
198 -459 -533 0
198 -443 -579 0
198 -459 -563 0
198 -443 -609 0
198 -459 -593 0
198 -473 -519 0
198 -489 -503 0
198 -473 -549 0
198 -489 -533 0
198 -473 -579 0
198 -489 -563 0
198 -473 -609 0
198 -489 -593 0
198 -503 -549 0
198 -519 -533 0
198 -503 -579 0
198 -519 -563 0
198 -503 -609 0
198 -519 -593 0
198 -533 -579 0
198 -549 -563 0
198 -533 -609 0
198 -549 -593 0
198 -563 -609 0
198 -579 -593 0
199 -443 -490 0
199 -460 -473 0
199 -443 -520 0
199 -460 -503 0
199 -443 -550 0
199 -460 -533 0
199 -443 -580 0
199 -460 -563 0
199 -443 -610 0
199 -460 -593 0
199 -473 -520 0
199 -490 -503 0
199 -473 -550 0
199 -490 -533 0
199 -473 -580 0
199 -490 -563 0
199 -473 -610 0
199 -490 -593 0
199 -503 -550 0
199 -520 -533 0
199 -503 -580 0
199 -520 -563 0
199 -503 -610 0
199 -520 -593 0
199 -533 -580 0
199 -550 -563 0
199 -533 -610 0
199 -550 -593 0
199 -563 -610 0
199 -580 -593 0
200 -443 -491 0
200 -461 -473 0
200 -443 -521 0
200 -461 -503 0
200 -443 -551 0
200 -461 -533 0
200 -443 -581 0
200 -461 -563 0
200 -443 -611 0
200 -461 -593 0
200 -473 -521 0
200 -491 -503 0
200 -473 -551 0
200 -491 -533 0
200 -473 -581 0
200 -491 -563 0
200 -473 -611 0
200 -491 -593 0
200 -503 -551 0
200 -521 -533 0
200 -503 -581 0
200 -521 -563 0
200 -503 -611 0
200 -521 -593 0
200 -533 -581 0
200 -551 -563 0
200 -533 -611 0
200 -551 -593 0
200 -563 -611 0
200 -581 -593 0
201 -443 -492 0
201 -462 -473 0
201 -443 -522 0
201 -462 -503 0
201 -443 -552 0
201 -462 -533 0
201 -443 -582 0
201 -462 -563 0
201 -443 -612 0
201 -462 -593 0
201 -473 -522 0
201 -492 -503 0
201 -473 -552 0
201 -492 -533 0
201 -473 -582 0
201 -492 -563 0
201 -473 -612 0
201 -492 -593 0
201 -503 -552 0
201 -522 -533 0
201 -503 -582 0
201 -522 -563 0
201 -503 -612 0
201 -522 -593 0
201 -533 -582 0
201 -552 -563 0
201 -533 -612 0
201 -552 -593 0
201 -563 -612 0
201 -582 -593 0
202 -443 -493 0
202 -463 -473 0
202 -443 -523 0
202 -463 -503 0
202 -443 -553 0
202 -463 -533 0
202 -443 -583 0
202 -463 -563 0
202 -443 -613 0
202 -463 -593 0
202 -473 -523 0
202 -493 -503 0
202 -473 -553 0
202 -493 -533 0
202 -473 -583 0
202 -493 -563 0
202 -473 -613 0
202 -493 -593 0
202 -503 -553 0
202 -523 -533 0
202 -503 -583 0
202 -523 -563 0
202 -503 -613 0
202 -523 -593 0
202 -533 -583 0
202 -553 -563 0
202 -533 -613 0
202 -553 -593 0
202 -563 -613 0
202 -583 -593 0
203 -443 -494 0
203 -464 -473 0
203 -443 -524 0
203 -464 -503 0
203 -443 -554 0
203 -464 -533 0
203 -443 -584 0
203 -464 -563 0
203 -443 -614 0
203 -464 -593 0
203 -473 -524 0
203 -494 -503 0
203 -473 -554 0
203 -494 -533 0
203 -473 -584 0
203 -494 -563 0
203 -473 -614 0
203 -494 -593 0
203 -503 -554 0
203 -524 -533 0
203 -503 -584 0
203 -524 -563 0
203 -503 -614 0
203 -524 -593 0
203 -533 -584 0
203 -554 -563 0
203 -533 -614 0
203 -554 -593 0
203 -563 -614 0
203 -584 -593 0
204 -443 -495 0
204 -465 -473 0
204 -443 -525 0
204 -465 -503 0
204 -443 -555 0
204 -465 -533 0
204 -443 -585 0
204 -465 -563 0
204 -443 -615 0
204 -465 -593 0
204 -473 -525 0
204 -495 -503 0
204 -473 -555 0
204 -495 -533 0
204 -473 -585 0
204 -495 -563 0
204 -473 -615 0
204 -495 -593 0
204 -503 -555 0
204 -525 -533 0
204 -503 -585 0
204 -525 -563 0
204 -503 -615 0
204 -525 -593 0
204 -533 -585 0
204 -555 -563 0
204 -533 -615 0
204 -555 -593 0
204 -563 -615 0
204 -585 -593 0
205 -444 -475 0
205 -445 -474 0
205 -444 -505 0
205 -445 -504 0
205 -444 -535 0
205 -445 -534 0
205 -444 -565 0
205 -445 -564 0
205 -444 -595 0
205 -445 -594 0
205 -474 -505 0
205 -475 -504 0
205 -474 -535 0
205 -475 -534 0
205 -474 -565 0
205 -475 -564 0
205 -474 -595 0
205 -475 -594 0
205 -504 -535 0
205 -505 -534 0
205 -504 -565 0
205 -505 -564 0
205 -504 -595 0
205 -505 -594 0
205 -534 -565 0
205 -535 -564 0
205 -534 -595 0
205 -535 -594 0
205 -564 -595 0
205 -565 -594 0
206 -444 -476 0
206 -446 -474 0
206 -444 -506 0
206 -446 -504 0
206 -444 -536 0
206 -446 -534 0
206 -444 -566 0
206 -446 -564 0
206 -444 -596 0
206 -446 -594 0
206 -474 -506 0
206 -476 -504 0
206 -474 -536 0
206 -476 -534 0
206 -474 -566 0
206 -476 -564 0
206 -474 -596 0
206 -476 -594 0
206 -504 -536 0
206 -506 -534 0
206 -504 -566 0
206 -506 -564 0
206 -504 -596 0
206 -506 -594 0
206 -534 -566 0
206 -536 -564 0
206 -534 -596 0
206 -536 -594 0
206 -564 -596 0
206 -566 -594 0
207 -444 -477 0
207 -447 -474 0
207 -444 -507 0
207 -447 -504 0
207 -444 -537 0
207 -447 -534 0
207 -444 -567 0
207 -447 -564 0
207 -444 -597 0
207 -447 -594 0
207 -474 -507 0
207 -477 -504 0
207 -474 -537 0
207 -477 -534 0
207 -474 -567 0
207 -477 -564 0
207 -474 -597 0
207 -477 -594 0
207 -504 -537 0
207 -507 -534 0
207 -504 -567 0
207 -507 -564 0
207 -504 -597 0
207 -507 -594 0
207 -534 -567 0
207 -537 -564 0
207 -534 -597 0
207 -537 -594 0
207 -564 -597 0
207 -567 -594 0
208 -444 -478 0
208 -448 -474 0
208 -444 -508 0
208 -448 -504 0
208 -444 -538 0
208 -448 -534 0
208 -444 -568 0
208 -448 -564 0
208 -444 -598 0
208 -448 -594 0
208 -474 -508 0
208 -478 -504 0
208 -474 -538 0
208 -478 -534 0
208 -474 -568 0
208 -478 -564 0
208 -474 -598 0
208 -478 -594 0
208 -504 -538 0
208 -508 -534 0
208 -504 -568 0
208 -508 -564 0
208 -504 -598 0
208 -508 -594 0
208 -534 -568 0
208 -538 -564 0
208 -534 -598 0
208 -538 -594 0
208 -564 -598 0
208 -568 -594 0
209 -444 -479 0
209 -449 -474 0
209 -444 -509 0
209 -449 -504 0
209 -444 -539 0
209 -449 -534 0
209 -444 -569 0
209 -449 -564 0
209 -444 -599 0
209 -449 -594 0
209 -474 -509 0
209 -479 -504 0
209 -474 -539 0
209 -479 -534 0
209 -474 -569 0
209 -479 -564 0
209 -474 -599 0
209 -479 -594 0
209 -504 -539 0
209 -509 -534 0
209 -504 -569 0
209 -509 -564 0
209 -504 -599 0
209 -509 -594 0
209 -534 -569 0
209 -539 -564 0
209 -534 -599 0
209 -539 -594 0
209 -564 -599 0
209 -569 -594 0
210 -444 -480 0
210 -450 -474 0
210 -444 -510 0
210 -450 -504 0
210 -444 -540 0
210 -450 -534 0
210 -444 -570 0
210 -450 -564 0
210 -444 -600 0
210 -450 -594 0
210 -474 -510 0
210 -480 -504 0
210 -474 -540 0
210 -480 -534 0
210 -474 -570 0
210 -480 -564 0
210 -474 -600 0
210 -480 -594 0
210 -504 -540 0
210 -510 -534 0
210 -504 -570 0
210 -510 -564 0
210 -504 -600 0
210 -510 -594 0
210 -534 -570 0
210 -540 -564 0
210 -534 -600 0
210 -540 -594 0
210 -564 -600 0
210 -570 -594 0
211 -444 -481 0
211 -451 -474 0
211 -444 -511 0
211 -451 -504 0
211 -444 -541 0
211 -451 -534 0
211 -444 -571 0
211 -451 -564 0
211 -444 -601 0
211 -451 -594 0
211 -474 -511 0
211 -481 -504 0
211 -474 -541 0
211 -481 -534 0
211 -474 -571 0
211 -481 -564 0
211 -474 -601 0
211 -481 -594 0
211 -504 -541 0
211 -511 -534 0
211 -504 -571 0
211 -511 -564 0
211 -504 -601 0
211 -511 -594 0
211 -534 -571 0
211 -541 -564 0
211 -534 -601 0
211 -541 -594 0
211 -564 -601 0
211 -571 -594 0
212 -444 -482 0
212 -452 -474 0
212 -444 -512 0
212 -452 -504 0
212 -444 -542 0
212 -452 -534 0
212 -444 -572 0
212 -452 -564 0
212 -444 -602 0
212 -452 -594 0
212 -474 -512 0
212 -482 -504 0
212 -474 -542 0
212 -482 -534 0
212 -474 -572 0
212 -482 -564 0
212 -474 -602 0
212 -482 -594 0
212 -504 -542 0
212 -512 -534 0
212 -504 -572 0
212 -512 -564 0
212 -504 -602 0
212 -512 -594 0
212 -534 -572 0
212 -542 -564 0
212 -534 -602 0
212 -542 -594 0
212 -564 -602 0
212 -572 -594 0
213 -444 -483 0
213 -453 -474 0
213 -444 -513 0
213 -453 -504 0
213 -444 -543 0
213 -453 -534 0
213 -444 -573 0
213 -453 -564 0
213 -444 -603 0
213 -453 -594 0
213 -474 -513 0
213 -483 -504 0
213 -474 -543 0
213 -483 -534 0
213 -474 -573 0
213 -483 -564 0
213 -474 -603 0
213 -483 -594 0
213 -504 -543 0
213 -513 -534 0
213 -504 -573 0
213 -513 -564 0
213 -504 -603 0
213 -513 -594 0
213 -534 -573 0
213 -543 -564 0
213 -534 -603 0
213 -543 -594 0
213 -564 -603 0
213 -573 -594 0
214 -444 -484 0
214 -454 -474 0
214 -444 -514 0
214 -454 -504 0
214 -444 -544 0
214 -454 -534 0
214 -444 -574 0
214 -454 -564 0
214 -444 -604 0
214 -454 -594 0
214 -474 -514 0
214 -484 -504 0
214 -474 -544 0
214 -484 -534 0
214 -474 -574 0
214 -484 -564 0
214 -474 -604 0
214 -484 -594 0
214 -504 -544 0
214 -514 -534 0
214 -504 -574 0
214 -514 -564 0
214 -504 -604 0
214 -514 -594 0
214 -534 -574 0
214 -544 -564 0
214 -534 -604 0
214 -544 -594 0
214 -564 -604 0
214 -574 -594 0
215 -444 -485 0
215 -455 -474 0
215 -444 -515 0
215 -455 -504 0
215 -444 -545 0
215 -455 -534 0
215 -444 -575 0
215 -455 -564 0
215 -444 -605 0
215 -455 -594 0
215 -474 -515 0
215 -485 -504 0
215 -474 -545 0
215 -485 -534 0
215 -474 -575 0
215 -485 -564 0
215 -474 -605 0
215 -485 -594 0
215 -504 -545 0
215 -515 -534 0
215 -504 -575 0
215 -515 -564 0
215 -504 -605 0
215 -515 -594 0
215 -534 -575 0
215 -545 -564 0
215 -534 -605 0
215 -545 -594 0
215 -564 -605 0
215 -575 -594 0
216 -444 -486 0
216 -456 -474 0
216 -444 -516 0
216 -456 -504 0
216 -444 -546 0
216 -456 -534 0
216 -444 -576 0
216 -456 -564 0
216 -444 -606 0
216 -456 -594 0
216 -474 -516 0
216 -486 -504 0
216 -474 -546 0
216 -486 -534 0
216 -474 -576 0
216 -486 -564 0
216 -474 -606 0
216 -486 -594 0
216 -504 -546 0
216 -516 -534 0
216 -504 -576 0
216 -516 -564 0
216 -504 -606 0
216 -516 -594 0
216 -534 -576 0
216 -546 -564 0
216 -534 -606 0
216 -546 -594 0
216 -564 -606 0
216 -576 -594 0
217 -444 -487 0
217 -457 -474 0
217 -444 -517 0
217 -457 -504 0
217 -444 -547 0
217 -457 -534 0
217 -444 -577 0
217 -457 -564 0
217 -444 -607 0
217 -457 -594 0
217 -474 -517 0
217 -487 -504 0
217 -474 -547 0
217 -487 -534 0
217 -474 -577 0
217 -487 -564 0
217 -474 -607 0
217 -487 -594 0
217 -504 -547 0
217 -517 -534 0
217 -504 -577 0
217 -517 -564 0
217 -504 -607 0
217 -517 -594 0
217 -534 -577 0
217 -547 -564 0
217 -534 -607 0
217 -547 -594 0
217 -564 -607 0
217 -577 -594 0
218 -444 -488 0
218 -458 -474 0
218 -444 -518 0
218 -458 -504 0
218 -444 -548 0
218 -458 -534 0
218 -444 -578 0
218 -458 -564 0
218 -444 -608 0
218 -458 -594 0
218 -474 -518 0
218 -488 -504 0
218 -474 -548 0
218 -488 -534 0
218 -474 -578 0
218 -488 -564 0
218 -474 -608 0
218 -488 -594 0
218 -504 -548 0
218 -518 -534 0
218 -504 -578 0
218 -518 -564 0
218 -504 -608 0
218 -518 -594 0
218 -534 -578 0
218 -548 -564 0
218 -534 -608 0
218 -548 -594 0
218 -564 -608 0
218 -578 -594 0
219 -444 -489 0
219 -459 -474 0
219 -444 -519 0
219 -459 -504 0
219 -444 -549 0
219 -459 -534 0
219 -444 -579 0
219 -459 -564 0
219 -444 -609 0
219 -459 -594 0
219 -474 -519 0
219 -489 -504 0
219 -474 -549 0
219 -489 -534 0
219 -474 -579 0
219 -489 -564 0
219 -474 -609 0
219 -489 -594 0
219 -504 -549 0
219 -519 -534 0
219 -504 -579 0
219 -519 -564 0
219 -504 -609 0
219 -519 -594 0
219 -534 -579 0
219 -549 -564 0
219 -534 -609 0
219 -549 -594 0
219 -564 -609 0
219 -579 -594 0
220 -444 -490 0
220 -460 -474 0
220 -444 -520 0
220 -460 -504 0
220 -444 -550 0
220 -460 -534 0
220 -444 -580 0
220 -460 -564 0
220 -444 -610 0
220 -460 -594 0
220 -474 -520 0
220 -490 -504 0
220 -474 -550 0
220 -490 -534 0
220 -474 -580 0
220 -490 -564 0
220 -474 -610 0
220 -490 -594 0
220 -504 -550 0
220 -520 -534 0
220 -504 -580 0
220 -520 -564 0
220 -504 -610 0
220 -520 -594 0
220 -534 -580 0
220 -550 -564 0
220 -534 -610 0
220 -550 -594 0
220 -564 -610 0
220 -580 -594 0
221 -444 -491 0
221 -461 -474 0
221 -444 -521 0
221 -461 -504 0
221 -444 -551 0
221 -461 -534 0
221 -444 -581 0
221 -461 -564 0
221 -444 -611 0
221 -461 -594 0
221 -474 -521 0
221 -491 -504 0
221 -474 -551 0
221 -491 -534 0
221 -474 -581 0
221 -491 -564 0
221 -474 -611 0
221 -491 -594 0
221 -504 -551 0
221 -521 -534 0
221 -504 -581 0
221 -521 -564 0
221 -504 -611 0
221 -521 -594 0
221 -534 -581 0
221 -551 -564 0
221 -534 -611 0
221 -551 -594 0
221 -564 -611 0
221 -581 -594 0
222 -444 -492 0
222 -462 -474 0
222 -444 -522 0
222 -462 -504 0
222 -444 -552 0
222 -462 -534 0
222 -444 -582 0
222 -462 -564 0
222 -444 -612 0
222 -462 -594 0
222 -474 -522 0
222 -492 -504 0
222 -474 -552 0
222 -492 -534 0
222 -474 -582 0
222 -492 -564 0
222 -474 -612 0
222 -492 -594 0
222 -504 -552 0
222 -522 -534 0
222 -504 -582 0
222 -522 -564 0
222 -504 -612 0
222 -522 -594 0
222 -534 -582 0
222 -552 -564 0
222 -534 -612 0
222 -552 -594 0
222 -564 -612 0
222 -582 -594 0
223 -444 -493 0
223 -463 -474 0
223 -444 -523 0
223 -463 -504 0
223 -444 -553 0
223 -463 -534 0
223 -444 -583 0
223 -463 -564 0
223 -444 -613 0
223 -463 -594 0
223 -474 -523 0
223 -493 -504 0
223 -474 -553 0
223 -493 -534 0
223 -474 -583 0
223 -493 -564 0
223 -474 -613 0
223 -493 -594 0
223 -504 -553 0
223 -523 -534 0
223 -504 -583 0
223 -523 -564 0
223 -504 -613 0
223 -523 -594 0
223 -534 -583 0
223 -553 -564 0
223 -534 -613 0
223 -553 -594 0
223 -564 -613 0
223 -583 -594 0
224 -444 -494 0
224 -464 -474 0
224 -444 -524 0
224 -464 -504 0
224 -444 -554 0
224 -464 -534 0
224 -444 -584 0
224 -464 -564 0
224 -444 -614 0
224 -464 -594 0
224 -474 -524 0
224 -494 -504 0
224 -474 -554 0
224 -494 -534 0
224 -474 -584 0
224 -494 -564 0
224 -474 -614 0
224 -494 -594 0
224 -504 -554 0
224 -524 -534 0
224 -504 -584 0
224 -524 -564 0
224 -504 -614 0
224 -524 -594 0
224 -534 -584 0
224 -554 -564 0
224 -534 -614 0
224 -554 -594 0
224 -564 -614 0
224 -584 -594 0
225 -444 -495 0
225 -465 -474 0
225 -444 -525 0
225 -465 -504 0
225 -444 -555 0
225 -465 -534 0
225 -444 -585 0
225 -465 -564 0
225 -444 -615 0
225 -465 -594 0
225 -474 -525 0
225 -495 -504 0
225 -474 -555 0
225 -495 -534 0
225 -474 -585 0
225 -495 -564 0
225 -474 -615 0
225 -495 -594 0
225 -504 -555 0
225 -525 -534 0
225 -504 -585 0
225 -525 -564 0
225 -504 -615 0
225 -525 -594 0
225 -534 -585 0
225 -555 -564 0
225 -534 -615 0
225 -555 -594 0
225 -564 -615 0
225 -585 -594 0
226 -445 -476 0
226 -446 -475 0
226 -445 -506 0
226 -446 -505 0
226 -445 -536 0
226 -446 -535 0
226 -445 -566 0
226 -446 -565 0
226 -445 -596 0
226 -446 -595 0
226 -475 -506 0
226 -476 -505 0
226 -475 -536 0
226 -476 -535 0
226 -475 -566 0
226 -476 -565 0
226 -475 -596 0
226 -476 -595 0
226 -505 -536 0
226 -506 -535 0
226 -505 -566 0
226 -506 -565 0
226 -505 -596 0
226 -506 -595 0
226 -535 -566 0
226 -536 -565 0
226 -535 -596 0
226 -536 -595 0
226 -565 -596 0
226 -566 -595 0
227 -445 -477 0
227 -447 -475 0
227 -445 -507 0
227 -447 -505 0
227 -445 -537 0
227 -447 -535 0
227 -445 -567 0
227 -447 -565 0
227 -445 -597 0
227 -447 -595 0
227 -475 -507 0
227 -477 -505 0
227 -475 -537 0
227 -477 -535 0
227 -475 -567 0
227 -477 -565 0
227 -475 -597 0
227 -477 -595 0
227 -505 -537 0
227 -507 -535 0
227 -505 -567 0
227 -507 -565 0
227 -505 -597 0
227 -507 -595 0
227 -535 -567 0
227 -537 -565 0
227 -535 -597 0
227 -537 -595 0
227 -565 -597 0
227 -567 -595 0
228 -445 -478 0
228 -448 -475 0
228 -445 -508 0
228 -448 -505 0
228 -445 -538 0
228 -448 -535 0
228 -445 -568 0
228 -448 -565 0
228 -445 -598 0
228 -448 -595 0
228 -475 -508 0
228 -478 -505 0
228 -475 -538 0
228 -478 -535 0
228 -475 -568 0
228 -478 -565 0
228 -475 -598 0
228 -478 -595 0
228 -505 -538 0
228 -508 -535 0
228 -505 -568 0
228 -508 -565 0
228 -505 -598 0
228 -508 -595 0
228 -535 -568 0
228 -538 -565 0
228 -535 -598 0
228 -538 -595 0
228 -565 -598 0
228 -568 -595 0
229 -445 -479 0
229 -449 -475 0
229 -445 -509 0
229 -449 -505 0
229 -445 -539 0
229 -449 -535 0
229 -445 -569 0
229 -449 -565 0
229 -445 -599 0
229 -449 -595 0
229 -475 -509 0
229 -479 -505 0
229 -475 -539 0
229 -479 -535 0
229 -475 -569 0
229 -479 -565 0
229 -475 -599 0
229 -479 -595 0
229 -505 -539 0
229 -509 -535 0
229 -505 -569 0
229 -509 -565 0
229 -505 -599 0
229 -509 -595 0
229 -535 -569 0
229 -539 -565 0
229 -535 -599 0
229 -539 -595 0
229 -565 -599 0
229 -569 -595 0
230 -445 -480 0
230 -450 -475 0
230 -445 -510 0
230 -450 -505 0
230 -445 -540 0
230 -450 -535 0
230 -445 -570 0
230 -450 -565 0
230 -445 -600 0
230 -450 -595 0
230 -475 -510 0
230 -480 -505 0
230 -475 -540 0
230 -480 -535 0
230 -475 -570 0
230 -480 -565 0
230 -475 -600 0
230 -480 -595 0
230 -505 -540 0
230 -510 -535 0
230 -505 -570 0
230 -510 -565 0
230 -505 -600 0
230 -510 -595 0
230 -535 -570 0
230 -540 -565 0
230 -535 -600 0
230 -540 -595 0
230 -565 -600 0
230 -570 -595 0
231 -445 -481 0
231 -451 -475 0
231 -445 -511 0
231 -451 -505 0
231 -445 -541 0
231 -451 -535 0
231 -445 -571 0
231 -451 -565 0
231 -445 -601 0
231 -451 -595 0
231 -475 -511 0
231 -481 -505 0
231 -475 -541 0
231 -481 -535 0
231 -475 -571 0
231 -481 -565 0
231 -475 -601 0
231 -481 -595 0
231 -505 -541 0
231 -511 -535 0
231 -505 -571 0
231 -511 -565 0
231 -505 -601 0
231 -511 -595 0
231 -535 -571 0
231 -541 -565 0
231 -535 -601 0
231 -541 -595 0
231 -565 -601 0
231 -571 -595 0
232 -445 -482 0
232 -452 -475 0
232 -445 -512 0
232 -452 -505 0
232 -445 -542 0
232 -452 -535 0
232 -445 -572 0
232 -452 -565 0
232 -445 -602 0
232 -452 -595 0
232 -475 -512 0
232 -482 -505 0
232 -475 -542 0
232 -482 -535 0
232 -475 -572 0
232 -482 -565 0
232 -475 -602 0
232 -482 -595 0
232 -505 -542 0
232 -512 -535 0
232 -505 -572 0
232 -512 -565 0
232 -505 -602 0
232 -512 -595 0
232 -535 -572 0
232 -542 -565 0
232 -535 -602 0
232 -542 -595 0
232 -565 -602 0
232 -572 -595 0
233 -445 -483 0
233 -453 -475 0
233 -445 -513 0
233 -453 -505 0
233 -445 -543 0
233 -453 -535 0
233 -445 -573 0
233 -453 -565 0
233 -445 -603 0
233 -453 -595 0
233 -475 -513 0
233 -483 -505 0
233 -475 -543 0
233 -483 -535 0
233 -475 -573 0
233 -483 -565 0
233 -475 -603 0
233 -483 -595 0
233 -505 -543 0
233 -513 -535 0
233 -505 -573 0
233 -513 -565 0
233 -505 -603 0
233 -513 -595 0
233 -535 -573 0
233 -543 -565 0
233 -535 -603 0
233 -543 -595 0
233 -565 -603 0
233 -573 -595 0
234 -445 -484 0
234 -454 -475 0
234 -445 -514 0
234 -454 -505 0
234 -445 -544 0
234 -454 -535 0
234 -445 -574 0
234 -454 -565 0
234 -445 -604 0
234 -454 -595 0
234 -475 -514 0
234 -484 -505 0
234 -475 -544 0
234 -484 -535 0
234 -475 -574 0
234 -484 -565 0
234 -475 -604 0
234 -484 -595 0
234 -505 -544 0
234 -514 -535 0
234 -505 -574 0
234 -514 -565 0
234 -505 -604 0
234 -514 -595 0
234 -535 -574 0
234 -544 -565 0
234 -535 -604 0
234 -544 -595 0
234 -565 -604 0
234 -574 -595 0
235 -445 -485 0
235 -455 -475 0
235 -445 -515 0
235 -455 -505 0
235 -445 -545 0
235 -455 -535 0
235 -445 -575 0
235 -455 -565 0
235 -445 -605 0
235 -455 -595 0
235 -475 -515 0
235 -485 -505 0
235 -475 -545 0
235 -485 -535 0
235 -475 -575 0
235 -485 -565 0
235 -475 -605 0
235 -485 -595 0
235 -505 -545 0
235 -515 -535 0
235 -505 -575 0
235 -515 -565 0
235 -505 -605 0
235 -515 -595 0
235 -535 -575 0
235 -545 -565 0
235 -535 -605 0
235 -545 -595 0
235 -565 -605 0
235 -575 -595 0
236 -445 -486 0
236 -456 -475 0
236 -445 -516 0
236 -456 -505 0
236 -445 -546 0
236 -456 -535 0
236 -445 -576 0
236 -456 -565 0
236 -445 -606 0
236 -456 -595 0
236 -475 -516 0
236 -486 -505 0
236 -475 -546 0
236 -486 -535 0
236 -475 -576 0
236 -486 -565 0
236 -475 -606 0
236 -486 -595 0
236 -505 -546 0
236 -516 -535 0
236 -505 -576 0
236 -516 -565 0
236 -505 -606 0
236 -516 -595 0
236 -535 -576 0
236 -546 -565 0
236 -535 -606 0
236 -546 -595 0
236 -565 -606 0
236 -576 -595 0
237 -445 -487 0
237 -457 -475 0
237 -445 -517 0
237 -457 -505 0
237 -445 -547 0
237 -457 -535 0
237 -445 -577 0
237 -457 -565 0
237 -445 -607 0
237 -457 -595 0
237 -475 -517 0
237 -487 -505 0
237 -475 -547 0
237 -487 -535 0
237 -475 -577 0
237 -487 -565 0
237 -475 -607 0
237 -487 -595 0
237 -505 -547 0
237 -517 -535 0
237 -505 -577 0
237 -517 -565 0
237 -505 -607 0
237 -517 -595 0
237 -535 -577 0
237 -547 -565 0
237 -535 -607 0
237 -547 -595 0
237 -565 -607 0
237 -577 -595 0
238 -445 -488 0
238 -458 -475 0
238 -445 -518 0
238 -458 -505 0
238 -445 -548 0
238 -458 -535 0
238 -445 -578 0
238 -458 -565 0
238 -445 -608 0
238 -458 -595 0
238 -475 -518 0
238 -488 -505 0
238 -475 -548 0
238 -488 -535 0
238 -475 -578 0
238 -488 -565 0
238 -475 -608 0
238 -488 -595 0
238 -505 -548 0
238 -518 -535 0
238 -505 -578 0
238 -518 -565 0
238 -505 -608 0
238 -518 -595 0
238 -535 -578 0
238 -548 -565 0
238 -535 -608 0
238 -548 -595 0
238 -565 -608 0
238 -578 -595 0
239 -445 -489 0
239 -459 -475 0
239 -445 -519 0
239 -459 -505 0
239 -445 -549 0
239 -459 -535 0
239 -445 -579 0
239 -459 -565 0
239 -445 -609 0
239 -459 -595 0
239 -475 -519 0
239 -489 -505 0
239 -475 -549 0
239 -489 -535 0
239 -475 -579 0
239 -489 -565 0
239 -475 -609 0
239 -489 -595 0
239 -505 -549 0
239 -519 -535 0
239 -505 -579 0
239 -519 -565 0
239 -505 -609 0
239 -519 -595 0
239 -535 -579 0
239 -549 -565 0
239 -535 -609 0
239 -549 -595 0
239 -565 -609 0
239 -579 -595 0
240 -445 -490 0
240 -460 -475 0
240 -445 -520 0
240 -460 -505 0
240 -445 -550 0
240 -460 -535 0
240 -445 -580 0
240 -460 -565 0
240 -445 -610 0
240 -460 -595 0
240 -475 -520 0
240 -490 -505 0
240 -475 -550 0
240 -490 -535 0
240 -475 -580 0
240 -490 -565 0
240 -475 -610 0
240 -490 -595 0
240 -505 -550 0
240 -520 -535 0
240 -505 -580 0
240 -520 -565 0
240 -505 -610 0
240 -520 -595 0
240 -535 -580 0
240 -550 -565 0
240 -535 -610 0
240 -550 -595 0
240 -565 -610 0
240 -580 -595 0
241 -445 -491 0
241 -461 -475 0
241 -445 -521 0
241 -461 -505 0
241 -445 -551 0
241 -461 -535 0
241 -445 -581 0
241 -461 -565 0
241 -445 -611 0
241 -461 -595 0
241 -475 -521 0
241 -491 -505 0
241 -475 -551 0
241 -491 -535 0
241 -475 -581 0
241 -491 -565 0
241 -475 -611 0
241 -491 -595 0
241 -505 -551 0
241 -521 -535 0
241 -505 -581 0
241 -521 -565 0
241 -505 -611 0
241 -521 -595 0
241 -535 -581 0
241 -551 -565 0
241 -535 -611 0
241 -551 -595 0
241 -565 -611 0
241 -581 -595 0
242 -445 -492 0
242 -462 -475 0
242 -445 -522 0
242 -462 -505 0
242 -445 -552 0
242 -462 -535 0
242 -445 -582 0
242 -462 -565 0
242 -445 -612 0
242 -462 -595 0
242 -475 -522 0
242 -492 -505 0
242 -475 -552 0
242 -492 -535 0
242 -475 -582 0
242 -492 -565 0
242 -475 -612 0
242 -492 -595 0
242 -505 -552 0
242 -522 -535 0
242 -505 -582 0
242 -522 -565 0
242 -505 -612 0
242 -522 -595 0
242 -535 -582 0
242 -552 -565 0
242 -535 -612 0
242 -552 -595 0
242 -565 -612 0
242 -582 -595 0
243 -445 -493 0
243 -463 -475 0
243 -445 -523 0
243 -463 -505 0
243 -445 -553 0
243 -463 -535 0
243 -445 -583 0
243 -463 -565 0
243 -445 -613 0
243 -463 -595 0
243 -475 -523 0
243 -493 -505 0
243 -475 -553 0
243 -493 -535 0
243 -475 -583 0
243 -493 -565 0
243 -475 -613 0
243 -493 -595 0
243 -505 -553 0
243 -523 -535 0
243 -505 -583 0
243 -523 -565 0
243 -505 -613 0
243 -523 -595 0
243 -535 -583 0
243 -553 -565 0
243 -535 -613 0
243 -553 -595 0
243 -565 -613 0
243 -583 -595 0
244 -445 -494 0
244 -464 -475 0
244 -445 -524 0
244 -464 -505 0
244 -445 -554 0
244 -464 -535 0
244 -445 -584 0
244 -464 -565 0
244 -445 -614 0
244 -464 -595 0
244 -475 -524 0
244 -494 -505 0
244 -475 -554 0
244 -494 -535 0
244 -475 -584 0
244 -494 -565 0
244 -475 -614 0
244 -494 -595 0
244 -505 -554 0
244 -524 -535 0
244 -505 -584 0
244 -524 -565 0
244 -505 -614 0
244 -524 -595 0
244 -535 -584 0
244 -554 -565 0
244 -535 -614 0
244 -554 -595 0
244 -565 -614 0
244 -584 -595 0
245 -445 -495 0
245 -465 -475 0
245 -445 -525 0
245 -465 -505 0
245 -445 -555 0
245 -465 -535 0
245 -445 -585 0
245 -465 -565 0
245 -445 -615 0
245 -465 -595 0
245 -475 -525 0
245 -495 -505 0
245 -475 -555 0
245 -495 -535 0
245 -475 -585 0
245 -495 -565 0
245 -475 -615 0
245 -495 -595 0
245 -505 -555 0
245 -525 -535 0
245 -505 -585 0
245 -525 -565 0
245 -505 -615 0
245 -525 -595 0
245 -535 -585 0
245 -555 -565 0
245 -535 -615 0
245 -555 -595 0
245 -565 -615 0
245 -585 -595 0
246 -446 -477 0
246 -447 -476 0
246 -446 -507 0
246 -447 -506 0
246 -446 -537 0
246 -447 -536 0
246 -446 -567 0
246 -447 -566 0
246 -446 -597 0
246 -447 -596 0
246 -476 -507 0
246 -477 -506 0
246 -476 -537 0
246 -477 -536 0
246 -476 -567 0
246 -477 -566 0
246 -476 -597 0
246 -477 -596 0
246 -506 -537 0
246 -507 -536 0
246 -506 -567 0
246 -507 -566 0
246 -506 -597 0
246 -507 -596 0
246 -536 -567 0
246 -537 -566 0
246 -536 -597 0
246 -537 -596 0
246 -566 -597 0
246 -567 -596 0
247 -446 -478 0
247 -448 -476 0
247 -446 -508 0
247 -448 -506 0
247 -446 -538 0
247 -448 -536 0
247 -446 -568 0
247 -448 -566 0
247 -446 -598 0
247 -448 -596 0
247 -476 -508 0
247 -478 -506 0
247 -476 -538 0
247 -478 -536 0
247 -476 -568 0
247 -478 -566 0
247 -476 -598 0
247 -478 -596 0
247 -506 -538 0
247 -508 -536 0
247 -506 -568 0
247 -508 -566 0
247 -506 -598 0
247 -508 -596 0
247 -536 -568 0
247 -538 -566 0
247 -536 -598 0
247 -538 -596 0
247 -566 -598 0
247 -568 -596 0
248 -446 -479 0
248 -449 -476 0
248 -446 -509 0
248 -449 -506 0
248 -446 -539 0
248 -449 -536 0
248 -446 -569 0
248 -449 -566 0
248 -446 -599 0
248 -449 -596 0
248 -476 -509 0
248 -479 -506 0
248 -476 -539 0
248 -479 -536 0
248 -476 -569 0
248 -479 -566 0
248 -476 -599 0
248 -479 -596 0
248 -506 -539 0
248 -509 -536 0
248 -506 -569 0
248 -509 -566 0
248 -506 -599 0
248 -509 -596 0
248 -536 -569 0
248 -539 -566 0
248 -536 -599 0
248 -539 -596 0
248 -566 -599 0
248 -569 -596 0
249 -446 -480 0
249 -450 -476 0
249 -446 -510 0
249 -450 -506 0
249 -446 -540 0
249 -450 -536 0
249 -446 -570 0
249 -450 -566 0
249 -446 -600 0
249 -450 -596 0
249 -476 -510 0
249 -480 -506 0
249 -476 -540 0
249 -480 -536 0
249 -476 -570 0
249 -480 -566 0
249 -476 -600 0
249 -480 -596 0
249 -506 -540 0
249 -510 -536 0
249 -506 -570 0
249 -510 -566 0
249 -506 -600 0
249 -510 -596 0
249 -536 -570 0
249 -540 -566 0
249 -536 -600 0
249 -540 -596 0
249 -566 -600 0
249 -570 -596 0
250 -446 -481 0
250 -451 -476 0
250 -446 -511 0
250 -451 -506 0
250 -446 -541 0
250 -451 -536 0
250 -446 -571 0
250 -451 -566 0
250 -446 -601 0
250 -451 -596 0
250 -476 -511 0
250 -481 -506 0
250 -476 -541 0
250 -481 -536 0
250 -476 -571 0
250 -481 -566 0
250 -476 -601 0
250 -481 -596 0
250 -506 -541 0
250 -511 -536 0
250 -506 -571 0
250 -511 -566 0
250 -506 -601 0
250 -511 -596 0
250 -536 -571 0
250 -541 -566 0
250 -536 -601 0
250 -541 -596 0
250 -566 -601 0
250 -571 -596 0
251 -446 -482 0
251 -452 -476 0
251 -446 -512 0
251 -452 -506 0
251 -446 -542 0
251 -452 -536 0
251 -446 -572 0
251 -452 -566 0
251 -446 -602 0
251 -452 -596 0
251 -476 -512 0
251 -482 -506 0
251 -476 -542 0
251 -482 -536 0
251 -476 -572 0
251 -482 -566 0
251 -476 -602 0
251 -482 -596 0
251 -506 -542 0
251 -512 -536 0
251 -506 -572 0
251 -512 -566 0
251 -506 -602 0
251 -512 -596 0
251 -536 -572 0
251 -542 -566 0
251 -536 -602 0
251 -542 -596 0
251 -566 -602 0
251 -572 -596 0
252 -446 -483 0
252 -453 -476 0
252 -446 -513 0
252 -453 -506 0
252 -446 -543 0
252 -453 -536 0
252 -446 -573 0
252 -453 -566 0
252 -446 -603 0
252 -453 -596 0
252 -476 -513 0
252 -483 -506 0
252 -476 -543 0
252 -483 -536 0
252 -476 -573 0
252 -483 -566 0
252 -476 -603 0
252 -483 -596 0
252 -506 -543 0
252 -513 -536 0
252 -506 -573 0
252 -513 -566 0
252 -506 -603 0
252 -513 -596 0
252 -536 -573 0
252 -543 -566 0
252 -536 -603 0
252 -543 -596 0
252 -566 -603 0
252 -573 -596 0
253 -446 -484 0
253 -454 -476 0
253 -446 -514 0
253 -454 -506 0
253 -446 -544 0
253 -454 -536 0
253 -446 -574 0
253 -454 -566 0
253 -446 -604 0
253 -454 -596 0
253 -476 -514 0
253 -484 -506 0
253 -476 -544 0
253 -484 -536 0
253 -476 -574 0
253 -484 -566 0
253 -476 -604 0
253 -484 -596 0
253 -506 -544 0
253 -514 -536 0
253 -506 -574 0
253 -514 -566 0
253 -506 -604 0
253 -514 -596 0
253 -536 -574 0
253 -544 -566 0
253 -536 -604 0
253 -544 -596 0
253 -566 -604 0
253 -574 -596 0
254 -446 -485 0
254 -455 -476 0
254 -446 -515 0
254 -455 -506 0
254 -446 -545 0
254 -455 -536 0
254 -446 -575 0
254 -455 -566 0
254 -446 -605 0
254 -455 -596 0
254 -476 -515 0
254 -485 -506 0
254 -476 -545 0
254 -485 -536 0
254 -476 -575 0
254 -485 -566 0
254 -476 -605 0
254 -485 -596 0
254 -506 -545 0
254 -515 -536 0
254 -506 -575 0
254 -515 -566 0
254 -506 -605 0
254 -515 -596 0
254 -536 -575 0
254 -545 -566 0
254 -536 -605 0
254 -545 -596 0
254 -566 -605 0
254 -575 -596 0
255 -446 -486 0
255 -456 -476 0
255 -446 -516 0
255 -456 -506 0
255 -446 -546 0
255 -456 -536 0
255 -446 -576 0
255 -456 -566 0
255 -446 -606 0
255 -456 -596 0
255 -476 -516 0
255 -486 -506 0
255 -476 -546 0
255 -486 -536 0
255 -476 -576 0
255 -486 -566 0
255 -476 -606 0
255 -486 -596 0
255 -506 -546 0
255 -516 -536 0
255 -506 -576 0
255 -516 -566 0
255 -506 -606 0
255 -516 -596 0
255 -536 -576 0
255 -546 -566 0
255 -536 -606 0
255 -546 -596 0
255 -566 -606 0
255 -576 -596 0
256 -446 -487 0
256 -457 -476 0
256 -446 -517 0
256 -457 -506 0
256 -446 -547 0
256 -457 -536 0
256 -446 -577 0
256 -457 -566 0
256 -446 -607 0
256 -457 -596 0
256 -476 -517 0
256 -487 -506 0
256 -476 -547 0
256 -487 -536 0
256 -476 -577 0
256 -487 -566 0
256 -476 -607 0
256 -487 -596 0
256 -506 -547 0
256 -517 -536 0
256 -506 -577 0
256 -517 -566 0
256 -506 -607 0
256 -517 -596 0
256 -536 -577 0
256 -547 -566 0
256 -536 -607 0
256 -547 -596 0
256 -566 -607 0
256 -577 -596 0
257 -446 -488 0
257 -458 -476 0
257 -446 -518 0
257 -458 -506 0
257 -446 -548 0
257 -458 -536 0
257 -446 -578 0
257 -458 -566 0
257 -446 -608 0
257 -458 -596 0
257 -476 -518 0
257 -488 -506 0
257 -476 -548 0
257 -488 -536 0
257 -476 -578 0
257 -488 -566 0
257 -476 -608 0
257 -488 -596 0
257 -506 -548 0
257 -518 -536 0
257 -506 -578 0
257 -518 -566 0
257 -506 -608 0
257 -518 -596 0
257 -536 -578 0
257 -548 -566 0
257 -536 -608 0
257 -548 -596 0
257 -566 -608 0
257 -578 -596 0
258 -446 -489 0
258 -459 -476 0
258 -446 -519 0
258 -459 -506 0
258 -446 -549 0
258 -459 -536 0
258 -446 -579 0
258 -459 -566 0
258 -446 -609 0
258 -459 -596 0
258 -476 -519 0
258 -489 -506 0
258 -476 -549 0
258 -489 -536 0
258 -476 -579 0
258 -489 -566 0
258 -476 -609 0
258 -489 -596 0
258 -506 -549 0
258 -519 -536 0
258 -506 -579 0
258 -519 -566 0
258 -506 -609 0
258 -519 -596 0
258 -536 -579 0
258 -549 -566 0
258 -536 -609 0
258 -549 -596 0
258 -566 -609 0
258 -579 -596 0
259 -446 -490 0
259 -460 -476 0
259 -446 -520 0
259 -460 -506 0
259 -446 -550 0
259 -460 -536 0
259 -446 -580 0
259 -460 -566 0
259 -446 -610 0
259 -460 -596 0
259 -476 -520 0
259 -490 -506 0
259 -476 -550 0
259 -490 -536 0
259 -476 -580 0
259 -490 -566 0
259 -476 -610 0
259 -490 -596 0
259 -506 -550 0
259 -520 -536 0
259 -506 -580 0
259 -520 -566 0
259 -506 -610 0
259 -520 -596 0
259 -536 -580 0
259 -550 -566 0
259 -536 -610 0
259 -550 -596 0
259 -566 -610 0
259 -580 -596 0
260 -446 -491 0
260 -461 -476 0
260 -446 -521 0
260 -461 -506 0
260 -446 -551 0
260 -461 -536 0
260 -446 -581 0
260 -461 -566 0
260 -446 -611 0
260 -461 -596 0
260 -476 -521 0
260 -491 -506 0
260 -476 -551 0
260 -491 -536 0
260 -476 -581 0
260 -491 -566 0
260 -476 -611 0
260 -491 -596 0
260 -506 -551 0
260 -521 -536 0
260 -506 -581 0
260 -521 -566 0
260 -506 -611 0
260 -521 -596 0
260 -536 -581 0
260 -551 -566 0
260 -536 -611 0
260 -551 -596 0
260 -566 -611 0
260 -581 -596 0
261 -446 -492 0
261 -462 -476 0
261 -446 -522 0
261 -462 -506 0
261 -446 -552 0
261 -462 -536 0
261 -446 -582 0
261 -462 -566 0
261 -446 -612 0
261 -462 -596 0
261 -476 -522 0
261 -492 -506 0
261 -476 -552 0
261 -492 -536 0
261 -476 -582 0
261 -492 -566 0
261 -476 -612 0
261 -492 -596 0
261 -506 -552 0
261 -522 -536 0
261 -506 -582 0
261 -522 -566 0
261 -506 -612 0
261 -522 -596 0
261 -536 -582 0
261 -552 -566 0
261 -536 -612 0
261 -552 -596 0
261 -566 -612 0
261 -582 -596 0
262 -446 -493 0
262 -463 -476 0
262 -446 -523 0
262 -463 -506 0
262 -446 -553 0
262 -463 -536 0
262 -446 -583 0
262 -463 -566 0
262 -446 -613 0
262 -463 -596 0
262 -476 -523 0
262 -493 -506 0
262 -476 -553 0
262 -493 -536 0
262 -476 -583 0
262 -493 -566 0
262 -476 -613 0
262 -493 -596 0
262 -506 -553 0
262 -523 -536 0
262 -506 -583 0
262 -523 -566 0
262 -506 -613 0
262 -523 -596 0
262 -536 -583 0
262 -553 -566 0
262 -536 -613 0
262 -553 -596 0
262 -566 -613 0
262 -583 -596 0
263 -446 -494 0
263 -464 -476 0
263 -446 -524 0
263 -464 -506 0
263 -446 -554 0
263 -464 -536 0
263 -446 -584 0
263 -464 -566 0
263 -446 -614 0
263 -464 -596 0
263 -476 -524 0
263 -494 -506 0
263 -476 -554 0
263 -494 -536 0
263 -476 -584 0
263 -494 -566 0
263 -476 -614 0
263 -494 -596 0
263 -506 -554 0
263 -524 -536 0
263 -506 -584 0
263 -524 -566 0
263 -506 -614 0
263 -524 -596 0
263 -536 -584 0
263 -554 -566 0
263 -536 -614 0
263 -554 -596 0
263 -566 -614 0
263 -584 -596 0
264 -446 -495 0
264 -465 -476 0
264 -446 -525 0
264 -465 -506 0
264 -446 -555 0
264 -465 -536 0
264 -446 -585 0
264 -465 -566 0
264 -446 -615 0
264 -465 -596 0
264 -476 -525 0
264 -495 -506 0
264 -476 -555 0
264 -495 -536 0
264 -476 -585 0
264 -495 -566 0
264 -476 -615 0
264 -495 -596 0
264 -506 -555 0
264 -525 -536 0
264 -506 -585 0
264 -525 -566 0
264 -506 -615 0
264 -525 -596 0
264 -536 -585 0
264 -555 -566 0
264 -536 -615 0
264 -555 -596 0
264 -566 -615 0
264 -585 -596 0
265 -447 -478 0
265 -448 -477 0
265 -447 -508 0
265 -448 -507 0
265 -447 -538 0
265 -448 -537 0
265 -447 -568 0
265 -448 -567 0
265 -447 -598 0
265 -448 -597 0
265 -477 -508 0
265 -478 -507 0
265 -477 -538 0
265 -478 -537 0
265 -477 -568 0
265 -478 -567 0
265 -477 -598 0
265 -478 -597 0
265 -507 -538 0
265 -508 -537 0
265 -507 -568 0
265 -508 -567 0
265 -507 -598 0
265 -508 -597 0
265 -537 -568 0
265 -538 -567 0
265 -537 -598 0
265 -538 -597 0
265 -567 -598 0
265 -568 -597 0
266 -447 -479 0
266 -449 -477 0
266 -447 -509 0
266 -449 -507 0
266 -447 -539 0
266 -449 -537 0
266 -447 -569 0
266 -449 -567 0
266 -447 -599 0
266 -449 -597 0
266 -477 -509 0
266 -479 -507 0
266 -477 -539 0
266 -479 -537 0
266 -477 -569 0
266 -479 -567 0
266 -477 -599 0
266 -479 -597 0
266 -507 -539 0
266 -509 -537 0
266 -507 -569 0
266 -509 -567 0
266 -507 -599 0
266 -509 -597 0
266 -537 -569 0
266 -539 -567 0
266 -537 -599 0
266 -539 -597 0
266 -567 -599 0
266 -569 -597 0
267 -447 -480 0
267 -450 -477 0
267 -447 -510 0
267 -450 -507 0
267 -447 -540 0
267 -450 -537 0
267 -447 -570 0
267 -450 -567 0
267 -447 -600 0
267 -450 -597 0
267 -477 -510 0
267 -480 -507 0
267 -477 -540 0
267 -480 -537 0
267 -477 -570 0
267 -480 -567 0
267 -477 -600 0
267 -480 -597 0
267 -507 -540 0
267 -510 -537 0
267 -507 -570 0
267 -510 -567 0
267 -507 -600 0
267 -510 -597 0
267 -537 -570 0
267 -540 -567 0
267 -537 -600 0
267 -540 -597 0
267 -567 -600 0
267 -570 -597 0
268 -447 -481 0
268 -451 -477 0
268 -447 -511 0
268 -451 -507 0
268 -447 -541 0
268 -451 -537 0
268 -447 -571 0
268 -451 -567 0
268 -447 -601 0
268 -451 -597 0
268 -477 -511 0
268 -481 -507 0
268 -477 -541 0
268 -481 -537 0
268 -477 -571 0
268 -481 -567 0
268 -477 -601 0
268 -481 -597 0
268 -507 -541 0
268 -511 -537 0
268 -507 -571 0
268 -511 -567 0
268 -507 -601 0
268 -511 -597 0
268 -537 -571 0
268 -541 -567 0
268 -537 -601 0
268 -541 -597 0
268 -567 -601 0
268 -571 -597 0
269 -447 -482 0
269 -452 -477 0
269 -447 -512 0
269 -452 -507 0
269 -447 -542 0
269 -452 -537 0
269 -447 -572 0
269 -452 -567 0
269 -447 -602 0
269 -452 -597 0
269 -477 -512 0
269 -482 -507 0
269 -477 -542 0
269 -482 -537 0
269 -477 -572 0
269 -482 -567 0
269 -477 -602 0
269 -482 -597 0
269 -507 -542 0
269 -512 -537 0
269 -507 -572 0
269 -512 -567 0
269 -507 -602 0
269 -512 -597 0
269 -537 -572 0
269 -542 -567 0
269 -537 -602 0
269 -542 -597 0
269 -567 -602 0
269 -572 -597 0
270 -447 -483 0
270 -453 -477 0
270 -447 -513 0
270 -453 -507 0
270 -447 -543 0
270 -453 -537 0
270 -447 -573 0
270 -453 -567 0
270 -447 -603 0
270 -453 -597 0
270 -477 -513 0
270 -483 -507 0
270 -477 -543 0
270 -483 -537 0
270 -477 -573 0
270 -483 -567 0
270 -477 -603 0
270 -483 -597 0
270 -507 -543 0
270 -513 -537 0
270 -507 -573 0
270 -513 -567 0
270 -507 -603 0
270 -513 -597 0
270 -537 -573 0
270 -543 -567 0
270 -537 -603 0
270 -543 -597 0
270 -567 -603 0
270 -573 -597 0
271 -447 -484 0
271 -454 -477 0
271 -447 -514 0
271 -454 -507 0
271 -447 -544 0
271 -454 -537 0
271 -447 -574 0
271 -454 -567 0
271 -447 -604 0
271 -454 -597 0
271 -477 -514 0
271 -484 -507 0
271 -477 -544 0
271 -484 -537 0
271 -477 -574 0
271 -484 -567 0
271 -477 -604 0
271 -484 -597 0
271 -507 -544 0
271 -514 -537 0
271 -507 -574 0
271 -514 -567 0
271 -507 -604 0
271 -514 -597 0
271 -537 -574 0
271 -544 -567 0
271 -537 -604 0
271 -544 -597 0
271 -567 -604 0
271 -574 -597 0
272 -447 -485 0
272 -455 -477 0
272 -447 -515 0
272 -455 -507 0
272 -447 -545 0
272 -455 -537 0
272 -447 -575 0
272 -455 -567 0
272 -447 -605 0
272 -455 -597 0
272 -477 -515 0
272 -485 -507 0
272 -477 -545 0
272 -485 -537 0
272 -477 -575 0
272 -485 -567 0
272 -477 -605 0
272 -485 -597 0
272 -507 -545 0
272 -515 -537 0
272 -507 -575 0
272 -515 -567 0
272 -507 -605 0
272 -515 -597 0
272 -537 -575 0
272 -545 -567 0
272 -537 -605 0
272 -545 -597 0
272 -567 -605 0
272 -575 -597 0
273 -447 -486 0
273 -456 -477 0
273 -447 -516 0
273 -456 -507 0
273 -447 -546 0
273 -456 -537 0
273 -447 -576 0
273 -456 -567 0
273 -447 -606 0
273 -456 -597 0
273 -477 -516 0
273 -486 -507 0
273 -477 -546 0
273 -486 -537 0
273 -477 -576 0
273 -486 -567 0
273 -477 -606 0
273 -486 -597 0
273 -507 -546 0
273 -516 -537 0
273 -507 -576 0
273 -516 -567 0
273 -507 -606 0
273 -516 -597 0
273 -537 -576 0
273 -546 -567 0
273 -537 -606 0
273 -546 -597 0
273 -567 -606 0
273 -576 -597 0
274 -447 -487 0
274 -457 -477 0
274 -447 -517 0
274 -457 -507 0
274 -447 -547 0
274 -457 -537 0
274 -447 -577 0
274 -457 -567 0
274 -447 -607 0
274 -457 -597 0
274 -477 -517 0
274 -487 -507 0
274 -477 -547 0
274 -487 -537 0
274 -477 -577 0
274 -487 -567 0
274 -477 -607 0
274 -487 -597 0
274 -507 -547 0
274 -517 -537 0
274 -507 -577 0
274 -517 -567 0
274 -507 -607 0
274 -517 -597 0
274 -537 -577 0
274 -547 -567 0
274 -537 -607 0
274 -547 -597 0
274 -567 -607 0
274 -577 -597 0
275 -447 -488 0
275 -458 -477 0
275 -447 -518 0
275 -458 -507 0
275 -447 -548 0
275 -458 -537 0
275 -447 -578 0
275 -458 -567 0
275 -447 -608 0
275 -458 -597 0
275 -477 -518 0
275 -488 -507 0
275 -477 -548 0
275 -488 -537 0
275 -477 -578 0
275 -488 -567 0
275 -477 -608 0
275 -488 -597 0
275 -507 -548 0
275 -518 -537 0
275 -507 -578 0
275 -518 -567 0
275 -507 -608 0
275 -518 -597 0
275 -537 -578 0
275 -548 -567 0
275 -537 -608 0
275 -548 -597 0
275 -567 -608 0
275 -578 -597 0
276 -447 -489 0
276 -459 -477 0
276 -447 -519 0
276 -459 -507 0
276 -447 -549 0
276 -459 -537 0
276 -447 -579 0
276 -459 -567 0
276 -447 -609 0
276 -459 -597 0
276 -477 -519 0
276 -489 -507 0
276 -477 -549 0
276 -489 -537 0
276 -477 -579 0
276 -489 -567 0
276 -477 -609 0
276 -489 -597 0
276 -507 -549 0
276 -519 -537 0
276 -507 -579 0
276 -519 -567 0
276 -507 -609 0
276 -519 -597 0
276 -537 -579 0
276 -549 -567 0
276 -537 -609 0
276 -549 -597 0
276 -567 -609 0
276 -579 -597 0
277 -447 -490 0
277 -460 -477 0
277 -447 -520 0
277 -460 -507 0
277 -447 -550 0
277 -460 -537 0
277 -447 -580 0
277 -460 -567 0
277 -447 -610 0
277 -460 -597 0
277 -477 -520 0
277 -490 -507 0
277 -477 -550 0
277 -490 -537 0
277 -477 -580 0
277 -490 -567 0
277 -477 -610 0
277 -490 -597 0
277 -507 -550 0
277 -520 -537 0
277 -507 -580 0
277 -520 -567 0
277 -507 -610 0
277 -520 -597 0
277 -537 -580 0
277 -550 -567 0
277 -537 -610 0
277 -550 -597 0
277 -567 -610 0
277 -580 -597 0
278 -447 -491 0
278 -461 -477 0
278 -447 -521 0
278 -461 -507 0
278 -447 -551 0
278 -461 -537 0
278 -447 -581 0
278 -461 -567 0
278 -447 -611 0
278 -461 -597 0
278 -477 -521 0
278 -491 -507 0
278 -477 -551 0
278 -491 -537 0
278 -477 -581 0
278 -491 -567 0
278 -477 -611 0
278 -491 -597 0
278 -507 -551 0
278 -521 -537 0
278 -507 -581 0
278 -521 -567 0
278 -507 -611 0
278 -521 -597 0
278 -537 -581 0
278 -551 -567 0
278 -537 -611 0
278 -551 -597 0
278 -567 -611 0
278 -581 -597 0
279 -447 -492 0
279 -462 -477 0
279 -447 -522 0
279 -462 -507 0
279 -447 -552 0
279 -462 -537 0
279 -447 -582 0
279 -462 -567 0
279 -447 -612 0
279 -462 -597 0
279 -477 -522 0
279 -492 -507 0
279 -477 -552 0
279 -492 -537 0
279 -477 -582 0
279 -492 -567 0
279 -477 -612 0
279 -492 -597 0
279 -507 -552 0
279 -522 -537 0
279 -507 -582 0
279 -522 -567 0
279 -507 -612 0
279 -522 -597 0
279 -537 -582 0
279 -552 -567 0
279 -537 -612 0
279 -552 -597 0
279 -567 -612 0
279 -582 -597 0
280 -447 -493 0
280 -463 -477 0
280 -447 -523 0
280 -463 -507 0
280 -447 -553 0
280 -463 -537 0
280 -447 -583 0
280 -463 -567 0
280 -447 -613 0
280 -463 -597 0
280 -477 -523 0
280 -493 -507 0
280 -477 -553 0
280 -493 -537 0
280 -477 -583 0
280 -493 -567 0
280 -477 -613 0
280 -493 -597 0
280 -507 -553 0
280 -523 -537 0
280 -507 -583 0
280 -523 -567 0
280 -507 -613 0
280 -523 -597 0
280 -537 -583 0
280 -553 -567 0
280 -537 -613 0
280 -553 -597 0
280 -567 -613 0
280 -583 -597 0
281 -447 -494 0
281 -464 -477 0
281 -447 -524 0
281 -464 -507 0
281 -447 -554 0
281 -464 -537 0
281 -447 -584 0
281 -464 -567 0
281 -447 -614 0
281 -464 -597 0
281 -477 -524 0
281 -494 -507 0
281 -477 -554 0
281 -494 -537 0
281 -477 -584 0
281 -494 -567 0
281 -477 -614 0
281 -494 -597 0
281 -507 -554 0
281 -524 -537 0
281 -507 -584 0
281 -524 -567 0
281 -507 -614 0
281 -524 -597 0
281 -537 -584 0
281 -554 -567 0
281 -537 -614 0
281 -554 -597 0
281 -567 -614 0
281 -584 -597 0
282 -447 -495 0
282 -465 -477 0
282 -447 -525 0
282 -465 -507 0
282 -447 -555 0
282 -465 -537 0
282 -447 -585 0
282 -465 -567 0
282 -447 -615 0
282 -465 -597 0
282 -477 -525 0
282 -495 -507 0
282 -477 -555 0
282 -495 -537 0
282 -477 -585 0
282 -495 -567 0
282 -477 -615 0
282 -495 -597 0
282 -507 -555 0
282 -525 -537 0
282 -507 -585 0
282 -525 -567 0
282 -507 -615 0
282 -525 -597 0
282 -537 -585 0
282 -555 -567 0
282 -537 -615 0
282 -555 -597 0
282 -567 -615 0
282 -585 -597 0
283 -448 -479 0
283 -449 -478 0
283 -448 -509 0
283 -449 -508 0
283 -448 -539 0
283 -449 -538 0
283 -448 -569 0
283 -449 -568 0
283 -448 -599 0
283 -449 -598 0
283 -478 -509 0
283 -479 -508 0
283 -478 -539 0
283 -479 -538 0
283 -478 -569 0
283 -479 -568 0
283 -478 -599 0
283 -479 -598 0
283 -508 -539 0
283 -509 -538 0
283 -508 -569 0
283 -509 -568 0
283 -508 -599 0
283 -509 -598 0
283 -538 -569 0
283 -539 -568 0
283 -538 -599 0
283 -539 -598 0
283 -568 -599 0
283 -569 -598 0
284 -448 -480 0
284 -450 -478 0
284 -448 -510 0
284 -450 -508 0
284 -448 -540 0
284 -450 -538 0
284 -448 -570 0
284 -450 -568 0
284 -448 -600 0
284 -450 -598 0
284 -478 -510 0
284 -480 -508 0
284 -478 -540 0
284 -480 -538 0
284 -478 -570 0
284 -480 -568 0
284 -478 -600 0
284 -480 -598 0
284 -508 -540 0
284 -510 -538 0
284 -508 -570 0
284 -510 -568 0
284 -508 -600 0
284 -510 -598 0
284 -538 -570 0
284 -540 -568 0
284 -538 -600 0
284 -540 -598 0
284 -568 -600 0
284 -570 -598 0
285 -448 -481 0
285 -451 -478 0
285 -448 -511 0
285 -451 -508 0
285 -448 -541 0
285 -451 -538 0
285 -448 -571 0
285 -451 -568 0
285 -448 -601 0
285 -451 -598 0
285 -478 -511 0
285 -481 -508 0
285 -478 -541 0
285 -481 -538 0
285 -478 -571 0
285 -481 -568 0
285 -478 -601 0
285 -481 -598 0
285 -508 -541 0
285 -511 -538 0
285 -508 -571 0
285 -511 -568 0
285 -508 -601 0
285 -511 -598 0
285 -538 -571 0
285 -541 -568 0
285 -538 -601 0
285 -541 -598 0
285 -568 -601 0
285 -571 -598 0
286 -448 -482 0
286 -452 -478 0
286 -448 -512 0
286 -452 -508 0
286 -448 -542 0
286 -452 -538 0
286 -448 -572 0
286 -452 -568 0
286 -448 -602 0
286 -452 -598 0
286 -478 -512 0
286 -482 -508 0
286 -478 -542 0
286 -482 -538 0
286 -478 -572 0
286 -482 -568 0
286 -478 -602 0
286 -482 -598 0
286 -508 -542 0
286 -512 -538 0
286 -508 -572 0
286 -512 -568 0
286 -508 -602 0
286 -512 -598 0
286 -538 -572 0
286 -542 -568 0
286 -538 -602 0
286 -542 -598 0
286 -568 -602 0
286 -572 -598 0
287 -448 -483 0
287 -453 -478 0
287 -448 -513 0
287 -453 -508 0
287 -448 -543 0
287 -453 -538 0
287 -448 -573 0
287 -453 -568 0
287 -448 -603 0
287 -453 -598 0
287 -478 -513 0
287 -483 -508 0
287 -478 -543 0
287 -483 -538 0
287 -478 -573 0
287 -483 -568 0
287 -478 -603 0
287 -483 -598 0
287 -508 -543 0
287 -513 -538 0
287 -508 -573 0
287 -513 -568 0
287 -508 -603 0
287 -513 -598 0
287 -538 -573 0
287 -543 -568 0
287 -538 -603 0
287 -543 -598 0
287 -568 -603 0
287 -573 -598 0
288 -448 -484 0
288 -454 -478 0
288 -448 -514 0
288 -454 -508 0
288 -448 -544 0
288 -454 -538 0
288 -448 -574 0
288 -454 -568 0
288 -448 -604 0
288 -454 -598 0
288 -478 -514 0
288 -484 -508 0
288 -478 -544 0
288 -484 -538 0
288 -478 -574 0
288 -484 -568 0
288 -478 -604 0
288 -484 -598 0
288 -508 -544 0
288 -514 -538 0
288 -508 -574 0
288 -514 -568 0
288 -508 -604 0
288 -514 -598 0
288 -538 -574 0
288 -544 -568 0
288 -538 -604 0
288 -544 -598 0
288 -568 -604 0
288 -574 -598 0
289 -448 -485 0
289 -455 -478 0
289 -448 -515 0
289 -455 -508 0
289 -448 -545 0
289 -455 -538 0
289 -448 -575 0
289 -455 -568 0
289 -448 -605 0
289 -455 -598 0
289 -478 -515 0
289 -485 -508 0
289 -478 -545 0
289 -485 -538 0
289 -478 -575 0
289 -485 -568 0
289 -478 -605 0
289 -485 -598 0
289 -508 -545 0
289 -515 -538 0
289 -508 -575 0
289 -515 -568 0
289 -508 -605 0
289 -515 -598 0
289 -538 -575 0
289 -545 -568 0
289 -538 -605 0
289 -545 -598 0
289 -568 -605 0
289 -575 -598 0
290 -448 -486 0
290 -456 -478 0
290 -448 -516 0
290 -456 -508 0
290 -448 -546 0
290 -456 -538 0
290 -448 -576 0
290 -456 -568 0
290 -448 -606 0
290 -456 -598 0
290 -478 -516 0
290 -486 -508 0
290 -478 -546 0
290 -486 -538 0
290 -478 -576 0
290 -486 -568 0
290 -478 -606 0
290 -486 -598 0
290 -508 -546 0
290 -516 -538 0
290 -508 -576 0
290 -516 -568 0
290 -508 -606 0
290 -516 -598 0
290 -538 -576 0
290 -546 -568 0
290 -538 -606 0
290 -546 -598 0
290 -568 -606 0
290 -576 -598 0
291 -448 -487 0
291 -457 -478 0
291 -448 -517 0
291 -457 -508 0
291 -448 -547 0
291 -457 -538 0
291 -448 -577 0
291 -457 -568 0
291 -448 -607 0
291 -457 -598 0
291 -478 -517 0
291 -487 -508 0
291 -478 -547 0
291 -487 -538 0
291 -478 -577 0
291 -487 -568 0
291 -478 -607 0
291 -487 -598 0
291 -508 -547 0
291 -517 -538 0
291 -508 -577 0
291 -517 -568 0
291 -508 -607 0
291 -517 -598 0
291 -538 -577 0
291 -547 -568 0
291 -538 -607 0
291 -547 -598 0
291 -568 -607 0
291 -577 -598 0
292 -448 -488 0
292 -458 -478 0
292 -448 -518 0
292 -458 -508 0
292 -448 -548 0
292 -458 -538 0
292 -448 -578 0
292 -458 -568 0
292 -448 -608 0
292 -458 -598 0
292 -478 -518 0
292 -488 -508 0
292 -478 -548 0
292 -488 -538 0
292 -478 -578 0
292 -488 -568 0
292 -478 -608 0
292 -488 -598 0
292 -508 -548 0
292 -518 -538 0
292 -508 -578 0
292 -518 -568 0
292 -508 -608 0
292 -518 -598 0
292 -538 -578 0
292 -548 -568 0
292 -538 -608 0
292 -548 -598 0
292 -568 -608 0
292 -578 -598 0
293 -448 -489 0
293 -459 -478 0
293 -448 -519 0
293 -459 -508 0
293 -448 -549 0
293 -459 -538 0
293 -448 -579 0
293 -459 -568 0
293 -448 -609 0
293 -459 -598 0
293 -478 -519 0
293 -489 -508 0
293 -478 -549 0
293 -489 -538 0
293 -478 -579 0
293 -489 -568 0
293 -478 -609 0
293 -489 -598 0
293 -508 -549 0
293 -519 -538 0
293 -508 -579 0
293 -519 -568 0
293 -508 -609 0
293 -519 -598 0
293 -538 -579 0
293 -549 -568 0
293 -538 -609 0
293 -549 -598 0
293 -568 -609 0
293 -579 -598 0
294 -448 -490 0
294 -460 -478 0
294 -448 -520 0
294 -460 -508 0
294 -448 -550 0
294 -460 -538 0
294 -448 -580 0
294 -460 -568 0
294 -448 -610 0
294 -460 -598 0
294 -478 -520 0
294 -490 -508 0
294 -478 -550 0
294 -490 -538 0
294 -478 -580 0
294 -490 -568 0
294 -478 -610 0
294 -490 -598 0
294 -508 -550 0
294 -520 -538 0
294 -508 -580 0
294 -520 -568 0
294 -508 -610 0
294 -520 -598 0
294 -538 -580 0
294 -550 -568 0
294 -538 -610 0
294 -550 -598 0
294 -568 -610 0
294 -580 -598 0
295 -448 -491 0
295 -461 -478 0
295 -448 -521 0
295 -461 -508 0
295 -448 -551 0
295 -461 -538 0
295 -448 -581 0
295 -461 -568 0
295 -448 -611 0
295 -461 -598 0
295 -478 -521 0
295 -491 -508 0
295 -478 -551 0
295 -491 -538 0
295 -478 -581 0
295 -491 -568 0
295 -478 -611 0
295 -491 -598 0
295 -508 -551 0
295 -521 -538 0
295 -508 -581 0
295 -521 -568 0
295 -508 -611 0
295 -521 -598 0
295 -538 -581 0
295 -551 -568 0
295 -538 -611 0
295 -551 -598 0
295 -568 -611 0
295 -581 -598 0
296 -448 -492 0
296 -462 -478 0
296 -448 -522 0
296 -462 -508 0
296 -448 -552 0
296 -462 -538 0
296 -448 -582 0
296 -462 -568 0
296 -448 -612 0
296 -462 -598 0
296 -478 -522 0
296 -492 -508 0
296 -478 -552 0
296 -492 -538 0
296 -478 -582 0
296 -492 -568 0
296 -478 -612 0
296 -492 -598 0
296 -508 -552 0
296 -522 -538 0
296 -508 -582 0
296 -522 -568 0
296 -508 -612 0
296 -522 -598 0
296 -538 -582 0
296 -552 -568 0
296 -538 -612 0
296 -552 -598 0
296 -568 -612 0
296 -582 -598 0
297 -448 -493 0
297 -463 -478 0
297 -448 -523 0
297 -463 -508 0
297 -448 -553 0
297 -463 -538 0
297 -448 -583 0
297 -463 -568 0
297 -448 -613 0
297 -463 -598 0
297 -478 -523 0
297 -493 -508 0
297 -478 -553 0
297 -493 -538 0
297 -478 -583 0
297 -493 -568 0
297 -478 -613 0
297 -493 -598 0
297 -508 -553 0
297 -523 -538 0
297 -508 -583 0
297 -523 -568 0
297 -508 -613 0
297 -523 -598 0
297 -538 -583 0
297 -553 -568 0
297 -538 -613 0
297 -553 -598 0
297 -568 -613 0
297 -583 -598 0
298 -448 -494 0
298 -464 -478 0
298 -448 -524 0
298 -464 -508 0
298 -448 -554 0
298 -464 -538 0
298 -448 -584 0
298 -464 -568 0
298 -448 -614 0
298 -464 -598 0
298 -478 -524 0
298 -494 -508 0
298 -478 -554 0
298 -494 -538 0
298 -478 -584 0
298 -494 -568 0
298 -478 -614 0
298 -494 -598 0
298 -508 -554 0
298 -524 -538 0
298 -508 -584 0
298 -524 -568 0
298 -508 -614 0
298 -524 -598 0
298 -538 -584 0
298 -554 -568 0
298 -538 -614 0
298 -554 -598 0
298 -568 -614 0
298 -584 -598 0
299 -448 -495 0
299 -465 -478 0
299 -448 -525 0
299 -465 -508 0
299 -448 -555 0
299 -465 -538 0
299 -448 -585 0
299 -465 -568 0
299 -448 -615 0
299 -465 -598 0
299 -478 -525 0
299 -495 -508 0
299 -478 -555 0
299 -495 -538 0
299 -478 -585 0
299 -495 -568 0
299 -478 -615 0
299 -495 -598 0
299 -508 -555 0
299 -525 -538 0
299 -508 -585 0
299 -525 -568 0
299 -508 -615 0
299 -525 -598 0
299 -538 -585 0
299 -555 -568 0
299 -538 -615 0
299 -555 -598 0
299 -568 -615 0
299 -585 -598 0
300 -449 -480 0
300 -450 -479 0
300 -449 -510 0
300 -450 -509 0
300 -449 -540 0
300 -450 -539 0
300 -449 -570 0
300 -450 -569 0
300 -449 -600 0
300 -450 -599 0
300 -479 -510 0
300 -480 -509 0
300 -479 -540 0
300 -480 -539 0
300 -479 -570 0
300 -480 -569 0
300 -479 -600 0
300 -480 -599 0
300 -509 -540 0
300 -510 -539 0
300 -509 -570 0
300 -510 -569 0
300 -509 -600 0
300 -510 -599 0
300 -539 -570 0
300 -540 -569 0
300 -539 -600 0
300 -540 -599 0
300 -569 -600 0
300 -570 -599 0
301 -449 -481 0
301 -451 -479 0
301 -449 -511 0
301 -451 -509 0
301 -449 -541 0
301 -451 -539 0
301 -449 -571 0
301 -451 -569 0
301 -449 -601 0
301 -451 -599 0
301 -479 -511 0
301 -481 -509 0
301 -479 -541 0
301 -481 -539 0
301 -479 -571 0
301 -481 -569 0
301 -479 -601 0
301 -481 -599 0
301 -509 -541 0
301 -511 -539 0
301 -509 -571 0
301 -511 -569 0
301 -509 -601 0
301 -511 -599 0
301 -539 -571 0
301 -541 -569 0
301 -539 -601 0
301 -541 -599 0
301 -569 -601 0
301 -571 -599 0
302 -449 -482 0
302 -452 -479 0
302 -449 -512 0
302 -452 -509 0
302 -449 -542 0
302 -452 -539 0
302 -449 -572 0
302 -452 -569 0
302 -449 -602 0
302 -452 -599 0
302 -479 -512 0
302 -482 -509 0
302 -479 -542 0
302 -482 -539 0
302 -479 -572 0
302 -482 -569 0
302 -479 -602 0
302 -482 -599 0
302 -509 -542 0
302 -512 -539 0
302 -509 -572 0
302 -512 -569 0
302 -509 -602 0
302 -512 -599 0
302 -539 -572 0
302 -542 -569 0
302 -539 -602 0
302 -542 -599 0
302 -569 -602 0
302 -572 -599 0
303 -449 -483 0
303 -453 -479 0
303 -449 -513 0
303 -453 -509 0
303 -449 -543 0
303 -453 -539 0
303 -449 -573 0
303 -453 -569 0
303 -449 -603 0
303 -453 -599 0
303 -479 -513 0
303 -483 -509 0
303 -479 -543 0
303 -483 -539 0
303 -479 -573 0
303 -483 -569 0
303 -479 -603 0
303 -483 -599 0
303 -509 -543 0
303 -513 -539 0
303 -509 -573 0
303 -513 -569 0
303 -509 -603 0
303 -513 -599 0
303 -539 -573 0
303 -543 -569 0
303 -539 -603 0
303 -543 -599 0
303 -569 -603 0
303 -573 -599 0
304 -449 -484 0
304 -454 -479 0
304 -449 -514 0
304 -454 -509 0
304 -449 -544 0
304 -454 -539 0
304 -449 -574 0
304 -454 -569 0
304 -449 -604 0
304 -454 -599 0
304 -479 -514 0
304 -484 -509 0
304 -479 -544 0
304 -484 -539 0
304 -479 -574 0
304 -484 -569 0
304 -479 -604 0
304 -484 -599 0
304 -509 -544 0
304 -514 -539 0
304 -509 -574 0
304 -514 -569 0
304 -509 -604 0
304 -514 -599 0
304 -539 -574 0
304 -544 -569 0
304 -539 -604 0
304 -544 -599 0
304 -569 -604 0
304 -574 -599 0
305 -449 -485 0
305 -455 -479 0
305 -449 -515 0
305 -455 -509 0
305 -449 -545 0
305 -455 -539 0
305 -449 -575 0
305 -455 -569 0
305 -449 -605 0
305 -455 -599 0
305 -479 -515 0
305 -485 -509 0
305 -479 -545 0
305 -485 -539 0
305 -479 -575 0
305 -485 -569 0
305 -479 -605 0
305 -485 -599 0
305 -509 -545 0
305 -515 -539 0
305 -509 -575 0
305 -515 -569 0
305 -509 -605 0
305 -515 -599 0
305 -539 -575 0
305 -545 -569 0
305 -539 -605 0
305 -545 -599 0
305 -569 -605 0
305 -575 -599 0
306 -449 -486 0
306 -456 -479 0
306 -449 -516 0
306 -456 -509 0
306 -449 -546 0
306 -456 -539 0
306 -449 -576 0
306 -456 -569 0
306 -449 -606 0
306 -456 -599 0
306 -479 -516 0
306 -486 -509 0
306 -479 -546 0
306 -486 -539 0
306 -479 -576 0
306 -486 -569 0
306 -479 -606 0
306 -486 -599 0
306 -509 -546 0
306 -516 -539 0
306 -509 -576 0
306 -516 -569 0
306 -509 -606 0
306 -516 -599 0
306 -539 -576 0
306 -546 -569 0
306 -539 -606 0
306 -546 -599 0
306 -569 -606 0
306 -576 -599 0
307 -449 -487 0
307 -457 -479 0
307 -449 -517 0
307 -457 -509 0
307 -449 -547 0
307 -457 -539 0
307 -449 -577 0
307 -457 -569 0
307 -449 -607 0
307 -457 -599 0
307 -479 -517 0
307 -487 -509 0
307 -479 -547 0
307 -487 -539 0
307 -479 -577 0
307 -487 -569 0
307 -479 -607 0
307 -487 -599 0
307 -509 -547 0
307 -517 -539 0
307 -509 -577 0
307 -517 -569 0
307 -509 -607 0
307 -517 -599 0
307 -539 -577 0
307 -547 -569 0
307 -539 -607 0
307 -547 -599 0
307 -569 -607 0
307 -577 -599 0
308 -449 -488 0
308 -458 -479 0
308 -449 -518 0
308 -458 -509 0
308 -449 -548 0
308 -458 -539 0
308 -449 -578 0
308 -458 -569 0
308 -449 -608 0
308 -458 -599 0
308 -479 -518 0
308 -488 -509 0
308 -479 -548 0
308 -488 -539 0
308 -479 -578 0
308 -488 -569 0
308 -479 -608 0
308 -488 -599 0
308 -509 -548 0
308 -518 -539 0
308 -509 -578 0
308 -518 -569 0
308 -509 -608 0
308 -518 -599 0
308 -539 -578 0
308 -548 -569 0
308 -539 -608 0
308 -548 -599 0
308 -569 -608 0
308 -578 -599 0
309 -449 -489 0
309 -459 -479 0
309 -449 -519 0
309 -459 -509 0
309 -449 -549 0
309 -459 -539 0
309 -449 -579 0
309 -459 -569 0
309 -449 -609 0
309 -459 -599 0
309 -479 -519 0
309 -489 -509 0
309 -479 -549 0
309 -489 -539 0
309 -479 -579 0
309 -489 -569 0
309 -479 -609 0
309 -489 -599 0
309 -509 -549 0
309 -519 -539 0
309 -509 -579 0
309 -519 -569 0
309 -509 -609 0
309 -519 -599 0
309 -539 -579 0
309 -549 -569 0
309 -539 -609 0
309 -549 -599 0
309 -569 -609 0
309 -579 -599 0
310 -449 -490 0
310 -460 -479 0
310 -449 -520 0
310 -460 -509 0
310 -449 -550 0
310 -460 -539 0
310 -449 -580 0
310 -460 -569 0
310 -449 -610 0
310 -460 -599 0
310 -479 -520 0
310 -490 -509 0
310 -479 -550 0
310 -490 -539 0
310 -479 -580 0
310 -490 -569 0
310 -479 -610 0
310 -490 -599 0
310 -509 -550 0
310 -520 -539 0
310 -509 -580 0
310 -520 -569 0
310 -509 -610 0
310 -520 -599 0
310 -539 -580 0
310 -550 -569 0
310 -539 -610 0
310 -550 -599 0
310 -569 -610 0
310 -580 -599 0
311 -449 -491 0
311 -461 -479 0
311 -449 -521 0
311 -461 -509 0
311 -449 -551 0
311 -461 -539 0
311 -449 -581 0
311 -461 -569 0
311 -449 -611 0
311 -461 -599 0
311 -479 -521 0
311 -491 -509 0
311 -479 -551 0
311 -491 -539 0
311 -479 -581 0
311 -491 -569 0
311 -479 -611 0
311 -491 -599 0
311 -509 -551 0
311 -521 -539 0
311 -509 -581 0
311 -521 -569 0
311 -509 -611 0
311 -521 -599 0
311 -539 -581 0
311 -551 -569 0
311 -539 -611 0
311 -551 -599 0
311 -569 -611 0
311 -581 -599 0
312 -449 -492 0
312 -462 -479 0
312 -449 -522 0
312 -462 -509 0
312 -449 -552 0
312 -462 -539 0
312 -449 -582 0
312 -462 -569 0
312 -449 -612 0
312 -462 -599 0
312 -479 -522 0
312 -492 -509 0
312 -479 -552 0
312 -492 -539 0
312 -479 -582 0
312 -492 -569 0
312 -479 -612 0
312 -492 -599 0
312 -509 -552 0
312 -522 -539 0
312 -509 -582 0
312 -522 -569 0
312 -509 -612 0
312 -522 -599 0
312 -539 -582 0
312 -552 -569 0
312 -539 -612 0
312 -552 -599 0
312 -569 -612 0
312 -582 -599 0
313 -449 -493 0
313 -463 -479 0
313 -449 -523 0
313 -463 -509 0
313 -449 -553 0
313 -463 -539 0
313 -449 -583 0
313 -463 -569 0
313 -449 -613 0
313 -463 -599 0
313 -479 -523 0
313 -493 -509 0
313 -479 -553 0
313 -493 -539 0
313 -479 -583 0
313 -493 -569 0
313 -479 -613 0
313 -493 -599 0
313 -509 -553 0
313 -523 -539 0
313 -509 -583 0
313 -523 -569 0
313 -509 -613 0
313 -523 -599 0
313 -539 -583 0
313 -553 -569 0
313 -539 -613 0
313 -553 -599 0
313 -569 -613 0
313 -583 -599 0
314 -449 -494 0
314 -464 -479 0
314 -449 -524 0
314 -464 -509 0
314 -449 -554 0
314 -464 -539 0
314 -449 -584 0
314 -464 -569 0
314 -449 -614 0
314 -464 -599 0
314 -479 -524 0
314 -494 -509 0
314 -479 -554 0
314 -494 -539 0
314 -479 -584 0
314 -494 -569 0
314 -479 -614 0
314 -494 -599 0
314 -509 -554 0
314 -524 -539 0
314 -509 -584 0
314 -524 -569 0
314 -509 -614 0
314 -524 -599 0
314 -539 -584 0
314 -554 -569 0
314 -539 -614 0
314 -554 -599 0
314 -569 -614 0
314 -584 -599 0
315 -449 -495 0
315 -465 -479 0
315 -449 -525 0
315 -465 -509 0
315 -449 -555 0
315 -465 -539 0
315 -449 -585 0
315 -465 -569 0
315 -449 -615 0
315 -465 -599 0
315 -479 -525 0
315 -495 -509 0
315 -479 -555 0
315 -495 -539 0
315 -479 -585 0
315 -495 -569 0
315 -479 -615 0
315 -495 -599 0
315 -509 -555 0
315 -525 -539 0
315 -509 -585 0
315 -525 -569 0
315 -509 -615 0
315 -525 -599 0
315 -539 -585 0
315 -555 -569 0
315 -539 -615 0
315 -555 -599 0
315 -569 -615 0
315 -585 -599 0
316 -450 -481 0
316 -451 -480 0
316 -450 -511 0
316 -451 -510 0
316 -450 -541 0
316 -451 -540 0
316 -450 -571 0
316 -451 -570 0
316 -450 -601 0
316 -451 -600 0
316 -480 -511 0
316 -481 -510 0
316 -480 -541 0
316 -481 -540 0
316 -480 -571 0
316 -481 -570 0
316 -480 -601 0
316 -481 -600 0
316 -510 -541 0
316 -511 -540 0
316 -510 -571 0
316 -511 -570 0
316 -510 -601 0
316 -511 -600 0
316 -540 -571 0
316 -541 -570 0
316 -540 -601 0
316 -541 -600 0
316 -570 -601 0
316 -571 -600 0
317 -450 -482 0
317 -452 -480 0
317 -450 -512 0
317 -452 -510 0
317 -450 -542 0
317 -452 -540 0
317 -450 -572 0
317 -452 -570 0
317 -450 -602 0
317 -452 -600 0
317 -480 -512 0
317 -482 -510 0
317 -480 -542 0
317 -482 -540 0
317 -480 -572 0
317 -482 -570 0
317 -480 -602 0
317 -482 -600 0
317 -510 -542 0
317 -512 -540 0
317 -510 -572 0
317 -512 -570 0
317 -510 -602 0
317 -512 -600 0
317 -540 -572 0
317 -542 -570 0
317 -540 -602 0
317 -542 -600 0
317 -570 -602 0
317 -572 -600 0
318 -450 -483 0
318 -453 -480 0
318 -450 -513 0
318 -453 -510 0
318 -450 -543 0
318 -453 -540 0
318 -450 -573 0
318 -453 -570 0
318 -450 -603 0
318 -453 -600 0
318 -480 -513 0
318 -483 -510 0
318 -480 -543 0
318 -483 -540 0
318 -480 -573 0
318 -483 -570 0
318 -480 -603 0
318 -483 -600 0
318 -510 -543 0
318 -513 -540 0
318 -510 -573 0
318 -513 -570 0
318 -510 -603 0
318 -513 -600 0
318 -540 -573 0
318 -543 -570 0
318 -540 -603 0
318 -543 -600 0
318 -570 -603 0
318 -573 -600 0
319 -450 -484 0
319 -454 -480 0
319 -450 -514 0
319 -454 -510 0
319 -450 -544 0
319 -454 -540 0
319 -450 -574 0
319 -454 -570 0
319 -450 -604 0
319 -454 -600 0
319 -480 -514 0
319 -484 -510 0
319 -480 -544 0
319 -484 -540 0
319 -480 -574 0
319 -484 -570 0
319 -480 -604 0
319 -484 -600 0
319 -510 -544 0
319 -514 -540 0
319 -510 -574 0
319 -514 -570 0
319 -510 -604 0
319 -514 -600 0
319 -540 -574 0
319 -544 -570 0
319 -540 -604 0
319 -544 -600 0
319 -570 -604 0
319 -574 -600 0
320 -450 -485 0
320 -455 -480 0
320 -450 -515 0
320 -455 -510 0
320 -450 -545 0
320 -455 -540 0
320 -450 -575 0
320 -455 -570 0
320 -450 -605 0
320 -455 -600 0
320 -480 -515 0
320 -485 -510 0
320 -480 -545 0
320 -485 -540 0
320 -480 -575 0
320 -485 -570 0
320 -480 -605 0
320 -485 -600 0
320 -510 -545 0
320 -515 -540 0
320 -510 -575 0
320 -515 -570 0
320 -510 -605 0
320 -515 -600 0
320 -540 -575 0
320 -545 -570 0
320 -540 -605 0
320 -545 -600 0
320 -570 -605 0
320 -575 -600 0
321 -450 -486 0
321 -456 -480 0
321 -450 -516 0
321 -456 -510 0
321 -450 -546 0
321 -456 -540 0
321 -450 -576 0
321 -456 -570 0
321 -450 -606 0
321 -456 -600 0
321 -480 -516 0
321 -486 -510 0
321 -480 -546 0
321 -486 -540 0
321 -480 -576 0
321 -486 -570 0
321 -480 -606 0
321 -486 -600 0
321 -510 -546 0
321 -516 -540 0
321 -510 -576 0
321 -516 -570 0
321 -510 -606 0
321 -516 -600 0
321 -540 -576 0
321 -546 -570 0
321 -540 -606 0
321 -546 -600 0
321 -570 -606 0
321 -576 -600 0
322 -450 -487 0
322 -457 -480 0
322 -450 -517 0
322 -457 -510 0
322 -450 -547 0
322 -457 -540 0
322 -450 -577 0
322 -457 -570 0
322 -450 -607 0
322 -457 -600 0
322 -480 -517 0
322 -487 -510 0
322 -480 -547 0
322 -487 -540 0
322 -480 -577 0
322 -487 -570 0
322 -480 -607 0
322 -487 -600 0
322 -510 -547 0
322 -517 -540 0
322 -510 -577 0
322 -517 -570 0
322 -510 -607 0
322 -517 -600 0
322 -540 -577 0
322 -547 -570 0
322 -540 -607 0
322 -547 -600 0
322 -570 -607 0
322 -577 -600 0
323 -450 -488 0
323 -458 -480 0
323 -450 -518 0
323 -458 -510 0
323 -450 -548 0
323 -458 -540 0
323 -450 -578 0
323 -458 -570 0
323 -450 -608 0
323 -458 -600 0
323 -480 -518 0
323 -488 -510 0
323 -480 -548 0
323 -488 -540 0
323 -480 -578 0
323 -488 -570 0
323 -480 -608 0
323 -488 -600 0
323 -510 -548 0
323 -518 -540 0
323 -510 -578 0
323 -518 -570 0
323 -510 -608 0
323 -518 -600 0
323 -540 -578 0
323 -548 -570 0
323 -540 -608 0
323 -548 -600 0
323 -570 -608 0
323 -578 -600 0
324 -450 -489 0
324 -459 -480 0
324 -450 -519 0
324 -459 -510 0
324 -450 -549 0
324 -459 -540 0
324 -450 -579 0
324 -459 -570 0
324 -450 -609 0
324 -459 -600 0
324 -480 -519 0
324 -489 -510 0
324 -480 -549 0
324 -489 -540 0
324 -480 -579 0
324 -489 -570 0
324 -480 -609 0
324 -489 -600 0
324 -510 -549 0
324 -519 -540 0
324 -510 -579 0
324 -519 -570 0
324 -510 -609 0
324 -519 -600 0
324 -540 -579 0
324 -549 -570 0
324 -540 -609 0
324 -549 -600 0
324 -570 -609 0
324 -579 -600 0
325 -450 -490 0
325 -460 -480 0
325 -450 -520 0
325 -460 -510 0
325 -450 -550 0
325 -460 -540 0
325 -450 -580 0
325 -460 -570 0
325 -450 -610 0
325 -460 -600 0
325 -480 -520 0
325 -490 -510 0
325 -480 -550 0
325 -490 -540 0
325 -480 -580 0
325 -490 -570 0
325 -480 -610 0
325 -490 -600 0
325 -510 -550 0
325 -520 -540 0
325 -510 -580 0
325 -520 -570 0
325 -510 -610 0
325 -520 -600 0
325 -540 -580 0
325 -550 -570 0
325 -540 -610 0
325 -550 -600 0
325 -570 -610 0
325 -580 -600 0
326 -450 -491 0
326 -461 -480 0
326 -450 -521 0
326 -461 -510 0
326 -450 -551 0
326 -461 -540 0
326 -450 -581 0
326 -461 -570 0
326 -450 -611 0
326 -461 -600 0
326 -480 -521 0
326 -491 -510 0
326 -480 -551 0
326 -491 -540 0
326 -480 -581 0
326 -491 -570 0
326 -480 -611 0
326 -491 -600 0
326 -510 -551 0
326 -521 -540 0
326 -510 -581 0
326 -521 -570 0
326 -510 -611 0
326 -521 -600 0
326 -540 -581 0
326 -551 -570 0
326 -540 -611 0
326 -551 -600 0
326 -570 -611 0
326 -581 -600 0
327 -450 -492 0
327 -462 -480 0
327 -450 -522 0
327 -462 -510 0
327 -450 -552 0
327 -462 -540 0
327 -450 -582 0
327 -462 -570 0
327 -450 -612 0
327 -462 -600 0
327 -480 -522 0
327 -492 -510 0
327 -480 -552 0
327 -492 -540 0
327 -480 -582 0
327 -492 -570 0
327 -480 -612 0
327 -492 -600 0
327 -510 -552 0
327 -522 -540 0
327 -510 -582 0
327 -522 -570 0
327 -510 -612 0
327 -522 -600 0
327 -540 -582 0
327 -552 -570 0
327 -540 -612 0
327 -552 -600 0
327 -570 -612 0
327 -582 -600 0
328 -450 -493 0
328 -463 -480 0
328 -450 -523 0
328 -463 -510 0
328 -450 -553 0
328 -463 -540 0
328 -450 -583 0
328 -463 -570 0
328 -450 -613 0
328 -463 -600 0
328 -480 -523 0
328 -493 -510 0
328 -480 -553 0
328 -493 -540 0
328 -480 -583 0
328 -493 -570 0
328 -480 -613 0
328 -493 -600 0
328 -510 -553 0
328 -523 -540 0
328 -510 -583 0
328 -523 -570 0
328 -510 -613 0
328 -523 -600 0
328 -540 -583 0
328 -553 -570 0
328 -540 -613 0
328 -553 -600 0
328 -570 -613 0
328 -583 -600 0
329 -450 -494 0
329 -464 -480 0
329 -450 -524 0
329 -464 -510 0
329 -450 -554 0
329 -464 -540 0
329 -450 -584 0
329 -464 -570 0
329 -450 -614 0
329 -464 -600 0
329 -480 -524 0
329 -494 -510 0
329 -480 -554 0
329 -494 -540 0
329 -480 -584 0
329 -494 -570 0
329 -480 -614 0
329 -494 -600 0
329 -510 -554 0
329 -524 -540 0
329 -510 -584 0
329 -524 -570 0
329 -510 -614 0
329 -524 -600 0
329 -540 -584 0
329 -554 -570 0
329 -540 -614 0
329 -554 -600 0
329 -570 -614 0
329 -584 -600 0
330 -450 -495 0
330 -465 -480 0
330 -450 -525 0
330 -465 -510 0
330 -450 -555 0
330 -465 -540 0
330 -450 -585 0
330 -465 -570 0
330 -450 -615 0
330 -465 -600 0
330 -480 -525 0
330 -495 -510 0
330 -480 -555 0
330 -495 -540 0
330 -480 -585 0
330 -495 -570 0
330 -480 -615 0
330 -495 -600 0
330 -510 -555 0
330 -525 -540 0
330 -510 -585 0
330 -525 -570 0
330 -510 -615 0
330 -525 -600 0
330 -540 -585 0
330 -555 -570 0
330 -540 -615 0
330 -555 -600 0
330 -570 -615 0
330 -585 -600 0
331 -451 -482 0
331 -452 -481 0
331 -451 -512 0
331 -452 -511 0
331 -451 -542 0
331 -452 -541 0
331 -451 -572 0
331 -452 -571 0
331 -451 -602 0
331 -452 -601 0
331 -481 -512 0
331 -482 -511 0
331 -481 -542 0
331 -482 -541 0
331 -481 -572 0
331 -482 -571 0
331 -481 -602 0
331 -482 -601 0
331 -511 -542 0
331 -512 -541 0
331 -511 -572 0
331 -512 -571 0
331 -511 -602 0
331 -512 -601 0
331 -541 -572 0
331 -542 -571 0
331 -541 -602 0
331 -542 -601 0
331 -571 -602 0
331 -572 -601 0
332 -451 -483 0
332 -453 -481 0
332 -451 -513 0
332 -453 -511 0
332 -451 -543 0
332 -453 -541 0
332 -451 -573 0
332 -453 -571 0
332 -451 -603 0
332 -453 -601 0
332 -481 -513 0
332 -483 -511 0
332 -481 -543 0
332 -483 -541 0
332 -481 -573 0
332 -483 -571 0
332 -481 -603 0
332 -483 -601 0
332 -511 -543 0
332 -513 -541 0
332 -511 -573 0
332 -513 -571 0
332 -511 -603 0
332 -513 -601 0
332 -541 -573 0
332 -543 -571 0
332 -541 -603 0
332 -543 -601 0
332 -571 -603 0
332 -573 -601 0
333 -451 -484 0
333 -454 -481 0
333 -451 -514 0
333 -454 -511 0
333 -451 -544 0
333 -454 -541 0
333 -451 -574 0
333 -454 -571 0
333 -451 -604 0
333 -454 -601 0
333 -481 -514 0
333 -484 -511 0
333 -481 -544 0
333 -484 -541 0
333 -481 -574 0
333 -484 -571 0
333 -481 -604 0
333 -484 -601 0
333 -511 -544 0
333 -514 -541 0
333 -511 -574 0
333 -514 -571 0
333 -511 -604 0
333 -514 -601 0
333 -541 -574 0
333 -544 -571 0
333 -541 -604 0
333 -544 -601 0
333 -571 -604 0
333 -574 -601 0
334 -451 -485 0
334 -455 -481 0
334 -451 -515 0
334 -455 -511 0
334 -451 -545 0
334 -455 -541 0
334 -451 -575 0
334 -455 -571 0
334 -451 -605 0
334 -455 -601 0
334 -481 -515 0
334 -485 -511 0
334 -481 -545 0
334 -485 -541 0
334 -481 -575 0
334 -485 -571 0
334 -481 -605 0
334 -485 -601 0
334 -511 -545 0
334 -515 -541 0
334 -511 -575 0
334 -515 -571 0
334 -511 -605 0
334 -515 -601 0
334 -541 -575 0
334 -545 -571 0
334 -541 -605 0
334 -545 -601 0
334 -571 -605 0
334 -575 -601 0
335 -451 -486 0
335 -456 -481 0
335 -451 -516 0
335 -456 -511 0
335 -451 -546 0
335 -456 -541 0
335 -451 -576 0
335 -456 -571 0
335 -451 -606 0
335 -456 -601 0
335 -481 -516 0
335 -486 -511 0
335 -481 -546 0
335 -486 -541 0
335 -481 -576 0
335 -486 -571 0
335 -481 -606 0
335 -486 -601 0
335 -511 -546 0
335 -516 -541 0
335 -511 -576 0
335 -516 -571 0
335 -511 -606 0
335 -516 -601 0
335 -541 -576 0
335 -546 -571 0
335 -541 -606 0
335 -546 -601 0
335 -571 -606 0
335 -576 -601 0
336 -451 -487 0
336 -457 -481 0
336 -451 -517 0
336 -457 -511 0
336 -451 -547 0
336 -457 -541 0
336 -451 -577 0
336 -457 -571 0
336 -451 -607 0
336 -457 -601 0
336 -481 -517 0
336 -487 -511 0
336 -481 -547 0
336 -487 -541 0
336 -481 -577 0
336 -487 -571 0
336 -481 -607 0
336 -487 -601 0
336 -511 -547 0
336 -517 -541 0
336 -511 -577 0
336 -517 -571 0
336 -511 -607 0
336 -517 -601 0
336 -541 -577 0
336 -547 -571 0
336 -541 -607 0
336 -547 -601 0
336 -571 -607 0
336 -577 -601 0
337 -451 -488 0
337 -458 -481 0
337 -451 -518 0
337 -458 -511 0
337 -451 -548 0
337 -458 -541 0
337 -451 -578 0
337 -458 -571 0
337 -451 -608 0
337 -458 -601 0
337 -481 -518 0
337 -488 -511 0
337 -481 -548 0
337 -488 -541 0
337 -481 -578 0
337 -488 -571 0
337 -481 -608 0
337 -488 -601 0
337 -511 -548 0
337 -518 -541 0
337 -511 -578 0
337 -518 -571 0
337 -511 -608 0
337 -518 -601 0
337 -541 -578 0
337 -548 -571 0
337 -541 -608 0
337 -548 -601 0
337 -571 -608 0
337 -578 -601 0
338 -451 -489 0
338 -459 -481 0
338 -451 -519 0
338 -459 -511 0
338 -451 -549 0
338 -459 -541 0
338 -451 -579 0
338 -459 -571 0
338 -451 -609 0
338 -459 -601 0
338 -481 -519 0
338 -489 -511 0
338 -481 -549 0
338 -489 -541 0
338 -481 -579 0
338 -489 -571 0
338 -481 -609 0
338 -489 -601 0
338 -511 -549 0
338 -519 -541 0
338 -511 -579 0
338 -519 -571 0
338 -511 -609 0
338 -519 -601 0
338 -541 -579 0
338 -549 -571 0
338 -541 -609 0
338 -549 -601 0
338 -571 -609 0
338 -579 -601 0
339 -451 -490 0
339 -460 -481 0
339 -451 -520 0
339 -460 -511 0
339 -451 -550 0
339 -460 -541 0
339 -451 -580 0
339 -460 -571 0
339 -451 -610 0
339 -460 -601 0
339 -481 -520 0
339 -490 -511 0
339 -481 -550 0
339 -490 -541 0
339 -481 -580 0
339 -490 -571 0
339 -481 -610 0
339 -490 -601 0
339 -511 -550 0
339 -520 -541 0
339 -511 -580 0
339 -520 -571 0
339 -511 -610 0
339 -520 -601 0
339 -541 -580 0
339 -550 -571 0
339 -541 -610 0
339 -550 -601 0
339 -571 -610 0
339 -580 -601 0
340 -451 -491 0
340 -461 -481 0
340 -451 -521 0
340 -461 -511 0
340 -451 -551 0
340 -461 -541 0
340 -451 -581 0
340 -461 -571 0
340 -451 -611 0
340 -461 -601 0
340 -481 -521 0
340 -491 -511 0
340 -481 -551 0
340 -491 -541 0
340 -481 -581 0
340 -491 -571 0
340 -481 -611 0
340 -491 -601 0
340 -511 -551 0
340 -521 -541 0
340 -511 -581 0
340 -521 -571 0
340 -511 -611 0
340 -521 -601 0
340 -541 -581 0
340 -551 -571 0
340 -541 -611 0
340 -551 -601 0
340 -571 -611 0
340 -581 -601 0
341 -451 -492 0
341 -462 -481 0
341 -451 -522 0
341 -462 -511 0
341 -451 -552 0
341 -462 -541 0
341 -451 -582 0
341 -462 -571 0
341 -451 -612 0
341 -462 -601 0
341 -481 -522 0
341 -492 -511 0
341 -481 -552 0
341 -492 -541 0
341 -481 -582 0
341 -492 -571 0
341 -481 -612 0
341 -492 -601 0
341 -511 -552 0
341 -522 -541 0
341 -511 -582 0
341 -522 -571 0
341 -511 -612 0
341 -522 -601 0
341 -541 -582 0
341 -552 -571 0
341 -541 -612 0
341 -552 -601 0
341 -571 -612 0
341 -582 -601 0
342 -451 -493 0
342 -463 -481 0
342 -451 -523 0
342 -463 -511 0
342 -451 -553 0
342 -463 -541 0
342 -451 -583 0
342 -463 -571 0
342 -451 -613 0
342 -463 -601 0
342 -481 -523 0
342 -493 -511 0
342 -481 -553 0
342 -493 -541 0
342 -481 -583 0
342 -493 -571 0
342 -481 -613 0
342 -493 -601 0
342 -511 -553 0
342 -523 -541 0
342 -511 -583 0
342 -523 -571 0
342 -511 -613 0
342 -523 -601 0
342 -541 -583 0
342 -553 -571 0
342 -541 -613 0
342 -553 -601 0
342 -571 -613 0
342 -583 -601 0
343 -451 -494 0
343 -464 -481 0
343 -451 -524 0
343 -464 -511 0
343 -451 -554 0
343 -464 -541 0
343 -451 -584 0
343 -464 -571 0
343 -451 -614 0
343 -464 -601 0
343 -481 -524 0
343 -494 -511 0
343 -481 -554 0
343 -494 -541 0
343 -481 -584 0
343 -494 -571 0
343 -481 -614 0
343 -494 -601 0
343 -511 -554 0
343 -524 -541 0
343 -511 -584 0
343 -524 -571 0
343 -511 -614 0
343 -524 -601 0
343 -541 -584 0
343 -554 -571 0
343 -541 -614 0
343 -554 -601 0
343 -571 -614 0
343 -584 -601 0
344 -451 -495 0
344 -465 -481 0
344 -451 -525 0
344 -465 -511 0
344 -451 -555 0
344 -465 -541 0
344 -451 -585 0
344 -465 -571 0
344 -451 -615 0
344 -465 -601 0
344 -481 -525 0
344 -495 -511 0
344 -481 -555 0
344 -495 -541 0
344 -481 -585 0
344 -495 -571 0
344 -481 -615 0
344 -495 -601 0
344 -511 -555 0
344 -525 -541 0
344 -511 -585 0
344 -525 -571 0
344 -511 -615 0
344 -525 -601 0
344 -541 -585 0
344 -555 -571 0
344 -541 -615 0
344 -555 -601 0
344 -571 -615 0
344 -585 -601 0
345 -452 -483 0
345 -453 -482 0
345 -452 -513 0
345 -453 -512 0
345 -452 -543 0
345 -453 -542 0
345 -452 -573 0
345 -453 -572 0
345 -452 -603 0
345 -453 -602 0
345 -482 -513 0
345 -483 -512 0
345 -482 -543 0
345 -483 -542 0
345 -482 -573 0
345 -483 -572 0
345 -482 -603 0
345 -483 -602 0
345 -512 -543 0
345 -513 -542 0
345 -512 -573 0
345 -513 -572 0
345 -512 -603 0
345 -513 -602 0
345 -542 -573 0
345 -543 -572 0
345 -542 -603 0
345 -543 -602 0
345 -572 -603 0
345 -573 -602 0
346 -452 -484 0
346 -454 -482 0
346 -452 -514 0
346 -454 -512 0
346 -452 -544 0
346 -454 -542 0
346 -452 -574 0
346 -454 -572 0
346 -452 -604 0
346 -454 -602 0
346 -482 -514 0
346 -484 -512 0
346 -482 -544 0
346 -484 -542 0
346 -482 -574 0
346 -484 -572 0
346 -482 -604 0
346 -484 -602 0
346 -512 -544 0
346 -514 -542 0
346 -512 -574 0
346 -514 -572 0
346 -512 -604 0
346 -514 -602 0
346 -542 -574 0
346 -544 -572 0
346 -542 -604 0
346 -544 -602 0
346 -572 -604 0
346 -574 -602 0
347 -452 -485 0
347 -455 -482 0
347 -452 -515 0
347 -455 -512 0
347 -452 -545 0
347 -455 -542 0
347 -452 -575 0
347 -455 -572 0
347 -452 -605 0
347 -455 -602 0
347 -482 -515 0
347 -485 -512 0
347 -482 -545 0
347 -485 -542 0
347 -482 -575 0
347 -485 -572 0
347 -482 -605 0
347 -485 -602 0
347 -512 -545 0
347 -515 -542 0
347 -512 -575 0
347 -515 -572 0
347 -512 -605 0
347 -515 -602 0
347 -542 -575 0
347 -545 -572 0
347 -542 -605 0
347 -545 -602 0
347 -572 -605 0
347 -575 -602 0
348 -452 -486 0
348 -456 -482 0
348 -452 -516 0
348 -456 -512 0
348 -452 -546 0
348 -456 -542 0
348 -452 -576 0
348 -456 -572 0
348 -452 -606 0
348 -456 -602 0
348 -482 -516 0
348 -486 -512 0
348 -482 -546 0
348 -486 -542 0
348 -482 -576 0
348 -486 -572 0
348 -482 -606 0
348 -486 -602 0
348 -512 -546 0
348 -516 -542 0
348 -512 -576 0
348 -516 -572 0
348 -512 -606 0
348 -516 -602 0
348 -542 -576 0
348 -546 -572 0
348 -542 -606 0
348 -546 -602 0
348 -572 -606 0
348 -576 -602 0
349 -452 -487 0
349 -457 -482 0
349 -452 -517 0
349 -457 -512 0
349 -452 -547 0
349 -457 -542 0
349 -452 -577 0
349 -457 -572 0
349 -452 -607 0
349 -457 -602 0
349 -482 -517 0
349 -487 -512 0
349 -482 -547 0
349 -487 -542 0
349 -482 -577 0
349 -487 -572 0
349 -482 -607 0
349 -487 -602 0
349 -512 -547 0
349 -517 -542 0
349 -512 -577 0
349 -517 -572 0
349 -512 -607 0
349 -517 -602 0
349 -542 -577 0
349 -547 -572 0
349 -542 -607 0
349 -547 -602 0
349 -572 -607 0
349 -577 -602 0
350 -452 -488 0
350 -458 -482 0
350 -452 -518 0
350 -458 -512 0
350 -452 -548 0
350 -458 -542 0
350 -452 -578 0
350 -458 -572 0
350 -452 -608 0
350 -458 -602 0
350 -482 -518 0
350 -488 -512 0
350 -482 -548 0
350 -488 -542 0
350 -482 -578 0
350 -488 -572 0
350 -482 -608 0
350 -488 -602 0
350 -512 -548 0
350 -518 -542 0
350 -512 -578 0
350 -518 -572 0
350 -512 -608 0
350 -518 -602 0
350 -542 -578 0
350 -548 -572 0
350 -542 -608 0
350 -548 -602 0
350 -572 -608 0
350 -578 -602 0
351 -452 -489 0
351 -459 -482 0
351 -452 -519 0
351 -459 -512 0
351 -452 -549 0
351 -459 -542 0
351 -452 -579 0
351 -459 -572 0
351 -452 -609 0
351 -459 -602 0
351 -482 -519 0
351 -489 -512 0
351 -482 -549 0
351 -489 -542 0
351 -482 -579 0
351 -489 -572 0
351 -482 -609 0
351 -489 -602 0
351 -512 -549 0
351 -519 -542 0
351 -512 -579 0
351 -519 -572 0
351 -512 -609 0
351 -519 -602 0
351 -542 -579 0
351 -549 -572 0
351 -542 -609 0
351 -549 -602 0
351 -572 -609 0
351 -579 -602 0
352 -452 -490 0
352 -460 -482 0
352 -452 -520 0
352 -460 -512 0
352 -452 -550 0
352 -460 -542 0
352 -452 -580 0
352 -460 -572 0
352 -452 -610 0
352 -460 -602 0
352 -482 -520 0
352 -490 -512 0
352 -482 -550 0
352 -490 -542 0
352 -482 -580 0
352 -490 -572 0
352 -482 -610 0
352 -490 -602 0
352 -512 -550 0
352 -520 -542 0
352 -512 -580 0
352 -520 -572 0
352 -512 -610 0
352 -520 -602 0
352 -542 -580 0
352 -550 -572 0
352 -542 -610 0
352 -550 -602 0
352 -572 -610 0
352 -580 -602 0
353 -452 -491 0
353 -461 -482 0
353 -452 -521 0
353 -461 -512 0
353 -452 -551 0
353 -461 -542 0
353 -452 -581 0
353 -461 -572 0
353 -452 -611 0
353 -461 -602 0
353 -482 -521 0
353 -491 -512 0
353 -482 -551 0
353 -491 -542 0
353 -482 -581 0
353 -491 -572 0
353 -482 -611 0
353 -491 -602 0
353 -512 -551 0
353 -521 -542 0
353 -512 -581 0
353 -521 -572 0
353 -512 -611 0
353 -521 -602 0
353 -542 -581 0
353 -551 -572 0
353 -542 -611 0
353 -551 -602 0
353 -572 -611 0
353 -581 -602 0
354 -452 -492 0
354 -462 -482 0
354 -452 -522 0
354 -462 -512 0
354 -452 -552 0
354 -462 -542 0
354 -452 -582 0
354 -462 -572 0
354 -452 -612 0
354 -462 -602 0
354 -482 -522 0
354 -492 -512 0
354 -482 -552 0
354 -492 -542 0
354 -482 -582 0
354 -492 -572 0
354 -482 -612 0
354 -492 -602 0
354 -512 -552 0
354 -522 -542 0
354 -512 -582 0
354 -522 -572 0
354 -512 -612 0
354 -522 -602 0
354 -542 -582 0
354 -552 -572 0
354 -542 -612 0
354 -552 -602 0
354 -572 -612 0
354 -582 -602 0
355 -452 -493 0
355 -463 -482 0
355 -452 -523 0
355 -463 -512 0
355 -452 -553 0
355 -463 -542 0
355 -452 -583 0
355 -463 -572 0
355 -452 -613 0
355 -463 -602 0
355 -482 -523 0
355 -493 -512 0
355 -482 -553 0
355 -493 -542 0
355 -482 -583 0
355 -493 -572 0
355 -482 -613 0
355 -493 -602 0
355 -512 -553 0
355 -523 -542 0
355 -512 -583 0
355 -523 -572 0
355 -512 -613 0
355 -523 -602 0
355 -542 -583 0
355 -553 -572 0
355 -542 -613 0
355 -553 -602 0
355 -572 -613 0
355 -583 -602 0
356 -452 -494 0
356 -464 -482 0
356 -452 -524 0
356 -464 -512 0
356 -452 -554 0
356 -464 -542 0
356 -452 -584 0
356 -464 -572 0
356 -452 -614 0
356 -464 -602 0
356 -482 -524 0
356 -494 -512 0
356 -482 -554 0
356 -494 -542 0
356 -482 -584 0
356 -494 -572 0
356 -482 -614 0
356 -494 -602 0
356 -512 -554 0
356 -524 -542 0
356 -512 -584 0
356 -524 -572 0
356 -512 -614 0
356 -524 -602 0
356 -542 -584 0
356 -554 -572 0
356 -542 -614 0
356 -554 -602 0
356 -572 -614 0
356 -584 -602 0
357 -452 -495 0
357 -465 -482 0
357 -452 -525 0
357 -465 -512 0
357 -452 -555 0
357 -465 -542 0
357 -452 -585 0
357 -465 -572 0
357 -452 -615 0
357 -465 -602 0
357 -482 -525 0
357 -495 -512 0
357 -482 -555 0
357 -495 -542 0
357 -482 -585 0
357 -495 -572 0
357 -482 -615 0
357 -495 -602 0
357 -512 -555 0
357 -525 -542 0
357 -512 -585 0
357 -525 -572 0
357 -512 -615 0
357 -525 -602 0
357 -542 -585 0
357 -555 -572 0
357 -542 -615 0
357 -555 -602 0
357 -572 -615 0
357 -585 -602 0
358 -453 -484 0
358 -454 -483 0
358 -453 -514 0
358 -454 -513 0
358 -453 -544 0
358 -454 -543 0
358 -453 -574 0
358 -454 -573 0
358 -453 -604 0
358 -454 -603 0
358 -483 -514 0
358 -484 -513 0
358 -483 -544 0
358 -484 -543 0
358 -483 -574 0
358 -484 -573 0
358 -483 -604 0
358 -484 -603 0
358 -513 -544 0
358 -514 -543 0
358 -513 -574 0
358 -514 -573 0
358 -513 -604 0
358 -514 -603 0
358 -543 -574 0
358 -544 -573 0
358 -543 -604 0
358 -544 -603 0
358 -573 -604 0
358 -574 -603 0
359 -453 -485 0
359 -455 -483 0
359 -453 -515 0
359 -455 -513 0
359 -453 -545 0
359 -455 -543 0
359 -453 -575 0
359 -455 -573 0
359 -453 -605 0
359 -455 -603 0
359 -483 -515 0
359 -485 -513 0
359 -483 -545 0
359 -485 -543 0
359 -483 -575 0
359 -485 -573 0
359 -483 -605 0
359 -485 -603 0
359 -513 -545 0
359 -515 -543 0
359 -513 -575 0
359 -515 -573 0
359 -513 -605 0
359 -515 -603 0
359 -543 -575 0
359 -545 -573 0
359 -543 -605 0
359 -545 -603 0
359 -573 -605 0
359 -575 -603 0
360 -453 -486 0
360 -456 -483 0
360 -453 -516 0
360 -456 -513 0
360 -453 -546 0
360 -456 -543 0
360 -453 -576 0
360 -456 -573 0
360 -453 -606 0
360 -456 -603 0
360 -483 -516 0
360 -486 -513 0
360 -483 -546 0
360 -486 -543 0
360 -483 -576 0
360 -486 -573 0
360 -483 -606 0
360 -486 -603 0
360 -513 -546 0
360 -516 -543 0
360 -513 -576 0
360 -516 -573 0
360 -513 -606 0
360 -516 -603 0
360 -543 -576 0
360 -546 -573 0
360 -543 -606 0
360 -546 -603 0
360 -573 -606 0
360 -576 -603 0
361 -453 -487 0
361 -457 -483 0
361 -453 -517 0
361 -457 -513 0
361 -453 -547 0
361 -457 -543 0
361 -453 -577 0
361 -457 -573 0
361 -453 -607 0
361 -457 -603 0
361 -483 -517 0
361 -487 -513 0
361 -483 -547 0
361 -487 -543 0
361 -483 -577 0
361 -487 -573 0
361 -483 -607 0
361 -487 -603 0
361 -513 -547 0
361 -517 -543 0
361 -513 -577 0
361 -517 -573 0
361 -513 -607 0
361 -517 -603 0
361 -543 -577 0
361 -547 -573 0
361 -543 -607 0
361 -547 -603 0
361 -573 -607 0
361 -577 -603 0
362 -453 -488 0
362 -458 -483 0
362 -453 -518 0
362 -458 -513 0
362 -453 -548 0
362 -458 -543 0
362 -453 -578 0
362 -458 -573 0
362 -453 -608 0
362 -458 -603 0
362 -483 -518 0
362 -488 -513 0
362 -483 -548 0
362 -488 -543 0
362 -483 -578 0
362 -488 -573 0
362 -483 -608 0
362 -488 -603 0
362 -513 -548 0
362 -518 -543 0
362 -513 -578 0
362 -518 -573 0
362 -513 -608 0
362 -518 -603 0
362 -543 -578 0
362 -548 -573 0
362 -543 -608 0
362 -548 -603 0
362 -573 -608 0
362 -578 -603 0
363 -453 -489 0
363 -459 -483 0
363 -453 -519 0
363 -459 -513 0
363 -453 -549 0
363 -459 -543 0
363 -453 -579 0
363 -459 -573 0
363 -453 -609 0
363 -459 -603 0
363 -483 -519 0
363 -489 -513 0
363 -483 -549 0
363 -489 -543 0
363 -483 -579 0
363 -489 -573 0
363 -483 -609 0
363 -489 -603 0
363 -513 -549 0
363 -519 -543 0
363 -513 -579 0
363 -519 -573 0
363 -513 -609 0
363 -519 -603 0
363 -543 -579 0
363 -549 -573 0
363 -543 -609 0
363 -549 -603 0
363 -573 -609 0
363 -579 -603 0
364 -453 -490 0
364 -460 -483 0
364 -453 -520 0
364 -460 -513 0
364 -453 -550 0
364 -460 -543 0
364 -453 -580 0
364 -460 -573 0
364 -453 -610 0
364 -460 -603 0
364 -483 -520 0
364 -490 -513 0
364 -483 -550 0
364 -490 -543 0
364 -483 -580 0
364 -490 -573 0
364 -483 -610 0
364 -490 -603 0
364 -513 -550 0
364 -520 -543 0
364 -513 -580 0
364 -520 -573 0
364 -513 -610 0
364 -520 -603 0
364 -543 -580 0
364 -550 -573 0
364 -543 -610 0
364 -550 -603 0
364 -573 -610 0
364 -580 -603 0
365 -453 -491 0
365 -461 -483 0
365 -453 -521 0
365 -461 -513 0
365 -453 -551 0
365 -461 -543 0
365 -453 -581 0
365 -461 -573 0
365 -453 -611 0
365 -461 -603 0
365 -483 -521 0
365 -491 -513 0
365 -483 -551 0
365 -491 -543 0
365 -483 -581 0
365 -491 -573 0
365 -483 -611 0
365 -491 -603 0
365 -513 -551 0
365 -521 -543 0
365 -513 -581 0
365 -521 -573 0
365 -513 -611 0
365 -521 -603 0
365 -543 -581 0
365 -551 -573 0
365 -543 -611 0
365 -551 -603 0
365 -573 -611 0
365 -581 -603 0
366 -453 -492 0
366 -462 -483 0
366 -453 -522 0
366 -462 -513 0
366 -453 -552 0
366 -462 -543 0
366 -453 -582 0
366 -462 -573 0
366 -453 -612 0
366 -462 -603 0
366 -483 -522 0
366 -492 -513 0
366 -483 -552 0
366 -492 -543 0
366 -483 -582 0
366 -492 -573 0
366 -483 -612 0
366 -492 -603 0
366 -513 -552 0
366 -522 -543 0
366 -513 -582 0
366 -522 -573 0
366 -513 -612 0
366 -522 -603 0
366 -543 -582 0
366 -552 -573 0
366 -543 -612 0
366 -552 -603 0
366 -573 -612 0
366 -582 -603 0
367 -453 -493 0
367 -463 -483 0
367 -453 -523 0
367 -463 -513 0
367 -453 -553 0
367 -463 -543 0
367 -453 -583 0
367 -463 -573 0
367 -453 -613 0
367 -463 -603 0
367 -483 -523 0
367 -493 -513 0
367 -483 -553 0
367 -493 -543 0
367 -483 -583 0
367 -493 -573 0
367 -483 -613 0
367 -493 -603 0
367 -513 -553 0
367 -523 -543 0
367 -513 -583 0
367 -523 -573 0
367 -513 -613 0
367 -523 -603 0
367 -543 -583 0
367 -553 -573 0
367 -543 -613 0
367 -553 -603 0
367 -573 -613 0
367 -583 -603 0
368 -453 -494 0
368 -464 -483 0
368 -453 -524 0
368 -464 -513 0
368 -453 -554 0
368 -464 -543 0
368 -453 -584 0
368 -464 -573 0
368 -453 -614 0
368 -464 -603 0
368 -483 -524 0
368 -494 -513 0
368 -483 -554 0
368 -494 -543 0
368 -483 -584 0
368 -494 -573 0
368 -483 -614 0
368 -494 -603 0
368 -513 -554 0
368 -524 -543 0
368 -513 -584 0
368 -524 -573 0
368 -513 -614 0
368 -524 -603 0
368 -543 -584 0
368 -554 -573 0
368 -543 -614 0
368 -554 -603 0
368 -573 -614 0
368 -584 -603 0
369 -453 -495 0
369 -465 -483 0
369 -453 -525 0
369 -465 -513 0
369 -453 -555 0
369 -465 -543 0
369 -453 -585 0
369 -465 -573 0
369 -453 -615 0
369 -465 -603 0
369 -483 -525 0
369 -495 -513 0
369 -483 -555 0
369 -495 -543 0
369 -483 -585 0
369 -495 -573 0
369 -483 -615 0
369 -495 -603 0
369 -513 -555 0
369 -525 -543 0
369 -513 -585 0
369 -525 -573 0
369 -513 -615 0
369 -525 -603 0
369 -543 -585 0
369 -555 -573 0
369 -543 -615 0
369 -555 -603 0
369 -573 -615 0
369 -585 -603 0
370 -454 -485 0
370 -455 -484 0
370 -454 -515 0
370 -455 -514 0
370 -454 -545 0
370 -455 -544 0
370 -454 -575 0
370 -455 -574 0
370 -454 -605 0
370 -455 -604 0
370 -484 -515 0
370 -485 -514 0
370 -484 -545 0
370 -485 -544 0
370 -484 -575 0
370 -485 -574 0
370 -484 -605 0
370 -485 -604 0
370 -514 -545 0
370 -515 -544 0
370 -514 -575 0
370 -515 -574 0
370 -514 -605 0
370 -515 -604 0
370 -544 -575 0
370 -545 -574 0
370 -544 -605 0
370 -545 -604 0
370 -574 -605 0
370 -575 -604 0
371 -454 -486 0
371 -456 -484 0
371 -454 -516 0
371 -456 -514 0
371 -454 -546 0
371 -456 -544 0
371 -454 -576 0
371 -456 -574 0
371 -454 -606 0
371 -456 -604 0
371 -484 -516 0
371 -486 -514 0
371 -484 -546 0
371 -486 -544 0
371 -484 -576 0
371 -486 -574 0
371 -484 -606 0
371 -486 -604 0
371 -514 -546 0
371 -516 -544 0
371 -514 -576 0
371 -516 -574 0
371 -514 -606 0
371 -516 -604 0
371 -544 -576 0
371 -546 -574 0
371 -544 -606 0
371 -546 -604 0
371 -574 -606 0
371 -576 -604 0
372 -454 -487 0
372 -457 -484 0
372 -454 -517 0
372 -457 -514 0
372 -454 -547 0
372 -457 -544 0
372 -454 -577 0
372 -457 -574 0
372 -454 -607 0
372 -457 -604 0
372 -484 -517 0
372 -487 -514 0
372 -484 -547 0
372 -487 -544 0
372 -484 -577 0
372 -487 -574 0
372 -484 -607 0
372 -487 -604 0
372 -514 -547 0
372 -517 -544 0
372 -514 -577 0
372 -517 -574 0
372 -514 -607 0
372 -517 -604 0
372 -544 -577 0
372 -547 -574 0
372 -544 -607 0
372 -547 -604 0
372 -574 -607 0
372 -577 -604 0
373 -454 -488 0
373 -458 -484 0
373 -454 -518 0
373 -458 -514 0
373 -454 -548 0
373 -458 -544 0
373 -454 -578 0
373 -458 -574 0
373 -454 -608 0
373 -458 -604 0
373 -484 -518 0
373 -488 -514 0
373 -484 -548 0
373 -488 -544 0
373 -484 -578 0
373 -488 -574 0
373 -484 -608 0
373 -488 -604 0
373 -514 -548 0
373 -518 -544 0
373 -514 -578 0
373 -518 -574 0
373 -514 -608 0
373 -518 -604 0
373 -544 -578 0
373 -548 -574 0
373 -544 -608 0
373 -548 -604 0
373 -574 -608 0
373 -578 -604 0
374 -454 -489 0
374 -459 -484 0
374 -454 -519 0
374 -459 -514 0
374 -454 -549 0
374 -459 -544 0
374 -454 -579 0
374 -459 -574 0
374 -454 -609 0
374 -459 -604 0
374 -484 -519 0
374 -489 -514 0
374 -484 -549 0
374 -489 -544 0
374 -484 -579 0
374 -489 -574 0
374 -484 -609 0
374 -489 -604 0
374 -514 -549 0
374 -519 -544 0
374 -514 -579 0
374 -519 -574 0
374 -514 -609 0
374 -519 -604 0
374 -544 -579 0
374 -549 -574 0
374 -544 -609 0
374 -549 -604 0
374 -574 -609 0
374 -579 -604 0
375 -454 -490 0
375 -460 -484 0
375 -454 -520 0
375 -460 -514 0
375 -454 -550 0
375 -460 -544 0
375 -454 -580 0
375 -460 -574 0
375 -454 -610 0
375 -460 -604 0
375 -484 -520 0
375 -490 -514 0
375 -484 -550 0
375 -490 -544 0
375 -484 -580 0
375 -490 -574 0
375 -484 -610 0
375 -490 -604 0
375 -514 -550 0
375 -520 -544 0
375 -514 -580 0
375 -520 -574 0
375 -514 -610 0
375 -520 -604 0
375 -544 -580 0
375 -550 -574 0
375 -544 -610 0
375 -550 -604 0
375 -574 -610 0
375 -580 -604 0
376 -454 -491 0
376 -461 -484 0
376 -454 -521 0
376 -461 -514 0
376 -454 -551 0
376 -461 -544 0
376 -454 -581 0
376 -461 -574 0
376 -454 -611 0
376 -461 -604 0
376 -484 -521 0
376 -491 -514 0
376 -484 -551 0
376 -491 -544 0
376 -484 -581 0
376 -491 -574 0
376 -484 -611 0
376 -491 -604 0
376 -514 -551 0
376 -521 -544 0
376 -514 -581 0
376 -521 -574 0
376 -514 -611 0
376 -521 -604 0
376 -544 -581 0
376 -551 -574 0
376 -544 -611 0
376 -551 -604 0
376 -574 -611 0
376 -581 -604 0
377 -454 -492 0
377 -462 -484 0
377 -454 -522 0
377 -462 -514 0
377 -454 -552 0
377 -462 -544 0
377 -454 -582 0
377 -462 -574 0
377 -454 -612 0
377 -462 -604 0
377 -484 -522 0
377 -492 -514 0
377 -484 -552 0
377 -492 -544 0
377 -484 -582 0
377 -492 -574 0
377 -484 -612 0
377 -492 -604 0
377 -514 -552 0
377 -522 -544 0
377 -514 -582 0
377 -522 -574 0
377 -514 -612 0
377 -522 -604 0
377 -544 -582 0
377 -552 -574 0
377 -544 -612 0
377 -552 -604 0
377 -574 -612 0
377 -582 -604 0
378 -454 -493 0
378 -463 -484 0
378 -454 -523 0
378 -463 -514 0
378 -454 -553 0
378 -463 -544 0
378 -454 -583 0
378 -463 -574 0
378 -454 -613 0
378 -463 -604 0
378 -484 -523 0
378 -493 -514 0
378 -484 -553 0
378 -493 -544 0
378 -484 -583 0
378 -493 -574 0
378 -484 -613 0
378 -493 -604 0
378 -514 -553 0
378 -523 -544 0
378 -514 -583 0
378 -523 -574 0
378 -514 -613 0
378 -523 -604 0
378 -544 -583 0
378 -553 -574 0
378 -544 -613 0
378 -553 -604 0
378 -574 -613 0
378 -583 -604 0
379 -454 -494 0
379 -464 -484 0
379 -454 -524 0
379 -464 -514 0
379 -454 -554 0
379 -464 -544 0
379 -454 -584 0
379 -464 -574 0
379 -454 -614 0
379 -464 -604 0
379 -484 -524 0
379 -494 -514 0
379 -484 -554 0
379 -494 -544 0
379 -484 -584 0
379 -494 -574 0
379 -484 -614 0
379 -494 -604 0
379 -514 -554 0
379 -524 -544 0
379 -514 -584 0
379 -524 -574 0
379 -514 -614 0
379 -524 -604 0
379 -544 -584 0
379 -554 -574 0
379 -544 -614 0
379 -554 -604 0
379 -574 -614 0
379 -584 -604 0
380 -454 -495 0
380 -465 -484 0
380 -454 -525 0
380 -465 -514 0
380 -454 -555 0
380 -465 -544 0
380 -454 -585 0
380 -465 -574 0
380 -454 -615 0
380 -465 -604 0
380 -484 -525 0
380 -495 -514 0
380 -484 -555 0
380 -495 -544 0
380 -484 -585 0
380 -495 -574 0
380 -484 -615 0
380 -495 -604 0
380 -514 -555 0
380 -525 -544 0
380 -514 -585 0
380 -525 -574 0
380 -514 -615 0
380 -525 -604 0
380 -544 -585 0
380 -555 -574 0
380 -544 -615 0
380 -555 -604 0
380 -574 -615 0
380 -585 -604 0
381 -455 -486 0
381 -456 -485 0
381 -455 -516 0
381 -456 -515 0
381 -455 -546 0
381 -456 -545 0
381 -455 -576 0
381 -456 -575 0
381 -455 -606 0
381 -456 -605 0
381 -485 -516 0
381 -486 -515 0
381 -485 -546 0
381 -486 -545 0
381 -485 -576 0
381 -486 -575 0
381 -485 -606 0
381 -486 -605 0
381 -515 -546 0
381 -516 -545 0
381 -515 -576 0
381 -516 -575 0
381 -515 -606 0
381 -516 -605 0
381 -545 -576 0
381 -546 -575 0
381 -545 -606 0
381 -546 -605 0
381 -575 -606 0
381 -576 -605 0
382 -455 -487 0
382 -457 -485 0
382 -455 -517 0
382 -457 -515 0
382 -455 -547 0
382 -457 -545 0
382 -455 -577 0
382 -457 -575 0
382 -455 -607 0
382 -457 -605 0
382 -485 -517 0
382 -487 -515 0
382 -485 -547 0
382 -487 -545 0
382 -485 -577 0
382 -487 -575 0
382 -485 -607 0
382 -487 -605 0
382 -515 -547 0
382 -517 -545 0
382 -515 -577 0
382 -517 -575 0
382 -515 -607 0
382 -517 -605 0
382 -545 -577 0
382 -547 -575 0
382 -545 -607 0
382 -547 -605 0
382 -575 -607 0
382 -577 -605 0
383 -455 -488 0
383 -458 -485 0
383 -455 -518 0
383 -458 -515 0
383 -455 -548 0
383 -458 -545 0
383 -455 -578 0
383 -458 -575 0
383 -455 -608 0
383 -458 -605 0
383 -485 -518 0
383 -488 -515 0
383 -485 -548 0
383 -488 -545 0
383 -485 -578 0
383 -488 -575 0
383 -485 -608 0
383 -488 -605 0
383 -515 -548 0
383 -518 -545 0
383 -515 -578 0
383 -518 -575 0
383 -515 -608 0
383 -518 -605 0
383 -545 -578 0
383 -548 -575 0
383 -545 -608 0
383 -548 -605 0
383 -575 -608 0
383 -578 -605 0
384 -455 -489 0
384 -459 -485 0
384 -455 -519 0
384 -459 -515 0
384 -455 -549 0
384 -459 -545 0
384 -455 -579 0
384 -459 -575 0
384 -455 -609 0
384 -459 -605 0
384 -485 -519 0
384 -489 -515 0
384 -485 -549 0
384 -489 -545 0
384 -485 -579 0
384 -489 -575 0
384 -485 -609 0
384 -489 -605 0
384 -515 -549 0
384 -519 -545 0
384 -515 -579 0
384 -519 -575 0
384 -515 -609 0
384 -519 -605 0
384 -545 -579 0
384 -549 -575 0
384 -545 -609 0
384 -549 -605 0
384 -575 -609 0
384 -579 -605 0
385 -455 -490 0
385 -460 -485 0
385 -455 -520 0
385 -460 -515 0
385 -455 -550 0
385 -460 -545 0
385 -455 -580 0
385 -460 -575 0
385 -455 -610 0
385 -460 -605 0
385 -485 -520 0
385 -490 -515 0
385 -485 -550 0
385 -490 -545 0
385 -485 -580 0
385 -490 -575 0
385 -485 -610 0
385 -490 -605 0
385 -515 -550 0
385 -520 -545 0
385 -515 -580 0
385 -520 -575 0
385 -515 -610 0
385 -520 -605 0
385 -545 -580 0
385 -550 -575 0
385 -545 -610 0
385 -550 -605 0
385 -575 -610 0
385 -580 -605 0
386 -455 -491 0
386 -461 -485 0
386 -455 -521 0
386 -461 -515 0
386 -455 -551 0
386 -461 -545 0
386 -455 -581 0
386 -461 -575 0
386 -455 -611 0
386 -461 -605 0
386 -485 -521 0
386 -491 -515 0
386 -485 -551 0
386 -491 -545 0
386 -485 -581 0
386 -491 -575 0
386 -485 -611 0
386 -491 -605 0
386 -515 -551 0
386 -521 -545 0
386 -515 -581 0
386 -521 -575 0
386 -515 -611 0
386 -521 -605 0
386 -545 -581 0
386 -551 -575 0
386 -545 -611 0
386 -551 -605 0
386 -575 -611 0
386 -581 -605 0
387 -455 -492 0
387 -462 -485 0
387 -455 -522 0
387 -462 -515 0
387 -455 -552 0
387 -462 -545 0
387 -455 -582 0
387 -462 -575 0
387 -455 -612 0
387 -462 -605 0
387 -485 -522 0
387 -492 -515 0
387 -485 -552 0
387 -492 -545 0
387 -485 -582 0
387 -492 -575 0
387 -485 -612 0
387 -492 -605 0
387 -515 -552 0
387 -522 -545 0
387 -515 -582 0
387 -522 -575 0
387 -515 -612 0
387 -522 -605 0
387 -545 -582 0
387 -552 -575 0
387 -545 -612 0
387 -552 -605 0
387 -575 -612 0
387 -582 -605 0
388 -455 -493 0
388 -463 -485 0
388 -455 -523 0
388 -463 -515 0
388 -455 -553 0
388 -463 -545 0
388 -455 -583 0
388 -463 -575 0
388 -455 -613 0
388 -463 -605 0
388 -485 -523 0
388 -493 -515 0
388 -485 -553 0
388 -493 -545 0
388 -485 -583 0
388 -493 -575 0
388 -485 -613 0
388 -493 -605 0
388 -515 -553 0
388 -523 -545 0
388 -515 -583 0
388 -523 -575 0
388 -515 -613 0
388 -523 -605 0
388 -545 -583 0
388 -553 -575 0
388 -545 -613 0
388 -553 -605 0
388 -575 -613 0
388 -583 -605 0
389 -455 -494 0
389 -464 -485 0
389 -455 -524 0
389 -464 -515 0
389 -455 -554 0
389 -464 -545 0
389 -455 -584 0
389 -464 -575 0
389 -455 -614 0
389 -464 -605 0
389 -485 -524 0
389 -494 -515 0
389 -485 -554 0
389 -494 -545 0
389 -485 -584 0
389 -494 -575 0
389 -485 -614 0
389 -494 -605 0
389 -515 -554 0
389 -524 -545 0
389 -515 -584 0
389 -524 -575 0
389 -515 -614 0
389 -524 -605 0
389 -545 -584 0
389 -554 -575 0
389 -545 -614 0
389 -554 -605 0
389 -575 -614 0
389 -584 -605 0
390 -455 -495 0
390 -465 -485 0
390 -455 -525 0
390 -465 -515 0
390 -455 -555 0
390 -465 -545 0
390 -455 -585 0
390 -465 -575 0
390 -455 -615 0
390 -465 -605 0
390 -485 -525 0
390 -495 -515 0
390 -485 -555 0
390 -495 -545 0
390 -485 -585 0
390 -495 -575 0
390 -485 -615 0
390 -495 -605 0
390 -515 -555 0
390 -525 -545 0
390 -515 -585 0
390 -525 -575 0
390 -515 -615 0
390 -525 -605 0
390 -545 -585 0
390 -555 -575 0
390 -545 -615 0
390 -555 -605 0
390 -575 -615 0
390 -585 -605 0
391 -456 -487 0
391 -457 -486 0
391 -456 -517 0
391 -457 -516 0
391 -456 -547 0
391 -457 -546 0
391 -456 -577 0
391 -457 -576 0
391 -456 -607 0
391 -457 -606 0
391 -486 -517 0
391 -487 -516 0
391 -486 -547 0
391 -487 -546 0
391 -486 -577 0
391 -487 -576 0
391 -486 -607 0
391 -487 -606 0
391 -516 -547 0
391 -517 -546 0
391 -516 -577 0
391 -517 -576 0
391 -516 -607 0
391 -517 -606 0
391 -546 -577 0
391 -547 -576 0
391 -546 -607 0
391 -547 -606 0
391 -576 -607 0
391 -577 -606 0
392 -456 -488 0
392 -458 -486 0
392 -456 -518 0
392 -458 -516 0
392 -456 -548 0
392 -458 -546 0
392 -456 -578 0
392 -458 -576 0
392 -456 -608 0
392 -458 -606 0
392 -486 -518 0
392 -488 -516 0
392 -486 -548 0
392 -488 -546 0
392 -486 -578 0
392 -488 -576 0
392 -486 -608 0
392 -488 -606 0
392 -516 -548 0
392 -518 -546 0
392 -516 -578 0
392 -518 -576 0
392 -516 -608 0
392 -518 -606 0
392 -546 -578 0
392 -548 -576 0
392 -546 -608 0
392 -548 -606 0
392 -576 -608 0
392 -578 -606 0
393 -456 -489 0
393 -459 -486 0
393 -456 -519 0
393 -459 -516 0
393 -456 -549 0
393 -459 -546 0
393 -456 -579 0
393 -459 -576 0
393 -456 -609 0
393 -459 -606 0
393 -486 -519 0
393 -489 -516 0
393 -486 -549 0
393 -489 -546 0
393 -486 -579 0
393 -489 -576 0
393 -486 -609 0
393 -489 -606 0
393 -516 -549 0
393 -519 -546 0
393 -516 -579 0
393 -519 -576 0
393 -516 -609 0
393 -519 -606 0
393 -546 -579 0
393 -549 -576 0
393 -546 -609 0
393 -549 -606 0
393 -576 -609 0
393 -579 -606 0
394 -456 -490 0
394 -460 -486 0
394 -456 -520 0
394 -460 -516 0
394 -456 -550 0
394 -460 -546 0
394 -456 -580 0
394 -460 -576 0
394 -456 -610 0
394 -460 -606 0
394 -486 -520 0
394 -490 -516 0
394 -486 -550 0
394 -490 -546 0
394 -486 -580 0
394 -490 -576 0
394 -486 -610 0
394 -490 -606 0
394 -516 -550 0
394 -520 -546 0
394 -516 -580 0
394 -520 -576 0
394 -516 -610 0
394 -520 -606 0
394 -546 -580 0
394 -550 -576 0
394 -546 -610 0
394 -550 -606 0
394 -576 -610 0
394 -580 -606 0
395 -456 -491 0
395 -461 -486 0
395 -456 -521 0
395 -461 -516 0
395 -456 -551 0
395 -461 -546 0
395 -456 -581 0
395 -461 -576 0
395 -456 -611 0
395 -461 -606 0
395 -486 -521 0
395 -491 -516 0
395 -486 -551 0
395 -491 -546 0
395 -486 -581 0
395 -491 -576 0
395 -486 -611 0
395 -491 -606 0
395 -516 -551 0
395 -521 -546 0
395 -516 -581 0
395 -521 -576 0
395 -516 -611 0
395 -521 -606 0
395 -546 -581 0
395 -551 -576 0
395 -546 -611 0
395 -551 -606 0
395 -576 -611 0
395 -581 -606 0
396 -456 -492 0
396 -462 -486 0
396 -456 -522 0
396 -462 -516 0
396 -456 -552 0
396 -462 -546 0
396 -456 -582 0
396 -462 -576 0
396 -456 -612 0
396 -462 -606 0
396 -486 -522 0
396 -492 -516 0
396 -486 -552 0
396 -492 -546 0
396 -486 -582 0
396 -492 -576 0
396 -486 -612 0
396 -492 -606 0
396 -516 -552 0
396 -522 -546 0
396 -516 -582 0
396 -522 -576 0
396 -516 -612 0
396 -522 -606 0
396 -546 -582 0
396 -552 -576 0
396 -546 -612 0
396 -552 -606 0
396 -576 -612 0
396 -582 -606 0
397 -456 -493 0
397 -463 -486 0
397 -456 -523 0
397 -463 -516 0
397 -456 -553 0
397 -463 -546 0
397 -456 -583 0
397 -463 -576 0
397 -456 -613 0
397 -463 -606 0
397 -486 -523 0
397 -493 -516 0
397 -486 -553 0
397 -493 -546 0
397 -486 -583 0
397 -493 -576 0
397 -486 -613 0
397 -493 -606 0
397 -516 -553 0
397 -523 -546 0
397 -516 -583 0
397 -523 -576 0
397 -516 -613 0
397 -523 -606 0
397 -546 -583 0
397 -553 -576 0
397 -546 -613 0
397 -553 -606 0
397 -576 -613 0
397 -583 -606 0
398 -456 -494 0
398 -464 -486 0
398 -456 -524 0
398 -464 -516 0
398 -456 -554 0
398 -464 -546 0
398 -456 -584 0
398 -464 -576 0
398 -456 -614 0
398 -464 -606 0
398 -486 -524 0
398 -494 -516 0
398 -486 -554 0
398 -494 -546 0
398 -486 -584 0
398 -494 -576 0
398 -486 -614 0
398 -494 -606 0
398 -516 -554 0
398 -524 -546 0
398 -516 -584 0
398 -524 -576 0
398 -516 -614 0
398 -524 -606 0
398 -546 -584 0
398 -554 -576 0
398 -546 -614 0
398 -554 -606 0
398 -576 -614 0
398 -584 -606 0
399 -456 -495 0
399 -465 -486 0
399 -456 -525 0
399 -465 -516 0
399 -456 -555 0
399 -465 -546 0
399 -456 -585 0
399 -465 -576 0
399 -456 -615 0
399 -465 -606 0
399 -486 -525 0
399 -495 -516 0
399 -486 -555 0
399 -495 -546 0
399 -486 -585 0
399 -495 -576 0
399 -486 -615 0
399 -495 -606 0
399 -516 -555 0
399 -525 -546 0
399 -516 -585 0
399 -525 -576 0
399 -516 -615 0
399 -525 -606 0
399 -546 -585 0
399 -555 -576 0
399 -546 -615 0
399 -555 -606 0
399 -576 -615 0
399 -585 -606 0
400 -457 -488 0
400 -458 -487 0
400 -457 -518 0
400 -458 -517 0
400 -457 -548 0
400 -458 -547 0
400 -457 -578 0
400 -458 -577 0
400 -457 -608 0
400 -458 -607 0
400 -487 -518 0
400 -488 -517 0
400 -487 -548 0
400 -488 -547 0
400 -487 -578 0
400 -488 -577 0
400 -487 -608 0
400 -488 -607 0
400 -517 -548 0
400 -518 -547 0
400 -517 -578 0
400 -518 -577 0
400 -517 -608 0
400 -518 -607 0
400 -547 -578 0
400 -548 -577 0
400 -547 -608 0
400 -548 -607 0
400 -577 -608 0
400 -578 -607 0
401 -457 -489 0
401 -459 -487 0
401 -457 -519 0
401 -459 -517 0
401 -457 -549 0
401 -459 -547 0
401 -457 -579 0
401 -459 -577 0
401 -457 -609 0
401 -459 -607 0
401 -487 -519 0
401 -489 -517 0
401 -487 -549 0
401 -489 -547 0
401 -487 -579 0
401 -489 -577 0
401 -487 -609 0
401 -489 -607 0
401 -517 -549 0
401 -519 -547 0
401 -517 -579 0
401 -519 -577 0
401 -517 -609 0
401 -519 -607 0
401 -547 -579 0
401 -549 -577 0
401 -547 -609 0
401 -549 -607 0
401 -577 -609 0
401 -579 -607 0
402 -457 -490 0
402 -460 -487 0
402 -457 -520 0
402 -460 -517 0
402 -457 -550 0
402 -460 -547 0
402 -457 -580 0
402 -460 -577 0
402 -457 -610 0
402 -460 -607 0
402 -487 -520 0
402 -490 -517 0
402 -487 -550 0
402 -490 -547 0
402 -487 -580 0
402 -490 -577 0
402 -487 -610 0
402 -490 -607 0
402 -517 -550 0
402 -520 -547 0
402 -517 -580 0
402 -520 -577 0
402 -517 -610 0
402 -520 -607 0
402 -547 -580 0
402 -550 -577 0
402 -547 -610 0
402 -550 -607 0
402 -577 -610 0
402 -580 -607 0
403 -457 -491 0
403 -461 -487 0
403 -457 -521 0
403 -461 -517 0
403 -457 -551 0
403 -461 -547 0
403 -457 -581 0
403 -461 -577 0
403 -457 -611 0
403 -461 -607 0
403 -487 -521 0
403 -491 -517 0
403 -487 -551 0
403 -491 -547 0
403 -487 -581 0
403 -491 -577 0
403 -487 -611 0
403 -491 -607 0
403 -517 -551 0
403 -521 -547 0
403 -517 -581 0
403 -521 -577 0
403 -517 -611 0
403 -521 -607 0
403 -547 -581 0
403 -551 -577 0
403 -547 -611 0
403 -551 -607 0
403 -577 -611 0
403 -581 -607 0
404 -457 -492 0
404 -462 -487 0
404 -457 -522 0
404 -462 -517 0
404 -457 -552 0
404 -462 -547 0
404 -457 -582 0
404 -462 -577 0
404 -457 -612 0
404 -462 -607 0
404 -487 -522 0
404 -492 -517 0
404 -487 -552 0
404 -492 -547 0
404 -487 -582 0
404 -492 -577 0
404 -487 -612 0
404 -492 -607 0
404 -517 -552 0
404 -522 -547 0
404 -517 -582 0
404 -522 -577 0
404 -517 -612 0
404 -522 -607 0
404 -547 -582 0
404 -552 -577 0
404 -547 -612 0
404 -552 -607 0
404 -577 -612 0
404 -582 -607 0
405 -457 -493 0
405 -463 -487 0
405 -457 -523 0
405 -463 -517 0
405 -457 -553 0
405 -463 -547 0
405 -457 -583 0
405 -463 -577 0
405 -457 -613 0
405 -463 -607 0
405 -487 -523 0
405 -493 -517 0
405 -487 -553 0
405 -493 -547 0
405 -487 -583 0
405 -493 -577 0
405 -487 -613 0
405 -493 -607 0
405 -517 -553 0
405 -523 -547 0
405 -517 -583 0
405 -523 -577 0
405 -517 -613 0
405 -523 -607 0
405 -547 -583 0
405 -553 -577 0
405 -547 -613 0
405 -553 -607 0
405 -577 -613 0
405 -583 -607 0
406 -457 -494 0
406 -464 -487 0
406 -457 -524 0
406 -464 -517 0
406 -457 -554 0
406 -464 -547 0
406 -457 -584 0
406 -464 -577 0
406 -457 -614 0
406 -464 -607 0
406 -487 -524 0
406 -494 -517 0
406 -487 -554 0
406 -494 -547 0
406 -487 -584 0
406 -494 -577 0
406 -487 -614 0
406 -494 -607 0
406 -517 -554 0
406 -524 -547 0
406 -517 -584 0
406 -524 -577 0
406 -517 -614 0
406 -524 -607 0
406 -547 -584 0
406 -554 -577 0
406 -547 -614 0
406 -554 -607 0
406 -577 -614 0
406 -584 -607 0
407 -457 -495 0
407 -465 -487 0
407 -457 -525 0
407 -465 -517 0
407 -457 -555 0
407 -465 -547 0
407 -457 -585 0
407 -465 -577 0
407 -457 -615 0
407 -465 -607 0
407 -487 -525 0
407 -495 -517 0
407 -487 -555 0
407 -495 -547 0
407 -487 -585 0
407 -495 -577 0
407 -487 -615 0
407 -495 -607 0
407 -517 -555 0
407 -525 -547 0
407 -517 -585 0
407 -525 -577 0
407 -517 -615 0
407 -525 -607 0
407 -547 -585 0
407 -555 -577 0
407 -547 -615 0
407 -555 -607 0
407 -577 -615 0
407 -585 -607 0
408 -458 -489 0
408 -459 -488 0
408 -458 -519 0
408 -459 -518 0
408 -458 -549 0
408 -459 -548 0
408 -458 -579 0
408 -459 -578 0
408 -458 -609 0
408 -459 -608 0
408 -488 -519 0
408 -489 -518 0
408 -488 -549 0
408 -489 -548 0
408 -488 -579 0
408 -489 -578 0
408 -488 -609 0
408 -489 -608 0
408 -518 -549 0
408 -519 -548 0
408 -518 -579 0
408 -519 -578 0
408 -518 -609 0
408 -519 -608 0
408 -548 -579 0
408 -549 -578 0
408 -548 -609 0
408 -549 -608 0
408 -578 -609 0
408 -579 -608 0
409 -458 -490 0
409 -460 -488 0
409 -458 -520 0
409 -460 -518 0
409 -458 -550 0
409 -460 -548 0
409 -458 -580 0
409 -460 -578 0
409 -458 -610 0
409 -460 -608 0
409 -488 -520 0
409 -490 -518 0
409 -488 -550 0
409 -490 -548 0
409 -488 -580 0
409 -490 -578 0
409 -488 -610 0
409 -490 -608 0
409 -518 -550 0
409 -520 -548 0
409 -518 -580 0
409 -520 -578 0
409 -518 -610 0
409 -520 -608 0
409 -548 -580 0
409 -550 -578 0
409 -548 -610 0
409 -550 -608 0
409 -578 -610 0
409 -580 -608 0
410 -458 -491 0
410 -461 -488 0
410 -458 -521 0
410 -461 -518 0
410 -458 -551 0
410 -461 -548 0
410 -458 -581 0
410 -461 -578 0
410 -458 -611 0
410 -461 -608 0
410 -488 -521 0
410 -491 -518 0
410 -488 -551 0
410 -491 -548 0
410 -488 -581 0
410 -491 -578 0
410 -488 -611 0
410 -491 -608 0
410 -518 -551 0
410 -521 -548 0
410 -518 -581 0
410 -521 -578 0
410 -518 -611 0
410 -521 -608 0
410 -548 -581 0
410 -551 -578 0
410 -548 -611 0
410 -551 -608 0
410 -578 -611 0
410 -581 -608 0
411 -458 -492 0
411 -462 -488 0
411 -458 -522 0
411 -462 -518 0
411 -458 -552 0
411 -462 -548 0
411 -458 -582 0
411 -462 -578 0
411 -458 -612 0
411 -462 -608 0
411 -488 -522 0
411 -492 -518 0
411 -488 -552 0
411 -492 -548 0
411 -488 -582 0
411 -492 -578 0
411 -488 -612 0
411 -492 -608 0
411 -518 -552 0
411 -522 -548 0
411 -518 -582 0
411 -522 -578 0
411 -518 -612 0
411 -522 -608 0
411 -548 -582 0
411 -552 -578 0
411 -548 -612 0
411 -552 -608 0
411 -578 -612 0
411 -582 -608 0
412 -458 -493 0
412 -463 -488 0
412 -458 -523 0
412 -463 -518 0
412 -458 -553 0
412 -463 -548 0
412 -458 -583 0
412 -463 -578 0
412 -458 -613 0
412 -463 -608 0
412 -488 -523 0
412 -493 -518 0
412 -488 -553 0
412 -493 -548 0
412 -488 -583 0
412 -493 -578 0
412 -488 -613 0
412 -493 -608 0
412 -518 -553 0
412 -523 -548 0
412 -518 -583 0
412 -523 -578 0
412 -518 -613 0
412 -523 -608 0
412 -548 -583 0
412 -553 -578 0
412 -548 -613 0
412 -553 -608 0
412 -578 -613 0
412 -583 -608 0
413 -458 -494 0
413 -464 -488 0
413 -458 -524 0
413 -464 -518 0
413 -458 -554 0
413 -464 -548 0
413 -458 -584 0
413 -464 -578 0
413 -458 -614 0
413 -464 -608 0
413 -488 -524 0
413 -494 -518 0
413 -488 -554 0
413 -494 -548 0
413 -488 -584 0
413 -494 -578 0
413 -488 -614 0
413 -494 -608 0
413 -518 -554 0
413 -524 -548 0
413 -518 -584 0
413 -524 -578 0
413 -518 -614 0
413 -524 -608 0
413 -548 -584 0
413 -554 -578 0
413 -548 -614 0
413 -554 -608 0
413 -578 -614 0
413 -584 -608 0
414 -458 -495 0
414 -465 -488 0
414 -458 -525 0
414 -465 -518 0
414 -458 -555 0
414 -465 -548 0
414 -458 -585 0
414 -465 -578 0
414 -458 -615 0
414 -465 -608 0
414 -488 -525 0
414 -495 -518 0
414 -488 -555 0
414 -495 -548 0
414 -488 -585 0
414 -495 -578 0
414 -488 -615 0
414 -495 -608 0
414 -518 -555 0
414 -525 -548 0
414 -518 -585 0
414 -525 -578 0
414 -518 -615 0
414 -525 -608 0
414 -548 -585 0
414 -555 -578 0
414 -548 -615 0
414 -555 -608 0
414 -578 -615 0
414 -585 -608 0
415 -459 -490 0
415 -460 -489 0
415 -459 -520 0
415 -460 -519 0
415 -459 -550 0
415 -460 -549 0
415 -459 -580 0
415 -460 -579 0
415 -459 -610 0
415 -460 -609 0
415 -489 -520 0
415 -490 -519 0
415 -489 -550 0
415 -490 -549 0
415 -489 -580 0
415 -490 -579 0
415 -489 -610 0
415 -490 -609 0
415 -519 -550 0
415 -520 -549 0
415 -519 -580 0
415 -520 -579 0
415 -519 -610 0
415 -520 -609 0
415 -549 -580 0
415 -550 -579 0
415 -549 -610 0
415 -550 -609 0
415 -579 -610 0
415 -580 -609 0
416 -459 -491 0
416 -461 -489 0
416 -459 -521 0
416 -461 -519 0
416 -459 -551 0
416 -461 -549 0
416 -459 -581 0
416 -461 -579 0
416 -459 -611 0
416 -461 -609 0
416 -489 -521 0
416 -491 -519 0
416 -489 -551 0
416 -491 -549 0
416 -489 -581 0
416 -491 -579 0
416 -489 -611 0
416 -491 -609 0
416 -519 -551 0
416 -521 -549 0
416 -519 -581 0
416 -521 -579 0
416 -519 -611 0
416 -521 -609 0
416 -549 -581 0
416 -551 -579 0
416 -549 -611 0
416 -551 -609 0
416 -579 -611 0
416 -581 -609 0
417 -459 -492 0
417 -462 -489 0
417 -459 -522 0
417 -462 -519 0
417 -459 -552 0
417 -462 -549 0
417 -459 -582 0
417 -462 -579 0
417 -459 -612 0
417 -462 -609 0
417 -489 -522 0
417 -492 -519 0
417 -489 -552 0
417 -492 -549 0
417 -489 -582 0
417 -492 -579 0
417 -489 -612 0
417 -492 -609 0
417 -519 -552 0
417 -522 -549 0
417 -519 -582 0
417 -522 -579 0
417 -519 -612 0
417 -522 -609 0
417 -549 -582 0
417 -552 -579 0
417 -549 -612 0
417 -552 -609 0
417 -579 -612 0
417 -582 -609 0
418 -459 -493 0
418 -463 -489 0
418 -459 -523 0
418 -463 -519 0
418 -459 -553 0
418 -463 -549 0
418 -459 -583 0
418 -463 -579 0
418 -459 -613 0
418 -463 -609 0
418 -489 -523 0
418 -493 -519 0
418 -489 -553 0
418 -493 -549 0
418 -489 -583 0
418 -493 -579 0
418 -489 -613 0
418 -493 -609 0
418 -519 -553 0
418 -523 -549 0
418 -519 -583 0
418 -523 -579 0
418 -519 -613 0
418 -523 -609 0
418 -549 -583 0
418 -553 -579 0
418 -549 -613 0
418 -553 -609 0
418 -579 -613 0
418 -583 -609 0
419 -459 -494 0
419 -464 -489 0
419 -459 -524 0
419 -464 -519 0
419 -459 -554 0
419 -464 -549 0
419 -459 -584 0
419 -464 -579 0
419 -459 -614 0
419 -464 -609 0
419 -489 -524 0
419 -494 -519 0
419 -489 -554 0
419 -494 -549 0
419 -489 -584 0
419 -494 -579 0
419 -489 -614 0
419 -494 -609 0
419 -519 -554 0
419 -524 -549 0
419 -519 -584 0
419 -524 -579 0
419 -519 -614 0
419 -524 -609 0
419 -549 -584 0
419 -554 -579 0
419 -549 -614 0
419 -554 -609 0
419 -579 -614 0
419 -584 -609 0
420 -459 -495 0
420 -465 -489 0
420 -459 -525 0
420 -465 -519 0
420 -459 -555 0
420 -465 -549 0
420 -459 -585 0
420 -465 -579 0
420 -459 -615 0
420 -465 -609 0
420 -489 -525 0
420 -495 -519 0
420 -489 -555 0
420 -495 -549 0
420 -489 -585 0
420 -495 -579 0
420 -489 -615 0
420 -495 -609 0
420 -519 -555 0
420 -525 -549 0
420 -519 -585 0
420 -525 -579 0
420 -519 -615 0
420 -525 -609 0
420 -549 -585 0
420 -555 -579 0
420 -549 -615 0
420 -555 -609 0
420 -579 -615 0
420 -585 -609 0
421 -460 -491 0
421 -461 -490 0
421 -460 -521 0
421 -461 -520 0
421 -460 -551 0
421 -461 -550 0
421 -460 -581 0
421 -461 -580 0
421 -460 -611 0
421 -461 -610 0
421 -490 -521 0
421 -491 -520 0
421 -490 -551 0
421 -491 -550 0
421 -490 -581 0
421 -491 -580 0
421 -490 -611 0
421 -491 -610 0
421 -520 -551 0
421 -521 -550 0
421 -520 -581 0
421 -521 -580 0
421 -520 -611 0
421 -521 -610 0
421 -550 -581 0
421 -551 -580 0
421 -550 -611 0
421 -551 -610 0
421 -580 -611 0
421 -581 -610 0
422 -460 -492 0
422 -462 -490 0
422 -460 -522 0
422 -462 -520 0
422 -460 -552 0
422 -462 -550 0
422 -460 -582 0
422 -462 -580 0
422 -460 -612 0
422 -462 -610 0
422 -490 -522 0
422 -492 -520 0
422 -490 -552 0
422 -492 -550 0
422 -490 -582 0
422 -492 -580 0
422 -490 -612 0
422 -492 -610 0
422 -520 -552 0
422 -522 -550 0
422 -520 -582 0
422 -522 -580 0
422 -520 -612 0
422 -522 -610 0
422 -550 -582 0
422 -552 -580 0
422 -550 -612 0
422 -552 -610 0
422 -580 -612 0
422 -582 -610 0
423 -460 -493 0
423 -463 -490 0
423 -460 -523 0
423 -463 -520 0
423 -460 -553 0
423 -463 -550 0
423 -460 -583 0
423 -463 -580 0
423 -460 -613 0
423 -463 -610 0
423 -490 -523 0
423 -493 -520 0
423 -490 -553 0
423 -493 -550 0
423 -490 -583 0
423 -493 -580 0
423 -490 -613 0
423 -493 -610 0
423 -520 -553 0
423 -523 -550 0
423 -520 -583 0
423 -523 -580 0
423 -520 -613 0
423 -523 -610 0
423 -550 -583 0
423 -553 -580 0
423 -550 -613 0
423 -553 -610 0
423 -580 -613 0
423 -583 -610 0
424 -460 -494 0
424 -464 -490 0
424 -460 -524 0
424 -464 -520 0
424 -460 -554 0
424 -464 -550 0
424 -460 -584 0
424 -464 -580 0
424 -460 -614 0
424 -464 -610 0
424 -490 -524 0
424 -494 -520 0
424 -490 -554 0
424 -494 -550 0
424 -490 -584 0
424 -494 -580 0
424 -490 -614 0
424 -494 -610 0
424 -520 -554 0
424 -524 -550 0
424 -520 -584 0
424 -524 -580 0
424 -520 -614 0
424 -524 -610 0
424 -550 -584 0
424 -554 -580 0
424 -550 -614 0
424 -554 -610 0
424 -580 -614 0
424 -584 -610 0
425 -460 -495 0
425 -465 -490 0
425 -460 -525 0
425 -465 -520 0
425 -460 -555 0
425 -465 -550 0
425 -460 -585 0
425 -465 -580 0
425 -460 -615 0
425 -465 -610 0
425 -490 -525 0
425 -495 -520 0
425 -490 -555 0
425 -495 -550 0
425 -490 -585 0
425 -495 -580 0
425 -490 -615 0
425 -495 -610 0
425 -520 -555 0
425 -525 -550 0
425 -520 -585 0
425 -525 -580 0
425 -520 -615 0
425 -525 -610 0
425 -550 -585 0
425 -555 -580 0
425 -550 -615 0
425 -555 -610 0
425 -580 -615 0
425 -585 -610 0
426 -461 -492 0
426 -462 -491 0
426 -461 -522 0
426 -462 -521 0
426 -461 -552 0
426 -462 -551 0
426 -461 -582 0
426 -462 -581 0
426 -461 -612 0
426 -462 -611 0
426 -491 -522 0
426 -492 -521 0
426 -491 -552 0
426 -492 -551 0
426 -491 -582 0
426 -492 -581 0
426 -491 -612 0
426 -492 -611 0
426 -521 -552 0
426 -522 -551 0
426 -521 -582 0
426 -522 -581 0
426 -521 -612 0
426 -522 -611 0
426 -551 -582 0
426 -552 -581 0
426 -551 -612 0
426 -552 -611 0
426 -581 -612 0
426 -582 -611 0
427 -461 -493 0
427 -463 -491 0
427 -461 -523 0
427 -463 -521 0
427 -461 -553 0
427 -463 -551 0
427 -461 -583 0
427 -463 -581 0
427 -461 -613 0
427 -463 -611 0
427 -491 -523 0
427 -493 -521 0
427 -491 -553 0
427 -493 -551 0
427 -491 -583 0
427 -493 -581 0
427 -491 -613 0
427 -493 -611 0
427 -521 -553 0
427 -523 -551 0
427 -521 -583 0
427 -523 -581 0
427 -521 -613 0
427 -523 -611 0
427 -551 -583 0
427 -553 -581 0
427 -551 -613 0
427 -553 -611 0
427 -581 -613 0
427 -583 -611 0
428 -461 -494 0
428 -464 -491 0
428 -461 -524 0
428 -464 -521 0
428 -461 -554 0
428 -464 -551 0
428 -461 -584 0
428 -464 -581 0
428 -461 -614 0
428 -464 -611 0
428 -491 -524 0
428 -494 -521 0
428 -491 -554 0
428 -494 -551 0
428 -491 -584 0
428 -494 -581 0
428 -491 -614 0
428 -494 -611 0
428 -521 -554 0
428 -524 -551 0
428 -521 -584 0
428 -524 -581 0
428 -521 -614 0
428 -524 -611 0
428 -551 -584 0
428 -554 -581 0
428 -551 -614 0
428 -554 -611 0
428 -581 -614 0
428 -584 -611 0
429 -461 -495 0
429 -465 -491 0
429 -461 -525 0
429 -465 -521 0
429 -461 -555 0
429 -465 -551 0
429 -461 -585 0
429 -465 -581 0
429 -461 -615 0
429 -465 -611 0
429 -491 -525 0
429 -495 -521 0
429 -491 -555 0
429 -495 -551 0
429 -491 -585 0
429 -495 -581 0
429 -491 -615 0
429 -495 -611 0
429 -521 -555 0
429 -525 -551 0
429 -521 -585 0
429 -525 -581 0
429 -521 -615 0
429 -525 -611 0
429 -551 -585 0
429 -555 -581 0
429 -551 -615 0
429 -555 -611 0
429 -581 -615 0
429 -585 -611 0
430 -462 -493 0
430 -463 -492 0
430 -462 -523 0
430 -463 -522 0
430 -462 -553 0
430 -463 -552 0
430 -462 -583 0
430 -463 -582 0
430 -462 -613 0
430 -463 -612 0
430 -492 -523 0
430 -493 -522 0
430 -492 -553 0
430 -493 -552 0
430 -492 -583 0
430 -493 -582 0
430 -492 -613 0
430 -493 -612 0
430 -522 -553 0
430 -523 -552 0
430 -522 -583 0
430 -523 -582 0
430 -522 -613 0
430 -523 -612 0
430 -552 -583 0
430 -553 -582 0
430 -552 -613 0
430 -553 -612 0
430 -582 -613 0
430 -583 -612 0
431 -462 -494 0
431 -464 -492 0
431 -462 -524 0
431 -464 -522 0
431 -462 -554 0
431 -464 -552 0
431 -462 -584 0
431 -464 -582 0
431 -462 -614 0
431 -464 -612 0
431 -492 -524 0
431 -494 -522 0
431 -492 -554 0
431 -494 -552 0
431 -492 -584 0
431 -494 -582 0
431 -492 -614 0
431 -494 -612 0
431 -522 -554 0
431 -524 -552 0
431 -522 -584 0
431 -524 -582 0
431 -522 -614 0
431 -524 -612 0
431 -552 -584 0
431 -554 -582 0
431 -552 -614 0
431 -554 -612 0
431 -582 -614 0
431 -584 -612 0
432 -462 -495 0
432 -465 -492 0
432 -462 -525 0
432 -465 -522 0
432 -462 -555 0
432 -465 -552 0
432 -462 -585 0
432 -465 -582 0
432 -462 -615 0
432 -465 -612 0
432 -492 -525 0
432 -495 -522 0
432 -492 -555 0
432 -495 -552 0
432 -492 -585 0
432 -495 -582 0
432 -492 -615 0
432 -495 -612 0
432 -522 -555 0
432 -525 -552 0
432 -522 -585 0
432 -525 -582 0
432 -522 -615 0
432 -525 -612 0
432 -552 -585 0
432 -555 -582 0
432 -552 -615 0
432 -555 -612 0
432 -582 -615 0
432 -585 -612 0
433 -463 -494 0
433 -464 -493 0
433 -463 -524 0
433 -464 -523 0
433 -463 -554 0
433 -464 -553 0
433 -463 -584 0
433 -464 -583 0
433 -463 -614 0
433 -464 -613 0
433 -493 -524 0
433 -494 -523 0
433 -493 -554 0
433 -494 -553 0
433 -493 -584 0
433 -494 -583 0
433 -493 -614 0
433 -494 -613 0
433 -523 -554 0
433 -524 -553 0
433 -523 -584 0
433 -524 -583 0
433 -523 -614 0
433 -524 -613 0
433 -553 -584 0
433 -554 -583 0
433 -553 -614 0
433 -554 -613 0
433 -583 -614 0
433 -584 -613 0
434 -463 -495 0
434 -465 -493 0
434 -463 -525 0
434 -465 -523 0
434 -463 -555 0
434 -465 -553 0
434 -463 -585 0
434 -465 -583 0
434 -463 -615 0
434 -465 -613 0
434 -493 -525 0
434 -495 -523 0
434 -493 -555 0
434 -495 -553 0
434 -493 -585 0
434 -495 -583 0
434 -493 -615 0
434 -495 -613 0
434 -523 -555 0
434 -525 -553 0
434 -523 -585 0
434 -525 -583 0
434 -523 -615 0
434 -525 -613 0
434 -553 -585 0
434 -555 -583 0
434 -553 -615 0
434 -555 -613 0
434 -583 -615 0
434 -585 -613 0
435 -464 -495 0
435 -465 -494 0
435 -464 -525 0
435 -465 -524 0
435 -464 -555 0
435 -465 -554 0
435 -464 -585 0
435 -465 -584 0
435 -464 -615 0
435 -465 -614 0
435 -494 -525 0
435 -495 -524 0
435 -494 -555 0
435 -495 -554 0
435 -494 -585 0
435 -495 -584 0
435 -494 -615 0
435 -495 -614 0
435 -524 -555 0
435 -525 -554 0
435 -524 -585 0
435 -525 -584 0
435 -524 -615 0
435 -525 -614 0
435 -554 -585 0
435 -555 -584 0
435 -554 -615 0
435 -555 -614 0
435 -584 -615 0
435 -585 -614 0
616 617 618 619 620 0
621 622 623 624 625 0
626 627 628 629 630 0
631 632 633 634 635 0
636 637 638 639 640 0
641 642 643 644 645 0
646 647 648 649 650 0
651 652 653 654 655 0
656 657 658 659 660 0
661 662 663 664 665 0
666 667 668 669 670 0
671 672 673 674 675 0
676 677 678 679 680 0
681 682 683 684 685 0
686 687 688 689 690 0
691 692 693 694 695 0
696 697 698 699 700 0
701 702 703 704 705 0
706 707 708 709 710 0
711 712 713 714 715 0
716 717 718 719 720 0
721 722 723 724 725 0
726 727 728 729 730 0
731 732 733 734 735 0
736 737 738 739 740 0
741 742 743 744 745 0
746 747 748 749 750 0
751 752 753 754 755 0
756 757 758 759 760 0
761 762 763 764 765 0
-616 -617 0
-616 -618 0
-616 -619 0
-616 -620 0
-617 -618 0
-617 -619 0
-617 -620 0
-618 -619 0
-618 -620 0
-619 -620 0
-621 -622 0
-621 -623 0
-621 -624 0
-621 -625 0
-622 -623 0
-622 -624 0
-622 -625 0
-623 -624 0
-623 -625 0
-624 -625 0
-626 -627 0
-626 -628 0
-626 -629 0
-626 -630 0
-627 -628 0
-627 -629 0
-627 -630 0
-628 -629 0
-628 -630 0
-629 -630 0
-631 -632 0
-631 -633 0
-631 -634 0
-631 -635 0
-632 -633 0
-632 -634 0
-632 -635 0
-633 -634 0
-633 -635 0
-634 -635 0
-636 -637 0
-636 -638 0
-636 -639 0
-636 -640 0
-637 -638 0
-637 -639 0
-637 -640 0
-638 -639 0
-638 -640 0
-639 -640 0
-641 -642 0
-641 -643 0
-641 -644 0
-641 -645 0
-642 -643 0
-642 -644 0
-642 -645 0
-643 -644 0
-643 -645 0
-644 -645 0
-646 -647 0
-646 -648 0
-646 -649 0
-646 -650 0
-647 -648 0
-647 -649 0
-647 -650 0
-648 -649 0
-648 -650 0
-649 -650 0
-651 -652 0
-651 -653 0
-651 -654 0
-651 -655 0
-652 -653 0
-652 -654 0
-652 -655 0
-653 -654 0
-653 -655 0
-654 -655 0
-656 -657 0
-656 -658 0
-656 -659 0
-656 -660 0
-657 -658 0
-657 -659 0
-657 -660 0
-658 -659 0
-658 -660 0
-659 -660 0
-661 -662 0
-661 -663 0
-661 -664 0
-661 -665 0
-662 -663 0
-662 -664 0
-662 -665 0
-663 -664 0
-663 -665 0
-664 -665 0
-666 -667 0
-666 -668 0
-666 -669 0
-666 -670 0
-667 -668 0
-667 -669 0
-667 -670 0
-668 -669 0
-668 -670 0
-669 -670 0
-671 -672 0
-671 -673 0
-671 -674 0
-671 -675 0
-672 -673 0
-672 -674 0
-672 -675 0
-673 -674 0
-673 -675 0
-674 -675 0
-676 -677 0
-676 -678 0
-676 -679 0
-676 -680 0
-677 -678 0
-677 -679 0
-677 -680 0
-678 -679 0
-678 -680 0
-679 -680 0
-681 -682 0
-681 -683 0
-681 -684 0
-681 -685 0
-682 -683 0
-682 -684 0
-682 -685 0
-683 -684 0
-683 -685 0
-684 -685 0
-686 -687 0
-686 -688 0
-686 -689 0
-686 -690 0
-687 -688 0
-687 -689 0
-687 -690 0
-688 -689 0
-688 -690 0
-689 -690 0
-691 -692 0
-691 -693 0
-691 -694 0
-691 -695 0
-692 -693 0
-692 -694 0
-692 -695 0
-693 -694 0
-693 -695 0
-694 -695 0
-696 -697 0
-696 -698 0
-696 -699 0
-696 -700 0
-697 -698 0
-697 -699 0
-697 -700 0
-698 -699 0
-698 -700 0
-699 -700 0
-701 -702 0
-701 -703 0
-701 -704 0
-701 -705 0
-702 -703 0
-702 -704 0
-702 -705 0
-703 -704 0
-703 -705 0
-704 -705 0
-706 -707 0
-706 -708 0
-706 -709 0
-706 -710 0
-707 -708 0
-707 -709 0
-707 -710 0
-708 -709 0
-708 -710 0
-709 -710 0
-711 -712 0
-711 -713 0
-711 -714 0
-711 -715 0
-712 -713 0
-712 -714 0
-712 -715 0
-713 -714 0
-713 -715 0
-714 -715 0
-716 -717 0
-716 -718 0
-716 -719 0
-716 -720 0
-717 -718 0
-717 -719 0
-717 -720 0
-718 -719 0
-718 -720 0
-719 -720 0
-721 -722 0
-721 -723 0
-721 -724 0
-721 -725 0
-722 -723 0
-722 -724 0
-722 -725 0
-723 -724 0
-723 -725 0
-724 -725 0
-726 -727 0
-726 -728 0
-726 -729 0
-726 -730 0
-727 -728 0
-727 -729 0
-727 -730 0
-728 -729 0
-728 -730 0
-729 -730 0
-731 -732 0
-731 -733 0
-731 -734 0
-731 -735 0
-732 -733 0
-732 -734 0
-732 -735 0
-733 -734 0
-733 -735 0
-734 -735 0
-736 -737 0
-736 -738 0
-736 -739 0
-736 -740 0
-737 -738 0
-737 -739 0
-737 -740 0
-738 -739 0
-738 -740 0
-739 -740 0
-741 -742 0
-741 -743 0
-741 -744 0
-741 -745 0
-742 -743 0
-742 -744 0
-742 -745 0
-743 -744 0
-743 -745 0
-744 -745 0
-746 -747 0
-746 -748 0
-746 -749 0
-746 -750 0
-747 -748 0
-747 -749 0
-747 -750 0
-748 -749 0
-748 -750 0
-749 -750 0
-751 -752 0
-751 -753 0
-751 -754 0
-751 -755 0
-752 -753 0
-752 -754 0
-752 -755 0
-753 -754 0
-753 -755 0
-754 -755 0
-756 -757 0
-756 -758 0
-756 -759 0
-756 -760 0
-757 -758 0
-757 -759 0
-757 -760 0
-758 -759 0
-758 -760 0
-759 -760 0
-761 -762 0
-761 -763 0
-761 -764 0
-761 -765 0
-762 -763 0
-762 -764 0
-762 -765 0
-763 -764 0
-763 -765 0
-764 -765 0
-1 -616 -621 0
-1 -617 -622 0
-1 -618 -623 0
-1 -619 -624 0
-1 -620 -625 0
-2 -616 -626 0
-2 -617 -627 0
-2 -618 -628 0
-2 -619 -629 0
-2 -620 -630 0
-3 -616 -631 0
-3 -617 -632 0
-3 -618 -633 0
-3 -619 -634 0
-3 -620 -635 0
-4 -616 -636 0
-4 -617 -637 0
-4 -618 -638 0
-4 -619 -639 0
-4 -620 -640 0
-5 -616 -641 0
-5 -617 -642 0
-5 -618 -643 0
-5 -619 -644 0
-5 -620 -645 0
-6 -616 -646 0
-6 -617 -647 0
-6 -618 -648 0
-6 -619 -649 0
-6 -620 -650 0
-7 -616 -651 0
-7 -617 -652 0
-7 -618 -653 0
-7 -619 -654 0
-7 -620 -655 0
-8 -616 -656 0
-8 -617 -657 0
-8 -618 -658 0
-8 -619 -659 0
-8 -620 -660 0
-9 -616 -661 0
-9 -617 -662 0
-9 -618 -663 0
-9 -619 -664 0
-9 -620 -665 0
-10 -616 -666 0
-10 -617 -667 0
-10 -618 -668 0
-10 -619 -669 0
-10 -620 -670 0
-11 -616 -671 0
-11 -617 -672 0
-11 -618 -673 0
-11 -619 -674 0
-11 -620 -675 0
-12 -616 -676 0
-12 -617 -677 0
-12 -618 -678 0
-12 -619 -679 0
-12 -620 -680 0
-13 -616 -681 0
-13 -617 -682 0
-13 -618 -683 0
-13 -619 -684 0
-13 -620 -685 0
-14 -616 -686 0
-14 -617 -687 0
-14 -618 -688 0
-14 -619 -689 0
-14 -620 -690 0
-15 -616 -691 0
-15 -617 -692 0
-15 -618 -693 0
-15 -619 -694 0
-15 -620 -695 0
-16 -616 -696 0
-16 -617 -697 0
-16 -618 -698 0
-16 -619 -699 0
-16 -620 -700 0
-17 -616 -701 0
-17 -617 -702 0
-17 -618 -703 0
-17 -619 -704 0
-17 -620 -705 0
-18 -616 -706 0
-18 -617 -707 0
-18 -618 -708 0
-18 -619 -709 0
-18 -620 -710 0
-19 -616 -711 0
-19 -617 -712 0
-19 -618 -713 0
-19 -619 -714 0
-19 -620 -715 0
-20 -616 -716 0
-20 -617 -717 0
-20 -618 -718 0
-20 -619 -719 0
-20 -620 -720 0
-21 -616 -721 0
-21 -617 -722 0
-21 -618 -723 0
-21 -619 -724 0
-21 -620 -725 0
-22 -616 -726 0
-22 -617 -727 0
-22 -618 -728 0
-22 -619 -729 0
-22 -620 -730 0
-23 -616 -731 0
-23 -617 -732 0
-23 -618 -733 0
-23 -619 -734 0
-23 -620 -735 0
-24 -616 -736 0
-24 -617 -737 0
-24 -618 -738 0
-24 -619 -739 0
-24 -620 -740 0
-25 -616 -741 0
-25 -617 -742 0
-25 -618 -743 0
-25 -619 -744 0
-25 -620 -745 0
-26 -616 -746 0
-26 -617 -747 0
-26 -618 -748 0
-26 -619 -749 0
-26 -620 -750 0
-27 -616 -751 0
-27 -617 -752 0
-27 -618 -753 0
-27 -619 -754 0
-27 -620 -755 0
-28 -616 -756 0
-28 -617 -757 0
-28 -618 -758 0
-28 -619 -759 0
-28 -620 -760 0
-29 -616 -761 0
-29 -617 -762 0
-29 -618 -763 0
-29 -619 -764 0
-29 -620 -765 0
-30 -621 -626 0
-30 -622 -627 0
-30 -623 -628 0
-30 -624 -629 0
-30 -625 -630 0
-31 -621 -631 0
-31 -622 -632 0
-31 -623 -633 0
-31 -624 -634 0
-31 -625 -635 0
-32 -621 -636 0
-32 -622 -637 0
-32 -623 -638 0
-32 -624 -639 0
-32 -625 -640 0
-33 -621 -641 0
-33 -622 -642 0
-33 -623 -643 0
-33 -624 -644 0
-33 -625 -645 0
-34 -621 -646 0
-34 -622 -647 0
-34 -623 -648 0
-34 -624 -649 0
-34 -625 -650 0
-35 -621 -651 0
-35 -622 -652 0
-35 -623 -653 0
-35 -624 -654 0
-35 -625 -655 0
-36 -621 -656 0
-36 -622 -657 0
-36 -623 -658 0
-36 -624 -659 0
-36 -625 -660 0
-37 -621 -661 0
-37 -622 -662 0
-37 -623 -663 0
-37 -624 -664 0
-37 -625 -665 0
-38 -621 -666 0
-38 -622 -667 0
-38 -623 -668 0
-38 -624 -669 0
-38 -625 -670 0
-39 -621 -671 0
-39 -622 -672 0
-39 -623 -673 0
-39 -624 -674 0
-39 -625 -675 0
-40 -621 -676 0
-40 -622 -677 0
-40 -623 -678 0
-40 -624 -679 0
-40 -625 -680 0
-41 -621 -681 0
-41 -622 -682 0
-41 -623 -683 0
-41 -624 -684 0
-41 -625 -685 0
-42 -621 -686 0
-42 -622 -687 0
-42 -623 -688 0
-42 -624 -689 0
-42 -625 -690 0
-43 -621 -691 0
-43 -622 -692 0
-43 -623 -693 0
-43 -624 -694 0
-43 -625 -695 0
-44 -621 -696 0
-44 -622 -697 0
-44 -623 -698 0
-44 -624 -699 0
-44 -625 -700 0
-45 -621 -701 0
-45 -622 -702 0
-45 -623 -703 0
-45 -624 -704 0
-45 -625 -705 0
-46 -621 -706 0
-46 -622 -707 0
-46 -623 -708 0
-46 -624 -709 0
-46 -625 -710 0
-47 -621 -711 0
-47 -622 -712 0
-47 -623 -713 0
-47 -624 -714 0
-47 -625 -715 0
-48 -621 -716 0
-48 -622 -717 0
-48 -623 -718 0
-48 -624 -719 0
-48 -625 -720 0
-49 -621 -721 0
-49 -622 -722 0
-49 -623 -723 0
-49 -624 -724 0
-49 -625 -725 0
-50 -621 -726 0
-50 -622 -727 0
-50 -623 -728 0
-50 -624 -729 0
-50 -625 -730 0
-51 -621 -731 0
-51 -622 -732 0
-51 -623 -733 0
-51 -624 -734 0
-51 -625 -735 0
-52 -621 -736 0
-52 -622 -737 0
-52 -623 -738 0
-52 -624 -739 0
-52 -625 -740 0
-53 -621 -741 0
-53 -622 -742 0
-53 -623 -743 0
-53 -624 -744 0
-53 -625 -745 0
-54 -621 -746 0
-54 -622 -747 0
-54 -623 -748 0
-54 -624 -749 0
-54 -625 -750 0
-55 -621 -751 0
-55 -622 -752 0
-55 -623 -753 0
-55 -624 -754 0
-55 -625 -755 0
-56 -621 -756 0
-56 -622 -757 0
-56 -623 -758 0
-56 -624 -759 0
-56 -625 -760 0
-57 -621 -761 0
-57 -622 -762 0
-57 -623 -763 0
-57 -624 -764 0
-57 -625 -765 0
-58 -626 -631 0
-58 -627 -632 0
-58 -628 -633 0
-58 -629 -634 0
-58 -630 -635 0
-59 -626 -636 0
-59 -627 -637 0
-59 -628 -638 0
-59 -629 -639 0
-59 -630 -640 0
-60 -626 -641 0
-60 -627 -642 0
-60 -628 -643 0
-60 -629 -644 0
-60 -630 -645 0
-61 -626 -646 0
-61 -627 -647 0
-61 -628 -648 0
-61 -629 -649 0
-61 -630 -650 0
-62 -626 -651 0
-62 -627 -652 0
-62 -628 -653 0
-62 -629 -654 0
-62 -630 -655 0
-63 -626 -656 0
-63 -627 -657 0
-63 -628 -658 0
-63 -629 -659 0
-63 -630 -660 0
-64 -626 -661 0
-64 -627 -662 0
-64 -628 -663 0
-64 -629 -664 0
-64 -630 -665 0
-65 -626 -666 0
-65 -627 -667 0
-65 -628 -668 0
-65 -629 -669 0
-65 -630 -670 0
-66 -626 -671 0
-66 -627 -672 0
-66 -628 -673 0
-66 -629 -674 0
-66 -630 -675 0
-67 -626 -676 0
-67 -627 -677 0
-67 -628 -678 0
-67 -629 -679 0
-67 -630 -680 0
-68 -626 -681 0
-68 -627 -682 0
-68 -628 -683 0
-68 -629 -684 0
-68 -630 -685 0
-69 -626 -686 0
-69 -627 -687 0
-69 -628 -688 0
-69 -629 -689 0
-69 -630 -690 0
-70 -626 -691 0
-70 -627 -692 0
-70 -628 -693 0
-70 -629 -694 0
-70 -630 -695 0
-71 -626 -696 0
-71 -627 -697 0
-71 -628 -698 0
-71 -629 -699 0
-71 -630 -700 0
-72 -626 -701 0
-72 -627 -702 0
-72 -628 -703 0
-72 -629 -704 0
-72 -630 -705 0
-73 -626 -706 0
-73 -627 -707 0
-73 -628 -708 0
-73 -629 -709 0
-73 -630 -710 0
-74 -626 -711 0
-74 -627 -712 0
-74 -628 -713 0
-74 -629 -714 0
-74 -630 -715 0
-75 -626 -716 0
-75 -627 -717 0
-75 -628 -718 0
-75 -629 -719 0
-75 -630 -720 0
-76 -626 -721 0
-76 -627 -722 0
-76 -628 -723 0
-76 -629 -724 0
-76 -630 -725 0
-77 -626 -726 0
-77 -627 -727 0
-77 -628 -728 0
-77 -629 -729 0
-77 -630 -730 0
-78 -626 -731 0
-78 -627 -732 0
-78 -628 -733 0
-78 -629 -734 0
-78 -630 -735 0
-79 -626 -736 0
-79 -627 -737 0
-79 -628 -738 0
-79 -629 -739 0
-79 -630 -740 0
-80 -626 -741 0
-80 -627 -742 0
-80 -628 -743 0
-80 -629 -744 0
-80 -630 -745 0
-81 -626 -746 0
-81 -627 -747 0
-81 -628 -748 0
-81 -629 -749 0
-81 -630 -750 0
-82 -626 -751 0
-82 -627 -752 0
-82 -628 -753 0
-82 -629 -754 0
-82 -630 -755 0
-83 -626 -756 0
-83 -627 -757 0
-83 -628 -758 0
-83 -629 -759 0
-83 -630 -760 0
-84 -626 -761 0
-84 -627 -762 0
-84 -628 -763 0
-84 -629 -764 0
-84 -630 -765 0
-85 -631 -636 0
-85 -632 -637 0
-85 -633 -638 0
-85 -634 -639 0
-85 -635 -640 0
-86 -631 -641 0
-86 -632 -642 0
-86 -633 -643 0
-86 -634 -644 0
-86 -635 -645 0
-87 -631 -646 0
-87 -632 -647 0
-87 -633 -648 0
-87 -634 -649 0
-87 -635 -650 0
-88 -631 -651 0
-88 -632 -652 0
-88 -633 -653 0
-88 -634 -654 0
-88 -635 -655 0
-89 -631 -656 0
-89 -632 -657 0
-89 -633 -658 0
-89 -634 -659 0
-89 -635 -660 0
-90 -631 -661 0
-90 -632 -662 0
-90 -633 -663 0
-90 -634 -664 0
-90 -635 -665 0
-91 -631 -666 0
-91 -632 -667 0
-91 -633 -668 0
-91 -634 -669 0
-91 -635 -670 0
-92 -631 -671 0
-92 -632 -672 0
-92 -633 -673 0
-92 -634 -674 0
-92 -635 -675 0
-93 -631 -676 0
-93 -632 -677 0
-93 -633 -678 0
-93 -634 -679 0
-93 -635 -680 0
-94 -631 -681 0
-94 -632 -682 0
-94 -633 -683 0
-94 -634 -684 0
-94 -635 -685 0
-95 -631 -686 0
-95 -632 -687 0
-95 -633 -688 0
-95 -634 -689 0
-95 -635 -690 0
-96 -631 -691 0
-96 -632 -692 0
-96 -633 -693 0
-96 -634 -694 0
-96 -635 -695 0
-97 -631 -696 0
-97 -632 -697 0
-97 -633 -698 0
-97 -634 -699 0
-97 -635 -700 0
-98 -631 -701 0
-98 -632 -702 0
-98 -633 -703 0
-98 -634 -704 0
-98 -635 -705 0
-99 -631 -706 0
-99 -632 -707 0
-99 -633 -708 0
-99 -634 -709 0
-99 -635 -710 0
-100 -631 -711 0
-100 -632 -712 0
-100 -633 -713 0
-100 -634 -714 0
-100 -635 -715 0
-101 -631 -716 0
-101 -632 -717 0
-101 -633 -718 0
-101 -634 -719 0
-101 -635 -720 0
-102 -631 -721 0
-102 -632 -722 0
-102 -633 -723 0
-102 -634 -724 0
-102 -635 -725 0
-103 -631 -726 0
-103 -632 -727 0
-103 -633 -728 0
-103 -634 -729 0
-103 -635 -730 0
-104 -631 -731 0
-104 -632 -732 0
-104 -633 -733 0
-104 -634 -734 0
-104 -635 -735 0
-105 -631 -736 0
-105 -632 -737 0
-105 -633 -738 0
-105 -634 -739 0
-105 -635 -740 0
-106 -631 -741 0
-106 -632 -742 0
-106 -633 -743 0
-106 -634 -744 0
-106 -635 -745 0
-107 -631 -746 0
-107 -632 -747 0
-107 -633 -748 0
-107 -634 -749 0
-107 -635 -750 0
-108 -631 -751 0
-108 -632 -752 0
-108 -633 -753 0
-108 -634 -754 0
-108 -635 -755 0
-109 -631 -756 0
-109 -632 -757 0
-109 -633 -758 0
-109 -634 -759 0
-109 -635 -760 0
-110 -631 -761 0
-110 -632 -762 0
-110 -633 -763 0
-110 -634 -764 0
-110 -635 -765 0
-111 -636 -641 0
-111 -637 -642 0
-111 -638 -643 0
-111 -639 -644 0
-111 -640 -645 0
-112 -636 -646 0
-112 -637 -647 0
-112 -638 -648 0
-112 -639 -649 0
-112 -640 -650 0
-113 -636 -651 0
-113 -637 -652 0
-113 -638 -653 0
-113 -639 -654 0
-113 -640 -655 0
-114 -636 -656 0
-114 -637 -657 0
-114 -638 -658 0
-114 -639 -659 0
-114 -640 -660 0
-115 -636 -661 0
-115 -637 -662 0
-115 -638 -663 0
-115 -639 -664 0
-115 -640 -665 0
-116 -636 -666 0
-116 -637 -667 0
-116 -638 -668 0
-116 -639 -669 0
-116 -640 -670 0
-117 -636 -671 0
-117 -637 -672 0
-117 -638 -673 0
-117 -639 -674 0
-117 -640 -675 0
-118 -636 -676 0
-118 -637 -677 0
-118 -638 -678 0
-118 -639 -679 0
-118 -640 -680 0
-119 -636 -681 0
-119 -637 -682 0
-119 -638 -683 0
-119 -639 -684 0
-119 -640 -685 0
-120 -636 -686 0
-120 -637 -687 0
-120 -638 -688 0
-120 -639 -689 0
-120 -640 -690 0
-121 -636 -691 0
-121 -637 -692 0
-121 -638 -693 0
-121 -639 -694 0
-121 -640 -695 0
-122 -636 -696 0
-122 -637 -697 0
-122 -638 -698 0
-122 -639 -699 0
-122 -640 -700 0
-123 -636 -701 0
-123 -637 -702 0
-123 -638 -703 0
-123 -639 -704 0
-123 -640 -705 0
-124 -636 -706 0
-124 -637 -707 0
-124 -638 -708 0
-124 -639 -709 0
-124 -640 -710 0
-125 -636 -711 0
-125 -637 -712 0
-125 -638 -713 0
-125 -639 -714 0
-125 -640 -715 0
-126 -636 -716 0
-126 -637 -717 0
-126 -638 -718 0
-126 -639 -719 0
-126 -640 -720 0
-127 -636 -721 0
-127 -637 -722 0
-127 -638 -723 0
-127 -639 -724 0
-127 -640 -725 0
-128 -636 -726 0
-128 -637 -727 0
-128 -638 -728 0
-128 -639 -729 0
-128 -640 -730 0
-129 -636 -731 0
-129 -637 -732 0
-129 -638 -733 0
-129 -639 -734 0
-129 -640 -735 0
-130 -636 -736 0
-130 -637 -737 0
-130 -638 -738 0
-130 -639 -739 0
-130 -640 -740 0
-131 -636 -741 0
-131 -637 -742 0
-131 -638 -743 0
-131 -639 -744 0
-131 -640 -745 0
-132 -636 -746 0
-132 -637 -747 0
-132 -638 -748 0
-132 -639 -749 0
-132 -640 -750 0
-133 -636 -751 0
-133 -637 -752 0
-133 -638 -753 0
-133 -639 -754 0
-133 -640 -755 0
-134 -636 -756 0
-134 -637 -757 0
-134 -638 -758 0
-134 -639 -759 0
-134 -640 -760 0
-135 -636 -761 0
-135 -637 -762 0
-135 -638 -763 0
-135 -639 -764 0
-135 -640 -765 0
-136 -641 -646 0
-136 -642 -647 0
-136 -643 -648 0
-136 -644 -649 0
-136 -645 -650 0
-137 -641 -651 0
-137 -642 -652 0
-137 -643 -653 0
-137 -644 -654 0
-137 -645 -655 0
-138 -641 -656 0
-138 -642 -657 0
-138 -643 -658 0
-138 -644 -659 0
-138 -645 -660 0
-139 -641 -661 0
-139 -642 -662 0
-139 -643 -663 0
-139 -644 -664 0
-139 -645 -665 0
-140 -641 -666 0
-140 -642 -667 0
-140 -643 -668 0
-140 -644 -669 0
-140 -645 -670 0
-141 -641 -671 0
-141 -642 -672 0
-141 -643 -673 0
-141 -644 -674 0
-141 -645 -675 0
-142 -641 -676 0
-142 -642 -677 0
-142 -643 -678 0
-142 -644 -679 0
-142 -645 -680 0
-143 -641 -681 0
-143 -642 -682 0
-143 -643 -683 0
-143 -644 -684 0
-143 -645 -685 0
-144 -641 -686 0
-144 -642 -687 0
-144 -643 -688 0
-144 -644 -689 0
-144 -645 -690 0
-145 -641 -691 0
-145 -642 -692 0
-145 -643 -693 0
-145 -644 -694 0
-145 -645 -695 0
-146 -641 -696 0
-146 -642 -697 0
-146 -643 -698 0
-146 -644 -699 0
-146 -645 -700 0
-147 -641 -701 0
-147 -642 -702 0
-147 -643 -703 0
-147 -644 -704 0
-147 -645 -705 0
-148 -641 -706 0
-148 -642 -707 0
-148 -643 -708 0
-148 -644 -709 0
-148 -645 -710 0
-149 -641 -711 0
-149 -642 -712 0
-149 -643 -713 0
-149 -644 -714 0
-149 -645 -715 0
-150 -641 -716 0
-150 -642 -717 0
-150 -643 -718 0
-150 -644 -719 0
-150 -645 -720 0
-151 -641 -721 0
-151 -642 -722 0
-151 -643 -723 0
-151 -644 -724 0
-151 -645 -725 0
-152 -641 -726 0
-152 -642 -727 0
-152 -643 -728 0
-152 -644 -729 0
-152 -645 -730 0
-153 -641 -731 0
-153 -642 -732 0
-153 -643 -733 0
-153 -644 -734 0
-153 -645 -735 0
-154 -641 -736 0
-154 -642 -737 0
-154 -643 -738 0
-154 -644 -739 0
-154 -645 -740 0
-155 -641 -741 0
-155 -642 -742 0
-155 -643 -743 0
-155 -644 -744 0
-155 -645 -745 0
-156 -641 -746 0
-156 -642 -747 0
-156 -643 -748 0
-156 -644 -749 0
-156 -645 -750 0
-157 -641 -751 0
-157 -642 -752 0
-157 -643 -753 0
-157 -644 -754 0
-157 -645 -755 0
-158 -641 -756 0
-158 -642 -757 0
-158 -643 -758 0
-158 -644 -759 0
-158 -645 -760 0
-159 -641 -761 0
-159 -642 -762 0
-159 -643 -763 0
-159 -644 -764 0
-159 -645 -765 0
-160 -646 -651 0
-160 -647 -652 0
-160 -648 -653 0
-160 -649 -654 0
-160 -650 -655 0
-161 -646 -656 0
-161 -647 -657 0
-161 -648 -658 0
-161 -649 -659 0
-161 -650 -660 0
-162 -646 -661 0
-162 -647 -662 0
-162 -648 -663 0
-162 -649 -664 0
-162 -650 -665 0
-163 -646 -666 0
-163 -647 -667 0
-163 -648 -668 0
-163 -649 -669 0
-163 -650 -670 0
-164 -646 -671 0
-164 -647 -672 0
-164 -648 -673 0
-164 -649 -674 0
-164 -650 -675 0
-165 -646 -676 0
-165 -647 -677 0
-165 -648 -678 0
-165 -649 -679 0
-165 -650 -680 0
-166 -646 -681 0
-166 -647 -682 0
-166 -648 -683 0
-166 -649 -684 0
-166 -650 -685 0
-167 -646 -686 0
-167 -647 -687 0
-167 -648 -688 0
-167 -649 -689 0
-167 -650 -690 0
-168 -646 -691 0
-168 -647 -692 0
-168 -648 -693 0
-168 -649 -694 0
-168 -650 -695 0
-169 -646 -696 0
-169 -647 -697 0
-169 -648 -698 0
-169 -649 -699 0
-169 -650 -700 0
-170 -646 -701 0
-170 -647 -702 0
-170 -648 -703 0
-170 -649 -704 0
-170 -650 -705 0
-171 -646 -706 0
-171 -647 -707 0
-171 -648 -708 0
-171 -649 -709 0
-171 -650 -710 0
-172 -646 -711 0
-172 -647 -712 0
-172 -648 -713 0
-172 -649 -714 0
-172 -650 -715 0
-173 -646 -716 0
-173 -647 -717 0
-173 -648 -718 0
-173 -649 -719 0
-173 -650 -720 0
-174 -646 -721 0
-174 -647 -722 0
-174 -648 -723 0
-174 -649 -724 0
-174 -650 -725 0
-175 -646 -726 0
-175 -647 -727 0
-175 -648 -728 0
-175 -649 -729 0
-175 -650 -730 0
-176 -646 -731 0
-176 -647 -732 0
-176 -648 -733 0
-176 -649 -734 0
-176 -650 -735 0
-177 -646 -736 0
-177 -647 -737 0
-177 -648 -738 0
-177 -649 -739 0
-177 -650 -740 0
-178 -646 -741 0
-178 -647 -742 0
-178 -648 -743 0
-178 -649 -744 0
-178 -650 -745 0
-179 -646 -746 0
-179 -647 -747 0
-179 -648 -748 0
-179 -649 -749 0
-179 -650 -750 0
-180 -646 -751 0
-180 -647 -752 0
-180 -648 -753 0
-180 -649 -754 0
-180 -650 -755 0
-181 -646 -756 0
-181 -647 -757 0
-181 -648 -758 0
-181 -649 -759 0
-181 -650 -760 0
-182 -646 -761 0
-182 -647 -762 0
-182 -648 -763 0
-182 -649 -764 0
-182 -650 -765 0
-183 -651 -656 0
-183 -652 -657 0
-183 -653 -658 0
-183 -654 -659 0
-183 -655 -660 0
-184 -651 -661 0
-184 -652 -662 0
-184 -653 -663 0
-184 -654 -664 0
-184 -655 -665 0
-185 -651 -666 0
-185 -652 -667 0
-185 -653 -668 0
-185 -654 -669 0
-185 -655 -670 0
-186 -651 -671 0
-186 -652 -672 0
-186 -653 -673 0
-186 -654 -674 0
-186 -655 -675 0
-187 -651 -676 0
-187 -652 -677 0
-187 -653 -678 0
-187 -654 -679 0
-187 -655 -680 0
-188 -651 -681 0
-188 -652 -682 0
-188 -653 -683 0
-188 -654 -684 0
-188 -655 -685 0
-189 -651 -686 0
-189 -652 -687 0
-189 -653 -688 0
-189 -654 -689 0
-189 -655 -690 0
-190 -651 -691 0
-190 -652 -692 0
-190 -653 -693 0
-190 -654 -694 0
-190 -655 -695 0
-191 -651 -696 0
-191 -652 -697 0
-191 -653 -698 0
-191 -654 -699 0
-191 -655 -700 0
-192 -651 -701 0
-192 -652 -702 0
-192 -653 -703 0
-192 -654 -704 0
-192 -655 -705 0
-193 -651 -706 0
-193 -652 -707 0
-193 -653 -708 0
-193 -654 -709 0
-193 -655 -710 0
-194 -651 -711 0
-194 -652 -712 0
-194 -653 -713 0
-194 -654 -714 0
-194 -655 -715 0
-195 -651 -716 0
-195 -652 -717 0
-195 -653 -718 0
-195 -654 -719 0
-195 -655 -720 0
-196 -651 -721 0
-196 -652 -722 0
-196 -653 -723 0
-196 -654 -724 0
-196 -655 -725 0
-197 -651 -726 0
-197 -652 -727 0
-197 -653 -728 0
-197 -654 -729 0
-197 -655 -730 0
-198 -651 -731 0
-198 -652 -732 0
-198 -653 -733 0
-198 -654 -734 0
-198 -655 -735 0
-199 -651 -736 0
-199 -652 -737 0
-199 -653 -738 0
-199 -654 -739 0
-199 -655 -740 0
-200 -651 -741 0
-200 -652 -742 0
-200 -653 -743 0
-200 -654 -744 0
-200 -655 -745 0
-201 -651 -746 0
-201 -652 -747 0
-201 -653 -748 0
-201 -654 -749 0
-201 -655 -750 0
-202 -651 -751 0
-202 -652 -752 0
-202 -653 -753 0
-202 -654 -754 0
-202 -655 -755 0
-203 -651 -756 0
-203 -652 -757 0
-203 -653 -758 0
-203 -654 -759 0
-203 -655 -760 0
-204 -651 -761 0
-204 -652 -762 0
-204 -653 -763 0
-204 -654 -764 0
-204 -655 -765 0
-205 -656 -661 0
-205 -657 -662 0
-205 -658 -663 0
-205 -659 -664 0
-205 -660 -665 0
-206 -656 -666 0
-206 -657 -667 0
-206 -658 -668 0
-206 -659 -669 0
-206 -660 -670 0
-207 -656 -671 0
-207 -657 -672 0
-207 -658 -673 0
-207 -659 -674 0
-207 -660 -675 0
-208 -656 -676 0
-208 -657 -677 0
-208 -658 -678 0
-208 -659 -679 0
-208 -660 -680 0
-209 -656 -681 0
-209 -657 -682 0
-209 -658 -683 0
-209 -659 -684 0
-209 -660 -685 0
-210 -656 -686 0
-210 -657 -687 0
-210 -658 -688 0
-210 -659 -689 0
-210 -660 -690 0
-211 -656 -691 0
-211 -657 -692 0
-211 -658 -693 0
-211 -659 -694 0
-211 -660 -695 0
-212 -656 -696 0
-212 -657 -697 0
-212 -658 -698 0
-212 -659 -699 0
-212 -660 -700 0
-213 -656 -701 0
-213 -657 -702 0
-213 -658 -703 0
-213 -659 -704 0
-213 -660 -705 0
-214 -656 -706 0
-214 -657 -707 0
-214 -658 -708 0
-214 -659 -709 0
-214 -660 -710 0
-215 -656 -711 0
-215 -657 -712 0
-215 -658 -713 0
-215 -659 -714 0
-215 -660 -715 0
-216 -656 -716 0
-216 -657 -717 0
-216 -658 -718 0
-216 -659 -719 0
-216 -660 -720 0
-217 -656 -721 0
-217 -657 -722 0
-217 -658 -723 0
-217 -659 -724 0
-217 -660 -725 0
-218 -656 -726 0
-218 -657 -727 0
-218 -658 -728 0
-218 -659 -729 0
-218 -660 -730 0
-219 -656 -731 0
-219 -657 -732 0
-219 -658 -733 0
-219 -659 -734 0
-219 -660 -735 0
-220 -656 -736 0
-220 -657 -737 0
-220 -658 -738 0
-220 -659 -739 0
-220 -660 -740 0
-221 -656 -741 0
-221 -657 -742 0
-221 -658 -743 0
-221 -659 -744 0
-221 -660 -745 0
-222 -656 -746 0
-222 -657 -747 0
-222 -658 -748 0
-222 -659 -749 0
-222 -660 -750 0
-223 -656 -751 0
-223 -657 -752 0
-223 -658 -753 0
-223 -659 -754 0
-223 -660 -755 0
-224 -656 -756 0
-224 -657 -757 0
-224 -658 -758 0
-224 -659 -759 0
-224 -660 -760 0
-225 -656 -761 0
-225 -657 -762 0
-225 -658 -763 0
-225 -659 -764 0
-225 -660 -765 0
-226 -661 -666 0
-226 -662 -667 0
-226 -663 -668 0
-226 -664 -669 0
-226 -665 -670 0
-227 -661 -671 0
-227 -662 -672 0
-227 -663 -673 0
-227 -664 -674 0
-227 -665 -675 0
-228 -661 -676 0
-228 -662 -677 0
-228 -663 -678 0
-228 -664 -679 0
-228 -665 -680 0
-229 -661 -681 0
-229 -662 -682 0
-229 -663 -683 0
-229 -664 -684 0
-229 -665 -685 0
-230 -661 -686 0
-230 -662 -687 0
-230 -663 -688 0
-230 -664 -689 0
-230 -665 -690 0
-231 -661 -691 0
-231 -662 -692 0
-231 -663 -693 0
-231 -664 -694 0
-231 -665 -695 0
-232 -661 -696 0
-232 -662 -697 0
-232 -663 -698 0
-232 -664 -699 0
-232 -665 -700 0
-233 -661 -701 0
-233 -662 -702 0
-233 -663 -703 0
-233 -664 -704 0
-233 -665 -705 0
-234 -661 -706 0
-234 -662 -707 0
-234 -663 -708 0
-234 -664 -709 0
-234 -665 -710 0
-235 -661 -711 0
-235 -662 -712 0
-235 -663 -713 0
-235 -664 -714 0
-235 -665 -715 0
-236 -661 -716 0
-236 -662 -717 0
-236 -663 -718 0
-236 -664 -719 0
-236 -665 -720 0
-237 -661 -721 0
-237 -662 -722 0
-237 -663 -723 0
-237 -664 -724 0
-237 -665 -725 0
-238 -661 -726 0
-238 -662 -727 0
-238 -663 -728 0
-238 -664 -729 0
-238 -665 -730 0
-239 -661 -731 0
-239 -662 -732 0
-239 -663 -733 0
-239 -664 -734 0
-239 -665 -735 0
-240 -661 -736 0
-240 -662 -737 0
-240 -663 -738 0
-240 -664 -739 0
-240 -665 -740 0
-241 -661 -741 0
-241 -662 -742 0
-241 -663 -743 0
-241 -664 -744 0
-241 -665 -745 0
-242 -661 -746 0
-242 -662 -747 0
-242 -663 -748 0
-242 -664 -749 0
-242 -665 -750 0
-243 -661 -751 0
-243 -662 -752 0
-243 -663 -753 0
-243 -664 -754 0
-243 -665 -755 0
-244 -661 -756 0
-244 -662 -757 0
-244 -663 -758 0
-244 -664 -759 0
-244 -665 -760 0
-245 -661 -761 0
-245 -662 -762 0
-245 -663 -763 0
-245 -664 -764 0
-245 -665 -765 0
-246 -666 -671 0
-246 -667 -672 0
-246 -668 -673 0
-246 -669 -674 0
-246 -670 -675 0
-247 -666 -676 0
-247 -667 -677 0
-247 -668 -678 0
-247 -669 -679 0
-247 -670 -680 0
-248 -666 -681 0
-248 -667 -682 0
-248 -668 -683 0
-248 -669 -684 0
-248 -670 -685 0
-249 -666 -686 0
-249 -667 -687 0
-249 -668 -688 0
-249 -669 -689 0
-249 -670 -690 0
-250 -666 -691 0
-250 -667 -692 0
-250 -668 -693 0
-250 -669 -694 0
-250 -670 -695 0
-251 -666 -696 0
-251 -667 -697 0
-251 -668 -698 0
-251 -669 -699 0
-251 -670 -700 0
-252 -666 -701 0
-252 -667 -702 0
-252 -668 -703 0
-252 -669 -704 0
-252 -670 -705 0
-253 -666 -706 0
-253 -667 -707 0
-253 -668 -708 0
-253 -669 -709 0
-253 -670 -710 0
-254 -666 -711 0
-254 -667 -712 0
-254 -668 -713 0
-254 -669 -714 0
-254 -670 -715 0
-255 -666 -716 0
-255 -667 -717 0
-255 -668 -718 0
-255 -669 -719 0
-255 -670 -720 0
-256 -666 -721 0
-256 -667 -722 0
-256 -668 -723 0
-256 -669 -724 0
-256 -670 -725 0
-257 -666 -726 0
-257 -667 -727 0
-257 -668 -728 0
-257 -669 -729 0
-257 -670 -730 0
-258 -666 -731 0
-258 -667 -732 0
-258 -668 -733 0
-258 -669 -734 0
-258 -670 -735 0
-259 -666 -736 0
-259 -667 -737 0
-259 -668 -738 0
-259 -669 -739 0
-259 -670 -740 0
-260 -666 -741 0
-260 -667 -742 0
-260 -668 -743 0
-260 -669 -744 0
-260 -670 -745 0
-261 -666 -746 0
-261 -667 -747 0
-261 -668 -748 0
-261 -669 -749 0
-261 -670 -750 0
-262 -666 -751 0
-262 -667 -752 0
-262 -668 -753 0
-262 -669 -754 0
-262 -670 -755 0
-263 -666 -756 0
-263 -667 -757 0
-263 -668 -758 0
-263 -669 -759 0
-263 -670 -760 0
-264 -666 -761 0
-264 -667 -762 0
-264 -668 -763 0
-264 -669 -764 0
-264 -670 -765 0
-265 -671 -676 0
-265 -672 -677 0
-265 -673 -678 0
-265 -674 -679 0
-265 -675 -680 0
-266 -671 -681 0
-266 -672 -682 0
-266 -673 -683 0
-266 -674 -684 0
-266 -675 -685 0
-267 -671 -686 0
-267 -672 -687 0
-267 -673 -688 0
-267 -674 -689 0
-267 -675 -690 0
-268 -671 -691 0
-268 -672 -692 0
-268 -673 -693 0
-268 -674 -694 0
-268 -675 -695 0
-269 -671 -696 0
-269 -672 -697 0
-269 -673 -698 0
-269 -674 -699 0
-269 -675 -700 0
-270 -671 -701 0
-270 -672 -702 0
-270 -673 -703 0
-270 -674 -704 0
-270 -675 -705 0
-271 -671 -706 0
-271 -672 -707 0
-271 -673 -708 0
-271 -674 -709 0
-271 -675 -710 0
-272 -671 -711 0
-272 -672 -712 0
-272 -673 -713 0
-272 -674 -714 0
-272 -675 -715 0
-273 -671 -716 0
-273 -672 -717 0
-273 -673 -718 0
-273 -674 -719 0
-273 -675 -720 0
-274 -671 -721 0
-274 -672 -722 0
-274 -673 -723 0
-274 -674 -724 0
-274 -675 -725 0
-275 -671 -726 0
-275 -672 -727 0
-275 -673 -728 0
-275 -674 -729 0
-275 -675 -730 0
-276 -671 -731 0
-276 -672 -732 0
-276 -673 -733 0
-276 -674 -734 0
-276 -675 -735 0
-277 -671 -736 0
-277 -672 -737 0
-277 -673 -738 0
-277 -674 -739 0
-277 -675 -740 0
-278 -671 -741 0
-278 -672 -742 0
-278 -673 -743 0
-278 -674 -744 0
-278 -675 -745 0
-279 -671 -746 0
-279 -672 -747 0
-279 -673 -748 0
-279 -674 -749 0
-279 -675 -750 0
-280 -671 -751 0
-280 -672 -752 0
-280 -673 -753 0
-280 -674 -754 0
-280 -675 -755 0
-281 -671 -756 0
-281 -672 -757 0
-281 -673 -758 0
-281 -674 -759 0
-281 -675 -760 0
-282 -671 -761 0
-282 -672 -762 0
-282 -673 -763 0
-282 -674 -764 0
-282 -675 -765 0
-283 -676 -681 0
-283 -677 -682 0
-283 -678 -683 0
-283 -679 -684 0
-283 -680 -685 0
-284 -676 -686 0
-284 -677 -687 0
-284 -678 -688 0
-284 -679 -689 0
-284 -680 -690 0
-285 -676 -691 0
-285 -677 -692 0
-285 -678 -693 0
-285 -679 -694 0
-285 -680 -695 0
-286 -676 -696 0
-286 -677 -697 0
-286 -678 -698 0
-286 -679 -699 0
-286 -680 -700 0
-287 -676 -701 0
-287 -677 -702 0
-287 -678 -703 0
-287 -679 -704 0
-287 -680 -705 0
-288 -676 -706 0
-288 -677 -707 0
-288 -678 -708 0
-288 -679 -709 0
-288 -680 -710 0
-289 -676 -711 0
-289 -677 -712 0
-289 -678 -713 0
-289 -679 -714 0
-289 -680 -715 0
-290 -676 -716 0
-290 -677 -717 0
-290 -678 -718 0
-290 -679 -719 0
-290 -680 -720 0
-291 -676 -721 0
-291 -677 -722 0
-291 -678 -723 0
-291 -679 -724 0
-291 -680 -725 0
-292 -676 -726 0
-292 -677 -727 0
-292 -678 -728 0
-292 -679 -729 0
-292 -680 -730 0
-293 -676 -731 0
-293 -677 -732 0
-293 -678 -733 0
-293 -679 -734 0
-293 -680 -735 0
-294 -676 -736 0
-294 -677 -737 0
-294 -678 -738 0
-294 -679 -739 0
-294 -680 -740 0
-295 -676 -741 0
-295 -677 -742 0
-295 -678 -743 0
-295 -679 -744 0
-295 -680 -745 0
-296 -676 -746 0
-296 -677 -747 0
-296 -678 -748 0
-296 -679 -749 0
-296 -680 -750 0
-297 -676 -751 0
-297 -677 -752 0
-297 -678 -753 0
-297 -679 -754 0
-297 -680 -755 0
-298 -676 -756 0
-298 -677 -757 0
-298 -678 -758 0
-298 -679 -759 0
-298 -680 -760 0
-299 -676 -761 0
-299 -677 -762 0
-299 -678 -763 0
-299 -679 -764 0
-299 -680 -765 0
-300 -681 -686 0
-300 -682 -687 0
-300 -683 -688 0
-300 -684 -689 0
-300 -685 -690 0
-301 -681 -691 0
-301 -682 -692 0
-301 -683 -693 0
-301 -684 -694 0
-301 -685 -695 0
-302 -681 -696 0
-302 -682 -697 0
-302 -683 -698 0
-302 -684 -699 0
-302 -685 -700 0
-303 -681 -701 0
-303 -682 -702 0
-303 -683 -703 0
-303 -684 -704 0
-303 -685 -705 0
-304 -681 -706 0
-304 -682 -707 0
-304 -683 -708 0
-304 -684 -709 0
-304 -685 -710 0
-305 -681 -711 0
-305 -682 -712 0
-305 -683 -713 0
-305 -684 -714 0
-305 -685 -715 0
-306 -681 -716 0
-306 -682 -717 0
-306 -683 -718 0
-306 -684 -719 0
-306 -685 -720 0
-307 -681 -721 0
-307 -682 -722 0
-307 -683 -723 0
-307 -684 -724 0
-307 -685 -725 0
-308 -681 -726 0
-308 -682 -727 0
-308 -683 -728 0
-308 -684 -729 0
-308 -685 -730 0
-309 -681 -731 0
-309 -682 -732 0
-309 -683 -733 0
-309 -684 -734 0
-309 -685 -735 0
-310 -681 -736 0
-310 -682 -737 0
-310 -683 -738 0
-310 -684 -739 0
-310 -685 -740 0
-311 -681 -741 0
-311 -682 -742 0
-311 -683 -743 0
-311 -684 -744 0
-311 -685 -745 0
-312 -681 -746 0
-312 -682 -747 0
-312 -683 -748 0
-312 -684 -749 0
-312 -685 -750 0
-313 -681 -751 0
-313 -682 -752 0
-313 -683 -753 0
-313 -684 -754 0
-313 -685 -755 0
-314 -681 -756 0
-314 -682 -757 0
-314 -683 -758 0
-314 -684 -759 0
-314 -685 -760 0
-315 -681 -761 0
-315 -682 -762 0
-315 -683 -763 0
-315 -684 -764 0
-315 -685 -765 0
-316 -686 -691 0
-316 -687 -692 0
-316 -688 -693 0
-316 -689 -694 0
-316 -690 -695 0
-317 -686 -696 0
-317 -687 -697 0
-317 -688 -698 0
-317 -689 -699 0
-317 -690 -700 0
-318 -686 -701 0
-318 -687 -702 0
-318 -688 -703 0
-318 -689 -704 0
-318 -690 -705 0
-319 -686 -706 0
-319 -687 -707 0
-319 -688 -708 0
-319 -689 -709 0
-319 -690 -710 0
-320 -686 -711 0
-320 -687 -712 0
-320 -688 -713 0
-320 -689 -714 0
-320 -690 -715 0
-321 -686 -716 0
-321 -687 -717 0
-321 -688 -718 0
-321 -689 -719 0
-321 -690 -720 0
-322 -686 -721 0
-322 -687 -722 0
-322 -688 -723 0
-322 -689 -724 0
-322 -690 -725 0
-323 -686 -726 0
-323 -687 -727 0
-323 -688 -728 0
-323 -689 -729 0
-323 -690 -730 0
-324 -686 -731 0
-324 -687 -732 0
-324 -688 -733 0
-324 -689 -734 0
-324 -690 -735 0
-325 -686 -736 0
-325 -687 -737 0
-325 -688 -738 0
-325 -689 -739 0
-325 -690 -740 0
-326 -686 -741 0
-326 -687 -742 0
-326 -688 -743 0
-326 -689 -744 0
-326 -690 -745 0
-327 -686 -746 0
-327 -687 -747 0
-327 -688 -748 0
-327 -689 -749 0
-327 -690 -750 0
-328 -686 -751 0
-328 -687 -752 0
-328 -688 -753 0
-328 -689 -754 0
-328 -690 -755 0
-329 -686 -756 0
-329 -687 -757 0
-329 -688 -758 0
-329 -689 -759 0
-329 -690 -760 0
-330 -686 -761 0
-330 -687 -762 0
-330 -688 -763 0
-330 -689 -764 0
-330 -690 -765 0
-331 -691 -696 0
-331 -692 -697 0
-331 -693 -698 0
-331 -694 -699 0
-331 -695 -700 0
-332 -691 -701 0
-332 -692 -702 0
-332 -693 -703 0
-332 -694 -704 0
-332 -695 -705 0
-333 -691 -706 0
-333 -692 -707 0
-333 -693 -708 0
-333 -694 -709 0
-333 -695 -710 0
-334 -691 -711 0
-334 -692 -712 0
-334 -693 -713 0
-334 -694 -714 0
-334 -695 -715 0
-335 -691 -716 0
-335 -692 -717 0
-335 -693 -718 0
-335 -694 -719 0
-335 -695 -720 0
-336 -691 -721 0
-336 -692 -722 0
-336 -693 -723 0
-336 -694 -724 0
-336 -695 -725 0
-337 -691 -726 0
-337 -692 -727 0
-337 -693 -728 0
-337 -694 -729 0
-337 -695 -730 0
-338 -691 -731 0
-338 -692 -732 0
-338 -693 -733 0
-338 -694 -734 0
-338 -695 -735 0
-339 -691 -736 0
-339 -692 -737 0
-339 -693 -738 0
-339 -694 -739 0
-339 -695 -740 0
-340 -691 -741 0
-340 -692 -742 0
-340 -693 -743 0
-340 -694 -744 0
-340 -695 -745 0
-341 -691 -746 0
-341 -692 -747 0
-341 -693 -748 0
-341 -694 -749 0
-341 -695 -750 0
-342 -691 -751 0
-342 -692 -752 0
-342 -693 -753 0
-342 -694 -754 0
-342 -695 -755 0
-343 -691 -756 0
-343 -692 -757 0
-343 -693 -758 0
-343 -694 -759 0
-343 -695 -760 0
-344 -691 -761 0
-344 -692 -762 0
-344 -693 -763 0
-344 -694 -764 0
-344 -695 -765 0
-345 -696 -701 0
-345 -697 -702 0
-345 -698 -703 0
-345 -699 -704 0
-345 -700 -705 0
-346 -696 -706 0
-346 -697 -707 0
-346 -698 -708 0
-346 -699 -709 0
-346 -700 -710 0
-347 -696 -711 0
-347 -697 -712 0
-347 -698 -713 0
-347 -699 -714 0
-347 -700 -715 0
-348 -696 -716 0
-348 -697 -717 0
-348 -698 -718 0
-348 -699 -719 0
-348 -700 -720 0
-349 -696 -721 0
-349 -697 -722 0
-349 -698 -723 0
-349 -699 -724 0
-349 -700 -725 0
-350 -696 -726 0
-350 -697 -727 0
-350 -698 -728 0
-350 -699 -729 0
-350 -700 -730 0
-351 -696 -731 0
-351 -697 -732 0
-351 -698 -733 0
-351 -699 -734 0
-351 -700 -735 0
-352 -696 -736 0
-352 -697 -737 0
-352 -698 -738 0
-352 -699 -739 0
-352 -700 -740 0
-353 -696 -741 0
-353 -697 -742 0
-353 -698 -743 0
-353 -699 -744 0
-353 -700 -745 0
-354 -696 -746 0
-354 -697 -747 0
-354 -698 -748 0
-354 -699 -749 0
-354 -700 -750 0
-355 -696 -751 0
-355 -697 -752 0
-355 -698 -753 0
-355 -699 -754 0
-355 -700 -755 0
-356 -696 -756 0
-356 -697 -757 0
-356 -698 -758 0
-356 -699 -759 0
-356 -700 -760 0
-357 -696 -761 0
-357 -697 -762 0
-357 -698 -763 0
-357 -699 -764 0
-357 -700 -765 0
-358 -701 -706 0
-358 -702 -707 0
-358 -703 -708 0
-358 -704 -709 0
-358 -705 -710 0
-359 -701 -711 0
-359 -702 -712 0
-359 -703 -713 0
-359 -704 -714 0
-359 -705 -715 0
-360 -701 -716 0
-360 -702 -717 0
-360 -703 -718 0
-360 -704 -719 0
-360 -705 -720 0
-361 -701 -721 0
-361 -702 -722 0
-361 -703 -723 0
-361 -704 -724 0
-361 -705 -725 0
-362 -701 -726 0
-362 -702 -727 0
-362 -703 -728 0
-362 -704 -729 0
-362 -705 -730 0
-363 -701 -731 0
-363 -702 -732 0
-363 -703 -733 0
-363 -704 -734 0
-363 -705 -735 0
-364 -701 -736 0
-364 -702 -737 0
-364 -703 -738 0
-364 -704 -739 0
-364 -705 -740 0
-365 -701 -741 0
-365 -702 -742 0
-365 -703 -743 0
-365 -704 -744 0
-365 -705 -745 0
-366 -701 -746 0
-366 -702 -747 0
-366 -703 -748 0
-366 -704 -749 0
-366 -705 -750 0
-367 -701 -751 0
-367 -702 -752 0
-367 -703 -753 0
-367 -704 -754 0
-367 -705 -755 0
-368 -701 -756 0
-368 -702 -757 0
-368 -703 -758 0
-368 -704 -759 0
-368 -705 -760 0
-369 -701 -761 0
-369 -702 -762 0
-369 -703 -763 0
-369 -704 -764 0
-369 -705 -765 0
-370 -706 -711 0
-370 -707 -712 0
-370 -708 -713 0
-370 -709 -714 0
-370 -710 -715 0
-371 -706 -716 0
-371 -707 -717 0
-371 -708 -718 0
-371 -709 -719 0
-371 -710 -720 0
-372 -706 -721 0
-372 -707 -722 0
-372 -708 -723 0
-372 -709 -724 0
-372 -710 -725 0
-373 -706 -726 0
-373 -707 -727 0
-373 -708 -728 0
-373 -709 -729 0
-373 -710 -730 0
-374 -706 -731 0
-374 -707 -732 0
-374 -708 -733 0
-374 -709 -734 0
-374 -710 -735 0
-375 -706 -736 0
-375 -707 -737 0
-375 -708 -738 0
-375 -709 -739 0
-375 -710 -740 0
-376 -706 -741 0
-376 -707 -742 0
-376 -708 -743 0
-376 -709 -744 0
-376 -710 -745 0
-377 -706 -746 0
-377 -707 -747 0
-377 -708 -748 0
-377 -709 -749 0
-377 -710 -750 0
-378 -706 -751 0
-378 -707 -752 0
-378 -708 -753 0
-378 -709 -754 0
-378 -710 -755 0
-379 -706 -756 0
-379 -707 -757 0
-379 -708 -758 0
-379 -709 -759 0
-379 -710 -760 0
-380 -706 -761 0
-380 -707 -762 0
-380 -708 -763 0
-380 -709 -764 0
-380 -710 -765 0
-381 -711 -716 0
-381 -712 -717 0
-381 -713 -718 0
-381 -714 -719 0
-381 -715 -720 0
-382 -711 -721 0
-382 -712 -722 0
-382 -713 -723 0
-382 -714 -724 0
-382 -715 -725 0
-383 -711 -726 0
-383 -712 -727 0
-383 -713 -728 0
-383 -714 -729 0
-383 -715 -730 0
-384 -711 -731 0
-384 -712 -732 0
-384 -713 -733 0
-384 -714 -734 0
-384 -715 -735 0
-385 -711 -736 0
-385 -712 -737 0
-385 -713 -738 0
-385 -714 -739 0
-385 -715 -740 0
-386 -711 -741 0
-386 -712 -742 0
-386 -713 -743 0
-386 -714 -744 0
-386 -715 -745 0
-387 -711 -746 0
-387 -712 -747 0
-387 -713 -748 0
-387 -714 -749 0
-387 -715 -750 0
-388 -711 -751 0
-388 -712 -752 0
-388 -713 -753 0
-388 -714 -754 0
-388 -715 -755 0
-389 -711 -756 0
-389 -712 -757 0
-389 -713 -758 0
-389 -714 -759 0
-389 -715 -760 0
-390 -711 -761 0
-390 -712 -762 0
-390 -713 -763 0
-390 -714 -764 0
-390 -715 -765 0
-391 -716 -721 0
-391 -717 -722 0
-391 -718 -723 0
-391 -719 -724 0
-391 -720 -725 0
-392 -716 -726 0
-392 -717 -727 0
-392 -718 -728 0
-392 -719 -729 0
-392 -720 -730 0
-393 -716 -731 0
-393 -717 -732 0
-393 -718 -733 0
-393 -719 -734 0
-393 -720 -735 0
-394 -716 -736 0
-394 -717 -737 0
-394 -718 -738 0
-394 -719 -739 0
-394 -720 -740 0
-395 -716 -741 0
-395 -717 -742 0
-395 -718 -743 0
-395 -719 -744 0
-395 -720 -745 0
-396 -716 -746 0
-396 -717 -747 0
-396 -718 -748 0
-396 -719 -749 0
-396 -720 -750 0
-397 -716 -751 0
-397 -717 -752 0
-397 -718 -753 0
-397 -719 -754 0
-397 -720 -755 0
-398 -716 -756 0
-398 -717 -757 0
-398 -718 -758 0
-398 -719 -759 0
-398 -720 -760 0
-399 -716 -761 0
-399 -717 -762 0
-399 -718 -763 0
-399 -719 -764 0
-399 -720 -765 0
-400 -721 -726 0
-400 -722 -727 0
-400 -723 -728 0
-400 -724 -729 0
-400 -725 -730 0
-401 -721 -731 0
-401 -722 -732 0
-401 -723 -733 0
-401 -724 -734 0
-401 -725 -735 0
-402 -721 -736 0
-402 -722 -737 0
-402 -723 -738 0
-402 -724 -739 0
-402 -725 -740 0
-403 -721 -741 0
-403 -722 -742 0
-403 -723 -743 0
-403 -724 -744 0
-403 -725 -745 0
-404 -721 -746 0
-404 -722 -747 0
-404 -723 -748 0
-404 -724 -749 0
-404 -725 -750 0
-405 -721 -751 0
-405 -722 -752 0
-405 -723 -753 0
-405 -724 -754 0
-405 -725 -755 0
-406 -721 -756 0
-406 -722 -757 0
-406 -723 -758 0
-406 -724 -759 0
-406 -725 -760 0
-407 -721 -761 0
-407 -722 -762 0
-407 -723 -763 0
-407 -724 -764 0
-407 -725 -765 0
-408 -726 -731 0
-408 -727 -732 0
-408 -728 -733 0
-408 -729 -734 0
-408 -730 -735 0
-409 -726 -736 0
-409 -727 -737 0
-409 -728 -738 0
-409 -729 -739 0
-409 -730 -740 0
-410 -726 -741 0
-410 -727 -742 0
-410 -728 -743 0
-410 -729 -744 0
-410 -730 -745 0
-411 -726 -746 0
-411 -727 -747 0
-411 -728 -748 0
-411 -729 -749 0
-411 -730 -750 0
-412 -726 -751 0
-412 -727 -752 0
-412 -728 -753 0
-412 -729 -754 0
-412 -730 -755 0
-413 -726 -756 0
-413 -727 -757 0
-413 -728 -758 0
-413 -729 -759 0
-413 -730 -760 0
-414 -726 -761 0
-414 -727 -762 0
-414 -728 -763 0
-414 -729 -764 0
-414 -730 -765 0
-415 -731 -736 0
-415 -732 -737 0
-415 -733 -738 0
-415 -734 -739 0
-415 -735 -740 0
-416 -731 -741 0
-416 -732 -742 0
-416 -733 -743 0
-416 -734 -744 0
-416 -735 -745 0
-417 -731 -746 0
-417 -732 -747 0
-417 -733 -748 0
-417 -734 -749 0
-417 -735 -750 0
-418 -731 -751 0
-418 -732 -752 0
-418 -733 -753 0
-418 -734 -754 0
-418 -735 -755 0
-419 -731 -756 0
-419 -732 -757 0
-419 -733 -758 0
-419 -734 -759 0
-419 -735 -760 0
-420 -731 -761 0
-420 -732 -762 0
-420 -733 -763 0
-420 -734 -764 0
-420 -735 -765 0
-421 -736 -741 0
-421 -737 -742 0
-421 -738 -743 0
-421 -739 -744 0
-421 -740 -745 0
-422 -736 -746 0
-422 -737 -747 0
-422 -738 -748 0
-422 -739 -749 0
-422 -740 -750 0
-423 -736 -751 0
-423 -737 -752 0
-423 -738 -753 0
-423 -739 -754 0
-423 -740 -755 0
-424 -736 -756 0
-424 -737 -757 0
-424 -738 -758 0
-424 -739 -759 0
-424 -740 -760 0
-425 -736 -761 0
-425 -737 -762 0
-425 -738 -763 0
-425 -739 -764 0
-425 -740 -765 0
-426 -741 -746 0
-426 -742 -747 0
-426 -743 -748 0
-426 -744 -749 0
-426 -745 -750 0
-427 -741 -751 0
-427 -742 -752 0
-427 -743 -753 0
-427 -744 -754 0
-427 -745 -755 0
-428 -741 -756 0
-428 -742 -757 0
-428 -743 -758 0
-428 -744 -759 0
-428 -745 -760 0
-429 -741 -761 0
-429 -742 -762 0
-429 -743 -763 0
-429 -744 -764 0
-429 -745 -765 0
-430 -746 -751 0
-430 -747 -752 0
-430 -748 -753 0
-430 -749 -754 0
-430 -750 -755 0
-431 -746 -756 0
-431 -747 -757 0
-431 -748 -758 0
-431 -749 -759 0
-431 -750 -760 0
-432 -746 -761 0
-432 -747 -762 0
-432 -748 -763 0
-432 -749 -764 0
-432 -750 -765 0
-433 -751 -756 0
-433 -752 -757 0
-433 -753 -758 0
-433 -754 -759 0
-433 -755 -760 0
-434 -751 -761 0
-434 -752 -762 0
-434 -753 -763 0
-434 -754 -764 0
-434 -755 -765 0
-435 -756 -761 0
-435 -757 -762 0
-435 -758 -763 0
-435 -759 -764 0
-435 -760 -765 0
