c F5 clique-colouring cnfgen CliqueColoring(20,5,4)
p cnf 370 5855
191 192 193 194 195 196 197 198 199 200 201 202 203 204 205 206 207 208 209 210 0
211 212 213 214 215 216 217 218 219 220 221 222 223 224 225 226 227 228 229 230 0
231 232 233 234 235 236 237 238 239 240 241 242 243 244 245 246 247 248 249 250 0
251 252 253 254 255 256 257 258 259 260 261 262 263 264 265 266 267 268 269 270 0
271 272 273 274 275 276 277 278 279 280 281 282 283 284 285 286 287 288 289 290 0
-191 -192 0
-191 -193 0
-191 -194 0
-191 -195 0
-191 -196 0
-191 -197 0
-191 -198 0
-191 -199 0
-191 -200 0
-191 -201 0
-191 -202 0
-191 -203 0
-191 -204 0
-191 -205 0
-191 -206 0
-191 -207 0
-191 -208 0
-191 -209 0
-191 -210 0
-192 -193 0
-192 -194 0
-192 -195 0
-192 -196 0
-192 -197 0
-192 -198 0
-192 -199 0
-192 -200 0
-192 -201 0
-192 -202 0
-192 -203 0
-192 -204 0
-192 -205 0
-192 -206 0
-192 -207 0
-192 -208 0
-192 -209 0
-192 -210 0
-193 -194 0
-193 -195 0
-193 -196 0
-193 -197 0
-193 -198 0
-193 -199 0
-193 -200 0
-193 -201 0
-193 -202 0
-193 -203 0
-193 -204 0
-193 -205 0
-193 -206 0
-193 -207 0
-193 -208 0
-193 -209 0
-193 -210 0
-194 -195 0
-194 -196 0
-194 -197 0
-194 -198 0
-194 -199 0
-194 -200 0
-194 -201 0
-194 -202 0
-194 -203 0
-194 -204 0
-194 -205 0
-194 -206 0
-194 -207 0
-194 -208 0
-194 -209 0
-194 -210 0
-195 -196 0
-195 -197 0
-195 -198 0
-195 -199 0
-195 -200 0
-195 -201 0
-195 -202 0
-195 -203 0
-195 -204 0
-195 -205 0
-195 -206 0
-195 -207 0
-195 -208 0
-195 -209 0
-195 -210 0
-196 -197 0
-196 -198 0
-196 -199 0
-196 -200 0
-196 -201 0
-196 -202 0
-196 -203 0
-196 -204 0
-196 -205 0
-196 -206 0
-196 -207 0
-196 -208 0
-196 -209 0
-196 -210 0
-197 -198 0
-197 -199 0
-197 -200 0
-197 -201 0
-197 -202 0
-197 -203 0
-197 -204 0
-197 -205 0
-197 -206 0
-197 -207 0
-197 -208 0
-197 -209 0
-197 -210 0
-198 -199 0
-198 -200 0
-198 -201 0
-198 -202 0
-198 -203 0
-198 -204 0
-198 -205 0
-198 -206 0
-198 -207 0
-198 -208 0
-198 -209 0
-198 -210 0
-199 -200 0
-199 -201 0
-199 -202 0
-199 -203 0
-199 -204 0
-199 -205 0
-199 -206 0
-199 -207 0
-199 -208 0
-199 -209 0
-199 -210 0
-200 -201 0
-200 -202 0
-200 -203 0
-200 -204 0
-200 -205 0
-200 -206 0
-200 -207 0
-200 -208 0
-200 -209 0
-200 -210 0
-201 -202 0
-201 -203 0
-201 -204 0
-201 -205 0
-201 -206 0
-201 -207 0
-201 -208 0
-201 -209 0
-201 -210 0
-202 -203 0
-202 -204 0
-202 -205 0
-202 -206 0
-202 -207 0
-202 -208 0
-202 -209 0
-202 -210 0
-203 -204 0
-203 -205 0
-203 -206 0
-203 -207 0
-203 -208 0
-203 -209 0
-203 -210 0
-204 -205 0
-204 -206 0
-204 -207 0
-204 -208 0
-204 -209 0
-204 -210 0
-205 -206 0
-205 -207 0
-205 -208 0
-205 -209 0
-205 -210 0
-206 -207 0
-206 -208 0
-206 -209 0
-206 -210 0
-207 -208 0
-207 -209 0
-207 -210 0
-208 -209 0
-208 -210 0
-209 -210 0
-211 -212 0
-211 -213 0
-211 -214 0
-211 -215 0
-211 -216 0
-211 -217 0
-211 -218 0
-211 -219 0
-211 -220 0
-211 -221 0
-211 -222 0
-211 -223 0
-211 -224 0
-211 -225 0
-211 -226 0
-211 -227 0
-211 -228 0
-211 -229 0
-211 -230 0
-212 -213 0
-212 -214 0
-212 -215 0
-212 -216 0
-212 -217 0
-212 -218 0
-212 -219 0
-212 -220 0
-212 -221 0
-212 -222 0
-212 -223 0
-212 -224 0
-212 -225 0
-212 -226 0
-212 -227 0
-212 -228 0
-212 -229 0
-212 -230 0
-213 -214 0
-213 -215 0
-213 -216 0
-213 -217 0
-213 -218 0
-213 -219 0
-213 -220 0
-213 -221 0
-213 -222 0
-213 -223 0
-213 -224 0
-213 -225 0
-213 -226 0
-213 -227 0
-213 -228 0
-213 -229 0
-213 -230 0
-214 -215 0
-214 -216 0
-214 -217 0
-214 -218 0
-214 -219 0
-214 -220 0
-214 -221 0
-214 -222 0
-214 -223 0
-214 -224 0
-214 -225 0
-214 -226 0
-214 -227 0
-214 -228 0
-214 -229 0
-214 -230 0
-215 -216 0
-215 -217 0
-215 -218 0
-215 -219 0
-215 -220 0
-215 -221 0
-215 -222 0
-215 -223 0
-215 -224 0
-215 -225 0
-215 -226 0
-215 -227 0
-215 -228 0
-215 -229 0
-215 -230 0
-216 -217 0
-216 -218 0
-216 -219 0
-216 -220 0
-216 -221 0
-216 -222 0
-216 -223 0
-216 -224 0
-216 -225 0
-216 -226 0
-216 -227 0
-216 -228 0
-216 -229 0
-216 -230 0
-217 -218 0
-217 -219 0
-217 -220 0
-217 -221 0
-217 -222 0
-217 -223 0
-217 -224 0
-217 -225 0
-217 -226 0
-217 -227 0
-217 -228 0
-217 -229 0
-217 -230 0
-218 -219 0
-218 -220 0
-218 -221 0
-218 -222 0
-218 -223 0
-218 -224 0
-218 -225 0
-218 -226 0
-218 -227 0
-218 -228 0
-218 -229 0
-218 -230 0
-219 -220 0
-219 -221 0
-219 -222 0
-219 -223 0
-219 -224 0
-219 -225 0
-219 -226 0
-219 -227 0
-219 -228 0
-219 -229 0
-219 -230 0
-220 -221 0
-220 -222 0
-220 -223 0
-220 -224 0
-220 -225 0
-220 -226 0
-220 -227 0
-220 -228 0
-220 -229 0
-220 -230 0
-221 -222 0
-221 -223 0
-221 -224 0
-221 -225 0
-221 -226 0
-221 -227 0
-221 -228 0
-221 -229 0
-221 -230 0
-222 -223 0
-222 -224 0
-222 -225 0
-222 -226 0
-222 -227 0
-222 -228 0
-222 -229 0
-222 -230 0
-223 -224 0
-223 -225 0
-223 -226 0
-223 -227 0
-223 -228 0
-223 -229 0
-223 -230 0
-224 -225 0
-224 -226 0
-224 -227 0
-224 -228 0
-224 -229 0
-224 -230 0
-225 -226 0
-225 -227 0
-225 -228 0
-225 -229 0
-225 -230 0
-226 -227 0
-226 -228 0
-226 -229 0
-226 -230 0
-227 -228 0
-227 -229 0
-227 -230 0
-228 -229 0
-228 -230 0
-229 -230 0
-231 -232 0
-231 -233 0
-231 -234 0
-231 -235 0
-231 -236 0
-231 -237 0
-231 -238 0
-231 -239 0
-231 -240 0
-231 -241 0
-231 -242 0
-231 -243 0
-231 -244 0
-231 -245 0
-231 -246 0
-231 -247 0
-231 -248 0
-231 -249 0
-231 -250 0
-232 -233 0
-232 -234 0
-232 -235 0
-232 -236 0
-232 -237 0
-232 -238 0
-232 -239 0
-232 -240 0
-232 -241 0
-232 -242 0
-232 -243 0
-232 -244 0
-232 -245 0
-232 -246 0
-232 -247 0
-232 -248 0
-232 -249 0
-232 -250 0
-233 -234 0
-233 -235 0
-233 -236 0
-233 -237 0
-233 -238 0
-233 -239 0
-233 -240 0
-233 -241 0
-233 -242 0
-233 -243 0
-233 -244 0
-233 -245 0
-233 -246 0
-233 -247 0
-233 -248 0
-233 -249 0
-233 -250 0
-234 -235 0
-234 -236 0
-234 -237 0
-234 -238 0
-234 -239 0
-234 -240 0
-234 -241 0
-234 -242 0
-234 -243 0
-234 -244 0
-234 -245 0
-234 -246 0
-234 -247 0
-234 -248 0
-234 -249 0
-234 -250 0
-235 -236 0
-235 -237 0
-235 -238 0
-235 -239 0
-235 -240 0
-235 -241 0
-235 -242 0
-235 -243 0
-235 -244 0
-235 -245 0
-235 -246 0
-235 -247 0
-235 -248 0
-235 -249 0
-235 -250 0
-236 -237 0
-236 -238 0
-236 -239 0
-236 -240 0
-236 -241 0
-236 -242 0
-236 -243 0
-236 -244 0
-236 -245 0
-236 -246 0
-236 -247 0
-236 -248 0
-236 -249 0
-236 -250 0
-237 -238 0
-237 -239 0
-237 -240 0
-237 -241 0
-237 -242 0
-237 -243 0
-237 -244 0
-237 -245 0
-237 -246 0
-237 -247 0
-237 -248 0
-237 -249 0
-237 -250 0
-238 -239 0
-238 -240 0
-238 -241 0
-238 -242 0
-238 -243 0
-238 -244 0
-238 -245 0
-238 -246 0
-238 -247 0
-238 -248 0
-238 -249 0
-238 -250 0
-239 -240 0
-239 -241 0
-239 -242 0
-239 -243 0
-239 -244 0
-239 -245 0
-239 -246 0
-239 -247 0
-239 -248 0
-239 -249 0
-239 -250 0
-240 -241 0
-240 -242 0
-240 -243 0
-240 -244 0
-240 -245 0
-240 -246 0
-240 -247 0
-240 -248 0
-240 -249 0
-240 -250 0
-241 -242 0
-241 -243 0
-241 -244 0
-241 -245 0
-241 -246 0
-241 -247 0
-241 -248 0
-241 -249 0
-241 -250 0
-242 -243 0
-242 -244 0
-242 -245 0
-242 -246 0
-242 -247 0
-242 -248 0
-242 -249 0
-242 -250 0
-243 -244 0
-243 -245 0
-243 -246 0
-243 -247 0
-243 -248 0
-243 -249 0
-243 -250 0
-244 -245 0
-244 -246 0
-244 -247 0
-244 -248 0
-244 -249 0
-244 -250 0
-245 -246 0
-245 -247 0
-245 -248 0
-245 -249 0
-245 -250 0
-246 -247 0
-246 -248 0
-246 -249 0
-246 -250 0
-247 -248 0
-247 -249 0
-247 -250 0
-248 -249 0
-248 -250 0
-249 -250 0
-251 -252 0
-251 -253 0
-251 -254 0
-251 -255 0
-251 -256 0
-251 -257 0
-251 -258 0
-251 -259 0
-251 -260 0
-251 -261 0
-251 -262 0
-251 -263 0
-251 -264 0
-251 -265 0
-251 -266 0
-251 -267 0
-251 -268 0
-251 -269 0
-251 -270 0
-252 -253 0
-252 -254 0
-252 -255 0
-252 -256 0
-252 -257 0
-252 -258 0
-252 -259 0
-252 -260 0
-252 -261 0
-252 -262 0
-252 -263 0
-252 -264 0
-252 -265 0
-252 -266 0
-252 -267 0
-252 -268 0
-252 -269 0
-252 -270 0
-253 -254 0
-253 -255 0
-253 -256 0
-253 -257 0
-253 -258 0
-253 -259 0
-253 -260 0
-253 -261 0
-253 -262 0
-253 -263 0
-253 -264 0
-253 -265 0
-253 -266 0
-253 -267 0
-253 -268 0
-253 -269 0
-253 -270 0
-254 -255 0
-254 -256 0
-254 -257 0
-254 -258 0
-254 -259 0
-254 -260 0
-254 -261 0
-254 -262 0
-254 -263 0
-254 -264 0
-254 -265 0
-254 -266 0
-254 -267 0
-254 -268 0
-254 -269 0
-254 -270 0
-255 -256 0
-255 -257 0
-255 -258 0
-255 -259 0
-255 -260 0
-255 -261 0
-255 -262 0
-255 -263 0
-255 -264 0
-255 -265 0
-255 -266 0
-255 -267 0
-255 -268 0
-255 -269 0
-255 -270 0
-256 -257 0
-256 -258 0
-256 -259 0
-256 -260 0
-256 -261 0
-256 -262 0
-256 -263 0
-256 -264 0
-256 -265 0
-256 -266 0
-256 -267 0
-256 -268 0
-256 -269 0
-256 -270 0
-257 -258 0
-257 -259 0
-257 -260 0
-257 -261 0
-257 -262 0
-257 -263 0
-257 -264 0
-257 -265 0
-257 -266 0
-257 -267 0
-257 -268 0
-257 -269 0
-257 -270 0
-258 -259 0
-258 -260 0
-258 -261 0
-258 -262 0
-258 -263 0
-258 -264 0
-258 -265 0
-258 -266 0
-258 -267 0
-258 -268 0
-258 -269 0
-258 -270 0
-259 -260 0
-259 -261 0
-259 -262 0
-259 -263 0
-259 -264 0
-259 -265 0
-259 -266 0
-259 -267 0
-259 -268 0
-259 -269 0
-259 -270 0
-260 -261 0
-260 -262 0
-260 -263 0
-260 -264 0
-260 -265 0
-260 -266 0
-260 -267 0
-260 -268 0
-260 -269 0
-260 -270 0
-261 -262 0
-261 -263 0
-261 -264 0
-261 -265 0
-261 -266 0
-261 -267 0
-261 -268 0
-261 -269 0
-261 -270 0
-262 -263 0
-262 -264 0
-262 -265 0
-262 -266 0
-262 -267 0
-262 -268 0
-262 -269 0
-262 -270 0
-263 -264 0
-263 -265 0
-263 -266 0
-263 -267 0
-263 -268 0
-263 -269 0
-263 -270 0
-264 -265 0
-264 -266 0
-264 -267 0
-264 -268 0
-264 -269 0
-264 -270 0
-265 -266 0
-265 -267 0
-265 -268 0
-265 -269 0
-265 -270 0
-266 -267 0
-266 -268 0
-266 -269 0
-266 -270 0
-267 -268 0
-267 -269 0
-267 -270 0
-268 -269 0
-268 -270 0
-269 -270 0
-271 -272 0
-271 -273 0
-271 -274 0
-271 -275 0
-271 -276 0
-271 -277 0
-271 -278 0
-271 -279 0
-271 -280 0
-271 -281 0
-271 -282 0
-271 -283 0
-271 -284 0
-271 -285 0
-271 -286 0
-271 -287 0
-271 -288 0
-271 -289 0
-271 -290 0
-272 -273 0
-272 -274 0
-272 -275 0
-272 -276 0
-272 -277 0
-272 -278 0
-272 -279 0
-272 -280 0
-272 -281 0
-272 -282 0
-272 -283 0
-272 -284 0
-272 -285 0
-272 -286 0
-272 -287 0
-272 -288 0
-272 -289 0
-272 -290 0
-273 -274 0
-273 -275 0
-273 -276 0
-273 -277 0
-273 -278 0
-273 -279 0
-273 -280 0
-273 -281 0
-273 -282 0
-273 -283 0
-273 -284 0
-273 -285 0
-273 -286 0
-273 -287 0
-273 -288 0
-273 -289 0
-273 -290 0
-274 -275 0
-274 -276 0
-274 -277 0
-274 -278 0
-274 -279 0
-274 -280 0
-274 -281 0
-274 -282 0
-274 -283 0
-274 -284 0
-274 -285 0
-274 -286 0
-274 -287 0
-274 -288 0
-274 -289 0
-274 -290 0
-275 -276 0
-275 -277 0
-275 -278 0
-275 -279 0
-275 -280 0
-275 -281 0
-275 -282 0
-275 -283 0
-275 -284 0
-275 -285 0
-275 -286 0
-275 -287 0
-275 -288 0
-275 -289 0
-275 -290 0
-276 -277 0
-276 -278 0
-276 -279 0
-276 -280 0
-276 -281 0
-276 -282 0
-276 -283 0
-276 -284 0
-276 -285 0
-276 -286 0
-276 -287 0
-276 -288 0
-276 -289 0
-276 -290 0
-277 -278 0
-277 -279 0
-277 -280 0
-277 -281 0
-277 -282 0
-277 -283 0
-277 -284 0
-277 -285 0
-277 -286 0
-277 -287 0
-277 -288 0
-277 -289 0
-277 -290 0
-278 -279 0
-278 -280 0
-278 -281 0
-278 -282 0
-278 -283 0
-278 -284 0
-278 -285 0
-278 -286 0
-278 -287 0
-278 -288 0
-278 -289 0
-278 -290 0
-279 -280 0
-279 -281 0
-279 -282 0
-279 -283 0
-279 -284 0
-279 -285 0
-279 -286 0
-279 -287 0
-279 -288 0
-279 -289 0
-279 -290 0
-280 -281 0
-280 -282 0
-280 -283 0
-280 -284 0
-280 -285 0
-280 -286 0
-280 -287 0
-280 -288 0
-280 -289 0
-280 -290 0
-281 -282 0
-281 -283 0
-281 -284 0
-281 -285 0
-281 -286 0
-281 -287 0
-281 -288 0
-281 -289 0
-281 -290 0
-282 -283 0
-282 -284 0
-282 -285 0
-282 -286 0
-282 -287 0
-282 -288 0
-282 -289 0
-282 -290 0
-283 -284 0
-283 -285 0
-283 -286 0
-283 -287 0
-283 -288 0
-283 -289 0
-283 -290 0
-284 -285 0
-284 -286 0
-284 -287 0
-284 -288 0
-284 -289 0
-284 -290 0
-285 -286 0
-285 -287 0
-285 -288 0
-285 -289 0
-285 -290 0
-286 -287 0
-286 -288 0
-286 -289 0
-286 -290 0
-287 -288 0
-287 -289 0
-287 -290 0
-288 -289 0
-288 -290 0
-289 -290 0
-191 -211 0
-191 -231 0
-191 -251 0
-191 -271 0
-211 -231 0
-211 -251 0
-211 -271 0
-231 -251 0
-231 -271 0
-251 -271 0
-192 -212 0
-192 -232 0
-192 -252 0
-192 -272 0
-212 -232 0
-212 -252 0
-212 -272 0
-232 -252 0
-232 -272 0
-252 -272 0
-193 -213 0
-193 -233 0
-193 -253 0
-193 -273 0
-213 -233 0
-213 -253 0
-213 -273 0
-233 -253 0
-233 -273 0
-253 -273 0
-194 -214 0
-194 -234 0
-194 -254 0
-194 -274 0
-214 -234 0
-214 -254 0
-214 -274 0
-234 -254 0
-234 -274 0
-254 -274 0
-195 -215 0
-195 -235 0
-195 -255 0
-195 -275 0
-215 -235 0
-215 -255 0
-215 -275 0
-235 -255 0
-235 -275 0
-255 -275 0
-196 -216 0
-196 -236 0
-196 -256 0
-196 -276 0
-216 -236 0
-216 -256 0
-216 -276 0
-236 -256 0
-236 -276 0
-256 -276 0
-197 -217 0
-197 -237 0
-197 -257 0
-197 -277 0
-217 -237 0
-217 -257 0
-217 -277 0
-237 -257 0
-237 -277 0
-257 -277 0
-198 -218 0
-198 -238 0
-198 -258 0
-198 -278 0
-218 -238 0
-218 -258 0
-218 -278 0
-238 -258 0
-238 -278 0
-258 -278 0
-199 -219 0
-199 -239 0
-199 -259 0
-199 -279 0
-219 -239 0
-219 -259 0
-219 -279 0
-239 -259 0
-239 -279 0
-259 -279 0
-200 -220 0
-200 -240 0
-200 -260 0
-200 -280 0
-220 -240 0
-220 -260 0
-220 -280 0
-240 -260 0
-240 -280 0
-260 -280 0
-201 -221 0
-201 -241 0
-201 -261 0
-201 -281 0
-221 -241 0
-221 -261 0
-221 -281 0
-241 -261 0
-241 -281 0
-261 -281 0
-202 -222 0
-202 -242 0
-202 -262 0
-202 -282 0
-222 -242 0
-222 -262 0
-222 -282 0
-242 -262 0
-242 -282 0
-262 -282 0
-203 -223 0
-203 -243 0
-203 -263 0
-203 -283 0
-223 -243 0
-223 -263 0
-223 -283 0
-243 -263 0
-243 -283 0
-263 -283 0
-204 -224 0
-204 -244 0
-204 -264 0
-204 -284 0
-224 -244 0
-224 -264 0
-224 -284 0
-244 -264 0
-244 -284 0
-264 -284 0
-205 -225 0
-205 -245 0
-205 -265 0
-205 -285 0
-225 -245 0
-225 -265 0
-225 -285 0
-245 -265 0
-245 -285 0
-265 -285 0
-206 -226 0
-206 -246 0
-206 -266 0
-206 -286 0
-226 -246 0
-226 -266 0
-226 -286 0
-246 -266 0
-246 -286 0
-266 -286 0
-207 -227 0
-207 -247 0
-207 -267 0
-207 -287 0
-227 -247 0
-227 -267 0
-227 -287 0
-247 -267 0
-247 -287 0
-267 -287 0
-208 -228 0
-208 -248 0
-208 -268 0
-208 -288 0
-228 -248 0
-228 -268 0
-228 -288 0
-248 -268 0
-248 -288 0
-268 -288 0
-209 -229 0
-209 -249 0
-209 -269 0
-209 -289 0
-229 -249 0
-229 -269 0
-229 -289 0
-249 -269 0
-249 -289 0
-269 -289 0
-210 -230 0
-210 -250 0
-210 -270 0
-210 -290 0
-230 -250 0
-230 -270 0
-230 -290 0
-250 -270 0
-250 -290 0
-270 -290 0
1 -191 -212 0
1 -192 -211 0
1 -191 -232 0
1 -192 -231 0
1 -191 -252 0
1 -192 -251 0
1 -191 -272 0
1 -192 -271 0
1 -211 -232 0
1 -212 -231 0
1 -211 -252 0
1 -212 -251 0
1 -211 -272 0
1 -212 -271 0
1 -231 -252 0
1 -232 -251 0
1 -231 -272 0
1 -232 -271 0
1 -251 -272 0
1 -252 -271 0
2 -191 -213 0
2 -193 -211 0
2 -191 -233 0
2 -193 -231 0
2 -191 -253 0
2 -193 -251 0
2 -191 -273 0
2 -193 -271 0
2 -211 -233 0
2 -213 -231 0
2 -211 -253 0
2 -213 -251 0
2 -211 -273 0
2 -213 -271 0
2 -231 -253 0
2 -233 -251 0
2 -231 -273 0
2 -233 -271 0
2 -251 -273 0
2 -253 -271 0
3 -191 -214 0
3 -194 -211 0
3 -191 -234 0
3 -194 -231 0
3 -191 -254 0
3 -194 -251 0
3 -191 -274 0
3 -194 -271 0
3 -211 -234 0
3 -214 -231 0
3 -211 -254 0
3 -214 -251 0
3 -211 -274 0
3 -214 -271 0
3 -231 -254 0
3 -234 -251 0
3 -231 -274 0
3 -234 -271 0
3 -251 -274 0
3 -254 -271 0
4 -191 -215 0
4 -195 -211 0
4 -191 -235 0
4 -195 -231 0
4 -191 -255 0
4 -195 -251 0
4 -191 -275 0
4 -195 -271 0
4 -211 -235 0
4 -215 -231 0
4 -211 -255 0
4 -215 -251 0
4 -211 -275 0
4 -215 -271 0
4 -231 -255 0
4 -235 -251 0
4 -231 -275 0
4 -235 -271 0
4 -251 -275 0
4 -255 -271 0
5 -191 -216 0
5 -196 -211 0
5 -191 -236 0
5 -196 -231 0
5 -191 -256 0
5 -196 -251 0
5 -191 -276 0
5 -196 -271 0
5 -211 -236 0
5 -216 -231 0
5 -211 -256 0
5 -216 -251 0
5 -211 -276 0
5 -216 -271 0
5 -231 -256 0
5 -236 -251 0
5 -231 -276 0
5 -236 -271 0
5 -251 -276 0
5 -256 -271 0
6 -191 -217 0
6 -197 -211 0
6 -191 -237 0
6 -197 -231 0
6 -191 -257 0
6 -197 -251 0
6 -191 -277 0
6 -197 -271 0
6 -211 -237 0
6 -217 -231 0
6 -211 -257 0
6 -217 -251 0
6 -211 -277 0
6 -217 -271 0
6 -231 -257 0
6 -237 -251 0
6 -231 -277 0
6 -237 -271 0
6 -251 -277 0
6 -257 -271 0
7 -191 -218 0
7 -198 -211 0
7 -191 -238 0
7 -198 -231 0
7 -191 -258 0
7 -198 -251 0
7 -191 -278 0
7 -198 -271 0
7 -211 -238 0
7 -218 -231 0
7 -211 -258 0
7 -218 -251 0
7 -211 -278 0
7 -218 -271 0
7 -231 -258 0
7 -238 -251 0
7 -231 -278 0
7 -238 -271 0
7 -251 -278 0
7 -258 -271 0
8 -191 -219 0
8 -199 -211 0
8 -191 -239 0
8 -199 -231 0
8 -191 -259 0
8 -199 -251 0
8 -191 -279 0
8 -199 -271 0
8 -211 -239 0
8 -219 -231 0
8 -211 -259 0
8 -219 -251 0
8 -211 -279 0
8 -219 -271 0
8 -231 -259 0
8 -239 -251 0
8 -231 -279 0
8 -239 -271 0
8 -251 -279 0
8 -259 -271 0
9 -191 -220 0
9 -200 -211 0
9 -191 -240 0
9 -200 -231 0
9 -191 -260 0
9 -200 -251 0
9 -191 -280 0
9 -200 -271 0
9 -211 -240 0
9 -220 -231 0
9 -211 -260 0
9 -220 -251 0
9 -211 -280 0
9 -220 -271 0
9 -231 -260 0
9 -240 -251 0
9 -231 -280 0
9 -240 -271 0
9 -251 -280 0
9 -260 -271 0
10 -191 -221 0
10 -201 -211 0
10 -191 -241 0
10 -201 -231 0
10 -191 -261 0
10 -201 -251 0
10 -191 -281 0
10 -201 -271 0
10 -211 -241 0
10 -221 -231 0
10 -211 -261 0
10 -221 -251 0
10 -211 -281 0
10 -221 -271 0
10 -231 -261 0
10 -241 -251 0
10 -231 -281 0
10 -241 -271 0
10 -251 -281 0
10 -261 -271 0
11 -191 -222 0
11 -202 -211 0
11 -191 -242 0
11 -202 -231 0
11 -191 -262 0
11 -202 -251 0
11 -191 -282 0
11 -202 -271 0
11 -211 -242 0
11 -222 -231 0
11 -211 -262 0
11 -222 -251 0
11 -211 -282 0
11 -222 -271 0
11 -231 -262 0
11 -242 -251 0
11 -231 -282 0
11 -242 -271 0
11 -251 -282 0
11 -262 -271 0
12 -191 -223 0
12 -203 -211 0
12 -191 -243 0
12 -203 -231 0
12 -191 -263 0
12 -203 -251 0
12 -191 -283 0
12 -203 -271 0
12 -211 -243 0
12 -223 -231 0
12 -211 -263 0
12 -223 -251 0
12 -211 -283 0
12 -223 -271 0
12 -231 -263 0
12 -243 -251 0
12 -231 -283 0
12 -243 -271 0
12 -251 -283 0
12 -263 -271 0
13 -191 -224 0
13 -204 -211 0
13 -191 -244 0
13 -204 -231 0
13 -191 -264 0
13 -204 -251 0
13 -191 -284 0
13 -204 -271 0
13 -211 -244 0
13 -224 -231 0
13 -211 -264 0
13 -224 -251 0
13 -211 -284 0
13 -224 -271 0
13 -231 -264 0
13 -244 -251 0
13 -231 -284 0
13 -244 -271 0
13 -251 -284 0
13 -264 -271 0
14 -191 -225 0
14 -205 -211 0
14 -191 -245 0
14 -205 -231 0
14 -191 -265 0
14 -205 -251 0
14 -191 -285 0
14 -205 -271 0
14 -211 -245 0
14 -225 -231 0
14 -211 -265 0
14 -225 -251 0
14 -211 -285 0
14 -225 -271 0
14 -231 -265 0
14 -245 -251 0
14 -231 -285 0
14 -245 -271 0
14 -251 -285 0
14 -265 -271 0
15 -191 -226 0
15 -206 -211 0
15 -191 -246 0
15 -206 -231 0
15 -191 -266 0
15 -206 -251 0
15 -191 -286 0
15 -206 -271 0
15 -211 -246 0
15 -226 -231 0
15 -211 -266 0
15 -226 -251 0
15 -211 -286 0
15 -226 -271 0
15 -231 -266 0
15 -246 -251 0
15 -231 -286 0
15 -246 -271 0
15 -251 -286 0
15 -266 -271 0
16 -191 -227 0
16 -207 -211 0
16 -191 -247 0
16 -207 -231 0
16 -191 -267 0
16 -207 -251 0
16 -191 -287 0
16 -207 -271 0
16 -211 -247 0
16 -227 -231 0
16 -211 -267 0
16 -227 -251 0
16 -211 -287 0
16 -227 -271 0
16 -231 -267 0
16 -247 -251 0
16 -231 -287 0
16 -247 -271 0
16 -251 -287 0
16 -267 -271 0
17 -191 -228 0
17 -208 -211 0
17 -191 -248 0
17 -208 -231 0
17 -191 -268 0
17 -208 -251 0
17 -191 -288 0
17 -208 -271 0
17 -211 -248 0
17 -228 -231 0
17 -211 -268 0
17 -228 -251 0
17 -211 -288 0
17 -228 -271 0
17 -231 -268 0
17 -248 -251 0
17 -231 -288 0
17 -248 -271 0
17 -251 -288 0
17 -268 -271 0
18 -191 -229 0
18 -209 -211 0
18 -191 -249 0
18 -209 -231 0
18 -191 -269 0
18 -209 -251 0
18 -191 -289 0
18 -209 -271 0
18 -211 -249 0
18 -229 -231 0
18 -211 -269 0
18 -229 -251 0
18 -211 -289 0
18 -229 -271 0
18 -231 -269 0
18 -249 -251 0
18 -231 -289 0
18 -249 -271 0
18 -251 -289 0
18 -269 -271 0
19 -191 -230 0
19 -210 -211 0
19 -191 -250 0
19 -210 -231 0
19 -191 -270 0
19 -210 -251 0
19 -191 -290 0
19 -210 -271 0
19 -211 -250 0
19 -230 -231 0
19 -211 -270 0
19 -230 -251 0
19 -211 -290 0
19 -230 -271 0
19 -231 -270 0
19 -250 -251 0
19 -231 -290 0
19 -250 -271 0
19 -251 -290 0
19 -270 -271 0
20 -192 -213 0
20 -193 -212 0
20 -192 -233 0
20 -193 -232 0
20 -192 -253 0
20 -193 -252 0
20 -192 -273 0
20 -193 -272 0
20 -212 -233 0
20 -213 -232 0
20 -212 -253 0
20 -213 -252 0
20 -212 -273 0
20 -213 -272 0
20 -232 -253 0
20 -233 -252 0
20 -232 -273 0
20 -233 -272 0
20 -252 -273 0
20 -253 -272 0
21 -192 -214 0
21 -194 -212 0
21 -192 -234 0
21 -194 -232 0
21 -192 -254 0
21 -194 -252 0
21 -192 -274 0
21 -194 -272 0
21 -212 -234 0
21 -214 -232 0
21 -212 -254 0
21 -214 -252 0
21 -212 -274 0
21 -214 -272 0
21 -232 -254 0
21 -234 -252 0
21 -232 -274 0
21 -234 -272 0
21 -252 -274 0
21 -254 -272 0
22 -192 -215 0
22 -195 -212 0
22 -192 -235 0
22 -195 -232 0
22 -192 -255 0
22 -195 -252 0
22 -192 -275 0
22 -195 -272 0
22 -212 -235 0
22 -215 -232 0
22 -212 -255 0
22 -215 -252 0
22 -212 -275 0
22 -215 -272 0
22 -232 -255 0
22 -235 -252 0
22 -232 -275 0
22 -235 -272 0
22 -252 -275 0
22 -255 -272 0
23 -192 -216 0
23 -196 -212 0
23 -192 -236 0
23 -196 -232 0
23 -192 -256 0
23 -196 -252 0
23 -192 -276 0
23 -196 -272 0
23 -212 -236 0
23 -216 -232 0
23 -212 -256 0
23 -216 -252 0
23 -212 -276 0
23 -216 -272 0
23 -232 -256 0
23 -236 -252 0
23 -232 -276 0
23 -236 -272 0
23 -252 -276 0
23 -256 -272 0
24 -192 -217 0
24 -197 -212 0
24 -192 -237 0
24 -197 -232 0
24 -192 -257 0
24 -197 -252 0
24 -192 -277 0
24 -197 -272 0
24 -212 -237 0
24 -217 -232 0
24 -212 -257 0
24 -217 -252 0
24 -212 -277 0
24 -217 -272 0
24 -232 -257 0
24 -237 -252 0
24 -232 -277 0
24 -237 -272 0
24 -252 -277 0
24 -257 -272 0
25 -192 -218 0
25 -198 -212 0
25 -192 -238 0
25 -198 -232 0
25 -192 -258 0
25 -198 -252 0
25 -192 -278 0
25 -198 -272 0
25 -212 -238 0
25 -218 -232 0
25 -212 -258 0
25 -218 -252 0
25 -212 -278 0
25 -218 -272 0
25 -232 -258 0
25 -238 -252 0
25 -232 -278 0
25 -238 -272 0
25 -252 -278 0
25 -258 -272 0
26 -192 -219 0
26 -199 -212 0
26 -192 -239 0
26 -199 -232 0
26 -192 -259 0
26 -199 -252 0
26 -192 -279 0
26 -199 -272 0
26 -212 -239 0
26 -219 -232 0
26 -212 -259 0
26 -219 -252 0
26 -212 -279 0
26 -219 -272 0
26 -232 -259 0
26 -239 -252 0
26 -232 -279 0
26 -239 -272 0
26 -252 -279 0
26 -259 -272 0
27 -192 -220 0
27 -200 -212 0
27 -192 -240 0
27 -200 -232 0
27 -192 -260 0
27 -200 -252 0
27 -192 -280 0
27 -200 -272 0
27 -212 -240 0
27 -220 -232 0
27 -212 -260 0
27 -220 -252 0
27 -212 -280 0
27 -220 -272 0
27 -232 -260 0
27 -240 -252 0
27 -232 -280 0
27 -240 -272 0
27 -252 -280 0
27 -260 -272 0
28 -192 -221 0
28 -201 -212 0
28 -192 -241 0
28 -201 -232 0
28 -192 -261 0
28 -201 -252 0
28 -192 -281 0
28 -201 -272 0
28 -212 -241 0
28 -221 -232 0
28 -212 -261 0
28 -221 -252 0
28 -212 -281 0
28 -221 -272 0
28 -232 -261 0
28 -241 -252 0
28 -232 -281 0
28 -241 -272 0
28 -252 -281 0
28 -261 -272 0
29 -192 -222 0
29 -202 -212 0
29 -192 -242 0
29 -202 -232 0
29 -192 -262 0
29 -202 -252 0
29 -192 -282 0
29 -202 -272 0
29 -212 -242 0
29 -222 -232 0
29 -212 -262 0
29 -222 -252 0
29 -212 -282 0
29 -222 -272 0
29 -232 -262 0
29 -242 -252 0
29 -232 -282 0
29 -242 -272 0
29 -252 -282 0
29 -262 -272 0
30 -192 -223 0
30 -203 -212 0
30 -192 -243 0
30 -203 -232 0
30 -192 -263 0
30 -203 -252 0
30 -192 -283 0
30 -203 -272 0
30 -212 -243 0
30 -223 -232 0
30 -212 -263 0
30 -223 -252 0
30 -212 -283 0
30 -223 -272 0
30 -232 -263 0
30 -243 -252 0
30 -232 -283 0
30 -243 -272 0
30 -252 -283 0
30 -263 -272 0
31 -192 -224 0
31 -204 -212 0
31 -192 -244 0
31 -204 -232 0
31 -192 -264 0
31 -204 -252 0
31 -192 -284 0
31 -204 -272 0
31 -212 -244 0
31 -224 -232 0
31 -212 -264 0
31 -224 -252 0
31 -212 -284 0
31 -224 -272 0
31 -232 -264 0
31 -244 -252 0
31 -232 -284 0
31 -244 -272 0
31 -252 -284 0
31 -264 -272 0
32 -192 -225 0
32 -205 -212 0
32 -192 -245 0
32 -205 -232 0
32 -192 -265 0
32 -205 -252 0
32 -192 -285 0
32 -205 -272 0
32 -212 -245 0
32 -225 -232 0
32 -212 -265 0
32 -225 -252 0
32 -212 -285 0
32 -225 -272 0
32 -232 -265 0
32 -245 -252 0
32 -232 -285 0
32 -245 -272 0
32 -252 -285 0
32 -265 -272 0
33 -192 -226 0
33 -206 -212 0
33 -192 -246 0
33 -206 -232 0
33 -192 -266 0
33 -206 -252 0
33 -192 -286 0
33 -206 -272 0
33 -212 -246 0
33 -226 -232 0
33 -212 -266 0
33 -226 -252 0
33 -212 -286 0
33 -226 -272 0
33 -232 -266 0
33 -246 -252 0
33 -232 -286 0
33 -246 -272 0
33 -252 -286 0
33 -266 -272 0
34 -192 -227 0
34 -207 -212 0
34 -192 -247 0
34 -207 -232 0
34 -192 -267 0
34 -207 -252 0
34 -192 -287 0
34 -207 -272 0
34 -212 -247 0
34 -227 -232 0
34 -212 -267 0
34 -227 -252 0
34 -212 -287 0
34 -227 -272 0
34 -232 -267 0
34 -247 -252 0
34 -232 -287 0
34 -247 -272 0
34 -252 -287 0
34 -267 -272 0
35 -192 -228 0
35 -208 -212 0
35 -192 -248 0
35 -208 -232 0
35 -192 -268 0
35 -208 -252 0
35 -192 -288 0
35 -208 -272 0
35 -212 -248 0
35 -228 -232 0
35 -212 -268 0
35 -228 -252 0
35 -212 -288 0
35 -228 -272 0
35 -232 -268 0
35 -248 -252 0
35 -232 -288 0
35 -248 -272 0
35 -252 -288 0
35 -268 -272 0
36 -192 -229 0
36 -209 -212 0
36 -192 -249 0
36 -209 -232 0
36 -192 -269 0
36 -209 -252 0
36 -192 -289 0
36 -209 -272 0
36 -212 -249 0
36 -229 -232 0
36 -212 -269 0
36 -229 -252 0
36 -212 -289 0
36 -229 -272 0
36 -232 -269 0
36 -249 -252 0
36 -232 -289 0
36 -249 -272 0
36 -252 -289 0
36 -269 -272 0
37 -192 -230 0
37 -210 -212 0
37 -192 -250 0
37 -210 -232 0
37 -192 -270 0
37 -210 -252 0
37 -192 -290 0
37 -210 -272 0
37 -212 -250 0
37 -230 -232 0
37 -212 -270 0
37 -230 -252 0
37 -212 -290 0
37 -230 -272 0
37 -232 -270 0
37 -250 -252 0
37 -232 -290 0
37 -250 -272 0
37 -252 -290 0
37 -270 -272 0
38 -193 -214 0
38 -194 -213 0
38 -193 -234 0
38 -194 -233 0
38 -193 -254 0
38 -194 -253 0
38 -193 -274 0
38 -194 -273 0
38 -213 -234 0
38 -214 -233 0
38 -213 -254 0
38 -214 -253 0
38 -213 -274 0
38 -214 -273 0
38 -233 -254 0
38 -234 -253 0
38 -233 -274 0
38 -234 -273 0
38 -253 -274 0
38 -254 -273 0
39 -193 -215 0
39 -195 -213 0
39 -193 -235 0
39 -195 -233 0
39 -193 -255 0
39 -195 -253 0
39 -193 -275 0
39 -195 -273 0
39 -213 -235 0
39 -215 -233 0
39 -213 -255 0
39 -215 -253 0
39 -213 -275 0
39 -215 -273 0
39 -233 -255 0
39 -235 -253 0
39 -233 -275 0
39 -235 -273 0
39 -253 -275 0
39 -255 -273 0
40 -193 -216 0
40 -196 -213 0
40 -193 -236 0
40 -196 -233 0
40 -193 -256 0
40 -196 -253 0
40 -193 -276 0
40 -196 -273 0
40 -213 -236 0
40 -216 -233 0
40 -213 -256 0
40 -216 -253 0
40 -213 -276 0
40 -216 -273 0
40 -233 -256 0
40 -236 -253 0
40 -233 -276 0
40 -236 -273 0
40 -253 -276 0
40 -256 -273 0
41 -193 -217 0
41 -197 -213 0
41 -193 -237 0
41 -197 -233 0
41 -193 -257 0
41 -197 -253 0
41 -193 -277 0
41 -197 -273 0
41 -213 -237 0
41 -217 -233 0
41 -213 -257 0
41 -217 -253 0
41 -213 -277 0
41 -217 -273 0
41 -233 -257 0
41 -237 -253 0
41 -233 -277 0
41 -237 -273 0
41 -253 -277 0
41 -257 -273 0
42 -193 -218 0
42 -198 -213 0
42 -193 -238 0
42 -198 -233 0
42 -193 -258 0
42 -198 -253 0
42 -193 -278 0
42 -198 -273 0
42 -213 -238 0
42 -218 -233 0
42 -213 -258 0
42 -218 -253 0
42 -213 -278 0
42 -218 -273 0
42 -233 -258 0
42 -238 -253 0
42 -233 -278 0
42 -238 -273 0
42 -253 -278 0
42 -258 -273 0
43 -193 -219 0
43 -199 -213 0
43 -193 -239 0
43 -199 -233 0
43 -193 -259 0
43 -199 -253 0
43 -193 -279 0
43 -199 -273 0
43 -213 -239 0
43 -219 -233 0
43 -213 -259 0
43 -219 -253 0
43 -213 -279 0
43 -219 -273 0
43 -233 -259 0
43 -239 -253 0
43 -233 -279 0
43 -239 -273 0
43 -253 -279 0
43 -259 -273 0
44 -193 -220 0
44 -200 -213 0
44 -193 -240 0
44 -200 -233 0
44 -193 -260 0
44 -200 -253 0
44 -193 -280 0
44 -200 -273 0
44 -213 -240 0
44 -220 -233 0
44 -213 -260 0
44 -220 -253 0
44 -213 -280 0
44 -220 -273 0
44 -233 -260 0
44 -240 -253 0
44 -233 -280 0
44 -240 -273 0
44 -253 -280 0
44 -260 -273 0
45 -193 -221 0
45 -201 -213 0
45 -193 -241 0
45 -201 -233 0
45 -193 -261 0
45 -201 -253 0
45 -193 -281 0
45 -201 -273 0
45 -213 -241 0
45 -221 -233 0
45 -213 -261 0
45 -221 -253 0
45 -213 -281 0
45 -221 -273 0
45 -233 -261 0
45 -241 -253 0
45 -233 -281 0
45 -241 -273 0
45 -253 -281 0
45 -261 -273 0
46 -193 -222 0
46 -202 -213 0
46 -193 -242 0
46 -202 -233 0
46 -193 -262 0
46 -202 -253 0
46 -193 -282 0
46 -202 -273 0
46 -213 -242 0
46 -222 -233 0
46 -213 -262 0
46 -222 -253 0
46 -213 -282 0
46 -222 -273 0
46 -233 -262 0
46 -242 -253 0
46 -233 -282 0
46 -242 -273 0
46 -253 -282 0
46 -262 -273 0
47 -193 -223 0
47 -203 -213 0
47 -193 -243 0
47 -203 -233 0
47 -193 -263 0
47 -203 -253 0
47 -193 -283 0
47 -203 -273 0
47 -213 -243 0
47 -223 -233 0
47 -213 -263 0
47 -223 -253 0
47 -213 -283 0
47 -223 -273 0
47 -233 -263 0
47 -243 -253 0
47 -233 -283 0
47 -243 -273 0
47 -253 -283 0
47 -263 -273 0
48 -193 -224 0
48 -204 -213 0
48 -193 -244 0
48 -204 -233 0
48 -193 -264 0
48 -204 -253 0
48 -193 -284 0
48 -204 -273 0
48 -213 -244 0
48 -224 -233 0
48 -213 -264 0
48 -224 -253 0
48 -213 -284 0
48 -224 -273 0
48 -233 -264 0
48 -244 -253 0
48 -233 -284 0
48 -244 -273 0
48 -253 -284 0
48 -264 -273 0
49 -193 -225 0
49 -205 -213 0
49 -193 -245 0
49 -205 -233 0
49 -193 -265 0
49 -205 -253 0
49 -193 -285 0
49 -205 -273 0
49 -213 -245 0
49 -225 -233 0
49 -213 -265 0
49 -225 -253 0
49 -213 -285 0
49 -225 -273 0
49 -233 -265 0
49 -245 -253 0
49 -233 -285 0
49 -245 -273 0
49 -253 -285 0
49 -265 -273 0
50 -193 -226 0
50 -206 -213 0
50 -193 -246 0
50 -206 -233 0
50 -193 -266 0
50 -206 -253 0
50 -193 -286 0
50 -206 -273 0
50 -213 -246 0
50 -226 -233 0
50 -213 -266 0
50 -226 -253 0
50 -213 -286 0
50 -226 -273 0
50 -233 -266 0
50 -246 -253 0
50 -233 -286 0
50 -246 -273 0
50 -253 -286 0
50 -266 -273 0
51 -193 -227 0
51 -207 -213 0
51 -193 -247 0
51 -207 -233 0
51 -193 -267 0
51 -207 -253 0
51 -193 -287 0
51 -207 -273 0
51 -213 -247 0
51 -227 -233 0
51 -213 -267 0
51 -227 -253 0
51 -213 -287 0
51 -227 -273 0
51 -233 -267 0
51 -247 -253 0
51 -233 -287 0
51 -247 -273 0
51 -253 -287 0
51 -267 -273 0
52 -193 -228 0
52 -208 -213 0
52 -193 -248 0
52 -208 -233 0
52 -193 -268 0
52 -208 -253 0
52 -193 -288 0
52 -208 -273 0
52 -213 -248 0
52 -228 -233 0
52 -213 -268 0
52 -228 -253 0
52 -213 -288 0
52 -228 -273 0
52 -233 -268 0
52 -248 -253 0
52 -233 -288 0
52 -248 -273 0
52 -253 -288 0
52 -268 -273 0
53 -193 -229 0
53 -209 -213 0
53 -193 -249 0
53 -209 -233 0
53 -193 -269 0
53 -209 -253 0
53 -193 -289 0
53 -209 -273 0
53 -213 -249 0
53 -229 -233 0
53 -213 -269 0
53 -229 -253 0
53 -213 -289 0
53 -229 -273 0
53 -233 -269 0
53 -249 -253 0
53 -233 -289 0
53 -249 -273 0
53 -253 -289 0
53 -269 -273 0
54 -193 -230 0
54 -210 -213 0
54 -193 -250 0
54 -210 -233 0
54 -193 -270 0
54 -210 -253 0
54 -193 -290 0
54 -210 -273 0
54 -213 -250 0
54 -230 -233 0
54 -213 -270 0
54 -230 -253 0
54 -213 -290 0
54 -230 -273 0
54 -233 -270 0
54 -250 -253 0
54 -233 -290 0
54 -250 -273 0
54 -253 -290 0
54 -270 -273 0
55 -194 -215 0
55 -195 -214 0
55 -194 -235 0
55 -195 -234 0
55 -194 -255 0
55 -195 -254 0
55 -194 -275 0
55 -195 -274 0
55 -214 -235 0
55 -215 -234 0
55 -214 -255 0
55 -215 -254 0
55 -214 -275 0
55 -215 -274 0
55 -234 -255 0
55 -235 -254 0
55 -234 -275 0
55 -235 -274 0
55 -254 -275 0
55 -255 -274 0
56 -194 -216 0
56 -196 -214 0
56 -194 -236 0
56 -196 -234 0
56 -194 -256 0
56 -196 -254 0
56 -194 -276 0
56 -196 -274 0
56 -214 -236 0
56 -216 -234 0
56 -214 -256 0
56 -216 -254 0
56 -214 -276 0
56 -216 -274 0
56 -234 -256 0
56 -236 -254 0
56 -234 -276 0
56 -236 -274 0
56 -254 -276 0
56 -256 -274 0
57 -194 -217 0
57 -197 -214 0
57 -194 -237 0
57 -197 -234 0
57 -194 -257 0
57 -197 -254 0
57 -194 -277 0
57 -197 -274 0
57 -214 -237 0
57 -217 -234 0
57 -214 -257 0
57 -217 -254 0
57 -214 -277 0
57 -217 -274 0
57 -234 -257 0
57 -237 -254 0
57 -234 -277 0
57 -237 -274 0
57 -254 -277 0
57 -257 -274 0
58 -194 -218 0
58 -198 -214 0
58 -194 -238 0
58 -198 -234 0
58 -194 -258 0
58 -198 -254 0
58 -194 -278 0
58 -198 -274 0
58 -214 -238 0
58 -218 -234 0
58 -214 -258 0
58 -218 -254 0
58 -214 -278 0
58 -218 -274 0
58 -234 -258 0
58 -238 -254 0
58 -234 -278 0
58 -238 -274 0
58 -254 -278 0
58 -258 -274 0
59 -194 -219 0
59 -199 -214 0
59 -194 -239 0
59 -199 -234 0
59 -194 -259 0
59 -199 -254 0
59 -194 -279 0
59 -199 -274 0
59 -214 -239 0
59 -219 -234 0
59 -214 -259 0
59 -219 -254 0
59 -214 -279 0
59 -219 -274 0
59 -234 -259 0
59 -239 -254 0
59 -234 -279 0
59 -239 -274 0
59 -254 -279 0
59 -259 -274 0
60 -194 -220 0
60 -200 -214 0
60 -194 -240 0
60 -200 -234 0
60 -194 -260 0
60 -200 -254 0
60 -194 -280 0
60 -200 -274 0
60 -214 -240 0
60 -220 -234 0
60 -214 -260 0
60 -220 -254 0
60 -214 -280 0
60 -220 -274 0
60 -234 -260 0
60 -240 -254 0
60 -234 -280 0
60 -240 -274 0
60 -254 -280 0
60 -260 -274 0
61 -194 -221 0
61 -201 -214 0
61 -194 -241 0
61 -201 -234 0
61 -194 -261 0
61 -201 -254 0
61 -194 -281 0
61 -201 -274 0
61 -214 -241 0
61 -221 -234 0
61 -214 -261 0
61 -221 -254 0
61 -214 -281 0
61 -221 -274 0
61 -234 -261 0
61 -241 -254 0
61 -234 -281 0
61 -241 -274 0
61 -254 -281 0
61 -261 -274 0
62 -194 -222 0
62 -202 -214 0
62 -194 -242 0
62 -202 -234 0
62 -194 -262 0
62 -202 -254 0
62 -194 -282 0
62 -202 -274 0
62 -214 -242 0
62 -222 -234 0
62 -214 -262 0
62 -222 -254 0
62 -214 -282 0
62 -222 -274 0
62 -234 -262 0
62 -242 -254 0
62 -234 -282 0
62 -242 -274 0
62 -254 -282 0
62 -262 -274 0
63 -194 -223 0
63 -203 -214 0
63 -194 -243 0
63 -203 -234 0
63 -194 -263 0
63 -203 -254 0
63 -194 -283 0
63 -203 -274 0
63 -214 -243 0
63 -223 -234 0
63 -214 -263 0
63 -223 -254 0
63 -214 -283 0
63 -223 -274 0
63 -234 -263 0
63 -243 -254 0
63 -234 -283 0
63 -243 -274 0
63 -254 -283 0
63 -263 -274 0
64 -194 -224 0
64 -204 -214 0
64 -194 -244 0
64 -204 -234 0
64 -194 -264 0
64 -204 -254 0
64 -194 -284 0
64 -204 -274 0
64 -214 -244 0
64 -224 -234 0
64 -214 -264 0
64 -224 -254 0
64 -214 -284 0
64 -224 -274 0
64 -234 -264 0
64 -244 -254 0
64 -234 -284 0
64 -244 -274 0
64 -254 -284 0
64 -264 -274 0
65 -194 -225 0
65 -205 -214 0
65 -194 -245 0
65 -205 -234 0
65 -194 -265 0
65 -205 -254 0
65 -194 -285 0
65 -205 -274 0
65 -214 -245 0
65 -225 -234 0
65 -214 -265 0
65 -225 -254 0
65 -214 -285 0
65 -225 -274 0
65 -234 -265 0
65 -245 -254 0
65 -234 -285 0
65 -245 -274 0
65 -254 -285 0
65 -265 -274 0
66 -194 -226 0
66 -206 -214 0
66 -194 -246 0
66 -206 -234 0
66 -194 -266 0
66 -206 -254 0
66 -194 -286 0
66 -206 -274 0
66 -214 -246 0
66 -226 -234 0
66 -214 -266 0
66 -226 -254 0
66 -214 -286 0
66 -226 -274 0
66 -234 -266 0
66 -246 -254 0
66 -234 -286 0
66 -246 -274 0
66 -254 -286 0
66 -266 -274 0
67 -194 -227 0
67 -207 -214 0
67 -194 -247 0
67 -207 -234 0
67 -194 -267 0
67 -207 -254 0
67 -194 -287 0
67 -207 -274 0
67 -214 -247 0
67 -227 -234 0
67 -214 -267 0
67 -227 -254 0
67 -214 -287 0
67 -227 -274 0
67 -234 -267 0
67 -247 -254 0
67 -234 -287 0
67 -247 -274 0
67 -254 -287 0
67 -267 -274 0
68 -194 -228 0
68 -208 -214 0
68 -194 -248 0
68 -208 -234 0
68 -194 -268 0
68 -208 -254 0
68 -194 -288 0
68 -208 -274 0
68 -214 -248 0
68 -228 -234 0
68 -214 -268 0
68 -228 -254 0
68 -214 -288 0
68 -228 -274 0
68 -234 -268 0
68 -248 -254 0
68 -234 -288 0
68 -248 -274 0
68 -254 -288 0
68 -268 -274 0
69 -194 -229 0
69 -209 -214 0
69 -194 -249 0
69 -209 -234 0
69 -194 -269 0
69 -209 -254 0
69 -194 -289 0
69 -209 -274 0
69 -214 -249 0
69 -229 -234 0
69 -214 -269 0
69 -229 -254 0
69 -214 -289 0
69 -229 -274 0
69 -234 -269 0
69 -249 -254 0
69 -234 -289 0
69 -249 -274 0
69 -254 -289 0
69 -269 -274 0
70 -194 -230 0
70 -210 -214 0
70 -194 -250 0
70 -210 -234 0
70 -194 -270 0
70 -210 -254 0
70 -194 -290 0
70 -210 -274 0
70 -214 -250 0
70 -230 -234 0
70 -214 -270 0
70 -230 -254 0
70 -214 -290 0
70 -230 -274 0
70 -234 -270 0
70 -250 -254 0
70 -234 -290 0
70 -250 -274 0
70 -254 -290 0
70 -270 -274 0
71 -195 -216 0
71 -196 -215 0
71 -195 -236 0
71 -196 -235 0
71 -195 -256 0
71 -196 -255 0
71 -195 -276 0
71 -196 -275 0
71 -215 -236 0
71 -216 -235 0
71 -215 -256 0
71 -216 -255 0
71 -215 -276 0
71 -216 -275 0
71 -235 -256 0
71 -236 -255 0
71 -235 -276 0
71 -236 -275 0
71 -255 -276 0
71 -256 -275 0
72 -195 -217 0
72 -197 -215 0
72 -195 -237 0
72 -197 -235 0
72 -195 -257 0
72 -197 -255 0
72 -195 -277 0
72 -197 -275 0
72 -215 -237 0
72 -217 -235 0
72 -215 -257 0
72 -217 -255 0
72 -215 -277 0
72 -217 -275 0
72 -235 -257 0
72 -237 -255 0
72 -235 -277 0
72 -237 -275 0
72 -255 -277 0
72 -257 -275 0
73 -195 -218 0
73 -198 -215 0
73 -195 -238 0
73 -198 -235 0
73 -195 -258 0
73 -198 -255 0
73 -195 -278 0
73 -198 -275 0
73 -215 -238 0
73 -218 -235 0
73 -215 -258 0
73 -218 -255 0
73 -215 -278 0
73 -218 -275 0
73 -235 -258 0
73 -238 -255 0
73 -235 -278 0
73 -238 -275 0
73 -255 -278 0
73 -258 -275 0
74 -195 -219 0
74 -199 -215 0
74 -195 -239 0
74 -199 -235 0
74 -195 -259 0
74 -199 -255 0
74 -195 -279 0
74 -199 -275 0
74 -215 -239 0
74 -219 -235 0
74 -215 -259 0
74 -219 -255 0
74 -215 -279 0
74 -219 -275 0
74 -235 -259 0
74 -239 -255 0
74 -235 -279 0
74 -239 -275 0
74 -255 -279 0
74 -259 -275 0
75 -195 -220 0
75 -200 -215 0
75 -195 -240 0
75 -200 -235 0
75 -195 -260 0
75 -200 -255 0
75 -195 -280 0
75 -200 -275 0
75 -215 -240 0
75 -220 -235 0
75 -215 -260 0
75 -220 -255 0
75 -215 -280 0
75 -220 -275 0
75 -235 -260 0
75 -240 -255 0
75 -235 -280 0
75 -240 -275 0
75 -255 -280 0
75 -260 -275 0
76 -195 -221 0
76 -201 -215 0
76 -195 -241 0
76 -201 -235 0
76 -195 -261 0
76 -201 -255 0
76 -195 -281 0
76 -201 -275 0
76 -215 -241 0
76 -221 -235 0
76 -215 -261 0
76 -221 -255 0
76 -215 -281 0
76 -221 -275 0
76 -235 -261 0
76 -241 -255 0
76 -235 -281 0
76 -241 -275 0
76 -255 -281 0
76 -261 -275 0
77 -195 -222 0
77 -202 -215 0
77 -195 -242 0
77 -202 -235 0
77 -195 -262 0
77 -202 -255 0
77 -195 -282 0
77 -202 -275 0
77 -215 -242 0
77 -222 -235 0
77 -215 -262 0
77 -222 -255 0
77 -215 -282 0
77 -222 -275 0
77 -235 -262 0
77 -242 -255 0
77 -235 -282 0
77 -242 -275 0
77 -255 -282 0
77 -262 -275 0
78 -195 -223 0
78 -203 -215 0
78 -195 -243 0
78 -203 -235 0
78 -195 -263 0
78 -203 -255 0
78 -195 -283 0
78 -203 -275 0
78 -215 -243 0
78 -223 -235 0
78 -215 -263 0
78 -223 -255 0
78 -215 -283 0
78 -223 -275 0
78 -235 -263 0
78 -243 -255 0
78 -235 -283 0
78 -243 -275 0
78 -255 -283 0
78 -263 -275 0
79 -195 -224 0
79 -204 -215 0
79 -195 -244 0
79 -204 -235 0
79 -195 -264 0
79 -204 -255 0
79 -195 -284 0
79 -204 -275 0
79 -215 -244 0
79 -224 -235 0
79 -215 -264 0
79 -224 -255 0
79 -215 -284 0
79 -224 -275 0
79 -235 -264 0
79 -244 -255 0
79 -235 -284 0
79 -244 -275 0
79 -255 -284 0
79 -264 -275 0
80 -195 -225 0
80 -205 -215 0
80 -195 -245 0
80 -205 -235 0
80 -195 -265 0
80 -205 -255 0
80 -195 -285 0
80 -205 -275 0
80 -215 -245 0
80 -225 -235 0
80 -215 -265 0
80 -225 -255 0
80 -215 -285 0
80 -225 -275 0
80 -235 -265 0
80 -245 -255 0
80 -235 -285 0
80 -245 -275 0
80 -255 -285 0
80 -265 -275 0
81 -195 -226 0
81 -206 -215 0
81 -195 -246 0
81 -206 -235 0
81 -195 -266 0
81 -206 -255 0
81 -195 -286 0
81 -206 -275 0
81 -215 -246 0
81 -226 -235 0
81 -215 -266 0
81 -226 -255 0
81 -215 -286 0
81 -226 -275 0
81 -235 -266 0
81 -246 -255 0
81 -235 -286 0
81 -246 -275 0
81 -255 -286 0
81 -266 -275 0
82 -195 -227 0
82 -207 -215 0
82 -195 -247 0
82 -207 -235 0
82 -195 -267 0
82 -207 -255 0
82 -195 -287 0
82 -207 -275 0
82 -215 -247 0
82 -227 -235 0
82 -215 -267 0
82 -227 -255 0
82 -215 -287 0
82 -227 -275 0
82 -235 -267 0
82 -247 -255 0
82 -235 -287 0
82 -247 -275 0
82 -255 -287 0
82 -267 -275 0
83 -195 -228 0
83 -208 -215 0
83 -195 -248 0
83 -208 -235 0
83 -195 -268 0
83 -208 -255 0
83 -195 -288 0
83 -208 -275 0
83 -215 -248 0
83 -228 -235 0
83 -215 -268 0
83 -228 -255 0
83 -215 -288 0
83 -228 -275 0
83 -235 -268 0
83 -248 -255 0
83 -235 -288 0
83 -248 -275 0
83 -255 -288 0
83 -268 -275 0
84 -195 -229 0
84 -209 -215 0
84 -195 -249 0
84 -209 -235 0
84 -195 -269 0
84 -209 -255 0
84 -195 -289 0
84 -209 -275 0
84 -215 -249 0
84 -229 -235 0
84 -215 -269 0
84 -229 -255 0
84 -215 -289 0
84 -229 -275 0
84 -235 -269 0
84 -249 -255 0
84 -235 -289 0
84 -249 -275 0
84 -255 -289 0
84 -269 -275 0
85 -195 -230 0
85 -210 -215 0
85 -195 -250 0
85 -210 -235 0
85 -195 -270 0
85 -210 -255 0
85 -195 -290 0
85 -210 -275 0
85 -215 -250 0
85 -230 -235 0
85 -215 -270 0
85 -230 -255 0
85 -215 -290 0
85 -230 -275 0
85 -235 -270 0
85 -250 -255 0
85 -235 -290 0
85 -250 -275 0
85 -255 -290 0
85 -270 -275 0
86 -196 -217 0
86 -197 -216 0
86 -196 -237 0
86 -197 -236 0
86 -196 -257 0
86 -197 -256 0
86 -196 -277 0
86 -197 -276 0
86 -216 -237 0
86 -217 -236 0
86 -216 -257 0
86 -217 -256 0
86 -216 -277 0
86 -217 -276 0
86 -236 -257 0
86 -237 -256 0
86 -236 -277 0
86 -237 -276 0
86 -256 -277 0
86 -257 -276 0
87 -196 -218 0
87 -198 -216 0
87 -196 -238 0
87 -198 -236 0
87 -196 -258 0
87 -198 -256 0
87 -196 -278 0
87 -198 -276 0
87 -216 -238 0
87 -218 -236 0
87 -216 -258 0
87 -218 -256 0
87 -216 -278 0
87 -218 -276 0
87 -236 -258 0
87 -238 -256 0
87 -236 -278 0
87 -238 -276 0
87 -256 -278 0
87 -258 -276 0
88 -196 -219 0
88 -199 -216 0
88 -196 -239 0
88 -199 -236 0
88 -196 -259 0
88 -199 -256 0
88 -196 -279 0
88 -199 -276 0
88 -216 -239 0
88 -219 -236 0
88 -216 -259 0
88 -219 -256 0
88 -216 -279 0
88 -219 -276 0
88 -236 -259 0
88 -239 -256 0
88 -236 -279 0
88 -239 -276 0
88 -256 -279 0
88 -259 -276 0
89 -196 -220 0
89 -200 -216 0
89 -196 -240 0
89 -200 -236 0
89 -196 -260 0
89 -200 -256 0
89 -196 -280 0
89 -200 -276 0
89 -216 -240 0
89 -220 -236 0
89 -216 -260 0
89 -220 -256 0
89 -216 -280 0
89 -220 -276 0
89 -236 -260 0
89 -240 -256 0
89 -236 -280 0
89 -240 -276 0
89 -256 -280 0
89 -260 -276 0
90 -196 -221 0
90 -201 -216 0
90 -196 -241 0
90 -201 -236 0
90 -196 -261 0
90 -201 -256 0
90 -196 -281 0
90 -201 -276 0
90 -216 -241 0
90 -221 -236 0
90 -216 -261 0
90 -221 -256 0
90 -216 -281 0
90 -221 -276 0
90 -236 -261 0
90 -241 -256 0
90 -236 -281 0
90 -241 -276 0
90 -256 -281 0
90 -261 -276 0
91 -196 -222 0
91 -202 -216 0
91 -196 -242 0
91 -202 -236 0
91 -196 -262 0
91 -202 -256 0
91 -196 -282 0
91 -202 -276 0
91 -216 -242 0
91 -222 -236 0
91 -216 -262 0
91 -222 -256 0
91 -216 -282 0
91 -222 -276 0
91 -236 -262 0
91 -242 -256 0
91 -236 -282 0
91 -242 -276 0
91 -256 -282 0
91 -262 -276 0
92 -196 -223 0
92 -203 -216 0
92 -196 -243 0
92 -203 -236 0
92 -196 -263 0
92 -203 -256 0
92 -196 -283 0
92 -203 -276 0
92 -216 -243 0
92 -223 -236 0
92 -216 -263 0
92 -223 -256 0
92 -216 -283 0
92 -223 -276 0
92 -236 -263 0
92 -243 -256 0
92 -236 -283 0
92 -243 -276 0
92 -256 -283 0
92 -263 -276 0
93 -196 -224 0
93 -204 -216 0
93 -196 -244 0
93 -204 -236 0
93 -196 -264 0
93 -204 -256 0
93 -196 -284 0
93 -204 -276 0
93 -216 -244 0
93 -224 -236 0
93 -216 -264 0
93 -224 -256 0
93 -216 -284 0
93 -224 -276 0
93 -236 -264 0
93 -244 -256 0
93 -236 -284 0
93 -244 -276 0
93 -256 -284 0
93 -264 -276 0
94 -196 -225 0
94 -205 -216 0
94 -196 -245 0
94 -205 -236 0
94 -196 -265 0
94 -205 -256 0
94 -196 -285 0
94 -205 -276 0
94 -216 -245 0
94 -225 -236 0
94 -216 -265 0
94 -225 -256 0
94 -216 -285 0
94 -225 -276 0
94 -236 -265 0
94 -245 -256 0
94 -236 -285 0
94 -245 -276 0
94 -256 -285 0
94 -265 -276 0
95 -196 -226 0
95 -206 -216 0
95 -196 -246 0
95 -206 -236 0
95 -196 -266 0
95 -206 -256 0
95 -196 -286 0
95 -206 -276 0
95 -216 -246 0
95 -226 -236 0
95 -216 -266 0
95 -226 -256 0
95 -216 -286 0
95 -226 -276 0
95 -236 -266 0
95 -246 -256 0
95 -236 -286 0
95 -246 -276 0
95 -256 -286 0
95 -266 -276 0
96 -196 -227 0
96 -207 -216 0
96 -196 -247 0
96 -207 -236 0
96 -196 -267 0
96 -207 -256 0
96 -196 -287 0
96 -207 -276 0
96 -216 -247 0
96 -227 -236 0
96 -216 -267 0
96 -227 -256 0
96 -216 -287 0
96 -227 -276 0
96 -236 -267 0
96 -247 -256 0
96 -236 -287 0
96 -247 -276 0
96 -256 -287 0
96 -267 -276 0
97 -196 -228 0
97 -208 -216 0
97 -196 -248 0
97 -208 -236 0
97 -196 -268 0
97 -208 -256 0
97 -196 -288 0
97 -208 -276 0
97 -216 -248 0
97 -228 -236 0
97 -216 -268 0
97 -228 -256 0
97 -216 -288 0
97 -228 -276 0
97 -236 -268 0
97 -248 -256 0
97 -236 -288 0
97 -248 -276 0
97 -256 -288 0
97 -268 -276 0
98 -196 -229 0
98 -209 -216 0
98 -196 -249 0
98 -209 -236 0
98 -196 -269 0
98 -209 -256 0
98 -196 -289 0
98 -209 -276 0
98 -216 -249 0
98 -229 -236 0
98 -216 -269 0
98 -229 -256 0
98 -216 -289 0
98 -229 -276 0
98 -236 -269 0
98 -249 -256 0
98 -236 -289 0
98 -249 -276 0
98 -256 -289 0
98 -269 -276 0
99 -196 -230 0
99 -210 -216 0
99 -196 -250 0
99 -210 -236 0
99 -196 -270 0
99 -210 -256 0
99 -196 -290 0
99 -210 -276 0
99 -216 -250 0
99 -230 -236 0
99 -216 -270 0
99 -230 -256 0
99 -216 -290 0
99 -230 -276 0
99 -236 -270 0
99 -250 -256 0
99 -236 -290 0
99 -250 -276 0
99 -256 -290 0
99 -270 -276 0
100 -197 -218 0
100 -198 -217 0
100 -197 -238 0
100 -198 -237 0
100 -197 -258 0
100 -198 -257 0
100 -197 -278 0
100 -198 -277 0
100 -217 -238 0
100 -218 -237 0
100 -217 -258 0
100 -218 -257 0
100 -217 -278 0
100 -218 -277 0
100 -237 -258 0
100 -238 -257 0
100 -237 -278 0
100 -238 -277 0
100 -257 -278 0
100 -258 -277 0
101 -197 -219 0
101 -199 -217 0
101 -197 -239 0
101 -199 -237 0
101 -197 -259 0
101 -199 -257 0
101 -197 -279 0
101 -199 -277 0
101 -217 -239 0
101 -219 -237 0
101 -217 -259 0
101 -219 -257 0
101 -217 -279 0
101 -219 -277 0
101 -237 -259 0
101 -239 -257 0
101 -237 -279 0
101 -239 -277 0
101 -257 -279 0
101 -259 -277 0
102 -197 -220 0
102 -200 -217 0
102 -197 -240 0
102 -200 -237 0
102 -197 -260 0
102 -200 -257 0
102 -197 -280 0
102 -200 -277 0
102 -217 -240 0
102 -220 -237 0
102 -217 -260 0
102 -220 -257 0
102 -217 -280 0
102 -220 -277 0
102 -237 -260 0
102 -240 -257 0
102 -237 -280 0
102 -240 -277 0
102 -257 -280 0
102 -260 -277 0
103 -197 -221 0
103 -201 -217 0
103 -197 -241 0
103 -201 -237 0
103 -197 -261 0
103 -201 -257 0
103 -197 -281 0
103 -201 -277 0
103 -217 -241 0
103 -221 -237 0
103 -217 -261 0
103 -221 -257 0
103 -217 -281 0
103 -221 -277 0
103 -237 -261 0
103 -241 -257 0
103 -237 -281 0
103 -241 -277 0
103 -257 -281 0
103 -261 -277 0
104 -197 -222 0
104 -202 -217 0
104 -197 -242 0
104 -202 -237 0
104 -197 -262 0
104 -202 -257 0
104 -197 -282 0
104 -202 -277 0
104 -217 -242 0
104 -222 -237 0
104 -217 -262 0
104 -222 -257 0
104 -217 -282 0
104 -222 -277 0
104 -237 -262 0
104 -242 -257 0
104 -237 -282 0
104 -242 -277 0
104 -257 -282 0
104 -262 -277 0
105 -197 -223 0
105 -203 -217 0
105 -197 -243 0
105 -203 -237 0
105 -197 -263 0
105 -203 -257 0
105 -197 -283 0
105 -203 -277 0
105 -217 -243 0
105 -223 -237 0
105 -217 -263 0
105 -223 -257 0
105 -217 -283 0
105 -223 -277 0
105 -237 -263 0
105 -243 -257 0
105 -237 -283 0
105 -243 -277 0
105 -257 -283 0
105 -263 -277 0
106 -197 -224 0
106 -204 -217 0
106 -197 -244 0
106 -204 -237 0
106 -197 -264 0
106 -204 -257 0
106 -197 -284 0
106 -204 -277 0
106 -217 -244 0
106 -224 -237 0
106 -217 -264 0
106 -224 -257 0
106 -217 -284 0
106 -224 -277 0
106 -237 -264 0
106 -244 -257 0
106 -237 -284 0
106 -244 -277 0
106 -257 -284 0
106 -264 -277 0
107 -197 -225 0
107 -205 -217 0
107 -197 -245 0
107 -205 -237 0
107 -197 -265 0
107 -205 -257 0
107 -197 -285 0
107 -205 -277 0
107 -217 -245 0
107 -225 -237 0
107 -217 -265 0
107 -225 -257 0
107 -217 -285 0
107 -225 -277 0
107 -237 -265 0
107 -245 -257 0
107 -237 -285 0
107 -245 -277 0
107 -257 -285 0
107 -265 -277 0
108 -197 -226 0
108 -206 -217 0
108 -197 -246 0
108 -206 -237 0
108 -197 -266 0
108 -206 -257 0
108 -197 -286 0
108 -206 -277 0
108 -217 -246 0
108 -226 -237 0
108 -217 -266 0
108 -226 -257 0
108 -217 -286 0
108 -226 -277 0
108 -237 -266 0
108 -246 -257 0
108 -237 -286 0
108 -246 -277 0
108 -257 -286 0
108 -266 -277 0
109 -197 -227 0
109 -207 -217 0
109 -197 -247 0
109 -207 -237 0
109 -197 -267 0
109 -207 -257 0
109 -197 -287 0
109 -207 -277 0
109 -217 -247 0
109 -227 -237 0
109 -217 -267 0
109 -227 -257 0
109 -217 -287 0
109 -227 -277 0
109 -237 -267 0
109 -247 -257 0
109 -237 -287 0
109 -247 -277 0
109 -257 -287 0
109 -267 -277 0
110 -197 -228 0
110 -208 -217 0
110 -197 -248 0
110 -208 -237 0
110 -197 -268 0
110 -208 -257 0
110 -197 -288 0
110 -208 -277 0
110 -217 -248 0
110 -228 -237 0
110 -217 -268 0
110 -228 -257 0
110 -217 -288 0
110 -228 -277 0
110 -237 -268 0
110 -248 -257 0
110 -237 -288 0
110 -248 -277 0
110 -257 -288 0
110 -268 -277 0
111 -197 -229 0
111 -209 -217 0
111 -197 -249 0
111 -209 -237 0
111 -197 -269 0
111 -209 -257 0
111 -197 -289 0
111 -209 -277 0
111 -217 -249 0
111 -229 -237 0
111 -217 -269 0
111 -229 -257 0
111 -217 -289 0
111 -229 -277 0
111 -237 -269 0
111 -249 -257 0
111 -237 -289 0
111 -249 -277 0
111 -257 -289 0
111 -269 -277 0
112 -197 -230 0
112 -210 -217 0
112 -197 -250 0
112 -210 -237 0
112 -197 -270 0
112 -210 -257 0
112 -197 -290 0
112 -210 -277 0
112 -217 -250 0
112 -230 -237 0
112 -217 -270 0
112 -230 -257 0
112 -217 -290 0
112 -230 -277 0
112 -237 -270 0
112 -250 -257 0
112 -237 -290 0
112 -250 -277 0
112 -257 -290 0
112 -270 -277 0
113 -198 -219 0
113 -199 -218 0
113 -198 -239 0
113 -199 -238 0
113 -198 -259 0
113 -199 -258 0
113 -198 -279 0
113 -199 -278 0
113 -218 -239 0
113 -219 -238 0
113 -218 -259 0
113 -219 -258 0
113 -218 -279 0
113 -219 -278 0
113 -238 -259 0
113 -239 -258 0
113 -238 -279 0
113 -239 -278 0
113 -258 -279 0
113 -259 -278 0
114 -198 -220 0
114 -200 -218 0
114 -198 -240 0
114 -200 -238 0
114 -198 -260 0
114 -200 -258 0
114 -198 -280 0
114 -200 -278 0
114 -218 -240 0
114 -220 -238 0
114 -218 -260 0
114 -220 -258 0
114 -218 -280 0
114 -220 -278 0
114 -238 -260 0
114 -240 -258 0
114 -238 -280 0
114 -240 -278 0
114 -258 -280 0
114 -260 -278 0
115 -198 -221 0
115 -201 -218 0
115 -198 -241 0
115 -201 -238 0
115 -198 -261 0
115 -201 -258 0
115 -198 -281 0
115 -201 -278 0
115 -218 -241 0
115 -221 -238 0
115 -218 -261 0
115 -221 -258 0
115 -218 -281 0
115 -221 -278 0
115 -238 -261 0
115 -241 -258 0
115 -238 -281 0
115 -241 -278 0
115 -258 -281 0
115 -261 -278 0
116 -198 -222 0
116 -202 -218 0
116 -198 -242 0
116 -202 -238 0
116 -198 -262 0
116 -202 -258 0
116 -198 -282 0
116 -202 -278 0
116 -218 -242 0
116 -222 -238 0
116 -218 -262 0
116 -222 -258 0
116 -218 -282 0
116 -222 -278 0
116 -238 -262 0
116 -242 -258 0
116 -238 -282 0
116 -242 -278 0
116 -258 -282 0
116 -262 -278 0
117 -198 -223 0
117 -203 -218 0
117 -198 -243 0
117 -203 -238 0
117 -198 -263 0
117 -203 -258 0
117 -198 -283 0
117 -203 -278 0
117 -218 -243 0
117 -223 -238 0
117 -218 -263 0
117 -223 -258 0
117 -218 -283 0
117 -223 -278 0
117 -238 -263 0
117 -243 -258 0
117 -238 -283 0
117 -243 -278 0
117 -258 -283 0
117 -263 -278 0
118 -198 -224 0
118 -204 -218 0
118 -198 -244 0
118 -204 -238 0
118 -198 -264 0
118 -204 -258 0
118 -198 -284 0
118 -204 -278 0
118 -218 -244 0
118 -224 -238 0
118 -218 -264 0
118 -224 -258 0
118 -218 -284 0
118 -224 -278 0
118 -238 -264 0
118 -244 -258 0
118 -238 -284 0
118 -244 -278 0
118 -258 -284 0
118 -264 -278 0
119 -198 -225 0
119 -205 -218 0
119 -198 -245 0
119 -205 -238 0
119 -198 -265 0
119 -205 -258 0
119 -198 -285 0
119 -205 -278 0
119 -218 -245 0
119 -225 -238 0
119 -218 -265 0
119 -225 -258 0
119 -218 -285 0
119 -225 -278 0
119 -238 -265 0
119 -245 -258 0
119 -238 -285 0
119 -245 -278 0
119 -258 -285 0
119 -265 -278 0
120 -198 -226 0
120 -206 -218 0
120 -198 -246 0
120 -206 -238 0
120 -198 -266 0
120 -206 -258 0
120 -198 -286 0
120 -206 -278 0
120 -218 -246 0
120 -226 -238 0
120 -218 -266 0
120 -226 -258 0
120 -218 -286 0
120 -226 -278 0
120 -238 -266 0
120 -246 -258 0
120 -238 -286 0
120 -246 -278 0
120 -258 -286 0
120 -266 -278 0
121 -198 -227 0
121 -207 -218 0
121 -198 -247 0
121 -207 -238 0
121 -198 -267 0
121 -207 -258 0
121 -198 -287 0
121 -207 -278 0
121 -218 -247 0
121 -227 -238 0
121 -218 -267 0
121 -227 -258 0
121 -218 -287 0
121 -227 -278 0
121 -238 -267 0
121 -247 -258 0
121 -238 -287 0
121 -247 -278 0
121 -258 -287 0
121 -267 -278 0
122 -198 -228 0
122 -208 -218 0
122 -198 -248 0
122 -208 -238 0
122 -198 -268 0
122 -208 -258 0
122 -198 -288 0
122 -208 -278 0
122 -218 -248 0
122 -228 -238 0
122 -218 -268 0
122 -228 -258 0
122 -218 -288 0
122 -228 -278 0
122 -238 -268 0
122 -248 -258 0
122 -238 -288 0
122 -248 -278 0
122 -258 -288 0
122 -268 -278 0
123 -198 -229 0
123 -209 -218 0
123 -198 -249 0
123 -209 -238 0
123 -198 -269 0
123 -209 -258 0
123 -198 -289 0
123 -209 -278 0
123 -218 -249 0
123 -229 -238 0
123 -218 -269 0
123 -229 -258 0
123 -218 -289 0
123 -229 -278 0
123 -238 -269 0
123 -249 -258 0
123 -238 -289 0
123 -249 -278 0
123 -258 -289 0
123 -269 -278 0
124 -198 -230 0
124 -210 -218 0
124 -198 -250 0
124 -210 -238 0
124 -198 -270 0
124 -210 -258 0
124 -198 -290 0
124 -210 -278 0
124 -218 -250 0
124 -230 -238 0
124 -218 -270 0
124 -230 -258 0
124 -218 -290 0
124 -230 -278 0
124 -238 -270 0
124 -250 -258 0
124 -238 -290 0
124 -250 -278 0
124 -258 -290 0
124 -270 -278 0
125 -199 -220 0
125 -200 -219 0
125 -199 -240 0
125 -200 -239 0
125 -199 -260 0
125 -200 -259 0
125 -199 -280 0
125 -200 -279 0
125 -219 -240 0
125 -220 -239 0
125 -219 -260 0
125 -220 -259 0
125 -219 -280 0
125 -220 -279 0
125 -239 -260 0
125 -240 -259 0
125 -239 -280 0
125 -240 -279 0
125 -259 -280 0
125 -260 -279 0
126 -199 -221 0
126 -201 -219 0
126 -199 -241 0
126 -201 -239 0
126 -199 -261 0
126 -201 -259 0
126 -199 -281 0
126 -201 -279 0
126 -219 -241 0
126 -221 -239 0
126 -219 -261 0
126 -221 -259 0
126 -219 -281 0
126 -221 -279 0
126 -239 -261 0
126 -241 -259 0
126 -239 -281 0
126 -241 -279 0
126 -259 -281 0
126 -261 -279 0
127 -199 -222 0
127 -202 -219 0
127 -199 -242 0
127 -202 -239 0
127 -199 -262 0
127 -202 -259 0
127 -199 -282 0
127 -202 -279 0
127 -219 -242 0
127 -222 -239 0
127 -219 -262 0
127 -222 -259 0
127 -219 -282 0
127 -222 -279 0
127 -239 -262 0
127 -242 -259 0
127 -239 -282 0
127 -242 -279 0
127 -259 -282 0
127 -262 -279 0
128 -199 -223 0
128 -203 -219 0
128 -199 -243 0
128 -203 -239 0
128 -199 -263 0
128 -203 -259 0
128 -199 -283 0
128 -203 -279 0
128 -219 -243 0
128 -223 -239 0
128 -219 -263 0
128 -223 -259 0
128 -219 -283 0
128 -223 -279 0
128 -239 -263 0
128 -243 -259 0
128 -239 -283 0
128 -243 -279 0
128 -259 -283 0
128 -263 -279 0
129 -199 -224 0
129 -204 -219 0
129 -199 -244 0
129 -204 -239 0
129 -199 -264 0
129 -204 -259 0
129 -199 -284 0
129 -204 -279 0
129 -219 -244 0
129 -224 -239 0
129 -219 -264 0
129 -224 -259 0
129 -219 -284 0
129 -224 -279 0
129 -239 -264 0
129 -244 -259 0
129 -239 -284 0
129 -244 -279 0
129 -259 -284 0
129 -264 -279 0
130 -199 -225 0
130 -205 -219 0
130 -199 -245 0
130 -205 -239 0
130 -199 -265 0
130 -205 -259 0
130 -199 -285 0
130 -205 -279 0
130 -219 -245 0
130 -225 -239 0
130 -219 -265 0
130 -225 -259 0
130 -219 -285 0
130 -225 -279 0
130 -239 -265 0
130 -245 -259 0
130 -239 -285 0
130 -245 -279 0
130 -259 -285 0
130 -265 -279 0
131 -199 -226 0
131 -206 -219 0
131 -199 -246 0
131 -206 -239 0
131 -199 -266 0
131 -206 -259 0
131 -199 -286 0
131 -206 -279 0
131 -219 -246 0
131 -226 -239 0
131 -219 -266 0
131 -226 -259 0
131 -219 -286 0
131 -226 -279 0
131 -239 -266 0
131 -246 -259 0
131 -239 -286 0
131 -246 -279 0
131 -259 -286 0
131 -266 -279 0
132 -199 -227 0
132 -207 -219 0
132 -199 -247 0
132 -207 -239 0
132 -199 -267 0
132 -207 -259 0
132 -199 -287 0
132 -207 -279 0
132 -219 -247 0
132 -227 -239 0
132 -219 -267 0
132 -227 -259 0
132 -219 -287 0
132 -227 -279 0
132 -239 -267 0
132 -247 -259 0
132 -239 -287 0
132 -247 -279 0
132 -259 -287 0
132 -267 -279 0
133 -199 -228 0
133 -208 -219 0
133 -199 -248 0
133 -208 -239 0
133 -199 -268 0
133 -208 -259 0
133 -199 -288 0
133 -208 -279 0
133 -219 -248 0
133 -228 -239 0
133 -219 -268 0
133 -228 -259 0
133 -219 -288 0
133 -228 -279 0
133 -239 -268 0
133 -248 -259 0
133 -239 -288 0
133 -248 -279 0
133 -259 -288 0
133 -268 -279 0
134 -199 -229 0
134 -209 -219 0
134 -199 -249 0
134 -209 -239 0
134 -199 -269 0
134 -209 -259 0
134 -199 -289 0
134 -209 -279 0
134 -219 -249 0
134 -229 -239 0
134 -219 -269 0
134 -229 -259 0
134 -219 -289 0
134 -229 -279 0
134 -239 -269 0
134 -249 -259 0
134 -239 -289 0
134 -249 -279 0
134 -259 -289 0
134 -269 -279 0
135 -199 -230 0
135 -210 -219 0
135 -199 -250 0
135 -210 -239 0
135 -199 -270 0
135 -210 -259 0
135 -199 -290 0
135 -210 -279 0
135 -219 -250 0
135 -230 -239 0
135 -219 -270 0
135 -230 -259 0
135 -219 -290 0
135 -230 -279 0
135 -239 -270 0
135 -250 -259 0
135 -239 -290 0
135 -250 -279 0
135 -259 -290 0
135 -270 -279 0
136 -200 -221 0
136 -201 -220 0
136 -200 -241 0
136 -201 -240 0
136 -200 -261 0
136 -201 -260 0
136 -200 -281 0
136 -201 -280 0
136 -220 -241 0
136 -221 -240 0
136 -220 -261 0
136 -221 -260 0
136 -220 -281 0
136 -221 -280 0
136 -240 -261 0
136 -241 -260 0
136 -240 -281 0
136 -241 -280 0
136 -260 -281 0
136 -261 -280 0
137 -200 -222 0
137 -202 -220 0
137 -200 -242 0
137 -202 -240 0
137 -200 -262 0
137 -202 -260 0
137 -200 -282 0
137 -202 -280 0
137 -220 -242 0
137 -222 -240 0
137 -220 -262 0
137 -222 -260 0
137 -220 -282 0
137 -222 -280 0
137 -240 -262 0
137 -242 -260 0
137 -240 -282 0
137 -242 -280 0
137 -260 -282 0
137 -262 -280 0
138 -200 -223 0
138 -203 -220 0
138 -200 -243 0
138 -203 -240 0
138 -200 -263 0
138 -203 -260 0
138 -200 -283 0
138 -203 -280 0
138 -220 -243 0
138 -223 -240 0
138 -220 -263 0
138 -223 -260 0
138 -220 -283 0
138 -223 -280 0
138 -240 -263 0
138 -243 -260 0
138 -240 -283 0
138 -243 -280 0
138 -260 -283 0
138 -263 -280 0
139 -200 -224 0
139 -204 -220 0
139 -200 -244 0
139 -204 -240 0
139 -200 -264 0
139 -204 -260 0
139 -200 -284 0
139 -204 -280 0
139 -220 -244 0
139 -224 -240 0
139 -220 -264 0
139 -224 -260 0
139 -220 -284 0
139 -224 -280 0
139 -240 -264 0
139 -244 -260 0
139 -240 -284 0
139 -244 -280 0
139 -260 -284 0
139 -264 -280 0
140 -200 -225 0
140 -205 -220 0
140 -200 -245 0
140 -205 -240 0
140 -200 -265 0
140 -205 -260 0
140 -200 -285 0
140 -205 -280 0
140 -220 -245 0
140 -225 -240 0
140 -220 -265 0
140 -225 -260 0
140 -220 -285 0
140 -225 -280 0
140 -240 -265 0
140 -245 -260 0
140 -240 -285 0
140 -245 -280 0
140 -260 -285 0
140 -265 -280 0
141 -200 -226 0
141 -206 -220 0
141 -200 -246 0
141 -206 -240 0
141 -200 -266 0
141 -206 -260 0
141 -200 -286 0
141 -206 -280 0
141 -220 -246 0
141 -226 -240 0
141 -220 -266 0
141 -226 -260 0
141 -220 -286 0
141 -226 -280 0
141 -240 -266 0
141 -246 -260 0
141 -240 -286 0
141 -246 -280 0
141 -260 -286 0
141 -266 -280 0
142 -200 -227 0
142 -207 -220 0
142 -200 -247 0
142 -207 -240 0
142 -200 -267 0
142 -207 -260 0
142 -200 -287 0
142 -207 -280 0
142 -220 -247 0
142 -227 -240 0
142 -220 -267 0
142 -227 -260 0
142 -220 -287 0
142 -227 -280 0
142 -240 -267 0
142 -247 -260 0
142 -240 -287 0
142 -247 -280 0
142 -260 -287 0
142 -267 -280 0
143 -200 -228 0
143 -208 -220 0
143 -200 -248 0
143 -208 -240 0
143 -200 -268 0
143 -208 -260 0
143 -200 -288 0
143 -208 -280 0
143 -220 -248 0
143 -228 -240 0
143 -220 -268 0
143 -228 -260 0
143 -220 -288 0
143 -228 -280 0
143 -240 -268 0
143 -248 -260 0
143 -240 -288 0
143 -248 -280 0
143 -260 -288 0
143 -268 -280 0
144 -200 -229 0
144 -209 -220 0
144 -200 -249 0
144 -209 -240 0
144 -200 -269 0
144 -209 -260 0
144 -200 -289 0
144 -209 -280 0
144 -220 -249 0
144 -229 -240 0
144 -220 -269 0
144 -229 -260 0
144 -220 -289 0
144 -229 -280 0
144 -240 -269 0
144 -249 -260 0
144 -240 -289 0
144 -249 -280 0
144 -260 -289 0
144 -269 -280 0
145 -200 -230 0
145 -210 -220 0
145 -200 -250 0
145 -210 -240 0
145 -200 -270 0
145 -210 -260 0
145 -200 -290 0
145 -210 -280 0
145 -220 -250 0
145 -230 -240 0
145 -220 -270 0
145 -230 -260 0
145 -220 -290 0
145 -230 -280 0
145 -240 -270 0
145 -250 -260 0
145 -240 -290 0
145 -250 -280 0
145 -260 -290 0
145 -270 -280 0
146 -201 -222 0
146 -202 -221 0
146 -201 -242 0
146 -202 -241 0
146 -201 -262 0
146 -202 -261 0
146 -201 -282 0
146 -202 -281 0
146 -221 -242 0
146 -222 -241 0
146 -221 -262 0
146 -222 -261 0
146 -221 -282 0
146 -222 -281 0
146 -241 -262 0
146 -242 -261 0
146 -241 -282 0
146 -242 -281 0
146 -261 -282 0
146 -262 -281 0
147 -201 -223 0
147 -203 -221 0
147 -201 -243 0
147 -203 -241 0
147 -201 -263 0
147 -203 -261 0
147 -201 -283 0
147 -203 -281 0
147 -221 -243 0
147 -223 -241 0
147 -221 -263 0
147 -223 -261 0
147 -221 -283 0
147 -223 -281 0
147 -241 -263 0
147 -243 -261 0
147 -241 -283 0
147 -243 -281 0
147 -261 -283 0
147 -263 -281 0
148 -201 -224 0
148 -204 -221 0
148 -201 -244 0
148 -204 -241 0
148 -201 -264 0
148 -204 -261 0
148 -201 -284 0
148 -204 -281 0
148 -221 -244 0
148 -224 -241 0
148 -221 -264 0
148 -224 -261 0
148 -221 -284 0
148 -224 -281 0
148 -241 -264 0
148 -244 -261 0
148 -241 -284 0
148 -244 -281 0
148 -261 -284 0
148 -264 -281 0
149 -201 -225 0
149 -205 -221 0
149 -201 -245 0
149 -205 -241 0
149 -201 -265 0
149 -205 -261 0
149 -201 -285 0
149 -205 -281 0
149 -221 -245 0
149 -225 -241 0
149 -221 -265 0
149 -225 -261 0
149 -221 -285 0
149 -225 -281 0
149 -241 -265 0
149 -245 -261 0
149 -241 -285 0
149 -245 -281 0
149 -261 -285 0
149 -265 -281 0
150 -201 -226 0
150 -206 -221 0
150 -201 -246 0
150 -206 -241 0
150 -201 -266 0
150 -206 -261 0
150 -201 -286 0
150 -206 -281 0
150 -221 -246 0
150 -226 -241 0
150 -221 -266 0
150 -226 -261 0
150 -221 -286 0
150 -226 -281 0
150 -241 -266 0
150 -246 -261 0
150 -241 -286 0
150 -246 -281 0
150 -261 -286 0
150 -266 -281 0
151 -201 -227 0
151 -207 -221 0
151 -201 -247 0
151 -207 -241 0
151 -201 -267 0
151 -207 -261 0
151 -201 -287 0
151 -207 -281 0
151 -221 -247 0
151 -227 -241 0
151 -221 -267 0
151 -227 -261 0
151 -221 -287 0
151 -227 -281 0
151 -241 -267 0
151 -247 -261 0
151 -241 -287 0
151 -247 -281 0
151 -261 -287 0
151 -267 -281 0
152 -201 -228 0
152 -208 -221 0
152 -201 -248 0
152 -208 -241 0
152 -201 -268 0
152 -208 -261 0
152 -201 -288 0
152 -208 -281 0
152 -221 -248 0
152 -228 -241 0
152 -221 -268 0
152 -228 -261 0
152 -221 -288 0
152 -228 -281 0
152 -241 -268 0
152 -248 -261 0
152 -241 -288 0
152 -248 -281 0
152 -261 -288 0
152 -268 -281 0
153 -201 -229 0
153 -209 -221 0
153 -201 -249 0
153 -209 -241 0
153 -201 -269 0
153 -209 -261 0
153 -201 -289 0
153 -209 -281 0
153 -221 -249 0
153 -229 -241 0
153 -221 -269 0
153 -229 -261 0
153 -221 -289 0
153 -229 -281 0
153 -241 -269 0
153 -249 -261 0
153 -241 -289 0
153 -249 -281 0
153 -261 -289 0
153 -269 -281 0
154 -201 -230 0
154 -210 -221 0
154 -201 -250 0
154 -210 -241 0
154 -201 -270 0
154 -210 -261 0
154 -201 -290 0
154 -210 -281 0
154 -221 -250 0
154 -230 -241 0
154 -221 -270 0
154 -230 -261 0
154 -221 -290 0
154 -230 -281 0
154 -241 -270 0
154 -250 -261 0
154 -241 -290 0
154 -250 -281 0
154 -261 -290 0
154 -270 -281 0
155 -202 -223 0
155 -203 -222 0
155 -202 -243 0
155 -203 -242 0
155 -202 -263 0
155 -203 -262 0
155 -202 -283 0
155 -203 -282 0
155 -222 -243 0
155 -223 -242 0
155 -222 -263 0
155 -223 -262 0
155 -222 -283 0
155 -223 -282 0
155 -242 -263 0
155 -243 -262 0
155 -242 -283 0
155 -243 -282 0
155 -262 -283 0
155 -263 -282 0
156 -202 -224 0
156 -204 -222 0
156 -202 -244 0
156 -204 -242 0
156 -202 -264 0
156 -204 -262 0
156 -202 -284 0
156 -204 -282 0
156 -222 -244 0
156 -224 -242 0
156 -222 -264 0
156 -224 -262 0
156 -222 -284 0
156 -224 -282 0
156 -242 -264 0
156 -244 -262 0
156 -242 -284 0
156 -244 -282 0
156 -262 -284 0
156 -264 -282 0
157 -202 -225 0
157 -205 -222 0
157 -202 -245 0
157 -205 -242 0
157 -202 -265 0
157 -205 -262 0
157 -202 -285 0
157 -205 -282 0
157 -222 -245 0
157 -225 -242 0
157 -222 -265 0
157 -225 -262 0
157 -222 -285 0
157 -225 -282 0
157 -242 -265 0
157 -245 -262 0
157 -242 -285 0
157 -245 -282 0
157 -262 -285 0
157 -265 -282 0
158 -202 -226 0
158 -206 -222 0
158 -202 -246 0
158 -206 -242 0
158 -202 -266 0
158 -206 -262 0
158 -202 -286 0
158 -206 -282 0
158 -222 -246 0
158 -226 -242 0
158 -222 -266 0
158 -226 -262 0
158 -222 -286 0
158 -226 -282 0
158 -242 -266 0
158 -246 -262 0
158 -242 -286 0
158 -246 -282 0
158 -262 -286 0
158 -266 -282 0
159 -202 -227 0
159 -207 -222 0
159 -202 -247 0
159 -207 -242 0
159 -202 -267 0
159 -207 -262 0
159 -202 -287 0
159 -207 -282 0
159 -222 -247 0
159 -227 -242 0
159 -222 -267 0
159 -227 -262 0
159 -222 -287 0
159 -227 -282 0
159 -242 -267 0
159 -247 -262 0
159 -242 -287 0
159 -247 -282 0
159 -262 -287 0
159 -267 -282 0
160 -202 -228 0
160 -208 -222 0
160 -202 -248 0
160 -208 -242 0
160 -202 -268 0
160 -208 -262 0
160 -202 -288 0
160 -208 -282 0
160 -222 -248 0
160 -228 -242 0
160 -222 -268 0
160 -228 -262 0
160 -222 -288 0
160 -228 -282 0
160 -242 -268 0
160 -248 -262 0
160 -242 -288 0
160 -248 -282 0
160 -262 -288 0
160 -268 -282 0
161 -202 -229 0
161 -209 -222 0
161 -202 -249 0
161 -209 -242 0
161 -202 -269 0
161 -209 -262 0
161 -202 -289 0
161 -209 -282 0
161 -222 -249 0
161 -229 -242 0
161 -222 -269 0
161 -229 -262 0
161 -222 -289 0
161 -229 -282 0
161 -242 -269 0
161 -249 -262 0
161 -242 -289 0
161 -249 -282 0
161 -262 -289 0
161 -269 -282 0
162 -202 -230 0
162 -210 -222 0
162 -202 -250 0
162 -210 -242 0
162 -202 -270 0
162 -210 -262 0
162 -202 -290 0
162 -210 -282 0
162 -222 -250 0
162 -230 -242 0
162 -222 -270 0
162 -230 -262 0
162 -222 -290 0
162 -230 -282 0
162 -242 -270 0
162 -250 -262 0
162 -242 -290 0
162 -250 -282 0
162 -262 -290 0
162 -270 -282 0
163 -203 -224 0
163 -204 -223 0
163 -203 -244 0
163 -204 -243 0
163 -203 -264 0
163 -204 -263 0
163 -203 -284 0
163 -204 -283 0
163 -223 -244 0
163 -224 -243 0
163 -223 -264 0
163 -224 -263 0
163 -223 -284 0
163 -224 -283 0
163 -243 -264 0
163 -244 -263 0
163 -243 -284 0
163 -244 -283 0
163 -263 -284 0
163 -264 -283 0
164 -203 -225 0
164 -205 -223 0
164 -203 -245 0
164 -205 -243 0
164 -203 -265 0
164 -205 -263 0
164 -203 -285 0
164 -205 -283 0
164 -223 -245 0
164 -225 -243 0
164 -223 -265 0
164 -225 -263 0
164 -223 -285 0
164 -225 -283 0
164 -243 -265 0
164 -245 -263 0
164 -243 -285 0
164 -245 -283 0
164 -263 -285 0
164 -265 -283 0
165 -203 -226 0
165 -206 -223 0
165 -203 -246 0
165 -206 -243 0
165 -203 -266 0
165 -206 -263 0
165 -203 -286 0
165 -206 -283 0
165 -223 -246 0
165 -226 -243 0
165 -223 -266 0
165 -226 -263 0
165 -223 -286 0
165 -226 -283 0
165 -243 -266 0
165 -246 -263 0
165 -243 -286 0
165 -246 -283 0
165 -263 -286 0
165 -266 -283 0
166 -203 -227 0
166 -207 -223 0
166 -203 -247 0
166 -207 -243 0
166 -203 -267 0
166 -207 -263 0
166 -203 -287 0
166 -207 -283 0
166 -223 -247 0
166 -227 -243 0
166 -223 -267 0
166 -227 -263 0
166 -223 -287 0
166 -227 -283 0
166 -243 -267 0
166 -247 -263 0
166 -243 -287 0
166 -247 -283 0
166 -263 -287 0
166 -267 -283 0
167 -203 -228 0
167 -208 -223 0
167 -203 -248 0
167 -208 -243 0
167 -203 -268 0
167 -208 -263 0
167 -203 -288 0
167 -208 -283 0
167 -223 -248 0
167 -228 -243 0
167 -223 -268 0
167 -228 -263 0
167 -223 -288 0
167 -228 -283 0
167 -243 -268 0
167 -248 -263 0
167 -243 -288 0
167 -248 -283 0
167 -263 -288 0
167 -268 -283 0
168 -203 -229 0
168 -209 -223 0
168 -203 -249 0
168 -209 -243 0
168 -203 -269 0
168 -209 -263 0
168 -203 -289 0
168 -209 -283 0
168 -223 -249 0
168 -229 -243 0
168 -223 -269 0
168 -229 -263 0
168 -223 -289 0
168 -229 -283 0
168 -243 -269 0
168 -249 -263 0
168 -243 -289 0
168 -249 -283 0
168 -263 -289 0
168 -269 -283 0
169 -203 -230 0
169 -210 -223 0
169 -203 -250 0
169 -210 -243 0
169 -203 -270 0
169 -210 -263 0
169 -203 -290 0
169 -210 -283 0
169 -223 -250 0
169 -230 -243 0
169 -223 -270 0
169 -230 -263 0
169 -223 -290 0
169 -230 -283 0
169 -243 -270 0
169 -250 -263 0
169 -243 -290 0
169 -250 -283 0
169 -263 -290 0
169 -270 -283 0
170 -204 -225 0
170 -205 -224 0
170 -204 -245 0
170 -205 -244 0
170 -204 -265 0
170 -205 -264 0
170 -204 -285 0
170 -205 -284 0
170 -224 -245 0
170 -225 -244 0
170 -224 -265 0
170 -225 -264 0
170 -224 -285 0
170 -225 -284 0
170 -244 -265 0
170 -245 -264 0
170 -244 -285 0
170 -245 -284 0
170 -264 -285 0
170 -265 -284 0
171 -204 -226 0
171 -206 -224 0
171 -204 -246 0
171 -206 -244 0
171 -204 -266 0
171 -206 -264 0
171 -204 -286 0
171 -206 -284 0
171 -224 -246 0
171 -226 -244 0
171 -224 -266 0
171 -226 -264 0
171 -224 -286 0
171 -226 -284 0
171 -244 -266 0
171 -246 -264 0
171 -244 -286 0
171 -246 -284 0
171 -264 -286 0
171 -266 -284 0
172 -204 -227 0
172 -207 -224 0
172 -204 -247 0
172 -207 -244 0
172 -204 -267 0
172 -207 -264 0
172 -204 -287 0
172 -207 -284 0
172 -224 -247 0
172 -227 -244 0
172 -224 -267 0
172 -227 -264 0
172 -224 -287 0
172 -227 -284 0
172 -244 -267 0
172 -247 -264 0
172 -244 -287 0
172 -247 -284 0
172 -264 -287 0
172 -267 -284 0
173 -204 -228 0
173 -208 -224 0
173 -204 -248 0
173 -208 -244 0
173 -204 -268 0
173 -208 -264 0
173 -204 -288 0
173 -208 -284 0
173 -224 -248 0
173 -228 -244 0
173 -224 -268 0
173 -228 -264 0
173 -224 -288 0
173 -228 -284 0
173 -244 -268 0
173 -248 -264 0
173 -244 -288 0
173 -248 -284 0
173 -264 -288 0
173 -268 -284 0
174 -204 -229 0
174 -209 -224 0
174 -204 -249 0
174 -209 -244 0
174 -204 -269 0
174 -209 -264 0
174 -204 -289 0
174 -209 -284 0
174 -224 -249 0
174 -229 -244 0
174 -224 -269 0
174 -229 -264 0
174 -224 -289 0
174 -229 -284 0
174 -244 -269 0
174 -249 -264 0
174 -244 -289 0
174 -249 -284 0
174 -264 -289 0
174 -269 -284 0
175 -204 -230 0
175 -210 -224 0
175 -204 -250 0
175 -210 -244 0
175 -204 -270 0
175 -210 -264 0
175 -204 -290 0
175 -210 -284 0
175 -224 -250 0
175 -230 -244 0
175 -224 -270 0
175 -230 -264 0
175 -224 -290 0
175 -230 -284 0
175 -244 -270 0
175 -250 -264 0
175 -244 -290 0
175 -250 -284 0
175 -264 -290 0
175 -270 -284 0
176 -205 -226 0
176 -206 -225 0
176 -205 -246 0
176 -206 -245 0
176 -205 -266 0
176 -206 -265 0
176 -205 -286 0
176 -206 -285 0
176 -225 -246 0
176 -226 -245 0
176 -225 -266 0
176 -226 -265 0
176 -225 -286 0
176 -226 -285 0
176 -245 -266 0
176 -246 -265 0
176 -245 -286 0
176 -246 -285 0
176 -265 -286 0
176 -266 -285 0
177 -205 -227 0
177 -207 -225 0
177 -205 -247 0
177 -207 -245 0
177 -205 -267 0
177 -207 -265 0
177 -205 -287 0
177 -207 -285 0
177 -225 -247 0
177 -227 -245 0
177 -225 -267 0
177 -227 -265 0
177 -225 -287 0
177 -227 -285 0
177 -245 -267 0
177 -247 -265 0
177 -245 -287 0
177 -247 -285 0
177 -265 -287 0
177 -267 -285 0
178 -205 -228 0
178 -208 -225 0
178 -205 -248 0
178 -208 -245 0
178 -205 -268 0
178 -208 -265 0
178 -205 -288 0
178 -208 -285 0
178 -225 -248 0
178 -228 -245 0
178 -225 -268 0
178 -228 -265 0
178 -225 -288 0
178 -228 -285 0
178 -245 -268 0
178 -248 -265 0
178 -245 -288 0
178 -248 -285 0
178 -265 -288 0
178 -268 -285 0
179 -205 -229 0
179 -209 -225 0
179 -205 -249 0
179 -209 -245 0
179 -205 -269 0
179 -209 -265 0
179 -205 -289 0
179 -209 -285 0
179 -225 -249 0
179 -229 -245 0
179 -225 -269 0
179 -229 -265 0
179 -225 -289 0
179 -229 -285 0
179 -245 -269 0
179 -249 -265 0
179 -245 -289 0
179 -249 -285 0
179 -265 -289 0
179 -269 -285 0
180 -205 -230 0
180 -210 -225 0
180 -205 -250 0
180 -210 -245 0
180 -205 -270 0
180 -210 -265 0
180 -205 -290 0
180 -210 -285 0
180 -225 -250 0
180 -230 -245 0
180 -225 -270 0
180 -230 -265 0
180 -225 -290 0
180 -230 -285 0
180 -245 -270 0
180 -250 -265 0
180 -245 -290 0
180 -250 -285 0
180 -265 -290 0
180 -270 -285 0
181 -206 -227 0
181 -207 -226 0
181 -206 -247 0
181 -207 -246 0
181 -206 -267 0
181 -207 -266 0
181 -206 -287 0
181 -207 -286 0
181 -226 -247 0
181 -227 -246 0
181 -226 -267 0
181 -227 -266 0
181 -226 -287 0
181 -227 -286 0
181 -246 -267 0
181 -247 -266 0
181 -246 -287 0
181 -247 -286 0
181 -266 -287 0
181 -267 -286 0
182 -206 -228 0
182 -208 -226 0
182 -206 -248 0
182 -208 -246 0
182 -206 -268 0
182 -208 -266 0
182 -206 -288 0
182 -208 -286 0
182 -226 -248 0
182 -228 -246 0
182 -226 -268 0
182 -228 -266 0
182 -226 -288 0
182 -228 -286 0
182 -246 -268 0
182 -248 -266 0
182 -246 -288 0
182 -248 -286 0
182 -266 -288 0
182 -268 -286 0
183 -206 -229 0
183 -209 -226 0
183 -206 -249 0
183 -209 -246 0
183 -206 -269 0
183 -209 -266 0
183 -206 -289 0
183 -209 -286 0
183 -226 -249 0
183 -229 -246 0
183 -226 -269 0
183 -229 -266 0
183 -226 -289 0
183 -229 -286 0
183 -246 -269 0
183 -249 -266 0
183 -246 -289 0
183 -249 -286 0
183 -266 -289 0
183 -269 -286 0
184 -206 -230 0
184 -210 -226 0
184 -206 -250 0
184 -210 -246 0
184 -206 -270 0
184 -210 -266 0
184 -206 -290 0
184 -210 -286 0
184 -226 -250 0
184 -230 -246 0
184 -226 -270 0
184 -230 -266 0
184 -226 -290 0
184 -230 -286 0
184 -246 -270 0
184 -250 -266 0
184 -246 -290 0
184 -250 -286 0
184 -266 -290 0
184 -270 -286 0
185 -207 -228 0
185 -208 -227 0
185 -207 -248 0
185 -208 -247 0
185 -207 -268 0
185 -208 -267 0
185 -207 -288 0
185 -208 -287 0
185 -227 -248 0
185 -228 -247 0
185 -227 -268 0
185 -228 -267 0
185 -227 -288 0
185 -228 -287 0
185 -247 -268 0
185 -248 -267 0
185 -247 -288 0
185 -248 -287 0
185 -267 -288 0
185 -268 -287 0
186 -207 -229 0
186 -209 -227 0
186 -207 -249 0
186 -209 -247 0
186 -207 -269 0
186 -209 -267 0
186 -207 -289 0
186 -209 -287 0
186 -227 -249 0
186 -229 -247 0
186 -227 -269 0
186 -229 -267 0
186 -227 -289 0
186 -229 -287 0
186 -247 -269 0
186 -249 -267 0
186 -247 -289 0
186 -249 -287 0
186 -267 -289 0
186 -269 -287 0
187 -207 -230 0
187 -210 -227 0
187 -207 -250 0
187 -210 -247 0
187 -207 -270 0
187 -210 -267 0
187 -207 -290 0
187 -210 -287 0
187 -227 -250 0
187 -230 -247 0
187 -227 -270 0
187 -230 -267 0
187 -227 -290 0
187 -230 -287 0
187 -247 -270 0
187 -250 -267 0
187 -247 -290 0
187 -250 -287 0
187 -267 -290 0
187 -270 -287 0
188 -208 -229 0
188 -209 -228 0
188 -208 -249 0
188 -209 -248 0
188 -208 -269 0
188 -209 -268 0
188 -208 -289 0
188 -209 -288 0
188 -228 -249 0
188 -229 -248 0
188 -228 -269 0
188 -229 -268 0
188 -228 -289 0
188 -229 -288 0
188 -248 -269 0
188 -249 -268 0
188 -248 -289 0
188 -249 -288 0
188 -268 -289 0
188 -269 -288 0
189 -208 -230 0
189 -210 -228 0
189 -208 -250 0
189 -210 -248 0
189 -208 -270 0
189 -210 -268 0
189 -208 -290 0
189 -210 -288 0
189 -228 -250 0
189 -230 -248 0
189 -228 -270 0
189 -230 -268 0
189 -228 -290 0
189 -230 -288 0
189 -248 -270 0
189 -250 -268 0
189 -248 -290 0
189 -250 -288 0
189 -268 -290 0
189 -270 -288 0
190 -209 -230 0
190 -210 -229 0
190 -209 -250 0
190 -210 -249 0
190 -209 -270 0
190 -210 -269 0
190 -209 -290 0
190 -210 -289 0
190 -229 -250 0
190 -230 -249 0
190 -229 -270 0
190 -230 -269 0
190 -229 -290 0
190 -230 -289 0
190 -249 -270 0
190 -250 -269 0
190 -249 -290 0
190 -250 -289 0
190 -269 -290 0
190 -270 -289 0
291 292 293 294 0
295 296 297 298 0
299 300 301 302 0
303 304 305 306 0
307 308 309 310 0
311 312 313 314 0
315 316 317 318 0
319 320 321 322 0
323 324 325 326 0
327 328 329 330 0
331 332 333 334 0
335 336 337 338 0
339 340 341 342 0
343 344 345 346 0
347 348 349 350 0
351 352 353 354 0
355 356 357 358 0
359 360 361 362 0
363 364 365 366 0
367 368 369 370 0
-291 -292 0
-291 -293 0
-291 -294 0
-292 -293 0
-292 -294 0
-293 -294 0
-295 -296 0
-295 -297 0
-295 -298 0
-296 -297 0
-296 -298 0
-297 -298 0
-299 -300 0
-299 -301 0
-299 -302 0
-300 -301 0
-300 -302 0
-301 -302 0
-303 -304 0
-303 -305 0
-303 -306 0
-304 -305 0
-304 -306 0
-305 -306 0
-307 -308 0
-307 -309 0
-307 -310 0
-308 -309 0
-308 -310 0
-309 -310 0
-311 -312 0
-311 -313 0
-311 -314 0
-312 -313 0
-312 -314 0
-313 -314 0
-315 -316 0
-315 -317 0
-315 -318 0
-316 -317 0
-316 -318 0
-317 -318 0
-319 -320 0
-319 -321 0
-319 -322 0
-320 -321 0
-320 -322 0
-321 -322 0
-323 -324 0
-323 -325 0
-323 -326 0
-324 -325 0
-324 -326 0
-325 -326 0
-327 -328 0
-327 -329 0
-327 -330 0
-328 -329 0
-328 -330 0
-329 -330 0
-331 -332 0
-331 -333 0
-331 -334 0
-332 -333 0
-332 -334 0
-333 -334 0
-335 -336 0
-335 -337 0
-335 -338 0
-336 -337 0
-336 -338 0
-337 -338 0
-339 -340 0
-339 -341 0
-339 -342 0
-340 -341 0
-340 -342 0
-341 -342 0
-343 -344 0
-343 -345 0
-343 -346 0
-344 -345 0
-344 -346 0
-345 -346 0
-347 -348 0
-347 -349 0
-347 -350 0
-348 -349 0
-348 -350 0
-349 -350 0
-351 -352 0
-351 -353 0
-351 -354 0
-352 -353 0
-352 -354 0
-353 -354 0
-355 -356 0
-355 -357 0
-355 -358 0
-356 -357 0
-356 -358 0
-357 -358 0
-359 -360 0
-359 -361 0
-359 -362 0
-360 -361 0
-360 -362 0
-361 -362 0
-363 -364 0
-363 -365 0
-363 -366 0
-364 -365 0
-364 -366 0
-365 -366 0
-367 -368 0
-367 -369 0
-367 -370 0
-368 -369 0
-368 -370 0
-369 -370 0
-1 -291 -295 0
-1 -292 -296 0
-1 -293 -297 0
-1 -294 -298 0
-2 -291 -299 0
-2 -292 -300 0
-2 -293 -301 0
-2 -294 -302 0
-3 -291 -303 0
-3 -292 -304 0
-3 -293 -305 0
-3 -294 -306 0
-4 -291 -307 0
-4 -292 -308 0
-4 -293 -309 0
-4 -294 -310 0
-5 -291 -311 0
-5 -292 -312 0
-5 -293 -313 0
-5 -294 -314 0
-6 -291 -315 0
-6 -292 -316 0
-6 -293 -317 0
-6 -294 -318 0
-7 -291 -319 0
-7 -292 -320 0
-7 -293 -321 0
-7 -294 -322 0
-8 -291 -323 0
-8 -292 -324 0
-8 -293 -325 0
-8 -294 -326 0
-9 -291 -327 0
-9 -292 -328 0
-9 -293 -329 0
-9 -294 -330 0
-10 -291 -331 0
-10 -292 -332 0
-10 -293 -333 0
-10 -294 -334 0
-11 -291 -335 0
-11 -292 -336 0
-11 -293 -337 0
-11 -294 -338 0
-12 -291 -339 0
-12 -292 -340 0
-12 -293 -341 0
-12 -294 -342 0
-13 -291 -343 0
-13 -292 -344 0
-13 -293 -345 0
-13 -294 -346 0
-14 -291 -347 0
-14 -292 -348 0
-14 -293 -349 0
-14 -294 -350 0
-15 -291 -351 0
-15 -292 -352 0
-15 -293 -353 0
-15 -294 -354 0
-16 -291 -355 0
-16 -292 -356 0
-16 -293 -357 0
-16 -294 -358 0
-17 -291 -359 0
-17 -292 -360 0
-17 -293 -361 0
-17 -294 -362 0
-18 -291 -363 0
-18 -292 -364 0
-18 -293 -365 0
-18 -294 -366 0
-19 -291 -367 0
-19 -292 -368 0
-19 -293 -369 0
-19 -294 -370 0
-20 -295 -299 0
-20 -296 -300 0
-20 -297 -301 0
-20 -298 -302 0
-21 -295 -303 0
-21 -296 -304 0
-21 -297 -305 0
-21 -298 -306 0
-22 -295 -307 0
-22 -296 -308 0
-22 -297 -309 0
-22 -298 -310 0
-23 -295 -311 0
-23 -296 -312 0
-23 -297 -313 0
-23 -298 -314 0
-24 -295 -315 0
-24 -296 -316 0
-24 -297 -317 0
-24 -298 -318 0
-25 -295 -319 0
-25 -296 -320 0
-25 -297 -321 0
-25 -298 -322 0
-26 -295 -323 0
-26 -296 -324 0
-26 -297 -325 0
-26 -298 -326 0
-27 -295 -327 0
-27 -296 -328 0
-27 -297 -329 0
-27 -298 -330 0
-28 -295 -331 0
-28 -296 -332 0
-28 -297 -333 0
-28 -298 -334 0
-29 -295 -335 0
-29 -296 -336 0
-29 -297 -337 0
-29 -298 -338 0
-30 -295 -339 0
-30 -296 -340 0
-30 -297 -341 0
-30 -298 -342 0
-31 -295 -343 0
-31 -296 -344 0
-31 -297 -345 0
-31 -298 -346 0
-32 -295 -347 0
-32 -296 -348 0
-32 -297 -349 0
-32 -298 -350 0
-33 -295 -351 0
-33 -296 -352 0
-33 -297 -353 0
-33 -298 -354 0
-34 -295 -355 0
-34 -296 -356 0
-34 -297 -357 0
-34 -298 -358 0
-35 -295 -359 0
-35 -296 -360 0
-35 -297 -361 0
-35 -298 -362 0
-36 -295 -363 0
-36 -296 -364 0
-36 -297 -365 0
-36 -298 -366 0
-37 -295 -367 0
-37 -296 -368 0
-37 -297 -369 0
-37 -298 -370 0
-38 -299 -303 0
-38 -300 -304 0
-38 -301 -305 0
-38 -302 -306 0
-39 -299 -307 0
-39 -300 -308 0
-39 -301 -309 0
-39 -302 -310 0
-40 -299 -311 0
-40 -300 -312 0
-40 -301 -313 0
-40 -302 -314 0
-41 -299 -315 0
-41 -300 -316 0
-41 -301 -317 0
-41 -302 -318 0
-42 -299 -319 0
-42 -300 -320 0
-42 -301 -321 0
-42 -302 -322 0
-43 -299 -323 0
-43 -300 -324 0
-43 -301 -325 0
-43 -302 -326 0
-44 -299 -327 0
-44 -300 -328 0
-44 -301 -329 0
-44 -302 -330 0
-45 -299 -331 0
-45 -300 -332 0
-45 -301 -333 0
-45 -302 -334 0
-46 -299 -335 0
-46 -300 -336 0
-46 -301 -337 0
-46 -302 -338 0
-47 -299 -339 0
-47 -300 -340 0
-47 -301 -341 0
-47 -302 -342 0
-48 -299 -343 0
-48 -300 -344 0
-48 -301 -345 0
-48 -302 -346 0
-49 -299 -347 0
-49 -300 -348 0
-49 -301 -349 0
-49 -302 -350 0
-50 -299 -351 0
-50 -300 -352 0
-50 -301 -353 0
-50 -302 -354 0
-51 -299 -355 0
-51 -300 -356 0
-51 -301 -357 0
-51 -302 -358 0
-52 -299 -359 0
-52 -300 -360 0
-52 -301 -361 0
-52 -302 -362 0
-53 -299 -363 0
-53 -300 -364 0
-53 -301 -365 0
-53 -302 -366 0
-54 -299 -367 0
-54 -300 -368 0
-54 -301 -369 0
-54 -302 -370 0
-55 -303 -307 0
-55 -304 -308 0
-55 -305 -309 0
-55 -306 -310 0
-56 -303 -311 0
-56 -304 -312 0
-56 -305 -313 0
-56 -306 -314 0
-57 -303 -315 0
-57 -304 -316 0
-57 -305 -317 0
-57 -306 -318 0
-58 -303 -319 0
-58 -304 -320 0
-58 -305 -321 0
-58 -306 -322 0
-59 -303 -323 0
-59 -304 -324 0
-59 -305 -325 0
-59 -306 -326 0
-60 -303 -327 0
-60 -304 -328 0
-60 -305 -329 0
-60 -306 -330 0
-61 -303 -331 0
-61 -304 -332 0
-61 -305 -333 0
-61 -306 -334 0
-62 -303 -335 0
-62 -304 -336 0
-62 -305 -337 0
-62 -306 -338 0
-63 -303 -339 0
-63 -304 -340 0
-63 -305 -341 0
-63 -306 -342 0
-64 -303 -343 0
-64 -304 -344 0
-64 -305 -345 0
-64 -306 -346 0
-65 -303 -347 0
-65 -304 -348 0
-65 -305 -349 0
-65 -306 -350 0
-66 -303 -351 0
-66 -304 -352 0
-66 -305 -353 0
-66 -306 -354 0
-67 -303 -355 0
-67 -304 -356 0
-67 -305 -357 0
-67 -306 -358 0
-68 -303 -359 0
-68 -304 -360 0
-68 -305 -361 0
-68 -306 -362 0
-69 -303 -363 0
-69 -304 -364 0
-69 -305 -365 0
-69 -306 -366 0
-70 -303 -367 0
-70 -304 -368 0
-70 -305 -369 0
-70 -306 -370 0
-71 -307 -311 0
-71 -308 -312 0
-71 -309 -313 0
-71 -310 -314 0
-72 -307 -315 0
-72 -308 -316 0
-72 -309 -317 0
-72 -310 -318 0
-73 -307 -319 0
-73 -308 -320 0
-73 -309 -321 0
-73 -310 -322 0
-74 -307 -323 0
-74 -308 -324 0
-74 -309 -325 0
-74 -310 -326 0
-75 -307 -327 0
-75 -308 -328 0
-75 -309 -329 0
-75 -310 -330 0
-76 -307 -331 0
-76 -308 -332 0
-76 -309 -333 0
-76 -310 -334 0
-77 -307 -335 0
-77 -308 -336 0
-77 -309 -337 0
-77 -310 -338 0
-78 -307 -339 0
-78 -308 -340 0
-78 -309 -341 0
-78 -310 -342 0
-79 -307 -343 0
-79 -308 -344 0
-79 -309 -345 0
-79 -310 -346 0
-80 -307 -347 0
-80 -308 -348 0
-80 -309 -349 0
-80 -310 -350 0
-81 -307 -351 0
-81 -308 -352 0
-81 -309 -353 0
-81 -310 -354 0
-82 -307 -355 0
-82 -308 -356 0
-82 -309 -357 0
-82 -310 -358 0
-83 -307 -359 0
-83 -308 -360 0
-83 -309 -361 0
-83 -310 -362 0
-84 -307 -363 0
-84 -308 -364 0
-84 -309 -365 0
-84 -310 -366 0
-85 -307 -367 0
-85 -308 -368 0
-85 -309 -369 0
-85 -310 -370 0
-86 -311 -315 0
-86 -312 -316 0
-86 -313 -317 0
-86 -314 -318 0
-87 -311 -319 0
-87 -312 -320 0
-87 -313 -321 0
-87 -314 -322 0
-88 -311 -323 0
-88 -312 -324 0
-88 -313 -325 0
-88 -314 -326 0
-89 -311 -327 0
-89 -312 -328 0
-89 -313 -329 0
-89 -314 -330 0
-90 -311 -331 0
-90 -312 -332 0
-90 -313 -333 0
-90 -314 -334 0
-91 -311 -335 0
-91 -312 -336 0
-91 -313 -337 0
-91 -314 -338 0
-92 -311 -339 0
-92 -312 -340 0
-92 -313 -341 0
-92 -314 -342 0
-93 -311 -343 0
-93 -312 -344 0
-93 -313 -345 0
-93 -314 -346 0
-94 -311 -347 0
-94 -312 -348 0
-94 -313 -349 0
-94 -314 -350 0
-95 -311 -351 0
-95 -312 -352 0
-95 -313 -353 0
-95 -314 -354 0
-96 -311 -355 0
-96 -312 -356 0
-96 -313 -357 0
-96 -314 -358 0
-97 -311 -359 0
-97 -312 -360 0
-97 -313 -361 0
-97 -314 -362 0
-98 -311 -363 0
-98 -312 -364 0
-98 -313 -365 0
-98 -314 -366 0
-99 -311 -367 0
-99 -312 -368 0
-99 -313 -369 0
-99 -314 -370 0
-100 -315 -319 0
-100 -316 -320 0
-100 -317 -321 0
-100 -318 -322 0
-101 -315 -323 0
-101 -316 -324 0
-101 -317 -325 0
-101 -318 -326 0
-102 -315 -327 0
-102 -316 -328 0
-102 -317 -329 0
-102 -318 -330 0
-103 -315 -331 0
-103 -316 -332 0
-103 -317 -333 0
-103 -318 -334 0
-104 -315 -335 0
-104 -316 -336 0
-104 -317 -337 0
-104 -318 -338 0
-105 -315 -339 0
-105 -316 -340 0
-105 -317 -341 0
-105 -318 -342 0
-106 -315 -343 0
-106 -316 -344 0
-106 -317 -345 0
-106 -318 -346 0
-107 -315 -347 0
-107 -316 -348 0
-107 -317 -349 0
-107 -318 -350 0
-108 -315 -351 0
-108 -316 -352 0
-108 -317 -353 0
-108 -318 -354 0
-109 -315 -355 0
-109 -316 -356 0
-109 -317 -357 0
-109 -318 -358 0
-110 -315 -359 0
-110 -316 -360 0
-110 -317 -361 0
-110 -318 -362 0
-111 -315 -363 0
-111 -316 -364 0
-111 -317 -365 0
-111 -318 -366 0
-112 -315 -367 0
-112 -316 -368 0
-112 -317 -369 0
-112 -318 -370 0
-113 -319 -323 0
-113 -320 -324 0
-113 -321 -325 0
-113 -322 -326 0
-114 -319 -327 0
-114 -320 -328 0
-114 -321 -329 0
-114 -322 -330 0
-115 -319 -331 0
-115 -320 -332 0
-115 -321 -333 0
-115 -322 -334 0
-116 -319 -335 0
-116 -320 -336 0
-116 -321 -337 0
-116 -322 -338 0
-117 -319 -339 0
-117 -320 -340 0
-117 -321 -341 0
-117 -322 -342 0
-118 -319 -343 0
-118 -320 -344 0
-118 -321 -345 0
-118 -322 -346 0
-119 -319 -347 0
-119 -320 -348 0
-119 -321 -349 0
-119 -322 -350 0
-120 -319 -351 0
-120 -320 -352 0
-120 -321 -353 0
-120 -322 -354 0
-121 -319 -355 0
-121 -320 -356 0
-121 -321 -357 0
-121 -322 -358 0
-122 -319 -359 0
-122 -320 -360 0
-122 -321 -361 0
-122 -322 -362 0
-123 -319 -363 0
-123 -320 -364 0
-123 -321 -365 0
-123 -322 -366 0
-124 -319 -367 0
-124 -320 -368 0
-124 -321 -369 0
-124 -322 -370 0
-125 -323 -327 0
-125 -324 -328 0
-125 -325 -329 0
-125 -326 -330 0
-126 -323 -331 0
-126 -324 -332 0
-126 -325 -333 0
-126 -326 -334 0
-127 -323 -335 0
-127 -324 -336 0
-127 -325 -337 0
-127 -326 -338 0
-128 -323 -339 0
-128 -324 -340 0
-128 -325 -341 0
-128 -326 -342 0
-129 -323 -343 0
-129 -324 -344 0
-129 -325 -345 0
-129 -326 -346 0
-130 -323 -347 0
-130 -324 -348 0
-130 -325 -349 0
-130 -326 -350 0
-131 -323 -351 0
-131 -324 -352 0
-131 -325 -353 0
-131 -326 -354 0
-132 -323 -355 0
-132 -324 -356 0
-132 -325 -357 0
-132 -326 -358 0
-133 -323 -359 0
-133 -324 -360 0
-133 -325 -361 0
-133 -326 -362 0
-134 -323 -363 0
-134 -324 -364 0
-134 -325 -365 0
-134 -326 -366 0
-135 -323 -367 0
-135 -324 -368 0
-135 -325 -369 0
-135 -326 -370 0
-136 -327 -331 0
-136 -328 -332 0
-136 -329 -333 0
-136 -330 -334 0
-137 -327 -335 0
-137 -328 -336 0
-137 -329 -337 0
-137 -330 -338 0
-138 -327 -339 0
-138 -328 -340 0
-138 -329 -341 0
-138 -330 -342 0
-139 -327 -343 0
-139 -328 -344 0
-139 -329 -345 0
-139 -330 -346 0
-140 -327 -347 0
-140 -328 -348 0
-140 -329 -349 0
-140 -330 -350 0
-141 -327 -351 0
-141 -328 -352 0
-141 -329 -353 0
-141 -330 -354 0
-142 -327 -355 0
-142 -328 -356 0
-142 -329 -357 0
-142 -330 -358 0
-143 -327 -359 0
-143 -328 -360 0
-143 -329 -361 0
-143 -330 -362 0
-144 -327 -363 0
-144 -328 -364 0
-144 -329 -365 0
-144 -330 -366 0
-145 -327 -367 0
-145 -328 -368 0
-145 -329 -369 0
-145 -330 -370 0
-146 -331 -335 0
-146 -332 -336 0
-146 -333 -337 0
-146 -334 -338 0
-147 -331 -339 0
-147 -332 -340 0
-147 -333 -341 0
-147 -334 -342 0
-148 -331 -343 0
-148 -332 -344 0
-148 -333 -345 0
-148 -334 -346 0
-149 -331 -347 0
-149 -332 -348 0
-149 -333 -349 0
-149 -334 -350 0
-150 -331 -351 0
-150 -332 -352 0
-150 -333 -353 0
-150 -334 -354 0
-151 -331 -355 0
-151 -332 -356 0
-151 -333 -357 0
-151 -334 -358 0
-152 -331 -359 0
-152 -332 -360 0
-152 -333 -361 0
-152 -334 -362 0
-153 -331 -363 0
-153 -332 -364 0
-153 -333 -365 0
-153 -334 -366 0
-154 -331 -367 0
-154 -332 -368 0
-154 -333 -369 0
-154 -334 -370 0
-155 -335 -339 0
-155 -336 -340 0
-155 -337 -341 0
-155 -338 -342 0
-156 -335 -343 0
-156 -336 -344 0
-156 -337 -345 0
-156 -338 -346 0
-157 -335 -347 0
-157 -336 -348 0
-157 -337 -349 0
-157 -338 -350 0
-158 -335 -351 0
-158 -336 -352 0
-158 -337 -353 0
-158 -338 -354 0
-159 -335 -355 0
-159 -336 -356 0
-159 -337 -357 0
-159 -338 -358 0
-160 -335 -359 0
-160 -336 -360 0
-160 -337 -361 0
-160 -338 -362 0
-161 -335 -363 0
-161 -336 -364 0
-161 -337 -365 0
-161 -338 -366 0
-162 -335 -367 0
-162 -336 -368 0
-162 -337 -369 0
-162 -338 -370 0
-163 -339 -343 0
-163 -340 -344 0
-163 -341 -345 0
-163 -342 -346 0
-164 -339 -347 0
-164 -340 -348 0
-164 -341 -349 0
-164 -342 -350 0
-165 -339 -351 0
-165 -340 -352 0
-165 -341 -353 0
-165 -342 -354 0
-166 -339 -355 0
-166 -340 -356 0
-166 -341 -357 0
-166 -342 -358 0
-167 -339 -359 0
-167 -340 -360 0
-167 -341 -361 0
-167 -342 -362 0
-168 -339 -363 0
-168 -340 -364 0
-168 -341 -365 0
-168 -342 -366 0
-169 -339 -367 0
-169 -340 -368 0
-169 -341 -369 0
-169 -342 -370 0
-170 -343 -347 0
-170 -344 -348 0
-170 -345 -349 0
-170 -346 -350 0
-171 -343 -351 0
-171 -344 -352 0
-171 -345 -353 0
-171 -346 -354 0
-172 -343 -355 0
-172 -344 -356 0
-172 -345 -357 0
-172 -346 -358 0
-173 -343 -359 0
-173 -344 -360 0
-173 -345 -361 0
-173 -346 -362 0
-174 -343 -363 0
-174 -344 -364 0
-174 -345 -365 0
-174 -346 -366 0
-175 -343 -367 0
-175 -344 -368 0
-175 -345 -369 0
-175 -346 -370 0
-176 -347 -351 0
-176 -348 -352 0
-176 -349 -353 0
-176 -350 -354 0
-177 -347 -355 0
-177 -348 -356 0
-177 -349 -357 0
-177 -350 -358 0
-178 -347 -359 0
-178 -348 -360 0
-178 -349 -361 0
-178 -350 -362 0
-179 -347 -363 0
-179 -348 -364 0
-179 -349 -365 0
-179 -350 -366 0
-180 -347 -367 0
-180 -348 -368 0
-180 -349 -369 0
-180 -350 -370 0
-181 -351 -355 0
-181 -352 -356 0
-181 -353 -357 0
-181 -354 -358 0
-182 -351 -359 0
-182 -352 -360 0
-182 -353 -361 0
-182 -354 -362 0
-183 -351 -363 0
-183 -352 -364 0
-183 -353 -365 0
-183 -354 -366 0
-184 -351 -367 0
-184 -352 -368 0
-184 -353 -369 0
-184 -354 -370 0
-185 -355 -359 0
-185 -356 -360 0
-185 -357 -361 0
-185 -358 -362 0
-186 -355 -363 0
-186 -356 -364 0
-186 -357 -365 0
-186 -358 -366 0
-187 -355 -367 0
-187 -356 -368 0
-187 -357 -369 0
-187 -358 -370 0
-188 -359 -363 0
-188 -360 -364 0
-188 -361 -365 0
-188 -362 -366 0
-189 -359 -367 0
-189 -360 -368 0
-189 -361 -369 0
-189 -362 -370 0
-190 -363 -367 0
-190 -364 -368 0
-190 -365 -369 0
-190 -366 -370 0
