c F5 clique-colouring cnfgen CliqueColoring(16,4,3)
p cnf 232 2444
121 122 123 124 125 126 127 128 129 130 131 132 133 134 135 136 0
137 138 139 140 141 142 143 144 145 146 147 148 149 150 151 152 0
153 154 155 156 157 158 159 160 161 162 163 164 165 166 167 168 0
169 170 171 172 173 174 175 176 177 178 179 180 181 182 183 184 0
-121 -122 0
-121 -123 0
-121 -124 0
-121 -125 0
-121 -126 0
-121 -127 0
-121 -128 0
-121 -129 0
-121 -130 0
-121 -131 0
-121 -132 0
-121 -133 0
-121 -134 0
-121 -135 0
-121 -136 0
-122 -123 0
-122 -124 0
-122 -125 0
-122 -126 0
-122 -127 0
-122 -128 0
-122 -129 0
-122 -130 0
-122 -131 0
-122 -132 0
-122 -133 0
-122 -134 0
-122 -135 0
-122 -136 0
-123 -124 0
-123 -125 0
-123 -126 0
-123 -127 0
-123 -128 0
-123 -129 0
-123 -130 0
-123 -131 0
-123 -132 0
-123 -133 0
-123 -134 0
-123 -135 0
-123 -136 0
-124 -125 0
-124 -126 0
-124 -127 0
-124 -128 0
-124 -129 0
-124 -130 0
-124 -131 0
-124 -132 0
-124 -133 0
-124 -134 0
-124 -135 0
-124 -136 0
-125 -126 0
-125 -127 0
-125 -128 0
-125 -129 0
-125 -130 0
-125 -131 0
-125 -132 0
-125 -133 0
-125 -134 0
-125 -135 0
-125 -136 0
-126 -127 0
-126 -128 0
-126 -129 0
-126 -130 0
-126 -131 0
-126 -132 0
-126 -133 0
-126 -134 0
-126 -135 0
-126 -136 0
-127 -128 0
-127 -129 0
-127 -130 0
-127 -131 0
-127 -132 0
-127 -133 0
-127 -134 0
-127 -135 0
-127 -136 0
-128 -129 0
-128 -130 0
-128 -131 0
-128 -132 0
-128 -133 0
-128 -134 0
-128 -135 0
-128 -136 0
-129 -130 0
-129 -131 0
-129 -132 0
-129 -133 0
-129 -134 0
-129 -135 0
-129 -136 0
-130 -131 0
-130 -132 0
-130 -133 0
-130 -134 0
-130 -135 0
-130 -136 0
-131 -132 0
-131 -133 0
-131 -134 0
-131 -135 0
-131 -136 0
-132 -133 0
-132 -134 0
-132 -135 0
-132 -136 0
-133 -134 0
-133 -135 0
-133 -136 0
-134 -135 0
-134 -136 0
-135 -136 0
-137 -138 0
-137 -139 0
-137 -140 0
-137 -141 0
-137 -142 0
-137 -143 0
-137 -144 0
-137 -145 0
-137 -146 0
-137 -147 0
-137 -148 0
-137 -149 0
-137 -150 0
-137 -151 0
-137 -152 0
-138 -139 0
-138 -140 0
-138 -141 0
-138 -142 0
-138 -143 0
-138 -144 0
-138 -145 0
-138 -146 0
-138 -147 0
-138 -148 0
-138 -149 0
-138 -150 0
-138 -151 0
-138 -152 0
-139 -140 0
-139 -141 0
-139 -142 0
-139 -143 0
-139 -144 0
-139 -145 0
-139 -146 0
-139 -147 0
-139 -148 0
-139 -149 0
-139 -150 0
-139 -151 0
-139 -152 0
-140 -141 0
-140 -142 0
-140 -143 0
-140 -144 0
-140 -145 0
-140 -146 0
-140 -147 0
-140 -148 0
-140 -149 0
-140 -150 0
-140 -151 0
-140 -152 0
-141 -142 0
-141 -143 0
-141 -144 0
-141 -145 0
-141 -146 0
-141 -147 0
-141 -148 0
-141 -149 0
-141 -150 0
-141 -151 0
-141 -152 0
-142 -143 0
-142 -144 0
-142 -145 0
-142 -146 0
-142 -147 0
-142 -148 0
-142 -149 0
-142 -150 0
-142 -151 0
-142 -152 0
-143 -144 0
-143 -145 0
-143 -146 0
-143 -147 0
-143 -148 0
-143 -149 0
-143 -150 0
-143 -151 0
-143 -152 0
-144 -145 0
-144 -146 0
-144 -147 0
-144 -148 0
-144 -149 0
-144 -150 0
-144 -151 0
-144 -152 0
-145 -146 0
-145 -147 0
-145 -148 0
-145 -149 0
-145 -150 0
-145 -151 0
-145 -152 0
-146 -147 0
-146 -148 0
-146 -149 0
-146 -150 0
-146 -151 0
-146 -152 0
-147 -148 0
-147 -149 0
-147 -150 0
-147 -151 0
-147 -152 0
-148 -149 0
-148 -150 0
-148 -151 0
-148 -152 0
-149 -150 0
-149 -151 0
-149 -152 0
-150 -151 0
-150 -152 0
-151 -152 0
-153 -154 0
-153 -155 0
-153 -156 0
-153 -157 0
-153 -158 0
-153 -159 0
-153 -160 0
-153 -161 0
-153 -162 0
-153 -163 0
-153 -164 0
-153 -165 0
-153 -166 0
-153 -167 0
-153 -168 0
-154 -155 0
-154 -156 0
-154 -157 0
-154 -158 0
-154 -159 0
-154 -160 0
-154 -161 0
-154 -162 0
-154 -163 0
-154 -164 0
-154 -165 0
-154 -166 0
-154 -167 0
-154 -168 0
-155 -156 0
-155 -157 0
-155 -158 0
-155 -159 0
-155 -160 0
-155 -161 0
-155 -162 0
-155 -163 0
-155 -164 0
-155 -165 0
-155 -166 0
-155 -167 0
-155 -168 0
-156 -157 0
-156 -158 0
-156 -159 0
-156 -160 0
-156 -161 0
-156 -162 0
-156 -163 0
-156 -164 0
-156 -165 0
-156 -166 0
-156 -167 0
-156 -168 0
-157 -158 0
-157 -159 0
-157 -160 0
-157 -161 0
-157 -162 0
-157 -163 0
-157 -164 0
-157 -165 0
-157 -166 0
-157 -167 0
-157 -168 0
-158 -159 0
-158 -160 0
-158 -161 0
-158 -162 0
-158 -163 0
-158 -164 0
-158 -165 0
-158 -166 0
-158 -167 0
-158 -168 0
-159 -160 0
-159 -161 0
-159 -162 0
-159 -163 0
-159 -164 0
-159 -165 0
-159 -166 0
-159 -167 0
-159 -168 0
-160 -161 0
-160 -162 0
-160 -163 0
-160 -164 0
-160 -165 0
-160 -166 0
-160 -167 0
-160 -168 0
-161 -162 0
-161 -163 0
-161 -164 0
-161 -165 0
-161 -166 0
-161 -167 0
-161 -168 0
-162 -163 0
-162 -164 0
-162 -165 0
-162 -166 0
-162 -167 0
-162 -168 0
-163 -164 0
-163 -165 0
-163 -166 0
-163 -167 0
-163 -168 0
-164 -165 0
-164 -166 0
-164 -167 0
-164 -168 0
-165 -166 0
-165 -167 0
-165 -168 0
-166 -167 0
-166 -168 0
-167 -168 0
-169 -170 0
-169 -171 0
-169 -172 0
-169 -173 0
-169 -174 0
-169 -175 0
-169 -176 0
-169 -177 0
-169 -178 0
-169 -179 0
-169 -180 0
-169 -181 0
-169 -182 0
-169 -183 0
-169 -184 0
-170 -171 0
-170 -172 0
-170 -173 0
-170 -174 0
-170 -175 0
-170 -176 0
-170 -177 0
-170 -178 0
-170 -179 0
-170 -180 0
-170 -181 0
-170 -182 0
-170 -183 0
-170 -184 0
-171 -172 0
-171 -173 0
-171 -174 0
-171 -175 0
-171 -176 0
-171 -177 0
-171 -178 0
-171 -179 0
-171 -180 0
-171 -181 0
-171 -182 0
-171 -183 0
-171 -184 0
-172 -173 0
-172 -174 0
-172 -175 0
-172 -176 0
-172 -177 0
-172 -178 0
-172 -179 0
-172 -180 0
-172 -181 0
-172 -182 0
-172 -183 0
-172 -184 0
-173 -174 0
-173 -175 0
-173 -176 0
-173 -177 0
-173 -178 0
-173 -179 0
-173 -180 0
-173 -181 0
-173 -182 0
-173 -183 0
-173 -184 0
-174 -175 0
-174 -176 0
-174 -177 0
-174 -178 0
-174 -179 0
-174 -180 0
-174 -181 0
-174 -182 0
-174 -183 0
-174 -184 0
-175 -176 0
-175 -177 0
-175 -178 0
-175 -179 0
-175 -180 0
-175 -181 0
-175 -182 0
-175 -183 0
-175 -184 0
-176 -177 0
-176 -178 0
-176 -179 0
-176 -180 0
-176 -181 0
-176 -182 0
-176 -183 0
-176 -184 0
-177 -178 0
-177 -179 0
-177 -180 0
-177 -181 0
-177 -182 0
-177 -183 0
-177 -184 0
-178 -179 0
-178 -180 0
-178 -181 0
-178 -182 0
-178 -183 0
-178 -184 0
-179 -180 0
-179 -181 0
-179 -182 0
-179 -183 0
-179 -184 0
-180 -181 0
-180 -182 0
-180 -183 0
-180 -184 0
-181 -182 0
-181 -183 0
-181 -184 0
-182 -183 0
-182 -184 0
-183 -184 0
-121 -137 0
-121 -153 0
-121 -169 0
-137 -153 0
-137 -169 0
-153 -169 0
-122 -138 0
-122 -154 0
-122 -170 0
-138 -154 0
-138 -170 0
-154 -170 0
-123 -139 0
-123 -155 0
-123 -171 0
-139 -155 0
-139 -171 0
-155 -171 0
-124 -140 0
-124 -156 0
-124 -172 0
-140 -156 0
-140 -172 0
-156 -172 0
-125 -141 0
-125 -157 0
-125 -173 0
-141 -157 0
-141 -173 0
-157 -173 0
-126 -142 0
-126 -158 0
-126 -174 0
-142 -158 0
-142 -174 0
-158 -174 0
-127 -143 0
-127 -159 0
-127 -175 0
-143 -159 0
-143 -175 0
-159 -175 0
-128 -144 0
-128 -160 0
-128 -176 0
-144 -160 0
-144 -176 0
-160 -176 0
-129 -145 0
-129 -161 0
-129 -177 0
-145 -161 0
-145 -177 0
-161 -177 0
-130 -146 0
-130 -162 0
-130 -178 0
-146 -162 0
-146 -178 0
-162 -178 0
-131 -147 0
-131 -163 0
-131 -179 0
-147 -163 0
-147 -179 0
-163 -179 0
-132 -148 0
-132 -164 0
-132 -180 0
-148 -164 0
-148 -180 0
-164 -180 0
-133 -149 0
-133 -165 0
-133 -181 0
-149 -165 0
-149 -181 0
-165 -181 0
-134 -150 0
-134 -166 0
-134 -182 0
-150 -166 0
-150 -182 0
-166 -182 0
-135 -151 0
-135 -167 0
-135 -183 0
-151 -167 0
-151 -183 0
-167 -183 0
-136 -152 0
-136 -168 0
-136 -184 0
-152 -168 0
-152 -184 0
-168 -184 0
1 -121 -138 0
1 -122 -137 0
1 -121 -154 0
1 -122 -153 0
1 -121 -170 0
1 -122 -169 0
1 -137 -154 0
1 -138 -153 0
1 -137 -170 0
1 -138 -169 0
1 -153 -170 0
1 -154 -169 0
2 -121 -139 0
2 -123 -137 0
2 -121 -155 0
2 -123 -153 0
2 -121 -171 0
2 -123 -169 0
2 -137 -155 0
2 -139 -153 0
2 -137 -171 0
2 -139 -169 0
2 -153 -171 0
2 -155 -169 0
3 -121 -140 0
3 -124 -137 0
3 -121 -156 0
3 -124 -153 0
3 -121 -172 0
3 -124 -169 0
3 -137 -156 0
3 -140 -153 0
3 -137 -172 0
3 -140 -169 0
3 -153 -172 0
3 -156 -169 0
4 -121 -141 0
4 -125 -137 0
4 -121 -157 0
4 -125 -153 0
4 -121 -173 0
4 -125 -169 0
4 -137 -157 0
4 -141 -153 0
4 -137 -173 0
4 -141 -169 0
4 -153 -173 0
4 -157 -169 0
5 -121 -142 0
5 -126 -137 0
5 -121 -158 0
5 -126 -153 0
5 -121 -174 0
5 -126 -169 0
5 -137 -158 0
5 -142 -153 0
5 -137 -174 0
5 -142 -169 0
5 -153 -174 0
5 -158 -169 0
6 -121 -143 0
6 -127 -137 0
6 -121 -159 0
6 -127 -153 0
6 -121 -175 0
6 -127 -169 0
6 -137 -159 0
6 -143 -153 0
6 -137 -175 0
6 -143 -169 0
6 -153 -175 0
6 -159 -169 0
7 -121 -144 0
7 -128 -137 0
7 -121 -160 0
7 -128 -153 0
7 -121 -176 0
7 -128 -169 0
7 -137 -160 0
7 -144 -153 0
7 -137 -176 0
7 -144 -169 0
7 -153 -176 0
7 -160 -169 0
8 -121 -145 0
8 -129 -137 0
8 -121 -161 0
8 -129 -153 0
8 -121 -177 0
8 -129 -169 0
8 -137 -161 0
8 -145 -153 0
8 -137 -177 0
8 -145 -169 0
8 -153 -177 0
8 -161 -169 0
9 -121 -146 0
9 -130 -137 0
9 -121 -162 0
9 -130 -153 0
9 -121 -178 0
9 -130 -169 0
9 -137 -162 0
9 -146 -153 0
9 -137 -178 0
9 -146 -169 0
9 -153 -178 0
9 -162 -169 0
10 -121 -147 0
10 -131 -137 0
10 -121 -163 0
10 -131 -153 0
10 -121 -179 0
10 -131 -169 0
10 -137 -163 0
10 -147 -153 0
10 -137 -179 0
10 -147 -169 0
10 -153 -179 0
10 -163 -169 0
11 -121 -148 0
11 -132 -137 0
11 -121 -164 0
11 -132 -153 0
11 -121 -180 0
11 -132 -169 0
11 -137 -164 0
11 -148 -153 0
11 -137 -180 0
11 -148 -169 0
11 -153 -180 0
11 -164 -169 0
12 -121 -149 0
12 -133 -137 0
12 -121 -165 0
12 -133 -153 0
12 -121 -181 0
12 -133 -169 0
12 -137 -165 0
12 -149 -153 0
12 -137 -181 0
12 -149 -169 0
12 -153 -181 0
12 -165 -169 0
13 -121 -150 0
13 -134 -137 0
13 -121 -166 0
13 -134 -153 0
13 -121 -182 0
13 -134 -169 0
13 -137 -166 0
13 -150 -153 0
13 -137 -182 0
13 -150 -169 0
13 -153 -182 0
13 -166 -169 0
14 -121 -151 0
14 -135 -137 0
14 -121 -167 0
14 -135 -153 0
14 -121 -183 0
14 -135 -169 0
14 -137 -167 0
14 -151 -153 0
14 -137 -183 0
14 -151 -169 0
14 -153 -183 0
14 -167 -169 0
15 -121 -152 0
15 -136 -137 0
15 -121 -168 0
15 -136 -153 0
15 -121 -184 0
15 -136 -169 0
15 -137 -168 0
15 -152 -153 0
15 -137 -184 0
15 -152 -169 0
15 -153 -184 0
15 -168 -169 0
16 -122 -139 0
16 -123 -138 0
16 -122 -155 0
16 -123 -154 0
16 -122 -171 0
16 -123 -170 0
16 -138 -155 0
16 -139 -154 0
16 -138 -171 0
16 -139 -170 0
16 -154 -171 0
16 -155 -170 0
17 -122 -140 0
17 -124 -138 0
17 -122 -156 0
17 -124 -154 0
17 -122 -172 0
17 -124 -170 0
17 -138 -156 0
17 -140 -154 0
17 -138 -172 0
17 -140 -170 0
17 -154 -172 0
17 -156 -170 0
18 -122 -141 0
18 -125 -138 0
18 -122 -157 0
18 -125 -154 0
18 -122 -173 0
18 -125 -170 0
18 -138 -157 0
18 -141 -154 0
18 -138 -173 0
18 -141 -170 0
18 -154 -173 0
18 -157 -170 0
19 -122 -142 0
19 -126 -138 0
19 -122 -158 0
19 -126 -154 0
19 -122 -174 0
19 -126 -170 0
19 -138 -158 0
19 -142 -154 0
19 -138 -174 0
19 -142 -170 0
19 -154 -174 0
19 -158 -170 0
20 -122 -143 0
20 -127 -138 0
20 -122 -159 0
20 -127 -154 0
20 -122 -175 0
20 -127 -170 0
20 -138 -159 0
20 -143 -154 0
20 -138 -175 0
20 -143 -170 0
20 -154 -175 0
20 -159 -170 0
21 -122 -144 0
21 -128 -138 0
21 -122 -160 0
21 -128 -154 0
21 -122 -176 0
21 -128 -170 0
21 -138 -160 0
21 -144 -154 0
21 -138 -176 0
21 -144 -170 0
21 -154 -176 0
21 -160 -170 0
22 -122 -145 0
22 -129 -138 0
22 -122 -161 0
22 -129 -154 0
22 -122 -177 0
22 -129 -170 0
22 -138 -161 0
22 -145 -154 0
22 -138 -177 0
22 -145 -170 0
22 -154 -177 0
22 -161 -170 0
23 -122 -146 0
23 -130 -138 0
23 -122 -162 0
23 -130 -154 0
23 -122 -178 0
23 -130 -170 0
23 -138 -162 0
23 -146 -154 0
23 -138 -178 0
23 -146 -170 0
23 -154 -178 0
23 -162 -170 0
24 -122 -147 0
24 -131 -138 0
24 -122 -163 0
24 -131 -154 0
24 -122 -179 0
24 -131 -170 0
24 -138 -163 0
24 -147 -154 0
24 -138 -179 0
24 -147 -170 0
24 -154 -179 0
24 -163 -170 0
25 -122 -148 0
25 -132 -138 0
25 -122 -164 0
25 -132 -154 0
25 -122 -180 0
25 -132 -170 0
25 -138 -164 0
25 -148 -154 0
25 -138 -180 0
25 -148 -170 0
25 -154 -180 0
25 -164 -170 0
26 -122 -149 0
26 -133 -138 0
26 -122 -165 0
26 -133 -154 0
26 -122 -181 0
26 -133 -170 0
26 -138 -165 0
26 -149 -154 0
26 -138 -181 0
26 -149 -170 0
26 -154 -181 0
26 -165 -170 0
27 -122 -150 0
27 -134 -138 0
27 -122 -166 0
27 -134 -154 0
27 -122 -182 0
27 -134 -170 0
27 -138 -166 0
27 -150 -154 0
27 -138 -182 0
27 -150 -170 0
27 -154 -182 0
27 -166 -170 0
28 -122 -151 0
28 -135 -138 0
28 -122 -167 0
28 -135 -154 0
28 -122 -183 0
28 -135 -170 0
28 -138 -167 0
28 -151 -154 0
28 -138 -183 0
28 -151 -170 0
28 -154 -183 0
28 -167 -170 0
29 -122 -152 0
29 -136 -138 0
29 -122 -168 0
29 -136 -154 0
29 -122 -184 0
29 -136 -170 0
29 -138 -168 0
29 -152 -154 0
29 -138 -184 0
29 -152 -170 0
29 -154 -184 0
29 -168 -170 0
30 -123 -140 0
30 -124 -139 0
30 -123 -156 0
30 -124 -155 0
30 -123 -172 0
30 -124 -171 0
30 -139 -156 0
30 -140 -155 0
30 -139 -172 0
30 -140 -171 0
30 -155 -172 0
30 -156 -171 0
31 -123 -141 0
31 -125 -139 0
31 -123 -157 0
31 -125 -155 0
31 -123 -173 0
31 -125 -171 0
31 -139 -157 0
31 -141 -155 0
31 -139 -173 0
31 -141 -171 0
31 -155 -173 0
31 -157 -171 0
32 -123 -142 0
32 -126 -139 0
32 -123 -158 0
32 -126 -155 0
32 -123 -174 0
32 -126 -171 0
32 -139 -158 0
32 -142 -155 0
32 -139 -174 0
32 -142 -171 0
32 -155 -174 0
32 -158 -171 0
33 -123 -143 0
33 -127 -139 0
33 -123 -159 0
33 -127 -155 0
33 -123 -175 0
33 -127 -171 0
33 -139 -159 0
33 -143 -155 0
33 -139 -175 0
33 -143 -171 0
33 -155 -175 0
33 -159 -171 0
34 -123 -144 0
34 -128 -139 0
34 -123 -160 0
34 -128 -155 0
34 -123 -176 0
34 -128 -171 0
34 -139 -160 0
34 -144 -155 0
34 -139 -176 0
34 -144 -171 0
34 -155 -176 0
34 -160 -171 0
35 -123 -145 0
35 -129 -139 0
35 -123 -161 0
35 -129 -155 0
35 -123 -177 0
35 -129 -171 0
35 -139 -161 0
35 -145 -155 0
35 -139 -177 0
35 -145 -171 0
35 -155 -177 0
35 -161 -171 0
36 -123 -146 0
36 -130 -139 0
36 -123 -162 0
36 -130 -155 0
36 -123 -178 0
36 -130 -171 0
36 -139 -162 0
36 -146 -155 0
36 -139 -178 0
36 -146 -171 0
36 -155 -178 0
36 -162 -171 0
37 -123 -147 0
37 -131 -139 0
37 -123 -163 0
37 -131 -155 0
37 -123 -179 0
37 -131 -171 0
37 -139 -163 0
37 -147 -155 0
37 -139 -179 0
37 -147 -171 0
37 -155 -179 0
37 -163 -171 0
38 -123 -148 0
38 -132 -139 0
38 -123 -164 0
38 -132 -155 0
38 -123 -180 0
38 -132 -171 0
38 -139 -164 0
38 -148 -155 0
38 -139 -180 0
38 -148 -171 0
38 -155 -180 0
38 -164 -171 0
39 -123 -149 0
39 -133 -139 0
39 -123 -165 0
39 -133 -155 0
39 -123 -181 0
39 -133 -171 0
39 -139 -165 0
39 -149 -155 0
39 -139 -181 0
39 -149 -171 0
39 -155 -181 0
39 -165 -171 0
40 -123 -150 0
40 -134 -139 0
40 -123 -166 0
40 -134 -155 0
40 -123 -182 0
40 -134 -171 0
40 -139 -166 0
40 -150 -155 0
40 -139 -182 0
40 -150 -171 0
40 -155 -182 0
40 -166 -171 0
41 -123 -151 0
41 -135 -139 0
41 -123 -167 0
41 -135 -155 0
41 -123 -183 0
41 -135 -171 0
41 -139 -167 0
41 -151 -155 0
41 -139 -183 0
41 -151 -171 0
41 -155 -183 0
41 -167 -171 0
42 -123 -152 0
42 -136 -139 0
42 -123 -168 0
42 -136 -155 0
42 -123 -184 0
42 -136 -171 0
42 -139 -168 0
42 -152 -155 0
42 -139 -184 0
42 -152 -171 0
42 -155 -184 0
42 -168 -171 0
43 -124 -141 0
43 -125 -140 0
43 -124 -157 0
43 -125 -156 0
43 -124 -173 0
43 -125 -172 0
43 -140 -157 0
43 -141 -156 0
43 -140 -173 0
43 -141 -172 0
43 -156 -173 0
43 -157 -172 0
44 -124 -142 0
44 -126 -140 0
44 -124 -158 0
44 -126 -156 0
44 -124 -174 0
44 -126 -172 0
44 -140 -158 0
44 -142 -156 0
44 -140 -174 0
44 -142 -172 0
44 -156 -174 0
44 -158 -172 0
45 -124 -143 0
45 -127 -140 0
45 -124 -159 0
45 -127 -156 0
45 -124 -175 0
45 -127 -172 0
45 -140 -159 0
45 -143 -156 0
45 -140 -175 0
45 -143 -172 0
45 -156 -175 0
45 -159 -172 0
46 -124 -144 0
46 -128 -140 0
46 -124 -160 0
46 -128 -156 0
46 -124 -176 0
46 -128 -172 0
46 -140 -160 0
46 -144 -156 0
46 -140 -176 0
46 -144 -172 0
46 -156 -176 0
46 -160 -172 0
47 -124 -145 0
47 -129 -140 0
47 -124 -161 0
47 -129 -156 0
47 -124 -177 0
47 -129 -172 0
47 -140 -161 0
47 -145 -156 0
47 -140 -177 0
47 -145 -172 0
47 -156 -177 0
47 -161 -172 0
48 -124 -146 0
48 -130 -140 0
48 -124 -162 0
48 -130 -156 0
48 -124 -178 0
48 -130 -172 0
48 -140 -162 0
48 -146 -156 0
48 -140 -178 0
48 -146 -172 0
48 -156 -178 0
48 -162 -172 0
49 -124 -147 0
49 -131 -140 0
49 -124 -163 0
49 -131 -156 0
49 -124 -179 0
49 -131 -172 0
49 -140 -163 0
49 -147 -156 0
49 -140 -179 0
49 -147 -172 0
49 -156 -179 0
49 -163 -172 0
50 -124 -148 0
50 -132 -140 0
50 -124 -164 0
50 -132 -156 0
50 -124 -180 0
50 -132 -172 0
50 -140 -164 0
50 -148 -156 0
50 -140 -180 0
50 -148 -172 0
50 -156 -180 0
50 -164 -172 0
51 -124 -149 0
51 -133 -140 0
51 -124 -165 0
51 -133 -156 0
51 -124 -181 0
51 -133 -172 0
51 -140 -165 0
51 -149 -156 0
51 -140 -181 0
51 -149 -172 0
51 -156 -181 0
51 -165 -172 0
52 -124 -150 0
52 -134 -140 0
52 -124 -166 0
52 -134 -156 0
52 -124 -182 0
52 -134 -172 0
52 -140 -166 0
52 -150 -156 0
52 -140 -182 0
52 -150 -172 0
52 -156 -182 0
52 -166 -172 0
53 -124 -151 0
53 -135 -140 0
53 -124 -167 0
53 -135 -156 0
53 -124 -183 0
53 -135 -172 0
53 -140 -167 0
53 -151 -156 0
53 -140 -183 0
53 -151 -172 0
53 -156 -183 0
53 -167 -172 0
54 -124 -152 0
54 -136 -140 0
54 -124 -168 0
54 -136 -156 0
54 -124 -184 0
54 -136 -172 0
54 -140 -168 0
54 -152 -156 0
54 -140 -184 0
54 -152 -172 0
54 -156 -184 0
54 -168 -172 0
55 -125 -142 0
55 -126 -141 0
55 -125 -158 0
55 -126 -157 0
55 -125 -174 0
55 -126 -173 0
55 -141 -158 0
55 -142 -157 0
55 -141 -174 0
55 -142 -173 0
55 -157 -174 0
55 -158 -173 0
56 -125 -143 0
56 -127 -141 0
56 -125 -159 0
56 -127 -157 0
56 -125 -175 0
56 -127 -173 0
56 -141 -159 0
56 -143 -157 0
56 -141 -175 0
56 -143 -173 0
56 -157 -175 0
56 -159 -173 0
57 -125 -144 0
57 -128 -141 0
57 -125 -160 0
57 -128 -157 0
57 -125 -176 0
57 -128 -173 0
57 -141 -160 0
57 -144 -157 0
57 -141 -176 0
57 -144 -173 0
57 -157 -176 0
57 -160 -173 0
58 -125 -145 0
58 -129 -141 0
58 -125 -161 0
58 -129 -157 0
58 -125 -177 0
58 -129 -173 0
58 -141 -161 0
58 -145 -157 0
58 -141 -177 0
58 -145 -173 0
58 -157 -177 0
58 -161 -173 0
59 -125 -146 0
59 -130 -141 0
59 -125 -162 0
59 -130 -157 0
59 -125 -178 0
59 -130 -173 0
59 -141 -162 0
59 -146 -157 0
59 -141 -178 0
59 -146 -173 0
59 -157 -178 0
59 -162 -173 0
60 -125 -147 0
60 -131 -141 0
60 -125 -163 0
60 -131 -157 0
60 -125 -179 0
60 -131 -173 0
60 -141 -163 0
60 -147 -157 0
60 -141 -179 0
60 -147 -173 0
60 -157 -179 0
60 -163 -173 0
61 -125 -148 0
61 -132 -141 0
61 -125 -164 0
61 -132 -157 0
61 -125 -180 0
61 -132 -173 0
61 -141 -164 0
61 -148 -157 0
61 -141 -180 0
61 -148 -173 0
61 -157 -180 0
61 -164 -173 0
62 -125 -149 0
62 -133 -141 0
62 -125 -165 0
62 -133 -157 0
62 -125 -181 0
62 -133 -173 0
62 -141 -165 0
62 -149 -157 0
62 -141 -181 0
62 -149 -173 0
62 -157 -181 0
62 -165 -173 0
63 -125 -150 0
63 -134 -141 0
63 -125 -166 0
63 -134 -157 0
63 -125 -182 0
63 -134 -173 0
63 -141 -166 0
63 -150 -157 0
63 -141 -182 0
63 -150 -173 0
63 -157 -182 0
63 -166 -173 0
64 -125 -151 0
64 -135 -141 0
64 -125 -167 0
64 -135 -157 0
64 -125 -183 0
64 -135 -173 0
64 -141 -167 0
64 -151 -157 0
64 -141 -183 0
64 -151 -173 0
64 -157 -183 0
64 -167 -173 0
65 -125 -152 0
65 -136 -141 0
65 -125 -168 0
65 -136 -157 0
65 -125 -184 0
65 -136 -173 0
65 -141 -168 0
65 -152 -157 0
65 -141 -184 0
65 -152 -173 0
65 -157 -184 0
65 -168 -173 0
66 -126 -143 0
66 -127 -142 0
66 -126 -159 0
66 -127 -158 0
66 -126 -175 0
66 -127 -174 0
66 -142 -159 0
66 -143 -158 0
66 -142 -175 0
66 -143 -174 0
66 -158 -175 0
66 -159 -174 0
67 -126 -144 0
67 -128 -142 0
67 -126 -160 0
67 -128 -158 0
67 -126 -176 0
67 -128 -174 0
67 -142 -160 0
67 -144 -158 0
67 -142 -176 0
67 -144 -174 0
67 -158 -176 0
67 -160 -174 0
68 -126 -145 0
68 -129 -142 0
68 -126 -161 0
68 -129 -158 0
68 -126 -177 0
68 -129 -174 0
68 -142 -161 0
68 -145 -158 0
68 -142 -177 0
68 -145 -174 0
68 -158 -177 0
68 -161 -174 0
69 -126 -146 0
69 -130 -142 0
69 -126 -162 0
69 -130 -158 0
69 -126 -178 0
69 -130 -174 0
69 -142 -162 0
69 -146 -158 0
69 -142 -178 0
69 -146 -174 0
69 -158 -178 0
69 -162 -174 0
70 -126 -147 0
70 -131 -142 0
70 -126 -163 0
70 -131 -158 0
70 -126 -179 0
70 -131 -174 0
70 -142 -163 0
70 -147 -158 0
70 -142 -179 0
70 -147 -174 0
70 -158 -179 0
70 -163 -174 0
71 -126 -148 0
71 -132 -142 0
71 -126 -164 0
71 -132 -158 0
71 -126 -180 0
71 -132 -174 0
71 -142 -164 0
71 -148 -158 0
71 -142 -180 0
71 -148 -174 0
71 -158 -180 0
71 -164 -174 0
72 -126 -149 0
72 -133 -142 0
72 -126 -165 0
72 -133 -158 0
72 -126 -181 0
72 -133 -174 0
72 -142 -165 0
72 -149 -158 0
72 -142 -181 0
72 -149 -174 0
72 -158 -181 0
72 -165 -174 0
73 -126 -150 0
73 -134 -142 0
73 -126 -166 0
73 -134 -158 0
73 -126 -182 0
73 -134 -174 0
73 -142 -166 0
73 -150 -158 0
73 -142 -182 0
73 -150 -174 0
73 -158 -182 0
73 -166 -174 0
74 -126 -151 0
74 -135 -142 0
74 -126 -167 0
74 -135 -158 0
74 -126 -183 0
74 -135 -174 0
74 -142 -167 0
74 -151 -158 0
74 -142 -183 0
74 -151 -174 0
74 -158 -183 0
74 -167 -174 0
75 -126 -152 0
75 -136 -142 0
75 -126 -168 0
75 -136 -158 0
75 -126 -184 0
75 -136 -174 0
75 -142 -168 0
75 -152 -158 0
75 -142 -184 0
75 -152 -174 0
75 -158 -184 0
75 -168 -174 0
76 -127 -144 0
76 -128 -143 0
76 -127 -160 0
76 -128 -159 0
76 -127 -176 0
76 -128 -175 0
76 -143 -160 0
76 -144 -159 0
76 -143 -176 0
76 -144 -175 0
76 -159 -176 0
76 -160 -175 0
77 -127 -145 0
77 -129 -143 0
77 -127 -161 0
77 -129 -159 0
77 -127 -177 0
77 -129 -175 0
77 -143 -161 0
77 -145 -159 0
77 -143 -177 0
77 -145 -175 0
77 -159 -177 0
77 -161 -175 0
78 -127 -146 0
78 -130 -143 0
78 -127 -162 0
78 -130 -159 0
78 -127 -178 0
78 -130 -175 0
78 -143 -162 0
78 -146 -159 0
78 -143 -178 0
78 -146 -175 0
78 -159 -178 0
78 -162 -175 0
79 -127 -147 0
79 -131 -143 0
79 -127 -163 0
79 -131 -159 0
79 -127 -179 0
79 -131 -175 0
79 -143 -163 0
79 -147 -159 0
79 -143 -179 0
79 -147 -175 0
79 -159 -179 0
79 -163 -175 0
80 -127 -148 0
80 -132 -143 0
80 -127 -164 0
80 -132 -159 0
80 -127 -180 0
80 -132 -175 0
80 -143 -164 0
80 -148 -159 0
80 -143 -180 0
80 -148 -175 0
80 -159 -180 0
80 -164 -175 0
81 -127 -149 0
81 -133 -143 0
81 -127 -165 0
81 -133 -159 0
81 -127 -181 0
81 -133 -175 0
81 -143 -165 0
81 -149 -159 0
81 -143 -181 0
81 -149 -175 0
81 -159 -181 0
81 -165 -175 0
82 -127 -150 0
82 -134 -143 0
82 -127 -166 0
82 -134 -159 0
82 -127 -182 0
82 -134 -175 0
82 -143 -166 0
82 -150 -159 0
82 -143 -182 0
82 -150 -175 0
82 -159 -182 0
82 -166 -175 0
83 -127 -151 0
83 -135 -143 0
83 -127 -167 0
83 -135 -159 0
83 -127 -183 0
83 -135 -175 0
83 -143 -167 0
83 -151 -159 0
83 -143 -183 0
83 -151 -175 0
83 -159 -183 0
83 -167 -175 0
84 -127 -152 0
84 -136 -143 0
84 -127 -168 0
84 -136 -159 0
84 -127 -184 0
84 -136 -175 0
84 -143 -168 0
84 -152 -159 0
84 -143 -184 0
84 -152 -175 0
84 -159 -184 0
84 -168 -175 0
85 -128 -145 0
85 -129 -144 0
85 -128 -161 0
85 -129 -160 0
85 -128 -177 0
85 -129 -176 0
85 -144 -161 0
85 -145 -160 0
85 -144 -177 0
85 -145 -176 0
85 -160 -177 0
85 -161 -176 0
86 -128 -146 0
86 -130 -144 0
86 -128 -162 0
86 -130 -160 0
86 -128 -178 0
86 -130 -176 0
86 -144 -162 0
86 -146 -160 0
86 -144 -178 0
86 -146 -176 0
86 -160 -178 0
86 -162 -176 0
87 -128 -147 0
87 -131 -144 0
87 -128 -163 0
87 -131 -160 0
87 -128 -179 0
87 -131 -176 0
87 -144 -163 0
87 -147 -160 0
87 -144 -179 0
87 -147 -176 0
87 -160 -179 0
87 -163 -176 0
88 -128 -148 0
88 -132 -144 0
88 -128 -164 0
88 -132 -160 0
88 -128 -180 0
88 -132 -176 0
88 -144 -164 0
88 -148 -160 0
88 -144 -180 0
88 -148 -176 0
88 -160 -180 0
88 -164 -176 0
89 -128 -149 0
89 -133 -144 0
89 -128 -165 0
89 -133 -160 0
89 -128 -181 0
89 -133 -176 0
89 -144 -165 0
89 -149 -160 0
89 -144 -181 0
89 -149 -176 0
89 -160 -181 0
89 -165 -176 0
90 -128 -150 0
90 -134 -144 0
90 -128 -166 0
90 -134 -160 0
90 -128 -182 0
90 -134 -176 0
90 -144 -166 0
90 -150 -160 0
90 -144 -182 0
90 -150 -176 0
90 -160 -182 0
90 -166 -176 0
91 -128 -151 0
91 -135 -144 0
91 -128 -167 0
91 -135 -160 0
91 -128 -183 0
91 -135 -176 0
91 -144 -167 0
91 -151 -160 0
91 -144 -183 0
91 -151 -176 0
91 -160 -183 0
91 -167 -176 0
92 -128 -152 0
92 -136 -144 0
92 -128 -168 0
92 -136 -160 0
92 -128 -184 0
92 -136 -176 0
92 -144 -168 0
92 -152 -160 0
92 -144 -184 0
92 -152 -176 0
92 -160 -184 0
92 -168 -176 0
93 -129 -146 0
93 -130 -145 0
93 -129 -162 0
93 -130 -161 0
93 -129 -178 0
93 -130 -177 0
93 -145 -162 0
93 -146 -161 0
93 -145 -178 0
93 -146 -177 0
93 -161 -178 0
93 -162 -177 0
94 -129 -147 0
94 -131 -145 0
94 -129 -163 0
94 -131 -161 0
94 -129 -179 0
94 -131 -177 0
94 -145 -163 0
94 -147 -161 0
94 -145 -179 0
94 -147 -177 0
94 -161 -179 0
94 -163 -177 0
95 -129 -148 0
95 -132 -145 0
95 -129 -164 0
95 -132 -161 0
95 -129 -180 0
95 -132 -177 0
95 -145 -164 0
95 -148 -161 0
95 -145 -180 0
95 -148 -177 0
95 -161 -180 0
95 -164 -177 0
96 -129 -149 0
96 -133 -145 0
96 -129 -165 0
96 -133 -161 0
96 -129 -181 0
96 -133 -177 0
96 -145 -165 0
96 -149 -161 0
96 -145 -181 0
96 -149 -177 0
96 -161 -181 0
96 -165 -177 0
97 -129 -150 0
97 -134 -145 0
97 -129 -166 0
97 -134 -161 0
97 -129 -182 0
97 -134 -177 0
97 -145 -166 0
97 -150 -161 0
97 -145 -182 0
97 -150 -177 0
97 -161 -182 0
97 -166 -177 0
98 -129 -151 0
98 -135 -145 0
98 -129 -167 0
98 -135 -161 0
98 -129 -183 0
98 -135 -177 0
98 -145 -167 0
98 -151 -161 0
98 -145 -183 0
98 -151 -177 0
98 -161 -183 0
98 -167 -177 0
99 -129 -152 0
99 -136 -145 0
99 -129 -168 0
99 -136 -161 0
99 -129 -184 0
99 -136 -177 0
99 -145 -168 0
99 -152 -161 0
99 -145 -184 0
99 -152 -177 0
99 -161 -184 0
99 -168 -177 0
100 -130 -147 0
100 -131 -146 0
100 -130 -163 0
100 -131 -162 0
100 -130 -179 0
100 -131 -178 0
100 -146 -163 0
100 -147 -162 0
100 -146 -179 0
100 -147 -178 0
100 -162 -179 0
100 -163 -178 0
101 -130 -148 0
101 -132 -146 0
101 -130 -164 0
101 -132 -162 0
101 -130 -180 0
101 -132 -178 0
101 -146 -164 0
101 -148 -162 0
101 -146 -180 0
101 -148 -178 0
101 -162 -180 0
101 -164 -178 0
102 -130 -149 0
102 -133 -146 0
102 -130 -165 0
102 -133 -162 0
102 -130 -181 0
102 -133 -178 0
102 -146 -165 0
102 -149 -162 0
102 -146 -181 0
102 -149 -178 0
102 -162 -181 0
102 -165 -178 0
103 -130 -150 0
103 -134 -146 0
103 -130 -166 0
103 -134 -162 0
103 -130 -182 0
103 -134 -178 0
103 -146 -166 0
103 -150 -162 0
103 -146 -182 0
103 -150 -178 0
103 -162 -182 0
103 -166 -178 0
104 -130 -151 0
104 -135 -146 0
104 -130 -167 0
104 -135 -162 0
104 -130 -183 0
104 -135 -178 0
104 -146 -167 0
104 -151 -162 0
104 -146 -183 0
104 -151 -178 0
104 -162 -183 0
104 -167 -178 0
105 -130 -152 0
105 -136 -146 0
105 -130 -168 0
105 -136 -162 0
105 -130 -184 0
105 -136 -178 0
105 -146 -168 0
105 -152 -162 0
105 -146 -184 0
105 -152 -178 0
105 -162 -184 0
105 -168 -178 0
106 -131 -148 0
106 -132 -147 0
106 -131 -164 0
106 -132 -163 0
106 -131 -180 0
106 -132 -179 0
106 -147 -164 0
106 -148 -163 0
106 -147 -180 0
106 -148 -179 0
106 -163 -180 0
106 -164 -179 0
107 -131 -149 0
107 -133 -147 0
107 -131 -165 0
107 -133 -163 0
107 -131 -181 0
107 -133 -179 0
107 -147 -165 0
107 -149 -163 0
107 -147 -181 0
107 -149 -179 0
107 -163 -181 0
107 -165 -179 0
108 -131 -150 0
108 -134 -147 0
108 -131 -166 0
108 -134 -163 0
108 -131 -182 0
108 -134 -179 0
108 -147 -166 0
108 -150 -163 0
108 -147 -182 0
108 -150 -179 0
108 -163 -182 0
108 -166 -179 0
109 -131 -151 0
109 -135 -147 0
109 -131 -167 0
109 -135 -163 0
109 -131 -183 0
109 -135 -179 0
109 -147 -167 0
109 -151 -163 0
109 -147 -183 0
109 -151 -179 0
109 -163 -183 0
109 -167 -179 0
110 -131 -152 0
110 -136 -147 0
110 -131 -168 0
110 -136 -163 0
110 -131 -184 0
110 -136 -179 0
110 -147 -168 0
110 -152 -163 0
110 -147 -184 0
110 -152 -179 0
110 -163 -184 0
110 -168 -179 0
111 -132 -149 0
111 -133 -148 0
111 -132 -165 0
111 -133 -164 0
111 -132 -181 0
111 -133 -180 0
111 -148 -165 0
111 -149 -164 0
111 -148 -181 0
111 -149 -180 0
111 -164 -181 0
111 -165 -180 0
112 -132 -150 0
112 -134 -148 0
112 -132 -166 0
112 -134 -164 0
112 -132 -182 0
112 -134 -180 0
112 -148 -166 0
112 -150 -164 0
112 -148 -182 0
112 -150 -180 0
112 -164 -182 0
112 -166 -180 0
113 -132 -151 0
113 -135 -148 0
113 -132 -167 0
113 -135 -164 0
113 -132 -183 0
113 -135 -180 0
113 -148 -167 0
113 -151 -164 0
113 -148 -183 0
113 -151 -180 0
113 -164 -183 0
113 -167 -180 0
114 -132 -152 0
114 -136 -148 0
114 -132 -168 0
114 -136 -164 0
114 -132 -184 0
114 -136 -180 0
114 -148 -168 0
114 -152 -164 0
114 -148 -184 0
114 -152 -180 0
114 -164 -184 0
114 -168 -180 0
115 -133 -150 0
115 -134 -149 0
115 -133 -166 0
115 -134 -165 0
115 -133 -182 0
115 -134 -181 0
115 -149 -166 0
115 -150 -165 0
115 -149 -182 0
115 -150 -181 0
115 -165 -182 0
115 -166 -181 0
116 -133 -151 0
116 -135 -149 0
116 -133 -167 0
116 -135 -165 0
116 -133 -183 0
116 -135 -181 0
116 -149 -167 0
116 -151 -165 0
116 -149 -183 0
116 -151 -181 0
116 -165 -183 0
116 -167 -181 0
117 -133 -152 0
117 -136 -149 0
117 -133 -168 0
117 -136 -165 0
117 -133 -184 0
117 -136 -181 0
117 -149 -168 0
117 -152 -165 0
117 -149 -184 0
117 -152 -181 0
117 -165 -184 0
117 -168 -181 0
118 -134 -151 0
118 -135 -150 0
118 -134 -167 0
118 -135 -166 0
118 -134 -183 0
118 -135 -182 0
118 -150 -167 0
118 -151 -166 0
118 -150 -183 0
118 -151 -182 0
118 -166 -183 0
118 -167 -182 0
119 -134 -152 0
119 -136 -150 0
119 -134 -168 0
119 -136 -166 0
119 -134 -184 0
119 -136 -182 0
119 -150 -168 0
119 -152 -166 0
119 -150 -184 0
119 -152 -182 0
119 -166 -184 0
119 -168 -182 0
120 -135 -152 0
120 -136 -151 0
120 -135 -168 0
120 -136 -167 0
120 -135 -184 0
120 -136 -183 0
120 -151 -168 0
120 -152 -167 0
120 -151 -184 0
120 -152 -183 0
120 -167 -184 0
120 -168 -183 0
185 186 187 0
188 189 190 0
191 192 193 0
194 195 196 0
197 198 199 0
200 201 202 0
203 204 205 0
206 207 208 0
209 210 211 0
212 213 214 0
215 216 217 0
218 219 220 0
221 222 223 0
224 225 226 0
227 228 229 0
230 231 232 0
-185 -186 0
-185 -187 0
-186 -187 0
-188 -189 0
-188 -190 0
-189 -190 0
-191 -192 0
-191 -193 0
-192 -193 0
-194 -195 0
-194 -196 0
-195 -196 0
-197 -198 0
-197 -199 0
-198 -199 0
-200 -201 0
-200 -202 0
-201 -202 0
-203 -204 0
-203 -205 0
-204 -205 0
-206 -207 0
-206 -208 0
-207 -208 0
-209 -210 0
-209 -211 0
-210 -211 0
-212 -213 0
-212 -214 0
-213 -214 0
-215 -216 0
-215 -217 0
-216 -217 0
-218 -219 0
-218 -220 0
-219 -220 0
-221 -222 0
-221 -223 0
-222 -223 0
-224 -225 0
-224 -226 0
-225 -226 0
-227 -228 0
-227 -229 0
-228 -229 0
-230 -231 0
-230 -232 0
-231 -232 0
-1 -185 -188 0
-1 -186 -189 0
-1 -187 -190 0
-2 -185 -191 0
-2 -186 -192 0
-2 -187 -193 0
-3 -185 -194 0
-3 -186 -195 0
-3 -187 -196 0
-4 -185 -197 0
-4 -186 -198 0
-4 -187 -199 0
-5 -185 -200 0
-5 -186 -201 0
-5 -187 -202 0
-6 -185 -203 0
-6 -186 -204 0
-6 -187 -205 0
-7 -185 -206 0
-7 -186 -207 0
-7 -187 -208 0
-8 -185 -209 0
-8 -186 -210 0
-8 -187 -211 0
-9 -185 -212 0
-9 -186 -213 0
-9 -187 -214 0
-10 -185 -215 0
-10 -186 -216 0
-10 -187 -217 0
-11 -185 -218 0
-11 -186 -219 0
-11 -187 -220 0
-12 -185 -221 0
-12 -186 -222 0
-12 -187 -223 0
-13 -185 -224 0
-13 -186 -225 0
-13 -187 -226 0
-14 -185 -227 0
-14 -186 -228 0
-14 -187 -229 0
-15 -185 -230 0
-15 -186 -231 0
-15 -187 -232 0
-16 -188 -191 0
-16 -189 -192 0
-16 -190 -193 0
-17 -188 -194 0
-17 -189 -195 0
-17 -190 -196 0
-18 -188 -197 0
-18 -189 -198 0
-18 -190 -199 0
-19 -188 -200 0
-19 -189 -201 0
-19 -190 -202 0
-20 -188 -203 0
-20 -189 -204 0
-20 -190 -205 0
-21 -188 -206 0
-21 -189 -207 0
-21 -190 -208 0
-22 -188 -209 0
-22 -189 -210 0
-22 -190 -211 0
-23 -188 -212 0
-23 -189 -213 0
-23 -190 -214 0
-24 -188 -215 0
-24 -189 -216 0
-24 -190 -217 0
-25 -188 -218 0
-25 -189 -219 0
-25 -190 -220 0
-26 -188 -221 0
-26 -189 -222 0
-26 -190 -223 0
-27 -188 -224 0
-27 -189 -225 0
-27 -190 -226 0
-28 -188 -227 0
-28 -189 -228 0
-28 -190 -229 0
-29 -188 -230 0
-29 -189 -231 0
-29 -190 -232 0
-30 -191 -194 0
-30 -192 -195 0
-30 -193 -196 0
-31 -191 -197 0
-31 -192 -198 0
-31 -193 -199 0
-32 -191 -200 0
-32 -192 -201 0
-32 -193 -202 0
-33 -191 -203 0
-33 -192 -204 0
-33 -193 -205 0
-34 -191 -206 0
-34 -192 -207 0
-34 -193 -208 0
-35 -191 -209 0
-35 -192 -210 0
-35 -193 -211 0
-36 -191 -212 0
-36 -192 -213 0
-36 -193 -214 0
-37 -191 -215 0
-37 -192 -216 0
-37 -193 -217 0
-38 -191 -218 0
-38 -192 -219 0
-38 -193 -220 0
-39 -191 -221 0
-39 -192 -222 0
-39 -193 -223 0
-40 -191 -224 0
-40 -192 -225 0
-40 -193 -226 0
-41 -191 -227 0
-41 -192 -228 0
-41 -193 -229 0
-42 -191 -230 0
-42 -192 -231 0
-42 -193 -232 0
-43 -194 -197 0
-43 -195 -198 0
-43 -196 -199 0
-44 -194 -200 0
-44 -195 -201 0
-44 -196 -202 0
-45 -194 -203 0
-45 -195 -204 0
-45 -196 -205 0
-46 -194 -206 0
-46 -195 -207 0
-46 -196 -208 0
-47 -194 -209 0
-47 -195 -210 0
-47 -196 -211 0
-48 -194 -212 0
-48 -195 -213 0
-48 -196 -214 0
-49 -194 -215 0
-49 -195 -216 0
-49 -196 -217 0
-50 -194 -218 0
-50 -195 -219 0
-50 -196 -220 0
-51 -194 -221 0
-51 -195 -222 0
-51 -196 -223 0
-52 -194 -224 0
-52 -195 -225 0
-52 -196 -226 0
-53 -194 -227 0
-53 -195 -228 0
-53 -196 -229 0
-54 -194 -230 0
-54 -195 -231 0
-54 -196 -232 0
-55 -197 -200 0
-55 -198 -201 0
-55 -199 -202 0
-56 -197 -203 0
-56 -198 -204 0
-56 -199 -205 0
-57 -197 -206 0
-57 -198 -207 0
-57 -199 -208 0
-58 -197 -209 0
-58 -198 -210 0
-58 -199 -211 0
-59 -197 -212 0
-59 -198 -213 0
-59 -199 -214 0
-60 -197 -215 0
-60 -198 -216 0
-60 -199 -217 0
-61 -197 -218 0
-61 -198 -219 0
-61 -199 -220 0
-62 -197 -221 0
-62 -198 -222 0
-62 -199 -223 0
-63 -197 -224 0
-63 -198 -225 0
-63 -199 -226 0
-64 -197 -227 0
-64 -198 -228 0
-64 -199 -229 0
-65 -197 -230 0
-65 -198 -231 0
-65 -199 -232 0
-66 -200 -203 0
-66 -201 -204 0
-66 -202 -205 0
-67 -200 -206 0
-67 -201 -207 0
-67 -202 -208 0
-68 -200 -209 0
-68 -201 -210 0
-68 -202 -211 0
-69 -200 -212 0
-69 -201 -213 0
-69 -202 -214 0
-70 -200 -215 0
-70 -201 -216 0
-70 -202 -217 0
-71 -200 -218 0
-71 -201 -219 0
-71 -202 -220 0
-72 -200 -221 0
-72 -201 -222 0
-72 -202 -223 0
-73 -200 -224 0
-73 -201 -225 0
-73 -202 -226 0
-74 -200 -227 0
-74 -201 -228 0
-74 -202 -229 0
-75 -200 -230 0
-75 -201 -231 0
-75 -202 -232 0
-76 -203 -206 0
-76 -204 -207 0
-76 -205 -208 0
-77 -203 -209 0
-77 -204 -210 0
-77 -205 -211 0
-78 -203 -212 0
-78 -204 -213 0
-78 -205 -214 0
-79 -203 -215 0
-79 -204 -216 0
-79 -205 -217 0
-80 -203 -218 0
-80 -204 -219 0
-80 -205 -220 0
-81 -203 -221 0
-81 -204 -222 0
-81 -205 -223 0
-82 -203 -224 0
-82 -204 -225 0
-82 -205 -226 0
-83 -203 -227 0
-83 -204 -228 0
-83 -205 -229 0
-84 -203 -230 0
-84 -204 -231 0
-84 -205 -232 0
-85 -206 -209 0
-85 -207 -210 0
-85 -208 -211 0
-86 -206 -212 0
-86 -207 -213 0
-86 -208 -214 0
-87 -206 -215 0
-87 -207 -216 0
-87 -208 -217 0
-88 -206 -218 0
-88 -207 -219 0
-88 -208 -220 0
-89 -206 -221 0
-89 -207 -222 0
-89 -208 -223 0
-90 -206 -224 0
-90 -207 -225 0
-90 -208 -226 0
-91 -206 -227 0
-91 -207 -228 0
-91 -208 -229 0
-92 -206 -230 0
-92 -207 -231 0
-92 -208 -232 0
-93 -209 -212 0
-93 -210 -213 0
-93 -211 -214 0
-94 -209 -215 0
-94 -210 -216 0
-94 -211 -217 0
-95 -209 -218 0
-95 -210 -219 0
-95 -211 -220 0
-96 -209 -221 0
-96 -210 -222 0
-96 -211 -223 0
-97 -209 -224 0
-97 -210 -225 0
-97 -211 -226 0
-98 -209 -227 0
-98 -210 -228 0
-98 -211 -229 0
-99 -209 -230 0
-99 -210 -231 0
-99 -211 -232 0
-100 -212 -215 0
-100 -213 -216 0
-100 -214 -217 0
-101 -212 -218 0
-101 -213 -219 0
-101 -214 -220 0
-102 -212 -221 0
-102 -213 -222 0
-102 -214 -223 0
-103 -212 -224 0
-103 -213 -225 0
-103 -214 -226 0
-104 -212 -227 0
-104 -213 -228 0
-104 -214 -229 0
-105 -212 -230 0
-105 -213 -231 0
-105 -214 -232 0
-106 -215 -218 0
-106 -216 -219 0
-106 -217 -220 0
-107 -215 -221 0
-107 -216 -222 0
-107 -217 -223 0
-108 -215 -224 0
-108 -216 -225 0
-108 -217 -226 0
-109 -215 -227 0
-109 -216 -228 0
-109 -217 -229 0
-110 -215 -230 0
-110 -216 -231 0
-110 -217 -232 0
-111 -218 -221 0
-111 -219 -222 0
-111 -220 -223 0
-112 -218 -224 0
-112 -219 -225 0
-112 -220 -226 0
-113 -218 -227 0
-113 -219 -228 0
-113 -220 -229 0
-114 -218 -230 0
-114 -219 -231 0
-114 -220 -232 0
-115 -221 -224 0
-115 -222 -225 0
-115 -223 -226 0
-116 -221 -227 0
-116 -222 -228 0
-116 -223 -229 0
-117 -221 -230 0
-117 -222 -231 0
-117 -223 -232 0
-118 -224 -227 0
-118 -225 -228 0
-118 -226 -229 0
-119 -224 -230 0
-119 -225 -231 0
-119 -226 -232 0
-120 -227 -230 0
-120 -228 -231 0
-120 -229 -232 0
