c F5 clique-colouring cnfgen CliqueColoring(12,4,3)
p cnf 150 1378
67 68 69 70 71 72 73 74 75 76 77 78 0
79 80 81 82 83 84 85 86 87 88 89 90 0
91 92 93 94 95 96 97 98 99 100 101 102 0
103 104 105 106 107 108 109 110 111 112 113 114 0
-67 -68 0
-67 -69 0
-67 -70 0
-67 -71 0
-67 -72 0
-67 -73 0
-67 -74 0
-67 -75 0
-67 -76 0
-67 -77 0
-67 -78 0
-68 -69 0
-68 -70 0
-68 -71 0
-68 -72 0
-68 -73 0
-68 -74 0
-68 -75 0
-68 -76 0
-68 -77 0
-68 -78 0
-69 -70 0
-69 -71 0
-69 -72 0
-69 -73 0
-69 -74 0
-69 -75 0
-69 -76 0
-69 -77 0
-69 -78 0
-70 -71 0
-70 -72 0
-70 -73 0
-70 -74 0
-70 -75 0
-70 -76 0
-70 -77 0
-70 -78 0
-71 -72 0
-71 -73 0
-71 -74 0
-71 -75 0
-71 -76 0
-71 -77 0
-71 -78 0
-72 -73 0
-72 -74 0
-72 -75 0
-72 -76 0
-72 -77 0
-72 -78 0
-73 -74 0
-73 -75 0
-73 -76 0
-73 -77 0
-73 -78 0
-74 -75 0
-74 -76 0
-74 -77 0
-74 -78 0
-75 -76 0
-75 -77 0
-75 -78 0
-76 -77 0
-76 -78 0
-77 -78 0
-79 -80 0
-79 -81 0
-79 -82 0
-79 -83 0
-79 -84 0
-79 -85 0
-79 -86 0
-79 -87 0
-79 -88 0
-79 -89 0
-79 -90 0
-80 -81 0
-80 -82 0
-80 -83 0
-80 -84 0
-80 -85 0
-80 -86 0
-80 -87 0
-80 -88 0
-80 -89 0
-80 -90 0
-81 -82 0
-81 -83 0
-81 -84 0
-81 -85 0
-81 -86 0
-81 -87 0
-81 -88 0
-81 -89 0
-81 -90 0
-82 -83 0
-82 -84 0
-82 -85 0
-82 -86 0
-82 -87 0
-82 -88 0
-82 -89 0
-82 -90 0
-83 -84 0
-83 -85 0
-83 -86 0
-83 -87 0
-83 -88 0
-83 -89 0
-83 -90 0
-84 -85 0
-84 -86 0
-84 -87 0
-84 -88 0
-84 -89 0
-84 -90 0
-85 -86 0
-85 -87 0
-85 -88 0
-85 -89 0
-85 -90 0
-86 -87 0
-86 -88 0
-86 -89 0
-86 -90 0
-87 -88 0
-87 -89 0
-87 -90 0
-88 -89 0
-88 -90 0
-89 -90 0
-91 -92 0
-91 -93 0
-91 -94 0
-91 -95 0
-91 -96 0
-91 -97 0
-91 -98 0
-91 -99 0
-91 -100 0
-91 -101 0
-91 -102 0
-92 -93 0
-92 -94 0
-92 -95 0
-92 -96 0
-92 -97 0
-92 -98 0
-92 -99 0
-92 -100 0
-92 -101 0
-92 -102 0
-93 -94 0
-93 -95 0
-93 -96 0
-93 -97 0
-93 -98 0
-93 -99 0
-93 -100 0
-93 -101 0
-93 -102 0
-94 -95 0
-94 -96 0
-94 -97 0
-94 -98 0
-94 -99 0
-94 -100 0
-94 -101 0
-94 -102 0
-95 -96 0
-95 -97 0
-95 -98 0
-95 -99 0
-95 -100 0
-95 -101 0
-95 -102 0
-96 -97 0
-96 -98 0
-96 -99 0
-96 -100 0
-96 -101 0
-96 -102 0
-97 -98 0
-97 -99 0
-97 -100 0
-97 -101 0
-97 -102 0
-98 -99 0
-98 -100 0
-98 -101 0
-98 -102 0
-99 -100 0
-99 -101 0
-99 -102 0
-100 -101 0
-100 -102 0
-101 -102 0
-103 -104 0
-103 -105 0
-103 -106 0
-103 -107 0
-103 -108 0
-103 -109 0
-103 -110 0
-103 -111 0
-103 -112 0
-103 -113 0
-103 -114 0
-104 -105 0
-104 -106 0
-104 -107 0
-104 -108 0
-104 -109 0
-104 -110 0
-104 -111 0
-104 -112 0
-104 -113 0
-104 -114 0
-105 -106 0
-105 -107 0
-105 -108 0
-105 -109 0
-105 -110 0
-105 -111 0
-105 -112 0
-105 -113 0
-105 -114 0
-106 -107 0
-106 -108 0
-106 -109 0
-106 -110 0
-106 -111 0
-106 -112 0
-106 -113 0
-106 -114 0
-107 -108 0
-107 -109 0
-107 -110 0
-107 -111 0
-107 -112 0
-107 -113 0
-107 -114 0
-108 -109 0
-108 -110 0
-108 -111 0
-108 -112 0
-108 -113 0
-108 -114 0
-109 -110 0
-109 -111 0
-109 -112 0
-109 -113 0
-109 -114 0
-110 -111 0
-110 -112 0
-110 -113 0
-110 -114 0
-111 -112 0
-111 -113 0
-111 -114 0
-112 -113 0
-112 -114 0
-113 -114 0
-67 -79 0
-67 -91 0
-67 -103 0
-79 -91 0
-79 -103 0
-91 -103 0
-68 -80 0
-68 -92 0
-68 -104 0
-80 -92 0
-80 -104 0
-92 -104 0
-69 -81 0
-69 -93 0
-69 -105 0
-81 -93 0
-81 -105 0
-93 -105 0
-70 -82 0
-70 -94 0
-70 -106 0
-82 -94 0
-82 -106 0
-94 -106 0
-71 -83 0
-71 -95 0
-71 -107 0
-83 -95 0
-83 -107 0
-95 -107 0
-72 -84 0
-72 -96 0
-72 -108 0
-84 -96 0
-84 -108 0
-96 -108 0
-73 -85 0
-73 -97 0
-73 -109 0
-85 -97 0
-85 -109 0
-97 -109 0
-74 -86 0
-74 -98 0
-74 -110 0
-86 -98 0
-86 -110 0
-98 -110 0
-75 -87 0
-75 -99 0
-75 -111 0
-87 -99 0
-87 -111 0
-99 -111 0
-76 -88 0
-76 -100 0
-76 -112 0
-88 -100 0
-88 -112 0
-100 -112 0
-77 -89 0
-77 -101 0
-77 -113 0
-89 -101 0
-89 -113 0
-101 -113 0
-78 -90 0
-78 -102 0
-78 -114 0
-90 -102 0
-90 -114 0
-102 -114 0
1 -67 -80 0
1 -68 -79 0
1 -67 -92 0
1 -68 -91 0
1 -67 -104 0
1 -68 -103 0
1 -79 -92 0
1 -80 -91 0
1 -79 -104 0
1 -80 -103 0
1 -91 -104 0
1 -92 -103 0
2 -67 -81 0
2 -69 -79 0
2 -67 -93 0
2 -69 -91 0
2 -67 -105 0
2 -69 -103 0
2 -79 -93 0
2 -81 -91 0
2 -79 -105 0
2 -81 -103 0
2 -91 -105 0
2 -93 -103 0
3 -67 -82 0
3 -70 -79 0
3 -67 -94 0
3 -70 -91 0
3 -67 -106 0
3 -70 -103 0
3 -79 -94 0
3 -82 -91 0
3 -79 -106 0
3 -82 -103 0
3 -91 -106 0
3 -94 -103 0
4 -67 -83 0
4 -71 -79 0
4 -67 -95 0
4 -71 -91 0
4 -67 -107 0
4 -71 -103 0
4 -79 -95 0
4 -83 -91 0
4 -79 -107 0
4 -83 -103 0
4 -91 -107 0
4 -95 -103 0
5 -67 -84 0
5 -72 -79 0
5 -67 -96 0
5 -72 -91 0
5 -67 -108 0
5 -72 -103 0
5 -79 -96 0
5 -84 -91 0
5 -79 -108 0
5 -84 -103 0
5 -91 -108 0
5 -96 -103 0
6 -67 -85 0
6 -73 -79 0
6 -67 -97 0
6 -73 -91 0
6 -67 -109 0
6 -73 -103 0
6 -79 -97 0
6 -85 -91 0
6 -79 -109 0
6 -85 -103 0
6 -91 -109 0
6 -97 -103 0
7 -67 -86 0
7 -74 -79 0
7 -67 -98 0
7 -74 -91 0
7 -67 -110 0
7 -74 -103 0
7 -79 -98 0
7 -86 -91 0
7 -79 -110 0
7 -86 -103 0
7 -91 -110 0
7 -98 -103 0
8 -67 -87 0
8 -75 -79 0
8 -67 -99 0
8 -75 -91 0
8 -67 -111 0
8 -75 -103 0
8 -79 -99 0
8 -87 -91 0
8 -79 -111 0
8 -87 -103 0
8 -91 -111 0
8 -99 -103 0
9 -67 -88 0
9 -76 -79 0
9 -67 -100 0
9 -76 -91 0
9 -67 -112 0
9 -76 -103 0
9 -79 -100 0
9 -88 -91 0
9 -79 -112 0
9 -88 -103 0
9 -91 -112 0
9 -100 -103 0
10 -67 -89 0
10 -77 -79 0
10 -67 -101 0
10 -77 -91 0
10 -67 -113 0
10 -77 -103 0
10 -79 -101 0
10 -89 -91 0
10 -79 -113 0
10 -89 -103 0
10 -91 -113 0
10 -101 -103 0
11 -67 -90 0
11 -78 -79 0
11 -67 -102 0
11 -78 -91 0
11 -67 -114 0
11 -78 -103 0
11 -79 -102 0
11 -90 -91 0
11 -79 -114 0
11 -90 -103 0
11 -91 -114 0
11 -102 -103 0
12 -68 -81 0
12 -69 -80 0
12 -68 -93 0
12 -69 -92 0
12 -68 -105 0
12 -69 -104 0
12 -80 -93 0
12 -81 -92 0
12 -80 -105 0
12 -81 -104 0
12 -92 -105 0
12 -93 -104 0
13 -68 -82 0
13 -70 -80 0
13 -68 -94 0
13 -70 -92 0
13 -68 -106 0
13 -70 -104 0
13 -80 -94 0
13 -82 -92 0
13 -80 -106 0
13 -82 -104 0
13 -92 -106 0
13 -94 -104 0
14 -68 -83 0
14 -71 -80 0
14 -68 -95 0
14 -71 -92 0
14 -68 -107 0
14 -71 -104 0
14 -80 -95 0
14 -83 -92 0
14 -80 -107 0
14 -83 -104 0
14 -92 -107 0
14 -95 -104 0
15 -68 -84 0
15 -72 -80 0
15 -68 -96 0
15 -72 -92 0
15 -68 -108 0
15 -72 -104 0
15 -80 -96 0
15 -84 -92 0
15 -80 -108 0
15 -84 -104 0
15 -92 -108 0
15 -96 -104 0
16 -68 -85 0
16 -73 -80 0
16 -68 -97 0
16 -73 -92 0
16 -68 -109 0
16 -73 -104 0
16 -80 -97 0
16 -85 -92 0
16 -80 -109 0
16 -85 -104 0
16 -92 -109 0
16 -97 -104 0
17 -68 -86 0
17 -74 -80 0
17 -68 -98 0
17 -74 -92 0
17 -68 -110 0
17 -74 -104 0
17 -80 -98 0
17 -86 -92 0
17 -80 -110 0
17 -86 -104 0
17 -92 -110 0
17 -98 -104 0
18 -68 -87 0
18 -75 -80 0
18 -68 -99 0
18 -75 -92 0
18 -68 -111 0
18 -75 -104 0
18 -80 -99 0
18 -87 -92 0
18 -80 -111 0
18 -87 -104 0
18 -92 -111 0
18 -99 -104 0
19 -68 -88 0
19 -76 -80 0
19 -68 -100 0
19 -76 -92 0
19 -68 -112 0
19 -76 -104 0
19 -80 -100 0
19 -88 -92 0
19 -80 -112 0
19 -88 -104 0
19 -92 -112 0
19 -100 -104 0
20 -68 -89 0
20 -77 -80 0
20 -68 -101 0
20 -77 -92 0
20 -68 -113 0
20 -77 -104 0
20 -80 -101 0
20 -89 -92 0
20 -80 -113 0
20 -89 -104 0
20 -92 -113 0
20 -101 -104 0
21 -68 -90 0
21 -78 -80 0
21 -68 -102 0
21 -78 -92 0
21 -68 -114 0
21 -78 -104 0
21 -80 -102 0
21 -90 -92 0
21 -80 -114 0
21 -90 -104 0
21 -92 -114 0
21 -102 -104 0
22 -69 -82 0
22 -70 -81 0
22 -69 -94 0
22 -70 -93 0
22 -69 -106 0
22 -70 -105 0
22 -81 -94 0
22 -82 -93 0
22 -81 -106 0
22 -82 -105 0
22 -93 -106 0
22 -94 -105 0
23 -69 -83 0
23 -71 -81 0
23 -69 -95 0
23 -71 -93 0
23 -69 -107 0
23 -71 -105 0
23 -81 -95 0
23 -83 -93 0
23 -81 -107 0
23 -83 -105 0
23 -93 -107 0
23 -95 -105 0
24 -69 -84 0
24 -72 -81 0
24 -69 -96 0
24 -72 -93 0
24 -69 -108 0
24 -72 -105 0
24 -81 -96 0
24 -84 -93 0
24 -81 -108 0
24 -84 -105 0
24 -93 -108 0
24 -96 -105 0
25 -69 -85 0
25 -73 -81 0
25 -69 -97 0
25 -73 -93 0
25 -69 -109 0
25 -73 -105 0
25 -81 -97 0
25 -85 -93 0
25 -81 -109 0
25 -85 -105 0
25 -93 -109 0
25 -97 -105 0
26 -69 -86 0
26 -74 -81 0
26 -69 -98 0
26 -74 -93 0
26 -69 -110 0
26 -74 -105 0
26 -81 -98 0
26 -86 -93 0
26 -81 -110 0
26 -86 -105 0
26 -93 -110 0
26 -98 -105 0
27 -69 -87 0
27 -75 -81 0
27 -69 -99 0
27 -75 -93 0
27 -69 -111 0
27 -75 -105 0
27 -81 -99 0
27 -87 -93 0
27 -81 -111 0
27 -87 -105 0
27 -93 -111 0
27 -99 -105 0
28 -69 -88 0
28 -76 -81 0
28 -69 -100 0
28 -76 -93 0
28 -69 -112 0
28 -76 -105 0
28 -81 -100 0
28 -88 -93 0
28 -81 -112 0
28 -88 -105 0
28 -93 -112 0
28 -100 -105 0
29 -69 -89 0
29 -77 -81 0
29 -69 -101 0
29 -77 -93 0
29 -69 -113 0
29 -77 -105 0
29 -81 -101 0
29 -89 -93 0
29 -81 -113 0
29 -89 -105 0
29 -93 -113 0
29 -101 -105 0
30 -69 -90 0
30 -78 -81 0
30 -69 -102 0
30 -78 -93 0
30 -69 -114 0
30 -78 -105 0
30 -81 -102 0
30 -90 -93 0
30 -81 -114 0
30 -90 -105 0
30 -93 -114 0
30 -102 -105 0
31 -70 -83 0
31 -71 -82 0
31 -70 -95 0
31 -71 -94 0
31 -70 -107 0
31 -71 -106 0
31 -82 -95 0
31 -83 -94 0
31 -82 -107 0
31 -83 -106 0
31 -94 -107 0
31 -95 -106 0
32 -70 -84 0
32 -72 -82 0
32 -70 -96 0
32 -72 -94 0
32 -70 -108 0
32 -72 -106 0
32 -82 -96 0
32 -84 -94 0
32 -82 -108 0
32 -84 -106 0
32 -94 -108 0
32 -96 -106 0
33 -70 -85 0
33 -73 -82 0
33 -70 -97 0
33 -73 -94 0
33 -70 -109 0
33 -73 -106 0
33 -82 -97 0
33 -85 -94 0
33 -82 -109 0
33 -85 -106 0
33 -94 -109 0
33 -97 -106 0
34 -70 -86 0
34 -74 -82 0
34 -70 -98 0
34 -74 -94 0
34 -70 -110 0
34 -74 -106 0
34 -82 -98 0
34 -86 -94 0
34 -82 -110 0
34 -86 -106 0
34 -94 -110 0
34 -98 -106 0
35 -70 -87 0
35 -75 -82 0
35 -70 -99 0
35 -75 -94 0
35 -70 -111 0
35 -75 -106 0
35 -82 -99 0
35 -87 -94 0
35 -82 -111 0
35 -87 -106 0
35 -94 -111 0
35 -99 -106 0
36 -70 -88 0
36 -76 -82 0
36 -70 -100 0
36 -76 -94 0
36 -70 -112 0
36 -76 -106 0
36 -82 -100 0
36 -88 -94 0
36 -82 -112 0
36 -88 -106 0
36 -94 -112 0
36 -100 -106 0
37 -70 -89 0
37 -77 -82 0
37 -70 -101 0
37 -77 -94 0
37 -70 -113 0
37 -77 -106 0
37 -82 -101 0
37 -89 -94 0
37 -82 -113 0
37 -89 -106 0
37 -94 -113 0
37 -101 -106 0
38 -70 -90 0
38 -78 -82 0
38 -70 -102 0
38 -78 -94 0
38 -70 -114 0
38 -78 -106 0
38 -82 -102 0
38 -90 -94 0
38 -82 -114 0
38 -90 -106 0
38 -94 -114 0
38 -102 -106 0
39 -71 -84 0
39 -72 -83 0
39 -71 -96 0
39 -72 -95 0
39 -71 -108 0
39 -72 -107 0
39 -83 -96 0
39 -84 -95 0
39 -83 -108 0
39 -84 -107 0
39 -95 -108 0
39 -96 -107 0
40 -71 -85 0
40 -73 -83 0
40 -71 -97 0
40 -73 -95 0
40 -71 -109 0
40 -73 -107 0
40 -83 -97 0
40 -85 -95 0
40 -83 -109 0
40 -85 -107 0
40 -95 -109 0
40 -97 -107 0
41 -71 -86 0
41 -74 -83 0
41 -71 -98 0
41 -74 -95 0
41 -71 -110 0
41 -74 -107 0
41 -83 -98 0
41 -86 -95 0
41 -83 -110 0
41 -86 -107 0
41 -95 -110 0
41 -98 -107 0
42 -71 -87 0
42 -75 -83 0
42 -71 -99 0
42 -75 -95 0
42 -71 -111 0
42 -75 -107 0
42 -83 -99 0
42 -87 -95 0
42 -83 -111 0
42 -87 -107 0
42 -95 -111 0
42 -99 -107 0
43 -71 -88 0
43 -76 -83 0
43 -71 -100 0
43 -76 -95 0
43 -71 -112 0
43 -76 -107 0
43 -83 -100 0
43 -88 -95 0
43 -83 -112 0
43 -88 -107 0
43 -95 -112 0
43 -100 -107 0
44 -71 -89 0
44 -77 -83 0
44 -71 -101 0
44 -77 -95 0
44 -71 -113 0
44 -77 -107 0
44 -83 -101 0
44 -89 -95 0
44 -83 -113 0
44 -89 -107 0
44 -95 -113 0
44 -101 -107 0
45 -71 -90 0
45 -78 -83 0
45 -71 -102 0
45 -78 -95 0
45 -71 -114 0
45 -78 -107 0
45 -83 -102 0
45 -90 -95 0
45 -83 -114 0
45 -90 -107 0
45 -95 -114 0
45 -102 -107 0
46 -72 -85 0
46 -73 -84 0
46 -72 -97 0
46 -73 -96 0
46 -72 -109 0
46 -73 -108 0
46 -84 -97 0
46 -85 -96 0
46 -84 -109 0
46 -85 -108 0
46 -96 -109 0
46 -97 -108 0
47 -72 -86 0
47 -74 -84 0
47 -72 -98 0
47 -74 -96 0
47 -72 -110 0
47 -74 -108 0
47 -84 -98 0
47 -86 -96 0
47 -84 -110 0
47 -86 -108 0
47 -96 -110 0
47 -98 -108 0
48 -72 -87 0
48 -75 -84 0
48 -72 -99 0
48 -75 -96 0
48 -72 -111 0
48 -75 -108 0
48 -84 -99 0
48 -87 -96 0
48 -84 -111 0
48 -87 -108 0
48 -96 -111 0
48 -99 -108 0
49 -72 -88 0
49 -76 -84 0
49 -72 -100 0
49 -76 -96 0
49 -72 -112 0
49 -76 -108 0
49 -84 -100 0
49 -88 -96 0
49 -84 -112 0
49 -88 -108 0
49 -96 -112 0
49 -100 -108 0
50 -72 -89 0
50 -77 -84 0
50 -72 -101 0
50 -77 -96 0
50 -72 -113 0
50 -77 -108 0
50 -84 -101 0
50 -89 -96 0
50 -84 -113 0
50 -89 -108 0
50 -96 -113 0
50 -101 -108 0
51 -72 -90 0
51 -78 -84 0
51 -72 -102 0
51 -78 -96 0
51 -72 -114 0
51 -78 -108 0
51 -84 -102 0
51 -90 -96 0
51 -84 -114 0
51 -90 -108 0
51 -96 -114 0
51 -102 -108 0
52 -73 -86 0
52 -74 -85 0
52 -73 -98 0
52 -74 -97 0
52 -73 -110 0
52 -74 -109 0
52 -85 -98 0
52 -86 -97 0
52 -85 -110 0
52 -86 -109 0
52 -97 -110 0
52 -98 -109 0
53 -73 -87 0
53 -75 -85 0
53 -73 -99 0
53 -75 -97 0
53 -73 -111 0
53 -75 -109 0
53 -85 -99 0
53 -87 -97 0
53 -85 -111 0
53 -87 -109 0
53 -97 -111 0
53 -99 -109 0
54 -73 -88 0
54 -76 -85 0
54 -73 -100 0
54 -76 -97 0
54 -73 -112 0
54 -76 -109 0
54 -85 -100 0
54 -88 -97 0
54 -85 -112 0
54 -88 -109 0
54 -97 -112 0
54 -100 -109 0
55 -73 -89 0
55 -77 -85 0
55 -73 -101 0
55 -77 -97 0
55 -73 -113 0
55 -77 -109 0
55 -85 -101 0
55 -89 -97 0
55 -85 -113 0
55 -89 -109 0
55 -97 -113 0
55 -101 -109 0
56 -73 -90 0
56 -78 -85 0
56 -73 -102 0
56 -78 -97 0
56 -73 -114 0
56 -78 -109 0
56 -85 -102 0
56 -90 -97 0
56 -85 -114 0
56 -90 -109 0
56 -97 -114 0
56 -102 -109 0
57 -74 -87 0
57 -75 -86 0
57 -74 -99 0
57 -75 -98 0
57 -74 -111 0
57 -75 -110 0
57 -86 -99 0
57 -87 -98 0
57 -86 -111 0
57 -87 -110 0
57 -98 -111 0
57 -99 -110 0
58 -74 -88 0
58 -76 -86 0
58 -74 -100 0
58 -76 -98 0
58 -74 -112 0
58 -76 -110 0
58 -86 -100 0
58 -88 -98 0
58 -86 -112 0
58 -88 -110 0
58 -98 -112 0
58 -100 -110 0
59 -74 -89 0
59 -77 -86 0
59 -74 -101 0
59 -77 -98 0
59 -74 -113 0
59 -77 -110 0
59 -86 -101 0
59 -89 -98 0
59 -86 -113 0
59 -89 -110 0
59 -98 -113 0
59 -101 -110 0
60 -74 -90 0
60 -78 -86 0
60 -74 -102 0
60 -78 -98 0
60 -74 -114 0
60 -78 -110 0
60 -86 -102 0
60 -90 -98 0
60 -86 -114 0
60 -90 -110 0
60 -98 -114 0
60 -102 -110 0
61 -75 -88 0
61 -76 -87 0
61 -75 -100 0
61 -76 -99 0
61 -75 -112 0
61 -76 -111 0
61 -87 -100 0
61 -88 -99 0
61 -87 -112 0
61 -88 -111 0
61 -99 -112 0
61 -100 -111 0
62 -75 -89 0
62 -77 -87 0
62 -75 -101 0
62 -77 -99 0
62 -75 -113 0
62 -77 -111 0
62 -87 -101 0
62 -89 -99 0
62 -87 -113 0
62 -89 -111 0
62 -99 -113 0
62 -101 -111 0
63 -75 -90 0
63 -78 -87 0
63 -75 -102 0
63 -78 -99 0
63 -75 -114 0
63 -78 -111 0
63 -87 -102 0
63 -90 -99 0
63 -87 -114 0
63 -90 -111 0
63 -99 -114 0
63 -102 -111 0
64 -76 -89 0
64 -77 -88 0
64 -76 -101 0
64 -77 -100 0
64 -76 -113 0
64 -77 -112 0
64 -88 -101 0
64 -89 -100 0
64 -88 -113 0
64 -89 -112 0
64 -100 -113 0
64 -101 -112 0
65 -76 -90 0
65 -78 -88 0
65 -76 -102 0
65 -78 -100 0
65 -76 -114 0
65 -78 -112 0
65 -88 -102 0
65 -90 -100 0
65 -88 -114 0
65 -90 -112 0
65 -100 -114 0
65 -102 -112 0
66 -77 -90 0
66 -78 -89 0
66 -77 -102 0
66 -78 -101 0
66 -77 -114 0
66 -78 -113 0
66 -89 -102 0
66 -90 -101 0
66 -89 -114 0
66 -90 -113 0
66 -101 -114 0
66 -102 -113 0
115 116 117 0
118 119 120 0
121 122 123 0
124 125 126 0
127 128 129 0
130 131 132 0
133 134 135 0
136 137 138 0
139 140 141 0
142 143 144 0
145 146 147 0
148 149 150 0
-115 -116 0
-115 -117 0
-116 -117 0
-118 -119 0
-118 -120 0
-119 -120 0
-121 -122 0
-121 -123 0
-122 -123 0
-124 -125 0
-124 -126 0
-125 -126 0
-127 -128 0
-127 -129 0
-128 -129 0
-130 -131 0
-130 -132 0
-131 -132 0
-133 -134 0
-133 -135 0
-134 -135 0
-136 -137 0
-136 -138 0
-137 -138 0
-139 -140 0
-139 -141 0
-140 -141 0
-142 -143 0
-142 -144 0
-143 -144 0
-145 -146 0
-145 -147 0
-146 -147 0
-148 -149 0
-148 -150 0
-149 -150 0
-1 -115 -118 0
-1 -116 -119 0
-1 -117 -120 0
-2 -115 -121 0
-2 -116 -122 0
-2 -117 -123 0
-3 -115 -124 0
-3 -116 -125 0
-3 -117 -126 0
-4 -115 -127 0
-4 -116 -128 0
-4 -117 -129 0
-5 -115 -130 0
-5 -116 -131 0
-5 -117 -132 0
-6 -115 -133 0
-6 -116 -134 0
-6 -117 -135 0
-7 -115 -136 0
-7 -116 -137 0
-7 -117 -138 0
-8 -115 -139 0
-8 -116 -140 0
-8 -117 -141 0
-9 -115 -142 0
-9 -116 -143 0
-9 -117 -144 0
-10 -115 -145 0
-10 -116 -146 0
-10 -117 -147 0
-11 -115 -148 0
-11 -116 -149 0
-11 -117 -150 0
-12 -118 -121 0
-12 -119 -122 0
-12 -120 -123 0
-13 -118 -124 0
-13 -119 -125 0
-13 -120 -126 0
-14 -118 -127 0
-14 -119 -128 0
-14 -120 -129 0
-15 -118 -130 0
-15 -119 -131 0
-15 -120 -132 0
-16 -118 -133 0
-16 -119 -134 0
-16 -120 -135 0
-17 -118 -136 0
-17 -119 -137 0
-17 -120 -138 0
-18 -118 -139 0
-18 -119 -140 0
-18 -120 -141 0
-19 -118 -142 0
-19 -119 -143 0
-19 -120 -144 0
-20 -118 -145 0
-20 -119 -146 0
-20 -120 -147 0
-21 -118 -148 0
-21 -119 -149 0
-21 -120 -150 0
-22 -121 -124 0
-22 -122 -125 0
-22 -123 -126 0
-23 -121 -127 0
-23 -122 -128 0
-23 -123 -129 0
-24 -121 -130 0
-24 -122 -131 0
-24 -123 -132 0
-25 -121 -133 0
-25 -122 -134 0
-25 -123 -135 0
-26 -121 -136 0
-26 -122 -137 0
-26 -123 -138 0
-27 -121 -139 0
-27 -122 -140 0
-27 -123 -141 0
-28 -121 -142 0
-28 -122 -143 0
-28 -123 -144 0
-29 -121 -145 0
-29 -122 -146 0
-29 -123 -147 0
-30 -121 -148 0
-30 -122 -149 0
-30 -123 -150 0
-31 -124 -127 0
-31 -125 -128 0
-31 -126 -129 0
-32 -124 -130 0
-32 -125 -131 0
-32 -126 -132 0
-33 -124 -133 0
-33 -125 -134 0
-33 -126 -135 0
-34 -124 -136 0
-34 -125 -137 0
-34 -126 -138 0
-35 -124 -139 0
-35 -125 -140 0
-35 -126 -141 0
-36 -124 -142 0
-36 -125 -143 0
-36 -126 -144 0
-37 -124 -145 0
-37 -125 -146 0
-37 -126 -147 0
-38 -124 -148 0
-38 -125 -149 0
-38 -126 -150 0
-39 -127 -130 0
-39 -128 -131 0
-39 -129 -132 0
-40 -127 -133 0
-40 -128 -134 0
-40 -129 -135 0
-41 -127 -136 0
-41 -128 -137 0
-41 -129 -138 0
-42 -127 -139 0
-42 -128 -140 0
-42 -129 -141 0
-43 -127 -142 0
-43 -128 -143 0
-43 -129 -144 0
-44 -127 -145 0
-44 -128 -146 0
-44 -129 -147 0
-45 -127 -148 0
-45 -128 -149 0
-45 -129 -150 0
-46 -130 -133 0
-46 -131 -134 0
-46 -132 -135 0
-47 -130 -136 0
-47 -131 -137 0
-47 -132 -138 0
-48 -130 -139 0
-48 -131 -140 0
-48 -132 -141 0
-49 -130 -142 0
-49 -131 -143 0
-49 -132 -144 0
-50 -130 -145 0
-50 -131 -146 0
-50 -132 -147 0
-51 -130 -148 0
-51 -131 -149 0
-51 -132 -150 0
-52 -133 -136 0
-52 -134 -137 0
-52 -135 -138 0
-53 -133 -139 0
-53 -134 -140 0
-53 -135 -141 0
-54 -133 -142 0
-54 -134 -143 0
-54 -135 -144 0
-55 -133 -145 0
-55 -134 -146 0
-55 -135 -147 0
-56 -133 -148 0
-56 -134 -149 0
-56 -135 -150 0
-57 -136 -139 0
-57 -137 -140 0
-57 -138 -141 0
-58 -136 -142 0
-58 -137 -143 0
-58 -138 -144 0
-59 -136 -145 0
-59 -137 -146 0
-59 -138 -147 0
-60 -136 -148 0
-60 -137 -149 0
-60 -138 -150 0
-61 -139 -142 0
-61 -140 -143 0
-61 -141 -144 0
-62 -139 -145 0
-62 -140 -146 0
-62 -141 -147 0
-63 -139 -148 0
-63 -140 -149 0
-63 -141 -150 0
-64 -142 -145 0
-64 -143 -146 0
-64 -144 -147 0
-65 -142 -148 0
-65 -143 -149 0
-65 -144 -150 0
-66 -145 -148 0
-66 -146 -149 0
-66 -147 -150 0
