c F5 clique-colouring cnfgen CliqueColoring(25,5,4)
p cnf 525 9130
301 302 303 304 305 306 307 308 309 310 311 312 313 314 315 316 317 318 319 320 321 322 323 324 325 0
326 327 328 329 330 331 332 333 334 335 336 337 338 339 340 341 342 343 344 345 346 347 348 349 350 0
351 352 353 354 355 356 357 358 359 360 361 362 363 364 365 366 367 368 369 370 371 372 373 374 375 0
376 377 378 379 380 381 382 383 384 385 386 387 388 389 390 391 392 393 394 395 396 397 398 399 400 0
401 402 403 404 405 406 407 408 409 410 411 412 413 414 415 416 417 418 419 420 421 422 423 424 425 0
-301 -302 0
-301 -303 0
-301 -304 0
-301 -305 0
-301 -306 0
-301 -307 0
-301 -308 0
-301 -309 0
-301 -310 0
-301 -311 0
-301 -312 0
-301 -313 0
-301 -314 0
-301 -315 0
-301 -316 0
-301 -317 0
-301 -318 0
-301 -319 0
-301 -320 0
-301 -321 0
-301 -322 0
-301 -323 0
-301 -324 0
-301 -325 0
-302 -303 0
-302 -304 0
-302 -305 0
-302 -306 0
-302 -307 0
-302 -308 0
-302 -309 0
-302 -310 0
-302 -311 0
-302 -312 0
-302 -313 0
-302 -314 0
-302 -315 0
-302 -316 0
-302 -317 0
-302 -318 0
-302 -319 0
-302 -320 0
-302 -321 0
-302 -322 0
-302 -323 0
-302 -324 0
-302 -325 0
-303 -304 0
-303 -305 0
-303 -306 0
-303 -307 0
-303 -308 0
-303 -309 0
-303 -310 0
-303 -311 0
-303 -312 0
-303 -313 0
-303 -314 0
-303 -315 0
-303 -316 0
-303 -317 0
-303 -318 0
-303 -319 0
-303 -320 0
-303 -321 0
-303 -322 0
-303 -323 0
-303 -324 0
-303 -325 0
-304 -305 0
-304 -306 0
-304 -307 0
-304 -308 0
-304 -309 0
-304 -310 0
-304 -311 0
-304 -312 0
-304 -313 0
-304 -314 0
-304 -315 0
-304 -316 0
-304 -317 0
-304 -318 0
-304 -319 0
-304 -320 0
-304 -321 0
-304 -322 0
-304 -323 0
-304 -324 0
-304 -325 0
-305 -306 0
-305 -307 0
-305 -308 0
-305 -309 0
-305 -310 0
-305 -311 0
-305 -312 0
-305 -313 0
-305 -314 0
-305 -315 0
-305 -316 0
-305 -317 0
-305 -318 0
-305 -319 0
-305 -320 0
-305 -321 0
-305 -322 0
-305 -323 0
-305 -324 0
-305 -325 0
-306 -307 0
-306 -308 0
-306 -309 0
-306 -310 0
-306 -311 0
-306 -312 0
-306 -313 0
-306 -314 0
-306 -315 0
-306 -316 0
-306 -317 0
-306 -318 0
-306 -319 0
-306 -320 0
-306 -321 0
-306 -322 0
-306 -323 0
-306 -324 0
-306 -325 0
-307 -308 0
-307 -309 0
-307 -310 0
-307 -311 0
-307 -312 0
-307 -313 0
-307 -314 0
-307 -315 0
-307 -316 0
-307 -317 0
-307 -318 0
-307 -319 0
-307 -320 0
-307 -321 0
-307 -322 0
-307 -323 0
-307 -324 0
-307 -325 0
-308 -309 0
-308 -310 0
-308 -311 0
-308 -312 0
-308 -313 0
-308 -314 0
-308 -315 0
-308 -316 0
-308 -317 0
-308 -318 0
-308 -319 0
-308 -320 0
-308 -321 0
-308 -322 0
-308 -323 0
-308 -324 0
-308 -325 0
-309 -310 0
-309 -311 0
-309 -312 0
-309 -313 0
-309 -314 0
-309 -315 0
-309 -316 0
-309 -317 0
-309 -318 0
-309 -319 0
-309 -320 0
-309 -321 0
-309 -322 0
-309 -323 0
-309 -324 0
-309 -325 0
-310 -311 0
-310 -312 0
-310 -313 0
-310 -314 0
-310 -315 0
-310 -316 0
-310 -317 0
-310 -318 0
-310 -319 0
-310 -320 0
-310 -321 0
-310 -322 0
-310 -323 0
-310 -324 0
-310 -325 0
-311 -312 0
-311 -313 0
-311 -314 0
-311 -315 0
-311 -316 0
-311 -317 0
-311 -318 0
-311 -319 0
-311 -320 0
-311 -321 0
-311 -322 0
-311 -323 0
-311 -324 0
-311 -325 0
-312 -313 0
-312 -314 0
-312 -315 0
-312 -316 0
-312 -317 0
-312 -318 0
-312 -319 0
-312 -320 0
-312 -321 0
-312 -322 0
-312 -323 0
-312 -324 0
-312 -325 0
-313 -314 0
-313 -315 0
-313 -316 0
-313 -317 0
-313 -318 0
-313 -319 0
-313 -320 0
-313 -321 0
-313 -322 0
-313 -323 0
-313 -324 0
-313 -325 0
-314 -315 0
-314 -316 0
-314 -317 0
-314 -318 0
-314 -319 0
-314 -320 0
-314 -321 0
-314 -322 0
-314 -323 0
-314 -324 0
-314 -325 0
-315 -316 0
-315 -317 0
-315 -318 0
-315 -319 0
-315 -320 0
-315 -321 0
-315 -322 0
-315 -323 0
-315 -324 0
-315 -325 0
-316 -317 0
-316 -318 0
-316 -319 0
-316 -320 0
-316 -321 0
-316 -322 0
-316 -323 0
-316 -324 0
-316 -325 0
-317 -318 0
-317 -319 0
-317 -320 0
-317 -321 0
-317 -322 0
-317 -323 0
-317 -324 0
-317 -325 0
-318 -319 0
-318 -320 0
-318 -321 0
-318 -322 0
-318 -323 0
-318 -324 0
-318 -325 0
-319 -320 0
-319 -321 0
-319 -322 0
-319 -323 0
-319 -324 0
-319 -325 0
-320 -321 0
-320 -322 0
-320 -323 0
-320 -324 0
-320 -325 0
-321 -322 0
-321 -323 0
-321 -324 0
-321 -325 0
-322 -323 0
-322 -324 0
-322 -325 0
-323 -324 0
-323 -325 0
-324 -325 0
-326 -327 0
-326 -328 0
-326 -329 0
-326 -330 0
-326 -331 0
-326 -332 0
-326 -333 0
-326 -334 0
-326 -335 0
-326 -336 0
-326 -337 0
-326 -338 0
-326 -339 0
-326 -340 0
-326 -341 0
-326 -342 0
-326 -343 0
-326 -344 0
-326 -345 0
-326 -346 0
-326 -347 0
-326 -348 0
-326 -349 0
-326 -350 0
-327 -328 0
-327 -329 0
-327 -330 0
-327 -331 0
-327 -332 0
-327 -333 0
-327 -334 0
-327 -335 0
-327 -336 0
-327 -337 0
-327 -338 0
-327 -339 0
-327 -340 0
-327 -341 0
-327 -342 0
-327 -343 0
-327 -344 0
-327 -345 0
-327 -346 0
-327 -347 0
-327 -348 0
-327 -349 0
-327 -350 0
-328 -329 0
-328 -330 0
-328 -331 0
-328 -332 0
-328 -333 0
-328 -334 0
-328 -335 0
-328 -336 0
-328 -337 0
-328 -338 0
-328 -339 0
-328 -340 0
-328 -341 0
-328 -342 0
-328 -343 0
-328 -344 0
-328 -345 0
-328 -346 0
-328 -347 0
-328 -348 0
-328 -349 0
-328 -350 0
-329 -330 0
-329 -331 0
-329 -332 0
-329 -333 0
-329 -334 0
-329 -335 0
-329 -336 0
-329 -337 0
-329 -338 0
-329 -339 0
-329 -340 0
-329 -341 0
-329 -342 0
-329 -343 0
-329 -344 0
-329 -345 0
-329 -346 0
-329 -347 0
-329 -348 0
-329 -349 0
-329 -350 0
-330 -331 0
-330 -332 0
-330 -333 0
-330 -334 0
-330 -335 0
-330 -336 0
-330 -337 0
-330 -338 0
-330 -339 0
-330 -340 0
-330 -341 0
-330 -342 0
-330 -343 0
-330 -344 0
-330 -345 0
-330 -346 0
-330 -347 0
-330 -348 0
-330 -349 0
-330 -350 0
-331 -332 0
-331 -333 0
-331 -334 0
-331 -335 0
-331 -336 0
-331 -337 0
-331 -338 0
-331 -339 0
-331 -340 0
-331 -341 0
-331 -342 0
-331 -343 0
-331 -344 0
-331 -345 0
-331 -346 0
-331 -347 0
-331 -348 0
-331 -349 0
-331 -350 0
-332 -333 0
-332 -334 0
-332 -335 0
-332 -336 0
-332 -337 0
-332 -338 0
-332 -339 0
-332 -340 0
-332 -341 0
-332 -342 0
-332 -343 0
-332 -344 0
-332 -345 0
-332 -346 0
-332 -347 0
-332 -348 0
-332 -349 0
-332 -350 0
-333 -334 0
-333 -335 0
-333 -336 0
-333 -337 0
-333 -338 0
-333 -339 0
-333 -340 0
-333 -341 0
-333 -342 0
-333 -343 0
-333 -344 0
-333 -345 0
-333 -346 0
-333 -347 0
-333 -348 0
-333 -349 0
-333 -350 0
-334 -335 0
-334 -336 0
-334 -337 0
-334 -338 0
-334 -339 0
-334 -340 0
-334 -341 0
-334 -342 0
-334 -343 0
-334 -344 0
-334 -345 0
-334 -346 0
-334 -347 0
-334 -348 0
-334 -349 0
-334 -350 0
-335 -336 0
-335 -337 0
-335 -338 0
-335 -339 0
-335 -340 0
-335 -341 0
-335 -342 0
-335 -343 0
-335 -344 0
-335 -345 0
-335 -346 0
-335 -347 0
-335 -348 0
-335 -349 0
-335 -350 0
-336 -337 0
-336 -338 0
-336 -339 0
-336 -340 0
-336 -341 0
-336 -342 0
-336 -343 0
-336 -344 0
-336 -345 0
-336 -346 0
-336 -347 0
-336 -348 0
-336 -349 0
-336 -350 0
-337 -338 0
-337 -339 0
-337 -340 0
-337 -341 0
-337 -342 0
-337 -343 0
-337 -344 0
-337 -345 0
-337 -346 0
-337 -347 0
-337 -348 0
-337 -349 0
-337 -350 0
-338 -339 0
-338 -340 0
-338 -341 0
-338 -342 0
-338 -343 0
-338 -344 0
-338 -345 0
-338 -346 0
-338 -347 0
-338 -348 0
-338 -349 0
-338 -350 0
-339 -340 0
-339 -341 0
-339 -342 0
-339 -343 0
-339 -344 0
-339 -345 0
-339 -346 0
-339 -347 0
-339 -348 0
-339 -349 0
-339 -350 0
-340 -341 0
-340 -342 0
-340 -343 0
-340 -344 0
-340 -345 0
-340 -346 0
-340 -347 0
-340 -348 0
-340 -349 0
-340 -350 0
-341 -342 0
-341 -343 0
-341 -344 0
-341 -345 0
-341 -346 0
-341 -347 0
-341 -348 0
-341 -349 0
-341 -350 0
-342 -343 0
-342 -344 0
-342 -345 0
-342 -346 0
-342 -347 0
-342 -348 0
-342 -349 0
-342 -350 0
-343 -344 0
-343 -345 0
-343 -346 0
-343 -347 0
-343 -348 0
-343 -349 0
-343 -350 0
-344 -345 0
-344 -346 0
-344 -347 0
-344 -348 0
-344 -349 0
-344 -350 0
-345 -346 0
-345 -347 0
-345 -348 0
-345 -349 0
-345 -350 0
-346 -347 0
-346 -348 0
-346 -349 0
-346 -350 0
-347 -348 0
-347 -349 0
-347 -350 0
-348 -349 0
-348 -350 0
-349 -350 0
-351 -352 0
-351 -353 0
-351 -354 0
-351 -355 0
-351 -356 0
-351 -357 0
-351 -358 0
-351 -359 0
-351 -360 0
-351 -361 0
-351 -362 0
-351 -363 0
-351 -364 0
-351 -365 0
-351 -366 0
-351 -367 0
-351 -368 0
-351 -369 0
-351 -370 0
-351 -371 0
-351 -372 0
-351 -373 0
-351 -374 0
-351 -375 0
-352 -353 0
-352 -354 0
-352 -355 0
-352 -356 0
-352 -357 0
-352 -358 0
-352 -359 0
-352 -360 0
-352 -361 0
-352 -362 0
-352 -363 0
-352 -364 0
-352 -365 0
-352 -366 0
-352 -367 0
-352 -368 0
-352 -369 0
-352 -370 0
-352 -371 0
-352 -372 0
-352 -373 0
-352 -374 0
-352 -375 0
-353 -354 0
-353 -355 0
-353 -356 0
-353 -357 0
-353 -358 0
-353 -359 0
-353 -360 0
-353 -361 0
-353 -362 0
-353 -363 0
-353 -364 0
-353 -365 0
-353 -366 0
-353 -367 0
-353 -368 0
-353 -369 0
-353 -370 0
-353 -371 0
-353 -372 0
-353 -373 0
-353 -374 0
-353 -375 0
-354 -355 0
-354 -356 0
-354 -357 0
-354 -358 0
-354 -359 0
-354 -360 0
-354 -361 0
-354 -362 0
-354 -363 0
-354 -364 0
-354 -365 0
-354 -366 0
-354 -367 0
-354 -368 0
-354 -369 0
-354 -370 0
-354 -371 0
-354 -372 0
-354 -373 0
-354 -374 0
-354 -375 0
-355 -356 0
-355 -357 0
-355 -358 0
-355 -359 0
-355 -360 0
-355 -361 0
-355 -362 0
-355 -363 0
-355 -364 0
-355 -365 0
-355 -366 0
-355 -367 0
-355 -368 0
-355 -369 0
-355 -370 0
-355 -371 0
-355 -372 0
-355 -373 0
-355 -374 0
-355 -375 0
-356 -357 0
-356 -358 0
-356 -359 0
-356 -360 0
-356 -361 0
-356 -362 0
-356 -363 0
-356 -364 0
-356 -365 0
-356 -366 0
-356 -367 0
-356 -368 0
-356 -369 0
-356 -370 0
-356 -371 0
-356 -372 0
-356 -373 0
-356 -374 0
-356 -375 0
-357 -358 0
-357 -359 0
-357 -360 0
-357 -361 0
-357 -362 0
-357 -363 0
-357 -364 0
-357 -365 0
-357 -366 0
-357 -367 0
-357 -368 0
-357 -369 0
-357 -370 0
-357 -371 0
-357 -372 0
-357 -373 0
-357 -374 0
-357 -375 0
-358 -359 0
-358 -360 0
-358 -361 0
-358 -362 0
-358 -363 0
-358 -364 0
-358 -365 0
-358 -366 0
-358 -367 0
-358 -368 0
-358 -369 0
-358 -370 0
-358 -371 0
-358 -372 0
-358 -373 0
-358 -374 0
-358 -375 0
-359 -360 0
-359 -361 0
-359 -362 0
-359 -363 0
-359 -364 0
-359 -365 0
-359 -366 0
-359 -367 0
-359 -368 0
-359 -369 0
-359 -370 0
-359 -371 0
-359 -372 0
-359 -373 0
-359 -374 0
-359 -375 0
-360 -361 0
-360 -362 0
-360 -363 0
-360 -364 0
-360 -365 0
-360 -366 0
-360 -367 0
-360 -368 0
-360 -369 0
-360 -370 0
-360 -371 0
-360 -372 0
-360 -373 0
-360 -374 0
-360 -375 0
-361 -362 0
-361 -363 0
-361 -364 0
-361 -365 0
-361 -366 0
-361 -367 0
-361 -368 0
-361 -369 0
-361 -370 0
-361 -371 0
-361 -372 0
-361 -373 0
-361 -374 0
-361 -375 0
-362 -363 0
-362 -364 0
-362 -365 0
-362 -366 0
-362 -367 0
-362 -368 0
-362 -369 0
-362 -370 0
-362 -371 0
-362 -372 0
-362 -373 0
-362 -374 0
-362 -375 0
-363 -364 0
-363 -365 0
-363 -366 0
-363 -367 0
-363 -368 0
-363 -369 0
-363 -370 0
-363 -371 0
-363 -372 0
-363 -373 0
-363 -374 0
-363 -375 0
-364 -365 0
-364 -366 0
-364 -367 0
-364 -368 0
-364 -369 0
-364 -370 0
-364 -371 0
-364 -372 0
-364 -373 0
-364 -374 0
-364 -375 0
-365 -366 0
-365 -367 0
-365 -368 0
-365 -369 0
-365 -370 0
-365 -371 0
-365 -372 0
-365 -373 0
-365 -374 0
-365 -375 0
-366 -367 0
-366 -368 0
-366 -369 0
-366 -370 0
-366 -371 0
-366 -372 0
-366 -373 0
-366 -374 0
-366 -375 0
-367 -368 0
-367 -369 0
-367 -370 0
-367 -371 0
-367 -372 0
-367 -373 0
-367 -374 0
-367 -375 0
-368 -369 0
-368 -370 0
-368 -371 0
-368 -372 0
-368 -373 0
-368 -374 0
-368 -375 0
-369 -370 0
-369 -371 0
-369 -372 0
-369 -373 0
-369 -374 0
-369 -375 0
-370 -371 0
-370 -372 0
-370 -373 0
-370 -374 0
-370 -375 0
-371 -372 0
-371 -373 0
-371 -374 0
-371 -375 0
-372 -373 0
-372 -374 0
-372 -375 0
-373 -374 0
-373 -375 0
-374 -375 0
-376 -377 0
-376 -378 0
-376 -379 0
-376 -380 0
-376 -381 0
-376 -382 0
-376 -383 0
-376 -384 0
-376 -385 0
-376 -386 0
-376 -387 0
-376 -388 0
-376 -389 0
-376 -390 0
-376 -391 0
-376 -392 0
-376 -393 0
-376 -394 0
-376 -395 0
-376 -396 0
-376 -397 0
-376 -398 0
-376 -399 0
-376 -400 0
-377 -378 0
-377 -379 0
-377 -380 0
-377 -381 0
-377 -382 0
-377 -383 0
-377 -384 0
-377 -385 0
-377 -386 0
-377 -387 0
-377 -388 0
-377 -389 0
-377 -390 0
-377 -391 0
-377 -392 0
-377 -393 0
-377 -394 0
-377 -395 0
-377 -396 0
-377 -397 0
-377 -398 0
-377 -399 0
-377 -400 0
-378 -379 0
-378 -380 0
-378 -381 0
-378 -382 0
-378 -383 0
-378 -384 0
-378 -385 0
-378 -386 0
-378 -387 0
-378 -388 0
-378 -389 0
-378 -390 0
-378 -391 0
-378 -392 0
-378 -393 0
-378 -394 0
-378 -395 0
-378 -396 0
-378 -397 0
-378 -398 0
-378 -399 0
-378 -400 0
-379 -380 0
-379 -381 0
-379 -382 0
-379 -383 0
-379 -384 0
-379 -385 0
-379 -386 0
-379 -387 0
-379 -388 0
-379 -389 0
-379 -390 0
-379 -391 0
-379 -392 0
-379 -393 0
-379 -394 0
-379 -395 0
-379 -396 0
-379 -397 0
-379 -398 0
-379 -399 0
-379 -400 0
-380 -381 0
-380 -382 0
-380 -383 0
-380 -384 0
-380 -385 0
-380 -386 0
-380 -387 0
-380 -388 0
-380 -389 0
-380 -390 0
-380 -391 0
-380 -392 0
-380 -393 0
-380 -394 0
-380 -395 0
-380 -396 0
-380 -397 0
-380 -398 0
-380 -399 0
-380 -400 0
-381 -382 0
-381 -383 0
-381 -384 0
-381 -385 0
-381 -386 0
-381 -387 0
-381 -388 0
-381 -389 0
-381 -390 0
-381 -391 0
-381 -392 0
-381 -393 0
-381 -394 0
-381 -395 0
-381 -396 0
-381 -397 0
-381 -398 0
-381 -399 0
-381 -400 0
-382 -383 0
-382 -384 0
-382 -385 0
-382 -386 0
-382 -387 0
-382 -388 0
-382 -389 0
-382 -390 0
-382 -391 0
-382 -392 0
-382 -393 0
-382 -394 0
-382 -395 0
-382 -396 0
-382 -397 0
-382 -398 0
-382 -399 0
-382 -400 0
-383 -384 0
-383 -385 0
-383 -386 0
-383 -387 0
-383 -388 0
-383 -389 0
-383 -390 0
-383 -391 0
-383 -392 0
-383 -393 0
-383 -394 0
-383 -395 0
-383 -396 0
-383 -397 0
-383 -398 0
-383 -399 0
-383 -400 0
-384 -385 0
-384 -386 0
-384 -387 0
-384 -388 0
-384 -389 0
-384 -390 0
-384 -391 0
-384 -392 0
-384 -393 0
-384 -394 0
-384 -395 0
-384 -396 0
-384 -397 0
-384 -398 0
-384 -399 0
-384 -400 0
-385 -386 0
-385 -387 0
-385 -388 0
-385 -389 0
-385 -390 0
-385 -391 0
-385 -392 0
-385 -393 0
-385 -394 0
-385 -395 0
-385 -396 0
-385 -397 0
-385 -398 0
-385 -399 0
-385 -400 0
-386 -387 0
-386 -388 0
-386 -389 0
-386 -390 0
-386 -391 0
-386 -392 0
-386 -393 0
-386 -394 0
-386 -395 0
-386 -396 0
-386 -397 0
-386 -398 0
-386 -399 0
-386 -400 0
-387 -388 0
-387 -389 0
-387 -390 0
-387 -391 0
-387 -392 0
-387 -393 0
-387 -394 0
-387 -395 0
-387 -396 0
-387 -397 0
-387 -398 0
-387 -399 0
-387 -400 0
-388 -389 0
-388 -390 0
-388 -391 0
-388 -392 0
-388 -393 0
-388 -394 0
-388 -395 0
-388 -396 0
-388 -397 0
-388 -398 0
-388 -399 0
-388 -400 0
-389 -390 0
-389 -391 0
-389 -392 0
-389 -393 0
-389 -394 0
-389 -395 0
-389 -396 0
-389 -397 0
-389 -398 0
-389 -399 0
-389 -400 0
-390 -391 0
-390 -392 0
-390 -393 0
-390 -394 0
-390 -395 0
-390 -396 0
-390 -397 0
-390 -398 0
-390 -399 0
-390 -400 0
-391 -392 0
-391 -393 0
-391 -394 0
-391 -395 0
-391 -396 0
-391 -397 0
-391 -398 0
-391 -399 0
-391 -400 0
-392 -393 0
-392 -394 0
-392 -395 0
-392 -396 0
-392 -397 0
-392 -398 0
-392 -399 0
-392 -400 0
-393 -394 0
-393 -395 0
-393 -396 0
-393 -397 0
-393 -398 0
-393 -399 0
-393 -400 0
-394 -395 0
-394 -396 0
-394 -397 0
-394 -398 0
-394 -399 0
-394 -400 0
-395 -396 0
-395 -397 0
-395 -398 0
-395 -399 0
-395 -400 0
-396 -397 0
-396 -398 0
-396 -399 0
-396 -400 0
-397 -398 0
-397 -399 0
-397 -400 0
-398 -399 0
-398 -400 0
-399 -400 0
-401 -402 0
-401 -403 0
-401 -404 0
-401 -405 0
-401 -406 0
-401 -407 0
-401 -408 0
-401 -409 0
-401 -410 0
-401 -411 0
-401 -412 0
-401 -413 0
-401 -414 0
-401 -415 0
-401 -416 0
-401 -417 0
-401 -418 0
-401 -419 0
-401 -420 0
-401 -421 0
-401 -422 0
-401 -423 0
-401 -424 0
-401 -425 0
-402 -403 0
-402 -404 0
-402 -405 0
-402 -406 0
-402 -407 0
-402 -408 0
-402 -409 0
-402 -410 0
-402 -411 0
-402 -412 0
-402 -413 0
-402 -414 0
-402 -415 0
-402 -416 0
-402 -417 0
-402 -418 0
-402 -419 0
-402 -420 0
-402 -421 0
-402 -422 0
-402 -423 0
-402 -424 0
-402 -425 0
-403 -404 0
-403 -405 0
-403 -406 0
-403 -407 0
-403 -408 0
-403 -409 0
-403 -410 0
-403 -411 0
-403 -412 0
-403 -413 0
-403 -414 0
-403 -415 0
-403 -416 0
-403 -417 0
-403 -418 0
-403 -419 0
-403 -420 0
-403 -421 0
-403 -422 0
-403 -423 0
-403 -424 0
-403 -425 0
-404 -405 0
-404 -406 0
-404 -407 0
-404 -408 0
-404 -409 0
-404 -410 0
-404 -411 0
-404 -412 0
-404 -413 0
-404 -414 0
-404 -415 0
-404 -416 0
-404 -417 0
-404 -418 0
-404 -419 0
-404 -420 0
-404 -421 0
-404 -422 0
-404 -423 0
-404 -424 0
-404 -425 0
-405 -406 0
-405 -407 0
-405 -408 0
-405 -409 0
-405 -410 0
-405 -411 0
-405 -412 0
-405 -413 0
-405 -414 0
-405 -415 0
-405 -416 0
-405 -417 0
-405 -418 0
-405 -419 0
-405 -420 0
-405 -421 0
-405 -422 0
-405 -423 0
-405 -424 0
-405 -425 0
-406 -407 0
-406 -408 0
-406 -409 0
-406 -410 0
-406 -411 0
-406 -412 0
-406 -413 0
-406 -414 0
-406 -415 0
-406 -416 0
-406 -417 0
-406 -418 0
-406 -419 0
-406 -420 0
-406 -421 0
-406 -422 0
-406 -423 0
-406 -424 0
-406 -425 0
-407 -408 0
-407 -409 0
-407 -410 0
-407 -411 0
-407 -412 0
-407 -413 0
-407 -414 0
-407 -415 0
-407 -416 0
-407 -417 0
-407 -418 0
-407 -419 0
-407 -420 0
-407 -421 0
-407 -422 0
-407 -423 0
-407 -424 0
-407 -425 0
-408 -409 0
-408 -410 0
-408 -411 0
-408 -412 0
-408 -413 0
-408 -414 0
-408 -415 0
-408 -416 0
-408 -417 0
-408 -418 0
-408 -419 0
-408 -420 0
-408 -421 0
-408 -422 0
-408 -423 0
-408 -424 0
-408 -425 0
-409 -410 0
-409 -411 0
-409 -412 0
-409 -413 0
-409 -414 0
-409 -415 0
-409 -416 0
-409 -417 0
-409 -418 0
-409 -419 0
-409 -420 0
-409 -421 0
-409 -422 0
-409 -423 0
-409 -424 0
-409 -425 0
-410 -411 0
-410 -412 0
-410 -413 0
-410 -414 0
-410 -415 0
-410 -416 0
-410 -417 0
-410 -418 0
-410 -419 0
-410 -420 0
-410 -421 0
-410 -422 0
-410 -423 0
-410 -424 0
-410 -425 0
-411 -412 0
-411 -413 0
-411 -414 0
-411 -415 0
-411 -416 0
-411 -417 0
-411 -418 0
-411 -419 0
-411 -420 0
-411 -421 0
-411 -422 0
-411 -423 0
-411 -424 0
-411 -425 0
-412 -413 0
-412 -414 0
-412 -415 0
-412 -416 0
-412 -417 0
-412 -418 0
-412 -419 0
-412 -420 0
-412 -421 0
-412 -422 0
-412 -423 0
-412 -424 0
-412 -425 0
-413 -414 0
-413 -415 0
-413 -416 0
-413 -417 0
-413 -418 0
-413 -419 0
-413 -420 0
-413 -421 0
-413 -422 0
-413 -423 0
-413 -424 0
-413 -425 0
-414 -415 0
-414 -416 0
-414 -417 0
-414 -418 0
-414 -419 0
-414 -420 0
-414 -421 0
-414 -422 0
-414 -423 0
-414 -424 0
-414 -425 0
-415 -416 0
-415 -417 0
-415 -418 0
-415 -419 0
-415 -420 0
-415 -421 0
-415 -422 0
-415 -423 0
-415 -424 0
-415 -425 0
-416 -417 0
-416 -418 0
-416 -419 0
-416 -420 0
-416 -421 0
-416 -422 0
-416 -423 0
-416 -424 0
-416 -425 0
-417 -418 0
-417 -419 0
-417 -420 0
-417 -421 0
-417 -422 0
-417 -423 0
-417 -424 0
-417 -425 0
-418 -419 0
-418 -420 0
-418 -421 0
-418 -422 0
-418 -423 0
-418 -424 0
-418 -425 0
-419 -420 0
-419 -421 0
-419 -422 0
-419 -423 0
-419 -424 0
-419 -425 0
-420 -421 0
-420 -422 0
-420 -423 0
-420 -424 0
-420 -425 0
-421 -422 0
-421 -423 0
-421 -424 0
-421 -425 0
-422 -423 0
-422 -424 0
-422 -425 0
-423 -424 0
-423 -425 0
-424 -425 0
-301 -326 0
-301 -351 0
-301 -376 0
-301 -401 0
-326 -351 0
-326 -376 0
-326 -401 0
-351 -376 0
-351 -401 0
-376 -401 0
-302 -327 0
-302 -352 0
-302 -377 0
-302 -402 0
-327 -352 0
-327 -377 0
-327 -402 0
-352 -377 0
-352 -402 0
-377 -402 0
-303 -328 0
-303 -353 0
-303 -378 0
-303 -403 0
-328 -353 0
-328 -378 0
-328 -403 0
-353 -378 0
-353 -403 0
-378 -403 0
-304 -329 0
-304 -354 0
-304 -379 0
-304 -404 0
-329 -354 0
-329 -379 0
-329 -404 0
-354 -379 0
-354 -404 0
-379 -404 0
-305 -330 0
-305 -355 0
-305 -380 0
-305 -405 0
-330 -355 0
-330 -380 0
-330 -405 0
-355 -380 0
-355 -405 0
-380 -405 0
-306 -331 0
-306 -356 0
-306 -381 0
-306 -406 0
-331 -356 0
-331 -381 0
-331 -406 0
-356 -381 0
-356 -406 0
-381 -406 0
-307 -332 0
-307 -357 0
-307 -382 0
-307 -407 0
-332 -357 0
-332 -382 0
-332 -407 0
-357 -382 0
-357 -407 0
-382 -407 0
-308 -333 0
-308 -358 0
-308 -383 0
-308 -408 0
-333 -358 0
-333 -383 0
-333 -408 0
-358 -383 0
-358 -408 0
-383 -408 0
-309 -334 0
-309 -359 0
-309 -384 0
-309 -409 0
-334 -359 0
-334 -384 0
-334 -409 0
-359 -384 0
-359 -409 0
-384 -409 0
-310 -335 0
-310 -360 0
-310 -385 0
-310 -410 0
-335 -360 0
-335 -385 0
-335 -410 0
-360 -385 0
-360 -410 0
-385 -410 0
-311 -336 0
-311 -361 0
-311 -386 0
-311 -411 0
-336 -361 0
-336 -386 0
-336 -411 0
-361 -386 0
-361 -411 0
-386 -411 0
-312 -337 0
-312 -362 0
-312 -387 0
-312 -412 0
-337 -362 0
-337 -387 0
-337 -412 0
-362 -387 0
-362 -412 0
-387 -412 0
-313 -338 0
-313 -363 0
-313 -388 0
-313 -413 0
-338 -363 0
-338 -388 0
-338 -413 0
-363 -388 0
-363 -413 0
-388 -413 0
-314 -339 0
-314 -364 0
-314 -389 0
-314 -414 0
-339 -364 0
-339 -389 0
-339 -414 0
-364 -389 0
-364 -414 0
-389 -414 0
-315 -340 0
-315 -365 0
-315 -390 0
-315 -415 0
-340 -365 0
-340 -390 0
-340 -415 0
-365 -390 0
-365 -415 0
-390 -415 0
-316 -341 0
-316 -366 0
-316 -391 0
-316 -416 0
-341 -366 0
-341 -391 0
-341 -416 0
-366 -391 0
-366 -416 0
-391 -416 0
-317 -342 0
-317 -367 0
-317 -392 0
-317 -417 0
-342 -367 0
-342 -392 0
-342 -417 0
-367 -392 0
-367 -417 0
-392 -417 0
-318 -343 0
-318 -368 0
-318 -393 0
-318 -418 0
-343 -368 0
-343 -393 0
-343 -418 0
-368 -393 0
-368 -418 0
-393 -418 0
-319 -344 0
-319 -369 0
-319 -394 0
-319 -419 0
-344 -369 0
-344 -394 0
-344 -419 0
-369 -394 0
-369 -419 0
-394 -419 0
-320 -345 0
-320 -370 0
-320 -395 0
-320 -420 0
-345 -370 0
-345 -395 0
-345 -420 0
-370 -395 0
-370 -420 0
-395 -420 0
-321 -346 0
-321 -371 0
-321 -396 0
-321 -421 0
-346 -371 0
-346 -396 0
-346 -421 0
-371 -396 0
-371 -421 0
-396 -421 0
-322 -347 0
-322 -372 0
-322 -397 0
-322 -422 0
-347 -372 0
-347 -397 0
-347 -422 0
-372 -397 0
-372 -422 0
-397 -422 0
-323 -348 0
-323 -373 0
-323 -398 0
-323 -423 0
-348 -373 0
-348 -398 0
-348 -423 0
-373 -398 0
-373 -423 0
-398 -423 0
-324 -349 0
-324 -374 0
-324 -399 0
-324 -424 0
-349 -374 0
-349 -399 0
-349 -424 0
-374 -399 0
-374 -424 0
-399 -424 0
-325 -350 0
-325 -375 0
-325 -400 0
-325 -425 0
-350 -375 0
-350 -400 0
-350 -425 0
-375 -400 0
-375 -425 0
-400 -425 0
1 -301 -327 0
1 -302 -326 0
1 -301 -352 0
1 -302 -351 0
1 -301 -377 0
1 -302 -376 0
1 -301 -402 0
1 -302 -401 0
1 -326 -352 0
1 -327 -351 0
1 -326 -377 0
1 -327 -376 0
1 -326 -402 0
1 -327 -401 0
1 -351 -377 0
1 -352 -376 0
1 -351 -402 0
1 -352 -401 0
1 -376 -402 0
1 -377 -401 0
2 -301 -328 0
2 -303 -326 0
2 -301 -353 0
2 -303 -351 0
2 -301 -378 0
2 -303 -376 0
2 -301 -403 0
2 -303 -401 0
2 -326 -353 0
2 -328 -351 0
2 -326 -378 0
2 -328 -376 0
2 -326 -403 0
2 -328 -401 0
2 -351 -378 0
2 -353 -376 0
2 -351 -403 0
2 -353 -401 0
2 -376 -403 0
2 -378 -401 0
3 -301 -329 0
3 -304 -326 0
3 -301 -354 0
3 -304 -351 0
3 -301 -379 0
3 -304 -376 0
3 -301 -404 0
3 -304 -401 0
3 -326 -354 0
3 -329 -351 0
3 -326 -379 0
3 -329 -376 0
3 -326 -404 0
3 -329 -401 0
3 -351 -379 0
3 -354 -376 0
3 -351 -404 0
3 -354 -401 0
3 -376 -404 0
3 -379 -401 0
4 -301 -330 0
4 -305 -326 0
4 -301 -355 0
4 -305 -351 0
4 -301 -380 0
4 -305 -376 0
4 -301 -405 0
4 -305 -401 0
4 -326 -355 0
4 -330 -351 0
4 -326 -380 0
4 -330 -376 0
4 -326 -405 0
4 -330 -401 0
4 -351 -380 0
4 -355 -376 0
4 -351 -405 0
4 -355 -401 0
4 -376 -405 0
4 -380 -401 0
5 -301 -331 0
5 -306 -326 0
5 -301 -356 0
5 -306 -351 0
5 -301 -381 0
5 -306 -376 0
5 -301 -406 0
5 -306 -401 0
5 -326 -356 0
5 -331 -351 0
5 -326 -381 0
5 -331 -376 0
5 -326 -406 0
5 -331 -401 0
5 -351 -381 0
5 -356 -376 0
5 -351 -406 0
5 -356 -401 0
5 -376 -406 0
5 -381 -401 0
6 -301 -332 0
6 -307 -326 0
6 -301 -357 0
6 -307 -351 0
6 -301 -382 0
6 -307 -376 0
6 -301 -407 0
6 -307 -401 0
6 -326 -357 0
6 -332 -351 0
6 -326 -382 0
6 -332 -376 0
6 -326 -407 0
6 -332 -401 0
6 -351 -382 0
6 -357 -376 0
6 -351 -407 0
6 -357 -401 0
6 -376 -407 0
6 -382 -401 0
7 -301 -333 0
7 -308 -326 0
7 -301 -358 0
7 -308 -351 0
7 -301 -383 0
7 -308 -376 0
7 -301 -408 0
7 -308 -401 0
7 -326 -358 0
7 -333 -351 0
7 -326 -383 0
7 -333 -376 0
7 -326 -408 0
7 -333 -401 0
7 -351 -383 0
7 -358 -376 0
7 -351 -408 0
7 -358 -401 0
7 -376 -408 0
7 -383 -401 0
8 -301 -334 0
8 -309 -326 0
8 -301 -359 0
8 -309 -351 0
8 -301 -384 0
8 -309 -376 0
8 -301 -409 0
8 -309 -401 0
8 -326 -359 0
8 -334 -351 0
8 -326 -384 0
8 -334 -376 0
8 -326 -409 0
8 -334 -401 0
8 -351 -384 0
8 -359 -376 0
8 -351 -409 0
8 -359 -401 0
8 -376 -409 0
8 -384 -401 0
9 -301 -335 0
9 -310 -326 0
9 -301 -360 0
9 -310 -351 0
9 -301 -385 0
9 -310 -376 0
9 -301 -410 0
9 -310 -401 0
9 -326 -360 0
9 -335 -351 0
9 -326 -385 0
9 -335 -376 0
9 -326 -410 0
9 -335 -401 0
9 -351 -385 0
9 -360 -376 0
9 -351 -410 0
9 -360 -401 0
9 -376 -410 0
9 -385 -401 0
10 -301 -336 0
10 -311 -326 0
10 -301 -361 0
10 -311 -351 0
10 -301 -386 0
10 -311 -376 0
10 -301 -411 0
10 -311 -401 0
10 -326 -361 0
10 -336 -351 0
10 -326 -386 0
10 -336 -376 0
10 -326 -411 0
10 -336 -401 0
10 -351 -386 0
10 -361 -376 0
10 -351 -411 0
10 -361 -401 0
10 -376 -411 0
10 -386 -401 0
11 -301 -337 0
11 -312 -326 0
11 -301 -362 0
11 -312 -351 0
11 -301 -387 0
11 -312 -376 0
11 -301 -412 0
11 -312 -401 0
11 -326 -362 0
11 -337 -351 0
11 -326 -387 0
11 -337 -376 0
11 -326 -412 0
11 -337 -401 0
11 -351 -387 0
11 -362 -376 0
11 -351 -412 0
11 -362 -401 0
11 -376 -412 0
11 -387 -401 0
12 -301 -338 0
12 -313 -326 0
12 -301 -363 0
12 -313 -351 0
12 -301 -388 0
12 -313 -376 0
12 -301 -413 0
12 -313 -401 0
12 -326 -363 0
12 -338 -351 0
12 -326 -388 0
12 -338 -376 0
12 -326 -413 0
12 -338 -401 0
12 -351 -388 0
12 -363 -376 0
12 -351 -413 0
12 -363 -401 0
12 -376 -413 0
12 -388 -401 0
13 -301 -339 0
13 -314 -326 0
13 -301 -364 0
13 -314 -351 0
13 -301 -389 0
13 -314 -376 0
13 -301 -414 0
13 -314 -401 0
13 -326 -364 0
13 -339 -351 0
13 -326 -389 0
13 -339 -376 0
13 -326 -414 0
13 -339 -401 0
13 -351 -389 0
13 -364 -376 0
13 -351 -414 0
13 -364 -401 0
13 -376 -414 0
13 -389 -401 0
14 -301 -340 0
14 -315 -326 0
14 -301 -365 0
14 -315 -351 0
14 -301 -390 0
14 -315 -376 0
14 -301 -415 0
14 -315 -401 0
14 -326 -365 0
14 -340 -351 0
14 -326 -390 0
14 -340 -376 0
14 -326 -415 0
14 -340 -401 0
14 -351 -390 0
14 -365 -376 0
14 -351 -415 0
14 -365 -401 0
14 -376 -415 0
14 -390 -401 0
15 -301 -341 0
15 -316 -326 0
15 -301 -366 0
15 -316 -351 0
15 -301 -391 0
15 -316 -376 0
15 -301 -416 0
15 -316 -401 0
15 -326 -366 0
15 -341 -351 0
15 -326 -391 0
15 -341 -376 0
15 -326 -416 0
15 -341 -401 0
15 -351 -391 0
15 -366 -376 0
15 -351 -416 0
15 -366 -401 0
15 -376 -416 0
15 -391 -401 0
16 -301 -342 0
16 -317 -326 0
16 -301 -367 0
16 -317 -351 0
16 -301 -392 0
16 -317 -376 0
16 -301 -417 0
16 -317 -401 0
16 -326 -367 0
16 -342 -351 0
16 -326 -392 0
16 -342 -376 0
16 -326 -417 0
16 -342 -401 0
16 -351 -392 0
16 -367 -376 0
16 -351 -417 0
16 -367 -401 0
16 -376 -417 0
16 -392 -401 0
17 -301 -343 0
17 -318 -326 0
17 -301 -368 0
17 -318 -351 0
17 -301 -393 0
17 -318 -376 0
17 -301 -418 0
17 -318 -401 0
17 -326 -368 0
17 -343 -351 0
17 -326 -393 0
17 -343 -376 0
17 -326 -418 0
17 -343 -401 0
17 -351 -393 0
17 -368 -376 0
17 -351 -418 0
17 -368 -401 0
17 -376 -418 0
17 -393 -401 0
18 -301 -344 0
18 -319 -326 0
18 -301 -369 0
18 -319 -351 0
18 -301 -394 0
18 -319 -376 0
18 -301 -419 0
18 -319 -401 0
18 -326 -369 0
18 -344 -351 0
18 -326 -394 0
18 -344 -376 0
18 -326 -419 0
18 -344 -401 0
18 -351 -394 0
18 -369 -376 0
18 -351 -419 0
18 -369 -401 0
18 -376 -419 0
18 -394 -401 0
19 -301 -345 0
19 -320 -326 0
19 -301 -370 0
19 -320 -351 0
19 -301 -395 0
19 -320 -376 0
19 -301 -420 0
19 -320 -401 0
19 -326 -370 0
19 -345 -351 0
19 -326 -395 0
19 -345 -376 0
19 -326 -420 0
19 -345 -401 0
19 -351 -395 0
19 -370 -376 0
19 -351 -420 0
19 -370 -401 0
19 -376 -420 0
19 -395 -401 0
20 -301 -346 0
20 -321 -326 0
20 -301 -371 0
20 -321 -351 0
20 -301 -396 0
20 -321 -376 0
20 -301 -421 0
20 -321 -401 0
20 -326 -371 0
20 -346 -351 0
20 -326 -396 0
20 -346 -376 0
20 -326 -421 0
20 -346 -401 0
20 -351 -396 0
20 -371 -376 0
20 -351 -421 0
20 -371 -401 0
20 -376 -421 0
20 -396 -401 0
21 -301 -347 0
21 -322 -326 0
21 -301 -372 0
21 -322 -351 0
21 -301 -397 0
21 -322 -376 0
21 -301 -422 0
21 -322 -401 0
21 -326 -372 0
21 -347 -351 0
21 -326 -397 0
21 -347 -376 0
21 -326 -422 0
21 -347 -401 0
21 -351 -397 0
21 -372 -376 0
21 -351 -422 0
21 -372 -401 0
21 -376 -422 0
21 -397 -401 0
22 -301 -348 0
22 -323 -326 0
22 -301 -373 0
22 -323 -351 0
22 -301 -398 0
22 -323 -376 0
22 -301 -423 0
22 -323 -401 0
22 -326 -373 0
22 -348 -351 0
22 -326 -398 0
22 -348 -376 0
22 -326 -423 0
22 -348 -401 0
22 -351 -398 0
22 -373 -376 0
22 -351 -423 0
22 -373 -401 0
22 -376 -423 0
22 -398 -401 0
23 -301 -349 0
23 -324 -326 0
23 -301 -374 0
23 -324 -351 0
23 -301 -399 0
23 -324 -376 0
23 -301 -424 0
23 -324 -401 0
23 -326 -374 0
23 -349 -351 0
23 -326 -399 0
23 -349 -376 0
23 -326 -424 0
23 -349 -401 0
23 -351 -399 0
23 -374 -376 0
23 -351 -424 0
23 -374 -401 0
23 -376 -424 0
23 -399 -401 0
24 -301 -350 0
24 -325 -326 0
24 -301 -375 0
24 -325 -351 0
24 -301 -400 0
24 -325 -376 0
24 -301 -425 0
24 -325 -401 0
24 -326 -375 0
24 -350 -351 0
24 -326 -400 0
24 -350 -376 0
24 -326 -425 0
24 -350 -401 0
24 -351 -400 0
24 -375 -376 0
24 -351 -425 0
24 -375 -401 0
24 -376 -425 0
24 -400 -401 0
25 -302 -328 0
25 -303 -327 0
25 -302 -353 0
25 -303 -352 0
25 -302 -378 0
25 -303 -377 0
25 -302 -403 0
25 -303 -402 0
25 -327 -353 0
25 -328 -352 0
25 -327 -378 0
25 -328 -377 0
25 -327 -403 0
25 -328 -402 0
25 -352 -378 0
25 -353 -377 0
25 -352 -403 0
25 -353 -402 0
25 -377 -403 0
25 -378 -402 0
26 -302 -329 0
26 -304 -327 0
26 -302 -354 0
26 -304 -352 0
26 -302 -379 0
26 -304 -377 0
26 -302 -404 0
26 -304 -402 0
26 -327 -354 0
26 -329 -352 0
26 -327 -379 0
26 -329 -377 0
26 -327 -404 0
26 -329 -402 0
26 -352 -379 0
26 -354 -377 0
26 -352 -404 0
26 -354 -402 0
26 -377 -404 0
26 -379 -402 0
27 -302 -330 0
27 -305 -327 0
27 -302 -355 0
27 -305 -352 0
27 -302 -380 0
27 -305 -377 0
27 -302 -405 0
27 -305 -402 0
27 -327 -355 0
27 -330 -352 0
27 -327 -380 0
27 -330 -377 0
27 -327 -405 0
27 -330 -402 0
27 -352 -380 0
27 -355 -377 0
27 -352 -405 0
27 -355 -402 0
27 -377 -405 0
27 -380 -402 0
28 -302 -331 0
28 -306 -327 0
28 -302 -356 0
28 -306 -352 0
28 -302 -381 0
28 -306 -377 0
28 -302 -406 0
28 -306 -402 0
28 -327 -356 0
28 -331 -352 0
28 -327 -381 0
28 -331 -377 0
28 -327 -406 0
28 -331 -402 0
28 -352 -381 0
28 -356 -377 0
28 -352 -406 0
28 -356 -402 0
28 -377 -406 0
28 -381 -402 0
29 -302 -332 0
29 -307 -327 0
29 -302 -357 0
29 -307 -352 0
29 -302 -382 0
29 -307 -377 0
29 -302 -407 0
29 -307 -402 0
29 -327 -357 0
29 -332 -352 0
29 -327 -382 0
29 -332 -377 0
29 -327 -407 0
29 -332 -402 0
29 -352 -382 0
29 -357 -377 0
29 -352 -407 0
29 -357 -402 0
29 -377 -407 0
29 -382 -402 0
30 -302 -333 0
30 -308 -327 0
30 -302 -358 0
30 -308 -352 0
30 -302 -383 0
30 -308 -377 0
30 -302 -408 0
30 -308 -402 0
30 -327 -358 0
30 -333 -352 0
30 -327 -383 0
30 -333 -377 0
30 -327 -408 0
30 -333 -402 0
30 -352 -383 0
30 -358 -377 0
30 -352 -408 0
30 -358 -402 0
30 -377 -408 0
30 -383 -402 0
31 -302 -334 0
31 -309 -327 0
31 -302 -359 0
31 -309 -352 0
31 -302 -384 0
31 -309 -377 0
31 -302 -409 0
31 -309 -402 0
31 -327 -359 0
31 -334 -352 0
31 -327 -384 0
31 -334 -377 0
31 -327 -409 0
31 -334 -402 0
31 -352 -384 0
31 -359 -377 0
31 -352 -409 0
31 -359 -402 0
31 -377 -409 0
31 -384 -402 0
32 -302 -335 0
32 -310 -327 0
32 -302 -360 0
32 -310 -352 0
32 -302 -385 0
32 -310 -377 0
32 -302 -410 0
32 -310 -402 0
32 -327 -360 0
32 -335 -352 0
32 -327 -385 0
32 -335 -377 0
32 -327 -410 0
32 -335 -402 0
32 -352 -385 0
32 -360 -377 0
32 -352 -410 0
32 -360 -402 0
32 -377 -410 0
32 -385 -402 0
33 -302 -336 0
33 -311 -327 0
33 -302 -361 0
33 -311 -352 0
33 -302 -386 0
33 -311 -377 0
33 -302 -411 0
33 -311 -402 0
33 -327 -361 0
33 -336 -352 0
33 -327 -386 0
33 -336 -377 0
33 -327 -411 0
33 -336 -402 0
33 -352 -386 0
33 -361 -377 0
33 -352 -411 0
33 -361 -402 0
33 -377 -411 0
33 -386 -402 0
34 -302 -337 0
34 -312 -327 0
34 -302 -362 0
34 -312 -352 0
34 -302 -387 0
34 -312 -377 0
34 -302 -412 0
34 -312 -402 0
34 -327 -362 0
34 -337 -352 0
34 -327 -387 0
34 -337 -377 0
34 -327 -412 0
34 -337 -402 0
34 -352 -387 0
34 -362 -377 0
34 -352 -412 0
34 -362 -402 0
34 -377 -412 0
34 -387 -402 0
35 -302 -338 0
35 -313 -327 0
35 -302 -363 0
35 -313 -352 0
35 -302 -388 0
35 -313 -377 0
35 -302 -413 0
35 -313 -402 0
35 -327 -363 0
35 -338 -352 0
35 -327 -388 0
35 -338 -377 0
35 -327 -413 0
35 -338 -402 0
35 -352 -388 0
35 -363 -377 0
35 -352 -413 0
35 -363 -402 0
35 -377 -413 0
35 -388 -402 0
36 -302 -339 0
36 -314 -327 0
36 -302 -364 0
36 -314 -352 0
36 -302 -389 0
36 -314 -377 0
36 -302 -414 0
36 -314 -402 0
36 -327 -364 0
36 -339 -352 0
36 -327 -389 0
36 -339 -377 0
36 -327 -414 0
36 -339 -402 0
36 -352 -389 0
36 -364 -377 0
36 -352 -414 0
36 -364 -402 0
36 -377 -414 0
36 -389 -402 0
37 -302 -340 0
37 -315 -327 0
37 -302 -365 0
37 -315 -352 0
37 -302 -390 0
37 -315 -377 0
37 -302 -415 0
37 -315 -402 0
37 -327 -365 0
37 -340 -352 0
37 -327 -390 0
37 -340 -377 0
37 -327 -415 0
37 -340 -402 0
37 -352 -390 0
37 -365 -377 0
37 -352 -415 0
37 -365 -402 0
37 -377 -415 0
37 -390 -402 0
38 -302 -341 0
38 -316 -327 0
38 -302 -366 0
38 -316 -352 0
38 -302 -391 0
38 -316 -377 0
38 -302 -416 0
38 -316 -402 0
38 -327 -366 0
38 -341 -352 0
38 -327 -391 0
38 -341 -377 0
38 -327 -416 0
38 -341 -402 0
38 -352 -391 0
38 -366 -377 0
38 -352 -416 0
38 -366 -402 0
38 -377 -416 0
38 -391 -402 0
39 -302 -342 0
39 -317 -327 0
39 -302 -367 0
39 -317 -352 0
39 -302 -392 0
39 -317 -377 0
39 -302 -417 0
39 -317 -402 0
39 -327 -367 0
39 -342 -352 0
39 -327 -392 0
39 -342 -377 0
39 -327 -417 0
39 -342 -402 0
39 -352 -392 0
39 -367 -377 0
39 -352 -417 0
39 -367 -402 0
39 -377 -417 0
39 -392 -402 0
40 -302 -343 0
40 -318 -327 0
40 -302 -368 0
40 -318 -352 0
40 -302 -393 0
40 -318 -377 0
40 -302 -418 0
40 -318 -402 0
40 -327 -368 0
40 -343 -352 0
40 -327 -393 0
40 -343 -377 0
40 -327 -418 0
40 -343 -402 0
40 -352 -393 0
40 -368 -377 0
40 -352 -418 0
40 -368 -402 0
40 -377 -418 0
40 -393 -402 0
41 -302 -344 0
41 -319 -327 0
41 -302 -369 0
41 -319 -352 0
41 -302 -394 0
41 -319 -377 0
41 -302 -419 0
41 -319 -402 0
41 -327 -369 0
41 -344 -352 0
41 -327 -394 0
41 -344 -377 0
41 -327 -419 0
41 -344 -402 0
41 -352 -394 0
41 -369 -377 0
41 -352 -419 0
41 -369 -402 0
41 -377 -419 0
41 -394 -402 0
42 -302 -345 0
42 -320 -327 0
42 -302 -370 0
42 -320 -352 0
42 -302 -395 0
42 -320 -377 0
42 -302 -420 0
42 -320 -402 0
42 -327 -370 0
42 -345 -352 0
42 -327 -395 0
42 -345 -377 0
42 -327 -420 0
42 -345 -402 0
42 -352 -395 0
42 -370 -377 0
42 -352 -420 0
42 -370 -402 0
42 -377 -420 0
42 -395 -402 0
43 -302 -346 0
43 -321 -327 0
43 -302 -371 0
43 -321 -352 0
43 -302 -396 0
43 -321 -377 0
43 -302 -421 0
43 -321 -402 0
43 -327 -371 0
43 -346 -352 0
43 -327 -396 0
43 -346 -377 0
43 -327 -421 0
43 -346 -402 0
43 -352 -396 0
43 -371 -377 0
43 -352 -421 0
43 -371 -402 0
43 -377 -421 0
43 -396 -402 0
44 -302 -347 0
44 -322 -327 0
44 -302 -372 0
44 -322 -352 0
44 -302 -397 0
44 -322 -377 0
44 -302 -422 0
44 -322 -402 0
44 -327 -372 0
44 -347 -352 0
44 -327 -397 0
44 -347 -377 0
44 -327 -422 0
44 -347 -402 0
44 -352 -397 0
44 -372 -377 0
44 -352 -422 0
44 -372 -402 0
44 -377 -422 0
44 -397 -402 0
45 -302 -348 0
45 -323 -327 0
45 -302 -373 0
45 -323 -352 0
45 -302 -398 0
45 -323 -377 0
45 -302 -423 0
45 -323 -402 0
45 -327 -373 0
45 -348 -352 0
45 -327 -398 0
45 -348 -377 0
45 -327 -423 0
45 -348 -402 0
45 -352 -398 0
45 -373 -377 0
45 -352 -423 0
45 -373 -402 0
45 -377 -423 0
45 -398 -402 0
46 -302 -349 0
46 -324 -327 0
46 -302 -374 0
46 -324 -352 0
46 -302 -399 0
46 -324 -377 0
46 -302 -424 0
46 -324 -402 0
46 -327 -374 0
46 -349 -352 0
46 -327 -399 0
46 -349 -377 0
46 -327 -424 0
46 -349 -402 0
46 -352 -399 0
46 -374 -377 0
46 -352 -424 0
46 -374 -402 0
46 -377 -424 0
46 -399 -402 0
47 -302 -350 0
47 -325 -327 0
47 -302 -375 0
47 -325 -352 0
47 -302 -400 0
47 -325 -377 0
47 -302 -425 0
47 -325 -402 0
47 -327 -375 0
47 -350 -352 0
47 -327 -400 0
47 -350 -377 0
47 -327 -425 0
47 -350 -402 0
47 -352 -400 0
47 -375 -377 0
47 -352 -425 0
47 -375 -402 0
47 -377 -425 0
47 -400 -402 0
48 -303 -329 0
48 -304 -328 0
48 -303 -354 0
48 -304 -353 0
48 -303 -379 0
48 -304 -378 0
48 -303 -404 0
48 -304 -403 0
48 -328 -354 0
48 -329 -353 0
48 -328 -379 0
48 -329 -378 0
48 -328 -404 0
48 -329 -403 0
48 -353 -379 0
48 -354 -378 0
48 -353 -404 0
48 -354 -403 0
48 -378 -404 0
48 -379 -403 0
49 -303 -330 0
49 -305 -328 0
49 -303 -355 0
49 -305 -353 0
49 -303 -380 0
49 -305 -378 0
49 -303 -405 0
49 -305 -403 0
49 -328 -355 0
49 -330 -353 0
49 -328 -380 0
49 -330 -378 0
49 -328 -405 0
49 -330 -403 0
49 -353 -380 0
49 -355 -378 0
49 -353 -405 0
49 -355 -403 0
49 -378 -405 0
49 -380 -403 0
50 -303 -331 0
50 -306 -328 0
50 -303 -356 0
50 -306 -353 0
50 -303 -381 0
50 -306 -378 0
50 -303 -406 0
50 -306 -403 0
50 -328 -356 0
50 -331 -353 0
50 -328 -381 0
50 -331 -378 0
50 -328 -406 0
50 -331 -403 0
50 -353 -381 0
50 -356 -378 0
50 -353 -406 0
50 -356 -403 0
50 -378 -406 0
50 -381 -403 0
51 -303 -332 0
51 -307 -328 0
51 -303 -357 0
51 -307 -353 0
51 -303 -382 0
51 -307 -378 0
51 -303 -407 0
51 -307 -403 0
51 -328 -357 0
51 -332 -353 0
51 -328 -382 0
51 -332 -378 0
51 -328 -407 0
51 -332 -403 0
51 -353 -382 0
51 -357 -378 0
51 -353 -407 0
51 -357 -403 0
51 -378 -407 0
51 -382 -403 0
52 -303 -333 0
52 -308 -328 0
52 -303 -358 0
52 -308 -353 0
52 -303 -383 0
52 -308 -378 0
52 -303 -408 0
52 -308 -403 0
52 -328 -358 0
52 -333 -353 0
52 -328 -383 0
52 -333 -378 0
52 -328 -408 0
52 -333 -403 0
52 -353 -383 0
52 -358 -378 0
52 -353 -408 0
52 -358 -403 0
52 -378 -408 0
52 -383 -403 0
53 -303 -334 0
53 -309 -328 0
53 -303 -359 0
53 -309 -353 0
53 -303 -384 0
53 -309 -378 0
53 -303 -409 0
53 -309 -403 0
53 -328 -359 0
53 -334 -353 0
53 -328 -384 0
53 -334 -378 0
53 -328 -409 0
53 -334 -403 0
53 -353 -384 0
53 -359 -378 0
53 -353 -409 0
53 -359 -403 0
53 -378 -409 0
53 -384 -403 0
54 -303 -335 0
54 -310 -328 0
54 -303 -360 0
54 -310 -353 0
54 -303 -385 0
54 -310 -378 0
54 -303 -410 0
54 -310 -403 0
54 -328 -360 0
54 -335 -353 0
54 -328 -385 0
54 -335 -378 0
54 -328 -410 0
54 -335 -403 0
54 -353 -385 0
54 -360 -378 0
54 -353 -410 0
54 -360 -403 0
54 -378 -410 0
54 -385 -403 0
55 -303 -336 0
55 -311 -328 0
55 -303 -361 0
55 -311 -353 0
55 -303 -386 0
55 -311 -378 0
55 -303 -411 0
55 -311 -403 0
55 -328 -361 0
55 -336 -353 0
55 -328 -386 0
55 -336 -378 0
55 -328 -411 0
55 -336 -403 0
55 -353 -386 0
55 -361 -378 0
55 -353 -411 0
55 -361 -403 0
55 -378 -411 0
55 -386 -403 0
56 -303 -337 0
56 -312 -328 0
56 -303 -362 0
56 -312 -353 0
56 -303 -387 0
56 -312 -378 0
56 -303 -412 0
56 -312 -403 0
56 -328 -362 0
56 -337 -353 0
56 -328 -387 0
56 -337 -378 0
56 -328 -412 0
56 -337 -403 0
56 -353 -387 0
56 -362 -378 0
56 -353 -412 0
56 -362 -403 0
56 -378 -412 0
56 -387 -403 0
57 -303 -338 0
57 -313 -328 0
57 -303 -363 0
57 -313 -353 0
57 -303 -388 0
57 -313 -378 0
57 -303 -413 0
57 -313 -403 0
57 -328 -363 0
57 -338 -353 0
57 -328 -388 0
57 -338 -378 0
57 -328 -413 0
57 -338 -403 0
57 -353 -388 0
57 -363 -378 0
57 -353 -413 0
57 -363 -403 0
57 -378 -413 0
57 -388 -403 0
58 -303 -339 0
58 -314 -328 0
58 -303 -364 0
58 -314 -353 0
58 -303 -389 0
58 -314 -378 0
58 -303 -414 0
58 -314 -403 0
58 -328 -364 0
58 -339 -353 0
58 -328 -389 0
58 -339 -378 0
58 -328 -414 0
58 -339 -403 0
58 -353 -389 0
58 -364 -378 0
58 -353 -414 0
58 -364 -403 0
58 -378 -414 0
58 -389 -403 0
59 -303 -340 0
59 -315 -328 0
59 -303 -365 0
59 -315 -353 0
59 -303 -390 0
59 -315 -378 0
59 -303 -415 0
59 -315 -403 0
59 -328 -365 0
59 -340 -353 0
59 -328 -390 0
59 -340 -378 0
59 -328 -415 0
59 -340 -403 0
59 -353 -390 0
59 -365 -378 0
59 -353 -415 0
59 -365 -403 0
59 -378 -415 0
59 -390 -403 0
60 -303 -341 0
60 -316 -328 0
60 -303 -366 0
60 -316 -353 0
60 -303 -391 0
60 -316 -378 0
60 -303 -416 0
60 -316 -403 0
60 -328 -366 0
60 -341 -353 0
60 -328 -391 0
60 -341 -378 0
60 -328 -416 0
60 -341 -403 0
60 -353 -391 0
60 -366 -378 0
60 -353 -416 0
60 -366 -403 0
60 -378 -416 0
60 -391 -403 0
61 -303 -342 0
61 -317 -328 0
61 -303 -367 0
61 -317 -353 0
61 -303 -392 0
61 -317 -378 0
61 -303 -417 0
61 -317 -403 0
61 -328 -367 0
61 -342 -353 0
61 -328 -392 0
61 -342 -378 0
61 -328 -417 0
61 -342 -403 0
61 -353 -392 0
61 -367 -378 0
61 -353 -417 0
61 -367 -403 0
61 -378 -417 0
61 -392 -403 0
62 -303 -343 0
62 -318 -328 0
62 -303 -368 0
62 -318 -353 0
62 -303 -393 0
62 -318 -378 0
62 -303 -418 0
62 -318 -403 0
62 -328 -368 0
62 -343 -353 0
62 -328 -393 0
62 -343 -378 0
62 -328 -418 0
62 -343 -403 0
62 -353 -393 0
62 -368 -378 0
62 -353 -418 0
62 -368 -403 0
62 -378 -418 0
62 -393 -403 0
63 -303 -344 0
63 -319 -328 0
63 -303 -369 0
63 -319 -353 0
63 -303 -394 0
63 -319 -378 0
63 -303 -419 0
63 -319 -403 0
63 -328 -369 0
63 -344 -353 0
63 -328 -394 0
63 -344 -378 0
63 -328 -419 0
63 -344 -403 0
63 -353 -394 0
63 -369 -378 0
63 -353 -419 0
63 -369 -403 0
63 -378 -419 0
63 -394 -403 0
64 -303 -345 0
64 -320 -328 0
64 -303 -370 0
64 -320 -353 0
64 -303 -395 0
64 -320 -378 0
64 -303 -420 0
64 -320 -403 0
64 -328 -370 0
64 -345 -353 0
64 -328 -395 0
64 -345 -378 0
64 -328 -420 0
64 -345 -403 0
64 -353 -395 0
64 -370 -378 0
64 -353 -420 0
64 -370 -403 0
64 -378 -420 0
64 -395 -403 0
65 -303 -346 0
65 -321 -328 0
65 -303 -371 0
65 -321 -353 0
65 -303 -396 0
65 -321 -378 0
65 -303 -421 0
65 -321 -403 0
65 -328 -371 0
65 -346 -353 0
65 -328 -396 0
65 -346 -378 0
65 -328 -421 0
65 -346 -403 0
65 -353 -396 0
65 -371 -378 0
65 -353 -421 0
65 -371 -403 0
65 -378 -421 0
65 -396 -403 0
66 -303 -347 0
66 -322 -328 0
66 -303 -372 0
66 -322 -353 0
66 -303 -397 0
66 -322 -378 0
66 -303 -422 0
66 -322 -403 0
66 -328 -372 0
66 -347 -353 0
66 -328 -397 0
66 -347 -378 0
66 -328 -422 0
66 -347 -403 0
66 -353 -397 0
66 -372 -378 0
66 -353 -422 0
66 -372 -403 0
66 -378 -422 0
66 -397 -403 0
67 -303 -348 0
67 -323 -328 0
67 -303 -373 0
67 -323 -353 0
67 -303 -398 0
67 -323 -378 0
67 -303 -423 0
67 -323 -403 0
67 -328 -373 0
67 -348 -353 0
67 -328 -398 0
67 -348 -378 0
67 -328 -423 0
67 -348 -403 0
67 -353 -398 0
67 -373 -378 0
67 -353 -423 0
67 -373 -403 0
67 -378 -423 0
67 -398 -403 0
68 -303 -349 0
68 -324 -328 0
68 -303 -374 0
68 -324 -353 0
68 -303 -399 0
68 -324 -378 0
68 -303 -424 0
68 -324 -403 0
68 -328 -374 0
68 -349 -353 0
68 -328 -399 0
68 -349 -378 0
68 -328 -424 0
68 -349 -403 0
68 -353 -399 0
68 -374 -378 0
68 -353 -424 0
68 -374 -403 0
68 -378 -424 0
68 -399 -403 0
69 -303 -350 0
69 -325 -328 0
69 -303 -375 0
69 -325 -353 0
69 -303 -400 0
69 -325 -378 0
69 -303 -425 0
69 -325 -403 0
69 -328 -375 0
69 -350 -353 0
69 -328 -400 0
69 -350 -378 0
69 -328 -425 0
69 -350 -403 0
69 -353 -400 0
69 -375 -378 0
69 -353 -425 0
69 -375 -403 0
69 -378 -425 0
69 -400 -403 0
70 -304 -330 0
70 -305 -329 0
70 -304 -355 0
70 -305 -354 0
70 -304 -380 0
70 -305 -379 0
70 -304 -405 0
70 -305 -404 0
70 -329 -355 0
70 -330 -354 0
70 -329 -380 0
70 -330 -379 0
70 -329 -405 0
70 -330 -404 0
70 -354 -380 0
70 -355 -379 0
70 -354 -405 0
70 -355 -404 0
70 -379 -405 0
70 -380 -404 0
71 -304 -331 0
71 -306 -329 0
71 -304 -356 0
71 -306 -354 0
71 -304 -381 0
71 -306 -379 0
71 -304 -406 0
71 -306 -404 0
71 -329 -356 0
71 -331 -354 0
71 -329 -381 0
71 -331 -379 0
71 -329 -406 0
71 -331 -404 0
71 -354 -381 0
71 -356 -379 0
71 -354 -406 0
71 -356 -404 0
71 -379 -406 0
71 -381 -404 0
72 -304 -332 0
72 -307 -329 0
72 -304 -357 0
72 -307 -354 0
72 -304 -382 0
72 -307 -379 0
72 -304 -407 0
72 -307 -404 0
72 -329 -357 0
72 -332 -354 0
72 -329 -382 0
72 -332 -379 0
72 -329 -407 0
72 -332 -404 0
72 -354 -382 0
72 -357 -379 0
72 -354 -407 0
72 -357 -404 0
72 -379 -407 0
72 -382 -404 0
73 -304 -333 0
73 -308 -329 0
73 -304 -358 0
73 -308 -354 0
73 -304 -383 0
73 -308 -379 0
73 -304 -408 0
73 -308 -404 0
73 -329 -358 0
73 -333 -354 0
73 -329 -383 0
73 -333 -379 0
73 -329 -408 0
73 -333 -404 0
73 -354 -383 0
73 -358 -379 0
73 -354 -408 0
73 -358 -404 0
73 -379 -408 0
73 -383 -404 0
74 -304 -334 0
74 -309 -329 0
74 -304 -359 0
74 -309 -354 0
74 -304 -384 0
74 -309 -379 0
74 -304 -409 0
74 -309 -404 0
74 -329 -359 0
74 -334 -354 0
74 -329 -384 0
74 -334 -379 0
74 -329 -409 0
74 -334 -404 0
74 -354 -384 0
74 -359 -379 0
74 -354 -409 0
74 -359 -404 0
74 -379 -409 0
74 -384 -404 0
75 -304 -335 0
75 -310 -329 0
75 -304 -360 0
75 -310 -354 0
75 -304 -385 0
75 -310 -379 0
75 -304 -410 0
75 -310 -404 0
75 -329 -360 0
75 -335 -354 0
75 -329 -385 0
75 -335 -379 0
75 -329 -410 0
75 -335 -404 0
75 -354 -385 0
75 -360 -379 0
75 -354 -410 0
75 -360 -404 0
75 -379 -410 0
75 -385 -404 0
76 -304 -336 0
76 -311 -329 0
76 -304 -361 0
76 -311 -354 0
76 -304 -386 0
76 -311 -379 0
76 -304 -411 0
76 -311 -404 0
76 -329 -361 0
76 -336 -354 0
76 -329 -386 0
76 -336 -379 0
76 -329 -411 0
76 -336 -404 0
76 -354 -386 0
76 -361 -379 0
76 -354 -411 0
76 -361 -404 0
76 -379 -411 0
76 -386 -404 0
77 -304 -337 0
77 -312 -329 0
77 -304 -362 0
77 -312 -354 0
77 -304 -387 0
77 -312 -379 0
77 -304 -412 0
77 -312 -404 0
77 -329 -362 0
77 -337 -354 0
77 -329 -387 0
77 -337 -379 0
77 -329 -412 0
77 -337 -404 0
77 -354 -387 0
77 -362 -379 0
77 -354 -412 0
77 -362 -404 0
77 -379 -412 0
77 -387 -404 0
78 -304 -338 0
78 -313 -329 0
78 -304 -363 0
78 -313 -354 0
78 -304 -388 0
78 -313 -379 0
78 -304 -413 0
78 -313 -404 0
78 -329 -363 0
78 -338 -354 0
78 -329 -388 0
78 -338 -379 0
78 -329 -413 0
78 -338 -404 0
78 -354 -388 0
78 -363 -379 0
78 -354 -413 0
78 -363 -404 0
78 -379 -413 0
78 -388 -404 0
79 -304 -339 0
79 -314 -329 0
79 -304 -364 0
79 -314 -354 0
79 -304 -389 0
79 -314 -379 0
79 -304 -414 0
79 -314 -404 0
79 -329 -364 0
79 -339 -354 0
79 -329 -389 0
79 -339 -379 0
79 -329 -414 0
79 -339 -404 0
79 -354 -389 0
79 -364 -379 0
79 -354 -414 0
79 -364 -404 0
79 -379 -414 0
79 -389 -404 0
80 -304 -340 0
80 -315 -329 0
80 -304 -365 0
80 -315 -354 0
80 -304 -390 0
80 -315 -379 0
80 -304 -415 0
80 -315 -404 0
80 -329 -365 0
80 -340 -354 0
80 -329 -390 0
80 -340 -379 0
80 -329 -415 0
80 -340 -404 0
80 -354 -390 0
80 -365 -379 0
80 -354 -415 0
80 -365 -404 0
80 -379 -415 0
80 -390 -404 0
81 -304 -341 0
81 -316 -329 0
81 -304 -366 0
81 -316 -354 0
81 -304 -391 0
81 -316 -379 0
81 -304 -416 0
81 -316 -404 0
81 -329 -366 0
81 -341 -354 0
81 -329 -391 0
81 -341 -379 0
81 -329 -416 0
81 -341 -404 0
81 -354 -391 0
81 -366 -379 0
81 -354 -416 0
81 -366 -404 0
81 -379 -416 0
81 -391 -404 0
82 -304 -342 0
82 -317 -329 0
82 -304 -367 0
82 -317 -354 0
82 -304 -392 0
82 -317 -379 0
82 -304 -417 0
82 -317 -404 0
82 -329 -367 0
82 -342 -354 0
82 -329 -392 0
82 -342 -379 0
82 -329 -417 0
82 -342 -404 0
82 -354 -392 0
82 -367 -379 0
82 -354 -417 0
82 -367 -404 0
82 -379 -417 0
82 -392 -404 0
83 -304 -343 0
83 -318 -329 0
83 -304 -368 0
83 -318 -354 0
83 -304 -393 0
83 -318 -379 0
83 -304 -418 0
83 -318 -404 0
83 -329 -368 0
83 -343 -354 0
83 -329 -393 0
83 -343 -379 0
83 -329 -418 0
83 -343 -404 0
83 -354 -393 0
83 -368 -379 0
83 -354 -418 0
83 -368 -404 0
83 -379 -418 0
83 -393 -404 0
84 -304 -344 0
84 -319 -329 0
84 -304 -369 0
84 -319 -354 0
84 -304 -394 0
84 -319 -379 0
84 -304 -419 0
84 -319 -404 0
84 -329 -369 0
84 -344 -354 0
84 -329 -394 0
84 -344 -379 0
84 -329 -419 0
84 -344 -404 0
84 -354 -394 0
84 -369 -379 0
84 -354 -419 0
84 -369 -404 0
84 -379 -419 0
84 -394 -404 0
85 -304 -345 0
85 -320 -329 0
85 -304 -370 0
85 -320 -354 0
85 -304 -395 0
85 -320 -379 0
85 -304 -420 0
85 -320 -404 0
85 -329 -370 0
85 -345 -354 0
85 -329 -395 0
85 -345 -379 0
85 -329 -420 0
85 -345 -404 0
85 -354 -395 0
85 -370 -379 0
85 -354 -420 0
85 -370 -404 0
85 -379 -420 0
85 -395 -404 0
86 -304 -346 0
86 -321 -329 0
86 -304 -371 0
86 -321 -354 0
86 -304 -396 0
86 -321 -379 0
86 -304 -421 0
86 -321 -404 0
86 -329 -371 0
86 -346 -354 0
86 -329 -396 0
86 -346 -379 0
86 -329 -421 0
86 -346 -404 0
86 -354 -396 0
86 -371 -379 0
86 -354 -421 0
86 -371 -404 0
86 -379 -421 0
86 -396 -404 0
87 -304 -347 0
87 -322 -329 0
87 -304 -372 0
87 -322 -354 0
87 -304 -397 0
87 -322 -379 0
87 -304 -422 0
87 -322 -404 0
87 -329 -372 0
87 -347 -354 0
87 -329 -397 0
87 -347 -379 0
87 -329 -422 0
87 -347 -404 0
87 -354 -397 0
87 -372 -379 0
87 -354 -422 0
87 -372 -404 0
87 -379 -422 0
87 -397 -404 0
88 -304 -348 0
88 -323 -329 0
88 -304 -373 0
88 -323 -354 0
88 -304 -398 0
88 -323 -379 0
88 -304 -423 0
88 -323 -404 0
88 -329 -373 0
88 -348 -354 0
88 -329 -398 0
88 -348 -379 0
88 -329 -423 0
88 -348 -404 0
88 -354 -398 0
88 -373 -379 0
88 -354 -423 0
88 -373 -404 0
88 -379 -423 0
88 -398 -404 0
89 -304 -349 0
89 -324 -329 0
89 -304 -374 0
89 -324 -354 0
89 -304 -399 0
89 -324 -379 0
89 -304 -424 0
89 -324 -404 0
89 -329 -374 0
89 -349 -354 0
89 -329 -399 0
89 -349 -379 0
89 -329 -424 0
89 -349 -404 0
89 -354 -399 0
89 -374 -379 0
89 -354 -424 0
89 -374 -404 0
89 -379 -424 0
89 -399 -404 0
90 -304 -350 0
90 -325 -329 0
90 -304 -375 0
90 -325 -354 0
90 -304 -400 0
90 -325 -379 0
90 -304 -425 0
90 -325 -404 0
90 -329 -375 0
90 -350 -354 0
90 -329 -400 0
90 -350 -379 0
90 -329 -425 0
90 -350 -404 0
90 -354 -400 0
90 -375 -379 0
90 -354 -425 0
90 -375 -404 0
90 -379 -425 0
90 -400 -404 0
91 -305 -331 0
91 -306 -330 0
91 -305 -356 0
91 -306 -355 0
91 -305 -381 0
91 -306 -380 0
91 -305 -406 0
91 -306 -405 0
91 -330 -356 0
91 -331 -355 0
91 -330 -381 0
91 -331 -380 0
91 -330 -406 0
91 -331 -405 0
91 -355 -381 0
91 -356 -380 0
91 -355 -406 0
91 -356 -405 0
91 -380 -406 0
91 -381 -405 0
92 -305 -332 0
92 -307 -330 0
92 -305 -357 0
92 -307 -355 0
92 -305 -382 0
92 -307 -380 0
92 -305 -407 0
92 -307 -405 0
92 -330 -357 0
92 -332 -355 0
92 -330 -382 0
92 -332 -380 0
92 -330 -407 0
92 -332 -405 0
92 -355 -382 0
92 -357 -380 0
92 -355 -407 0
92 -357 -405 0
92 -380 -407 0
92 -382 -405 0
93 -305 -333 0
93 -308 -330 0
93 -305 -358 0
93 -308 -355 0
93 -305 -383 0
93 -308 -380 0
93 -305 -408 0
93 -308 -405 0
93 -330 -358 0
93 -333 -355 0
93 -330 -383 0
93 -333 -380 0
93 -330 -408 0
93 -333 -405 0
93 -355 -383 0
93 -358 -380 0
93 -355 -408 0
93 -358 -405 0
93 -380 -408 0
93 -383 -405 0
94 -305 -334 0
94 -309 -330 0
94 -305 -359 0
94 -309 -355 0
94 -305 -384 0
94 -309 -380 0
94 -305 -409 0
94 -309 -405 0
94 -330 -359 0
94 -334 -355 0
94 -330 -384 0
94 -334 -380 0
94 -330 -409 0
94 -334 -405 0
94 -355 -384 0
94 -359 -380 0
94 -355 -409 0
94 -359 -405 0
94 -380 -409 0
94 -384 -405 0
95 -305 -335 0
95 -310 -330 0
95 -305 -360 0
95 -310 -355 0
95 -305 -385 0
95 -310 -380 0
95 -305 -410 0
95 -310 -405 0
95 -330 -360 0
95 -335 -355 0
95 -330 -385 0
95 -335 -380 0
95 -330 -410 0
95 -335 -405 0
95 -355 -385 0
95 -360 -380 0
95 -355 -410 0
95 -360 -405 0
95 -380 -410 0
95 -385 -405 0
96 -305 -336 0
96 -311 -330 0
96 -305 -361 0
96 -311 -355 0
96 -305 -386 0
96 -311 -380 0
96 -305 -411 0
96 -311 -405 0
96 -330 -361 0
96 -336 -355 0
96 -330 -386 0
96 -336 -380 0
96 -330 -411 0
96 -336 -405 0
96 -355 -386 0
96 -361 -380 0
96 -355 -411 0
96 -361 -405 0
96 -380 -411 0
96 -386 -405 0
97 -305 -337 0
97 -312 -330 0
97 -305 -362 0
97 -312 -355 0
97 -305 -387 0
97 -312 -380 0
97 -305 -412 0
97 -312 -405 0
97 -330 -362 0
97 -337 -355 0
97 -330 -387 0
97 -337 -380 0
97 -330 -412 0
97 -337 -405 0
97 -355 -387 0
97 -362 -380 0
97 -355 -412 0
97 -362 -405 0
97 -380 -412 0
97 -387 -405 0
98 -305 -338 0
98 -313 -330 0
98 -305 -363 0
98 -313 -355 0
98 -305 -388 0
98 -313 -380 0
98 -305 -413 0
98 -313 -405 0
98 -330 -363 0
98 -338 -355 0
98 -330 -388 0
98 -338 -380 0
98 -330 -413 0
98 -338 -405 0
98 -355 -388 0
98 -363 -380 0
98 -355 -413 0
98 -363 -405 0
98 -380 -413 0
98 -388 -405 0
99 -305 -339 0
99 -314 -330 0
99 -305 -364 0
99 -314 -355 0
99 -305 -389 0
99 -314 -380 0
99 -305 -414 0
99 -314 -405 0
99 -330 -364 0
99 -339 -355 0
99 -330 -389 0
99 -339 -380 0
99 -330 -414 0
99 -339 -405 0
99 -355 -389 0
99 -364 -380 0
99 -355 -414 0
99 -364 -405 0
99 -380 -414 0
99 -389 -405 0
100 -305 -340 0
100 -315 -330 0
100 -305 -365 0
100 -315 -355 0
100 -305 -390 0
100 -315 -380 0
100 -305 -415 0
100 -315 -405 0
100 -330 -365 0
100 -340 -355 0
100 -330 -390 0
100 -340 -380 0
100 -330 -415 0
100 -340 -405 0
100 -355 -390 0
100 -365 -380 0
100 -355 -415 0
100 -365 -405 0
100 -380 -415 0
100 -390 -405 0
101 -305 -341 0
101 -316 -330 0
101 -305 -366 0
101 -316 -355 0
101 -305 -391 0
101 -316 -380 0
101 -305 -416 0
101 -316 -405 0
101 -330 -366 0
101 -341 -355 0
101 -330 -391 0
101 -341 -380 0
101 -330 -416 0
101 -341 -405 0
101 -355 -391 0
101 -366 -380 0
101 -355 -416 0
101 -366 -405 0
101 -380 -416 0
101 -391 -405 0
102 -305 -342 0
102 -317 -330 0
102 -305 -367 0
102 -317 -355 0
102 -305 -392 0
102 -317 -380 0
102 -305 -417 0
102 -317 -405 0
102 -330 -367 0
102 -342 -355 0
102 -330 -392 0
102 -342 -380 0
102 -330 -417 0
102 -342 -405 0
102 -355 -392 0
102 -367 -380 0
102 -355 -417 0
102 -367 -405 0
102 -380 -417 0
102 -392 -405 0
103 -305 -343 0
103 -318 -330 0
103 -305 -368 0
103 -318 -355 0
103 -305 -393 0
103 -318 -380 0
103 -305 -418 0
103 -318 -405 0
103 -330 -368 0
103 -343 -355 0
103 -330 -393 0
103 -343 -380 0
103 -330 -418 0
103 -343 -405 0
103 -355 -393 0
103 -368 -380 0
103 -355 -418 0
103 -368 -405 0
103 -380 -418 0
103 -393 -405 0
104 -305 -344 0
104 -319 -330 0
104 -305 -369 0
104 -319 -355 0
104 -305 -394 0
104 -319 -380 0
104 -305 -419 0
104 -319 -405 0
104 -330 -369 0
104 -344 -355 0
104 -330 -394 0
104 -344 -380 0
104 -330 -419 0
104 -344 -405 0
104 -355 -394 0
104 -369 -380 0
104 -355 -419 0
104 -369 -405 0
104 -380 -419 0
104 -394 -405 0
105 -305 -345 0
105 -320 -330 0
105 -305 -370 0
105 -320 -355 0
105 -305 -395 0
105 -320 -380 0
105 -305 -420 0
105 -320 -405 0
105 -330 -370 0
105 -345 -355 0
105 -330 -395 0
105 -345 -380 0
105 -330 -420 0
105 -345 -405 0
105 -355 -395 0
105 -370 -380 0
105 -355 -420 0
105 -370 -405 0
105 -380 -420 0
105 -395 -405 0
106 -305 -346 0
106 -321 -330 0
106 -305 -371 0
106 -321 -355 0
106 -305 -396 0
106 -321 -380 0
106 -305 -421 0
106 -321 -405 0
106 -330 -371 0
106 -346 -355 0
106 -330 -396 0
106 -346 -380 0
106 -330 -421 0
106 -346 -405 0
106 -355 -396 0
106 -371 -380 0
106 -355 -421 0
106 -371 -405 0
106 -380 -421 0
106 -396 -405 0
107 -305 -347 0
107 -322 -330 0
107 -305 -372 0
107 -322 -355 0
107 -305 -397 0
107 -322 -380 0
107 -305 -422 0
107 -322 -405 0
107 -330 -372 0
107 -347 -355 0
107 -330 -397 0
107 -347 -380 0
107 -330 -422 0
107 -347 -405 0
107 -355 -397 0
107 -372 -380 0
107 -355 -422 0
107 -372 -405 0
107 -380 -422 0
107 -397 -405 0
108 -305 -348 0
108 -323 -330 0
108 -305 -373 0
108 -323 -355 0
108 -305 -398 0
108 -323 -380 0
108 -305 -423 0
108 -323 -405 0
108 -330 -373 0
108 -348 -355 0
108 -330 -398 0
108 -348 -380 0
108 -330 -423 0
108 -348 -405 0
108 -355 -398 0
108 -373 -380 0
108 -355 -423 0
108 -373 -405 0
108 -380 -423 0
108 -398 -405 0
109 -305 -349 0
109 -324 -330 0
109 -305 -374 0
109 -324 -355 0
109 -305 -399 0
109 -324 -380 0
109 -305 -424 0
109 -324 -405 0
109 -330 -374 0
109 -349 -355 0
109 -330 -399 0
109 -349 -380 0
109 -330 -424 0
109 -349 -405 0
109 -355 -399 0
109 -374 -380 0
109 -355 -424 0
109 -374 -405 0
109 -380 -424 0
109 -399 -405 0
110 -305 -350 0
110 -325 -330 0
110 -305 -375 0
110 -325 -355 0
110 -305 -400 0
110 -325 -380 0
110 -305 -425 0
110 -325 -405 0
110 -330 -375 0
110 -350 -355 0
110 -330 -400 0
110 -350 -380 0
110 -330 -425 0
110 -350 -405 0
110 -355 -400 0
110 -375 -380 0
110 -355 -425 0
110 -375 -405 0
110 -380 -425 0
110 -400 -405 0
111 -306 -332 0
111 -307 -331 0
111 -306 -357 0
111 -307 -356 0
111 -306 -382 0
111 -307 -381 0
111 -306 -407 0
111 -307 -406 0
111 -331 -357 0
111 -332 -356 0
111 -331 -382 0
111 -332 -381 0
111 -331 -407 0
111 -332 -406 0
111 -356 -382 0
111 -357 -381 0
111 -356 -407 0
111 -357 -406 0
111 -381 -407 0
111 -382 -406 0
112 -306 -333 0
112 -308 -331 0
112 -306 -358 0
112 -308 -356 0
112 -306 -383 0
112 -308 -381 0
112 -306 -408 0
112 -308 -406 0
112 -331 -358 0
112 -333 -356 0
112 -331 -383 0
112 -333 -381 0
112 -331 -408 0
112 -333 -406 0
112 -356 -383 0
112 -358 -381 0
112 -356 -408 0
112 -358 -406 0
112 -381 -408 0
112 -383 -406 0
113 -306 -334 0
113 -309 -331 0
113 -306 -359 0
113 -309 -356 0
113 -306 -384 0
113 -309 -381 0
113 -306 -409 0
113 -309 -406 0
113 -331 -359 0
113 -334 -356 0
113 -331 -384 0
113 -334 -381 0
113 -331 -409 0
113 -334 -406 0
113 -356 -384 0
113 -359 -381 0
113 -356 -409 0
113 -359 -406 0
113 -381 -409 0
113 -384 -406 0
114 -306 -335 0
114 -310 -331 0
114 -306 -360 0
114 -310 -356 0
114 -306 -385 0
114 -310 -381 0
114 -306 -410 0
114 -310 -406 0
114 -331 -360 0
114 -335 -356 0
114 -331 -385 0
114 -335 -381 0
114 -331 -410 0
114 -335 -406 0
114 -356 -385 0
114 -360 -381 0
114 -356 -410 0
114 -360 -406 0
114 -381 -410 0
114 -385 -406 0
115 -306 -336 0
115 -311 -331 0
115 -306 -361 0
115 -311 -356 0
115 -306 -386 0
115 -311 -381 0
115 -306 -411 0
115 -311 -406 0
115 -331 -361 0
115 -336 -356 0
115 -331 -386 0
115 -336 -381 0
115 -331 -411 0
115 -336 -406 0
115 -356 -386 0
115 -361 -381 0
115 -356 -411 0
115 -361 -406 0
115 -381 -411 0
115 -386 -406 0
116 -306 -337 0
116 -312 -331 0
116 -306 -362 0
116 -312 -356 0
116 -306 -387 0
116 -312 -381 0
116 -306 -412 0
116 -312 -406 0
116 -331 -362 0
116 -337 -356 0
116 -331 -387 0
116 -337 -381 0
116 -331 -412 0
116 -337 -406 0
116 -356 -387 0
116 -362 -381 0
116 -356 -412 0
116 -362 -406 0
116 -381 -412 0
116 -387 -406 0
117 -306 -338 0
117 -313 -331 0
117 -306 -363 0
117 -313 -356 0
117 -306 -388 0
117 -313 -381 0
117 -306 -413 0
117 -313 -406 0
117 -331 -363 0
117 -338 -356 0
117 -331 -388 0
117 -338 -381 0
117 -331 -413 0
117 -338 -406 0
117 -356 -388 0
117 -363 -381 0
117 -356 -413 0
117 -363 -406 0
117 -381 -413 0
117 -388 -406 0
118 -306 -339 0
118 -314 -331 0
118 -306 -364 0
118 -314 -356 0
118 -306 -389 0
118 -314 -381 0
118 -306 -414 0
118 -314 -406 0
118 -331 -364 0
118 -339 -356 0
118 -331 -389 0
118 -339 -381 0
118 -331 -414 0
118 -339 -406 0
118 -356 -389 0
118 -364 -381 0
118 -356 -414 0
118 -364 -406 0
118 -381 -414 0
118 -389 -406 0
119 -306 -340 0
119 -315 -331 0
119 -306 -365 0
119 -315 -356 0
119 -306 -390 0
119 -315 -381 0
119 -306 -415 0
119 -315 -406 0
119 -331 -365 0
119 -340 -356 0
119 -331 -390 0
119 -340 -381 0
119 -331 -415 0
119 -340 -406 0
119 -356 -390 0
119 -365 -381 0
119 -356 -415 0
119 -365 -406 0
119 -381 -415 0
119 -390 -406 0
120 -306 -341 0
120 -316 -331 0
120 -306 -366 0
120 -316 -356 0
120 -306 -391 0
120 -316 -381 0
120 -306 -416 0
120 -316 -406 0
120 -331 -366 0
120 -341 -356 0
120 -331 -391 0
120 -341 -381 0
120 -331 -416 0
120 -341 -406 0
120 -356 -391 0
120 -366 -381 0
120 -356 -416 0
120 -366 -406 0
120 -381 -416 0
120 -391 -406 0
121 -306 -342 0
121 -317 -331 0
121 -306 -367 0
121 -317 -356 0
121 -306 -392 0
121 -317 -381 0
121 -306 -417 0
121 -317 -406 0
121 -331 -367 0
121 -342 -356 0
121 -331 -392 0
121 -342 -381 0
121 -331 -417 0
121 -342 -406 0
121 -356 -392 0
121 -367 -381 0
121 -356 -417 0
121 -367 -406 0
121 -381 -417 0
121 -392 -406 0
122 -306 -343 0
122 -318 -331 0
122 -306 -368 0
122 -318 -356 0
122 -306 -393 0
122 -318 -381 0
122 -306 -418 0
122 -318 -406 0
122 -331 -368 0
122 -343 -356 0
122 -331 -393 0
122 -343 -381 0
122 -331 -418 0
122 -343 -406 0
122 -356 -393 0
122 -368 -381 0
122 -356 -418 0
122 -368 -406 0
122 -381 -418 0
122 -393 -406 0
123 -306 -344 0
123 -319 -331 0
123 -306 -369 0
123 -319 -356 0
123 -306 -394 0
123 -319 -381 0
123 -306 -419 0
123 -319 -406 0
123 -331 -369 0
123 -344 -356 0
123 -331 -394 0
123 -344 -381 0
123 -331 -419 0
123 -344 -406 0
123 -356 -394 0
123 -369 -381 0
123 -356 -419 0
123 -369 -406 0
123 -381 -419 0
123 -394 -406 0
124 -306 -345 0
124 -320 -331 0
124 -306 -370 0
124 -320 -356 0
124 -306 -395 0
124 -320 -381 0
124 -306 -420 0
124 -320 -406 0
124 -331 -370 0
124 -345 -356 0
124 -331 -395 0
124 -345 -381 0
124 -331 -420 0
124 -345 -406 0
124 -356 -395 0
124 -370 -381 0
124 -356 -420 0
124 -370 -406 0
124 -381 -420 0
124 -395 -406 0
125 -306 -346 0
125 -321 -331 0
125 -306 -371 0
125 -321 -356 0
125 -306 -396 0
125 -321 -381 0
125 -306 -421 0
125 -321 -406 0
125 -331 -371 0
125 -346 -356 0
125 -331 -396 0
125 -346 -381 0
125 -331 -421 0
125 -346 -406 0
125 -356 -396 0
125 -371 -381 0
125 -356 -421 0
125 -371 -406 0
125 -381 -421 0
125 -396 -406 0
126 -306 -347 0
126 -322 -331 0
126 -306 -372 0
126 -322 -356 0
126 -306 -397 0
126 -322 -381 0
126 -306 -422 0
126 -322 -406 0
126 -331 -372 0
126 -347 -356 0
126 -331 -397 0
126 -347 -381 0
126 -331 -422 0
126 -347 -406 0
126 -356 -397 0
126 -372 -381 0
126 -356 -422 0
126 -372 -406 0
126 -381 -422 0
126 -397 -406 0
127 -306 -348 0
127 -323 -331 0
127 -306 -373 0
127 -323 -356 0
127 -306 -398 0
127 -323 -381 0
127 -306 -423 0
127 -323 -406 0
127 -331 -373 0
127 -348 -356 0
127 -331 -398 0
127 -348 -381 0
127 -331 -423 0
127 -348 -406 0
127 -356 -398 0
127 -373 -381 0
127 -356 -423 0
127 -373 -406 0
127 -381 -423 0
127 -398 -406 0
128 -306 -349 0
128 -324 -331 0
128 -306 -374 0
128 -324 -356 0
128 -306 -399 0
128 -324 -381 0
128 -306 -424 0
128 -324 -406 0
128 -331 -374 0
128 -349 -356 0
128 -331 -399 0
128 -349 -381 0
128 -331 -424 0
128 -349 -406 0
128 -356 -399 0
128 -374 -381 0
128 -356 -424 0
128 -374 -406 0
128 -381 -424 0
128 -399 -406 0
129 -306 -350 0
129 -325 -331 0
129 -306 -375 0
129 -325 -356 0
129 -306 -400 0
129 -325 -381 0
129 -306 -425 0
129 -325 -406 0
129 -331 -375 0
129 -350 -356 0
129 -331 -400 0
129 -350 -381 0
129 -331 -425 0
129 -350 -406 0
129 -356 -400 0
129 -375 -381 0
129 -356 -425 0
129 -375 -406 0
129 -381 -425 0
129 -400 -406 0
130 -307 -333 0
130 -308 -332 0
130 -307 -358 0
130 -308 -357 0
130 -307 -383 0
130 -308 -382 0
130 -307 -408 0
130 -308 -407 0
130 -332 -358 0
130 -333 -357 0
130 -332 -383 0
130 -333 -382 0
130 -332 -408 0
130 -333 -407 0
130 -357 -383 0
130 -358 -382 0
130 -357 -408 0
130 -358 -407 0
130 -382 -408 0
130 -383 -407 0
131 -307 -334 0
131 -309 -332 0
131 -307 -359 0
131 -309 -357 0
131 -307 -384 0
131 -309 -382 0
131 -307 -409 0
131 -309 -407 0
131 -332 -359 0
131 -334 -357 0
131 -332 -384 0
131 -334 -382 0
131 -332 -409 0
131 -334 -407 0
131 -357 -384 0
131 -359 -382 0
131 -357 -409 0
131 -359 -407 0
131 -382 -409 0
131 -384 -407 0
132 -307 -335 0
132 -310 -332 0
132 -307 -360 0
132 -310 -357 0
132 -307 -385 0
132 -310 -382 0
132 -307 -410 0
132 -310 -407 0
132 -332 -360 0
132 -335 -357 0
132 -332 -385 0
132 -335 -382 0
132 -332 -410 0
132 -335 -407 0
132 -357 -385 0
132 -360 -382 0
132 -357 -410 0
132 -360 -407 0
132 -382 -410 0
132 -385 -407 0
133 -307 -336 0
133 -311 -332 0
133 -307 -361 0
133 -311 -357 0
133 -307 -386 0
133 -311 -382 0
133 -307 -411 0
133 -311 -407 0
133 -332 -361 0
133 -336 -357 0
133 -332 -386 0
133 -336 -382 0
133 -332 -411 0
133 -336 -407 0
133 -357 -386 0
133 -361 -382 0
133 -357 -411 0
133 -361 -407 0
133 -382 -411 0
133 -386 -407 0
134 -307 -337 0
134 -312 -332 0
134 -307 -362 0
134 -312 -357 0
134 -307 -387 0
134 -312 -382 0
134 -307 -412 0
134 -312 -407 0
134 -332 -362 0
134 -337 -357 0
134 -332 -387 0
134 -337 -382 0
134 -332 -412 0
134 -337 -407 0
134 -357 -387 0
134 -362 -382 0
134 -357 -412 0
134 -362 -407 0
134 -382 -412 0
134 -387 -407 0
135 -307 -338 0
135 -313 -332 0
135 -307 -363 0
135 -313 -357 0
135 -307 -388 0
135 -313 -382 0
135 -307 -413 0
135 -313 -407 0
135 -332 -363 0
135 -338 -357 0
135 -332 -388 0
135 -338 -382 0
135 -332 -413 0
135 -338 -407 0
135 -357 -388 0
135 -363 -382 0
135 -357 -413 0
135 -363 -407 0
135 -382 -413 0
135 -388 -407 0
136 -307 -339 0
136 -314 -332 0
136 -307 -364 0
136 -314 -357 0
136 -307 -389 0
136 -314 -382 0
136 -307 -414 0
136 -314 -407 0
136 -332 -364 0
136 -339 -357 0
136 -332 -389 0
136 -339 -382 0
136 -332 -414 0
136 -339 -407 0
136 -357 -389 0
136 -364 -382 0
136 -357 -414 0
136 -364 -407 0
136 -382 -414 0
136 -389 -407 0
137 -307 -340 0
137 -315 -332 0
137 -307 -365 0
137 -315 -357 0
137 -307 -390 0
137 -315 -382 0
137 -307 -415 0
137 -315 -407 0
137 -332 -365 0
137 -340 -357 0
137 -332 -390 0
137 -340 -382 0
137 -332 -415 0
137 -340 -407 0
137 -357 -390 0
137 -365 -382 0
137 -357 -415 0
137 -365 -407 0
137 -382 -415 0
137 -390 -407 0
138 -307 -341 0
138 -316 -332 0
138 -307 -366 0
138 -316 -357 0
138 -307 -391 0
138 -316 -382 0
138 -307 -416 0
138 -316 -407 0
138 -332 -366 0
138 -341 -357 0
138 -332 -391 0
138 -341 -382 0
138 -332 -416 0
138 -341 -407 0
138 -357 -391 0
138 -366 -382 0
138 -357 -416 0
138 -366 -407 0
138 -382 -416 0
138 -391 -407 0
139 -307 -342 0
139 -317 -332 0
139 -307 -367 0
139 -317 -357 0
139 -307 -392 0
139 -317 -382 0
139 -307 -417 0
139 -317 -407 0
139 -332 -367 0
139 -342 -357 0
139 -332 -392 0
139 -342 -382 0
139 -332 -417 0
139 -342 -407 0
139 -357 -392 0
139 -367 -382 0
139 -357 -417 0
139 -367 -407 0
139 -382 -417 0
139 -392 -407 0
140 -307 -343 0
140 -318 -332 0
140 -307 -368 0
140 -318 -357 0
140 -307 -393 0
140 -318 -382 0
140 -307 -418 0
140 -318 -407 0
140 -332 -368 0
140 -343 -357 0
140 -332 -393 0
140 -343 -382 0
140 -332 -418 0
140 -343 -407 0
140 -357 -393 0
140 -368 -382 0
140 -357 -418 0
140 -368 -407 0
140 -382 -418 0
140 -393 -407 0
141 -307 -344 0
141 -319 -332 0
141 -307 -369 0
141 -319 -357 0
141 -307 -394 0
141 -319 -382 0
141 -307 -419 0
141 -319 -407 0
141 -332 -369 0
141 -344 -357 0
141 -332 -394 0
141 -344 -382 0
141 -332 -419 0
141 -344 -407 0
141 -357 -394 0
141 -369 -382 0
141 -357 -419 0
141 -369 -407 0
141 -382 -419 0
141 -394 -407 0
142 -307 -345 0
142 -320 -332 0
142 -307 -370 0
142 -320 -357 0
142 -307 -395 0
142 -320 -382 0
142 -307 -420 0
142 -320 -407 0
142 -332 -370 0
142 -345 -357 0
142 -332 -395 0
142 -345 -382 0
142 -332 -420 0
142 -345 -407 0
142 -357 -395 0
142 -370 -382 0
142 -357 -420 0
142 -370 -407 0
142 -382 -420 0
142 -395 -407 0
143 -307 -346 0
143 -321 -332 0
143 -307 -371 0
143 -321 -357 0
143 -307 -396 0
143 -321 -382 0
143 -307 -421 0
143 -321 -407 0
143 -332 -371 0
143 -346 -357 0
143 -332 -396 0
143 -346 -382 0
143 -332 -421 0
143 -346 -407 0
143 -357 -396 0
143 -371 -382 0
143 -357 -421 0
143 -371 -407 0
143 -382 -421 0
143 -396 -407 0
144 -307 -347 0
144 -322 -332 0
144 -307 -372 0
144 -322 -357 0
144 -307 -397 0
144 -322 -382 0
144 -307 -422 0
144 -322 -407 0
144 -332 -372 0
144 -347 -357 0
144 -332 -397 0
144 -347 -382 0
144 -332 -422 0
144 -347 -407 0
144 -357 -397 0
144 -372 -382 0
144 -357 -422 0
144 -372 -407 0
144 -382 -422 0
144 -397 -407 0
145 -307 -348 0
145 -323 -332 0
145 -307 -373 0
145 -323 -357 0
145 -307 -398 0
145 -323 -382 0
145 -307 -423 0
145 -323 -407 0
145 -332 -373 0
145 -348 -357 0
145 -332 -398 0
145 -348 -382 0
145 -332 -423 0
145 -348 -407 0
145 -357 -398 0
145 -373 -382 0
145 -357 -423 0
145 -373 -407 0
145 -382 -423 0
145 -398 -407 0
146 -307 -349 0
146 -324 -332 0
146 -307 -374 0
146 -324 -357 0
146 -307 -399 0
146 -324 -382 0
146 -307 -424 0
146 -324 -407 0
146 -332 -374 0
146 -349 -357 0
146 -332 -399 0
146 -349 -382 0
146 -332 -424 0
146 -349 -407 0
146 -357 -399 0
146 -374 -382 0
146 -357 -424 0
146 -374 -407 0
146 -382 -424 0
146 -399 -407 0
147 -307 -350 0
147 -325 -332 0
147 -307 -375 0
147 -325 -357 0
147 -307 -400 0
147 -325 -382 0
147 -307 -425 0
147 -325 -407 0
147 -332 -375 0
147 -350 -357 0
147 -332 -400 0
147 -350 -382 0
147 -332 -425 0
147 -350 -407 0
147 -357 -400 0
147 -375 -382 0
147 -357 -425 0
147 -375 -407 0
147 -382 -425 0
147 -400 -407 0
148 -308 -334 0
148 -309 -333 0
148 -308 -359 0
148 -309 -358 0
148 -308 -384 0
148 -309 -383 0
148 -308 -409 0
148 -309 -408 0
148 -333 -359 0
148 -334 -358 0
148 -333 -384 0
148 -334 -383 0
148 -333 -409 0
148 -334 -408 0
148 -358 -384 0
148 -359 -383 0
148 -358 -409 0
148 -359 -408 0
148 -383 -409 0
148 -384 -408 0
149 -308 -335 0
149 -310 -333 0
149 -308 -360 0
149 -310 -358 0
149 -308 -385 0
149 -310 -383 0
149 -308 -410 0
149 -310 -408 0
149 -333 -360 0
149 -335 -358 0
149 -333 -385 0
149 -335 -383 0
149 -333 -410 0
149 -335 -408 0
149 -358 -385 0
149 -360 -383 0
149 -358 -410 0
149 -360 -408 0
149 -383 -410 0
149 -385 -408 0
150 -308 -336 0
150 -311 -333 0
150 -308 -361 0
150 -311 -358 0
150 -308 -386 0
150 -311 -383 0
150 -308 -411 0
150 -311 -408 0
150 -333 -361 0
150 -336 -358 0
150 -333 -386 0
150 -336 -383 0
150 -333 -411 0
150 -336 -408 0
150 -358 -386 0
150 -361 -383 0
150 -358 -411 0
150 -361 -408 0
150 -383 -411 0
150 -386 -408 0
151 -308 -337 0
151 -312 -333 0
151 -308 -362 0
151 -312 -358 0
151 -308 -387 0
151 -312 -383 0
151 -308 -412 0
151 -312 -408 0
151 -333 -362 0
151 -337 -358 0
151 -333 -387 0
151 -337 -383 0
151 -333 -412 0
151 -337 -408 0
151 -358 -387 0
151 -362 -383 0
151 -358 -412 0
151 -362 -408 0
151 -383 -412 0
151 -387 -408 0
152 -308 -338 0
152 -313 -333 0
152 -308 -363 0
152 -313 -358 0
152 -308 -388 0
152 -313 -383 0
152 -308 -413 0
152 -313 -408 0
152 -333 -363 0
152 -338 -358 0
152 -333 -388 0
152 -338 -383 0
152 -333 -413 0
152 -338 -408 0
152 -358 -388 0
152 -363 -383 0
152 -358 -413 0
152 -363 -408 0
152 -383 -413 0
152 -388 -408 0
153 -308 -339 0
153 -314 -333 0
153 -308 -364 0
153 -314 -358 0
153 -308 -389 0
153 -314 -383 0
153 -308 -414 0
153 -314 -408 0
153 -333 -364 0
153 -339 -358 0
153 -333 -389 0
153 -339 -383 0
153 -333 -414 0
153 -339 -408 0
153 -358 -389 0
153 -364 -383 0
153 -358 -414 0
153 -364 -408 0
153 -383 -414 0
153 -389 -408 0
154 -308 -340 0
154 -315 -333 0
154 -308 -365 0
154 -315 -358 0
154 -308 -390 0
154 -315 -383 0
154 -308 -415 0
154 -315 -408 0
154 -333 -365 0
154 -340 -358 0
154 -333 -390 0
154 -340 -383 0
154 -333 -415 0
154 -340 -408 0
154 -358 -390 0
154 -365 -383 0
154 -358 -415 0
154 -365 -408 0
154 -383 -415 0
154 -390 -408 0
155 -308 -341 0
155 -316 -333 0
155 -308 -366 0
155 -316 -358 0
155 -308 -391 0
155 -316 -383 0
155 -308 -416 0
155 -316 -408 0
155 -333 -366 0
155 -341 -358 0
155 -333 -391 0
155 -341 -383 0
155 -333 -416 0
155 -341 -408 0
155 -358 -391 0
155 -366 -383 0
155 -358 -416 0
155 -366 -408 0
155 -383 -416 0
155 -391 -408 0
156 -308 -342 0
156 -317 -333 0
156 -308 -367 0
156 -317 -358 0
156 -308 -392 0
156 -317 -383 0
156 -308 -417 0
156 -317 -408 0
156 -333 -367 0
156 -342 -358 0
156 -333 -392 0
156 -342 -383 0
156 -333 -417 0
156 -342 -408 0
156 -358 -392 0
156 -367 -383 0
156 -358 -417 0
156 -367 -408 0
156 -383 -417 0
156 -392 -408 0
157 -308 -343 0
157 -318 -333 0
157 -308 -368 0
157 -318 -358 0
157 -308 -393 0
157 -318 -383 0
157 -308 -418 0
157 -318 -408 0
157 -333 -368 0
157 -343 -358 0
157 -333 -393 0
157 -343 -383 0
157 -333 -418 0
157 -343 -408 0
157 -358 -393 0
157 -368 -383 0
157 -358 -418 0
157 -368 -408 0
157 -383 -418 0
157 -393 -408 0
158 -308 -344 0
158 -319 -333 0
158 -308 -369 0
158 -319 -358 0
158 -308 -394 0
158 -319 -383 0
158 -308 -419 0
158 -319 -408 0
158 -333 -369 0
158 -344 -358 0
158 -333 -394 0
158 -344 -383 0
158 -333 -419 0
158 -344 -408 0
158 -358 -394 0
158 -369 -383 0
158 -358 -419 0
158 -369 -408 0
158 -383 -419 0
158 -394 -408 0
159 -308 -345 0
159 -320 -333 0
159 -308 -370 0
159 -320 -358 0
159 -308 -395 0
159 -320 -383 0
159 -308 -420 0
159 -320 -408 0
159 -333 -370 0
159 -345 -358 0
159 -333 -395 0
159 -345 -383 0
159 -333 -420 0
159 -345 -408 0
159 -358 -395 0
159 -370 -383 0
159 -358 -420 0
159 -370 -408 0
159 -383 -420 0
159 -395 -408 0
160 -308 -346 0
160 -321 -333 0
160 -308 -371 0
160 -321 -358 0
160 -308 -396 0
160 -321 -383 0
160 -308 -421 0
160 -321 -408 0
160 -333 -371 0
160 -346 -358 0
160 -333 -396 0
160 -346 -383 0
160 -333 -421 0
160 -346 -408 0
160 -358 -396 0
160 -371 -383 0
160 -358 -421 0
160 -371 -408 0
160 -383 -421 0
160 -396 -408 0
161 -308 -347 0
161 -322 -333 0
161 -308 -372 0
161 -322 -358 0
161 -308 -397 0
161 -322 -383 0
161 -308 -422 0
161 -322 -408 0
161 -333 -372 0
161 -347 -358 0
161 -333 -397 0
161 -347 -383 0
161 -333 -422 0
161 -347 -408 0
161 -358 -397 0
161 -372 -383 0
161 -358 -422 0
161 -372 -408 0
161 -383 -422 0
161 -397 -408 0
162 -308 -348 0
162 -323 -333 0
162 -308 -373 0
162 -323 -358 0
162 -308 -398 0
162 -323 -383 0
162 -308 -423 0
162 -323 -408 0
162 -333 -373 0
162 -348 -358 0
162 -333 -398 0
162 -348 -383 0
162 -333 -423 0
162 -348 -408 0
162 -358 -398 0
162 -373 -383 0
162 -358 -423 0
162 -373 -408 0
162 -383 -423 0
162 -398 -408 0
163 -308 -349 0
163 -324 -333 0
163 -308 -374 0
163 -324 -358 0
163 -308 -399 0
163 -324 -383 0
163 -308 -424 0
163 -324 -408 0
163 -333 -374 0
163 -349 -358 0
163 -333 -399 0
163 -349 -383 0
163 -333 -424 0
163 -349 -408 0
163 -358 -399 0
163 -374 -383 0
163 -358 -424 0
163 -374 -408 0
163 -383 -424 0
163 -399 -408 0
164 -308 -350 0
164 -325 -333 0
164 -308 -375 0
164 -325 -358 0
164 -308 -400 0
164 -325 -383 0
164 -308 -425 0
164 -325 -408 0
164 -333 -375 0
164 -350 -358 0
164 -333 -400 0
164 -350 -383 0
164 -333 -425 0
164 -350 -408 0
164 -358 -400 0
164 -375 -383 0
164 -358 -425 0
164 -375 -408 0
164 -383 -425 0
164 -400 -408 0
165 -309 -335 0
165 -310 -334 0
165 -309 -360 0
165 -310 -359 0
165 -309 -385 0
165 -310 -384 0
165 -309 -410 0
165 -310 -409 0
165 -334 -360 0
165 -335 -359 0
165 -334 -385 0
165 -335 -384 0
165 -334 -410 0
165 -335 -409 0
165 -359 -385 0
165 -360 -384 0
165 -359 -410 0
165 -360 -409 0
165 -384 -410 0
165 -385 -409 0
166 -309 -336 0
166 -311 -334 0
166 -309 -361 0
166 -311 -359 0
166 -309 -386 0
166 -311 -384 0
166 -309 -411 0
166 -311 -409 0
166 -334 -361 0
166 -336 -359 0
166 -334 -386 0
166 -336 -384 0
166 -334 -411 0
166 -336 -409 0
166 -359 -386 0
166 -361 -384 0
166 -359 -411 0
166 -361 -409 0
166 -384 -411 0
166 -386 -409 0
167 -309 -337 0
167 -312 -334 0
167 -309 -362 0
167 -312 -359 0
167 -309 -387 0
167 -312 -384 0
167 -309 -412 0
167 -312 -409 0
167 -334 -362 0
167 -337 -359 0
167 -334 -387 0
167 -337 -384 0
167 -334 -412 0
167 -337 -409 0
167 -359 -387 0
167 -362 -384 0
167 -359 -412 0
167 -362 -409 0
167 -384 -412 0
167 -387 -409 0
168 -309 -338 0
168 -313 -334 0
168 -309 -363 0
168 -313 -359 0
168 -309 -388 0
168 -313 -384 0
168 -309 -413 0
168 -313 -409 0
168 -334 -363 0
168 -338 -359 0
168 -334 -388 0
168 -338 -384 0
168 -334 -413 0
168 -338 -409 0
168 -359 -388 0
168 -363 -384 0
168 -359 -413 0
168 -363 -409 0
168 -384 -413 0
168 -388 -409 0
169 -309 -339 0
169 -314 -334 0
169 -309 -364 0
169 -314 -359 0
169 -309 -389 0
169 -314 -384 0
169 -309 -414 0
169 -314 -409 0
169 -334 -364 0
169 -339 -359 0
169 -334 -389 0
169 -339 -384 0
169 -334 -414 0
169 -339 -409 0
169 -359 -389 0
169 -364 -384 0
169 -359 -414 0
169 -364 -409 0
169 -384 -414 0
169 -389 -409 0
170 -309 -340 0
170 -315 -334 0
170 -309 -365 0
170 -315 -359 0
170 -309 -390 0
170 -315 -384 0
170 -309 -415 0
170 -315 -409 0
170 -334 -365 0
170 -340 -359 0
170 -334 -390 0
170 -340 -384 0
170 -334 -415 0
170 -340 -409 0
170 -359 -390 0
170 -365 -384 0
170 -359 -415 0
170 -365 -409 0
170 -384 -415 0
170 -390 -409 0
171 -309 -341 0
171 -316 -334 0
171 -309 -366 0
171 -316 -359 0
171 -309 -391 0
171 -316 -384 0
171 -309 -416 0
171 -316 -409 0
171 -334 -366 0
171 -341 -359 0
171 -334 -391 0
171 -341 -384 0
171 -334 -416 0
171 -341 -409 0
171 -359 -391 0
171 -366 -384 0
171 -359 -416 0
171 -366 -409 0
171 -384 -416 0
171 -391 -409 0
172 -309 -342 0
172 -317 -334 0
172 -309 -367 0
172 -317 -359 0
172 -309 -392 0
172 -317 -384 0
172 -309 -417 0
172 -317 -409 0
172 -334 -367 0
172 -342 -359 0
172 -334 -392 0
172 -342 -384 0
172 -334 -417 0
172 -342 -409 0
172 -359 -392 0
172 -367 -384 0
172 -359 -417 0
172 -367 -409 0
172 -384 -417 0
172 -392 -409 0
173 -309 -343 0
173 -318 -334 0
173 -309 -368 0
173 -318 -359 0
173 -309 -393 0
173 -318 -384 0
173 -309 -418 0
173 -318 -409 0
173 -334 -368 0
173 -343 -359 0
173 -334 -393 0
173 -343 -384 0
173 -334 -418 0
173 -343 -409 0
173 -359 -393 0
173 -368 -384 0
173 -359 -418 0
173 -368 -409 0
173 -384 -418 0
173 -393 -409 0
174 -309 -344 0
174 -319 -334 0
174 -309 -369 0
174 -319 -359 0
174 -309 -394 0
174 -319 -384 0
174 -309 -419 0
174 -319 -409 0
174 -334 -369 0
174 -344 -359 0
174 -334 -394 0
174 -344 -384 0
174 -334 -419 0
174 -344 -409 0
174 -359 -394 0
174 -369 -384 0
174 -359 -419 0
174 -369 -409 0
174 -384 -419 0
174 -394 -409 0
175 -309 -345 0
175 -320 -334 0
175 -309 -370 0
175 -320 -359 0
175 -309 -395 0
175 -320 -384 0
175 -309 -420 0
175 -320 -409 0
175 -334 -370 0
175 -345 -359 0
175 -334 -395 0
175 -345 -384 0
175 -334 -420 0
175 -345 -409 0
175 -359 -395 0
175 -370 -384 0
175 -359 -420 0
175 -370 -409 0
175 -384 -420 0
175 -395 -409 0
176 -309 -346 0
176 -321 -334 0
176 -309 -371 0
176 -321 -359 0
176 -309 -396 0
176 -321 -384 0
176 -309 -421 0
176 -321 -409 0
176 -334 -371 0
176 -346 -359 0
176 -334 -396 0
176 -346 -384 0
176 -334 -421 0
176 -346 -409 0
176 -359 -396 0
176 -371 -384 0
176 -359 -421 0
176 -371 -409 0
176 -384 -421 0
176 -396 -409 0
177 -309 -347 0
177 -322 -334 0
177 -309 -372 0
177 -322 -359 0
177 -309 -397 0
177 -322 -384 0
177 -309 -422 0
177 -322 -409 0
177 -334 -372 0
177 -347 -359 0
177 -334 -397 0
177 -347 -384 0
177 -334 -422 0
177 -347 -409 0
177 -359 -397 0
177 -372 -384 0
177 -359 -422 0
177 -372 -409 0
177 -384 -422 0
177 -397 -409 0
178 -309 -348 0
178 -323 -334 0
178 -309 -373 0
178 -323 -359 0
178 -309 -398 0
178 -323 -384 0
178 -309 -423 0
178 -323 -409 0
178 -334 -373 0
178 -348 -359 0
178 -334 -398 0
178 -348 -384 0
178 -334 -423 0
178 -348 -409 0
178 -359 -398 0
178 -373 -384 0
178 -359 -423 0
178 -373 -409 0
178 -384 -423 0
178 -398 -409 0
179 -309 -349 0
179 -324 -334 0
179 -309 -374 0
179 -324 -359 0
179 -309 -399 0
179 -324 -384 0
179 -309 -424 0
179 -324 -409 0
179 -334 -374 0
179 -349 -359 0
179 -334 -399 0
179 -349 -384 0
179 -334 -424 0
179 -349 -409 0
179 -359 -399 0
179 -374 -384 0
179 -359 -424 0
179 -374 -409 0
179 -384 -424 0
179 -399 -409 0
180 -309 -350 0
180 -325 -334 0
180 -309 -375 0
180 -325 -359 0
180 -309 -400 0
180 -325 -384 0
180 -309 -425 0
180 -325 -409 0
180 -334 -375 0
180 -350 -359 0
180 -334 -400 0
180 -350 -384 0
180 -334 -425 0
180 -350 -409 0
180 -359 -400 0
180 -375 -384 0
180 -359 -425 0
180 -375 -409 0
180 -384 -425 0
180 -400 -409 0
181 -310 -336 0
181 -311 -335 0
181 -310 -361 0
181 -311 -360 0
181 -310 -386 0
181 -311 -385 0
181 -310 -411 0
181 -311 -410 0
181 -335 -361 0
181 -336 -360 0
181 -335 -386 0
181 -336 -385 0
181 -335 -411 0
181 -336 -410 0
181 -360 -386 0
181 -361 -385 0
181 -360 -411 0
181 -361 -410 0
181 -385 -411 0
181 -386 -410 0
182 -310 -337 0
182 -312 -335 0
182 -310 -362 0
182 -312 -360 0
182 -310 -387 0
182 -312 -385 0
182 -310 -412 0
182 -312 -410 0
182 -335 -362 0
182 -337 -360 0
182 -335 -387 0
182 -337 -385 0
182 -335 -412 0
182 -337 -410 0
182 -360 -387 0
182 -362 -385 0
182 -360 -412 0
182 -362 -410 0
182 -385 -412 0
182 -387 -410 0
183 -310 -338 0
183 -313 -335 0
183 -310 -363 0
183 -313 -360 0
183 -310 -388 0
183 -313 -385 0
183 -310 -413 0
183 -313 -410 0
183 -335 -363 0
183 -338 -360 0
183 -335 -388 0
183 -338 -385 0
183 -335 -413 0
183 -338 -410 0
183 -360 -388 0
183 -363 -385 0
183 -360 -413 0
183 -363 -410 0
183 -385 -413 0
183 -388 -410 0
184 -310 -339 0
184 -314 -335 0
184 -310 -364 0
184 -314 -360 0
184 -310 -389 0
184 -314 -385 0
184 -310 -414 0
184 -314 -410 0
184 -335 -364 0
184 -339 -360 0
184 -335 -389 0
184 -339 -385 0
184 -335 -414 0
184 -339 -410 0
184 -360 -389 0
184 -364 -385 0
184 -360 -414 0
184 -364 -410 0
184 -385 -414 0
184 -389 -410 0
185 -310 -340 0
185 -315 -335 0
185 -310 -365 0
185 -315 -360 0
185 -310 -390 0
185 -315 -385 0
185 -310 -415 0
185 -315 -410 0
185 -335 -365 0
185 -340 -360 0
185 -335 -390 0
185 -340 -385 0
185 -335 -415 0
185 -340 -410 0
185 -360 -390 0
185 -365 -385 0
185 -360 -415 0
185 -365 -410 0
185 -385 -415 0
185 -390 -410 0
186 -310 -341 0
186 -316 -335 0
186 -310 -366 0
186 -316 -360 0
186 -310 -391 0
186 -316 -385 0
186 -310 -416 0
186 -316 -410 0
186 -335 -366 0
186 -341 -360 0
186 -335 -391 0
186 -341 -385 0
186 -335 -416 0
186 -341 -410 0
186 -360 -391 0
186 -366 -385 0
186 -360 -416 0
186 -366 -410 0
186 -385 -416 0
186 -391 -410 0
187 -310 -342 0
187 -317 -335 0
187 -310 -367 0
187 -317 -360 0
187 -310 -392 0
187 -317 -385 0
187 -310 -417 0
187 -317 -410 0
187 -335 -367 0
187 -342 -360 0
187 -335 -392 0
187 -342 -385 0
187 -335 -417 0
187 -342 -410 0
187 -360 -392 0
187 -367 -385 0
187 -360 -417 0
187 -367 -410 0
187 -385 -417 0
187 -392 -410 0
188 -310 -343 0
188 -318 -335 0
188 -310 -368 0
188 -318 -360 0
188 -310 -393 0
188 -318 -385 0
188 -310 -418 0
188 -318 -410 0
188 -335 -368 0
188 -343 -360 0
188 -335 -393 0
188 -343 -385 0
188 -335 -418 0
188 -343 -410 0
188 -360 -393 0
188 -368 -385 0
188 -360 -418 0
188 -368 -410 0
188 -385 -418 0
188 -393 -410 0
189 -310 -344 0
189 -319 -335 0
189 -310 -369 0
189 -319 -360 0
189 -310 -394 0
189 -319 -385 0
189 -310 -419 0
189 -319 -410 0
189 -335 -369 0
189 -344 -360 0
189 -335 -394 0
189 -344 -385 0
189 -335 -419 0
189 -344 -410 0
189 -360 -394 0
189 -369 -385 0
189 -360 -419 0
189 -369 -410 0
189 -385 -419 0
189 -394 -410 0
190 -310 -345 0
190 -320 -335 0
190 -310 -370 0
190 -320 -360 0
190 -310 -395 0
190 -320 -385 0
190 -310 -420 0
190 -320 -410 0
190 -335 -370 0
190 -345 -360 0
190 -335 -395 0
190 -345 -385 0
190 -335 -420 0
190 -345 -410 0
190 -360 -395 0
190 -370 -385 0
190 -360 -420 0
190 -370 -410 0
190 -385 -420 0
190 -395 -410 0
191 -310 -346 0
191 -321 -335 0
191 -310 -371 0
191 -321 -360 0
191 -310 -396 0
191 -321 -385 0
191 -310 -421 0
191 -321 -410 0
191 -335 -371 0
191 -346 -360 0
191 -335 -396 0
191 -346 -385 0
191 -335 -421 0
191 -346 -410 0
191 -360 -396 0
191 -371 -385 0
191 -360 -421 0
191 -371 -410 0
191 -385 -421 0
191 -396 -410 0
192 -310 -347 0
192 -322 -335 0
192 -310 -372 0
192 -322 -360 0
192 -310 -397 0
192 -322 -385 0
192 -310 -422 0
192 -322 -410 0
192 -335 -372 0
192 -347 -360 0
192 -335 -397 0
192 -347 -385 0
192 -335 -422 0
192 -347 -410 0
192 -360 -397 0
192 -372 -385 0
192 -360 -422 0
192 -372 -410 0
192 -385 -422 0
192 -397 -410 0
193 -310 -348 0
193 -323 -335 0
193 -310 -373 0
193 -323 -360 0
193 -310 -398 0
193 -323 -385 0
193 -310 -423 0
193 -323 -410 0
193 -335 -373 0
193 -348 -360 0
193 -335 -398 0
193 -348 -385 0
193 -335 -423 0
193 -348 -410 0
193 -360 -398 0
193 -373 -385 0
193 -360 -423 0
193 -373 -410 0
193 -385 -423 0
193 -398 -410 0
194 -310 -349 0
194 -324 -335 0
194 -310 -374 0
194 -324 -360 0
194 -310 -399 0
194 -324 -385 0
194 -310 -424 0
194 -324 -410 0
194 -335 -374 0
194 -349 -360 0
194 -335 -399 0
194 -349 -385 0
194 -335 -424 0
194 -349 -410 0
194 -360 -399 0
194 -374 -385 0
194 -360 -424 0
194 -374 -410 0
194 -385 -424 0
194 -399 -410 0
195 -310 -350 0
195 -325 -335 0
195 -310 -375 0
195 -325 -360 0
195 -310 -400 0
195 -325 -385 0
195 -310 -425 0
195 -325 -410 0
195 -335 -375 0
195 -350 -360 0
195 -335 -400 0
195 -350 -385 0
195 -335 -425 0
195 -350 -410 0
195 -360 -400 0
195 -375 -385 0
195 -360 -425 0
195 -375 -410 0
195 -385 -425 0
195 -400 -410 0
196 -311 -337 0
196 -312 -336 0
196 -311 -362 0
196 -312 -361 0
196 -311 -387 0
196 -312 -386 0
196 -311 -412 0
196 -312 -411 0
196 -336 -362 0
196 -337 -361 0
196 -336 -387 0
196 -337 -386 0
196 -336 -412 0
196 -337 -411 0
196 -361 -387 0
196 -362 -386 0
196 -361 -412 0
196 -362 -411 0
196 -386 -412 0
196 -387 -411 0
197 -311 -338 0
197 -313 -336 0
197 -311 -363 0
197 -313 -361 0
197 -311 -388 0
197 -313 -386 0
197 -311 -413 0
197 -313 -411 0
197 -336 -363 0
197 -338 -361 0
197 -336 -388 0
197 -338 -386 0
197 -336 -413 0
197 -338 -411 0
197 -361 -388 0
197 -363 -386 0
197 -361 -413 0
197 -363 -411 0
197 -386 -413 0
197 -388 -411 0
198 -311 -339 0
198 -314 -336 0
198 -311 -364 0
198 -314 -361 0
198 -311 -389 0
198 -314 -386 0
198 -311 -414 0
198 -314 -411 0
198 -336 -364 0
198 -339 -361 0
198 -336 -389 0
198 -339 -386 0
198 -336 -414 0
198 -339 -411 0
198 -361 -389 0
198 -364 -386 0
198 -361 -414 0
198 -364 -411 0
198 -386 -414 0
198 -389 -411 0
199 -311 -340 0
199 -315 -336 0
199 -311 -365 0
199 -315 -361 0
199 -311 -390 0
199 -315 -386 0
199 -311 -415 0
199 -315 -411 0
199 -336 -365 0
199 -340 -361 0
199 -336 -390 0
199 -340 -386 0
199 -336 -415 0
199 -340 -411 0
199 -361 -390 0
199 -365 -386 0
199 -361 -415 0
199 -365 -411 0
199 -386 -415 0
199 -390 -411 0
200 -311 -341 0
200 -316 -336 0
200 -311 -366 0
200 -316 -361 0
200 -311 -391 0
200 -316 -386 0
200 -311 -416 0
200 -316 -411 0
200 -336 -366 0
200 -341 -361 0
200 -336 -391 0
200 -341 -386 0
200 -336 -416 0
200 -341 -411 0
200 -361 -391 0
200 -366 -386 0
200 -361 -416 0
200 -366 -411 0
200 -386 -416 0
200 -391 -411 0
201 -311 -342 0
201 -317 -336 0
201 -311 -367 0
201 -317 -361 0
201 -311 -392 0
201 -317 -386 0
201 -311 -417 0
201 -317 -411 0
201 -336 -367 0
201 -342 -361 0
201 -336 -392 0
201 -342 -386 0
201 -336 -417 0
201 -342 -411 0
201 -361 -392 0
201 -367 -386 0
201 -361 -417 0
201 -367 -411 0
201 -386 -417 0
201 -392 -411 0
202 -311 -343 0
202 -318 -336 0
202 -311 -368 0
202 -318 -361 0
202 -311 -393 0
202 -318 -386 0
202 -311 -418 0
202 -318 -411 0
202 -336 -368 0
202 -343 -361 0
202 -336 -393 0
202 -343 -386 0
202 -336 -418 0
202 -343 -411 0
202 -361 -393 0
202 -368 -386 0
202 -361 -418 0
202 -368 -411 0
202 -386 -418 0
202 -393 -411 0
203 -311 -344 0
203 -319 -336 0
203 -311 -369 0
203 -319 -361 0
203 -311 -394 0
203 -319 -386 0
203 -311 -419 0
203 -319 -411 0
203 -336 -369 0
203 -344 -361 0
203 -336 -394 0
203 -344 -386 0
203 -336 -419 0
203 -344 -411 0
203 -361 -394 0
203 -369 -386 0
203 -361 -419 0
203 -369 -411 0
203 -386 -419 0
203 -394 -411 0
204 -311 -345 0
204 -320 -336 0
204 -311 -370 0
204 -320 -361 0
204 -311 -395 0
204 -320 -386 0
204 -311 -420 0
204 -320 -411 0
204 -336 -370 0
204 -345 -361 0
204 -336 -395 0
204 -345 -386 0
204 -336 -420 0
204 -345 -411 0
204 -361 -395 0
204 -370 -386 0
204 -361 -420 0
204 -370 -411 0
204 -386 -420 0
204 -395 -411 0
205 -311 -346 0
205 -321 -336 0
205 -311 -371 0
205 -321 -361 0
205 -311 -396 0
205 -321 -386 0
205 -311 -421 0
205 -321 -411 0
205 -336 -371 0
205 -346 -361 0
205 -336 -396 0
205 -346 -386 0
205 -336 -421 0
205 -346 -411 0
205 -361 -396 0
205 -371 -386 0
205 -361 -421 0
205 -371 -411 0
205 -386 -421 0
205 -396 -411 0
206 -311 -347 0
206 -322 -336 0
206 -311 -372 0
206 -322 -361 0
206 -311 -397 0
206 -322 -386 0
206 -311 -422 0
206 -322 -411 0
206 -336 -372 0
206 -347 -361 0
206 -336 -397 0
206 -347 -386 0
206 -336 -422 0
206 -347 -411 0
206 -361 -397 0
206 -372 -386 0
206 -361 -422 0
206 -372 -411 0
206 -386 -422 0
206 -397 -411 0
207 -311 -348 0
207 -323 -336 0
207 -311 -373 0
207 -323 -361 0
207 -311 -398 0
207 -323 -386 0
207 -311 -423 0
207 -323 -411 0
207 -336 -373 0
207 -348 -361 0
207 -336 -398 0
207 -348 -386 0
207 -336 -423 0
207 -348 -411 0
207 -361 -398 0
207 -373 -386 0
207 -361 -423 0
207 -373 -411 0
207 -386 -423 0
207 -398 -411 0
208 -311 -349 0
208 -324 -336 0
208 -311 -374 0
208 -324 -361 0
208 -311 -399 0
208 -324 -386 0
208 -311 -424 0
208 -324 -411 0
208 -336 -374 0
208 -349 -361 0
208 -336 -399 0
208 -349 -386 0
208 -336 -424 0
208 -349 -411 0
208 -361 -399 0
208 -374 -386 0
208 -361 -424 0
208 -374 -411 0
208 -386 -424 0
208 -399 -411 0
209 -311 -350 0
209 -325 -336 0
209 -311 -375 0
209 -325 -361 0
209 -311 -400 0
209 -325 -386 0
209 -311 -425 0
209 -325 -411 0
209 -336 -375 0
209 -350 -361 0
209 -336 -400 0
209 -350 -386 0
209 -336 -425 0
209 -350 -411 0
209 -361 -400 0
209 -375 -386 0
209 -361 -425 0
209 -375 -411 0
209 -386 -425 0
209 -400 -411 0
210 -312 -338 0
210 -313 -337 0
210 -312 -363 0
210 -313 -362 0
210 -312 -388 0
210 -313 -387 0
210 -312 -413 0
210 -313 -412 0
210 -337 -363 0
210 -338 -362 0
210 -337 -388 0
210 -338 -387 0
210 -337 -413 0
210 -338 -412 0
210 -362 -388 0
210 -363 -387 0
210 -362 -413 0
210 -363 -412 0
210 -387 -413 0
210 -388 -412 0
211 -312 -339 0
211 -314 -337 0
211 -312 -364 0
211 -314 -362 0
211 -312 -389 0
211 -314 -387 0
211 -312 -414 0
211 -314 -412 0
211 -337 -364 0
211 -339 -362 0
211 -337 -389 0
211 -339 -387 0
211 -337 -414 0
211 -339 -412 0
211 -362 -389 0
211 -364 -387 0
211 -362 -414 0
211 -364 -412 0
211 -387 -414 0
211 -389 -412 0
212 -312 -340 0
212 -315 -337 0
212 -312 -365 0
212 -315 -362 0
212 -312 -390 0
212 -315 -387 0
212 -312 -415 0
212 -315 -412 0
212 -337 -365 0
212 -340 -362 0
212 -337 -390 0
212 -340 -387 0
212 -337 -415 0
212 -340 -412 0
212 -362 -390 0
212 -365 -387 0
212 -362 -415 0
212 -365 -412 0
212 -387 -415 0
212 -390 -412 0
213 -312 -341 0
213 -316 -337 0
213 -312 -366 0
213 -316 -362 0
213 -312 -391 0
213 -316 -387 0
213 -312 -416 0
213 -316 -412 0
213 -337 -366 0
213 -341 -362 0
213 -337 -391 0
213 -341 -387 0
213 -337 -416 0
213 -341 -412 0
213 -362 -391 0
213 -366 -387 0
213 -362 -416 0
213 -366 -412 0
213 -387 -416 0
213 -391 -412 0
214 -312 -342 0
214 -317 -337 0
214 -312 -367 0
214 -317 -362 0
214 -312 -392 0
214 -317 -387 0
214 -312 -417 0
214 -317 -412 0
214 -337 -367 0
214 -342 -362 0
214 -337 -392 0
214 -342 -387 0
214 -337 -417 0
214 -342 -412 0
214 -362 -392 0
214 -367 -387 0
214 -362 -417 0
214 -367 -412 0
214 -387 -417 0
214 -392 -412 0
215 -312 -343 0
215 -318 -337 0
215 -312 -368 0
215 -318 -362 0
215 -312 -393 0
215 -318 -387 0
215 -312 -418 0
215 -318 -412 0
215 -337 -368 0
215 -343 -362 0
215 -337 -393 0
215 -343 -387 0
215 -337 -418 0
215 -343 -412 0
215 -362 -393 0
215 -368 -387 0
215 -362 -418 0
215 -368 -412 0
215 -387 -418 0
215 -393 -412 0
216 -312 -344 0
216 -319 -337 0
216 -312 -369 0
216 -319 -362 0
216 -312 -394 0
216 -319 -387 0
216 -312 -419 0
216 -319 -412 0
216 -337 -369 0
216 -344 -362 0
216 -337 -394 0
216 -344 -387 0
216 -337 -419 0
216 -344 -412 0
216 -362 -394 0
216 -369 -387 0
216 -362 -419 0
216 -369 -412 0
216 -387 -419 0
216 -394 -412 0
217 -312 -345 0
217 -320 -337 0
217 -312 -370 0
217 -320 -362 0
217 -312 -395 0
217 -320 -387 0
217 -312 -420 0
217 -320 -412 0
217 -337 -370 0
217 -345 -362 0
217 -337 -395 0
217 -345 -387 0
217 -337 -420 0
217 -345 -412 0
217 -362 -395 0
217 -370 -387 0
217 -362 -420 0
217 -370 -412 0
217 -387 -420 0
217 -395 -412 0
218 -312 -346 0
218 -321 -337 0
218 -312 -371 0
218 -321 -362 0
218 -312 -396 0
218 -321 -387 0
218 -312 -421 0
218 -321 -412 0
218 -337 -371 0
218 -346 -362 0
218 -337 -396 0
218 -346 -387 0
218 -337 -421 0
218 -346 -412 0
218 -362 -396 0
218 -371 -387 0
218 -362 -421 0
218 -371 -412 0
218 -387 -421 0
218 -396 -412 0
219 -312 -347 0
219 -322 -337 0
219 -312 -372 0
219 -322 -362 0
219 -312 -397 0
219 -322 -387 0
219 -312 -422 0
219 -322 -412 0
219 -337 -372 0
219 -347 -362 0
219 -337 -397 0
219 -347 -387 0
219 -337 -422 0
219 -347 -412 0
219 -362 -397 0
219 -372 -387 0
219 -362 -422 0
219 -372 -412 0
219 -387 -422 0
219 -397 -412 0
220 -312 -348 0
220 -323 -337 0
220 -312 -373 0
220 -323 -362 0
220 -312 -398 0
220 -323 -387 0
220 -312 -423 0
220 -323 -412 0
220 -337 -373 0
220 -348 -362 0
220 -337 -398 0
220 -348 -387 0
220 -337 -423 0
220 -348 -412 0
220 -362 -398 0
220 -373 -387 0
220 -362 -423 0
220 -373 -412 0
220 -387 -423 0
220 -398 -412 0
221 -312 -349 0
221 -324 -337 0
221 -312 -374 0
221 -324 -362 0
221 -312 -399 0
221 -324 -387 0
221 -312 -424 0
221 -324 -412 0
221 -337 -374 0
221 -349 -362 0
221 -337 -399 0
221 -349 -387 0
221 -337 -424 0
221 -349 -412 0
221 -362 -399 0
221 -374 -387 0
221 -362 -424 0
221 -374 -412 0
221 -387 -424 0
221 -399 -412 0
222 -312 -350 0
222 -325 -337 0
222 -312 -375 0
222 -325 -362 0
222 -312 -400 0
222 -325 -387 0
222 -312 -425 0
222 -325 -412 0
222 -337 -375 0
222 -350 -362 0
222 -337 -400 0
222 -350 -387 0
222 -337 -425 0
222 -350 -412 0
222 -362 -400 0
222 -375 -387 0
222 -362 -425 0
222 -375 -412 0
222 -387 -425 0
222 -400 -412 0
223 -313 -339 0
223 -314 -338 0
223 -313 -364 0
223 -314 -363 0
223 -313 -389 0
223 -314 -388 0
223 -313 -414 0
223 -314 -413 0
223 -338 -364 0
223 -339 -363 0
223 -338 -389 0
223 -339 -388 0
223 -338 -414 0
223 -339 -413 0
223 -363 -389 0
223 -364 -388 0
223 -363 -414 0
223 -364 -413 0
223 -388 -414 0
223 -389 -413 0
224 -313 -340 0
224 -315 -338 0
224 -313 -365 0
224 -315 -363 0
224 -313 -390 0
224 -315 -388 0
224 -313 -415 0
224 -315 -413 0
224 -338 -365 0
224 -340 -363 0
224 -338 -390 0
224 -340 -388 0
224 -338 -415 0
224 -340 -413 0
224 -363 -390 0
224 -365 -388 0
224 -363 -415 0
224 -365 -413 0
224 -388 -415 0
224 -390 -413 0
225 -313 -341 0
225 -316 -338 0
225 -313 -366 0
225 -316 -363 0
225 -313 -391 0
225 -316 -388 0
225 -313 -416 0
225 -316 -413 0
225 -338 -366 0
225 -341 -363 0
225 -338 -391 0
225 -341 -388 0
225 -338 -416 0
225 -341 -413 0
225 -363 -391 0
225 -366 -388 0
225 -363 -416 0
225 -366 -413 0
225 -388 -416 0
225 -391 -413 0
226 -313 -342 0
226 -317 -338 0
226 -313 -367 0
226 -317 -363 0
226 -313 -392 0
226 -317 -388 0
226 -313 -417 0
226 -317 -413 0
226 -338 -367 0
226 -342 -363 0
226 -338 -392 0
226 -342 -388 0
226 -338 -417 0
226 -342 -413 0
226 -363 -392 0
226 -367 -388 0
226 -363 -417 0
226 -367 -413 0
226 -388 -417 0
226 -392 -413 0
227 -313 -343 0
227 -318 -338 0
227 -313 -368 0
227 -318 -363 0
227 -313 -393 0
227 -318 -388 0
227 -313 -418 0
227 -318 -413 0
227 -338 -368 0
227 -343 -363 0
227 -338 -393 0
227 -343 -388 0
227 -338 -418 0
227 -343 -413 0
227 -363 -393 0
227 -368 -388 0
227 -363 -418 0
227 -368 -413 0
227 -388 -418 0
227 -393 -413 0
228 -313 -344 0
228 -319 -338 0
228 -313 -369 0
228 -319 -363 0
228 -313 -394 0
228 -319 -388 0
228 -313 -419 0
228 -319 -413 0
228 -338 -369 0
228 -344 -363 0
228 -338 -394 0
228 -344 -388 0
228 -338 -419 0
228 -344 -413 0
228 -363 -394 0
228 -369 -388 0
228 -363 -419 0
228 -369 -413 0
228 -388 -419 0
228 -394 -413 0
229 -313 -345 0
229 -320 -338 0
229 -313 -370 0
229 -320 -363 0
229 -313 -395 0
229 -320 -388 0
229 -313 -420 0
229 -320 -413 0
229 -338 -370 0
229 -345 -363 0
229 -338 -395 0
229 -345 -388 0
229 -338 -420 0
229 -345 -413 0
229 -363 -395 0
229 -370 -388 0
229 -363 -420 0
229 -370 -413 0
229 -388 -420 0
229 -395 -413 0
230 -313 -346 0
230 -321 -338 0
230 -313 -371 0
230 -321 -363 0
230 -313 -396 0
230 -321 -388 0
230 -313 -421 0
230 -321 -413 0
230 -338 -371 0
230 -346 -363 0
230 -338 -396 0
230 -346 -388 0
230 -338 -421 0
230 -346 -413 0
230 -363 -396 0
230 -371 -388 0
230 -363 -421 0
230 -371 -413 0
230 -388 -421 0
230 -396 -413 0
231 -313 -347 0
231 -322 -338 0
231 -313 -372 0
231 -322 -363 0
231 -313 -397 0
231 -322 -388 0
231 -313 -422 0
231 -322 -413 0
231 -338 -372 0
231 -347 -363 0
231 -338 -397 0
231 -347 -388 0
231 -338 -422 0
231 -347 -413 0
231 -363 -397 0
231 -372 -388 0
231 -363 -422 0
231 -372 -413 0
231 -388 -422 0
231 -397 -413 0
232 -313 -348 0
232 -323 -338 0
232 -313 -373 0
232 -323 -363 0
232 -313 -398 0
232 -323 -388 0
232 -313 -423 0
232 -323 -413 0
232 -338 -373 0
232 -348 -363 0
232 -338 -398 0
232 -348 -388 0
232 -338 -423 0
232 -348 -413 0
232 -363 -398 0
232 -373 -388 0
232 -363 -423 0
232 -373 -413 0
232 -388 -423 0
232 -398 -413 0
233 -313 -349 0
233 -324 -338 0
233 -313 -374 0
233 -324 -363 0
233 -313 -399 0
233 -324 -388 0
233 -313 -424 0
233 -324 -413 0
233 -338 -374 0
233 -349 -363 0
233 -338 -399 0
233 -349 -388 0
233 -338 -424 0
233 -349 -413 0
233 -363 -399 0
233 -374 -388 0
233 -363 -424 0
233 -374 -413 0
233 -388 -424 0
233 -399 -413 0
234 -313 -350 0
234 -325 -338 0
234 -313 -375 0
234 -325 -363 0
234 -313 -400 0
234 -325 -388 0
234 -313 -425 0
234 -325 -413 0
234 -338 -375 0
234 -350 -363 0
234 -338 -400 0
234 -350 -388 0
234 -338 -425 0
234 -350 -413 0
234 -363 -400 0
234 -375 -388 0
234 -363 -425 0
234 -375 -413 0
234 -388 -425 0
234 -400 -413 0
235 -314 -340 0
235 -315 -339 0
235 -314 -365 0
235 -315 -364 0
235 -314 -390 0
235 -315 -389 0
235 -314 -415 0
235 -315 -414 0
235 -339 -365 0
235 -340 -364 0
235 -339 -390 0
235 -340 -389 0
235 -339 -415 0
235 -340 -414 0
235 -364 -390 0
235 -365 -389 0
235 -364 -415 0
235 -365 -414 0
235 -389 -415 0
235 -390 -414 0
236 -314 -341 0
236 -316 -339 0
236 -314 -366 0
236 -316 -364 0
236 -314 -391 0
236 -316 -389 0
236 -314 -416 0
236 -316 -414 0
236 -339 -366 0
236 -341 -364 0
236 -339 -391 0
236 -341 -389 0
236 -339 -416 0
236 -341 -414 0
236 -364 -391 0
236 -366 -389 0
236 -364 -416 0
236 -366 -414 0
236 -389 -416 0
236 -391 -414 0
237 -314 -342 0
237 -317 -339 0
237 -314 -367 0
237 -317 -364 0
237 -314 -392 0
237 -317 -389 0
237 -314 -417 0
237 -317 -414 0
237 -339 -367 0
237 -342 -364 0
237 -339 -392 0
237 -342 -389 0
237 -339 -417 0
237 -342 -414 0
237 -364 -392 0
237 -367 -389 0
237 -364 -417 0
237 -367 -414 0
237 -389 -417 0
237 -392 -414 0
238 -314 -343 0
238 -318 -339 0
238 -314 -368 0
238 -318 -364 0
238 -314 -393 0
238 -318 -389 0
238 -314 -418 0
238 -318 -414 0
238 -339 -368 0
238 -343 -364 0
238 -339 -393 0
238 -343 -389 0
238 -339 -418 0
238 -343 -414 0
238 -364 -393 0
238 -368 -389 0
238 -364 -418 0
238 -368 -414 0
238 -389 -418 0
238 -393 -414 0
239 -314 -344 0
239 -319 -339 0
239 -314 -369 0
239 -319 -364 0
239 -314 -394 0
239 -319 -389 0
239 -314 -419 0
239 -319 -414 0
239 -339 -369 0
239 -344 -364 0
239 -339 -394 0
239 -344 -389 0
239 -339 -419 0
239 -344 -414 0
239 -364 -394 0
239 -369 -389 0
239 -364 -419 0
239 -369 -414 0
239 -389 -419 0
239 -394 -414 0
240 -314 -345 0
240 -320 -339 0
240 -314 -370 0
240 -320 -364 0
240 -314 -395 0
240 -320 -389 0
240 -314 -420 0
240 -320 -414 0
240 -339 -370 0
240 -345 -364 0
240 -339 -395 0
240 -345 -389 0
240 -339 -420 0
240 -345 -414 0
240 -364 -395 0
240 -370 -389 0
240 -364 -420 0
240 -370 -414 0
240 -389 -420 0
240 -395 -414 0
241 -314 -346 0
241 -321 -339 0
241 -314 -371 0
241 -321 -364 0
241 -314 -396 0
241 -321 -389 0
241 -314 -421 0
241 -321 -414 0
241 -339 -371 0
241 -346 -364 0
241 -339 -396 0
241 -346 -389 0
241 -339 -421 0
241 -346 -414 0
241 -364 -396 0
241 -371 -389 0
241 -364 -421 0
241 -371 -414 0
241 -389 -421 0
241 -396 -414 0
242 -314 -347 0
242 -322 -339 0
242 -314 -372 0
242 -322 -364 0
242 -314 -397 0
242 -322 -389 0
242 -314 -422 0
242 -322 -414 0
242 -339 -372 0
242 -347 -364 0
242 -339 -397 0
242 -347 -389 0
242 -339 -422 0
242 -347 -414 0
242 -364 -397 0
242 -372 -389 0
242 -364 -422 0
242 -372 -414 0
242 -389 -422 0
242 -397 -414 0
243 -314 -348 0
243 -323 -339 0
243 -314 -373 0
243 -323 -364 0
243 -314 -398 0
243 -323 -389 0
243 -314 -423 0
243 -323 -414 0
243 -339 -373 0
243 -348 -364 0
243 -339 -398 0
243 -348 -389 0
243 -339 -423 0
243 -348 -414 0
243 -364 -398 0
243 -373 -389 0
243 -364 -423 0
243 -373 -414 0
243 -389 -423 0
243 -398 -414 0
244 -314 -349 0
244 -324 -339 0
244 -314 -374 0
244 -324 -364 0
244 -314 -399 0
244 -324 -389 0
244 -314 -424 0
244 -324 -414 0
244 -339 -374 0
244 -349 -364 0
244 -339 -399 0
244 -349 -389 0
244 -339 -424 0
244 -349 -414 0
244 -364 -399 0
244 -374 -389 0
244 -364 -424 0
244 -374 -414 0
244 -389 -424 0
244 -399 -414 0
245 -314 -350 0
245 -325 -339 0
245 -314 -375 0
245 -325 -364 0
245 -314 -400 0
245 -325 -389 0
245 -314 -425 0
245 -325 -414 0
245 -339 -375 0
245 -350 -364 0
245 -339 -400 0
245 -350 -389 0
245 -339 -425 0
245 -350 -414 0
245 -364 -400 0
245 -375 -389 0
245 -364 -425 0
245 -375 -414 0
245 -389 -425 0
245 -400 -414 0
246 -315 -341 0
246 -316 -340 0
246 -315 -366 0
246 -316 -365 0
246 -315 -391 0
246 -316 -390 0
246 -315 -416 0
246 -316 -415 0
246 -340 -366 0
246 -341 -365 0
246 -340 -391 0
246 -341 -390 0
246 -340 -416 0
246 -341 -415 0
246 -365 -391 0
246 -366 -390 0
246 -365 -416 0
246 -366 -415 0
246 -390 -416 0
246 -391 -415 0
247 -315 -342 0
247 -317 -340 0
247 -315 -367 0
247 -317 -365 0
247 -315 -392 0
247 -317 -390 0
247 -315 -417 0
247 -317 -415 0
247 -340 -367 0
247 -342 -365 0
247 -340 -392 0
247 -342 -390 0
247 -340 -417 0
247 -342 -415 0
247 -365 -392 0
247 -367 -390 0
247 -365 -417 0
247 -367 -415 0
247 -390 -417 0
247 -392 -415 0
248 -315 -343 0
248 -318 -340 0
248 -315 -368 0
248 -318 -365 0
248 -315 -393 0
248 -318 -390 0
248 -315 -418 0
248 -318 -415 0
248 -340 -368 0
248 -343 -365 0
248 -340 -393 0
248 -343 -390 0
248 -340 -418 0
248 -343 -415 0
248 -365 -393 0
248 -368 -390 0
248 -365 -418 0
248 -368 -415 0
248 -390 -418 0
248 -393 -415 0
249 -315 -344 0
249 -319 -340 0
249 -315 -369 0
249 -319 -365 0
249 -315 -394 0
249 -319 -390 0
249 -315 -419 0
249 -319 -415 0
249 -340 -369 0
249 -344 -365 0
249 -340 -394 0
249 -344 -390 0
249 -340 -419 0
249 -344 -415 0
249 -365 -394 0
249 -369 -390 0
249 -365 -419 0
249 -369 -415 0
249 -390 -419 0
249 -394 -415 0
250 -315 -345 0
250 -320 -340 0
250 -315 -370 0
250 -320 -365 0
250 -315 -395 0
250 -320 -390 0
250 -315 -420 0
250 -320 -415 0
250 -340 -370 0
250 -345 -365 0
250 -340 -395 0
250 -345 -390 0
250 -340 -420 0
250 -345 -415 0
250 -365 -395 0
250 -370 -390 0
250 -365 -420 0
250 -370 -415 0
250 -390 -420 0
250 -395 -415 0
251 -315 -346 0
251 -321 -340 0
251 -315 -371 0
251 -321 -365 0
251 -315 -396 0
251 -321 -390 0
251 -315 -421 0
251 -321 -415 0
251 -340 -371 0
251 -346 -365 0
251 -340 -396 0
251 -346 -390 0
251 -340 -421 0
251 -346 -415 0
251 -365 -396 0
251 -371 -390 0
251 -365 -421 0
251 -371 -415 0
251 -390 -421 0
251 -396 -415 0
252 -315 -347 0
252 -322 -340 0
252 -315 -372 0
252 -322 -365 0
252 -315 -397 0
252 -322 -390 0
252 -315 -422 0
252 -322 -415 0
252 -340 -372 0
252 -347 -365 0
252 -340 -397 0
252 -347 -390 0
252 -340 -422 0
252 -347 -415 0
252 -365 -397 0
252 -372 -390 0
252 -365 -422 0
252 -372 -415 0
252 -390 -422 0
252 -397 -415 0
253 -315 -348 0
253 -323 -340 0
253 -315 -373 0
253 -323 -365 0
253 -315 -398 0
253 -323 -390 0
253 -315 -423 0
253 -323 -415 0
253 -340 -373 0
253 -348 -365 0
253 -340 -398 0
253 -348 -390 0
253 -340 -423 0
253 -348 -415 0
253 -365 -398 0
253 -373 -390 0
253 -365 -423 0
253 -373 -415 0
253 -390 -423 0
253 -398 -415 0
254 -315 -349 0
254 -324 -340 0
254 -315 -374 0
254 -324 -365 0
254 -315 -399 0
254 -324 -390 0
254 -315 -424 0
254 -324 -415 0
254 -340 -374 0
254 -349 -365 0
254 -340 -399 0
254 -349 -390 0
254 -340 -424 0
254 -349 -415 0
254 -365 -399 0
254 -374 -390 0
254 -365 -424 0
254 -374 -415 0
254 -390 -424 0
254 -399 -415 0
255 -315 -350 0
255 -325 -340 0
255 -315 -375 0
255 -325 -365 0
255 -315 -400 0
255 -325 -390 0
255 -315 -425 0
255 -325 -415 0
255 -340 -375 0
255 -350 -365 0
255 -340 -400 0
255 -350 -390 0
255 -340 -425 0
255 -350 -415 0
255 -365 -400 0
255 -375 -390 0
255 -365 -425 0
255 -375 -415 0
255 -390 -425 0
255 -400 -415 0
256 -316 -342 0
256 -317 -341 0
256 -316 -367 0
256 -317 -366 0
256 -316 -392 0
256 -317 -391 0
256 -316 -417 0
256 -317 -416 0
256 -341 -367 0
256 -342 -366 0
256 -341 -392 0
256 -342 -391 0
256 -341 -417 0
256 -342 -416 0
256 -366 -392 0
256 -367 -391 0
256 -366 -417 0
256 -367 -416 0
256 -391 -417 0
256 -392 -416 0
257 -316 -343 0
257 -318 -341 0
257 -316 -368 0
257 -318 -366 0
257 -316 -393 0
257 -318 -391 0
257 -316 -418 0
257 -318 -416 0
257 -341 -368 0
257 -343 -366 0
257 -341 -393 0
257 -343 -391 0
257 -341 -418 0
257 -343 -416 0
257 -366 -393 0
257 -368 -391 0
257 -366 -418 0
257 -368 -416 0
257 -391 -418 0
257 -393 -416 0
258 -316 -344 0
258 -319 -341 0
258 -316 -369 0
258 -319 -366 0
258 -316 -394 0
258 -319 -391 0
258 -316 -419 0
258 -319 -416 0
258 -341 -369 0
258 -344 -366 0
258 -341 -394 0
258 -344 -391 0
258 -341 -419 0
258 -344 -416 0
258 -366 -394 0
258 -369 -391 0
258 -366 -419 0
258 -369 -416 0
258 -391 -419 0
258 -394 -416 0
259 -316 -345 0
259 -320 -341 0
259 -316 -370 0
259 -320 -366 0
259 -316 -395 0
259 -320 -391 0
259 -316 -420 0
259 -320 -416 0
259 -341 -370 0
259 -345 -366 0
259 -341 -395 0
259 -345 -391 0
259 -341 -420 0
259 -345 -416 0
259 -366 -395 0
259 -370 -391 0
259 -366 -420 0
259 -370 -416 0
259 -391 -420 0
259 -395 -416 0
260 -316 -346 0
260 -321 -341 0
260 -316 -371 0
260 -321 -366 0
260 -316 -396 0
260 -321 -391 0
260 -316 -421 0
260 -321 -416 0
260 -341 -371 0
260 -346 -366 0
260 -341 -396 0
260 -346 -391 0
260 -341 -421 0
260 -346 -416 0
260 -366 -396 0
260 -371 -391 0
260 -366 -421 0
260 -371 -416 0
260 -391 -421 0
260 -396 -416 0
261 -316 -347 0
261 -322 -341 0
261 -316 -372 0
261 -322 -366 0
261 -316 -397 0
261 -322 -391 0
261 -316 -422 0
261 -322 -416 0
261 -341 -372 0
261 -347 -366 0
261 -341 -397 0
261 -347 -391 0
261 -341 -422 0
261 -347 -416 0
261 -366 -397 0
261 -372 -391 0
261 -366 -422 0
261 -372 -416 0
261 -391 -422 0
261 -397 -416 0
262 -316 -348 0
262 -323 -341 0
262 -316 -373 0
262 -323 -366 0
262 -316 -398 0
262 -323 -391 0
262 -316 -423 0
262 -323 -416 0
262 -341 -373 0
262 -348 -366 0
262 -341 -398 0
262 -348 -391 0
262 -341 -423 0
262 -348 -416 0
262 -366 -398 0
262 -373 -391 0
262 -366 -423 0
262 -373 -416 0
262 -391 -423 0
262 -398 -416 0
263 -316 -349 0
263 -324 -341 0
263 -316 -374 0
263 -324 -366 0
263 -316 -399 0
263 -324 -391 0
263 -316 -424 0
263 -324 -416 0
263 -341 -374 0
263 -349 -366 0
263 -341 -399 0
263 -349 -391 0
263 -341 -424 0
263 -349 -416 0
263 -366 -399 0
263 -374 -391 0
263 -366 -424 0
263 -374 -416 0
263 -391 -424 0
263 -399 -416 0
264 -316 -350 0
264 -325 -341 0
264 -316 -375 0
264 -325 -366 0
264 -316 -400 0
264 -325 -391 0
264 -316 -425 0
264 -325 -416 0
264 -341 -375 0
264 -350 -366 0
264 -341 -400 0
264 -350 -391 0
264 -341 -425 0
264 -350 -416 0
264 -366 -400 0
264 -375 -391 0
264 -366 -425 0
264 -375 -416 0
264 -391 -425 0
264 -400 -416 0
265 -317 -343 0
265 -318 -342 0
265 -317 -368 0
265 -318 -367 0
265 -317 -393 0
265 -318 -392 0
265 -317 -418 0
265 -318 -417 0
265 -342 -368 0
265 -343 -367 0
265 -342 -393 0
265 -343 -392 0
265 -342 -418 0
265 -343 -417 0
265 -367 -393 0
265 -368 -392 0
265 -367 -418 0
265 -368 -417 0
265 -392 -418 0
265 -393 -417 0
266 -317 -344 0
266 -319 -342 0
266 -317 -369 0
266 -319 -367 0
266 -317 -394 0
266 -319 -392 0
266 -317 -419 0
266 -319 -417 0
266 -342 -369 0
266 -344 -367 0
266 -342 -394 0
266 -344 -392 0
266 -342 -419 0
266 -344 -417 0
266 -367 -394 0
266 -369 -392 0
266 -367 -419 0
266 -369 -417 0
266 -392 -419 0
266 -394 -417 0
267 -317 -345 0
267 -320 -342 0
267 -317 -370 0
267 -320 -367 0
267 -317 -395 0
267 -320 -392 0
267 -317 -420 0
267 -320 -417 0
267 -342 -370 0
267 -345 -367 0
267 -342 -395 0
267 -345 -392 0
267 -342 -420 0
267 -345 -417 0
267 -367 -395 0
267 -370 -392 0
267 -367 -420 0
267 -370 -417 0
267 -392 -420 0
267 -395 -417 0
268 -317 -346 0
268 -321 -342 0
268 -317 -371 0
268 -321 -367 0
268 -317 -396 0
268 -321 -392 0
268 -317 -421 0
268 -321 -417 0
268 -342 -371 0
268 -346 -367 0
268 -342 -396 0
268 -346 -392 0
268 -342 -421 0
268 -346 -417 0
268 -367 -396 0
268 -371 -392 0
268 -367 -421 0
268 -371 -417 0
268 -392 -421 0
268 -396 -417 0
269 -317 -347 0
269 -322 -342 0
269 -317 -372 0
269 -322 -367 0
269 -317 -397 0
269 -322 -392 0
269 -317 -422 0
269 -322 -417 0
269 -342 -372 0
269 -347 -367 0
269 -342 -397 0
269 -347 -392 0
269 -342 -422 0
269 -347 -417 0
269 -367 -397 0
269 -372 -392 0
269 -367 -422 0
269 -372 -417 0
269 -392 -422 0
269 -397 -417 0
270 -317 -348 0
270 -323 -342 0
270 -317 -373 0
270 -323 -367 0
270 -317 -398 0
270 -323 -392 0
270 -317 -423 0
270 -323 -417 0
270 -342 -373 0
270 -348 -367 0
270 -342 -398 0
270 -348 -392 0
270 -342 -423 0
270 -348 -417 0
270 -367 -398 0
270 -373 -392 0
270 -367 -423 0
270 -373 -417 0
270 -392 -423 0
270 -398 -417 0
271 -317 -349 0
271 -324 -342 0
271 -317 -374 0
271 -324 -367 0
271 -317 -399 0
271 -324 -392 0
271 -317 -424 0
271 -324 -417 0
271 -342 -374 0
271 -349 -367 0
271 -342 -399 0
271 -349 -392 0
271 -342 -424 0
271 -349 -417 0
271 -367 -399 0
271 -374 -392 0
271 -367 -424 0
271 -374 -417 0
271 -392 -424 0
271 -399 -417 0
272 -317 -350 0
272 -325 -342 0
272 -317 -375 0
272 -325 -367 0
272 -317 -400 0
272 -325 -392 0
272 -317 -425 0
272 -325 -417 0
272 -342 -375 0
272 -350 -367 0
272 -342 -400 0
272 -350 -392 0
272 -342 -425 0
272 -350 -417 0
272 -367 -400 0
272 -375 -392 0
272 -367 -425 0
272 -375 -417 0
272 -392 -425 0
272 -400 -417 0
273 -318 -344 0
273 -319 -343 0
273 -318 -369 0
273 -319 -368 0
273 -318 -394 0
273 -319 -393 0
273 -318 -419 0
273 -319 -418 0
273 -343 -369 0
273 -344 -368 0
273 -343 -394 0
273 -344 -393 0
273 -343 -419 0
273 -344 -418 0
273 -368 -394 0
273 -369 -393 0
273 -368 -419 0
273 -369 -418 0
273 -393 -419 0
273 -394 -418 0
274 -318 -345 0
274 -320 -343 0
274 -318 -370 0
274 -320 -368 0
274 -318 -395 0
274 -320 -393 0
274 -318 -420 0
274 -320 -418 0
274 -343 -370 0
274 -345 -368 0
274 -343 -395 0
274 -345 -393 0
274 -343 -420 0
274 -345 -418 0
274 -368 -395 0
274 -370 -393 0
274 -368 -420 0
274 -370 -418 0
274 -393 -420 0
274 -395 -418 0
275 -318 -346 0
275 -321 -343 0
275 -318 -371 0
275 -321 -368 0
275 -318 -396 0
275 -321 -393 0
275 -318 -421 0
275 -321 -418 0
275 -343 -371 0
275 -346 -368 0
275 -343 -396 0
275 -346 -393 0
275 -343 -421 0
275 -346 -418 0
275 -368 -396 0
275 -371 -393 0
275 -368 -421 0
275 -371 -418 0
275 -393 -421 0
275 -396 -418 0
276 -318 -347 0
276 -322 -343 0
276 -318 -372 0
276 -322 -368 0
276 -318 -397 0
276 -322 -393 0
276 -318 -422 0
276 -322 -418 0
276 -343 -372 0
276 -347 -368 0
276 -343 -397 0
276 -347 -393 0
276 -343 -422 0
276 -347 -418 0
276 -368 -397 0
276 -372 -393 0
276 -368 -422 0
276 -372 -418 0
276 -393 -422 0
276 -397 -418 0
277 -318 -348 0
277 -323 -343 0
277 -318 -373 0
277 -323 -368 0
277 -318 -398 0
277 -323 -393 0
277 -318 -423 0
277 -323 -418 0
277 -343 -373 0
277 -348 -368 0
277 -343 -398 0
277 -348 -393 0
277 -343 -423 0
277 -348 -418 0
277 -368 -398 0
277 -373 -393 0
277 -368 -423 0
277 -373 -418 0
277 -393 -423 0
277 -398 -418 0
278 -318 -349 0
278 -324 -343 0
278 -318 -374 0
278 -324 -368 0
278 -318 -399 0
278 -324 -393 0
278 -318 -424 0
278 -324 -418 0
278 -343 -374 0
278 -349 -368 0
278 -343 -399 0
278 -349 -393 0
278 -343 -424 0
278 -349 -418 0
278 -368 -399 0
278 -374 -393 0
278 -368 -424 0
278 -374 -418 0
278 -393 -424 0
278 -399 -418 0
279 -318 -350 0
279 -325 -343 0
279 -318 -375 0
279 -325 -368 0
279 -318 -400 0
279 -325 -393 0
279 -318 -425 0
279 -325 -418 0
279 -343 -375 0
279 -350 -368 0
279 -343 -400 0
279 -350 -393 0
279 -343 -425 0
279 -350 -418 0
279 -368 -400 0
279 -375 -393 0
279 -368 -425 0
279 -375 -418 0
279 -393 -425 0
279 -400 -418 0
280 -319 -345 0
280 -320 -344 0
280 -319 -370 0
280 -320 -369 0
280 -319 -395 0
280 -320 -394 0
280 -319 -420 0
280 -320 -419 0
280 -344 -370 0
280 -345 -369 0
280 -344 -395 0
280 -345 -394 0
280 -344 -420 0
280 -345 -419 0
280 -369 -395 0
280 -370 -394 0
280 -369 -420 0
280 -370 -419 0
280 -394 -420 0
280 -395 -419 0
281 -319 -346 0
281 -321 -344 0
281 -319 -371 0
281 -321 -369 0
281 -319 -396 0
281 -321 -394 0
281 -319 -421 0
281 -321 -419 0
281 -344 -371 0
281 -346 -369 0
281 -344 -396 0
281 -346 -394 0
281 -344 -421 0
281 -346 -419 0
281 -369 -396 0
281 -371 -394 0
281 -369 -421 0
281 -371 -419 0
281 -394 -421 0
281 -396 -419 0
282 -319 -347 0
282 -322 -344 0
282 -319 -372 0
282 -322 -369 0
282 -319 -397 0
282 -322 -394 0
282 -319 -422 0
282 -322 -419 0
282 -344 -372 0
282 -347 -369 0
282 -344 -397 0
282 -347 -394 0
282 -344 -422 0
282 -347 -419 0
282 -369 -397 0
282 -372 -394 0
282 -369 -422 0
282 -372 -419 0
282 -394 -422 0
282 -397 -419 0
283 -319 -348 0
283 -323 -344 0
283 -319 -373 0
283 -323 -369 0
283 -319 -398 0
283 -323 -394 0
283 -319 -423 0
283 -323 -419 0
283 -344 -373 0
283 -348 -369 0
283 -344 -398 0
283 -348 -394 0
283 -344 -423 0
283 -348 -419 0
283 -369 -398 0
283 -373 -394 0
283 -369 -423 0
283 -373 -419 0
283 -394 -423 0
283 -398 -419 0
284 -319 -349 0
284 -324 -344 0
284 -319 -374 0
284 -324 -369 0
284 -319 -399 0
284 -324 -394 0
284 -319 -424 0
284 -324 -419 0
284 -344 -374 0
284 -349 -369 0
284 -344 -399 0
284 -349 -394 0
284 -344 -424 0
284 -349 -419 0
284 -369 -399 0
284 -374 -394 0
284 -369 -424 0
284 -374 -419 0
284 -394 -424 0
284 -399 -419 0
285 -319 -350 0
285 -325 -344 0
285 -319 -375 0
285 -325 -369 0
285 -319 -400 0
285 -325 -394 0
285 -319 -425 0
285 -325 -419 0
285 -344 -375 0
285 -350 -369 0
285 -344 -400 0
285 -350 -394 0
285 -344 -425 0
285 -350 -419 0
285 -369 -400 0
285 -375 -394 0
285 -369 -425 0
285 -375 -419 0
285 -394 -425 0
285 -400 -419 0
286 -320 -346 0
286 -321 -345 0
286 -320 -371 0
286 -321 -370 0
286 -320 -396 0
286 -321 -395 0
286 -320 -421 0
286 -321 -420 0
286 -345 -371 0
286 -346 -370 0
286 -345 -396 0
286 -346 -395 0
286 -345 -421 0
286 -346 -420 0
286 -370 -396 0
286 -371 -395 0
286 -370 -421 0
286 -371 -420 0
286 -395 -421 0
286 -396 -420 0
287 -320 -347 0
287 -322 -345 0
287 -320 -372 0
287 -322 -370 0
287 -320 -397 0
287 -322 -395 0
287 -320 -422 0
287 -322 -420 0
287 -345 -372 0
287 -347 -370 0
287 -345 -397 0
287 -347 -395 0
287 -345 -422 0
287 -347 -420 0
287 -370 -397 0
287 -372 -395 0
287 -370 -422 0
287 -372 -420 0
287 -395 -422 0
287 -397 -420 0
288 -320 -348 0
288 -323 -345 0
288 -320 -373 0
288 -323 -370 0
288 -320 -398 0
288 -323 -395 0
288 -320 -423 0
288 -323 -420 0
288 -345 -373 0
288 -348 -370 0
288 -345 -398 0
288 -348 -395 0
288 -345 -423 0
288 -348 -420 0
288 -370 -398 0
288 -373 -395 0
288 -370 -423 0
288 -373 -420 0
288 -395 -423 0
288 -398 -420 0
289 -320 -349 0
289 -324 -345 0
289 -320 -374 0
289 -324 -370 0
289 -320 -399 0
289 -324 -395 0
289 -320 -424 0
289 -324 -420 0
289 -345 -374 0
289 -349 -370 0
289 -345 -399 0
289 -349 -395 0
289 -345 -424 0
289 -349 -420 0
289 -370 -399 0
289 -374 -395 0
289 -370 -424 0
289 -374 -420 0
289 -395 -424 0
289 -399 -420 0
290 -320 -350 0
290 -325 -345 0
290 -320 -375 0
290 -325 -370 0
290 -320 -400 0
290 -325 -395 0
290 -320 -425 0
290 -325 -420 0
290 -345 -375 0
290 -350 -370 0
290 -345 -400 0
290 -350 -395 0
290 -345 -425 0
290 -350 -420 0
290 -370 -400 0
290 -375 -395 0
290 -370 -425 0
290 -375 -420 0
290 -395 -425 0
290 -400 -420 0
291 -321 -347 0
291 -322 -346 0
291 -321 -372 0
291 -322 -371 0
291 -321 -397 0
291 -322 -396 0
291 -321 -422 0
291 -322 -421 0
291 -346 -372 0
291 -347 -371 0
291 -346 -397 0
291 -347 -396 0
291 -346 -422 0
291 -347 -421 0
291 -371 -397 0
291 -372 -396 0
291 -371 -422 0
291 -372 -421 0
291 -396 -422 0
291 -397 -421 0
292 -321 -348 0
292 -323 -346 0
292 -321 -373 0
292 -323 -371 0
292 -321 -398 0
292 -323 -396 0
292 -321 -423 0
292 -323 -421 0
292 -346 -373 0
292 -348 -371 0
292 -346 -398 0
292 -348 -396 0
292 -346 -423 0
292 -348 -421 0
292 -371 -398 0
292 -373 -396 0
292 -371 -423 0
292 -373 -421 0
292 -396 -423 0
292 -398 -421 0
293 -321 -349 0
293 -324 -346 0
293 -321 -374 0
293 -324 -371 0
293 -321 -399 0
293 -324 -396 0
293 -321 -424 0
293 -324 -421 0
293 -346 -374 0
293 -349 -371 0
293 -346 -399 0
293 -349 -396 0
293 -346 -424 0
293 -349 -421 0
293 -371 -399 0
293 -374 -396 0
293 -371 -424 0
293 -374 -421 0
293 -396 -424 0
293 -399 -421 0
294 -321 -350 0
294 -325 -346 0
294 -321 -375 0
294 -325 -371 0
294 -321 -400 0
294 -325 -396 0
294 -321 -425 0
294 -325 -421 0
294 -346 -375 0
294 -350 -371 0
294 -346 -400 0
294 -350 -396 0
294 -346 -425 0
294 -350 -421 0
294 -371 -400 0
294 -375 -396 0
294 -371 -425 0
294 -375 -421 0
294 -396 -425 0
294 -400 -421 0
295 -322 -348 0
295 -323 -347 0
295 -322 -373 0
295 -323 -372 0
295 -322 -398 0
295 -323 -397 0
295 -322 -423 0
295 -323 -422 0
295 -347 -373 0
295 -348 -372 0
295 -347 -398 0
295 -348 -397 0
295 -347 -423 0
295 -348 -422 0
295 -372 -398 0
295 -373 -397 0
295 -372 -423 0
295 -373 -422 0
295 -397 -423 0
295 -398 -422 0
296 -322 -349 0
296 -324 -347 0
296 -322 -374 0
296 -324 -372 0
296 -322 -399 0
296 -324 -397 0
296 -322 -424 0
296 -324 -422 0
296 -347 -374 0
296 -349 -372 0
296 -347 -399 0
296 -349 -397 0
296 -347 -424 0
296 -349 -422 0
296 -372 -399 0
296 -374 -397 0
296 -372 -424 0
296 -374 -422 0
296 -397 -424 0
296 -399 -422 0
297 -322 -350 0
297 -325 -347 0
297 -322 -375 0
297 -325 -372 0
297 -322 -400 0
297 -325 -397 0
297 -322 -425 0
297 -325 -422 0
297 -347 -375 0
297 -350 -372 0
297 -347 -400 0
297 -350 -397 0
297 -347 -425 0
297 -350 -422 0
297 -372 -400 0
297 -375 -397 0
297 -372 -425 0
297 -375 -422 0
297 -397 -425 0
297 -400 -422 0
298 -323 -349 0
298 -324 -348 0
298 -323 -374 0
298 -324 -373 0
298 -323 -399 0
298 -324 -398 0
298 -323 -424 0
298 -324 -423 0
298 -348 -374 0
298 -349 -373 0
298 -348 -399 0
298 -349 -398 0
298 -348 -424 0
298 -349 -423 0
298 -373 -399 0
298 -374 -398 0
298 -373 -424 0
298 -374 -423 0
298 -398 -424 0
298 -399 -423 0
299 -323 -350 0
299 -325 -348 0
299 -323 -375 0
299 -325 -373 0
299 -323 -400 0
299 -325 -398 0
299 -323 -425 0
299 -325 -423 0
299 -348 -375 0
299 -350 -373 0
299 -348 -400 0
299 -350 -398 0
299 -348 -425 0
299 -350 -423 0
299 -373 -400 0
299 -375 -398 0
299 -373 -425 0
299 -375 -423 0
299 -398 -425 0
299 -400 -423 0
300 -324 -350 0
300 -325 -349 0
300 -324 -375 0
300 -325 -374 0
300 -324 -400 0
300 -325 -399 0
300 -324 -425 0
300 -325 -424 0
300 -349 -375 0
300 -350 -374 0
300 -349 -400 0
300 -350 -399 0
300 -349 -425 0
300 -350 -424 0
300 -374 -400 0
300 -375 -399 0
300 -374 -425 0
300 -375 -424 0
300 -399 -425 0
300 -400 -424 0
426 427 428 429 0
430 431 432 433 0
434 435 436 437 0
438 439 440 441 0
442 443 444 445 0
446 447 448 449 0
450 451 452 453 0
454 455 456 457 0
458 459 460 461 0
462 463 464 465 0
466 467 468 469 0
470 471 472 473 0
474 475 476 477 0
478 479 480 481 0
482 483 484 485 0
486 487 488 489 0
490 491 492 493 0
494 495 496 497 0
498 499 500 501 0
502 503 504 505 0
506 507 508 509 0
510 511 512 513 0
514 515 516 517 0
518 519 520 521 0
522 523 524 525 0
-426 -427 0
-426 -428 0
-426 -429 0
-427 -428 0
-427 -429 0
-428 -429 0
-430 -431 0
-430 -432 0
-430 -433 0
-431 -432 0
-431 -433 0
-432 -433 0
-434 -435 0
-434 -436 0
-434 -437 0
-435 -436 0
-435 -437 0
-436 -437 0
-438 -439 0
-438 -440 0
-438 -441 0
-439 -440 0
-439 -441 0
-440 -441 0
-442 -443 0
-442 -444 0
-442 -445 0
-443 -444 0
-443 -445 0
-444 -445 0
-446 -447 0
-446 -448 0
-446 -449 0
-447 -448 0
-447 -449 0
-448 -449 0
-450 -451 0
-450 -452 0
-450 -453 0
-451 -452 0
-451 -453 0
-452 -453 0
-454 -455 0
-454 -456 0
-454 -457 0
-455 -456 0
-455 -457 0
-456 -457 0
-458 -459 0
-458 -460 0
-458 -461 0
-459 -460 0
-459 -461 0
-460 -461 0
-462 -463 0
-462 -464 0
-462 -465 0
-463 -464 0
-463 -465 0
-464 -465 0
-466 -467 0
-466 -468 0
-466 -469 0
-467 -468 0
-467 -469 0
-468 -469 0
-470 -471 0
-470 -472 0
-470 -473 0
-471 -472 0
-471 -473 0
-472 -473 0
-474 -475 0
-474 -476 0
-474 -477 0
-475 -476 0
-475 -477 0
-476 -477 0
-478 -479 0
-478 -480 0
-478 -481 0
-479 -480 0
-479 -481 0
-480 -481 0
-482 -483 0
-482 -484 0
-482 -485 0
-483 -484 0
-483 -485 0
-484 -485 0
-486 -487 0
-486 -488 0
-486 -489 0
-487 -488 0
-487 -489 0
-488 -489 0
-490 -491 0
-490 -492 0
-490 -493 0
-491 -492 0
-491 -493 0
-492 -493 0
-494 -495 0
-494 -496 0
-494 -497 0
-495 -496 0
-495 -497 0
-496 -497 0
-498 -499 0
-498 -500 0
-498 -501 0
-499 -500 0
-499 -501 0
-500 -501 0
-502 -503 0
-502 -504 0
-502 -505 0
-503 -504 0
-503 -505 0
-504 -505 0
-506 -507 0
-506 -508 0
-506 -509 0
-507 -508 0
-507 -509 0
-508 -509 0
-510 -511 0
-510 -512 0
-510 -513 0
-511 -512 0
-511 -513 0
-512 -513 0
-514 -515 0
-514 -516 0
-514 -517 0
-515 -516 0
-515 -517 0
-516 -517 0
-518 -519 0
-518 -520 0
-518 -521 0
-519 -520 0
-519 -521 0
-520 -521 0
-522 -523 0
-522 -524 0
-522 -525 0
-523 -524 0
-523 -525 0
-524 -525 0
-1 -426 -430 0
-1 -427 -431 0
-1 -428 -432 0
-1 -429 -433 0
-2 -426 -434 0
-2 -427 -435 0
-2 -428 -436 0
-2 -429 -437 0
-3 -426 -438 0
-3 -427 -439 0
-3 -428 -440 0
-3 -429 -441 0
-4 -426 -442 0
-4 -427 -443 0
-4 -428 -444 0
-4 -429 -445 0
-5 -426 -446 0
-5 -427 -447 0
-5 -428 -448 0
-5 -429 -449 0
-6 -426 -450 0
-6 -427 -451 0
-6 -428 -452 0
-6 -429 -453 0
-7 -426 -454 0
-7 -427 -455 0
-7 -428 -456 0
-7 -429 -457 0
-8 -426 -458 0
-8 -427 -459 0
-8 -428 -460 0
-8 -429 -461 0
-9 -426 -462 0
-9 -427 -463 0
-9 -428 -464 0
-9 -429 -465 0
-10 -426 -466 0
-10 -427 -467 0
-10 -428 -468 0
-10 -429 -469 0
-11 -426 -470 0
-11 -427 -471 0
-11 -428 -472 0
-11 -429 -473 0
-12 -426 -474 0
-12 -427 -475 0
-12 -428 -476 0
-12 -429 -477 0
-13 -426 -478 0
-13 -427 -479 0
-13 -428 -480 0
-13 -429 -481 0
-14 -426 -482 0
-14 -427 -483 0
-14 -428 -484 0
-14 -429 -485 0
-15 -426 -486 0
-15 -427 -487 0
-15 -428 -488 0
-15 -429 -489 0
-16 -426 -490 0
-16 -427 -491 0
-16 -428 -492 0
-16 -429 -493 0
-17 -426 -494 0
-17 -427 -495 0
-17 -428 -496 0
-17 -429 -497 0
-18 -426 -498 0
-18 -427 -499 0
-18 -428 -500 0
-18 -429 -501 0
-19 -426 -502 0
-19 -427 -503 0
-19 -428 -504 0
-19 -429 -505 0
-20 -426 -506 0
-20 -427 -507 0
-20 -428 -508 0
-20 -429 -509 0
-21 -426 -510 0
-21 -427 -511 0
-21 -428 -512 0
-21 -429 -513 0
-22 -426 -514 0
-22 -427 -515 0
-22 -428 -516 0
-22 -429 -517 0
-23 -426 -518 0
-23 -427 -519 0
-23 -428 -520 0
-23 -429 -521 0
-24 -426 -522 0
-24 -427 -523 0
-24 -428 -524 0
-24 -429 -525 0
-25 -430 -434 0
-25 -431 -435 0
-25 -432 -436 0
-25 -433 -437 0
-26 -430 -438 0
-26 -431 -439 0
-26 -432 -440 0
-26 -433 -441 0
-27 -430 -442 0
-27 -431 -443 0
-27 -432 -444 0
-27 -433 -445 0
-28 -430 -446 0
-28 -431 -447 0
-28 -432 -448 0
-28 -433 -449 0
-29 -430 -450 0
-29 -431 -451 0
-29 -432 -452 0
-29 -433 -453 0
-30 -430 -454 0
-30 -431 -455 0
-30 -432 -456 0
-30 -433 -457 0
-31 -430 -458 0
-31 -431 -459 0
-31 -432 -460 0
-31 -433 -461 0
-32 -430 -462 0
-32 -431 -463 0
-32 -432 -464 0
-32 -433 -465 0
-33 -430 -466 0
-33 -431 -467 0
-33 -432 -468 0
-33 -433 -469 0
-34 -430 -470 0
-34 -431 -471 0
-34 -432 -472 0
-34 -433 -473 0
-35 -430 -474 0
-35 -431 -475 0
-35 -432 -476 0
-35 -433 -477 0
-36 -430 -478 0
-36 -431 -479 0
-36 -432 -480 0
-36 -433 -481 0
-37 -430 -482 0
-37 -431 -483 0
-37 -432 -484 0
-37 -433 -485 0
-38 -430 -486 0
-38 -431 -487 0
-38 -432 -488 0
-38 -433 -489 0
-39 -430 -490 0
-39 -431 -491 0
-39 -432 -492 0
-39 -433 -493 0
-40 -430 -494 0
-40 -431 -495 0
-40 -432 -496 0
-40 -433 -497 0
-41 -430 -498 0
-41 -431 -499 0
-41 -432 -500 0
-41 -433 -501 0
-42 -430 -502 0
-42 -431 -503 0
-42 -432 -504 0
-42 -433 -505 0
-43 -430 -506 0
-43 -431 -507 0
-43 -432 -508 0
-43 -433 -509 0
-44 -430 -510 0
-44 -431 -511 0
-44 -432 -512 0
-44 -433 -513 0
-45 -430 -514 0
-45 -431 -515 0
-45 -432 -516 0
-45 -433 -517 0
-46 -430 -518 0
-46 -431 -519 0
-46 -432 -520 0
-46 -433 -521 0
-47 -430 -522 0
-47 -431 -523 0
-47 -432 -524 0
-47 -433 -525 0
-48 -434 -438 0
-48 -435 -439 0
-48 -436 -440 0
-48 -437 -441 0
-49 -434 -442 0
-49 -435 -443 0
-49 -436 -444 0
-49 -437 -445 0
-50 -434 -446 0
-50 -435 -447 0
-50 -436 -448 0
-50 -437 -449 0
-51 -434 -450 0
-51 -435 -451 0
-51 -436 -452 0
-51 -437 -453 0
-52 -434 -454 0
-52 -435 -455 0
-52 -436 -456 0
-52 -437 -457 0
-53 -434 -458 0
-53 -435 -459 0
-53 -436 -460 0
-53 -437 -461 0
-54 -434 -462 0
-54 -435 -463 0
-54 -436 -464 0
-54 -437 -465 0
-55 -434 -466 0
-55 -435 -467 0
-55 -436 -468 0
-55 -437 -469 0
-56 -434 -470 0
-56 -435 -471 0
-56 -436 -472 0
-56 -437 -473 0
-57 -434 -474 0
-57 -435 -475 0
-57 -436 -476 0
-57 -437 -477 0
-58 -434 -478 0
-58 -435 -479 0
-58 -436 -480 0
-58 -437 -481 0
-59 -434 -482 0
-59 -435 -483 0
-59 -436 -484 0
-59 -437 -485 0
-60 -434 -486 0
-60 -435 -487 0
-60 -436 -488 0
-60 -437 -489 0
-61 -434 -490 0
-61 -435 -491 0
-61 -436 -492 0
-61 -437 -493 0
-62 -434 -494 0
-62 -435 -495 0
-62 -436 -496 0
-62 -437 -497 0
-63 -434 -498 0
-63 -435 -499 0
-63 -436 -500 0
-63 -437 -501 0
-64 -434 -502 0
-64 -435 -503 0
-64 -436 -504 0
-64 -437 -505 0
-65 -434 -506 0
-65 -435 -507 0
-65 -436 -508 0
-65 -437 -509 0
-66 -434 -510 0
-66 -435 -511 0
-66 -436 -512 0
-66 -437 -513 0
-67 -434 -514 0
-67 -435 -515 0
-67 -436 -516 0
-67 -437 -517 0
-68 -434 -518 0
-68 -435 -519 0
-68 -436 -520 0
-68 -437 -521 0
-69 -434 -522 0
-69 -435 -523 0
-69 -436 -524 0
-69 -437 -525 0
-70 -438 -442 0
-70 -439 -443 0
-70 -440 -444 0
-70 -441 -445 0
-71 -438 -446 0
-71 -439 -447 0
-71 -440 -448 0
-71 -441 -449 0
-72 -438 -450 0
-72 -439 -451 0
-72 -440 -452 0
-72 -441 -453 0
-73 -438 -454 0
-73 -439 -455 0
-73 -440 -456 0
-73 -441 -457 0
-74 -438 -458 0
-74 -439 -459 0
-74 -440 -460 0
-74 -441 -461 0
-75 -438 -462 0
-75 -439 -463 0
-75 -440 -464 0
-75 -441 -465 0
-76 -438 -466 0
-76 -439 -467 0
-76 -440 -468 0
-76 -441 -469 0
-77 -438 -470 0
-77 -439 -471 0
-77 -440 -472 0
-77 -441 -473 0
-78 -438 -474 0
-78 -439 -475 0
-78 -440 -476 0
-78 -441 -477 0
-79 -438 -478 0
-79 -439 -479 0
-79 -440 -480 0
-79 -441 -481 0
-80 -438 -482 0
-80 -439 -483 0
-80 -440 -484 0
-80 -441 -485 0
-81 -438 -486 0
-81 -439 -487 0
-81 -440 -488 0
-81 -441 -489 0
-82 -438 -490 0
-82 -439 -491 0
-82 -440 -492 0
-82 -441 -493 0
-83 -438 -494 0
-83 -439 -495 0
-83 -440 -496 0
-83 -441 -497 0
-84 -438 -498 0
-84 -439 -499 0
-84 -440 -500 0
-84 -441 -501 0
-85 -438 -502 0
-85 -439 -503 0
-85 -440 -504 0
-85 -441 -505 0
-86 -438 -506 0
-86 -439 -507 0
-86 -440 -508 0
-86 -441 -509 0
-87 -438 -510 0
-87 -439 -511 0
-87 -440 -512 0
-87 -441 -513 0
-88 -438 -514 0
-88 -439 -515 0
-88 -440 -516 0
-88 -441 -517 0
-89 -438 -518 0
-89 -439 -519 0
-89 -440 -520 0
-89 -441 -521 0
-90 -438 -522 0
-90 -439 -523 0
-90 -440 -524 0
-90 -441 -525 0
-91 -442 -446 0
-91 -443 -447 0
-91 -444 -448 0
-91 -445 -449 0
-92 -442 -450 0
-92 -443 -451 0
-92 -444 -452 0
-92 -445 -453 0
-93 -442 -454 0
-93 -443 -455 0
-93 -444 -456 0
-93 -445 -457 0
-94 -442 -458 0
-94 -443 -459 0
-94 -444 -460 0
-94 -445 -461 0
-95 -442 -462 0
-95 -443 -463 0
-95 -444 -464 0
-95 -445 -465 0
-96 -442 -466 0
-96 -443 -467 0
-96 -444 -468 0
-96 -445 -469 0
-97 -442 -470 0
-97 -443 -471 0
-97 -444 -472 0
-97 -445 -473 0
-98 -442 -474 0
-98 -443 -475 0
-98 -444 -476 0
-98 -445 -477 0
-99 -442 -478 0
-99 -443 -479 0
-99 -444 -480 0
-99 -445 -481 0
-100 -442 -482 0
-100 -443 -483 0
-100 -444 -484 0
-100 -445 -485 0
-101 -442 -486 0
-101 -443 -487 0
-101 -444 -488 0
-101 -445 -489 0
-102 -442 -490 0
-102 -443 -491 0
-102 -444 -492 0
-102 -445 -493 0
-103 -442 -494 0
-103 -443 -495 0
-103 -444 -496 0
-103 -445 -497 0
-104 -442 -498 0
-104 -443 -499 0
-104 -444 -500 0
-104 -445 -501 0
-105 -442 -502 0
-105 -443 -503 0
-105 -444 -504 0
-105 -445 -505 0
-106 -442 -506 0
-106 -443 -507 0
-106 -444 -508 0
-106 -445 -509 0
-107 -442 -510 0
-107 -443 -511 0
-107 -444 -512 0
-107 -445 -513 0
-108 -442 -514 0
-108 -443 -515 0
-108 -444 -516 0
-108 -445 -517 0
-109 -442 -518 0
-109 -443 -519 0
-109 -444 -520 0
-109 -445 -521 0
-110 -442 -522 0
-110 -443 -523 0
-110 -444 -524 0
-110 -445 -525 0
-111 -446 -450 0
-111 -447 -451 0
-111 -448 -452 0
-111 -449 -453 0
-112 -446 -454 0
-112 -447 -455 0
-112 -448 -456 0
-112 -449 -457 0
-113 -446 -458 0
-113 -447 -459 0
-113 -448 -460 0
-113 -449 -461 0
-114 -446 -462 0
-114 -447 -463 0
-114 -448 -464 0
-114 -449 -465 0
-115 -446 -466 0
-115 -447 -467 0
-115 -448 -468 0
-115 -449 -469 0
-116 -446 -470 0
-116 -447 -471 0
-116 -448 -472 0
-116 -449 -473 0
-117 -446 -474 0
-117 -447 -475 0
-117 -448 -476 0
-117 -449 -477 0
-118 -446 -478 0
-118 -447 -479 0
-118 -448 -480 0
-118 -449 -481 0
-119 -446 -482 0
-119 -447 -483 0
-119 -448 -484 0
-119 -449 -485 0
-120 -446 -486 0
-120 -447 -487 0
-120 -448 -488 0
-120 -449 -489 0
-121 -446 -490 0
-121 -447 -491 0
-121 -448 -492 0
-121 -449 -493 0
-122 -446 -494 0
-122 -447 -495 0
-122 -448 -496 0
-122 -449 -497 0
-123 -446 -498 0
-123 -447 -499 0
-123 -448 -500 0
-123 -449 -501 0
-124 -446 -502 0
-124 -447 -503 0
-124 -448 -504 0
-124 -449 -505 0
-125 -446 -506 0
-125 -447 -507 0
-125 -448 -508 0
-125 -449 -509 0
-126 -446 -510 0
-126 -447 -511 0
-126 -448 -512 0
-126 -449 -513 0
-127 -446 -514 0
-127 -447 -515 0
-127 -448 -516 0
-127 -449 -517 0
-128 -446 -518 0
-128 -447 -519 0
-128 -448 -520 0
-128 -449 -521 0
-129 -446 -522 0
-129 -447 -523 0
-129 -448 -524 0
-129 -449 -525 0
-130 -450 -454 0
-130 -451 -455 0
-130 -452 -456 0
-130 -453 -457 0
-131 -450 -458 0
-131 -451 -459 0
-131 -452 -460 0
-131 -453 -461 0
-132 -450 -462 0
-132 -451 -463 0
-132 -452 -464 0
-132 -453 -465 0
-133 -450 -466 0
-133 -451 -467 0
-133 -452 -468 0
-133 -453 -469 0
-134 -450 -470 0
-134 -451 -471 0
-134 -452 -472 0
-134 -453 -473 0
-135 -450 -474 0
-135 -451 -475 0
-135 -452 -476 0
-135 -453 -477 0
-136 -450 -478 0
-136 -451 -479 0
-136 -452 -480 0
-136 -453 -481 0
-137 -450 -482 0
-137 -451 -483 0
-137 -452 -484 0
-137 -453 -485 0
-138 -450 -486 0
-138 -451 -487 0
-138 -452 -488 0
-138 -453 -489 0
-139 -450 -490 0
-139 -451 -491 0
-139 -452 -492 0
-139 -453 -493 0
-140 -450 -494 0
-140 -451 -495 0
-140 -452 -496 0
-140 -453 -497 0
-141 -450 -498 0
-141 -451 -499 0
-141 -452 -500 0
-141 -453 -501 0
-142 -450 -502 0
-142 -451 -503 0
-142 -452 -504 0
-142 -453 -505 0
-143 -450 -506 0
-143 -451 -507 0
-143 -452 -508 0
-143 -453 -509 0
-144 -450 -510 0
-144 -451 -511 0
-144 -452 -512 0
-144 -453 -513 0
-145 -450 -514 0
-145 -451 -515 0
-145 -452 -516 0
-145 -453 -517 0
-146 -450 -518 0
-146 -451 -519 0
-146 -452 -520 0
-146 -453 -521 0
-147 -450 -522 0
-147 -451 -523 0
-147 -452 -524 0
-147 -453 -525 0
-148 -454 -458 0
-148 -455 -459 0
-148 -456 -460 0
-148 -457 -461 0
-149 -454 -462 0
-149 -455 -463 0
-149 -456 -464 0
-149 -457 -465 0
-150 -454 -466 0
-150 -455 -467 0
-150 -456 -468 0
-150 -457 -469 0
-151 -454 -470 0
-151 -455 -471 0
-151 -456 -472 0
-151 -457 -473 0
-152 -454 -474 0
-152 -455 -475 0
-152 -456 -476 0
-152 -457 -477 0
-153 -454 -478 0
-153 -455 -479 0
-153 -456 -480 0
-153 -457 -481 0
-154 -454 -482 0
-154 -455 -483 0
-154 -456 -484 0
-154 -457 -485 0
-155 -454 -486 0
-155 -455 -487 0
-155 -456 -488 0
-155 -457 -489 0
-156 -454 -490 0
-156 -455 -491 0
-156 -456 -492 0
-156 -457 -493 0
-157 -454 -494 0
-157 -455 -495 0
-157 -456 -496 0
-157 -457 -497 0
-158 -454 -498 0
-158 -455 -499 0
-158 -456 -500 0
-158 -457 -501 0
-159 -454 -502 0
-159 -455 -503 0
-159 -456 -504 0
-159 -457 -505 0
-160 -454 -506 0
-160 -455 -507 0
-160 -456 -508 0
-160 -457 -509 0
-161 -454 -510 0
-161 -455 -511 0
-161 -456 -512 0
-161 -457 -513 0
-162 -454 -514 0
-162 -455 -515 0
-162 -456 -516 0
-162 -457 -517 0
-163 -454 -518 0
-163 -455 -519 0
-163 -456 -520 0
-163 -457 -521 0
-164 -454 -522 0
-164 -455 -523 0
-164 -456 -524 0
-164 -457 -525 0
-165 -458 -462 0
-165 -459 -463 0
-165 -460 -464 0
-165 -461 -465 0
-166 -458 -466 0
-166 -459 -467 0
-166 -460 -468 0
-166 -461 -469 0
-167 -458 -470 0
-167 -459 -471 0
-167 -460 -472 0
-167 -461 -473 0
-168 -458 -474 0
-168 -459 -475 0
-168 -460 -476 0
-168 -461 -477 0
-169 -458 -478 0
-169 -459 -479 0
-169 -460 -480 0
-169 -461 -481 0
-170 -458 -482 0
-170 -459 -483 0
-170 -460 -484 0
-170 -461 -485 0
-171 -458 -486 0
-171 -459 -487 0
-171 -460 -488 0
-171 -461 -489 0
-172 -458 -490 0
-172 -459 -491 0
-172 -460 -492 0
-172 -461 -493 0
-173 -458 -494 0
-173 -459 -495 0
-173 -460 -496 0
-173 -461 -497 0
-174 -458 -498 0
-174 -459 -499 0
-174 -460 -500 0
-174 -461 -501 0
-175 -458 -502 0
-175 -459 -503 0
-175 -460 -504 0
-175 -461 -505 0
-176 -458 -506 0
-176 -459 -507 0
-176 -460 -508 0
-176 -461 -509 0
-177 -458 -510 0
-177 -459 -511 0
-177 -460 -512 0
-177 -461 -513 0
-178 -458 -514 0
-178 -459 -515 0
-178 -460 -516 0
-178 -461 -517 0
-179 -458 -518 0
-179 -459 -519 0
-179 -460 -520 0
-179 -461 -521 0
-180 -458 -522 0
-180 -459 -523 0
-180 -460 -524 0
-180 -461 -525 0
-181 -462 -466 0
-181 -463 -467 0
-181 -464 -468 0
-181 -465 -469 0
-182 -462 -470 0
-182 -463 -471 0
-182 -464 -472 0
-182 -465 -473 0
-183 -462 -474 0
-183 -463 -475 0
-183 -464 -476 0
-183 -465 -477 0
-184 -462 -478 0
-184 -463 -479 0
-184 -464 -480 0
-184 -465 -481 0
-185 -462 -482 0
-185 -463 -483 0
-185 -464 -484 0
-185 -465 -485 0
-186 -462 -486 0
-186 -463 -487 0
-186 -464 -488 0
-186 -465 -489 0
-187 -462 -490 0
-187 -463 -491 0
-187 -464 -492 0
-187 -465 -493 0
-188 -462 -494 0
-188 -463 -495 0
-188 -464 -496 0
-188 -465 -497 0
-189 -462 -498 0
-189 -463 -499 0
-189 -464 -500 0
-189 -465 -501 0
-190 -462 -502 0
-190 -463 -503 0
-190 -464 -504 0
-190 -465 -505 0
-191 -462 -506 0
-191 -463 -507 0
-191 -464 -508 0
-191 -465 -509 0
-192 -462 -510 0
-192 -463 -511 0
-192 -464 -512 0
-192 -465 -513 0
-193 -462 -514 0
-193 -463 -515 0
-193 -464 -516 0
-193 -465 -517 0
-194 -462 -518 0
-194 -463 -519 0
-194 -464 -520 0
-194 -465 -521 0
-195 -462 -522 0
-195 -463 -523 0
-195 -464 -524 0
-195 -465 -525 0
-196 -466 -470 0
-196 -467 -471 0
-196 -468 -472 0
-196 -469 -473 0
-197 -466 -474 0
-197 -467 -475 0
-197 -468 -476 0
-197 -469 -477 0
-198 -466 -478 0
-198 -467 -479 0
-198 -468 -480 0
-198 -469 -481 0
-199 -466 -482 0
-199 -467 -483 0
-199 -468 -484 0
-199 -469 -485 0
-200 -466 -486 0
-200 -467 -487 0
-200 -468 -488 0
-200 -469 -489 0
-201 -466 -490 0
-201 -467 -491 0
-201 -468 -492 0
-201 -469 -493 0
-202 -466 -494 0
-202 -467 -495 0
-202 -468 -496 0
-202 -469 -497 0
-203 -466 -498 0
-203 -467 -499 0
-203 -468 -500 0
-203 -469 -501 0
-204 -466 -502 0
-204 -467 -503 0
-204 -468 -504 0
-204 -469 -505 0
-205 -466 -506 0
-205 -467 -507 0
-205 -468 -508 0
-205 -469 -509 0
-206 -466 -510 0
-206 -467 -511 0
-206 -468 -512 0
-206 -469 -513 0
-207 -466 -514 0
-207 -467 -515 0
-207 -468 -516 0
-207 -469 -517 0
-208 -466 -518 0
-208 -467 -519 0
-208 -468 -520 0
-208 -469 -521 0
-209 -466 -522 0
-209 -467 -523 0
-209 -468 -524 0
-209 -469 -525 0
-210 -470 -474 0
-210 -471 -475 0
-210 -472 -476 0
-210 -473 -477 0
-211 -470 -478 0
-211 -471 -479 0
-211 -472 -480 0
-211 -473 -481 0
-212 -470 -482 0
-212 -471 -483 0
-212 -472 -484 0
-212 -473 -485 0
-213 -470 -486 0
-213 -471 -487 0
-213 -472 -488 0
-213 -473 -489 0
-214 -470 -490 0
-214 -471 -491 0
-214 -472 -492 0
-214 -473 -493 0
-215 -470 -494 0
-215 -471 -495 0
-215 -472 -496 0
-215 -473 -497 0
-216 -470 -498 0
-216 -471 -499 0
-216 -472 -500 0
-216 -473 -501 0
-217 -470 -502 0
-217 -471 -503 0
-217 -472 -504 0
-217 -473 -505 0
-218 -470 -506 0
-218 -471 -507 0
-218 -472 -508 0
-218 -473 -509 0
-219 -470 -510 0
-219 -471 -511 0
-219 -472 -512 0
-219 -473 -513 0
-220 -470 -514 0
-220 -471 -515 0
-220 -472 -516 0
-220 -473 -517 0
-221 -470 -518 0
-221 -471 -519 0
-221 -472 -520 0
-221 -473 -521 0
-222 -470 -522 0
-222 -471 -523 0
-222 -472 -524 0
-222 -473 -525 0
-223 -474 -478 0
-223 -475 -479 0
-223 -476 -480 0
-223 -477 -481 0
-224 -474 -482 0
-224 -475 -483 0
-224 -476 -484 0
-224 -477 -485 0
-225 -474 -486 0
-225 -475 -487 0
-225 -476 -488 0
-225 -477 -489 0
-226 -474 -490 0
-226 -475 -491 0
-226 -476 -492 0
-226 -477 -493 0
-227 -474 -494 0
-227 -475 -495 0
-227 -476 -496 0
-227 -477 -497 0
-228 -474 -498 0
-228 -475 -499 0
-228 -476 -500 0
-228 -477 -501 0
-229 -474 -502 0
-229 -475 -503 0
-229 -476 -504 0
-229 -477 -505 0
-230 -474 -506 0
-230 -475 -507 0
-230 -476 -508 0
-230 -477 -509 0
-231 -474 -510 0
-231 -475 -511 0
-231 -476 -512 0
-231 -477 -513 0
-232 -474 -514 0
-232 -475 -515 0
-232 -476 -516 0
-232 -477 -517 0
-233 -474 -518 0
-233 -475 -519 0
-233 -476 -520 0
-233 -477 -521 0
-234 -474 -522 0
-234 -475 -523 0
-234 -476 -524 0
-234 -477 -525 0
-235 -478 -482 0
-235 -479 -483 0
-235 -480 -484 0
-235 -481 -485 0
-236 -478 -486 0
-236 -479 -487 0
-236 -480 -488 0
-236 -481 -489 0
-237 -478 -490 0
-237 -479 -491 0
-237 -480 -492 0
-237 -481 -493 0
-238 -478 -494 0
-238 -479 -495 0
-238 -480 -496 0
-238 -481 -497 0
-239 -478 -498 0
-239 -479 -499 0
-239 -480 -500 0
-239 -481 -501 0
-240 -478 -502 0
-240 -479 -503 0
-240 -480 -504 0
-240 -481 -505 0
-241 -478 -506 0
-241 -479 -507 0
-241 -480 -508 0
-241 -481 -509 0
-242 -478 -510 0
-242 -479 -511 0
-242 -480 -512 0
-242 -481 -513 0
-243 -478 -514 0
-243 -479 -515 0
-243 -480 -516 0
-243 -481 -517 0
-244 -478 -518 0
-244 -479 -519 0
-244 -480 -520 0
-244 -481 -521 0
-245 -478 -522 0
-245 -479 -523 0
-245 -480 -524 0
-245 -481 -525 0
-246 -482 -486 0
-246 -483 -487 0
-246 -484 -488 0
-246 -485 -489 0
-247 -482 -490 0
-247 -483 -491 0
-247 -484 -492 0
-247 -485 -493 0
-248 -482 -494 0
-248 -483 -495 0
-248 -484 -496 0
-248 -485 -497 0
-249 -482 -498 0
-249 -483 -499 0
-249 -484 -500 0
-249 -485 -501 0
-250 -482 -502 0
-250 -483 -503 0
-250 -484 -504 0
-250 -485 -505 0
-251 -482 -506 0
-251 -483 -507 0
-251 -484 -508 0
-251 -485 -509 0
-252 -482 -510 0
-252 -483 -511 0
-252 -484 -512 0
-252 -485 -513 0
-253 -482 -514 0
-253 -483 -515 0
-253 -484 -516 0
-253 -485 -517 0
-254 -482 -518 0
-254 -483 -519 0
-254 -484 -520 0
-254 -485 -521 0
-255 -482 -522 0
-255 -483 -523 0
-255 -484 -524 0
-255 -485 -525 0
-256 -486 -490 0
-256 -487 -491 0
-256 -488 -492 0
-256 -489 -493 0
-257 -486 -494 0
-257 -487 -495 0
-257 -488 -496 0
-257 -489 -497 0
-258 -486 -498 0
-258 -487 -499 0
-258 -488 -500 0
-258 -489 -501 0
-259 -486 -502 0
-259 -487 -503 0
-259 -488 -504 0
-259 -489 -505 0
-260 -486 -506 0
-260 -487 -507 0
-260 -488 -508 0
-260 -489 -509 0
-261 -486 -510 0
-261 -487 -511 0
-261 -488 -512 0
-261 -489 -513 0
-262 -486 -514 0
-262 -487 -515 0
-262 -488 -516 0
-262 -489 -517 0
-263 -486 -518 0
-263 -487 -519 0
-263 -488 -520 0
-263 -489 -521 0
-264 -486 -522 0
-264 -487 -523 0
-264 -488 -524 0
-264 -489 -525 0
-265 -490 -494 0
-265 -491 -495 0
-265 -492 -496 0
-265 -493 -497 0
-266 -490 -498 0
-266 -491 -499 0
-266 -492 -500 0
-266 -493 -501 0
-267 -490 -502 0
-267 -491 -503 0
-267 -492 -504 0
-267 -493 -505 0
-268 -490 -506 0
-268 -491 -507 0
-268 -492 -508 0
-268 -493 -509 0
-269 -490 -510 0
-269 -491 -511 0
-269 -492 -512 0
-269 -493 -513 0
-270 -490 -514 0
-270 -491 -515 0
-270 -492 -516 0
-270 -493 -517 0
-271 -490 -518 0
-271 -491 -519 0
-271 -492 -520 0
-271 -493 -521 0
-272 -490 -522 0
-272 -491 -523 0
-272 -492 -524 0
-272 -493 -525 0
-273 -494 -498 0
-273 -495 -499 0
-273 -496 -500 0
-273 -497 -501 0
-274 -494 -502 0
-274 -495 -503 0
-274 -496 -504 0
-274 -497 -505 0
-275 -494 -506 0
-275 -495 -507 0
-275 -496 -508 0
-275 -497 -509 0
-276 -494 -510 0
-276 -495 -511 0
-276 -496 -512 0
-276 -497 -513 0
-277 -494 -514 0
-277 -495 -515 0
-277 -496 -516 0
-277 -497 -517 0
-278 -494 -518 0
-278 -495 -519 0
-278 -496 -520 0
-278 -497 -521 0
-279 -494 -522 0
-279 -495 -523 0
-279 -496 -524 0
-279 -497 -525 0
-280 -498 -502 0
-280 -499 -503 0
-280 -500 -504 0
-280 -501 -505 0
-281 -498 -506 0
-281 -499 -507 0
-281 -500 -508 0
-281 -501 -509 0
-282 -498 -510 0
-282 -499 -511 0
-282 -500 -512 0
-282 -501 -513 0
-283 -498 -514 0
-283 -499 -515 0
-283 -500 -516 0
-283 -501 -517 0
-284 -498 -518 0
-284 -499 -519 0
-284 -500 -520 0
-284 -501 -521 0
-285 -498 -522 0
-285 -499 -523 0
-285 -500 -524 0
-285 -501 -525 0
-286 -502 -506 0
-286 -503 -507 0
-286 -504 -508 0
-286 -505 -509 0
-287 -502 -510 0
-287 -503 -511 0
-287 -504 -512 0
-287 -505 -513 0
-288 -502 -514 0
-288 -503 -515 0
-288 -504 -516 0
-288 -505 -517 0
-289 -502 -518 0
-289 -503 -519 0
-289 -504 -520 0
-289 -505 -521 0
-290 -502 -522 0
-290 -503 -523 0
-290 -504 -524 0
-290 -505 -525 0
-291 -506 -510 0
-291 -507 -511 0
-291 -508 -512 0
-291 -509 -513 0
-292 -506 -514 0
-292 -507 -515 0
-292 -508 -516 0
-292 -509 -517 0
-293 -506 -518 0
-293 -507 -519 0
-293 -508 -520 0
-293 -509 -521 0
-294 -506 -522 0
-294 -507 -523 0
-294 -508 -524 0
-294 -509 -525 0
-295 -510 -514 0
-295 -511 -515 0
-295 -512 -516 0
-295 -513 -517 0
-296 -510 -518 0
-296 -511 -519 0
-296 -512 -520 0
-296 -513 -521 0
-297 -510 -522 0
-297 -511 -523 0
-297 -512 -524 0
-297 -513 -525 0
-298 -514 -518 0
-298 -515 -519 0
-298 -516 -520 0
-298 -517 -521 0
-299 -514 -522 0
-299 -515 -523 0
-299 -516 -524 0
-299 -517 -525 0
-300 -518 -522 0
-300 -519 -523 0
-300 -520 -524 0
-300 -521 -525 0
