p cnf 257 7375
-16 -88 -57 248 -92 58 -125 0
-185 -28 186 -173 -94 12 138 -233 20 0
-134 18 38 -126 214 -69 188 -123 0
-228 81 -12 141 -136 38 199 201 244 -25 0
189 -202 169 81 -52 -90 -138 10 211 0
141 73 -181 138 156 -200 136 249 13 212 0
-36 -149 40 -124 -32 -216 -26 -148 -60 -161 11 0
81 189 10 -202 -52 169 -138 -90 -85 0
81 -12 -96 -177 141 201 -25 244 199 -136 0
10 -90 -138 170 189 -52 -233 211 -61 0
136 141 -12 -51 200 -137 207 0
-36 40 -161 -60 -148 11 -216 74 194 -149 -26 0
-36 -26 -148 213 74 11 40 -149 -216 -60 35 0
114 -29 40 -161 -149 11 -60 194 -216 -36 -26 0
-246 254 -248 -116 -214 31 58 0
-184 -87 240 231 16 -198 237 45 0
-37 156 -201 249 -106 -181 137 13 73 -189 0
-16 -31 130 -125 58 -92 -57 0
157 235 -90 -52 189 -138 10 211 50 0
23 -99 -49 0
31 -116 254 126 -56 58 -248 0
-136 244 94 201 -96 -190 199 157 -25 -106 0
138 -85 249 156 -200 -106 -181 -244 73 13 0
251 -95 -208 146 224 17 -55 0
-76 -109 246 -39 -18 -182 -13 -5 219 56 0
-116 254 -219 58 134 -248 31 0
-15 -47 -152 46 -139 0
-5 219 -249 -182 56 -145 130 -188 -76 246 0
169 12 -94 -142 -185 20 50 -189 -173 0
-39 219 246 134 -76 -182 -13 -5 56 67 0
-160 230 12 -94 -15 -173 -185 186 52 0
-189 25 73 217 13 156 -181 137 -106 249 0
-173 -123 90 186 -94 -185 -15 12 230 0
-25 81 -190 141 -136 244 -232 199 -12 201 0
-142 50 12 -173 52 -94 -185 -15 -122 0
-32 -216 -149 168 -26 -36 -60 72 40 -161 11 0
-139 -142 27 187 -54 0
-41 -200 0
12 138 -185 -28 -61 -15 -173 -160 -94 0
157 -177 141 244 -228 173 -136 -25 201 199 0
-138 -193 -202 -85 189 -52 10 -122 -90 0
10 -52 -138 -90 189 14 -193 50 -122 0
-181 249 141 -244 73 51 -189 13 217 156 0
-202 170 189 10 212 -52 24 -138 -90 0
-98 146 111 17 -22 251 -208 0
-145 -76 134 56 -5 246 -182 -73 219 -39 0
-187 68 141 86 -3 -153 -85 0
92 -233 -193 -83 6 147 0
-132 -243 206 -139 10 133 -102 212 -101 0
-90 211 10 -138 170 -52 -202 189 235 0
81 147 -83 92 6 -233 0
-64 -74 78 124 3 -72 -114 0
-12 -132 139 82 20 -142 0
-90 -61 10 -37 -52 189 -138 81 -160 0
-15 -152 46 -139 -196 0
188 -190 -123 -134 -69 -126 18 214 0
-88 248 -16 -125 -57 83 -44 0
74 -60 -149 35 -216 -36 40 91 168 11 -26 0
-76 -88 246 -5 -145 219 56 -156 -18 -182 0
-181 -200 156 -189 73 249 141 -244 13 -37 0
-25 185 -136 201 199 244 81 -96 -190 -106 0
157 -85 -138 189 -52 -62 10 -122 -90 0
-94 230 235 -15 -173 -202 12 -185 52 0
-57 -92 -39 -125 -165 -16 -31 0
-215 -241 -167 -146 131 130 -56 0
10 -233 -138 189 -52 -90 211 81 -61 0
228 -65 232 96 -187 -252 257 -207 0
235 12 138 -185 20 -62 230 -94 -173 0
3 -187 -130 -92 88 -188 39 0
230 138 12 -173 -62 235 -185 -15 -94 0
189 -90 -85 157 50 10 235 -138 -52 0
-193 189 -138 -90 -52 -85 24 -233 10 0
-201 249 51 -106 156 -189 13 -181 73 14 0
-122 -185 12 -189 -94 20 -28 -62 -173 0
-222 -18 34 -210 -82 0
-106 249 -200 52 156 13 -244 -181 73 211 0
-52 -123 211 235 81 189 10 -138 -90 0
-123 -94 -185 -173 12 -28 20 235 -189 0
130 83 -57 116 -125 -165 -16 0
252 -190 157 185 201 -136 199 -25 244 -106 0
50 235 189 10 157 -138 -90 -52 -37 0
-173 -202 -42 -94 -185 12 20 90 -61 0
-173 -94 -123 -122 12 -189 -185 230 20 0
-43 235 -22 -236 0
213 40 11 -124 -149 -26 -148 -60 -36 -216 -161 0
-185 -15 169 138 -173 -202 12 -142 -94 0
20 -173 -233 186 -28 -185 -94 52 12 0
13 156 73 136 -200 -37 52 141 249 -181 0
-228 201 -25 94 244 -193 199 -177 141 -136 0
-233 -189 -94 186 -185 12 -173 -15 -28 0
136 -106 137 -181 217 73 13 156 138 249 0
-15 -233 -185 138 -94 -173 235 205 12 0
10 -90 24 81 189 211 -52 -138 -123 0
141 199 -177 -228 201 -12 244 170 -136 -25 0
12 230 -15 -94 -185 -173 -61 52 -233 0
-185 235 20 -173 -94 -62 12 90 -42 0
-94 12 230 186 -173 -233 20 -185 -189 0
-52 189 -138 -37 50 -90 170 -122 10 0
73 156 51 -201 13 -37 -181 90 249 141 0
183 95 -201 8 98 158 -172 197 236 0
-88 44 -58 210 -106 165 -129 -112 0
-36 11 168 -124 40 -60 -26 -216 -161 -149 194 0
199 244 201 173 -193 38 -25 141 -136 252 0
96 228 -207 27 232 -187 -252 257 0
251 -208 107 -95 146 17 -209 0
88 -130 -92 39 -68 126 -187 0
-82 178 -188 -210 34 0
-164 41 -195 5 -44 16 -132 0
-52 235 -90 -62 10 212 81 189 -138 0
-190 94 -136 -193 244 -25 199 -106 252 201 0
-188 -145 -39 -76 56 219 -13 -182 -5 246 0
-31 -225 -125 -16 -88 -44 -6 0
-15 224 -196 -152 -139 0
-57 -125 -16 58 83 -39 248 0
73 90 51 13 -106 -181 249 217 156 -201 0
20 12 186 -94 -185 -173 -123 -42 90 0
-132 -170 -157 193 -215 140 -81 -108 -103 0
-148 161 -59 -35 0
-216 40 -161 -60 -36 72 -26 11 168 91 -149 0
-138 10 169 -90 157 -62 -52 -37 189 0
-12 201 -136 252 244 38 -106 157 -25 199 0
97 -232 -136 141 -12 201 244 81 -25 199 0
57 -62 225 -88 -145 0
88 126 54 83 39 -86 -130 0
-39 -13 -76 246 219 -5 -182 -214 -145 56 0
130 246 56 67 -5 -156 -182 -214 219 -76 0
-201 156 -181 -200 73 249 52 141 14 13 0
12 -94 -15 -189 -233 24 -185 -28 -173 0
157 199 71 173 -136 -25 -106 201 -96 244 0
-256 183 120 -175 -162 -237 238 166 159 0
-131 17 -197 -208 -209 251 224 0
-138 -233 189 -90 217 10 -52 169 157 0
244 -25 201 -106 157 -12 199 207 -136 71 0
122 -235 -169 61 -186 -89 170 -24 -47 0
230 138 24 -15 -173 12 -123 -185 -94 0
12 -189 -185 -123 24 -15 -94 -142 -173 0
242 -253 113 133 154 -48 -103 108 0
17 -95 -208 224 251 -55 -131 0
233 123 62 -50 202 160 -222 0
40 -149 35 -216 -60 -26 -36 -78 -80 11 194 0
207 -137 185 -51 200 -244 -106 0
12 -42 186 -94 -15 -185 -173 -62 90 0
50 -94 -61 -173 138 12 -15 -185 -28 0
31 -116 254 134 -248 -56 -44 0
-76 56 -5 -182 219 134 246 -249 67 -88 0
12 -15 -94 90 205 -185 186 50 -173 0
-85 104 -100 40 -161 143 0
173 -31 -183 8 0
-136 201 252 -25 199 -190 173 157 244 -106 0
199 185 244 -106 -136 -96 201 157 71 -25 0
52 12 -94 -15 -122 -173 -185 230 -202 0
-193 -52 189 -138 -160 24 -90 212 10 0
157 -90 189 10 -122 -138 -202 -85 -52 0
-123 230 -185 12 -173 -189 -94 -15 235 0
51 136 156 73 -181 -37 13 141 249 -189 0
246 -76 -182 -109 134 56 -88 -156 219 -5 0
-139 187 -65 230 -54 0
-137 -51 141 200 -96 -244 -12 0
157 -96 -25 38 244 201 -136 94 141 199 0
257 49 48 1 215 89 -132 0
-100 155 212 40 35 104 0
-254 -16 -44 -57 -88 -125 83 0
81 -37 189 -52 -123 10 -90 169 -138 0
-199 141 51 73 -181 249 156 -189 13 -37 0
119 64 -197 208 2 238 0
-173 -185 138 -94 -142 12 20 -123 -61 0
-161 -149 11 91 40 -26 -80 -216 72 -36 -60 0
1 -132 215 89 133 -113 49 0
189 -61 50 -85 -52 10 -90 -138 157 0
-181 137 141 249 156 -244 138 73 13 212 0
-173 52 -160 -94 -61 -15 230 12 -185 0
185 201 -136 244 -177 -106 -228 199 -25 -193 0
10 -202 189 -52 81 -138 -90 -61 212 0
-94 -160 169 -142 12 138 20 -185 -173 0
-189 -15 -173 12 -94 -185 -233 24 -42 0
-15 -12 -142 -132 139 82 0
12 20 24 -185 -62 -28 -94 -173 90 0
-199 173 141 -51 200 -137 207 0
94 207 136 -51 -137 200 -106 0
40 -108 -127 59 143 9 -53 -199 0
154 -163 -48 -253 113 1 108 -179 0
-162 183 -256 159 155 166 120 -237 -175 0
-173 186 -185 230 -94 -62 12 -15 90 0
-138 -61 14 -123 -90 189 10 -52 81 0
-12 -193 -228 244 71 -25 199 141 -136 201 0
-39 -6 -225 -125 248 -165 -16 0
219 56 -76 246 -73 -182 -188 -109 -88 -5 0
22 235 -107 -224 -46 20 -12 -215 0
12 20 -185 50 -61 205 -173 138 -94 0
-85 186 81 10 -52 189 -233 -138 -90 0
170 -190 244 252 201 -12 -136 -25 -106 199 0
-90 50 217 -193 -122 10 -138 189 -52 0
46 -208 146 -197 -55 251 17 0
6 170 92 -233 147 -83 0
-113 89 133 140 49 -132 215 0
173 244 -193 201 -232 199 97 -25 -106 -136 0
116 -183 -226 185 0
52 -42 -94 -185 -173 -15 -233 235 12 0
-186 -235 -24 61 -169 122 -47 170 -215 0
-136 199 -25 141 -232 244 173 -190 -193 201 0
232 -65 -252 133 -187 -207 228 96 0
159 -215 193 -157 -108 140 -132 -170 -81 0
-218 -104 -105 0
67 219 -76 126 -182 -5 56 -88 -156 246 0
-148 35 -78 -216 -26 -36 -60 -149 194 40 11 0
137 212 -106 156 136 249 -181 73 13 52 0
173 201 -25 244 97 170 -136 -106 -96 199 0
-138 -85 -52 -90 -62 -61 10 170 189 0
-185 -15 -94 -173 12 230 52 24 50 0
-26 -149 -216 11 -60 -161 -78 -36 213 40 -29 0
-6 -125 -16 -57 130 -165 -254 0
-88 -125 -254 -44 -147 -16 -225 0
189 -160 10 24 -52 -90 157 14 -138 0
-25 141 244 -193 -190 199 -136 201 -232 94 0
-61 -189 -160 -173 12 -15 -142 -185 -94 0
-173 186 138 -15 -62 -185 12 -94 -42 0
12 -94 138 -28 -15 -173 -123 -185 186 0
-190 -136 199 94 244 170 201 -25 141 -96 0
-160 57 -109 -39 225 0
-5 246 -73 56 219 -76 -214 -182 -112 -88 0
-173 -185 12 -189 205 -123 169 -15 -94 0
-52 10 -90 189 170 50 14 169 -138 0
82 139 205 -132 -12 20 0
-88 -182 56 -76 -13 67 246 219 -5 -214 0
24 -52 -138 -202 170 189 -90 -37 10 0
40 -149 11 -29 74 -36 -26 35 -118 -60 -216 0
-90 189 10 81 -138 24 -160 14 -52 0
-94 90 -42 -15 -185 -173 12 235 -160 0
-208 -95 17 251 -55 241 46 0
154 -48 159 -253 140 133 108 113 0
138 -106 13 137 73 136 -181 249 14 156 0
-146 131 -167 -215 -219 -241 -39 0
-60 -78 -149 -216 -36 11 168 -161 40 -26 -118 0
12 -173 -28 -62 52 20 -185 186 -94 0
88 -130 153 39 -188 -147 54 0
17 251 -22 -98 -208 111 167 0
189 -233 -52 -122 -90 -138 -85 157 10 0
-16 83 -125 -88 -225 -254 -44 0
201 97 244 -136 141 -25 170 199 -96 185 0
-139 -210 -247 34 134 0
69 226 48 -8 0
17 251 -208 -158 107 -55 -131 0
189 81 -138 50 10 -52 -61 -90 217 0
235 20 -173 12 -185 -94 138 -28 -123 0
94 -232 -136 199 141 -25 -177 157 201 244 0
-185 20 169 -123 230 -173 12 52 -94 0
90 249 -181 25 73 137 211 141 156 13 0
-11 -231 -88 -251 77 -2 0
-232 141 185 -25 -136 244 199 201 157 -190 0
173 82 139 -28 20 -132 0
210 -129 -39 44 -58 141 -109 165 0
185 141 -232 -51 -199 200 -137 0
40 -127 155 59 -199 -53 9 -113 0
10 -90 -62 -193 -52 189 -138 14 235 0
69 56 181 -5 -182 219 -39 -112 246 -76 0
-181 212 13 141 156 73 -189 -201 249 51 0
185 71 201 -228 199 244 170 141 -25 -136 0
172 -208 17 -209 251 -131 224 0
-201 185 141 -137 -232 -51 200 0
-249 -5 67 56 -76 -182 219 130 -214 246 0
-152 7 20 -139 46 0
-42 -94 12 -173 -123 138 -185 -15 186 0
-15 -123 -42 -94 12 90 169 -185 -173 0
-208 241 251 111 -22 172 17 0
136 -181 217 -106 73 52 13 51 249 156 0
-94 138 -28 186 -15 -62 12 -173 -185 0
12 20 -94 -185 -28 235 -62 138 -173 0
230 138 -94 12 -173 -123 20 -185 -61 0
200 141 -232 -51 173 25 -137 0
-137 200 25 -228 -106 -12 -51 0
39 -92 88 -187 -86 -130 69 0
-233 230 -94 -173 12 -185 -15 90 186 0
-62 -173 -189 186 -94 -142 20 12 -185 0
-196 -89 -10 0
-186 -24 61 81 122 7 -169 -235 -215 0
-193 10 -138 -233 235 -90 -52 217 189 0
6 92 -83 81 -123 147 0
20 -94 -185 169 205 12 -233 -173 138 0
189 10 -90 -122 170 -233 -138 211 -52 0
-15 -28 12 -61 -185 -189 -94 -173 -62 0
235 205 20 -173 52 -94 -123 12 -185 0
73 137 212 136 -181 13 138 156 249 -106 0
201 170 94 199 -106 -96 97 244 -136 -25 0
172 251 241 17 107 111 -208 0
-139 -47 -152 46 20 0
24 -185 -94 -189 -28 12 -173 -160 -15 0
106 -139 174 -141 152 90 0
-139 -227 -152 20 224 0
217 136 -106 73 249 13 -200 156 -181 90 0
-15 -173 -202 -28 -94 12 -61 -189 -185 0
-25 244 199 207 -136 94 170 97 201 141 0
-25 201 -12 199 244 38 -228 170 -136 141 0
248 58 -39 -125 -16 -6 -225 0
116 -225 -16 -6 -125 58 -39 0
-231 -39 -251 77 -119 -11 0
-106 -190 -25 244 81 -136 201 199 252 -12 0
73 156 141 249 13 -181 -200 52 14 -244 0
251 17 -131 111 -98 107 -208 0
-98 46 167 251 -55 -208 17 0
-42 235 -185 -160 -94 52 12 -15 -173 0
122 -186 -227 61 -169 -193 -89 -235 -24 0
-125 -92 -225 -88 58 -16 248 0
-201 73 156 -181 141 -85 249 13 138 137 0
80 29 143 148 58 -168 229 0
161 -148 127 -35 0
-28 20 -202 90 -173 24 -185 12 -94 0
-47 20 224 -139 -152 0
181 -76 246 219 56 126 -88 -5 67 -182 0
-189 -173 -185 -94 20 230 -123 12 -61 0
169 -173 -28 -202 -15 138 -94 -185 12 0
141 -136 244 -25 201 157 173 -96 38 199 0
-185 12 230 -94 -189 -15 -233 186 -173 0
-170 -157 1 -179 -132 -215 193 -108 -81 0
205 -94 -173 -160 -185 138 20 12 24 0
169 -15 -28 -123 -94 12 52 -173 -185 0
143 -44 80 29 148 -168 229 0
11 72 -149 -216 -229 -26 194 40 35 -36 -60 0
244 -96 170 -136 199 -106 -25 201 -190 185 0
-57 -39 248 -165 -125 -16 -147 0
185 199 -228 -106 201 244 -177 -25 170 -136 0
-173 205 169 12 -185 52 50 -94 -15 0
167 -208 224 -209 251 17 -158 0
-188 5 -248 -165 31 -116 254 0
-136 185 -106 -25 -232 244 199 201 81 -177 0
133 -243 206 -102 10 -132 -82 14 -101 0
172 111 224 146 251 17 -208 0
-125 -147 -16 248 -44 -88 -57 0
12 205 138 -94 235 -123 20 -185 -173 0
-90 170 -160 169 -85 189 -52 10 -138 0
138 -94 -233 230 20 -173 12 235 -185 0
175 231 -184 -87 240 -198 45 16 0
215 48 -132 242 99 89 257 0
186 12 -94 -42 -173 -185 -160 20 138 0
-13 -18 -182 67 219 -5 130 56 -76 246 0
138 249 212 -200 156 -201 -181 141 13 73 0
-52 -90 -193 189 -122 10 -138 50 -85 0
-81 -89 -132 -108 -170 1 -157 193 159 0
-160 -52 14 170 -138 189 -90 10 186 0
-44 31 -248 126 -116 254 -219 0
141 201 -25 -232 199 244 -136 -190 185 170 0
-12 252 -199 -137 200 -51 -106 0
-125 -31 -92 130 -165 -16 -225 0
141 -25 199 97 185 244 170 201 -136 252 0
90 -15 -142 -185 -94 -173 24 12 -233 0
169 20 -62 52 -185 -173 -94 205 12 0
141 200 252 -137 -51 185 25 0
77 130 208 -2 -231 216 0
-39 219 -5 246 -182 56 -249 126 -76 67 0
-94 -173 50 138 205 12 -185 -15 169 0
-80 40 -149 -161 -36 -216 72 11 213 -26 -60 0
-123 24 12 -28 138 -94 -185 20 -173 0
12 52 -15 -173 -185 -122 -94 -62 -42 0
-82 -227 20 224 -152 0
-160 -185 12 138 -94 -42 -173 20 -122 0
244 -25 -106 170 -136 71 252 185 201 199 0
215 99 89 -132 -163 48 242 0
-62 -185 -42 -15 -94 -189 12 -173 235 0
-119 208 36 77 -39 -231 0
189 10 186 -138 50 -193 -52 -90 217 0
-15 -46 -89 -12 -61 22 -224 -107 0
219 -18 246 -5 -76 -182 56 67 -156 -39 0
24 205 -173 -15 12 -94 138 50 -185 0
-52 212 -138 10 186 -193 -160 -90 189 0
34 -139 -210 117 126 0
249 14 73 -244 -106 13 -181 156 -189 -200 0
189 -85 -52 10 -90 -122 -138 -160 -193 0
-106 244 -136 -96 94 -193 199 -25 201 38 0
200 -51 -106 136 185 -96 -137 0
38 244 157 -106 185 199 201 -136 -25 252 0
-193 -12 199 -136 -106 244 -96 97 201 -25 0
-73 246 -76 130 56 -5 -214 67 219 -182 0
12 -94 -28 -202 -15 235 -189 -185 -173 0
138 12 -173 -15 50 -122 -94 -185 -28 0
244 -25 157 199 94 201 252 141 -190 -136 0
72 -216 -26 -149 -36 -80 -60 40 213 35 11 0
-201 -106 249 156 51 -181 -189 13 212 73 0
-237 -162 -179 155 166 120 183 -250 -175 0
73 51 156 141 13 -181 217 -189 25 249 0
24 -52 10 -138 189 -85 -90 -160 170 0
-138 157 -52 189 -90 14 10 169 50 0
-139 -101 14 -132 -102 10 206 257 -243 0
-15 -94 138 -185 -233 24 -42 12 -173 0
130 116 -57 -125 -165 -6 -16 0
-136 -96 201 -25 -106 -190 -12 81 199 244 0
-53 40 -127 -113 9 59 25 155 0
254 -165 -248 31 69 5 -116 0
40 11 -161 -149 -124 -26 91 -216 -60 -29 -36 0
-163 242 154 113 -220 -253 108 -48 0
-202 24 189 -52 10 -138 -90 14 -193 0
-89 22 -224 -61 -46 173 -15 -107 0
189 14 -52 -123 -90 -138 81 186 10 0
52 249 137 156 -181 13 217 -106 -199 73 0
-90 -193 -233 10 -122 189 14 -52 -138 0
-85 -138 -52 189 81 10 -233 24 -90 0
189 -90 10 50 -52 -138 -61 -193 211 0
185 139 -132 82 205 -15 0
-85 141 73 13 156 249 51 90 -181 -199 0
-138 186 10 189 -52 -85 -90 -123 157 0
-173 -15 -185 -94 235 -142 90 50 12 0
-132 -103 -81 -170 242 -157 -154 -215 193 0
-125 -92 248 -165 130 -225 -16 0
-51 200 -244 -106 -137 207 -12 0
44 165 -58 210 -39 67 141 -129 0
-82 -15 -152 224 30 0
-116 58 126 -248 254 5 31 0
-182 130 -5 219 -18 56 -156 246 -145 -76 0
-188 219 246 -182 -76 -88 -5 56 67 -156 0
244 -25 -96 199 38 81 -106 -136 173 201 0
-106 -228 97 199 173 170 201 -136 -25 244 0
-207 96 -252 128 232 -187 174 228 0
180 63 66 0
2 238 172 119 -251 64 0
-182 -109 219 246 56 126 130 -76 -5 181 0
-55 -131 -95 17 46 -208 251 0
137 138 13 73 -37 -181 -106 156 -244 249 0
-122 205 138 -173 -185 12 -94 -15 50 0
10 217 -52 -90 -233 157 189 235 -138 0
249 211 -200 138 73 13 -181 136 141 156 0
-215 5 -146 -167 130 131 -241 0
224 111 17 -131 -197 251 -208 0
235 217 189 -52 -90 170 -138 -160 10 0
249 73 -201 51 141 13 156 -181 -85 138 0
-62 -138 157 24 189 14 10 -52 -90 0
71 -136 185 199 -25 81 207 201 -106 244 0
-173 50 12 -142 -185 20 24 90 -94 0
-201 13 73 51 156 -181 249 -37 138 -106 0
-121 54 -97 -38 177 190 -71 0
-60 74 194 -149 11 40 -29 -26 -161 -36 -216 0
50 -61 14 81 -138 10 189 -90 -52 0
165 -34 -58 -88 -112 44 -129 -106 0
246 -112 219 -156 130 -76 -5 69 -182 56 0
152 138 -82 27 -141 106 0
-94 12 230 -15 -173 169 -202 -185 90 0
-185 -15 -173 -94 12 -202 90 -142 24 0
201 -25 244 -136 -106 199 -12 81 -228 -190 0
2 208 119 -98 64 238 0
235 50 -185 12 -28 -94 -173 52 20 0
-142 -173 -123 24 52 12 -185 20 -94 0
35 -80 -60 -26 -36 40 -216 72 -33 11 -149 0
-25 -190 141 244 -12 170 199 -136 201 -232 0
-171 -93 -234 -201 115 -187 -256 -63 -191 0
11 -36 -149 -148 -26 40 35 -60 72 -216 -32 0
-193 10 189 -90 50 186 -52 -138 211 0
172 -208 146 107 251 111 17 0
-148 -26 35 194 -216 -36 -60 -149 11 114 40 0
25 185 -232 200 -51 141 -137 0
-134 -233 188 71 -126 214 18 -69 0
156 249 73 -199 212 13 -200 -181 141 138 0
-28 186 -173 50 52 12 -94 -15 -185 0
-35 -229 161 -9 0
-185 -189 -173 169 20 -123 12 -94 -42 0
141 -51 -12 200 -244 -137 252 0
-165 -225 83 -125 -16 130 248 0
97 -12 199 -136 207 201 81 -25 244 141 0
238 -100 104 40 35 -37 0
-26 -32 -216 -124 -149 -60 35 40 11 -29 -36 0
173 201 -190 -136 -228 141 244 -193 199 -25 0
48 -163 89 49 -132 140 215 0
137 14 156 249 52 -181 -244 73 13 141 0
139 20 185 82 205 -132 0
-52 189 -160 24 -138 -90 10 211 170 0
-5 219 246 -214 56 -112 -73 130 -182 -76 0
-94 -42 -173 138 -15 -160 12 -185 -122 0
-52 24 170 10 217 -138 -90 189 -123 0
-88 -125 83 -254 -16 58 -225 0
-125 -147 -57 -16 130 58 -254 0
-189 12 -94 -173 -142 -160 20 -185 -122 0
12 169 50 -94 -189 -173 20 -185 230 0
-52 10 -138 -90 -193 -202 189 212 -61 0
-152 -82 -15 -227 46 0
73 249 14 -181 -189 156 137 -106 13 25 0
77 -88 -251 -2 216 -231 0
-190 -96 -106 -25 244 199 -136 201 94 170 0
130 44 -112 -34 -204 -58 165 -106 0
59 40 48 -127 -53 155 -244 9 0
56 -249 -188 -5 219 -88 -76 246 -182 -109 0
44 -112 165 -106 -129 -58 130 210 0
-16 -39 -165 83 116 -125 -57 0
-130 -68 -6 -187 39 -214 88 0
-22 -61 -43 -236 0
136 -12 141 252 -51 200 -137 0
-13 -182 56 -188 -88 246 -5 -76 -112 219 0
-147 54 88 -68 -214 -130 39 0
89 -108 140 215 -132 99 -163 0
-5 126 -182 -76 246 -109 219 56 -88 -13 0
17 46 -131 -208 172 -55 251 0
-152 -139 -15 46 30 0
38 201 244 199 -106 -232 -25 -136 94 81 0
50 10 -90 211 -52 -138 235 170 189 0
138 -173 -185 205 50 -15 12 -61 -94 0
-138 186 -85 189 -90 170 -52 -233 10 0
-189 186 -94 205 12 -62 -185 -173 20 0
124 -114 153 -72 -74 -64 78 0
-202 -189 -61 12 -94 -185 -173 230 -15 0
-119 149 77 130 -17 -231 0
-15 -160 230 -94 169 -185 -173 12 52 0
20 -185 12 -173 -122 -142 -94 -62 -189 0
40 -36 -148 -26 -149 35 -60 -118 -216 -124 11 0
225 57 -123 -88 -112 0
46 -139 20 30 -152 0
12 -142 24 -173 -94 20 -185 -189 -62 0
215 99 -132 89 -113 128 140 0
-76 -88 -13 -214 -182 -5 -145 56 246 219 0
143 253 40 -53 59 -127 9 -199 0
25 73 212 13 52 249 141 137 156 -181 0
-90 -122 -52 -62 10 157 189 -138 14 0
208 216 -231 77 -119 -88 0
-231 -251 -39 26 -2 77 0
-179 -256 166 -237 -162 183 155 120 -175 0
-138 -90 235 10 189 -52 14 157 -233 0
-94 138 -122 -185 -173 230 12 -15 -160 0
211 -233 10 -90 -52 170 -138 186 189 0
211 -181 156 73 -106 137 -201 13 52 249 0
-122 -52 -123 10 -90 170 -138 189 212 0
244 -25 -193 -177 199 -136 185 141 207 201 0
-62 235 -142 12 -94 -15 -173 -185 90 0
-60 -36 -216 -26 -29 -161 40 -149 11 72 91 0
-94 -160 -122 12 -189 -185 -15 -173 -142 0
89 48 257 1 -132 99 215 0
207 173 71 -193 -136 -25 201 199 244 -106 0
-181 52 211 136 73 13 141 137 156 249 0
-60 -36 40 -216 -80 -124 -161 -26 -149 91 11 0
5 -167 -241 -39 131 -146 -89 0
-11 -64 77 -231 -88 -251 0
52 -106 211 13 73 156 -181 51 -199 249 0
-20 -62 138 10 15 0
244 -106 201 199 -25 71 157 -96 -12 -136 0
-200 249 52 217 156 13 -106 -181 136 73 0
133 215 140 89 99 48 -132 0
-112 56 -76 246 -156 -39 219 -5 -182 69 0
13 138 -181 73 136 -106 212 51 249 156 0
-12 -106 252 -25 -136 244 199 201 38 170 0
117 42 28 -205 -230 142 0
73 13 90 249 -181 156 -106 -37 137 -199 0
189 235 14 170 -90 10 -202 -52 -138 0
50 -122 -185 -142 -173 138 20 12 -94 0
207 200 -106 185 -51 -137 136 0
-90 212 81 50 189 10 -138 235 -52 0
-17 -11 -64 -231 77 -88 0
-127 59 40 -244 -53 143 -154 9 0
40 -149 -216 -80 91 11 -26 74 -36 35 -60 0
251 17 -55 -208 107 241 -158 0
94 169 -107 -46 -224 -89 22 20 0
252 -25 -136 199 201 173 244 157 141 -177 0
-149 -60 -36 114 -216 11 194 -26 40 35 168 0
242 89 215 -163 -108 -23 -132 0
252 -12 -190 141 -25 201 81 244 -136 199 0
77 -119 -231 -39 36 -17 0
173 199 -232 244 -25 201 -136 141 157 -177 0
-25 -12 -136 -106 -190 -193 199 244 201 -96 0
199 -190 -136 244 201 185 -25 -193 -228 -106 0
-39 -204 -34 -109 165 141 44 -58 0
138 73 156 25 249 -181 13 211 141 137 0
-205 42 -222 -230 28 142 0
34 -82 -247 -210 -188 0
-138 211 81 189 -62 -61 -90 -52 10 0
-10 -215 30 0
57 -88 225 -160 67 0
38 244 141 201 94 199 170 -136 -25 -96 0
254 -248 5 31 -116 -188 -44 0
130 -125 83 -57 -16 -44 248 0
156 73 -199 13 -181 249 -37 141 -200 90 0
12 138 -185 -173 -94 235 -15 -160 230 0
-125 -225 -44 -254 -39 -16 -147 0
137 -244 13 212 -181 -106 90 249 156 73 0
187 -54 27 -139 -42 0
115 25 -191 -63 -93 -234 -250 -187 -171 0
-39 -16 -92 116 -57 -125 -165 0
-187 128 -252 96 232 -207 255 228 0
156 217 90 -244 -181 13 249 137 73 -106 0
211 -199 -106 137 249 156 138 73 -181 13 0
-185 -15 -233 12 -94 205 52 -173 -61 0
-41 137 0
130 60 77 -251 -231 -119 0
-106 -137 25 -232 -12 200 -51 0
-12 25 -137 -51 207 -106 200 0
-44 -132 41 -219 -195 -164 16 0
-122 20 12 -42 52 -160 -173 -185 -94 0
20 185 139 -132 82 -42 0
141 -85 52 -201 -181 13 73 156 51 249 0
-102 -243 206 128 -82 10 -132 -101 14 0
12 -173 169 -185 20 90 -160 -94 -28 0
12 -15 -142 -122 138 -94 -123 -173 -185 0
-185 90 50 -15 12 -61 -173 -94 -28 0
-94 -15 186 -185 -160 -173 -142 138 12 0
90 20 -62 -185 -94 -61 230 12 -173 0
208 143 119 2 64 -98 0
132 -84 0
14 -244 156 13 -181 73 249 51 141 -189 0
77 -88 -251 -119 216 -231 0
141 -136 170 244 38 -25 201 207 199 173 0
-244 -127 155 -53 9 59 40 253 0
-154 -81 193 -132 -170 140 -179 -157 -89 0
205 12 20 90 -94 -122 -185 -123 -173 0
249 73 51 156 25 141 13 14 -181 138 0
-22 146 -55 -197 251 -208 17 0
-132 -28 139 -15 185 82 0
201 -25 -177 244 199 173 81 -232 141 -136 0
45 -77 -198 16 -87 240 -184 162 0
201 244 185 -25 -177 -136 -232 157 199 141 0
189 -90 -52 81 -85 -138 50 -122 10 0
-15 -123 52 -185 -61 -173 -28 12 -94 0
116 -16 -225 -6 130 -125 -165 0
73 -181 13 156 -244 249 211 137 141 138 0
212 -90 189 186 10 -123 -52 -138 170 0
170 50 -138 -37 189 186 -90 -52 10 0
-185 12 50 -173 230 -189 -15 24 -94 0
-25 199 -232 -136 201 244 -12 -190 -106 170 0
211 -193 -122 189 -160 10 -138 -52 -90 0
20 -94 -185 12 186 50 52 205 -173 0
-214 -82 34 -210 117 0
-185 -189 -122 -94 20 -202 230 12 -173 0
10 -163 -139 -132 -102 212 -243 -101 206 0
-244 73 52 137 156 -85 -181 141 13 249 0
-253 140 -103 108 154 113 -48 257 0
-126 -69 -134 214 -233 188 18 38 0
-88 -119 77 26 -251 -231 0
-193 -233 189 -52 -90 -138 10 211 -61 0
-55 251 -158 167 17 46 -208 0
-228 -199 -137 -51 141 200 -12 0
81 -122 -52 10 -138 212 -233 -90 189 0
-199 185 -137 -96 -51 141 200 0
90 217 -200 -106 -244 -181 249 156 73 13 0
-90 -138 10 189 -160 186 -52 -37 170 0
225 -109 -233 -39 57 0
72 -148 91 -36 -60 -26 -149 35 40 -216 11 0
-190 244 157 199 173 -25 -136 -96 -106 201 0
-50 160 202 62 123 233 117 0
11 -148 -26 -36 -149 -60 40 35 72 -33 -216 0
-42 -94 52 -173 -122 12 -15 -185 -160 0
12 -15 -185 -142 -94 -173 24 50 90 0
219 -5 246 -39 -76 56 -18 -109 -182 181 0
-233 -94 -185 90 230 12 -173 -122 20 0
251 -209 -208 -197 17 107 -131 0
48 -132 140 -157 -81 -220 -170 193 -89 0
20 50 -173 24 12 230 -185 -94 52 0
-115 180 66 0
90 12 -185 -94 -28 169 -15 -173 -62 0
-130 -68 83 -187 88 -188 39 0
-188 88 3 83 -187 -130 39 0
-128 -257 -133 163 0
-36 114 11 -26 -80 -216 -60 -149 91 40 35 0
-132 -101 -243 128 -102 10 206 -82 211 0
-189 -185 -15 12 -123 -173 -142 -61 -94 0
-6 88 -214 3 39 54 -130 0
157 -90 -52 189 -37 10 -138 24 -202 0
173 -25 199 244 170 201 38 -136 141 -228 0
-185 12 20 -173 -62 -94 -28 138 169 0
-202 -122 -52 -90 157 10 14 -138 189 0
167 107 172 -55 -208 251 17 0
-254 8 -12 -183 0
-193 -96 201 -177 141 -136 199 -25 244 185 0
-138 -90 -37 81 10 50 -52 189 235 0
-229 40 -216 -32 -149 72 11 35 -26 -60 -36 0
-233 90 -185 169 -28 -15 -173 12 -94 0
74 35 -60 213 -149 -26 40 -36 -216 -29 11 0
-189 -185 -42 -62 -94 12 186 -15 -173 0
-185 90 12 205 20 186 -94 -123 -173 0
-189 -123 -173 -61 -94 12 -185 -15 205 0
-106 -109 44 165 -58 130 -129 210 0
17 -208 251 -22 172 -209 241 0
-37 10 235 189 -90 -233 -138 81 -52 0
10 186 -123 -52 170 -138 211 189 -90 0
225 -160 -88 57 -109 0
-185 -15 12 -94 52 -173 -233 235 -142 0
-232 141 -12 -51 200 -137 -201 0
-136 -106 -25 -193 199 201 185 -190 244 207 0
-86 69 83 39 88 -130 -187 0
24 -233 -138 10 81 189 -52 -90 211 0
-42 255 -54 -139 187 0
-42 -173 -185 -94 52 -61 -123 12 20 0
224 -208 146 251 17 -209 -98 0
-94 -173 12 -202 20 138 186 -142 -185 0
-122 -215 185 -15 22 -107 -224 -46 0
99 215 140 257 48 -132 89 0
-94 50 -185 24 -173 12 -142 -189 -15 0
110 -132 107 185 150 121 -89 -221 0
-173 50 -61 12 -189 -94 -185 -42 -15 0
165 -145 130 -204 44 -106 -58 210 0
-187 88 -214 153 -6 -130 39 0
52 15 10 -20 -202 0
-36 -216 -60 -80 -149 35 11 -26 72 -32 40 0
141 249 137 -181 138 211 73 13 -201 156 0
-62 24 -189 -185 12 205 -94 -15 -173 0
56 -13 219 -109 -76 69 -182 -5 -88 246 0
74 -60 -118 -149 -80 -216 11 -36 40 -161 -26 0
-54 -82 205 187 255 0
-31 -57 -16 -125 -44 83 -39 0
12 -202 -173 -94 52 186 -185 -42 20 0
-201 -51 -228 200 -137 173 141 0
-189 73 249 -181 -106 13 -200 156 217 -199 0
-123 189 -122 157 -37 -52 -138 -90 10 0
-15 -94 12 205 24 -173 -123 -185 -189 0
217 -52 -193 -123 189 -90 186 10 -138 0
-12 -25 199 170 38 -96 -136 141 201 244 0
17 -208 -158 111 46 251 146 0
-208 17 251 -209 -22 -131 -98 0
12 20 -28 -202 -173 -189 -185 -94 24 0
-126 71 188 214 -134 18 -69 -160 0
-15 -42 12 90 -173 24 -202 -185 -94 0
199 244 185 201 -193 -190 -25 -96 -136 -106 0
-94 50 24 -42 12 -173 138 -15 -185 0
-138 -90 170 24 -52 217 10 189 -160 0
56 67 126 -73 219 -76 -5 -39 -182 246 0
-185 -94 -173 186 50 138 205 -15 12 0
90 249 141 137 13 -244 73 156 -181 -37 0
20 -22 -139 -152 -227 0
-138 189 10 -193 -90 -85 -52 -123 235 0
-39 77 -231 -17 26 -119 0
141 -181 249 156 -199 137 138 73 13 211 0
17 241 -98 251 -208 224 111 0
-200 -181 73 249 138 -199 13 141 156 -85 0
-185 12 -173 230 -160 -94 20 90 24 0
-25 -106 38 199 201 -136 81 244 252 94 0
-125 -225 -147 58 130 -31 -16 0
-88 219 -156 -182 56 -5 -109 246 -76 -214 0
199 170 244 94 -106 -177 -25 201 -136 -228 0
130 56 219 -182 -145 -5 246 69 -13 -76 0
-232 -193 -177 201 -25 244 -136 -106 199 185 0
165 -109 -204 -58 210 -106 -39 44 0
-12 -136 201 -96 244 38 -193 141 199 -25 0
-193 -25 199 -190 141 244 173 207 -136 201 0
88 54 -130 39 -86 134 -147 0
-201 -106 94 -232 -137 -51 200 0
-15 -28 -94 12 -185 -173 24 52 50 0
138 73 137 -201 156 249 -85 -181 -106 13 0
-216 -33 11 40 35 -36 -26 -60 -78 -29 -149 0
-94 24 -185 52 -173 20 -28 -160 12 0
-90 10 -123 -52 -138 -85 -193 189 -61 0
77 -17 130 36 -119 -231 0
102 -180 -192 0
-173 20 12 -61 205 50 90 -185 -94 0
189 211 -52 -62 24 -90 170 -138 10 0
201 199 71 -25 -12 -136 141 -228 244 170 0
52 169 -185 12 20 -173 -142 -94 -62 0
-52 189 -90 -193 -61 -138 -62 217 10 0
-225 -147 -125 -39 -165 116 -16 0
10 -52 -37 -202 -138 -193 -61 -90 189 0
57 -202 -88 225 -145 0
-189 13 249 -181 73 141 25 156 212 51 0
-80 127 161 -35 0
235 -94 -42 52 -123 -185 -173 12 20 0
141 90 249 73 25 -181 156 217 -200 13 0
-182 -88 -76 56 181 -145 69 246 -5 219 0
-15 -94 -185 -42 -173 12 -189 -160 169 0
-94 -185 -173 -202 12 -142 24 -189 20 0
81 199 244 -106 -136 -96 -25 185 201 38 0
34 -210 -223 134 -139 0
211 170 189 -61 10 -52 -138 -90 -202 0
-189 -15 12 -142 186 -185 -94 -173 -62 0
-15 12 90 205 -185 -62 -94 186 -173 0
173 81 199 -136 201 -190 -25 -106 -228 244 0
69 -130 -86 88 54 39 -147 0
107 -15 -139 -47 -152 0
116 -125 -16 -39 -57 58 -92 0
151 -180 243 0
-106 -181 212 156 249 25 73 90 13 51 0
-181 141 211 73 138 156 249 51 13 25 0
-177 252 199 170 201 -12 -25 141 244 -136 0
20 230 -94 -173 -185 52 12 -62 235 0
119 2 -17 64 155 -95 0
-52 -193 10 -138 186 211 -90 -62 189 0
193 -157 -215 -81 -132 -170 -220 242 253 0
-96 -190 201 -106 244 170 199 -136 -25 173 0
71 -25 -232 157 141 201 -136 94 244 199 0
244 141 199 -228 -25 157 -136 201 -12 71 0
224 17 241 -197 -208 -209 251 0
-180 243 -192 0
39 -187 -130 153 88 -188 83 0
141 13 156 249 137 212 73 -181 -189 25 0
169 138 -94 -173 -185 230 50 12 -15 0
138 13 14 51 156 73 -201 -181 249 -106 0
-201 137 73 141 156 13 211 249 -181 90 0
50 12 20 -185 138 -28 -94 24 -173 0
-132 139 -15 -142 94 82 0
-94 -62 -189 205 12 -185 24 -173 20 0
-185 -15 -173 12 -94 -142 90 -160 235 0
17 -209 -22 167 -208 251 -197 0
-229 -36 -60 40 -161 213 -216 74 -26 -149 11 0
-253 140 154 -48 -163 113 108 -103 0
88 -130 54 -214 153 -6 39 0
-131 224 -55 -208 251 -98 17 0
10 -90 -52 24 -193 189 -138 -202 217 0
170 244 252 199 94 -106 -136 38 -25 201 0
33 -213 10 -91 118 32 -194 -65 -139 0
169 -43 224 -236 0
-137 -51 141 -12 -199 200 -232 0
138 217 -181 249 156 137 13 -244 73 -106 0
38 -136 -228 201 141 157 -25 199 173 244 0
232 -207 -252 54 27 228 96 128 0
-94 -15 230 -173 -160 -61 12 -185 90 0
-193 -235 -215 -169 -47 -186 122 61 -24 0
-181 -200 212 156 -199 73 13 249 -106 52 0
-188 254 31 -165 -248 -116 182 0
-173 205 52 20 12 -94 -62 186 -185 0
-132 85 -217 -14 140 -212 37 -211 0
-161 40 -149 -216 -148 11 -26 -60 -118 72 -36 0
52 13 73 249 -200 -37 -244 156 -106 -181 0
-106 -25 -193 -12 244 -136 201 207 199 -190 0
54 -153 -106 217 86 -3 68 0
12 20 50 -185 205 -94 -173 -122 90 0
20 -185 -94 -173 -122 205 -202 12 138 0
215 89 49 -132 -163 242 48 0
186 -89 -15 -224 22 -46 -107 -12 0
137 -189 -181 212 13 -106 73 -244 249 156 0
-15 24 -173 12 -62 230 -185 -189 -94 0
14 -90 -138 157 169 -233 189 -52 10 0
207 -106 200 -137 25 -51 185 0
73 52 217 137 141 13 -181 249 156 136 0
-15 -224 -122 -215 -107 -46 22 94 0
-221 -12 150 -132 -89 46 121 110 0
199 201 141 207 -136 244 81 -25 -177 185 0
-181 -106 249 156 137 217 13 -201 90 73 0
-173 90 -15 -233 -94 24 205 -185 12 0
-25 141 -190 173 199 201 244 -228 -136 157 0
-54 -28 187 -82 27 0
-44 -125 130 -16 83 -254 -225 0
253 -132 -179 193 242 -170 -215 -81 -157 0
50 10 -90 -138 211 -52 170 -122 189 0
52 -85 141 249 13 137 -181 156 -199 73 0
-6 130 116 -57 -125 -44 -16 0
-92 -86 -187 39 -18 88 -130 0
-94 -173 205 90 12 -202 235 20 -185 0
-163 -75 192 -151 -70 -106 0
13 -199 -181 -106 249 138 156 51 73 212 0
54 -106 86 -153 211 68 -3 0
130 -125 -92 248 -57 -44 -16 0
-15 52 -173 -28 -185 12 169 -233 -94 0
-186 122 157 -215 -169 -235 -227 -24 61 0
-16 -225 -88 -125 116 -44 83 0
224 111 251 -208 167 -158 17 0
40 -108 -53 -127 59 143 -244 9 0
20 -46 -107 -89 173 -61 -224 22 0
-123 169 52 205 12 -185 -94 20 -173 0
50 -83 6 81 147 92 0
-88 -125 -16 -254 -44 -6 -57 0
54 -188 -130 -147 88 -68 39 0
-202 -173 12 52 20 235 -94 -142 -185 0
-39 -145 225 57 -202 0
-76 56 246 -5 -156 219 -112 -88 -214 -182 0
-193 -138 -90 -123 -122 189 217 -52 10 0
-151 257 192 -70 -106 -75 0
-142 -94 235 50 12 -15 -173 52 -185 0
10 81 -52 -138 -160 -90 189 -85 169 0
244 -136 201 -193 97 -228 199 -25 94 -106 0
157 -106 -228 201 -25 199 -136 -190 244 173 0
244 -136 141 173 199 -25 201 -228 81 -177 0
-96 -25 199 -136 141 94 201 244 71 -193 0
-118 -26 -216 -149 -36 40 11 114 -29 35 -60 0
-138 212 169 50 -90 10 -52 81 189 0
20 -94 52 -62 12 -28 -185 -173 235 0
13 156 73 -244 -181 211 51 141 52 249 0
-132 -170 242 -81 48 193 -157 -89 -220 0
-216 168 11 -26 -60 194 40 35 -149 -36 -78 0
-185 12 -202 -42 -15 -94 -173 138 24 0
-152 -82 30 107 -15 0
-130 54 88 83 -188 39 -86 0
-37 -90 189 81 -138 -61 -52 10 -62 0
-6 -188 39 -130 88 -187 3 0
81 -106 -190 -136 185 -232 244 201 -25 199 0
56 -188 246 -156 -5 219 -145 -182 130 -76 0
-169 -235 122 -196 -24 -186 -215 81 61 0
-57 -92 248 -16 -125 -165 -39 0
138 -123 230 -94 235 12 -173 20 -185 0
13 73 -181 249 156 -200 212 141 -199 52 0
11 213 -26 -149 35 168 -60 -36 -216 74 40 0
-52 170 169 -138 189 217 -90 -123 10 0
189 14 -52 50 -90 81 10 169 -138 0
214 -69 18 -134 188 50 -126 -190 0
121 94 -215 46 110 150 -221 -132 0
-15 50 -185 205 12 -173 -94 235 -189 0
-53 -108 59 -201 -127 9 155 40 0
189 -202 211 -52 157 -138 10 -90 169 0
-173 -94 -142 24 20 -123 90 -185 12 0
-139 107 -152 -227 -15 0
-173 205 -94 -185 -15 -202 12 90 235 0
217 189 -90 -202 24 -52 81 -138 10 0
173 -132 107 150 121 110 -221 -89 0
-69 18 97 188 214 -134 -126 50 0
-26 -148 -36 -149 -33 -216 11 -124 -60 -161 40 0
-109 130 225 50 57 0
116 -57 -44 -92 -16 -88 -125 0
168 213 40 -149 -36 -216 -124 -161 11 -60 -26 0
-185 12 90 186 -173 -142 -15 -62 -94 0
156 73 -199 249 90 211 -181 137 141 13 0
-12 244 -25 199 170 -96 201 -136 71 -106 0
-231 130 77 -251 -119 -11 0
-173 -185 12 -94 20 235 -189 -202 205 0
-37 156 13 -200 52 -201 -106 249 73 -181 0
-103 -157 -170 -81 140 -132 -89 253 193 0
-15 186 -142 -94 138 -123 -173 12 -185 0
-61 -42 12 -185 -173 -94 20 -189 50 0
-132 140 89 49 215 253 257 0
48 89 -132 215 133 -23 242 0
20 -28 -185 24 -173 -233 -189 12 -94 0
244 199 97 207 -25 157 201 -136 94 -106 0
-36 -148 213 -60 40 -26 -78 11 -216 -149 -161 0
145 109 -67 245 112 0
156 141 -200 73 217 -181 138 -244 13 249 0
-149 -161 40 -216 -229 -60 -36 -33 -26 11 -78 0
-44 -125 -147 -16 -57 130 -254 0
14 -52 10 186 -138 -62 81 -90 189 0
-202 -94 12 20 -173 -122 -185 138 230 0
-122 -94 50 -42 12 -15 -185 52 -173 0
205 -185 -61 12 -15 -173 52 -94 -202 0
-202 90 169 205 12 -15 -94 -173 -185 0
-173 12 -142 -189 -185 -62 169 -94 20 0
40 -85 -100 104 35 155 0
-107 -215 -224 -15 235 22 -46 173 0
211 -52 235 -90 -160 189 -138 10 81 0
-62 12 -61 -189 -15 -173 -185 230 -94 0
-34 130 -129 44 141 165 67 -58 0
-90 10 217 186 -52 189 157 -138 -123 0
54 -188 -92 88 -130 39 3 0
-119 -88 77 -17 -231 -11 0
141 212 90 249 13 -181 73 156 -200 -199 0
-94 -173 -160 -142 -185 12 186 90 -15 0
134 3 88 39 -147 -187 -130 0
249 -244 141 13 156 -181 217 -200 73 -189 0
-11 77 208 -231 -88 -2 0
217 -138 -61 189 -52 -90 157 -233 10 0
219 56 130 -5 -188 67 -182 -76 246 -156 0
-149 11 40 114 -216 -29 35 -26 -36 91 -60 0
-60 40 -80 11 -26 -161 114 -36 213 -216 -149 0
-31 -57 -125 -39 -147 58 -16 0
12 20 -202 205 52 24 -94 -173 -185 0
89 -132 128 49 215 1 -113 0
-185 -15 -173 -122 205 -94 12 -123 52 0
170 141 244 -136 -177 -25 199 173 201 252 0
-138 157 189 217 -123 -52 10 -90 -61 0
24 -160 10 14 189 -52 -193 -90 -138 0
-193 -25 199 185 -106 38 201 244 -136 207 0
111 107 -95 167 -208 17 251 0
-62 57 130 225 -112 0
83 -187 -18 -130 39 -68 88 0
189 -193 -90 -37 -138 10 -52 -122 -233 0
-15 -185 205 -189 -202 -173 12 -94 169 0
-200 156 141 -201 217 52 249 13 -181 73 0
76 -248 -18 254 -165 -116 31 0
-142 -15 -160 -94 -173 -185 169 52 12 0
-154 1 89 257 99 215 -132 0
-90 217 189 235 157 -52 -202 -138 10 0
170 -233 -52 10 189 -61 -138 -90 -37 0
-185 90 20 -173 -233 -94 12 24 -142 0
159 -48 -253 113 -163 154 1 108 0
12 -94 -160 -28 20 -185 90 -173 -61 0
217 -189 249 156 73 -181 13 51 141 136 0
-132 159 -170 193 -154 -157 242 -81 -89 0
-37 -52 186 -233 10 170 189 -90 -138 0
257 1 89 -23 -132 -154 215 0
-185 -62 230 -122 -173 -15 -189 12 -94 0
235 -173 -185 -62 -94 90 12 205 -15 0
73 249 25 13 -181 51 141 212 156 138 0
-106 -37 249 -181 137 52 13 25 73 156 0
-173 12 20 -94 230 -61 50 -189 -185 0
40 -60 -148 114 -216 -149 -26 11 35 91 -36 0
20 -47 -82 -22 -152 0
173 201 141 -136 -25 199 244 71 207 170 0
156 13 -201 -106 52 73 -181 -200 211 249 0
141 -129 -58 67 -88 165 44 -34 0
-18 -86 54 39 -6 -130 88 0
137 73 -37 156 90 141 249 -181 13 -199 0
-64 77 60 -39 -231 -251 0
-173 90 20 -123 12 -185 -94 24 -42 0
-254 -226 94 -183 0
-185 -189 -173 12 20 -160 -94 -42 -122 0
200 -51 252 -137 25 173 141 0
249 141 13 90 14 -181 25 -200 156 73 0
-149 40 -161 -33 -216 168 -78 -36 11 -60 -26 0
-6 -130 153 54 39 -18 88 0
200 -106 -96 -51 -199 -137 185 0
186 -94 90 20 50 -185 12 -173 -28 0
90 51 249 73 13 -106 156 -181 136 217 0
-33 -36 -60 35 -78 -26 -216 -149 -148 40 11 0
168 11 -36 -149 -216 72 -26 194 35 -60 40 0
17 -158 251 -208 167 107 -55 0
-190 141 199 -12 201 -193 -25 244 -136 252 0
-188 83 54 -130 39 153 88 0
-88 -76 56 246 -214 -156 -182 219 67 -5 0
254 69 -44 31 -248 -116 76 0
181 67 56 246 126 130 -182 -76 -5 219 0
-6 -214 -86 -130 54 88 39 0
14 -122 -138 -52 170 189 -90 -202 10 0
-185 -94 -160 -142 138 12 20 235 -173 0
140 89 -132 215 -23 128 253 0
12 205 -185 52 -62 -94 -173 20 235 0
122 -215 -193 -235 -186 -24 -169 7 61 0
-136 -190 -96 244 -25 -12 199 201 157 141 0
14 -153 54 86 -3 -106 68 0
16 -56 -195 -132 58 -164 41 0
-231 -88 26 208 77 -2 0
77 -39 149 208 -231 -119 0
-136 -228 -25 201 173 -106 244 71 199 170 0
-36 168 -60 -149 -26 35 -216 -32 11 -124 40 0
252 244 97 199 94 141 170 -136 201 -25 0
-50 123 62 233 -203 202 160 0
-215 -107 173 -46 235 20 -224 22 0
-173 -28 -185 12 235 -189 -233 20 -94 0
251 46 -131 -197 111 17 -208 0
185 -183 -254 8 0
-96 141 200 25 173 -51 -137 0
97 94 201 199 244 -106 -136 -25 -228 170 0
-57 -39 58 -254 -125 83 -16 0
-5 -76 -39 -13 219 246 -112 -182 56 -18 0
-53 -154 59 136 9 40 238 -127 0
-170 -157 -89 -113 -132 193 140 -103 -81 0
20 -185 -233 -142 -94 -61 -189 12 -173 0
106 -141 -82 152 90 -65 0
205 -185 -94 -173 138 12 -123 -61 -15 0
126 54 88 3 -147 -130 39 0
201 244 -12 -136 -106 199 -193 -25 97 -232 0
-98 -208 224 167 -55 17 251 0
-39 -182 219 69 -5 56 -13 -76 67 246 0
20 -94 -189 12 -173 -185 -122 -142 50 0
157 141 -136 244 -25 97 252 201 199 185 0
126 -13 -5 219 -109 130 -182 246 56 -76 0
-62 90 12 -185 -15 -173 -61 -94 205 0
-199 -106 249 14 51 156 13 73 -181 52 0
56 -18 -5 219 67 246 -76 -73 -88 -182 0
199 185 -136 -232 201 244 71 170 -25 -106 0
-227 -22 20 -152 -82 0
13 -106 136 14 156 -181 51 52 249 73 0
12 -94 -185 50 -173 90 -28 20 235 0
-94 -202 186 -185 205 -173 12 -15 138 0
212 10 -90 189 170 -138 -52 -122 -202 0
-94 235 -123 -173 20 90 -185 12 -42 0
-28 139 -15 94 82 -132 0
235 -90 10 189 50 170 -52 14 -138 0
199 38 207 141 201 -136 244 173 -25 -193 0
73 -106 -199 -181 249 13 138 -37 156 -200 0
180 234 66 0
-52 -193 -138 10 -123 -90 24 14 189 0
-189 -173 -15 12 235 -185 -94 -42 -123 0
12 -15 -160 -189 186 -142 -173 -185 -94 0
249 73 13 -181 14 156 -106 51 -244 90 0
45 231 240 -166 -198 -184 -87 16 0
-100 104 238 -85 35 40 0
81 -136 -106 -25 201 -96 97 185 199 244 0
-82 230 174 187 -54 0
-73 56 -76 -39 126 -145 219 246 -182 -5 0
-190 -136 81 94 201 199 -96 -25 244 -106 0
-173 -94 12 -15 -185 -28 90 186 -62 0
219 -5 -13 -88 -182 -76 56 67 246 -18 0
-56 58 41 -132 -195 125 -164 0
11 -36 40 -161 74 -60 -149 -26 -229 91 -216 0
-89 193 -103 1 -132 -81 -170 -157 -108 0
34 126 -82 -210 178 0
219 -5 -76 -182 67 -39 -214 246 56 181 0
128 215 -132 1 -23 89 -108 0
199 -96 185 244 -25 -136 201 -106 38 157 0
12 -173 138 -123 186 -94 230 -185 20 0
172 -208 17 167 251 -22 111 0
173 -25 199 207 -106 -193 -136 201 38 244 0
-253 113 -179 -48 108 154 242 257 0
-90 -52 10 189 -160 -138 -85 235 -193 0
-106 244 173 199 -25 97 81 -136 -96 201 0
138 -15 12 -94 -185 -173 -233 -42 169 0
-199 156 73 211 13 138 -181 249 -200 141 0
-138 170 189 10 -90 -37 -233 24 -52 0
219 -182 67 126 246 -5 -13 130 56 -76 0
-173 -15 52 -94 -28 -185 50 169 12 0
189 -52 235 10 -193 50 -90 -85 -138 0
38 201 199 157 244 185 -136 -106 -25 -232 0
-248 -44 -188 31 -219 -116 254 0
-160 217 10 -90 157 -61 189 -138 -52 0
40 -108 -127 -199 238 59 9 -53 0
20 -122 -123 -173 -94 12 -28 -185 -189 0
244 199 157 252 -177 -25 94 -106 -136 201 0
-106 136 249 156 -181 13 73 -37 138 -200 0
-209 224 251 -158 241 -208 17 0
201 244 -136 199 -25 -12 -193 207 71 141 0
-116 -44 134 254 -246 31 -248 0
40 104 35 155 14 -100 0
141 -199 51 13 73 -181 249 212 156 90 0
157 -232 71 -106 185 201 -25 -136 199 244 0
-82 -243 -163 211 10 206 -101 -132 -102 0
49 -108 215 -132 89 140 133 0
-25 199 -228 71 -136 -12 141 201 244 81 0
56 -182 -76 -5 181 246 -109 69 219 -88 0
94 244 -136 199 252 170 -190 141 201 -25 0
-181 -189 -106 249 -85 156 73 137 -199 13 0
-106 -200 -181 136 249 52 73 156 13 14 0
25 9 143 -127 40 59 -53 253 0
205 20 90 -61 -160 -185 -173 12 -94 0
12 -94 -185 -173 20 -142 -122 90 -233 0
90 -181 156 51 -199 217 73 249 13 141 0
-31 -147 -16 -44 -88 -125 -57 0
89 215 -132 -23 -154 242 257 0
-124 -216 -60 11 -118 40 -149 168 -161 -26 -36 0
-94 -185 12 90 -15 -28 -160 -173 235 0
-106 13 249 73 -199 52 51 212 156 -181 0
185 38 201 -228 -25 141 -136 170 244 199 0
211 141 13 51 73 -199 90 -181 249 156 0
185 -106 207 201 199 244 -136 -177 81 -25 0
172 -55 17 -208 -131 251 224 0
189 -52 235 10 -233 -85 170 -90 -138 0
-237 166 -175 -256 143 -162 120 183 -220 0
-76 -182 56 -5 246 134 219 -39 -73 -112 0
-16 -225 -88 -125 -44 -31 -92 0
20 -202 24 -94 -173 90 12 230 -185 0
-185 -173 20 52 -233 -94 -42 12 235 0
-202 -39 57 -109 225 0
-215 193 242 -170 -81 -132 159 48 -157 0
246 67 -18 219 130 -182 -73 56 -5 -76 0
173 207 -190 141 201 170 -136 199 -25 244 0
52 152 -141 255 -82 106 0
50 -173 52 20 -94 -61 -185 12 -42 0
-148 -26 -78 -36 -161 11 194 -216 40 -149 -60 0
-15 -185 12 138 -94 -173 -42 50 169 0
134 -5 246 -88 219 56 67 -76 181 -182 0
11 -26 -33 -149 -124 -60 -29 -216 -36 -161 40 0
25 13 73 249 -181 -85 156 -106 51 -189 0
78 -114 -72 -64 124 -68 -74 0
20 -94 -28 169 -185 90 12 -173 -202 0
-25 244 97 94 201 141 -96 170 -136 199 0
235 10 -62 189 -138 81 -52 217 -90 0
81 -52 212 10 -90 -160 -122 189 -138 0
-25 -232 141 -136 185 -193 97 244 199 201 0
94 -228 -137 -51 141 200 -244 0
-29 -216 -33 -149 -60 -26 40 74 35 -36 11 0
-138 -85 24 10 157 -52 -90 189 -123 0
-92 88 -130 39 -187 126 -86 0
-173 -94 52 -62 -61 -15 -42 -185 12 0
-95 146 111 251 -208 17 46 0
-62 -173 12 24 -15 -42 -185 -94 90 0
-233 130 225 67 57 0
34 -82 -223 134 -210 0
-191 -201 54 -250 -171 -93 115 -234 -63 0
-25 81 201 -177 -136 141 185 252 244 199 0
20 169 -173 12 50 -94 90 -142 -185 0
252 244 199 201 -12 -25 157 -106 97 -136 0
10 14 -193 189 -90 -202 -52 169 -138 0
230 169 50 -189 -173 -15 -94 12 -185 0
173 -25 199 244 81 -232 141 -136 201 97 0
10 -90 212 -52 -62 81 189 -138 -61 0
-160 157 -52 189 -90 186 211 10 -138 0
10 -52 -37 -122 -138 189 81 -90 -123 0
-173 -62 52 -122 -185 -94 12 20 -142 0
90 -185 -94 50 -142 -122 -15 12 -173 0
52 -173 -185 -202 20 186 -94 12 205 0
244 199 -136 81 -96 -25 71 173 201 141 0
219 -109 246 181 -76 126 -182 -88 -5 56 0
157 212 -138 -90 -202 10 186 -52 189 0
138 186 -185 205 -173 -15 -94 12 -233 0
-26 -60 -36 -149 -32 -80 -216 114 35 11 40 0
-90 10 -52 81 24 -37 -138 -233 189 0
253 -132 89 215 99 133 140 0
-148 -149 74 -60 -36 91 40 -216 -26 -161 11 0
-106 -136 -25 -96 157 -12 199 97 244 201 0
113 108 159 154 -163 140 -253 -48 0
69 56 -76 -249 246 -182 219 130 -5 -112 0
-42 -139 187 -65 -54 0
89 -132 140 215 -154 -163 99 0
156 -189 -181 -85 13 -106 73 -200 -244 249 0
251 167 224 17 -55 -208 -158 0
138 169 -173 -62 -42 -94 12 -185 -15 0
-39 83 -125 -16 -165 -31 -225 0
96 -252 -207 232 54 228 174 133 0
-39 -109 -18 -5 219 246 -156 56 -182 -76 0
-145 -123 225 57 -88 0
-138 -52 10 217 -123 -90 189 81 235 0
-26 -216 -161 168 -36 11 -124 -149 40 -60 -33 0
-130 88 -6 39 -68 54 -188 0
141 44 -58 165 -39 67 -34 -129 0
-122 157 -52 10 -160 189 -90 -138 217 0
-102 206 -132 10 -243 128 14 -101 -139 0
-145 219 -5 -76 56 -88 -182 -214 -73 246 0
-101 -102 217 10 -132 -243 257 206 -82 0
-149 -36 -60 213 11 -161 72 40 -216 -148 -26 0
137 156 212 13 -199 -106 52 249 73 -181 0
-81 193 48 -215 -132 140 -170 -157 -220 0
-61 -185 -94 -28 138 -62 -15 12 -173 0
-28 138 -173 -94 -15 -185 -62 169 12 0
-181 13 141 52 249 212 156 73 -201 -200 0
-76 -182 -188 -249 246 -5 56 -112 219 -39 0
224 17 -98 -208 251 241 -209 0
157 -90 189 -233 -52 -61 212 -138 10 0
211 137 73 156 249 -106 52 -181 13 -244 0
-136 -25 -193 244 -96 97 141 199 -12 201 0
138 -173 24 12 -94 230 -185 50 20 0
-90 10 -138 -61 217 -52 -193 -233 189 0
-94 12 -185 -173 169 -142 90 50 -15 0
-98 46 -208 17 111 241 251 0
-137 141 94 -201 -51 200 -96 0
94 -137 -106 136 -51 -228 200 0
-189 -160 169 230 -185 -173 -15 -94 12 0
252 -136 201 141 170 38 199 244 173 -25 0
58 -116 31 254 182 -248 69 0
-201 200 -137 -51 94 141 -228 0
-15 -28 -94 24 90 -123 12 -173 -185 0
54 88 39 -130 -86 83 -18 0
-136 252 199 -106 -12 97 -25 201 81 244 0
134 219 -145 -5 130 56 181 -76 -182 246 0
-94 20 -173 235 -28 12 90 -185 -233 0
58 -125 -88 -57 -16 116 -92 0
73 51 138 156 249 13 -244 -85 141 -181 0
-254 -44 -88 -225 -6 -125 -16 0
138 -185 -173 -94 230 186 20 -233 12 0
-24 -169 -186 -47 61 -235 -89 122 81 0
-44 41 125 -195 -132 5 -164 0
-185 -15 -94 -160 -122 -42 -173 12 -189 0
-94 -42 52 -173 -160 12 -61 -185 20 0
251 -209 -208 -131 -158 224 17 0
-185 -28 12 -15 -94 52 -173 -62 24 0
-94 52 -160 -185 -173 -15 -142 -61 12 0
-210 -139 34 117 -214 0
52 -181 156 13 -201 249 73 -200 -106 -85 0
-25 -232 -136 199 -106 201 94 71 244 157 0
-42 -173 -123 -189 -94 12 -15 -185 186 0
241 251 -22 -208 111 17 -98 0
12 -123 -28 -173 20 -185 -94 52 -61 0
-190 170 141 199 244 185 -96 201 -136 -25 0
-82 178 134 -210 34 0
50 -94 -173 12 169 20 -185 205 -189 0
-216 -149 -118 -161 -60 72 -26 -36 11 40 -229 0
20 -227 -82 46 -152 0
205 -94 12 20 -202 -189 -173 169 -185 0
188 214 -62 18 -134 -190 -69 -126 0
136 90 -200 -181 14 73 141 13 156 249 0
73 -189 -106 -85 13 156 -181 137 -244 249 0
108 -179 -253 154 133 -48 140 113 0
-88 225 57 67 50 0
200 -51 -199 -232 -137 -106 94 0
-82 -196 -152 20 224 0
-17 119 2 64 155 -158 0
-228 -136 97 141 199 201 244 -25 -12 157 0
-90 -61 -138 10 -85 -202 189 -52 -193 0
-189 -42 -173 12 -62 20 24 -94 -185 0
-189 -233 12 -94 169 -173 -42 20 -185 0
199 -12 -232 244 201 -25 -106 -177 -136 81 0
242 -179 -108 -81 -89 -170 193 -157 -132 0
15 -233 -20 10 52 0
3 54 69 -6 88 -130 39 0
12 90 -122 -173 -62 -94 -42 -185 -15 0
-6 -16 -165 -254 130 -125 -225 0
252 -136 -25 173 244 -106 -190 170 199 201 0
-173 -94 -185 52 50 20 12 -122 230 0
59 -127 -113 9 40 -201 -53 155 0
17 -22 -209 172 -208 251 146 0
170 -52 14 10 169 -138 -90 189 -62 0
-161 -36 11 40 91 -149 -60 -229 -78 -26 -216 0
-139 -152 -47 -22 -15 0
-57 -147 -125 -165 -16 130 -31 0
-85 249 156 51 73 25 90 -106 13 -181 0
-106 199 38 201 157 -136 94 244 -25 -232 0
199 141 173 -136 244 -177 -25 207 157 201 0
-173 20 169 -185 12 230 -94 -123 90 0
10 -160 -122 211 157 189 -52 -90 -138 0
-52 -90 212 -123 10 189 24 -138 81 0
-90 -160 211 81 10 -52 189 186 -138 0
116 -125 -16 -6 -165 -225 -39 0
-208 251 17 111 46 -197 241 0
77 60 -231 208 -64 -88 0
150 46 -221 -89 -132 110 185 121 0
-139 -54 -28 187 -65 0
50 157 -52 -90 -122 212 189 10 -138 0
-107 -46 185 24 -224 22 -89 -15 0
41 16 -164 -195 -132 -56 -165 0
-58 165 -39 -112 210 44 141 -204 0
-170 193 -215 159 -81 242 -132 -157 -108 0
-28 -61 -123 12 -94 90 -15 -173 -185 0
-137 200 -51 -201 207 173 -106 0
-31 -125 130 -225 -16 -6 58 0
51 -244 156 249 73 90 13 -181 212 -106 0
-57 -254 -125 -147 -16 -39 58 0
-15 -185 -142 -189 12 -173 -94 -233 169 0
-173 -160 169 138 -28 -15 -185 -94 12 0
73 211 249 25 52 141 -181 156 13 -200 0
207 201 199 -25 244 141 -136 97 -193 185 0
138 -94 -173 12 -185 50 186 230 20 0
-224 -61 -107 -46 -215 22 20 185 0
-215 150 173 107 -221 121 -132 110 0
138 -94 20 12 24 -142 -173 -185 -123 0
-249 -182 67 219 56 -18 -76 -5 -39 246 0
-195 41 -56 -132 -164 16 -44 0
-211 -217 -14 85 -132 -212 37 1 0
172 -251 155 64 2 119 0
-201 156 137 -181 73 249 52 13 -85 141 0
-147 -125 -39 -57 -16 116 58 0
-94 52 -28 -62 -173 12 -185 -15 186 0
94 244 201 38 -136 -106 199 81 -25 207 0
-131 251 17 46 -158 111 -208 0
-189 -28 24 -62 12 -15 -94 -185 -173 0
-197 251 17 241 -209 -208 107 0
20 -28 -122 50 -185 -94 -173 12 52 0
-125 58 -254 -225 -88 -16 -6 0
27 -42 -82 -54 187 0
205 -54 187 -139 -65 0
-170 1 -81 193 -157 -220 -132 -113 -215 0
200 -51 94 -106 252 -137 25 0
170 -228 97 201 -25 244 199 -136 -106 185 0
40 11 74 194 -26 -149 -36 -161 -60 168 -216 0
188 -69 -134 50 38 -126 18 214 0
-55 146 107 172 -208 251 17 0
-52 157 10 189 24 -90 -37 -62 -138 0
-160 -94 12 -185 -61 -15 90 -173 205 0
-157 -89 -154 -132 -220 193 1 -170 -81 0
-139 187 -54 -142 255 0
-28 12 -62 -173 138 -94 -185 186 20 0
-106 170 94 201 244 252 -190 199 -25 -136 0
97 244 -25 -136 -96 141 81 173 199 201 0
14 136 156 -106 73 249 90 137 13 -181 0
-76 246 -5 -145 -249 -88 69 219 56 -182 0
-69 18 -123 188 -126 -134 97 214 0
185 244 81 38 -136 -106 199 -25 201 -232 0
10 -160 -90 189 -52 169 -138 81 211 0
-173 -185 -94 12 -189 -122 50 205 20 0
140 99 215 -163 253 89 -132 0
35 -124 11 40 -149 -216 -26 -36 -60 -148 -32 0
155 2 64 119 -251 -95 0
14 -90 81 -52 -138 -122 -160 189 10 0
13 141 217 90 249 25 73 137 156 -181 0
-189 12 -142 -94 -173 -185 20 -122 -202 0
138 156 -200 14 -106 -181 249 13 -199 73 0
-249 -182 -112 219 130 -188 -5 246 -76 56 0
-36 -216 -26 35 213 -149 -78 11 -148 40 -60 0
-109 219 126 -76 -156 130 56 -5 -182 246 0
211 189 157 -138 10 -52 -62 -90 24 0
-229 -149 -60 -216 11 -36 114 -26 213 35 40 0
189 10 186 -138 211 -52 -62 81 -90 0
50 10 -90 -52 -61 -193 -138 -37 189 0
-185 -173 -142 -61 12 -160 20 -94 90 0
-165 -92 -88 116 -16 -125 -57 0
217 -52 -138 -193 10 -90 -233 -122 189 0
-52 189 14 10 -160 -193 -90 -138 186 0
-90 -202 186 -193 10 -85 -52 -138 189 0
201 199 252 -193 173 -106 -136 38 244 -25 0
-88 -5 56 -249 -182 -112 246 219 -76 134 0
-106 249 -200 73 -181 211 13 52 156 25 0
-208 111 167 46 -158 251 17 0
-185 -189 205 -94 -160 20 -173 12 24 0
-42 -94 -202 12 138 -185 -61 20 -173 0
52 -185 20 12 -94 -28 -173 -61 -233 0
88 134 39 -130 83 -187 -86 0
111 241 251 -22 17 -208 -158 0
170 201 -190 -25 199 244 -106 94 207 -136 0
-185 12 52 -15 235 -173 205 -94 50 0
-185 -15 12 24 230 90 -233 -94 -173 0
-113 215 140 257 -132 89 99 0
60 208 -231 -119 130 77 0
31 -248 -246 -165 254 -188 -116 0
-146 -241 131 -89 182 -167 -39 0
-94 169 -185 -15 52 12 -173 -233 230 0
-183 -226 -31 185 0
199 -136 244 -25 207 173 170 201 141 -177 0
52 169 12 50 -94 -173 -185 -15 230 0
10 -138 -123 -90 -193 -52 189 24 -85 0
-62 -15 -173 -94 -189 235 12 230 -185 0
-185 -94 -173 -42 138 -15 12 -62 24 0
-161 -100 40 104 217 155 0
41 16 58 -195 -164 -132 5 0
138 25 137 217 156 -181 -106 73 13 249 0
-52 10 -138 235 189 -202 -193 -90 212 0
10 -20 15 50 -189 0
-136 201 -106 173 170 252 -25 38 199 244 0
-116 -214 -165 254 -56 31 -248 0
138 -185 -122 12 20 -94 -173 -28 -62 0
170 -52 -61 -138 -85 189 -90 10 -202 0
137 13 156 136 138 73 -181 249 -106 -37 0
12 -185 -28 52 -15 235 -94 -173 -233 0
-42 -185 -233 24 -173 12 -94 20 138 0
201 -193 -232 185 199 -190 -106 244 -25 -136 0
22 -224 -15 -46 -107 235 -12 -89 0
-92 130 -44 -225 -16 -254 -125 0
-94 -185 -61 12 -15 -142 -62 138 -173 0
141 13 73 -37 25 249 138 137 156 -181 0
-52 10 -193 211 50 -138 169 -90 189 0
96 27 -252 128 228 -207 232 -187 0
-233 -189 -15 -94 -185 -173 205 186 12 0
156 249 -201 -106 52 -85 51 73 -181 13 0
-52 -85 189 -138 169 -160 10 157 -90 0
56 -109 -182 246 -76 126 -73 -5 219 130 0
-254 -147 -39 -165 -57 -125 -16 0
10 -138 189 -233 -90 157 -61 -52 -85 0
244 141 -193 -25 199 71 -136 185 201 207 0
-199 90 14 137 73 -181 141 13 156 249 0
129 204 67 -34 0
-16 58 83 -39 -225 248 -125 0
141 38 199 -25 94 -136 -232 170 244 201 0
169 -94 -185 -123 12 -15 -173 -189 -28 0
12 -15 90 -185 186 -94 -173 -123 -142 0
-181 141 -199 73 -37 156 13 249 51 52 0
18 -69 -62 97 -134 188 214 -126 0
17 -208 -158 251 224 146 -209 0
-189 13 249 -181 141 -85 156 73 -244 137 0
20 -61 -94 -173 -185 -28 12 -123 -189 0
-161 -149 -148 -216 -118 114 40 -36 -26 -60 11 0
-116 -248 254 31 -18 5 -165 0
-95 -55 17 -208 224 251 167 0
-160 -90 -37 186 189 10 -138 -52 81 0
40 -53 -127 155 -108 -244 9 59 0
-20 15 10 -123 138 0
12 -189 -94 -122 -173 -233 -185 -42 -15 0
-181 249 14 51 73 52 -201 -106 13 156 0
-11 -64 -39 208 77 -231 0
90 -15 205 -185 24 -173 -94 12 -123 0
-202 -177 18 -69 -134 188 -126 214 0
5 131 -146 130 -89 -241 -167 0
-161 104 155 40 -100 211 0
182 31 -248 58 126 -116 254 0
49 140 -154 -132 215 89 128 0
230 -233 12 52 20 24 -173 -94 -185 0
48 238 9 -53 -127 40 -244 59 0
-185 -94 -202 -15 -28 -173 138 186 12 0
-185 169 138 -173 -15 -94 12 230 -62 0
170 189 -138 169 10 14 -123 -52 -90 0
12 -202 -185 24 230 -15 -94 138 -173 0
-15 -185 -189 12 -122 230 -123 -94 -173 0
-33 40 -29 11 -60 -149 -216 -36 -26 114 -161 0
-95 17 224 251 241 111 -208 0
251 -209 -98 -208 17 107 -131 0
17 -22 -208 146 -55 172 251 0
-130 39 -188 54 88 -6 3 0
81 -25 199 201 97 -232 244 94 -106 -136 0
13 73 -181 -201 -37 156 141 138 51 249 0
-227 -152 -15 -139 -22 0
-62 189 169 -90 81 -52 -85 10 -138 0
12 20 -94 186 230 90 -123 -185 -173 0
-193 -160 10 -138 -90 186 -85 189 -52 0
-140 -1 -242 0
156 13 73 249 212 25 137 52 -106 -181 0
-165 31 -116 -56 -248 254 126 0
-138 189 170 10 -90 -160 235 211 -52 0
12 138 169 20 -185 -94 -173 -202 -142 0
20 -42 -94 90 -123 -173 169 -185 12 0
126 -6 88 -130 -187 -86 39 0
201 207 -136 244 -193 94 199 -25 141 38 0
252 -136 97 -25 199 201 141 244 -193 185 0
51 156 141 -189 -181 -201 13 249 73 -37 0
-62 -142 52 -122 -173 -15 -185 12 -94 0
20 -152 107 -196 -82 0
20 169 -189 -160 -94 -185 -173 12 230 0
35 104 211 238 -100 40 0
-15 -94 -185 -233 -122 -28 52 12 -173 0
-189 -181 249 141 73 13 -201 51 211 156 0
-52 -90 169 -37 -138 189 10 50 81 0
-42 -173 20 50 -185 -94 12 138 24 0
50 -185 90 230 -15 -173 12 -122 -94 0
-182 -76 -88 -18 -156 219 -5 56 246 -112 0
205 -185 -15 235 -94 -160 -173 12 90 0
12 -94 -62 138 -173 -185 -15 -142 235 0
-231 -251 -39 149 -119 77 0
170 -138 189 -52 211 50 -61 -90 10 0
189 157 -52 -85 -90 235 10 -160 -138 0
39 88 3 -130 -187 -18 83 0
-90 217 -52 170 -138 -122 189 10 50 0
-189 -94 -15 -28 -202 -122 -185 12 -173 0
-94 12 -15 -173 205 169 -123 -185 52 0
-36 -32 40 -26 -161 -60 -124 -216 -149 11 -80 0
141 13 156 -189 137 136 -181 249 73 14 0
24 12 20 -28 -173 52 50 -94 -185 0
-15 12 -42 169 -185 -202 138 -173 -94 0
12 -173 -94 20 -28 -185 90 -233 -61 0
20 90 -173 -42 12 -62 -185 -61 -94 0
9 59 253 -127 -53 40 -244 238 0
199 94 -25 244 71 207 170 201 141 -136 0
73 -200 -106 249 211 13 156 138 -181 136 0
219 -76 -5 246 56 126 -182 -109 -73 -88 0
143 104 -100 40 14 -161 0
-25 -136 -193 -96 71 199 -106 201 244 185 0
-92 -57 248 -16 -125 130 -165 0
-15 205 94 139 -132 82 0
-15 -233 230 -173 12 24 52 -94 -185 0
189 169 -138 -52 -37 157 -233 -90 10 0
238 -158 64 119 2 -17 0
-94 24 -185 -160 -28 -15 12 90 -173 0
-189 -62 -173 20 -94 -28 12 235 -185 0
31 -248 254 -219 126 -116 -165 0
244 201 185 -25 -136 -177 141 199 -193 252 0
-90 -138 50 186 10 217 170 189 -52 0
127 -35 168 161 0
257 -253 140 154 -48 -179 108 113 0
-6 -254 -39 -44 -125 -57 -16 0
154 242 -163 113 -253 108 -48 -179 0
-62 138 -185 -94 12 -173 20 205 -61 0
-139 46 20 -196 -152 0
-208 167 -95 -209 17 251 46 0
-81 -108 -132 193 -170 140 -157 -89 -179 0
97 141 -136 185 201 199 -25 170 244 207 0
-202 230 12 -185 -94 186 52 20 -173 0
-170 -179 140 193 -132 -113 -215 -81 -157 0
205 -123 -173 52 -185 -94 12 20 -122 0
244 -228 -193 -106 199 201 -136 173 38 -25 0
200 -51 -201 -228 141 -137 185 0
-31 130 -225 83 -125 -16 -165 0
-130 39 -188 -187 153 88 -6 0
-94 169 12 -173 -185 -189 230 -15 -62 0
138 -202 -94 20 12 230 -185 -173 24 0
12 24 -42 -160 -94 -173 -185 20 52 0
-76 56 -182 134 130 67 219 -5 -73 246 0
13 249 156 -181 -37 137 -201 90 73 141 0
116 -57 -16 -165 -147 -125 -39 0
77 149 208 130 -231 -64 0
185 200 -201 -137 141 -51 252 0
10 81 -90 -61 211 -52 -160 -138 189 0
-132 215 128 89 48 -23 1 0
244 -190 -136 -12 141 81 199 201 -25 207 0
-154 9 143 -53 59 -127 40 136 0
230 187 27 -139 -54 0
-195 -165 -132 -164 16 -219 41 0
-228 201 244 -106 -136 199 157 -25 94 71 0
-185 -173 90 -61 -62 -142 12 -94 -15 0
-130 -92 39 153 88 -187 -18 0
77 -231 -251 -64 -88 36 0
-85 -138 -62 -193 10 -52 186 189 -90 0
-138 -62 212 -90 -122 81 189 -52 10 0
235 -185 -42 -173 -94 20 -62 12 -189 0
-138 -52 -90 -37 50 169 10 189 157 0
12 52 -142 -61 -173 -94 -185 -202 -15 0
199 -25 201 -96 -106 244 157 -190 -136 185 0
-81 -220 -113 -132 193 -170 242 -89 -157 0
-94 52 20 12 -185 186 50 -42 -173 0
10 -138 81 -37 189 235 -160 -90 -52 0
-52 -233 169 81 217 -138 10 -90 189 0
244 173 -25 -136 199 71 -232 170 -106 201 0
230 -15 138 -94 24 -173 -160 -185 12 0
211 13 -199 141 156 52 249 -200 -181 73 0
90 -173 186 20 -94 205 -185 -202 12 0
40 11 -26 -36 -148 35 -216 -149 -124 -60 213 0
189 -202 -90 186 -138 10 -52 -193 211 0
136 90 137 73 249 217 156 -181 -106 13 0
-76 56 -182 -112 -5 -249 -39 219 246 69 0
88 -6 -86 39 -188 -187 -130 0
80 229 29 -168 -44 155 148 0
56 -13 67 -5 246 130 219 -76 -188 -182 0
10 -52 189 -138 -90 211 -122 170 -123 0
-61 -185 -142 12 -173 -94 52 -123 20 0
19 184 105 0
77 -64 149 -39 -231 -251 0
244 -136 -25 -106 -190 -232 94 201 157 199 0
-170 -113 -220 193 140 -132 -89 -157 -81 0
12 50 -185 90 -94 -15 24 -42 -173 0
-206 75 -180 0
201 -136 252 199 244 -177 173 -25 -193 141 0
49 242 -132 253 257 89 215 0
58 -132 41 -246 16 -195 -164 0
38 207 244 199 157 141 -136 -12 -25 201 0
-193 10 50 -138 24 -37 -90 189 -52 0
-15 -132 82 139 -142 173 0
34 -210 -18 117 -82 0
89 215 -132 133 253 -23 140 0
-248 182 31 -44 -18 254 -116 0
-52 14 157 -61 -90 -138 189 50 10 0
-25 207 201 185 244 -136 81 -190 -106 199 0
139 82 230 -132 -15 -12 0
141 201 -136 -25 -190 157 173 -96 244 199 0
71 157 -96 141 -136 244 173 -25 199 201 0
107 30 20 -152 -139 0
235 -160 189 -138 14 170 10 -90 -52 0
-63 -250 115 54 -93 -234 136 -191 -171 0
-225 -16 -39 -125 58 -6 -31 0
20 -28 12 -173 -61 -185 -202 -94 138 0
-107 -224 22 -15 -89 173 -46 -122 0
224 -152 -15 -82 7 0
157 189 -138 10 -52 212 -233 -90 169 0
58 -248 -116 31 126 -246 254 0
-112 -76 -39 69 -73 -182 246 -5 56 219 0
6 -83 147 170 -202 92 0
-113 89 -163 -23 -132 215 1 0
257 -23 -132 215 140 -154 89 0
-142 138 20 -202 -173 12 -122 -185 -94 0
97 -96 141 244 81 -25 185 -136 199 201 0
-62 -185 12 -61 20 -173 230 -94 52 0
155 208 -98 119 64 2 0
-204 130 141 210 -58 44 -109 165 0
-112 -88 219 -156 56 -182 134 246 -5 -76 0
-39 248 -125 83 -165 -16 -225 0
141 -201 212 249 156 13 52 137 -181 73 0
-230 142 -205 42 -247 28 0
-197 -208 46 17 251 111 146 0
91 -216 35 11 -229 72 -149 -60 -26 -36 40 0
-94 169 90 -185 -123 20 12 -173 -28 0
-106 207 -25 201 244 -136 157 -177 173 199 0
-201 211 156 13 249 73 51 141 138 -181 0
3 -130 -187 39 -92 134 88 0
-96 244 -12 -177 -136 201 170 -25 -106 199 0
22 -224 186 -89 20 -107 94 -46 0
44 -58 67 -106 -204 -34 165 130 0
10 189 -138 -123 -193 -52 -90 14 169 0
-94 20 -42 12 235 -173 138 -62 -185 0
-138 -61 170 -37 -52 -90 50 189 10 0
-137 -244 185 -51 200 -232 141 0
-126 -134 -69 214 71 188 18 -123 0
201 -12 244 -136 -177 207 199 -25 170 141 0
238 -127 40 25 253 59 -53 9 0
-253 -179 154 -163 140 113 108 -48 0
-106 81 199 244 201 94 -136 252 -25 97 0
-138 -61 -90 -193 212 189 -52 50 10 0
249 -181 51 25 13 52 -106 156 217 73 0
-108 143 59 -53 -127 25 9 40 0
90 -185 -28 -173 -94 -15 169 12 -202 0
20 -61 -28 -94 12 52 -185 -62 -173 0
-94 24 -185 12 -62 138 -15 -28 -173 0
-96 94 200 141 -244 -137 -51 0
-190 157 201 185 199 -232 244 -25 -106 -136 0
-182 -76 56 -88 -13 -5 219 126 -112 246 0
199 252 -193 -25 201 -136 -106 94 97 244 0
-193 -106 -25 244 252 199 -136 201 173 71 0
-15 -189 -28 -233 -185 12 -173 -94 -61 0
-201 200 141 -137 -96 -51 173 0
230 -160 -94 138 -185 -173 12 186 -15 0
-25 -106 -177 244 81 -136 201 -228 199 185 0
12 50 52 -61 -185 -42 -15 -173 -94 0
35 -60 40 -36 -124 -149 11 -26 -32 -216 -229 0
-183 -12 -226 -254 0
-5 -73 -18 219 56 -76 -182 -109 130 246 0
54 88 126 153 83 -130 39 0
-183 248 8 94 0
-90 -160 -138 24 14 189 10 170 -52 0
-80 11 213 -60 74 -216 -36 -26 40 -161 -149 0
170 189 10 -61 -90 14 -138 -52 -62 0
-55 -208 241 251 17 -98 -22 0
-173 -202 -189 -61 12 -94 -185 230 20 0
-160 169 -138 10 189 -52 -90 14 170 0
39 54 -6 126 88 -130 -68 0
-60 11 40 -149 -26 -161 -32 -216 -36 -78 -229 0
-61 -94 -233 12 -173 -15 -42 -185 90 0
-173 52 -185 -94 205 -123 20 12 186 0
246 -5 -88 56 -156 67 -182 -76 219 134 0
-94 205 20 -173 12 -185 24 90 50 0
12 20 -122 138 -94 -160 -28 -173 -185 0
-16 -57 -31 -125 58 -39 -92 0
20 -173 205 -160 -185 169 12 -94 -189 0
-136 201 94 -232 -25 -106 199 170 97 244 0
-199 200 173 141 -51 -96 -137 0
199 201 -12 141 -136 157 -25 71 207 244 0
-25 157 199 -12 244 -232 201 38 -136 -106 0
-52 212 -138 157 189 -90 -123 -122 10 0
147 -83 157 -160 6 92 0
-100 238 40 104 -37 -161 0
72 -36 40 -216 -60 11 -149 91 -161 -229 -26 0
-139 20 107 -152 -47 0
-39 126 246 -112 56 219 -5 -76 -13 -182 0
90 249 -244 -181 14 73 156 -200 13 141 0
-160 10 -90 212 -52 -138 170 189 -61 0
-26 11 -161 114 -149 -216 -36 -32 -229 40 -60 0
90 12 -122 -15 -185 -94 -173 -233 -42 0
-51 -106 252 -12 -244 200 -137 0
51 249 -181 156 -199 -106 13 90 212 73 0
13 -181 25 -106 211 73 249 -189 156 -200 0
-208 111 -22 17 241 -95 251 0
81 -233 217 189 -138 10 -52 24 -90 0
188 -160 -190 -126 -134 18 214 -69 0
-52 -138 -90 -122 10 -160 189 -193 217 0
13 138 156 -181 -201 249 212 137 141 73 0
152 138 174 -141 106 -139 0
81 252 199 244 -136 201 185 141 38 -25 0
201 -12 -136 199 38 -96 157 244 -25 141 0
-15 -189 -185 -94 -160 230 -173 186 12 0
10 212 -160 -138 169 81 -52 189 -90 0
-3 -106 -153 217 -187 86 68 0
18 -126 -134 214 -69 -177 -123 188 0
-94 -185 12 20 -173 205 -123 169 90 0
-123 67 225 57 -88 0
77 130 -119 -231 26 208 0
130 -146 -215 -219 -167 -241 131 0
-94 -185 205 -160 -189 -173 235 12 20 0
189 -122 -52 10 81 -85 -138 -90 -62 0
-119 130 -231 26 -251 77 0
-28 20 138 -94 -233 -173 -185 12 24 0
-5 56 -76 134 219 181 -182 246 -145 -39 0
205 -62 -61 -94 -185 20 12 90 -173 0
110 150 -132 121 46 -221 -215 -12 0
-16 130 -125 58 -225 -6 116 0
13 249 51 -181 73 25 90 156 -106 -37 0
-25 38 201 -96 244 173 -136 -106 157 199 0
-119 78 153 -72 -114 124 -74 0
-94 -173 -15 -185 -42 12 -61 -123 90 0
-52 10 -193 -90 -138 189 50 14 235 0
-76 56 130 -5 134 219 -73 -145 246 -182 0
-5 56 -73 246 -39 -188 -145 219 -76 -182 0
12 -173 -185 -142 138 -94 -62 169 -15 0
208 -231 -64 26 -39 77 0
-18 56 219 -88 -76 -5 246 181 -109 -182 0
-225 -125 -88 -147 58 116 -16 0
119 2 143 -98 -251 64 0
207 141 -193 244 201 38 185 -25 -136 199 0
-56 254 -188 -248 31 -116 58 0
12 -173 -15 -185 230 -189 50 -94 186 0
65 205 -174 -27 -255 0
20 -189 -62 -42 12 -173 169 -94 -185 0
116 -57 -16 -39 -6 -125 58 0
-125 130 116 58 -92 -16 -225 0
165 -58 141 67 -204 -88 -34 44 0
-25 199 -228 38 -136 -193 185 201 141 244 0
-147 -16 -125 58 130 -254 -225 0
130 56 219 -76 246 -145 -18 -5 -13 -182 0
212 10 -138 24 157 189 -52 -233 -90 0
141 -232 97 201 199 -136 -12 -193 244 -25 0
50 12 -173 -15 90 -185 -42 -94 -61 0
94 141 244 199 -25 -96 -136 201 157 71 0
-182 246 56 -76 69 -156 219 -5 -88 -112 0
-61 20 -42 -202 -173 -94 52 -185 12 0
-157 -81 -113 -170 -132 -103 -215 140 193 0
-209 17 172 251 -208 241 224 0
13 -201 90 73 -200 211 -181 141 156 249 0
-253 113 -220 154 -163 140 -48 108 0
34 -203 -139 -210 -214 0
-197 -208 46 241 17 251 -55 0
-132 -102 206 -139 -163 10 -101 -85 -243 0
238 -113 -53 40 9 59 -127 25 0
83 39 88 -187 -18 -86 -130 0
46 17 -208 -158 251 -131 -209 0
-202 -61 -94 12 138 -173 -142 -15 -185 0
-62 130 -109 57 225 0
-65 106 -139 -141 152 -189 0
246 -182 130 -5 56 219 -18 -112 -156 -76 0
-181 249 211 138 13 141 156 -199 73 51 0
-26 72 -161 -36 11 -216 -60 -149 40 -118 -29 0
132 -135 0
140 -132 215 89 133 99 -108 0
-94 12 -185 20 -202 -142 -189 -173 186 0
-54 187 -142 255 -82 0
12 -15 -185 -122 -142 -173 -62 138 -94 0
12 -94 -173 138 -185 -142 -202 -15 186 0
-201 13 -85 -189 73 51 141 156 249 -181 0
-25 244 -12 199 -96 201 -106 -177 -136 81 0
185 157 -136 201 -25 207 244 199 71 -106 0
13 156 25 52 -106 73 51 249 -37 -181 0
141 81 207 97 -25 244 185 201 -136 199 0
-189 -61 -185 12 -94 20 -28 -173 -233 0
182 130 -167 131 -89 -146 -241 0
-199 -181 156 90 13 249 137 73 -106 211 0
249 73 138 141 13 156 -181 -37 -244 51 0
-15 -202 -42 12 24 -173 -185 -94 -189 0
-214 -112 246 -5 181 56 -182 -76 219 130 0
128 253 242 89 99 -132 215 0
20 12 -173 -122 138 -94 205 -62 -185 0
-225 -16 -147 -125 -44 116 130 0
-147 39 -187 -214 -130 88 -86 0
215 -132 -23 140 133 89 48 0
-181 14 249 -199 156 90 73 -106 13 -200 0
-92 130 -44 -125 -225 -31 -16 0
-181 51 156 14 25 249 -189 73 13 -106 0
137 73 136 -106 13 52 -181 -85 249 156 0
52 -160 -173 -94 205 20 -185 12 235 0
210 -204 130 67 141 165 -58 44 0
10 -90 217 -123 -52 -193 169 -138 189 0
52 12 20 -185 169 -94 -160 -28 -173 0
-148 -216 -60 40 -161 11 -26 -33 -36 72 -149 0
-62 10 -90 -52 211 169 -138 157 189 0
89 215 257 140 49 -132 -154 0
-16 -147 -39 -165 -225 248 -125 0
-142 -15 -185 -189 186 -233 -94 -173 12 0
-125 -92 -57 130 58 116 -16 0
141 -181 136 -189 249 137 73 -85 156 13 0
-52 10 -138 -37 24 -90 81 -123 189 0
201 81 38 -136 141 -228 -25 199 244 173 0
10 -189 15 -202 -20 0
-199 -189 137 249 156 211 73 -181 141 13 0
199 201 -136 -106 244 -232 157 -177 173 -25 0
156 -181 90 -200 13 249 -106 -244 211 73 0
89 140 133 -154 215 -132 49 0
173 -228 -51 -106 136 -137 200 0
137 211 136 -189 -106 156 -181 249 73 13 0
-90 50 189 -52 157 169 -138 211 10 0
-139 -247 -18 34 -210 0
-15 -185 90 -173 230 -61 -233 12 -94 0
241 17 111 107 251 -197 -208 0
-208 46 251 -98 17 146 -55 0
172 -55 17 46 251 -208 167 0
-106 -177 244 -12 -193 -25 252 199 201 -136 0
73 -106 51 13 52 -181 156 25 249 212 0
186 -233 -94 12 -173 -189 -42 -15 -185 0
-127 -53 9 -113 59 136 238 40 0
138 249 13 73 51 25 211 156 -106 -181 0
-185 235 -94 12 20 -233 -28 -173 52 0
-44 83 -254 -225 -125 -39 -16 0
185 -25 201 157 38 -106 244 -136 199 207 0
-201 -137 207 -51 -12 -106 200 0
156 90 25 217 13 -181 51 141 73 249 0
254 -18 76 58 -248 31 -116 0
230 -15 90 24 12 -173 -185 -202 -94 0
-193 -138 10 186 189 -90 -37 50 -52 0
-130 -6 -214 39 88 -86 -187 0
174 187 -28 -139 -54 0
57 -123 -39 225 -109 0
17 -208 -55 224 -197 146 251 0
10 170 -61 -85 -90 189 -52 -138 -123 0
-132 41 76 -195 -165 -164 16 0
130 77 216 -231 -64 -251 0
212 -132 206 133 -102 10 -101 -82 -243 0
71 199 -25 -136 -193 -228 141 244 94 201 0
31 -214 -44 254 76 -248 -116 0
54 88 39 -6 3 134 -130 0
-167 -56 131 -146 -88 -241 -215 0
-51 207 200 -137 185 141 -201 0
-138 -52 189 81 -90 10 -233 24 14 0
246 56 219 -76 134 -182 67 -5 -13 -88 0
246 56 -109 -76 219 -5 -39 -182 -73 126 0
12 -94 -42 52 -123 -185 -173 -15 186 0
138 235 -94 205 12 -62 -185 -15 -173 0
156 137 -106 -189 -37 13 249 -181 -199 73 0
-138 189 10 -90 212 -233 81 -52 186 0
-142 12 -173 -160 -122 138 -15 -185 -94 0
211 -52 189 -123 -138 -90 10 157 169 0
-170 -157 193 -113 1 -179 -132 -81 -215 0
137 73 -201 14 156 -181 249 141 90 13 0
-233 57 -88 -112 225 0
17 -55 251 -208 -197 46 -131 0
-185 205 12 138 -94 -15 -173 -233 169 0
-16 58 -57 116 -88 -6 -125 0
12 52 -94 -185 230 186 -202 -173 -15 0
40 -216 72 -148 35 -149 -118 -36 -26 -60 11 0
-90 170 10 -52 -85 -138 50 189 186 0
-237 120 238 183 -220 166 -256 -162 -175 0
-169 -89 -186 157 -235 -196 122 -24 61 0
-106 51 -244 73 52 249 156 -181 14 13 0
-94 -233 -185 12 -189 235 20 205 -173 0
-181 249 73 -199 141 -189 156 212 51 13 0
-42 12 -185 -122 -173 -94 50 138 -15 0
-138 -52 189 24 -90 10 81 -62 14 0
-35 161 -9 -29 0
-31 -125 -225 -16 -92 -39 -44 0
-34 44 -106 -88 -58 67 -204 165 0
10 81 -138 189 50 -52 211 -90 -61 0
130 -57 116 58 -16 -125 -6 0
-248 -219 -116 31 254 -44 134 0
12 -15 -123 52 -94 169 -173 -185 230 0
69 130 67 -5 -76 56 246 -73 219 -182 0
3 -92 39 54 -130 -18 88 0
-141 152 174 -82 106 138 0
141 -228 199 173 170 -25 244 201 -177 -136 0
-136 -106 -25 185 201 81 244 252 199 97 0
-181 156 90 212 141 73 13 51 136 249 0
226 -214 -113 -8 0
-62 189 -52 235 -90 170 10 212 -138 0
-249 69 -88 -112 219 -76 -5 246 56 -182 0
-213 33 118 32 10 -194 -91 174 -139 0
250 256 -204 0
-208 -55 172 251 241 17 -22 0
212 -138 -123 -90 189 -52 -122 -193 10 0
-228 94 -136 -190 244 141 170 201 199 -25 0
137 249 73 -181 -106 156 217 13 52 25 0
-46 -215 -224 94 -15 169 -107 22 0
-202 -52 169 -90 81 -37 -138 189 10 0
-138 -160 -37 10 -52 -193 -90 189 235 0
-16 130 -165 -125 -225 -254 -147 0
219 -73 -76 246 -5 -18 -182 -109 56 -39 0
207 136 -137 -51 141 173 200 0
-122 -94 -28 -160 -185 -173 12 20 52 0
157 24 217 10 -138 -52 -202 189 -90 0
215 -108 1 133 89 49 -132 0
-185 -189 -122 12 -202 -94 -173 -15 -142 0
38 201 -25 185 -136 244 199 252 170 -106 0
-85 156 138 -181 249 73 13 137 136 141 0
156 13 73 -199 249 90 -85 -106 -181 51 0
-165 -6 -31 -16 130 -57 -125 0
-90 211 -52 170 -138 189 10 -122 -160 0
116 185 -183 8 0
201 141 -177 170 199 -96 -25 -136 244 -12 0
154 257 108 113 -48 -253 242 159 0
-147 -16 -44 -57 -39 -125 -31 0
20 -185 -94 -202 169 -189 -173 230 12 0
249 -181 -106 156 -200 13 -189 73 136 -85 0
20 50 -94 -189 -185 24 230 -173 12 0
44 -145 165 210 -39 -58 -129 -106 0
199 81 244 -177 -232 141 -136 201 94 -25 0
-88 -16 -125 248 -57 58 83 0
130 -5 -13 -145 219 -188 56 246 -76 -182 0
-95 17 167 224 -208 111 251 0
73 -201 249 -181 -189 13 212 156 -106 -200 0
126 -222 -139 34 -210 0
-231 -88 149 208 -119 77 0
-76 -182 -109 219 56 246 181 -214 -5 130 0
73 13 52 -37 156 249 -200 -181 141 -244 0
200 -137 -51 -228 173 -106 25 0
-123 -173 -185 -15 -94 138 235 -28 12 0
14 156 138 249 -181 -201 73 -200 -106 13 0
-26 11 -60 -33 35 -36 -216 74 -149 -80 40 0
201 252 199 244 -177 157 -106 173 -136 -25 0
-61 -185 -15 -42 -94 12 52 -173 -123 0
-190 -136 201 185 199 -25 252 141 244 170 0
-52 14 81 24 -138 -123 10 189 -90 0
155 -161 -85 104 -100 40 0
207 -51 185 141 200 136 -137 0
73 -201 156 90 -181 -200 -106 249 217 13 0
-189 136 -200 141 73 156 13 249 14 -181 0
186 189 -233 -90 212 10 -193 -138 -52 0
116 -225 -16 -125 130 -165 -92 0
-142 -185 186 -173 -160 -94 52 -15 12 0
201 -228 -190 141 -136 199 -12 170 -25 244 0
-37 170 -52 169 -138 -202 189 -90 10 0
-181 249 156 14 13 -106 51 73 90 -201 0
242 89 48 257 -132 215 -23 0
20 -185 90 -122 -94 -233 -42 12 -173 0
-137 -106 -201 -51 252 200 94 0
186 -90 10 -62 -193 -138 189 -37 -52 0
89 133 -132 253 1 215 99 0
-225 116 -125 -44 -92 -16 -39 0
119 -251 143 64 -158 2 0
205 -173 -61 -94 -185 20 138 12 -202 0
-204 -58 44 210 -106 165 -112 -88 0
254 31 -116 -248 58 -246 134 0
128 215 1 -154 -132 89 -23 0
-37 128 -102 -139 10 -243 206 -101 -132 0
67 -73 56 -182 -76 -188 246 219 -5 130 0
104 40 -100 35 143 217 0
-201 -127 40 155 -53 48 59 9 0
-136 244 -12 71 -232 141 -25 157 201 199 0
-138 -123 -85 -90 -52 157 189 10 -122 0
206 133 -243 14 -101 -139 10 -132 -102 0
96 255 128 228 -252 -207 54 232 0
130 -119 77 -231 -17 216 0
-189 -233 205 -185 -15 -94 -173 -122 12 0
225 67 -160 130 57 0
215 89 128 253 242 -132 49 0
226 -154 -8 126 0
-224 -46 24 -89 -107 20 22 173 0
-89 20 209 -106 -111 55 0
90 -62 -173 -94 20 230 -185 12 169 0
199 141 244 -136 -25 97 -232 173 157 201 0
25 185 -137 141 200 207 -51 0
141 249 137 73 217 13 -181 156 138 -244 0
-160 -173 -185 -189 12 24 -94 -42 20 0
-163 228 96 -252 -207 232 174 54 0
-88 -231 -119 77 208 60 0
56 134 -145 -5 -76 -182 -73 246 -88 219 0
-26 -149 35 -216 11 -78 -60 -29 213 -36 40 0
244 -177 201 -228 173 199 -136 157 -25 -106 0
73 -189 137 249 141 -85 -181 156 13 -199 0
-132 99 1 -113 215 128 89 0
13 51 73 -199 156 -181 138 212 141 249 0
-173 205 -123 -94 12 24 -185 138 20 0
56 69 -109 -76 246 -182 -5 -73 -39 219 0
-92 -165 -88 -254 -225 -125 -16 0
-170 193 -89 -132 -81 -179 -154 -157 242 0
199 -136 170 97 141 -25 207 201 -12 244 0
199 97 -25 141 244 201 -232 -136 157 -12 0
66 180 191 0
208 -2 -231 77 130 36 0
-164 -44 41 16 182 -132 -195 0
-177 -106 -25 199 201 -193 -12 -228 244 -136 0
187 -54 205 -139 27 0
193 -157 -81 -215 242 -170 48 -132 -220 0
136 -12 -106 -228 -51 -137 200 0
199 170 -96 71 201 -25 -136 244 185 141 0
199 201 170 173 -25 -106 -136 38 -228 244 0
-201 -53 40 155 9 59 -127 -154 0
64 155 119 -95 208 2 0
201 244 -228 185 199 -136 -190 -25 141 -193 0
10 -123 189 -138 -85 81 -122 -90 -52 0
141 -137 136 94 200 -51 -228 0
-18 -76 -88 -5 67 -249 219 246 56 -182 0
130 -17 77 -231 60 -64 0
-233 20 90 -185 -173 -94 12 186 205 0
-94 -15 -62 -122 12 -173 90 -185 -28 0
157 244 199 -228 -136 -25 -106 201 71 185 0
-163 -187 255 -207 -252 96 232 228 0
249 25 212 156 137 73 -189 -106 -181 13 0
52 -123 10 15 -20 0
118 10 -91 -213 255 -194 33 -82 32 0
-68 54 83 -130 69 88 39 0
185 -226 248 -183 0
54 -130 39 -18 3 88 -6 0
81 -138 -61 -85 10 50 -90 -52 189 0
-210 -247 34 -18 -82 0
157 252 71 199 185 201 244 -25 -136 141 0
-148 53 161 -35 0
20 -173 186 138 -94 12 -185 -142 50 0
-173 12 138 -142 50 -122 -94 -185 -15 0
-193 189 -90 -202 212 -138 -52 10 24 0
199 185 38 -106 -193 -136 -25 252 201 244 0
251 -209 17 172 -208 -22 -131 0
157 10 -160 -138 -90 217 -52 189 169 0
-52 186 10 -90 170 -160 217 -138 189 0
-5 -76 -18 219 246 -109 -182 -13 -88 56 0
137 141 -181 156 73 -37 -199 249 -189 13 0
-213 32 33 10 -82 118 -91 27 -194 0
-244 9 59 40 238 -108 -127 -53 0
14 -181 51 -106 73 138 13 -244 249 156 0
-138 189 -37 -52 -90 157 -122 10 -62 0
-232 -136 -177 199 244 201 -193 141 94 -25 0
31 -165 254 -248 76 -214 -116 0
-216 -60 11 40 194 -149 114 -229 -36 35 -26 0
81 94 -25 244 201 97 141 199 -96 -136 0
58 -16 -92 -88 -31 -57 -125 0
-113 242 -132 89 -23 215 133 0
-17 -2 77 -231 36 130 0
-94 -142 -173 24 -62 90 12 20 -185 0
48 -127 136 9 238 40 -53 59 0
-80 -78 -60 -161 11 194 -36 -26 -216 40 -149 0
-202 -42 -15 -94 -185 235 12 -173 -189 0
156 -106 -85 137 -181 73 13 52 249 -201 0
-44 -16 -31 -39 -57 -92 -125 0
73 -189 -106 249 -181 156 25 13 137 -85 0
-210 34 117 134 -82 0
71 -106 -12 -136 199 -25 81 244 201 207 0
138 -42 -185 -94 50 186 12 -173 -15 0
-139 126 34 -247 -210 0
-2 216 -88 -17 -231 77 0
10 169 -138 189 -90 -52 -37 -62 170 0
-185 169 -142 52 20 -233 -173 12 -94 0
20 -233 -185 12 169 -173 -42 52 -94 0
17 -95 251 224 -208 241 -55 0
-94 52 -28 -15 12 -160 169 -173 -185 0
249 -189 -181 13 156 137 -106 73 -199 212 0
-143 -238 21 -155 0
-208 251 107 -209 -197 146 17 0
-106 211 249 -181 156 73 13 136 51 -189 0
138 -185 12 186 -15 -160 205 -94 -173 0
251 241 107 -98 17 111 -208 0
77 -2 -231 149 208 -88 0
-253 108 -48 133 113 242 -179 154 0
-252 228 96 -207 27 -187 -163 232 0
-173 24 205 -160 52 -185 12 -94 -15 0
-185 186 12 -189 20 -94 -202 -42 -173 0
189 10 186 -138 50 212 -52 170 -90 0
-2 -88 208 216 77 -231 0
216 -231 -64 -251 -39 77 0
10 217 -90 -138 81 -62 189 -52 169 0
-131 -208 251 -22 111 -98 17 0
-185 12 169 -15 -142 -173 -233 -94 138 0
-16 -254 -147 -225 -125 -165 -88 0
-37 -199 73 -181 249 -106 13 156 51 52 0
-15 -160 -94 -173 12 205 90 -122 -185 0
136 200 173 -137 -228 141 -51 0
-90 170 -138 -52 -37 189 10 -62 -61 0
-28 -82 -54 187 174 0
-136 244 199 173 71 201 141 157 -25 -228 0
-233 12 -189 -173 -142 -94 -185 20 235 0
252 38 -136 199 244 141 94 81 -25 201 0
249 141 -181 73 -199 -189 13 217 51 156 0
252 25 -106 -51 200 173 -137 0
-2 -17 77 130 26 -231 0
-12 -25 244 -193 97 201 -228 199 -136 -106 0
-10 -89 -227 0
156 90 -106 136 73 211 -181 249 13 51 0
-231 216 -39 -119 77 -251 0
-226 236 183 95 197 98 -172 158 -201 0
211 189 -90 -193 -122 -52 10 -138 -123 0
-215 -167 -241 -246 -88 131 -146 0
-138 -37 -90 -233 10 189 -52 -193 235 0
244 -136 -193 -25 199 201 -106 -228 -177 94 0
-189 -185 -94 -173 230 12 -15 -61 -233 0
-52 -193 -85 10 -90 -233 -138 169 189 0
201 81 199 -136 -25 244 -190 -232 -12 -106 0
69 -86 88 -187 -147 39 -130 0
-125 58 -57 -16 130 116 83 0
-185 230 -173 -123 90 12 20 -94 235 0
35 40 11 -149 -32 -29 -216 74 -26 -60 -36 0
-173 -185 186 -123 -94 12 -189 -42 20 0
230 -62 12 -173 -94 52 -15 235 -185 0
-182 -156 -88 -5 -188 56 -112 -76 246 219 0
226 253 -8 134 0
34 -210 -139 -188 -247 0
138 10 15 -233 -20 0
-185 -173 -15 -94 12 24 -233 138 230 0
-188 181 219 56 -145 -39 -5 -76 -182 246 0
6 -193 -123 147 -83 92 0
212 -193 235 50 189 -90 -52 -138 10 0
-106 156 52 73 51 25 249 -181 13 14 0
26 -119 208 77 -231 -88 0
58 -147 -125 248 -39 -16 -225 0
189 -52 24 -138 -85 -90 170 -233 10 0
-52 -138 -90 -202 212 -122 10 189 81 0
-132 242 159 -170 -157 193 -89 -108 -81 0
-152 -82 -196 -15 46 0
189 -122 -233 10 -52 -193 -85 -138 -90 0
125 -195 -164 -132 58 182 41 0
156 -189 -181 13 -200 249 25 73 -85 141 0
-94 -173 -185 90 -142 -123 12 169 20 0
-244 -181 73 90 249 13 -106 156 -200 212 0
-134 214 -69 -62 -126 71 18 188 0
217 137 -189 13 156 141 25 -181 73 249 0
-137 -106 200 -51 94 207 25 0
-188 -88 -73 -5 246 67 -76 -182 219 56 0
242 215 89 -132 99 -113 128 0
-181 136 -106 249 137 73 13 211 90 156 0
-2 -88 77 208 60 -231 0
-112 -182 -73 246 219 56 -5 -214 -39 -76 0
133 99 -132 89 48 242 215 0
48 215 1 128 49 -132 89 0
12 -122 -28 52 -94 -185 50 -15 -173 0
52 73 25 13 -200 141 -181 156 -37 249 0
40 -60 35 -148 -149 11 -118 -78 -26 -216 -36 0
170 -160 -37 -138 10 -52 -90 189 169 0
-132 -23 140 -163 215 48 89 0
-94 -142 -185 12 -233 90 235 -173 -15 0
-246 254 31 -188 58 -248 -116 0
-160 -173 12 -94 -122 -185 90 -142 20 0
169 -94 -160 -15 12 230 138 -185 -173 0
205 -173 169 90 50 12 -185 20 -94 0
-90 -138 -52 189 211 50 186 170 10 0
-52 -90 212 189 10 157 -122 -138 -233 0
-182 -249 56 219 130 246 -109 -5 -76 -18 0
156 13 -106 -181 73 136 -200 217 249 -189 0
-22 -43 -236 -122 0
-81 -170 -179 -215 193 -157 140 48 -132 0
130 -225 -6 -125 -16 248 -44 0
-129 -39 -106 210 -58 165 -109 44 0
186 -173 -185 -123 230 -94 20 52 12 0
73 137 141 -189 249 156 -181 -37 -201 13 0
-52 81 -122 -85 -90 -202 10 -138 189 0
-185 12 50 90 205 -173 -15 -94 169 0
10 -90 157 169 -202 -138 217 189 -52 0
-157 -170 193 140 -215 -81 -179 -132 253 0
170 -12 199 -136 -232 -25 141 244 71 201 0
-167 130 -89 -241 76 -146 131 0
-233 24 10 157 -52 -90 -138 189 14 0
-136 201 141 97 170 -25 -228 94 244 199 0
138 -202 -173 12 -185 -15 -42 -122 -94 0
-94 -15 -173 138 -160 12 -185 -42 24 0
12 -142 235 52 -185 -62 20 -94 -173 0
-160 81 10 -52 -138 24 189 -85 -90 0
211 10 157 -52 189 -202 186 -90 -138 0
138 141 13 -181 73 156 249 -201 -200 -85 0
141 201 252 173 -25 -136 71 199 -193 244 0
52 -42 -15 -185 -94 -173 186 12 -233 0
52 -173 12 205 186 -185 -94 -15 -62 0
-16 -39 83 -165 -57 -125 -254 0
-25 199 201 244 81 94 141 71 -136 252 0
170 97 244 199 -232 201 173 -136 -25 141 0
31 -219 -248 -116 254 -165 -214 0
41 -195 5 -132 58 125 -164 0
-138 10 -90 -85 -52 186 -62 189 157 0
-52 157 -138 24 189 10 -85 -90 -160 0
12 -189 -173 -94 -15 -62 -185 205 186 0
-82 34 -210 117 69 0
14 -90 -138 -52 170 169 -202 10 189 0
-106 170 -136 201 71 173 244 -25 207 199 0
155 -100 -37 40 35 104 0
59 143 -201 -53 9 -127 -108 40 0
186 -52 10 14 -202 189 -138 -90 157 0
50 -185 -94 12 -189 -15 -61 230 -173 0
169 170 -52 -138 -233 -90 189 -85 10 0
-125 -88 -44 -16 -92 -254 -57 0
18 -69 214 -126 -134 188 71 -202 0
-231 -39 77 -17 216 -119 0
-174 -255 65 -27 230 0
-35 53 -29 161 0
-138 -90 189 170 169 -52 10 -85 50 0
217 13 73 -181 141 138 156 249 -199 51 0
73 13 137 -201 249 156 141 -181 -189 211 0
-219 -146 -241 -89 -167 -39 131 0
-228 -25 -106 -190 -136 170 199 201 244 94 0
154 -103 113 108 133 -48 -253 140 0
73 -181 13 212 90 141 -200 -244 249 156 0
58 -57 -39 83 -125 -31 -16 0
-54 187 -82 230 -65 0
-228 -106 -193 -136 201 244 -190 -25 173 199 0
-25 252 -193 -136 201 141 244 -12 199 97 0
147 50 6 170 92 -83 0
67 219 -182 -88 -5 246 69 56 181 -76 0
-185 138 12 -173 -94 186 -15 -233 -28 0
-76 -5 -188 56 219 -112 246 -39 -156 -182 0
-185 20 90 -42 -94 235 -202 -173 12 0
40 -149 -36 -32 35 168 -216 11 72 -26 -60 0
-160 -15 12 -173 -94 138 205 24 -185 0
-48 -220 -253 154 113 108 133 1 0
-241 -89 -146 130 -167 -219 131 0
240 -87 231 -184 -166 45 -198 125 0
-244 -51 185 207 -137 141 200 0
-138 189 -52 211 -160 81 10 -90 -122 0
94 -136 244 -25 -106 -177 201 157 -228 199 0
235 189 -90 10 -138 14 81 -160 -52 0
-89 -170 -108 193 -157 140 159 -132 -81 0
-39 116 -125 -6 -16 -44 -57 0
-73 69 -109 -182 -88 219 -76 56 246 -5 0
12 -62 -61 -94 20 -185 52 -173 205 0
210 129 204 -109 0
-15 -173 -185 50 186 205 -94 12 -189 0
-251 -231 77 -2 -88 149 0
90 15 10 -20 -62 0
-17 -231 77 36 -64 130 0
-130 88 -92 -68 134 -187 39 0
-25 201 -136 244 81 199 185 -228 141 -177 0
56 -76 -5 67 -39 -73 -18 246 219 -182 0
-58 -112 -88 210 141 -204 44 165 0
-80 -35 -59 161 0
-123 205 12 -185 20 -94 52 -61 -173 0
-202 -52 -90 -138 -37 24 189 81 10 0
88 -187 -6 39 -188 -68 -130 0
-232 136 -51 141 185 -137 200 0
-202 -90 -138 -52 189 170 -37 10 -122 0
52 -185 -94 -173 -123 -61 12 230 -15 0
7 -15 107 -152 -139 0
-160 -173 -15 -61 -189 -185 12 -94 -28 0
57 -62 225 -39 67 0
25 212 249 141 -181 73 156 52 13 51 0
-90 189 -193 235 -138 10 -52 212 -233 0
-81 -220 1 193 -170 -108 -132 -215 -157 0
7 -152 46 -82 20 0
161 -35 -80 53 0
12 -94 20 -173 235 -28 138 -233 -185 0
-179 108 257 1 -253 -48 154 113 0
-202 -28 90 20 12 -173 -185 -122 -94 0
-6 54 153 88 -188 39 -130 0
31 254 -248 69 58 -116 -56 0
244 157 -25 94 201 -106 -136 -96 -177 199 0
-209 167 107 17 -197 -208 251 0
-37 -189 13 -181 141 156 73 51 249 25 0
-62 20 12 -61 -28 -185 -189 -94 -173 0
-37 157 -160 -90 189 -138 -122 -52 10 0
-90 10 -52 -138 81 189 212 -62 169 0
-62 10 14 -61 157 -52 -90 189 -138 0
58 130 -125 -57 -31 83 -16 0
90 -173 12 50 24 230 -185 -94 -15 0
249 73 -106 25 13 -200 212 -181 -189 156 0
-193 212 -90 189 -138 -52 50 24 10 0
-149 -216 -60 -26 40 11 74 -229 35 -118 -36 0
-131 46 251 -98 17 -208 -209 0
-161 74 -36 11 -149 -26 -216 91 -80 40 -60 0
252 -136 141 244 -25 38 201 -12 199 -193 0
-39 208 77 -231 -11 -119 0
134 -5 219 -182 130 -76 -145 -13 246 56 0
-62 -173 12 169 -15 -185 205 -94 52 0
71 201 157 -136 244 199 -106 252 -25 185 0
-185 20 -94 12 -173 90 -62 186 -42 0
128 108 154 113 -253 1 -179 -48 0
-216 -60 -124 -148 -26 -161 -36 194 -149 11 40 0
-210 -82 -188 -203 34 0
-199 156 137 249 212 13 73 -181 90 141 0
-202 -185 -122 -94 12 90 -28 -15 -173 0
201 -232 173 -106 -136 244 -25 157 38 199 0
-8 -18 226 -154 0
238 -53 9 25 40 -127 59 -154 0
152 -189 -139 -141 27 106 0
48 215 -132 49 133 89 1 0
219 -39 -5 134 246 -109 56 -76 -249 -182 0
-39 -182 246 -76 219 -13 69 -112 56 -5 0
-138 -52 -90 10 170 217 189 235 -62 0
-138 157 10 -62 -52 217 -90 169 189 0
56 -76 -5 69 219 -73 -182 -109 246 130 0
-42 -15 -94 -173 -233 12 -185 -189 235 0
1 -132 215 -163 89 48 99 0
-251 60 130 -64 77 -231 0
40 -161 104 14 -100 238 0
-52 189 -123 81 -90 -138 -61 212 10 0
-189 137 156 -106 249 136 -85 13 73 -181 0
11 -26 -60 40 -33 -149 -36 -216 -80 114 -161 0
-173 -142 235 -15 -202 -185 12 -94 138 0
181 -39 56 -76 -182 -5 219 69 67 246 0
52 141 -181 13 156 73 -244 249 -37 137 0
212 137 156 -106 138 25 73 -181 249 13 0
-136 -96 -106 199 201 244 94 -177 -25 81 0
-37 10 157 189 -90 -202 235 -138 -52 0
20 -123 -28 12 138 -185 169 -94 -173 0
12 -94 -173 20 -142 52 -185 235 50 0
-52 -85 -123 10 169 -138 -90 189 -193 0
-136 -106 199 244 -96 -25 -193 185 -177 201 0
186 217 10 50 -138 -90 189 157 -52 0
-52 -62 -90 211 10 235 170 -138 189 0
17 251 -208 107 172 167 -209 0
-16 -39 -254 -125 -225 -147 58 0
-94 20 -42 -122 -173 12 -189 -233 -185 0
-42 169 -173 -185 -94 12 -62 20 52 0
156 -106 -85 -200 13 90 -201 -181 73 249 0
-5 246 181 56 -18 -88 -76 -145 219 -182 0
219 -39 -214 -76 -249 -5 246 -109 56 -182 0
-106 94 -25 -190 199 201 -228 81 -136 244 0
-90 -138 -202 -122 -52 157 10 211 189 0
141 -181 249 136 156 13 -37 137 90 73 0
-120 -87 240 -184 16 45 -198 -77 0
-173 -94 12 -202 186 -15 -185 -42 52 0
170 10 189 -233 -52 217 -90 -138 -122 0
-98 -208 -22 167 -209 251 17 0
39 153 88 83 134 -130 -187 0
-156 -182 219 126 -39 -5 56 246 -76 -112 0
194 -36 -80 -124 40 11 -60 35 -216 -149 -26 0
-106 51 73 -181 13 -201 249 138 156 -85 0
-190 244 -12 -228 -25 201 -193 141 199 -136 0
201 244 -232 199 -190 -25 -106 -193 173 -136 0
72 194 -148 11 -216 35 40 -60 -36 -26 -149 0
76 -44 -248 31 -188 -116 254 0
-181 13 156 73 -106 138 -200 -85 249 136 0
126 83 -187 88 -130 39 -86 0
244 157 -12 201 252 141 71 199 -25 -136 0
156 -189 -201 14 137 -106 249 -181 13 73 0
-161 -32 74 -26 -149 -216 11 -60 -80 -36 40 0
-5 -76 56 219 -182 246 -39 -214 -13 -112 0
-153 68 54 -3 141 86 211 0
-189 -42 12 235 -94 -173 20 -233 -185 0
-138 10 81 235 -90 50 211 -52 189 0
-6 -16 58 -125 -39 -254 -225 0
13 141 156 249 73 -181 90 -85 137 -201 0
-173 -160 230 -185 90 -94 20 12 169 0
10 189 -52 -37 169 -90 -193 -138 -160 0
-142 -94 138 -202 -185 -15 12 -173 24 0
-64 -86 -74 78 -114 124 -72 0
165 -34 -145 -88 141 -129 44 -58 0
13 249 -201 138 73 156 -181 141 51 14 0
12 52 -94 -173 24 -185 -28 -160 -15 0
-60 -216 -149 213 -36 40 35 11 74 -80 -26 0
17 224 251 111 241 -158 -208 0
40 -26 11 -216 -229 -36 74 -149 -60 35 -32 0
50 -122 -94 -15 138 230 12 -185 -173 0
-185 -15 -94 -122 12 90 -160 -142 -173 0
-107 185 20 -215 186 22 -46 -224 0
-202 12 -15 -185 -61 138 -173 -42 -94 0
185 200 -106 -51 -199 -137 207 0
-61 12 -173 20 -94 -202 90 -185 -142 0
90 -94 230 -173 12 -15 -160 -185 -122 0
71 244 -106 -12 201 199 81 -136 252 -25 0
83 130 -254 -57 -125 -165 -16 0
94 -136 170 199 141 71 244 -25 -228 201 0
249 73 -181 14 13 137 -199 138 141 156 0
50 -15 24 138 -94 -185 -173 -28 12 0
-88 58 -254 -57 83 -16 -125 0
1 253 -157 193 -220 -81 -170 -132 -215 0
-131 -208 17 -22 251 -55 172 0
141 -25 -136 244 199 -96 81 38 173 201 0
90 -123 235 12 -173 -142 -185 -15 -94 0
54 69 88 -92 -130 3 39 0
-185 -61 12 -62 230 90 -15 -173 -94 0
-42 12 -173 -94 -15 -189 -123 -185 -122 0
126 -113 226 -8 0
-85 -138 -90 170 -52 -233 -61 10 189 0
-22 251 -95 -208 167 17 111 0
-52 -138 24 14 81 50 -90 189 10 0
210 -112 204 129 0
12 -185 -42 52 -160 -94 24 -15 -173 0
-181 73 51 138 217 249 141 156 -244 13 0
249 141 156 13 -200 -181 52 73 136 14 0
-193 -25 207 201 94 141 97 -136 244 199 0
-199 -106 156 249 13 -189 -181 73 51 14 0
-62 20 -185 -173 -94 230 -189 12 235 0
-202 -94 12 -28 -173 -61 -185 -189 20 0
-51 -228 25 200 185 -137 -106 0
20 186 -215 -12 22 -107 -46 -224 0
254 -44 -116 31 -56 -214 -248 0
10 189 235 -90 -62 -138 -52 -37 170 0
-130 -92 39 54 88 69 -68 0
-106 -137 173 25 200 -96 -51 0
-106 137 -181 73 156 -37 249 13 -201 52 0
10 157 211 189 -61 -62 -138 -90 -52 0
211 -244 249 -200 156 52 141 13 73 -181 0
107 167 -209 -95 251 -208 17 0
130 219 -182 -109 246 -76 56 -13 -5 69 0
-57 -16 -125 -147 -165 -88 -31 0
189 -202 -122 10 -138 157 212 -52 -90 0
-62 205 -173 -94 -185 12 -15 52 235 0
11 -161 114 -80 40 -60 -36 -216 -26 91 -149 0
-215 186 -107 173 22 -15 -224 -46 0
71 244 185 -25 -136 157 201 141 -232 199 0
90 -94 -15 -185 50 12 205 24 -173 0
-88 246 56 -5 -249 -182 -112 -76 219 -214 0
173 244 -232 81 201 38 141 -136 -25 199 0
-185 50 12 20 235 205 -94 -173 -189 0
39 134 88 83 -130 54 -68 0
-61 -138 189 211 -52 -90 157 -123 10 0
-52 189 -90 10 169 -233 157 -85 -138 0
22 169 -107 -46 94 -215 20 -224 0
13 -201 249 -181 -106 156 -200 -85 73 138 0
22 -107 -224 -12 20 -215 -46 -122 0
60 -251 -119 77 -231 -39 0
-173 -185 -94 169 -189 12 -15 -42 -202 0
173 -232 -199 -106 -51 200 -137 0
-136 -25 201 -193 71 252 -106 244 199 -12 0
186 -138 212 -90 10 -193 -62 -52 189 0
-62 -173 -142 -185 -15 169 12 -94 90 0
-185 -142 -173 -94 138 -15 12 24 -233 0
-106 -137 173 -96 -51 -199 200 0
54 -171 115 -93 -63 136 -234 -191 -256 0
51 249 -106 13 136 73 156 -37 -181 52 0
20 82 -142 173 139 -132 0
-62 12 -173 -142 -185 24 -94 -15 52 0
219 -39 -182 -5 246 -13 -76 67 -188 56 0
141 -190 199 -25 244 252 -193 185 -136 201 0
12 -160 -185 -28 -15 -173 -94 -61 52 0
230 169 -94 -173 52 12 -185 -62 20 0
-231 -2 208 77 -11 130 0
54 115 -191 -93 -234 -63 -199 -171 -256 0
185 244 -136 141 -177 -25 -96 199 170 201 0
-208 251 17 -131 -209 -95 107 0
170 24 14 -52 -202 -90 10 189 -138 0
201 185 -136 141 81 -25 199 71 244 -228 0
1 -132 49 253 89 215 128 0
50 -173 -15 -185 12 -42 -94 52 169 0
207 199 141 -25 201 244 -190 94 157 -136 0
13 -106 212 51 249 -181 25 73 138 156 0
73 249 -244 13 51 -85 52 -181 156 141 0
83 69 -130 39 -68 88 -187 0
-182 -88 -13 -76 246 219 -112 -214 56 -5 0
-224 24 -46 185 22 -89 -107 20 0
13 -106 156 -199 137 -85 73 138 -181 249 0
-157 242 -179 -81 -170 -215 -132 48 193 0
-95 251 111 46 -208 241 17 0
83 -130 88 -86 54 39 -214 0
252 141 94 170 71 -25 244 199 201 -136 0
-160 -185 169 -189 -15 -94 -173 12 -142 0
249 156 -189 -181 14 13 -106 -199 -200 73 0
246 -76 -112 219 -73 -182 126 56 -5 130 0
17 251 111 224 146 -208 -197 0
189 -138 -52 -233 -90 217 -193 10 24 0
-189 -62 -173 12 169 -94 -185 -15 205 0
-34 -40 0
90 -94 -185 -173 -160 12 205 -122 20 0
-125 58 130 -16 -147 -225 116 0
-185 12 -94 20 -173 205 -189 -160 -61 0
249 211 -189 156 13 -181 73 -106 137 25 0
-52 -62 10 -90 189 -193 -138 -85 24 0
199 201 244 -136 97 170 252 141 -25 -12 0
252 -51 -137 136 141 200 94 0
1 133 113 108 -48 -253 154 -179 0
-147 153 54 -130 88 134 39 0
97 -136 -193 -106 -25 185 199 -228 244 201 0
49 -113 -132 -163 89 140 215 0
157 189 -233 -90 -52 -138 -85 10 24 0
200 -51 25 141 -137 252 94 0
185 97 -136 244 141 199 201 207 157 -25 0
90 -185 -142 -160 24 -94 -173 12 -15 0
232 257 255 -187 96 228 -207 -252 0
-64 77 -231 36 -251 130 0
-137 -106 -51 -12 -201 200 -232 0
-82 -101 206 -132 -243 -37 10 128 -102 0
73 156 141 51 52 13 249 136 212 -181 0
-23 -154 133 89 242 215 -132 0
-106 200 -137 173 -51 -232 -201 0
24 -94 -173 230 -189 -123 20 -185 12 0
-190 188 -134 -126 214 -233 -69 18 0
141 13 211 156 -244 73 249 90 137 -181 0
244 -193 71 252 199 201 -25 94 -106 -136 0
150 224 121 -221 110 94 -132 -89 0
219 -182 -76 -18 246 -109 -88 56 -5 -73 0
-173 -160 230 12 186 -185 20 -189 -94 0
-181 -200 73 -199 156 -85 -106 13 249 -189 0
-233 90 230 -61 -94 20 12 -173 -185 0
-76 56 -13 246 219 -109 -188 -182 -5 130 0
243 75 -180 0
13 25 -85 141 -200 249 -181 90 73 156 0
51 73 -106 -181 -189 25 13 249 156 211 0
-28 -233 -61 12 -173 -185 138 20 -94 0
56 -5 246 -182 219 -156 -145 -188 -39 -76 0
225 130 57 67 -202 0
77 -231 -251 130 -2 149 0
156 -189 73 -201 141 249 -181 51 13 14 0
10 -90 24 14 -138 189 -52 -193 50 0
-136 -25 173 81 -177 199 207 -106 244 201 0
186 -185 -15 12 -173 -142 50 -94 -189 0
-90 14 -202 189 10 186 170 -138 -52 0
-92 -125 -165 -254 -16 -39 -225 0
-189 -185 -94 12 -160 -15 -173 -42 24 0
3 -147 -187 88 -130 -188 39 0
210 141 44 -58 165 130 -145 -129 0
199 -228 -25 157 -136 201 244 71 -106 -12 0
219 246 69 56 -88 -76 -5 -182 -249 -109 0
249 13 156 -106 73 136 51 14 138 -181 0
156 13 -106 -189 -181 73 -199 51 249 212 0
-106 249 90 13 156 73 -181 51 -244 217 0
189 -90 -61 -160 -138 10 -193 -52 14 0
169 -94 -42 52 12 -173 -185 20 -160 0
-125 -31 -16 -44 -92 130 -57 0
-181 73 90 156 141 -200 13 249 14 -201 0
249 73 90 141 51 156 13 -244 211 -181 0
-181 -199 137 -85 90 -106 13 73 156 249 0
205 27 -82 -54 187 0
199 -106 94 -136 97 157 -25 201 244 -96 0
156 -106 25 -37 249 -181 -200 52 13 73 0
-61 -185 -142 12 -15 50 -94 -173 90 0
246 219 181 134 -5 -88 56 -109 -182 -76 0
13 -181 249 217 25 51 73 141 138 156 0
-232 141 -137 -51 200 94 -244 0
-76 246 56 -188 -39 219 -182 -13 -5 -112 0
244 -232 199 38 173 201 -193 -136 141 -25 0
75 102 -180 0
50 -94 -15 12 -185 -173 -142 -189 -61 0
13 138 156 -244 141 -200 211 -181 249 73 0
157 199 244 -25 -136 201 -190 -12 -232 141 0
249 212 -201 73 156 -181 137 13 -189 -106 0
-207 228 232 27 -252 257 54 96 0
12 -233 -173 20 -185 -94 24 -189 -142 0
-216 91 40 -60 -26 -149 35 -78 11 -29 -36 0
-29 -60 -216 11 -32 74 -161 -36 -26 40 -149 0
99 -163 215 242 89 253 -132 0
-82 34 69 -247 -210 0
-88 56 -13 67 69 219 -182 -5 -76 246 0
-109 -13 -76 -182 -39 219 126 -5 56 246 0
-53 40 9 143 59 -113 -127 -201 0
199 252 141 244 173 -136 81 201 -190 -25 0
-88 -31 -125 -16 -57 -147 58 0
10 -138 -37 -160 186 -90 157 -52 189 0
13 14 73 -244 -106 156 -181 249 -200 138 0
186 14 -233 -138 10 -90 189 -52 -193 0
134 -108 226 -8 0
110 121 224 -215 185 -132 -221 150 0
246 56 -145 -5 130 -156 -76 -182 69 219 0
201 -232 199 -25 97 185 -193 -136 -106 244 0
50 235 -138 10 211 189 -52 -193 -90 0
14 73 141 156 90 -181 249 25 137 13 0
-253 113 -48 108 133 -103 154 1 0
-164 5 125 -195 -132 41 -165 0
-208 224 -209 -95 17 251 241 0
-147 -125 -88 -165 -57 -16 -254 0
155 40 -53 9 -113 -244 59 -127 0
56 -109 -182 130 246 -76 -18 219 181 -5 0
114 -26 -216 40 -60 11 -149 -161 91 -36 -29 0
10 189 -52 -138 -61 212 -90 50 157 0
189 170 -52 -37 -138 -90 50 10 169 0
-52 186 -202 170 211 -90 -138 189 10 0
-147 88 153 -187 -130 126 39 0
-209 -95 251 224 17 -208 146 0
10 -202 -90 81 -138 -37 -52 186 189 0
-39 -57 -92 -16 58 -254 -125 0
186 -173 -94 -28 20 12 52 -185 -202 0
50 -185 -173 -15 -94 -142 235 12 -189 0
-90 -62 -138 -52 10 24 -193 217 189 0
-228 201 141 199 173 244 -136 81 71 -25 0
83 -254 -16 130 -57 58 -125 0
-202 52 -142 20 12 -173 -94 -122 -185 0
35 40 -36 11 -149 -216 -60 -32 -148 114 -26 0
-138 -61 189 -62 157 10 -90 212 -52 0
78 -74 -119 124 -72 -86 -114 0
13 136 -189 -106 -200 156 73 211 249 -181 0
-16 83 -225 -125 -88 -165 -31 0
230 12 -202 -94 -189 -173 20 235 -185 0
56 -39 -76 -182 -5 -214 219 -112 -249 246 0
-39 -64 -231 -251 77 36 0
66 180 93 0
-129 -58 -106 165 -34 44 -112 130 0
156 141 73 -201 13 90 217 249 -181 51 0
-221 -132 150 -22 -215 121 110 173 0
-173 -94 -185 12 -61 -62 138 -15 205 0
-94 52 -173 169 20 -42 12 -123 -185 0
-25 201 244 94 81 207 199 141 -136 -190 0
-94 -185 -173 138 186 -160 12 -142 20 0
-15 235 -189 12 -160 -173 -94 -28 -185 0
81 141 -96 38 199 -12 201 -136 -25 244 0
-85 -52 189 -193 -90 10 -123 -122 -138 0
185 -132 150 -221 -89 -22 121 110 0
-52 186 -193 10 -90 -138 -62 217 189 0
-125 -165 130 -57 -16 248 -6 0
-162 120 -175 -220 143 166 -237 -250 183 0
-28 -160 -173 12 -185 186 20 -94 138 0
-15 50 12 -94 24 -185 -173 138 230 0
73 249 51 14 141 136 156 138 13 -181 0
10 14 -52 186 -62 157 189 -138 -90 0
-214 56 -39 -5 -182 246 -156 -112 -76 219 0
199 -228 -25 -193 97 244 201 -136 141 185 0
-136 -177 244 199 201 -193 94 141 -25 207 0
-15 -94 -173 -185 12 50 -122 230 -189 0
201 -136 81 141 185 -96 199 -190 -25 244 0
81 97 199 185 -106 201 -136 -25 -228 244 0
-26 -216 40 91 168 -36 -60 72 11 35 -149 0
50 -15 -173 12 -61 -185 -94 -42 138 0
10 -101 217 -102 -132 -163 206 -139 -243 0
-202 12 -94 205 24 -185 -173 -15 -189 0
57 130 -202 225 -109 0
-28 -173 -94 -15 -160 -185 235 12 52 0
125 -195 41 -132 -246 -165 -164 0
39 -147 69 88 -130 3 54 0
-149 -26 -60 -33 -229 -216 40 35 -36 -78 11 0
153 -187 -130 134 39 88 -147 0
201 -193 -136 97 94 -25 199 207 -106 244 0
-51 -96 136 -137 141 200 -12 0
212 13 52 -181 141 73 156 249 -200 136 0
-185 -123 -94 -173 -42 12 138 -15 -61 0
230 12 -173 -123 20 90 -185 -61 -94 0
-73 -5 56 219 -39 -76 -112 246 126 -182 0
-25 -190 244 199 201 81 -106 -136 173 252 0
-22 -208 -98 167 17 251 -55 0
-46 22 -15 -107 235 173 -89 -224 0
-106 -25 -228 -193 201 -136 244 199 173 -177 0
-241 182 -167 -88 131 -215 -146 0
51 -37 73 -201 156 -106 90 249 -181 13 0
141 73 -189 249 13 136 211 156 51 -181 0
130 -44 -92 -57 -16 -254 -125 0
12 -173 -185 52 -94 -15 24 50 -142 0
-68 -130 -147 126 39 88 -187 0
-202 12 -173 230 -185 52 20 -94 169 0
12 138 230 -15 -94 50 -185 235 -173 0
-36 -60 -216 -229 194 -26 -161 -149 40 11 74 0
-94 -185 -189 -28 -173 186 -202 12 20 0
-68 39 -130 54 -214 88 83 0
-123 -185 -15 12 -173 24 138 -142 -94 0
58 -125 -39 248 -57 -92 -16 0
-61 -185 -94 230 20 50 90 12 -173 0
-199 173 200 -137 141 252 -51 0
11 168 -216 72 35 -118 -36 -60 -26 40 -149 0
50 -122 -185 20 -189 -173 -28 12 -94 0
173 -61 22 -215 20 -224 -46 -107 0
-199 73 141 13 138 156 -181 137 -85 249 0
205 -15 138 12 -122 -185 -173 -123 -94 0
24 189 -52 10 -202 -138 -90 81 -85 0
20 138 -173 -94 50 -42 12 -185 235 0
-125 -225 -165 248 -16 -92 -88 0
205 12 -173 -94 186 138 -185 -233 20 0
11 -26 213 -216 -80 35 -149 -60 40 114 -36 0
230 169 -173 -189 20 -94 -233 12 -185 0
20 -233 -173 -189 -185 12 -142 169 -94 0
-156 246 56 -88 -109 126 219 -76 -5 -182 0
244 199 252 141 -25 -136 201 38 157 185 0
-15 -28 186 12 -94 -123 -189 -185 -173 0
167 251 -158 17 -209 -208 -22 0
157 244 -25 141 -228 -136 185 201 199 -177 0
-90 -138 14 81 235 -123 189 10 -52 0
107 -43 24 -236 0
201 199 -106 -136 244 157 207 185 -25 -190 0
-154 -199 9 -53 238 40 59 -127 0
-183 173 8 -254 0
76 -195 41 -164 -132 125 -165 0
215 -108 99 89 -132 257 140 0
-200 156 141 13 136 -181 73 -189 -85 249 0
251 -208 111 -22 -131 172 17 0
12 -202 -42 -185 52 -173 20 -94 235 0
-138 -90 -52 81 -62 24 10 189 -85 0
-160 -185 12 -15 186 -42 -173 -189 -94 0
88 -130 39 3 83 54 -188 0
14 156 52 -181 -201 -106 13 137 73 249 0
-94 12 235 50 -173 -185 20 90 230 0
90 141 13 -244 211 156 -200 -181 249 73 0
235 -15 -123 -173 -185 52 205 -94 12 0
-214 -210 -139 -247 34 0
-60 -149 -36 11 -80 -26 -216 -118 40 -161 72 0
-39 246 -76 -182 -145 -5 -13 219 -18 56 0
205 20 12 52 -123 24 -94 -185 -173 0
-16 -225 -125 -6 -39 -165 -31 0
-28 -94 12 -189 50 -15 -185 186 -173 0
186 -202 -185 12 90 -173 -94 230 -15 0
246 -5 -39 56 134 -76 -73 67 219 -182 0
-85 13 51 249 -181 52 156 73 141 -199 0
-165 -16 -57 130 248 -147 -125 0
-130 -6 134 39 -187 88 -68 0
-96 -136 201 -25 -106 94 157 244 38 199 0
-185 20 169 -94 205 138 -173 12 -62 0
172 17 224 -208 167 251 -209 0
-185 186 -233 -173 12 205 20 -189 -94 0
1 -253 154 -48 -103 108 128 113 0
-182 246 -76 -73 -5 219 130 56 -145 126 0
-42 -15 12 -94 235 -62 52 -173 -185 0
230 -185 90 -94 -15 50 186 -173 12 0
185 244 -232 81 201 199 141 -136 -25 71 0
-90 169 -138 189 -52 10 -85 170 -62 0
-233 -94 -28 -185 52 12 -15 -173 -61 0
17 251 224 -208 241 -55 172 0
-189 -233 -122 12 -94 -173 -185 205 20 0
131 -241 -89 -88 -246 -167 -146 0
189 -37 -138 81 -90 10 -62 -52 24 0
230 -185 235 20 -173 -189 12 -94 50 0
244 -25 -136 201 -193 173 97 199 141 -228 0
-2 77 -231 -39 26 -17 0
10 -90 -138 -122 81 189 -123 217 -52 0
-108 226 -8 69 0
-17 2 238 172 64 119 0
-25 199 94 141 -190 -136 -193 201 -96 244 0
-113 -157 -89 -220 -170 1 -81 193 -132 0
-94 -189 -185 -28 186 -233 20 12 -173 0
-106 201 199 -136 207 170 -177 185 -25 244 0
10 -90 -138 211 -52 -193 169 189 -62 0
10 -52 -90 50 189 -138 -122 211 81 0
-90 217 -52 -138 189 10 -160 235 157 0
-130 -68 88 -187 -188 -92 39 0
-222 34 -210 134 -139 0
212 -62 -52 10 -90 -138 -193 -122 189 0
-182 246 67 219 -249 -76 69 -5 56 130 0
-216 -149 -26 40 -161 -60 91 -78 -29 -36 11 0
-241 -219 -88 131 -89 -146 -167 0
-132 253 215 1 99 89 257 0
244 -228 94 -193 141 199 201 -25 97 -136 0
17 -55 -197 -208 167 107 251 0
211 -244 90 -106 73 137 249 156 -181 13 0
20 -202 -185 -189 -94 -61 -173 205 12 0
-142 -173 -233 -94 -15 169 90 -185 12 0
244 185 199 141 -136 38 -228 81 201 -25 0
215 1 89 -132 48 -163 -23 0
-85 -244 156 141 -189 249 -181 13 -200 73 0
-173 -202 -15 -122 205 12 90 -94 -185 0
-244 13 141 -85 73 90 249 156 137 -181 0
-136 97 244 -193 -106 -25 201 94 -96 199 0
12 -173 -185 90 -15 -94 -123 -28 -122 0
-216 -33 -124 11 -36 -229 40 -149 -60 -161 -26 0
31 254 134 182 -116 -165 -248 0
-106 -25 81 -136 199 173 -177 201 244 252 0
159 -81 -132 140 -170 193 -113 -215 -157 0
36 -88 -119 77 -17 -231 0
-187 96 174 232 -163 -207 -252 228 0
-138 170 -122 50 -90 10 212 189 -52 0
59 -53 143 9 -244 -127 253 40 0
-94 -42 -202 -173 -15 -189 12 -185 186 0
12 -142 -185 -62 -173 90 -122 -94 20 0
-136 -96 -177 199 81 244 -25 141 201 173 0
9 -199 155 59 -53 253 40 -127 0
-244 -51 200 -12 -137 -232 -106 0
212 40 -100 -161 104 155 0
244 -228 173 -106 201 -25 170 199 -136 -190 0
57 -109 -88 225 -123 0
-137 -12 -106 -51 -201 -228 200 0
-28 -185 -173 -62 -94 169 12 20 -189 0
-16 -57 -31 -39 -165 -6 -125 0
12 -202 24 -15 90 -185 -173 205 -94 0
38 201 157 244 199 141 252 -25 94 -136 0
211 73 13 -201 156 -181 249 -189 -106 51 0
-136 201 -232 157 -106 94 -25 199 244 97 0
12 -185 20 235 -94 -233 -42 90 -173 0
134 -86 88 -92 -130 54 39 0
-108 193 -157 -81 -170 -132 -220 140 -215 0
-52 235 -90 -138 14 -62 81 189 10 0
156 51 52 73 249 -181 -106 212 13 -244 0
130 77 60 -2 208 -231 0
215 242 -23 -163 89 -132 -154 0
-52 10 217 -90 -138 -193 -122 -202 189 0
-193 -138 -52 -90 189 -202 235 10 14 0
-94 12 -15 -173 -185 -122 230 -160 -189 0
-69 38 -62 -126 -134 188 214 18 0
98 -244 -226 43 95 -172 197 183 158 0
-181 73 249 -106 90 -37 156 51 136 13 0
235 -173 12 -202 -94 -42 -185 52 -15 0
-60 -26 -36 114 -161 40 -149 -216 -229 194 11 0
137 13 -201 249 73 156 90 -181 -106 14 0
-160 -61 81 -90 -138 14 10 189 -52 0
-157 242 159 -154 -81 -215 -132 -170 193 0
11 40 -78 -149 -216 -148 -32 -36 -60 -26 -161 0
54 39 3 134 88 -92 -130 0
157 -90 10 -138 -52 169 217 50 189 0
-106 13 -199 156 249 90 -200 -181 -85 73 0
-209 146 17 251 -158 -22 -208 0
-185 20 205 169 -173 138 -123 -94 12 0
-142 -61 -94 20 -173 12 -185 50 52 0
-147 -57 -125 -88 248 58 -16 0
244 201 185 97 -136 252 199 -25 -106 -193 0
-25 201 207 199 -193 -136 71 244 94 141 0
244 157 -25 71 -136 141 201 207 94 199 0
129 -34 -109 204 0
235 10 -52 -138 -233 157 189 -90 212 0
257 89 -132 -113 140 -23 215 0
50 12 -189 -185 -94 -42 -122 -173 20 0
-208 -209 172 17 241 251 46 0
219 246 56 -39 -182 -76 -5 134 181 -109 0
14 156 249 141 -199 138 13 73 -200 -181 0
-173 138 -185 -122 12 20 -94 50 230 0
244 157 71 -136 -232 173 201 -106 -25 199 0
189 -160 -61 212 -138 -90 -52 157 10 0
-189 -185 -173 -123 235 -142 12 -94 -15 0
-132 82 -42 -12 -15 139 0
199 -106 -136 -190 244 252 -25 94 201 81 0
252 244 201 -25 170 -106 199 -136 185 -190 0
227 47 196 -7 -30 0
-5 -182 126 246 -39 -156 -109 -76 56 219 0
156 13 249 25 141 52 137 73 -37 -181 0
-57 -6 -125 -39 248 -16 58 0
10 170 -52 189 -90 -61 50 -138 212 0
-6 -16 -57 -31 -125 -44 -88 0
-109 -5 56 246 -76 130 219 -156 -182 69 0
14 156 -181 -199 138 51 141 73 13 249 0
244 252 199 201 -106 -136 -25 -190 173 -193 0
200 94 252 141 -137 -201 -51 0
-210 126 -203 34 -82 0
13 -106 -181 156 -201 73 249 212 51 90 0
-142 -173 20 90 -62 -94 169 -185 12 0
71 94 157 -136 199 244 201 207 -106 -25 0
20 -94 -122 -142 12 -185 52 -173 50 0
-138 -90 169 -52 212 189 -123 -193 10 0
39 83 -130 -187 134 88 3 0
-94 52 -185 -42 -15 12 186 -173 -62 0
-88 -16 -125 83 -57 58 -31 0
257 -154 215 99 89 -132 140 0
25 -53 -127 59 40 -113 143 9 0
-187 39 3 -130 88 -214 -92 0
-85 -90 -52 235 -202 10 189 170 -138 0
39 -130 -187 -188 153 -147 88 0
-232 -106 97 -193 94 199 -25 -136 201 244 0
-42 12 235 138 -94 -185 -15 -173 -123 0
10 -52 -138 189 81 217 -90 -122 -233 0
-53 40 143 -201 -154 59 9 -127 0
56 -145 -39 -13 -76 246 219 -5 134 -182 0
189 -138 14 -90 -233 235 -193 10 -52 0
-236 186 107 -43 0
-136 -232 201 173 -25 81 38 199 244 -106 0
205 -160 -173 -15 -185 12 -189 -122 -94 0
-137 25 200 -106 -96 -51 185 0
-180 70 243 0
-189 -200 141 13 -181 249 73 211 156 136 0
8 -183 -12 -31 0
12 -233 24 -173 -28 -94 52 -15 -185 0
-52 -138 -37 186 -90 -160 -193 10 189 0
67 -39 57 225 -202 0
95 -244 98 43 158 8 197 -172 183 0
141 244 -25 170 -232 71 201 -136 94 199 0
-94 -15 -185 -123 90 186 -173 -28 12 0
94 -51 141 136 200 -137 -232 0
200 -228 -51 185 -199 141 -137 0
-123 -52 157 -90 10 -138 211 -122 189 0
-57 -16 -6 -125 -44 -31 130 0
-15 12 -173 50 -94 138 230 186 -185 0
-161 40 -29 -26 11 114 -36 -60 -216 -149 213 0
211 138 25 -106 -181 13 137 156 73 249 0
-90 10 -138 -61 -233 -52 217 189 81 0
211 10 24 -202 -52 -90 -138 157 189 0
-106 201 185 -25 38 -193 199 -232 -136 244 0
-5 -145 56 219 246 -182 -39 -18 -76 -249 0
-15 -173 -122 -185 12 52 -42 -123 -94 0
-108 193 -170 -81 -157 -132 242 -89 -103 0
-185 230 -94 235 50 138 20 12 -173 0
-215 -170 -81 159 1 193 -132 -157 253 0
11 40 -161 -149 168 -60 -26 -118 -36 -216 74 0
211 189 -90 -52 10 235 -233 -138 81 0
99 257 89 215 242 -132 253 0
-84 145 109 112 -67 0
-25 -136 38 244 94 170 201 199 -228 141 0
137 156 -181 90 13 -106 -85 -201 73 249 0
150 173 110 -221 121 -132 46 -215 0
-83 147 157 6 50 92 0
-132 20 139 230 173 82 0
-219 -165 -116 69 31 254 -248 0
52 -106 217 25 156 -200 13 -181 249 73 0
-57 -16 -39 83 -125 248 -165 0
244 -106 -177 -136 199 207 201 -12 170 -25 0
-181 13 249 -200 90 -106 25 211 156 73 0
-124 -36 -60 -161 -149 -148 91 -216 11 40 -26 0
-130 -68 54 -18 -92 39 88 0
213 168 -26 40 -161 11 -149 -36 -216 -60 72 0
200 -137 -12 -51 -106 -199 -232 0
-107 -15 -46 -215 -12 -61 22 -224 0
-209 46 167 17 -197 251 -208 0
57 -233 130 -109 225 0
-136 141 -96 170 94 -177 199 244 -25 201 0
-122 205 12 -160 -173 -94 138 -185 -15 0
-46 173 169 20 22 -107 -224 -215 0
-252 96 54 174 128 -207 232 228 0
126 83 -130 -187 3 88 39 0
-137 -201 -232 141 173 -51 200 0
-208 167 -22 251 -197 111 17 0
200 -137 207 94 -51 141 -199 0
14 137 138 -244 73 156 13 249 -106 -181 0
-113 9 136 59 -53 -127 40 155 0
-138 235 10 -52 -62 -90 211 81 189 0
-118 -216 -60 40 74 -149 -36 11 -26 -161 -148 0
-139 134 34 -210 178 0
-85 189 10 -90 170 -202 -52 -138 169 0
-190 -25 201 170 173 207 199 -106 244 -136 0
3 39 -187 -130 126 -147 88 0
81 -90 186 189 217 50 10 -52 -138 0
25 185 -137 200 -51 252 -106 0
156 138 73 51 13 -199 14 -181 -106 249 0
207 -190 -12 199 -25 244 -136 201 -106 170 0
136 156 141 90 -181 -200 13 249 -37 73 0
199 141 -228 -190 201 157 -12 244 -136 -25 0
215 -132 140 -113 -163 89 -23 0
-131 172 17 224 -208 111 251 0
-122 189 -138 -85 -52 -90 10 -193 -62 0
-137 -51 -201 207 -12 200 141 0
71 173 -96 -136 141 -25 244 199 -193 201 0
90 -160 186 -185 -28 20 12 -173 -94 0
40 114 -149 11 35 168 -60 -26 213 -36 -216 0
-231 -119 -17 130 77 60 0
90 -185 -202 -94 -28 12 -15 24 -173 0
205 -82 -54 187 174 0
249 -85 141 -189 73 25 156 13 137 -181 0
-149 -216 -60 40 -148 -32 -161 -36 114 -26 11 0
-31 -16 83 -225 58 -125 -39 0
172 251 -208 111 146 -22 17 0
54 83 -130 39 -18 88 -68 0
-149 -229 -36 35 -32 40 -78 -26 -216 11 -60 0
211 136 249 13 137 156 -181 52 73 -106 0
219 -249 -145 246 56 -188 -88 -5 -76 -182 0
-12 201 -136 170 141 207 199 -190 -25 244 0
-88 -44 -125 -92 -16 248 -225 0
90 -122 12 -123 -173 -42 -94 -15 -185 0
-76 246 -5 67 56 -18 219 -13 -182 -39 0
201 199 -25 244 -232 94 141 -190 170 -136 0
219 -188 56 -88 -13 -109 -182 246 -76 -5 0
50 -37 -138 189 235 10 -52 -90 170 0
-232 -106 199 201 -25 244 97 81 -136 -12 0
-182 -249 126 -112 246 56 -5 219 -76 130 0
204 67 210 129 0
-5 219 -109 56 -76 -39 -182 69 -13 246 0
119 155 64 -17 172 2 0
-35 53 -229 161 0
-149 -26 -33 40 -29 -124 -60 11 -216 -36 35 0
-206 -180 70 0
-52 186 -90 170 -138 189 -37 -123 10 0
138 12 -185 -61 -94 50 -28 -173 20 0
156 -106 249 90 137 -181 211 73 13 -201 0
185 -137 -228 200 -201 -106 -51 0
-52 186 10 -138 189 -90 50 81 14 0
-165 -16 -125 -88 -31 -225 -92 0
-82 -210 126 34 -222 0
14 -160 170 189 -52 -61 -90 -138 10 0
201 244 141 173 -190 -25 207 157 -136 199 0
173 -136 -96 157 -25 199 244 141 97 201 0
52 -181 212 -244 13 -106 249 73 -200 156 0
-106 201 -136 199 -232 -190 244 173 157 -25 0
-53 40 -127 59 143 -201 48 9 0
230 -173 12 -122 20 -185 -94 -123 138 0
-225 -39 83 -44 -16 -125 -31 0
-225 -125 -16 -44 -147 248 -39 0
157 -61 10 -160 211 -90 -138 -52 189 0
50 235 217 -193 189 -138 -90 10 -52 0
-201 73 156 -181 141 217 51 249 13 138 0
156 141 138 249 13 73 -181 -37 25 51 0
244 185 -25 -190 -106 199 201 170 -136 207 0
-215 22 -12 169 -107 -224 -46 20 0
-193 212 -202 -138 10 169 -52 189 -90 0
-181 137 73 -37 13 -106 249 -189 156 136 0
-185 -173 -189 169 -94 -202 -142 20 12 0
83 -88 58 -16 -57 116 -125 0
39 -130 54 -18 88 -86 -147 0
-60 -78 35 -229 -216 40 194 -36 -149 11 -26 0
20 52 12 -94 -173 50 230 -61 -185 0
130 67 -123 225 57 0
-20 -233 -189 10 15 0
249 -181 73 51 217 156 -189 -106 13 -244 0
107 -221 -132 121 110 -89 150 94 0
-173 -185 -28 -160 186 -189 12 20 -94 0
12 50 -94 235 -173 -28 -185 90 -15 0
-136 -106 -193 173 199 -96 97 201 244 -25 0
13 141 156 249 138 -200 73 -181 -85 25 0
156 25 -106 52 211 51 13 249 -181 73 0
-138 189 -62 10 -52 169 -193 -90 217 0
-224 -89 22 -46 -107 -12 20 -122 0
-189 -141 106 27 -82 152 0
199 141 -177 94 -25 207 -136 81 201 244 0
141 212 51 -244 13 73 138 249 156 -181 0
167 17 251 172 -22 -209 -208 0
-15 186 -185 12 52 -173 -202 -28 -94 0
205 52 -173 -160 -94 20 -185 12 -122 0
20 94 139 -132 82 -142 0
170 -138 -90 10 -52 24 189 50 -85 0
201 157 244 207 94 -25 -177 199 -106 -136 0
-199 51 249 73 156 -189 -181 13 211 -106 0
40 -36 -60 11 114 -32 -216 168 35 -26 -149 0
170 61 -24 7 -169 -235 -186 -89 122 0
-185 20 -94 -173 -122 138 12 205 -160 0
-31 -16 -165 -225 -125 -92 -39 0
205 12 -15 24 -94 -173 138 -185 -62 0
52 12 -202 -173 -185 205 -122 -94 -15 0
-185 -173 12 230 -94 50 20 52 186 0
-94 -61 -185 -173 12 -28 -15 52 -62 0
39 -130 -147 -214 54 3 88 0
12 24 -189 -15 -173 -94 -28 50 -185 0
-244 141 -137 173 200 -232 -51 0
-94 12 -173 -185 205 -160 235 20 138 0
-202 10 -85 -138 -193 -52 -90 189 169 0
90 -181 156 141 51 14 -199 73 13 249 0
-4 132 0
-172 95 98 197 183 8 -201 43 158 0
-139 -54 255 -28 187 0
133 253 49 242 -132 215 89 0
20 -173 169 12 -94 -185 230 138 -160 0
-76 246 219 -182 181 56 130 -5 -18 -112 0
-226 -254 185 -183 0
-61 12 -28 -173 -94 -185 138 -233 -15 0
230 20 -185 -233 -173 -94 235 12 52 0
249 136 -200 -37 -181 73 -106 90 156 13 0
-224 -61 -12 -46 -107 -89 22 20 0
-77 -184 240 162 125 -198 45 -87 0
12 -202 -173 138 -42 -185 -15 186 -94 0
-157 -154 -215 -81 159 140 193 -170 -132 0
44 210 -58 141 -112 -88 165 -129 0
-89 -46 22 -224 -12 20 -107 169 0
-185 12 -202 -122 -15 -173 -94 -189 -42 0
189 -90 -85 -123 170 -138 24 10 -52 0
215 140 -132 -163 49 89 253 0
12 205 -94 138 235 -202 -15 -185 -173 0
-25 -136 207 -106 199 244 71 185 201 170 0
-60 -216 -26 11 -36 40 35 213 -149 72 168 0
10 189 235 -138 81 212 -123 -90 -52 0
12 -185 -173 -94 186 50 90 -42 20 0
200 173 252 -51 -244 -137 -106 0
-139 -22 -152 20 7 0
-196 61 157 -235 -24 -215 -169 -186 122 0
73 -244 13 -189 -37 156 249 51 -106 -181 0
-138 -61 189 -233 -85 -90 -193 -52 10 0
88 -130 -214 83 39 54 153 0
-94 -173 -233 -142 -185 12 20 138 -61 0
-233 -173 12 90 -185 20 -94 -28 186 0
-158 119 208 64 238 2 0
244 141 170 -25 -177 199 -228 201 -136 185 0
-39 57 -202 225 -112 0
-42 20 -94 -173 12 -123 24 138 -185 0
-94 -233 90 -15 -185 230 235 -173 12 0
46 -55 167 17 -197 -208 251 0
-204 141 44 -39 165 67 210 -58 0
20 -185 230 -94 -173 -233 24 12 90 0
25 -228 94 141 200 -51 -137 0
249 156 -181 73 141 52 51 212 13 -199 0
-15 -94 24 -202 12 -173 -142 -189 -185 0
137 -181 156 -244 217 141 73 249 -189 13 0
219 -88 56 -5 -182 -76 246 -214 181 -109 0
-138 -52 157 189 -122 217 50 -90 10 0
-125 -225 -16 83 -165 116 -88 0
254 -116 -165 31 76 -248 134 0
77 60 -119 -39 -231 -17 0
-193 244 -106 199 173 201 207 -25 -190 -136 0
74 -36 -149 35 -60 -26 91 40 -29 11 -216 0
-232 94 38 201 -25 244 -136 199 141 81 0
48 -89 193 -103 -170 -157 242 -132 -81 0
193 -179 -132 -170 -157 -81 -89 1 -108 0
14 40 104 -100 238 35 0
10 -122 -138 14 -90 81 189 50 -52 0
-177 -136 201 81 244 94 199 -25 141 252 0
-132 -179 -170 1 -81 -215 193 253 -157 0
215 1 -23 89 -132 -108 -163 0
212 73 13 141 249 -189 136 -181 156 51 0
-139 30 -152 224 20 0
-37 13 -200 141 156 25 73 249 -181 -189 0
201 -136 38 141 -25 244 199 94 81 207 0
-189 12 -15 -122 205 -185 -173 -62 -94 0
-12 205 82 139 -15 -132 0
-188 219 67 -88 -5 -182 -76 56 -249 246 0
-22 251 -55 -208 -158 146 17 0
-106 -136 -25 -232 185 71 81 201 199 244 0
216 -251 -88 77 -64 -231 0
-131 251 46 -208 -98 -55 17 0
97 244 201 -136 199 157 -96 -25 173 -106 0
-88 -16 116 -225 58 -6 -125 0
24 -52 10 -90 189 -202 -138 170 211 0
-94 235 -173 90 -185 -233 20 12 -142 0
-136 81 199 -25 201 -177 173 -232 244 -106 0
-94 -142 -61 12 -185 -15 -189 -62 -173 0
157 -62 189 235 -52 -138 -90 10 217 0
169 -42 12 -94 90 -233 -15 -173 -185 0
52 -160 12 -94 20 -185 -142 235 -173 0
-182 -76 181 -112 246 -5 -39 219 56 134 0
12 20 -61 230 -233 -94 -173 -185 52 0
156 -181 14 138 13 73 137 249 141 -201 0
-132 -215 110 -221 150 -22 185 121 0
-149 -32 35 -80 -60 -36 -124 11 -26 -216 40 0
138 -244 -181 13 137 -85 249 156 -106 73 0
-175 143 120 159 166 -250 -162 -237 183 0
-106 -25 -190 -136 244 199 -193 201 207 94 0
-138 10 -52 157 -62 -90 189 211 235 0
-15 -202 205 138 12 -94 -173 169 -185 0
230 90 12 20 -185 -202 186 -173 -94 0
90 230 -94 -173 12 -15 -123 -185 -122 0
165 -204 141 -34 -58 44 -112 130 0
3 69 -187 88 39 -130 -147 0
-216 -60 -36 -26 -149 -161 11 -80 74 40 194 0
45 237 -77 -198 -87 240 -184 125 0
-132 58 16 -219 41 -164 -195 0
3 -130 39 54 88 134 -147 0
88 153 -187 -6 -18 39 -130 0
-90 189 170 -62 -52 -138 24 10 -85 0
-148 -36 213 -60 35 -26 11 72 -149 40 -216 0
246 -182 -73 -5 130 69 -76 -112 56 219 0
73 249 13 -200 -181 211 -189 25 141 156 0
-52 10 211 81 -138 -90 169 -123 189 0
97 188 -69 18 214 -126 -134 -202 0
165 -129 -145 141 -39 -34 44 -58 0
-15 90 -173 -61 -94 -185 -28 12 -62 0
-94 90 12 -15 -185 -160 -173 169 -42 0
249 -181 13 73 156 138 141 137 136 14 0
-16 -147 -125 -165 -39 -225 -31 0
-23 89 -163 -132 215 242 253 0
-89 -132 1 -81 159 193 -157 -154 -170 0
33 32 -91 10 27 -194 -139 -213 118 0
-185 -233 -173 12 169 138 -94 -28 -15 0
201 244 -25 -232 -136 157 -190 199 -12 -106 0
-13 -5 -214 56 -182 -39 219 246 -76 67 0
-10 -47 -89 0
73 13 90 249 -106 -181 136 156 -85 -200 0
199 -25 -136 -12 157 244 -190 201 -106 252 0
11 -36 40 -60 35 -216 -80 194 -149 -26 114 0
-189 -62 -15 -94 -142 -185 12 24 -173 0
-44 -6 130 -125 -225 -16 -31 0
-202 -173 12 -122 20 -94 -185 -42 -189 0
-132 215 -108 89 1 49 257 0
-94 -122 12 -173 -185 20 -189 -142 -233 0
-202 12 138 -185 -94 -42 -173 20 235 0
-94 -189 -185 12 169 -173 50 20 -28 0
12 -185 -28 -202 -189 -122 20 -173 -94 0
230 -185 -15 -160 186 90 -173 12 -94 0
-185 52 -28 -202 -173 -15 -94 12 -61 0
170 -232 201 -25 199 -190 244 -106 94 -136 0
242 48 89 133 -132 49 215 0
-209 -98 46 167 17 -208 251 0
-101 -132 206 -102 257 -243 10 -139 -37 0
-116 254 -18 -246 -248 31 58 0
-176 -21 -79 0
-36 -216 -78 168 11 -149 -161 -60 40 194 -26 0
-185 52 24 -15 230 -160 -173 -94 12 0
138 -185 -15 -142 24 -94 12 -173 50 0
141 73 13 136 52 156 -200 -181 249 211 0
-131 251 -208 224 -98 17 -209 0
-185 20 52 50 -42 -94 235 -173 12 0
-145 141 -39 -34 -58 44 165 -204 0
249 156 -244 141 51 211 -189 73 13 -181 0
88 54 39 -130 3 -147 -188 0
199 -136 244 201 -228 -106 170 -25 185 38 0
90 -15 -160 -94 -173 -42 12 -185 186 0
252 -136 -25 244 199 170 141 38 94 201 0
52 141 156 -181 136 73 217 51 13 249 0
-37 10 -243 206 -132 -101 -163 -102 -82 0
146 251 172 111 46 -208 17 0
67 130 -5 69 56 -76 181 219 -182 246 0
235 -189 -15 12 205 -185 -202 -94 -173 0
230 -15 -173 -185 12 138 -61 -94 -233 0
12 -173 -185 -15 235 -94 -62 90 -42 0
51 -181 -106 13 90 249 14 -199 156 73 0
-12 -132 -28 139 20 82 0
-89 94 110 150 46 121 -132 -221 0
-60 213 11 -149 40 -229 -36 -26 -161 -78 -216 0
-193 -61 -138 189 -52 10 -37 -160 -90 0
205 -94 -202 52 -185 12 -15 169 -173 0
249 156 13 -200 217 138 -181 136 -106 73 0
-136 -12 199 252 244 38 -25 81 -106 201 0
-101 -243 14 206 -132 -102 257 10 -82 0
-201 -106 249 73 -200 13 156 -37 -181 90 0
116 -125 130 -16 58 -225 83 0
-15 -94 -202 -142 235 12 -173 -185 52 0
170 -52 189 -138 24 10 -62 -90 217 0
250 -129 256 0
199 201 -190 -25 244 -12 141 -136 -232 -193 0
-106 -181 156 249 -85 52 73 51 136 13 0
9 -127 48 59 40 -53 238 -201 0
173 199 201 157 -25 141 207 244 -136 71 0
-237 -256 -162 159 120 143 166 183 -175 0
246 -73 219 -5 69 -76 -182 56 -145 -88 0
-90 -52 -138 -193 189 10 217 235 -160 0
-25 185 -228 81 199 201 -136 71 244 -106 0
-28 12 -173 -189 -123 -94 20 169 -185 0
-132 -81 140 -103 -157 193 -154 -170 -89 0
143 40 104 14 -100 35 0
199 173 -136 71 201 141 244 157 -232 -25 0
-197 251 17 241 224 111 -208 0
130 -125 -225 58 -31 -16 83 0
-173 12 -94 -185 90 20 -142 24 -202 0
24 -94 -173 138 -185 20 -28 12 -62 0
185 8 -31 -183 0
-52 170 -123 -90 10 186 189 -138 14 0
-6 -16 -44 116 -225 130 -125 0
-182 -145 -156 219 56 -88 -5 -76 246 -188 0
-136 -177 207 -193 199 201 244 -12 -25 -106 0
-94 -61 90 -185 -173 -142 20 12 -62 0
199 -106 -136 -96 201 -25 -12 -177 -193 244 0
12 -94 -142 -62 235 -185 20 -173 138 0
50 -185 -173 12 20 90 -94 -122 -142 0
175 240 -87 -198 -77 45 125 -184 0
-208 251 224 17 111 146 -98 0
90 12 -15 -94 -173 -185 50 -42 235 0
-94 90 -185 230 -62 -122 -173 -15 12 0
166 120 -237 -103 183 -256 -175 238 -162 0
90 249 -199 73 156 -181 -200 -37 13 -106 0
-177 -25 -232 201 157 -136 199 244 -12 141 0
249 51 138 -244 211 156 -106 73 13 -181 0
-37 -181 -199 138 249 156 51 73 13 -106 0
173 252 81 97 199 201 244 -106 -25 -136 0
149 77 -231 -88 -17 -2 0
-51 -199 -228 -106 94 200 -137 0
13 25 73 51 14 52 156 -181 141 249 0
25 156 -106 137 -85 73 -181 13 138 249 0
17 -208 111 -158 251 146 107 0
-196 20 -139 -152 -22 0
6 -193 -62 147 -83 92 0
-123 -52 81 -90 10 -138 186 189 211 0
-181 -244 141 156 73 137 249 90 217 13 0
169 50 -94 12 20 -185 -173 138 -42 0
-54 187 -82 -42 174 0
81 10 -202 24 -138 -90 189 212 -52 0
137 -37 249 73 13 52 -106 -244 156 -181 0
-5 -249 69 219 -182 56 -39 -109 246 -76 0
-18 56 -76 -112 -5 -39 -182 219 246 -156 0
-107 22 -46 185 24 20 -215 -224 0
137 249 13 73 138 -37 156 -181 -199 141 0
-134 -69 97 188 214 -160 18 -126 0
-215 209 55 141 -111 -15 0
-248 -219 -18 58 31 254 -116 0
-181 73 249 51 90 -37 -199 13 141 156 0
226 -8 48 -214 0
201 -232 173 -190 -136 -25 157 244 199 141 0
-53 238 59 9 48 -127 40 -199 0
215 -23 242 257 -132 89 -108 0
-187 115 -191 -234 -171 -250 -93 -201 -63 0
-132 121 110 224 -12 150 -215 -221 0
141 -96 200 -51 -137 -244 173 0
251 -98 17 -131 -208 -55 107 0
-17 -231 149 130 77 -64 0
189 -90 -52 -193 10 211 -138 -233 24 0
88 -68 -147 -187 -130 69 39 0
-15 -94 -185 -160 -42 -61 -189 -173 12 0
-95 46 251 -208 -209 17 -131 0
73 137 136 -106 249 90 -85 13 -181 156 0
211 -181 73 156 141 51 249 136 52 13 0
-138 186 10 -37 -52 -62 157 -90 189 0
-233 -15 138 -185 -94 205 -173 -122 12 0
-165 -214 254 -116 -246 -248 31 0
-173 90 -185 20 230 -94 235 12 -160 0
25 13 249 90 51 156 141 14 -181 73 0
20 -160 -185 -173 235 12 -94 90 -42 0
-152 107 20 -227 -139 0
-52 -160 189 -90 -138 81 10 24 217 0
-173 90 -142 -233 12 186 -185 20 -94 0
-138 189 -193 -37 -202 10 -90 -122 -52 0
200 -51 -137 -228 141 185 25 0
200 141 -199 252 -137 185 -51 0
90 12 -28 -185 -61 -233 -173 -15 -94 0
107 -221 121 -132 -89 -12 110 150 0
210 44 -145 165 -106 -204 -58 -39 0
-94 -173 -61 205 -62 -185 12 52 -15 0
73 217 52 -244 -181 -106 156 -200 13 249 0
-139 -152 -227 46 20 0
24 -94 230 -185 12 -173 -189 -123 -15 0
-8 -113 134 226 0
12 169 -185 -173 -94 -15 -62 230 52 0
-132 -23 215 140 133 89 -108 0
156 141 217 73 -199 138 13 -181 249 137 0
-34 130 -109 165 -204 44 -58 141 0
-18 246 219 -73 -76 56 130 -145 -5 -182 0
-15 -94 -173 12 -233 -122 -185 230 138 0
-160 15 10 -20 90 0
-181 156 73 -200 -199 -189 -37 13 141 249 0
-232 201 71 199 -106 -136 94 -25 81 244 0
254 -248 182 31 -18 58 -116 0
-85 52 -106 156 249 -181 51 13 73 -244 0
107 251 -209 -208 17 172 241 0
-5 219 -182 130 246 134 -76 56 -109 -249 0
217 137 141 249 136 156 73 -181 13 138 0
114 -36 -118 -26 -216 -60 40 -149 -161 -29 11 0
-36 -26 35 -118 -216 -124 11 168 -149 -60 40 0
157 199 -228 -12 201 -106 244 -177 -136 -25 0
173 201 -193 141 -136 -25 244 199 -232 -177 0
201 81 199 -136 -106 -25 244 38 252 185 0
-47 224 -152 -139 -15 0
-185 -189 -94 12 -160 -28 -173 -15 186 0
-94 -185 20 52 -123 12 186 -173 -142 0
10 186 189 -233 170 -138 -90 14 -52 0
-152 -15 -82 107 -196 0
137 13 249 -201 156 141 -85 -189 73 -181 0
244 199 -136 141 201 71 207 -12 -25 81 0
41 -132 -165 -195 -164 16 182 0
73 -181 -189 156 136 51 249 212 -106 13 0
-192 101 -180 0
138 249 156 13 -106 -200 73 25 -181 217 0
-138 -90 189 10 235 -37 157 -160 -52 0
-173 -94 -185 -202 12 205 169 20 90 0
130 -202 -112 225 57 0
199 -25 173 -136 -106 244 81 201 -190 -232 0
153 88 -130 -187 39 126 -92 0
90 -202 -94 -15 -61 -173 -185 12 -42 0
12 -185 -94 235 50 205 20 52 -173 0
-90 189 157 10 -123 -138 14 -52 -122 0
-15 12 -62 138 -122 -42 -173 -94 -185 0
130 77 216 -119 -231 208 0
-12 -25 201 141 81 244 97 252 199 -136 0
230 -54 187 255 -139 0
9 -127 40 -53 253 -201 59 155 0
156 -200 14 249 90 25 73 -181 13 -106 0
-185 -94 205 52 -173 -233 169 12 20 0
128 -108 99 1 89 -132 215 0
68 -187 -3 -37 141 86 -153 0
25 211 156 13 52 73 -181 137 249 -106 0
136 156 13 73 -181 -106 -200 249 -189 212 0
249 156 -181 -106 138 13 -37 25 73 51 0
246 -5 130 -249 -145 219 -76 56 134 -182 0
-90 189 211 -193 -123 -52 186 -138 10 0
-94 -173 12 -185 205 -15 169 138 -123 0
141 249 -200 212 13 -181 52 73 156 -244 0
-25 -193 -228 38 141 244 199 -136 94 201 0
-173 12 20 24 90 -185 230 -94 -123 0
-173 -142 12 138 -94 -185 -61 -160 20 0
-145 -5 -39 -182 -156 246 -76 56 134 219 0
-185 -123 -15 -173 205 -189 186 -94 12 0
-28 -15 -122 -94 -173 -189 -62 12 -185 0
12 -94 -173 138 -123 20 -142 186 -185 0
201 81 -106 244 97 -25 -136 185 207 199 0
-173 -142 52 12 24 -94 -15 -185 -123 0
189 10 157 -233 -85 -138 -52 235 -90 0
-185 -189 235 12 -15 -42 50 -173 -94 0
90 -42 -173 -94 12 169 20 50 -185 0
12 235 -202 -185 205 52 -173 -94 20 0
12 -94 -122 -233 230 -185 -173 -15 90 0
10 -90 170 189 -52 -138 14 -233 -61 0
141 192 -163 -70 -75 -151 0
230 -123 138 169 -185 12 -94 -173 20 0
161 127 -35 -29 0
-62 -185 -173 -122 -42 138 20 -94 12 0
81 -25 -177 -12 -106 201 -136 252 199 244 0
2 238 64 208 -95 119 0
-185 -142 -61 12 -173 138 -15 -160 -94 0
12 20 52 -62 -42 -173 -94 -185 235 0
-173 186 -160 205 12 52 -94 -185 20 0
199 201 -25 157 97 244 -136 173 141 207 0
86 14 -3 -187 -153 68 -106 0
169 189 -52 -138 212 -202 10 157 -90 0
244 199 -25 -193 207 141 -177 201 -136 173 0
-132 89 215 -108 257 1 99 0
94 199 -25 -193 38 244 -106 207 -136 201 0
-185 90 -15 -173 -94 -62 12 169 230 0
86 -153 68 141 54 212 -3 0
255 -141 152 -189 106 -139 0
156 -200 13 73 90 -244 217 141 249 -181 0
-185 -202 -173 20 -28 -122 52 12 -94 0
39 -18 -187 -147 88 -68 -130 0
20 -122 -62 230 -94 90 -173 12 -185 0
-160 20 -189 12 -173 230 -94 -185 -122 0
73 138 156 217 13 141 -200 -181 -201 249 0
-90 81 186 -52 -202 -138 10 189 211 0
-15 235 -142 -173 52 -185 12 -62 -94 0
130 -11 77 -231 -17 -2 0
-15 12 -28 -94 -122 138 -185 -173 -160 0
2 -251 -197 155 119 64 0
251 224 241 -55 -197 17 -208 0
-170 -132 193 -215 1 -81 -220 -157 48 0
-44 83 -57 -125 116 -16 -39 0
-52 169 189 -233 10 -193 212 -90 -138 0
156 -181 25 73 141 13 -189 249 -200 14 0
230 -94 12 -160 169 90 -173 -15 -185 0
249 -200 156 138 -199 -106 73 211 -181 13 0
187 -82 255 -54 230 0
131 -167 -89 -56 -88 -146 -241 0
-88 -64 77 -231 -17 216 0
143 136 -113 40 59 -127 -53 9 0
97 157 173 -106 -228 -25 244 199 -136 201 0
-15 235 -185 -28 -160 -173 12 138 -94 0
-51 200 136 -137 -232 -12 141 0
-136 94 201 244 141 -25 199 170 252 -177 0
189 -193 -90 24 -138 10 -85 50 -52 0
88 -147 153 39 69 -187 -130 0
-233 -138 235 -90 10 170 189 -52 -37 0
-125 -39 -92 116 -225 -16 58 0
213 -216 40 168 -161 -26 -149 -60 -36 11 74 0
217 156 249 -106 -200 -201 -181 73 13 52 0
-244 141 252 173 200 -137 -51 0
-16 -31 -125 -147 -165 -225 130 0
40 72 -26 -216 -36 11 -80 194 -60 -149 -161 0
-94 20 -173 -185 -142 90 -233 169 12 0
249 13 217 156 -106 -189 137 73 -181 136 0
-185 186 20 -160 -142 12 -94 90 -173 0
-202 189 -138 -193 -52 211 10 -90 235 0
-122 -173 -94 -15 -189 205 -123 -185 12 0
20 -173 -185 12 235 -160 -189 -42 -94 0
189 -193 10 -160 14 -52 -122 -90 -138 0
20 -46 94 235 -89 -224 22 -107 0
-160 -138 157 211 10 -52 189 -90 169 0
-31 -225 -16 58 -125 -92 -39 0
199 94 -193 38 201 -136 252 244 141 -25 0
-88 -182 219 -214 -5 -76 -112 246 181 56 0
90 -185 205 -15 -233 -94 -173 235 12 0
141 -199 137 -181 14 156 249 13 -189 73 0
-225 -125 -44 -39 248 -16 -92 0
219 181 -182 -109 56 -5 69 -76 246 -39 0
90 20 -28 -173 -61 -94 -123 12 -185 0
-90 169 -160 189 -85 10 -138 -193 -52 0
-185 -28 12 50 -173 169 -189 -15 -94 0
130 -2 60 77 -231 -17 0
-106 -96 244 -136 -25 -193 173 201 199 -177 0
67 -76 -182 56 181 -18 219 246 -5 130 0
-36 -161 40 -149 -26 -148 11 -60 114 -216 91 0
-52 -37 170 189 -138 10 -90 -160 24 0
-42 -94 138 -122 20 -233 12 -173 -185 0
211 189 -90 -138 50 10 169 170 -52 0
-147 -125 -225 -165 -39 -16 -254 0
-185 235 -173 -94 -142 12 -189 -160 20 0
80 155 29 -168 229 -165 148 0
51 73 -106 13 90 -181 249 211 25 156 0
24 46 -236 -43 0
-171 -187 -256 -191 115 -63 -93 136 -234 0
212 10 81 -233 -52 24 -138 189 -90 0
-60 -149 -216 -161 -33 114 11 168 40 -36 -26 0
-202 10 -138 -52 189 -193 -90 -37 235 0
156 52 -199 -85 73 -181 -106 249 137 13 0
-17 143 -98 119 2 64 0
-58 -34 165 -88 141 44 -145 -204 0
94 -46 -224 22 -89 -15 -107 24 0
-62 -42 -94 20 -173 -122 -189 -185 12 0
-137 200 252 -51 136 -106 185 0
-181 13 138 51 136 141 156 249 73 211 0
-123 205 235 20 -185 12 90 -94 -173 0
-96 -136 -25 -106 244 173 170 38 201 199 0
-108 -170 193 -81 -132 140 -157 -103 -89 0
73 217 25 138 141 156 -181 13 137 249 0
205 -173 235 12 138 -185 -15 50 -94 0
13 -181 249 217 -189 -106 73 137 -244 156 0
173 -106 -25 -136 252 97 201 244 -193 199 0
73 -181 -200 156 249 -201 138 -106 13 211 0
39 -187 153 88 126 -130 -6 0
199 141 -136 -25 252 -177 94 201 -193 244 0
50 -112 57 225 -88 0
20 -94 12 138 -202 -185 -173 230 -61 0
-173 -94 20 -189 205 -185 12 -123 -122 0
73 138 -181 141 249 -244 -37 156 -200 13 0
-109 -58 210 -204 -106 -88 44 165 0
-93 115 -250 -191 -171 -187 -234 -63 -244 0
-138 186 189 212 -52 -90 81 50 10 0
12 -185 -142 50 20 -173 138 -94 -61 0
56 -18 130 -182 -5 246 -13 219 -112 -76 0
-225 130 83 -16 -254 -165 -125 0
121 -221 94 -215 -132 110 -22 150 0
174 52 -141 106 -82 152 0
39 -214 -92 88 -86 -130 54 0
-55 -208 17 172 46 251 146 0
-94 12 169 -185 -173 -15 -28 -62 -189 0
207 173 25 141 -51 -137 200 0
-52 -202 -193 -138 189 10 217 -90 186 0
81 185 252 71 201 244 -25 199 -136 -106 0
50 230 -15 -185 12 52 -173 235 -94 0
-136 71 199 -12 -106 -228 -25 -193 244 201 0
-202 189 -52 -90 -138 10 186 170 217 0
-149 -60 -36 11 194 -161 -80 40 -216 -124 -26 0
-44 -254 -92 -88 -16 -225 -125 0
-173 90 -202 20 -42 186 -94 -185 12 0
244 -106 -232 201 -136 199 -25 97 157 185 0
-18 -145 -182 246 -76 56 -73 -5 -39 219 0
244 -12 157 -96 -106 -136 38 199 201 -25 0
-193 -202 -138 189 10 24 -90 -85 -52 0
-12 -183 248 -226 0
-164 -132 125 58 -219 41 -195 0
249 73 90 -199 -106 13 156 217 -181 -200 0
73 51 -106 156 -199 -37 90 -181 249 13 0
-39 26 -251 -64 -231 77 0
170 -190 -228 201 244 -106 -136 185 -25 199 0
-68 69 54 39 88 -147 -130 0
-61 -233 -90 81 10 -52 189 -138 14 0
-96 -136 185 -25 170 201 -106 244 199 97 0
-137 -51 141 252 -201 200 -12 0
253 -157 242 -170 193 -81 -89 -132 -220 0
-138 211 170 -52 10 -90 189 -122 -62 0
-112 -160 -88 225 57 0
211 189 50 24 -52 10 -90 -193 -138 0
249 137 217 13 138 73 -181 -106 -199 156 0
-34 -88 -129 -106 -145 -58 165 44 0
13 136 211 249 138 156 -181 73 137 -106 0
211 -52 189 -193 -138 -90 10 -62 24 0
97 244 207 173 201 -106 -136 -25 199 157 0
-187 -214 -130 -6 39 3 88 0
-94 138 230 -160 -185 -173 -15 -61 12 0
71 201 81 94 -25 -136 244 199 141 -228 0
-202 -173 20 186 -142 -94 12 52 -185 0
-182 -5 -18 56 181 -39 -76 246 219 67 0
57 -112 225 -39 -160 0
-125 -6 58 -16 248 -88 -225 0
201 -177 141 -25 -136 244 199 -12 207 157 0
12 -42 -94 50 -189 235 -185 20 -173 0
-106 185 199 157 -177 244 -25 -136 201 -96 0
-94 186 -123 230 -173 12 20 -185 -189 0
1 215 89 128 253 99 -132 0
6 92 170 -160 147 -83 0
-113 -127 -244 -53 143 59 9 40 0
-12 199 201 -136 -106 38 244 207 170 -25 0
-106 244 94 38 170 201 199 -25 -136 -96 0
-15 205 235 -94 52 -173 -202 12 -185 0
74 40 -29 -26 -60 -149 -36 -216 11 -118 -161 0
-90 189 -138 10 -52 -202 81 -85 235 0
185 8 -183 248 0
-193 -85 189 -138 10 50 186 -90 -52 0
-95 -208 -55 107 17 251 167 0
71 -232 -12 -136 -193 -25 201 141 199 244 0
-202 12 -185 169 20 205 -94 138 -173 0
-181 -244 156 -189 73 13 14 141 137 249 0
-106 -96 -51 200 136 -137 173 0
-15 169 -185 -160 52 -94 12 -173 -42 0
-173 -185 -62 -61 -15 12 230 138 -94 0
10 -52 -90 -138 157 14 -123 189 24 0
-39 -64 -231 208 77 60 0
24 205 -185 20 -94 -189 -173 -123 12 0
156 249 -37 -200 -201 73 13 141 -189 -181 0
-94 -185 -15 12 138 -173 -123 -61 230 0
-152 -227 107 20 -82 0
51 13 -106 -181 90 14 156 73 136 249 0
156 249 90 73 -201 13 137 212 141 -181 0
11 -124 -26 35 -149 40 -36 -60 -33 -229 -216 0
138 20 -185 -142 -173 50 -94 12 24 0
1 -23 215 -132 133 -108 89 0
-96 94 -136 -25 -193 201 -106 -177 244 199 0
-15 -42 12 -94 -185 -123 138 169 -173 0
-116 -165 182 126 254 -248 31 0
136 73 249 -189 -106 13 212 -181 156 137 0
12 -185 230 138 -62 -94 186 20 -173 0
-116 126 -248 -246 254 -165 31 0
-58 44 -129 141 210 67 -88 165 0
165 -112 -58 -129 130 210 141 44 0
7 81 -235 -186 -89 122 -169 -24 61 0
-15 90 -185 -62 24 -94 205 12 -173 0
71 81 185 244 201 199 -25 207 141 -136 0
-89 -46 -224 -107 22 185 169 20 0
-142 -185 -123 20 -94 12 -173 90 -61 0
-173 -15 -185 -61 -202 12 -94 -189 -42 0
-6 58 -16 -57 130 -125 -31 0
116 173 -226 -183 0
12 169 -185 -15 -94 -62 205 -173 138 0
-18 48 -8 226 0
10 -138 -52 189 157 212 -90 -160 24 0
242 -81 -220 -113 -132 193 -215 -157 -170 0
-136 -25 199 71 -232 201 244 -12 -106 157 0
-82 -247 34 126 -210 0
10 212 -139 -243 128 -102 -101 206 -132 0
-138 212 50 10 189 81 -52 -61 -90 0
7 -152 -82 107 20 0
137 73 -181 141 156 211 249 52 -244 13 0
257 -132 89 49 242 215 48 0
-185 12 205 -173 -160 -122 -94 20 -189 0
199 -228 97 244 -106 201 94 81 -136 -25 0
-225 130 -16 -165 116 -125 -147 0
201 244 38 -25 -136 -106 199 -12 -96 -193 0
-90 -138 170 -52 217 189 -233 169 10 0
-122 12 -15 -94 -142 -189 50 -173 -185 0
235 -173 50 90 12 -42 20 -94 -185 0
235 107 -43 -236 0
-62 52 10 -20 15 0
114 -26 168 -60 -216 11 -149 -36 40 35 -118 0
-209 -158 17 251 46 146 -208 0
-147 130 -16 -44 -125 -31 -225 0
40 143 -100 217 -161 104 0
13 156 -181 249 90 -37 73 -244 137 -106 0
211 -193 235 -90 189 10 -52 -123 -138 0
219 67 56 -182 -76 -73 -5 -39 246 -214 0
-231 149 -64 208 77 -39 0
212 -52 189 -90 10 -138 -160 157 235 0
94 -106 -137 -96 -51 200 136 0
-85 189 -138 -52 10 -90 50 169 157 0
-12 -136 201 71 207 244 199 -106 -25 170 0
2 -251 64 119 172 143 0
-136 97 201 81 -25 207 173 -106 199 244 0
138 24 20 12 -94 -173 -233 -142 -185 0
-241 -88 -215 -146 131 -167 -219 0
-229 -60 -149 -161 91 -36 11 40 -26 114 -216 0
-123 -193 -37 10 -52 189 -138 235 -90 0
-25 -232 170 201 71 199 -106 -136 -12 244 0
-116 -165 -248 -18 31 254 -56 0
90 -185 230 -94 12 -160 20 -173 -61 0
94 82 230 -132 20 139 0
199 -25 252 141 157 -136 -12 -190 244 201 0
-202 -185 -173 -15 169 230 -94 138 12 0
-36 -60 40 91 11 -216 168 -124 -161 -26 -149 0
116 -226 -12 -183 0
-160 169 -52 -90 170 211 -138 189 10 0
169 -94 20 -185 -62 12 138 -142 -173 0
217 -138 -122 -52 -202 189 157 10 -90 0
20 -94 12 -160 -185 24 -173 90 -42 0
20 230 12 -94 235 -185 -173 50 52 0
124 -2 3 -114 78 -72 -74 0
-139 34 -18 178 -210 0
-235 61 -215 122 -193 -169 -24 -186 -196 0
-103 108 154 113 -253 -163 -48 242 0
244 185 141 207 170 -25 199 -136 201 38 0
-173 -142 -61 -62 138 -185 12 20 -94 0
238 2 64 172 208 119 0
46 241 -209 -208 251 17 -98 0
44 -112 -34 165 141 -39 -58 -204 0
17 -197 251 146 -208 -22 111 0
13 249 156 212 -181 137 73 138 -199 141 0
-17 -2 -231 36 -39 77 0
99 140 89 253 128 -132 215 0
-181 -199 211 73 137 249 13 -106 156 -189 0
45 16 -87 240 -198 162 231 -184 0
-106 -96 -137 200 -51 185 -244 0
-39 77 -2 208 60 -231 0
139 185 20 230 82 -132 0
-173 -94 -61 -233 -142 12 52 -15 -185 0
107 -215 150 121 110 -132 -221 94 0
-173 138 -94 20 -28 235 -185 12 -202 0
-5 56 -88 -112 -182 126 246 -76 -73 219 0
141 201 -96 185 38 244 -136 -25 -193 199 0
13 141 73 136 156 212 137 249 -181 52 0
-224 -15 22 24 -46 -89 -107 173 0
-106 -201 249 13 73 212 -181 90 156 137 0
20 138 235 12 -94 -173 -233 -185 -42 0
13 156 -181 -201 52 -200 73 141 -85 249 0
111 -208 251 107 -98 146 17 0
-54 174 -42 187 -139 0
56 -76 246 -182 219 -5 181 -88 69 -112 0
-182 -76 -5 -145 219 -214 246 181 130 56 0
81 244 94 199 -228 -136 -106 201 -177 -25 0
201 -106 -193 199 71 -12 -25 -136 -232 244 0
-173 -61 20 12 -123 -142 -189 -185 -94 0
-173 12 -94 -185 169 -42 -202 -15 52 0
83 130 116 -125 -16 -225 -44 0
10 212 -138 -123 -90 170 169 189 -52 0
130 225 57 -160 -109 0
71 -134 188 -126 -69 50 214 18 0
235 10 157 -90 -52 50 189 -138 14 0
-106 211 -181 -199 249 73 -200 156 52 13 0
-15 -152 -227 46 -139 0
13 73 51 138 141 -37 156 -181 136 249 0
137 13 156 141 25 212 73 -181 249 90 0
20 -173 205 -189 12 169 -94 -123 -185 0
-142 187 -139 -54 174 0
52 -94 12 -185 -173 -42 50 24 20 0
-185 -142 -173 -233 169 12 -15 52 -94 0
230 -173 -94 12 20 -185 -189 24 -160 0
-108 -18 226 -8 0
-139 128 -102 -243 10 -101 -132 211 206 0
-96 199 -25 244 141 -12 201 97 -136 157 0
90 -94 12 -173 -185 -160 235 -15 230 0
107 251 -208 17 -209 -158 -131 0
-96 200 173 -51 -244 -106 -137 0
-199 -137 -51 141 94 -232 200 0
-15 235 -160 12 -42 -185 -173 -189 -94 0
-173 52 205 -233 12 -15 169 -94 -185 0
10 -138 -61 211 -193 -90 -202 -52 189 0
-81 -103 -108 -215 193 -132 242 -157 -170 0
235 -90 50 -138 10 -52 157 189 212 0
-160 157 -90 -52 -61 10 189 -138 -85 0
-94 -15 90 -173 205 12 -185 -123 186 0
-132 217 -102 -163 -82 -243 -101 206 10 0
94 201 207 199 97 -136 141 -25 81 244 0
54 -130 -147 88 39 -214 -86 0
76 254 31 -116 69 -248 -165 0
-98 119 64 2 -17 155 0
185 -228 244 38 -136 -25 201 157 141 199 0
189 -90 -138 169 10 170 -123 -37 -52 0
-136 199 244 185 81 -25 201 -228 -106 38 0
-90 10 -61 -160 81 212 189 -138 -52 0
34 -82 -188 -222 -210 0
-72 153 -2 124 78 -114 -74 0
-106 170 -25 -96 244 199 173 -136 201 71 0
-219 31 -116 -248 254 -165 -188 0
26 77 -231 -119 -39 208 0
199 -193 185 207 141 -25 201 244 -190 -136 0
-26 11 -33 -60 -216 -161 -149 -29 -36 72 40 0
130 -254 -16 83 -225 -125 58 0
-130 39 88 54 -6 153 69 0
107 -152 -139 -196 -15 0
-138 189 -90 235 -123 -52 10 157 212 0
-96 81 201 94 199 -136 244 -25 -106 97 0
-125 -6 -16 -44 -57 248 -39 0
-187 -71 -150 -97 190 177 -38 0
-58 -34 -39 44 67 165 141 -204 0
217 -202 189 -138 10 -52 -61 -90 81 0
217 -122 10 189 -138 -52 -160 170 -90 0
50 -94 -185 230 138 169 20 12 -173 0
40 11 -60 -80 -26 -78 -149 -216 -161 -36 -33 0
40 -149 -80 -36 -26 11 35 -60 -78 -32 -216 0
-51 25 185 141 -137 200 -96 0
10 -193 -138 -160 189 -90 235 -52 14 0
50 -15 169 12 230 -94 -173 90 -185 0
-152 224 -82 30 20 0
-181 156 73 13 52 249 141 212 -201 51 0
-130 88 -187 -68 -214 39 -92 0
-37 189 10 -52 -138 -90 -160 81 -122 0
13 -199 138 -181 73 249 156 -37 51 141 0
109 145 -67 239 112 0
156 52 249 -200 13 -85 -181 73 141 -244 0
35 11 91 -216 -36 74 -60 -229 40 -26 -149 0
-215 -167 -146 -246 -39 -241 131 0
13 -181 -85 141 249 156 136 73 51 52 0
-34 -58 -129 130 165 141 -145 44 0
-215 81 -227 -235 -169 61 122 -24 -186 0
-65 -252 54 257 228 232 -207 96 0
138 156 -181 137 141 136 13 -37 249 73 0
-173 -62 205 12 -94 -189 -185 -61 -15 0
-37 -82 10 -243 -101 -102 -132 206 133 0
187 205 -54 174 -139 0
-138 14 -52 186 -90 10 -123 -193 189 0
-136 -190 199 244 157 -228 141 201 94 -25 0
24 -28 -160 20 12 -94 -173 -185 90 0
-185 -61 -94 12 20 -173 90 -123 205 0
140 -157 -132 -154 -89 159 -81 -170 193 0
138 -15 -173 12 169 -94 -160 205 -185 0
-190 -228 -25 81 -136 141 201 244 173 199 0
219 -5 56 130 -182 246 181 67 134 -76 0
12 -123 -15 230 -189 -94 -173 -185 169 0
-250 115 -171 -199 -93 -63 -191 -187 -234 0
-28 12 90 20 -94 -160 -122 -185 -173 0
-132 125 -195 -164 -165 41 -219 0
-22 -55 -95 251 17 -208 146 0
90 25 -181 156 -200 249 13 -37 141 73 0
-33 168 114 -216 -26 -60 11 35 40 -149 -36 0
211 141 249 156 73 -181 -189 13 137 25 0
-52 189 186 -160 170 -90 -138 211 10 0
110 -89 -221 224 121 150 -132 -12 0
38 81 141 173 201 244 -25 207 -136 199 0
-15 -185 -94 -189 -233 -173 -122 12 -28 0
-52 -90 10 -193 -61 14 189 -138 50 0
-25 201 141 173 -177 244 157 -136 -96 199 0
12 20 -173 -185 -160 -189 235 -94 -28 0
199 -25 -106 244 -136 -177 -232 94 -193 201 0
50 170 169 -90 -138 -52 217 189 10 0
-214 -210 -223 34 -82 0
252 173 244 -25 199 97 201 -136 81 141 0
-173 -189 12 -42 50 -185 24 -15 -94 0
-23 -132 -163 -154 1 89 215 0
-145 -123 225 -39 57 0
-107 169 -89 173 -224 -15 -46 22 0
2 64 119 155 172 208 0
-185 -15 -173 52 -123 12 -94 -142 235 0
141 -58 165 130 -109 210 44 -129 0
51 -189 -201 141 249 -181 156 73 13 217 0
-58 141 -129 -39 210 44 165 -145 0
-160 -185 -42 -94 138 -173 12 20 169 0
-182 -5 -76 -214 67 -249 56 246 -88 219 0
-88 -109 57 225 -202 0
-57 -165 -147 -125 248 -88 -16 0
51 -201 13 156 73 211 138 249 -181 -106 0
126 -210 34 -139 178 0
207 -136 244 199 81 -190 201 141 185 -25 0
-146 -167 -241 131 -56 -89 130 0
-216 -26 -60 11 -229 -36 213 35 -124 -149 40 0
52 12 -94 -185 -28 -15 -62 -173 235 0
-90 -85 -52 10 -123 189 170 235 -138 0
52 -28 -173 -185 -94 -123 235 12 -15 0
-202 170 189 -85 -52 -90 186 -138 10 0
-173 12 138 -185 20 -94 -233 235 -142 0
-52 -160 189 10 -138 -61 170 211 -90 0
224 -152 20 -139 -196 0
107 121 -215 110 150 -221 185 -132 0
74 -26 -149 40 -216 -229 35 -33 -36 11 -60 0
-106 -58 165 -34 -109 -88 44 -129 0
-193 -61 -90 10 189 -160 -138 -52 211 0
157 -136 141 244 94 199 -25 207 -177 201 0
156 73 13 51 -201 249 52 -37 -106 -181 0
20 139 -132 173 82 -42 0
-36 -148 40 -26 -60 -161 -216 -149 11 -78 91 0
-187 153 -147 39 -130 -18 88 0
20 -122 -173 -185 12 -94 -28 90 50 0
-25 170 201 185 -106 244 252 199 -177 -136 0
-208 -209 17 167 46 251 -158 0
-215 -241 130 -146 -167 182 131 0
153 -92 54 -130 39 126 88 0
-15 -142 -122 12 -185 -94 -123 -189 -173 0
199 244 38 207 141 -25 -136 201 185 81 0
138 156 249 51 -106 25 -181 217 13 73 0
219 -5 -182 -214 -76 246 181 56 -145 -88 0
156 -200 25 -106 90 249 -37 13 -181 73 0
20 52 24 12 -94 -28 -62 -185 -173 0
186 -15 -173 -142 -189 -123 -185 -94 12 0
-73 56 -76 -88 -182 219 -5 246 -18 -145 0
73 138 -181 -106 249 211 137 13 156 -201 0
-137 136 200 252 -106 94 -51 0
77 130 -231 -64 36 208 0
-51 141 25 207 -137 94 200 0
-215 -10 -196 0
-56 -44 -116 69 31 -248 254 0
-25 38 252 141 201 244 -136 81 -12 199 0
207 94 -137 -201 -51 141 200 0
-185 20 169 52 -94 -233 230 -173 12 0
-132 -215 -170 242 -157 -81 193 -113 -179 0
71 -25 173 81 199 -136 -228 244 -106 201 0
50 225 57 67 130 0
213 -149 -80 -161 -216 -124 -36 40 -26 -60 11 0
-139 255 -54 205 187 0
-31 -16 -88 -125 -147 -225 58 0
193 -157 -170 -81 -179 -132 140 -215 -154 0
24 50 189 -138 10 -52 -37 -90 170 0
-189 -160 -142 20 186 -94 12 -185 -173 0
-189 -200 73 249 -181 212 -244 156 13 141 0
-185 90 230 235 -233 20 -173 12 -94 0
-136 201 -177 81 207 244 -106 -25 199 94 0
-100 40 104 35 211 143 0
185 -107 -15 -215 22 24 -46 -224 0
-123 -52 189 -138 81 -90 10 186 -37 0
-37 51 -189 13 -181 156 249 -201 -106 73 0
-173 235 20 12 52 -94 -123 230 -185 0
156 -106 13 -244 73 -85 90 137 -181 249 0
-76 219 246 -182 -249 -112 130 -18 -5 56 0
-131 251 -208 17 172 46 111 0
134 -68 54 -130 39 -147 88 0
40 -216 -36 -26 -149 -29 -60 11 -32 -78 -161 0
12 -62 235 20 -173 -189 -185 -142 -94 0
-37 141 54 -3 68 -153 86 0
254 76 -44 31 -18 -116 -248 0
169 -138 189 -85 -90 -202 10 157 -52 0
107 -95 17 -55 251 -131 -208 0
228 -252 -187 96 -163 -65 232 -207 0
-155 -238 -143 176 0
207 -244 94 141 200 -51 -137 0
17 -55 251 -208 167 172 224 0
-37 -233 -138 189 10 -193 -90 -61 -52 0
-118 114 -60 40 35 -36 -26 -80 -216 -149 11 0
130 -225 -6 -125 58 -16 248 0
-215 -241 -146 -39 5 -167 131 0
141 -12 199 -228 157 201 38 244 -25 -136 0
-106 13 156 249 -201 217 -200 -189 -181 73 0
157 -90 -61 -138 10 -62 -52 189 -85 0
90 -42 -185 186 20 -173 12 -94 -160 0
211 13 -189 141 156 73 -181 51 249 25 0
-106 44 -204 -58 165 210 -88 -145 0
-5 -39 -182 56 -112 134 -249 219 246 -76 0
25 -53 9 -127 59 -108 155 40 0
-173 -15 -62 138 24 -94 230 -185 12 0
249 73 51 156 13 -85 136 141 90 -181 0
116 -147 -225 -88 -165 -125 -16 0
249 25 13 156 -85 -200 -181 90 -106 73 0
12 -123 20 -185 -94 -189 -173 186 -28 0
54 141 -153 -85 -3 68 86 0
-109 -88 219 -249 56 -182 -76 246 126 -5 0
169 205 90 -94 -185 -173 -160 12 20 0
-90 -85 10 -138 -62 189 186 -52 170 0
52 -181 141 51 -201 156 249 14 13 73 0
-193 -12 -25 -232 141 199 244 -136 38 201 0
199 -106 -25 170 -96 94 -177 201 -136 244 0
36 -119 -88 -231 77 208 0
-154 226 -8 69 0
74 -149 -36 194 35 40 -216 11 -60 -26 -229 0
81 10 189 -160 -138 169 -52 -90 -37 0
-37 -52 -123 10 -90 189 -138 235 170 0
90 14 249 -106 -199 156 13 73 -181 137 0
-180 70 102 0
12 -202 20 -173 -94 -142 138 -185 24 0
199 -136 -106 244 201 38 170 -232 173 -25 0
122 157 7 -24 61 -169 -215 -186 -235 0
-12 199 -136 201 -25 81 -228 97 244 -106 0
-251 2 -158 119 64 155 0
-152 -82 7 224 20 0
134 -88 246 -5 219 -76 -182 67 56 -73 0
-65 -141 106 52 -82 152 0
94 -193 -106 199 244 71 -96 201 -136 -25 0
56 -88 -182 -156 -109 246 219 -188 -76 -5 0
252 -51 200 185 -201 -106 -137 0
201 252 170 141 -12 -25 38 244 -136 199 0
138 51 156 211 249 73 136 -106 -181 13 0
40 -108 9 -127 238 25 -53 59 0
244 173 -106 199 -177 -25 -193 -136 201 252 0
156 13 -200 212 25 73 52 -106 -181 249 0
50 -185 -173 -42 -122 12 90 -15 -94 0
-251 119 238 -95 64 2 0
224 24 -43 -236 0
-32 -26 74 -36 40 -216 -148 -60 35 -149 11 0
-44 -88 -6 -225 248 -125 -16 0
-85 73 136 249 52 137 13 -181 156 141 0
-68 88 -187 -130 39 -6 69 0
-33 -26 -216 -124 11 40 -80 -60 -36 -149 -161 0
-123 -94 235 20 -173 12 -189 -185 230 0
170 -106 -177 -228 -12 -25 199 -136 201 244 0
242 128 48 -132 89 -23 215 0
-76 -5 -182 -109 219 246 69 56 -156 -39 0
-64 208 77 -39 -231 216 0
170 94 252 199 -136 -25 244 201 -106 -177 0
99 -132 257 89 215 -113 242 0
-173 52 -142 12 -122 -15 -94 -185 -233 0
235 185 20 -215 -107 -224 22 -46 0
-94 52 -173 -15 -202 -185 169 230 12 0
-209 -95 17 -22 241 -208 251 0
-57 -92 -44 -39 -125 -254 -16 0
13 156 211 51 -181 -106 73 52 -201 249 0
-136 -190 81 199 -96 244 201 173 141 -25 0
-106 185 -201 -137 -51 207 200 0
-173 -15 -160 12 205 -94 52 -185 -122 0
241 -208 251 -209 -158 -22 17 0
130 -16 116 -44 -57 -125 83 0
-52 -202 -90 186 10 -138 14 189 81 0
-39 -188 -76 -182 219 246 181 -112 -5 56 0
-132 89 257 242 -23 215 -113 0
106 -141 -139 -189 152 174 0
128 -108 242 -132 215 49 89 0
89 -23 257 253 -132 215 140 0
-106 -232 201 -136 94 244 170 199 -177 -25 0
-60 -161 -216 -36 -26 -32 -229 40 -149 72 11 0
-15 173 139 -42 -132 82 0
252 201 244 -25 141 -12 38 199 157 -136 0
186 12 -185 -94 138 -15 -233 -173 -142 0
107 -152 -82 -15 -227 0
2 -98 -17 64 119 238 0
-137 200 -106 -232 -199 -51 185 0
-44 130 -57 -92 -125 -16 116 0
-23 140 128 -132 -108 215 89 0
-61 -185 12 -173 90 20 -202 205 -94 0
-90 217 -193 -138 -123 -52 189 10 24 0
-107 22 20 185 -224 -46 169 -215 0
-25 170 199 -136 -96 244 -106 201 38 -12 0
141 13 51 249 217 52 156 73 -201 -181 0
-131 224 251 17 -95 -208 -209 0
82 -15 139 -132 94 230 0
136 -189 13 249 217 -181 -106 73 156 51 0
-106 -201 73 217 13 156 138 51 249 -181 0
244 -106 -136 -177 170 -12 -232 199 201 -25 0
-47 -82 20 46 -152 0
201 -106 -232 157 244 -136 -25 199 -177 94 0
17 224 -131 -158 111 -208 251 0
170 141 244 -136 199 -25 -96 201 38 185 0
-139 69 34 -223 -210 0
181 -109 -188 -76 246 -182 219 -88 56 -5 0
199 97 141 -136 173 201 157 244 -25 252 0
11 -216 -26 -148 -118 35 40 114 -149 -36 -60 0
-125 130 -16 -6 -165 -225 248 0
-122 10 14 -52 -123 81 -138 -90 189 0
-51 207 141 200 -244 -137 -12 0
193 -215 -220 -157 140 -154 -170 -81 -132 0
-169 170 -24 122 -227 -235 -89 -186 61 0
20 -233 12 -185 -173 52 -142 186 -94 0
-106 13 136 14 51 249 156 73 -189 -181 0
235 10 -138 189 -202 217 -52 170 -90 0
-48 108 257 242 113 -220 154 -253 0
-20 10 -62 15 -189 0
-22 17 -55 251 241 -208 -197 0
-94 -185 20 12 205 235 50 -173 90 0
252 71 -12 141 199 244 170 -136 201 -25 0
-23 89 -108 215 242 128 -132 0
-94 138 186 -173 -62 12 -185 20 -142 0
-25 141 201 -96 81 38 244 -136 199 185 0
186 -94 -42 12 20 -173 -233 -189 -185 0
246 219 126 -76 56 -249 -88 -182 -5 -145 0
-61 -28 -202 -94 -173 12 90 -185 -15 0
-138 -52 -61 157 189 -37 -90 10 -123 0
200 -51 -244 141 173 207 -137 0
-25 -136 -96 94 201 -177 244 141 199 -193 0
-28 -160 -173 12 24 138 20 -185 -94 0
249 13 156 -201 -106 217 51 -189 -181 73 0
-182 130 219 -156 -5 -109 -76 -18 246 56 0
1 215 133 89 -108 -132 99 0
1 -81 -89 193 -113 -170 159 -132 -157 0
-142 12 235 -202 20 -189 -185 -173 -94 0
138 -181 -106 51 73 156 249 -85 25 13 0
235 -160 -15 12 -185 205 -94 -173 138 0
-173 -94 230 12 -185 186 20 90 -233 0
246 219 -76 -145 126 -182 -13 56 -5 -39 0
165 -129 44 130 -112 141 -58 -34 0
-148 -216 -26 35 -149 -60 -36 74 -33 11 40 0
189 -90 -52 24 -138 10 -160 212 170 0
252 199 170 97 -106 244 -136 201 -12 -25 0
-42 -185 -173 12 -122 50 52 -94 20 0
-106 90 13 249 -181 14 -200 156 136 73 0
199 244 -193 -25 94 -228 -136 201 -190 141 0
-58 141 -112 -204 -88 -34 165 44 0
207 136 -137 -51 200 141 94 0
-86 -92 -130 39 54 126 88 0
-142 -202 52 20 -173 169 12 -185 -94 0
219 126 -5 246 -182 -76 -112 56 -88 181 0
67 -188 219 -76 56 -182 -39 -5 -73 246 0
69 254 -116 31 58 -248 -219 0
50 20 -28 -185 138 12 -94 -173 186 0
-88 -231 77 -251 -64 60 0
140 -23 48 89 -132 215 128 0
-25 -193 141 185 244 -228 201 71 199 -136 0
254 -248 69 -246 31 -116 -165 0
141 25 73 52 -85 156 13 51 249 -181 0
-16 -225 -92 58 248 -125 130 0
-52 -138 169 10 14 189 -90 81 -233 0
154 108 -48 140 -253 -103 113 128 0
-15 -123 -122 12 -94 -185 -173 230 52 0
224 -208 251 -158 241 17 -55 0
248 -125 -225 -16 -88 -44 83 0
-92 -16 -39 -225 -125 -165 116 0
249 -189 73 156 -181 -37 13 -244 137 -106 0
-62 235 -138 189 157 -52 14 10 -90 0
-173 -94 12 -160 -142 138 -185 -15 235 0
-60 -149 -216 -124 -36 11 40 -26 -229 -161 -118 0
-200 156 73 249 -181 13 138 141 -201 -37 0
-94 169 52 12 230 -185 20 50 -173 0
10 -90 -138 189 157 217 -52 24 -160 0
-39 77 -11 -251 -231 -64 0
-42 90 -173 12 20 -94 -185 50 24 0
244 173 170 199 -25 -106 252 201 71 -136 0
189 186 -52 -90 10 -233 170 -138 212 0
69 -76 246 -182 -109 219 -5 -88 56 -156 0
-136 81 -25 244 -106 185 201 38 207 199 0
143 40 212 -161 104 -100 0
-94 -173 20 -185 24 -123 12 52 230 0
50 10 -90 189 -138 81 217 169 -52 0
248 -88 83 58 -225 -16 -125 0
-15 -132 -12 139 -28 82 0
-76 -39 -112 56 -182 219 246 181 126 -5 0
189 10 81 -52 235 50 217 -90 -138 0
153 126 -130 -6 54 39 88 0
143 64 2 119 -158 208 0
-182 56 -188 246 -249 -109 -76 -39 -5 219 0
-228 157 -106 -25 97 185 199 201 -136 244 0
-94 24 205 52 12 -185 -233 -173 -15 0
50 14 -52 157 -90 -138 189 -122 10 0
230 -15 -173 -185 12 -94 138 -123 186 0
-228 -25 244 199 201 141 185 -136 97 81 0
157 252 -25 -106 199 244 -136 173 201 38 0
244 201 -232 -193 141 185 -25 -177 -136 199 0
-52 -123 -138 186 -90 189 10 212 81 0
-248 182 254 -188 31 58 -116 0
-108 -81 -170 -157 193 -89 -220 -132 1 0
212 -138 189 -90 -202 -52 10 157 235 0
-116 -44 -18 31 -248 -56 254 0
-106 252 200 -137 25 -12 -51 0
-17 -64 77 -231 -88 60 0
91 72 11 40 -216 -60 -29 -149 -36 35 -26 0
128 242 113 108 154 -48 -253 -179 0
-92 -16 130 -125 58 -57 -254 0
-136 38 199 94 -25 170 -106 244 201 -232 0
251 -208 -209 146 17 -98 -22 0
-141 138 106 -82 255 152 0
31 -165 182 -248 254 -116 69 0
-109 -5 -39 -188 -13 -76 219 56 -182 246 0
-136 141 207 -193 201 244 -25 -12 -190 199 0
-51 -137 -96 200 -244 141 185 0
-22 -196 -152 -82 20 0
-145 -182 -13 -88 -5 -76 56 219 246 126 0
-16 -92 116 -44 130 -225 -125 0
10 -202 -52 -90 -193 212 -122 -138 189 0
10 -37 -138 -160 157 169 -52 189 -90 0
20 12 -173 205 -185 138 235 -94 -202 0
-136 199 71 244 201 -25 141 252 -193 94 0
-136 201 170 -25 -177 -106 207 173 199 244 0
-189 156 -200 249 -37 -106 -201 13 73 -181 0
53 161 -35 168 0
130 246 -5 -76 -109 56 -13 -18 -182 219 0
-228 -136 170 -25 141 199 201 185 244 97 0
-90 -52 -138 235 -233 -193 189 10 -85 0
73 -181 136 137 212 156 249 13 -189 141 0
-132 253 1 215 89 49 -163 0
-25 173 199 201 244 157 207 -136 -106 71 0
168 194 -124 -149 -60 11 -26 40 -36 -216 35 0
10 189 -90 -37 157 -138 -52 -233 186 0
-81 -179 193 -132 -215 -154 -170 1 -157 0
-173 -61 -94 -15 52 -185 12 -62 230 0
201 244 38 -12 -136 141 157 -25 -232 199 0
130 -31 -147 -57 -125 -16 58 0
165 44 -106 -129 -145 -34 -58 -39 0
169 189 10 211 -138 -90 50 81 -52 0
-106 212 51 -189 156 -181 249 13 73 -244 0
3 39 -92 -130 54 -214 88 0
-149 -36 40 -80 -124 -216 11 35 -26 91 -60 0
-231 -119 130 36 208 77 0
-102 -101 -163 14 -132 -82 -243 206 10 0
-215 -170 -157 -81 48 -179 193 1 -132 0
-94 -42 186 -185 -173 -62 20 -189 12 0
-82 -152 7 -15 -22 0
46 -236 -43 -122 0
186 -37 -202 189 -52 -90 -138 10 170 0
246 -76 -182 56 -188 -73 219 -5 -145 -88 0
-90 -193 -61 -160 -138 10 -52 189 -85 0
-210 -139 34 -203 69 0
-148 91 11 40 -60 -26 -124 35 -216 -149 -36 0
213 -149 -36 -161 -78 40 168 -26 11 -216 -60 0
-94 -122 12 -173 20 90 205 -185 -233 0
244 173 199 -25 -232 -136 -106 201 97 170 0
73 -201 13 249 -106 -85 -189 156 -181 137 0
-193 -233 -138 10 -85 189 -90 -52 186 0
140 133 -113 215 -23 -132 89 0
-106 -12 244 199 -136 201 157 -190 207 -25 0
40 -26 -229 74 -60 11 -36 -149 -216 -33 -161 0
10 189 157 -233 -52 -138 -122 -90 14 0
186 157 -90 -85 -138 -160 -52 189 10 0
12 50 -15 -173 -185 -61 230 -94 52 0
186 205 12 138 50 20 -173 -94 -185 0
-216 -26 40 11 -229 35 194 -124 -149 -36 -60 0
-61 52 20 12 -142 -94 -185 -233 -173 0
-149 114 35 -80 -33 -36 11 -26 -60 -216 40 0
35 -78 -36 -33 -216 -60 11 -149 168 40 -26 0
249 156 141 -181 137 -244 73 138 -37 13 0
-76 219 -5 -249 -182 134 56 67 130 246 0
-215 193 1 -170 -132 -81 159 -113 -157 0
185 -215 235 -107 22 -15 -224 -46 0
-95 17 111 251 -131 -208 224 0
-15 -94 -185 -173 -123 -122 -28 12 -189 0
-106 51 13 73 -181 90 156 211 -201 249 0
210 44 67 -204 -88 -58 165 -106 0
-172 98 95 136 43 158 183 8 197 0
-246 -188 31 -248 -44 -116 254 0
199 -228 141 97 244 -25 -136 81 173 201 0
73 -181 156 -85 249 136 138 13 141 -200 0
22 235 -224 -89 -107 -15 185 -46 0
-89 -46 20 -224 185 22 -107 -61 0
7 -89 -10 0
71 -25 -96 -136 201 199 170 94 244 141 0
-76 -182 56 134 246 130 -112 -5 -156 219 0
-173 -15 230 -185 52 -122 -94 12 -62 0
-26 11 40 -36 -124 -60 -149 35 -29 -216 194 0
-123 -90 189 -138 170 -85 -52 -122 10 0
-122 -90 189 -233 -138 81 10 -52 211 0
-145 -5 -13 219 246 -182 56 69 -76 -88 0
-173 -185 -94 12 138 -42 -160 235 20 0
199 201 -136 38 157 -96 -25 244 141 185 0
-138 -52 189 10 -90 -85 157 -61 -123 0
56 246 -182 -214 130 -145 -249 -76 -5 219 0
31 5 254 -116 -248 -165 134 0
235 -46 -224 22 94 -107 20 -215 0
-221 110 -22 -89 173 -132 121 150 0
-39 131 -167 76 -146 -215 -241 0
-193 -52 -202 -138 -90 -61 189 14 10 0
44 -145 -106 165 -34 -129 -58 130 0
-123 -122 -173 52 -94 20 -185 12 -142 0
-67 -144 145 112 109 0
-32 72 -29 -149 -26 11 -161 40 -216 -60 -36 0
-173 -189 -142 -62 -61 -185 20 -94 12 0
-252 133 232 96 -65 228 -207 54 0
-138 14 186 170 10 -62 -52 189 -90 0
186 -15 -89 -46 22 185 -224 -107 0
-42 50 -61 12 138 -94 20 -185 -173 0
-137 25 -12 -228 200 141 -51 0
136 249 -189 73 -181 13 141 51 156 14 0
-60 -26 168 -161 -149 -36 11 72 40 194 -216 0
141 137 52 -85 73 -181 13 156 25 249 0
89 215 -108 -132 49 257 140 0
186 -123 -173 -189 230 -94 -185 -15 12 0
-193 201 -25 -232 -136 244 141 199 97 94 0
-200 141 156 73 -189 13 212 249 -181 136 0
10 -138 -52 157 189 169 -90 -202 -37 0
-62 -94 186 -173 138 -185 230 -15 12 0
-90 -138 189 -52 235 -62 -85 10 81 0
-132 242 -170 -113 -81 193 -89 -179 -157 0
156 -244 14 -181 13 137 249 -106 73 -189 0
12 -185 52 50 -173 20 205 -94 -122 0
-170 -89 -179 193 -132 48 1 -81 -157 0
235 -123 14 -138 -193 189 -90 -52 10 0
134 -76 -145 -182 219 246 -5 -13 -88 56 0
-173 20 -185 169 52 12 -94 -28 -123 0
12 -173 -62 186 20 -42 -94 -185 52 0
10 -61 189 -90 -138 81 -85 -233 -52 0
-16 -39 -125 83 -225 -44 248 0
-51 252 94 200 -106 -244 -137 0
20 -28 -185 -173 -94 50 -61 -189 12 0
-106 -181 90 156 13 249 211 73 -244 51 0
83 54 3 88 39 -18 -130 0
24 -185 12 -189 -233 205 -173 -15 -94 0
86 68 54 -3 -153 -37 -106 0
-173 -94 186 50 -189 -15 12 -185 -42 0
-232 -136 -25 199 38 -106 -193 -12 244 201 0
199 207 -190 170 141 -136 94 201 244 -25 0
181 130 69 -5 -112 219 56 -182 246 -76 0
-116 254 31 -246 -165 -248 134 0
-232 -136 141 81 94 201 97 244 -25 199 0
149 -231 -119 -39 -17 77 0
137 249 -106 -37 90 13 73 -181 156 -201 0
249 138 -201 13 -200 -37 -106 -181 156 73 0
193 -170 -89 -132 48 -81 140 159 -157 0
255 228 232 -252 96 133 -187 -207 0
-90 170 189 186 -160 10 -52 -138 -85 0
-15 224 -196 -152 -82 0
20 -189 235 -185 -94 50 -28 12 -173 0
94 -226 116 -183 0
207 200 25 -12 141 -51 -137 0
189 -138 -62 -61 10 -52 -90 -85 81 0
254 31 -116 -44 126 -248 -56 0
20 -123 230 -173 90 -122 12 -185 -94 0
12 -94 -185 20 186 205 -189 -173 50 0
169 -62 -185 -94 -42 12 20 90 -173 0
156 249 90 73 137 211 136 141 13 -181 0
20 52 -173 12 -185 50 -94 186 -28 0
210 165 44 -129 -58 130 -106 -145 0
-52 -138 189 170 -90 24 -233 217 10 0
39 -187 -18 3 -130 -147 88 0
-25 38 141 185 201 157 199 207 244 -136 0
-231 77 -251 130 -64 149 0
-201 14 141 73 13 249 -200 156 -181 -189 0
156 73 -181 137 25 -189 13 -37 141 249 0
-151 -106 133 -75 192 -70 0
20 -202 169 -185 -173 138 230 12 -94 0
138 12 -28 -173 20 -233 -94 -185 169 0
-233 212 -52 81 189 -61 -138 -90 10 0
52 -173 -202 12 -15 -185 -94 -42 24 0
12 -173 169 -185 -28 20 -233 52 -94 0
189 -52 -138 14 -160 -90 -122 157 10 0
69 3 39 88 -130 -187 83 0
235 -94 -142 12 -185 -173 20 52 -123 0
-173 -62 90 235 230 12 -15 -94 -185 0
98 158 -226 -172 95 25 183 236 197 0
-181 -106 156 138 13 -244 -200 217 73 249 0
-138 235 212 -90 -62 10 157 -52 189 0
183 -172 197 95 -201 -226 43 158 98 0
41 -44 -195 -219 -132 -164 125 0
-164 125 -195 41 -44 -132 76 0
-193 -136 -106 201 94 71 -25 199 244 -228 0
50 189 10 -122 -52 -90 -37 -138 -193 0
173 81 199 201 -136 -25 -106 244 252 38 0
-188 -5 -73 -76 -182 219 246 -109 56 -39 0
-34 -58 44 141 -204 130 165 67 0
-98 111 -208 224 17 167 251 0
-229 11 -124 -60 -161 -36 40 194 -26 -216 -149 0
-185 -202 12 20 52 -61 205 -173 -94 0
-188 -39 -5 56 246 -112 -182 -73 -76 219 0
249 13 73 156 -181 -199 -85 -200 138 -106 0
-53 40 155 9 59 136 -127 253 0
-138 -62 10 170 -90 189 -52 -37 -122 0
46 -158 17 251 -208 146 -55 0
254 -165 -248 -116 -188 31 -56 0
-228 244 -136 -177 199 141 94 157 -25 201 0
-142 -185 24 12 -94 -173 -15 -62 90 0
-62 81 -90 186 -138 217 -52 189 10 0
-98 -251 64 119 2 238 0
-183 8 94 -31 0
235 -224 -89 -107 20 -46 22 185 0
-181 14 25 51 73 13 -106 138 156 249 0
97 201 141 173 199 244 170 207 -25 -136 0
-248 -56 254 -44 31 -116 -188 0
-88 -31 58 -225 -6 -16 -125 0
-250 183 120 155 -103 166 -175 -162 -237 0
172 -208 107 167 111 17 251 0
-61 -173 -15 -123 12 -28 -185 -94 -189 0
-216 11 40 -33 -36 -26 -149 35 72 -60 -229 0
-248 58 -246 254 69 -116 31 0
10 -90 -52 186 189 -138 81 50 -85 0
40 -60 -29 -216 -26 35 74 -36 11 194 -149 0
-15 -173 12 24 -185 -62 -94 230 52 0
52 50 -185 -42 12 -15 -173 -94 24 0
77 -231 -88 -64 208 36 0
-92 -225 -44 130 -16 -125 248 0
-202 81 189 212 -138 -52 186 -90 10 0
-108 226 -8 -188 0
-64 208 130 -231 77 26 0
24 -173 -62 -185 52 12 20 -94 -42 0
94 199 38 -228 -106 201 -25 81 244 -136 0
-94 -122 138 12 -123 20 -173 -185 -28 0
-82 -152 20 107 -47 0
-194 33 -65 118 -91 32 -213 -82 10 0
5 254 -188 31 -116 -248 58 0
-39 141 165 -58 -129 44 210 -112 0
35 -216 40 -36 -60 -149 -26 -32 72 11 -29 0
67 -182 -39 -76 126 -5 219 56 -156 246 0
-41 51 0
-173 24 -185 -94 20 -189 -28 -123 12 0
-256 143 183 120 -162 -175 -179 166 -237 0
14 73 249 -200 136 138 156 141 13 -181 0
69 39 88 153 -130 -187 83 0
246 -182 181 -39 -5 -145 -76 -18 219 56 0
-123 12 -15 138 -94 -142 -185 -173 235 0
244 199 -136 -25 201 -12 141 252 -193 -177 0
69 56 -182 -88 -73 -5 67 219 -76 246 0
-61 20 -94 12 -185 230 -202 -173 90 0
189 186 -138 212 10 -90 170 -52 -62 0
169 230 20 -160 -173 12 -185 -94 52 0
172 2 -17 143 64 119 0
244 201 157 -190 199 141 -25 252 173 -136 0
217 141 13 -181 156 73 -200 249 -189 25 0
81 -136 201 141 -25 94 -190 -232 199 244 0
181 56 130 219 -188 246 -182 -112 -5 -76 0
130 -76 219 246 67 -249 -182 126 -5 56 0
189 -90 81 10 -52 -138 211 235 -202 0
-193 -106 244 -190 -136 -25 199 252 201 -12 0
71 -25 199 185 201 244 -193 -106 -136 252 0
-216 -60 -36 91 168 -78 -149 11 -26 35 40 0
52 205 -185 -173 -62 12 -15 -122 -94 0
-185 -94 186 -15 52 -173 12 205 -123 0
-138 -52 235 189 -90 10 157 -85 -123 0
10 189 -138 -52 -62 14 -193 -90 186 0
48 -8 134 226 0
52 27 -141 -82 152 106 0
130 225 57 -145 -202 0
-185 138 12 -173 230 -123 169 -94 -15 0
-106 201 38 207 199 173 -136 -25 244 157 0
17 251 -95 146 107 111 -208 0
51 13 -181 73 -85 -244 90 249 156 141 0
20 -185 90 205 -173 12 -122 -62 -94 0
189 -138 -233 157 -52 14 10 186 -90 0
-85 136 141 249 156 51 -189 -181 13 73 0
-210 134 34 117 -139 0
38 199 -136 244 -25 201 94 252 157 -106 0
90 -106 -85 -201 13 156 73 -181 249 51 0
242 253 -23 128 -132 215 89 0
88 -92 126 54 3 39 -130 0
69 88 83 3 39 -130 54 0
-173 -189 -28 235 12 -15 -233 -185 -94 0
189 -52 211 -90 -202 -138 169 -193 10 0
-95 251 46 -131 111 -208 17 0
-187 -92 134 -130 88 39 -86 0
24 157 -202 -52 189 -138 10 -90 -85 0
126 3 -187 39 -130 -92 88 0
51 73 -244 249 211 -181 13 -189 -106 156 0
39 -188 -130 88 -147 -187 -68 0
208 -158 2 155 119 64 0
-208 17 241 -55 251 46 -158 0
-109 44 130 -58 165 210 -106 -204 0
10 189 -90 -61 -138 -52 -233 -193 212 0
-189 -233 20 -173 205 12 -61 -185 -94 0
169 -94 -173 -160 -185 12 -15 90 -28 0
-154 -157 -132 -89 -170 -81 1 -179 193 0
156 141 -201 249 -181 211 51 13 52 73 0
-231 26 77 -17 -88 -2 0
-76 134 -145 -249 -182 246 219 56 -88 -5 0
-18 219 246 -76 -156 -109 -88 56 -182 -5 0
2 208 -95 64 119 143 0
249 52 141 -181 156 25 73 211 13 51 0
15 -20 10 138 -160 0
-52 -61 -160 -90 170 10 189 217 -138 0
13 -181 137 249 52 73 -244 156 -106 14 0
-221 224 -132 185 121 150 -89 110 0
90 -185 24 230 -15 -94 -173 -123 12 0
141 212 -153 68 -187 86 -3 0
-181 13 141 52 249 217 -201 73 137 156 0
-12 141 200 -96 -137 -51 -201 0
-51 -106 -137 207 -199 94 200 0
-250 166 155 -162 159 183 120 -175 -237 0
224 7 -139 -152 20 0
211 25 -181 156 249 137 13 90 -106 73 0
36 77 -17 -231 -64 -39 0
-202 189 -138 10 -52 -90 24 -193 -37 0
235 -173 230 -160 -94 -185 -189 -15 12 0
-193 169 -138 -90 10 -85 -52 -62 189 0
169 -43 46 -236 0
91 -216 74 40 -149 -60 -26 -29 -161 11 -36 0
-52 157 235 217 -90 189 -138 -123 10 0
-123 157 -90 189 14 -138 -52 235 10 0
-173 -185 186 205 -94 -189 -160 20 12 0
186 -62 -185 20 -94 52 12 230 -173 0
-23 133 140 89 -154 -132 215 0
50 90 12 20 186 -173 -94 205 -185 0
-165 -88 -147 -16 -31 -225 -125 0
208 -2 -39 -231 77 -11 0
200 94 -232 -137 -51 25 141 0
-90 170 189 -37 -138 -123 -61 10 -52 0
12 138 -15 -94 -173 -42 -185 186 -233 0
249 90 73 -200 -106 156 13 25 -181 212 0
-233 230 12 20 -173 -94 -189 235 -185 0
185 38 252 141 -25 244 -193 -136 201 199 0
200 141 -244 -228 173 -137 -51 0
156 137 136 14 249 13 -181 -106 73 52 0
-249 56 -182 69 -5 130 -76 219 246 -109 0
-127 9 59 40 -53 -154 238 -201 0
242 215 -132 49 89 128 -113 0
251 17 -208 -197 107 167 111 0
169 -138 -193 -90 10 217 189 -52 -202 0
119 -17 143 2 -197 64 0
-227 61 -215 122 -24 170 -169 -235 -186 0
-61 12 -160 20 138 -173 -42 -185 -94 0
174 187 -139 -54 230 0
-200 -181 13 249 -189 156 -199 141 14 73 0
217 -90 -193 -52 189 -160 10 186 -138 0
-62 -52 -90 170 10 189 -122 14 -138 0
-39 -34 -109 165 -58 44 -129 -106 0
-15 -233 -185 90 -42 -173 24 12 -94 0
207 199 -25 141 201 38 -136 -193 244 -12 0
141 244 -136 -12 157 199 -25 252 -177 201 0
-52 -61 -90 189 -160 157 -138 10 -37 0
74 -36 -149 -80 11 40 -32 35 -26 -216 -60 0
201 199 -177 185 244 -136 -25 -193 141 -228 0
-83 -62 81 92 6 147 0
88 -92 -130 -187 -18 39 3 0
-214 -82 -203 34 -210 0
-88 -31 -125 83 58 -225 -16 0
-12 -183 8 116 0
-62 10 -52 157 189 212 -90 -138 -122 0
77 -17 -64 -88 36 -231 0
-55 17 224 -98 251 -208 146 0
-209 -131 46 172 251 -208 17 0
-37 73 141 13 136 -181 52 137 249 156 0
-15 -185 52 -202 -173 12 -94 235 -28 0
-90 -52 212 189 -193 10 -62 235 -138 0
104 35 40 155 -100 211 0
-100 40 212 104 238 35 0
-154 -132 89 133 215 1 99 0
-173 -28 -94 12 -15 -185 235 -62 90 0
12 235 -28 -185 -94 90 -202 -173 20 0
-88 -129 165 -106 67 210 44 -58 0
-56 131 -215 -241 -39 -167 -146 0
-22 -209 -131 -158 251 -208 17 0
249 90 141 14 -181 73 137 13 136 156 0
-241 -39 -167 -146 131 182 -215 0
189 -90 -138 -62 211 170 -52 10 -61 0
-173 24 20 -185 -233 -94 -42 -189 12 0
-31 -165 83 -16 -57 -88 -125 0
-202 -94 12 205 -185 90 20 24 -173 0
-51 252 173 -137 -106 200 -199 0
-244 141 -137 -228 -12 200 -51 0
-118 35 -149 -124 40 -36 11 -29 -216 -26 -60 0
-136 141 170 244 252 185 201 -177 199 -25 0
26 77 -231 130 -64 -17 0
-58 -109 -129 44 -106 130 -34 165 0
12 -185 -15 -61 -173 205 -94 -233 -189 0
-88 -254 -57 -92 -16 -165 -125 0
249 141 137 -201 73 -181 212 156 13 -189 0
-58 130 44 -112 210 -106 -204 165 0
-152 -15 -22 -139 -196 0
116 -39 -57 -6 -165 -16 -125 0
222 -117 203 247 223 -178 0
-201 73 13 90 -200 212 249 -181 -106 156 0
20 -46 -224 22 94 -89 -61 -107 0
-188 -8 -154 226 0
-126 18 188 -233 214 97 -134 -69 0
88 54 153 -18 39 -147 -130 0
-29 -35 -59 161 0
199 -136 244 94 141 201 38 -96 -193 -25 0
131 -89 130 -241 -146 -167 -246 0
-210 34 -223 126 -82 0
253 226 -8 126 0
-214 -210 34 -82 -222 0
165 141 -112 -58 -129 -88 -34 44 0
-52 189 -233 -90 235 217 -138 81 10 0
-5 -249 219 -182 -76 246 -88 -112 -18 56 0
38 -96 244 170 201 141 199 173 -136 -25 0
-52 189 235 10 81 -37 -90 -202 -138 0
-202 -173 -185 20 12 -94 186 90 -142 0
-202 -193 92 6 -83 147 0
219 246 -145 -214 -249 -39 56 -182 -76 -5 0
189 -138 -193 -233 -90 217 186 10 -52 0
-102 -101 10 -243 211 -139 133 -132 206 0
24 -185 52 20 230 -202 -173 -94 12 0
136 138 73 -200 249 14 13 -106 -181 156 0
2 -251 64 -95 119 143 0
-42 -185 -233 12 -173 -94 -61 -15 138 0
12 -28 -94 50 -185 -173 52 -15 235 0
-202 -94 20 52 12 -173 -185 -42 169 0
-90 -52 -123 14 -61 -138 -193 10 189 0
-254 8 94 -183 0
-185 -94 -122 138 -173 -28 12 -15 -62 0
257 192 141 -75 -70 -151 0
-138 -90 -52 24 81 189 14 -202 10 0
-225 -44 -31 -147 -125 -39 -16 0
-185 138 -173 -15 -122 -233 -28 12 -94 0
10 -193 169 -85 -52 -90 50 189 -138 0
-53 40 48 238 59 25 9 -127 0
-96 94 -51 -137 200 -201 -106 0
-136 244 199 -25 71 201 207 141 173 81 0
-90 -52 10 -62 81 189 24 -138 217 0
207 -177 244 -193 199 -106 185 -136 -25 201 0
-220 253 -157 -132 1 193 -89 -81 -170 0
10 189 -52 -90 -138 169 157 212 50 0
136 13 138 156 -106 -181 51 249 217 73 0
52 -142 -173 -122 -94 12 -185 -15 -123 0
-16 -254 -39 -6 -125 -57 58 0
81 -233 -138 10 -52 -90 14 189 235 0
126 -88 -76 56 246 -5 -73 -145 -182 219 0
-138 -61 -52 -90 -202 -85 10 189 157 0
-5 181 56 -109 -182 126 -76 -39 246 219 0
-142 -94 50 12 -15 90 -185 -173 186 0
136 200 -51 -106 -12 -96 -137 0
230 12 -123 -15 -173 -94 -189 -61 -185 0
12 205 90 -173 169 -94 -62 -185 -15 0
52 -15 -173 -94 12 -123 24 -42 -185 0
214 -233 18 188 -134 -126 -177 -69 0
-88 -62 57 67 225 0
-107 -224 -46 -15 22 -12 24 -89 0
137 -181 -106 136 -189 249 13 156 73 14 0
12 -185 -15 -94 205 -173 90 169 -233 0
193 -220 -132 -215 -113 -157 -81 -170 140 0
-106 -193 252 -25 -136 -12 201 244 38 199 0
-107 -46 -224 -89 22 20 173 186 0
257 -243 -132 -139 -101 206 212 -102 10 0
201 -136 157 -25 -96 97 141 244 185 199 0
-35 -9 161 168 0
-94 -233 12 20 -185 138 -28 -122 -173 0
-181 141 -200 90 -199 217 13 73 249 156 0
219 130 56 -5 -76 67 -182 246 -249 -188 0
48 99 -163 215 -132 89 140 0
-60 -26 74 -149 35 -80 11 40 -216 -118 -36 0
210 -58 141 44 -88 -109 165 -204 0
-251 36 77 -2 -39 -231 0
-145 -34 204 129 0
-173 -202 230 -15 -94 -61 -185 12 90 0
-15 -94 -189 12 -123 -185 -173 -142 169 0
20 52 205 -173 -233 -94 24 -185 12 0
138 -185 -15 -94 12 186 -173 -233 230 0
165 210 -106 -129 -88 -58 -109 44 0
-132 49 257 89 242 -108 215 0
189 170 -52 -138 217 -61 -90 10 -62 0
-125 -39 -92 -16 58 -225 -254 0
-138 -90 157 -62 189 -85 235 -52 10 0
130 -16 -225 -31 58 -92 -125 0
88 -6 39 126 -130 -187 3 0
-193 -90 -123 169 211 10 189 -138 -52 0
-177 201 244 141 94 -96 -136 -25 81 199 0
26 -231 -88 77 -251 -64 0
239 132 0
183 197 8 98 -199 158 236 95 -172 0
-190 -12 -25 -228 201 -136 244 -106 199 157 0
-159 220 103 179 0
157 189 -138 -90 10 24 -123 -37 -52 0
-52 10 -90 -233 169 -138 189 -85 81 0
-136 199 170 -177 244 -25 173 141 201 -96 0
51 -189 73 249 -85 -106 156 13 -201 -181 0
201 -136 81 199 71 244 -25 173 -106 -96 0
217 81 -90 189 10 -122 -52 -138 50 0
136 -181 156 13 -189 -106 73 249 -200 14 0
-111 20 -89 55 209 141 0
-187 -153 217 68 -3 86 141 0
10 -90 -160 24 189 -138 -37 -52 -193 0
141 156 -200 -201 73 13 138 -181 249 211 0
61 -169 81 -235 -24 -186 30 -215 122 0
12 138 -15 -28 -173 -202 -94 24 -185 0
13 -189 -181 141 -201 249 -85 156 73 -200 0
235 12 -94 -173 20 -202 -28 -185 -189 0
119 2 64 -17 155 -197 0
88 39 -92 153 54 -130 134 0
-96 201 94 81 199 71 141 -136 244 -25 0
50 -61 12 -173 -94 -185 -15 90 205 0
-52 -61 -193 217 189 -138 10 -90 -202 0
215 -108 89 99 -163 -132 1 0
-199 73 14 -181 156 141 13 51 52 249 0
199 173 244 141 -25 -232 170 -136 38 201 0
-28 -15 12 -94 -185 169 -173 -189 -233 0
167 -208 251 172 17 46 111 0
-187 -68 -6 126 39 88 -130 0
137 -106 -37 13 156 249 73 -181 25 138 0
-37 189 -52 -122 81 -202 10 -138 -90 0
189 169 -52 -123 10 81 217 -138 -90 0
73 13 136 -181 -85 156 51 -106 -189 249 0
201 157 71 -25 141 199 244 173 -136 252 0
-243 -102 128 -132 212 10 206 -82 -101 0
186 52 205 12 -94 -173 50 -15 -185 0
-26 114 -216 -161 -149 40 -36 11 -29 -32 -60 0
244 199 94 201 97 141 -25 252 -193 -136 0
-8 69 226 -113 0
20 52 -173 -142 12 -94 169 -185 -160 0
141 -181 -189 -199 249 13 73 156 217 -200 0
-37 189 10 50 24 -52 81 -90 -138 0
90 -15 -173 -94 -122 205 12 -62 -185 0
-185 -189 230 186 20 12 -173 -94 -202 0
173 -25 -190 201 207 -136 81 199 244 141 0
189 -138 14 -193 10 24 -62 -90 -52 0
173 -228 -137 200 141 -51 -199 0
6 -160 -193 147 -83 92 0
-57 83 -88 -125 -16 248 -165 0
249 73 137 13 14 156 138 -106 -181 25 0
-25 -232 -136 201 -12 199 244 38 170 -106 0
-62 -112 225 57 -88 0
201 -232 244 199 -25 141 -193 -136 173 97 0
-189 -173 -94 -160 235 -185 20 12 230 0
189 -138 -52 -193 -37 10 24 -62 -90 0
214 -69 188 -134 -126 -202 18 38 0
172 107 -131 -208 111 17 251 0
-173 -122 50 -185 12 -28 -94 90 -15 0
-233 -173 205 90 -61 20 -185 12 -94 0
-42 -82 255 187 -54 0
-16 -225 -165 116 -88 -125 -6 0
-51 -199 185 141 -137 200 207 0
-17 -64 77 130 216 -231 0
183 238 -175 166 -162 159 -237 120 -250 0
-181 25 73 -106 13 -85 -200 52 156 249 0
141 -25 199 94 97 -136 201 157 244 -96 0
230 -173 -94 -185 -233 20 90 12 169 0
-94 -185 24 20 12 138 -62 -173 -42 0
-148 -33 11 -149 40 -26 35 -60 -124 -216 -36 0
-173 12 -94 -185 -233 20 52 -142 235 0
170 -202 189 10 -85 -90 -138 -52 24 0
126 -108 -8 226 0
-138 10 24 189 211 50 -90 -52 157 0
-94 -15 12 230 52 186 -173 -62 -185 0
10 189 -52 212 81 -138 -90 -233 235 0
54 96 228 255 -163 232 -252 -207 0
-52 -90 -138 -62 189 -61 10 -193 212 0
12 -202 -122 138 20 -185 -173 -94 -28 0
40 -149 11 35 -60 -78 -229 -118 -216 -36 -26 0
201 185 81 -232 -177 141 -25 244 -136 199 0
13 -189 -181 156 212 -200 249 73 -199 141 0
-125 -16 116 -147 -57 -88 -44 0
244 71 -228 -136 201 -106 170 94 -25 199 0
170 201 -136 244 -25 -232 185 141 199 71 0
-147 39 153 -214 -187 -130 88 0
199 201 -136 141 170 -25 185 207 -190 244 0
56 134 -182 246 -112 219 -5 -156 -39 -76 0
-26 35 40 -149 -36 11 194 -60 74 -80 -216 0
-138 189 -62 186 10 -52 157 212 -90 0
56 -156 246 69 130 67 -182 -76 -5 219 0
12 -94 230 -185 50 -173 -15 -61 138 0
13 -200 249 25 217 -181 73 156 -106 90 0
-185 205 138 12 50 20 -94 -173 24 0
-98 241 107 17 -55 -208 251 0
-109 -58 165 141 210 -39 -204 44 0
157 185 38 201 199 141 -232 -25 -136 244 0
-183 116 173 8 0
-106 199 244 -190 -136 -193 -25 -96 94 201 0
215 49 -132 140 -154 89 -163 0
10 -52 -138 189 24 -90 81 50 217 0
-232 -106 244 -136 -25 173 201 -177 170 199 0
39 -68 -130 54 -92 88 -214 0
201 -177 199 185 157 -25 141 244 -136 -96 0
-45 19 105 0
-185 12 50 -15 -189 -94 -122 -173 -28 0
-224 -15 -89 -107 -61 -46 94 22 0
-173 -62 20 12 -122 -185 -94 -28 52 0
212 52 -181 13 156 141 -244 137 73 249 0
-90 81 212 -160 189 10 235 -138 -52 0
244 201 -96 199 -136 -190 -106 -12 157 -25 0
-173 -123 -42 90 -185 -94 12 -15 186 0
170 -62 -90 169 -138 10 -52 189 217 0
212 -202 10 189 -138 169 -90 170 -52 0
-100 211 -161 238 104 40 0
-76 130 -156 219 56 -5 246 -18 67 -182 0
210 165 -58 -106 67 -39 -204 44 0
143 59 25 -53 -154 9 -127 40 0
20 -94 -173 -185 -233 169 12 90 205 0
24 -94 205 20 -62 -173 138 12 -185 0
52 136 156 249 212 51 73 -181 13 -106 0
71 252 201 -12 -136 244 199 157 -106 -25 0
20 -185 -233 12 -173 52 205 -94 235 0
94 -137 -51 200 -244 252 141 0
-149 11 35 -80 72 40 -118 -216 -60 -36 -26 0
-173 138 -61 -185 -123 -42 12 20 -94 0
246 -39 181 -145 69 -182 -76 219 -5 56 0
-25 -12 201 199 -177 -106 157 207 244 -136 0
-249 -88 219 246 -76 -145 -18 56 -182 -5 0
-44 116 -125 -39 -16 -57 -92 0
-244 13 73 51 156 -106 138 -85 249 -181 0
-154 -132 99 140 215 128 89 0
-196 -24 -89 -186 61 -169 122 81 -235 0
50 -138 -61 217 157 -90 -52 10 189 0
-106 201 252 173 157 199 71 244 -136 -25 0
-52 -233 186 217 189 -90 81 10 -138 0
-173 -94 -61 -185 205 50 20 52 12 0
-28 -233 20 -185 -173 -189 -94 12 169 0
51 13 141 73 249 52 212 -181 -244 156 0
35 40 -229 -216 -36 -124 -60 -26 91 11 -149 0
-2 -231 77 -251 26 -88 0
90 -173 -15 -61 -160 -142 -185 -94 12 0
-233 169 -94 20 -142 -185 -173 138 12 0
12 -189 -94 -15 205 50 -185 -173 -122 0
-182 219 246 -5 -214 -88 -156 56 -145 -76 0
-107 -46 -215 22 186 173 -224 20 0
14 -90 10 170 -138 -62 189 24 -52 0
238 -197 119 64 2 -17 0
56 246 219 67 69 -5 -76 -39 -182 -73 0
-83 -193 147 50 92 6 0
-44 -246 41 -195 -164 125 -132 0
89 242 257 -132 215 49 -113 0
156 -244 -37 -189 -200 73 249 13 -106 -181 0
99 -113 -163 140 89 -132 215 0
-136 -106 244 201 -25 -193 71 185 -228 199 0
77 -251 26 130 -2 -231 0
-136 201 199 141 -177 244 -25 173 252 81 0
-127 -199 143 40 9 48 59 -53 0
232 27 96 -207 -187 -252 133 228 0
-15 -94 12 -185 -233 138 235 -28 -173 0
-64 -231 208 130 77 60 0
10 -52 -122 -138 189 -123 212 81 -90 0
-94 -185 -173 230 12 -62 90 20 186 0
39 83 -86 -130 -187 -214 88 0
230 -189 -173 -122 20 12 -62 -185 -94 0
241 -55 -208 251 46 17 172 0
244 201 81 -190 207 -12 -106 -136 -25 199 0
137 136 13 -181 -189 73 156 217 141 249 0
81 -90 -138 189 10 -52 24 -202 211 0
36 -251 130 77 -119 -231 0
128 -253 108 159 140 154 -48 113 0
71 -136 244 201 185 -96 -25 170 199 -106 0
-61 10 -52 -37 170 189 -138 -202 -90 0
248 -125 -92 -88 -16 -44 -57 0
-5 -182 130 -214 56 -112 219 -76 -13 246 0
-94 12 20 -185 -142 -62 138 -173 24 0
73 -200 156 -85 52 249 -106 -181 136 13 0
90 156 -181 212 51 73 25 13 249 141 0
252 199 201 244 -177 -136 81 -25 -106 94 0
-200 136 249 13 52 -85 156 -181 141 73 0
88 153 69 39 -130 83 54 0
-12 -106 207 -51 200 -137 136 0
217 156 249 73 -181 90 -106 13 -199 51 0
-136 -106 199 97 173 244 201 -193 -25 207 0
-28 -185 12 -94 -61 90 -202 -173 20 0
90 -185 169 -173 -94 -160 12 205 -15 0
189 -90 -123 170 10 -138 235 217 -52 0
252 -137 25 -51 141 200 -12 0
-173 -94 20 12 90 50 230 186 -185 0
12 90 -142 -94 -185 -173 20 -233 -61 0
189 14 -90 -233 170 -122 -138 10 -52 0
-151 128 -75 141 192 -70 0
-39 57 50 225 -109 0
-154 40 -53 -199 9 59 -127 143 0
152 -82 255 -141 106 -189 0
-106 212 -244 156 13 73 138 -200 249 -181 0
50 -94 90 -173 -28 12 -185 20 -61 0
-76 134 -109 246 130 -182 56 -156 219 -5 0
138 -94 -28 -173 -202 -185 -15 12 -122 0
-131 251 -55 -197 107 -208 17 0
97 170 201 -25 141 244 173 252 -136 199 0
125 -132 -56 -195 41 -165 -164 0
-94 -185 -173 -15 -123 52 12 186 230 0
-214 -76 56 -13 -109 219 -5 246 -182 -39 0
-62 52 20 24 -185 205 12 -173 -94 0
-107 20 -89 -224 22 94 24 -46 0
-188 226 -113 -8 0
-210 -82 34 -214 178 0
138 -199 156 249 -106 -37 13 -181 73 137 0
-116 -219 31 134 254 -248 -165 0
251 -131 17 -197 -22 -208 -209 0
13 -200 -189 211 -106 249 -201 -181 73 156 0
173 244 -136 170 252 199 141 201 71 -25 0
-142 -185 138 20 12 -233 -122 -94 -173 0
113 -253 242 -220 108 154 133 -48 0
-216 -36 -149 35 74 -26 -60 11 -148 40 194 0
52 10 -160 15 -20 0
138 -185 -173 -160 -15 -142 24 12 -94 0
83 130 116 -165 -16 -225 -125 0
24 -189 -42 -173 12 -94 20 -202 -185 0
-132 89 215 99 48 1 133 0
12 -173 52 -94 -160 -185 -28 -61 20 0
215 89 253 242 -132 133 -23 0
17 107 -209 146 -158 -208 251 0
52 255 -139 106 152 -141 0
-90 211 186 10 189 -62 -138 157 -52 0
199 244 -25 201 -136 94 -228 -106 -193 38 0
-5 219 -76 -112 246 -156 56 -182 -88 126 0
249 -244 73 -181 14 51 13 -106 156 -189 0
154 108 -48 113 -253 1 -220 -163 0
20 24 -173 -185 52 -94 12 50 205 0
-227 -82 224 -15 -152 0
-15 12 52 -94 24 -173 205 -202 -185 0
-94 138 169 -42 -160 12 -173 -15 -185 0
-94 -142 169 -185 12 -15 -189 -202 -173 0
-138 -90 24 189 10 -160 211 -193 -52 0
52 156 13 73 -106 136 -181 217 137 249 0
96 -187 -207 -252 174 228 133 232 0
-90 169 157 -123 189 212 -52 -138 10 0
211 73 -181 156 51 249 -201 141 90 13 0
249 90 51 -85 13 73 -106 -181 156 136 0
17 -208 251 -158 -131 111 -22 0
249 -199 -181 141 13 -200 156 73 90 -85 0
9 59 -53 -127 238 -199 40 253 0
-94 12 -185 -61 230 -173 -160 20 -189 0
12 -185 -61 -173 230 -94 50 138 20 0
73 137 141 138 -181 136 13 156 212 249 0
-185 230 52 186 -233 -94 12 -15 -173 0
244 199 201 173 -25 -228 170 -190 -136 141 0
207 -136 170 199 -12 244 38 201 141 -25 0
52 12 -94 50 -185 -122 -15 205 -173 0
-106 13 156 -200 73 -244 52 249 -181 14 0
-130 54 39 -18 88 83 153 0
-142 50 20 12 138 235 -94 -185 -173 0
-182 246 -76 181 -112 219 -39 -5 -214 56 0
9 -127 155 -53 40 -199 -154 59 0
-138 217 -90 10 235 189 157 -52 50 0
-61 -15 205 -185 -160 138 -94 12 -173 0
12 -42 -185 20 -173 90 -122 50 -94 0
-188 -210 -223 -139 34 0
156 138 -200 25 -106 -181 249 -37 73 13 0
81 141 -136 -25 -177 -228 199 244 201 -12 0
-116 -248 254 -219 58 31 126 0
201 173 199 207 141 -25 244 -193 -136 97 0
-167 -246 -241 -39 131 -89 -146 0
244 -193 199 185 -25 201 -96 141 -136 97 0
-173 186 12 -142 -94 -185 52 -233 -15 0
141 -181 -199 -200 249 90 156 73 14 13 0
-94 -185 138 -28 -61 20 12 -160 -173 0
-94 138 -185 -28 -15 12 -61 -123 -173 0
-28 186 138 -94 12 -173 -185 -123 20 0
-15 -28 -202 -185 24 52 12 -94 -173 0
-25 -177 170 201 244 -12 -106 199 -136 252 0
-52 10 -138 -90 -122 50 157 -85 189 0
-185 -94 -233 -173 230 24 138 20 12 0
-107 169 -215 -15 22 -46 173 -224 0
71 -25 173 -193 -136 141 -232 201 199 244 0
201 -136 94 252 -25 81 97 244 199 141 0
-200 -181 52 13 -199 249 156 141 -37 73 0
-2 -231 -251 216 77 130 0
-3 -85 86 -153 68 54 -106 0
-157 -103 193 140 -215 -81 -170 48 -132 0
-94 50 -189 -173 12 -15 -185 205 -61 0
-34 -58 -39 -129 -112 165 44 141 0
27 228 -252 96 133 -207 232 54 0
12 -94 52 -160 186 -185 -42 -15 -173 0
-24 -169 61 -89 -186 122 -196 -193 -235 0
-193 -12 141 -177 -25 244 -136 207 199 201 0
-136 141 -193 199 97 207 -12 244 201 -25 0
-61 12 -142 -185 -94 -160 20 -189 -173 0
-90 -85 -52 157 -138 189 10 186 -202 0
217 13 -200 73 249 138 25 156 -181 141 0
10 -52 -138 -193 -90 -62 189 -122 14 0
-15 -94 -202 -173 138 -185 235 12 -28 0
-175 -162 238 -250 120 183 166 -179 -237 0
76 131 -88 -167 -146 -241 -215 0
-132 -157 -215 193 -170 140 -81 253 -220 0
-116 -219 -44 31 69 -248 254 0
-122 170 -90 -37 -233 -52 -138 10 189 0
193 -103 242 -157 -113 -170 -215 -81 -132 0
94 -51 200 -228 -106 25 -137 0
-42 -233 -94 24 -173 20 12 90 -185 0
38 185 201 -136 207 -25 170 199 244 -106 0
235 -202 -52 -37 -138 10 -90 189 170 0
186 -46 185 -224 -15 -215 -107 22 0
-202 -142 20 -173 -94 52 -185 24 12 0
-37 -122 -193 189 -52 -160 10 -138 -90 0
-185 -15 -160 -94 -173 52 205 12 186 0
12 -185 20 90 -28 -94 24 -123 -173 0
-90 -138 10 14 -61 189 -52 81 -202 0
-132 -23 242 -108 133 215 89 0
-109 219 -76 246 -182 -13 134 56 -5 -88 0
-199 52 217 13 249 -200 -106 156 73 -181 0
169 -15 -185 230 -189 -94 -173 12 -202 0
-132 -81 193 -170 140 159 253 -157 -215 0
155 -127 -53 -108 136 9 40 59 0
-61 10 -138 -90 -37 -160 170 189 -52 0
-40 210 0
52 -173 205 12 -94 186 -233 20 -185 0
138 73 13 51 156 -181 212 -201 141 249 0
48 59 143 -127 136 9 40 -53 0
166 238 -237 183 -256 -175 120 -162 -179 0
20 12 -173 -189 -94 -185 -61 230 -62 0
-189 -85 141 13 -181 249 51 156 25 73 0
-173 -189 -61 -185 -202 -42 -94 12 20 0
-76 246 134 219 56 -109 -13 130 -182 -5 0
209 -89 55 -106 -15 -111 0
138 205 -94 -61 -185 20 -160 -173 12 0
20 12 230 -61 -173 -94 52 -185 -202 0
39 -187 -18 3 -6 88 -130 0
-173 90 -142 169 -185 -94 -160 12 20 0
-166 240 -87 -198 45 16 -184 -77 0
-214 -116 -248 182 58 31 254 0
-25 201 199 94 97 252 -136 157 -106 244 0
-83 147 6 157 -233 92 0
-62 10 -52 -138 189 217 186 -90 157 0
-108 99 89 -132 215 128 242 0
5 134 -116 -248 -44 31 254 0
-188 -39 246 -76 -249 219 56 -5 -182 67 0
-106 -96 -136 81 201 244 173 -177 199 -25 0
11 -60 -118 -229 -149 74 -161 -36 40 -26 -216 0
31 -116 254 -165 126 5 -248 0
-232 244 141 38 201 -193 -25 199 185 -136 0
-224 -46 20 -215 173 22 -107 24 0
-254 -125 -225 -44 130 -147 -16 0
-200 156 136 -189 -181 73 141 249 13 -37 0
99 -108 242 133 215 89 -132 0
-188 -76 246 -5 -156 56 -39 67 219 -182 0
102 -180 151 0
-26 -60 -229 11 -161 -149 213 -216 -36 72 40 0
-76 -18 56 246 -182 219 -156 -145 -5 -39 0
-36 -149 -26 -60 35 11 -216 -78 40 213 -229 0
-185 12 -94 90 -123 -173 -28 -122 20 0
-139 -247 69 34 -210 0
249 156 138 73 -181 13 51 -244 -106 212 0
10 -202 -52 235 157 189 -90 -138 -85 0
156 138 -181 249 -200 73 211 25 141 13 0
-164 16 -165 -195 41 5 -132 0
-90 189 10 -138 157 -52 -233 -37 235 0
219 -249 -112 246 -76 -5 56 -18 -39 -182 0
-177 -25 -232 141 -136 170 244 201 199 -12 0
-202 -42 12 -94 -185 -15 -173 169 90 0
-64 -251 -11 130 -231 77 0
-52 24 81 211 -90 189 -62 10 -138 0
242 -108 -163 215 89 99 -132 0
156 -181 13 -200 73 -85 25 52 249 141 0
-138 -90 -52 -85 81 10 189 -160 186 0
-5 -39 -182 -109 -73 246 56 -76 -214 219 0
20 -185 90 -173 -142 50 12 -94 -61 0
-62 12 -173 -185 -28 138 -61 20 -94 0
39 -130 88 -92 -18 -86 54 0
141 -190 199 157 -136 -232 -25 244 201 94 0
249 156 137 217 141 -181 -199 52 73 13 0
201 -177 170 -25 -106 185 244 -96 199 -136 0
89 215 -132 128 -154 49 1 0
41 -132 16 -195 -246 -164 -44 0
-94 12 -160 -173 -189 -15 169 205 -185 0
88 69 -130 39 -187 -86 -6 0
-6 -16 -225 -88 -44 -125 116 0
-136 -12 38 244 199 -232 -25 81 141 201 0
90 -200 73 141 13 212 156 136 249 -181 0
-48 -253 154 -103 108 113 257 1 0
-58 -88 165 141 44 -34 -109 -204 0
-25 -106 199 97 170 252 173 244 -136 201 0
-145 181 -5 56 246 130 126 -76 -182 219 0
90 -123 -173 -15 -42 -185 12 235 -94 0
46 121 110 -221 185 -132 -215 150 0
-170 159 -89 -157 242 -132 193 -81 48 0
-52 14 189 -61 -90 -233 10 -138 -193 0
251 146 -209 17 172 -208 224 0
-106 -12 -51 -137 207 -199 200 0
128 159 -48 108 -253 113 1 154 0
-94 138 20 12 -173 -62 186 -185 205 0
235 12 -233 52 -94 -15 -173 230 -185 0
42 -230 28 -223 -205 142 0
-52 169 211 -138 10 -233 -90 -193 189 0
141 13 73 249 -181 -244 -189 156 137 212 0
-200 156 211 -201 -106 -181 90 249 13 73 0
-5 -109 246 -76 -18 -182 -249 56 -39 219 0
-181 73 249 137 -244 13 90 141 14 156 0
89 215 128 -132 1 -154 99 0
170 235 -138 -52 14 10 -90 -62 189 0
-78 35 -36 -26 -149 -60 40 -80 -118 11 -216 0
-138 -90 -122 -193 189 211 -52 10 -202 0
201 -177 -136 -12 157 -25 -96 199 244 -106 0
-142 -185 -15 -173 138 -123 12 -94 -61 0
-52 -61 211 81 -202 -90 189 -138 10 0
236 183 98 197 95 8 158 -172 25 0
-181 13 156 73 -199 217 141 137 90 249 0
244 -25 -190 -136 199 -96 94 141 81 201 0
-244 138 14 249 141 -181 -200 13 73 156 0
-132 20 139 -12 -42 82 0
230 12 -185 24 -189 20 -233 -94 -173 0
-94 24 230 -202 -173 -189 -15 -185 12 0
-88 116 -16 83 58 -125 -225 0
94 200 -137 -96 25 -106 -51 0
170 -12 -96 141 -136 244 199 97 201 -25 0
-94 169 -123 12 138 -15 -173 -185 -28 0
189 -52 -193 -62 -61 -90 211 10 -138 0
56 219 -182 -39 -249 -145 134 -5 -76 246 0
-226 94 248 -183 0
-28 138 20 -160 235 -94 -173 -185 12 0
249 13 141 -189 136 156 73 211 137 -181 0
-160 212 -61 -193 189 -90 -52 10 -138 0
-122 -185 -94 -189 -233 12 -173 -15 230 0
-160 225 57 -145 -88 0
-92 153 -130 88 69 39 -187 0
-52 189 -202 212 -138 -90 157 24 10 0
-15 -61 -173 -189 -42 12 -94 -62 -185 0
81 -90 10 -138 189 -52 -37 186 -62 0
141 -181 249 156 73 -201 217 90 137 13 0
39 -130 54 83 88 153 134 0
219 -5 56 -73 -88 -214 246 67 -76 -182 0
12 -15 -94 138 -173 -202 -185 235 230 0
-158 -22 17 167 251 111 -208 0
199 201 -25 38 244 -106 -96 -136 173 -193 0
-233 -138 -90 189 170 -52 235 217 10 0
-200 13 14 52 156 73 25 -106 -181 249 0
-136 -25 201 244 -193 173 -106 71 -228 199 0
85 -212 -132 242 -14 37 -217 -211 0
215 89 140 -23 -132 -163 -154 0
9 40 155 -127 -53 59 136 -154 0
89 -23 215 -132 -163 48 242 0
-12 -106 -228 199 -25 97 -136 201 244 157 0
-5 -73 126 -182 -88 56 219 246 -76 67 0
12 -94 -185 186 -15 230 -173 50 52 0
-52 -90 -138 170 189 169 211 10 -62 0
-123 -20 90 15 10 0
69 219 -13 67 56 246 -5 130 -76 -182 0
-94 12 -15 -185 -28 -122 -173 138 -123 0
-112 246 -18 56 -5 -39 -76 181 219 -182 0
155 -161 104 -100 -37 40 0
193 -132 1 -170 -103 -157 -81 -108 -215 0
-90 235 211 189 157 -138 -160 10 -52 0
-26 40 114 11 -36 -29 -216 213 35 -60 -149 0
189 -61 -52 212 170 -233 -90 10 -138 0
-142 186 -94 52 -62 -185 12 -173 20 0
26 -231 -17 -88 77 -64 0
200 252 185 -244 141 -137 -51 0
-86 -130 39 126 -187 88 -147 0
251 -208 17 172 167 -22 -55 0
-183 94 116 8 0
20 -94 -202 -173 90 -122 -42 12 -185 0
138 -15 -185 -233 -173 -122 12 -94 -142 0
-64 -88 -231 -11 77 208 0
-160 189 -138 -52 -90 10 -193 212 -122 0
156 -201 141 -181 73 249 137 217 138 13 0
-102 212 -82 -132 -243 -163 10 206 -101 0
10 170 -52 24 50 189 -138 -90 212 0
1 89 -132 215 128 48 99 0
-94 -42 -185 20 -62 12 -61 138 -173 0
189 14 10 -52 186 157 -90 -138 -160 0
156 -37 -189 73 141 13 -181 136 137 249 0
-12 38 201 157 -106 -25 244 199 -136 207 0
-181 156 249 137 73 141 52 13 -201 14 0
-132 159 -89 253 -81 -170 -157 242 193 0
-54 -65 187 -42 -82 0
-214 -187 88 3 83 -130 39 0
-223 -210 34 -139 -214 0
-29 -36 74 -216 11 -26 -149 40 213 -161 -60 0
57 -145 50 225 130 0
-180 151 -206 0
137 13 -181 141 249 -199 52 156 73 211 0
20 50 205 -185 169 12 -173 -94 138 0
40 -78 -26 -161 -36 -33 11 -216 -60 -29 -149 0
130 -17 -11 77 -231 -64 0
-52 -138 -37 189 24 -90 -160 81 10 0
76 -132 16 -164 58 -195 41 0
-15 235 -107 -46 94 -224 22 -215 0
141 244 -25 97 185 -136 -232 201 81 199 0
131 -167 76 -146 130 -241 -215 0
12 -62 -185 235 -94 -28 138 -15 -173 0
17 -208 107 251 241 -95 -209 0
-182 -39 -145 69 56 -73 219 -76 246 -5 0
-185 12 -94 90 -42 -123 -122 20 -173 0
116 -225 58 83 -16 -39 -125 0
-231 149 208 77 130 -2 0
173 199 81 -136 -25 207 244 38 201 -106 0
-22 7 -139 -15 -152 0
-98 224 251 17 -131 -208 111 0
-142 -123 -173 -94 90 -185 20 186 12 0
215 1 -23 -132 253 -163 89 0
-199 -181 73 249 137 13 -106 217 156 -189 0
-161 -124 40 -36 91 -149 -229 -216 -60 11 -26 0
-125 -44 -254 -39 -57 -16 83 0
17 46 241 -95 -209 -208 251 0
80 143 229 148 29 -165 -168 0
-15 12 -173 169 -28 -189 -185 -94 -202 0
-88 57 225 -145 50 0
-152 -22 -15 -82 30 0
146 -95 -208 46 251 -55 17 0
-46 -89 94 -224 -15 235 -107 22 0
-5 -182 219 56 -88 246 -214 -76 -249 -145 0
181 -5 130 -182 -76 56 -109 219 246 -188 0
246 -156 -145 130 219 -182 -5 56 -214 -76 0
12 -94 -160 -173 -142 52 24 -185 20 0
-15 -185 -233 -94 -42 -173 -122 12 138 0
186 138 -62 12 20 -42 -173 -94 -185 0
-106 244 201 157 -190 207 199 -25 -136 94 0
-107 -215 20 -122 22 -46 173 -224 0
-173 138 50 -94 -28 20 12 -185 235 0
-123 -52 189 -122 -138 10 -90 -193 -37 0
251 167 46 -55 17 -208 -95 0
-181 13 51 249 73 14 141 52 -244 156 0
-138 -233 189 170 211 -90 -52 169 10 0
-154 -215 242 -132 -220 193 -170 -157 -81 0
-210 34 117 -82 126 0
-185 12 50 205 138 235 -94 20 -173 0
157 -61 10 -52 -123 -138 189 212 -90 0
-173 20 12 -123 -189 205 -185 186 -94 0
-138 -90 81 -122 189 -37 -52 50 10 0
189 -90 -138 -52 212 10 169 50 170 0
186 -90 170 189 -37 -62 10 -52 -138 0
40 -161 74 -26 -148 -149 -33 -60 11 -36 -216 0
189 24 -62 -90 10 157 -138 217 -52 0
-60 -124 -26 40 -216 -149 -36 11 168 213 35 0
-94 -173 186 -15 12 52 -185 -233 -28 0
-208 -98 224 251 241 -55 17 0
189 -62 -52 -138 169 14 -90 10 -193 0
-208 251 -158 17 -22 241 -55 0
-148 40 -149 11 -36 114 -33 35 -26 -216 -60 0
-106 156 -199 -37 73 249 -200 52 13 -181 0
-224 -46 -89 -107 22 94 -15 -122 0
-138 186 189 212 -90 10 -62 -52 81 0
-201 90 141 212 156 73 -200 249 -181 13 0
156 52 73 -106 13 249 136 211 -181 -200 0
-65 228 54 232 -207 -163 96 -252 0
-26 -36 -229 -216 -60 -149 -161 194 11 -78 40 0
-102 10 211 -132 -163 -243 206 -101 -139 0
20 -94 -160 138 12 235 -173 -185 230 0
69 -210 -82 34 -223 0
116 -39 -125 -225 -16 83 -44 0
-62 -94 -15 205 235 -185 12 -173 -189 0
-125 -92 -88 -16 -31 -44 -57 0
45 -198 240 -184 231 162 -87 125 0
-94 -233 -189 -142 -173 -15 12 -61 -185 0
-199 138 -106 249 217 13 -181 -200 73 156 0
-122 -52 81 -160 -90 189 10 217 -138 0
12 20 -173 -185 52 -160 -94 205 24 0
13 51 156 217 136 -181 90 249 141 73 0
141 -136 -25 199 244 -96 97 173 201 170 0
-181 73 249 156 137 -199 52 13 -37 141 0
197 8 236 183 136 98 -172 95 158 0
193 253 -81 -215 1 -103 -132 -157 -170 0
199 -193 -136 -232 -25 -106 -190 201 94 244 0
20 24 -123 -142 -94 -173 -185 -189 12 0
-15 -185 169 12 -123 -42 -173 52 -94 0
-185 52 -15 205 -94 235 -173 12 -160 0
-249 -76 246 -182 -18 130 219 56 -5 67 0
-254 -57 -125 -16 83 -44 130 0
11 -149 -216 -26 -118 -78 35 -36 -29 -60 40 0
7 -82 107 -15 -152 0
-61 -189 -94 12 -173 20 50 -185 -142 0
20 -94 -233 -173 -185 12 90 24 -28 0
244 -136 -228 -12 -106 71 199 170 -25 201 0
-134 -190 -202 -69 18 214 188 -126 0
-67 109 -4 112 145 0
-185 20 -173 50 -94 90 235 12 -142 0
-125 248 -88 -57 58 -16 -6 0
-2 130 -11 -231 77 -251 0
212 -138 157 -90 186 10 189 -52 50 0
147 92 81 6 -202 -83 0
-173 50 -185 -94 12 -15 186 -142 52 0
-136 244 -228 199 -106 71 185 -25 201 170 0
-221 224 -132 173 110 150 -89 121 0
244 201 170 -136 -106 97 -25 199 94 252 0
199 244 201 -25 185 38 -232 -136 141 170 0
246 -188 -76 219 -39 56 -145 -249 -182 -5 0
-109 57 -62 225 -88 0
138 249 73 -181 212 13 -201 51 156 -106 0
35 -26 11 -78 -216 40 -229 91 -36 -60 -149 0
-107 22 -46 -61 -89 -224 -15 185 0
90 73 -106 -244 -181 13 249 51 156 -37 0
12 -173 -185 50 -61 -94 -15 52 -142 0
90 -15 12 -185 -94 205 -173 50 -122 0
-181 -37 138 13 73 156 -200 249 141 136 0
-187 -207 128 -252 96 -65 232 228 0
213 -149 -124 -26 35 -36 -216 -60 40 -29 11 0
111 -95 241 107 -208 17 251 0
-182 -5 -76 -39 126 56 -156 219 -145 246 0
25 249 -200 -106 -189 13 -37 73 156 -181 0
12 -185 -189 20 169 -142 -173 -123 -94 0
128 -23 -132 140 -113 215 89 0
-154 134 -8 226 0
34 69 -222 -210 -82 0
12 -185 -94 -15 -28 -173 169 52 -62 0
-61 -185 12 -173 -94 138 -15 -28 -202 0
-160 -112 225 130 57 0
-58 -129 -106 165 44 67 130 210 0
-142 -202 -122 12 90 -15 -185 -173 -94 0
40 11 -36 -60 -216 -161 72 -26 -149 -33 168 0
246 181 -5 -109 219 56 -182 130 -76 69 0
249 156 13 -106 73 -189 -181 -199 217 51 0
170 201 -106 94 -25 -136 244 199 38 -228 0
11 -78 -26 -33 35 40 -60 -216 -149 -36 -80 0
-28 -139 -54 27 187 0
224 -15 -47 -152 -82 0
-46 -107 -15 22 -215 -224 -61 173 0
-116 -219 254 -44 31 -248 -18 0
-96 -136 141 -190 244 199 201 94 157 -25 0
-228 185 -137 200 -244 -51 141 0
-6 -125 -39 -57 -31 58 -16 0
90 -173 -94 -233 12 235 20 -185 205 0
-173 12 -15 -94 -123 230 -185 169 90 0
-142 90 -185 -62 235 20 -173 -94 12 0
219 -76 246 -182 -156 -5 -112 56 130 126 0
-65 -141 152 -139 52 106 0
161 -9 -35 -80 0
-85 -160 -90 10 -138 189 -122 157 -52 0
12 -202 -94 -15 169 -142 -185 90 -173 0
168 -161 11 -216 -26 -149 -36 40 74 -60 -32 0
-195 -132 -44 125 41 -164 -56 0
-88 -5 -112 181 56 -76 -182 -18 219 246 0
-61 10 -52 -233 -138 157 189 -90 -37 0
-52 -62 189 10 -138 -37 -90 -122 81 0
50 186 -142 -173 -94 12 20 90 -185 0
14 -244 73 249 138 13 -181 156 141 51 0
-51 -137 25 -106 200 -96 -12 0
-193 50 -138 189 -52 -90 212 10 169 0
-250 -179 -175 166 183 -237 143 120 -162 0
10 -102 -82 -243 212 -132 206 -101 257 0
-85 249 51 -189 -199 -181 13 141 73 156 0
138 -185 -42 235 -94 -62 -173 -15 12 0
12 -122 -185 20 -173 -142 138 -94 -123 0
-6 -125 -16 -57 130 248 -44 0
195 -66 218 0
-28 -189 -173 -94 -185 -62 186 12 -15 0
-185 -233 12 52 -173 -15 -142 -94 24 0
-28 -123 235 -94 -185 12 52 20 -173 0
22 -215 94 -107 -224 -46 -15 -61 0
-181 156 141 -200 -37 249 -201 73 52 13 0
141 -204 210 165 -88 -58 67 44 0
40 -124 168 11 -60 -26 35 -36 -216 -149 91 0
24 189 -160 81 10 -52 -90 212 -138 0
-123 81 -85 -90 10 -52 169 189 -138 0
-215 1 -81 -132 159 -108 193 -157 -170 0
-122 -173 20 -202 12 -185 -94 -189 205 0
200 25 -137 141 173 -228 -51 0
-248 58 -214 31 254 -116 5 0
-173 12 -15 52 -42 24 -185 -62 -94 0
39 -130 83 153 88 -187 -18 0
88 39 -214 -187 -147 -130 -68 0
-94 12 20 235 -185 90 -173 -62 205 0
185 -96 199 -25 97 201 -136 -106 244 157 0
-27 -42 -255 -174 65 0
-223 34 -210 -82 -188 0
-149 -229 -216 -26 40 35 213 11 74 -36 -60 0
-65 -139 -54 -142 187 0
71 -232 201 244 -25 81 -136 173 141 199 0
141 -85 13 -199 73 51 -181 138 249 156 0
-185 235 -173 -94 -123 -189 20 12 -142 0
90 -173 12 50 20 230 -185 24 -94 0
38 -136 199 252 141 81 201 244 -25 173 0
185 -25 199 244 141 252 -136 201 157 -177 0
-52 -90 -202 -122 -85 -138 10 189 170 0
13 141 249 -181 73 156 217 52 -200 -199 0
-189 -173 20 -94 -62 -185 12 169 230 0
-42 -173 -94 -185 -61 -202 12 52 -15 0
-193 -61 -90 189 10 -138 -85 50 -52 0
201 170 -228 244 -136 -25 -190 185 141 199 0
199 185 -25 141 207 201 -136 244 -190 157 0
-106 -228 199 244 -25 -193 201 -136 94 -190 0
-12 -224 -107 22 -89 235 -46 20 0
90 156 13 249 -200 -181 211 73 25 141 0
-173 -189 -123 12 -94 -185 -42 -15 169 0
-189 249 25 -200 156 -106 13 -181 -85 73 0
-51 200 252 -244 -106 -137 185 0
-39 -125 248 -57 83 -16 -44 0
206 128 -132 -243 -82 -85 10 -102 -101 0
-199 -200 13 249 90 73 -106 212 156 -181 0
54 68 141 -3 217 -153 86 0
-34 44 -112 165 -204 -58 -39 -106 0
-106 138 156 249 51 -37 -244 73 13 -181 0
238 58 -168 229 80 29 148 0
13 25 -200 141 249 138 14 -181 156 73 0
-76 181 130 -182 -145 246 -5 -188 56 219 0
212 -189 -181 -244 -200 -106 13 73 156 249 0
173 110 46 121 150 -132 -221 -89 0
189 81 -138 -90 -52 -160 10 169 217 0
-214 -147 153 39 -130 54 88 0
155 58 80 148 29 -168 229 0
244 94 -25 201 199 71 -136 157 252 141 0
-232 -136 244 199 173 -106 201 71 -25 81 0
138 12 -15 -173 -94 -185 186 -62 205 0
-185 12 235 -15 138 -160 -94 -42 -173 0
235 -173 -160 20 12 52 -185 -94 -28 0
201 -177 -106 157 -96 -136 244 173 -25 199 0
201 -25 -106 199 244 94 207 71 -193 -136 0
156 -201 249 13 137 73 -106 211 -181 -189 0
251 17 107 111 -131 -208 -158 0
10 -61 -90 170 -52 -138 50 189 14 0
211 249 13 -181 -199 73 137 52 -106 156 0
246 181 -182 219 56 -39 126 -145 -76 -5 0
-165 -88 -125 -92 -31 -16 -57 0
10 186 50 -52 157 -90 189 -138 14 0
-112 -39 56 246 -182 -73 -76 -18 -5 219 0
-52 -90 10 24 -160 -85 -193 -138 189 0
-94 50 205 24 20 -189 -173 12 -185 0
-181 137 13 25 90 -106 156 73 249 212 0
138 15 10 -20 50 0
20 138 -173 12 169 -94 -185 -28 50 0
-94 12 -61 -123 52 -173 205 -15 -185 0
-125 -6 -31 -16 -44 -57 -39 0
10 189 217 170 -62 -138 -90 -52 -122 0
-98 17 107 -209 251 -208 167 0
-51 -137 -106 200 -201 252 -12 0
-37 10 50 -193 -90 235 -52 -138 189 0
141 -232 -137 94 -201 -51 200 0
-123 10 235 81 -37 189 -52 -138 -90 0
-53 40 253 9 -127 25 59 155 0
14 249 -181 156 -106 137 73 -244 90 13 0
10 211 -123 189 -52 235 157 -138 -90 0
39 -187 -68 -130 88 -18 -92 0
-228 81 141 94 244 199 97 -136 -25 201 0
-25 244 94 -106 -193 207 201 -136 199 -177 0
40 -37 -161 143 -100 104 0
49 1 -132 -154 133 215 89 0
185 -177 170 207 244 -136 199 -25 201 141 0
-102 -243 -139 206 -132 -101 -85 10 128 0
-97 -110 177 -38 190 -71 -187 0
-42 12 -160 -185 24 -173 -94 20 138 0
-187 153 88 39 -92 -130 -188 0
-43 46 186 -236 0
200 207 173 -51 -106 -199 -137 0
168 -26 -216 -60 40 -149 -124 11 -36 -161 -32 0
56 -76 -109 -156 130 -182 246 -5 -214 219 0
-90 -52 189 81 -138 -85 24 10 50 0
120 -175 -237 166 238 -162 183 -220 -250 0
189 -138 -52 10 24 -90 -85 50 157 0
-185 52 -61 205 -233 20 -94 12 -173 0
-82 -101 217 -102 -132 128 10 -243 206 0
168 -35 161 -59 0
-61 -123 -52 -138 -90 217 10 189 81 0
-193 244 -25 97 201 -12 -106 199 207 -136 0
-16 -225 -125 58 83 -39 -254 0
-208 -197 -55 17 -131 251 224 0
215 -132 -23 89 242 253 257 0
-138 -122 189 10 14 -90 81 -52 -62 0
-88 56 -109 -182 -214 -5 219 246 -249 -76 0
219 126 67 -13 56 -76 246 -5 -39 -182 0
134 31 -248 -116 58 254 182 0
-163 89 99 215 -154 242 -132 0
-216 -118 -161 -78 -149 -36 -60 11 -26 -80 40 0
249 -200 -189 -181 141 73 -201 13 212 156 0
82 139 -15 185 -132 -42 0
-244 173 -106 200 -137 -51 -232 0
-193 -136 199 97 -25 -96 244 201 141 94 0
-130 -187 88 -92 -86 39 -214 0
39 -6 69 3 -130 -187 88 0
169 -173 12 -185 -189 -42 -94 50 -15 0
-15 -123 -173 -61 -185 -94 12 205 90 0
81 201 -25 141 199 -177 94 244 -136 -228 0
-185 138 -62 20 24 -173 230 12 -94 0
-214 -248 31 254 -165 -116 182 0
199 71 -136 201 207 185 141 244 170 -25 0
17 111 241 46 -208 -158 251 0
167 17 -158 107 111 251 -208 0
90 73 25 51 141 156 249 13 211 -181 0
249 217 52 13 156 -199 73 51 141 -181 0
10 -90 -138 211 -52 -160 186 -193 189 0
212 -52 -90 -138 -202 189 170 235 10 0
71 141 201 173 207 244 -136 199 -193 -25 0
-135 109 145 112 -67 0
40 -26 -229 72 11 35 -216 213 -36 -149 -60 0
10 -101 -243 206 133 217 -139 -132 -102 0
-185 235 -28 12 -94 90 -233 -15 -173 0
46 241 251 -98 -208 17 -55 0
-181 73 212 13 138 249 137 -201 156 -106 0
-16 -125 -92 -254 130 -165 -225 0
-57 58 -39 116 83 -125 -16 0
-34 67 -106 -129 -88 165 -58 44 0
-44 125 -132 182 41 -195 -164 0
153 -92 54 69 -130 88 39 0
-160 -61 -90 -85 81 10 -52 189 -138 0
89 242 215 -163 -113 -132 99 0
-86 88 39 -147 -188 -187 -130 0
-145 -182 56 -88 246 219 -156 126 -5 -76 0
199 244 201 207 -25 -177 173 -136 81 141 0
73 13 90 136 -181 249 141 156 137 212 0
-173 205 -233 -61 20 -94 12 138 -185 0
249 141 51 136 13 156 212 138 73 -181 0
211 13 156 -200 249 90 141 73 136 -181 0
10 -90 -122 189 -193 50 212 -52 -138 0
-145 56 130 -76 -182 -156 126 219 246 -5 0
-25 -136 -106 -193 201 185 -96 97 199 244 0
-5 246 134 -76 -73 -182 56 219 -88 -112 0
211 -233 -52 10 -90 186 157 189 -138 0
20 205 24 -202 -185 138 -94 12 -173 0
-28 -94 186 -173 20 -62 -189 12 -185 0
82 -132 20 139 205 173 0
141 -25 -136 38 244 199 170 185 201 252 0
-76 -5 -145 -156 134 56 219 -88 246 -182 0
94 200 -106 -51 -244 207 -137 0
-36 -216 35 -60 -29 194 -26 -149 -78 11 40 0
146 251 17 -208 -22 -209 -95 0
-90 24 10 -138 -52 189 -37 -233 157 0
-96 -136 81 201 185 71 141 244 199 -25 0
-161 -60 -118 40 -124 -80 -26 -149 -36 11 -216 0
170 -123 147 6 92 -83 0
186 -185 12 -94 50 -173 52 20 -142 0
-88 -17 -231 77 -2 36 0
68 54 -3 14 -153 86 141 0
-165 -16 -6 -57 116 -125 -88 0
-81 -157 -132 1 -103 253 -170 -89 193 0
90 -244 73 141 13 -181 249 -200 -37 156 0
-193 -52 10 -90 -138 -123 189 24 212 0
20 90 -122 -173 -142 -185 12 -94 -123 0
-237 183 -250 238 120 -162 -103 166 -175 0
2 -17 -95 119 143 64 0
246 -76 181 -182 -5 -109 219 -39 -188 56 0
199 -106 71 -193 185 -136 244 207 -25 201 0
-76 -182 56 130 219 246 134 -73 -109 -5 0
-101 -132 -243 206 10 -139 -163 -37 -102 0
200 -244 94 -137 -51 -106 -96 0
-94 235 -15 12 -185 -142 -173 -202 90 0
199 -25 38 141 244 -228 -136 -193 201 -12 0
-177 201 207 -25 170 -136 199 141 244 94 0
156 136 -181 249 -106 -37 13 52 73 137 0
-119 -88 26 -17 77 -231 0
-12 -183 8 248 0
149 77 208 -231 -119 130 0
-201 173 200 -106 -137 -51 -96 0
138 12 -173 -185 -28 -94 -123 24 -15 0
12 -173 20 169 -202 138 -94 -185 -42 0
94 -215 224 -132 121 -221 110 150 0
-15 -62 -94 -189 -173 -185 12 235 -28 0
-193 189 10 -138 211 -90 -52 235 -62 0
-181 73 141 13 -189 -199 211 -200 156 249 0
-36 72 40 168 -60 -216 -161 -118 -26 11 -149 0
-204 -58 -106 165 -112 44 -39 210 0
-165 -92 -125 -16 -39 -225 248 0
-59 -229 161 -35 0
12 169 -189 205 -15 -173 -185 -94 50 0
-35 -9 -148 161 0
-95 167 -55 -22 17 251 -208 0
-181 -200 212 141 156 13 249 73 52 25 0
-251 -39 60 -2 -231 77 0
173 81 201 -136 -25 141 244 199 71 252 0
95 183 158 -172 43 197 25 -226 98 0
39 54 88 126 -92 -130 -68 0
-90 -122 212 -138 -62 10 -52 189 170 0
142 28 -230 42 178 -205 0
-112 130 -249 56 -5 246 -182 219 134 -76 0
-138 189 10 -90 212 -61 -52 170 -62 0
212 -106 138 73 137 -244 156 249 13 -181 0
52 13 -85 249 156 73 -181 141 -199 -200 0
-119 -11 -231 -17 77 -39 0
-46 186 -215 -12 -107 22 -224 -15 0
50 211 189 -52 -193 -90 -138 -122 10 0
-52 189 -90 -233 -122 -138 157 217 10 0
-17 77 -2 -231 -39 216 0
-61 -42 -94 12 -173 -185 20 50 90 0
-202 10 -20 15 90 0
52 -202 -185 230 20 -94 -122 -173 12 0
-29 35 -149 -26 -60 -216 -36 11 194 40 114 0
-185 12 -62 -94 -173 186 -142 90 20 0
-210 -203 134 -139 34 0
-52 10 -90 -37 -122 157 -138 -202 189 0
76 -195 -164 41 -132 125 58 0
-208 17 -131 -197 251 -55 -22 0
-141 152 -82 90 27 106 0
-65 -189 -82 152 -141 106 0
194 11 -161 -60 -29 -26 40 72 -36 -149 -216 0
-90 -138 10 -52 186 -85 81 -202 189 0
-173 -160 205 52 12 -185 -61 -94 -15 0
-82 30 -152 107 20 0
-185 20 -94 -160 -173 186 -142 12 52 0
48 126 226 -8 0
3 -130 -214 39 -147 -187 88 0
-254 -57 58 -125 -6 130 -16 0
-225 -165 -31 130 -16 -125 -6 0
-76 -109 56 -182 219 -73 130 -188 -5 246 0
-62 -15 -185 -42 169 -94 -173 12 90 0
24 20 -94 12 -62 -185 52 -142 -173 0
-198 -184 240 -77 45 -120 125 -87 0
-142 -27 -174 65 -255 0
-23 215 89 140 -163 -108 -132 0
-138 169 10 81 189 50 -90 -85 -52 0
73 13 156 136 141 137 249 14 -181 52 0
13 249 25 -181 137 90 -106 156 14 73 0
18 214 -126 -134 188 -177 -62 -69 0
-244 173 -51 -106 207 200 -137 0
-139 -210 69 34 -222 0
249 137 -106 13 -181 156 211 -244 73 138 0
-137 136 -106 173 -51 207 200 0
-173 52 205 50 12 -94 -185 -15 -61 0
173 200 25 207 -137 -106 -51 0
-58 -106 67 44 -129 130 165 -34 0
161 -35 127 -229 0
-25 -177 -12 81 201 -232 141 -136 199 244 0
-152 -15 -82 -22 -196 0
-112 225 -88 57 -202 0
174 -189 -82 -141 106 152 0
14 249 -181 73 138 156 13 -106 -199 137 0
253 140 215 -163 89 -132 -23 0
-28 -15 186 -185 -94 -173 12 -202 -189 0
157 94 252 244 199 -136 -106 -190 201 -25 0
-39 -34 -204 165 -58 44 -106 -109 0
134 88 -68 -187 -130 83 39 0
50 235 10 -138 -52 -90 14 81 189 0
-153 86 -3 -187 68 14 141 0
-235 -169 122 -186 61 -227 81 -24 -89 0
12 -185 186 -173 -15 -123 -142 52 -94 0
-189 -94 -173 12 -123 -185 -15 -42 24 0
-22 -95 17 -208 -131 251 -55 0
225 130 -145 57 -123 0
-227 -215 -10 0
-235 -24 61 -89 122 -169 -47 157 -186 0
-123 -173 -94 230 12 -122 -185 -15 138 0
-122 -173 -94 -185 -28 12 20 138 50 0
141 73 14 25 137 13 156 -181 249 -189 0
215 -23 89 1 257 -132 253 0
159 -157 1 -81 -215 -154 -132 -170 193 0
81 141 201 -12 -25 -136 207 199 -177 244 0
-61 217 -52 -138 170 50 -90 10 189 0
9 40 -53 48 -127 143 -244 59 0
57 225 -123 130 -109 0
-142 -173 90 -94 169 -185 -15 -160 12 0
-201 -127 -108 59 9 238 -53 40 0
51 141 73 156 13 249 90 -181 217 -244 0
-173 -94 -185 -15 90 -61 230 50 12 0
-185 20 138 235 -233 12 -94 -173 205 0
52 -233 20 24 -28 -185 12 -94 -173 0
-232 -106 -25 199 -12 -190 201 -136 244 -193 0
1 257 89 -132 215 -23 48 0
81 10 211 -90 -233 189 -138 -52 169 0
-42 235 -173 -94 -233 90 -15 -185 12 0
-185 -160 -173 90 -15 -94 24 12 -42 0
186 -202 -90 189 10 -52 217 81 -138 0
-122 -185 -123 -94 -189 -173 20 -142 12 0
-137 -106 185 -201 -51 -232 200 0
-61 170 -52 212 -90 10 -202 189 -138 0
10 -101 -243 -139 206 -132 -102 217 257 0
-202 -173 235 -185 12 230 20 -94 138 0
141 244 199 -228 -25 201 -136 97 -12 -193 0
-137 -96 -12 -201 -106 200 -51 0
-96 -51 136 -137 141 185 200 0
12 -185 -122 -94 52 20 205 -62 -173 0
206 -82 -132 -101 10 211 -243 -102 133 0
-136 244 141 199 97 201 -25 81 -12 -228 0
40 104 35 143 -100 -37 0
-233 217 186 10 -138 -52 157 189 -90 0
-106 -199 173 -228 -137 -51 200 0
210 44 165 -106 -129 -58 -88 -145 0
12 -185 -94 235 -15 -173 50 90 205 0
40 -36 -149 -216 -32 -26 -161 -124 -229 -60 11 0
-132 -23 89 215 133 -154 1 0
-208 17 111 251 46 167 -197 0
252 200 -137 94 141 -199 -51 0
-185 -173 186 -42 -123 52 20 12 -94 0
-173 -185 138 -123 12 205 186 20 -94 0
73 156 -106 25 -200 249 -181 14 -189 13 0
199 244 -25 -193 201 -177 -136 252 -106 94 0
50 -189 235 -28 -15 -94 12 -173 -185 0
248 -125 -44 -16 -225 130 83 0
-173 -185 -15 -202 -94 205 186 52 12 0
83 130 -225 -31 -16 -125 -44 0
-43 224 -236 -122 0
189 -202 -90 81 -37 -61 -138 10 -52 0
-183 -31 -12 -226 0
-138 189 -52 14 10 -193 186 -202 -90 0
-165 -16 -225 248 -125 -147 -88 0
-46 -15 -224 22 94 -107 -89 186 0
156 52 249 212 -201 -181 137 13 -106 73 0
134 254 31 -116 -248 76 -44 0
170 -136 141 244 -25 201 -232 199 97 185 0
-62 -90 157 -52 10 -138 217 -122 189 0
-90 24 -138 189 10 50 -52 212 157 0
-181 141 249 -85 90 -200 13 73 156 136 0
-123 20 12 -173 -185 -28 52 -94 24 0
-208 251 -197 167 -209 224 17 0
-94 -42 -173 -160 -185 -15 -61 90 12 0
91 -26 11 -29 35 -36 -60 40 -216 -124 -149 0
205 20 -173 12 -94 24 -160 -185 90 0
152 138 -141 27 106 -139 0
-132 89 -154 215 242 49 128 0
123 233 -50 178 62 160 202 0
-42 169 -94 -189 12 -15 -185 -233 -173 0
200 -51 -199 -96 -12 141 -137 0
252 94 244 157 199 -136 201 -25 71 -106 0
-5 246 -39 -182 -145 -76 56 -73 219 -214 0
49 -163 1 215 -132 89 48 0
-173 -185 230 -94 -122 -15 52 12 -160 0
111 -22 -197 251 17 -131 -208 0
-88 -231 60 77 -251 -119 0
-201 252 173 200 -51 -137 141 0
-207 -252 27 -163 228 54 96 232 0
-6 -16 -225 -254 130 58 -125 0
-138 -90 212 186 10 81 189 -160 -52 0
138 -173 24 -185 -15 -123 -94 12 -42 0
104 143 212 35 -100 40 0
-25 -136 141 38 157 173 244 199 207 201 0
-181 73 249 52 -106 156 13 51 -244 -37 0
54 -130 39 3 88 126 83 0
-12 199 -190 201 -193 244 -106 -228 -25 -136 0
-61 -90 189 10 -160 -52 14 -138 157 0
-12 200 -137 141 -51 207 -199 0
90 -160 -28 12 20 235 -94 -185 -173 0
-165 -88 -6 -16 -125 -254 -57 0
-111 141 55 209 -89 -15 0
199 -136 201 -106 173 -25 -232 97 244 81 0
201 244 173 -136 252 157 -25 97 -106 199 0
217 156 25 51 -189 -106 249 73 -181 13 0
-28 187 -82 255 -54 0
-16 83 116 -57 -125 -88 -165 0
198 105 19 0
108 -179 113 154 140 -253 -48 128 0
-200 -181 73 138 141 -201 156 249 14 13 0
-94 90 -173 12 -160 -142 24 20 -185 0
138 73 13 -200 -181 156 141 -199 217 249 0
-123 -90 -138 -52 189 10 81 -37 -61 0
130 208 77 -11 -231 -119 0
-39 -231 -17 77 -2 -11 0
-173 -94 52 -122 230 12 -233 -185 20 0
-94 -173 12 -233 138 -15 205 -61 -185 0
-73 -88 69 219 56 -112 -76 -5 246 -182 0
257 253 140 -132 89 215 99 0
-181 73 52 51 249 -37 141 156 25 13 0
90 15 10 -233 -20 0
169 -62 20 -42 -94 -185 138 12 -173 0
252 185 -136 141 244 201 170 -25 71 199 0
-192 -180 -206 0
-90 189 170 10 -138 -85 -122 -160 -52 0
-157 -108 193 -132 140 -215 -179 -81 -170 0
232 255 -252 228 54 -207 257 96 0
20 -185 -61 52 12 -173 -142 -202 -94 0
-36 194 -26 -216 40 11 114 -161 -60 -149 168 0
24 -94 230 -185 -173 -62 20 12 52 0
-173 90 -15 -142 -202 12 -94 -61 -185 0
-16 -165 -125 -57 -31 83 130 0
-185 -94 -15 -142 -122 90 12 -173 -233 0
-147 -88 -31 -16 -44 -225 -125 0
-173 -142 -185 -62 169 -15 -189 12 -94 0
201 -136 -190 -106 207 244 199 173 -25 157 0
94 157 71 -136 -228 201 -25 141 199 244 0
244 201 199 -25 71 185 -136 81 -106 -96 0
17 251 -95 146 -208 -55 107 0
156 212 -189 73 249 141 137 13 -181 -199 0
-175 -162 -237 143 -103 120 -256 166 183 0
-15 12 186 -173 -202 -189 -94 -142 -185 0
-185 -94 50 -28 -173 -15 12 -189 -61 0
101 -180 75 0
10 217 -61 -138 -123 -193 -52 -90 189 0
156 13 249 73 -199 -200 -181 -189 141 -85 0
253 136 -53 59 -127 9 143 40 0
137 249 -199 13 73 141 217 -181 -189 156 0
-90 -202 -52 81 -138 189 10 235 217 0
-132 99 133 89 -113 242 215 0
52 186 -28 -173 -15 12 -185 -123 -94 0
-92 54 134 -130 -68 88 39 0
-57 58 -16 116 -147 -88 -125 0
49 128 215 140 -113 -132 89 0
10 -82 -243 -85 257 -102 -101 -132 206 0
-137 -51 200 141 25 94 -96 0
-236 107 169 -43 0
34 178 -188 -139 -210 0
81 71 94 -136 141 199 -232 -25 201 244 0
13 211 73 -201 137 52 -181 141 156 249 0
169 12 -15 -94 90 -185 -173 -42 50 0
136 156 90 -37 51 141 -181 13 73 249 0
147 -83 92 157 -202 6 0
-252 128 96 54 228 232 -65 -207 0
-106 244 199 -96 -136 -12 81 201 38 -25 0
-185 -94 90 12 50 -28 -173 20 169 0
185 -25 -177 199 201 -136 244 157 -106 252 0
141 -37 -189 -181 13 51 73 -244 156 249 0
-25 -106 244 94 201 -177 199 -136 81 -232 0
89 128 140 48 99 -132 215 0
235 -90 -52 170 189 -138 -233 10 212 0
-82 -247 34 134 -210 0
10 -90 81 -61 217 -62 189 -138 -52 0
-190 173 201 81 -25 -136 199 -106 244 -96 0
-92 -88 -125 -16 116 -44 -225 0
-188 31 76 58 -116 -248 254 0
-132 215 -163 89 -154 1 49 0
246 219 69 -182 -156 67 56 -5 -39 -76 0
-76 -249 -182 219 -5 -109 126 56 -39 246 0
-94 -202 169 -173 138 -185 20 -28 12 0
189 211 10 -122 -193 -52 -90 -62 -138 0
-145 69 -73 246 56 -76 -5 130 219 -182 0
-52 10 170 -90 50 -138 189 14 -122 0
246 -73 130 126 -76 -5 219 56 67 -182 0
20 12 -189 50 -42 186 -173 -185 -94 0
18 50 -177 -134 -69 214 188 -126 0
12 20 138 -62 235 -94 -173 205 -185 0
7 -152 46 -15 -139 0
-112 -5 -182 219 246 -13 -88 56 -76 69 0
-185 12 -28 -15 -94 -173 -233 186 90 0
90 -94 -173 -122 12 -185 -15 -202 230 0
190 -71 177 -150 54 -97 -38 0
149 -17 77 -231 -119 -88 0
219 -39 246 181 -76 -109 -214 56 -182 -5 0
-147 -88 -125 -225 -44 -16 248 0
-39 141 44 -129 -109 165 -58 -34 0
-88 60 -251 -231 -2 77 0
-173 -94 -123 205 -185 12 -61 20 138 0
-61 20 -215 -12 22 -224 -46 -107 0
-28 -94 -62 20 -185 186 12 -173 90 0
50 20 -173 -42 -94 12 -122 138 -185 0
-173 -185 -122 230 20 -160 -94 12 90 0
-171 -63 -244 -234 -93 -187 115 -191 -256 0
171 66 180 0
226 253 -18 -8 0
-182 246 67 -88 -5 -76 56 -249 126 219 0
-130 54 134 -86 88 -6 39 0
-25 199 244 -106 -232 97 -136 170 201 -12 0
-181 13 51 73 156 14 136 141 90 249 0
-138 189 81 -90 212 -52 235 10 -202 0
-202 -90 -193 212 -138 186 10 -52 189 0
130 248 58 -147 -225 -125 -16 0
52 -15 -123 12 -94 -173 -142 -61 -185 0
-89 48 193 -132 -170 -103 1 -81 -157 0
-16 -225 -125 58 130 248 83 0
52 -94 12 -173 -122 -15 -202 -42 -185 0
122 157 -47 -169 -24 -186 61 -235 -215 0
-187 211 -3 86 -106 -153 68 0
153 69 54 88 -130 39 -147 0
-39 50 225 57 67 0
-182 -5 219 -156 -76 69 -145 -88 246 56 0
-90 10 -62 186 170 -138 189 211 -52 0
235 205 -185 -189 12 -173 -233 -15 -94 0
-139 34 -203 -210 126 0
156 13 249 -106 -199 -189 -181 73 51 -85 0
-177 244 199 -232 -136 -106 -25 157 201 185 0
-90 -52 -233 10 186 -37 189 -138 -193 0
-107 -215 22 186 20 94 -46 -224 0
-136 201 -25 244 199 157 141 173 -228 97 0
-142 -61 -173 12 -15 -185 -94 50 138 0
81 -138 -52 -122 189 -160 10 -90 -85 0
211 -202 -138 -52 157 189 -90 10 -61 0
-173 12 -94 -142 169 -15 -123 138 -185 0
-138 -122 14 10 -52 81 -202 189 -90 0
-244 156 -37 73 13 249 51 -181 90 141 0
230 -15 -202 -189 -185 -94 12 -173 186 0
10 -233 189 169 170 -90 -138 14 -52 0
167 224 -208 17 -55 251 -197 0
-39 50 -145 57 225 0
-142 138 50 -185 -173 12 -94 186 -15 0
126 -147 -130 54 88 153 39 0
12 138 20 -185 169 -173 -94 -62 230 0
40 -149 91 -60 -26 -216 11 -80 -161 -78 -36 0
215 89 -113 99 -163 -132 1 0
48 89 99 -132 215 242 128 0
-190 141 201 199 -25 244 -136 252 185 157 0
137 249 73 52 141 217 13 156 -244 -181 0
56 246 219 -18 130 -5 -249 -182 -76 -145 0
-15 -160 -94 -142 -185 -173 52 24 12 0
12 -15 235 50 -185 138 -173 -94 -42 0
205 52 12 20 -173 -185 -94 -160 -61 0
-124 -60 -216 -36 40 -33 11 -26 35 -149 168 0
12 90 235 20 -94 -173 -142 -185 -160 0
-201 -51 200 94 207 -106 -137 0
-161 -148 11 -60 40 -216 -149 194 -26 114 -36 0
206 -243 10 -102 128 217 -132 -139 -101 0
116 -147 -225 -125 -88 -44 -16 0
-185 138 -160 205 20 12 -173 -94 169 0
-193 50 -90 186 -138 10 189 -52 212 0
90 137 141 156 73 -85 249 136 13 -181 0
130 246 56 -182 219 -76 -156 -112 -5 -214 0
116 -16 -125 -57 58 -147 130 0
-136 -106 97 -12 244 -96 201 -25 170 199 0
-220 -162 183 -175 155 120 -237 166 -256 0
-185 205 -94 138 -15 -122 -173 12 -62 0
-77 175 -184 -87 240 45 -198 16 0
242 -163 -108 215 -132 49 89 0
-90 189 -61 211 -138 10 157 -233 -52 0
10 24 157 -233 211 -138 -52 189 -90 0
-185 -189 230 -94 24 -173 -160 -15 12 0
-231 130 26 -251 -64 77 0
136 249 -181 52 13 -37 51 156 141 73 0
-90 189 -52 -233 24 -37 -138 10 -193 0
-28 -202 52 -185 -122 -94 -173 -15 12 0
12 -61 -15 -185 205 -173 -202 -94 90 0
244 -136 81 199 -228 -190 201 185 -106 -25 0
138 249 51 136 -85 13 156 73 141 -181 0
-52 -138 -90 186 157 -202 10 189 217 0
-90 -52 -138 -123 189 10 24 170 212 0
-181 -199 249 138 -106 73 51 211 13 156 0
-5 -182 56 -214 130 246 -145 219 -76 -13 0
136 138 249 13 -181 -106 -37 51 73 156 0
201 -136 244 94 141 199 38 157 -25 207 0
73 -181 249 136 52 13 51 141 156 14 0
90 -142 169 -94 20 -185 12 -173 -202 0
238 136 40 59 -53 -127 -108 9 0
-122 -94 -160 -15 -185 12 -173 -28 90 0
50 -173 12 24 20 -185 -189 -42 -94 0
178 -210 69 34 -139 0
235 50 -15 -94 12 -185 -173 -142 138 0
130 225 -62 57 -145 0
201 244 -193 199 -136 71 -25 173 -232 -106 0
197 158 43 -172 183 98 136 95 -226 0
5 -146 -241 -88 -167 131 -89 0
248 -39 -165 -6 -125 -57 -16 0
-161 -149 -36 -78 -60 11 -29 40 -26 -118 -216 0
-96 199 -12 141 244 -193 -136 -25 -177 201 0
1 89 215 -132 -163 99 253 0
-190 199 81 141 244 -25 -136 185 252 201 0
-251 60 -231 130 -2 77 0
205 -94 -15 12 52 -185 -122 -173 -233 0
-25 -177 -106 244 185 199 252 -136 201 81 0
12 205 138 186 -15 -94 -173 -185 -123 0
-181 249 13 -189 -244 156 137 -106 211 73 0
-52 -138 -90 169 189 212 157 10 -160 0
56 -39 -5 246 -76 -145 -182 -13 219 69 0
-165 -16 130 -125 116 -147 -57 0
-209 251 46 -208 17 -158 241 0
106 -141 138 152 -82 -65 0
52 -160 12 -185 -94 186 -15 -173 -28 0
-160 -15 24 -185 205 -189 -94 12 -173 0
134 -76 -156 67 246 -182 56 -39 219 -5 0
-90 -138 186 10 -123 157 189 211 -52 0
170 189 -90 -52 -138 -122 -160 10 -37 0
-61 107 -43 -236 0
242 215 128 -154 99 89 -132 0
-88 165 141 44 -109 -129 210 -58 0
20 -28 -94 -185 -122 -189 12 -173 -160 0
-215 61 -169 -186 -193 122 30 -24 -235 0
-94 138 169 -185 230 -173 12 -15 -233 0
-57 -165 -88 -125 -31 -6 -16 0
27 187 -142 -82 -54 0
-232 -137 -51 -106 25 173 200 0
-6 -130 -86 39 54 88 126 0
201 199 38 -136 244 81 -106 207 -25 -12 0
-188 54 39 -86 -130 88 -92 0
-116 126 -44 254 -248 31 -246 0
17 167 -208 -158 251 -55 -22 0
-160 189 -138 -193 -52 217 -90 10 -61 0
-132 193 242 -215 -81 159 -170 253 -157 0
20 -28 52 12 -185 -173 -62 169 -94 0
170 10 -90 189 -138 -52 217 -202 -122 0
31 182 -44 -116 254 126 -248 0
189 -90 14 157 -52 -123 169 10 -138 0
-177 199 -12 -193 201 -136 141 -232 244 -25 0
-167 -88 131 182 -146 -89 -241 0
-181 156 136 73 141 249 -200 13 217 138 0
76 -39 -89 -146 131 -167 -241 0
-138 -193 -52 -202 10 -37 189 169 -90 0
-90 189 -52 -233 -138 186 10 81 -37 0
156 137 73 52 -181 14 -106 25 249 13 0
226 253 -214 -8 0
97 173 201 -106 -193 -136 244 199 -25 -228 0
12 138 -28 -185 24 -173 -94 20 -202 0
73 249 25 -181 212 -106 -189 156 51 13 0
90 -173 -233 -15 205 186 12 -185 -94 0
156 -201 -181 249 -200 -189 -106 -85 13 73 0
-181 14 73 52 141 13 249 25 156 137 0
-106 -136 244 199 81 -12 201 -25 38 -228 0
-173 -185 12 -94 -142 50 20 -189 186 0
173 81 -25 201 207 97 -136 141 199 244 0
-173 -185 -61 138 20 -123 12 -28 -94 0
-232 199 97 141 157 201 244 -136 -25 94 0
235 -62 -90 170 -52 -138 10 189 -85 0
199 -96 141 201 244 -12 -25 -190 -136 81 0
-92 -125 -225 58 -16 -254 130 0
-154 155 40 9 -127 59 -53 -244 0
-224 -107 20 -46 173 22 -89 235 0
-251 36 130 -2 77 -231 0
186 20 -160 -42 -185 -94 -189 -173 12 0
-227 224 -152 -139 -15 0
190 54 177 -71 221 -97 -38 0
244 -12 -25 -106 207 170 97 -136 199 201 0
-182 -5 -76 56 219 -88 246 -145 181 134 0
-181 -106 156 211 51 13 52 136 249 73 0
-17 -39 149 -231 -64 77 0
-114 124 -2 -74 78 -72 -86 0
90 -185 -173 -160 205 235 -94 20 12 0
185 -215 -15 -61 -46 -224 -107 22 0
83 -86 39 134 88 54 -130 0
20 22 -46 -107 -122 -215 185 -224 0
201 -232 244 199 94 -25 38 -136 141 -193 0
-130 83 39 -68 126 54 88 0
-89 193 -170 -132 -157 -154 -103 -81 1 0
244 -232 -25 141 38 199 -12 170 -136 201 0
-12 200 -137 -199 -51 -106 -228 0
-106 156 73 13 138 212 -200 -181 249 -199 0
-152 -82 -15 -47 -22 0
-157 -154 193 -132 -170 -220 -81 -89 140 0
141 170 201 -232 173 -25 -136 244 199 -190 0
-87 -120 231 -198 125 240 -184 45 0
141 157 -136 201 199 38 -25 173 244 252 0
-37 189 -90 50 -138 10 -122 -52 157 0
13 156 211 -244 -181 51 138 73 141 249 0
90 -185 12 -15 -173 186 -94 205 -202 0
72 -32 -216 -148 -26 11 -60 -36 -149 -161 40 0
-94 -173 205 -185 24 12 -160 90 -15 0
-22 -236 -43 24 0
-62 90 -122 -142 -15 -185 -94 -173 12 0
-182 -73 56 219 246 -76 130 134 -5 -112 0
-173 24 -185 90 230 -62 -94 12 20 0
-181 73 -199 -106 90 13 156 212 137 249 0
-94 -160 -173 205 -15 52 12 169 -185 0
213 -80 -60 -26 -216 40 11 -78 -36 35 -149 0
217 -100 -161 40 104 238 0
-123 10 189 24 81 -52 -138 -90 -85 0
-136 199 -232 141 -25 244 -190 185 -193 201 0
252 -136 97 201 199 -12 141 157 244 -25 0
-25 38 201 244 -193 -136 199 -106 173 -232 0
35 -80 -60 -26 -149 11 72 40 91 -216 -36 0
156 73 -200 249 -181 -37 13 136 -189 -106 0
205 -173 -15 -185 12 -94 138 -202 -122 0
-52 -193 10 -138 -90 189 14 169 50 0
-136 -12 244 141 157 199 -25 201 -96 -177 0
52 169 -28 50 -94 -185 12 20 -173 0
-214 -116 76 254 31 -248 58 0
170 -90 14 -138 -202 -52 189 10 -61 0
-39 225 -233 67 57 0
141 -85 25 249 51 73 -181 13 156 138 0
50 57 -88 -109 225 0
-162 120 155 -220 -250 166 -175 183 -237 0
-189 24 -160 -173 -94 -142 12 -15 -185 0
-137 -106 -199 94 200 -51 252 0
-62 -15 -173 -185 12 -189 -94 -122 -42 0
12 -94 -142 52 -160 20 -173 -185 -122 0
24 12 90 -28 -185 -94 50 -15 -173 0
201 252 -25 157 141 244 97 94 -136 199 0
-89 30 -10 0
-57 116 -147 -44 -125 -16 130 0
-102 -243 -82 217 -132 -101 133 10 206 0
77 -64 26 208 -88 -231 0
-112 130 44 -58 141 -204 165 210 0
20 -142 -123 -173 138 169 -185 12 -94 0
235 -142 -202 20 -173 -185 -94 90 12 0
-106 -201 252 -51 200 173 -137 0
251 -158 -55 -131 17 224 -208 0
189 -90 10 -138 -52 235 50 -85 170 0
-90 235 -52 -138 189 -193 -123 10 212 0
24 10 -193 211 -52 -90 -138 189 -202 0
251 241 -95 17 -55 -22 -208 0
-94 12 -185 -61 -189 -173 -202 -15 -142 0
-62 138 -15 -94 -173 12 -42 -61 -185 0
189 -90 14 -52 -123 170 235 -138 10 0
56 219 130 -76 -73 -182 -5 246 -109 -214 0
13 73 136 -181 51 217 141 156 138 249 0
-138 10 189 24 -62 170 -37 -52 -90 0
-73 -214 -76 -182 -109 -88 -5 219 246 56 0
-16 -39 -225 -125 -6 -254 -44 0
170 -196 61 122 -235 -89 -24 -186 -169 0
56 126 -182 219 -13 246 -5 -145 130 -76 0
113 140 -48 154 108 -253 -220 133 0
-147 -16 -165 -225 130 248 -125 0
-15 12 235 230 -94 -185 -189 -173 -202 0
130 216 -231 77 -2 -17 0
-189 -94 12 20 -61 -202 -173 -142 -185 0
-61 189 -90 10 157 -52 -123 -138 14 0
38 -96 -193 -25 201 199 -106 185 244 -136 0
90 -94 -233 -61 -173 -185 -15 -142 12 0
-25 94 -136 -193 244 -190 207 199 141 201 0
-185 20 12 -94 -61 -189 -42 -160 -173 0
-39 57 225 -233 -112 0
-125 -31 -16 -92 -165 130 -57 0
12 -94 -233 -185 -142 20 186 -189 -173 0
-52 -90 157 10 217 50 24 -138 189 0
-15 -185 -173 12 -202 138 205 -94 24 0
150 -22 121 -12 110 -221 -132 -215 0
-18 34 -210 178 -82 0
-182 -13 246 -214 -109 130 56 -76 219 -5 0
-173 -160 186 20 230 12 -94 -185 138 0
122 61 -169 -89 -235 -186 -193 -47 -24 0
-136 157 199 201 97 185 -25 244 -228 141 0
146 17 -208 -209 -22 251 -197 0
226 -8 253 69 0
14 13 -106 249 -181 73 -200 156 52 -201 0
244 -25 173 201 170 -136 71 141 199 -228 0
189 81 10 -233 -52 -138 186 211 -90 0
52 249 141 73 13 137 211 25 156 -181 0
156 141 73 136 13 90 249 217 -181 137 0
73 -181 13 -201 156 137 249 217 -189 -106 0
56 130 219 246 126 -76 -5 67 -182 -156 0
215 140 -132 128 49 89 253 0
-132 242 253 89 215 99 133 0
-15 -122 -173 205 90 12 -94 -233 -185 0
212 50 81 -52 -138 189 -90 10 -122 0
94 -190 -136 -25 244 199 -106 157 201 -228 0
14 -138 189 10 -52 -193 -123 -122 -90 0
-46 20 22 -12 24 -107 -89 -224 0
201 141 -25 71 244 199 252 -193 185 -136 0
3 39 88 -130 -6 54 126 0
12 -173 24 230 -123 138 20 -94 -185 0
189 169 -138 -52 -90 -62 81 10 -37 0
-215 173 24 22 -224 -107 -15 -46 0
50 -52 189 217 10 -193 169 -138 -90 0
31 254 134 -248 76 58 -116 0
-90 -138 170 -123 -122 217 189 -52 10 0
157 10 189 14 -52 -90 -160 169 -138 0
48 -127 155 -53 9 40 136 59 0
-61 -215 20 -107 -46 22 -224 94 0
189 -233 -90 -85 -52 170 -138 10 -122 0
-132 128 -108 89 1 215 49 0
-173 -94 52 -122 -233 12 20 205 -185 0
-147 -187 -130 134 39 88 -86 0
-94 -123 12 52 205 -173 24 -185 -15 0
251 224 -158 -208 17 146 -55 0
204 129 -34 -112 0
51 -181 212 141 13 73 249 156 -244 -189 0
235 189 -202 -85 -90 -138 -52 10 -193 0
-122 -94 138 50 12 -185 205 -173 20 0
31 254 -18 -246 -248 -44 -116 0
-37 -181 -244 156 90 -200 13 249 73 -106 0
-76 219 -182 -214 246 -5 56 -145 -39 181 0
-2 -231 36 208 77 -39 0
-5 -88 -249 246 56 126 219 -182 -76 -112 0
211 170 -138 10 189 -52 -90 -123 169 0
12 -173 50 -189 -185 230 186 -94 20 0
13 249 -200 25 73 156 141 52 217 -181 0
-15 -61 52 12 230 -173 -202 -185 -94 0
157 -138 189 -62 -52 217 10 -61 -90 0
-52 170 -233 -90 169 189 10 -37 -138 0
-89 -132 -81 253 -179 -170 1 -157 193 0
244 173 199 -25 207 -136 201 -106 97 170 0
-200 156 73 -181 249 -201 217 -189 13 141 0
186 -94 -62 20 -185 -173 12 90 205 0
-89 140 -157 -113 193 -81 -132 -170 159 0
-232 -136 199 -25 -177 170 185 244 -106 201 0
-106 138 156 51 -181 13 73 217 -244 249 0
40 -161 -216 11 -148 -33 -149 -26 114 -60 -36 0
147 92 -83 6 170 -62 0
24 211 -138 -123 189 -52 10 157 -90 0
-3 -153 86 -106 -187 68 -37 0
73 52 -106 -200 212 13 249 156 -181 136 0
-177 -25 185 81 199 -136 141 244 -96 201 0
-200 -201 217 73 -106 249 138 13 156 -181 0
199 -136 -25 173 38 -96 -193 244 141 201 0
12 -233 -189 -94 -15 -185 -173 230 24 0
-214 -108 -8 226 0
10 -123 -52 -90 -138 186 157 14 189 0
-199 141 200 -137 -12 252 -51 0
156 13 73 90 -181 137 25 249 -106 -37 0
249 13 -181 141 156 137 90 73 -85 25 0
-58 -204 67 130 165 -106 210 44 0
89 253 -23 -132 128 1 215 0
20 169 -173 50 -94 -42 -185 52 12 0
-244 14 13 249 -200 156 141 73 -189 -181 0
-208 -22 251 17 241 -209 -98 0
-25 170 38 -12 -106 201 -228 199 244 -136 0
-251 77 -2 -231 149 -39 0
169 20 -42 138 -94 -123 -173 12 -185 0
-214 254 5 -44 -116 31 -248 0
-227 -235 -186 -215 61 -24 122 -169 -193 0
157 -138 -37 10 235 -90 -123 -52 189 0
-42 12 -94 20 -62 -185 -173 -189 -61 0
35 40 -26 -148 -36 -60 -149 -118 -216 74 11 0
-187 88 -6 39 -130 153 134 0
-233 225 130 57 -145 0
-233 -142 -94 -122 -185 -173 20 12 52 0
-185 230 52 -94 12 -233 20 -173 186 0
-57 -125 58 130 -16 -6 248 0
-256 115 -234 -191 -63 54 -171 -93 25 0
-122 189 -138 212 -52 -90 10 170 -233 0
-81 253 193 -220 -89 -132 -170 -157 140 0
-224 -46 -122 -15 -107 173 22 -215 0
7 -169 -89 -186 157 -24 -235 61 122 0
12 24 -15 -94 -173 -142 -123 -185 90 0
-165 -57 -125 -39 -31 -147 -16 0
-122 -185 -42 20 -94 -173 90 -62 12 0
-25 -136 -193 71 207 199 201 244 -106 -12 0
89 215 133 1 -132 -23 253 0
199 -136 173 -25 81 -106 207 -190 201 244 0
-173 -185 -42 -189 20 12 -94 169 -202 0
-16 130 -147 -225 -44 -125 248 0
-165 254 -116 31 -248 76 -188 0
186 211 10 50 189 157 -52 -138 -90 0
-25 -136 201 -96 173 244 -193 199 -190 141 0
-62 12 -15 -173 -122 -94 -189 -142 -185 0
-123 170 189 -90 212 10 -138 235 -52 0
90 -142 -94 12 186 -15 -173 -202 -185 0
-123 -39 57 225 67 0
-215 110 107 -221 -12 150 -132 121 0
12 -42 138 -173 186 -94 -160 -185 -15 0
201 -106 -177 -136 -96 170 244 199 173 -25 0
-88 -92 116 -125 58 -16 -225 0
-15 50 169 -94 -173 -142 -185 12 -189 0
154 -253 108 -48 159 242 128 113 0
-113 238 -201 59 -127 9 -53 40 0
20 -139 -22 -152 30 0
-106 -88 -204 165 44 -58 -34 -109 0
-52 24 10 50 81 -90 -138 212 189 0
156 212 13 -181 249 137 -106 138 -199 73 0
-136 -25 -12 -106 97 201 -193 199 244 252 0
-94 -189 -173 205 -62 12 169 -185 20 0
-76 67 -88 69 -182 -5 219 246 -249 56 0
-136 -106 244 81 201 -232 -25 97 199 185 0
249 -199 -181 212 73 -200 -106 -189 13 156 0
-173 -94 20 12 169 -189 205 -233 -185 0
12 -94 230 -185 -122 -123 20 -173 52 0
-16 -39 248 -57 -125 -92 -44 0
-60 -216 -29 -36 -161 40 11 -124 -32 -149 -26 0
211 24 10 50 -90 189 -52 -138 170 0
12 -173 24 -185 20 52 50 -94 -142 0
-173 24 -160 -185 90 -94 12 230 -15 0
-81 -170 -157 1 193 -215 -154 -220 -132 0
-25 97 -136 141 244 -12 81 201 -96 199 0
235 -185 -123 -173 12 205 -189 -94 20 0
-34 165 -58 -39 -112 44 -106 -129 0
-12 71 -232 244 141 -25 201 199 -136 81 0
141 -232 199 -136 173 38 -25 244 157 201 0
17 107 -209 -208 251 241 -98 0
200 -244 -137 -232 -51 141 -12 0
34 -210 -214 178 -139 0
-233 -138 169 10 -90 -52 189 -193 14 0
12 -173 -94 -185 20 235 -142 50 -189 0
-249 -182 -5 -88 246 134 56 -109 219 -76 0
-185 -15 12 -42 -122 -233 52 -173 -94 0
230 -160 -185 52 -173 20 -94 24 12 0
-106 244 38 -25 -136 170 -232 185 199 201 0
89 257 242 99 -154 215 -132 0
-142 -132 -15 139 82 185 0
244 141 -190 81 199 185 -25 -228 -136 201 0
71 173 199 -193 -25 141 244 201 -136 -228 0
157 -90 189 -202 10 -52 -138 212 -61 0
-89 157 30 -186 -24 61 -235 122 -169 0
-6 -125 -31 -88 58 -57 -16 0
230 139 -132 82 -15 173 0
24 12 -185 -42 20 -94 52 -173 -233 0
-106 -25 244 157 201 -136 -228 38 199 173 0
-173 20 -185 -62 -94 -189 205 -61 12 0
-96 -25 -136 199 185 141 244 -190 157 201 0
-132 140 48 215 257 -23 89 0
-18 -139 34 -210 117 0
14 52 156 -199 -106 -181 249 13 137 73 0
-185 90 -94 12 20 169 -202 -42 -173 0
210 -58 -204 141 130 -145 165 44 0
-118 11 -161 -216 -36 -60 40 -26 168 -149 114 0
-232 -106 201 244 185 -25 97 199 170 -136 0
136 200 -137 -106 185 -51 -232 0
-231 -39 -119 -251 36 77 0
-185 12 20 -61 -173 50 -94 -28 52 0
-68 69 -6 39 88 -130 54 0
-39 -231 77 -17 -2 60 0
-85 -122 -62 -138 -52 10 170 189 -90 0
-173 -202 -15 52 -142 -185 -94 186 12 0
-78 -161 -149 -216 11 -118 -36 -26 40 -148 -60 0
-94 -42 -202 12 20 -185 -173 52 -122 0
-15 -233 -185 -94 138 12 235 -42 -173 0
135 4 84 144 -245 -239 0
22 -122 -12 -224 -46 -15 -215 -107 0
-15 -185 90 -173 205 169 12 -123 -94 0
257 108 154 -253 1 -220 -48 113 0
200 94 141 -51 -199 -96 -137 0
235 20 -94 230 -160 -173 -185 52 12 0
-57 130 -254 -125 -16 -44 -6 0
52 -185 -233 -94 205 186 -15 12 -173 0
185 199 -136 244 170 -106 -25 38 -96 201 0
-173 -94 12 -233 -142 -185 24 -189 -15 0
40 -216 11 -118 35 -36 -80 -149 -124 -60 -26 0
-152 -196 46 20 -82 0
156 13 212 -201 -106 -181 52 73 249 51 0
-15 22 -89 -107 -12 -224 -46 169 0
-208 251 -197 146 46 17 -209 0
34 -210 -139 -223 126 0
207 141 94 170 -136 201 244 38 -25 199 0
-25 199 -136 141 201 -177 244 -96 173 -193 0
-157 48 193 -215 1 -170 -81 -103 -132 0
-157 -170 -89 -132 -81 -113 193 242 159 0
94 -183 -226 -31 0
251 107 172 -208 17 -55 241 0
45 231 175 -198 240 125 -87 -184 0
-5 126 219 56 246 -112 130 -13 -182 -76 0
-103 -215 -132 -157 -154 140 193 -81 -170 0
17 251 167 111 -98 46 -208 0
-25 201 81 94 71 244 141 207 -136 199 0
-38 54 -71 -97 -110 177 190 0
-90 50 -138 10 170 14 189 -52 24 0
132 -144 0
-180 151 101 0
-182 219 -145 181 -5 246 -88 56 -188 -76 0
189 -233 24 10 -193 -90 14 -138 -52 0
-90 81 -52 10 -138 -122 189 -37 -233 0
-25 -106 71 94 81 -136 207 201 244 199 0
24 -123 -52 10 -138 -37 189 -90 -193 0
-44 -195 -164 -132 76 41 16 0
141 211 13 73 -244 156 249 -189 -200 -181 0
-62 -39 225 57 -145 0
89 242 -132 128 48 49 215 0
10 -52 170 -233 -138 -90 211 189 24 0
54 115 -63 -191 -171 -93 25 -234 -250 0
189 14 -233 -138 -90 -52 170 10 235 0
12 24 -94 138 -160 -173 20 -185 -142 0
170 -136 199 141 -25 201 -177 244 -232 173 0
-197 -209 -208 251 17 -22 241 0
11 -36 194 -60 74 35 -216 -149 -26 168 40 0
-94 -189 12 20 169 -28 -173 -185 -202 0
-103 -157 -215 48 242 -81 193 -132 -170 0
-216 -118 35 -149 40 -26 72 -60 -36 11 -229 0
-163 242 154 -253 -48 108 159 113 0
48 -23 133 -132 1 89 215 0
-94 186 50 -42 -15 -185 12 52 -173 0
130 77 -64 216 -231 208 0
137 -201 249 -181 -189 217 141 156 13 73 0
238 -53 136 59 40 9 -127 253 0
-214 219 56 -182 181 67 -5 -88 -76 246 0
-5 -145 -76 56 130 -214 -182 -73 246 219 0
-94 -173 12 -233 -185 -122 -28 90 -15 0
-173 169 52 -15 -123 -142 -94 -185 12 0
-189 186 230 20 -62 -94 -173 -185 12 0
139 20 185 -142 82 -132 0
20 12 169 -173 -94 -185 -28 138 -160 0
-170 -81 -215 -157 -132 1 193 -103 -113 0
238 -100 40 -161 -85 104 0
-113 226 -18 -8 0
-182 -249 219 -145 126 -5 246 -76 56 130 0
-25 244 -136 71 81 199 173 -106 201 207 0
169 189 -123 -138 157 -52 -90 -85 10 0
136 200 252 141 185 -51 -137 0
-137 -228 -12 -244 -51 -106 200 0
257 215 140 89 -132 49 -113 0
-138 14 10 -202 -90 235 189 -52 157 0
-138 217 170 189 10 -52 -160 -90 169 0
83 153 -214 39 -187 -130 88 0
-199 -189 156 -181 211 73 249 13 51 141 0
138 186 -173 -142 -185 12 -94 -62 -15 0
-76 -182 -5 219 -112 -188 246 -73 130 56 0
255 -139 152 -141 90 106 0
-181 25 13 249 141 73 -200 -189 212 156 0
-185 -42 -61 -173 52 -94 20 -62 12 0
-185 -142 -15 -173 12 -94 -123 90 169 0
-214 -44 -248 254 -116 31 182 0
-173 -160 -61 -15 -94 -185 230 12 -189 0
-94 12 138 -122 -42 -185 -173 -202 20 0
-36 -26 -33 11 168 40 -149 -60 74 35 -216 0
141 201 -25 -136 71 199 -96 -12 244 81 0
-137 -228 -201 200 -51 141 -12 0
177 -187 -38 221 -71 -97 190 0
189 157 -233 -52 186 212 -90 -138 10 0
-181 -189 -199 -200 211 -106 249 13 73 156 0
-185 52 235 -173 -94 -15 -42 -123 12 0
240 -87 237 45 -184 16 -198 -77 0
-137 185 -232 -244 -51 -106 200 0
-85 -160 189 -90 235 -52 -138 10 170 0
-16 -125 58 -57 -92 -254 -88 0
-102 206 10 -82 257 -101 211 -243 -132 0
-181 211 -106 73 136 249 90 156 13 -200 0
200 -106 -137 -12 136 -51 252 0
235 50 189 -90 -52 170 -138 217 10 0
-157 -220 -170 -89 -81 -108 193 -132 242 0
-58 -204 -34 44 130 -106 165 -145 0
-241 131 -88 -146 -215 5 -167 0
134 246 67 -156 56 -182 -76 -5 130 219 0
126 -187 -130 88 -68 39 83 0
235 -138 189 81 10 -62 -52 -37 -90 0
139 -132 94 205 20 82 0
-149 91 -36 11 72 -148 -60 40 -161 -26 -216 0
169 10 14 -202 -138 -52 189 -90 81 0
10 24 189 -52 157 -90 -233 217 -138 0
251 -208 -131 17 -55 -158 -22 0
59 9 -53 -108 -127 40 136 143 0
-193 199 -12 -136 141 -228 244 -25 201 -177 0
52 -122 -142 -94 -185 -173 -15 -202 12 0
136 13 51 138 -106 -181 73 -85 249 156 0
134 -248 182 31 -44 -116 254 0
-94 -173 -142 52 50 12 -185 169 -15 0
-90 -138 -52 -193 -123 -61 211 10 189 0
97 201 -106 -136 207 157 199 -12 244 -25 0
-76 56 -5 -13 126 -88 67 246 219 -182 0
141 244 -177 -136 170 -25 199 185 -232 201 0
-138 235 -52 211 10 -233 -90 189 157 0
-173 -15 169 -42 12 -94 -62 -185 52 0
216 77 -64 208 -88 -231 0
141 252 -190 -193 94 -25 199 244 -136 201 0
-241 -215 130 -246 -146 131 -167 0
73 -106 13 90 217 -181 156 25 137 249 0
-173 12 20 -185 138 -233 -142 186 -94 0
-52 -61 170 -138 189 -90 14 10 -123 0
-106 -200 136 212 -181 73 156 13 249 90 0
35 -100 143 40 104 -85 0
-214 -248 -246 31 254 -116 -44 0
-18 39 -147 3 54 -130 88 0
-60 -161 -32 -36 -26 -216 74 -229 11 40 -149 0
-28 -94 235 20 12 -173 -185 -202 52 0
-185 138 -160 -173 230 -94 12 20 24 0
-138 81 -90 189 169 212 -52 -233 10 0
-109 -233 57 -88 225 0
-137 -106 200 -51 -232 136 -12 0
52 73 -201 211 -200 -181 156 249 13 141 0
24 -173 138 12 -185 -15 -94 -28 -233 0
-243 -102 133 -132 10 -139 -85 206 -101 0
-58 210 -39 141 44 -145 -204 165 0
-138 10 189 -52 -62 212 24 157 -90 0
-26 -216 -32 40 -36 11 -60 -148 74 -161 -149 0
-139 -223 -210 34 -18 0
205 -173 -185 -233 12 235 -15 -94 52 0
-26 -60 -149 -36 -78 40 -216 -32 -161 168 11 0
-185 -173 -142 -94 235 138 -15 12 -233 0
213 -26 74 40 11 -60 -161 -216 -149 -148 -36 0
178 -210 -82 34 69 0
138 -185 -123 -173 -94 235 230 -15 12 0
210 -145 129 204 0
20 -94 12 52 -61 -185 -233 -173 -42 0
201 -228 185 -136 -106 -177 244 157 -25 199 0
199 94 141 -136 -228 201 -190 81 -25 244 0
-160 170 -90 14 10 -138 -52 -122 189 0
-130 39 -6 -68 54 88 -214 0
3 69 -130 -187 39 -92 88 0
17 251 172 -55 -131 -208 107 0
170 -25 141 199 244 207 -136 -12 71 201 0
-15 -189 -94 -28 -123 -173 -185 24 12 0
42 28 142 -230 -203 -205 0
77 -231 -251 -119 -39 26 0
52 20 -123 -173 -28 -122 -185 12 -94 0
-32 11 114 40 -60 -36 35 -149 -216 -229 -26 0
-185 -15 -94 24 50 -173 12 52 205 0
-32 -29 -26 -36 -149 35 40 -216 -60 11 -78 0
58 254 69 31 -116 -248 5 0
199 173 -25 -193 -96 97 201 -136 141 244 0
10 -52 50 157 189 -90 -138 24 14 0
-181 249 156 -200 13 -244 73 90 141 -85 0
-92 -57 58 248 -125 130 -16 0
130 57 50 225 -112 0
-90 -138 -123 217 186 10 189 81 -52 0
215 -113 89 -23 -132 242 128 0
-214 -248 5 -116 -165 254 31 0
99 1 -154 215 -132 89 -163 0
-216 -229 -149 40 -26 -36 35 -60 -33 11 114 0
-234 -256 -93 -199 -187 -171 -191 -63 115 0
189 -90 212 10 24 -52 -62 170 -138 0
126 -5 -145 -249 219 56 -39 246 -182 -76 0
-137 -199 -106 -228 200 -51 185 0
77 26 -119 -17 130 -231 0
-236 -122 107 -43 0
133 215 -23 -113 89 -132 1 0
81 -25 201 252 -190 -136 185 199 -106 244 0
-15 -185 230 -94 12 138 -173 -202 -61 0
-235 61 170 -169 -186 7 -24 122 -215 0
205 20 -94 -62 -173 169 12 90 -185 0
146 -208 17 111 251 46 -98 0
138 24 -233 -94 12 -185 -173 205 -15 0
235 -90 81 189 -138 -160 217 10 -52 0
71 244 -136 199 -228 185 -25 157 201 141 0
-58 165 -34 -39 44 -106 -204 -145 0
97 -25 244 207 -106 185 201 -136 199 157 0
-225 -44 -125 -39 116 -16 -147 0
-106 51 73 156 -181 90 212 249 13 136 0
-240 19 105 0
-22 -227 -15 -152 -82 0
-28 -173 -185 235 -15 12 -94 -202 90 0
-36 -60 -26 40 11 -229 -216 -161 72 -149 194 0
152 -82 106 174 90 -141 0
199 -25 81 185 -96 201 -136 -106 -177 244 0
40 -149 11 114 35 -26 -60 -36 -118 -216 -229 0
-16 -125 -39 -254 -6 -165 -225 0
-112 219 246 56 -182 -73 -5 -88 -76 -188 0
-112 225 -62 -39 57 0
-98 251 -209 46 17 146 -208 0
-225 -125 -147 58 -88 -16 -254 0
-202 -61 -94 -28 20 -185 52 12 -173 0
14 189 235 -90 -52 10 -160 -138 157 0
-168 229 238 80 148 -165 29 0
20 169 -94 -173 -185 -189 -42 -160 12 0
-190 244 -25 81 -136 -232 201 199 -106 94 0
-39 208 77 -231 -2 26 0
17 172 -209 146 107 -208 251 0
90 24 -233 12 -173 -94 -28 -15 -185 0
-76 -5 -182 -109 -249 126 219 246 130 56 0
-244 249 73 156 13 -85 52 -106 -181 -200 0
-76 -5 56 -39 246 134 -109 -73 -182 219 0
-216 -161 -78 -149 91 -36 168 -60 -26 11 40 0
-136 199 -12 -25 201 207 141 244 81 38 0
-123 -138 24 10 -193 189 -52 211 -90 0
-94 12 52 169 -185 -42 -173 -15 -233 0
31 254 -116 134 -165 -56 -248 0
141 13 156 249 25 138 73 -37 -200 -181 0
10 -52 -90 170 14 -123 24 189 -138 0
-37 -90 -52 24 -138 157 10 189 -160 0
-193 -96 201 -136 173 244 71 199 -106 -25 0
215 89 242 49 257 -154 -132 0
193 1 -103 -154 -170 -215 -81 -132 -157 0
11 -26 -60 114 -149 -148 -36 213 35 40 -216 0
-65 187 -142 -54 -82 0
-73 -182 219 -18 246 -76 -112 -5 56 130 0
189 -52 81 24 -160 -138 211 10 -90 0
39 -188 88 -130 -92 54 153 0
2 208 -197 64 155 119 0
13 156 217 52 136 73 141 -181 249 -200 0
-90 10 50 -138 -85 189 -122 -52 170 0
-188 39 -92 -68 54 -130 88 0
-233 189 -52 10 -90 81 14 -122 -138 0
-121 -38 -187 177 190 -71 -97 0
39 134 88 54 83 3 -130 0
-199 -51 -96 -106 94 200 -137 0
-228 -244 173 200 -137 -51 -106 0
50 -138 -37 -52 10 -193 169 -90 189 0
13 212 -200 73 141 90 156 249 -181 25 0
-90 -138 -85 81 -123 189 235 10 -52 0
-125 -39 -44 -254 -92 -16 -225 0
-54 27 -82 187 230 0
-228 201 -25 173 -177 244 -106 199 -136 170 0
141 157 199 185 -25 -136 71 201 244 207 0
-173 20 52 12 -185 24 -202 -42 -94 0
154 133 159 1 108 113 -253 -48 0
-185 138 12 -173 -94 -202 -15 205 -61 0
67 225 57 -88 -233 0
-123 10 15 -189 -20 0
244 -136 -25 170 -96 71 201 -106 94 199 0
-62 -185 -42 90 -173 12 20 24 -94 0
-138 189 50 -61 211 10 -90 157 -52 0
205 186 20 -94 12 138 -202 -173 -185 0
40 104 -100 14 -161 155 0
-208 251 17 -95 111 -22 -131 0
-33 -36 -26 11 40 -60 -216 35 168 72 -149 0
-182 -109 -39 246 -156 -214 56 -5 219 -76 0
-185 138 186 -94 230 12 -202 -173 -15 0
52 -199 212 137 73 249 13 141 -181 156 0
-183 -254 -226 173 0
-106 156 137 -37 13 249 138 -201 -181 73 0
138 186 -173 -185 -160 20 12 205 -94 0
59 -127 40 9 253 143 -53 -201 0
48 -179 193 -157 -81 -132 140 -170 -89 0
-154 242 -132 -170 -81 193 -157 -89 -220 0
57 130 225 -123 -112 0
-185 -122 52 -94 -15 -142 12 -173 -160 0
169 -138 10 -90 14 -52 -62 157 189 0
-185 -202 12 186 90 20 -173 -28 -94 0
-254 -57 -125 -6 -88 -16 58 0
-88 -17 -11 -2 -231 77 0
-52 -160 170 10 -90 235 -37 -138 189 0
-76 -5 -39 -182 67 -188 246 219 56 181 0
-233 -42 24 -94 -185 12 -173 -15 52 0
-224 -89 185 -107 -15 -122 22 -46 0
24 52 -173 12 230 -185 -15 -94 -202 0
1 215 -132 -108 89 257 -23 0
-94 12 -173 -62 235 -185 -28 20 90 0
207 -106 -136 157 -25 199 201 244 185 -177 0
-185 24 -202 -94 -173 12 -15 52 -142 0
141 173 136 200 -137 -96 -51 0
242 128 -48 108 -253 154 -220 113 0
-62 230 -185 -94 24 -173 -15 90 12 0
12 -122 205 20 -233 138 -94 -173 -185 0
170 -37 -138 10 -52 -123 189 -90 -122 0
-129 44 -58 165 210 67 -106 -39 0
73 141 -201 -181 249 90 51 212 156 13 0
156 136 141 73 13 249 -200 -181 -189 217 0
-15 -189 -173 -94 -185 12 50 205 24 0
-8 48 226 -188 0
-149 -36 40 -216 168 -26 11 -32 -161 114 -60 0
50 -52 -138 235 212 -90 170 189 10 0
-61 81 -233 189 -90 -37 -52 -138 10 0
13 249 -200 -201 73 212 -181 52 156 -106 0
-85 189 -90 -123 -52 170 169 10 -138 0
170 -136 -25 97 201 244 -232 199 141 94 0
-58 141 -34 -204 165 130 -145 44 0
-185 -123 -94 -122 12 20 138 -173 -42 0
185 136 200 -106 -51 -137 -228 0
-82 -152 46 30 -15 0
-48 113 140 154 -220 128 108 -253 0
89 -163 215 242 -113 -132 49 0
170 199 201 -25 207 94 -106 244 97 -136 0
249 141 90 73 156 -181 -201 -200 13 -37 0
13 249 -106 211 73 138 -200 156 -244 -181 0
185 199 244 71 141 81 -136 252 201 -25 0
-185 -15 -173 205 12 -123 235 -94 138 0
153 -187 39 69 -6 -130 88 0
-122 22 -107 -224 -89 173 -46 20 0
-214 -5 -249 -39 -182 67 56 246 -76 219 0
-203 -82 34 -18 -210 0
-58 -106 -88 44 165 -204 -145 -34 0
-101 -132 -102 206 10 -139 -243 257 -85 0
-112 -76 126 -182 56 219 246 130 -5 181 0
-138 235 -193 189 10 -90 -52 -37 -62 0
17 146 107 -209 -208 251 -98 0
-96 -51 -106 -244 200 -12 -137 0
-33 -148 40 -216 -78 -60 -161 -26 11 -36 -149 0
249 156 73 14 -106 90 51 25 -181 13 0
249 13 73 -199 14 137 -181 141 52 156 0
69 -248 -116 31 182 254 -44 0
5 254 -18 31 -116 -248 -44 0
141 -51 200 -137 173 -199 -232 0
-157 193 -132 -170 -103 -81 242 -154 -89 0
70 101 -180 0
157 6 92 -62 147 -83 0
12 -233 -173 235 -189 -94 -15 -185 -142 0
-173 205 90 12 20 -94 -185 24 -233 0
217 10 -160 -90 189 -138 24 -193 -52 0
120 155 166 -162 -103 -175 -237 -256 183 0
186 -160 -138 217 10 189 -52 81 -90 0
-26 35 -36 -32 -78 -149 -216 40 11 168 -60 0
-42 -185 -94 -189 12 20 235 -123 -173 0
-130 -187 39 153 -92 134 88 0
-94 12 52 -173 -185 -142 -62 186 -15 0
9 59 40 155 -154 -127 -53 25 0
211 -202 -138 235 -52 10 157 -90 189 0
45 -184 125 240 231 -198 237 -87 0
17 -131 -208 -197 46 251 -209 0
-152 -82 -15 107 -47 0
115 -234 -244 -63 -93 -191 -250 -171 54 0
81 -12 244 252 -136 201 141 199 -177 -25 0
-218 100 -105 0
107 -197 17 -55 251 241 -208 0
-202 211 -52 -90 81 -138 10 189 -122 0
-173 -94 235 -185 -189 20 -62 205 12 0
-116 -248 31 134 -56 254 58 0
-76 181 -188 -88 246 219 56 -182 -5 -112 0
-139 -152 -22 20 -47 0
-254 58 -92 -88 -125 -16 -225 0
141 199 -136 -177 201 185 157 244 207 -25 0
-122 -138 -193 14 -90 10 189 -52 -202 0
-136 81 141 244 199 -190 -228 201 -12 -25 0
208 -2 77 36 -88 -231 0
-15 -94 169 230 12 -185 -173 90 -233 0
-132 139 -28 20 185 82 0
-48 128 113 154 -220 -253 1 108 0
159 193 48 -81 -132 -89 1 -170 -157 0
-48 -253 242 -103 108 128 154 113 0
-138 -90 -193 186 -233 211 -52 189 10 0
-52 -138 189 -90 -193 -37 169 -123 10 0
-2 -17 77 149 -39 -231 0
-189 -94 -28 -173 235 12 -185 -15 -123 0
-94 230 52 12 -185 20 -61 -173 -160 0
-139 106 138 -141 -65 152 0
20 94 22 24 -215 -46 -224 -107 0
186 -52 -138 -37 10 -123 157 -90 189 0
-39 -125 -16 -57 -147 58 248 0
242 -23 89 -132 -154 128 215 0
51 -181 -37 -201 141 52 156 13 249 73 0
-125 -225 -6 -44 -39 -16 116 0
88 3 -214 54 -130 83 39 0
182 -116 -188 254 -44 31 -248 0
-94 -185 -233 -122 -173 138 230 20 12 0
-210 -203 -82 34 134 0
-88 -6 -31 -165 -125 -16 -225 0
-123 24 -94 52 -42 -185 12 20 -173 0
173 -226 -183 248 0
-57 -125 130 -165 -147 -16 -254 0
-216 11 -36 -33 -149 40 -124 35 -80 -26 -60 0
244 -232 199 -106 157 97 -136 -25 -12 201 0
225 57 -123 -39 -112 0
13 73 -199 156 -181 -189 51 141 249 14 0
-16 -44 -31 -88 -125 -225 83 0
81 244 -232 185 38 201 199 -136 -25 141 0
17 107 251 146 111 -197 -208 0
50 20 -94 -28 24 -185 12 -173 90 0
211 143 -161 -100 40 104 0
-173 90 -185 -233 -94 -42 12 -61 20 0
56 -188 -5 -182 -76 -109 -156 130 246 219 0
-181 -189 73 13 -200 211 156 141 -201 249 0
-132 -42 82 20 139 94 0
187 -65 -54 205 -82 0
212 10 -193 189 24 -90 -233 -138 -52 0
-193 -232 -25 -136 199 244 -177 201 173 -106 0
67 246 -182 219 -76 -39 56 126 181 -5 0
-76 -5 219 67 -88 56 246 -182 69 -156 0
117 -210 69 34 -139 0
166 183 -250 -175 -103 -237 120 143 -162 0
-145 225 -160 57 -39 0
-125 -16 83 -254 -165 -57 -88 0
22 -224 186 -107 173 -15 -89 -46 0
-221 -89 150 -22 -132 110 -12 121 0
-52 -122 -138 -37 157 -233 10 189 -90 0
-15 -28 -173 12 -61 -185 50 -94 52 0
73 -106 211 -199 51 156 13 90 -181 249 0
-6 -125 -225 -44 -39 -16 248 0
73 156 25 217 51 13 52 141 -181 249 0
-199 51 156 -106 13 52 217 -181 73 249 0
107 -209 -208 251 241 -158 17 0
-94 -173 -185 -122 -189 205 12 -202 -15 0
50 -52 157 10 -37 -90 -138 189 186 0
252 201 185 -136 170 199 244 -25 -106 97 0
-90 -61 189 81 14 10 -138 -62 -52 0
134 219 -5 -39 -76 56 246 -109 -13 -182 0
12 52 186 -185 20 230 -173 -94 -160 0
194 -36 -216 -148 40 11 -124 -149 35 -60 -26 0
-22 -209 17 251 -95 -131 -208 0
92 -160 81 147 -83 6 0
12 20 -94 -202 24 -173 -189 230 -185 0
-90 -52 -37 186 -193 10 -138 189 -123 0
94 71 -25 252 199 -106 -136 244 81 201 0
79 -143 -238 -155 0
155 119 2 64 -251 -98 0
-248 -44 254 -214 -116 -219 31 0
-160 -94 -185 -142 -122 -173 12 138 20 0
-249 -145 -5 246 -182 -76 69 56 -39 219 0
83 -125 116 -88 -16 -44 -57 0
-202 -138 157 -52 189 24 -90 10 14 0
244 201 -232 141 199 -136 -25 185 -190 81 0
-60 -216 40 -36 -149 -161 -29 -26 74 11 -33 0
-18 -210 -222 -139 34 0
-139 -141 52 152 106 27 0
205 52 -185 -173 -160 12 20 -94 169 0
-85 50 -52 10 186 -138 157 189 -90 0
-61 -236 -43 46 0
193 253 140 -157 -81 -132 159 -89 -170 0
200 25 -137 -12 -232 141 -51 0
-85 -52 157 -62 189 -90 -138 24 10 0
217 -106 73 13 -181 -200 156 249 -189 25 0
-60 168 -216 -78 40 35 -36 11 -149 -118 -26 0
-113 257 215 -23 -132 89 1 0
-161 -36 -32 -80 -60 -216 40 11 -26 114 -149 0
-98 -55 -208 146 251 -22 17 0
-201 -200 156 -85 13 141 249 73 90 -181 0
-12 199 -136 244 38 207 201 -25 -193 -106 0
-85 81 -122 189 10 -52 -138 -90 -233 0
205 12 -94 -160 -185 -189 -15 -173 186 0
217 -52 169 -90 -138 -193 10 189 -233 0
-160 -28 12 -185 -94 -173 186 -15 90 0
-15 12 52 -173 -61 -185 -233 -42 -94 0
-88 -231 208 -64 77 149 0
-173 52 -94 12 20 -185 -122 -42 -233 0
-122 20 -46 -107 22 -89 185 -224 0
-122 90 -233 -173 -94 12 -185 20 -28 0
-173 138 20 -185 -142 12 -122 -62 -94 0
230 -122 -173 12 -185 -94 50 20 90 0
238 -127 40 59 -154 -244 -53 9 0
32 -91 -194 33 118 174 10 -213 -82 0
-189 -94 -122 -173 -15 -28 -160 -185 12 0
-247 62 160 233 -50 202 123 0
71 170 -136 -12 199 -106 252 244 201 -25 0
-130 83 69 39 88 -86 54 0
-15 -94 -185 186 50 138 -28 -173 12 0
-20 50 90 15 10 0
-161 11 -60 -26 40 -32 -78 -36 -216 -149 -80 0
-94 -189 12 50 20 -173 -28 -185 24 0
-36 40 -149 -60 -216 72 -29 213 -26 -161 11 0
49 1 215 253 89 -132 257 0
157 -138 -61 -52 10 189 -90 -37 -62 0
-136 -12 201 -106 -25 97 -96 199 244 81 0
-61 -173 12 -42 -189 20 -233 -185 -94 0
-181 -85 25 13 156 52 249 137 73 -106 0
10 -138 -160 212 -52 -90 189 -122 157 0
-106 13 -181 -244 249 -85 52 156 137 73 0
12 -28 -173 -185 52 20 186 -160 -94 0
-185 138 24 205 12 -173 -123 -15 -94 0
-82 -54 -65 -28 187 0
-137 200 -51 141 136 173 252 0
244 157 201 -136 -25 -96 199 -12 141 71 0
-169 61 122 -215 81 -47 -24 -235 -186 0
119 -251 2 143 -197 64 0
215 89 -132 -113 -23 128 1 0
10 -61 -193 -138 -90 -123 -52 189 212 0
236 158 -172 197 183 8 -244 98 95 0
89 -132 215 140 253 49 133 0
90 -139 -141 106 152 27 0
88 -68 -130 -147 39 -18 54 0
205 -189 -123 -185 -94 235 -15 12 -173 0
7 -186 -24 -235 -193 -89 61 122 -169 0
138 -85 -181 156 -106 73 13 136 137 249 0
251 17 -197 146 -208 -209 224 0
50 230 -173 -189 -122 -185 -94 20 12 0
-132 1 -89 -157 193 -103 -113 -81 -170 0
-26 -32 35 40 -60 168 -216 -36 -149 11 74 0
-231 77 -17 -39 -11 -64 0
-210 -18 -223 34 -82 0
-136 244 173 201 -96 -193 -190 -25 199 -106 0
38 -106 207 -25 173 -136 201 244 170 199 0
-173 -15 -189 -94 12 230 -202 -185 -122 0
22 173 -89 -107 -224 20 169 -46 0
-236 235 -43 46 0
24 212 -52 -193 189 -62 -138 10 -90 0
-90 170 189 -123 10 14 -122 -138 -52 0
201 244 -136 -232 -25 -193 94 -106 199 71 0
-94 138 -15 235 230 -233 -185 -173 12 0
-173 12 -94 -185 235 -42 -15 52 50 0
-181 -201 -200 156 249 14 13 -189 73 -106 0
-154 215 242 -132 49 89 133 0
-31 -16 -88 -225 58 -92 -125 0
13 -244 73 138 -181 137 -85 249 156 141 0
235 189 -233 10 211 -193 -90 -52 -138 0
-236 235 224 -43 0
57 -145 225 -233 -39 0
-57 -44 -147 -39 -16 248 -125 0
-111 -215 20 209 55 141 0
-185 -122 230 138 12 -202 -94 -173 -15 0
-130 -6 39 88 54 69 -86 0
141 200 -51 136 -137 -228 -12 0
-8 226 253 -188 0
-25 199 81 201 -136 173 -232 244 -190 141 0
12 -173 20 -94 -61 230 -233 -185 -189 0
-51 -228 -106 -244 94 -137 200 0
-85 -189 73 156 13 249 51 141 -181 -244 0
-185 12 -123 -189 230 -173 20 169 -94 0
-182 56 246 -145 -5 219 69 -249 -76 130 0
-25 201 -106 173 157 244 199 -232 -136 97 0
12 -202 -15 -185 -94 -189 205 -173 -61 0
-25 244 201 157 141 38 -136 94 -232 199 0
114 -33 -149 -26 11 -36 -229 -60 -216 40 -161 0
-36 -26 -78 -161 -216 -149 11 40 194 -60 -29 0
-76 56 -112 -182 130 246 -5 181 219 134 0
212 25 138 -181 141 156 73 137 249 13 0
-108 -170 -220 -81 -157 -89 -132 193 140 0
-233 189 170 -138 -52 211 235 -90 10 0
-158 -208 46 17 251 -131 -55 0
-36 194 -80 11 35 -149 72 -26 40 -216 -60 0
12 -189 205 -202 -94 -173 -185 186 -15 0
-214 -5 -39 67 56 219 -76 -156 -182 246 0
-52 212 -202 189 10 81 169 -90 -138 0
-193 -52 189 50 -90 -61 -138 217 10 0
73 -244 13 156 -181 -106 249 217 137 52 0
12 -173 20 -61 -160 -94 -28 -185 -189 0
170 -25 173 71 201 -96 -136 199 244 141 0
130 -125 -57 -16 -147 -44 -31 0
156 137 14 249 13 138 25 -181 141 73 0
157 186 -52 189 -123 10 212 -90 -138 0
-163 -132 -108 89 215 1 49 0
189 -90 -52 -233 10 -138 -122 212 -193 0
244 71 -193 -232 -136 199 185 201 -106 -25 0
104 40 -161 238 212 -100 0
24 -94 12 -189 230 -62 20 -173 -185 0
-249 -5 219 246 -182 126 56 -112 -39 -76 0
-185 -94 20 -173 12 52 -122 -160 230 0
-233 130 225 -112 57 0
251 46 241 -208 172 111 17 0
-37 52 -181 -244 249 73 156 141 51 13 0
248 -147 130 -16 58 -125 -57 0
249 141 13 156 -200 -181 212 25 73 138 0
-132 41 125 182 -165 -164 -195 0
-185 230 12 -233 -94 20 -189 -122 -173 0
213 114 -216 -161 -148 -149 11 40 -60 -36 -26 0
12 -185 235 -94 -123 -173 -15 205 90 0
20 -173 -94 230 90 235 -185 12 -62 0
-106 -189 249 156 217 -244 -200 -181 13 73 0
-28 12 -160 -185 -173 -15 138 24 -94 0
-37 -90 189 -61 157 -138 10 50 -52 0
141 210 -129 165 -58 -145 -88 44 0
-52 -37 189 -90 -138 10 -122 -193 -62 0
-130 -214 83 -68 88 -187 39 0
-185 -94 -202 -15 -28 169 -173 12 52 0
134 -182 -76 219 246 -88 -5 -73 56 -109 0
-181 73 -200 156 -106 249 136 13 212 138 0
-106 51 52 13 156 -199 -181 73 -85 249 0
201 -177 -136 244 252 -25 -106 170 199 173 0
157 -37 24 -52 10 -90 189 50 -138 0
199 -12 -193 71 141 -25 201 252 -136 244 0
-52 -61 -202 -138 10 -90 189 157 -37 0
-108 49 215 89 242 -132 133 0
-189 -15 -94 -185 169 -233 205 -173 12 0
-202 24 -173 138 -185 -42 20 -94 12 0
254 58 -214 -219 -116 31 -248 0
217 -122 -90 -138 -52 81 10 189 -202 0
94 244 199 201 207 -106 97 -136 81 -25 0
-106 94 244 157 -136 207 199 -25 201 38 0
-249 246 -76 130 56 -5 -188 -109 -182 219 0
73 -181 156 137 -106 249 13 90 25 -85 0
-51 25 185 200 -106 -232 -137 0
130 -231 -2 208 77 26 0
130 -16 -92 116 -57 -165 -125 0
116 -165 -16 -125 -57 -147 -88 0
-16 -57 -6 -88 116 -125 -44 0
90 -185 -173 -202 -122 -15 -94 12 -42 0
98 -244 197 95 158 236 -172 -226 183 0
-90 24 170 189 -52 217 10 50 -138 0
-94 -15 -173 -142 -123 -185 90 12 -122 0
67 225 -88 -202 57 0
193 -89 -170 253 -179 -157 242 -81 -132 0
-17 -231 216 -88 77 -119 0
-90 211 189 169 10 -202 170 -138 -52 0
89 215 257 -132 1 -113 49 0
189 -90 -138 14 10 186 50 -52 170 0
130 77 -251 216 -231 -119 0
-172 183 8 25 158 98 197 95 43 0
-15 230 82 -132 185 139 0
-136 201 244 199 38 94 -193 -106 252 -25 0
-158 64 -251 2 238 119 0
189 -52 -138 14 10 -193 -61 -90 -62 0
-94 -202 -173 -15 12 -185 138 -122 -142 0
-200 138 156 249 -199 -181 141 -37 73 13 0
-181 -200 156 -244 90 249 -85 -106 13 73 0
-123 10 189 -138 157 -122 -90 217 -52 0
-96 -12 -25 -136 81 201 244 199 -106 71 0
-89 193 -81 -132 -157 -220 -170 1 48 0
-210 34 69 -203 -82 0
90 13 51 249 156 -181 -85 141 73 25 0
-106 44 -39 -112 210 -58 165 -129 0
-181 137 13 -106 73 249 52 -37 156 -199 0
94 -46 -224 -15 -89 22 -107 169 0
-153 68 -85 -3 -106 86 -187 0
-18 56 246 -145 130 -76 181 -182 -5 219 0
-152 46 -15 7 -82 0
-190 157 201 199 185 -228 244 -136 -25 141 0
139 -132 82 173 -15 205 0
157 189 24 -138 -123 212 10 -90 -52 0
-15 107 -139 30 -152 0
12 -122 -28 -185 -123 -173 52 -94 -15 0
14 -199 156 -181 73 -189 13 137 249 -106 0
193 253 -170 -157 242 -103 -132 -81 -89 0
-15 235 12 -173 -185 50 90 230 -94 0
-55 251 146 17 107 -98 -208 0
88 -130 153 -6 134 54 39 0
-216 -60 -118 72 -26 35 40 -149 -36 -29 11 0
20 -89 94 -46 22 -107 -224 -122 0
-173 -185 12 -94 -28 -160 -61 -15 90 0
246 -112 -76 -5 219 -182 56 -39 134 -13 0
-17 60 -64 77 -39 -231 0
-98 -209 -208 17 251 167 224 0
12 -94 -185 24 -173 52 -62 205 -15 0
-129 44 -58 -109 141 -34 130 165 0
167 -197 -208 -55 251 -22 17 0
73 156 249 136 217 141 90 -200 13 -181 0
189 169 -90 -138 14 -52 81 -160 10 0
40 -60 72 -216 -80 -161 -33 -149 -36 -26 11 0
-25 -193 207 185 -106 244 199 97 -136 201 0
-86 -18 -187 88 -130 39 -147 0
-138 -90 189 157 -52 10 -61 -202 217 0
249 13 73 -106 -189 -37 -181 -199 156 51 0
-210 -139 -203 34 -18 0
251 224 -208 111 167 -197 17 0
12 -15 90 -94 -42 50 -185 186 -173 0
-185 24 -28 -62 90 -94 -15 12 -173 0
-5 56 246 219 -39 134 -249 -182 67 -76 0
-247 -82 34 -210 -214 0
134 -116 -248 254 5 58 31 0
-94 -15 90 12 -173 -202 -185 -28 186 0
-224 -15 -89 22 -46 -122 -107 -12 0
57 225 -160 130 -145 0
-82 34 -188 117 -210 0
-170 -132 -157 193 -179 -154 242 -215 -81 0
-88 -6 -225 -254 -165 -125 -16 0
-181 141 137 -37 249 -201 156 52 73 13 0
-161 -26 74 91 11 -149 -60 168 40 -36 -216 0
90 -185 169 -94 12 -62 -28 -173 20 0
13 -37 249 156 -200 -244 73 138 -181 -106 0
-204 141 210 -145 165 44 -88 -58 0
-170 -89 -157 -132 193 -81 140 -179 253 0
-181 -106 73 -189 249 -200 156 -244 211 13 0
-173 205 24 12 -185 138 -94 20 -233 0
-149 -148 40 91 -36 11 35 -60 -26 -78 -216 0
-185 235 -142 -94 138 12 -173 20 -202 0
-251 130 -119 77 149 -231 0
-89 61 -169 -24 30 122 81 -235 -186 0
201 81 141 -228 38 94 199 244 -136 -25 0
244 -136 -177 81 -12 201 -25 199 -228 -106 0
-57 -125 -16 -44 248 -6 -88 0
156 13 73 138 -201 -181 249 14 137 -106 0
140 215 -23 -132 89 -154 128 0
14 73 249 -201 51 13 -181 90 156 141 0
252 -199 -106 -51 200 -137 185 0
-114 -74 -72 78 -2 -68 124 0
-185 -173 90 24 205 -123 20 -94 12 0
89 1 215 253 -132 133 49 0
-113 89 133 -132 215 49 242 0
-47 -152 20 224 -82 0
-26 -36 40 -148 -161 11 -216 72 -149 -60 194 0
76 -44 31 -248 126 -116 254 0
-62 138 -94 -61 -185 12 230 -173 20 0
-36 35 168 11 -216 -149 40 91 -60 -26 114 0
167 -209 17 -22 251 -95 -208 0
20 -185 -160 -173 12 -28 169 -94 -189 0
-243 -82 206 -102 -132 -37 -101 257 10 0
214 -69 18 -160 -126 -134 -177 188 0
248 -125 -16 -44 -147 -57 130 0
-123 12 138 -185 -173 20 186 -42 -94 0
-138 189 211 -123 -90 170 10 -52 235 0
13 73 156 25 -106 138 249 212 -200 -181 0
133 89 242 215 -154 99 -132 0
17 -131 172 107 -208 251 -209 0
-96 201 -25 -106 94 -136 244 157 71 199 0
-201 -53 59 -127 9 40 238 253 0
257 89 215 140 -132 48 49 0
-68 -130 39 134 88 -187 -147 0
-58 -34 44 -39 165 -204 -106 67 0
217 10 235 -202 -90 -138 189 -193 -52 0
-130 -147 126 39 -86 88 54 0
-106 13 73 217 -181 -201 249 52 156 137 0
25 94 -137 -51 -106 200 -232 0
-96 244 201 -190 199 141 170 -136 -25 -12 0
-52 -62 212 157 189 -138 10 -90 169 0
136 137 73 90 -106 156 -37 -181 13 249 0
-51 -232 136 200 -106 -137 173 0
-125 -225 248 58 -39 -92 -16 0
-111 -106 20 55 209 -215 0
-90 -138 189 186 -202 -37 -193 10 -52 0
183 -199 -226 236 158 98 95 -172 197 0
-62 -138 169 81 -90 -52 10 211 189 0
81 -138 235 -52 189 -90 10 14 -202 0
-185 12 -173 -61 -94 -123 -189 -42 20 0
211 141 73 136 249 -181 90 51 13 156 0
12 -94 -62 205 20 -173 90 24 -185 0
156 13 141 138 211 249 136 137 73 -181 0
-77 -87 45 -184 -198 125 -166 240 0
2 -251 64 238 -197 119 0
73 -106 212 -181 249 52 -244 137 13 156 0
130 -231 77 -11 -119 -17 0
52 12 20 -185 -94 -122 -173 205 -202 0
-119 -251 -88 77 -231 -11 0
254 31 -248 -116 -165 -18 -219 0
-185 186 -173 12 -123 -28 90 -94 20 0
205 -173 -94 20 -189 -185 -233 12 24 0
108 -253 -48 242 133 159 154 113 0
90 -94 -61 -185 20 12 -173 -42 -160 0
54 -207 228 255 133 96 232 -252 0
89 -132 -113 133 99 140 215 0
-160 -138 -90 -52 189 170 10 212 186 0
1 -89 -132 -179 -170 -157 -113 -81 193 0
69 -76 -39 -182 219 -5 56 -156 -145 246 0
-5 -145 219 -156 56 -214 -76 246 -182 -39 0
-122 -185 138 -123 205 12 -173 20 -94 0
-149 -33 11 -161 -60 -26 -216 72 -229 -36 40 0
206 -243 -132 -163 -85 10 -101 -82 -102 0
-233 189 217 170 -52 186 10 -90 -138 0
56 219 69 -39 246 -249 67 -76 -5 -182 0
20 -224 -12 22 -46 -107 24 -215 0
169 22 -224 185 -89 -15 -107 -46 0
-139 -210 34 -188 -222 0
189 186 10 -138 -90 81 -52 -123 -85 0
40 194 -26 -216 11 -36 -124 -149 -60 -29 -161 0
90 -173 -233 169 -42 12 20 -185 -94 0
20 -185 -94 -61 50 205 12 -173 -189 0
-185 12 -142 -189 -94 -173 -202 -15 235 0
73 51 156 -199 -181 249 217 13 138 -106 0
56 -5 219 130 -145 134 -182 -76 -156 246 0
245 132 0
-15 -42 235 -202 138 -94 -185 -173 12 0
20 -123 12 -142 90 235 -185 -173 -94 0
201 -25 71 -193 244 199 -96 -136 -12 141 0
-94 235 -123 138 -185 12 -173 20 -42 0
170 122 -215 61 -24 -169 -196 -235 -186 0
-25 38 -193 199 -136 -228 244 141 173 201 0
159 257 140 -253 113 108 -48 154 0
-52 -90 217 10 186 -138 -123 170 189 0
-76 219 246 56 -5 -18 -182 -13 -112 -88 0
10 170 -90 -123 189 211 -52 24 -138 0
149 -231 -251 77 -119 -88 0
34 -139 -214 -210 -222 0
219 -145 246 -182 -76 181 -5 -88 126 56 0
126 76 254 -248 58 31 -116 0
-88 77 -17 149 -231 -64 0
50 10 -52 81 189 -61 -90 -138 -37 0
-109 -182 219 246 130 181 -5 56 -76 134 0
-37 25 13 73 156 51 249 90 -181 141 0
141 200 -137 -12 -51 25 -96 0
-58 165 -129 -109 141 44 -88 -34 0
-15 30 -139 -152 -22 0
-233 12 -15 -173 -189 -185 230 235 -94 0
-185 230 -94 12 -233 52 -15 -173 -122 0
40 -229 -36 -60 114 -216 213 -26 11 -161 -149 0
-68 -18 -6 88 -130 39 -187 0
-18 5 58 31 -248 254 -116 0
24 -94 -173 -189 -15 -28 -185 12 -202 0
-91 -213 -139 118 32 33 10 -194 255 0
-25 244 201 -136 -232 81 -106 -12 71 199 0
157 -136 244 38 -228 94 199 -25 141 201 0
-31 83 -125 -16 -57 -165 -39 0
257 154 -48 108 -253 159 113 1 0
22 -224 -46 94 -107 -15 -215 24 0
-232 94 -244 200 -51 -106 -137 0
115 -256 -171 -234 -93 25 -187 -191 -63 0
217 13 -181 90 73 249 -106 156 -199 137 0
-28 -185 -94 -233 -173 -122 12 20 -189 0
-56 31 -116 -18 58 254 -248 0
48 25 59 9 143 -53 -127 40 0
159 -81 -170 1 -215 193 -132 -157 48 0
-224 20 -107 186 185 -89 22 -46 0
83 130 -16 -125 -57 -44 -31 0
244 -193 -25 -177 -136 -232 -106 -12 201 199 0
-12 199 -136 81 -232 -106 244 201 -25 38 0
-138 -90 10 235 -233 81 -85 189 -52 0
238 -95 64 -17 2 119 0
-88 -231 -2 -251 77 36 0
-214 -187 153 88 -92 -130 39 0
-244 -137 -228 -106 200 185 -51 0
139 20 -132 -28 82 94 0
-173 50 235 12 -185 -28 -94 138 -15 0
137 25 -181 -37 73 -106 249 13 -189 156 0
213 -149 -161 -124 11 -216 -26 40 -36 -29 -60 0
-132 1 89 -113 133 99 215 0
-114 3 78 124 -72 -74 -119 0
-52 189 186 81 -90 -233 14 -138 10 0
13 -244 52 73 249 156 -200 -181 217 141 0
169 10 189 -90 157 -138 -52 -37 -123 0
-94 -142 -173 50 20 -185 138 12 169 0
96 -187 232 174 257 -207 -252 228 0
211 -62 -122 10 81 -52 -90 -138 189 0
12 20 186 -173 -42 50 -185 -94 138 0
89 -132 -163 215 242 -154 49 0
-64 77 -231 149 -251 -88 0
20 169 -173 -185 -142 -160 12 -189 -94 0
-86 -130 -92 88 69 54 39 0
249 141 156 -181 90 -199 -85 137 13 73 0
-82 20 30 -22 -152 0
-16 -31 -44 -57 -88 -125 83 0
-90 24 50 -193 -138 -52 217 189 10 0
-163 -113 89 215 1 49 -132 0
46 146 -95 -209 -208 17 251 0
-173 -185 52 12 -123 20 -122 -42 -94 0
-52 -90 10 189 -122 -62 -138 157 211 0
-193 201 -190 185 244 199 252 -25 -136 -106 0
233 -50 160 62 123 202 -223 0
-89 76 -241 -88 131 -167 -146 0
116 83 -225 -125 -165 -39 -16 0
-190 199 201 -25 244 141 -12 -136 157 207 0
-216 40 -26 168 91 -161 11 114 -36 -60 -149 0
217 -52 189 -138 -202 169 10 -90 81 0
-69 188 38 -134 18 -126 -160 214 0
-132 173 224 121 -215 -221 110 150 0
-42 50 -94 -173 -189 -122 -185 -15 12 0
141 136 185 -137 -228 -51 200 0
58 -125 -57 -88 -16 -254 -147 0
173 -137 -106 -201 -228 200 -51 0
-5 246 -188 219 -145 56 -76 -88 -182 -13 0
-46 -224 22 186 -12 -89 -107 20 0
-90 212 -52 -61 170 -138 10 -123 189 0
-138 -52 10 186 189 50 81 211 -90 0
186 -185 -189 -62 -94 -173 230 12 -15 0
217 249 156 90 -181 51 73 -106 25 13 0
-100 35 104 155 217 40 0
51 13 -181 -199 141 156 211 249 52 73 0
-173 -142 -189 20 12 -160 -94 24 -185 0
107 -152 -196 -139 20 0
107 -152 -139 7 20 0
-39 -16 -92 -57 -165 -254 -125 0
189 -138 186 -52 10 81 -37 50 -90 0
-165 -246 -18 -116 254 -248 31 0
-15 -139 30 -152 224 0
-152 -15 224 7 -139 0
219 -214 181 67 130 -182 246 -5 -76 56 0
72 -29 -26 -149 11 213 -60 -216 35 40 -36 0
12 -94 -61 -185 20 -62 -173 -142 52 0
246 -39 -76 134 -156 56 -109 219 -5 -182 0
-248 -44 31 5 69 -116 254 0
-94 -142 -202 20 -185 -173 -61 138 12 0
-132 140 -108 215 -23 89 257 0
-25 244 170 -12 -136 -228 97 201 199 141 0
113 -253 -220 108 257 -48 140 154 0
230 -122 -62 -185 138 12 -15 -94 -173 0
-243 133 10 -82 -132 206 -102 -85 -101 0
251 -208 111 146 224 17 -95 0
7 -215 -10 0
-106 -190 -25 -96 244 -12 -136 170 201 199 0
157 186 10 -233 -85 -52 -90 189 -138 0
40 155 -199 -127 9 -53 48 59 0
211 -90 10 157 -52 -138 -122 189 50 0
208 -231 -64 -39 77 36 0
246 56 -182 -88 181 -112 134 -76 -5 219 0
230 12 -173 20 169 -185 -94 90 -202 0
140 48 215 -132 49 89 133 0
-136 -25 -106 -228 244 38 -193 199 201 185 0
61 -24 30 -186 -235 170 122 -89 -169 0
156 13 25 138 249 -181 73 -85 141 137 0
-208 146 224 251 172 17 -55 0
43 183 98 -226 -199 158 95 -172 197 0
90 -185 12 -173 -62 -42 -94 -61 -15 0
170 244 -25 141 -96 -136 173 199 201 -190 0
-136 -106 -25 244 71 199 -96 94 81 201 0
254 -214 -116 -56 58 -248 31 0
-228 71 -136 -25 81 199 244 -106 -12 201 0
88 3 -187 -6 -130 39 134 0
-173 -61 -94 -28 20 12 -62 -185 90 0
-92 54 39 153 -214 88 -130 0
169 -90 -62 189 -52 10 14 -138 81 0
169 230 50 -185 12 20 90 -173 -94 0
-138 189 -90 -62 -193 -37 -52 10 -61 0
10 15 -20 -160 -189 0
170 217 -61 -52 -90 189 -138 -233 10 0
11 35 40 -124 -26 -80 -60 -36 -149 -216 213 0
137 14 -244 141 249 156 13 -181 138 73 0
-16 248 -125 -57 -165 -88 -6 0
199 -136 201 244 170 173 -190 -25 252 141 0
219 -145 -88 -182 -5 -18 -76 56 246 -13 0
-106 38 -193 -25 -136 201 244 94 -232 199 0
94 -25 201 141 199 81 -96 38 244 -136 0
-177 -232 201 170 -25 -136 141 94 244 199 0
-51 141 -96 200 94 136 -137 0
17 251 224 -208 -209 -95 167 0
167 -95 111 251 -208 46 17 0
77 -88 36 -119 -231 -251 0
-173 12 90 -123 -28 -15 -185 -94 169 0
189 -138 81 -52 50 -85 235 10 -90 0
83 -125 -16 130 -57 58 248 0
-125 -57 -44 -16 -39 -147 -254 0
-88 -125 -225 -165 83 -16 248 0
-228 141 244 97 157 94 199 -25 -136 201 0
-214 -182 219 -5 -76 -249 56 246 130 -112 0
-52 -138 212 -62 170 169 10 189 -90 0
-136 141 199 -190 173 201 244 -193 252 -25 0
12 -202 20 -173 90 230 -122 -94 -185 0
-37 13 137 -181 73 138 249 156 141 -201 0
-136 -25 201 244 199 141 -96 -193 -12 -190 0
81 10 24 212 -62 -52 -90 -138 189 0
157 189 -90 -138 10 -37 -202 -52 186 0
-106 13 51 249 73 -189 -85 -181 156 -244 0
251 -208 146 -158 111 -22 17 0
-173 90 -233 -185 12 -94 -28 169 20 0
215 128 140 89 -132 -108 49 0
211 51 249 13 52 -181 -244 -106 73 156 0
143 119 2 172 208 64 0
116 -39 -225 58 -147 -125 -16 0
215 -132 133 140 -154 89 99 0
9 -244 59 -127 238 -113 -53 40 0
-29 72 -26 -149 -60 11 40 -36 35 -216 194 0
-138 189 10 -193 -52 -90 -123 235 217 0
95 -172 8 197 43 183 -199 158 98 0
-137 141 -51 -96 200 185 -201 0
10 189 217 -123 24 -90 81 -138 -52 0
-85 249 -244 -200 -181 156 141 73 138 13 0
148 -44 80 229 238 -168 29 0
-78 11 -80 40 -216 -149 91 35 -36 -60 -26 0
170 217 -52 189 -90 10 -138 169 -202 0
-25 244 252 199 173 81 -106 71 201 -136 0
-82 20 -152 -22 7 0
226 -8 -214 -154 0
246 219 -5 -76 -18 -88 56 -156 -182 67 0
-85 186 -193 -138 -123 -52 -90 10 189 0
73 13 249 156 25 -200 14 -106 138 -181 0
13 52 137 141 249 156 217 -181 25 73 0
-231 77 -17 -88 -119 60 0
24 -28 -173 12 -94 -185 52 -123 -15 0
-52 -90 170 10 -233 189 14 -138 24 0
209 -15 -111 -215 55 -106 0
13 73 -199 -106 -200 -181 -189 -37 156 249 0
88 134 -187 -6 39 -86 -130 0
141 207 -137 -201 173 200 -51 0
-18 39 -130 88 -6 54 -68 0
217 -52 -90 10 189 -62 81 -122 -138 0
-16 -6 -225 -125 -88 248 -165 0
-199 -181 -200 14 141 249 13 73 156 52 0
170 -136 -12 244 71 201 199 -25 141 -96 0
-122 10 189 211 -138 -90 -52 -233 -193 0
-161 -124 -60 -148 -36 40 -149 -216 -118 11 -26 0
69 31 -248 254 58 -116 76 0
170 97 201 -25 244 173 -228 199 141 -136 0
10 -85 -138 -62 -193 189 -52 -90 235 0
-127 59 155 9 40 25 -53 48 0
186 12 -160 -185 -173 -42 52 20 -94 0
-26 -36 -149 35 -148 -60 74 40 11 91 -216 0
-125 -254 -225 -39 -16 83 -165 0
12 -15 90 -94 -185 -173 -123 235 -28 0
219 -182 -88 -5 -18 -76 -109 56 -249 246 0
-96 201 -136 71 199 -25 -193 244 -12 -106 0
-181 73 156 90 212 136 -106 13 249 137 0
-25 244 185 -190 -136 201 -228 157 199 -106 0
-15 90 -185 235 230 -173 12 -202 -94 0
157 169 10 -138 -52 -233 211 -90 189 0
-90 -138 -62 -52 189 186 10 81 -85 0
73 249 -181 141 -189 25 156 14 51 13 0
-160 12 -28 -94 186 138 -185 -15 -173 0
-13 67 56 -182 -5 -214 -76 130 219 246 0
94 -137 -51 -201 -228 -106 200 0
-199 -108 9 -127 40 59 -53 155 0
10 -138 -52 212 -90 170 -160 189 169 0
-106 201 244 185 -25 -136 170 97 199 207 0
13 73 -181 156 -106 211 249 -199 90 -200 0
-151 133 192 -70 141 -75 0
52 -94 -173 -185 -160 12 20 -42 235 0
-177 94 244 252 157 -25 199 141 -136 201 0
235 52 230 12 -94 20 -173 -202 -185 0
-28 -160 -94 -185 20 12 -173 24 -189 0
-113 242 -81 -170 -132 -157 -215 193 159 0
-42 -61 -94 -185 52 12 -15 -173 -160 0
-130 54 134 -68 88 39 -6 0
114 -149 -229 40 -26 -60 -36 11 -216 -118 -161 0
-163 242 -23 -113 89 215 -132 0
52 -173 12 -94 -233 20 186 -185 -42 0
-142 235 12 -160 -15 -173 52 -94 -185 0
73 249 156 -244 -85 -181 51 90 -106 13 0
-90 -52 235 212 -138 170 10 189 -160 0
-94 -185 -202 -173 205 20 12 186 -189 0
-60 -36 40 -216 -229 -149 -124 -26 213 11 -161 0
12 -160 -185 -173 20 -94 -42 90 169 0
-12 201 -228 97 -25 244 170 -136 199 -106 0
201 71 199 -25 -136 173 141 170 244 -232 0
-42 -61 -160 138 12 -15 -185 -173 -94 0
-12 -137 -51 200 -199 -106 -96 0
-236 224 186 -43 0
-193 217 -138 235 189 -62 -52 10 -90 0
83 -187 39 153 126 -130 88 0
-225 -125 -31 -39 -16 58 -147 0
-123 -94 52 20 -185 -28 186 -173 12 0
-157 253 -81 -132 193 1 -170 159 -89 0
-209 17 -197 241 251 -208 46 0
146 -55 -158 -208 107 251 17 0
201 -136 -12 244 -177 -106 -25 157 -232 199 0
-25 244 170 -177 94 -136 199 141 201 -228 0
-142 187 -54 -82 174 0
73 -106 -85 156 51 138 13 -181 -199 249 0
90 -123 -173 -61 230 -15 -185 -94 12 0
235 -15 -123 -173 12 -94 52 230 -185 0
-15 50 -28 -173 138 -94 169 12 -185 0
-208 167 -158 -209 107 251 17 0
-173 90 12 -202 -185 205 -94 -122 20 0
-160 -94 -185 20 230 12 186 90 -173 0
-102 10 -132 -243 -139 -101 211 257 206 0
-28 -62 20 24 -173 -189 -94 -185 12 0
169 -142 12 -94 -160 -15 -173 -185 138 0
141 13 51 -181 90 -244 156 73 212 249 0
90 186 -233 -94 -185 -173 12 -15 -42 0
-170 159 48 193 -81 140 -157 -215 -132 0
-94 -189 205 -160 -15 12 235 -185 -173 0
-32 -149 -80 -26 -60 11 40 -216 -161 -36 72 0
-12 201 -177 -25 199 157 244 -136 252 -106 0
40 59 -113 9 -127 -199 -53 143 0
199 -136 173 201 157 71 -106 -228 244 -25 0
-73 -76 -5 -182 -88 219 -112 -18 56 246 0
-138 -52 -233 169 212 -90 170 10 189 0
-89 -103 48 -132 -157 -170 193 -81 140 0
39 -86 -188 54 -6 88 -130 0
83 -68 -188 54 -130 88 39 0
-94 -142 12 -185 52 20 50 169 -173 0
-141 106 138 -139 152 255 0
-82 -210 134 -222 34 0
141 199 -12 201 -177 157 244 -136 -228 -25 0
-185 -173 169 -142 52 12 -62 -15 -94 0
-28 -94 -122 -173 52 -185 12 -233 20 0
-138 -85 -61 -90 189 170 10 -160 -52 0
-90 10 -52 -138 212 -122 189 -160 170 0
-52 -61 -90 217 -123 170 189 10 -138 0
-157 -108 -215 193 -132 -170 -179 242 -81 0
-61 -138 -85 -52 189 -90 10 170 50 0
-216 -60 -149 213 -26 35 -78 11 168 -36 40 0
-173 20 -123 -185 -94 -61 12 52 230 0
-90 189 -123 -52 -138 24 157 217 10 0
-25 157 -96 244 -136 201 199 185 141 71 0
-208 17 107 167 -55 251 -98 0
-145 69 -5 130 -76 219 246 56 181 -182 0
-208 46 251 -98 -131 17 111 0
81 -25 199 -190 -136 207 94 201 -106 244 0
77 208 -39 -2 216 -231 0
-173 -189 -233 12 230 169 -185 -94 -15 0
-231 -88 -2 77 60 -17 0
165 -106 -58 -39 -34 67 -129 44 0
-39 -119 208 -231 77 216 0
-254 -88 -57 -16 -44 -125 -147 0
90 156 -181 13 -200 14 249 -106 73 -244 0
12 -123 -15 230 52 24 -94 -173 -185 0
146 -208 17 251 -197 107 -55 0
-15 -142 169 -94 50 -173 -185 138 12 0
20 -185 138 -233 12 230 -61 -94 -173 0
-181 73 249 211 25 -106 13 -200 156 138 0
-60 11 168 -36 -149 74 -26 -161 -216 -33 40 0
-93 -171 115 136 -187 -191 -234 -250 -63 0
-37 -193 10 169 -233 -90 -138 189 -52 0
-253 -103 -48 1 108 -163 154 113 0
-221 -132 94 -22 121 110 -89 150 0
49 -108 89 -163 215 -132 140 0
-43 169 -22 -236 0
189 169 -123 -138 -52 14 81 -90 10 0
-146 -39 -89 -56 -241 -167 131 0
-94 -189 20 12 -173 -185 50 169 -42 0
235 20 -173 12 -189 -185 -202 -94 -42 0
76 -116 254 -165 31 -248 126 0
-39 -109 225 57 -62 0
244 201 -228 185 -106 38 -25 199 157 -136 0
74 -36 -26 -149 -216 11 -60 -161 -80 40 -33 0
56 -5 246 -76 -188 -182 219 67 -88 -13 0
-52 189 169 -193 -160 10 14 -138 -90 0
-5 -76 181 67 219 56 -18 -88 -182 246 0
88 -187 -86 -6 -18 -130 39 0
-123 12 138 20 235 -173 -185 -94 -142 0
-142 -123 -185 -94 169 -173 12 52 20 0
138 -142 -15 -233 -173 -185 -94 12 -61 0
-244 115 -171 -234 54 -63 -256 -93 -191 0
-161 -118 -216 11 40 114 -149 -26 -80 -60 -36 0
-169 -24 157 122 -235 30 -186 -215 61 0
-123 -189 -173 12 -15 -42 -185 -94 -61 0
206 -139 -37 -132 -243 133 -102 -101 10 0
71 -136 244 199 201 141 -96 -193 -25 185 0
-94 12 -122 -185 90 -28 -173 -62 20 0
212 249 -200 -201 138 13 156 -181 73 -106 0
-160 57 225 67 -39 0
-132 -246 -195 41 125 -164 58 0
215 253 -132 89 49 242 -163 0
-20 15 52 10 50 0
67 246 -188 -5 56 219 130 -76 -182 181 0
251 17 111 -208 -22 -197 241 0
-122 90 -15 -42 -173 -160 -94 12 -185 0
12 186 -42 -94 20 -233 -185 -173 138 0
-47 -15 -152 -82 46 0
170 -106 -136 71 244 199 -25 -232 201 94 0
251 111 -131 17 107 -197 -208 0
65 -27 -255 -28 -174 0
10 -52 -233 -138 157 189 -61 14 -90 0
252 -25 185 199 201 97 157 -106 -136 244 0
52 -94 -62 -142 -15 12 -61 -185 -173 0
-60 -229 -216 -161 -26 11 -36 -149 -118 40 -78 0
189 -85 -52 10 -138 81 -90 -160 235 0
12 -173 235 -185 -160 230 52 -94 -15 0
24 -94 12 -189 -42 -185 -62 -173 -15 0
-39 -17 -64 77 -231 26 0
169 12 -185 20 -94 -173 -233 -42 138 0
249 156 -181 13 -244 51 90 141 73 14 0
-90 189 186 -138 -52 -123 170 10 -85 0
58 -195 -164 -132 41 182 16 0
12 20 230 -185 -62 -94 -122 138 -173 0
205 -173 90 -94 -123 -122 -185 -15 12 0
244 141 -177 -96 201 -136 -25 157 199 94 0
157 10 -138 189 235 -37 -62 -90 -52 0
-25 244 94 201 97 -106 199 -228 -136 157 0
-248 -44 31 5 -116 126 254 0
67 141 -58 210 44 130 -129 165 0
-39 225 50 57 -112 0
-244 -181 212 137 249 141 13 73 90 156 0
-188 56 130 -13 -5 -182 -112 -76 219 246 0
-52 -138 189 -61 10 -193 -123 -37 -90 0
141 156 249 73 -200 13 90 211 -181 -199 0
2 143 208 -197 119 64 0
-57 248 -125 -92 -16 -165 -88 0
-173 235 12 -185 -94 -189 -160 -15 -142 0
141 -3 68 86 -187 -153 211 0
157 244 201 207 141 -136 97 94 -25 199 0
106 -139 -141 152 174 52 0
-142 -185 52 12 -94 -233 -173 24 20 0
-200 13 249 136 156 -106 52 73 -181 -37 0
189 -90 -138 -62 -52 157 -85 10 169 0
192 -70 -106 -75 128 -151 0
205 12 -185 -173 -189 -94 -122 -62 20 0
-173 -94 235 -185 90 20 -123 -28 12 0
-118 74 -26 11 -60 -36 -149 -216 168 35 40 0
193 -179 -170 -89 -81 -132 140 -113 -157 0
35 104 238 40 -100 217 0
174 228 -252 96 232 54 257 -207 0
-88 248 -225 -147 -125 58 -16 0
-28 -202 -94 12 24 52 -185 20 -173 0
-137 185 -51 -201 -106 200 -96 0
52 -94 -62 20 230 -185 12 -173 -122 0
201 170 -25 71 -136 94 199 244 -106 252 0
-62 -173 -94 -189 12 -185 -15 235 -142 0
242 99 215 257 -108 -132 89 0
207 -193 -177 -136 -25 199 173 201 -106 244 0
94 -42 -132 -15 82 139 0
-173 -185 -15 90 205 -160 -94 186 12 0
-106 199 81 201 244 -228 71 94 -25 -136 0
170 201 -136 -228 -25 244 -106 199 -12 -190 0
157 6 92 -83 -123 147 0
182 31 -116 -248 -18 -165 254 0
235 -12 -224 -15 -215 22 -46 -107 0
157 -202 -90 169 -52 -138 10 189 14 0
67 246 -188 -76 -88 219 -5 181 56 -182 0
170 201 207 71 199 -136 244 94 -106 -25 0
-233 90 -42 -173 -185 186 12 -94 20 0
12 -185 -173 50 169 -94 52 20 205 0
-17 77 216 -231 -64 -39 0
-106 249 -181 13 52 73 -199 14 -200 156 0
-61 -42 -185 138 -173 12 -233 20 -94 0
10 -90 189 -52 -61 -202 170 -138 217 0
-32 40 -216 -26 -36 11 35 -60 -78 -148 -149 0
81 189 -85 10 -61 -90 -202 -52 -138 0
157 -136 -25 244 199 -12 141 97 207 201 0
186 12 -185 -94 -142 -15 -173 90 -233 0
199 -232 -12 201 244 -25 170 -136 97 141 0
-136 -96 38 81 244 201 199 -25 -106 94 0
189 -233 -90 -52 -138 24 212 170 10 0
20 52 -173 -94 -28 169 -185 -202 12 0
138 -20 -202 15 10 0
-106 38 244 -25 -136 199 207 170 201 94 0
244 -25 170 199 -136 201 -232 -190 -106 185 0
-52 186 -193 189 -90 -138 -123 212 10 0
111 17 -208 172 241 224 251 0
-138 -52 50 189 211 -90 24 10 81 0
90 -185 -122 -202 -142 12 -94 20 -173 0
-120 231 -198 240 -87 -184 16 45 0
199 252 81 -25 -136 -12 244 201 141 71 0
-216 -33 -36 -26 35 40 72 -60 -29 -149 11 0
77 149 208 -2 -39 -231 0
-181 -244 156 51 141 217 249 13 73 52 0
-106 156 136 -181 73 -37 249 -189 51 13 0
10 -138 -123 217 -90 189 169 157 -52 0
-200 141 217 249 90 13 156 -201 -181 73 0
-122 22 -107 -224 94 -215 -46 20 0
-92 -187 -68 -130 39 69 88 0
-52 169 -90 -138 10 -193 189 212 -62 0
138 12 -185 186 -28 -173 20 -94 -202 0
68 212 -187 86 -106 -153 -3 0
69 130 -182 -5 219 -112 -76 -13 56 246 0
213 -36 11 -149 40 114 -60 -216 -26 168 -161 0
169 -160 -52 -193 -90 -138 211 189 10 0
-15 52 -173 -160 12 -122 -94 -185 -28 0
138 20 -185 -173 -160 -61 230 -94 12 0
-160 24 -138 -52 211 189 10 -90 157 0
138 -181 13 217 -106 249 137 -201 73 156 0
-22 17 111 -95 -208 251 146 0
-202 -173 -15 -42 -94 -185 90 12 235 0
-53 40 -113 -127 238 9 59 -199 0
88 -18 -130 -92 39 153 54 0
-137 -106 173 200 136 -51 252 0
-44 -125 -16 -39 -57 -147 116 0
113 108 257 -103 242 154 -253 -48 0
-202 -52 -90 212 170 -138 10 189 186 0
-125 83 -57 130 -16 -165 248 0
-101 -243 -102 -163 -132 206 -139 14 10 0
-122 12 52 230 -15 -185 -173 -94 50 0
83 -16 -254 -88 -225 -165 -125 0
94 200 -106 136 -232 -51 -137 0
98 183 136 158 -172 -226 95 236 197 0
-123 -52 10 -61 -138 81 189 -90 211 0
172 111 167 -208 251 17 224 0
255 -82 -141 90 106 152 0
173 -232 -137 -51 200 141 136 0
230 -132 139 20 -12 82 0
-90 169 -193 189 -52 10 -138 217 -160 0
-116 69 -248 31 -56 254 -165 0
164 218 -66 0
208 -231 77 -39 60 -119 0
-106 44 165 -34 -204 -112 -58 -88 0
-173 230 12 -94 186 20 138 -185 -202 0
199 81 173 244 -106 97 -228 -136 201 -25 0
-76 -188 219 -112 246 -5 130 56 -156 -182 0
185 -136 -232 199 97 201 244 141 -25 157 0
249 -106 217 -181 73 13 52 -244 51 156 0
-93 -256 -191 -234 -63 54 -201 -171 115 0
-138 -160 189 -52 212 -90 10 169 -193 0
244 81 -106 -136 97 207 -25 201 -12 199 0
-90 157 -52 14 -202 189 -61 -138 10 0
-191 -93 115 -199 54 -234 -63 -250 -171 0
-202 -173 20 230 -94 12 235 90 -185 0
-106 201 -177 244 -136 -12 81 207 199 -25 0
251 -208 -98 17 -22 -131 -55 0
-189 156 73 137 13 249 141 -244 -181 -37 0
130 -204 -106 -109 44 165 -58 -34 0
186 -15 -28 90 -94 -173 12 -185 50 0
-161 -216 -118 -26 -29 11 -36 -124 -60 -149 40 0
-52 -193 189 -90 14 50 -138 10 186 0
207 170 199 94 244 -106 -25 201 -136 -177 0
73 14 13 141 156 249 137 -181 -201 -189 0
-193 -138 -160 235 -52 212 -90 189 10 0
-152 46 20 -82 30 0
10 189 -123 -52 -138 -90 -61 -85 81 0
189 10 157 -52 -138 -233 -90 211 -122 0
-95 251 17 -131 107 111 -208 0
-132 99 89 215 -108 140 128 0
156 141 -37 90 -181 25 249 13 137 73 0
2 -17 64 119 143 -158 0
-16 -125 -225 -92 -88 116 -165 0
-189 -42 -185 -15 12 -94 -62 -173 169 0
199 38 201 -136 81 173 -228 -25 244 -106 0
49 -154 89 -132 1 257 215 0
12 -42 -189 -123 -173 -122 -94 -185 20 0
10 189 -52 212 -138 -123 81 169 -90 0
-12 -190 141 252 244 199 201 -25 -136 170 0
-123 -15 12 -173 -42 -94 138 -185 -122 0
-52 189 -122 81 -90 -138 -123 10 211 0
186 -142 -189 -173 20 -185 12 -123 -94 0
-106 13 249 52 73 51 25 156 -85 -181 0
-136 157 -12 38 244 -25 199 -228 -106 201 0
-19 0
-141 -65 -139 152 106 90 0
-94 -173 -233 -42 -61 -185 -15 12 -189 0
20 -185 -173 12 230 -233 169 -94 138 0
141 13 249 73 212 -200 156 -181 -244 138 0
114 -36 -149 -33 -26 -216 35 11 -60 40 -29 0
-231 77 208 -11 -119 -88 0
-185 -122 20 -94 230 12 138 -173 -160 0
-76 -5 -13 246 -112 134 130 -182 219 56 0
-200 141 52 14 25 249 -181 156 73 13 0
-85 -201 -181 249 51 13 90 141 73 156 0
-170 -81 -103 193 -113 -89 -157 242 -132 0
-94 205 186 12 90 20 -160 -173 -185 0
-149 -60 -26 35 91 -216 11 114 -229 -36 40 0
-208 107 241 251 17 -158 111 0
-138 -52 169 10 -233 -37 -90 81 189 0
25 -181 -106 13 156 -85 -200 73 138 249 0
-202 -52 211 170 10 189 -90 -138 -122 0
141 -25 244 81 -190 252 201 199 -136 94 0
-16 -225 -44 -125 -39 -6 -31 0
-231 77 -2 -11 -251 -39 0
50 -189 -28 -185 186 -94 12 20 -173 0
-122 52 12 -94 -42 -62 20 -185 -173 0
-228 173 -136 -106 81 201 199 -177 -25 244 0
-125 -165 130 -92 -254 -57 -16 0
-25 -228 201 38 199 -106 94 -136 157 244 0
-142 -173 52 -160 -185 20 -94 12 -61 0
-248 -116 69 31 -44 254 -246 0
-25 -193 201 244 -136 -12 199 -106 -228 38 0
-109 -182 130 -5 56 246 -214 219 -76 -249 0
-173 -15 -42 90 -123 12 -94 -185 24 0
24 -185 -142 50 12 -94 -189 20 -173 0
-37 -90 24 -138 -52 -123 10 170 189 0
-90 -62 -85 10 -52 -61 189 -138 -193 0
20 24 -94 -185 -173 12 -42 90 -202 0
244 -25 -232 199 -106 -136 -190 201 173 170 0
-16 -165 -39 -6 -57 -254 -125 0
82 -28 139 -15 173 -132 0
56 -13 134 246 -88 219 -112 -76 -5 -182 0
225 130 67 57 -62 0
-233 57 225 -145 -88 0
189 -52 217 -193 -62 -90 -138 10 -122 0
-3 54 86 212 -153 68 -106 0
-107 24 22 -12 -46 -215 -15 -224 0
-177 173 -25 -193 201 141 -228 199 -136 244 0
-195 -165 -132 -246 41 16 -164 0
-106 13 -201 14 156 249 90 -200 -181 73 0
-122 12 52 -15 -94 -173 -185 -62 -28 0
194 -216 -149 -36 -161 11 114 -26 -80 -60 40 0
-142 -94 138 24 -173 -15 -185 12 -62 0
199 -25 185 201 252 -136 141 244 81 97 0
-157 -179 242 -132 -170 -89 48 -81 193 0
217 -201 -106 156 249 52 51 73 13 -181 0
-138 -90 189 -193 10 -160 211 235 -52 0
-138 -160 81 10 -52 -61 217 -90 189 0
-202 -138 189 10 -52 170 24 -90 217 0
-61 -42 -94 -173 -123 90 12 -185 20 0
105 87 19 0
-235 61 -24 -193 30 122 -186 -89 -169 0
-173 12 -189 230 -15 -185 235 -94 50 0
51 156 -106 -181 25 13 73 -189 249 -37 0
-203 -188 -210 34 -139 0
-173 -189 -185 20 12 24 -202 205 -94 0
169 -15 22 -224 -215 -12 -46 -107 0
-76 -188 -39 -156 56 -109 219 -182 -5 246 0
-15 -224 -107 -215 -46 22 186 94 0
-94 -15 -173 -202 52 -185 169 -142 12 0
-42 24 -94 20 -173 12 -185 -189 -123 0
185 -107 -46 -224 22 -15 -215 169 0
12 -202 -42 138 20 -94 -185 186 -173 0
48 128 140 215 89 -132 49 0
-17 77 -231 149 130 -2 0
-132 215 89 1 257 99 -113 0
-55 -208 107 241 17 251 -95 0
12 -94 -15 -185 90 -173 205 -233 -61 0
-188 -210 117 -139 34 0
-173 -123 -185 -61 90 12 -142 -15 -94 0
-73 130 56 -188 -76 -145 219 -182 246 -5 0
-88 246 56 -182 -188 219 -249 -76 -112 -5 0
58 254 -248 -219 -188 -116 31 0
189 -90 -61 -52 211 170 -138 -123 10 0
-157 -81 -170 242 -132 -215 -220 -108 193 0
252 -177 185 -193 -136 -106 244 201 199 -25 0
77 -231 208 130 -64 -11 0
-251 -231 77 216 -2 -39 0
54 39 -188 -130 88 -86 -147 0
-173 -185 -15 12 -160 -94 205 -189 -61 0
83 39 -187 88 -130 -86 -188 0
-187 39 88 -92 -188 -86 -130 0
167 172 46 -209 251 17 -208 0
213 -36 -216 -149 -80 -26 -161 11 40 -78 -60 0
186 189 81 -52 -138 -160 -90 14 10 0
-36 -229 35 -118 11 -26 -124 -60 -216 -149 40 0
-170 253 -132 -215 -157 140 193 -81 -103 0
-52 -193 -138 189 10 -37 -90 169 -62 0
134 67 56 246 -76 130 -5 -13 -182 219 0
-138 10 -90 189 -52 186 -160 157 217 0
67 219 -39 134 -5 181 -182 56 -76 246 0
-215 -81 193 -132 253 242 -103 -157 -170 0
199 244 -25 -190 201 -136 141 -96 185 -193 0
17 167 111 251 -98 107 -208 0
205 -94 12 52 20 -202 -173 -185 169 0
39 -130 126 88 -68 54 -147 0
-181 156 13 -199 -200 73 -85 -106 249 52 0
-173 -122 -233 12 -142 -185 -15 -94 -189 0
-173 230 -94 235 90 -185 -15 12 -123 0
-74 -72 -119 -68 78 -114 124 0
-173 20 -94 90 -160 -185 -42 12 -122 0
12 20 -173 -123 -61 -94 -189 -185 205 0
-88 -109 -76 -182 -5 56 -13 -214 219 246 0
-236 -43 -61 224 0
251 -208 111 146 -158 224 17 0
12 -160 -189 169 -15 -94 -185 -28 -173 0
173 -183 248 8 0
186 -22 -236 -43 0
-62 186 -90 -52 -138 10 170 217 189 0
-89 157 122 -227 61 -169 -235 -186 -24 0
-199 -137 94 -51 200 -228 141 0
35 -216 -29 -36 -32 -60 11 -26 40 -149 114 0
244 -25 199 201 252 173 -136 141 -193 97 0
-138 186 10 -160 189 -90 157 -52 212 0
199 201 141 -25 -232 244 71 -193 185 -136 0
141 -244 -181 211 249 156 13 137 -189 73 0
-226 173 -183 -31 0
141 244 94 71 -136 201 -193 -25 199 -232 0
-225 -6 -44 -125 -254 130 -16 0
-15 -94 169 50 -185 -173 -28 90 12 0
146 46 251 17 172 -208 -209 0
90 -202 -94 12 -185 -173 186 -15 -42 0
-10 -47 -215 0
-186 -169 -215 170 30 -24 -235 122 61 0
