p cnf 800 7850
1 2 3 4 5 6 7 8 9 10 11 12 13 14 15 16 17 18 19 20 0
21 22 23 24 25 26 27 28 29 30 31 32 33 34 35 36 37 38 39 40 0
41 42 43 44 45 46 47 48 49 50 51 52 53 54 55 56 57 58 59 60 0
61 62 63 64 65 66 67 68 69 70 71 72 73 74 75 76 77 78 79 80 0
81 82 83 84 85 86 87 88 89 90 91 92 93 94 95 96 97 98 99 100 0
101 102 103 104 105 106 107 108 109 110 111 112 113 114 115 116 117 118 119 120 0
121 122 123 124 125 126 127 128 129 130 131 132 133 134 135 136 137 138 139 140 0
141 142 143 144 145 146 147 148 149 150 151 152 153 154 155 156 157 158 159 160 0
161 162 163 164 165 166 167 168 169 170 171 172 173 174 175 176 177 178 179 180 0
181 182 183 184 185 186 187 188 189 190 191 192 193 194 195 196 197 198 199 200 0
201 202 203 204 205 206 207 208 209 210 211 212 213 214 215 216 217 218 219 220 0
221 222 223 224 225 226 227 228 229 230 231 232 233 234 235 236 237 238 239 240 0
241 242 243 244 245 246 247 248 249 250 251 252 253 254 255 256 257 258 259 260 0
261 262 263 264 265 266 267 268 269 270 271 272 273 274 275 276 277 278 279 280 0
281 282 283 284 285 286 287 288 289 290 291 292 293 294 295 296 297 298 299 300 0
301 302 303 304 305 306 307 308 309 310 311 312 313 314 315 316 317 318 319 320 0
321 322 323 324 325 326 327 328 329 330 331 332 333 334 335 336 337 338 339 340 0
341 342 343 344 345 346 347 348 349 350 351 352 353 354 355 356 357 358 359 360 0
361 362 363 364 365 366 367 368 369 370 371 372 373 374 375 376 377 378 379 380 0
381 382 383 384 385 386 387 388 389 390 391 392 393 394 395 396 397 398 399 400 0
-1 -21 0
-1 -41 0
-1 -61 0
-1 -81 0
-1 -101 0
-1 -121 0
-1 -141 0
-1 -161 0
-1 -181 0
-1 -201 0
-1 -221 0
-1 -241 0
-1 -261 0
-1 -281 0
-1 -301 0
-1 -321 0
-1 -341 0
-1 -361 0
-1 -381 0
-21 -41 0
-21 -61 0
-21 -81 0
-21 -101 0
-21 -121 0
-21 -141 0
-21 -161 0
-21 -181 0
-21 -201 0
-21 -221 0
-21 -241 0
-21 -261 0
-21 -281 0
-21 -301 0
-21 -321 0
-21 -341 0
-21 -361 0
-21 -381 0
-41 -61 0
-41 -81 0
-41 -101 0
-41 -121 0
-41 -141 0
-41 -161 0
-41 -181 0
-41 -201 0
-41 -221 0
-41 -241 0
-41 -261 0
-41 -281 0
-41 -301 0
-41 -321 0
-41 -341 0
-41 -361 0
-41 -381 0
-61 -81 0
-61 -101 0
-61 -121 0
-61 -141 0
-61 -161 0
-61 -181 0
-61 -201 0
-61 -221 0
-61 -241 0
-61 -261 0
-61 -281 0
-61 -301 0
-61 -321 0
-61 -341 0
-61 -361 0
-61 -381 0
-81 -101 0
-81 -121 0
-81 -141 0
-81 -161 0
-81 -181 0
-81 -201 0
-81 -221 0
-81 -241 0
-81 -261 0
-81 -281 0
-81 -301 0
-81 -321 0
-81 -341 0
-81 -361 0
-81 -381 0
-101 -121 0
-101 -141 0
-101 -161 0
-101 -181 0
-101 -201 0
-101 -221 0
-101 -241 0
-101 -261 0
-101 -281 0
-101 -301 0
-101 -321 0
-101 -341 0
-101 -361 0
-101 -381 0
-121 -141 0
-121 -161 0
-121 -181 0
-121 -201 0
-121 -221 0
-121 -241 0
-121 -261 0
-121 -281 0
-121 -301 0
-121 -321 0
-121 -341 0
-121 -361 0
-121 -381 0
-141 -161 0
-141 -181 0
-141 -201 0
-141 -221 0
-141 -241 0
-141 -261 0
-141 -281 0
-141 -301 0
-141 -321 0
-141 -341 0
-141 -361 0
-141 -381 0
-161 -181 0
-161 -201 0
-161 -221 0
-161 -241 0
-161 -261 0
-161 -281 0
-161 -301 0
-161 -321 0
-161 -341 0
-161 -361 0
-161 -381 0
-181 -201 0
-181 -221 0
-181 -241 0
-181 -261 0
-181 -281 0
-181 -301 0
-181 -321 0
-181 -341 0
-181 -361 0
-181 -381 0
-201 -221 0
-201 -241 0
-201 -261 0
-201 -281 0
-201 -301 0
-201 -321 0
-201 -341 0
-201 -361 0
-201 -381 0
-221 -241 0
-221 -261 0
-221 -281 0
-221 -301 0
-221 -321 0
-221 -341 0
-221 -361 0
-221 -381 0
-241 -261 0
-241 -281 0
-241 -301 0
-241 -321 0
-241 -341 0
-241 -361 0
-241 -381 0
-261 -281 0
-261 -301 0
-261 -321 0
-261 -341 0
-261 -361 0
-261 -381 0
-281 -301 0
-281 -321 0
-281 -341 0
-281 -361 0
-281 -381 0
-301 -321 0
-301 -341 0
-301 -361 0
-301 -381 0
-321 -341 0
-321 -361 0
-321 -381 0
-341 -361 0
-341 -381 0
-361 -381 0
-2 -22 0
-2 -42 0
-2 -62 0
-2 -82 0
-2 -102 0
-2 -122 0
-2 -142 0
-2 -162 0
-2 -182 0
-2 -202 0
-2 -222 0
-2 -242 0
-2 -262 0
-2 -282 0
-2 -302 0
-2 -322 0
-2 -342 0
-2 -362 0
-2 -382 0
-22 -42 0
-22 -62 0
-22 -82 0
-22 -102 0
-22 -122 0
-22 -142 0
-22 -162 0
-22 -182 0
-22 -202 0
-22 -222 0
-22 -242 0
-22 -262 0
-22 -282 0
-22 -302 0
-22 -322 0
-22 -342 0
-22 -362 0
-22 -382 0
-42 -62 0
-42 -82 0
-42 -102 0
-42 -122 0
-42 -142 0
-42 -162 0
-42 -182 0
-42 -202 0
-42 -222 0
-42 -242 0
-42 -262 0
-42 -282 0
-42 -302 0
-42 -322 0
-42 -342 0
-42 -362 0
-42 -382 0
-62 -82 0
-62 -102 0
-62 -122 0
-62 -142 0
-62 -162 0
-62 -182 0
-62 -202 0
-62 -222 0
-62 -242 0
-62 -262 0
-62 -282 0
-62 -302 0
-62 -322 0
-62 -342 0
-62 -362 0
-62 -382 0
-82 -102 0
-82 -122 0
-82 -142 0
-82 -162 0
-82 -182 0
-82 -202 0
-82 -222 0
-82 -242 0
-82 -262 0
-82 -282 0
-82 -302 0
-82 -322 0
-82 -342 0
-82 -362 0
-82 -382 0
-102 -122 0
-102 -142 0
-102 -162 0
-102 -182 0
-102 -202 0
-102 -222 0
-102 -242 0
-102 -262 0
-102 -282 0
-102 -302 0
-102 -322 0
-102 -342 0
-102 -362 0
-102 -382 0
-122 -142 0
-122 -162 0
-122 -182 0
-122 -202 0
-122 -222 0
-122 -242 0
-122 -262 0
-122 -282 0
-122 -302 0
-122 -322 0
-122 -342 0
-122 -362 0
-122 -382 0
-142 -162 0
-142 -182 0
-142 -202 0
-142 -222 0
-142 -242 0
-142 -262 0
-142 -282 0
-142 -302 0
-142 -322 0
-142 -342 0
-142 -362 0
-142 -382 0
-162 -182 0
-162 -202 0
-162 -222 0
-162 -242 0
-162 -262 0
-162 -282 0
-162 -302 0
-162 -322 0
-162 -342 0
-162 -362 0
-162 -382 0
-182 -202 0
-182 -222 0
-182 -242 0
-182 -262 0
-182 -282 0
-182 -302 0
-182 -322 0
-182 -342 0
-182 -362 0
-182 -382 0
-202 -222 0
-202 -242 0
-202 -262 0
-202 -282 0
-202 -302 0
-202 -322 0
-202 -342 0
-202 -362 0
-202 -382 0
-222 -242 0
-222 -262 0
-222 -282 0
-222 -302 0
-222 -322 0
-222 -342 0
-222 -362 0
-222 -382 0
-242 -262 0
-242 -282 0
-242 -302 0
-242 -322 0
-242 -342 0
-242 -362 0
-242 -382 0
-262 -282 0
-262 -302 0
-262 -322 0
-262 -342 0
-262 -362 0
-262 -382 0
-282 -302 0
-282 -322 0
-282 -342 0
-282 -362 0
-282 -382 0
-302 -322 0
-302 -342 0
-302 -362 0
-302 -382 0
-322 -342 0
-322 -362 0
-322 -382 0
-342 -362 0
-342 -382 0
-362 -382 0
-3 -23 0
-3 -43 0
-3 -63 0
-3 -83 0
-3 -103 0
-3 -123 0
-3 -143 0
-3 -163 0
-3 -183 0
-3 -203 0
-3 -223 0
-3 -243 0
-3 -263 0
-3 -283 0
-3 -303 0
-3 -323 0
-3 -343 0
-3 -363 0
-3 -383 0
-23 -43 0
-23 -63 0
-23 -83 0
-23 -103 0
-23 -123 0
-23 -143 0
-23 -163 0
-23 -183 0
-23 -203 0
-23 -223 0
-23 -243 0
-23 -263 0
-23 -283 0
-23 -303 0
-23 -323 0
-23 -343 0
-23 -363 0
-23 -383 0
-43 -63 0
-43 -83 0
-43 -103 0
-43 -123 0
-43 -143 0
-43 -163 0
-43 -183 0
-43 -203 0
-43 -223 0
-43 -243 0
-43 -263 0
-43 -283 0
-43 -303 0
-43 -323 0
-43 -343 0
-43 -363 0
-43 -383 0
-63 -83 0
-63 -103 0
-63 -123 0
-63 -143 0
-63 -163 0
-63 -183 0
-63 -203 0
-63 -223 0
-63 -243 0
-63 -263 0
-63 -283 0
-63 -303 0
-63 -323 0
-63 -343 0
-63 -363 0
-63 -383 0
-83 -103 0
-83 -123 0
-83 -143 0
-83 -163 0
-83 -183 0
-83 -203 0
-83 -223 0
-83 -243 0
-83 -263 0
-83 -283 0
-83 -303 0
-83 -323 0
-83 -343 0
-83 -363 0
-83 -383 0
-103 -123 0
-103 -143 0
-103 -163 0
-103 -183 0
-103 -203 0
-103 -223 0
-103 -243 0
-103 -263 0
-103 -283 0
-103 -303 0
-103 -323 0
-103 -343 0
-103 -363 0
-103 -383 0
-123 -143 0
-123 -163 0
-123 -183 0
-123 -203 0
-123 -223 0
-123 -243 0
-123 -263 0
-123 -283 0
-123 -303 0
-123 -323 0
-123 -343 0
-123 -363 0
-123 -383 0
-143 -163 0
-143 -183 0
-143 -203 0
-143 -223 0
-143 -243 0
-143 -263 0
-143 -283 0
-143 -303 0
-143 -323 0
-143 -343 0
-143 -363 0
-143 -383 0
-163 -183 0
-163 -203 0
-163 -223 0
-163 -243 0
-163 -263 0
-163 -283 0
-163 -303 0
-163 -323 0
-163 -343 0
-163 -363 0
-163 -383 0
-183 -203 0
-183 -223 0
-183 -243 0
-183 -263 0
-183 -283 0
-183 -303 0
-183 -323 0
-183 -343 0
-183 -363 0
-183 -383 0
-203 -223 0
-203 -243 0
-203 -263 0
-203 -283 0
-203 -303 0
-203 -323 0
-203 -343 0
-203 -363 0
-203 -383 0
-223 -243 0
-223 -263 0
-223 -283 0
-223 -303 0
-223 -323 0
-223 -343 0
-223 -363 0
-223 -383 0
-243 -263 0
-243 -283 0
-243 -303 0
-243 -323 0
-243 -343 0
-243 -363 0
-243 -383 0
-263 -283 0
-263 -303 0
-263 -323 0
-263 -343 0
-263 -363 0
-263 -383 0
-283 -303 0
-283 -323 0
-283 -343 0
-283 -363 0
-283 -383 0
-303 -323 0
-303 -343 0
-303 -363 0
-303 -383 0
-323 -343 0
-323 -363 0
-323 -383 0
-343 -363 0
-343 -383 0
-363 -383 0
-4 -24 0
-4 -44 0
-4 -64 0
-4 -84 0
-4 -104 0
-4 -124 0
-4 -144 0
-4 -164 0
-4 -184 0
-4 -204 0
-4 -224 0
-4 -244 0
-4 -264 0
-4 -284 0
-4 -304 0
-4 -324 0
-4 -344 0
-4 -364 0
-4 -384 0
-24 -44 0
-24 -64 0
-24 -84 0
-24 -104 0
-24 -124 0
-24 -144 0
-24 -164 0
-24 -184 0
-24 -204 0
-24 -224 0
-24 -244 0
-24 -264 0
-24 -284 0
-24 -304 0
-24 -324 0
-24 -344 0
-24 -364 0
-24 -384 0
-44 -64 0
-44 -84 0
-44 -104 0
-44 -124 0
-44 -144 0
-44 -164 0
-44 -184 0
-44 -204 0
-44 -224 0
-44 -244 0
-44 -264 0
-44 -284 0
-44 -304 0
-44 -324 0
-44 -344 0
-44 -364 0
-44 -384 0
-64 -84 0
-64 -104 0
-64 -124 0
-64 -144 0
-64 -164 0
-64 -184 0
-64 -204 0
-64 -224 0
-64 -244 0
-64 -264 0
-64 -284 0
-64 -304 0
-64 -324 0
-64 -344 0
-64 -364 0
-64 -384 0
-84 -104 0
-84 -124 0
-84 -144 0
-84 -164 0
-84 -184 0
-84 -204 0
-84 -224 0
-84 -244 0
-84 -264 0
-84 -284 0
-84 -304 0
-84 -324 0
-84 -344 0
-84 -364 0
-84 -384 0
-104 -124 0
-104 -144 0
-104 -164 0
-104 -184 0
-104 -204 0
-104 -224 0
-104 -244 0
-104 -264 0
-104 -284 0
-104 -304 0
-104 -324 0
-104 -344 0
-104 -364 0
-104 -384 0
-124 -144 0
-124 -164 0
-124 -184 0
-124 -204 0
-124 -224 0
-124 -244 0
-124 -264 0
-124 -284 0
-124 -304 0
-124 -324 0
-124 -344 0
-124 -364 0
-124 -384 0
-144 -164 0
-144 -184 0
-144 -204 0
-144 -224 0
-144 -244 0
-144 -264 0
-144 -284 0
-144 -304 0
-144 -324 0
-144 -344 0
-144 -364 0
-144 -384 0
-164 -184 0
-164 -204 0
-164 -224 0
-164 -244 0
-164 -264 0
-164 -284 0
-164 -304 0
-164 -324 0
-164 -344 0
-164 -364 0
-164 -384 0
-184 -204 0
-184 -224 0
-184 -244 0
-184 -264 0
-184 -284 0
-184 -304 0
-184 -324 0
-184 -344 0
-184 -364 0
-184 -384 0
-204 -224 0
-204 -244 0
-204 -264 0
-204 -284 0
-204 -304 0
-204 -324 0
-204 -344 0
-204 -364 0
-204 -384 0
-224 -244 0
-224 -264 0
-224 -284 0
-224 -304 0
-224 -324 0
-224 -344 0
-224 -364 0
-224 -384 0
-244 -264 0
-244 -284 0
-244 -304 0
-244 -324 0
-244 -344 0
-244 -364 0
-244 -384 0
-264 -284 0
-264 -304 0
-264 -324 0
-264 -344 0
-264 -364 0
-264 -384 0
-284 -304 0
-284 -324 0
-284 -344 0
-284 -364 0
-284 -384 0
-304 -324 0
-304 -344 0
-304 -364 0
-304 -384 0
-324 -344 0
-324 -364 0
-324 -384 0
-344 -364 0
-344 -384 0
-364 -384 0
-5 -25 0
-5 -45 0
-5 -65 0
-5 -85 0
-5 -105 0
-5 -125 0
-5 -145 0
-5 -165 0
-5 -185 0
-5 -205 0
-5 -225 0
-5 -245 0
-5 -265 0
-5 -285 0
-5 -305 0
-5 -325 0
-5 -345 0
-5 -365 0
-5 -385 0
-25 -45 0
-25 -65 0
-25 -85 0
-25 -105 0
-25 -125 0
-25 -145 0
-25 -165 0
-25 -185 0
-25 -205 0
-25 -225 0
-25 -245 0
-25 -265 0
-25 -285 0
-25 -305 0
-25 -325 0
-25 -345 0
-25 -365 0
-25 -385 0
-45 -65 0
-45 -85 0
-45 -105 0
-45 -125 0
-45 -145 0
-45 -165 0
-45 -185 0
-45 -205 0
-45 -225 0
-45 -245 0
-45 -265 0
-45 -285 0
-45 -305 0
-45 -325 0
-45 -345 0
-45 -365 0
-45 -385 0
-65 -85 0
-65 -105 0
-65 -125 0
-65 -145 0
-65 -165 0
-65 -185 0
-65 -205 0
-65 -225 0
-65 -245 0
-65 -265 0
-65 -285 0
-65 -305 0
-65 -325 0
-65 -345 0
-65 -365 0
-65 -385 0
-85 -105 0
-85 -125 0
-85 -145 0
-85 -165 0
-85 -185 0
-85 -205 0
-85 -225 0
-85 -245 0
-85 -265 0
-85 -285 0
-85 -305 0
-85 -325 0
-85 -345 0
-85 -365 0
-85 -385 0
-105 -125 0
-105 -145 0
-105 -165 0
-105 -185 0
-105 -205 0
-105 -225 0
-105 -245 0
-105 -265 0
-105 -285 0
-105 -305 0
-105 -325 0
-105 -345 0
-105 -365 0
-105 -385 0
-125 -145 0
-125 -165 0
-125 -185 0
-125 -205 0
-125 -225 0
-125 -245 0
-125 -265 0
-125 -285 0
-125 -305 0
-125 -325 0
-125 -345 0
-125 -365 0
-125 -385 0
-145 -165 0
-145 -185 0
-145 -205 0
-145 -225 0
-145 -245 0
-145 -265 0
-145 -285 0
-145 -305 0
-145 -325 0
-145 -345 0
-145 -365 0
-145 -385 0
-165 -185 0
-165 -205 0
-165 -225 0
-165 -245 0
-165 -265 0
-165 -285 0
-165 -305 0
-165 -325 0
-165 -345 0
-165 -365 0
-165 -385 0
-185 -205 0
-185 -225 0
-185 -245 0
-185 -265 0
-185 -285 0
-185 -305 0
-185 -325 0
-185 -345 0
-185 -365 0
-185 -385 0
-205 -225 0
-205 -245 0
-205 -265 0
-205 -285 0
-205 -305 0
-205 -325 0
-205 -345 0
-205 -365 0
-205 -385 0
-225 -245 0
-225 -265 0
-225 -285 0
-225 -305 0
-225 -325 0
-225 -345 0
-225 -365 0
-225 -385 0
-245 -265 0
-245 -285 0
-245 -305 0
-245 -325 0
-245 -345 0
-245 -365 0
-245 -385 0
-265 -285 0
-265 -305 0
-265 -325 0
-265 -345 0
-265 -365 0
-265 -385 0
-285 -305 0
-285 -325 0
-285 -345 0
-285 -365 0
-285 -385 0
-305 -325 0
-305 -345 0
-305 -365 0
-305 -385 0
-325 -345 0
-325 -365 0
-325 -385 0
-345 -365 0
-345 -385 0
-365 -385 0
-6 -26 0
-6 -46 0
-6 -66 0
-6 -86 0
-6 -106 0
-6 -126 0
-6 -146 0
-6 -166 0
-6 -186 0
-6 -206 0
-6 -226 0
-6 -246 0
-6 -266 0
-6 -286 0
-6 -306 0
-6 -326 0
-6 -346 0
-6 -366 0
-6 -386 0
-26 -46 0
-26 -66 0
-26 -86 0
-26 -106 0
-26 -126 0
-26 -146 0
-26 -166 0
-26 -186 0
-26 -206 0
-26 -226 0
-26 -246 0
-26 -266 0
-26 -286 0
-26 -306 0
-26 -326 0
-26 -346 0
-26 -366 0
-26 -386 0
-46 -66 0
-46 -86 0
-46 -106 0
-46 -126 0
-46 -146 0
-46 -166 0
-46 -186 0
-46 -206 0
-46 -226 0
-46 -246 0
-46 -266 0
-46 -286 0
-46 -306 0
-46 -326 0
-46 -346 0
-46 -366 0
-46 -386 0
-66 -86 0
-66 -106 0
-66 -126 0
-66 -146 0
-66 -166 0
-66 -186 0
-66 -206 0
-66 -226 0
-66 -246 0
-66 -266 0
-66 -286 0
-66 -306 0
-66 -326 0
-66 -346 0
-66 -366 0
-66 -386 0
-86 -106 0
-86 -126 0
-86 -146 0
-86 -166 0
-86 -186 0
-86 -206 0
-86 -226 0
-86 -246 0
-86 -266 0
-86 -286 0
-86 -306 0
-86 -326 0
-86 -346 0
-86 -366 0
-86 -386 0
-106 -126 0
-106 -146 0
-106 -166 0
-106 -186 0
-106 -206 0
-106 -226 0
-106 -246 0
-106 -266 0
-106 -286 0
-106 -306 0
-106 -326 0
-106 -346 0
-106 -366 0
-106 -386 0
-126 -146 0
-126 -166 0
-126 -186 0
-126 -206 0
-126 -226 0
-126 -246 0
-126 -266 0
-126 -286 0
-126 -306 0
-126 -326 0
-126 -346 0
-126 -366 0
-126 -386 0
-146 -166 0
-146 -186 0
-146 -206 0
-146 -226 0
-146 -246 0
-146 -266 0
-146 -286 0
-146 -306 0
-146 -326 0
-146 -346 0
-146 -366 0
-146 -386 0
-166 -186 0
-166 -206 0
-166 -226 0
-166 -246 0
-166 -266 0
-166 -286 0
-166 -306 0
-166 -326 0
-166 -346 0
-166 -366 0
-166 -386 0
-186 -206 0
-186 -226 0
-186 -246 0
-186 -266 0
-186 -286 0
-186 -306 0
-186 -326 0
-186 -346 0
-186 -366 0
-186 -386 0
-206 -226 0
-206 -246 0
-206 -266 0
-206 -286 0
-206 -306 0
-206 -326 0
-206 -346 0
-206 -366 0
-206 -386 0
-226 -246 0
-226 -266 0
-226 -286 0
-226 -306 0
-226 -326 0
-226 -346 0
-226 -366 0
-226 -386 0
-246 -266 0
-246 -286 0
-246 -306 0
-246 -326 0
-246 -346 0
-246 -366 0
-246 -386 0
-266 -286 0
-266 -306 0
-266 -326 0
-266 -346 0
-266 -366 0
-266 -386 0
-286 -306 0
-286 -326 0
-286 -346 0
-286 -366 0
-286 -386 0
-306 -326 0
-306 -346 0
-306 -366 0
-306 -386 0
-326 -346 0
-326 -366 0
-326 -386 0
-346 -366 0
-346 -386 0
-366 -386 0
-7 -27 0
-7 -47 0
-7 -67 0
-7 -87 0
-7 -107 0
-7 -127 0
-7 -147 0
-7 -167 0
-7 -187 0
-7 -207 0
-7 -227 0
-7 -247 0
-7 -267 0
-7 -287 0
-7 -307 0
-7 -327 0
-7 -347 0
-7 -367 0
-7 -387 0
-27 -47 0
-27 -67 0
-27 -87 0
-27 -107 0
-27 -127 0
-27 -147 0
-27 -167 0
-27 -187 0
-27 -207 0
-27 -227 0
-27 -247 0
-27 -267 0
-27 -287 0
-27 -307 0
-27 -327 0
-27 -347 0
-27 -367 0
-27 -387 0
-47 -67 0
-47 -87 0
-47 -107 0
-47 -127 0
-47 -147 0
-47 -167 0
-47 -187 0
-47 -207 0
-47 -227 0
-47 -247 0
-47 -267 0
-47 -287 0
-47 -307 0
-47 -327 0
-47 -347 0
-47 -367 0
-47 -387 0
-67 -87 0
-67 -107 0
-67 -127 0
-67 -147 0
-67 -167 0
-67 -187 0
-67 -207 0
-67 -227 0
-67 -247 0
-67 -267 0
-67 -287 0
-67 -307 0
-67 -327 0
-67 -347 0
-67 -367 0
-67 -387 0
-87 -107 0
-87 -127 0
-87 -147 0
-87 -167 0
-87 -187 0
-87 -207 0
-87 -227 0
-87 -247 0
-87 -267 0
-87 -287 0
-87 -307 0
-87 -327 0
-87 -347 0
-87 -367 0
-87 -387 0
-107 -127 0
-107 -147 0
-107 -167 0
-107 -187 0
-107 -207 0
-107 -227 0
-107 -247 0
-107 -267 0
-107 -287 0
-107 -307 0
-107 -327 0
-107 -347 0
-107 -367 0
-107 -387 0
-127 -147 0
-127 -167 0
-127 -187 0
-127 -207 0
-127 -227 0
-127 -247 0
-127 -267 0
-127 -287 0
-127 -307 0
-127 -327 0
-127 -347 0
-127 -367 0
-127 -387 0
-147 -167 0
-147 -187 0
-147 -207 0
-147 -227 0
-147 -247 0
-147 -267 0
-147 -287 0
-147 -307 0
-147 -327 0
-147 -347 0
-147 -367 0
-147 -387 0
-167 -187 0
-167 -207 0
-167 -227 0
-167 -247 0
-167 -267 0
-167 -287 0
-167 -307 0
-167 -327 0
-167 -347 0
-167 -367 0
-167 -387 0
-187 -207 0
-187 -227 0
-187 -247 0
-187 -267 0
-187 -287 0
-187 -307 0
-187 -327 0
-187 -347 0
-187 -367 0
-187 -387 0
-207 -227 0
-207 -247 0
-207 -267 0
-207 -287 0
-207 -307 0
-207 -327 0
-207 -347 0
-207 -367 0
-207 -387 0
-227 -247 0
-227 -267 0
-227 -287 0
-227 -307 0
-227 -327 0
-227 -347 0
-227 -367 0
-227 -387 0
-247 -267 0
-247 -287 0
-247 -307 0
-247 -327 0
-247 -347 0
-247 -367 0
-247 -387 0
-267 -287 0
-267 -307 0
-267 -327 0
-267 -347 0
-267 -367 0
-267 -387 0
-287 -307 0
-287 -327 0
-287 -347 0
-287 -367 0
-287 -387 0
-307 -327 0
-307 -347 0
-307 -367 0
-307 -387 0
-327 -347 0
-327 -367 0
-327 -387 0
-347 -367 0
-347 -387 0
-367 -387 0
-8 -28 0
-8 -48 0
-8 -68 0
-8 -88 0
-8 -108 0
-8 -128 0
-8 -148 0
-8 -168 0
-8 -188 0
-8 -208 0
-8 -228 0
-8 -248 0
-8 -268 0
-8 -288 0
-8 -308 0
-8 -328 0
-8 -348 0
-8 -368 0
-8 -388 0
-28 -48 0
-28 -68 0
-28 -88 0
-28 -108 0
-28 -128 0
-28 -148 0
-28 -168 0
-28 -188 0
-28 -208 0
-28 -228 0
-28 -248 0
-28 -268 0
-28 -288 0
-28 -308 0
-28 -328 0
-28 -348 0
-28 -368 0
-28 -388 0
-48 -68 0
-48 -88 0
-48 -108 0
-48 -128 0
-48 -148 0
-48 -168 0
-48 -188 0
-48 -208 0
-48 -228 0
-48 -248 0
-48 -268 0
-48 -288 0
-48 -308 0
-48 -328 0
-48 -348 0
-48 -368 0
-48 -388 0
-68 -88 0
-68 -108 0
-68 -128 0
-68 -148 0
-68 -168 0
-68 -188 0
-68 -208 0
-68 -228 0
-68 -248 0
-68 -268 0
-68 -288 0
-68 -308 0
-68 -328 0
-68 -348 0
-68 -368 0
-68 -388 0
-88 -108 0
-88 -128 0
-88 -148 0
-88 -168 0
-88 -188 0
-88 -208 0
-88 -228 0
-88 -248 0
-88 -268 0
-88 -288 0
-88 -308 0
-88 -328 0
-88 -348 0
-88 -368 0
-88 -388 0
-108 -128 0
-108 -148 0
-108 -168 0
-108 -188 0
-108 -208 0
-108 -228 0
-108 -248 0
-108 -268 0
-108 -288 0
-108 -308 0
-108 -328 0
-108 -348 0
-108 -368 0
-108 -388 0
-128 -148 0
-128 -168 0
-128 -188 0
-128 -208 0
-128 -228 0
-128 -248 0
-128 -268 0
-128 -288 0
-128 -308 0
-128 -328 0
-128 -348 0
-128 -368 0
-128 -388 0
-148 -168 0
-148 -188 0
-148 -208 0
-148 -228 0
-148 -248 0
-148 -268 0
-148 -288 0
-148 -308 0
-148 -328 0
-148 -348 0
-148 -368 0
-148 -388 0
-168 -188 0
-168 -208 0
-168 -228 0
-168 -248 0
-168 -268 0
-168 -288 0
-168 -308 0
-168 -328 0
-168 -348 0
-168 -368 0
-168 -388 0
-188 -208 0
-188 -228 0
-188 -248 0
-188 -268 0
-188 -288 0
-188 -308 0
-188 -328 0
-188 -348 0
-188 -368 0
-188 -388 0
-208 -228 0
-208 -248 0
-208 -268 0
-208 -288 0
-208 -308 0
-208 -328 0
-208 -348 0
-208 -368 0
-208 -388 0
-228 -248 0
-228 -268 0
-228 -288 0
-228 -308 0
-228 -328 0
-228 -348 0
-228 -368 0
-228 -388 0
-248 -268 0
-248 -288 0
-248 -308 0
-248 -328 0
-248 -348 0
-248 -368 0
-248 -388 0
-268 -288 0
-268 -308 0
-268 -328 0
-268 -348 0
-268 -368 0
-268 -388 0
-288 -308 0
-288 -328 0
-288 -348 0
-288 -368 0
-288 -388 0
-308 -328 0
-308 -348 0
-308 -368 0
-308 -388 0
-328 -348 0
-328 -368 0
-328 -388 0
-348 -368 0
-348 -388 0
-368 -388 0
-9 -29 0
-9 -49 0
-9 -69 0
-9 -89 0
-9 -109 0
-9 -129 0
-9 -149 0
-9 -169 0
-9 -189 0
-9 -209 0
-9 -229 0
-9 -249 0
-9 -269 0
-9 -289 0
-9 -309 0
-9 -329 0
-9 -349 0
-9 -369 0
-9 -389 0
-29 -49 0
-29 -69 0
-29 -89 0
-29 -109 0
-29 -129 0
-29 -149 0
-29 -169 0
-29 -189 0
-29 -209 0
-29 -229 0
-29 -249 0
-29 -269 0
-29 -289 0
-29 -309 0
-29 -329 0
-29 -349 0
-29 -369 0
-29 -389 0
-49 -69 0
-49 -89 0
-49 -109 0
-49 -129 0
-49 -149 0
-49 -169 0
-49 -189 0
-49 -209 0
-49 -229 0
-49 -249 0
-49 -269 0
-49 -289 0
-49 -309 0
-49 -329 0
-49 -349 0
-49 -369 0
-49 -389 0
-69 -89 0
-69 -109 0
-69 -129 0
-69 -149 0
-69 -169 0
-69 -189 0
-69 -209 0
-69 -229 0
-69 -249 0
-69 -269 0
-69 -289 0
-69 -309 0
-69 -329 0
-69 -349 0
-69 -369 0
-69 -389 0
-89 -109 0
-89 -129 0
-89 -149 0
-89 -169 0
-89 -189 0
-89 -209 0
-89 -229 0
-89 -249 0
-89 -269 0
-89 -289 0
-89 -309 0
-89 -329 0
-89 -349 0
-89 -369 0
-89 -389 0
-109 -129 0
-109 -149 0
-109 -169 0
-109 -189 0
-109 -209 0
-109 -229 0
-109 -249 0
-109 -269 0
-109 -289 0
-109 -309 0
-109 -329 0
-109 -349 0
-109 -369 0
-109 -389 0
-129 -149 0
-129 -169 0
-129 -189 0
-129 -209 0
-129 -229 0
-129 -249 0
-129 -269 0
-129 -289 0
-129 -309 0
-129 -329 0
-129 -349 0
-129 -369 0
-129 -389 0
-149 -169 0
-149 -189 0
-149 -209 0
-149 -229 0
-149 -249 0
-149 -269 0
-149 -289 0
-149 -309 0
-149 -329 0
-149 -349 0
-149 -369 0
-149 -389 0
-169 -189 0
-169 -209 0
-169 -229 0
-169 -249 0
-169 -269 0
-169 -289 0
-169 -309 0
-169 -329 0
-169 -349 0
-169 -369 0
-169 -389 0
-189 -209 0
-189 -229 0
-189 -249 0
-189 -269 0
-189 -289 0
-189 -309 0
-189 -329 0
-189 -349 0
-189 -369 0
-189 -389 0
-209 -229 0
-209 -249 0
-209 -269 0
-209 -289 0
-209 -309 0
-209 -329 0
-209 -349 0
-209 -369 0
-209 -389 0
-229 -249 0
-229 -269 0
-229 -289 0
-229 -309 0
-229 -329 0
-229 -349 0
-229 -369 0
-229 -389 0
-249 -269 0
-249 -289 0
-249 -309 0
-249 -329 0
-249 -349 0
-249 -369 0
-249 -389 0
-269 -289 0
-269 -309 0
-269 -329 0
-269 -349 0
-269 -369 0
-269 -389 0
-289 -309 0
-289 -329 0
-289 -349 0
-289 -369 0
-289 -389 0
-309 -329 0
-309 -349 0
-309 -369 0
-309 -389 0
-329 -349 0
-329 -369 0
-329 -389 0
-349 -369 0
-349 -389 0
-369 -389 0
-10 -30 0
-10 -50 0
-10 -70 0
-10 -90 0
-10 -110 0
-10 -130 0
-10 -150 0
-10 -170 0
-10 -190 0
-10 -210 0
-10 -230 0
-10 -250 0
-10 -270 0
-10 -290 0
-10 -310 0
-10 -330 0
-10 -350 0
-10 -370 0
-10 -390 0
-30 -50 0
-30 -70 0
-30 -90 0
-30 -110 0
-30 -130 0
-30 -150 0
-30 -170 0
-30 -190 0
-30 -210 0
-30 -230 0
-30 -250 0
-30 -270 0
-30 -290 0
-30 -310 0
-30 -330 0
-30 -350 0
-30 -370 0
-30 -390 0
-50 -70 0
-50 -90 0
-50 -110 0
-50 -130 0
-50 -150 0
-50 -170 0
-50 -190 0
-50 -210 0
-50 -230 0
-50 -250 0
-50 -270 0
-50 -290 0
-50 -310 0
-50 -330 0
-50 -350 0
-50 -370 0
-50 -390 0
-70 -90 0
-70 -110 0
-70 -130 0
-70 -150 0
-70 -170 0
-70 -190 0
-70 -210 0
-70 -230 0
-70 -250 0
-70 -270 0
-70 -290 0
-70 -310 0
-70 -330 0
-70 -350 0
-70 -370 0
-70 -390 0
-90 -110 0
-90 -130 0
-90 -150 0
-90 -170 0
-90 -190 0
-90 -210 0
-90 -230 0
-90 -250 0
-90 -270 0
-90 -290 0
-90 -310 0
-90 -330 0
-90 -350 0
-90 -370 0
-90 -390 0
-110 -130 0
-110 -150 0
-110 -170 0
-110 -190 0
-110 -210 0
-110 -230 0
-110 -250 0
-110 -270 0
-110 -290 0
-110 -310 0
-110 -330 0
-110 -350 0
-110 -370 0
-110 -390 0
-130 -150 0
-130 -170 0
-130 -190 0
-130 -210 0
-130 -230 0
-130 -250 0
-130 -270 0
-130 -290 0
-130 -310 0
-130 -330 0
-130 -350 0
-130 -370 0
-130 -390 0
-150 -170 0
-150 -190 0
-150 -210 0
-150 -230 0
-150 -250 0
-150 -270 0
-150 -290 0
-150 -310 0
-150 -330 0
-150 -350 0
-150 -370 0
-150 -390 0
-170 -190 0
-170 -210 0
-170 -230 0
-170 -250 0
-170 -270 0
-170 -290 0
-170 -310 0
-170 -330 0
-170 -350 0
-170 -370 0
-170 -390 0
-190 -210 0
-190 -230 0
-190 -250 0
-190 -270 0
-190 -290 0
-190 -310 0
-190 -330 0
-190 -350 0
-190 -370 0
-190 -390 0
-210 -230 0
-210 -250 0
-210 -270 0
-210 -290 0
-210 -310 0
-210 -330 0
-210 -350 0
-210 -370 0
-210 -390 0
-230 -250 0
-230 -270 0
-230 -290 0
-230 -310 0
-230 -330 0
-230 -350 0
-230 -370 0
-230 -390 0
-250 -270 0
-250 -290 0
-250 -310 0
-250 -330 0
-250 -350 0
-250 -370 0
-250 -390 0
-270 -290 0
-270 -310 0
-270 -330 0
-270 -350 0
-270 -370 0
-270 -390 0
-290 -310 0
-290 -330 0
-290 -350 0
-290 -370 0
-290 -390 0
-310 -330 0
-310 -350 0
-310 -370 0
-310 -390 0
-330 -350 0
-330 -370 0
-330 -390 0
-350 -370 0
-350 -390 0
-370 -390 0
-11 -31 0
-11 -51 0
-11 -71 0
-11 -91 0
-11 -111 0
-11 -131 0
-11 -151 0
-11 -171 0
-11 -191 0
-11 -211 0
-11 -231 0
-11 -251 0
-11 -271 0
-11 -291 0
-11 -311 0
-11 -331 0
-11 -351 0
-11 -371 0
-11 -391 0
-31 -51 0
-31 -71 0
-31 -91 0
-31 -111 0
-31 -131 0
-31 -151 0
-31 -171 0
-31 -191 0
-31 -211 0
-31 -231 0
-31 -251 0
-31 -271 0
-31 -291 0
-31 -311 0
-31 -331 0
-31 -351 0
-31 -371 0
-31 -391 0
-51 -71 0
-51 -91 0
-51 -111 0
-51 -131 0
-51 -151 0
-51 -171 0
-51 -191 0
-51 -211 0
-51 -231 0
-51 -251 0
-51 -271 0
-51 -291 0
-51 -311 0
-51 -331 0
-51 -351 0
-51 -371 0
-51 -391 0
-71 -91 0
-71 -111 0
-71 -131 0
-71 -151 0
-71 -171 0
-71 -191 0
-71 -211 0
-71 -231 0
-71 -251 0
-71 -271 0
-71 -291 0
-71 -311 0
-71 -331 0
-71 -351 0
-71 -371 0
-71 -391 0
-91 -111 0
-91 -131 0
-91 -151 0
-91 -171 0
-91 -191 0
-91 -211 0
-91 -231 0
-91 -251 0
-91 -271 0
-91 -291 0
-91 -311 0
-91 -331 0
-91 -351 0
-91 -371 0
-91 -391 0
-111 -131 0
-111 -151 0
-111 -171 0
-111 -191 0
-111 -211 0
-111 -231 0
-111 -251 0
-111 -271 0
-111 -291 0
-111 -311 0
-111 -331 0
-111 -351 0
-111 -371 0
-111 -391 0
-131 -151 0
-131 -171 0
-131 -191 0
-131 -211 0
-131 -231 0
-131 -251 0
-131 -271 0
-131 -291 0
-131 -311 0
-131 -331 0
-131 -351 0
-131 -371 0
-131 -391 0
-151 -171 0
-151 -191 0
-151 -211 0
-151 -231 0
-151 -251 0
-151 -271 0
-151 -291 0
-151 -311 0
-151 -331 0
-151 -351 0
-151 -371 0
-151 -391 0
-171 -191 0
-171 -211 0
-171 -231 0
-171 -251 0
-171 -271 0
-171 -291 0
-171 -311 0
-171 -331 0
-171 -351 0
-171 -371 0
-171 -391 0
-191 -211 0
-191 -231 0
-191 -251 0
-191 -271 0
-191 -291 0
-191 -311 0
-191 -331 0
-191 -351 0
-191 -371 0
-191 -391 0
-211 -231 0
-211 -251 0
-211 -271 0
-211 -291 0
-211 -311 0
-211 -331 0
-211 -351 0
-211 -371 0
-211 -391 0
-231 -251 0
-231 -271 0
-231 -291 0
-231 -311 0
-231 -331 0
-231 -351 0
-231 -371 0
-231 -391 0
-251 -271 0
-251 -291 0
-251 -311 0
-251 -331 0
-251 -351 0
-251 -371 0
-251 -391 0
-271 -291 0
-271 -311 0
-271 -331 0
-271 -351 0
-271 -371 0
-271 -391 0
-291 -311 0
-291 -331 0
-291 -351 0
-291 -371 0
-291 -391 0
-311 -331 0
-311 -351 0
-311 -371 0
-311 -391 0
-331 -351 0
-331 -371 0
-331 -391 0
-351 -371 0
-351 -391 0
-371 -391 0
-12 -32 0
-12 -52 0
-12 -72 0
-12 -92 0
-12 -112 0
-12 -132 0
-12 -152 0
-12 -172 0
-12 -192 0
-12 -212 0
-12 -232 0
-12 -252 0
-12 -272 0
-12 -292 0
-12 -312 0
-12 -332 0
-12 -352 0
-12 -372 0
-12 -392 0
-32 -52 0
-32 -72 0
-32 -92 0
-32 -112 0
-32 -132 0
-32 -152 0
-32 -172 0
-32 -192 0
-32 -212 0
-32 -232 0
-32 -252 0
-32 -272 0
-32 -292 0
-32 -312 0
-32 -332 0
-32 -352 0
-32 -372 0
-32 -392 0
-52 -72 0
-52 -92 0
-52 -112 0
-52 -132 0
-52 -152 0
-52 -172 0
-52 -192 0
-52 -212 0
-52 -232 0
-52 -252 0
-52 -272 0
-52 -292 0
-52 -312 0
-52 -332 0
-52 -352 0
-52 -372 0
-52 -392 0
-72 -92 0
-72 -112 0
-72 -132 0
-72 -152 0
-72 -172 0
-72 -192 0
-72 -212 0
-72 -232 0
-72 -252 0
-72 -272 0
-72 -292 0
-72 -312 0
-72 -332 0
-72 -352 0
-72 -372 0
-72 -392 0
-92 -112 0
-92 -132 0
-92 -152 0
-92 -172 0
-92 -192 0
-92 -212 0
-92 -232 0
-92 -252 0
-92 -272 0
-92 -292 0
-92 -312 0
-92 -332 0
-92 -352 0
-92 -372 0
-92 -392 0
-112 -132 0
-112 -152 0
-112 -172 0
-112 -192 0
-112 -212 0
-112 -232 0
-112 -252 0
-112 -272 0
-112 -292 0
-112 -312 0
-112 -332 0
-112 -352 0
-112 -372 0
-112 -392 0
-132 -152 0
-132 -172 0
-132 -192 0
-132 -212 0
-132 -232 0
-132 -252 0
-132 -272 0
-132 -292 0
-132 -312 0
-132 -332 0
-132 -352 0
-132 -372 0
-132 -392 0
-152 -172 0
-152 -192 0
-152 -212 0
-152 -232 0
-152 -252 0
-152 -272 0
-152 -292 0
-152 -312 0
-152 -332 0
-152 -352 0
-152 -372 0
-152 -392 0
-172 -192 0
-172 -212 0
-172 -232 0
-172 -252 0
-172 -272 0
-172 -292 0
-172 -312 0
-172 -332 0
-172 -352 0
-172 -372 0
-172 -392 0
-192 -212 0
-192 -232 0
-192 -252 0
-192 -272 0
-192 -292 0
-192 -312 0
-192 -332 0
-192 -352 0
-192 -372 0
-192 -392 0
-212 -232 0
-212 -252 0
-212 -272 0
-212 -292 0
-212 -312 0
-212 -332 0
-212 -352 0
-212 -372 0
-212 -392 0
-232 -252 0
-232 -272 0
-232 -292 0
-232 -312 0
-232 -332 0
-232 -352 0
-232 -372 0
-232 -392 0
-252 -272 0
-252 -292 0
-252 -312 0
-252 -332 0
-252 -352 0
-252 -372 0
-252 -392 0
-272 -292 0
-272 -312 0
-272 -332 0
-272 -352 0
-272 -372 0
-272 -392 0
-292 -312 0
-292 -332 0
-292 -352 0
-292 -372 0
-292 -392 0
-312 -332 0
-312 -352 0
-312 -372 0
-312 -392 0
-332 -352 0
-332 -372 0
-332 -392 0
-352 -372 0
-352 -392 0
-372 -392 0
-13 -33 0
-13 -53 0
-13 -73 0
-13 -93 0
-13 -113 0
-13 -133 0
-13 -153 0
-13 -173 0
-13 -193 0
-13 -213 0
-13 -233 0
-13 -253 0
-13 -273 0
-13 -293 0
-13 -313 0
-13 -333 0
-13 -353 0
-13 -373 0
-13 -393 0
-33 -53 0
-33 -73 0
-33 -93 0
-33 -113 0
-33 -133 0
-33 -153 0
-33 -173 0
-33 -193 0
-33 -213 0
-33 -233 0
-33 -253 0
-33 -273 0
-33 -293 0
-33 -313 0
-33 -333 0
-33 -353 0
-33 -373 0
-33 -393 0
-53 -73 0
-53 -93 0
-53 -113 0
-53 -133 0
-53 -153 0
-53 -173 0
-53 -193 0
-53 -213 0
-53 -233 0
-53 -253 0
-53 -273 0
-53 -293 0
-53 -313 0
-53 -333 0
-53 -353 0
-53 -373 0
-53 -393 0
-73 -93 0
-73 -113 0
-73 -133 0
-73 -153 0
-73 -173 0
-73 -193 0
-73 -213 0
-73 -233 0
-73 -253 0
-73 -273 0
-73 -293 0
-73 -313 0
-73 -333 0
-73 -353 0
-73 -373 0
-73 -393 0
-93 -113 0
-93 -133 0
-93 -153 0
-93 -173 0
-93 -193 0
-93 -213 0
-93 -233 0
-93 -253 0
-93 -273 0
-93 -293 0
-93 -313 0
-93 -333 0
-93 -353 0
-93 -373 0
-93 -393 0
-113 -133 0
-113 -153 0
-113 -173 0
-113 -193 0
-113 -213 0
-113 -233 0
-113 -253 0
-113 -273 0
-113 -293 0
-113 -313 0
-113 -333 0
-113 -353 0
-113 -373 0
-113 -393 0
-133 -153 0
-133 -173 0
-133 -193 0
-133 -213 0
-133 -233 0
-133 -253 0
-133 -273 0
-133 -293 0
-133 -313 0
-133 -333 0
-133 -353 0
-133 -373 0
-133 -393 0
-153 -173 0
-153 -193 0
-153 -213 0
-153 -233 0
-153 -253 0
-153 -273 0
-153 -293 0
-153 -313 0
-153 -333 0
-153 -353 0
-153 -373 0
-153 -393 0
-173 -193 0
-173 -213 0
-173 -233 0
-173 -253 0
-173 -273 0
-173 -293 0
-173 -313 0
-173 -333 0
-173 -353 0
-173 -373 0
-173 -393 0
-193 -213 0
-193 -233 0
-193 -253 0
-193 -273 0
-193 -293 0
-193 -313 0
-193 -333 0
-193 -353 0
-193 -373 0
-193 -393 0
-213 -233 0
-213 -253 0
-213 -273 0
-213 -293 0
-213 -313 0
-213 -333 0
-213 -353 0
-213 -373 0
-213 -393 0
-233 -253 0
-233 -273 0
-233 -293 0
-233 -313 0
-233 -333 0
-233 -353 0
-233 -373 0
-233 -393 0
-253 -273 0
-253 -293 0
-253 -313 0
-253 -333 0
-253 -353 0
-253 -373 0
-253 -393 0
-273 -293 0
-273 -313 0
-273 -333 0
-273 -353 0
-273 -373 0
-273 -393 0
-293 -313 0
-293 -333 0
-293 -353 0
-293 -373 0
-293 -393 0
-313 -333 0
-313 -353 0
-313 -373 0
-313 -393 0
-333 -353 0
-333 -373 0
-333 -393 0
-353 -373 0
-353 -393 0
-373 -393 0
-14 -34 0
-14 -54 0
-14 -74 0
-14 -94 0
-14 -114 0
-14 -134 0
-14 -154 0
-14 -174 0
-14 -194 0
-14 -214 0
-14 -234 0
-14 -254 0
-14 -274 0
-14 -294 0
-14 -314 0
-14 -334 0
-14 -354 0
-14 -374 0
-14 -394 0
-34 -54 0
-34 -74 0
-34 -94 0
-34 -114 0
-34 -134 0
-34 -154 0
-34 -174 0
-34 -194 0
-34 -214 0
-34 -234 0
-34 -254 0
-34 -274 0
-34 -294 0
-34 -314 0
-34 -334 0
-34 -354 0
-34 -374 0
-34 -394 0
-54 -74 0
-54 -94 0
-54 -114 0
-54 -134 0
-54 -154 0
-54 -174 0
-54 -194 0
-54 -214 0
-54 -234 0
-54 -254 0
-54 -274 0
-54 -294 0
-54 -314 0
-54 -334 0
-54 -354 0
-54 -374 0
-54 -394 0
-74 -94 0
-74 -114 0
-74 -134 0
-74 -154 0
-74 -174 0
-74 -194 0
-74 -214 0
-74 -234 0
-74 -254 0
-74 -274 0
-74 -294 0
-74 -314 0
-74 -334 0
-74 -354 0
-74 -374 0
-74 -394 0
-94 -114 0
-94 -134 0
-94 -154 0
-94 -174 0
-94 -194 0
-94 -214 0
-94 -234 0
-94 -254 0
-94 -274 0
-94 -294 0
-94 -314 0
-94 -334 0
-94 -354 0
-94 -374 0
-94 -394 0
-114 -134 0
-114 -154 0
-114 -174 0
-114 -194 0
-114 -214 0
-114 -234 0
-114 -254 0
-114 -274 0
-114 -294 0
-114 -314 0
-114 -334 0
-114 -354 0
-114 -374 0
-114 -394 0
-134 -154 0
-134 -174 0
-134 -194 0
-134 -214 0
-134 -234 0
-134 -254 0
-134 -274 0
-134 -294 0
-134 -314 0
-134 -334 0
-134 -354 0
-134 -374 0
-134 -394 0
-154 -174 0
-154 -194 0
-154 -214 0
-154 -234 0
-154 -254 0
-154 -274 0
-154 -294 0
-154 -314 0
-154 -334 0
-154 -354 0
-154 -374 0
-154 -394 0
-174 -194 0
-174 -214 0
-174 -234 0
-174 -254 0
-174 -274 0
-174 -294 0
-174 -314 0
-174 -334 0
-174 -354 0
-174 -374 0
-174 -394 0
-194 -214 0
-194 -234 0
-194 -254 0
-194 -274 0
-194 -294 0
-194 -314 0
-194 -334 0
-194 -354 0
-194 -374 0
-194 -394 0
-214 -234 0
-214 -254 0
-214 -274 0
-214 -294 0
-214 -314 0
-214 -334 0
-214 -354 0
-214 -374 0
-214 -394 0
-234 -254 0
-234 -274 0
-234 -294 0
-234 -314 0
-234 -334 0
-234 -354 0
-234 -374 0
-234 -394 0
-254 -274 0
-254 -294 0
-254 -314 0
-254 -334 0
-254 -354 0
-254 -374 0
-254 -394 0
-274 -294 0
-274 -314 0
-274 -334 0
-274 -354 0
-274 -374 0
-274 -394 0
-294 -314 0
-294 -334 0
-294 -354 0
-294 -374 0
-294 -394 0
-314 -334 0
-314 -354 0
-314 -374 0
-314 -394 0
-334 -354 0
-334 -374 0
-334 -394 0
-354 -374 0
-354 -394 0
-374 -394 0
-15 -35 0
-15 -55 0
-15 -75 0
-15 -95 0
-15 -115 0
-15 -135 0
-15 -155 0
-15 -175 0
-15 -195 0
-15 -215 0
-15 -235 0
-15 -255 0
-15 -275 0
-15 -295 0
-15 -315 0
-15 -335 0
-15 -355 0
-15 -375 0
-15 -395 0
-35 -55 0
-35 -75 0
-35 -95 0
-35 -115 0
-35 -135 0
-35 -155 0
-35 -175 0
-35 -195 0
-35 -215 0
-35 -235 0
-35 -255 0
-35 -275 0
-35 -295 0
-35 -315 0
-35 -335 0
-35 -355 0
-35 -375 0
-35 -395 0
-55 -75 0
-55 -95 0
-55 -115 0
-55 -135 0
-55 -155 0
-55 -175 0
-55 -195 0
-55 -215 0
-55 -235 0
-55 -255 0
-55 -275 0
-55 -295 0
-55 -315 0
-55 -335 0
-55 -355 0
-55 -375 0
-55 -395 0
-75 -95 0
-75 -115 0
-75 -135 0
-75 -155 0
-75 -175 0
-75 -195 0
-75 -215 0
-75 -235 0
-75 -255 0
-75 -275 0
-75 -295 0
-75 -315 0
-75 -335 0
-75 -355 0
-75 -375 0
-75 -395 0
-95 -115 0
-95 -135 0
-95 -155 0
-95 -175 0
-95 -195 0
-95 -215 0
-95 -235 0
-95 -255 0
-95 -275 0
-95 -295 0
-95 -315 0
-95 -335 0
-95 -355 0
-95 -375 0
-95 -395 0
-115 -135 0
-115 -155 0
-115 -175 0
-115 -195 0
-115 -215 0
-115 -235 0
-115 -255 0
-115 -275 0
-115 -295 0
-115 -315 0
-115 -335 0
-115 -355 0
-115 -375 0
-115 -395 0
-135 -155 0
-135 -175 0
-135 -195 0
-135 -215 0
-135 -235 0
-135 -255 0
-135 -275 0
-135 -295 0
-135 -315 0
-135 -335 0
-135 -355 0
-135 -375 0
-135 -395 0
-155 -175 0
-155 -195 0
-155 -215 0
-155 -235 0
-155 -255 0
-155 -275 0
-155 -295 0
-155 -315 0
-155 -335 0
-155 -355 0
-155 -375 0
-155 -395 0
-175 -195 0
-175 -215 0
-175 -235 0
-175 -255 0
-175 -275 0
-175 -295 0
-175 -315 0
-175 -335 0
-175 -355 0
-175 -375 0
-175 -395 0
-195 -215 0
-195 -235 0
-195 -255 0
-195 -275 0
-195 -295 0
-195 -315 0
-195 -335 0
-195 -355 0
-195 -375 0
-195 -395 0
-215 -235 0
-215 -255 0
-215 -275 0
-215 -295 0
-215 -315 0
-215 -335 0
-215 -355 0
-215 -375 0
-215 -395 0
-235 -255 0
-235 -275 0
-235 -295 0
-235 -315 0
-235 -335 0
-235 -355 0
-235 -375 0
-235 -395 0
-255 -275 0
-255 -295 0
-255 -315 0
-255 -335 0
-255 -355 0
-255 -375 0
-255 -395 0
-275 -295 0
-275 -315 0
-275 -335 0
-275 -355 0
-275 -375 0
-275 -395 0
-295 -315 0
-295 -335 0
-295 -355 0
-295 -375 0
-295 -395 0
-315 -335 0
-315 -355 0
-315 -375 0
-315 -395 0
-335 -355 0
-335 -375 0
-335 -395 0
-355 -375 0
-355 -395 0
-375 -395 0
-16 -36 0
-16 -56 0
-16 -76 0
-16 -96 0
-16 -116 0
-16 -136 0
-16 -156 0
-16 -176 0
-16 -196 0
-16 -216 0
-16 -236 0
-16 -256 0
-16 -276 0
-16 -296 0
-16 -316 0
-16 -336 0
-16 -356 0
-16 -376 0
-16 -396 0
-36 -56 0
-36 -76 0
-36 -96 0
-36 -116 0
-36 -136 0
-36 -156 0
-36 -176 0
-36 -196 0
-36 -216 0
-36 -236 0
-36 -256 0
-36 -276 0
-36 -296 0
-36 -316 0
-36 -336 0
-36 -356 0
-36 -376 0
-36 -396 0
-56 -76 0
-56 -96 0
-56 -116 0
-56 -136 0
-56 -156 0
-56 -176 0
-56 -196 0
-56 -216 0
-56 -236 0
-56 -256 0
-56 -276 0
-56 -296 0
-56 -316 0
-56 -336 0
-56 -356 0
-56 -376 0
-56 -396 0
-76 -96 0
-76 -116 0
-76 -136 0
-76 -156 0
-76 -176 0
-76 -196 0
-76 -216 0
-76 -236 0
-76 -256 0
-76 -276 0
-76 -296 0
-76 -316 0
-76 -336 0
-76 -356 0
-76 -376 0
-76 -396 0
-96 -116 0
-96 -136 0
-96 -156 0
-96 -176 0
-96 -196 0
-96 -216 0
-96 -236 0
-96 -256 0
-96 -276 0
-96 -296 0
-96 -316 0
-96 -336 0
-96 -356 0
-96 -376 0
-96 -396 0
-116 -136 0
-116 -156 0
-116 -176 0
-116 -196 0
-116 -216 0
-116 -236 0
-116 -256 0
-116 -276 0
-116 -296 0
-116 -316 0
-116 -336 0
-116 -356 0
-116 -376 0
-116 -396 0
-136 -156 0
-136 -176 0
-136 -196 0
-136 -216 0
-136 -236 0
-136 -256 0
-136 -276 0
-136 -296 0
-136 -316 0
-136 -336 0
-136 -356 0
-136 -376 0
-136 -396 0
-156 -176 0
-156 -196 0
-156 -216 0
-156 -236 0
-156 -256 0
-156 -276 0
-156 -296 0
-156 -316 0
-156 -336 0
-156 -356 0
-156 -376 0
-156 -396 0
-176 -196 0
-176 -216 0
-176 -236 0
-176 -256 0
-176 -276 0
-176 -296 0
-176 -316 0
-176 -336 0
-176 -356 0
-176 -376 0
-176 -396 0
-196 -216 0
-196 -236 0
-196 -256 0
-196 -276 0
-196 -296 0
-196 -316 0
-196 -336 0
-196 -356 0
-196 -376 0
-196 -396 0
-216 -236 0
-216 -256 0
-216 -276 0
-216 -296 0
-216 -316 0
-216 -336 0
-216 -356 0
-216 -376 0
-216 -396 0
-236 -256 0
-236 -276 0
-236 -296 0
-236 -316 0
-236 -336 0
-236 -356 0
-236 -376 0
-236 -396 0
-256 -276 0
-256 -296 0
-256 -316 0
-256 -336 0
-256 -356 0
-256 -376 0
-256 -396 0
-276 -296 0
-276 -316 0
-276 -336 0
-276 -356 0
-276 -376 0
-276 -396 0
-296 -316 0
-296 -336 0
-296 -356 0
-296 -376 0
-296 -396 0
-316 -336 0
-316 -356 0
-316 -376 0
-316 -396 0
-336 -356 0
-336 -376 0
-336 -396 0
-356 -376 0
-356 -396 0
-376 -396 0
-17 -37 0
-17 -57 0
-17 -77 0
-17 -97 0
-17 -117 0
-17 -137 0
-17 -157 0
-17 -177 0
-17 -197 0
-17 -217 0
-17 -237 0
-17 -257 0
-17 -277 0
-17 -297 0
-17 -317 0
-17 -337 0
-17 -357 0
-17 -377 0
-17 -397 0
-37 -57 0
-37 -77 0
-37 -97 0
-37 -117 0
-37 -137 0
-37 -157 0
-37 -177 0
-37 -197 0
-37 -217 0
-37 -237 0
-37 -257 0
-37 -277 0
-37 -297 0
-37 -317 0
-37 -337 0
-37 -357 0
-37 -377 0
-37 -397 0
-57 -77 0
-57 -97 0
-57 -117 0
-57 -137 0
-57 -157 0
-57 -177 0
-57 -197 0
-57 -217 0
-57 -237 0
-57 -257 0
-57 -277 0
-57 -297 0
-57 -317 0
-57 -337 0
-57 -357 0
-57 -377 0
-57 -397 0
-77 -97 0
-77 -117 0
-77 -137 0
-77 -157 0
-77 -177 0
-77 -197 0
-77 -217 0
-77 -237 0
-77 -257 0
-77 -277 0
-77 -297 0
-77 -317 0
-77 -337 0
-77 -357 0
-77 -377 0
-77 -397 0
-97 -117 0
-97 -137 0
-97 -157 0
-97 -177 0
-97 -197 0
-97 -217 0
-97 -237 0
-97 -257 0
-97 -277 0
-97 -297 0
-97 -317 0
-97 -337 0
-97 -357 0
-97 -377 0
-97 -397 0
-117 -137 0
-117 -157 0
-117 -177 0
-117 -197 0
-117 -217 0
-117 -237 0
-117 -257 0
-117 -277 0
-117 -297 0
-117 -317 0
-117 -337 0
-117 -357 0
-117 -377 0
-117 -397 0
-137 -157 0
-137 -177 0
-137 -197 0
-137 -217 0
-137 -237 0
-137 -257 0
-137 -277 0
-137 -297 0
-137 -317 0
-137 -337 0
-137 -357 0
-137 -377 0
-137 -397 0
-157 -177 0
-157 -197 0
-157 -217 0
-157 -237 0
-157 -257 0
-157 -277 0
-157 -297 0
-157 -317 0
-157 -337 0
-157 -357 0
-157 -377 0
-157 -397 0
-177 -197 0
-177 -217 0
-177 -237 0
-177 -257 0
-177 -277 0
-177 -297 0
-177 -317 0
-177 -337 0
-177 -357 0
-177 -377 0
-177 -397 0
-197 -217 0
-197 -237 0
-197 -257 0
-197 -277 0
-197 -297 0
-197 -317 0
-197 -337 0
-197 -357 0
-197 -377 0
-197 -397 0
-217 -237 0
-217 -257 0
-217 -277 0
-217 -297 0
-217 -317 0
-217 -337 0
-217 -357 0
-217 -377 0
-217 -397 0
-237 -257 0
-237 -277 0
-237 -297 0
-237 -317 0
-237 -337 0
-237 -357 0
-237 -377 0
-237 -397 0
-257 -277 0
-257 -297 0
-257 -317 0
-257 -337 0
-257 -357 0
-257 -377 0
-257 -397 0
-277 -297 0
-277 -317 0
-277 -337 0
-277 -357 0
-277 -377 0
-277 -397 0
-297 -317 0
-297 -337 0
-297 -357 0
-297 -377 0
-297 -397 0
-317 -337 0
-317 -357 0
-317 -377 0
-317 -397 0
-337 -357 0
-337 -377 0
-337 -397 0
-357 -377 0
-357 -397 0
-377 -397 0
-18 -38 0
-18 -58 0
-18 -78 0
-18 -98 0
-18 -118 0
-18 -138 0
-18 -158 0
-18 -178 0
-18 -198 0
-18 -218 0
-18 -238 0
-18 -258 0
-18 -278 0
-18 -298 0
-18 -318 0
-18 -338 0
-18 -358 0
-18 -378 0
-18 -398 0
-38 -58 0
-38 -78 0
-38 -98 0
-38 -118 0
-38 -138 0
-38 -158 0
-38 -178 0
-38 -198 0
-38 -218 0
-38 -238 0
-38 -258 0
-38 -278 0
-38 -298 0
-38 -318 0
-38 -338 0
-38 -358 0
-38 -378 0
-38 -398 0
-58 -78 0
-58 -98 0
-58 -118 0
-58 -138 0
-58 -158 0
-58 -178 0
-58 -198 0
-58 -218 0
-58 -238 0
-58 -258 0
-58 -278 0
-58 -298 0
-58 -318 0
-58 -338 0
-58 -358 0
-58 -378 0
-58 -398 0
-78 -98 0
-78 -118 0
-78 -138 0
-78 -158 0
-78 -178 0
-78 -198 0
-78 -218 0
-78 -238 0
-78 -258 0
-78 -278 0
-78 -298 0
-78 -318 0
-78 -338 0
-78 -358 0
-78 -378 0
-78 -398 0
-98 -118 0
-98 -138 0
-98 -158 0
-98 -178 0
-98 -198 0
-98 -218 0
-98 -238 0
-98 -258 0
-98 -278 0
-98 -298 0
-98 -318 0
-98 -338 0
-98 -358 0
-98 -378 0
-98 -398 0
-118 -138 0
-118 -158 0
-118 -178 0
-118 -198 0
-118 -218 0
-118 -238 0
-118 -258 0
-118 -278 0
-118 -298 0
-118 -318 0
-118 -338 0
-118 -358 0
-118 -378 0
-118 -398 0
-138 -158 0
-138 -178 0
-138 -198 0
-138 -218 0
-138 -238 0
-138 -258 0
-138 -278 0
-138 -298 0
-138 -318 0
-138 -338 0
-138 -358 0
-138 -378 0
-138 -398 0
-158 -178 0
-158 -198 0
-158 -218 0
-158 -238 0
-158 -258 0
-158 -278 0
-158 -298 0
-158 -318 0
-158 -338 0
-158 -358 0
-158 -378 0
-158 -398 0
-178 -198 0
-178 -218 0
-178 -238 0
-178 -258 0
-178 -278 0
-178 -298 0
-178 -318 0
-178 -338 0
-178 -358 0
-178 -378 0
-178 -398 0
-198 -218 0
-198 -238 0
-198 -258 0
-198 -278 0
-198 -298 0
-198 -318 0
-198 -338 0
-198 -358 0
-198 -378 0
-198 -398 0
-218 -238 0
-218 -258 0
-218 -278 0
-218 -298 0
-218 -318 0
-218 -338 0
-218 -358 0
-218 -378 0
-218 -398 0
-238 -258 0
-238 -278 0
-238 -298 0
-238 -318 0
-238 -338 0
-238 -358 0
-238 -378 0
-238 -398 0
-258 -278 0
-258 -298 0
-258 -318 0
-258 -338 0
-258 -358 0
-258 -378 0
-258 -398 0
-278 -298 0
-278 -318 0
-278 -338 0
-278 -358 0
-278 -378 0
-278 -398 0
-298 -318 0
-298 -338 0
-298 -358 0
-298 -378 0
-298 -398 0
-318 -338 0
-318 -358 0
-318 -378 0
-318 -398 0
-338 -358 0
-338 -378 0
-338 -398 0
-358 -378 0
-358 -398 0
-378 -398 0
-19 -39 0
-19 -59 0
-19 -79 0
-19 -99 0
-19 -119 0
-19 -139 0
-19 -159 0
-19 -179 0
-19 -199 0
-19 -219 0
-19 -239 0
-19 -259 0
-19 -279 0
-19 -299 0
-19 -319 0
-19 -339 0
-19 -359 0
-19 -379 0
-19 -399 0
-39 -59 0
-39 -79 0
-39 -99 0
-39 -119 0
-39 -139 0
-39 -159 0
-39 -179 0
-39 -199 0
-39 -219 0
-39 -239 0
-39 -259 0
-39 -279 0
-39 -299 0
-39 -319 0
-39 -339 0
-39 -359 0
-39 -379 0
-39 -399 0
-59 -79 0
-59 -99 0
-59 -119 0
-59 -139 0
-59 -159 0
-59 -179 0
-59 -199 0
-59 -219 0
-59 -239 0
-59 -259 0
-59 -279 0
-59 -299 0
-59 -319 0
-59 -339 0
-59 -359 0
-59 -379 0
-59 -399 0
-79 -99 0
-79 -119 0
-79 -139 0
-79 -159 0
-79 -179 0
-79 -199 0
-79 -219 0
-79 -239 0
-79 -259 0
-79 -279 0
-79 -299 0
-79 -319 0
-79 -339 0
-79 -359 0
-79 -379 0
-79 -399 0
-99 -119 0
-99 -139 0
-99 -159 0
-99 -179 0
-99 -199 0
-99 -219 0
-99 -239 0
-99 -259 0
-99 -279 0
-99 -299 0
-99 -319 0
-99 -339 0
-99 -359 0
-99 -379 0
-99 -399 0
-119 -139 0
-119 -159 0
-119 -179 0
-119 -199 0
-119 -219 0
-119 -239 0
-119 -259 0
-119 -279 0
-119 -299 0
-119 -319 0
-119 -339 0
-119 -359 0
-119 -379 0
-119 -399 0
-139 -159 0
-139 -179 0
-139 -199 0
-139 -219 0
-139 -239 0
-139 -259 0
-139 -279 0
-139 -299 0
-139 -319 0
-139 -339 0
-139 -359 0
-139 -379 0
-139 -399 0
-159 -179 0
-159 -199 0
-159 -219 0
-159 -239 0
-159 -259 0
-159 -279 0
-159 -299 0
-159 -319 0
-159 -339 0
-159 -359 0
-159 -379 0
-159 -399 0
-179 -199 0
-179 -219 0
-179 -239 0
-179 -259 0
-179 -279 0
-179 -299 0
-179 -319 0
-179 -339 0
-179 -359 0
-179 -379 0
-179 -399 0
-199 -219 0
-199 -239 0
-199 -259 0
-199 -279 0
-199 -299 0
-199 -319 0
-199 -339 0
-199 -359 0
-199 -379 0
-199 -399 0
-219 -239 0
-219 -259 0
-219 -279 0
-219 -299 0
-219 -319 0
-219 -339 0
-219 -359 0
-219 -379 0
-219 -399 0
-239 -259 0
-239 -279 0
-239 -299 0
-239 -319 0
-239 -339 0
-239 -359 0
-239 -379 0
-239 -399 0
-259 -279 0
-259 -299 0
-259 -319 0
-259 -339 0
-259 -359 0
-259 -379 0
-259 -399 0
-279 -299 0
-279 -319 0
-279 -339 0
-279 -359 0
-279 -379 0
-279 -399 0
-299 -319 0
-299 -339 0
-299 -359 0
-299 -379 0
-299 -399 0
-319 -339 0
-319 -359 0
-319 -379 0
-319 -399 0
-339 -359 0
-339 -379 0
-339 -399 0
-359 -379 0
-359 -399 0
-379 -399 0
-20 -40 0
-20 -60 0
-20 -80 0
-20 -100 0
-20 -120 0
-20 -140 0
-20 -160 0
-20 -180 0
-20 -200 0
-20 -220 0
-20 -240 0
-20 -260 0
-20 -280 0
-20 -300 0
-20 -320 0
-20 -340 0
-20 -360 0
-20 -380 0
-20 -400 0
-40 -60 0
-40 -80 0
-40 -100 0
-40 -120 0
-40 -140 0
-40 -160 0
-40 -180 0
-40 -200 0
-40 -220 0
-40 -240 0
-40 -260 0
-40 -280 0
-40 -300 0
-40 -320 0
-40 -340 0
-40 -360 0
-40 -380 0
-40 -400 0
-60 -80 0
-60 -100 0
-60 -120 0
-60 -140 0
-60 -160 0
-60 -180 0
-60 -200 0
-60 -220 0
-60 -240 0
-60 -260 0
-60 -280 0
-60 -300 0
-60 -320 0
-60 -340 0
-60 -360 0
-60 -380 0
-60 -400 0
-80 -100 0
-80 -120 0
-80 -140 0
-80 -160 0
-80 -180 0
-80 -200 0
-80 -220 0
-80 -240 0
-80 -260 0
-80 -280 0
-80 -300 0
-80 -320 0
-80 -340 0
-80 -360 0
-80 -380 0
-80 -400 0
-100 -120 0
-100 -140 0
-100 -160 0
-100 -180 0
-100 -200 0
-100 -220 0
-100 -240 0
-100 -260 0
-100 -280 0
-100 -300 0
-100 -320 0
-100 -340 0
-100 -360 0
-100 -380 0
-100 -400 0
-120 -140 0
-120 -160 0
-120 -180 0
-120 -200 0
-120 -220 0
-120 -240 0
-120 -260 0
-120 -280 0
-120 -300 0
-120 -320 0
-120 -340 0
-120 -360 0
-120 -380 0
-120 -400 0
-140 -160 0
-140 -180 0
-140 -200 0
-140 -220 0
-140 -240 0
-140 -260 0
-140 -280 0
-140 -300 0
-140 -320 0
-140 -340 0
-140 -360 0
-140 -380 0
-140 -400 0
-160 -180 0
-160 -200 0
-160 -220 0
-160 -240 0
-160 -260 0
-160 -280 0
-160 -300 0
-160 -320 0
-160 -340 0
-160 -360 0
-160 -380 0
-160 -400 0
-180 -200 0
-180 -220 0
-180 -240 0
-180 -260 0
-180 -280 0
-180 -300 0
-180 -320 0
-180 -340 0
-180 -360 0
-180 -380 0
-180 -400 0
-200 -220 0
-200 -240 0
-200 -260 0
-200 -280 0
-200 -300 0
-200 -320 0
-200 -340 0
-200 -360 0
-200 -380 0
-200 -400 0
-220 -240 0
-220 -260 0
-220 -280 0
-220 -300 0
-220 -320 0
-220 -340 0
-220 -360 0
-220 -380 0
-220 -400 0
-240 -260 0
-240 -280 0
-240 -300 0
-240 -320 0
-240 -340 0
-240 -360 0
-240 -380 0
-240 -400 0
-260 -280 0
-260 -300 0
-260 -320 0
-260 -340 0
-260 -360 0
-260 -380 0
-260 -400 0
-280 -300 0
-280 -320 0
-280 -340 0
-280 -360 0
-280 -380 0
-280 -400 0
-300 -320 0
-300 -340 0
-300 -360 0
-300 -380 0
-300 -400 0
-320 -340 0
-320 -360 0
-320 -380 0
-320 -400 0
-340 -360 0
-340 -380 0
-340 -400 0
-360 -380 0
-360 -400 0
-380 -400 0
-1 781 0
-21 781 0
-41 781 0
-61 781 0
-81 781 0
-101 781 0
-121 781 0
-141 781 0
-161 781 0
-181 781 0
-201 781 0
-221 781 0
-241 781 0
-261 781 0
-281 781 0
-301 781 0
-321 781 0
-341 781 0
-361 781 0
-381 781 0
-2 782 0
-22 782 0
-42 782 0
-62 782 0
-82 782 0
-102 782 0
-122 782 0
-142 782 0
-162 782 0
-182 782 0
-202 782 0
-222 782 0
-242 782 0
-262 782 0
-282 782 0
-302 782 0
-322 782 0
-342 782 0
-362 782 0
-382 782 0
-3 783 0
-23 783 0
-43 783 0
-63 783 0
-83 783 0
-103 783 0
-123 783 0
-143 783 0
-163 783 0
-183 783 0
-203 783 0
-223 783 0
-243 783 0
-263 783 0
-283 783 0
-303 783 0
-323 783 0
-343 783 0
-363 783 0
-383 783 0
-4 784 0
-24 784 0
-44 784 0
-64 784 0
-84 784 0
-104 784 0
-124 784 0
-144 784 0
-164 784 0
-184 784 0
-204 784 0
-224 784 0
-244 784 0
-264 784 0
-284 784 0
-304 784 0
-324 784 0
-344 784 0
-364 784 0
-384 784 0
-5 785 0
-25 785 0
-45 785 0
-65 785 0
-85 785 0
-105 785 0
-125 785 0
-145 785 0
-165 785 0
-185 785 0
-205 785 0
-225 785 0
-245 785 0
-265 785 0
-285 785 0
-305 785 0
-325 785 0
-345 785 0
-365 785 0
-385 785 0
-6 786 0
-26 786 0
-46 786 0
-66 786 0
-86 786 0
-106 786 0
-126 786 0
-146 786 0
-166 786 0
-186 786 0
-206 786 0
-226 786 0
-246 786 0
-266 786 0
-286 786 0
-306 786 0
-326 786 0
-346 786 0
-366 786 0
-386 786 0
-7 787 0
-27 787 0
-47 787 0
-67 787 0
-87 787 0
-107 787 0
-127 787 0
-147 787 0
-167 787 0
-187 787 0
-207 787 0
-227 787 0
-247 787 0
-267 787 0
-287 787 0
-307 787 0
-327 787 0
-347 787 0
-367 787 0
-387 787 0
-8 788 0
-28 788 0
-48 788 0
-68 788 0
-88 788 0
-108 788 0
-128 788 0
-148 788 0
-168 788 0
-188 788 0
-208 788 0
-228 788 0
-248 788 0
-268 788 0
-288 788 0
-308 788 0
-328 788 0
-348 788 0
-368 788 0
-388 788 0
-9 789 0
-29 789 0
-49 789 0
-69 789 0
-89 789 0
-109 789 0
-129 789 0
-149 789 0
-169 789 0
-189 789 0
-209 789 0
-229 789 0
-249 789 0
-269 789 0
-289 789 0
-309 789 0
-329 789 0
-349 789 0
-369 789 0
-389 789 0
-10 790 0
-30 790 0
-50 790 0
-70 790 0
-90 790 0
-110 790 0
-130 790 0
-150 790 0
-170 790 0
-190 790 0
-210 790 0
-230 790 0
-250 790 0
-270 790 0
-290 790 0
-310 790 0
-330 790 0
-350 790 0
-370 790 0
-390 790 0
-11 791 0
-31 791 0
-51 791 0
-71 791 0
-91 791 0
-111 791 0
-131 791 0
-151 791 0
-171 791 0
-191 791 0
-211 791 0
-231 791 0
-251 791 0
-271 791 0
-291 791 0
-311 791 0
-331 791 0
-351 791 0
-371 791 0
-391 791 0
-12 792 0
-32 792 0
-52 792 0
-72 792 0
-92 792 0
-112 792 0
-132 792 0
-152 792 0
-172 792 0
-192 792 0
-212 792 0
-232 792 0
-252 792 0
-272 792 0
-292 792 0
-312 792 0
-332 792 0
-352 792 0
-372 792 0
-392 792 0
-13 793 0
-33 793 0
-53 793 0
-73 793 0
-93 793 0
-113 793 0
-133 793 0
-153 793 0
-173 793 0
-193 793 0
-213 793 0
-233 793 0
-253 793 0
-273 793 0
-293 793 0
-313 793 0
-333 793 0
-353 793 0
-373 793 0
-393 793 0
-14 794 0
-34 794 0
-54 794 0
-74 794 0
-94 794 0
-114 794 0
-134 794 0
-154 794 0
-174 794 0
-194 794 0
-214 794 0
-234 794 0
-254 794 0
-274 794 0
-294 794 0
-314 794 0
-334 794 0
-354 794 0
-374 794 0
-394 794 0
-15 795 0
-35 795 0
-55 795 0
-75 795 0
-95 795 0
-115 795 0
-135 795 0
-155 795 0
-175 795 0
-195 795 0
-215 795 0
-235 795 0
-255 795 0
-275 795 0
-295 795 0
-315 795 0
-335 795 0
-355 795 0
-375 795 0
-395 795 0
-16 796 0
-36 796 0
-56 796 0
-76 796 0
-96 796 0
-116 796 0
-136 796 0
-156 796 0
-176 796 0
-196 796 0
-216 796 0
-236 796 0
-256 796 0
-276 796 0
-296 796 0
-316 796 0
-336 796 0
-356 796 0
-376 796 0
-396 796 0
-17 797 0
-37 797 0
-57 797 0
-77 797 0
-97 797 0
-117 797 0
-137 797 0
-157 797 0
-177 797 0
-197 797 0
-217 797 0
-237 797 0
-257 797 0
-277 797 0
-297 797 0
-317 797 0
-337 797 0
-357 797 0
-377 797 0
-397 797 0
-18 798 0
-38 798 0
-58 798 0
-78 798 0
-98 798 0
-118 798 0
-138 798 0
-158 798 0
-178 798 0
-198 798 0
-218 798 0
-238 798 0
-258 798 0
-278 798 0
-298 798 0
-318 798 0
-338 798 0
-358 798 0
-378 798 0
-398 798 0
-19 799 0
-39 799 0
-59 799 0
-79 799 0
-99 799 0
-119 799 0
-139 799 0
-159 799 0
-179 799 0
-199 799 0
-219 799 0
-239 799 0
-259 799 0
-279 799 0
-299 799 0
-319 799 0
-339 799 0
-359 799 0
-379 799 0
-399 799 0
-20 800 0
-40 800 0
-60 800 0
-80 800 0
-100 800 0
-120 800 0
-140 800 0
-160 800 0
-180 800 0
-200 800 0
-220 800 0
-240 800 0
-260 800 0
-280 800 0
-300 800 0
-320 800 0
-340 800 0
-360 800 0
-380 800 0
-400 800 0
-781 401 402 403 404 405 406 407 408 409 410 411 412 413 414 415 416 417 418 419 0
-782 420 421 422 423 424 425 426 427 428 429 430 431 432 433 434 435 436 437 438 0
-783 439 440 441 442 443 444 445 446 447 448 449 450 451 452 453 454 455 456 457 0
-784 458 459 460 461 462 463 464 465 466 467 468 469 470 471 472 473 474 475 476 0
-785 477 478 479 480 481 482 483 484 485 486 487 488 489 490 491 492 493 494 495 0
-786 496 497 498 499 500 501 502 503 504 505 506 507 508 509 510 511 512 513 514 0
-787 515 516 517 518 519 520 521 522 523 524 525 526 527 528 529 530 531 532 533 0
-788 534 535 536 537 538 539 540 541 542 543 544 545 546 547 548 549 550 551 552 0
-789 553 554 555 556 557 558 559 560 561 562 563 564 565 566 567 568 569 570 571 0
-790 572 573 574 575 576 577 578 579 580 581 582 583 584 585 586 587 588 589 590 0
-791 591 592 593 594 595 596 597 598 599 600 601 602 603 604 605 606 607 608 609 0
-792 610 611 612 613 614 615 616 617 618 619 620 621 622 623 624 625 626 627 628 0
-793 629 630 631 632 633 634 635 636 637 638 639 640 641 642 643 644 645 646 647 0
-794 648 649 650 651 652 653 654 655 656 657 658 659 660 661 662 663 664 665 666 0
-795 667 668 669 670 671 672 673 674 675 676 677 678 679 680 681 682 683 684 685 0
-796 686 687 688 689 690 691 692 693 694 695 696 697 698 699 700 701 702 703 704 0
-797 705 706 707 708 709 710 711 712 713 714 715 716 717 718 719 720 721 722 723 0
-798 724 725 726 727 728 729 730 731 732 733 734 735 736 737 738 739 740 741 742 0
-799 743 744 745 746 747 748 749 750 751 752 753 754 755 756 757 758 759 760 761 0
-800 762 763 764 765 766 767 768 769 770 771 772 773 774 775 776 777 778 779 780 0
-781 -782 -401 -420 0
-781 -783 -401 -439 0
-781 -784 -401 -458 0
-781 -785 -401 -477 0
-781 -786 -401 -496 0
-781 -787 -401 -515 0
-781 -788 -401 -534 0
-781 -789 -401 -553 0
-781 -790 -401 -572 0
-781 -791 -401 -591 0
-781 -792 -401 -610 0
-781 -793 -401 -629 0
-781 -794 -401 -648 0
-781 -795 -401 -667 0
-781 -796 -401 -686 0
-781 -797 -401 -705 0
-781 -798 -401 -724 0
-781 -799 -401 -743 0
-781 -800 -401 -762 0
-782 -783 -420 -439 0
-782 -784 -420 -458 0
-782 -785 -420 -477 0
-782 -786 -420 -496 0
-782 -787 -420 -515 0
-782 -788 -420 -534 0
-782 -789 -420 -553 0
-782 -790 -420 -572 0
-782 -791 -420 -591 0
-782 -792 -420 -610 0
-782 -793 -420 -629 0
-782 -794 -420 -648 0
-782 -795 -420 -667 0
-782 -796 -420 -686 0
-782 -797 -420 -705 0
-782 -798 -420 -724 0
-782 -799 -420 -743 0
-782 -800 -420 -762 0
-783 -784 -439 -458 0
-783 -785 -439 -477 0
-783 -786 -439 -496 0
-783 -787 -439 -515 0
-783 -788 -439 -534 0
-783 -789 -439 -553 0
-783 -790 -439 -572 0
-783 -791 -439 -591 0
-783 -792 -439 -610 0
-783 -793 -439 -629 0
-783 -794 -439 -648 0
-783 -795 -439 -667 0
-783 -796 -439 -686 0
-783 -797 -439 -705 0
-783 -798 -439 -724 0
-783 -799 -439 -743 0
-783 -800 -439 -762 0
-784 -785 -458 -477 0
-784 -786 -458 -496 0
-784 -787 -458 -515 0
-784 -788 -458 -534 0
-784 -789 -458 -553 0
-784 -790 -458 -572 0
-784 -791 -458 -591 0
-784 -792 -458 -610 0
-784 -793 -458 -629 0
-784 -794 -458 -648 0
-784 -795 -458 -667 0
-784 -796 -458 -686 0
-784 -797 -458 -705 0
-784 -798 -458 -724 0
-784 -799 -458 -743 0
-784 -800 -458 -762 0
-785 -786 -477 -496 0
-785 -787 -477 -515 0
-785 -788 -477 -534 0
-785 -789 -477 -553 0
-785 -790 -477 -572 0
-785 -791 -477 -591 0
-785 -792 -477 -610 0
-785 -793 -477 -629 0
-785 -794 -477 -648 0
-785 -795 -477 -667 0
-785 -796 -477 -686 0
-785 -797 -477 -705 0
-785 -798 -477 -724 0
-785 -799 -477 -743 0
-785 -800 -477 -762 0
-786 -787 -496 -515 0
-786 -788 -496 -534 0
-786 -789 -496 -553 0
-786 -790 -496 -572 0
-786 -791 -496 -591 0
-786 -792 -496 -610 0
-786 -793 -496 -629 0
-786 -794 -496 -648 0
-786 -795 -496 -667 0
-786 -796 -496 -686 0
-786 -797 -496 -705 0
-786 -798 -496 -724 0
-786 -799 -496 -743 0
-786 -800 -496 -762 0
-787 -788 -515 -534 0
-787 -789 -515 -553 0
-787 -790 -515 -572 0
-787 -791 -515 -591 0
-787 -792 -515 -610 0
-787 -793 -515 -629 0
-787 -794 -515 -648 0
-787 -795 -515 -667 0
-787 -796 -515 -686 0
-787 -797 -515 -705 0
-787 -798 -515 -724 0
-787 -799 -515 -743 0
-787 -800 -515 -762 0
-788 -789 -534 -553 0
-788 -790 -534 -572 0
-788 -791 -534 -591 0
-788 -792 -534 -610 0
-788 -793 -534 -629 0
-788 -794 -534 -648 0
-788 -795 -534 -667 0
-788 -796 -534 -686 0
-788 -797 -534 -705 0
-788 -798 -534 -724 0
-788 -799 -534 -743 0
-788 -800 -534 -762 0
-789 -790 -553 -572 0
-789 -791 -553 -591 0
-789 -792 -553 -610 0
-789 -793 -553 -629 0
-789 -794 -553 -648 0
-789 -795 -553 -667 0
-789 -796 -553 -686 0
-789 -797 -553 -705 0
-789 -798 -553 -724 0
-789 -799 -553 -743 0
-789 -800 -553 -762 0
-790 -791 -572 -591 0
-790 -792 -572 -610 0
-790 -793 -572 -629 0
-790 -794 -572 -648 0
-790 -795 -572 -667 0
-790 -796 -572 -686 0
-790 -797 -572 -705 0
-790 -798 -572 -724 0
-790 -799 -572 -743 0
-790 -800 -572 -762 0
-791 -792 -591 -610 0
-791 -793 -591 -629 0
-791 -794 -591 -648 0
-791 -795 -591 -667 0
-791 -796 -591 -686 0
-791 -797 -591 -705 0
-791 -798 -591 -724 0
-791 -799 -591 -743 0
-791 -800 -591 -762 0
-792 -793 -610 -629 0
-792 -794 -610 -648 0
-792 -795 -610 -667 0
-792 -796 -610 -686 0
-792 -797 -610 -705 0
-792 -798 -610 -724 0
-792 -799 -610 -743 0
-792 -800 -610 -762 0
-793 -794 -629 -648 0
-793 -795 -629 -667 0
-793 -796 -629 -686 0
-793 -797 -629 -705 0
-793 -798 -629 -724 0
-793 -799 -629 -743 0
-793 -800 -629 -762 0
-794 -795 -648 -667 0
-794 -796 -648 -686 0
-794 -797 -648 -705 0
-794 -798 -648 -724 0
-794 -799 -648 -743 0
-794 -800 -648 -762 0
-795 -796 -667 -686 0
-795 -797 -667 -705 0
-795 -798 -667 -724 0
-795 -799 -667 -743 0
-795 -800 -667 -762 0
-796 -797 -686 -705 0
-796 -798 -686 -724 0
-796 -799 -686 -743 0
-796 -800 -686 -762 0
-797 -798 -705 -724 0
-797 -799 -705 -743 0
-797 -800 -705 -762 0
-798 -799 -724 -743 0
-798 -800 -724 -762 0
-799 -800 -743 -762 0
-781 -782 -402 -421 0
-781 -783 -402 -440 0
-781 -784 -402 -459 0
-781 -785 -402 -478 0
-781 -786 -402 -497 0
-781 -787 -402 -516 0
-781 -788 -402 -535 0
-781 -789 -402 -554 0
-781 -790 -402 -573 0
-781 -791 -402 -592 0
-781 -792 -402 -611 0
-781 -793 -402 -630 0
-781 -794 -402 -649 0
-781 -795 -402 -668 0
-781 -796 -402 -687 0
-781 -797 -402 -706 0
-781 -798 -402 -725 0
-781 -799 -402 -744 0
-781 -800 -402 -763 0
-782 -783 -421 -440 0
-782 -784 -421 -459 0
-782 -785 -421 -478 0
-782 -786 -421 -497 0
-782 -787 -421 -516 0
-782 -788 -421 -535 0
-782 -789 -421 -554 0
-782 -790 -421 -573 0
-782 -791 -421 -592 0
-782 -792 -421 -611 0
-782 -793 -421 -630 0
-782 -794 -421 -649 0
-782 -795 -421 -668 0
-782 -796 -421 -687 0
-782 -797 -421 -706 0
-782 -798 -421 -725 0
-782 -799 -421 -744 0
-782 -800 -421 -763 0
-783 -784 -440 -459 0
-783 -785 -440 -478 0
-783 -786 -440 -497 0
-783 -787 -440 -516 0
-783 -788 -440 -535 0
-783 -789 -440 -554 0
-783 -790 -440 -573 0
-783 -791 -440 -592 0
-783 -792 -440 -611 0
-783 -793 -440 -630 0
-783 -794 -440 -649 0
-783 -795 -440 -668 0
-783 -796 -440 -687 0
-783 -797 -440 -706 0
-783 -798 -440 -725 0
-783 -799 -440 -744 0
-783 -800 -440 -763 0
-784 -785 -459 -478 0
-784 -786 -459 -497 0
-784 -787 -459 -516 0
-784 -788 -459 -535 0
-784 -789 -459 -554 0
-784 -790 -459 -573 0
-784 -791 -459 -592 0
-784 -792 -459 -611 0
-784 -793 -459 -630 0
-784 -794 -459 -649 0
-784 -795 -459 -668 0
-784 -796 -459 -687 0
-784 -797 -459 -706 0
-784 -798 -459 -725 0
-784 -799 -459 -744 0
-784 -800 -459 -763 0
-785 -786 -478 -497 0
-785 -787 -478 -516 0
-785 -788 -478 -535 0
-785 -789 -478 -554 0
-785 -790 -478 -573 0
-785 -791 -478 -592 0
-785 -792 -478 -611 0
-785 -793 -478 -630 0
-785 -794 -478 -649 0
-785 -795 -478 -668 0
-785 -796 -478 -687 0
-785 -797 -478 -706 0
-785 -798 -478 -725 0
-785 -799 -478 -744 0
-785 -800 -478 -763 0
-786 -787 -497 -516 0
-786 -788 -497 -535 0
-786 -789 -497 -554 0
-786 -790 -497 -573 0
-786 -791 -497 -592 0
-786 -792 -497 -611 0
-786 -793 -497 -630 0
-786 -794 -497 -649 0
-786 -795 -497 -668 0
-786 -796 -497 -687 0
-786 -797 -497 -706 0
-786 -798 -497 -725 0
-786 -799 -497 -744 0
-786 -800 -497 -763 0
-787 -788 -516 -535 0
-787 -789 -516 -554 0
-787 -790 -516 -573 0
-787 -791 -516 -592 0
-787 -792 -516 -611 0
-787 -793 -516 -630 0
-787 -794 -516 -649 0
-787 -795 -516 -668 0
-787 -796 -516 -687 0
-787 -797 -516 -706 0
-787 -798 -516 -725 0
-787 -799 -516 -744 0
-787 -800 -516 -763 0
-788 -789 -535 -554 0
-788 -790 -535 -573 0
-788 -791 -535 -592 0
-788 -792 -535 -611 0
-788 -793 -535 -630 0
-788 -794 -535 -649 0
-788 -795 -535 -668 0
-788 -796 -535 -687 0
-788 -797 -535 -706 0
-788 -798 -535 -725 0
-788 -799 -535 -744 0
-788 -800 -535 -763 0
-789 -790 -554 -573 0
-789 -791 -554 -592 0
-789 -792 -554 -611 0
-789 -793 -554 -630 0
-789 -794 -554 -649 0
-789 -795 -554 -668 0
-789 -796 -554 -687 0
-789 -797 -554 -706 0
-789 -798 -554 -725 0
-789 -799 -554 -744 0
-789 -800 -554 -763 0
-790 -791 -573 -592 0
-790 -792 -573 -611 0
-790 -793 -573 -630 0
-790 -794 -573 -649 0
-790 -795 -573 -668 0
-790 -796 -573 -687 0
-790 -797 -573 -706 0
-790 -798 -573 -725 0
-790 -799 -573 -744 0
-790 -800 -573 -763 0
-791 -792 -592 -611 0
-791 -793 -592 -630 0
-791 -794 -592 -649 0
-791 -795 -592 -668 0
-791 -796 -592 -687 0
-791 -797 -592 -706 0
-791 -798 -592 -725 0
-791 -799 -592 -744 0
-791 -800 -592 -763 0
-792 -793 -611 -630 0
-792 -794 -611 -649 0
-792 -795 -611 -668 0
-792 -796 -611 -687 0
-792 -797 -611 -706 0
-792 -798 -611 -725 0
-792 -799 -611 -744 0
-792 -800 -611 -763 0
-793 -794 -630 -649 0
-793 -795 -630 -668 0
-793 -796 -630 -687 0
-793 -797 -630 -706 0
-793 -798 -630 -725 0
-793 -799 -630 -744 0
-793 -800 -630 -763 0
-794 -795 -649 -668 0
-794 -796 -649 -687 0
-794 -797 -649 -706 0
-794 -798 -649 -725 0
-794 -799 -649 -744 0
-794 -800 -649 -763 0
-795 -796 -668 -687 0
-795 -797 -668 -706 0
-795 -798 -668 -725 0
-795 -799 -668 -744 0
-795 -800 -668 -763 0
-796 -797 -687 -706 0
-796 -798 -687 -725 0
-796 -799 -687 -744 0
-796 -800 -687 -763 0
-797 -798 -706 -725 0
-797 -799 -706 -744 0
-797 -800 -706 -763 0
-798 -799 -725 -744 0
-798 -800 -725 -763 0
-799 -800 -744 -763 0
-781 -782 -403 -422 0
-781 -783 -403 -441 0
-781 -784 -403 -460 0
-781 -785 -403 -479 0
-781 -786 -403 -498 0
-781 -787 -403 -517 0
-781 -788 -403 -536 0
-781 -789 -403 -555 0
-781 -790 -403 -574 0
-781 -791 -403 -593 0
-781 -792 -403 -612 0
-781 -793 -403 -631 0
-781 -794 -403 -650 0
-781 -795 -403 -669 0
-781 -796 -403 -688 0
-781 -797 -403 -707 0
-781 -798 -403 -726 0
-781 -799 -403 -745 0
-781 -800 -403 -764 0
-782 -783 -422 -441 0
-782 -784 -422 -460 0
-782 -785 -422 -479 0
-782 -786 -422 -498 0
-782 -787 -422 -517 0
-782 -788 -422 -536 0
-782 -789 -422 -555 0
-782 -790 -422 -574 0
-782 -791 -422 -593 0
-782 -792 -422 -612 0
-782 -793 -422 -631 0
-782 -794 -422 -650 0
-782 -795 -422 -669 0
-782 -796 -422 -688 0
-782 -797 -422 -707 0
-782 -798 -422 -726 0
-782 -799 -422 -745 0
-782 -800 -422 -764 0
-783 -784 -441 -460 0
-783 -785 -441 -479 0
-783 -786 -441 -498 0
-783 -787 -441 -517 0
-783 -788 -441 -536 0
-783 -789 -441 -555 0
-783 -790 -441 -574 0
-783 -791 -441 -593 0
-783 -792 -441 -612 0
-783 -793 -441 -631 0
-783 -794 -441 -650 0
-783 -795 -441 -669 0
-783 -796 -441 -688 0
-783 -797 -441 -707 0
-783 -798 -441 -726 0
-783 -799 -441 -745 0
-783 -800 -441 -764 0
-784 -785 -460 -479 0
-784 -786 -460 -498 0
-784 -787 -460 -517 0
-784 -788 -460 -536 0
-784 -789 -460 -555 0
-784 -790 -460 -574 0
-784 -791 -460 -593 0
-784 -792 -460 -612 0
-784 -793 -460 -631 0
-784 -794 -460 -650 0
-784 -795 -460 -669 0
-784 -796 -460 -688 0
-784 -797 -460 -707 0
-784 -798 -460 -726 0
-784 -799 -460 -745 0
-784 -800 -460 -764 0
-785 -786 -479 -498 0
-785 -787 -479 -517 0
-785 -788 -479 -536 0
-785 -789 -479 -555 0
-785 -790 -479 -574 0
-785 -791 -479 -593 0
-785 -792 -479 -612 0
-785 -793 -479 -631 0
-785 -794 -479 -650 0
-785 -795 -479 -669 0
-785 -796 -479 -688 0
-785 -797 -479 -707 0
-785 -798 -479 -726 0
-785 -799 -479 -745 0
-785 -800 -479 -764 0
-786 -787 -498 -517 0
-786 -788 -498 -536 0
-786 -789 -498 -555 0
-786 -790 -498 -574 0
-786 -791 -498 -593 0
-786 -792 -498 -612 0
-786 -793 -498 -631 0
-786 -794 -498 -650 0
-786 -795 -498 -669 0
-786 -796 -498 -688 0
-786 -797 -498 -707 0
-786 -798 -498 -726 0
-786 -799 -498 -745 0
-786 -800 -498 -764 0
-787 -788 -517 -536 0
-787 -789 -517 -555 0
-787 -790 -517 -574 0
-787 -791 -517 -593 0
-787 -792 -517 -612 0
-787 -793 -517 -631 0
-787 -794 -517 -650 0
-787 -795 -517 -669 0
-787 -796 -517 -688 0
-787 -797 -517 -707 0
-787 -798 -517 -726 0
-787 -799 -517 -745 0
-787 -800 -517 -764 0
-788 -789 -536 -555 0
-788 -790 -536 -574 0
-788 -791 -536 -593 0
-788 -792 -536 -612 0
-788 -793 -536 -631 0
-788 -794 -536 -650 0
-788 -795 -536 -669 0
-788 -796 -536 -688 0
-788 -797 -536 -707 0
-788 -798 -536 -726 0
-788 -799 -536 -745 0
-788 -800 -536 -764 0
-789 -790 -555 -574 0
-789 -791 -555 -593 0
-789 -792 -555 -612 0
-789 -793 -555 -631 0
-789 -794 -555 -650 0
-789 -795 -555 -669 0
-789 -796 -555 -688 0
-789 -797 -555 -707 0
-789 -798 -555 -726 0
-789 -799 -555 -745 0
-789 -800 -555 -764 0
-790 -791 -574 -593 0
-790 -792 -574 -612 0
-790 -793 -574 -631 0
-790 -794 -574 -650 0
-790 -795 -574 -669 0
-790 -796 -574 -688 0
-790 -797 -574 -707 0
-790 -798 -574 -726 0
-790 -799 -574 -745 0
-790 -800 -574 -764 0
-791 -792 -593 -612 0
-791 -793 -593 -631 0
-791 -794 -593 -650 0
-791 -795 -593 -669 0
-791 -796 -593 -688 0
-791 -797 -593 -707 0
-791 -798 -593 -726 0
-791 -799 -593 -745 0
-791 -800 -593 -764 0
-792 -793 -612 -631 0
-792 -794 -612 -650 0
-792 -795 -612 -669 0
-792 -796 -612 -688 0
-792 -797 -612 -707 0
-792 -798 -612 -726 0
-792 -799 -612 -745 0
-792 -800 -612 -764 0
-793 -794 -631 -650 0
-793 -795 -631 -669 0
-793 -796 -631 -688 0
-793 -797 -631 -707 0
-793 -798 -631 -726 0
-793 -799 -631 -745 0
-793 -800 -631 -764 0
-794 -795 -650 -669 0
-794 -796 -650 -688 0
-794 -797 -650 -707 0
-794 -798 -650 -726 0
-794 -799 -650 -745 0
-794 -800 -650 -764 0
-795 -796 -669 -688 0
-795 -797 -669 -707 0
-795 -798 -669 -726 0
-795 -799 -669 -745 0
-795 -800 -669 -764 0
-796 -797 -688 -707 0
-796 -798 -688 -726 0
-796 -799 -688 -745 0
-796 -800 -688 -764 0
-797 -798 -707 -726 0
-797 -799 -707 -745 0
-797 -800 -707 -764 0
-798 -799 -726 -745 0
-798 -800 -726 -764 0
-799 -800 -745 -764 0
-781 -782 -404 -423 0
-781 -783 -404 -442 0
-781 -784 -404 -461 0
-781 -785 -404 -480 0
-781 -786 -404 -499 0
-781 -787 -404 -518 0
-781 -788 -404 -537 0
-781 -789 -404 -556 0
-781 -790 -404 -575 0
-781 -791 -404 -594 0
-781 -792 -404 -613 0
-781 -793 -404 -632 0
-781 -794 -404 -651 0
-781 -795 -404 -670 0
-781 -796 -404 -689 0
-781 -797 -404 -708 0
-781 -798 -404 -727 0
-781 -799 -404 -746 0
-781 -800 -404 -765 0
-782 -783 -423 -442 0
-782 -784 -423 -461 0
-782 -785 -423 -480 0
-782 -786 -423 -499 0
-782 -787 -423 -518 0
-782 -788 -423 -537 0
-782 -789 -423 -556 0
-782 -790 -423 -575 0
-782 -791 -423 -594 0
-782 -792 -423 -613 0
-782 -793 -423 -632 0
-782 -794 -423 -651 0
-782 -795 -423 -670 0
-782 -796 -423 -689 0
-782 -797 -423 -708 0
-782 -798 -423 -727 0
-782 -799 -423 -746 0
-782 -800 -423 -765 0
-783 -784 -442 -461 0
-783 -785 -442 -480 0
-783 -786 -442 -499 0
-783 -787 -442 -518 0
-783 -788 -442 -537 0
-783 -789 -442 -556 0
-783 -790 -442 -575 0
-783 -791 -442 -594 0
-783 -792 -442 -613 0
-783 -793 -442 -632 0
-783 -794 -442 -651 0
-783 -795 -442 -670 0
-783 -796 -442 -689 0
-783 -797 -442 -708 0
-783 -798 -442 -727 0
-783 -799 -442 -746 0
-783 -800 -442 -765 0
-784 -785 -461 -480 0
-784 -786 -461 -499 0
-784 -787 -461 -518 0
-784 -788 -461 -537 0
-784 -789 -461 -556 0
-784 -790 -461 -575 0
-784 -791 -461 -594 0
-784 -792 -461 -613 0
-784 -793 -461 -632 0
-784 -794 -461 -651 0
-784 -795 -461 -670 0
-784 -796 -461 -689 0
-784 -797 -461 -708 0
-784 -798 -461 -727 0
-784 -799 -461 -746 0
-784 -800 -461 -765 0
-785 -786 -480 -499 0
-785 -787 -480 -518 0
-785 -788 -480 -537 0
-785 -789 -480 -556 0
-785 -790 -480 -575 0
-785 -791 -480 -594 0
-785 -792 -480 -613 0
-785 -793 -480 -632 0
-785 -794 -480 -651 0
-785 -795 -480 -670 0
-785 -796 -480 -689 0
-785 -797 -480 -708 0
-785 -798 -480 -727 0
-785 -799 -480 -746 0
-785 -800 -480 -765 0
-786 -787 -499 -518 0
-786 -788 -499 -537 0
-786 -789 -499 -556 0
-786 -790 -499 -575 0
-786 -791 -499 -594 0
-786 -792 -499 -613 0
-786 -793 -499 -632 0
-786 -794 -499 -651 0
-786 -795 -499 -670 0
-786 -796 -499 -689 0
-786 -797 -499 -708 0
-786 -798 -499 -727 0
-786 -799 -499 -746 0
-786 -800 -499 -765 0
-787 -788 -518 -537 0
-787 -789 -518 -556 0
-787 -790 -518 -575 0
-787 -791 -518 -594 0
-787 -792 -518 -613 0
-787 -793 -518 -632 0
-787 -794 -518 -651 0
-787 -795 -518 -670 0
-787 -796 -518 -689 0
-787 -797 -518 -708 0
-787 -798 -518 -727 0
-787 -799 -518 -746 0
-787 -800 -518 -765 0
-788 -789 -537 -556 0
-788 -790 -537 -575 0
-788 -791 -537 -594 0
-788 -792 -537 -613 0
-788 -793 -537 -632 0
-788 -794 -537 -651 0
-788 -795 -537 -670 0
-788 -796 -537 -689 0
-788 -797 -537 -708 0
-788 -798 -537 -727 0
-788 -799 -537 -746 0
-788 -800 -537 -765 0
-789 -790 -556 -575 0
-789 -791 -556 -594 0
-789 -792 -556 -613 0
-789 -793 -556 -632 0
-789 -794 -556 -651 0
-789 -795 -556 -670 0
-789 -796 -556 -689 0
-789 -797 -556 -708 0
-789 -798 -556 -727 0
-789 -799 -556 -746 0
-789 -800 -556 -765 0
-790 -791 -575 -594 0
-790 -792 -575 -613 0
-790 -793 -575 -632 0
-790 -794 -575 -651 0
-790 -795 -575 -670 0
-790 -796 -575 -689 0
-790 -797 -575 -708 0
-790 -798 -575 -727 0
-790 -799 -575 -746 0
-790 -800 -575 -765 0
-791 -792 -594 -613 0
-791 -793 -594 -632 0
-791 -794 -594 -651 0
-791 -795 -594 -670 0
-791 -796 -594 -689 0
-791 -797 -594 -708 0
-791 -798 -594 -727 0
-791 -799 -594 -746 0
-791 -800 -594 -765 0
-792 -793 -613 -632 0
-792 -794 -613 -651 0
-792 -795 -613 -670 0
-792 -796 -613 -689 0
-792 -797 -613 -708 0
-792 -798 -613 -727 0
-792 -799 -613 -746 0
-792 -800 -613 -765 0
-793 -794 -632 -651 0
-793 -795 -632 -670 0
-793 -796 -632 -689 0
-793 -797 -632 -708 0
-793 -798 -632 -727 0
-793 -799 -632 -746 0
-793 -800 -632 -765 0
-794 -795 -651 -670 0
-794 -796 -651 -689 0
-794 -797 -651 -708 0
-794 -798 -651 -727 0
-794 -799 -651 -746 0
-794 -800 -651 -765 0
-795 -796 -670 -689 0
-795 -797 -670 -708 0
-795 -798 -670 -727 0
-795 -799 -670 -746 0
-795 -800 -670 -765 0
-796 -797 -689 -708 0
-796 -798 -689 -727 0
-796 -799 -689 -746 0
-796 -800 -689 -765 0
-797 -798 -708 -727 0
-797 -799 -708 -746 0
-797 -800 -708 -765 0
-798 -799 -727 -746 0
-798 -800 -727 -765 0
-799 -800 -746 -765 0
-781 -782 -405 -424 0
-781 -783 -405 -443 0
-781 -784 -405 -462 0
-781 -785 -405 -481 0
-781 -786 -405 -500 0
-781 -787 -405 -519 0
-781 -788 -405 -538 0
-781 -789 -405 -557 0
-781 -790 -405 -576 0
-781 -791 -405 -595 0
-781 -792 -405 -614 0
-781 -793 -405 -633 0
-781 -794 -405 -652 0
-781 -795 -405 -671 0
-781 -796 -405 -690 0
-781 -797 -405 -709 0
-781 -798 -405 -728 0
-781 -799 -405 -747 0
-781 -800 -405 -766 0
-782 -783 -424 -443 0
-782 -784 -424 -462 0
-782 -785 -424 -481 0
-782 -786 -424 -500 0
-782 -787 -424 -519 0
-782 -788 -424 -538 0
-782 -789 -424 -557 0
-782 -790 -424 -576 0
-782 -791 -424 -595 0
-782 -792 -424 -614 0
-782 -793 -424 -633 0
-782 -794 -424 -652 0
-782 -795 -424 -671 0
-782 -796 -424 -690 0
-782 -797 -424 -709 0
-782 -798 -424 -728 0
-782 -799 -424 -747 0
-782 -800 -424 -766 0
-783 -784 -443 -462 0
-783 -785 -443 -481 0
-783 -786 -443 -500 0
-783 -787 -443 -519 0
-783 -788 -443 -538 0
-783 -789 -443 -557 0
-783 -790 -443 -576 0
-783 -791 -443 -595 0
-783 -792 -443 -614 0
-783 -793 -443 -633 0
-783 -794 -443 -652 0
-783 -795 -443 -671 0
-783 -796 -443 -690 0
-783 -797 -443 -709 0
-783 -798 -443 -728 0
-783 -799 -443 -747 0
-783 -800 -443 -766 0
-784 -785 -462 -481 0
-784 -786 -462 -500 0
-784 -787 -462 -519 0
-784 -788 -462 -538 0
-784 -789 -462 -557 0
-784 -790 -462 -576 0
-784 -791 -462 -595 0
-784 -792 -462 -614 0
-784 -793 -462 -633 0
-784 -794 -462 -652 0
-784 -795 -462 -671 0
-784 -796 -462 -690 0
-784 -797 -462 -709 0
-784 -798 -462 -728 0
-784 -799 -462 -747 0
-784 -800 -462 -766 0
-785 -786 -481 -500 0
-785 -787 -481 -519 0
-785 -788 -481 -538 0
-785 -789 -481 -557 0
-785 -790 -481 -576 0
-785 -791 -481 -595 0
-785 -792 -481 -614 0
-785 -793 -481 -633 0
-785 -794 -481 -652 0
-785 -795 -481 -671 0
-785 -796 -481 -690 0
-785 -797 -481 -709 0
-785 -798 -481 -728 0
-785 -799 -481 -747 0
-785 -800 -481 -766 0
-786 -787 -500 -519 0
-786 -788 -500 -538 0
-786 -789 -500 -557 0
-786 -790 -500 -576 0
-786 -791 -500 -595 0
-786 -792 -500 -614 0
-786 -793 -500 -633 0
-786 -794 -500 -652 0
-786 -795 -500 -671 0
-786 -796 -500 -690 0
-786 -797 -500 -709 0
-786 -798 -500 -728 0
-786 -799 -500 -747 0
-786 -800 -500 -766 0
-787 -788 -519 -538 0
-787 -789 -519 -557 0
-787 -790 -519 -576 0
-787 -791 -519 -595 0
-787 -792 -519 -614 0
-787 -793 -519 -633 0
-787 -794 -519 -652 0
-787 -795 -519 -671 0
-787 -796 -519 -690 0
-787 -797 -519 -709 0
-787 -798 -519 -728 0
-787 -799 -519 -747 0
-787 -800 -519 -766 0
-788 -789 -538 -557 0
-788 -790 -538 -576 0
-788 -791 -538 -595 0
-788 -792 -538 -614 0
-788 -793 -538 -633 0
-788 -794 -538 -652 0
-788 -795 -538 -671 0
-788 -796 -538 -690 0
-788 -797 -538 -709 0
-788 -798 -538 -728 0
-788 -799 -538 -747 0
-788 -800 -538 -766 0
-789 -790 -557 -576 0
-789 -791 -557 -595 0
-789 -792 -557 -614 0
-789 -793 -557 -633 0
-789 -794 -557 -652 0
-789 -795 -557 -671 0
-789 -796 -557 -690 0
-789 -797 -557 -709 0
-789 -798 -557 -728 0
-789 -799 -557 -747 0
-789 -800 -557 -766 0
-790 -791 -576 -595 0
-790 -792 -576 -614 0
-790 -793 -576 -633 0
-790 -794 -576 -652 0
-790 -795 -576 -671 0
-790 -796 -576 -690 0
-790 -797 -576 -709 0
-790 -798 -576 -728 0
-790 -799 -576 -747 0
-790 -800 -576 -766 0
-791 -792 -595 -614 0
-791 -793 -595 -633 0
-791 -794 -595 -652 0
-791 -795 -595 -671 0
-791 -796 -595 -690 0
-791 -797 -595 -709 0
-791 -798 -595 -728 0
-791 -799 -595 -747 0
-791 -800 -595 -766 0
-792 -793 -614 -633 0
-792 -794 -614 -652 0
-792 -795 -614 -671 0
-792 -796 -614 -690 0
-792 -797 -614 -709 0
-792 -798 -614 -728 0
-792 -799 -614 -747 0
-792 -800 -614 -766 0
-793 -794 -633 -652 0
-793 -795 -633 -671 0
-793 -796 -633 -690 0
-793 -797 -633 -709 0
-793 -798 -633 -728 0
-793 -799 -633 -747 0
-793 -800 -633 -766 0
-794 -795 -652 -671 0
-794 -796 -652 -690 0
-794 -797 -652 -709 0
-794 -798 -652 -728 0
-794 -799 -652 -747 0
-794 -800 -652 -766 0
-795 -796 -671 -690 0
-795 -797 -671 -709 0
-795 -798 -671 -728 0
-795 -799 -671 -747 0
-795 -800 -671 -766 0
-796 -797 -690 -709 0
-796 -798 -690 -728 0
-796 -799 -690 -747 0
-796 -800 -690 -766 0
-797 -798 -709 -728 0
-797 -799 -709 -747 0
-797 -800 -709 -766 0
-798 -799 -728 -747 0
-798 -800 -728 -766 0
-799 -800 -747 -766 0
-781 -782 -406 -425 0
-781 -783 -406 -444 0
-781 -784 -406 -463 0
-781 -785 -406 -482 0
-781 -786 -406 -501 0
-781 -787 -406 -520 0
-781 -788 -406 -539 0
-781 -789 -406 -558 0
-781 -790 -406 -577 0
-781 -791 -406 -596 0
-781 -792 -406 -615 0
-781 -793 -406 -634 0
-781 -794 -406 -653 0
-781 -795 -406 -672 0
-781 -796 -406 -691 0
-781 -797 -406 -710 0
-781 -798 -406 -729 0
-781 -799 -406 -748 0
-781 -800 -406 -767 0
-782 -783 -425 -444 0
-782 -784 -425 -463 0
-782 -785 -425 -482 0
-782 -786 -425 -501 0
-782 -787 -425 -520 0
-782 -788 -425 -539 0
-782 -789 -425 -558 0
-782 -790 -425 -577 0
-782 -791 -425 -596 0
-782 -792 -425 -615 0
-782 -793 -425 -634 0
-782 -794 -425 -653 0
-782 -795 -425 -672 0
-782 -796 -425 -691 0
-782 -797 -425 -710 0
-782 -798 -425 -729 0
-782 -799 -425 -748 0
-782 -800 -425 -767 0
-783 -784 -444 -463 0
-783 -785 -444 -482 0
-783 -786 -444 -501 0
-783 -787 -444 -520 0
-783 -788 -444 -539 0
-783 -789 -444 -558 0
-783 -790 -444 -577 0
-783 -791 -444 -596 0
-783 -792 -444 -615 0
-783 -793 -444 -634 0
-783 -794 -444 -653 0
-783 -795 -444 -672 0
-783 -796 -444 -691 0
-783 -797 -444 -710 0
-783 -798 -444 -729 0
-783 -799 -444 -748 0
-783 -800 -444 -767 0
-784 -785 -463 -482 0
-784 -786 -463 -501 0
-784 -787 -463 -520 0
-784 -788 -463 -539 0
-784 -789 -463 -558 0
-784 -790 -463 -577 0
-784 -791 -463 -596 0
-784 -792 -463 -615 0
-784 -793 -463 -634 0
-784 -794 -463 -653 0
-784 -795 -463 -672 0
-784 -796 -463 -691 0
-784 -797 -463 -710 0
-784 -798 -463 -729 0
-784 -799 -463 -748 0
-784 -800 -463 -767 0
-785 -786 -482 -501 0
-785 -787 -482 -520 0
-785 -788 -482 -539 0
-785 -789 -482 -558 0
-785 -790 -482 -577 0
-785 -791 -482 -596 0
-785 -792 -482 -615 0
-785 -793 -482 -634 0
-785 -794 -482 -653 0
-785 -795 -482 -672 0
-785 -796 -482 -691 0
-785 -797 -482 -710 0
-785 -798 -482 -729 0
-785 -799 -482 -748 0
-785 -800 -482 -767 0
-786 -787 -501 -520 0
-786 -788 -501 -539 0
-786 -789 -501 -558 0
-786 -790 -501 -577 0
-786 -791 -501 -596 0
-786 -792 -501 -615 0
-786 -793 -501 -634 0
-786 -794 -501 -653 0
-786 -795 -501 -672 0
-786 -796 -501 -691 0
-786 -797 -501 -710 0
-786 -798 -501 -729 0
-786 -799 -501 -748 0
-786 -800 -501 -767 0
-787 -788 -520 -539 0
-787 -789 -520 -558 0
-787 -790 -520 -577 0
-787 -791 -520 -596 0
-787 -792 -520 -615 0
-787 -793 -520 -634 0
-787 -794 -520 -653 0
-787 -795 -520 -672 0
-787 -796 -520 -691 0
-787 -797 -520 -710 0
-787 -798 -520 -729 0
-787 -799 -520 -748 0
-787 -800 -520 -767 0
-788 -789 -539 -558 0
-788 -790 -539 -577 0
-788 -791 -539 -596 0
-788 -792 -539 -615 0
-788 -793 -539 -634 0
-788 -794 -539 -653 0
-788 -795 -539 -672 0
-788 -796 -539 -691 0
-788 -797 -539 -710 0
-788 -798 -539 -729 0
-788 -799 -539 -748 0
-788 -800 -539 -767 0
-789 -790 -558 -577 0
-789 -791 -558 -596 0
-789 -792 -558 -615 0
-789 -793 -558 -634 0
-789 -794 -558 -653 0
-789 -795 -558 -672 0
-789 -796 -558 -691 0
-789 -797 -558 -710 0
-789 -798 -558 -729 0
-789 -799 -558 -748 0
-789 -800 -558 -767 0
-790 -791 -577 -596 0
-790 -792 -577 -615 0
-790 -793 -577 -634 0
-790 -794 -577 -653 0
-790 -795 -577 -672 0
-790 -796 -577 -691 0
-790 -797 -577 -710 0
-790 -798 -577 -729 0
-790 -799 -577 -748 0
-790 -800 -577 -767 0
-791 -792 -596 -615 0
-791 -793 -596 -634 0
-791 -794 -596 -653 0
-791 -795 -596 -672 0
-791 -796 -596 -691 0
-791 -797 -596 -710 0
-791 -798 -596 -729 0
-791 -799 -596 -748 0
-791 -800 -596 -767 0
-792 -793 -615 -634 0
-792 -794 -615 -653 0
-792 -795 -615 -672 0
-792 -796 -615 -691 0
-792 -797 -615 -710 0
-792 -798 -615 -729 0
-792 -799 -615 -748 0
-792 -800 -615 -767 0
-793 -794 -634 -653 0
-793 -795 -634 -672 0
-793 -796 -634 -691 0
-793 -797 -634 -710 0
-793 -798 -634 -729 0
-793 -799 -634 -748 0
-793 -800 -634 -767 0
-794 -795 -653 -672 0
-794 -796 -653 -691 0
-794 -797 -653 -710 0
-794 -798 -653 -729 0
-794 -799 -653 -748 0
-794 -800 -653 -767 0
-795 -796 -672 -691 0
-795 -797 -672 -710 0
-795 -798 -672 -729 0
-795 -799 -672 -748 0
-795 -800 -672 -767 0
-796 -797 -691 -710 0
-796 -798 -691 -729 0
-796 -799 -691 -748 0
-796 -800 -691 -767 0
-797 -798 -710 -729 0
-797 -799 -710 -748 0
-797 -800 -710 -767 0
-798 -799 -729 -748 0
-798 -800 -729 -767 0
-799 -800 -748 -767 0
-781 -782 -407 -426 0
-781 -783 -407 -445 0
-781 -784 -407 -464 0
-781 -785 -407 -483 0
-781 -786 -407 -502 0
-781 -787 -407 -521 0
-781 -788 -407 -540 0
-781 -789 -407 -559 0
-781 -790 -407 -578 0
-781 -791 -407 -597 0
-781 -792 -407 -616 0
-781 -793 -407 -635 0
-781 -794 -407 -654 0
-781 -795 -407 -673 0
-781 -796 -407 -692 0
-781 -797 -407 -711 0
-781 -798 -407 -730 0
-781 -799 -407 -749 0
-781 -800 -407 -768 0
-782 -783 -426 -445 0
-782 -784 -426 -464 0
-782 -785 -426 -483 0
-782 -786 -426 -502 0
-782 -787 -426 -521 0
-782 -788 -426 -540 0
-782 -789 -426 -559 0
-782 -790 -426 -578 0
-782 -791 -426 -597 0
-782 -792 -426 -616 0
-782 -793 -426 -635 0
-782 -794 -426 -654 0
-782 -795 -426 -673 0
-782 -796 -426 -692 0
-782 -797 -426 -711 0
-782 -798 -426 -730 0
-782 -799 -426 -749 0
-782 -800 -426 -768 0
-783 -784 -445 -464 0
-783 -785 -445 -483 0
-783 -786 -445 -502 0
-783 -787 -445 -521 0
-783 -788 -445 -540 0
-783 -789 -445 -559 0
-783 -790 -445 -578 0
-783 -791 -445 -597 0
-783 -792 -445 -616 0
-783 -793 -445 -635 0
-783 -794 -445 -654 0
-783 -795 -445 -673 0
-783 -796 -445 -692 0
-783 -797 -445 -711 0
-783 -798 -445 -730 0
-783 -799 -445 -749 0
-783 -800 -445 -768 0
-784 -785 -464 -483 0
-784 -786 -464 -502 0
-784 -787 -464 -521 0
-784 -788 -464 -540 0
-784 -789 -464 -559 0
-784 -790 -464 -578 0
-784 -791 -464 -597 0
-784 -792 -464 -616 0
-784 -793 -464 -635 0
-784 -794 -464 -654 0
-784 -795 -464 -673 0
-784 -796 -464 -692 0
-784 -797 -464 -711 0
-784 -798 -464 -730 0
-784 -799 -464 -749 0
-784 -800 -464 -768 0
-785 -786 -483 -502 0
-785 -787 -483 -521 0
-785 -788 -483 -540 0
-785 -789 -483 -559 0
-785 -790 -483 -578 0
-785 -791 -483 -597 0
-785 -792 -483 -616 0
-785 -793 -483 -635 0
-785 -794 -483 -654 0
-785 -795 -483 -673 0
-785 -796 -483 -692 0
-785 -797 -483 -711 0
-785 -798 -483 -730 0
-785 -799 -483 -749 0
-785 -800 -483 -768 0
-786 -787 -502 -521 0
-786 -788 -502 -540 0
-786 -789 -502 -559 0
-786 -790 -502 -578 0
-786 -791 -502 -597 0
-786 -792 -502 -616 0
-786 -793 -502 -635 0
-786 -794 -502 -654 0
-786 -795 -502 -673 0
-786 -796 -502 -692 0
-786 -797 -502 -711 0
-786 -798 -502 -730 0
-786 -799 -502 -749 0
-786 -800 -502 -768 0
-787 -788 -521 -540 0
-787 -789 -521 -559 0
-787 -790 -521 -578 0
-787 -791 -521 -597 0
-787 -792 -521 -616 0
-787 -793 -521 -635 0
-787 -794 -521 -654 0
-787 -795 -521 -673 0
-787 -796 -521 -692 0
-787 -797 -521 -711 0
-787 -798 -521 -730 0
-787 -799 -521 -749 0
-787 -800 -521 -768 0
-788 -789 -540 -559 0
-788 -790 -540 -578 0
-788 -791 -540 -597 0
-788 -792 -540 -616 0
-788 -793 -540 -635 0
-788 -794 -540 -654 0
-788 -795 -540 -673 0
-788 -796 -540 -692 0
-788 -797 -540 -711 0
-788 -798 -540 -730 0
-788 -799 -540 -749 0
-788 -800 -540 -768 0
-789 -790 -559 -578 0
-789 -791 -559 -597 0
-789 -792 -559 -616 0
-789 -793 -559 -635 0
-789 -794 -559 -654 0
-789 -795 -559 -673 0
-789 -796 -559 -692 0
-789 -797 -559 -711 0
-789 -798 -559 -730 0
-789 -799 -559 -749 0
-789 -800 -559 -768 0
-790 -791 -578 -597 0
-790 -792 -578 -616 0
-790 -793 -578 -635 0
-790 -794 -578 -654 0
-790 -795 -578 -673 0
-790 -796 -578 -692 0
-790 -797 -578 -711 0
-790 -798 -578 -730 0
-790 -799 -578 -749 0
-790 -800 -578 -768 0
-791 -792 -597 -616 0
-791 -793 -597 -635 0
-791 -794 -597 -654 0
-791 -795 -597 -673 0
-791 -796 -597 -692 0
-791 -797 -597 -711 0
-791 -798 -597 -730 0
-791 -799 -597 -749 0
-791 -800 -597 -768 0
-792 -793 -616 -635 0
-792 -794 -616 -654 0
-792 -795 -616 -673 0
-792 -796 -616 -692 0
-792 -797 -616 -711 0
-792 -798 -616 -730 0
-792 -799 -616 -749 0
-792 -800 -616 -768 0
-793 -794 -635 -654 0
-793 -795 -635 -673 0
-793 -796 -635 -692 0
-793 -797 -635 -711 0
-793 -798 -635 -730 0
-793 -799 -635 -749 0
-793 -800 -635 -768 0
-794 -795 -654 -673 0
-794 -796 -654 -692 0
-794 -797 -654 -711 0
-794 -798 -654 -730 0
-794 -799 -654 -749 0
-794 -800 -654 -768 0
-795 -796 -673 -692 0
-795 -797 -673 -711 0
-795 -798 -673 -730 0
-795 -799 -673 -749 0
-795 -800 -673 -768 0
-796 -797 -692 -711 0
-796 -798 -692 -730 0
-796 -799 -692 -749 0
-796 -800 -692 -768 0
-797 -798 -711 -730 0
-797 -799 -711 -749 0
-797 -800 -711 -768 0
-798 -799 -730 -749 0
-798 -800 -730 -768 0
-799 -800 -749 -768 0
-781 -782 -408 -427 0
-781 -783 -408 -446 0
-781 -784 -408 -465 0
-781 -785 -408 -484 0
-781 -786 -408 -503 0
-781 -787 -408 -522 0
-781 -788 -408 -541 0
-781 -789 -408 -560 0
-781 -790 -408 -579 0
-781 -791 -408 -598 0
-781 -792 -408 -617 0
-781 -793 -408 -636 0
-781 -794 -408 -655 0
-781 -795 -408 -674 0
-781 -796 -408 -693 0
-781 -797 -408 -712 0
-781 -798 -408 -731 0
-781 -799 -408 -750 0
-781 -800 -408 -769 0
-782 -783 -427 -446 0
-782 -784 -427 -465 0
-782 -785 -427 -484 0
-782 -786 -427 -503 0
-782 -787 -427 -522 0
-782 -788 -427 -541 0
-782 -789 -427 -560 0
-782 -790 -427 -579 0
-782 -791 -427 -598 0
-782 -792 -427 -617 0
-782 -793 -427 -636 0
-782 -794 -427 -655 0
-782 -795 -427 -674 0
-782 -796 -427 -693 0
-782 -797 -427 -712 0
-782 -798 -427 -731 0
-782 -799 -427 -750 0
-782 -800 -427 -769 0
-783 -784 -446 -465 0
-783 -785 -446 -484 0
-783 -786 -446 -503 0
-783 -787 -446 -522 0
-783 -788 -446 -541 0
-783 -789 -446 -560 0
-783 -790 -446 -579 0
-783 -791 -446 -598 0
-783 -792 -446 -617 0
-783 -793 -446 -636 0
-783 -794 -446 -655 0
-783 -795 -446 -674 0
-783 -796 -446 -693 0
-783 -797 -446 -712 0
-783 -798 -446 -731 0
-783 -799 -446 -750 0
-783 -800 -446 -769 0
-784 -785 -465 -484 0
-784 -786 -465 -503 0
-784 -787 -465 -522 0
-784 -788 -465 -541 0
-784 -789 -465 -560 0
-784 -790 -465 -579 0
-784 -791 -465 -598 0
-784 -792 -465 -617 0
-784 -793 -465 -636 0
-784 -794 -465 -655 0
-784 -795 -465 -674 0
-784 -796 -465 -693 0
-784 -797 -465 -712 0
-784 -798 -465 -731 0
-784 -799 -465 -750 0
-784 -800 -465 -769 0
-785 -786 -484 -503 0
-785 -787 -484 -522 0
-785 -788 -484 -541 0
-785 -789 -484 -560 0
-785 -790 -484 -579 0
-785 -791 -484 -598 0
-785 -792 -484 -617 0
-785 -793 -484 -636 0
-785 -794 -484 -655 0
-785 -795 -484 -674 0
-785 -796 -484 -693 0
-785 -797 -484 -712 0
-785 -798 -484 -731 0
-785 -799 -484 -750 0
-785 -800 -484 -769 0
-786 -787 -503 -522 0
-786 -788 -503 -541 0
-786 -789 -503 -560 0
-786 -790 -503 -579 0
-786 -791 -503 -598 0
-786 -792 -503 -617 0
-786 -793 -503 -636 0
-786 -794 -503 -655 0
-786 -795 -503 -674 0
-786 -796 -503 -693 0
-786 -797 -503 -712 0
-786 -798 -503 -731 0
-786 -799 -503 -750 0
-786 -800 -503 -769 0
-787 -788 -522 -541 0
-787 -789 -522 -560 0
-787 -790 -522 -579 0
-787 -791 -522 -598 0
-787 -792 -522 -617 0
-787 -793 -522 -636 0
-787 -794 -522 -655 0
-787 -795 -522 -674 0
-787 -796 -522 -693 0
-787 -797 -522 -712 0
-787 -798 -522 -731 0
-787 -799 -522 -750 0
-787 -800 -522 -769 0
-788 -789 -541 -560 0
-788 -790 -541 -579 0
-788 -791 -541 -598 0
-788 -792 -541 -617 0
-788 -793 -541 -636 0
-788 -794 -541 -655 0
-788 -795 -541 -674 0
-788 -796 -541 -693 0
-788 -797 -541 -712 0
-788 -798 -541 -731 0
-788 -799 -541 -750 0
-788 -800 -541 -769 0
-789 -790 -560 -579 0
-789 -791 -560 -598 0
-789 -792 -560 -617 0
-789 -793 -560 -636 0
-789 -794 -560 -655 0
-789 -795 -560 -674 0
-789 -796 -560 -693 0
-789 -797 -560 -712 0
-789 -798 -560 -731 0
-789 -799 -560 -750 0
-789 -800 -560 -769 0
-790 -791 -579 -598 0
-790 -792 -579 -617 0
-790 -793 -579 -636 0
-790 -794 -579 -655 0
-790 -795 -579 -674 0
-790 -796 -579 -693 0
-790 -797 -579 -712 0
-790 -798 -579 -731 0
-790 -799 -579 -750 0
-790 -800 -579 -769 0
-791 -792 -598 -617 0
-791 -793 -598 -636 0
-791 -794 -598 -655 0
-791 -795 -598 -674 0
-791 -796 -598 -693 0
-791 -797 -598 -712 0
-791 -798 -598 -731 0
-791 -799 -598 -750 0
-791 -800 -598 -769 0
-792 -793 -617 -636 0
-792 -794 -617 -655 0
-792 -795 -617 -674 0
-792 -796 -617 -693 0
-792 -797 -617 -712 0
-792 -798 -617 -731 0
-792 -799 -617 -750 0
-792 -800 -617 -769 0
-793 -794 -636 -655 0
-793 -795 -636 -674 0
-793 -796 -636 -693 0
-793 -797 -636 -712 0
-793 -798 -636 -731 0
-793 -799 -636 -750 0
-793 -800 -636 -769 0
-794 -795 -655 -674 0
-794 -796 -655 -693 0
-794 -797 -655 -712 0
-794 -798 -655 -731 0
-794 -799 -655 -750 0
-794 -800 -655 -769 0
-795 -796 -674 -693 0
-795 -797 -674 -712 0
-795 -798 -674 -731 0
-795 -799 -674 -750 0
-795 -800 -674 -769 0
-796 -797 -693 -712 0
-796 -798 -693 -731 0
-796 -799 -693 -750 0
-796 -800 -693 -769 0
-797 -798 -712 -731 0
-797 -799 -712 -750 0
-797 -800 -712 -769 0
-798 -799 -731 -750 0
-798 -800 -731 -769 0
-799 -800 -750 -769 0
-781 -782 -409 -428 0
-781 -783 -409 -447 0
-781 -784 -409 -466 0
-781 -785 -409 -485 0
-781 -786 -409 -504 0
-781 -787 -409 -523 0
-781 -788 -409 -542 0
-781 -789 -409 -561 0
-781 -790 -409 -580 0
-781 -791 -409 -599 0
-781 -792 -409 -618 0
-781 -793 -409 -637 0
-781 -794 -409 -656 0
-781 -795 -409 -675 0
-781 -796 -409 -694 0
-781 -797 -409 -713 0
-781 -798 -409 -732 0
-781 -799 -409 -751 0
-781 -800 -409 -770 0
-782 -783 -428 -447 0
-782 -784 -428 -466 0
-782 -785 -428 -485 0
-782 -786 -428 -504 0
-782 -787 -428 -523 0
-782 -788 -428 -542 0
-782 -789 -428 -561 0
-782 -790 -428 -580 0
-782 -791 -428 -599 0
-782 -792 -428 -618 0
-782 -793 -428 -637 0
-782 -794 -428 -656 0
-782 -795 -428 -675 0
-782 -796 -428 -694 0
-782 -797 -428 -713 0
-782 -798 -428 -732 0
-782 -799 -428 -751 0
-782 -800 -428 -770 0
-783 -784 -447 -466 0
-783 -785 -447 -485 0
-783 -786 -447 -504 0
-783 -787 -447 -523 0
-783 -788 -447 -542 0
-783 -789 -447 -561 0
-783 -790 -447 -580 0
-783 -791 -447 -599 0
-783 -792 -447 -618 0
-783 -793 -447 -637 0
-783 -794 -447 -656 0
-783 -795 -447 -675 0
-783 -796 -447 -694 0
-783 -797 -447 -713 0
-783 -798 -447 -732 0
-783 -799 -447 -751 0
-783 -800 -447 -770 0
-784 -785 -466 -485 0
-784 -786 -466 -504 0
-784 -787 -466 -523 0
-784 -788 -466 -542 0
-784 -789 -466 -561 0
-784 -790 -466 -580 0
-784 -791 -466 -599 0
-784 -792 -466 -618 0
-784 -793 -466 -637 0
-784 -794 -466 -656 0
-784 -795 -466 -675 0
-784 -796 -466 -694 0
-784 -797 -466 -713 0
-784 -798 -466 -732 0
-784 -799 -466 -751 0
-784 -800 -466 -770 0
-785 -786 -485 -504 0
-785 -787 -485 -523 0
-785 -788 -485 -542 0
-785 -789 -485 -561 0
-785 -790 -485 -580 0
-785 -791 -485 -599 0
-785 -792 -485 -618 0
-785 -793 -485 -637 0
-785 -794 -485 -656 0
-785 -795 -485 -675 0
-785 -796 -485 -694 0
-785 -797 -485 -713 0
-785 -798 -485 -732 0
-785 -799 -485 -751 0
-785 -800 -485 -770 0
-786 -787 -504 -523 0
-786 -788 -504 -542 0
-786 -789 -504 -561 0
-786 -790 -504 -580 0
-786 -791 -504 -599 0
-786 -792 -504 -618 0
-786 -793 -504 -637 0
-786 -794 -504 -656 0
-786 -795 -504 -675 0
-786 -796 -504 -694 0
-786 -797 -504 -713 0
-786 -798 -504 -732 0
-786 -799 -504 -751 0
-786 -800 -504 -770 0
-787 -788 -523 -542 0
-787 -789 -523 -561 0
-787 -790 -523 -580 0
-787 -791 -523 -599 0
-787 -792 -523 -618 0
-787 -793 -523 -637 0
-787 -794 -523 -656 0
-787 -795 -523 -675 0
-787 -796 -523 -694 0
-787 -797 -523 -713 0
-787 -798 -523 -732 0
-787 -799 -523 -751 0
-787 -800 -523 -770 0
-788 -789 -542 -561 0
-788 -790 -542 -580 0
-788 -791 -542 -599 0
-788 -792 -542 -618 0
-788 -793 -542 -637 0
-788 -794 -542 -656 0
-788 -795 -542 -675 0
-788 -796 -542 -694 0
-788 -797 -542 -713 0
-788 -798 -542 -732 0
-788 -799 -542 -751 0
-788 -800 -542 -770 0
-789 -790 -561 -580 0
-789 -791 -561 -599 0
-789 -792 -561 -618 0
-789 -793 -561 -637 0
-789 -794 -561 -656 0
-789 -795 -561 -675 0
-789 -796 -561 -694 0
-789 -797 -561 -713 0
-789 -798 -561 -732 0
-789 -799 -561 -751 0
-789 -800 -561 -770 0
-790 -791 -580 -599 0
-790 -792 -580 -618 0
-790 -793 -580 -637 0
-790 -794 -580 -656 0
-790 -795 -580 -675 0
-790 -796 -580 -694 0
-790 -797 -580 -713 0
-790 -798 -580 -732 0
-790 -799 -580 -751 0
-790 -800 -580 -770 0
-791 -792 -599 -618 0
-791 -793 -599 -637 0
-791 -794 -599 -656 0
-791 -795 -599 -675 0
-791 -796 -599 -694 0
-791 -797 -599 -713 0
-791 -798 -599 -732 0
-791 -799 -599 -751 0
-791 -800 -599 -770 0
-792 -793 -618 -637 0
-792 -794 -618 -656 0
-792 -795 -618 -675 0
-792 -796 -618 -694 0
-792 -797 -618 -713 0
-792 -798 -618 -732 0
-792 -799 -618 -751 0
-792 -800 -618 -770 0
-793 -794 -637 -656 0
-793 -795 -637 -675 0
-793 -796 -637 -694 0
-793 -797 -637 -713 0
-793 -798 -637 -732 0
-793 -799 -637 -751 0
-793 -800 -637 -770 0
-794 -795 -656 -675 0
-794 -796 -656 -694 0
-794 -797 -656 -713 0
-794 -798 -656 -732 0
-794 -799 -656 -751 0
-794 -800 -656 -770 0
-795 -796 -675 -694 0
-795 -797 -675 -713 0
-795 -798 -675 -732 0
-795 -799 -675 -751 0
-795 -800 -675 -770 0
-796 -797 -694 -713 0
-796 -798 -694 -732 0
-796 -799 -694 -751 0
-796 -800 -694 -770 0
-797 -798 -713 -732 0
-797 -799 -713 -751 0
-797 -800 -713 -770 0
-798 -799 -732 -751 0
-798 -800 -732 -770 0
-799 -800 -751 -770 0
-781 -782 -410 -429 0
-781 -783 -410 -448 0
-781 -784 -410 -467 0
-781 -785 -410 -486 0
-781 -786 -410 -505 0
-781 -787 -410 -524 0
-781 -788 -410 -543 0
-781 -789 -410 -562 0
-781 -790 -410 -581 0
-781 -791 -410 -600 0
-781 -792 -410 -619 0
-781 -793 -410 -638 0
-781 -794 -410 -657 0
-781 -795 -410 -676 0
-781 -796 -410 -695 0
-781 -797 -410 -714 0
-781 -798 -410 -733 0
-781 -799 -410 -752 0
-781 -800 -410 -771 0
-782 -783 -429 -448 0
-782 -784 -429 -467 0
-782 -785 -429 -486 0
-782 -786 -429 -505 0
-782 -787 -429 -524 0
-782 -788 -429 -543 0
-782 -789 -429 -562 0
-782 -790 -429 -581 0
-782 -791 -429 -600 0
-782 -792 -429 -619 0
-782 -793 -429 -638 0
-782 -794 -429 -657 0
-782 -795 -429 -676 0
-782 -796 -429 -695 0
-782 -797 -429 -714 0
-782 -798 -429 -733 0
-782 -799 -429 -752 0
-782 -800 -429 -771 0
-783 -784 -448 -467 0
-783 -785 -448 -486 0
-783 -786 -448 -505 0
-783 -787 -448 -524 0
-783 -788 -448 -543 0
-783 -789 -448 -562 0
-783 -790 -448 -581 0
-783 -791 -448 -600 0
-783 -792 -448 -619 0
-783 -793 -448 -638 0
-783 -794 -448 -657 0
-783 -795 -448 -676 0
-783 -796 -448 -695 0
-783 -797 -448 -714 0
-783 -798 -448 -733 0
-783 -799 -448 -752 0
-783 -800 -448 -771 0
-784 -785 -467 -486 0
-784 -786 -467 -505 0
-784 -787 -467 -524 0
-784 -788 -467 -543 0
-784 -789 -467 -562 0
-784 -790 -467 -581 0
-784 -791 -467 -600 0
-784 -792 -467 -619 0
-784 -793 -467 -638 0
-784 -794 -467 -657 0
-784 -795 -467 -676 0
-784 -796 -467 -695 0
-784 -797 -467 -714 0
-784 -798 -467 -733 0
-784 -799 -467 -752 0
-784 -800 -467 -771 0
-785 -786 -486 -505 0
-785 -787 -486 -524 0
-785 -788 -486 -543 0
-785 -789 -486 -562 0
-785 -790 -486 -581 0
-785 -791 -486 -600 0
-785 -792 -486 -619 0
-785 -793 -486 -638 0
-785 -794 -486 -657 0
-785 -795 -486 -676 0
-785 -796 -486 -695 0
-785 -797 -486 -714 0
-785 -798 -486 -733 0
-785 -799 -486 -752 0
-785 -800 -486 -771 0
-786 -787 -505 -524 0
-786 -788 -505 -543 0
-786 -789 -505 -562 0
-786 -790 -505 -581 0
-786 -791 -505 -600 0
-786 -792 -505 -619 0
-786 -793 -505 -638 0
-786 -794 -505 -657 0
-786 -795 -505 -676 0
-786 -796 -505 -695 0
-786 -797 -505 -714 0
-786 -798 -505 -733 0
-786 -799 -505 -752 0
-786 -800 -505 -771 0
-787 -788 -524 -543 0
-787 -789 -524 -562 0
-787 -790 -524 -581 0
-787 -791 -524 -600 0
-787 -792 -524 -619 0
-787 -793 -524 -638 0
-787 -794 -524 -657 0
-787 -795 -524 -676 0
-787 -796 -524 -695 0
-787 -797 -524 -714 0
-787 -798 -524 -733 0
-787 -799 -524 -752 0
-787 -800 -524 -771 0
-788 -789 -543 -562 0
-788 -790 -543 -581 0
-788 -791 -543 -600 0
-788 -792 -543 -619 0
-788 -793 -543 -638 0
-788 -794 -543 -657 0
-788 -795 -543 -676 0
-788 -796 -543 -695 0
-788 -797 -543 -714 0
-788 -798 -543 -733 0
-788 -799 -543 -752 0
-788 -800 -543 -771 0
-789 -790 -562 -581 0
-789 -791 -562 -600 0
-789 -792 -562 -619 0
-789 -793 -562 -638 0
-789 -794 -562 -657 0
-789 -795 -562 -676 0
-789 -796 -562 -695 0
-789 -797 -562 -714 0
-789 -798 -562 -733 0
-789 -799 -562 -752 0
-789 -800 -562 -771 0
-790 -791 -581 -600 0
-790 -792 -581 -619 0
-790 -793 -581 -638 0
-790 -794 -581 -657 0
-790 -795 -581 -676 0
-790 -796 -581 -695 0
-790 -797 -581 -714 0
-790 -798 -581 -733 0
-790 -799 -581 -752 0
-790 -800 -581 -771 0
-791 -792 -600 -619 0
-791 -793 -600 -638 0
-791 -794 -600 -657 0
-791 -795 -600 -676 0
-791 -796 -600 -695 0
-791 -797 -600 -714 0
-791 -798 -600 -733 0
-791 -799 -600 -752 0
-791 -800 -600 -771 0
-792 -793 -619 -638 0
-792 -794 -619 -657 0
-792 -795 -619 -676 0
-792 -796 -619 -695 0
-792 -797 -619 -714 0
-792 -798 -619 -733 0
-792 -799 -619 -752 0
-792 -800 -619 -771 0
-793 -794 -638 -657 0
-793 -795 -638 -676 0
-793 -796 -638 -695 0
-793 -797 -638 -714 0
-793 -798 -638 -733 0
-793 -799 -638 -752 0
-793 -800 -638 -771 0
-794 -795 -657 -676 0
-794 -796 -657 -695 0
-794 -797 -657 -714 0
-794 -798 -657 -733 0
-794 -799 -657 -752 0
-794 -800 -657 -771 0
-795 -796 -676 -695 0
-795 -797 -676 -714 0
-795 -798 -676 -733 0
-795 -799 -676 -752 0
-795 -800 -676 -771 0
-796 -797 -695 -714 0
-796 -798 -695 -733 0
-796 -799 -695 -752 0
-796 -800 -695 -771 0
-797 -798 -714 -733 0
-797 -799 -714 -752 0
-797 -800 -714 -771 0
-798 -799 -733 -752 0
-798 -800 -733 -771 0
-799 -800 -752 -771 0
-781 -782 -411 -430 0
-781 -783 -411 -449 0
-781 -784 -411 -468 0
-781 -785 -411 -487 0
-781 -786 -411 -506 0
-781 -787 -411 -525 0
-781 -788 -411 -544 0
-781 -789 -411 -563 0
-781 -790 -411 -582 0
-781 -791 -411 -601 0
-781 -792 -411 -620 0
-781 -793 -411 -639 0
-781 -794 -411 -658 0
-781 -795 -411 -677 0
-781 -796 -411 -696 0
-781 -797 -411 -715 0
-781 -798 -411 -734 0
-781 -799 -411 -753 0
-781 -800 -411 -772 0
-782 -783 -430 -449 0
-782 -784 -430 -468 0
-782 -785 -430 -487 0
-782 -786 -430 -506 0
-782 -787 -430 -525 0
-782 -788 -430 -544 0
-782 -789 -430 -563 0
-782 -790 -430 -582 0
-782 -791 -430 -601 0
-782 -792 -430 -620 0
-782 -793 -430 -639 0
-782 -794 -430 -658 0
-782 -795 -430 -677 0
-782 -796 -430 -696 0
-782 -797 -430 -715 0
-782 -798 -430 -734 0
-782 -799 -430 -753 0
-782 -800 -430 -772 0
-783 -784 -449 -468 0
-783 -785 -449 -487 0
-783 -786 -449 -506 0
-783 -787 -449 -525 0
-783 -788 -449 -544 0
-783 -789 -449 -563 0
-783 -790 -449 -582 0
-783 -791 -449 -601 0
-783 -792 -449 -620 0
-783 -793 -449 -639 0
-783 -794 -449 -658 0
-783 -795 -449 -677 0
-783 -796 -449 -696 0
-783 -797 -449 -715 0
-783 -798 -449 -734 0
-783 -799 -449 -753 0
-783 -800 -449 -772 0
-784 -785 -468 -487 0
-784 -786 -468 -506 0
-784 -787 -468 -525 0
-784 -788 -468 -544 0
-784 -789 -468 -563 0
-784 -790 -468 -582 0
-784 -791 -468 -601 0
-784 -792 -468 -620 0
-784 -793 -468 -639 0
-784 -794 -468 -658 0
-784 -795 -468 -677 0
-784 -796 -468 -696 0
-784 -797 -468 -715 0
-784 -798 -468 -734 0
-784 -799 -468 -753 0
-784 -800 -468 -772 0
-785 -786 -487 -506 0
-785 -787 -487 -525 0
-785 -788 -487 -544 0
-785 -789 -487 -563 0
-785 -790 -487 -582 0
-785 -791 -487 -601 0
-785 -792 -487 -620 0
-785 -793 -487 -639 0
-785 -794 -487 -658 0
-785 -795 -487 -677 0
-785 -796 -487 -696 0
-785 -797 -487 -715 0
-785 -798 -487 -734 0
-785 -799 -487 -753 0
-785 -800 -487 -772 0
-786 -787 -506 -525 0
-786 -788 -506 -544 0
-786 -789 -506 -563 0
-786 -790 -506 -582 0
-786 -791 -506 -601 0
-786 -792 -506 -620 0
-786 -793 -506 -639 0
-786 -794 -506 -658 0
-786 -795 -506 -677 0
-786 -796 -506 -696 0
-786 -797 -506 -715 0
-786 -798 -506 -734 0
-786 -799 -506 -753 0
-786 -800 -506 -772 0
-787 -788 -525 -544 0
-787 -789 -525 -563 0
-787 -790 -525 -582 0
-787 -791 -525 -601 0
-787 -792 -525 -620 0
-787 -793 -525 -639 0
-787 -794 -525 -658 0
-787 -795 -525 -677 0
-787 -796 -525 -696 0
-787 -797 -525 -715 0
-787 -798 -525 -734 0
-787 -799 -525 -753 0
-787 -800 -525 -772 0
-788 -789 -544 -563 0
-788 -790 -544 -582 0
-788 -791 -544 -601 0
-788 -792 -544 -620 0
-788 -793 -544 -639 0
-788 -794 -544 -658 0
-788 -795 -544 -677 0
-788 -796 -544 -696 0
-788 -797 -544 -715 0
-788 -798 -544 -734 0
-788 -799 -544 -753 0
-788 -800 -544 -772 0
-789 -790 -563 -582 0
-789 -791 -563 -601 0
-789 -792 -563 -620 0
-789 -793 -563 -639 0
-789 -794 -563 -658 0
-789 -795 -563 -677 0
-789 -796 -563 -696 0
-789 -797 -563 -715 0
-789 -798 -563 -734 0
-789 -799 -563 -753 0
-789 -800 -563 -772 0
-790 -791 -582 -601 0
-790 -792 -582 -620 0
-790 -793 -582 -639 0
-790 -794 -582 -658 0
-790 -795 -582 -677 0
-790 -796 -582 -696 0
-790 -797 -582 -715 0
-790 -798 -582 -734 0
-790 -799 -582 -753 0
-790 -800 -582 -772 0
-791 -792 -601 -620 0
-791 -793 -601 -639 0
-791 -794 -601 -658 0
-791 -795 -601 -677 0
-791 -796 -601 -696 0
-791 -797 -601 -715 0
-791 -798 -601 -734 0
-791 -799 -601 -753 0
-791 -800 -601 -772 0
-792 -793 -620 -639 0
-792 -794 -620 -658 0
-792 -795 -620 -677 0
-792 -796 -620 -696 0
-792 -797 -620 -715 0
-792 -798 -620 -734 0
-792 -799 -620 -753 0
-792 -800 -620 -772 0
-793 -794 -639 -658 0
-793 -795 -639 -677 0
-793 -796 -639 -696 0
-793 -797 -639 -715 0
-793 -798 -639 -734 0
-793 -799 -639 -753 0
-793 -800 -639 -772 0
-794 -795 -658 -677 0
-794 -796 -658 -696 0
-794 -797 -658 -715 0
-794 -798 -658 -734 0
-794 -799 -658 -753 0
-794 -800 -658 -772 0
-795 -796 -677 -696 0
-795 -797 -677 -715 0
-795 -798 -677 -734 0
-795 -799 -677 -753 0
-795 -800 -677 -772 0
-796 -797 -696 -715 0
-796 -798 -696 -734 0
-796 -799 -696 -753 0
-796 -800 -696 -772 0
-797 -798 -715 -734 0
-797 -799 -715 -753 0
-797 -800 -715 -772 0
-798 -799 -734 -753 0
-798 -800 -734 -772 0
-799 -800 -753 -772 0
-781 -782 -412 -431 0
-781 -783 -412 -450 0
-781 -784 -412 -469 0
-781 -785 -412 -488 0
-781 -786 -412 -507 0
-781 -787 -412 -526 0
-781 -788 -412 -545 0
-781 -789 -412 -564 0
-781 -790 -412 -583 0
-781 -791 -412 -602 0
-781 -792 -412 -621 0
-781 -793 -412 -640 0
-781 -794 -412 -659 0
-781 -795 -412 -678 0
-781 -796 -412 -697 0
-781 -797 -412 -716 0
-781 -798 -412 -735 0
-781 -799 -412 -754 0
-781 -800 -412 -773 0
-782 -783 -431 -450 0
-782 -784 -431 -469 0
-782 -785 -431 -488 0
-782 -786 -431 -507 0
-782 -787 -431 -526 0
-782 -788 -431 -545 0
-782 -789 -431 -564 0
-782 -790 -431 -583 0
-782 -791 -431 -602 0
-782 -792 -431 -621 0
-782 -793 -431 -640 0
-782 -794 -431 -659 0
-782 -795 -431 -678 0
-782 -796 -431 -697 0
-782 -797 -431 -716 0
-782 -798 -431 -735 0
-782 -799 -431 -754 0
-782 -800 -431 -773 0
-783 -784 -450 -469 0
-783 -785 -450 -488 0
-783 -786 -450 -507 0
-783 -787 -450 -526 0
-783 -788 -450 -545 0
-783 -789 -450 -564 0
-783 -790 -450 -583 0
-783 -791 -450 -602 0
-783 -792 -450 -621 0
-783 -793 -450 -640 0
-783 -794 -450 -659 0
-783 -795 -450 -678 0
-783 -796 -450 -697 0
-783 -797 -450 -716 0
-783 -798 -450 -735 0
-783 -799 -450 -754 0
-783 -800 -450 -773 0
-784 -785 -469 -488 0
-784 -786 -469 -507 0
-784 -787 -469 -526 0
-784 -788 -469 -545 0
-784 -789 -469 -564 0
-784 -790 -469 -583 0
-784 -791 -469 -602 0
-784 -792 -469 -621 0
-784 -793 -469 -640 0
-784 -794 -469 -659 0
-784 -795 -469 -678 0
-784 -796 -469 -697 0
-784 -797 -469 -716 0
-784 -798 -469 -735 0
-784 -799 -469 -754 0
-784 -800 -469 -773 0
-785 -786 -488 -507 0
-785 -787 -488 -526 0
-785 -788 -488 -545 0
-785 -789 -488 -564 0
-785 -790 -488 -583 0
-785 -791 -488 -602 0
-785 -792 -488 -621 0
-785 -793 -488 -640 0
-785 -794 -488 -659 0
-785 -795 -488 -678 0
-785 -796 -488 -697 0
-785 -797 -488 -716 0
-785 -798 -488 -735 0
-785 -799 -488 -754 0
-785 -800 -488 -773 0
-786 -787 -507 -526 0
-786 -788 -507 -545 0
-786 -789 -507 -564 0
-786 -790 -507 -583 0
-786 -791 -507 -602 0
-786 -792 -507 -621 0
-786 -793 -507 -640 0
-786 -794 -507 -659 0
-786 -795 -507 -678 0
-786 -796 -507 -697 0
-786 -797 -507 -716 0
-786 -798 -507 -735 0
-786 -799 -507 -754 0
-786 -800 -507 -773 0
-787 -788 -526 -545 0
-787 -789 -526 -564 0
-787 -790 -526 -583 0
-787 -791 -526 -602 0
-787 -792 -526 -621 0
-787 -793 -526 -640 0
-787 -794 -526 -659 0
-787 -795 -526 -678 0
-787 -796 -526 -697 0
-787 -797 -526 -716 0
-787 -798 -526 -735 0
-787 -799 -526 -754 0
-787 -800 -526 -773 0
-788 -789 -545 -564 0
-788 -790 -545 -583 0
-788 -791 -545 -602 0
-788 -792 -545 -621 0
-788 -793 -545 -640 0
-788 -794 -545 -659 0
-788 -795 -545 -678 0
-788 -796 -545 -697 0
-788 -797 -545 -716 0
-788 -798 -545 -735 0
-788 -799 -545 -754 0
-788 -800 -545 -773 0
-789 -790 -564 -583 0
-789 -791 -564 -602 0
-789 -792 -564 -621 0
-789 -793 -564 -640 0
-789 -794 -564 -659 0
-789 -795 -564 -678 0
-789 -796 -564 -697 0
-789 -797 -564 -716 0
-789 -798 -564 -735 0
-789 -799 -564 -754 0
-789 -800 -564 -773 0
-790 -791 -583 -602 0
-790 -792 -583 -621 0
-790 -793 -583 -640 0
-790 -794 -583 -659 0
-790 -795 -583 -678 0
-790 -796 -583 -697 0
-790 -797 -583 -716 0
-790 -798 -583 -735 0
-790 -799 -583 -754 0
-790 -800 -583 -773 0
-791 -792 -602 -621 0
-791 -793 -602 -640 0
-791 -794 -602 -659 0
-791 -795 -602 -678 0
-791 -796 -602 -697 0
-791 -797 -602 -716 0
-791 -798 -602 -735 0
-791 -799 -602 -754 0
-791 -800 -602 -773 0
-792 -793 -621 -640 0
-792 -794 -621 -659 0
-792 -795 -621 -678 0
-792 -796 -621 -697 0
-792 -797 -621 -716 0
-792 -798 -621 -735 0
-792 -799 -621 -754 0
-792 -800 -621 -773 0
-793 -794 -640 -659 0
-793 -795 -640 -678 0
-793 -796 -640 -697 0
-793 -797 -640 -716 0
-793 -798 -640 -735 0
-793 -799 -640 -754 0
-793 -800 -640 -773 0
-794 -795 -659 -678 0
-794 -796 -659 -697 0
-794 -797 -659 -716 0
-794 -798 -659 -735 0
-794 -799 -659 -754 0
-794 -800 -659 -773 0
-795 -796 -678 -697 0
-795 -797 -678 -716 0
-795 -798 -678 -735 0
-795 -799 -678 -754 0
-795 -800 -678 -773 0
-796 -797 -697 -716 0
-796 -798 -697 -735 0
-796 -799 -697 -754 0
-796 -800 -697 -773 0
-797 -798 -716 -735 0
-797 -799 -716 -754 0
-797 -800 -716 -773 0
-798 -799 -735 -754 0
-798 -800 -735 -773 0
-799 -800 -754 -773 0
-781 -782 -413 -432 0
-781 -783 -413 -451 0
-781 -784 -413 -470 0
-781 -785 -413 -489 0
-781 -786 -413 -508 0
-781 -787 -413 -527 0
-781 -788 -413 -546 0
-781 -789 -413 -565 0
-781 -790 -413 -584 0
-781 -791 -413 -603 0
-781 -792 -413 -622 0
-781 -793 -413 -641 0
-781 -794 -413 -660 0
-781 -795 -413 -679 0
-781 -796 -413 -698 0
-781 -797 -413 -717 0
-781 -798 -413 -736 0
-781 -799 -413 -755 0
-781 -800 -413 -774 0
-782 -783 -432 -451 0
-782 -784 -432 -470 0
-782 -785 -432 -489 0
-782 -786 -432 -508 0
-782 -787 -432 -527 0
-782 -788 -432 -546 0
-782 -789 -432 -565 0
-782 -790 -432 -584 0
-782 -791 -432 -603 0
-782 -792 -432 -622 0
-782 -793 -432 -641 0
-782 -794 -432 -660 0
-782 -795 -432 -679 0
-782 -796 -432 -698 0
-782 -797 -432 -717 0
-782 -798 -432 -736 0
-782 -799 -432 -755 0
-782 -800 -432 -774 0
-783 -784 -451 -470 0
-783 -785 -451 -489 0
-783 -786 -451 -508 0
-783 -787 -451 -527 0
-783 -788 -451 -546 0
-783 -789 -451 -565 0
-783 -790 -451 -584 0
-783 -791 -451 -603 0
-783 -792 -451 -622 0
-783 -793 -451 -641 0
-783 -794 -451 -660 0
-783 -795 -451 -679 0
-783 -796 -451 -698 0
-783 -797 -451 -717 0
-783 -798 -451 -736 0
-783 -799 -451 -755 0
-783 -800 -451 -774 0
-784 -785 -470 -489 0
-784 -786 -470 -508 0
-784 -787 -470 -527 0
-784 -788 -470 -546 0
-784 -789 -470 -565 0
-784 -790 -470 -584 0
-784 -791 -470 -603 0
-784 -792 -470 -622 0
-784 -793 -470 -641 0
-784 -794 -470 -660 0
-784 -795 -470 -679 0
-784 -796 -470 -698 0
-784 -797 -470 -717 0
-784 -798 -470 -736 0
-784 -799 -470 -755 0
-784 -800 -470 -774 0
-785 -786 -489 -508 0
-785 -787 -489 -527 0
-785 -788 -489 -546 0
-785 -789 -489 -565 0
-785 -790 -489 -584 0
-785 -791 -489 -603 0
-785 -792 -489 -622 0
-785 -793 -489 -641 0
-785 -794 -489 -660 0
-785 -795 -489 -679 0
-785 -796 -489 -698 0
-785 -797 -489 -717 0
-785 -798 -489 -736 0
-785 -799 -489 -755 0
-785 -800 -489 -774 0
-786 -787 -508 -527 0
-786 -788 -508 -546 0
-786 -789 -508 -565 0
-786 -790 -508 -584 0
-786 -791 -508 -603 0
-786 -792 -508 -622 0
-786 -793 -508 -641 0
-786 -794 -508 -660 0
-786 -795 -508 -679 0
-786 -796 -508 -698 0
-786 -797 -508 -717 0
-786 -798 -508 -736 0
-786 -799 -508 -755 0
-786 -800 -508 -774 0
-787 -788 -527 -546 0
-787 -789 -527 -565 0
-787 -790 -527 -584 0
-787 -791 -527 -603 0
-787 -792 -527 -622 0
-787 -793 -527 -641 0
-787 -794 -527 -660 0
-787 -795 -527 -679 0
-787 -796 -527 -698 0
-787 -797 -527 -717 0
-787 -798 -527 -736 0
-787 -799 -527 -755 0
-787 -800 -527 -774 0
-788 -789 -546 -565 0
-788 -790 -546 -584 0
-788 -791 -546 -603 0
-788 -792 -546 -622 0
-788 -793 -546 -641 0
-788 -794 -546 -660 0
-788 -795 -546 -679 0
-788 -796 -546 -698 0
-788 -797 -546 -717 0
-788 -798 -546 -736 0
-788 -799 -546 -755 0
-788 -800 -546 -774 0
-789 -790 -565 -584 0
-789 -791 -565 -603 0
-789 -792 -565 -622 0
-789 -793 -565 -641 0
-789 -794 -565 -660 0
-789 -795 -565 -679 0
-789 -796 -565 -698 0
-789 -797 -565 -717 0
-789 -798 -565 -736 0
-789 -799 -565 -755 0
-789 -800 -565 -774 0
-790 -791 -584 -603 0
-790 -792 -584 -622 0
-790 -793 -584 -641 0
-790 -794 -584 -660 0
-790 -795 -584 -679 0
-790 -796 -584 -698 0
-790 -797 -584 -717 0
-790 -798 -584 -736 0
-790 -799 -584 -755 0
-790 -800 -584 -774 0
-791 -792 -603 -622 0
-791 -793 -603 -641 0
-791 -794 -603 -660 0
-791 -795 -603 -679 0
-791 -796 -603 -698 0
-791 -797 -603 -717 0
-791 -798 -603 -736 0
-791 -799 -603 -755 0
-791 -800 -603 -774 0
-792 -793 -622 -641 0
-792 -794 -622 -660 0
-792 -795 -622 -679 0
-792 -796 -622 -698 0
-792 -797 -622 -717 0
-792 -798 -622 -736 0
-792 -799 -622 -755 0
-792 -800 -622 -774 0
-793 -794 -641 -660 0
-793 -795 -641 -679 0
-793 -796 -641 -698 0
-793 -797 -641 -717 0
-793 -798 -641 -736 0
-793 -799 -641 -755 0
-793 -800 -641 -774 0
-794 -795 -660 -679 0
-794 -796 -660 -698 0
-794 -797 -660 -717 0
-794 -798 -660 -736 0
-794 -799 -660 -755 0
-794 -800 -660 -774 0
-795 -796 -679 -698 0
-795 -797 -679 -717 0
-795 -798 -679 -736 0
-795 -799 -679 -755 0
-795 -800 -679 -774 0
-796 -797 -698 -717 0
-796 -798 -698 -736 0
-796 -799 -698 -755 0
-796 -800 -698 -774 0
-797 -798 -717 -736 0
-797 -799 -717 -755 0
-797 -800 -717 -774 0
-798 -799 -736 -755 0
-798 -800 -736 -774 0
-799 -800 -755 -774 0
-781 -782 -414 -433 0
-781 -783 -414 -452 0
-781 -784 -414 -471 0
-781 -785 -414 -490 0
-781 -786 -414 -509 0
-781 -787 -414 -528 0
-781 -788 -414 -547 0
-781 -789 -414 -566 0
-781 -790 -414 -585 0
-781 -791 -414 -604 0
-781 -792 -414 -623 0
-781 -793 -414 -642 0
-781 -794 -414 -661 0
-781 -795 -414 -680 0
-781 -796 -414 -699 0
-781 -797 -414 -718 0
-781 -798 -414 -737 0
-781 -799 -414 -756 0
-781 -800 -414 -775 0
-782 -783 -433 -452 0
-782 -784 -433 -471 0
-782 -785 -433 -490 0
-782 -786 -433 -509 0
-782 -787 -433 -528 0
-782 -788 -433 -547 0
-782 -789 -433 -566 0
-782 -790 -433 -585 0
-782 -791 -433 -604 0
-782 -792 -433 -623 0
-782 -793 -433 -642 0
-782 -794 -433 -661 0
-782 -795 -433 -680 0
-782 -796 -433 -699 0
-782 -797 -433 -718 0
-782 -798 -433 -737 0
-782 -799 -433 -756 0
-782 -800 -433 -775 0
-783 -784 -452 -471 0
-783 -785 -452 -490 0
-783 -786 -452 -509 0
-783 -787 -452 -528 0
-783 -788 -452 -547 0
-783 -789 -452 -566 0
-783 -790 -452 -585 0
-783 -791 -452 -604 0
-783 -792 -452 -623 0
-783 -793 -452 -642 0
-783 -794 -452 -661 0
-783 -795 -452 -680 0
-783 -796 -452 -699 0
-783 -797 -452 -718 0
-783 -798 -452 -737 0
-783 -799 -452 -756 0
-783 -800 -452 -775 0
-784 -785 -471 -490 0
-784 -786 -471 -509 0
-784 -787 -471 -528 0
-784 -788 -471 -547 0
-784 -789 -471 -566 0
-784 -790 -471 -585 0
-784 -791 -471 -604 0
-784 -792 -471 -623 0
-784 -793 -471 -642 0
-784 -794 -471 -661 0
-784 -795 -471 -680 0
-784 -796 -471 -699 0
-784 -797 -471 -718 0
-784 -798 -471 -737 0
-784 -799 -471 -756 0
-784 -800 -471 -775 0
-785 -786 -490 -509 0
-785 -787 -490 -528 0
-785 -788 -490 -547 0
-785 -789 -490 -566 0
-785 -790 -490 -585 0
-785 -791 -490 -604 0
-785 -792 -490 -623 0
-785 -793 -490 -642 0
-785 -794 -490 -661 0
-785 -795 -490 -680 0
-785 -796 -490 -699 0
-785 -797 -490 -718 0
-785 -798 -490 -737 0
-785 -799 -490 -756 0
-785 -800 -490 -775 0
-786 -787 -509 -528 0
-786 -788 -509 -547 0
-786 -789 -509 -566 0
-786 -790 -509 -585 0
-786 -791 -509 -604 0
-786 -792 -509 -623 0
-786 -793 -509 -642 0
-786 -794 -509 -661 0
-786 -795 -509 -680 0
-786 -796 -509 -699 0
-786 -797 -509 -718 0
-786 -798 -509 -737 0
-786 -799 -509 -756 0
-786 -800 -509 -775 0
-787 -788 -528 -547 0
-787 -789 -528 -566 0
-787 -790 -528 -585 0
-787 -791 -528 -604 0
-787 -792 -528 -623 0
-787 -793 -528 -642 0
-787 -794 -528 -661 0
-787 -795 -528 -680 0
-787 -796 -528 -699 0
-787 -797 -528 -718 0
-787 -798 -528 -737 0
-787 -799 -528 -756 0
-787 -800 -528 -775 0
-788 -789 -547 -566 0
-788 -790 -547 -585 0
-788 -791 -547 -604 0
-788 -792 -547 -623 0
-788 -793 -547 -642 0
-788 -794 -547 -661 0
-788 -795 -547 -680 0
-788 -796 -547 -699 0
-788 -797 -547 -718 0
-788 -798 -547 -737 0
-788 -799 -547 -756 0
-788 -800 -547 -775 0
-789 -790 -566 -585 0
-789 -791 -566 -604 0
-789 -792 -566 -623 0
-789 -793 -566 -642 0
-789 -794 -566 -661 0
-789 -795 -566 -680 0
-789 -796 -566 -699 0
-789 -797 -566 -718 0
-789 -798 -566 -737 0
-789 -799 -566 -756 0
-789 -800 -566 -775 0
-790 -791 -585 -604 0
-790 -792 -585 -623 0
-790 -793 -585 -642 0
-790 -794 -585 -661 0
-790 -795 -585 -680 0
-790 -796 -585 -699 0
-790 -797 -585 -718 0
-790 -798 -585 -737 0
-790 -799 -585 -756 0
-790 -800 -585 -775 0
-791 -792 -604 -623 0
-791 -793 -604 -642 0
-791 -794 -604 -661 0
-791 -795 -604 -680 0
-791 -796 -604 -699 0
-791 -797 -604 -718 0
-791 -798 -604 -737 0
-791 -799 -604 -756 0
-791 -800 -604 -775 0
-792 -793 -623 -642 0
-792 -794 -623 -661 0
-792 -795 -623 -680 0
-792 -796 -623 -699 0
-792 -797 -623 -718 0
-792 -798 -623 -737 0
-792 -799 -623 -756 0
-792 -800 -623 -775 0
-793 -794 -642 -661 0
-793 -795 -642 -680 0
-793 -796 -642 -699 0
-793 -797 -642 -718 0
-793 -798 -642 -737 0
-793 -799 -642 -756 0
-793 -800 -642 -775 0
-794 -795 -661 -680 0
-794 -796 -661 -699 0
-794 -797 -661 -718 0
-794 -798 -661 -737 0
-794 -799 -661 -756 0
-794 -800 -661 -775 0
-795 -796 -680 -699 0
-795 -797 -680 -718 0
-795 -798 -680 -737 0
-795 -799 -680 -756 0
-795 -800 -680 -775 0
-796 -797 -699 -718 0
-796 -798 -699 -737 0
-796 -799 -699 -756 0
-796 -800 -699 -775 0
-797 -798 -718 -737 0
-797 -799 -718 -756 0
-797 -800 -718 -775 0
-798 -799 -737 -756 0
-798 -800 -737 -775 0
-799 -800 -756 -775 0
-781 -782 -415 -434 0
-781 -783 -415 -453 0
-781 -784 -415 -472 0
-781 -785 -415 -491 0
-781 -786 -415 -510 0
-781 -787 -415 -529 0
-781 -788 -415 -548 0
-781 -789 -415 -567 0
-781 -790 -415 -586 0
-781 -791 -415 -605 0
-781 -792 -415 -624 0
-781 -793 -415 -643 0
-781 -794 -415 -662 0
-781 -795 -415 -681 0
-781 -796 -415 -700 0
-781 -797 -415 -719 0
-781 -798 -415 -738 0
-781 -799 -415 -757 0
-781 -800 -415 -776 0
-782 -783 -434 -453 0
-782 -784 -434 -472 0
-782 -785 -434 -491 0
-782 -786 -434 -510 0
-782 -787 -434 -529 0
-782 -788 -434 -548 0
-782 -789 -434 -567 0
-782 -790 -434 -586 0
-782 -791 -434 -605 0
-782 -792 -434 -624 0
-782 -793 -434 -643 0
-782 -794 -434 -662 0
-782 -795 -434 -681 0
-782 -796 -434 -700 0
-782 -797 -434 -719 0
-782 -798 -434 -738 0
-782 -799 -434 -757 0
-782 -800 -434 -776 0
-783 -784 -453 -472 0
-783 -785 -453 -491 0
-783 -786 -453 -510 0
-783 -787 -453 -529 0
-783 -788 -453 -548 0
-783 -789 -453 -567 0
-783 -790 -453 -586 0
-783 -791 -453 -605 0
-783 -792 -453 -624 0
-783 -793 -453 -643 0
-783 -794 -453 -662 0
-783 -795 -453 -681 0
-783 -796 -453 -700 0
-783 -797 -453 -719 0
-783 -798 -453 -738 0
-783 -799 -453 -757 0
-783 -800 -453 -776 0
-784 -785 -472 -491 0
-784 -786 -472 -510 0
-784 -787 -472 -529 0
-784 -788 -472 -548 0
-784 -789 -472 -567 0
-784 -790 -472 -586 0
-784 -791 -472 -605 0
-784 -792 -472 -624 0
-784 -793 -472 -643 0
-784 -794 -472 -662 0
-784 -795 -472 -681 0
-784 -796 -472 -700 0
-784 -797 -472 -719 0
-784 -798 -472 -738 0
-784 -799 -472 -757 0
-784 -800 -472 -776 0
-785 -786 -491 -510 0
-785 -787 -491 -529 0
-785 -788 -491 -548 0
-785 -789 -491 -567 0
-785 -790 -491 -586 0
-785 -791 -491 -605 0
-785 -792 -491 -624 0
-785 -793 -491 -643 0
-785 -794 -491 -662 0
-785 -795 -491 -681 0
-785 -796 -491 -700 0
-785 -797 -491 -719 0
-785 -798 -491 -738 0
-785 -799 -491 -757 0
-785 -800 -491 -776 0
-786 -787 -510 -529 0
-786 -788 -510 -548 0
-786 -789 -510 -567 0
-786 -790 -510 -586 0
-786 -791 -510 -605 0
-786 -792 -510 -624 0
-786 -793 -510 -643 0
-786 -794 -510 -662 0
-786 -795 -510 -681 0
-786 -796 -510 -700 0
-786 -797 -510 -719 0
-786 -798 -510 -738 0
-786 -799 -510 -757 0
-786 -800 -510 -776 0
-787 -788 -529 -548 0
-787 -789 -529 -567 0
-787 -790 -529 -586 0
-787 -791 -529 -605 0
-787 -792 -529 -624 0
-787 -793 -529 -643 0
-787 -794 -529 -662 0
-787 -795 -529 -681 0
-787 -796 -529 -700 0
-787 -797 -529 -719 0
-787 -798 -529 -738 0
-787 -799 -529 -757 0
-787 -800 -529 -776 0
-788 -789 -548 -567 0
-788 -790 -548 -586 0
-788 -791 -548 -605 0
-788 -792 -548 -624 0
-788 -793 -548 -643 0
-788 -794 -548 -662 0
-788 -795 -548 -681 0
-788 -796 -548 -700 0
-788 -797 -548 -719 0
-788 -798 -548 -738 0
-788 -799 -548 -757 0
-788 -800 -548 -776 0
-789 -790 -567 -586 0
-789 -791 -567 -605 0
-789 -792 -567 -624 0
-789 -793 -567 -643 0
-789 -794 -567 -662 0
-789 -795 -567 -681 0
-789 -796 -567 -700 0
-789 -797 -567 -719 0
-789 -798 -567 -738 0
-789 -799 -567 -757 0
-789 -800 -567 -776 0
-790 -791 -586 -605 0
-790 -792 -586 -624 0
-790 -793 -586 -643 0
-790 -794 -586 -662 0
-790 -795 -586 -681 0
-790 -796 -586 -700 0
-790 -797 -586 -719 0
-790 -798 -586 -738 0
-790 -799 -586 -757 0
-790 -800 -586 -776 0
-791 -792 -605 -624 0
-791 -793 -605 -643 0
-791 -794 -605 -662 0
-791 -795 -605 -681 0
-791 -796 -605 -700 0
-791 -797 -605 -719 0
-791 -798 -605 -738 0
-791 -799 -605 -757 0
-791 -800 -605 -776 0
-792 -793 -624 -643 0
-792 -794 -624 -662 0
-792 -795 -624 -681 0
-792 -796 -624 -700 0
-792 -797 -624 -719 0
-792 -798 -624 -738 0
-792 -799 -624 -757 0
-792 -800 -624 -776 0
-793 -794 -643 -662 0
-793 -795 -643 -681 0
-793 -796 -643 -700 0
-793 -797 -643 -719 0
-793 -798 -643 -738 0
-793 -799 -643 -757 0
-793 -800 -643 -776 0
-794 -795 -662 -681 0
-794 -796 -662 -700 0
-794 -797 -662 -719 0
-794 -798 -662 -738 0
-794 -799 -662 -757 0
-794 -800 -662 -776 0
-795 -796 -681 -700 0
-795 -797 -681 -719 0
-795 -798 -681 -738 0
-795 -799 -681 -757 0
-795 -800 -681 -776 0
-796 -797 -700 -719 0
-796 -798 -700 -738 0
-796 -799 -700 -757 0
-796 -800 -700 -776 0
-797 -798 -719 -738 0
-797 -799 -719 -757 0
-797 -800 -719 -776 0
-798 -799 -738 -757 0
-798 -800 -738 -776 0
-799 -800 -757 -776 0
-781 -782 -416 -435 0
-781 -783 -416 -454 0
-781 -784 -416 -473 0
-781 -785 -416 -492 0
-781 -786 -416 -511 0
-781 -787 -416 -530 0
-781 -788 -416 -549 0
-781 -789 -416 -568 0
-781 -790 -416 -587 0
-781 -791 -416 -606 0
-781 -792 -416 -625 0
-781 -793 -416 -644 0
-781 -794 -416 -663 0
-781 -795 -416 -682 0
-781 -796 -416 -701 0
-781 -797 -416 -720 0
-781 -798 -416 -739 0
-781 -799 -416 -758 0
-781 -800 -416 -777 0
-782 -783 -435 -454 0
-782 -784 -435 -473 0
-782 -785 -435 -492 0
-782 -786 -435 -511 0
-782 -787 -435 -530 0
-782 -788 -435 -549 0
-782 -789 -435 -568 0
-782 -790 -435 -587 0
-782 -791 -435 -606 0
-782 -792 -435 -625 0
-782 -793 -435 -644 0
-782 -794 -435 -663 0
-782 -795 -435 -682 0
-782 -796 -435 -701 0
-782 -797 -435 -720 0
-782 -798 -435 -739 0
-782 -799 -435 -758 0
-782 -800 -435 -777 0
-783 -784 -454 -473 0
-783 -785 -454 -492 0
-783 -786 -454 -511 0
-783 -787 -454 -530 0
-783 -788 -454 -549 0
-783 -789 -454 -568 0
-783 -790 -454 -587 0
-783 -791 -454 -606 0
-783 -792 -454 -625 0
-783 -793 -454 -644 0
-783 -794 -454 -663 0
-783 -795 -454 -682 0
-783 -796 -454 -701 0
-783 -797 -454 -720 0
-783 -798 -454 -739 0
-783 -799 -454 -758 0
-783 -800 -454 -777 0
-784 -785 -473 -492 0
-784 -786 -473 -511 0
-784 -787 -473 -530 0
-784 -788 -473 -549 0
-784 -789 -473 -568 0
-784 -790 -473 -587 0
-784 -791 -473 -606 0
-784 -792 -473 -625 0
-784 -793 -473 -644 0
-784 -794 -473 -663 0
-784 -795 -473 -682 0
-784 -796 -473 -701 0
-784 -797 -473 -720 0
-784 -798 -473 -739 0
-784 -799 -473 -758 0
-784 -800 -473 -777 0
-785 -786 -492 -511 0
-785 -787 -492 -530 0
-785 -788 -492 -549 0
-785 -789 -492 -568 0
-785 -790 -492 -587 0
-785 -791 -492 -606 0
-785 -792 -492 -625 0
-785 -793 -492 -644 0
-785 -794 -492 -663 0
-785 -795 -492 -682 0
-785 -796 -492 -701 0
-785 -797 -492 -720 0
-785 -798 -492 -739 0
-785 -799 -492 -758 0
-785 -800 -492 -777 0
-786 -787 -511 -530 0
-786 -788 -511 -549 0
-786 -789 -511 -568 0
-786 -790 -511 -587 0
-786 -791 -511 -606 0
-786 -792 -511 -625 0
-786 -793 -511 -644 0
-786 -794 -511 -663 0
-786 -795 -511 -682 0
-786 -796 -511 -701 0
-786 -797 -511 -720 0
-786 -798 -511 -739 0
-786 -799 -511 -758 0
-786 -800 -511 -777 0
-787 -788 -530 -549 0
-787 -789 -530 -568 0
-787 -790 -530 -587 0
-787 -791 -530 -606 0
-787 -792 -530 -625 0
-787 -793 -530 -644 0
-787 -794 -530 -663 0
-787 -795 -530 -682 0
-787 -796 -530 -701 0
-787 -797 -530 -720 0
-787 -798 -530 -739 0
-787 -799 -530 -758 0
-787 -800 -530 -777 0
-788 -789 -549 -568 0
-788 -790 -549 -587 0
-788 -791 -549 -606 0
-788 -792 -549 -625 0
-788 -793 -549 -644 0
-788 -794 -549 -663 0
-788 -795 -549 -682 0
-788 -796 -549 -701 0
-788 -797 -549 -720 0
-788 -798 -549 -739 0
-788 -799 -549 -758 0
-788 -800 -549 -777 0
-789 -790 -568 -587 0
-789 -791 -568 -606 0
-789 -792 -568 -625 0
-789 -793 -568 -644 0
-789 -794 -568 -663 0
-789 -795 -568 -682 0
-789 -796 -568 -701 0
-789 -797 -568 -720 0
-789 -798 -568 -739 0
-789 -799 -568 -758 0
-789 -800 -568 -777 0
-790 -791 -587 -606 0
-790 -792 -587 -625 0
-790 -793 -587 -644 0
-790 -794 -587 -663 0
-790 -795 -587 -682 0
-790 -796 -587 -701 0
-790 -797 -587 -720 0
-790 -798 -587 -739 0
-790 -799 -587 -758 0
-790 -800 -587 -777 0
-791 -792 -606 -625 0
-791 -793 -606 -644 0
-791 -794 -606 -663 0
-791 -795 -606 -682 0
-791 -796 -606 -701 0
-791 -797 -606 -720 0
-791 -798 -606 -739 0
-791 -799 -606 -758 0
-791 -800 -606 -777 0
-792 -793 -625 -644 0
-792 -794 -625 -663 0
-792 -795 -625 -682 0
-792 -796 -625 -701 0
-792 -797 -625 -720 0
-792 -798 -625 -739 0
-792 -799 -625 -758 0
-792 -800 -625 -777 0
-793 -794 -644 -663 0
-793 -795 -644 -682 0
-793 -796 -644 -701 0
-793 -797 -644 -720 0
-793 -798 -644 -739 0
-793 -799 -644 -758 0
-793 -800 -644 -777 0
-794 -795 -663 -682 0
-794 -796 -663 -701 0
-794 -797 -663 -720 0
-794 -798 -663 -739 0
-794 -799 -663 -758 0
-794 -800 -663 -777 0
-795 -796 -682 -701 0
-795 -797 -682 -720 0
-795 -798 -682 -739 0
-795 -799 -682 -758 0
-795 -800 -682 -777 0
-796 -797 -701 -720 0
-796 -798 -701 -739 0
-796 -799 -701 -758 0
-796 -800 -701 -777 0
-797 -798 -720 -739 0
-797 -799 -720 -758 0
-797 -800 -720 -777 0
-798 -799 -739 -758 0
-798 -800 -739 -777 0
-799 -800 -758 -777 0
-781 -782 -417 -436 0
-781 -783 -417 -455 0
-781 -784 -417 -474 0
-781 -785 -417 -493 0
-781 -786 -417 -512 0
-781 -787 -417 -531 0
-781 -788 -417 -550 0
-781 -789 -417 -569 0
-781 -790 -417 -588 0
-781 -791 -417 -607 0
-781 -792 -417 -626 0
-781 -793 -417 -645 0
-781 -794 -417 -664 0
-781 -795 -417 -683 0
-781 -796 -417 -702 0
-781 -797 -417 -721 0
-781 -798 -417 -740 0
-781 -799 -417 -759 0
-781 -800 -417 -778 0
-782 -783 -436 -455 0
-782 -784 -436 -474 0
-782 -785 -436 -493 0
-782 -786 -436 -512 0
-782 -787 -436 -531 0
-782 -788 -436 -550 0
-782 -789 -436 -569 0
-782 -790 -436 -588 0
-782 -791 -436 -607 0
-782 -792 -436 -626 0
-782 -793 -436 -645 0
-782 -794 -436 -664 0
-782 -795 -436 -683 0
-782 -796 -436 -702 0
-782 -797 -436 -721 0
-782 -798 -436 -740 0
-782 -799 -436 -759 0
-782 -800 -436 -778 0
-783 -784 -455 -474 0
-783 -785 -455 -493 0
-783 -786 -455 -512 0
-783 -787 -455 -531 0
-783 -788 -455 -550 0
-783 -789 -455 -569 0
-783 -790 -455 -588 0
-783 -791 -455 -607 0
-783 -792 -455 -626 0
-783 -793 -455 -645 0
-783 -794 -455 -664 0
-783 -795 -455 -683 0
-783 -796 -455 -702 0
-783 -797 -455 -721 0
-783 -798 -455 -740 0
-783 -799 -455 -759 0
-783 -800 -455 -778 0
-784 -785 -474 -493 0
-784 -786 -474 -512 0
-784 -787 -474 -531 0
-784 -788 -474 -550 0
-784 -789 -474 -569 0
-784 -790 -474 -588 0
-784 -791 -474 -607 0
-784 -792 -474 -626 0
-784 -793 -474 -645 0
-784 -794 -474 -664 0
-784 -795 -474 -683 0
-784 -796 -474 -702 0
-784 -797 -474 -721 0
-784 -798 -474 -740 0
-784 -799 -474 -759 0
-784 -800 -474 -778 0
-785 -786 -493 -512 0
-785 -787 -493 -531 0
-785 -788 -493 -550 0
-785 -789 -493 -569 0
-785 -790 -493 -588 0
-785 -791 -493 -607 0
-785 -792 -493 -626 0
-785 -793 -493 -645 0
-785 -794 -493 -664 0
-785 -795 -493 -683 0
-785 -796 -493 -702 0
-785 -797 -493 -721 0
-785 -798 -493 -740 0
-785 -799 -493 -759 0
-785 -800 -493 -778 0
-786 -787 -512 -531 0
-786 -788 -512 -550 0
-786 -789 -512 -569 0
-786 -790 -512 -588 0
-786 -791 -512 -607 0
-786 -792 -512 -626 0
-786 -793 -512 -645 0
-786 -794 -512 -664 0
-786 -795 -512 -683 0
-786 -796 -512 -702 0
-786 -797 -512 -721 0
-786 -798 -512 -740 0
-786 -799 -512 -759 0
-786 -800 -512 -778 0
-787 -788 -531 -550 0
-787 -789 -531 -569 0
-787 -790 -531 -588 0
-787 -791 -531 -607 0
-787 -792 -531 -626 0
-787 -793 -531 -645 0
-787 -794 -531 -664 0
-787 -795 -531 -683 0
-787 -796 -531 -702 0
-787 -797 -531 -721 0
-787 -798 -531 -740 0
-787 -799 -531 -759 0
-787 -800 -531 -778 0
-788 -789 -550 -569 0
-788 -790 -550 -588 0
-788 -791 -550 -607 0
-788 -792 -550 -626 0
-788 -793 -550 -645 0
-788 -794 -550 -664 0
-788 -795 -550 -683 0
-788 -796 -550 -702 0
-788 -797 -550 -721 0
-788 -798 -550 -740 0
-788 -799 -550 -759 0
-788 -800 -550 -778 0
-789 -790 -569 -588 0
-789 -791 -569 -607 0
-789 -792 -569 -626 0
-789 -793 -569 -645 0
-789 -794 -569 -664 0
-789 -795 -569 -683 0
-789 -796 -569 -702 0
-789 -797 -569 -721 0
-789 -798 -569 -740 0
-789 -799 -569 -759 0
-789 -800 -569 -778 0
-790 -791 -588 -607 0
-790 -792 -588 -626 0
-790 -793 -588 -645 0
-790 -794 -588 -664 0
-790 -795 -588 -683 0
-790 -796 -588 -702 0
-790 -797 -588 -721 0
-790 -798 -588 -740 0
-790 -799 -588 -759 0
-790 -800 -588 -778 0
-791 -792 -607 -626 0
-791 -793 -607 -645 0
-791 -794 -607 -664 0
-791 -795 -607 -683 0
-791 -796 -607 -702 0
-791 -797 -607 -721 0
-791 -798 -607 -740 0
-791 -799 -607 -759 0
-791 -800 -607 -778 0
-792 -793 -626 -645 0
-792 -794 -626 -664 0
-792 -795 -626 -683 0
-792 -796 -626 -702 0
-792 -797 -626 -721 0
-792 -798 -626 -740 0
-792 -799 -626 -759 0
-792 -800 -626 -778 0
-793 -794 -645 -664 0
-793 -795 -645 -683 0
-793 -796 -645 -702 0
-793 -797 -645 -721 0
-793 -798 -645 -740 0
-793 -799 -645 -759 0
-793 -800 -645 -778 0
-794 -795 -664 -683 0
-794 -796 -664 -702 0
-794 -797 -664 -721 0
-794 -798 -664 -740 0
-794 -799 -664 -759 0
-794 -800 -664 -778 0
-795 -796 -683 -702 0
-795 -797 -683 -721 0
-795 -798 -683 -740 0
-795 -799 -683 -759 0
-795 -800 -683 -778 0
-796 -797 -702 -721 0
-796 -798 -702 -740 0
-796 -799 -702 -759 0
-796 -800 -702 -778 0
-797 -798 -721 -740 0
-797 -799 -721 -759 0
-797 -800 -721 -778 0
-798 -799 -740 -759 0
-798 -800 -740 -778 0
-799 -800 -759 -778 0
-781 -782 -418 -437 0
-781 -783 -418 -456 0
-781 -784 -418 -475 0
-781 -785 -418 -494 0
-781 -786 -418 -513 0
-781 -787 -418 -532 0
-781 -788 -418 -551 0
-781 -789 -418 -570 0
-781 -790 -418 -589 0
-781 -791 -418 -608 0
-781 -792 -418 -627 0
-781 -793 -418 -646 0
-781 -794 -418 -665 0
-781 -795 -418 -684 0
-781 -796 -418 -703 0
-781 -797 -418 -722 0
-781 -798 -418 -741 0
-781 -799 -418 -760 0
-781 -800 -418 -779 0
-782 -783 -437 -456 0
-782 -784 -437 -475 0
-782 -785 -437 -494 0
-782 -786 -437 -513 0
-782 -787 -437 -532 0
-782 -788 -437 -551 0
-782 -789 -437 -570 0
-782 -790 -437 -589 0
-782 -791 -437 -608 0
-782 -792 -437 -627 0
-782 -793 -437 -646 0
-782 -794 -437 -665 0
-782 -795 -437 -684 0
-782 -796 -437 -703 0
-782 -797 -437 -722 0
-782 -798 -437 -741 0
-782 -799 -437 -760 0
-782 -800 -437 -779 0
-783 -784 -456 -475 0
-783 -785 -456 -494 0
-783 -786 -456 -513 0
-783 -787 -456 -532 0
-783 -788 -456 -551 0
-783 -789 -456 -570 0
-783 -790 -456 -589 0
-783 -791 -456 -608 0
-783 -792 -456 -627 0
-783 -793 -456 -646 0
-783 -794 -456 -665 0
-783 -795 -456 -684 0
-783 -796 -456 -703 0
-783 -797 -456 -722 0
-783 -798 -456 -741 0
-783 -799 -456 -760 0
-783 -800 -456 -779 0
-784 -785 -475 -494 0
-784 -786 -475 -513 0
-784 -787 -475 -532 0
-784 -788 -475 -551 0
-784 -789 -475 -570 0
-784 -790 -475 -589 0
-784 -791 -475 -608 0
-784 -792 -475 -627 0
-784 -793 -475 -646 0
-784 -794 -475 -665 0
-784 -795 -475 -684 0
-784 -796 -475 -703 0
-784 -797 -475 -722 0
-784 -798 -475 -741 0
-784 -799 -475 -760 0
-784 -800 -475 -779 0
-785 -786 -494 -513 0
-785 -787 -494 -532 0
-785 -788 -494 -551 0
-785 -789 -494 -570 0
-785 -790 -494 -589 0
-785 -791 -494 -608 0
-785 -792 -494 -627 0
-785 -793 -494 -646 0
-785 -794 -494 -665 0
-785 -795 -494 -684 0
-785 -796 -494 -703 0
-785 -797 -494 -722 0
-785 -798 -494 -741 0
-785 -799 -494 -760 0
-785 -800 -494 -779 0
-786 -787 -513 -532 0
-786 -788 -513 -551 0
-786 -789 -513 -570 0
-786 -790 -513 -589 0
-786 -791 -513 -608 0
-786 -792 -513 -627 0
-786 -793 -513 -646 0
-786 -794 -513 -665 0
-786 -795 -513 -684 0
-786 -796 -513 -703 0
-786 -797 -513 -722 0
-786 -798 -513 -741 0
-786 -799 -513 -760 0
-786 -800 -513 -779 0
-787 -788 -532 -551 0
-787 -789 -532 -570 0
-787 -790 -532 -589 0
-787 -791 -532 -608 0
-787 -792 -532 -627 0
-787 -793 -532 -646 0
-787 -794 -532 -665 0
-787 -795 -532 -684 0
-787 -796 -532 -703 0
-787 -797 -532 -722 0
-787 -798 -532 -741 0
-787 -799 -532 -760 0
-787 -800 -532 -779 0
-788 -789 -551 -570 0
-788 -790 -551 -589 0
-788 -791 -551 -608 0
-788 -792 -551 -627 0
-788 -793 -551 -646 0
-788 -794 -551 -665 0
-788 -795 -551 -684 0
-788 -796 -551 -703 0
-788 -797 -551 -722 0
-788 -798 -551 -741 0
-788 -799 -551 -760 0
-788 -800 -551 -779 0
-789 -790 -570 -589 0
-789 -791 -570 -608 0
-789 -792 -570 -627 0
-789 -793 -570 -646 0
-789 -794 -570 -665 0
-789 -795 -570 -684 0
-789 -796 -570 -703 0
-789 -797 -570 -722 0
-789 -798 -570 -741 0
-789 -799 -570 -760 0
-789 -800 -570 -779 0
-790 -791 -589 -608 0
-790 -792 -589 -627 0
-790 -793 -589 -646 0
-790 -794 -589 -665 0
-790 -795 -589 -684 0
-790 -796 -589 -703 0
-790 -797 -589 -722 0
-790 -798 -589 -741 0
-790 -799 -589 -760 0
-790 -800 -589 -779 0
-791 -792 -608 -627 0
-791 -793 -608 -646 0
-791 -794 -608 -665 0
-791 -795 -608 -684 0
-791 -796 -608 -703 0
-791 -797 -608 -722 0
-791 -798 -608 -741 0
-791 -799 -608 -760 0
-791 -800 -608 -779 0
-792 -793 -627 -646 0
-792 -794 -627 -665 0
-792 -795 -627 -684 0
-792 -796 -627 -703 0
-792 -797 -627 -722 0
-792 -798 -627 -741 0
-792 -799 -627 -760 0
-792 -800 -627 -779 0
-793 -794 -646 -665 0
-793 -795 -646 -684 0
-793 -796 -646 -703 0
-793 -797 -646 -722 0
-793 -798 -646 -741 0
-793 -799 -646 -760 0
-793 -800 -646 -779 0
-794 -795 -665 -684 0
-794 -796 -665 -703 0
-794 -797 -665 -722 0
-794 -798 -665 -741 0
-794 -799 -665 -760 0
-794 -800 -665 -779 0
-795 -796 -684 -703 0
-795 -797 -684 -722 0
-795 -798 -684 -741 0
-795 -799 -684 -760 0
-795 -800 -684 -779 0
-796 -797 -703 -722 0
-796 -798 -703 -741 0
-796 -799 -703 -760 0
-796 -800 -703 -779 0
-797 -798 -722 -741 0
-797 -799 -722 -760 0
-797 -800 -722 -779 0
-798 -799 -741 -760 0
-798 -800 -741 -779 0
-799 -800 -760 -779 0
-781 -782 -419 -438 0
-781 -783 -419 -457 0
-781 -784 -419 -476 0
-781 -785 -419 -495 0
-781 -786 -419 -514 0
-781 -787 -419 -533 0
-781 -788 -419 -552 0
-781 -789 -419 -571 0
-781 -790 -419 -590 0
-781 -791 -419 -609 0
-781 -792 -419 -628 0
-781 -793 -419 -647 0
-781 -794 -419 -666 0
-781 -795 -419 -685 0
-781 -796 -419 -704 0
-781 -797 -419 -723 0
-781 -798 -419 -742 0
-781 -799 -419 -761 0
-781 -800 -419 -780 0
-782 -783 -438 -457 0
-782 -784 -438 -476 0
-782 -785 -438 -495 0
-782 -786 -438 -514 0
-782 -787 -438 -533 0
-782 -788 -438 -552 0
-782 -789 -438 -571 0
-782 -790 -438 -590 0
-782 -791 -438 -609 0
-782 -792 -438 -628 0
-782 -793 -438 -647 0
-782 -794 -438 -666 0
-782 -795 -438 -685 0
-782 -796 -438 -704 0
-782 -797 -438 -723 0
-782 -798 -438 -742 0
-782 -799 -438 -761 0
-782 -800 -438 -780 0
-783 -784 -457 -476 0
-783 -785 -457 -495 0
-783 -786 -457 -514 0
-783 -787 -457 -533 0
-783 -788 -457 -552 0
-783 -789 -457 -571 0
-783 -790 -457 -590 0
-783 -791 -457 -609 0
-783 -792 -457 -628 0
-783 -793 -457 -647 0
-783 -794 -457 -666 0
-783 -795 -457 -685 0
-783 -796 -457 -704 0
-783 -797 -457 -723 0
-783 -798 -457 -742 0
-783 -799 -457 -761 0
-783 -800 -457 -780 0
-784 -785 -476 -495 0
-784 -786 -476 -514 0
-784 -787 -476 -533 0
-784 -788 -476 -552 0
-784 -789 -476 -571 0
-784 -790 -476 -590 0
-784 -791 -476 -609 0
-784 -792 -476 -628 0
-784 -793 -476 -647 0
-784 -794 -476 -666 0
-784 -795 -476 -685 0
-784 -796 -476 -704 0
-784 -797 -476 -723 0
-784 -798 -476 -742 0
-784 -799 -476 -761 0
-784 -800 -476 -780 0
-785 -786 -495 -514 0
-785 -787 -495 -533 0
-785 -788 -495 -552 0
-785 -789 -495 -571 0
-785 -790 -495 -590 0
-785 -791 -495 -609 0
-785 -792 -495 -628 0
-785 -793 -495 -647 0
-785 -794 -495 -666 0
-785 -795 -495 -685 0
-785 -796 -495 -704 0
-785 -797 -495 -723 0
-785 -798 -495 -742 0
-785 -799 -495 -761 0
-785 -800 -495 -780 0
-786 -787 -514 -533 0
-786 -788 -514 -552 0
-786 -789 -514 -571 0
-786 -790 -514 -590 0
-786 -791 -514 -609 0
-786 -792 -514 -628 0
-786 -793 -514 -647 0
-786 -794 -514 -666 0
-786 -795 -514 -685 0
-786 -796 -514 -704 0
-786 -797 -514 -723 0
-786 -798 -514 -742 0
-786 -799 -514 -761 0
-786 -800 -514 -780 0
-787 -788 -533 -552 0
-787 -789 -533 -571 0
-787 -790 -533 -590 0
-787 -791 -533 -609 0
-787 -792 -533 -628 0
-787 -793 -533 -647 0
-787 -794 -533 -666 0
-787 -795 -533 -685 0
-787 -796 -533 -704 0
-787 -797 -533 -723 0
-787 -798 -533 -742 0
-787 -799 -533 -761 0
-787 -800 -533 -780 0
-788 -789 -552 -571 0
-788 -790 -552 -590 0
-788 -791 -552 -609 0
-788 -792 -552 -628 0
-788 -793 -552 -647 0
-788 -794 -552 -666 0
-788 -795 -552 -685 0
-788 -796 -552 -704 0
-788 -797 -552 -723 0
-788 -798 -552 -742 0
-788 -799 -552 -761 0
-788 -800 -552 -780 0
-789 -790 -571 -590 0
-789 -791 -571 -609 0
-789 -792 -571 -628 0
-789 -793 -571 -647 0
-789 -794 -571 -666 0
-789 -795 -571 -685 0
-789 -796 -571 -704 0
-789 -797 -571 -723 0
-789 -798 -571 -742 0
-789 -799 -571 -761 0
-789 -800 -571 -780 0
-790 -791 -590 -609 0
-790 -792 -590 -628 0
-790 -793 -590 -647 0
-790 -794 -590 -666 0
-790 -795 -590 -685 0
-790 -796 -590 -704 0
-790 -797 -590 -723 0
-790 -798 -590 -742 0
-790 -799 -590 -761 0
-790 -800 -590 -780 0
-791 -792 -609 -628 0
-791 -793 -609 -647 0
-791 -794 -609 -666 0
-791 -795 -609 -685 0
-791 -796 -609 -704 0
-791 -797 -609 -723 0
-791 -798 -609 -742 0
-791 -799 -609 -761 0
-791 -800 -609 -780 0
-792 -793 -628 -647 0
-792 -794 -628 -666 0
-792 -795 -628 -685 0
-792 -796 -628 -704 0
-792 -797 -628 -723 0
-792 -798 -628 -742 0
-792 -799 -628 -761 0
-792 -800 -628 -780 0
-793 -794 -647 -666 0
-793 -795 -647 -685 0
-793 -796 -647 -704 0
-793 -797 -647 -723 0
-793 -798 -647 -742 0
-793 -799 -647 -761 0
-793 -800 -647 -780 0
-794 -795 -666 -685 0
-794 -796 -666 -704 0
-794 -797 -666 -723 0
-794 -798 -666 -742 0
-794 -799 -666 -761 0
-794 -800 -666 -780 0
-795 -796 -685 -704 0
-795 -797 -685 -723 0
-795 -798 -685 -742 0
-795 -799 -685 -761 0
-795 -800 -685 -780 0
-796 -797 -704 -723 0
-796 -798 -704 -742 0
-796 -799 -704 -761 0
-796 -800 -704 -780 0
-797 -798 -723 -742 0
-797 -799 -723 -761 0
-797 -800 -723 -780 0
-798 -799 -742 -761 0
-798 -800 -742 -780 0
-799 -800 -761 -780 0
