p cnf 1000 25001
-1 -403 0
-1 -309 0
-1 -319 0
-1 -97 0
-1 -367 0
-1 -401 0
-1 -177 0
-1 -152 0
-1 -57 0
-1 -201 0
-1 -49 0
-2 -135 0
-2 -388 0
-2 -26 0
-2 -270 0
-2 -401 0
-2 -1 0
-2 -28 0
-2 -5 0
-2 -31 0
-2 -40 0
-3 -386 0
-3 -391 0
-3 -97 0
-3 -367 0
-3 -393 0
-3 -375 0
-3 -164 0
-3 -49 0
-3 -430 0
-3 -350 0
-3 -90 0
-3 -9 0
-3 -459 0
-3 -23 0
-3 -447 0
-3 -38 0
-3 -37 0
-3 -407 0
-3 -31 0
-3 -7 0
-3 -2 0
-4 -315 0
-4 -211 0
-4 -371 0
-4 -416 0
-4 -2 0
-4 -381 0
-4 -28 0
-4 -236 0
-4 -31 0
-4 -33 0
-4 -10 0
-4 -9 0
-4 -259 0
-4 -34 0
-4 -26 0
-5 -397 0
-5 -280 0
-5 -171 0
-5 -473 0
-5 -363 0
-5 -178 0
-5 -1 0
-5 -34 0
-5 -40 0
-5 -28 0
-5 -7 0
-5 -285 0
-5 -401 0
-5 -56 0
-6 -242 0
-6 -266 0
-6 -256 0
-6 -375 0
-6 -397 0
-6 -407 0
-6 -123 0
-6 -7 0
-6 -360 0
-6 -179 0
-6 -423 0
-6 -408 0
-6 -271 0
-6 -363 0
-7 -371 0
-7 -375 0
-7 -367 0
-7 -401 0
-7 -306 0
-7 -326 0
-7 -214 0
-7 -361 0
-7 -366 0
-7 -313 0
-7 -126 0
-7 -470 0
-7 -422 0
-7 -4 0
-8 -397 0
-8 -393 0
-8 -289 0
-8 -111 0
-8 -375 0
-8 -344 0
-8 -465 0
-8 -86 0
-8 -137 0
-8 -343 0
-8 -358 0
-8 -165 0
-8 -423 0
-8 -35 0
-8 -32 0
-8 -36 0
-8 -38 0
-8 -7 0
-8 -3 0
-8 -61 0
-9 -237 0
-9 -379 0
-9 -495 0
-9 -5 0
-9 -40 0
-9 -165 0
-9 -442 0
-9 -2 0
-9 -164 0
-9 -1 0
-9 -8 0
-9 -33 0
-9 -247 0
-9 -7 0
-10 -340 0
-10 -287 0
-10 -382 0
-10 -401 0
-10 -235 0
-10 -97 0
-10 -281 0
-10 -226 0
-10 -288 0
-10 -379 0
-10 -40 0
-10 -5 0
-10 -9 0
-10 -208 0
-10 -35 0
-10 -485 0
-10 -367 0
-10 -219 0
-10 -143 0
-11 -412 0
-11 -337 0
-11 -410 0
-11 -212 0
-11 -181 0
-11 -82 0
-11 -66 0
-11 -443 0
-11 -431 0
-11 -396 0
-11 -163 0
-11 -364 0
-11 -283 0
-11 -313 0
-11 -18 0
-11 -22 0
-11 -219 0
-11 -419 0
-11 -60 0
-11 -32 0
-11 -297 0
-11 -27 0
-11 -357 0
-12 -314 0
-12 -191 0
-12 -356 0
-12 -67 0
-12 -109 0
-12 -74 0
-12 -408 0
-12 -107 0
-12 -81 0
-12 -452 0
-12 -250 0
-12 -88 0
-12 -64 0
-12 -36 0
-12 -25 0
-12 -427 0
-12 -77 0
-12 -38 0
-13 -271 0
-13 -69 0
-13 -49 0
-13 -27 0
-13 -17 0
-13 -300 0
-13 -375 0
-13 -370 0
-13 -198 0
-13 -293 0
-13 -431 0
-13 -67 0
-13 -20 0
-13 -439 0
-13 -420 0
-14 -322 0
-14 -180 0
-14 -21 0
-14 -32 0
-14 -300 0
-14 -107 0
-14 -246 0
-14 -72 0
-14 -19 0
-14 -90 0
-14 -25 0
-14 -424 0
-14 -80 0
-15 -22 0
-15 -18 0
-15 -17 0
-15 -434 0
-15 -431 0
-15 -428 0
-15 -78 0
-15 -157 0
-15 -27 0
-15 -66 0
-15 -377 0
-15 -73 0
-16 -108 0
-16 -316 0
-16 -454 0
-16 -404 0
-16 -41 0
-16 -50 0
-16 -34 0
-16 -33 0
-16 -31 0
-16 -19 0
-16 -239 0
-16 -83 0
-17 -63 0
-17 -22 0
-17 -169 0
-17 -71 0
-17 -52 0
-17 -247 0
-17 -437 0
-17 -426 0
-17 -459 0
-17 -375 0
-17 -103 0
-17 -172 0
-17 -450 0
-17 -431 0
-17 -86 0
-17 -428 0
-18 -220 0
-18 -244 0
-18 -95 0
-18 -481 0
-18 -441 0
-18 -438 0
-18 -356 0
-18 -82 0
-18 -78 0
-18 -89 0
-18 -344 0
-18 -136 0
-18 -473 0
-18 -139 0
-18 -192 0
-18 -146 0
-18 -358 0
-18 -12 0
-19 -237 0
-19 -195 0
-19 -60 0
-19 -48 0
-19 -39 0
-19 -5 0
-19 -72 0
-19 -79 0
-19 -32 0
-19 -86 0
-19 -53 0
-19 -40 0
-19 -34 0
-19 -12 0
-19 -23 0
-19 -21 0
-19 -90 0
-19 -4 0
-19 -26 0
-20 -362 0
-20 -442 0
-20 -309 0
-20 -115 0
-20 -73 0
-20 -445 0
-20 -230 0
-20 -152 0
-20 -441 0
-20 -87 0
-20 -11 0
-20 -450 0
-20 -22 0
-21 -16 0
-21 -163 0
-21 -157 0
-21 -36 0
-21 -12 0
-21 -303 0
-21 -39 0
-21 -84 0
-21 -90 0
-22 -354 0
-22 -472 0
-22 -100 0
-22 -275 0
-22 -392 0
-22 -76 0
-22 -13 0
-22 -441 0
-22 -450 0
-22 -165 0
-22 -29 0
-22 -60 0
-22 -138 0
-22 -89 0
-22 -75 0
-22 -361 0
-22 -156 0
-23 -202 0
-23 -80 0
-23 -204 0
-23 -86 0
-23 -77 0
-23 -85 0
-23 -28 0
-23 -16 0
-23 -12 0
-23 -457 0
-23 -35 0
-23 -83 0
-23 -32 0
-23 -74 0
-24 -305 0
-24 -442 0
-24 -250 0
-24 -364 0
-24 -80 0
-24 -78 0
-24 -20 0
-24 -441 0
-24 -361 0
-24 -450 0
-24 -73 0
-24 -163 0
-24 -373 0
-24 -320 0
-24 -154 0
-24 -114 0
-24 -118 0
-24 -113 0
-24 -434 0
-24 -234 0
-25 -367 0
-25 -122 0
-25 -86 0
-25 -192 0
-25 -40 0
-25 -438 0
-25 -31 0
-25 -494 0
-25 -77 0
-25 -64 0
-25 -19 0
-25 -26 0
-25 -16 0
-25 -32 0
-26 -147 0
-26 -202 0
-26 -37 0
-26 -3 0
-26 -307 0
-26 -168 0
-26 -139 0
-26 -360 0
-26 -61 0
-26 -39 0
-26 -23 0
-26 -16 0
-26 -1 0
-26 -84 0
-26 -210 0
-26 -5 0
-26 -289 0
-26 -128 0
-26 -357 0
-26 -36 0
-26 -30 0
-27 -184 0
-27 -71 0
-27 -82 0
-27 -46 0
-27 -22 0
-27 -443 0
-27 -437 0
-27 -267 0
-27 -400 0
-27 -419 0
-27 -16 0
-27 -77 0
-27 -441 0
-27 -76 0
-28 -156 0
-28 -378 0
-28 -259 0
-28 -219 0
-28 -147 0
-28 -12 0
-28 -475 0
-28 -67 0
-28 -31 0
-28 -33 0
-28 -19 0
-28 -88 0
-28 -25 0
-28 -466 0
-28 -477 0
-28 -444 0
-28 -34 0
-28 -38 0
-29 -31 0
-29 -17 0
-29 -80 0
-29 -28 0
-29 -169 0
-29 -358 0
-29 -126 0
-29 -422 0
-29 -83 0
-29 -35 0
-29 -18 0
-30 -87 0
-30 -123 0
-30 -12 0
-30 -267 0
-30 -163 0
-30 -476 0
-30 -261 0
-30 -466 0
-30 -33 0
-30 -4 0
-30 -227 0
-30 -81 0
-30 -59 0
-30 -34 0
-30 -21 0
-30 -88 0
-30 -38 0
-30 -23 0
-30 -39 0
-31 -229 0
-31 -171 0
-31 -155 0
-31 -245 0
-31 -238 0
-31 -19 0
-31 -190 0
-31 -33 0
-31 -307 0
-31 -131 0
-31 -70 0
-31 -320 0
-31 -409 0
-31 -257 0
-31 -7 0
-31 -489 0
-31 -439 0
-31 -67 0
-31 -445 0
-32 -207 0
-32 -223 0
-32 -498 0
-32 -103 0
-32 -7 0
-32 -30 0
-32 -9 0
-32 -38 0
-32 -414 0
-33 -389 0
-33 -324 0
-33 -233 0
-33 -104 0
-33 -388 0
-33 -37 0
-33 -36 0
-33 -120 0
-33 -25 0
-33 -38 0
-33 -111 0
-33 -200 0
-33 -32 0
-33 -355 0
-33 -39 0
-33 -40 0
-33 -26 0
-33 -458 0
-33 -114 0
-33 -5 0
-33 -84 0
-34 -223 0
-34 -252 0
-34 -187 0
-34 -299 0
-34 -85 0
-34 -134 0
-34 -327 0
-34 -361 0
-34 -458 0
-34 -31 0
-34 -84 0
-34 -174 0
-34 -38 0
-34 -23 0
-34 -90 0
-34 -131 0
-34 -32 0
-34 -88 0
-34 -305 0
-34 -86 0
-34 -35 0
-34 -313 0
-35 -199 0
-35 -497 0
-35 -494 0
-35 -82 0
-35 -230 0
-35 -179 0
-35 -432 0
-35 -33 0
-35 -9 0
-35 -334 0
-35 -385 0
-35 -32 0
-35 -4 0
-35 -28 0
-35 -6 0
-35 -37 0
-35 -2 0
-35 -14 0
-35 -299 0
-35 -291 0
-35 -333 0
-36 -220 0
-36 -443 0
-36 -31 0
-36 -461 0
-36 -35 0
-36 -232 0
-36 -16 0
-36 -25 0
-36 -5 0
-36 -23 0
-36 -6 0
-36 -28 0
-36 -333 0
-37 -246 0
-37 -395 0
-37 -367 0
-37 -491 0
-37 -284 0
-37 -21 0
-37 -204 0
-37 -6 0
-37 -471 0
-37 -23 0
-37 -19 0
-37 -205 0
-37 -345 0
-37 -34 0
-37 -7 0
-37 -107 0
-37 -407 0
-37 -39 0
-37 -10 0
-37 -241 0
-38 -401 0
-38 -294 0
-38 -135 0
-38 -169 0
-38 -84 0
-38 -290 0
-38 -21 0
-38 -1 0
-38 -25 0
-38 -31 0
-38 -16 0
-38 -14 0
-38 -9 0
-38 -175 0
-38 -7 0
-38 -363 0
-38 -6 0
-38 -403 0
-39 -404 0
-39 -4 0
-39 -52 0
-39 -336 0
-39 -193 0
-39 -25 0
-39 -275 0
-39 -35 0
-39 -38 0
-39 -34 0
-39 -420 0
-39 -31 0
-39 -468 0
-39 -125 0
-40 -375 0
-40 -6 0
-40 -393 0
-40 -18 0
-40 -14 0
-40 -36 0
-40 -30 0
-40 -38 0
-40 -34 0
-40 -413 0
-40 -7 0
-40 -282 0
-40 -103 0
-40 -468 0
-40 -258 0
-40 -429 0
-41 -443 0
-41 -208 0
-41 -376 0
-41 -285 0
-41 -74 0
-41 -70 0
-41 -64 0
-41 -56 0
-41 -88 0
-41 -53 0
-41 -23 0
-41 -169 0
-41 -21 0
-41 -15 0
-41 -232 0
-41 -7 0
-41 -12 0
-41 -59 0
-42 -225 0
-42 -108 0
-42 -45 0
-42 -331 0
-42 -36 0
-42 -472 0
-42 -57 0
-42 -155 0
-42 -236 0
-42 -58 0
-42 -477 0
-43 -121 0
-43 -76 0
-43 -49 0
-43 -46 0
-43 -125 0
-43 -326 0
-43 -171 0
-43 -262 0
-43 -238 0
-43 -369 0
-43 -91 0
-43 -120 0
-43 -319 0
-43 -130 0
-43 -70 0
-43 -304 0
-43 -55 0
-44 -212 0
-44 -497 0
-44 -95 0
-44 -74 0
-44 -381 0
-44 -76 0
-44 -103 0
-44 -327 0
-44 -160 0
-44 -59 0
-44 -83 0
-44 -211 0
-44 -17 0
-44 -126 0
-44 -359 0
-44 -289 0
-44 -145 0
-44 -162 0
-44 -61 0
-45 -471 0
-45 -349 0
-45 -433 0
-45 -469 0
-45 -94 0
-45 -152 0
-45 -98 0
-45 -68 0
-45 -155 0
-45 -48 0
-45 -316 0
-45 -149 0
-45 -460 0
-45 -137 0
-46 -269 0
-46 -346 0
-46 -121 0
-46 -58 0
-46 -221 0
-46 -124 0
-46 -153 0
-46 -55 0
-46 -454 0
-46 -418 0
-46 -95 0
-46 -52 0
-46 -117 0
-46 -113 0
-47 -305 0
-47 -329 0
-47 -252 0
-47 -438 0
-47 -233 0
-47 -469 0
-47 -26 0
-47 -472 0
-47 -155 0
-47 -332 0
-47 -124 0
-47 -116 0
-47 -62 0
-47 -51 0
-47 -48 0
-47 -151 0
-47 -134 0
-47 -136 0
-47 -367 0
-47 -68 0
-47 -1 0
-47 -347 0
-47 -214 0
-48 -476 0
-48 -475 0
-48 -474 0
-48 -478 0
-48 -312 0
-48 -469 0
-48 -496 0
-48 -392 0
-48 -142 0
-48 -140 0
-48 -136 0
-48 -452 0
-48 -65 0
-49 -46 0
-49 -80 0
-49 -17 0
-49 -66 0
-49 -63 0
-49 -52 0
-49 -27 0
-49 -310 0
-49 -455 0
-49 -452 0
-49 -76 0
-49 -175 0
-49 -55 0
-49 -228 0
-49 -438 0
-49 -156 0
-49 -492 0
-50 -271 0
-50 -498 0
-50 -177 0
-50 -114 0
-50 -148 0
-50 -160 0
-50 -93 0
-50 -86 0
-50 -59 0
-50 -64 0
-50 -90 0
-50 -482 0
-50 -91 0
-50 -154 0
-50 -74 0
-51 -423 0
-51 -421 0
-51 -478 0
-51 -357 0
-51 -179 0
-51 -319 0
-51 -493 0
-51 -437 0
-51 -177 0
-51 -65 0
-51 -57 0
-51 -86 0
-51 -134 0
-51 -500 0
-51 -155 0
-51 -152 0
-51 -94 0
-51 -485 0
-51 -137 0
-51 -48 0
-51 -45 0
-51 -151 0
-51 -487 0
-52 -73 0
-52 -43 0
-52 -498 0
-52 -331 0
-52 -92 0
-52 -75 0
-52 -89 0
-52 -220 0
-52 -351 0
-52 -149 0
-52 -87 0
-52 -138 0
-52 -466 0
-53 -492 0
-53 -27 0
-53 -313 0
-53 -139 0
-53 -88 0
-53 -59 0
-53 -94 0
-53 -154 0
-53 -476 0
-53 -302 0
-53 -56 0
-53 -265 0
-53 -74 0
-54 -479 0
-54 -346 0
-54 -476 0
-54 -284 0
-54 -68 0
-54 -143 0
-54 -137 0
-54 -152 0
-54 -323 0
-54 -94 0
-54 -48 0
-54 -158 0
-54 -174 0
-54 -358 0
-54 -164 0
-54 -5 0
-54 -67 0
-55 -264 0
-55 -175 0
-55 -159 0
-55 -69 0
-55 -66 0
-55 -60 0
-55 -307 0
-55 -257 0
-55 -156 0
-55 -425 0
-55 -477 0
-55 -95 0
-55 -144 0
-55 -87 0
-55 -9 0
-55 -63 0
-55 -85 0
-55 -150 0
-55 -372 0
-55 -52 0
-56 -163 0
-56 -198 0
-56 -60 0
-56 -59 0
-56 -142 0
-56 -91 0
-56 -232 0
-56 -44 0
-56 -118 0
-56 -359 0
-56 -422 0
-56 -376 0
-56 -332 0
-56 -64 0
-56 -342 0
-57 -448 0
-57 -485 0
-57 -355 0
-57 -253 0
-57 -418 0
-57 -494 0
-57 -476 0
-57 -11 0
-57 -474 0
-57 -134 0
-57 -136 0
-57 -120 0
-57 -158 0
-57 -48 0
-57 -47 0
-57 -7 0
-57 -370 0
-58 -474 0
-58 -150 0
-58 -92 0
-58 -89 0
-58 -71 0
-58 -73 0
-58 -63 0
-58 -135 0
-58 -490 0
-58 -55 0
-58 -80 0
-58 -43 0
-58 -463 0
-58 -84 0
-59 -195 0
-59 -63 0
-59 -74 0
-59 -90 0
-59 -142 0
-59 -139 0
-59 -133 0
-59 -126 0
-59 -465 0
-59 -432 0
-59 -70 0
-60 -52 0
-60 -150 0
-60 -71 0
-60 -422 0
-60 -356 0
-60 -326 0
-60 -472 0
-60 -280 0
-60 -58 0
-60 -232 0
-60 -133 0
-60 -49 0
-60 -89 0
-60 -469 0
-60 -351 0
-60 -397 0
-60 -87 0
-61 -251 0
-61 -350 0
-61 -56 0
-61 -81 0
-61 -154 0
-61 -80 0
-61 -131 0
-61 -77 0
-61 -84 0
-61 -375 0
-61 -14 0
-61 -23 0
-61 -195 0
-61 -406 0
-61 -41 0
-62 -409 0
-62 -475 0
-62 -339 0
-62 -478 0
-62 -469 0
-62 -421 0
-62 -386 0
-62 -398 0
-62 -20 0
-62 -158 0
-62 -320 0
-62 -435 0
-62 -467 0
-62 -3 0
-62 -489 0
-62 -68 0
-62 -65 0
-62 -2 0
-62 -230 0
-62 -410 0
-62 -54 0
-62 -477 0
-63 -153 0
-63 -150 0
-63 -16 0
-63 -78 0
-63 -11 0
-63 -24 0
-63 -270 0
-63 -444 0
-63 -138 0
-63 -316 0
-63 -159 0
-63 -69 0
-63 -15 0
-63 -457 0
-63 -289 0
-63 -53 0
-63 -500 0
-63 -87 0
-63 -142 0
-63 -420 0
-64 -117 0
-64 -350 0
-64 -273 0
-64 -169 0
-64 -61 0
-64 -53 0
-64 -62 0
-64 -58 0
-64 -154 0
-64 -151 0
-64 -130 0
-64 -84 0
-64 -74 0
-64 -44 0
-64 -70 0
-64 -264 0
-65 -478 0
-65 -410 0
-65 -421 0
-65 -275 0
-65 -272 0
-65 -99 0
-65 -47 0
-65 -46 0
-65 -475 0
-65 -434 0
-65 -155 0
-65 -207 0
-65 -137 0
-65 -152 0
-65 -57 0
-65 -54 0
-65 -68 0
-65 -188 0
-65 -333 0
-65 -143 0
-65 -42 0
-66 -245 0
-66 -308 0
-66 -123 0
-66 -209 0
-66 -71 0
-66 -78 0
-66 -69 0
-66 -58 0
-66 -297 0
-66 -38 0
-66 -147 0
-66 -46 0
-66 -19 0
-66 -118 0
-66 -84 0
-67 -461 0
-67 -111 0
-67 -353 0
-67 -90 0
-67 -176 0
-67 -158 0
-67 -120 0
-67 -152 0
-67 -482 0
-67 -232 0
-67 -154 0
-67 -277 0
-67 -64 0
-67 -23 0
-67 -86 0
-67 -496 0
-67 -41 0
-67 -72 0
-67 -81 0
-67 -139 0
-67 -56 0
-68 -364 0
-68 -477 0
-68 -197 0
-68 -17 0
-68 -158 0
-68 -48 0
-68 -472 0
-68 -146 0
-68 -478 0
-68 -74 0
-68 -412 0
-68 -109 0
-68 -244 0
-68 -363 0
-68 -311 0
-68 -25 0
-69 -346 0
-69 -494 0
-69 -15 0
-69 -60 0
-69 -52 0
-69 -159 0
-69 -58 0
-69 -17 0
-69 -43 0
-69 -397 0
-69 -191 0
-69 -419 0
-69 -486 0
-70 -129 0
-70 -44 0
-70 -199 0
-70 -151 0
-70 -154 0
-70 -96 0
-70 -479 0
-70 -90 0
-70 -160 0
-70 -423 0
-70 -56 0
-70 -61 0
-70 -88 0
-70 -14 0
-70 -337 0
-71 -193 0
-71 -168 0
-71 -132 0
-71 -85 0
-71 -52 0
-71 -156 0
-71 -78 0
-71 -191 0
-71 -56 0
-71 -239 0
-71 -22 0
-71 -178 0
-71 -55 0
-72 -50 0
-72 -16 0
-72 -13 0
-72 -131 0
-72 -90 0
-72 -41 0
-72 -61 0
-72 -84 0
-72 -407 0
-72 -23 0
-72 -171 0
-72 -88 0
-72 -21 0
-72 -25 0
-72 -70 0
-72 -154 0
-72 -64 0
-72 -416 0
-72 -59 0
-73 -87 0
-73 -159 0
-73 -13 0
-73 -82 0
-73 -49 0
-73 -75 0
-73 -249 0
-73 -43 0
-73 -432 0
-73 -69 0
-73 -46 0
-74 -319 0
-74 -21 0
-74 -16 0
-74 -164 0
-74 -72 0
-74 -14 0
-74 -390 0
-74 -61 0
-74 -83 0
-74 -13 0
-74 -431 0
-74 -84 0
-74 -458 0
-75 -82 0
-75 -58 0
-75 -49 0
-75 -69 0
-75 -60 0
-75 -78 0
-75 -270 0
-75 -236 0
-75 -454 0
-75 -187 0
-75 -63 0
-75 -66 0
-76 -172 0
-76 -132 0
-76 -82 0
-76 -58 0
-76 -237 0
-76 -29 0
-76 -60 0
-76 -298 0
-76 -283 0
-76 -13 0
-76 -11 0
-76 -437 0
-76 -71 0
-76 -307 0
-76 -475 0
-76 -447 0
-76 -372 0
-76 -304 0
-77 -336 0
-77 -58 0
-77 -165 0
-77 -173 0
-77 -188 0
-77 -41 0
-77 -121 0
-77 -84 0
-77 -28 0
-77 -70 0
-77 -64 0
-77 -34 0
-77 -14 0
-77 -16 0
-77 -129 0
-77 -81 0
-77 -439 0
-77 -253 0
-77 -88 0
-78 -389 0
-78 -189 0
-78 -231 0
-78 -55 0
-78 -17 0
-78 -27 0
-78 -148 0
-78 -22 0
-78 -76 0
-78 -124 0
-78 -228 0
-78 -138 0
-78 -453 0
-78 -80 0
-79 -150 0
-79 -81 0
-79 -67 0
-79 -83 0
-79 -236 0
-79 -480 0
-79 -88 0
-79 -268 0
-79 -16 0
-79 -59 0
-79 -162 0
-79 -41 0
-79 -308 0
-79 -30 0
-79 -21 0
-79 -14 0
-79 -53 0
-79 -90 0
-80 -55 0
-80 -71 0
-80 -66 0
-80 -13 0
-80 -431 0
-80 -43 0
-80 -137 0
-80 -445 0
-80 -65 0
-80 -229 0
-80 -89 0
-80 -483 0
-80 -419 0
-80 -264 0
-80 -87 0
-81 -384 0
-81 -168 0
-81 -491 0
-81 -284 0
-81 -75 0
-81 -72 0
-81 -159 0
-81 -44 0
-81 -88 0
-81 -84 0
-81 -74 0
-81 -16 0
-81 -56 0
-81 -23 0
-81 -59 0
-81 -21 0
-81 -19 0
-81 -500 0
-82 -355 0
-82 -58 0
-82 -29 0
-82 -78 0
-82 -52 0
-82 -55 0
-82 -153 0
-82 -305 0
-82 -49 0
-82 -15 0
-82 -396 0
-82 -345 0
-82 -448 0
-82 -20 0
-82 -69 0
-82 -7 0
-82 -463 0
-82 -133 0
-83 -229 0
-83 -239 0
-83 -286 0
-83 -208 0
-83 -19 0
-83 -78 0
-83 -88 0
-83 -21 0
-83 -5 0
-83 -59 0
-83 -336 0
-83 -61 0
-83 -50 0
-83 -472 0
-83 -86 0
-83 -28 0
-83 -84 0
-83 -67 0
-83 -53 0
-83 -9 0
-83 -81 0
-83 -77 0
-84 -16 0
-84 -282 0
-84 -53 0
-84 -139 0
-84 -70 0
-84 -90 0
-84 -88 0
-84 -25 0
-84 -219 0
-84 -67 0
-84 -418 0
-85 -211 0
-85 -78 0
-85 -289 0
-85 -129 0
-85 -82 0
-85 -73 0
-85 -75 0
-85 -63 0
-85 -66 0
-85 -13 0
-85 -49 0
-85 -428 0
-85 -186 0
-85 -443 0
-85 -11 0
-85 -431 0
-85 -148 0
-86 -185 0
-86 -207 0
-86 -199 0
-86 -498 0
-86 -496 0
-86 -20 0
-86 -272 0
-86 -61 0
-86 -278 0
-86 -74 0
-86 -88 0
-86 -72 0
-86 -134 0
-86 -14 0
-86 -32 0
-86 -21 0
-86 -90 0
-86 -56 0
-87 -274 0
-87 -297 0
-87 -58 0
-87 -24 0
-87 -22 0
-87 -449 0
-87 -341 0
-87 -39 0
-87 -81 0
-87 -13 0
-87 -26 0
-87 -29 0
-88 -89 0
-88 -17 0
-88 -64 0
-88 -50 0
-88 -23 0
-88 -90 0
-88 -14 0
-88 -74 0
-89 -333 0
-89 -104 0
-89 -76 0
-89 -87 0
-89 -75 0
-89 -55 0
-89 -69 0
-89 -15 0
-89 -274 0
-89 -124 0
-89 -78 0
-89 -450 0
-89 -24 0
-89 -65 0
-89 -406 0
-89 -91 0
-89 -23 0
-89 -14 0
-90 -159 0
-90 -89 0
-90 -250 0
-90 -320 0
-90 -83 0
-90 -415 0
-90 -221 0
-90 -32 0
-90 -215 0
-90 -413 0
-90 -30 0
-90 -129 0
-90 -9 0
-90 -370 0
-90 -26 0
-90 -25 0
-90 -115 0
-90 -33 0
-90 -440 0
-91 -229 0
-91 -323 0
-91 -59 0
-91 -162 0
-91 -157 0
-91 -148 0
-91 -145 0
-91 -103 0
-91 -201 0
-91 -107 0
-91 -355 0
-91 -486 0
-91 -142 0
-91 -53 0
-91 -471 0
-92 -345 0
-92 -444 0
-92 -246 0
-92 -391 0
-92 -123 0
-92 -150 0
-92 -159 0
-92 -147 0
-92 -46 0
-92 -43 0
-92 -153 0
-92 -231 0
-92 -322 0
-92 -374 0
-92 -106 0
-92 -204 0
-92 -144 0
-92 -132 0
-92 -454 0
-92 -8 0
-92 -138 0
-92 -487 0
-92 -407 0
-92 -64 0
-92 -114 0
-92 -240 0
-92 -274 0
-93 -287 0
-93 -99 0
-93 -133 0
-93 -378 0
-93 -361 0
-93 -341 0
-93 -345 0
-93 -122 0
-93 -228 0
-93 -139 0
-93 -53 0
-93 -142 0
-93 -103 0
-93 -464 0
-93 -21 0
-93 -37 0
-93 -407 0
-93 -472 0
-93 -186 0
-93 -96 0
-93 -56 0
-93 -126 0
-94 -462 0
-94 -458 0
-94 -124 0
-94 -116 0
-94 -181 0
-94 -221 0
-94 -158 0
-94 -47 0
-94 -101 0
-94 -180 0
-94 -234 0
-94 -314 0
-94 -223 0
-94 -66 0
-94 -113 0
-95 -309 0
-95 -492 0
-95 -235 0
-95 -164 0
-95 -156 0
-95 -147 0
-95 -125 0
-95 -110 0
-95 -92 0
-95 -426 0
-95 -209 0
-95 -208 0
-95 -136 0
-95 -159 0
-95 -146 0
-95 -102 0
-95 -153 0
-96 -367 0
-96 -234 0
-96 -47 0
-96 -124 0
-96 -59 0
-96 -495 0
-96 -142 0
-96 -111 0
-96 -448 0
-96 -327 0
-97 -444 0
-97 -237 0
-97 -193 0
-97 -207 0
-97 -104 0
-97 -87 0
-97 -216 0
-97 -112 0
-97 -166 0
-97 -108 0
-97 -350 0
-97 -212 0
-97 -281 0
-97 -484 0
-97 -234 0
-97 -233 0
-97 -129 0
-97 -223 0
-97 -236 0
-97 -127 0
-98 -463 0
-98 -82 0
-98 -212 0
-98 -79 0
-98 -26 0
-98 -221 0
-98 -94 0
-98 -43 0
-98 -186 0
-98 -260 0
-98 -105 0
-98 -146 0
-99 -482 0
-99 -279 0
-99 -212 0
-99 -166 0
-99 -225 0
-99 -112 0
-99 -185 0
-99 -127 0
-99 -497 0
-99 -30 0
-99 -189 0
-99 -104 0
-99 -13 0
-99 -237 0
-99 -369 0
-99 -103 0
-99 -115 0
-100 -10 0
-100 -483 0
-100 -481 0
-100 -303 0
-100 -119 0
-100 -99 0
-100 -245 0
-100 -210 0
-100 -252 0
-100 -205 0
-100 -44 0
-100 -445 0
-100 -324 0
-100 -211 0
-100 -98 0
-100 -218 0
-100 -26 0
-100 -444 0
-100 -473 0
-101 -410 0
-101 -264 0
-101 -120 0
-101 -223 0
-101 -347 0
-101 -341 0
-101 -320 0
-101 -221 0
-101 -136 0
-101 -152 0
-101 -47 0
-101 -208 0
-101 -146 0
-101 -282 0
-101 -278 0
-101 -219 0
-102 -345 0
-102 -334 0
-102 -205 0
-102 -132 0
-102 -156 0
-102 -150 0
-102 -138 0
-102 -161 0
-102 -125 0
-102 -357 0
-102 -11 0
-102 -55 0
-102 -144 0
-102 -484 0
-102 -231 0
-102 -235 0
-102 -53 0
-102 -201 0
-102 -107 0
-103 -97 0
-103 -243 0
-103 -404 0
-103 -254 0
-103 -210 0
-103 -376 0
-103 -157 0
-103 -230 0
-103 -118 0
-103 -111 0
-103 -225 0
-103 -22 0
-103 -236 0
-103 -456 0
-103 -102 0
-103 -309 0
-103 -169 0
-103 -360 0
-104 -432 0
-104 -212 0
-104 -225 0
-104 -184 0
-104 -317 0
-104 -119 0
-104 -27 0
-104 -305 0
-104 -495 0
-104 -344 0
-104 -431 0
-104 -253 0
-104 -441 0
-104 -487 0
-104 -211 0
-105 -37 0
-105 -353 0
-105 -443 0
-105 -340 0
-105 -217 0
-105 -155 0
-105 -226 0
-105 -113 0
-105 -19 0
-105 -206 0
-106 -408 0
-106 -369 0
-106 -182 0
-106 -144 0
-106 -114 0
-106 -238 0
-106 -168 0
-106 -230 0
-106 -172 0
-106 -239 0
-106 -56 0
-106 -121 0
-106 -467 0
-107 -189 0
-107 -321 0
-107 -243 0
-107 -267 0
-107 -54 0
-107 -293 0
-107 -148 0
-107 -165 0
-107 -162 0
-107 -210 0
-107 -130 0
-107 -173 0
-107 -96 0
-107 -301 0
-108 -10 0
-108 -488 0
-108 -402 0
-108 -342 0
-108 -211 0
-108 -166 0
-108 -170 0
-108 -207 0
-108 -285 0
-108 -268 0
-108 -127 0
-108 -489 0
-108 -190 0
-108 -104 0
-108 -57 0
-108 -236 0
-109 -465 0
-109 -405 0
-109 -329 0
-109 -391 0
-109 -128 0
-109 -111 0
-109 -345 0
-109 -46 0
-109 -368 0
-109 -138 0
-109 -152 0
-109 -357 0
-109 -98 0
-109 -105 0
-109 -124 0
-109 -210 0
-109 -155 0
-109 -94 0
-109 -146 0
-109 -393 0
-109 -134 0
-109 -378 0
-109 -204 0
-110 -478 0
-110 -260 0
-110 -384 0
-110 -214 0
-110 -231 0
-110 -172 0
-110 -114 0
-110 -227 0
-110 -205 0
-110 -68 0
-110 -106 0
-110 -9 0
-110 -235 0
-110 -168 0
-110 -217 0
-110 -144 0
-111 -76 0
-111 -28 0
-111 -201 0
-111 -110 0
-111 -230 0
-111 -410 0
-111 -206 0
-111 -160 0
-111 -107 0
-111 -228 0
-111 -466 0
-111 -479 0
-111 -429 0
-111 -210 0
-112 -489 0
-112 -100 0
-112 -17 0
-112 -119 0
-112 -484 0
-112 -216 0
-113 -442 0
-113 -254 0
-113 -98 0
-113 -286 0
-113 -209 0
-113 -447 0
-113 -136 0
-113 -316 0
-113 -155 0
-113 -238 0
-113 -451 0
-113 -134 0
-113 -116 0
-113 -470 0
-113 -190 0
-113 -91 0
-113 -143 0
-114 -218 0
-114 -231 0
-114 -209 0
-114 -159 0
-114 -147 0
-114 -144 0
-114 -95 0
-114 -227 0
-114 -198 0
-114 -191 0
-114 -117 0
-114 -54 0
-114 -296 0
-114 -45 0
-114 -141 0
-114 -135 0
-114 -84 0
-114 -203 0
-114 -458 0
-114 -156 0
-114 -148 0
-114 -5 0
-115 -484 0
-115 -406 0
-115 -119 0
-115 -369 0
-115 -104 0
-115 -102 0
-115 -127 0
-115 -482 0
-115 -366 0
-115 -108 0
-115 -435 0
-115 -100 0
-115 -112 0
-115 -201 0
-116 -390 0
-116 -349 0
-116 -250 0
-116 -447 0
-116 -143 0
-116 -202 0
-116 -245 0
-116 -76 0
-116 -353 0
-116 -234 0
-116 -128 0
-116 -149 0
-116 -146 0
-116 -140 0
-116 -98 0
-116 -105 0
-116 -24 0
-117 -99 0
-117 -321 0
-117 -159 0
-117 -129 0
-117 -92 0
-117 -43 0
-117 -280 0
-117 -183 0
-117 -16 0
-117 -58 0
-117 -451 0
-117 -53 0
-117 -144 0
-117 -217 0
-118 -150 0
-118 -168 0
-118 -272 0
-118 -44 0
-118 -264 0
-118 -195 0
-118 -499 0
-118 -145 0
-118 -126 0
-118 -6 0
-118 -203 0
-118 -485 0
-118 -148 0
-118 -76 0
-118 -111 0
-118 -452 0
-119 -486 0
-119 -487 0
-119 -490 0
-119 -220 0
-119 -207 0
-119 -233 0
-119 -110 0
-119 -164 0
-119 -97 0
-119 -247 0
-119 -24 0
-119 -481 0
-119 -141 0
-119 -303 0
-120 -229 0
-120 -214 0
-120 -469 0
-120 -271 0
-120 -98 0
-120 -45 0
-120 -124 0
-120 -116 0
-120 -113 0
-120 -155 0
-120 -94 0
-120 -128 0
-120 -215 0
-120 -160 0
-121 -363 0
-121 -127 0
-121 -153 0
-121 -144 0
-121 -102 0
-121 -132 0
-121 -205 0
-121 -255 0
-121 -218 0
-121 -58 0
-121 -113 0
-121 -141 0
-121 -222 0
-121 -92 0
-121 -17 0
-121 -147 0
-121 -73 0
-121 -338 0
-121 -214 0
-121 -354 0
-122 -319 0
-122 -132 0
-122 -59 0
-122 -288 0
-122 -68 0
-122 -42 0
-122 -473 0
-122 -332 0
-122 -206 0
-122 -203 0
-122 -236 0
-122 -174 0
-122 -215 0
-122 -429 0
-122 -142 0
-122 -441 0
-122 -154 0
-122 -8 0
-122 -402 0
-122 -66 0
-123 -480 0
-123 -473 0
-123 -486 0
-123 -440 0
-123 -229 0
-123 -108 0
-123 -292 0
-123 -127 0
-123 -223 0
-123 -218 0
-123 -233 0
-123 -207 0
-123 -99 0
-123 -206 0
-123 -151 0
-123 -416 0
-124 -129 0
-124 -58 0
-124 -316 0
-124 -152 0
-124 -270 0
-124 -208 0
-124 -233 0
-124 -355 0
-124 -143 0
-124 -140 0
-124 -217 0
-124 -489 0
-124 -134 0
-124 -42 0
-124 -221 0
-124 -45 0
-125 -265 0
-125 -269 0
-125 -209 0
-125 -202 0
-125 -138 0
-125 -153 0
-125 -150 0
-125 -121 0
-125 -117 0
-125 -114 0
-125 -15 0
-125 -320 0
-125 -357 0
-125 -62 0
-125 -327 0
-125 -54 0
-125 -467 0
-125 -44 0
-125 -212 0
-125 -422 0
-125 -46 0
-126 -132 0
-126 -265 0
-126 -313 0
-126 -277 0
-126 -68 0
-126 -344 0
-126 -107 0
-126 -210 0
-126 -174 0
-126 -133 0
-126 -41 0
-126 -228 0
-126 -372 0
-126 -17 0
-126 -151 0
-126 -215 0
-126 -15 0
-126 -475 0
-127 -489 0
-127 -481 0
-127 -467 0
-127 -415 0
-127 -286 0
-127 -368 0
-127 -119 0
-127 -82 0
-127 -100 0
-127 -482 0
-127 -384 0
-127 -370 0
-127 -2 0
-127 -490 0
-127 -486 0
-127 -155 0
-127 -93 0
-127 -470 0
-128 -225 0
-128 -105 0
-128 -187 0
-128 -75 0
-128 -360 0
-128 -255 0
-128 -101 0
-128 -137 0
-128 -217 0
-128 -224 0
-128 -113 0
-128 -83 0
-128 -93 0
-129 -218 0
-129 -214 0
-129 -231 0
-129 -135 0
-129 -125 0
-129 -102 0
-129 -144 0
-129 -316 0
-129 -161 0
-129 -119 0
-129 -372 0
-129 -215 0
-129 -428 0
-129 -110 0
-129 -227 0
-130 -19 0
-130 -232 0
-130 -219 0
-130 -461 0
-130 -206 0
-130 -203 0
-130 -96 0
-130 -111 0
-130 -265 0
-130 -210 0
-130 -282 0
-131 -371 0
-131 -437 0
-131 -126 0
-131 -145 0
-131 -148 0
-131 -151 0
-131 -93 0
-131 -411 0
-131 -461 0
-131 -91 0
-131 -79 0
-131 -133 0
-131 -77 0
-131 -473 0
-131 -56 0
-132 -329 0
-132 -150 0
-132 -129 0
-132 -82 0
-132 -80 0
-132 -60 0
-132 -58 0
-132 -52 0
-132 -344 0
-132 -43 0
-132 -125 0
-132 -387 0
-132 -138 0
-132 -117 0
-132 -8 0
-132 -73 0
-133 -127 0
-133 -252 0
-133 -494 0
-133 -157 0
-133 -41 0
-133 -91 0
-133 -169 0
-133 -148 0
-133 -83 0
-133 -72 0
-133 -79 0
-133 -50 0
-133 -92 0
-133 -74 0
-133 -484 0
-133 -96 0
-134 -412 0
-134 -393 0
-134 -141 0
-134 -101 0
-134 -341 0
-134 -431 0
-134 -226 0
-134 -143 0
-134 -234 0
-134 -354 0
-134 -344 0
-134 -42 0
-134 -98 0
-135 -216 0
-135 -102 0
-135 -117 0
-135 -85 0
-135 -76 0
-135 -46 0
-135 -424 0
-135 -167 0
-135 -206 0
-135 -259 0
-135 -141 0
-135 -487 0
-135 -209 0
-135 -269 0
-136 -435 0
-136 -413 0
-136 -52 0
-136 -272 0
-136 -105 0
-136 -98 0
-136 -116 0
-136 -124 0
-136 -42 0
-136 -146 0
-136 -51 0
-136 -45 0
-136 -135 0
-136 -387 0
-136 -54 0
-137 -256 0
-137 -204 0
-137 -69 0
-137 -42 0
-137 -120 0
-137 -288 0
-137 -47 0
-137 -98 0
-137 -109 0
-137 -94 0
-137 -158 0
-138 -485 0
-138 -309 0
-138 -216 0
-138 -117 0
-138 -153 0
-138 -135 0
-138 -106 0
-138 -49 0
-138 -13 0
-138 -43 0
-138 -430 0
-138 -283 0
-138 -339 0
-138 -14 0
-138 -383 0
-138 -25 0
-138 -40 0
-139 -324 0
-139 -166 0
-139 -122 0
-139 -41 0
-139 -331 0
-139 -242 0
-139 -133 0
-139 -171 0
-139 -111 0
-139 -91 0
-139 -118 0
-139 -70 0
-139 -50 0
-139 -40 0
-139 -449 0
-139 -485 0
-139 -102 0
-139 -462 0
-140 -394 0
-140 -381 0
-140 -323 0
-140 -400 0
-140 -57 0
-140 -121 0
-140 -137 0
-140 -143 0
-140 -113 0
-140 -94 0
-140 -120 0
-140 -47 0
-140 -62 0
-140 -146 0
-140 -45 0
-140 -30 0
-140 -240 0
-140 -128 0
-140 -33 0
-140 -213 0
-140 -155 0
-140 -98 0
-141 -309 0
-141 -132 0
-141 -125 0
-141 -129 0
-141 -138 0
-141 -439 0
-141 -67 0
-141 -66 0
-141 -145 0
-141 -244 0
-141 -156 0
-141 -202 0
-141 -285 0
-142 -225 0
-142 -263 0
-142 -187 0
-142 -1 0
-142 -114 0
-142 -482 0
-142 -47 0
-142 -228 0
-142 -157 0
-142 -148 0
-142 -139 0
-142 -111 0
-142 -173 0
-142 -305 0
-142 -130 0
-142 -421 0
-142 -436 0
-142 -79 0
-143 -483 0
-143 -252 0
-143 -92 0
-143 -45 0
-143 -387 0
-143 -158 0
-143 -152 0
-143 -109 0
-143 -94 0
-143 -120 0
-143 -101 0
-143 -226 0
-143 -42 0
-143 -202 0
-143 -318 0
-143 -236 0
-143 -51 0
-143 -47 0
-143 -423 0
-144 -444 0
-144 -170 0
-144 -306 0
-144 -95 0
-144 -63 0
-144 -49 0
-144 -227 0
-144 -132 0
-144 -135 0
-144 -125 0
-144 -69 0
-144 -484 0
-144 -202 0
-144 -482 0
-144 -52 0
-145 -150 0
-145 -262 0
-145 -45 0
-145 -93 0
-145 -203 0
-145 -228 0
-145 -200 0
-145 -372 0
-145 -328 0
-145 -59 0
-145 -126 0
-145 -330 0
-145 -122 0
-145 -64 0
-145 -413 0
-145 -157 0
-145 -439 0
-145 -107 0
-145 -160 0
-146 -458 0
-146 -362 0
-146 -211 0
-146 -260 0
-146 -263 0
-146 -371 0
-146 -218 0
-146 -108 0
-146 -135 0
-146 -82 0
-146 -158 0
-146 -137 0
-146 -105 0
-146 -120 0
-146 -143 0
-147 -112 0
-147 -205 0
-147 -375 0
-147 -294 0
-147 -102 0
-147 -129 0
-147 -49 0
-147 -350 0
-147 -52 0
-147 -202 0
-147 -117 0
-147 -491 0
-147 -344 0
-147 -270 0
-147 -125 0
-148 -112 0
-148 -299 0
-148 -59 0
-148 -154 0
-148 -232 0
-148 -160 0
-148 -151 0
-148 -145 0
-148 -44 0
-148 -2 0
-148 -313 0
-148 -70 0
-148 -111 0
-148 -343 0
-148 -356 0
-149 -466 0
-149 -470 0
-149 -275 0
-149 -71 0
-149 -69 0
-149 -446 0
-149 -48 0
-149 -158 0
-149 -51 0
-149 -155 0
-149 -415 0
-149 -427 0
-149 -143 0
-149 -65 0
-149 -471 0
-149 -78 0
-150 -253 0
-150 -216 0
-150 -115 0
-150 -252 0
-150 -141 0
-150 -73 0
-150 -66 0
-150 -75 0
-150 -292 0
-150 -52 0
-150 -7 0
-150 -179 0
-150 -38 0
-150 -377 0
-150 -107 0
-150 -220 0
-150 -91 0
-150 -394 0
-150 -49 0
-151 -50 0
-151 -93 0
-151 -91 0
-151 -59 0
-151 -44 0
-151 -96 0
-151 -122 0
-151 -83 0
-151 -440 0
-151 -53 0
-151 -439 0
-151 -86 0
-151 -81 0
-151 -74 0
-151 -56 0
-152 -390 0
-152 -385 0
-152 -471 0
-152 -469 0
-152 -292 0
-152 -17 0
-152 -453 0
-152 -128 0
-152 -146 0
-152 -155 0
-152 -116 0
-152 -240 0
-152 -134 0
-152 -42 0
-152 -57 0
-153 -345 0
-153 -340 0
-153 -256 0
-153 -164 0
-153 -144 0
-153 -114 0
-153 -250 0
-153 -49 0
-153 -58 0
-153 -62 0
-153 -55 0
-153 -141 0
-153 -75 0
-153 -107 0
-154 -51 0
-154 -111 0
-154 -44 0
-154 -41 0
-154 -145 0
-154 -107 0
-154 -91 0
-154 -83 0
-154 -59 0
-154 -133 0
-154 -419 0
-154 -406 0
-154 -487 0
-154 -464 0
-154 -130 0
-154 -376 0
-154 -96 0
-154 -26 0
-154 -12 0
-154 -74 0
-155 -367 0
-155 -29 0
-155 -66 0
-155 -471 0
-155 -500 0
-155 -116 0
-155 -293 0
-155 -136 0
-155 -128 0
-155 -124 0
-155 -96 0
-155 -117 0
-156 -129 0
-156 -69 0
-156 -43 0
-156 -46 0
-156 -63 0
-156 -243 0
-156 -121 0
-156 -283 0
-156 -431 0
-156 -136 0
-156 -73 0
-156 -150 0
-156 -105 0
-156 -75 0
-156 -58 0
-156 -204 0
-156 -420 0
-157 -217 0
-157 -201 0
-157 -93 0
-157 -154 0
-157 -56 0
-157 -139 0
-157 -130 0
-157 -70 0
-157 -64 0
-157 -59 0
-157 -107 0
-157 -50 0
-157 -489 0
-157 -249 0
-157 -126 0
-157 -444 0
-157 -118 0
-157 -291 0
-158 -197 0
-158 -472 0
-158 -27 0
-158 -134 0
-158 -45 0
-158 -404 0
-158 -116 0
-158 -42 0
-158 -48 0
-158 -51 0
-158 -69 0
-158 -105 0
-158 -266 0
-158 -387 0
-158 -293 0
-159 -336 0
-159 -343 0
-159 -329 0
-159 -321 0
-159 -156 0
-159 -153 0
-159 -125 0
-159 -75 0
-159 -299 0
-159 -289 0
-159 -254 0
-159 -230 0
-159 -148 0
-159 -64 0
-159 -66 0
-160 -159 0
-160 -403 0
-160 -250 0
-160 -325 0
-160 -290 0
-160 -215 0
-160 -245 0
-160 -67 0
-160 -93 0
-160 -154 0
-160 -107 0
-160 -133 0
-160 -91 0
-160 -130 0
-160 -362 0
-160 -373 0
-160 -157 0
-160 -380 0
-160 -401 0
-160 -53 0
-161 -244 0
-161 -96 0
-161 -214 0
-161 -239 0
-161 -172 0
-161 -106 0
-161 -450 0
-161 -250 0
-161 -187 0
-161 -125 0
-161 -163 0
-161 -317 0
-161 -191 0
-161 -110 0
-161 -355 0
-161 -231 0
-162 -174 0
-162 -307 0
-162 -215 0
-162 -203 0
-162 -178 0
-162 -196 0
-162 -192 0
-162 -232 0
-162 -228 0
-162 -19 0
-162 -83 0
-162 -488 0
-162 -130 0
-162 -337 0
-162 -126 0
-163 -452 0
-163 -382 0
-163 -244 0
-163 -281 0
-163 -180 0
-163 -190 0
-163 -443 0
-163 -208 0
-163 -101 0
-163 -189 0
-163 -186 0
-163 -98 0
-163 -105 0
-163 -5 0
-164 -112 0
-164 -294 0
-164 -191 0
-164 -110 0
-164 -27 0
-164 -172 0
-164 -335 0
-164 -270 0
-164 -384 0
-164 -199 0
-164 -149 0
-164 -200 0
-164 -494 0
-164 -1 0
-164 -93 0
-164 -317 0
-164 -473 0
-164 -239 0
-165 -320 0
-165 -387 0
-165 -322 0
-165 -236 0
-165 -130 0
-165 -169 0
-165 -490 0
-165 -114 0
-165 -475 0
-166 -455 0
-166 -492 0
-166 -329 0
-166 -434 0
-166 -461 0
-166 -225 0
-166 -104 0
-166 -237 0
-166 -216 0
-166 -100 0
-166 -35 0
-166 -112 0
-166 -207 0
-166 -315 0
-167 -439 0
-167 -250 0
-167 -274 0
-167 -150 0
-167 -304 0
-167 -341 0
-167 -415 0
-167 -22 0
-167 -293 0
-167 -226 0
-167 -221 0
-167 -330 0
-167 -98 0
-167 -186 0
-167 -325 0
-167 -113 0
-167 -288 0
-167 -198 0
-167 -201 0
-167 -194 0
-167 -101 0
-167 -171 0
-167 -37 0
-167 -8 0
-167 -238 0
-168 -309 0
-168 -331 0
-168 -227 0
-168 -187 0
-168 -218 0
-168 -47 0
-168 -299 0
-168 -338 0
-168 -198 0
-168 -209 0
-168 -90 0
-168 -230 0
-168 -306 0
-168 -405 0
-168 -6 0
-168 -191 0
-169 -397 0
-169 -150 0
-169 -262 0
-169 -290 0
-169 -173 0
-169 -219 0
-169 -318 0
-169 -295 0
-169 -240 0
-169 -236 0
-169 -174 0
-169 -286 0
-169 -131 0
-169 -206 0
-169 -53 0
-170 -444 0
-170 -297 0
-170 -211 0
-170 -294 0
-170 -287 0
-170 -223 0
-170 -197 0
-170 -319 0
-170 -304 0
-170 -255 0
-170 -229 0
-170 -233 0
-170 -353 0
-170 -97 0
-170 -42 0
-170 -329 0
-170 -219 0
-170 -246 0
-170 -56 0
-171 -303 0
-171 -301 0
-171 -421 0
-171 -390 0
-171 -117 0
-171 -444 0
-171 -474 0
-171 -176 0
-171 -243 0
-171 -467 0
-171 -113 0
-171 -414 0
-172 -339 0
-172 -284 0
-172 -331 0
-172 -281 0
-172 -235 0
-172 -440 0
-172 -495 0
-172 -222 0
-172 -177 0
-172 -231 0
-172 -239 0
-172 -200 0
-172 -205 0
-172 -289 0
-172 -199 0
-173 -314 0
-173 -269 0
-173 -17 0
-173 -15 0
-173 -167 0
-173 -48 0
-173 -10 0
-173 -111 0
-173 -215 0
-173 -236 0
-173 -232 0
-173 -188 0
-173 -162 0
-173 -201 0
-173 -189 0
-173 -483 0
-173 -2 0
-173 -219 0
-173 -400 0
-173 -335 0
-174 -371 0
-174 -119 0
-174 -438 0
-174 -188 0
-174 -304 0
-174 -300 0
-174 -290 0
-174 -203 0
-174 -219 0
-174 -215 0
-174 -201 0
-174 -178 0
-174 -165 0
-174 -295 0
-174 -3 0
-174 -103 0
-174 -130 0
-174 -173 0
-174 -364 0
-175 -249 0
-175 -211 0
-175 -239 0
-175 -242 0
-175 -491 0
-175 -189 0
-175 -234 0
-175 -220 0
-175 -216 0
-175 -299 0
-175 -298 0
-175 -13 0
-175 -233 0
-176 -492 0
-176 -55 0
-176 -356 0
-176 -215 0
-176 -224 0
-176 -221 0
-176 -163 0
-176 -192 0
-176 -313 0
-176 -288 0
-176 -44 0
-176 -262 0
-176 -88 0
-176 -2 0
-176 -488 0
-176 -54 0
-176 -230 0
-176 -325 0
-176 -372 0
-176 -433 0
-177 -340 0
-177 -306 0
-177 -331 0
-177 -326 0
-177 -245 0
-177 -231 0
-177 -222 0
-177 -218 0
-177 -195 0
-177 -191 0
-177 -239 0
-177 -244 0
-177 -289 0
-177 -299 0
-177 -100 0
-177 -409 0
-177 -49 0
-177 -214 0
-177 -330 0
-178 -297 0
-178 -492 0
-178 -496 0
-178 -64 0
-178 -304 0
-178 -322 0
-178 -240 0
-178 -219 0
-178 -290 0
-178 -98 0
-178 -332 0
-178 -355 0
-178 -169 0
-178 -318 0
-178 -448 0
-179 -5 0
-179 -257 0
-179 -334 0
-179 -365 0
-179 -242 0
-179 -170 0
-179 -250 0
-179 -329 0
-179 -349 0
-179 -424 0
-179 -105 0
-179 -83 0
-179 -292 0
-179 -254 0
-180 -359 0
-180 -421 0
-180 -306 0
-180 -293 0
-180 -121 0
-180 -211 0
-180 -149 0
-180 -283 0
-180 -155 0
-180 -167 0
-180 -330 0
-180 -165 0
-180 -224 0
-180 -194 0
-180 -21 0
-180 -183 0
-180 -238 0
-181 -252 0
-181 -244 0
-181 -263 0
-181 -239 0
-181 -227 0
-181 -214 0
-181 -187 0
-181 -75 0
-181 -168 0
-181 -191 0
-181 -450 0
-181 -267 0
-181 -232 0
-181 -111 0
-181 -2 0
-181 -199 0
-182 -377 0
-182 -314 0
-182 -220 0
-182 -212 0
-182 -329 0
-182 -315 0
-182 -382 0
-182 -102 0
-182 -89 0
-182 -326 0
-182 -285 0
-182 -287 0
-182 -175 0
-182 -166 0
-182 -184 0
-182 -319 0
-182 -333 0
-182 -293 0
-182 -246 0
-183 -129 0
-183 -379 0
-183 -310 0
-183 -298 0
-183 -247 0
-183 -366 0
-183 -213 0
-183 -194 0
-183 -176 0
-183 -354 0
-183 -445 0
-183 -421 0
-183 -316 0
-184 -490 0
-184 -312 0
-184 -309 0
-184 -269 0
-184 -179 0
-184 -166 0
-184 -329 0
-184 -279 0
-184 -237 0
-184 -348 0
-184 -314 0
-184 -233 0
-184 -305 0
-184 -213 0
-184 -126 0
-185 -457 0
-185 -416 0
-185 -297 0
-185 -212 0
-185 -365 0
-185 -72 0
-185 -179 0
-185 -182 0
-185 -319 0
-185 -197 0
-185 -184 0
-185 -108 0
-185 -192 0
-185 -216 0
-185 -387 0
-185 -162 0
-185 -133 0
-185 -56 0
-185 -153 0
-186 -424 0
-186 -478 0
-186 -310 0
-186 -496 0
-186 -239 0
-186 -252 0
-186 -140 0
-186 -176 0
-186 -194 0
-186 -172 0
-186 -171 0
-186 -213 0
-186 -116 0
-186 -13 0
-186 -165 0
-186 -283 0
-186 -248 0
-187 -363 0
-187 -114 0
-187 -110 0
-187 -417 0
-187 -45 0
-187 -218 0
-187 -113 0
-187 -360 0
-187 -400 0
-187 -202 0
-187 -164 0
-187 -299 0
-187 -24 0
-187 -323 0
-187 -190 0
-187 -41 0
-187 -411 0
-188 -492 0
-188 -491 0
-188 -295 0
-188 -219 0
-188 -394 0
-188 -216 0
-188 -206 0
-188 -154 0
-188 -332 0
-188 -348 0
-188 -390 0
-188 -398 0
-188 -321 0
-188 -98 0
-189 -6 0
-189 -292 0
-189 -319 0
-189 -329 0
-189 -185 0
-189 -182 0
-189 -211 0
-189 -384 0
-189 -345 0
-189 -223 0
-189 -447 0
-189 -97 0
-189 -363 0
-189 -25 0
-189 -212 0
-189 -170 0
-189 -14 0
-190 -222 0
-190 -298 0
-190 -260 0
-190 -234 0
-190 -62 0
-190 -136 0
-190 -186 0
-190 -330 0
-190 -98 0
-190 -310 0
-190 -262 0
-190 -391 0
-190 -198 0
-190 -478 0
-190 -313 0
-191 -266 0
-191 -118 0
-191 -246 0
-191 -495 0
-191 -202 0
-191 -187 0
-191 -153 0
-191 -249 0
-191 -355 0
-191 -285 0
-191 -15 0
-191 -263 0
-191 -231 0
-191 -326 0
-191 -214 0
-191 -289 0
-191 -284 0
-191 -481 0
-192 -276 0
-192 -177 0
-192 -20 0
-192 -378 0
-192 -295 0
-192 -318 0
-192 -332 0
-192 -165 0
-192 -3 0
-192 -461 0
-192 -286 0
-192 -21 0
-192 -178 0
-192 -290 0
-192 -355 0
-192 -327 0
-192 -228 0
-193 -482 0
-193 -337 0
-193 -314 0
-193 -297 0
-193 -182 0
-193 -24 0
-193 -220 0
-193 -328 0
-193 -315 0
-193 -189 0
-193 -332 0
-193 -137 0
-194 -474 0
-194 -372 0
-194 -97 0
-194 -153 0
-194 -400 0
-194 -267 0
-194 -213 0
-194 -320 0
-194 -298 0
-194 -333 0
-194 -163 0
-194 -198 0
-194 -142 0
-194 -30 0
-194 -204 0
-195 -299 0
-195 -205 0
-195 -235 0
-195 -231 0
-195 -289 0
-195 -168 0
-195 -17 0
-195 -321 0
-195 -209 0
-195 -183 0
-195 -326 0
-195 -284 0
-195 -202 0
-195 -161 0
-196 -211 0
-196 -104 0
-196 -47 0
-196 -327 0
-196 -389 0
-196 -85 0
-196 -157 0
-196 -178 0
-196 -91 0
-196 -240 0
-196 -295 0
-196 -33 0
-196 -160 0
-196 -203 0
-196 -308 0
-196 -174 0
-196 -307 0
-196 -192 0
-197 -377 0
-197 -242 0
-197 -179 0
-197 -292 0
-197 -498 0
-197 -181 0
-197 -309 0
-197 -297 0
-197 -246 0
-197 -233 0
-197 -182 0
-197 -136 0
-197 -207 0
-197 -315 0
-197 -497 0
-197 -223 0
-197 -238 0
-197 -15 0
-197 -184 0
-198 -398 0
-198 -395 0
-198 -48 0
-198 -154 0
-198 -201 0
-198 -262 0
-198 -243 0
-198 -238 0
-198 -29 0
-198 -224 0
-198 -171 0
-198 -322 0
-198 -163 0
-198 -140 0
-198 -320 0
-198 -183 0
-198 -10 0
-198 -3 0
-198 -208 0
-199 -331 0
-199 -161 0
-199 -271 0
-199 -487 0
-199 -248 0
-199 -222 0
-199 -138 0
-199 -59 0
-199 -231 0
-199 -191 0
-199 -322 0
-199 -298 0
-199 -146 0
-199 -317 0
-200 -310 0
-200 -63 0
-200 -192 0
-200 -285 0
-200 -240 0
-200 -165 0
-200 -162 0
-200 -290 0
-200 -173 0
-200 -170 0
-200 -253 0
-200 -189 0
-200 -2 0
-200 -304 0
-200 -332 0
-201 -191 0
-201 -20 0
-201 -103 0
-201 -492 0
-201 -42 0
-201 -219 0
-201 -130 0
-201 -188 0
-201 -21 0
-201 -192 0
-201 -257 0
-201 -107 0
-201 -344 0
-201 -14 0
-201 -160 0
-202 -218 0
-202 -222 0
-202 -172 0
-202 -161 0
-202 -317 0
-202 -404 0
-202 -135 0
-202 -95 0
-202 -209 0
-202 -227 0
-202 -110 0
-203 -141 0
-203 -311 0
-203 -396 0
-203 -293 0
-203 -230 0
-203 -228 0
-203 -285 0
-203 -206 0
-203 -173 0
-203 -91 0
-203 -93 0
-203 -61 0
-203 -165 0
-203 -424 0
-203 -462 0
-203 -111 0
-203 -54 0
-203 -471 0
-203 -236 0
-204 -323 0
-204 -313 0
-204 -234 0
-204 -163 0
-204 -226 0
-204 -66 0
-204 -186 0
-204 -190 0
-204 -101 0
-204 -120 0
-204 -146 0
-204 -208 0
-204 -236 0
-204 -338 0
-204 -136 0
-204 -230 0
-205 -471 0
-205 -357 0
-205 -397 0
-205 -214 0
-205 -209 0
-205 -199 0
-205 -92 0
-205 -114 0
-205 -75 0
-205 -452 0
-205 -168 0
-205 -273 0
-205 -18 0
-205 -164 0
-205 -202 0
-205 -191 0
-205 -117 0
-205 -239 0
-205 -215 0
-205 -138 0
-206 -266 0
-206 -184 0
-206 -175 0
-206 -97 0
-206 -388 0
-206 -214 0
-206 -129 0
-206 -180 0
-206 -45 0
-206 -210 0
-206 -172 0
-206 -165 0
-206 -192 0
-206 -103 0
-206 -336 0
-206 -396 0
-206 -333 0
-206 -81 0
-206 -142 0
-206 -461 0
-206 -139 0
-206 -107 0
-207 -2 0
-207 -486 0
-207 -100 0
-207 -453 0
-207 -127 0
-207 -199 0
-207 -55 0
-207 -71 0
-207 -347 0
-207 -99 0
-207 -144 0
-207 -211 0
-207 -220 0
-207 -210 0
-208 -354 0
-208 -402 0
-208 -157 0
-208 -98 0
-208 -171 0
-208 -146 0
-208 -94 0
-208 -128 0
-208 -221 0
-208 -200 0
-208 -67 0
-209 -214 0
-209 -222 0
-209 -141 0
-209 -117 0
-209 -102 0
-209 -239 0
-209 -161 0
-209 -174 0
-209 -172 0
-209 -171 0
-209 -367 0
-209 -162 0
-209 -143 0
-209 -56 0
-209 -111 0
-209 -107 0
-209 -75 0
-210 -254 0
-210 -96 0
-210 -341 0
-210 -292 0
-210 -347 0
-210 -145 0
-210 -153 0
-210 -134 0
-210 -203 0
-210 -323 0
-210 -173 0
-210 -142 0
-210 -403 0
-210 -122 0
-210 -308 0
-210 -388 0
-210 -303 0
-210 -201 0
-210 -455 0
-211 -459 0
-211 -193 0
-211 -112 0
-211 -216 0
-211 -278 0
-211 -184 0
-211 -229 0
-211 -58 0
-211 -324 0
-211 -281 0
-211 -427 0
-211 -185 0
-211 -431 0
-211 -232 0
-211 -201 0
-212 -394 0
-212 -207 0
-212 -193 0
-212 -127 0
-212 -123 0
-212 -108 0
-212 -287 0
-212 -220 0
-212 -15 0
-212 -401 0
-212 -146 0
-212 -153 0
-212 -255 0
-212 -163 0
-212 -435 0
-212 -148 0
-213 -417 0
-213 -472 0
-213 -309 0
-213 -386 0
-213 -361 0
-213 -81 0
-213 -323 0
-213 -198 0
-213 -137 0
-213 -54 0
-213 -113 0
-213 -221 0
-213 -204 0
-213 -190 0
-214 -170 0
-214 -235 0
-214 -168 0
-214 -52 0
-214 -95 0
-214 -468 0
-214 -422 0
-214 -106 0
-214 -284 0
-214 -109 0
-214 -306 0
-214 -368 0
-214 -239 0
-214 -289 0
-214 -218 0
-214 -231 0
-214 -102 0
-215 -123 0
-215 -256 0
-215 -196 0
-215 -130 0
-215 -374 0
-215 -213 0
-215 -62 0
-215 -285 0
-215 -232 0
-215 -178 0
-215 -200 0
-215 -96 0
-215 -36 0
-215 -103 0
-215 -192 0
-216 -333 0
-216 -394 0
-216 -233 0
-216 -179 0
-216 -182 0
-216 -104 0
-216 -244 0
-216 -89 0
-216 -207 0
-216 -99 0
-216 -170 0
-216 -279 0
-216 -69 0
-216 -71 0
-216 -126 0
-216 -217 0
-216 -123 0
-216 -145 0
-216 -151 0
-216 -110 0
-217 -339 0
-217 -334 0
-217 -371 0
-217 -250 0
-217 -222 0
-217 -116 0
-217 -198 0
-217 -194 0
-217 -190 0
-217 -109 0
-217 -125 0
-217 -322 0
-217 -180 0
-217 -162 0
-217 -221 0
-217 -98 0
-217 -167 0
-218 -191 0
-218 -102 0
-218 -122 0
-218 -87 0
-218 -231 0
-218 -280 0
-218 -172 0
-218 -140 0
-218 -284 0
-218 -181 0
-218 -173 0
-218 -88 0
-218 -23 0
-219 -373 0
-219 -13 0
-219 -236 0
-219 -165 0
-219 -196 0
-219 -206 0
-219 -31 0
-219 -103 0
-219 -16 0
-219 -203 0
-219 -307 0
-219 -96 0
-219 -94 0
-220 -465 0
-220 -254 0
-220 -123 0
-220 -112 0
-220 -104 0
-220 -100 0
-220 -197 0
-220 -159 0
-220 -71 0
-220 -370 0
-220 -179 0
-220 -108 0
-220 -232 0
-220 -113 0
-220 -298 0
-220 -158 0
-220 -127 0
-220 -19 0
-221 -376 0
-221 -354 0
-221 -477 0
-221 -166 0
-221 -227 0
-221 -89 0
-221 -338 0
-221 -83 0
-221 -263 0
-221 -224 0
-221 -204 0
-221 -283 0
-221 -190 0
-221 -353 0
-221 -238 0
-222 -346 0
-222 -375 0
-222 -227 0
-222 -161 0
-222 -129 0
-222 -485 0
-222 -205 0
-222 -390 0
-222 -294 0
-222 -400 0
-222 -218 0
-222 -114 0
-222 -32 0
-222 -153 0
-222 -236 0
-222 -102 0
-222 -86 0
-222 -96 0
-222 -62 0
-222 -284 0
-222 -255 0
-223 -166 0
-223 -185 0
-223 -195 0
-223 -319 0
-223 -207 0
-223 -259 0
-223 -172 0
-223 -274 0
-223 -208 0
-223 -90 0
-223 -228 0
-223 -175 0
-223 -156 0
-223 -100 0
-223 -77 0
-224 -323 0
-224 -302 0
-224 -360 0
-224 -193 0
-224 -479 0
-224 -366 0
-224 -298 0
-224 -133 0
-224 -234 0
-224 -288 0
-224 -204 0
-224 -88 0
-224 -163 0
-224 -194 0
-224 -171 0
-224 -101 0
-224 -217 0
-224 -98 0
-224 -320 0
-224 -74 0
-225 -5 0
-225 -484 0
-225 -359 0
-225 -302 0
-225 -223 0
-225 -100 0
-225 -123 0
-225 -108 0
-225 -317 0
-225 -112 0
-225 -78 0
-225 -308 0
-225 -106 0
-225 -234 0
-225 -127 0
-225 -139 0
-225 -86 0
-225 -185 0
-225 -216 0
-225 -233 0
-225 -55 0
-226 -465 0
-226 -305 0
-226 -171 0
-226 -213 0
-226 -217 0
-226 -176 0
-226 -221 0
-226 -137 0
-226 -146 0
-226 -194 0
-226 -186 0
-226 -124 0
-226 -224 0
-226 -163 0
-226 -102 0
-226 -36 0
-227 -100 0
-227 -80 0
-227 -117 0
-227 -121 0
-227 -106 0
-227 -231 0
-227 -187 0
-227 -251 0
-227 -171 0
-227 -135 0
-227 -198 0
-227 -195 0
-227 -317 0
-227 -218 0
-227 -413 0
-227 -172 0
-227 -38 0
-227 -329 0
-227 -283 0
-228 -306 0
-228 -135 0
-228 -494 0
-228 -330 0
-228 -316 0
-228 -146 0
-228 -347 0
-228 -130 0
-228 -122 0
-228 -169 0
-228 -1 0
-228 -482 0
-228 -201 0
-228 -178 0
-228 -283 0
-228 -440 0
-228 -215 0
-229 -223 0
-229 -185 0
-229 -490 0
-229 -127 0
-229 -115 0
-229 -97 0
-229 -104 0
-229 -207 0
-229 -119 0
-229 -89 0
-229 -226 0
-229 -175 0
-229 -99 0
-229 -488 0
-229 -108 0
-229 -186 0
-229 -374 0
-229 -378 0
-229 -304 0
-229 -113 0
-230 -231 0
-230 -227 0
-230 -382 0
-230 -27 0
-230 -177 0
-230 -113 0
-230 -136 0
-230 -224 0
-230 -217 0
-230 -95 0
-230 -25 0
-230 -3 0
-230 -234 0
-230 -124 0
-230 -226 0
-230 -183 0
-230 -101 0
-230 -170 0
-230 -486 0
-230 -70 0
-231 -248 0
-231 -274 0
-231 -125 0
-231 -333 0
-231 -222 0
-232 -131 0
-232 -69 0
-232 -335 0
-232 -310 0
-232 -210 0
-232 -385 0
-232 -219 0
-232 -201 0
-232 -169 0
-232 -154 0
-232 -411 0
-232 -35 0
-232 -197 0
-232 -174 0
-232 -296 0
-232 -107 0
-233 -237 0
-233 -211 0
-233 -207 0
-233 -99 0
-233 -467 0
-233 -223 0
-233 -193 0
-233 -430 0
-233 -83 0
-233 -397 0
-233 -111 0
-233 -189 0
-233 -104 0
-233 -166 0
-234 -312 0
-234 -248 0
-234 -277 0
-234 -208 0
-234 -283 0
-234 -402 0
-234 -217 0
-234 -98 0
-234 -105 0
-234 -200 0
-234 -180 0
-234 -171 0
-234 -77 0
-235 -478 0
-235 -129 0
-235 -181 0
-235 -168 0
-235 -177 0
-235 -135 0
-235 -239 0
-235 -13 0
-235 -164 0
-235 -134 0
-235 -215 0
-235 -317 0
-235 -368 0
-235 -92 0
-235 -106 0
-235 -202 0
-235 -137 0
-235 -428 0
-236 -211 0
-236 -271 0
-236 -206 0
-236 -215 0
-236 -130 0
-236 -200 0
-236 -445 0
-236 -32 0
-236 -295 0
-236 -178 0
-236 -466 0
-237 -490 0
-237 -468 0
-237 -398 0
-237 -211 0
-237 -100 0
-237 -115 0
-237 -222 0
-237 -81 0
-237 -20 0
-237 -401 0
-237 -104 0
-237 -44 0
-237 -178 0
-237 -469 0
-237 -108 0
-237 -287 0
-237 -124 0
-237 -148 0
-237 -151 0
-237 -191 0
-237 -67 0
-238 -395 0
-238 -212 0
-238 -168 0
-238 -11 0
-238 -288 0
-238 -226 0
-238 -204 0
-238 -171 0
-238 -190 0
-238 -186 0
-238 -109 0
-238 -213 0
-238 -414 0
-238 -183 0
-238 -116 0
-239 -258 0
-239 -114 0
-239 -18 0
-239 -11 0
-239 -125 0
-239 -355 0
-239 -5 0
-239 -222 0
-239 -202 0
-239 -76 0
-239 -70 0
-239 -110 0
-239 -19 0
-239 -208 0
-240 -49 0
-240 -290 0
-240 -107 0
-240 -219 0
-240 -203 0
-240 -188 0
-240 -139 0
-240 -122 0
-240 -118 0
-240 -307 0
-240 -174 0
-240 -173 0
-240 -96 0
-240 -84 0
-240 -346 0
-240 -130 0
-241 -498 0
-241 -264 0
-241 -327 0
-241 -489 0
-241 -23 0
-241 -42 0
-241 -9 0
-241 -430 0
-241 -301 0
-241 -259 0
-241 -286 0
-241 -315 0
-241 -83 0
-241 -433 0
-241 -212 0
-241 -249 0
-241 -332 0
-241 -493 0
-241 -496 0
-242 -324 0
-242 -182 0
-242 -276 0
-242 -153 0
-242 -401 0
-242 -466 0
-242 -358 0
-242 -344 0
-242 -386 0
-242 -445 0
-242 -319 0
-242 -312 0
-242 -257 0
-242 -184 0
-242 -484 0
-243 -241 0
-243 -403 0
-243 -383 0
-243 -378 0
-243 -374 0
-243 -443 0
-243 -298 0
-243 -270 0
-243 -194 0
-243 -407 0
-243 -260 0
-243 -168 0
-243 -273 0
-244 -375 0
-244 -299 0
-244 -289 0
-244 -326 0
-244 -256 0
-244 -156 0
-244 -281 0
-244 -465 0
-244 -128 0
-244 -394 0
-244 -341 0
-244 -397 0
-244 -488 0
-245 -56 0
-245 -446 0
-245 -300 0
-245 -301 0
-245 -386 0
-245 -261 0
-245 -495 0
-245 -337 0
-245 -322 0
-245 -295 0
-245 -318 0
-245 -103 0
-245 -357 0
-246 -449 0
-246 -265 0
-246 -391 0
-246 -369 0
-246 -399 0
-246 -58 0
-246 -103 0
-246 -108 0
-246 -175 0
-246 -179 0
-246 -315 0
-246 -242 0
-246 -382 0
-246 -155 0
-246 -430 0
-246 -113 0
-246 -312 0
-246 -109 0
-246 -194 0
-247 -285 0
-247 -437 0
-247 -383 0
-247 -227 0
-247 -267 0
-247 -176 0
-247 -325 0
-247 -198 0
-247 -273 0
-247 -158 0
-248 -440 0
-248 -170 0
-248 -388 0
-248 -393 0
-248 -379 0
-248 -331 0
-248 -260 0
-248 -252 0
-248 -263 0
-248 -48 0
-248 -228 0
-248 -311 0
-248 -183 0
-249 -332 0
-249 -226 0
-249 -85 0
-249 -497 0
-249 -486 0
-249 -259 0
-249 -182 0
-249 -305 0
-249 -245 0
-249 -282 0
-249 -302 0
-249 -301 0
-249 -15 0
-250 -287 0
-250 -272 0
-250 -242 0
-250 -373 0
-250 -294 0
-250 -235 0
-250 -403 0
-250 -353 0
-250 -17 0
-250 -51 0
-250 -60 0
-250 -430 0
-250 -341 0
-250 -26 0
-250 -25 0
-251 -348 0
-251 -500 0
-251 -172 0
-251 -392 0
-251 -298 0
-251 -266 0
-251 -384 0
-251 -74 0
-251 -255 0
-251 -383 0
-251 -316 0
-251 -118 0
-251 -158 0
-251 -470 0
-251 -117 0
-251 -34 0
-252 -382 0
-252 -367 0
-252 -397 0
-252 -299 0
-252 -306 0
-252 -281 0
-252 -276 0
-252 -260 0
-252 -336 0
-252 -177 0
-252 -117 0
-252 -379 0
-252 -244 0
-252 -120 0
-252 -96 0
-252 -78 0
-252 -243 0
-253 -259 0
-253 -297 0
-253 -128 0
-253 -91 0
-253 -5 0
-253 -296 0
-253 -265 0
-253 -301 0
-253 -275 0
-253 -495 0
-253 -110 0
-253 -303 0
-253 -493 0
-254 -301 0
-254 -416 0
-254 -369 0
-254 -373 0
-254 -337 0
-254 -287 0
-254 -117 0
-254 -233 0
-254 -184 0
-254 -153 0
-254 -421 0
-254 -173 0
-254 -41 0
-254 -300 0
-255 -372 0
-255 -336 0
-255 -242 0
-255 -166 0
-255 -378 0
-255 -120 0
-255 -54 0
-255 -28 0
-255 -116 0
-255 -366 0
-255 -20 0
-255 -320 0
-255 -330 0
-255 -383 0
-255 -26 0
-255 -91 0
-255 -247 0
-256 -388 0
-256 -393 0
-256 -371 0
-256 -401 0
-256 -271 0
-256 -181 0
-256 -116 0
-256 -457 0
-256 -281 0
-256 -248 0
-256 -34 0
-256 -10 0
-257 -300 0
-257 -496 0
-257 -417 0
-257 -305 0
-257 -399 0
-257 -494 0
-257 -264 0
-257 -332 0
-257 -144 0
-257 -245 0
-257 -499 0
-257 -493 0
-257 -63 0
-257 -495 0
-257 -282 0
-258 -259 0
-258 -149 0
-258 -290 0
-258 -499 0
-258 -257 0
-258 -308 0
-258 -264 0
-258 -449 0
-258 -303 0
-258 -422 0
-258 -296 0
-258 -492 0
-258 -282 0
-258 -491 0
-258 -245 0
-258 -302 0
-258 -5 0
-258 -265 0
-259 -201 0
-259 -488 0
-259 -264 0
-259 -29 0
-259 -328 0
-259 -308 0
-259 -303 0
-259 -110 0
-259 -324 0
-259 -141 0
-259 -257 0
-259 -452 0
-259 -58 0
-259 -97 0
-259 -296 0
-259 -11 0
-259 -267 0
-260 -384 0
-260 -256 0
-260 -331 0
-260 -382 0
-260 -239 0
-260 -311 0
-260 -140 0
-260 -375 0
-260 -195 0
-261 -453 0
-261 -270 0
-261 -180 0
-261 -56 0
-261 -36 0
-261 -303 0
-261 -323 0
-261 -158 0
-261 -264 0
-261 -93 0
-261 -494 0
-261 -497 0
-261 -258 0
-261 -500 0
-261 -493 0
-261 -344 0
-261 -496 0
-262 -354 0
-262 -112 0
-262 -106 0
-262 -66 0
-262 -326 0
-262 -407 0
-262 -374 0
-262 -378 0
-262 -288 0
-262 -332 0
-262 -216 0
-262 -270 0
-262 -251 0
-262 -238 0
-262 -316 0
-262 -183 0
-262 -33 0
-262 -432 0
-262 -79 0
-262 -86 0
-262 -9 0
-262 -243 0
-263 -237 0
-263 -371 0
-263 -294 0
-263 -326 0
-263 -218 0
-263 -384 0
-263 -274 0
-263 -95 0
-263 -367 0
-263 -73 0
-263 -284 0
-263 -461 0
-263 -289 0
-263 -140 0
-263 -160 0
-263 -410 0
-263 -252 0
-263 -68 0
-264 -344 0
-264 -496 0
-264 -22 0
-264 -455 0
-264 -305 0
-264 -296 0
-264 -291 0
-264 -476 0
-264 -366 0
-264 -245 0
-264 -340 0
-264 -254 0
-264 -328 0
-264 -253 0
-264 -30 0
-265 -453 0
-265 -338 0
-265 -264 0
-265 -37 0
-265 -495 0
-265 -60 0
-265 -296 0
-265 -249 0
-265 -500 0
-265 -472 0
-265 -292 0
-265 -254 0
-265 -353 0
-265 -257 0
-265 -241 0
-265 -128 0
-265 -496 0
-265 -112 0
-265 -364 0
-266 -487 0
-266 -446 0
-266 -457 0
-266 -485 0
-266 -369 0
-266 -440 0
-266 -268 0
-266 -449 0
-266 -272 0
-266 -412 0
-266 -377 0
-266 -451 0
-266 -403 0
-266 -76 0
-266 -452 0
-267 -459 0
-267 -380 0
-267 -442 0
-267 -250 0
-267 -303 0
-267 -325 0
-267 -404 0
-267 -338 0
-267 -243 0
-267 -310 0
-267 -494 0
-267 -393 0
-267 -255 0
-267 -411 0
-267 -330 0
-267 -235 0
-267 -320 0
-267 -444 0
-268 -395 0
-268 -340 0
-268 -269 0
-268 -254 0
-268 -367 0
-268 -312 0
-268 -246 0
-268 -396 0
-268 -378 0
-268 -17 0
-268 -279 0
-268 -373 0
-268 -327 0
-269 -386 0
-269 -369 0
-269 -395 0
-269 -287 0
-269 -324 0
-269 -319 0
-269 -266 0
-269 -279 0
-269 -379 0
-269 -24 0
-269 -403 0
-269 -77 0
-269 -63 0
-269 -493 0
-269 -79 0
-269 -84 0
-269 -460 0
-270 -302 0
-270 -379 0
-270 -494 0
-270 -378 0
-270 -293 0
-270 -247 0
-270 -332 0
-270 -176 0
-270 -277 0
-270 -139 0
-270 -91 0
-270 -309 0
-270 -320 0
-270 -8 0
-270 -82 0
-270 -428 0
-270 -417 0
-271 -371 0
-271 -397 0
-271 -289 0
-271 -311 0
-271 -317 0
-271 -281 0
-271 -263 0
-271 -260 0
-271 -102 0
-271 -121 0
-271 -326 0
-271 -485 0
-271 -283 0
-271 -244 0
-271 -369 0
-271 -248 0
-271 -7 0
-271 -321 0
-271 -10 0
-271 -43 0
-271 -385 0
-272 -479 0
-272 -245 0
-272 -373 0
-272 -389 0
-272 -403 0
-272 -349 0
-272 -386 0
-272 -279 0
-272 -297 0
-272 -415 0
-272 -314 0
-272 -23 0
-272 -318 0
-272 -185 0
-273 -272 0
-273 -324 0
-273 -378 0
-273 -459 0
-273 -383 0
-273 -370 0
-273 -298 0
-273 -310 0
-273 -325 0
-273 -267 0
-273 -277 0
-273 -300 0
-273 -68 0
-273 -316 0
-273 -489 0
-273 -5 0
-273 -88 0
-273 -2 0
-274 -331 0
-274 -317 0
-274 -281 0
-274 -260 0
-274 -256 0
-274 -248 0
-274 -401 0
-274 -204 0
-274 -388 0
-274 -402 0
-274 -83 0
-274 -148 0
-274 -244 0
-274 -10 0
-275 -462 0
-275 -43 0
-275 -61 0
-275 -374 0
-275 -339 0
-275 -264 0
-275 -499 0
-275 -245 0
-275 -257 0
-275 -495 0
-275 -229 0
-275 -197 0
-275 -42 0
-275 -261 0
-275 -181 0
-275 -283 0
-275 -221 0
-275 -150 0
-275 -282 0
-275 -155 0
-276 -402 0
-276 -455 0
-276 -395 0
-276 -349 0
-276 -324 0
-276 -254 0
-276 -384 0
-276 -398 0
-276 -187 0
-276 -15 0
-276 -297 0
-276 -329 0
-276 -266 0
-276 -216 0
-276 -287 0
-276 -386 0
-276 -32 0
-276 -318 0
-276 -352 0
-276 -134 0
-276 -475 0
-277 -337 0
-277 -179 0
-277 -325 0
-277 -367 0
-277 -347 0
-277 -177 0
-277 -383 0
-277 -251 0
-278 -410 0
-278 -286 0
-278 -382 0
-278 -375 0
-278 -401 0
-278 -263 0
-278 -248 0
-278 -92 0
-278 -87 0
-278 -76 0
-278 -347 0
-278 -260 0
-278 -274 0
-278 -114 0
-278 -185 0
-278 -204 0
-278 -432 0
-278 -393 0
-278 -30 0
-278 -26 0
-278 -9 0
-278 -439 0
-279 -333 0
-279 -308 0
-279 -261 0
-279 -373 0
-279 -386 0
-279 -365 0
-279 -399 0
-279 -329 0
-279 -246 0
-279 -375 0
-279 -500 0
-279 -105 0
-279 -312 0
-279 -250 0
-279 -391 0
-280 -390 0
-280 -402 0
-280 -436 0
-280 -97 0
-280 -378 0
-280 -311 0
-280 -187 0
-280 -496 0
-280 -442 0
-280 -46 0
-280 -310 0
-280 -247 0
-280 -270 0
-280 -36 0
-280 -213 0
-280 -261 0
-280 -307 0
-280 -320 0
-280 -298 0
-280 -387 0
-280 -267 0
-280 -304 0
-280 -145 0
-280 -366 0
-280 -255 0
-281 -309 0
-281 -184 0
-281 -384 0
-281 -382 0
-281 -401 0
-281 -223 0
-281 -331 0
-281 -311 0
-281 -278 0
-281 -78 0
-281 -77 0
-281 -294 0
-281 -215 0
-281 -371 0
-281 -189 0
-281 -8 0
-281 -321 0
-281 -13 0
-281 -316 0
-281 -263 0
-281 -259 0
-281 -239 0
-282 -57 0
-282 -241 0
-282 -77 0
-282 -461 0
-282 -308 0
-282 -302 0
-282 -261 0
-282 -423 0
-282 -269 0
-282 -408 0
-282 -220 0
-282 -323 0
-282 -473 0
-283 -253 0
-283 -490 0
-283 -172 0
-283 -325 0
-283 -323 0
-283 -190 0
-283 -171 0
-283 -149 0
-283 -148 0
-283 -255 0
-283 -48 0
-284 -175 0
-284 -271 0
-284 -260 0
-284 -21 0
-284 -161 0
-284 -463 0
-284 -317 0
-284 -183 0
-284 -61 0
-284 -388 0
-284 -429 0
-284 -164 0
-284 -352 0
-284 -396 0
-284 -311 0
-284 -306 0
-284 -299 0
-284 -133 0
-284 -248 0
-284 -31 0
-284 -237 0
-284 -256 0
-285 -227 0
-285 -161 0
-285 -332 0
-285 -307 0
-285 -304 0
-285 -236 0
-285 -499 0
-285 -173 0
-285 -162 0
-285 -351 0
-285 -491 0
-285 -282 0
-285 -77 0
-285 -240 0
-285 -391 0
-286 -378 0
-286 -478 0
-286 -496 0
-286 -12 0
-286 -455 0
-286 -339 0
-286 -250 0
-286 -232 0
-286 -346 0
-286 -255 0
-286 -200 0
-286 -392 0
-286 -261 0
-286 -117 0
-286 -447 0
-287 -415 0
-287 -452 0
-287 -302 0
-287 -185 0
-287 -367 0
-287 -175 0
-287 -193 0
-287 -197 0
-287 -327 0
-287 -176 0
-287 -272 0
-288 -245 0
-288 -359 0
-288 -377 0
-288 -179 0
-288 -310 0
-288 -38 0
-288 -320 0
-288 -313 0
-288 -81 0
-288 -270 0
-288 -243 0
-288 -277 0
-288 -462 0
-288 -213 0
-288 -273 0
-288 -476 0
-288 -136 0
-288 -221 0
-288 -184 0
-288 -177 0
-288 -283 0
-289 -328 0
-289 -294 0
-289 -161 0
-289 -199 0
-289 -181 0
-289 -299 0
-289 -276 0
-289 -391 0
-289 -94 0
-289 -274 0
-289 -459 0
-289 -239 0
-289 -248 0
-289 -483 0
-289 -81 0
-290 -496 0
-290 -129 0
-290 -392 0
-290 -238 0
-290 -186 0
-290 -327 0
-290 -300 0
-290 -497 0
-290 -332 0
-290 -23 0
-290 -385 0
-290 -318 0
-290 -165 0
-290 -304 0
-290 -472 0
-290 -196 0
-290 -54 0
-291 -275 0
-291 -131 0
-291 -358 0
-291 -339 0
-291 -345 0
-291 -401 0
-291 -282 0
-291 -261 0
-291 -253 0
-291 -258 0
-291 -241 0
-291 -325 0
-291 -499 0
-291 -310 0
-291 -371 0
-291 -188 0
-291 -308 0
-291 -348 0
-292 -474 0
-292 -427 0
-292 -166 0
-292 -170 0
-292 -297 0
-292 -212 0
-292 -99 0
-292 -20 0
-292 -82 0
-292 -220 0
-292 -400 0
-292 -441 0
-292 -248 0
-292 -308 0
-292 -211 0
-292 -193 0
-292 -188 0
-292 -254 0
-292 -435 0
-292 -153 0
-292 -13 0
-292 -411 0
-292 -28 0
-293 -273 0
-293 -188 0
-293 -251 0
-293 -280 0
-293 -213 0
-293 -224 0
-293 -217 0
-293 -247 0
-293 -262 0
-293 -128 0
-293 -115 0
-293 -173 0
-293 -277 0
-294 -469 0
-294 -395 0
-294 -382 0
-294 -218 0
-294 -319 0
-294 -195 0
-294 -115 0
-294 -32 0
-294 -247 0
-294 -94 0
-294 -352 0
-294 -228 0
-294 -71 0
-294 -271 0
-294 -15 0
-294 -102 0
-294 -181 0
-294 -439 0
-294 -187 0
-294 -326 0
-295 -319 0
-295 -182 0
-295 -401 0
-295 -135 0
-295 -18 0
-295 -163 0
-295 -493 0
-295 -494 0
-295 -300 0
-295 -202 0
-295 -165 0
-295 -278 0
-295 -173 0
-295 -215 0
-295 -155 0
-295 -208 0
-295 -422 0
-295 -466 0
-295 -425 0
-295 -5 0
-296 -333 0
-296 -325 0
-296 -285 0
-296 -238 0
-296 -323 0
-296 -286 0
-296 -428 0
-296 -120 0
-296 -386 0
-296 -213 0
-296 -257 0
-296 -346 0
-296 -499 0
-296 -189 0
-296 -303 0
-297 -465 0
-297 -287 0
-297 -254 0
-297 -166 0
-297 -184 0
-297 -289 0
-297 -299 0
-297 -44 0
-297 -353 0
-297 -279 0
-297 -250 0
-297 -467 0
-297 -269 0
-298 -372 0
-298 -184 0
-298 -492 0
-298 -270 0
-298 -68 0
-298 -88 0
-298 -313 0
-298 -198 0
-298 -396 0
-298 -320 0
-298 -39 0
-299 -401 0
-299 -326 0
-299 -263 0
-299 -281 0
-299 -278 0
-299 -274 0
-299 -366 0
-299 -191 0
-299 -317 0
-299 -260 0
-299 -419 0
-299 -164 0
-299 -165 0
-299 -199 0
-299 -161 0
-299 -181 0
-299 -372 0
-300 -242 0
-300 -497 0
-300 -73 0
-300 -153 0
-300 -495 0
-300 -128 0
-300 -445 0
-300 -332 0
-300 -304 0
-300 -162 0
-300 -190 0
-300 -214 0
-300 -169 0
-300 -188 0
-300 -64 0
-300 -318 0
-300 -385 0
-301 -291 0
-301 -113 0
-301 -257 0
-301 -480 0
-301 -463 0
-301 -385 0
-301 -303 0
-301 -374 0
-301 -345 0
-301 -259 0
-301 -261 0
-301 -354 0
-301 -85 0
-301 -408 0
-301 -283 0
-301 -305 0
-301 -202 0
-301 -129 0
-301 -339 0
-301 -333 0
-302 -192 0
-302 -387 0
-302 -348 0
-302 -339 0
-302 -323 0
-302 -414 0
-302 -308 0
-302 -301 0
-302 -291 0
-302 -253 0
-302 -296 0
-302 -362 0
-302 -191 0
-302 -29 0
-302 -402 0
-302 -241 0
-302 -346 0
-302 -256 0
-302 -318 0
-302 -261 0
-303 -364 0
-303 -356 0
-303 -322 0
-303 -446 0
-303 -291 0
-303 -265 0
-303 -314 0
-303 -286 0
-303 -272 0
-303 -221 0
-303 -348 0
-303 -359 0
-303 -357 0
-304 -283 0
-304 -124 0
-304 -322 0
-304 -288 0
-304 -318 0
-304 -232 0
-304 -9 0
-304 -169 0
-304 -327 0
-304 -196 0
-304 -162 0
-304 -426 0
-304 -430 0
-305 -48 0
-305 -275 0
-305 -261 0
-305 -241 0
-305 -173 0
-305 -102 0
-305 -404 0
-305 -334 0
-305 -408 0
-305 -136 0
-305 -291 0
-305 -214 0
-306 -444 0
-306 -360 0
-306 -229 0
-306 -164 0
-306 -135 0
-306 -271 0
-306 -260 0
-306 -83 0
-306 -222 0
-306 -5 0
-306 -191 0
-306 -231 0
-307 -271 0
-307 -498 0
-307 -492 0
-307 -495 0
-307 -287 0
-307 -144 0
-307 -400 0
-307 -224 0
-307 -149 0
-307 -461 0
-307 -425 0
-307 -215 0
-307 -236 0
-307 -232 0
-307 -178 0
-307 -200 0
-307 -4 0
-307 -399 0
-307 -111 0
-308 -323 0
-308 -309 0
-308 -295 0
-308 -99 0
-308 -483 0
-308 -61 0
-308 -382 0
-308 -359 0
-308 -249 0
-308 -63 0
-308 -301 0
-308 -296 0
-308 -24 0
-308 -346 0
-309 -470 0
-309 -268 0
-309 -246 0
-309 -193 0
-309 -279 0
-309 -373 0
-309 -75 0
-309 -172 0
-309 -360 0
-309 -337 0
-309 -307 0
-309 -292 0
-309 -11 0
-309 -272 0
-309 -297 0
-310 -313 0
-310 -202 0
-310 -195 0
-310 -419 0
-310 -426 0
-310 -171 0
-310 -180 0
-310 -308 0
-310 -81 0
-310 -370 0
-310 -293 0
-311 -326 0
-311 -321 0
-311 -256 0
-311 -172 0
-311 -294 0
-311 -246 0
-311 -299 0
-311 -375 0
-311 -169 0
-311 -306 0
-311 -198 0
-311 -410 0
-311 -278 0
-311 -274 0
-311 -155 0
-311 -53 0
-312 -291 0
-312 -266 0
-312 -166 0
-312 -185 0
-312 -150 0
-312 -388 0
-312 -254 0
-312 -139 0
-312 -283 0
-312 -15 0
-312 -45 0
-312 -174 0
-312 -416 0
-313 -419 0
-313 -365 0
-313 -266 0
-313 -387 0
-313 -180 0
-313 -293 0
-313 -277 0
-313 -273 0
-313 -194 0
-313 -262 0
-313 -42 0
-313 -243 0
-313 -47 0
-313 -158 0
-313 -26 0
-313 -256 0
-314 -452 0
-314 -398 0
-314 -365 0
-314 -297 0
-314 -287 0
-314 -242 0
-314 -292 0
-314 -179 0
-314 -246 0
-314 -250 0
-314 -279 0
-314 -214 0
-314 -190 0
-314 -406 0
-315 -5 0
-315 -323 0
-315 -360 0
-315 -309 0
-315 -329 0
-315 -269 0
-315 -220 0
-315 -500 0
-315 -187 0
-315 -284 0
-315 -244 0
-315 -279 0
-315 -346 0
-315 -365 0
-315 -443 0
-315 -338 0
-315 -184 0
-315 -140 0
-315 -407 0
-315 -453 0
-315 -325 0
-316 -420 0
-316 -287 0
-316 -108 0
-316 -276 0
-316 -198 0
-316 -313 0
-316 -293 0
-316 -443 0
-316 -176 0
-316 -180 0
-316 -221 0
-316 -190 0
-316 -255 0
-316 -37 0
-317 -166 0
-317 -286 0
-317 -493 0
-317 -278 0
-317 -498 0
-317 -244 0
-317 -218 0
-317 -253 0
-317 -378 0
-317 -191 0
-317 -256 0
-317 -183 0
-317 -313 0
-317 -289 0
-317 -168 0
-318 -491 0
-318 -231 0
-318 -500 0
-318 -310 0
-318 -162 0
-318 -327 0
-318 -451 0
-318 -82 0
-318 -325 0
-318 -174 0
-318 -241 0
-318 -253 0
-318 -275 0
-318 -207 0
-319 -315 0
-319 -257 0
-319 -254 0
-319 -272 0
-319 -166 0
-319 -246 0
-319 -413 0
-319 -217 0
-319 -214 0
-319 -107 0
-319 -181 0
-319 -401 0
-319 -297 0
-319 -193 0
-320 -329 0
-320 -262 0
-320 -247 0
-320 -228 0
-320 -167 0
-320 -325 0
-320 -186 0
-320 -273 0
-320 -192 0
-320 -6 0
-320 -190 0
-321 -275 0
-321 -331 0
-321 -326 0
-321 -263 0
-321 -274 0
-321 -495 0
-321 -496 0
-321 -172 0
-321 -87 0
-321 -171 0
-321 -181 0
-321 -256 0
-321 -465 0
-321 -372 0
-321 -161 0
-322 -497 0
-322 -498 0
-322 -135 0
-322 -169 0
-322 -18 0
-322 -285 0
-322 -98 0
-322 -249 0
-322 -295 0
-322 -459 0
-322 -449 0
-322 -196 0
-322 -188 0
-322 -300 0
-322 -89 0
-322 -173 0
-322 -318 0
-322 -141 0
-322 -492 0
-322 -402 0
-322 -327 0
-322 -162 0
-323 -445 0
-323 -126 0
-323 -381 0
-323 -362 0
-323 -333 0
-323 -303 0
-323 -265 0
-323 -342 0
-323 -275 0
-323 -457 0
-323 -310 0
-323 -354 0
-323 -372 0
-323 -10 0
-323 -65 0
-323 -264 0
-324 -309 0
-324 -329 0
-324 -119 0
-324 -185 0
-324 -268 0
-324 -184 0
-324 -170 0
-324 -266 0
-324 -67 0
-324 -69 0
-324 -193 0
-324 -116 0
-324 -260 0
-324 -212 0
-324 -365 0
-324 -202 0
-324 -182 0
-324 -56 0
-324 -53 0
-325 -373 0
-325 -268 0
-325 -156 0
-325 -383 0
-325 -243 0
-325 -392 0
-325 -180 0
-325 -364 0
-325 -2 0
-325 -387 0
-325 -316 0
-326 -399 0
-326 -384 0
-326 -331 0
-326 -317 0
-326 -260 0
-326 -248 0
-326 -281 0
-326 -199 0
-326 -181 0
-326 -289 0
-326 -494 0
-326 -135 0
-326 -252 0
-326 -164 0
-326 -131 0
-326 -355 0
-326 -187 0
-326 -300 0
-327 -393 0
-327 -499 0
-327 -494 0
-327 -500 0
-327 -76 0
-327 -335 0
-327 -310 0
-327 -373 0
-327 -147 0
-327 -300 0
-327 -50 0
-327 -200 0
-327 -169 0
-327 -188 0
-327 -243 0
-327 -242 0
-327 -400 0
-328 -366 0
-328 -180 0
-328 -160 0
-328 -228 0
-328 -364 0
-328 -368 0
-328 -339 0
-328 -336 0
-328 -232 0
-328 -265 0
-328 -257 0
-328 -261 0
-328 -258 0
-328 -42 0
-328 -296 0
-328 -310 0
-328 -128 0
-328 -212 0
-328 -70 0
-329 -412 0
-329 -369 0
-329 -312 0
-329 -242 0
-329 -272 0
-329 -185 0
-329 -297 0
-329 -254 0
-329 -266 0
-329 -218 0
-329 -40 0
-329 -346 0
-329 -441 0
-329 -250 0
-329 -115 0
-329 -131 0
-329 -215 0
-329 -11 0
-330 -420 0
-330 -325 0
-330 -288 0
-330 -280 0
-330 -251 0
-330 -186 0
-330 -217 0
-330 -316 0
-330 -262 0
-330 -194 0
-330 -408 0
-330 -320 0
-330 -273 0
-330 -183 0
-330 -1 0
-330 -118 0
-330 -305 0
-330 -488 0
-331 -382 0
-331 -311 0
-331 -252 0
-331 -259 0
-331 -181 0
-331 -289 0
-331 -219 0
-331 -263 0
-331 -479 0
-331 -278 0
-331 -439 0
-331 -394 0
-331 -422 0
-332 -314 0
-332 -266 0
-332 -115 0
-332 -499 0
-332 -263 0
-332 -496 0
-332 -52 0
-332 -405 0
-332 -374 0
-332 -370 0
-332 -165 0
-332 -123 0
-332 -307 0
-332 -196 0
-332 -327 0
-332 -322 0
-332 -494 0
-332 -498 0
-332 -303 0
-332 -247 0
-333 -68 0
-333 -72 0
-333 -380 0
-333 -381 0
-333 -328 0
-333 -302 0
-333 -336 0
-333 -469 0
-333 -265 0
-333 -346 0
-333 -282 0
-333 -437 0
-333 -18 0
-333 -225 0
-333 -498 0
-333 -308 0
-333 -54 0
-334 -470 0
-334 -409 0
-334 -436 0
-334 -433 0
-334 -395 0
-334 -340 0
-334 -274 0
-334 -430 0
-334 -268 0
-334 -442 0
-334 -400 0
-334 -279 0
-334 -324 0
-334 -241 0
-334 -77 0
-334 -389 0
-334 -70 0
-334 -160 0
-335 -355 0
-335 -175 0
-335 -191 0
-335 -453 0
-335 -235 0
-335 -48 0
-335 -374 0
-335 -341 0
-335 -74 0
-335 -32 0
-335 -171 0
-335 -384 0
-335 -428 0
-335 -387 0
-336 -196 0
-336 -133 0
-336 -152 0
-336 -381 0
-336 -348 0
-336 -282 0
-336 -376 0
-336 -346 0
-336 -296 0
-336 -93 0
-336 -265 0
-336 -301 0
-336 -147 0
-336 -412 0
-336 -229 0
-337 -39 0
-337 -8 0
-337 -427 0
-337 -455 0
-337 -365 0
-337 -355 0
-337 -334 0
-337 -358 0
-337 -98 0
-337 -395 0
-337 -335 0
-337 -349 0
-337 -140 0
-338 -426 0
-338 -337 0
-338 -326 0
-338 -218 0
-338 -404 0
-338 -443 0
-338 -368 0
-338 -453 0
-338 -383 0
-338 -450 0
-338 -344 0
-338 -327 0
-338 -21 0
-338 -280 0
-338 -419 0
-338 -434 0
-339 -406 0
-339 -459 0
-339 -390 0
-339 -372 0
-339 -63 0
-339 -282 0
-339 -57 0
-339 -264 0
-339 -111 0
-339 -452 0
-339 -346 0
-339 -394 0
-339 -238 0
-339 -376 0
-340 -433 0
-340 -452 0
-340 -417 0
-340 -391 0
-340 -357 0
-340 -444 0
-340 -491 0
-340 -156 0
-340 -231 0
-340 -449 0
-340 -185 0
-340 -343 0
-340 -266 0
-340 -281 0
-340 -219 0
-340 -15 0
-341 -475 0
-341 -179 0
-341 -115 0
-341 -384 0
-341 -140 0
-341 -259 0
-341 -445 0
-341 -434 0
-341 -428 0
-341 -361 0
-341 -448 0
-341 -401 0
-341 -353 0
-341 -238 0
-341 -330 0
-341 -79 0
-342 -450 0
-342 -282 0
-342 -194 0
-342 -291 0
-342 -489 0
-342 -482 0
-342 -368 0
-342 -364 0
-342 -359 0
-342 -302 0
-342 -151 0
-342 -264 0
-342 -123 0
-342 -401 0
-342 -286 0
-342 -270 0
-343 -305 0
-343 -440 0
-343 -377 0
-343 -357 0
-343 -276 0
-343 -363 0
-343 -444 0
-343 -361 0
-343 -62 0
-343 -414 0
-343 -487 0
-343 -424 0
-343 -268 0
-344 -378 0
-344 -387 0
-344 -356 0
-344 -293 0
-344 -27 0
-344 -445 0
-344 -370 0
-344 -341 0
-344 -98 0
-344 -29 0
-344 -255 0
-345 -296 0
-345 -409 0
-345 -277 0
-345 -285 0
-345 -128 0
-345 -390 0
-345 -398 0
-345 -376 0
-345 -354 0
-345 -448 0
-345 -328 0
-345 -305 0
-345 -282 0
-345 -36 0
-345 -348 0
-345 -342 0
-345 -403 0
-345 -470 0
-346 -366 0
-346 -70 0
-346 -408 0
-346 -390 0
-346 -381 0
-346 -328 0
-346 -492 0
-346 -188 0
-346 -372 0
-346 -196 0
-346 -243 0
-347 -417 0
-347 -211 0
-347 -91 0
-347 -441 0
-347 -443 0
-347 -438 0
-347 -497 0
-347 -482 0
-347 -378 0
-347 -280 0
-347 -66 0
-347 -234 0
-347 -356 0
-347 -300 0
-347 -295 0
-347 -341 0
-347 -10 0
-348 -59 0
-348 -296 0
-348 -85 0
-348 -308 0
-348 -390 0
-348 -386 0
-348 -376 0
-348 -368 0
-348 -364 0
-348 -342 0
-348 -346 0
-348 -84 0
-348 -359 0
-348 -106 0
-348 -405 0
-348 -394 0
-349 -430 0
-349 -391 0
-349 -389 0
-349 -403 0
-349 -340 0
-349 -269 0
-349 -279 0
-349 -352 0
-349 -334 0
-349 -60 0
-349 -234 0
-349 -114 0
-349 -343 0
-349 -294 0
-349 -353 0
-349 -346 0
-349 -131 0
-349 -395 0
-349 -440 0
-349 -58 0
-350 -205 0
-350 -437 0
-350 -378 0
-350 -361 0
-350 -273 0
-350 -356 0
-350 -270 0
-350 -445 0
-350 -344 0
-350 -68 0
-350 -136 0
-350 -428 0
-350 -347 0
-350 -366 0
-350 -10 0
-351 -348 0
-351 -359 0
-351 -137 0
-351 -284 0
-351 -402 0
-351 -394 0
-351 -328 0
-351 -303 0
-351 -301 0
-351 -296 0
-351 -376 0
-351 -346 0
-351 -364 0
-351 -84 0
-351 -230 0
-351 -219 0
-351 -333 0
-351 -270 0
-351 -336 0
-352 -359 0
-352 -308 0
-352 -427 0
-352 -399 0
-352 -365 0
-352 -360 0
-352 -152 0
-352 -343 0
-352 -442 0
-352 -268 0
-352 -306 0
-352 -449 0
-352 -283 0
-352 -337 0
-352 -247 0
-352 -460 0
-352 -221 0
-352 -313 0
-352 -436 0
-352 -272 0
-352 -177 0
-353 -436 0
-353 -443 0
-353 -437 0
-353 -392 0
-353 -366 0
-353 -356 0
-353 -344 0
-353 -273 0
-353 -131 0
-353 -335 0
-353 -124 0
-353 -190 0
-353 -450 0
-353 -277 0
-353 -61 0
-353 -228 0
-353 -467 0
-354 -339 0
-354 -402 0
-354 -390 0
-354 -385 0
-354 -381 0
-354 -336 0
-354 -303 0
-354 -398 0
-354 -346 0
-354 -391 0
-354 -260 0
-354 -405 0
-355 -440 0
-355 -416 0
-355 -389 0
-355 -340 0
-355 -334 0
-355 -399 0
-355 -205 0
-355 -87 0
-355 -84 0
-355 -304 0
-355 -343 0
-356 -170 0
-356 -306 0
-356 -69 0
-356 -29 0
-356 -292 0
-356 -480 0
-356 -441 0
-356 -434 0
-356 -396 0
-356 -431 0
-356 -443 0
-356 -424 0
-356 -341 0
-356 -40 0
-357 -439 0
-357 -416 0
-357 -369 0
-357 -389 0
-357 -403 0
-357 -329 0
-357 -268 0
-357 -355 0
-357 -442 0
-357 -296 0
-357 -450 0
-357 -336 0
-357 -496 0
-357 -427 0
-357 -377 0
-357 -203 0
-357 -145 0
-357 -34 0
-358 -435 0
-358 -344 0
-358 -443 0
-358 -22 0
-358 -434 0
-358 -431 0
-358 -453 0
-358 -338 0
-358 -193 0
-358 -411 0
-358 -196 0
-358 -335 0
-358 -404 0
-359 -28 0
-359 -409 0
-359 -402 0
-359 -398 0
-359 -390 0
-359 -364 0
-359 -346 0
-359 -249 0
-359 -335 0
-359 -189 0
-359 -339 0
-359 -385 0
-359 -274 0
-359 -372 0
-359 -323 0
-360 -416 0
-360 -389 0
-360 -395 0
-360 -343 0
-360 -337 0
-360 -334 0
-360 -458 0
-360 -417 0
-360 -147 0
-360 -316 0
-360 -277 0
-360 -172 0
-360 -127 0
-361 -446 0
-361 -372 0
-361 -476 0
-361 -443 0
-361 -428 0
-361 -396 0
-361 -445 0
-361 -441 0
-361 -344 0
-361 -45 0
-361 -392 0
-361 -20 0
-362 -407 0
-362 -453 0
-362 -131 0
-362 -77 0
-362 -405 0
-362 -390 0
-362 -485 0
-362 -364 0
-362 -351 0
-362 -184 0
-362 -308 0
-362 -316 0
-362 -402 0
-362 -13 0
-363 -420 0
-363 -427 0
-363 -455 0
-363 -416 0
-363 -377 0
-363 -334 0
-363 -287 0
-363 -58 0
-363 -360 0
-363 -186 0
-363 -466 0
-363 -163 0
-363 -59 0
-363 -124 0
-364 -409 0
-364 -354 0
-364 -345 0
-364 -339 0
-364 -274 0
-364 -372 0
-364 -395 0
-364 -227 0
-364 -153 0
-364 -413 0
-365 -416 0
-365 -412 0
-365 -399 0
-365 -377 0
-365 -369 0
-365 -355 0
-365 -343 0
-365 -266 0
-365 -319 0
-365 -268 0
-365 -379 0
-365 -259 0
-365 -201 0
-365 -349 0
-365 -434 0
-366 -342 0
-366 -469 0
-366 -297 0
-366 -104 0
-366 -492 0
-366 -404 0
-366 -330 0
-366 -251 0
-366 -247 0
-366 -277 0
-366 -273 0
-366 -28 0
-366 -101 0
-366 -356 0
-366 -270 0
-366 -140 0
-366 -25 0
-366 -490 0
-367 -393 0
-367 -311 0
-367 -248 0
-367 -175 0
-367 -256 0
-367 -100 0
-367 -67 0
-367 -9 0
-367 -5 0
-367 -274 0
-367 -392 0
-367 -2 0
-368 -46 0
-368 -105 0
-368 -381 0
-368 -19 0
-368 -314 0
-368 -489 0
-368 -394 0
-368 -380 0
-368 -488 0
-368 -369 0
-368 -409 0
-368 -333 0
-368 -354 0
-368 -398 0
-368 -336 0
-368 -239 0
-369 -389 0
-369 -395 0
-369 -349 0
-369 -343 0
-369 -334 0
-369 -242 0
-369 -279 0
-369 -207 0
-369 -197 0
-369 -52 0
-369 -282 0
-369 -166 0
-369 -314 0
-369 -273 0
-369 -129 0
-369 -50 0
-369 -59 0
-369 -291 0
-370 -425 0
-370 -343 0
-370 -184 0
-370 -445 0
-370 -396 0
-370 -387 0
-370 -392 0
-370 -378 0
-370 -350 0
-370 -247 0
-370 -280 0
-370 -208 0
-370 -353 0
-370 -335 0
-370 -234 0
-370 -25 0
-370 -251 0
-370 -207 0
-371 -476 0
-371 -211 0
-371 -393 0
-371 -375 0
-371 -306 0
-371 -311 0
-371 -110 0
-371 -392 0
-371 -163 0
-371 -2 0
-371 -20 0
-371 -248 0
-371 -9 0
-371 -3 0
-372 -59 0
-372 -473 0
-372 -351 0
-372 -394 0
-372 -13 0
-372 -376 0
-372 -345 0
-372 -333 0
-372 -328 0
-372 -280 0
-372 -332 0
-372 -343 0
-372 -362 0
-372 -125 0
-372 -354 0
-372 -439 0
-372 -181 0
-373 -389 0
-373 -377 0
-373 -340 0
-373 -363 0
-373 -360 0
-373 -100 0
-373 -485 0
-373 -500 0
-373 -312 0
-373 -276 0
-373 -314 0
-373 -355 0
-373 -171 0
-373 -357 0
-373 -124 0
-373 -231 0
-374 -242 0
-374 -112 0
-374 -106 0
-374 -241 0
-374 -383 0
-374 -378 0
-374 -370 0
-374 -82 0
-374 -344 0
-374 -338 0
-374 -40 0
-374 -167 0
-374 -353 0
-374 -467 0
-374 -231 0
-374 -384 0
-374 -177 0
-374 -304 0
-374 -255 0
-374 -404 0
-374 -365 0
-375 -449 0
-375 -233 0
-375 -397 0
-375 -388 0
-375 -379 0
-375 -256 0
-375 -274 0
-375 -355 0
-375 -431 0
-375 -131 0
-375 -33 0
-375 -10 0
-376 -362 0
-376 -183 0
-376 -84 0
-376 -413 0
-376 -409 0
-376 -394 0
-376 -381 0
-376 -364 0
-376 -359 0
-376 -354 0
-376 -475 0
-376 -328 0
-376 -368 0
-376 -100 0
-376 -497 0
-376 -246 0
-376 -484 0
-377 -6 0
-377 -467 0
-377 -340 0
-377 -360 0
-377 -250 0
-377 -314 0
-377 -272 0
-377 -375 0
-377 -391 0
-377 -198 0
-377 -358 0
-377 -383 0
-377 -242 0
-377 -428 0
-377 -62 0
-377 -44 0
-377 -173 0
-377 -309 0
-378 -112 0
-378 -383 0
-378 -277 0
-378 -353 0
-378 -247 0
-378 -404 0
-378 -218 0
-378 -361 0
-378 -358 0
-378 -366 0
-378 -402 0
-378 -438 0
-378 -201 0
-378 -332 0
-379 -302 0
-379 -391 0
-379 -276 0
-379 -272 0
-379 -401 0
-379 -397 0
-379 -260 0
-379 -366 0
-379 -150 0
-379 -288 0
-379 -6 0
-379 -5 0
-379 -267 0
-379 -26 0
-379 -439 0
-379 -40 0
-379 -2 0
-379 -301 0
-380 -105 0
-380 -234 0
-380 -398 0
-380 -100 0
-380 -420 0
-380 -424 0
-380 -413 0
-380 -405 0
-380 -385 0
-380 -362 0
-380 -346 0
-380 -419 0
-380 -48 0
-380 -320 0
-380 -351 0
-380 -205 0
-380 -152 0
-380 -339 0
-381 -362 0
-381 -113 0
-381 -419 0
-381 -411 0
-381 -407 0
-381 -390 0
-381 -172 0
-381 -110 0
-381 -372 0
-381 -405 0
-381 -91 0
-381 -483 0
-381 -395 0
-381 -448 0
-381 -385 0
-382 -265 0
-382 -485 0
-382 -384 0
-382 -256 0
-382 -500 0
-382 -263 0
-382 -187 0
-382 -271 0
-382 -22 0
-382 -80 0
-382 -274 0
-382 -321 0
-382 -338 0
-382 -460 0
-382 -190 0
-382 -67 0
-382 -311 0
-382 -371 0
-382 -173 0
-382 -248 0
-382 -496 0
-382 -9 0
-382 -1 0
-382 -322 0
-382 -8 0
-383 -368 0
-383 -305 0
-383 -330 0
-383 -311 0
-383 -46 0
-383 -366 0
-383 -370 0
-383 -341 0
-383 -217 0
-383 -57 0
-383 -344 0
-383 -350 0
-383 -2 0
-384 -379 0
-384 -271 0
-384 -278 0
-384 -248 0
-384 -331 0
-384 -290 0
-384 -472 0
-384 -150 0
-384 -186 0
-384 -121 0
-384 -372 0
-384 -3 0
-384 -346 0
-384 -2 0
-384 -458 0
-385 -237 0
-385 -437 0
-385 -277 0
-385 -151 0
-385 -210 0
-385 -420 0
-385 -425 0
-385 -419 0
-385 -342 0
-385 -302 0
-385 -409 0
-385 -364 0
-385 -325 0
-385 -339 0
-385 -201 0
-385 -181 0
-385 -497 0
-385 -333 0
-386 -457 0
-386 -342 0
-386 -399 0
-386 -365 0
-386 -334 0
-386 -349 0
-386 -337 0
-386 -268 0
-386 -319 0
-386 -484 0
-386 -343 0
-386 -369 0
-386 -112 0
-386 -463 0
-386 -302 0
-386 -373 0
-386 -64 0
-386 -232 0
-386 -73 0
-386 -37 0
-387 -389 0
-387 -315 0
-387 -118 0
-387 -289 0
-387 -347 0
-387 -15 0
-387 -374 0
-387 -350 0
-387 -356 0
-387 -316 0
-387 -330 0
-387 -270 0
-387 -255 0
-387 -277 0
-387 -262 0
-387 -320 0
-387 -78 0
-387 -247 0
-387 -243 0
-387 -201 0
-387 -338 0
-388 -389 0
-388 -289 0
-388 -197 0
-388 -497 0
-388 -251 0
-388 -3 0
-388 -5 0
-388 -105 0
-388 -108 0
-388 -331 0
-388 -174 0
-388 -244 0
-388 -397 0
-388 -10 0
-388 -401 0
-388 -419 0
-388 -59 0
-388 -8 0
-389 -474 0
-389 -395 0
-389 -365 0
-389 -343 0
-389 -340 0
-389 -337 0
-389 -363 0
-389 -328 0
-389 -279 0
-389 -266 0
-389 -311 0
-389 -276 0
-389 -427 0
-389 -436 0
-389 -158 0
-389 -265 0
-389 -235 0
-389 -61 0
-389 -252 0
-390 -419 0
-390 -409 0
-390 -415 0
-390 -416 0
-390 -380 0
-390 -189 0
-390 -212 0
-390 -106 0
-390 -121 0
-390 -71 0
-390 -141 0
-390 -405 0
-390 -156 0
-390 -435 0
-391 -40 0
-391 -342 0
-391 -333 0
-391 -440 0
-391 -268 0
-391 -254 0
-391 -306 0
-391 -260 0
-391 -358 0
-391 -442 0
-391 -273 0
-391 -204 0
-391 -255 0
-391 -67 0
-391 -314 0
-391 -399 0
-391 -395 0
-392 -328 0
-392 -34 0
-392 -296 0
-392 -43 0
-392 -58 0
-392 -366 0
-392 -267 0
-392 -374 0
-392 -383 0
-392 -247 0
-392 -390 0
-392 -40 0
-392 -285 0
-393 -397 0
-393 -382 0
-393 -181 0
-393 -244 0
-393 -36 0
-393 -341 0
-393 -225 0
-393 -227 0
-393 -409 0
-393 -5 0
-393 -388 0
-393 -2 0
-394 -221 0
-394 -152 0
-394 -424 0
-394 -429 0
-394 -381 0
-394 -354 0
-394 -345 0
-394 -476 0
-394 -343 0
-394 -187 0
-394 -359 0
-394 -255 0
-394 -436 0
-394 -362 0
-394 -337 0
-395 -442 0
-395 -275 0
-395 -377 0
-395 -363 0
-395 -287 0
-395 -242 0
-395 -421 0
-395 -254 0
-395 -396 0
-395 -373 0
-395 -327 0
-395 -165 0
-395 -61 0
-395 -246 0
-396 -197 0
-396 -383 0
-396 -353 0
-396 -247 0
-396 -341 0
-396 -358 0
-396 -374 0
-396 -378 0
-396 -335 0
-396 -347 0
-396 -338 0
-396 -273 0
-396 -251 0
-396 -438 0
-396 -23 0
-396 -21 0
-396 -350 0
-397 -269 0
-397 -382 0
-397 -371 0
-397 -367 0
-397 -20 0
-397 -248 0
-397 -281 0
-397 -39 0
-397 -73 0
-397 -306 0
-397 -140 0
-397 -231 0
-397 -284 0
-397 -278 0
-397 -36 0
-397 -37 0
-397 -96 0
-397 -203 0
-398 -134 0
-398 -394 0
-398 -458 0
-398 -424 0
-398 -419 0
-398 -364 0
-398 -362 0
-398 -433 0
-398 -294 0
-398 -475 0
-398 -116 0
-398 -376 0
-398 -122 0
-398 -484 0
-398 -429 0
-398 -229 0
-398 -329 0
-398 -49 0
-398 -283 0
-398 -411 0
-398 -426 0
-399 -429 0
-399 -389 0
-399 -395 0
-399 -369 0
-399 -340 0
-399 -329 0
-399 -266 0
-399 -272 0
-399 -499 0
-399 -299 0
-399 -360 0
-399 -442 0
-399 -16 0
-400 -336 0
-400 -421 0
-400 -455 0
-400 -358 0
-400 -443 0
-400 -392 0
-400 -383 0
-400 -341 0
-400 -251 0
-400 -270 0
-400 -344 0
-400 -366 0
-400 -221 0
-400 -404 0
-400 -69 0
-400 -457 0
-400 -313 0
-400 -109 0
-400 -1 0
-401 -397 0
-401 -371 0
-401 -263 0
-401 -252 0
-401 -248 0
-401 -120 0
-401 -327 0
-401 -485 0
-401 -27 0
-401 -9 0
-402 -461 0
-402 -137 0
-402 -429 0
-402 -422 0
-402 -413 0
-402 -407 0
-402 -434 0
-402 -414 0
-402 -139 0
-402 -376 0
-402 -420 0
-402 -209 0
-402 -348 0
-402 -269 0
-403 -2 0
-403 -372 0
-403 -354 0
-403 -359 0
-403 -455 0
-403 -399 0
-403 -395 0
-403 -377 0
-403 -337 0
-403 -48 0
-403 -276 0
-403 -27 0
-403 -245 0
-403 -262 0
-403 -347 0
-403 -358 0
-403 -254 0
-403 -155 0
-403 -192 0
-403 -285 0
-403 -471 0
-403 -167 0
-404 -346 0
-404 -291 0
-404 -430 0
-404 -249 0
-404 -445 0
-404 -251 0
-404 -370 0
-404 -347 0
-404 -341 0
-404 -387 0
-404 -383 0
-404 -357 0
-404 -273 0
-404 -148 0
-404 -277 0
-404 -327 0
-405 -243 0
-405 -140 0
-405 -409 0
-405 -394 0
-405 -364 0
-405 -359 0
-405 -426 0
-405 -398 0
-405 -402 0
-405 -446 0
-405 -415 0
-405 -68 0
-405 -191 0
-405 -161 0
-406 -429 0
-406 -478 0
-406 -476 0
-406 -436 0
-406 -433 0
-406 -417 0
-406 -414 0
-406 -352 0
-406 -254 0
-406 -242 0
-406 -472 0
-406 -43 0
-406 -495 0
-406 -231 0
-406 -135 0
-406 -264 0
-406 -216 0
-406 -426 0
-406 -183 0
-406 -214 0
-406 -64 0
-406 -128 0
-407 -335 0
-407 -219 0
-407 -290 0
-407 -32 0
-407 -429 0
-407 -405 0
-407 -390 0
-407 -359 0
-407 -354 0
-407 -369 0
-407 -398 0
-407 -413 0
-407 -415 0
-407 -69 0
-407 -394 0
-407 -209 0
-407 -195 0
-408 -476 0
-408 -475 0
-408 -472 0
-408 -436 0
-408 -430 0
-408 -433 0
-408 -442 0
-408 -413 0
-408 -421 0
-408 -235 0
-408 -123 0
-408 -80 0
-408 -455 0
-408 -44 0
-408 -48 0
-408 -62 0
-409 -441 0
-409 -240 0
-409 -10 0
-409 -257 0
-409 -439 0
-409 -425 0
-409 -422 0
-409 -419 0
-409 -381 0
-409 -478 0
-409 -380 0
-409 -232 0
-409 -447 0
-409 -354 0
-409 -358 0
-409 -411 0
-409 -398 0
-409 -58 0
-409 -410 0
-410 -337 0
-410 -17 0
-410 -293 0
-410 -477 0
-410 -269 0
-410 -68 0
-411 -184 0
-411 -432 0
-411 -435 0
-411 -380 0
-411 -385 0
-411 -422 0
-411 -183 0
-411 -447 0
-411 -263 0
-411 -394 0
-411 -498 0
-412 -475 0
-412 -433 0
-412 -414 0
-412 -55 0
-412 -141 0
-412 -237 0
-412 -436 0
-412 -427 0
-412 -113 0
-412 -406 0
-412 -410 0
-412 -479 0
-412 -458 0
-413 -446 0
-413 -426 0
-413 -91 0
-413 -435 0
-413 -113 0
-413 -336 0
-413 -409 0
-413 -198 0
-413 -308 0
-413 -197 0
-413 -177 0
-414 -489 0
-414 -340 0
-414 -166 0
-414 -180 0
-414 -460 0
-414 -449 0
-414 -452 0
-414 -487 0
-414 -421 0
-414 -142 0
-415 -138 0
-415 -370 0
-415 -447 0
-415 -137 0
-415 -60 0
-415 -439 0
-415 -432 0
-415 -426 0
-415 -394 0
-415 -381 0
-415 -140 0
-415 -268 0
-415 -315 0
-415 -368 0
-415 -7 0
-415 -413 0
-415 -408 0
-416 -477 0
-416 -471 0
-416 -351 0
-416 -427 0
-416 -315 0
-416 -472 0
-416 -492 0
-416 -444 0
-416 -56 0
-416 -325 0
-416 -430 0
-416 -158 0
-416 -103 0
-416 -36 0
-416 -423 0
-416 -81 0
-417 -407 0
-417 -475 0
-417 -474 0
-417 -449 0
-417 -184 0
-417 -314 0
-417 -384 0
-417 -18 0
-417 -317 0
-417 -436 0
-417 -423 0
-417 -14 0
-417 -404 0
-418 -451 0
-418 -479 0
-418 -469 0
-418 -455 0
-418 -421 0
-418 -410 0
-418 -266 0
-418 -357 0
-418 -476 0
-418 -449 0
-418 -117 0
-418 -363 0
-418 -216 0
-418 -412 0
-418 -290 0
-418 -433 0
-419 -320 0
-419 -267 0
-419 -408 0
-419 -448 0
-419 -456 0
-419 -429 0
-419 -420 0
-419 -415 0
-419 -407 0
-419 -376 0
-419 -425 0
-419 -386 0
-419 -458 0
-419 -203 0
-419 -479 0
-420 -424 0
-420 -374 0
-420 -390 0
-420 -426 0
-420 -411 0
-420 -381 0
-420 -323 0
-420 -407 0
-420 -219 0
-420 -60 0
-420 -97 0
-420 -257 0
-420 -62 0
-420 -107 0
-420 -87 0
-421 -413 0
-421 -477 0
-421 -475 0
-421 -436 0
-421 -449 0
-421 -423 0
-421 -365 0
-421 -441 0
-421 -285 0
-421 -430 0
-421 -99 0
-421 -433 0
-421 -199 0
-422 -480 0
-422 -405 0
-422 -186 0
-422 -42 0
-422 -446 0
-422 -464 0
-422 -372 0
-422 -380 0
-422 -381 0
-422 -376 0
-422 -355 0
-422 -123 0
-422 -390 0
-422 -404 0
-422 -207 0
-422 -153 0
-422 -129 0
-423 -476 0
-423 -477 0
-423 -485 0
-423 -430 0
-423 -296 0
-423 -408 0
-423 -406 0
-423 -412 0
-423 -418 0
-423 -181 0
-423 -150 0
-423 -346 0
-423 -141 0
-423 -410 0
-423 -436 0
-423 -37 0
-424 -140 0
-424 -456 0
-424 -463 0
-424 -461 0
-424 -405 0
-424 -485 0
-424 -385 0
-424 -377 0
-424 -11 0
-424 -269 0
-424 -321 0
-424 -457 0
-424 -37 0
-424 -60 0
-425 -456 0
-425 -267 0
-425 -243 0
-425 -57 0
-425 -118 0
-425 -451 0
-425 -411 0
-425 -381 0
-425 -457 0
-425 -426 0
-425 -309 0
-425 -390 0
-425 -264 0
-426 -451 0
-426 -325 0
-426 -463 0
-426 -446 0
-426 -429 0
-426 -390 0
-426 -422 0
-426 -76 0
-426 -324 0
-426 -349 0
-426 -495 0
-426 -308 0
-426 -447 0
-426 -78 0
-426 -23 0
-427 -372 0
-427 -418 0
-427 -403 0
-427 -399 0
-427 -340 0
-427 -334 0
-427 -421 0
-427 -497 0
-427 -202 0
-427 -436 0
-427 -313 0
-427 -85 0
-427 -455 0
-427 -410 0
-427 -360 0
-428 -225 0
-428 -13 0
-428 -404 0
-428 -18 0
-428 -363 0
-428 -338 0
-428 -358 0
-428 -176 0
-428 -11 0
-428 -452 0
-428 -20 0
-428 -344 0
-428 -131 0
-428 -306 0
-429 -109 0
-429 -133 0
-429 -460 0
-429 -456 0
-429 -439 0
-429 -411 0
-429 -385 0
-429 -365 0
-429 -422 0
-429 -97 0
-429 -76 0
-429 -145 0
-429 -124 0
-429 -297 0
-429 -244 0
-429 -15 0
-429 -78 0
-430 -444 0
-430 -442 0
-430 -427 0
-430 -410 0
-430 -389 0
-430 -403 0
-430 -449 0
-430 -455 0
-430 -498 0
-430 -129 0
-430 -494 0
-430 -433 0
-430 -491 0
-430 -418 0
-430 -400 0
-430 -440 0
-430 -113 0
-430 -308 0
-431 -175 0
-431 -371 0
-431 -397 0
-431 -494 0
-431 -451 0
-431 -453 0
-431 -428 0
-431 -404 0
-431 -288 0
-431 -140 0
-431 -350 0
-431 -121 0
-431 -335 0
-432 -356 0
-432 -419 0
-432 -322 0
-432 -479 0
-432 -459 0
-432 -458 0
-432 -448 0
-432 -409 0
-432 -426 0
-432 -346 0
-432 -439 0
-432 -425 0
-432 -349 0
-432 -271 0
-432 -405 0
-432 -132 0
-432 -462 0
-433 -9 0
-433 -475 0
-433 -440 0
-433 -416 0
-433 -355 0
-433 -349 0
-433 -177 0
-433 -288 0
-433 -357 0
-433 -438 0
-433 -60 0
-433 -300 0
-433 -200 0
-433 -410 0
-433 -337 0
-433 -206 0
-434 -272 0
-434 -326 0
-434 -129 0
-434 -17 0
-434 -250 0
-434 -344 0
-434 -347 0
-434 -22 0
-434 -151 0
-434 -87 0
-434 -29 0
-434 -85 0
-434 -219 0
-434 -489 0
-434 -428 0
-434 -89 0
-434 -361 0
-435 -402 0
-435 -182 0
-435 -448 0
-435 -446 0
-435 -426 0
-435 -425 0
-435 -436 0
-435 -29 0
-435 -276 0
-435 -458 0
-435 -405 0
-435 -353 0
-435 -498 0
-435 -250 0
-435 -193 0
-435 -422 0
-436 -483 0
-436 -476 0
-436 -479 0
-436 -444 0
-436 -414 0
-436 -399 0
-436 -343 0
-436 -357 0
-436 -187 0
-436 -113 0
-436 -340 0
-436 -152 0
-436 -285 0
-437 -405 0
-437 -127 0
-437 -495 0
-437 -369 0
-437 -18 0
-437 -89 0
-437 -443 0
-437 -434 0
-437 -431 0
-437 -428 0
-437 -356 0
-437 -338 0
-437 -20 0
-437 -392 0
-437 -11 0
-438 -458 0
-438 -476 0
-438 -229 0
-438 -20 0
-438 -29 0
-438 -92 0
-438 -434 0
-438 -392 0
-438 -335 0
-438 -318 0
-438 -338 0
-438 -374 0
-438 -12 0
-438 -441 0
-438 -356 0
-438 -361 0
-438 -404 0
-438 -19 0
-438 -431 0
-439 -450 0
-439 -306 0
-439 -280 0
-439 -208 0
-439 -219 0
-439 -35 0
-439 -456 0
-439 -448 0
-439 -422 0
-439 -411 0
-439 -407 0
-439 -419 0
-439 -312 0
-439 -426 0
-439 -398 0
-440 -442 0
-440 -418 0
-440 -395 0
-440 -399 0
-440 -334 0
-440 -357 0
-440 -417 0
-440 -449 0
-440 -192 0
-440 -277 0
-440 -452 0
-440 -166 0
-440 -50 0
-441 -460 0
-441 -446 0
-441 -345 0
-441 -416 0
-441 -319 0
-441 -284 0
-441 -60 0
-441 -487 0
-441 -428 0
-441 -437 0
-441 -431 0
-441 -400 0
-441 -344 0
-441 -353 0
-441 -375 0
-441 -425 0
-441 -405 0
-441 -394 0
-442 -427 0
-442 -436 0
-442 -406 0
-442 -349 0
-442 -416 0
-442 -49 0
-442 -414 0
-442 -268 0
-442 -412 0
-442 -219 0
-442 -162 0
-442 -464 0
-442 -51 0
-443 -460 0
-443 -442 0
-443 -324 0
-443 -18 0
-443 -434 0
-443 -438 0
-443 -404 0
-443 -341 0
-443 -352 0
-443 -22 0
-443 -344 0
-443 -4 0
-443 -175 0
-443 -292 0
-443 -336 0
-444 -5 0
-444 -440 0
-444 -412 0
-444 -337 0
-444 -244 0
-444 -499 0
-444 -418 0
-444 -211 0
-444 -350 0
-444 -395 0
-444 -233 0
-444 -482 0
-444 -417 0
-444 -174 0
-445 -11 0
-445 -24 0
-445 -453 0
-445 -358 0
-445 -29 0
-445 -434 0
-445 -192 0
-445 -396 0
-445 -310 0
-445 -110 0
-445 -161 0
-445 -441 0
-445 -335 0
-445 -232 0
-445 -149 0
-446 -458 0
-446 -439 0
-446 -462 0
-446 -461 0
-446 -457 0
-446 -447 0
-446 -432 0
-446 -420 0
-446 -425 0
-446 -471 0
-446 -364 0
-446 -411 0
-446 -34 0
-446 -118 0
-446 -429 0
-446 -424 0
-446 -29 0
-446 -451 0
-446 -470 0
-447 -462 0
-447 -277 0
-447 -457 0
-447 -460 0
-447 -390 0
-447 -380 0
-447 -422 0
-447 -92 0
-447 -435 0
-447 -434 0
-447 -90 0
-447 -425 0
-447 -405 0
-447 -432 0
-447 -467 0
-448 -471 0
-448 -354 0
-448 -88 0
-448 -425 0
-448 -424 0
-448 -413 0
-448 -105 0
-448 -249 0
-448 -24 0
-448 -206 0
-448 -470 0
-448 -446 0
-448 -307 0
-448 -156 0
-449 -416 0
-449 -410 0
-449 -406 0
-449 -423 0
-449 -487 0
-449 -225 0
-449 -363 0
-449 -132 0
-449 -360 0
-449 -447 0
-449 -408 0
-449 -112 0
-449 -412 0
-449 -369 0
-449 -222 0
-449 -321 0
-450 -351 0
-450 -377 0
-450 -319 0
-450 -27 0
-450 -339 0
-450 -135 0
-450 -29 0
-450 -85 0
-450 -443 0
-450 -434 0
-450 -78 0
-450 -358 0
-450 -94 0
-450 -344 0
-450 -208 0
-450 -76 0
-450 -257 0
-450 -64 0
-450 -428 0
-451 -270 0
-451 -330 0
-451 -325 0
-451 -447 0
-451 -419 0
-451 -411 0
-451 -398 0
-451 -492 0
-451 -455 0
-451 -59 0
-451 -422 0
-451 -319 0
-451 -424 0
-451 -357 0
-451 -466 0
-451 -151 0
-452 -380 0
-452 -418 0
-452 -410 0
-452 -455 0
-452 -225 0
-452 -436 0
-452 -427 0
-452 -437 0
-452 -320 0
-452 -416 0
-452 -260 0
-452 -442 0
-452 -477 0
-452 -417 0
-452 -116 0
-453 -454 0
-453 -420 0
-453 -340 0
-453 -13 0
-453 -80 0
-453 -437 0
-453 -195 0
-453 -344 0
-453 -361 0
-453 -356 0
-453 -473 0
-453 -55 0
-453 -40 0
-453 -166 0
-453 -371 0
-453 -228 0
-453 -27 0
-453 -490 0
-453 -428 0
-454 -413 0
-454 -481 0
-454 -462 0
-454 -451 0
-454 -448 0
-454 -432 0
-454 -336 0
-454 -456 0
-454 -384 0
-454 -470 0
-454 -53 0
-454 -424 0
-454 -128 0
-454 -205 0
-454 -178 0
-454 -446 0
-454 -84 0
-455 -449 0
-455 -440 0
-455 -416 0
-455 -410 0
-455 -423 0
-455 -393 0
-455 -412 0
-455 -274 0
-455 -414 0
-455 -332 0
-455 -421 0
-455 -475 0
-455 -204 0
-455 -188 0
-455 -360 0
-456 -75 0
-456 -461 0
-456 -83 0
-456 -451 0
-456 -447 0
-456 -477 0
-456 -485 0
-456 -303 0
-456 -241 0
-456 -470 0
-456 -426 0
-456 -442 0
-456 -458 0
-456 -242 0
-456 -465 0
-456 -467 0
-456 -370 0
-456 -413 0
-456 -150 0
-456 -479 0
-457 -149 0
-457 -37 0
-457 -480 0
-457 -470 0
-457 -459 0
-457 -456 0
-457 -454 0
-457 -448 0
-457 -439 0
-457 -435 0
-457 -290 0
-457 -482 0
-457 -342 0
-457 -422 0
-457 -473 0
-457 -311 0
-457 -463 0
-458 -483 0
-458 -460 0
-458 -451 0
-458 -358 0
-458 -173 0
-458 -467 0
-458 -119 0
-458 -454 0
-458 -448 0
-458 -420 0
-458 -349 0
-458 -275 0
-458 -473 0
-458 -447 0
-458 -24 0
-458 -234 0
-458 -425 0
-459 -482 0
-459 -463 0
-459 -460 0
-459 -456 0
-459 -446 0
-459 -439 0
-459 -429 0
-459 -425 0
-459 -88 0
-459 -291 0
-459 -461 0
-459 -481 0
-459 -4 0
-459 -404 0
-459 -95 0
-459 -141 0
-460 -462 0
-460 -448 0
-460 -424 0
-460 -470 0
-460 -457 0
-460 -425 0
-460 -420 0
-460 -305 0
-460 -481 0
-460 -465 0
-460 -170 0
-460 -483 0
-460 -466 0
-460 -91 0
-461 -439 0
-461 -45 0
-461 -482 0
-461 -480 0
-461 -467 0
-461 -457 0
-461 -299 0
-461 -261 0
-461 -202 0
-461 -290 0
-461 -466 0
-461 -322 0
-461 -309 0
-462 -481 0
-462 -467 0
-462 -122 0
-462 -283 0
-462 -488 0
-462 -483 0
-462 -277 0
-462 -457 0
-462 -448 0
-462 -422 0
-462 -479 0
-462 -124 0
-462 -486 0
-462 -451 0
-462 -117 0
-462 -459 0
-463 -473 0
-463 -480 0
-463 -221 0
-463 -483 0
-463 -481 0
-463 -466 0
-463 -456 0
-463 -359 0
-463 -37 0
-463 -421 0
-463 -447 0
-463 -451 0
-463 -281 0
-463 -172 0
-463 -306 0
-464 -489 0
-464 -490 0
-464 -466 0
-464 -463 0
-464 -462 0
-464 -461 0
-464 -457 0
-464 -460 0
-464 -257 0
-464 -448 0
-464 -447 0
-464 -7 0
-464 -419 0
-464 -139 0
-464 -415 0
-464 -446 0
-464 -470 0
-464 -423 0
-464 -465 0
-464 -151 0
-465 -490 0
-465 -459 0
-465 -461 0
-465 -500 0
-465 -101 0
-465 -470 0
-465 -448 0
-465 -447 0
-465 -457 0
-465 -431 0
-465 -401 0
-465 -216 0
-465 -480 0
-465 -488 0
-465 -71 0
-466 -263 0
-466 -35 0
-466 -486 0
-466 -462 0
-466 -457 0
-466 -456 0
-466 -458 0
-466 -454 0
-466 -485 0
-466 -349 0
-466 -448 0
-466 -309 0
-466 -258 0
-466 -119 0
-466 -249 0
-466 -343 0
-466 -488 0
-466 -316 0
-467 -484 0
-467 -483 0
-467 -482 0
-467 -298 0
-467 -466 0
-467 -459 0
-467 -460 0
-467 -439 0
-467 -323 0
-467 -229 0
-467 -119 0
-467 -225 0
-467 -44 0
-467 -165 0
-467 -437 0
-467 -326 0
-468 -458 0
-468 -304 0
-468 -4 0
-468 -489 0
-468 -488 0
-468 -462 0
-468 -457 0
-468 -456 0
-468 -62 0
-468 -323 0
-468 -467 0
-468 -461 0
-468 -279 0
-468 -179 0
-468 -297 0
-468 -100 0
-468 -411 0
-468 -451 0
-468 -119 0
-468 -484 0
-468 -400 0
-468 -163 0
-469 -479 0
-469 -348 0
-469 -360 0
-469 -471 0
-469 -478 0
-469 -250 0
-469 -392 0
-469 -181 0
-469 -183 0
-469 -423 0
-469 -149 0
-469 -485 0
-469 -54 0
-469 -325 0
-469 -350 0
-470 -128 0
-470 -101 0
-470 -210 0
-470 -30 0
-470 -488 0
-470 -482 0
-470 -466 0
-470 -405 0
-470 -376 0
-470 -451 0
-470 -490 0
-470 -369 0
-470 -74 0
-470 -268 0
-470 -15 0
-470 -467 0
-470 -462 0
-470 -432 0
-471 -412 0
-471 -423 0
-471 -414 0
-471 -265 0
-471 -474 0
-471 -428 0
-471 -417 0
-471 -50 0
-471 -167 0
-471 -68 0
-471 -48 0
-471 -54 0
-471 -168 0
-471 -96 0
-471 -406 0
-471 -410 0
-471 -160 0
-472 -475 0
-472 -469 0
-472 -417 0
-472 -246 0
-472 -389 0
-472 -252 0
-472 -418 0
-472 -172 0
-472 -412 0
-472 -238 0
-472 -48 0
-472 -45 0
-472 -62 0
-472 -410 0
-472 -397 0
-472 -65 0
-473 -361 0
-473 -404 0
-473 -107 0
-473 -25 0
-473 -465 0
-473 -461 0
-473 -460 0
-473 -478 0
-473 -467 0
-473 -229 0
-473 -466 0
-473 -104 0
-473 -119 0
-473 -384 0
-474 -442 0
-474 -408 0
-474 -166 0
-474 -68 0
-474 -263 0
-474 -54 0
-474 -195 0
-474 -431 0
-474 -1 0
-474 -232 0
-474 -477 0
-474 -51 0
-474 -45 0
-474 -93 0
-474 -272 0
-474 -61 0
-474 -165 0
-475 -452 0
-475 -423 0
-475 -406 0
-475 -414 0
-475 -416 0
-475 -271 0
-475 -187 0
-475 -499 0
-475 -80 0
-475 -196 0
-475 -474 0
-475 -262 0
-475 -469 0
-475 -245 0
-475 -218 0
-475 -118 0
-475 -42 0
-476 -478 0
-476 -477 0
-476 -474 0
-476 -351 0
-476 -305 0
-476 -449 0
-476 -414 0
-476 -199 0
-476 -410 0
-476 -421 0
-476 -341 0
-476 -366 0
-476 -42 0
-476 -452 0
-476 -157 0
-476 -65 0
-477 -376 0
-477 -418 0
-477 -414 0
-477 -340 0
-477 -54 0
-477 -183 0
-477 -57 0
-477 -370 0
-477 -38 0
-477 -45 0
-477 -230 0
-477 -412 0
-477 -217 0
-477 -471 0
-477 -232 0
-477 -325 0
-477 -226 0
-478 -475 0
-478 -471 0
-478 -412 0
-478 -410 0
-478 -418 0
-478 -414 0
-478 -349 0
-478 -416 0
-478 -195 0
-478 -495 0
-478 -343 0
-478 -455 0
-478 -42 0
-478 -102 0
-478 -111 0
-478 -12 0
-479 -478 0
-479 -423 0
-479 -421 0
-479 -373 0
-479 -474 0
-479 -68 0
-479 -185 0
-479 -297 0
-479 -475 0
-479 -458 0
-479 -325 0
-479 -408 0
-479 -417 0
-479 -78 0
-479 -65 0
-479 -124 0
-479 -459 0
-479 -62 0
-479 -44 0
-479 -428 0
-480 -464 0
-480 -137 0
-480 -459 0
-480 -178 0
-480 -482 0
-480 -486 0
-480 -483 0
-480 -473 0
-480 -332 0
-480 -119 0
-480 -189 0
-480 -23 0
-480 -410 0
-480 -183 0
-480 -371 0
-480 -271 0
-480 -433 0
-480 -498 0
-480 -254 0
-480 -253 0
-480 -22 0
-481 -210 0
-481 -488 0
-481 -480 0
-481 -483 0
-481 -458 0
-481 -471 0
-481 -401 0
-481 -352 0
-481 -104 0
-481 -465 0
-481 -494 0
-481 -422 0
-481 -214 0
-481 -123 0
-481 -71 0
-482 -462 0
-482 -435 0
-482 -489 0
-482 -460 0
-482 -234 0
-482 -104 0
-482 -119 0
-482 -100 0
-482 -97 0
-482 -123 0
-482 -463 0
-483 -471 0
-483 -465 0
-483 -489 0
-483 -109 0
-483 -459 0
-483 -455 0
-483 -115 0
-483 -123 0
-483 -108 0
-483 -223 0
-483 -112 0
-483 -482 0
-483 -17 0
-483 -433 0
-484 -483 0
-484 -378 0
-484 -405 0
-484 -489 0
-484 -490 0
-484 -480 0
-484 -461 0
-484 -420 0
-484 -351 0
-484 -345 0
-484 -255 0
-484 -24 0
-484 -168 0
-484 -207 0
-484 -452 0
-484 -326 0
-484 -159 0
-485 -364 0
-485 -476 0
-485 -433 0
-485 -264 0
-485 -421 0
-485 -418 0
-485 -375 0
-485 -397 0
-485 -168 0
-485 -437 0
-485 -22 0
-485 -400 0
-485 -178 0
-485 -38 0
-485 -45 0
-485 -169 0
-485 -419 0
-485 -300 0
-485 -96 0
-485 -61 0
-485 -140 0
-486 -481 0
-486 -136 0
-486 -490 0
-486 -473 0
-486 -470 0
-486 -461 0
-486 -285 0
-486 -287 0
-486 -100 0
-486 -440 0
-486 -99 0
-486 -498 0
-486 -464 0
-486 -199 0
-486 -393 0
-486 -97 0
-486 -193 0
-486 -20 0
-487 -108 0
-487 -482 0
-487 -148 0
-487 -468 0
-487 -465 0
-487 -334 0
-487 -168 0
-487 -294 0
-487 -329 0
-487 -145 0
-487 -233 0
-487 -112 0
-487 -123 0
-487 -13 0
-487 -488 0
-487 -490 0
-488 -464 0
-488 -67 0
-488 -463 0
-488 -119 0
-488 -243 0
-488 -207 0
-488 -360 0
-488 -268 0
-488 -277 0
-488 -200 0
-488 -99 0
-488 -112 0
-488 -306 0
-488 -489 0
-489 -473 0
-489 -466 0
-489 -470 0
-489 -372 0
-489 -337 0
-489 -379 0
-489 -480 0
-489 -310 0
-489 -123 0
-489 -39 0
-489 -300 0
-489 -229 0
-489 -498 0
-490 -99 0
-490 -158 0
-490 -149 0
-490 -203 0
-490 -462 0
-490 -372 0
-490 -494 0
-490 -104 0
-490 -108 0
-490 -174 0
-490 -493 0
-490 -277 0
-490 -207 0
-491 -295 0
-491 -304 0
-491 -178 0
-491 -107 0
-491 -303 0
-491 -261 0
-491 -241 0
-491 -245 0
-491 -33 0
-491 -495 0
-491 -454 0
-491 -327 0
-491 -28 0
-491 -200 0
-491 -433 0
-491 -132 0
-491 -196 0
-491 -234 0
-491 -309 0
-491 -249 0
-492 -420 0
-492 -196 0
-492 -241 0
-492 -253 0
-492 -497 0
-492 -401 0
-492 -127 0
-492 -175 0
-492 -452 0
-492 -446 0
-492 -300 0
-492 -249 0
-492 -427 0
-492 -134 0
-493 -192 0
-493 -9 0
-493 -35 0
-493 -332 0
-493 -107 0
-493 -500 0
-493 -245 0
-493 -322 0
-493 -401 0
-493 -492 0
-493 -29 0
-493 -258 0
-493 -351 0
-493 -300 0
-493 -113 0
-493 -265 0
-493 -196 0
-494 -290 0
-494 -318 0
-494 -307 0
-494 -200 0
-494 -178 0
-494 -259 0
-494 -258 0
-494 -500 0
-494 -192 0
-494 -22 0
-494 -196 0
-494 -499 0
-494 -434 0
-495 -295 0
-495 -318 0
-495 -131 0
-495 -173 0
-495 -496 0
-495 -385 0
-495 -259 0
-495 -241 0
-495 -115 0
-495 -377 0
-495 -403 0
-495 -306 0
-495 -494 0
-495 -493 0
-495 -492 0
-495 -139 0
-495 -480 0
-495 -72 0
-495 -149 0
-496 -42 0
-496 -307 0
-496 -145 0
-496 -70 0
-496 -500 0
-496 -442 0
-496 -312 0
-496 -253 0
-496 -360 0
-496 -195 0
-496 -247 0
-496 -295 0
-497 -307 0
-497 -459 0
-497 -285 0
-497 -433 0
-497 -264 0
-497 -259 0
-497 -496 0
-497 -241 0
-497 -271 0
-497 -377 0
-497 -494 0
-497 -293 0
-497 -253 0
-498 -327 0
-498 -439 0
-498 -275 0
-498 -264 0
-498 -259 0
-498 -261 0
-498 -496 0
-498 -342 0
-498 -18 0
-498 -297 0
-498 -245 0
-498 -492 0
-498 -183 0
-498 -283 0
-498 -495 0
-499 -318 0
-499 -322 0
-499 -151 0
-499 -446 0
-499 -286 0
-499 -264 0
-499 -261 0
-499 -245 0
-499 -314 0
-499 -175 0
-499 -497 0
-499 -492 0
-499 -491 0
-499 -292 0
-499 -451 0
-499 -259 0
-499 -241 0
-499 -389 0
-500 -19 0
-500 -79 0
-500 -295 0
-500 -259 0
-500 -412 0
-500 -296 0
-500 -257 0
-500 -179 0
-500 -499 0
-500 -491 0
-500 -333 0
-500 -241 0
-500 -161 0
-500 -497 0
-500 -428 0
-500 -282 0
-500 -492 0
-501 -1 0
-502 -2 0
-503 -3 0
-504 -4 0
-505 -5 0
-506 -6 0
-507 -7 0
-508 -8 0
-509 -9 0
-510 -10 0
-511 -11 0
-512 -12 0
-513 -13 0
-514 -14 0
-515 -15 0
-516 -16 0
-517 -17 0
-518 -18 0
-519 -19 0
-520 -20 0
-521 -21 0
-522 -22 0
-523 -23 0
-524 -24 0
-525 -25 0
-526 -26 0
-527 -27 0
-528 -28 0
-529 -29 0
-530 -30 0
-531 -31 0
-532 -32 0
-533 -33 0
-534 -34 0
-535 -35 0
-536 -36 0
-537 -37 0
-538 -38 0
-539 -39 0
-540 -40 0
-541 -41 0
-542 -42 0
-543 -43 0
-544 -44 0
-545 -45 0
-546 -46 0
-547 -47 0
-548 -48 0
-549 -49 0
-550 -50 0
-551 -51 0
-552 -52 0
-553 -53 0
-554 -54 0
-555 -55 0
-556 -56 0
-557 -57 0
-558 -58 0
-559 -59 0
-560 -60 0
-561 -61 0
-562 -62 0
-563 -63 0
-564 -64 0
-565 -65 0
-566 -66 0
-567 -67 0
-568 -68 0
-569 -69 0
-570 -70 0
-571 -71 0
-572 -72 0
-573 -73 0
-574 -74 0
-575 -75 0
-576 -76 0
-577 -77 0
-578 -78 0
-579 -79 0
-580 -80 0
-581 -81 0
-582 -82 0
-583 -83 0
-584 -84 0
-585 -85 0
-586 -86 0
-587 -87 0
-588 -88 0
-589 -89 0
-590 -90 0
-591 -91 0
-592 -92 0
-593 -93 0
-594 -94 0
-595 -95 0
-596 -96 0
-597 -97 0
-598 -98 0
-599 -99 0
-600 -100 0
-601 -101 0
-602 -102 0
-603 -103 0
-604 -104 0
-605 -105 0
-606 -106 0
-607 -107 0
-608 -108 0
-609 -109 0
-610 -110 0
-611 -111 0
-612 -112 0
-613 -113 0
-614 -114 0
-615 -115 0
-616 -116 0
-617 -117 0
-618 -118 0
-619 -119 0
-620 -120 0
-621 -121 0
-622 -122 0
-623 -123 0
-624 -124 0
-625 -125 0
-626 -126 0
-627 -127 0
-628 -128 0
-629 -129 0
-630 -130 0
-631 -131 0
-632 -132 0
-633 -133 0
-634 -134 0
-635 -135 0
-636 -136 0
-637 -137 0
-638 -138 0
-639 -139 0
-640 -140 0
-641 -141 0
-642 -142 0
-643 -143 0
-644 -144 0
-645 -145 0
-646 -146 0
-647 -147 0
-648 -148 0
-649 -149 0
-650 -150 0
-651 -151 0
-652 -152 0
-653 -153 0
-654 -154 0
-655 -155 0
-656 -156 0
-657 -157 0
-658 -158 0
-659 -159 0
-660 -160 0
-661 -161 0
-662 -162 0
-663 -163 0
-664 -164 0
-665 -165 0
-666 -166 0
-667 -167 0
-668 -168 0
-669 -169 0
-670 -170 0
-671 -171 0
-672 -172 0
-673 -173 0
-674 -174 0
-675 -175 0
-676 -176 0
-677 -177 0
-678 -178 0
-679 -179 0
-680 -180 0
-681 -181 0
-682 -182 0
-683 -183 0
-684 -184 0
-685 -185 0
-686 -186 0
-687 -187 0
-688 -188 0
-689 -189 0
-690 -190 0
-691 -191 0
-692 -192 0
-693 -193 0
-694 -194 0
-695 -195 0
-696 -196 0
-697 -197 0
-698 -198 0
-699 -199 0
-700 -200 0
-701 -201 0
-702 -202 0
-703 -203 0
-704 -204 0
-705 -205 0
-706 -206 0
-707 -207 0
-708 -208 0
-709 -209 0
-710 -210 0
-711 -211 0
-712 -212 0
-713 -213 0
-714 -214 0
-715 -215 0
-716 -216 0
-717 -217 0
-718 -218 0
-719 -219 0
-720 -220 0
-721 -221 0
-722 -222 0
-723 -223 0
-724 -224 0
-725 -225 0
-726 -226 0
-727 -227 0
-728 -228 0
-729 -229 0
-730 -230 0
-731 -231 0
-732 -232 0
-733 -233 0
-734 -234 0
-735 -235 0
-736 -236 0
-737 -237 0
-738 -238 0
-739 -239 0
-740 -240 0
-741 -241 0
-742 -242 0
-743 -243 0
-744 -244 0
-745 -245 0
-746 -246 0
-747 -247 0
-748 -248 0
-749 -249 0
-750 -250 0
-751 -251 0
-752 -252 0
-753 -253 0
-754 -254 0
-755 -255 0
-756 -256 0
-757 -257 0
-758 -258 0
-759 -259 0
-760 -260 0
-761 -261 0
-762 -262 0
-763 -263 0
-764 -264 0
-765 -265 0
-766 -266 0
-767 -267 0
-768 -268 0
-769 -269 0
-770 -270 0
-771 -271 0
-772 -272 0
-773 -273 0
-774 -274 0
-775 -275 0
-776 -276 0
-777 -277 0
-778 -278 0
-779 -279 0
-780 -280 0
-781 -281 0
-782 -282 0
-783 -283 0
-784 -284 0
-785 -285 0
-786 -286 0
-787 -287 0
-788 -288 0
-789 -289 0
-790 -290 0
-791 -291 0
-792 -292 0
-793 -293 0
-794 -294 0
-795 -295 0
-796 -296 0
-797 -297 0
-798 -298 0
-799 -299 0
-800 -300 0
-801 -301 0
-802 -302 0
-803 -303 0
-804 -304 0
-805 -305 0
-806 -306 0
-807 -307 0
-808 -308 0
-809 -309 0
-810 -310 0
-811 -311 0
-812 -312 0
-813 -313 0
-814 -314 0
-815 -315 0
-816 -316 0
-817 -317 0
-818 -318 0
-819 -319 0
-820 -320 0
-821 -321 0
-822 -322 0
-823 -323 0
-824 -324 0
-825 -325 0
-826 -326 0
-827 -327 0
-828 -328 0
-829 -329 0
-830 -330 0
-831 -331 0
-832 -332 0
-833 -333 0
-834 -334 0
-835 -335 0
-836 -336 0
-837 -337 0
-838 -338 0
-839 -339 0
-840 -340 0
-841 -341 0
-842 -342 0
-843 -343 0
-844 -344 0
-845 -345 0
-846 -346 0
-847 -347 0
-848 -348 0
-849 -349 0
-850 -350 0
-851 -351 0
-852 -352 0
-853 -353 0
-854 -354 0
-855 -355 0
-856 -356 0
-857 -357 0
-858 -358 0
-859 -359 0
-860 -360 0
-861 -361 0
-862 -362 0
-863 -363 0
-864 -364 0
-865 -365 0
-866 -366 0
-867 -367 0
-868 -368 0
-869 -369 0
-870 -370 0
-871 -371 0
-872 -372 0
-873 -373 0
-874 -374 0
-875 -375 0
-876 -376 0
-877 -377 0
-878 -378 0
-879 -379 0
-880 -380 0
-881 -381 0
-882 -382 0
-883 -383 0
-884 -384 0
-885 -385 0
-886 -386 0
-887 -387 0
-888 -388 0
-889 -389 0
-890 -390 0
-891 -391 0
-892 -392 0
-893 -393 0
-894 -394 0
-895 -395 0
-896 -396 0
-897 -397 0
-898 -398 0
-899 -399 0
-900 -400 0
-901 -401 0
-902 -402 0
-903 -403 0
-904 -404 0
-905 -405 0
-906 -406 0
-907 -407 0
-908 -408 0
-909 -409 0
-910 -410 0
-911 -411 0
-912 -412 0
-913 -413 0
-914 -414 0
-915 -415 0
-916 -416 0
-917 -417 0
-918 -418 0
-919 -419 0
-920 -420 0
-921 -421 0
-922 -422 0
-923 -423 0
-924 -424 0
-925 -425 0
-926 -426 0
-927 -427 0
-928 -428 0
-929 -429 0
-930 -430 0
-931 -431 0
-932 -432 0
-933 -433 0
-934 -434 0
-935 -435 0
-936 -436 0
-937 -437 0
-938 -438 0
-939 -439 0
-940 -440 0
-941 -441 0
-942 -442 0
-943 -443 0
-944 -444 0
-945 -445 0
-946 -446 0
-947 -447 0
-948 -448 0
-949 -449 0
-950 -450 0
-951 -451 0
-952 -452 0
-953 -453 0
-954 -454 0
-955 -455 0
-956 -456 0
-957 -457 0
-958 -458 0
-959 -459 0
-960 -460 0
-961 -461 0
-962 -462 0
-963 -463 0
-964 -464 0
-965 -465 0
-966 -466 0
-967 -467 0
-968 -468 0
-969 -469 0
-970 -470 0
-971 -471 0
-972 -472 0
-973 -473 0
-974 -474 0
-975 -475 0
-976 -476 0
-977 -477 0
-978 -478 0
-979 -479 0
-980 -480 0
-981 -481 0
-982 -482 0
-983 -483 0
-984 -484 0
-985 -485 0
-986 -486 0
-987 -487 0
-988 -488 0
-989 -489 0
-990 -490 0
-991 -491 0
-992 -492 0
-993 -493 0
-994 -494 0
-995 -495 0
-996 -496 0
-997 -497 0
-998 -498 0
-999 -499 0
-1000 -500 0
501 -403 0
501 -309 0
501 -319 0
501 -97 0
501 -367 0
501 -401 0
501 -177 0
501 -152 0
501 -57 0
501 -201 0
501 -49 0
502 -135 0
502 -388 0
502 -26 0
502 -270 0
502 -401 0
502 -1 0
502 -28 0
502 -5 0
502 -31 0
502 -40 0
503 -386 0
503 -391 0
503 -97 0
503 -367 0
503 -393 0
503 -375 0
503 -164 0
503 -49 0
503 -430 0
503 -350 0
503 -90 0
503 -9 0
503 -459 0
503 -23 0
503 -447 0
503 -38 0
503 -37 0
503 -407 0
503 -31 0
503 -7 0
503 -2 0
504 -315 0
504 -211 0
504 -371 0
504 -416 0
504 -2 0
504 -381 0
504 -28 0
504 -236 0
504 -31 0
504 -33 0
504 -10 0
504 -9 0
504 -259 0
504 -34 0
504 -26 0
505 -397 0
505 -280 0
505 -171 0
505 -473 0
505 -363 0
505 -178 0
505 -1 0
505 -34 0
505 -40 0
505 -28 0
505 -7 0
505 -285 0
505 -401 0
505 -56 0
506 -242 0
506 -266 0
506 -256 0
506 -375 0
506 -397 0
506 -407 0
506 -123 0
506 -7 0
506 -360 0
506 -179 0
506 -423 0
506 -408 0
506 -271 0
506 -363 0
507 -371 0
507 -375 0
507 -367 0
507 -401 0
507 -306 0
507 -326 0
507 -214 0
507 -361 0
507 -366 0
507 -313 0
507 -126 0
507 -470 0
507 -422 0
507 -4 0
508 -397 0
508 -393 0
508 -289 0
508 -111 0
508 -375 0
508 -344 0
508 -465 0
508 -86 0
508 -137 0
508 -343 0
508 -358 0
508 -165 0
508 -423 0
508 -35 0
508 -32 0
508 -36 0
508 -38 0
508 -7 0
508 -3 0
508 -61 0
509 -237 0
509 -379 0
509 -495 0
509 -5 0
509 -40 0
509 -165 0
509 -442 0
509 -2 0
509 -164 0
509 -1 0
509 -8 0
509 -33 0
509 -247 0
509 -7 0
510 -340 0
510 -287 0
510 -382 0
510 -401 0
510 -235 0
510 -97 0
510 -281 0
510 -226 0
510 -288 0
510 -379 0
510 -40 0
510 -5 0
510 -9 0
510 -208 0
510 -35 0
510 -485 0
510 -367 0
510 -219 0
510 -143 0
511 -412 0
511 -337 0
511 -410 0
511 -212 0
511 -181 0
511 -82 0
511 -66 0
511 -443 0
511 -431 0
511 -396 0
511 -163 0
511 -364 0
511 -283 0
511 -313 0
511 -18 0
511 -22 0
511 -219 0
511 -419 0
511 -60 0
511 -32 0
511 -297 0
511 -27 0
511 -357 0
512 -314 0
512 -191 0
512 -356 0
512 -67 0
512 -109 0
512 -74 0
512 -408 0
512 -107 0
512 -81 0
512 -452 0
512 -250 0
512 -88 0
512 -64 0
512 -36 0
512 -25 0
512 -427 0
512 -77 0
512 -38 0
513 -271 0
513 -69 0
513 -49 0
513 -27 0
513 -17 0
513 -300 0
513 -375 0
513 -370 0
513 -198 0
513 -293 0
513 -431 0
513 -67 0
513 -20 0
513 -439 0
513 -420 0
514 -322 0
514 -180 0
514 -21 0
514 -32 0
514 -300 0
514 -107 0
514 -246 0
514 -72 0
514 -19 0
514 -90 0
514 -25 0
514 -424 0
514 -80 0
515 -22 0
515 -18 0
515 -17 0
515 -434 0
515 -431 0
515 -428 0
515 -78 0
515 -157 0
515 -27 0
515 -66 0
515 -377 0
515 -73 0
516 -108 0
516 -316 0
516 -454 0
516 -404 0
516 -41 0
516 -50 0
516 -34 0
516 -33 0
516 -31 0
516 -19 0
516 -239 0
516 -83 0
517 -63 0
517 -22 0
517 -169 0
517 -71 0
517 -52 0
517 -247 0
517 -437 0
517 -426 0
517 -459 0
517 -375 0
517 -103 0
517 -172 0
517 -450 0
517 -431 0
517 -86 0
517 -428 0
518 -220 0
518 -244 0
518 -95 0
518 -481 0
518 -441 0
518 -438 0
518 -356 0
518 -82 0
518 -78 0
518 -89 0
518 -344 0
518 -136 0
518 -473 0
518 -139 0
518 -192 0
518 -146 0
518 -358 0
518 -12 0
519 -237 0
519 -195 0
519 -60 0
519 -48 0
519 -39 0
519 -5 0
519 -72 0
519 -79 0
519 -32 0
519 -86 0
519 -53 0
519 -40 0
519 -34 0
519 -12 0
519 -23 0
519 -21 0
519 -90 0
519 -4 0
519 -26 0
520 -362 0
520 -442 0
520 -309 0
520 -115 0
520 -73 0
520 -445 0
520 -230 0
520 -152 0
520 -441 0
520 -87 0
520 -11 0
520 -450 0
520 -22 0
521 -16 0
521 -163 0
521 -157 0
521 -36 0
521 -12 0
521 -303 0
521 -39 0
521 -84 0
521 -90 0
522 -354 0
522 -472 0
522 -100 0
522 -275 0
522 -392 0
522 -76 0
522 -13 0
522 -441 0
522 -450 0
522 -165 0
522 -29 0
522 -60 0
522 -138 0
522 -89 0
522 -75 0
522 -361 0
522 -156 0
523 -202 0
523 -80 0
523 -204 0
523 -86 0
523 -77 0
523 -85 0
523 -28 0
523 -16 0
523 -12 0
523 -457 0
523 -35 0
523 -83 0
523 -32 0
523 -74 0
524 -305 0
524 -442 0
524 -250 0
524 -364 0
524 -80 0
524 -78 0
524 -20 0
524 -441 0
524 -361 0
524 -450 0
524 -73 0
524 -163 0
524 -373 0
524 -320 0
524 -154 0
524 -114 0
524 -118 0
524 -113 0
524 -434 0
524 -234 0
525 -367 0
525 -122 0
525 -86 0
525 -192 0
525 -40 0
525 -438 0
525 -31 0
525 -494 0
525 -77 0
525 -64 0
525 -19 0
525 -26 0
525 -16 0
525 -32 0
526 -147 0
526 -202 0
526 -37 0
526 -3 0
526 -307 0
526 -168 0
526 -139 0
526 -360 0
526 -61 0
526 -39 0
526 -23 0
526 -16 0
526 -1 0
526 -84 0
526 -210 0
526 -5 0
526 -289 0
526 -128 0
526 -357 0
526 -36 0
526 -30 0
527 -184 0
527 -71 0
527 -82 0
527 -46 0
527 -22 0
527 -443 0
527 -437 0
527 -267 0
527 -400 0
527 -419 0
527 -16 0
527 -77 0
527 -441 0
527 -76 0
528 -156 0
528 -378 0
528 -259 0
528 -219 0
528 -147 0
528 -12 0
528 -475 0
528 -67 0
528 -31 0
528 -33 0
528 -19 0
528 -88 0
528 -25 0
528 -466 0
528 -477 0
528 -444 0
528 -34 0
528 -38 0
529 -31 0
529 -17 0
529 -80 0
529 -28 0
529 -169 0
529 -358 0
529 -126 0
529 -422 0
529 -83 0
529 -35 0
529 -18 0
530 -87 0
530 -123 0
530 -12 0
530 -267 0
530 -163 0
530 -476 0
530 -261 0
530 -466 0
530 -33 0
530 -4 0
530 -227 0
530 -81 0
530 -59 0
530 -34 0
530 -21 0
530 -88 0
530 -38 0
530 -23 0
530 -39 0
531 -229 0
531 -171 0
531 -155 0
531 -245 0
531 -238 0
531 -19 0
531 -190 0
531 -33 0
531 -307 0
531 -131 0
531 -70 0
531 -320 0
531 -409 0
531 -257 0
531 -7 0
531 -489 0
531 -439 0
531 -67 0
531 -445 0
532 -207 0
532 -223 0
532 -498 0
532 -103 0
532 -7 0
532 -30 0
532 -9 0
532 -38 0
532 -414 0
533 -389 0
533 -324 0
533 -233 0
533 -104 0
533 -388 0
533 -37 0
533 -36 0
533 -120 0
533 -25 0
533 -38 0
533 -111 0
533 -200 0
533 -32 0
533 -355 0
533 -39 0
533 -40 0
533 -26 0
533 -458 0
533 -114 0
533 -5 0
533 -84 0
534 -223 0
534 -252 0
534 -187 0
534 -299 0
534 -85 0
534 -134 0
534 -327 0
534 -361 0
534 -458 0
534 -31 0
534 -84 0
534 -174 0
534 -38 0
534 -23 0
534 -90 0
534 -131 0
534 -32 0
534 -88 0
534 -305 0
534 -86 0
534 -35 0
534 -313 0
535 -199 0
535 -497 0
535 -494 0
535 -82 0
535 -230 0
535 -179 0
535 -432 0
535 -33 0
535 -9 0
535 -334 0
535 -385 0
535 -32 0
535 -4 0
535 -28 0
535 -6 0
535 -37 0
535 -2 0
535 -14 0
535 -299 0
535 -291 0
535 -333 0
536 -220 0
536 -443 0
536 -31 0
536 -461 0
536 -35 0
536 -232 0
536 -16 0
536 -25 0
536 -5 0
536 -23 0
536 -6 0
536 -28 0
536 -333 0
537 -246 0
537 -395 0
537 -367 0
537 -491 0
537 -284 0
537 -21 0
537 -204 0
537 -6 0
537 -471 0
537 -23 0
537 -19 0
537 -205 0
537 -345 0
537 -34 0
537 -7 0
537 -107 0
537 -407 0
537 -39 0
537 -10 0
537 -241 0
538 -401 0
538 -294 0
538 -135 0
538 -169 0
538 -84 0
538 -290 0
538 -21 0
538 -1 0
538 -25 0
538 -31 0
538 -16 0
538 -14 0
538 -9 0
538 -175 0
538 -7 0
538 -363 0
538 -6 0
538 -403 0
539 -404 0
539 -4 0
539 -52 0
539 -336 0
539 -193 0
539 -25 0
539 -275 0
539 -35 0
539 -38 0
539 -34 0
539 -420 0
539 -31 0
539 -468 0
539 -125 0
540 -375 0
540 -6 0
540 -393 0
540 -18 0
540 -14 0
540 -36 0
540 -30 0
540 -38 0
540 -34 0
540 -413 0
540 -7 0
540 -282 0
540 -103 0
540 -468 0
540 -258 0
540 -429 0
541 -443 0
541 -208 0
541 -376 0
541 -285 0
541 -74 0
541 -70 0
541 -64 0
541 -56 0
541 -88 0
541 -53 0
541 -23 0
541 -169 0
541 -21 0
541 -15 0
541 -232 0
541 -7 0
541 -12 0
541 -59 0
542 -225 0
542 -108 0
542 -45 0
542 -331 0
542 -36 0
542 -472 0
542 -57 0
542 -155 0
542 -236 0
542 -58 0
542 -477 0
543 -121 0
543 -76 0
543 -49 0
543 -46 0
543 -125 0
543 -326 0
543 -171 0
543 -262 0
543 -238 0
543 -369 0
543 -91 0
543 -120 0
543 -319 0
543 -130 0
543 -70 0
543 -304 0
543 -55 0
544 -212 0
544 -497 0
544 -95 0
544 -74 0
544 -381 0
544 -76 0
544 -103 0
544 -327 0
544 -160 0
544 -59 0
544 -83 0
544 -211 0
544 -17 0
544 -126 0
544 -359 0
544 -289 0
544 -145 0
544 -162 0
544 -61 0
545 -471 0
545 -349 0
545 -433 0
545 -469 0
545 -94 0
545 -152 0
545 -98 0
545 -68 0
545 -155 0
545 -48 0
545 -316 0
545 -149 0
545 -460 0
545 -137 0
546 -269 0
546 -346 0
546 -121 0
546 -58 0
546 -221 0
546 -124 0
546 -153 0
546 -55 0
546 -454 0
546 -418 0
546 -95 0
546 -52 0
546 -117 0
546 -113 0
547 -305 0
547 -329 0
547 -252 0
547 -438 0
547 -233 0
547 -469 0
547 -26 0
547 -472 0
547 -155 0
547 -332 0
547 -124 0
547 -116 0
547 -62 0
547 -51 0
547 -48 0
547 -151 0
547 -134 0
547 -136 0
547 -367 0
547 -68 0
547 -1 0
547 -347 0
547 -214 0
548 -476 0
548 -475 0
548 -474 0
548 -478 0
548 -312 0
548 -469 0
548 -496 0
548 -392 0
548 -142 0
548 -140 0
548 -136 0
548 -452 0
548 -65 0
549 -46 0
549 -80 0
549 -17 0
549 -66 0
549 -63 0
549 -52 0
549 -27 0
549 -310 0
549 -455 0
549 -452 0
549 -76 0
549 -175 0
549 -55 0
549 -228 0
549 -438 0
549 -156 0
549 -492 0
550 -271 0
550 -498 0
550 -177 0
550 -114 0
550 -148 0
550 -160 0
550 -93 0
550 -86 0
550 -59 0
550 -64 0
550 -90 0
550 -482 0
550 -91 0
550 -154 0
550 -74 0
551 -423 0
551 -421 0
551 -478 0
551 -357 0
551 -179 0
551 -319 0
551 -493 0
551 -437 0
551 -177 0
551 -65 0
551 -57 0
551 -86 0
551 -134 0
551 -500 0
551 -155 0
551 -152 0
551 -94 0
551 -485 0
551 -137 0
551 -48 0
551 -45 0
551 -151 0
551 -487 0
552 -73 0
552 -43 0
552 -498 0
552 -331 0
552 -92 0
552 -75 0
552 -89 0
552 -220 0
552 -351 0
552 -149 0
552 -87 0
552 -138 0
552 -466 0
553 -492 0
553 -27 0
553 -313 0
553 -139 0
553 -88 0
553 -59 0
553 -94 0
553 -154 0
553 -476 0
553 -302 0
553 -56 0
553 -265 0
553 -74 0
554 -479 0
554 -346 0
554 -476 0
554 -284 0
554 -68 0
554 -143 0
554 -137 0
554 -152 0
554 -323 0
554 -94 0
554 -48 0
554 -158 0
554 -174 0
554 -358 0
554 -164 0
554 -5 0
554 -67 0
555 -264 0
555 -175 0
555 -159 0
555 -69 0
555 -66 0
555 -60 0
555 -307 0
555 -257 0
555 -156 0
555 -425 0
555 -477 0
555 -95 0
555 -144 0
555 -87 0
555 -9 0
555 -63 0
555 -85 0
555 -150 0
555 -372 0
555 -52 0
556 -163 0
556 -198 0
556 -60 0
556 -59 0
556 -142 0
556 -91 0
556 -232 0
556 -44 0
556 -118 0
556 -359 0
556 -422 0
556 -376 0
556 -332 0
556 -64 0
556 -342 0
557 -448 0
557 -485 0
557 -355 0
557 -253 0
557 -418 0
557 -494 0
557 -476 0
557 -11 0
557 -474 0
557 -134 0
557 -136 0
557 -120 0
557 -158 0
557 -48 0
557 -47 0
557 -7 0
557 -370 0
558 -474 0
558 -150 0
558 -92 0
558 -89 0
558 -71 0
558 -73 0
558 -63 0
558 -135 0
558 -490 0
558 -55 0
558 -80 0
558 -43 0
558 -463 0
558 -84 0
559 -195 0
559 -63 0
559 -74 0
559 -90 0
559 -142 0
559 -139 0
559 -133 0
559 -126 0
559 -465 0
559 -432 0
559 -70 0
560 -52 0
560 -150 0
560 -71 0
560 -422 0
560 -356 0
560 -326 0
560 -472 0
560 -280 0
560 -58 0
560 -232 0
560 -133 0
560 -49 0
560 -89 0
560 -469 0
560 -351 0
560 -397 0
560 -87 0
561 -251 0
561 -350 0
561 -56 0
561 -81 0
561 -154 0
561 -80 0
561 -131 0
561 -77 0
561 -84 0
561 -375 0
561 -14 0
561 -23 0
561 -195 0
561 -406 0
561 -41 0
562 -409 0
562 -475 0
562 -339 0
562 -478 0
562 -469 0
562 -421 0
562 -386 0
562 -398 0
562 -20 0
562 -158 0
562 -320 0
562 -435 0
562 -467 0
562 -3 0
562 -489 0
562 -68 0
562 -65 0
562 -2 0
562 -230 0
562 -410 0
562 -54 0
562 -477 0
563 -153 0
563 -150 0
563 -16 0
563 -78 0
563 -11 0
563 -24 0
563 -270 0
563 -444 0
563 -138 0
563 -316 0
563 -159 0
563 -69 0
563 -15 0
563 -457 0
563 -289 0
563 -53 0
563 -500 0
563 -87 0
563 -142 0
563 -420 0
564 -117 0
564 -350 0
564 -273 0
564 -169 0
564 -61 0
564 -53 0
564 -62 0
564 -58 0
564 -154 0
564 -151 0
564 -130 0
564 -84 0
564 -74 0
564 -44 0
564 -70 0
564 -264 0
565 -478 0
565 -410 0
565 -421 0
565 -275 0
565 -272 0
565 -99 0
565 -47 0
565 -46 0
565 -475 0
565 -434 0
565 -155 0
565 -207 0
565 -137 0
565 -152 0
565 -57 0
565 -54 0
565 -68 0
565 -188 0
565 -333 0
565 -143 0
565 -42 0
566 -245 0
566 -308 0
566 -123 0
566 -209 0
566 -71 0
566 -78 0
566 -69 0
566 -58 0
566 -297 0
566 -38 0
566 -147 0
566 -46 0
566 -19 0
566 -118 0
566 -84 0
567 -461 0
567 -111 0
567 -353 0
567 -90 0
567 -176 0
567 -158 0
567 -120 0
567 -152 0
567 -482 0
567 -232 0
567 -154 0
567 -277 0
567 -64 0
567 -23 0
567 -86 0
567 -496 0
567 -41 0
567 -72 0
567 -81 0
567 -139 0
567 -56 0
568 -364 0
568 -477 0
568 -197 0
568 -17 0
568 -158 0
568 -48 0
568 -472 0
568 -146 0
568 -478 0
568 -74 0
568 -412 0
568 -109 0
568 -244 0
568 -363 0
568 -311 0
568 -25 0
569 -346 0
569 -494 0
569 -15 0
569 -60 0
569 -52 0
569 -159 0
569 -58 0
569 -17 0
569 -43 0
569 -397 0
569 -191 0
569 -419 0
569 -486 0
570 -129 0
570 -44 0
570 -199 0
570 -151 0
570 -154 0
570 -96 0
570 -479 0
570 -90 0
570 -160 0
570 -423 0
570 -56 0
570 -61 0
570 -88 0
570 -14 0
570 -337 0
571 -193 0
571 -168 0
571 -132 0
571 -85 0
571 -52 0
571 -156 0
571 -78 0
571 -191 0
571 -56 0
571 -239 0
571 -22 0
571 -178 0
571 -55 0
572 -50 0
572 -16 0
572 -13 0
572 -131 0
572 -90 0
572 -41 0
572 -61 0
572 -84 0
572 -407 0
572 -23 0
572 -171 0
572 -88 0
572 -21 0
572 -25 0
572 -70 0
572 -154 0
572 -64 0
572 -416 0
572 -59 0
573 -87 0
573 -159 0
573 -13 0
573 -82 0
573 -49 0
573 -75 0
573 -249 0
573 -43 0
573 -432 0
573 -69 0
573 -46 0
574 -319 0
574 -21 0
574 -16 0
574 -164 0
574 -72 0
574 -14 0
574 -390 0
574 -61 0
574 -83 0
574 -13 0
574 -431 0
574 -84 0
574 -458 0
575 -82 0
575 -58 0
575 -49 0
575 -69 0
575 -60 0
575 -78 0
575 -270 0
575 -236 0
575 -454 0
575 -187 0
575 -63 0
575 -66 0
576 -172 0
576 -132 0
576 -82 0
576 -58 0
576 -237 0
576 -29 0
576 -60 0
576 -298 0
576 -283 0
576 -13 0
576 -11 0
576 -437 0
576 -71 0
576 -307 0
576 -475 0
576 -447 0
576 -372 0
576 -304 0
577 -336 0
577 -58 0
577 -165 0
577 -173 0
577 -188 0
577 -41 0
577 -121 0
577 -84 0
577 -28 0
577 -70 0
577 -64 0
577 -34 0
577 -14 0
577 -16 0
577 -129 0
577 -81 0
577 -439 0
577 -253 0
577 -88 0
578 -389 0
578 -189 0
578 -231 0
578 -55 0
578 -17 0
578 -27 0
578 -148 0
578 -22 0
578 -76 0
578 -124 0
578 -228 0
578 -138 0
578 -453 0
578 -80 0
579 -150 0
579 -81 0
579 -67 0
579 -83 0
579 -236 0
579 -480 0
579 -88 0
579 -268 0
579 -16 0
579 -59 0
579 -162 0
579 -41 0
579 -308 0
579 -30 0
579 -21 0
579 -14 0
579 -53 0
579 -90 0
580 -55 0
580 -71 0
580 -66 0
580 -13 0
580 -431 0
580 -43 0
580 -137 0
580 -445 0
580 -65 0
580 -229 0
580 -89 0
580 -483 0
580 -419 0
580 -264 0
580 -87 0
581 -384 0
581 -168 0
581 -491 0
581 -284 0
581 -75 0
581 -72 0
581 -159 0
581 -44 0
581 -88 0
581 -84 0
581 -74 0
581 -16 0
581 -56 0
581 -23 0
581 -59 0
581 -21 0
581 -19 0
581 -500 0
582 -355 0
582 -58 0
582 -29 0
582 -78 0
582 -52 0
582 -55 0
582 -153 0
582 -305 0
582 -49 0
582 -15 0
582 -396 0
582 -345 0
582 -448 0
582 -20 0
582 -69 0
582 -7 0
582 -463 0
582 -133 0
583 -229 0
583 -239 0
583 -286 0
583 -208 0
583 -19 0
583 -78 0
583 -88 0
583 -21 0
583 -5 0
583 -59 0
583 -336 0
583 -61 0
583 -50 0
583 -472 0
583 -86 0
583 -28 0
583 -84 0
583 -67 0
583 -53 0
583 -9 0
583 -81 0
583 -77 0
584 -16 0
584 -282 0
584 -53 0
584 -139 0
584 -70 0
584 -90 0
584 -88 0
584 -25 0
584 -219 0
584 -67 0
584 -418 0
585 -211 0
585 -78 0
585 -289 0
585 -129 0
585 -82 0
585 -73 0
585 -75 0
585 -63 0
585 -66 0
585 -13 0
585 -49 0
585 -428 0
585 -186 0
585 -443 0
585 -11 0
585 -431 0
585 -148 0
586 -185 0
586 -207 0
586 -199 0
586 -498 0
586 -496 0
586 -20 0
586 -272 0
586 -61 0
586 -278 0
586 -74 0
586 -88 0
586 -72 0
586 -134 0
586 -14 0
586 -32 0
586 -21 0
586 -90 0
586 -56 0
587 -274 0
587 -297 0
587 -58 0
587 -24 0
587 -22 0
587 -449 0
587 -341 0
587 -39 0
587 -81 0
587 -13 0
587 -26 0
587 -29 0
588 -89 0
588 -17 0
588 -64 0
588 -50 0
588 -23 0
588 -90 0
588 -14 0
588 -74 0
589 -333 0
589 -104 0
589 -76 0
589 -87 0
589 -75 0
589 -55 0
589 -69 0
589 -15 0
589 -274 0
589 -124 0
589 -78 0
589 -450 0
589 -24 0
589 -65 0
589 -406 0
589 -91 0
589 -23 0
589 -14 0
590 -159 0
590 -89 0
590 -250 0
590 -320 0
590 -83 0
590 -415 0
590 -221 0
590 -32 0
590 -215 0
590 -413 0
590 -30 0
590 -129 0
590 -9 0
590 -370 0
590 -26 0
590 -25 0
590 -115 0
590 -33 0
590 -440 0
591 -229 0
591 -323 0
591 -59 0
591 -162 0
591 -157 0
591 -148 0
591 -145 0
591 -103 0
591 -201 0
591 -107 0
591 -355 0
591 -486 0
591 -142 0
591 -53 0
591 -471 0
592 -345 0
592 -444 0
592 -246 0
592 -391 0
592 -123 0
592 -150 0
592 -159 0
592 -147 0
592 -46 0
592 -43 0
592 -153 0
592 -231 0
592 -322 0
592 -374 0
592 -106 0
592 -204 0
592 -144 0
592 -132 0
592 -454 0
592 -8 0
592 -138 0
592 -487 0
592 -407 0
592 -64 0
592 -114 0
592 -240 0
592 -274 0
593 -287 0
593 -99 0
593 -133 0
593 -378 0
593 -361 0
593 -341 0
593 -345 0
593 -122 0
593 -228 0
593 -139 0
593 -53 0
593 -142 0
593 -103 0
593 -464 0
593 -21 0
593 -37 0
593 -407 0
593 -472 0
593 -186 0
593 -96 0
593 -56 0
593 -126 0
594 -462 0
594 -458 0
594 -124 0
594 -116 0
594 -181 0
594 -221 0
594 -158 0
594 -47 0
594 -101 0
594 -180 0
594 -234 0
594 -314 0
594 -223 0
594 -66 0
594 -113 0
595 -309 0
595 -492 0
595 -235 0
595 -164 0
595 -156 0
595 -147 0
595 -125 0
595 -110 0
595 -92 0
595 -426 0
595 -209 0
595 -208 0
595 -136 0
595 -159 0
595 -146 0
595 -102 0
595 -153 0
596 -367 0
596 -234 0
596 -47 0
596 -124 0
596 -59 0
596 -495 0
596 -142 0
596 -111 0
596 -448 0
596 -327 0
597 -444 0
597 -237 0
597 -193 0
597 -207 0
597 -104 0
597 -87 0
597 -216 0
597 -112 0
597 -166 0
597 -108 0
597 -350 0
597 -212 0
597 -281 0
597 -484 0
597 -234 0
597 -233 0
597 -129 0
597 -223 0
597 -236 0
597 -127 0
598 -463 0
598 -82 0
598 -212 0
598 -79 0
598 -26 0
598 -221 0
598 -94 0
598 -43 0
598 -186 0
598 -260 0
598 -105 0
598 -146 0
599 -482 0
599 -279 0
599 -212 0
599 -166 0
599 -225 0
599 -112 0
599 -185 0
599 -127 0
599 -497 0
599 -30 0
599 -189 0
599 -104 0
599 -13 0
599 -237 0
599 -369 0
599 -103 0
599 -115 0
600 -10 0
600 -483 0
600 -481 0
600 -303 0
600 -119 0
600 -99 0
600 -245 0
600 -210 0
600 -252 0
600 -205 0
600 -44 0
600 -445 0
600 -324 0
600 -211 0
600 -98 0
600 -218 0
600 -26 0
600 -444 0
600 -473 0
601 -410 0
601 -264 0
601 -120 0
601 -223 0
601 -347 0
601 -341 0
601 -320 0
601 -221 0
601 -136 0
601 -152 0
601 -47 0
601 -208 0
601 -146 0
601 -282 0
601 -278 0
601 -219 0
602 -345 0
602 -334 0
602 -205 0
602 -132 0
602 -156 0
602 -150 0
602 -138 0
602 -161 0
602 -125 0
602 -357 0
602 -11 0
602 -55 0
602 -144 0
602 -484 0
602 -231 0
602 -235 0
602 -53 0
602 -201 0
602 -107 0
603 -97 0
603 -243 0
603 -404 0
603 -254 0
603 -210 0
603 -376 0
603 -157 0
603 -230 0
603 -118 0
603 -111 0
603 -225 0
603 -22 0
603 -236 0
603 -456 0
603 -102 0
603 -309 0
603 -169 0
603 -360 0
604 -432 0
604 -212 0
604 -225 0
604 -184 0
604 -317 0
604 -119 0
604 -27 0
604 -305 0
604 -495 0
604 -344 0
604 -431 0
604 -253 0
604 -441 0
604 -487 0
604 -211 0
605 -37 0
605 -353 0
605 -443 0
605 -340 0
605 -217 0
605 -155 0
605 -226 0
605 -113 0
605 -19 0
605 -206 0
606 -408 0
606 -369 0
606 -182 0
606 -144 0
606 -114 0
606 -238 0
606 -168 0
606 -230 0
606 -172 0
606 -239 0
606 -56 0
606 -121 0
606 -467 0
607 -189 0
607 -321 0
607 -243 0
607 -267 0
607 -54 0
607 -293 0
607 -148 0
607 -165 0
607 -162 0
607 -210 0
607 -130 0
607 -173 0
607 -96 0
607 -301 0
608 -10 0
608 -488 0
608 -402 0
608 -342 0
608 -211 0
608 -166 0
608 -170 0
608 -207 0
608 -285 0
608 -268 0
608 -127 0
608 -489 0
608 -190 0
608 -104 0
608 -57 0
608 -236 0
609 -465 0
609 -405 0
609 -329 0
609 -391 0
609 -128 0
609 -111 0
609 -345 0
609 -46 0
609 -368 0
609 -138 0
609 -152 0
609 -357 0
609 -98 0
609 -105 0
609 -124 0
609 -210 0
609 -155 0
609 -94 0
609 -146 0
609 -393 0
609 -134 0
609 -378 0
609 -204 0
610 -478 0
610 -260 0
610 -384 0
610 -214 0
610 -231 0
610 -172 0
610 -114 0
610 -227 0
610 -205 0
610 -68 0
610 -106 0
610 -9 0
610 -235 0
610 -168 0
610 -217 0
610 -144 0
611 -76 0
611 -28 0
611 -201 0
611 -110 0
611 -230 0
611 -410 0
611 -206 0
611 -160 0
611 -107 0
611 -228 0
611 -466 0
611 -479 0
611 -429 0
611 -210 0
612 -489 0
612 -100 0
612 -17 0
612 -119 0
612 -484 0
612 -216 0
613 -442 0
613 -254 0
613 -98 0
613 -286 0
613 -209 0
613 -447 0
613 -136 0
613 -316 0
613 -155 0
613 -238 0
613 -451 0
613 -134 0
613 -116 0
613 -470 0
613 -190 0
613 -91 0
613 -143 0
614 -218 0
614 -231 0
614 -209 0
614 -159 0
614 -147 0
614 -144 0
614 -95 0
614 -227 0
614 -198 0
614 -191 0
614 -117 0
614 -54 0
614 -296 0
614 -45 0
614 -141 0
614 -135 0
614 -84 0
614 -203 0
614 -458 0
614 -156 0
614 -148 0
614 -5 0
615 -484 0
615 -406 0
615 -119 0
615 -369 0
615 -104 0
615 -102 0
615 -127 0
615 -482 0
615 -366 0
615 -108 0
615 -435 0
615 -100 0
615 -112 0
615 -201 0
616 -390 0
616 -349 0
616 -250 0
616 -447 0
616 -143 0
616 -202 0
616 -245 0
616 -76 0
616 -353 0
616 -234 0
616 -128 0
616 -149 0
616 -146 0
616 -140 0
616 -98 0
616 -105 0
616 -24 0
617 -99 0
617 -321 0
617 -159 0
617 -129 0
617 -92 0
617 -43 0
617 -280 0
617 -183 0
617 -16 0
617 -58 0
617 -451 0
617 -53 0
617 -144 0
617 -217 0
618 -150 0
618 -168 0
618 -272 0
618 -44 0
618 -264 0
618 -195 0
618 -499 0
618 -145 0
618 -126 0
618 -6 0
618 -203 0
618 -485 0
618 -148 0
618 -76 0
618 -111 0
618 -452 0
619 -486 0
619 -487 0
619 -490 0
619 -220 0
619 -207 0
619 -233 0
619 -110 0
619 -164 0
619 -97 0
619 -247 0
619 -24 0
619 -481 0
619 -141 0
619 -303 0
620 -229 0
620 -214 0
620 -469 0
620 -271 0
620 -98 0
620 -45 0
620 -124 0
620 -116 0
620 -113 0
620 -155 0
620 -94 0
620 -128 0
620 -215 0
620 -160 0
621 -363 0
621 -127 0
621 -153 0
621 -144 0
621 -102 0
621 -132 0
621 -205 0
621 -255 0
621 -218 0
621 -58 0
621 -113 0
621 -141 0
621 -222 0
621 -92 0
621 -17 0
621 -147 0
621 -73 0
621 -338 0
621 -214 0
621 -354 0
622 -319 0
622 -132 0
622 -59 0
622 -288 0
622 -68 0
622 -42 0
622 -473 0
622 -332 0
622 -206 0
622 -203 0
622 -236 0
622 -174 0
622 -215 0
622 -429 0
622 -142 0
622 -441 0
622 -154 0
622 -8 0
622 -402 0
622 -66 0
623 -480 0
623 -473 0
623 -486 0
623 -440 0
623 -229 0
623 -108 0
623 -292 0
623 -127 0
623 -223 0
623 -218 0
623 -233 0
623 -207 0
623 -99 0
623 -206 0
623 -151 0
623 -416 0
624 -129 0
624 -58 0
624 -316 0
624 -152 0
624 -270 0
624 -208 0
624 -233 0
624 -355 0
624 -143 0
624 -140 0
624 -217 0
624 -489 0
624 -134 0
624 -42 0
624 -221 0
624 -45 0
625 -265 0
625 -269 0
625 -209 0
625 -202 0
625 -138 0
625 -153 0
625 -150 0
625 -121 0
625 -117 0
625 -114 0
625 -15 0
625 -320 0
625 -357 0
625 -62 0
625 -327 0
625 -54 0
625 -467 0
625 -44 0
625 -212 0
625 -422 0
625 -46 0
626 -132 0
626 -265 0
626 -313 0
626 -277 0
626 -68 0
626 -344 0
626 -107 0
626 -210 0
626 -174 0
626 -133 0
626 -41 0
626 -228 0
626 -372 0
626 -17 0
626 -151 0
626 -215 0
626 -15 0
626 -475 0
627 -489 0
627 -481 0
627 -467 0
627 -415 0
627 -286 0
627 -368 0
627 -119 0
627 -82 0
627 -100 0
627 -482 0
627 -384 0
627 -370 0
627 -2 0
627 -490 0
627 -486 0
627 -155 0
627 -93 0
627 -470 0
628 -225 0
628 -105 0
628 -187 0
628 -75 0
628 -360 0
628 -255 0
628 -101 0
628 -137 0
628 -217 0
628 -224 0
628 -113 0
628 -83 0
628 -93 0
629 -218 0
629 -214 0
629 -231 0
629 -135 0
629 -125 0
629 -102 0
629 -144 0
629 -316 0
629 -161 0
629 -119 0
629 -372 0
629 -215 0
629 -428 0
629 -110 0
629 -227 0
630 -19 0
630 -232 0
630 -219 0
630 -461 0
630 -206 0
630 -203 0
630 -96 0
630 -111 0
630 -265 0
630 -210 0
630 -282 0
631 -371 0
631 -437 0
631 -126 0
631 -145 0
631 -148 0
631 -151 0
631 -93 0
631 -411 0
631 -461 0
631 -91 0
631 -79 0
631 -133 0
631 -77 0
631 -473 0
631 -56 0
632 -329 0
632 -150 0
632 -129 0
632 -82 0
632 -80 0
632 -60 0
632 -58 0
632 -52 0
632 -344 0
632 -43 0
632 -125 0
632 -387 0
632 -138 0
632 -117 0
632 -8 0
632 -73 0
633 -127 0
633 -252 0
633 -494 0
633 -157 0
633 -41 0
633 -91 0
633 -169 0
633 -148 0
633 -83 0
633 -72 0
633 -79 0
633 -50 0
633 -92 0
633 -74 0
633 -484 0
633 -96 0
634 -412 0
634 -393 0
634 -141 0
634 -101 0
634 -341 0
634 -431 0
634 -226 0
634 -143 0
634 -234 0
634 -354 0
634 -344 0
634 -42 0
634 -98 0
635 -216 0
635 -102 0
635 -117 0
635 -85 0
635 -76 0
635 -46 0
635 -424 0
635 -167 0
635 -206 0
635 -259 0
635 -141 0
635 -487 0
635 -209 0
635 -269 0
636 -435 0
636 -413 0
636 -52 0
636 -272 0
636 -105 0
636 -98 0
636 -116 0
636 -124 0
636 -42 0
636 -146 0
636 -51 0
636 -45 0
636 -135 0
636 -387 0
636 -54 0
637 -256 0
637 -204 0
637 -69 0
637 -42 0
637 -120 0
637 -288 0
637 -47 0
637 -98 0
637 -109 0
637 -94 0
637 -158 0
638 -485 0
638 -309 0
638 -216 0
638 -117 0
638 -153 0
638 -135 0
638 -106 0
638 -49 0
638 -13 0
638 -43 0
638 -430 0
638 -283 0
638 -339 0
638 -14 0
638 -383 0
638 -25 0
638 -40 0
639 -324 0
639 -166 0
639 -122 0
639 -41 0
639 -331 0
639 -242 0
639 -133 0
639 -171 0
639 -111 0
639 -91 0
639 -118 0
639 -70 0
639 -50 0
639 -40 0
639 -449 0
639 -485 0
639 -102 0
639 -462 0
640 -394 0
640 -381 0
640 -323 0
640 -400 0
640 -57 0
640 -121 0
640 -137 0
640 -143 0
640 -113 0
640 -94 0
640 -120 0
640 -47 0
640 -62 0
640 -146 0
640 -45 0
640 -30 0
640 -240 0
640 -128 0
640 -33 0
640 -213 0
640 -155 0
640 -98 0
641 -309 0
641 -132 0
641 -125 0
641 -129 0
641 -138 0
641 -439 0
641 -67 0
641 -66 0
641 -145 0
641 -244 0
641 -156 0
641 -202 0
641 -285 0
642 -225 0
642 -263 0
642 -187 0
642 -1 0
642 -114 0
642 -482 0
642 -47 0
642 -228 0
642 -157 0
642 -148 0
642 -139 0
642 -111 0
642 -173 0
642 -305 0
642 -130 0
642 -421 0
642 -436 0
642 -79 0
643 -483 0
643 -252 0
643 -92 0
643 -45 0
643 -387 0
643 -158 0
643 -152 0
643 -109 0
643 -94 0
643 -120 0
643 -101 0
643 -226 0
643 -42 0
643 -202 0
643 -318 0
643 -236 0
643 -51 0
643 -47 0
643 -423 0
644 -444 0
644 -170 0
644 -306 0
644 -95 0
644 -63 0
644 -49 0
644 -227 0
644 -132 0
644 -135 0
644 -125 0
644 -69 0
644 -484 0
644 -202 0
644 -482 0
644 -52 0
645 -150 0
645 -262 0
645 -45 0
645 -93 0
645 -203 0
645 -228 0
645 -200 0
645 -372 0
645 -328 0
645 -59 0
645 -126 0
645 -330 0
645 -122 0
645 -64 0
645 -413 0
645 -157 0
645 -439 0
645 -107 0
645 -160 0
646 -458 0
646 -362 0
646 -211 0
646 -260 0
646 -263 0
646 -371 0
646 -218 0
646 -108 0
646 -135 0
646 -82 0
646 -158 0
646 -137 0
646 -105 0
646 -120 0
646 -143 0
647 -112 0
647 -205 0
647 -375 0
647 -294 0
647 -102 0
647 -129 0
647 -49 0
647 -350 0
647 -52 0
647 -202 0
647 -117 0
647 -491 0
647 -344 0
647 -270 0
647 -125 0
648 -112 0
648 -299 0
648 -59 0
648 -154 0
648 -232 0
648 -160 0
648 -151 0
648 -145 0
648 -44 0
648 -2 0
648 -313 0
648 -70 0
648 -111 0
648 -343 0
648 -356 0
649 -466 0
649 -470 0
649 -275 0
649 -71 0
649 -69 0
649 -446 0
649 -48 0
649 -158 0
649 -51 0
649 -155 0
649 -415 0
649 -427 0
649 -143 0
649 -65 0
649 -471 0
649 -78 0
650 -253 0
650 -216 0
650 -115 0
650 -252 0
650 -141 0
650 -73 0
650 -66 0
650 -75 0
650 -292 0
650 -52 0
650 -7 0
650 -179 0
650 -38 0
650 -377 0
650 -107 0
650 -220 0
650 -91 0
650 -394 0
650 -49 0
651 -50 0
651 -93 0
651 -91 0
651 -59 0
651 -44 0
651 -96 0
651 -122 0
651 -83 0
651 -440 0
651 -53 0
651 -439 0
651 -86 0
651 -81 0
651 -74 0
651 -56 0
652 -390 0
652 -385 0
652 -471 0
652 -469 0
652 -292 0
652 -17 0
652 -453 0
652 -128 0
652 -146 0
652 -155 0
652 -116 0
652 -240 0
652 -134 0
652 -42 0
652 -57 0
653 -345 0
653 -340 0
653 -256 0
653 -164 0
653 -144 0
653 -114 0
653 -250 0
653 -49 0
653 -58 0
653 -62 0
653 -55 0
653 -141 0
653 -75 0
653 -107 0
654 -51 0
654 -111 0
654 -44 0
654 -41 0
654 -145 0
654 -107 0
654 -91 0
654 -83 0
654 -59 0
654 -133 0
654 -419 0
654 -406 0
654 -487 0
654 -464 0
654 -130 0
654 -376 0
654 -96 0
654 -26 0
654 -12 0
654 -74 0
655 -367 0
655 -29 0
655 -66 0
655 -471 0
655 -500 0
655 -116 0
655 -293 0
655 -136 0
655 -128 0
655 -124 0
655 -96 0
655 -117 0
656 -129 0
656 -69 0
656 -43 0
656 -46 0
656 -63 0
656 -243 0
656 -121 0
656 -283 0
656 -431 0
656 -136 0
656 -73 0
656 -150 0
656 -105 0
656 -75 0
656 -58 0
656 -204 0
656 -420 0
657 -217 0
657 -201 0
657 -93 0
657 -154 0
657 -56 0
657 -139 0
657 -130 0
657 -70 0
657 -64 0
657 -59 0
657 -107 0
657 -50 0
657 -489 0
657 -249 0
657 -126 0
657 -444 0
657 -118 0
657 -291 0
658 -197 0
658 -472 0
658 -27 0
658 -134 0
658 -45 0
658 -404 0
658 -116 0
658 -42 0
658 -48 0
658 -51 0
658 -69 0
658 -105 0
658 -266 0
658 -387 0
658 -293 0
659 -336 0
659 -343 0
659 -329 0
659 -321 0
659 -156 0
659 -153 0
659 -125 0
659 -75 0
659 -299 0
659 -289 0
659 -254 0
659 -230 0
659 -148 0
659 -64 0
659 -66 0
660 -159 0
660 -403 0
660 -250 0
660 -325 0
660 -290 0
660 -215 0
660 -245 0
660 -67 0
660 -93 0
660 -154 0
660 -107 0
660 -133 0
660 -91 0
660 -130 0
660 -362 0
660 -373 0
660 -157 0
660 -380 0
660 -401 0
660 -53 0
661 -244 0
661 -96 0
661 -214 0
661 -239 0
661 -172 0
661 -106 0
661 -450 0
661 -250 0
661 -187 0
661 -125 0
661 -163 0
661 -317 0
661 -191 0
661 -110 0
661 -355 0
661 -231 0
662 -174 0
662 -307 0
662 -215 0
662 -203 0
662 -178 0
662 -196 0
662 -192 0
662 -232 0
662 -228 0
662 -19 0
662 -83 0
662 -488 0
662 -130 0
662 -337 0
662 -126 0
663 -452 0
663 -382 0
663 -244 0
663 -281 0
663 -180 0
663 -190 0
663 -443 0
663 -208 0
663 -101 0
663 -189 0
663 -186 0
663 -98 0
663 -105 0
663 -5 0
664 -112 0
664 -294 0
664 -191 0
664 -110 0
664 -27 0
664 -172 0
664 -335 0
664 -270 0
664 -384 0
664 -199 0
664 -149 0
664 -200 0
664 -494 0
664 -1 0
664 -93 0
664 -317 0
664 -473 0
664 -239 0
665 -320 0
665 -387 0
665 -322 0
665 -236 0
665 -130 0
665 -169 0
665 -490 0
665 -114 0
665 -475 0
666 -455 0
666 -492 0
666 -329 0
666 -434 0
666 -461 0
666 -225 0
666 -104 0
666 -237 0
666 -216 0
666 -100 0
666 -35 0
666 -112 0
666 -207 0
666 -315 0
667 -439 0
667 -250 0
667 -274 0
667 -150 0
667 -304 0
667 -341 0
667 -415 0
667 -22 0
667 -293 0
667 -226 0
667 -221 0
667 -330 0
667 -98 0
667 -186 0
667 -325 0
667 -113 0
667 -288 0
667 -198 0
667 -201 0
667 -194 0
667 -101 0
667 -171 0
667 -37 0
667 -8 0
667 -238 0
668 -309 0
668 -331 0
668 -227 0
668 -187 0
668 -218 0
668 -47 0
668 -299 0
668 -338 0
668 -198 0
668 -209 0
668 -90 0
668 -230 0
668 -306 0
668 -405 0
668 -6 0
668 -191 0
669 -397 0
669 -150 0
669 -262 0
669 -290 0
669 -173 0
669 -219 0
669 -318 0
669 -295 0
669 -240 0
669 -236 0
669 -174 0
669 -286 0
669 -131 0
669 -206 0
669 -53 0
670 -444 0
670 -297 0
670 -211 0
670 -294 0
670 -287 0
670 -223 0
670 -197 0
670 -319 0
670 -304 0
670 -255 0
670 -229 0
670 -233 0
670 -353 0
670 -97 0
670 -42 0
670 -329 0
670 -219 0
670 -246 0
670 -56 0
671 -303 0
671 -301 0
671 -421 0
671 -390 0
671 -117 0
671 -444 0
671 -474 0
671 -176 0
671 -243 0
671 -467 0
671 -113 0
671 -414 0
672 -339 0
672 -284 0
672 -331 0
672 -281 0
672 -235 0
672 -440 0
672 -495 0
672 -222 0
672 -177 0
672 -231 0
672 -239 0
672 -200 0
672 -205 0
672 -289 0
672 -199 0
673 -314 0
673 -269 0
673 -17 0
673 -15 0
673 -167 0
673 -48 0
673 -10 0
673 -111 0
673 -215 0
673 -236 0
673 -232 0
673 -188 0
673 -162 0
673 -201 0
673 -189 0
673 -483 0
673 -2 0
673 -219 0
673 -400 0
673 -335 0
674 -371 0
674 -119 0
674 -438 0
674 -188 0
674 -304 0
674 -300 0
674 -290 0
674 -203 0
674 -219 0
674 -215 0
674 -201 0
674 -178 0
674 -165 0
674 -295 0
674 -3 0
674 -103 0
674 -130 0
674 -173 0
674 -364 0
675 -249 0
675 -211 0
675 -239 0
675 -242 0
675 -491 0
675 -189 0
675 -234 0
675 -220 0
675 -216 0
675 -299 0
675 -298 0
675 -13 0
675 -233 0
676 -492 0
676 -55 0
676 -356 0
676 -215 0
676 -224 0
676 -221 0
676 -163 0
676 -192 0
676 -313 0
676 -288 0
676 -44 0
676 -262 0
676 -88 0
676 -2 0
676 -488 0
676 -54 0
676 -230 0
676 -325 0
676 -372 0
676 -433 0
677 -340 0
677 -306 0
677 -331 0
677 -326 0
677 -245 0
677 -231 0
677 -222 0
677 -218 0
677 -195 0
677 -191 0
677 -239 0
677 -244 0
677 -289 0
677 -299 0
677 -100 0
677 -409 0
677 -49 0
677 -214 0
677 -330 0
678 -297 0
678 -492 0
678 -496 0
678 -64 0
678 -304 0
678 -322 0
678 -240 0
678 -219 0
678 -290 0
678 -98 0
678 -332 0
678 -355 0
678 -169 0
678 -318 0
678 -448 0
679 -5 0
679 -257 0
679 -334 0
679 -365 0
679 -242 0
679 -170 0
679 -250 0
679 -329 0
679 -349 0
679 -424 0
679 -105 0
679 -83 0
679 -292 0
679 -254 0
680 -359 0
680 -421 0
680 -306 0
680 -293 0
680 -121 0
680 -211 0
680 -149 0
680 -283 0
680 -155 0
680 -167 0
680 -330 0
680 -165 0
680 -224 0
680 -194 0
680 -21 0
680 -183 0
680 -238 0
681 -252 0
681 -244 0
681 -263 0
681 -239 0
681 -227 0
681 -214 0
681 -187 0
681 -75 0
681 -168 0
681 -191 0
681 -450 0
681 -267 0
681 -232 0
681 -111 0
681 -2 0
681 -199 0
682 -377 0
682 -314 0
682 -220 0
682 -212 0
682 -329 0
682 -315 0
682 -382 0
682 -102 0
682 -89 0
682 -326 0
682 -285 0
682 -287 0
682 -175 0
682 -166 0
682 -184 0
682 -319 0
682 -333 0
682 -293 0
682 -246 0
683 -129 0
683 -379 0
683 -310 0
683 -298 0
683 -247 0
683 -366 0
683 -213 0
683 -194 0
683 -176 0
683 -354 0
683 -445 0
683 -421 0
683 -316 0
684 -490 0
684 -312 0
684 -309 0
684 -269 0
684 -179 0
684 -166 0
684 -329 0
684 -279 0
684 -237 0
684 -348 0
684 -314 0
684 -233 0
684 -305 0
684 -213 0
684 -126 0
685 -457 0
685 -416 0
685 -297 0
685 -212 0
685 -365 0
685 -72 0
685 -179 0
685 -182 0
685 -319 0
685 -197 0
685 -184 0
685 -108 0
685 -192 0
685 -216 0
685 -387 0
685 -162 0
685 -133 0
685 -56 0
685 -153 0
686 -424 0
686 -478 0
686 -310 0
686 -496 0
686 -239 0
686 -252 0
686 -140 0
686 -176 0
686 -194 0
686 -172 0
686 -171 0
686 -213 0
686 -116 0
686 -13 0
686 -165 0
686 -283 0
686 -248 0
687 -363 0
687 -114 0
687 -110 0
687 -417 0
687 -45 0
687 -218 0
687 -113 0
687 -360 0
687 -400 0
687 -202 0
687 -164 0
687 -299 0
687 -24 0
687 -323 0
687 -190 0
687 -41 0
687 -411 0
688 -492 0
688 -491 0
688 -295 0
688 -219 0
688 -394 0
688 -216 0
688 -206 0
688 -154 0
688 -332 0
688 -348 0
688 -390 0
688 -398 0
688 -321 0
688 -98 0
689 -6 0
689 -292 0
689 -319 0
689 -329 0
689 -185 0
689 -182 0
689 -211 0
689 -384 0
689 -345 0
689 -223 0
689 -447 0
689 -97 0
689 -363 0
689 -25 0
689 -212 0
689 -170 0
689 -14 0
690 -222 0
690 -298 0
690 -260 0
690 -234 0
690 -62 0
690 -136 0
690 -186 0
690 -330 0
690 -98 0
690 -310 0
690 -262 0
690 -391 0
690 -198 0
690 -478 0
690 -313 0
691 -266 0
691 -118 0
691 -246 0
691 -495 0
691 -202 0
691 -187 0
691 -153 0
691 -249 0
691 -355 0
691 -285 0
691 -15 0
691 -263 0
691 -231 0
691 -326 0
691 -214 0
691 -289 0
691 -284 0
691 -481 0
692 -276 0
692 -177 0
692 -20 0
692 -378 0
692 -295 0
692 -318 0
692 -332 0
692 -165 0
692 -3 0
692 -461 0
692 -286 0
692 -21 0
692 -178 0
692 -290 0
692 -355 0
692 -327 0
692 -228 0
693 -482 0
693 -337 0
693 -314 0
693 -297 0
693 -182 0
693 -24 0
693 -220 0
693 -328 0
693 -315 0
693 -189 0
693 -332 0
693 -137 0
694 -474 0
694 -372 0
694 -97 0
694 -153 0
694 -400 0
694 -267 0
694 -213 0
694 -320 0
694 -298 0
694 -333 0
694 -163 0
694 -198 0
694 -142 0
694 -30 0
694 -204 0
695 -299 0
695 -205 0
695 -235 0
695 -231 0
695 -289 0
695 -168 0
695 -17 0
695 -321 0
695 -209 0
695 -183 0
695 -326 0
695 -284 0
695 -202 0
695 -161 0
696 -211 0
696 -104 0
696 -47 0
696 -327 0
696 -389 0
696 -85 0
696 -157 0
696 -178 0
696 -91 0
696 -240 0
696 -295 0
696 -33 0
696 -160 0
696 -203 0
696 -308 0
696 -174 0
696 -307 0
696 -192 0
697 -377 0
697 -242 0
697 -179 0
697 -292 0
697 -498 0
697 -181 0
697 -309 0
697 -297 0
697 -246 0
697 -233 0
697 -182 0
697 -136 0
697 -207 0
697 -315 0
697 -497 0
697 -223 0
697 -238 0
697 -15 0
697 -184 0
698 -398 0
698 -395 0
698 -48 0
698 -154 0
698 -201 0
698 -262 0
698 -243 0
698 -238 0
698 -29 0
698 -224 0
698 -171 0
698 -322 0
698 -163 0
698 -140 0
698 -320 0
698 -183 0
698 -10 0
698 -3 0
698 -208 0
699 -331 0
699 -161 0
699 -271 0
699 -487 0
699 -248 0
699 -222 0
699 -138 0
699 -59 0
699 -231 0
699 -191 0
699 -322 0
699 -298 0
699 -146 0
699 -317 0
700 -310 0
700 -63 0
700 -192 0
700 -285 0
700 -240 0
700 -165 0
700 -162 0
700 -290 0
700 -173 0
700 -170 0
700 -253 0
700 -189 0
700 -2 0
700 -304 0
700 -332 0
701 -191 0
701 -20 0
701 -103 0
701 -492 0
701 -42 0
701 -219 0
701 -130 0
701 -188 0
701 -21 0
701 -192 0
701 -257 0
701 -107 0
701 -344 0
701 -14 0
701 -160 0
702 -218 0
702 -222 0
702 -172 0
702 -161 0
702 -317 0
702 -404 0
702 -135 0
702 -95 0
702 -209 0
702 -227 0
702 -110 0
703 -141 0
703 -311 0
703 -396 0
703 -293 0
703 -230 0
703 -228 0
703 -285 0
703 -206 0
703 -173 0
703 -91 0
703 -93 0
703 -61 0
703 -165 0
703 -424 0
703 -462 0
703 -111 0
703 -54 0
703 -471 0
703 -236 0
704 -323 0
704 -313 0
704 -234 0
704 -163 0
704 -226 0
704 -66 0
704 -186 0
704 -190 0
704 -101 0
704 -120 0
704 -146 0
704 -208 0
704 -236 0
704 -338 0
704 -136 0
704 -230 0
705 -471 0
705 -357 0
705 -397 0
705 -214 0
705 -209 0
705 -199 0
705 -92 0
705 -114 0
705 -75 0
705 -452 0
705 -168 0
705 -273 0
705 -18 0
705 -164 0
705 -202 0
705 -191 0
705 -117 0
705 -239 0
705 -215 0
705 -138 0
706 -266 0
706 -184 0
706 -175 0
706 -97 0
706 -388 0
706 -214 0
706 -129 0
706 -180 0
706 -45 0
706 -210 0
706 -172 0
706 -165 0
706 -192 0
706 -103 0
706 -336 0
706 -396 0
706 -333 0
706 -81 0
706 -142 0
706 -461 0
706 -139 0
706 -107 0
707 -2 0
707 -486 0
707 -100 0
707 -453 0
707 -127 0
707 -199 0
707 -55 0
707 -71 0
707 -347 0
707 -99 0
707 -144 0
707 -211 0
707 -220 0
707 -210 0
708 -354 0
708 -402 0
708 -157 0
708 -98 0
708 -171 0
708 -146 0
708 -94 0
708 -128 0
708 -221 0
708 -200 0
708 -67 0
709 -214 0
709 -222 0
709 -141 0
709 -117 0
709 -102 0
709 -239 0
709 -161 0
709 -174 0
709 -172 0
709 -171 0
709 -367 0
709 -162 0
709 -143 0
709 -56 0
709 -111 0
709 -107 0
709 -75 0
710 -254 0
710 -96 0
710 -341 0
710 -292 0
710 -347 0
710 -145 0
710 -153 0
710 -134 0
710 -203 0
710 -323 0
710 -173 0
710 -142 0
710 -403 0
710 -122 0
710 -308 0
710 -388 0
710 -303 0
710 -201 0
710 -455 0
711 -459 0
711 -193 0
711 -112 0
711 -216 0
711 -278 0
711 -184 0
711 -229 0
711 -58 0
711 -324 0
711 -281 0
711 -427 0
711 -185 0
711 -431 0
711 -232 0
711 -201 0
712 -394 0
712 -207 0
712 -193 0
712 -127 0
712 -123 0
712 -108 0
712 -287 0
712 -220 0
712 -15 0
712 -401 0
712 -146 0
712 -153 0
712 -255 0
712 -163 0
712 -435 0
712 -148 0
713 -417 0
713 -472 0
713 -309 0
713 -386 0
713 -361 0
713 -81 0
713 -323 0
713 -198 0
713 -137 0
713 -54 0
713 -113 0
713 -221 0
713 -204 0
713 -190 0
714 -170 0
714 -235 0
714 -168 0
714 -52 0
714 -95 0
714 -468 0
714 -422 0
714 -106 0
714 -284 0
714 -109 0
714 -306 0
714 -368 0
714 -239 0
714 -289 0
714 -218 0
714 -231 0
714 -102 0
715 -123 0
715 -256 0
715 -196 0
715 -130 0
715 -374 0
715 -213 0
715 -62 0
715 -285 0
715 -232 0
715 -178 0
715 -200 0
715 -96 0
715 -36 0
715 -103 0
715 -192 0
716 -333 0
716 -394 0
716 -233 0
716 -179 0
716 -182 0
716 -104 0
716 -244 0
716 -89 0
716 -207 0
716 -99 0
716 -170 0
716 -279 0
716 -69 0
716 -71 0
716 -126 0
716 -217 0
716 -123 0
716 -145 0
716 -151 0
716 -110 0
717 -339 0
717 -334 0
717 -371 0
717 -250 0
717 -222 0
717 -116 0
717 -198 0
717 -194 0
717 -190 0
717 -109 0
717 -125 0
717 -322 0
717 -180 0
717 -162 0
717 -221 0
717 -98 0
717 -167 0
718 -191 0
718 -102 0
718 -122 0
718 -87 0
718 -231 0
718 -280 0
718 -172 0
718 -140 0
718 -284 0
718 -181 0
718 -173 0
718 -88 0
718 -23 0
719 -373 0
719 -13 0
719 -236 0
719 -165 0
719 -196 0
719 -206 0
719 -31 0
719 -103 0
719 -16 0
719 -203 0
719 -307 0
719 -96 0
719 -94 0
720 -465 0
720 -254 0
720 -123 0
720 -112 0
720 -104 0
720 -100 0
720 -197 0
720 -159 0
720 -71 0
720 -370 0
720 -179 0
720 -108 0
720 -232 0
720 -113 0
720 -298 0
720 -158 0
720 -127 0
720 -19 0
721 -376 0
721 -354 0
721 -477 0
721 -166 0
721 -227 0
721 -89 0
721 -338 0
721 -83 0
721 -263 0
721 -224 0
721 -204 0
721 -283 0
721 -190 0
721 -353 0
721 -238 0
722 -346 0
722 -375 0
722 -227 0
722 -161 0
722 -129 0
722 -485 0
722 -205 0
722 -390 0
722 -294 0
722 -400 0
722 -218 0
722 -114 0
722 -32 0
722 -153 0
722 -236 0
722 -102 0
722 -86 0
722 -96 0
722 -62 0
722 -284 0
722 -255 0
723 -166 0
723 -185 0
723 -195 0
723 -319 0
723 -207 0
723 -259 0
723 -172 0
723 -274 0
723 -208 0
723 -90 0
723 -228 0
723 -175 0
723 -156 0
723 -100 0
723 -77 0
724 -323 0
724 -302 0
724 -360 0
724 -193 0
724 -479 0
724 -366 0
724 -298 0
724 -133 0
724 -234 0
724 -288 0
724 -204 0
724 -88 0
724 -163 0
724 -194 0
724 -171 0
724 -101 0
724 -217 0
724 -98 0
724 -320 0
724 -74 0
725 -5 0
725 -484 0
725 -359 0
725 -302 0
725 -223 0
725 -100 0
725 -123 0
725 -108 0
725 -317 0
725 -112 0
725 -78 0
725 -308 0
725 -106 0
725 -234 0
725 -127 0
725 -139 0
725 -86 0
725 -185 0
725 -216 0
725 -233 0
725 -55 0
726 -465 0
726 -305 0
726 -171 0
726 -213 0
726 -217 0
726 -176 0
726 -221 0
726 -137 0
726 -146 0
726 -194 0
726 -186 0
726 -124 0
726 -224 0
726 -163 0
726 -102 0
726 -36 0
727 -100 0
727 -80 0
727 -117 0
727 -121 0
727 -106 0
727 -231 0
727 -187 0
727 -251 0
727 -171 0
727 -135 0
727 -198 0
727 -195 0
727 -317 0
727 -218 0
727 -413 0
727 -172 0
727 -38 0
727 -329 0
727 -283 0
728 -306 0
728 -135 0
728 -494 0
728 -330 0
728 -316 0
728 -146 0
728 -347 0
728 -130 0
728 -122 0
728 -169 0
728 -1 0
728 -482 0
728 -201 0
728 -178 0
728 -283 0
728 -440 0
728 -215 0
729 -223 0
729 -185 0
729 -490 0
729 -127 0
729 -115 0
729 -97 0
729 -104 0
729 -207 0
729 -119 0
729 -89 0
729 -226 0
729 -175 0
729 -99 0
729 -488 0
729 -108 0
729 -186 0
729 -374 0
729 -378 0
729 -304 0
729 -113 0
730 -231 0
730 -227 0
730 -382 0
730 -27 0
730 -177 0
730 -113 0
730 -136 0
730 -224 0
730 -217 0
730 -95 0
730 -25 0
730 -3 0
730 -234 0
730 -124 0
730 -226 0
730 -183 0
730 -101 0
730 -170 0
730 -486 0
730 -70 0
731 -248 0
731 -274 0
731 -125 0
731 -333 0
731 -222 0
732 -131 0
732 -69 0
732 -335 0
732 -310 0
732 -210 0
732 -385 0
732 -219 0
732 -201 0
732 -169 0
732 -154 0
732 -411 0
732 -35 0
732 -197 0
732 -174 0
732 -296 0
732 -107 0
733 -237 0
733 -211 0
733 -207 0
733 -99 0
733 -467 0
733 -223 0
733 -193 0
733 -430 0
733 -83 0
733 -397 0
733 -111 0
733 -189 0
733 -104 0
733 -166 0
734 -312 0
734 -248 0
734 -277 0
734 -208 0
734 -283 0
734 -402 0
734 -217 0
734 -98 0
734 -105 0
734 -200 0
734 -180 0
734 -171 0
734 -77 0
735 -478 0
735 -129 0
735 -181 0
735 -168 0
735 -177 0
735 -135 0
735 -239 0
735 -13 0
735 -164 0
735 -134 0
735 -215 0
735 -317 0
735 -368 0
735 -92 0
735 -106 0
735 -202 0
735 -137 0
735 -428 0
736 -211 0
736 -271 0
736 -206 0
736 -215 0
736 -130 0
736 -200 0
736 -445 0
736 -32 0
736 -295 0
736 -178 0
736 -466 0
737 -490 0
737 -468 0
737 -398 0
737 -211 0
737 -100 0
737 -115 0
737 -222 0
737 -81 0
737 -20 0
737 -401 0
737 -104 0
737 -44 0
737 -178 0
737 -469 0
737 -108 0
737 -287 0
737 -124 0
737 -148 0
737 -151 0
737 -191 0
737 -67 0
738 -395 0
738 -212 0
738 -168 0
738 -11 0
738 -288 0
738 -226 0
738 -204 0
738 -171 0
738 -190 0
738 -186 0
738 -109 0
738 -213 0
738 -414 0
738 -183 0
738 -116 0
739 -258 0
739 -114 0
739 -18 0
739 -11 0
739 -125 0
739 -355 0
739 -5 0
739 -222 0
739 -202 0
739 -76 0
739 -70 0
739 -110 0
739 -19 0
739 -208 0
740 -49 0
740 -290 0
740 -107 0
740 -219 0
740 -203 0
740 -188 0
740 -139 0
740 -122 0
740 -118 0
740 -307 0
740 -174 0
740 -173 0
740 -96 0
740 -84 0
740 -346 0
740 -130 0
741 -498 0
741 -264 0
741 -327 0
741 -489 0
741 -23 0
741 -42 0
741 -9 0
741 -430 0
741 -301 0
741 -259 0
741 -286 0
741 -315 0
741 -83 0
741 -433 0
741 -212 0
741 -249 0
741 -332 0
741 -493 0
741 -496 0
742 -324 0
742 -182 0
742 -276 0
742 -153 0
742 -401 0
742 -466 0
742 -358 0
742 -344 0
742 -386 0
742 -445 0
742 -319 0
742 -312 0
742 -257 0
742 -184 0
742 -484 0
743 -241 0
743 -403 0
743 -383 0
743 -378 0
743 -374 0
743 -443 0
743 -298 0
743 -270 0
743 -194 0
743 -407 0
743 -260 0
743 -168 0
743 -273 0
744 -375 0
744 -299 0
744 -289 0
744 -326 0
744 -256 0
744 -156 0
744 -281 0
744 -465 0
744 -128 0
744 -394 0
744 -341 0
744 -397 0
744 -488 0
745 -56 0
745 -446 0
745 -300 0
745 -301 0
745 -386 0
745 -261 0
745 -495 0
745 -337 0
745 -322 0
745 -295 0
745 -318 0
745 -103 0
745 -357 0
746 -449 0
746 -265 0
746 -391 0
746 -369 0
746 -399 0
746 -58 0
746 -103 0
746 -108 0
746 -175 0
746 -179 0
746 -315 0
746 -242 0
746 -382 0
746 -155 0
746 -430 0
746 -113 0
746 -312 0
746 -109 0
746 -194 0
747 -285 0
747 -437 0
747 -383 0
747 -227 0
747 -267 0
747 -176 0
747 -325 0
747 -198 0
747 -273 0
747 -158 0
748 -440 0
748 -170 0
748 -388 0
748 -393 0
748 -379 0
748 -331 0
748 -260 0
748 -252 0
748 -263 0
748 -48 0
748 -228 0
748 -311 0
748 -183 0
749 -332 0
749 -226 0
749 -85 0
749 -497 0
749 -486 0
749 -259 0
749 -182 0
749 -305 0
749 -245 0
749 -282 0
749 -302 0
749 -301 0
749 -15 0
750 -287 0
750 -272 0
750 -242 0
750 -373 0
750 -294 0
750 -235 0
750 -403 0
750 -353 0
750 -17 0
750 -51 0
750 -60 0
750 -430 0
750 -341 0
750 -26 0
750 -25 0
751 -348 0
751 -500 0
751 -172 0
751 -392 0
751 -298 0
751 -266 0
751 -384 0
751 -74 0
751 -255 0
751 -383 0
751 -316 0
751 -118 0
751 -158 0
751 -470 0
751 -117 0
751 -34 0
752 -382 0
752 -367 0
752 -397 0
752 -299 0
752 -306 0
752 -281 0
752 -276 0
752 -260 0
752 -336 0
752 -177 0
752 -117 0
752 -379 0
752 -244 0
752 -120 0
752 -96 0
752 -78 0
752 -243 0
753 -259 0
753 -297 0
753 -128 0
753 -91 0
753 -5 0
753 -296 0
753 -265 0
753 -301 0
753 -275 0
753 -495 0
753 -110 0
753 -303 0
753 -493 0
754 -301 0
754 -416 0
754 -369 0
754 -373 0
754 -337 0
754 -287 0
754 -117 0
754 -233 0
754 -184 0
754 -153 0
754 -421 0
754 -173 0
754 -41 0
754 -300 0
755 -372 0
755 -336 0
755 -242 0
755 -166 0
755 -378 0
755 -120 0
755 -54 0
755 -28 0
755 -116 0
755 -366 0
755 -20 0
755 -320 0
755 -330 0
755 -383 0
755 -26 0
755 -91 0
755 -247 0
756 -388 0
756 -393 0
756 -371 0
756 -401 0
756 -271 0
756 -181 0
756 -116 0
756 -457 0
756 -281 0
756 -248 0
756 -34 0
756 -10 0
757 -300 0
757 -496 0
757 -417 0
757 -305 0
757 -399 0
757 -494 0
757 -264 0
757 -332 0
757 -144 0
757 -245 0
757 -499 0
757 -493 0
757 -63 0
757 -495 0
757 -282 0
758 -259 0
758 -149 0
758 -290 0
758 -499 0
758 -257 0
758 -308 0
758 -264 0
758 -449 0
758 -303 0
758 -422 0
758 -296 0
758 -492 0
758 -282 0
758 -491 0
758 -245 0
758 -302 0
758 -5 0
758 -265 0
759 -201 0
759 -488 0
759 -264 0
759 -29 0
759 -328 0
759 -308 0
759 -303 0
759 -110 0
759 -324 0
759 -141 0
759 -257 0
759 -452 0
759 -58 0
759 -97 0
759 -296 0
759 -11 0
759 -267 0
760 -384 0
760 -256 0
760 -331 0
760 -382 0
760 -239 0
760 -311 0
760 -140 0
760 -375 0
760 -195 0
761 -453 0
761 -270 0
761 -180 0
761 -56 0
761 -36 0
761 -303 0
761 -323 0
761 -158 0
761 -264 0
761 -93 0
761 -494 0
761 -497 0
761 -258 0
761 -500 0
761 -493 0
761 -344 0
761 -496 0
762 -354 0
762 -112 0
762 -106 0
762 -66 0
762 -326 0
762 -407 0
762 -374 0
762 -378 0
762 -288 0
762 -332 0
762 -216 0
762 -270 0
762 -251 0
762 -238 0
762 -316 0
762 -183 0
762 -33 0
762 -432 0
762 -79 0
762 -86 0
762 -9 0
762 -243 0
763 -237 0
763 -371 0
763 -294 0
763 -326 0
763 -218 0
763 -384 0
763 -274 0
763 -95 0
763 -367 0
763 -73 0
763 -284 0
763 -461 0
763 -289 0
763 -140 0
763 -160 0
763 -410 0
763 -252 0
763 -68 0
764 -344 0
764 -496 0
764 -22 0
764 -455 0
764 -305 0
764 -296 0
764 -291 0
764 -476 0
764 -366 0
764 -245 0
764 -340 0
764 -254 0
764 -328 0
764 -253 0
764 -30 0
765 -453 0
765 -338 0
765 -264 0
765 -37 0
765 -495 0
765 -60 0
765 -296 0
765 -249 0
765 -500 0
765 -472 0
765 -292 0
765 -254 0
765 -353 0
765 -257 0
765 -241 0
765 -128 0
765 -496 0
765 -112 0
765 -364 0
766 -487 0
766 -446 0
766 -457 0
766 -485 0
766 -369 0
766 -440 0
766 -268 0
766 -449 0
766 -272 0
766 -412 0
766 -377 0
766 -451 0
766 -403 0
766 -76 0
766 -452 0
767 -459 0
767 -380 0
767 -442 0
767 -250 0
767 -303 0
767 -325 0
767 -404 0
767 -338 0
767 -243 0
767 -310 0
767 -494 0
767 -393 0
767 -255 0
767 -411 0
767 -330 0
767 -235 0
767 -320 0
767 -444 0
768 -395 0
768 -340 0
768 -269 0
768 -254 0
768 -367 0
768 -312 0
768 -246 0
768 -396 0
768 -378 0
768 -17 0
768 -279 0
768 -373 0
768 -327 0
769 -386 0
769 -369 0
769 -395 0
769 -287 0
769 -324 0
769 -319 0
769 -266 0
769 -279 0
769 -379 0
769 -24 0
769 -403 0
769 -77 0
769 -63 0
769 -493 0
769 -79 0
769 -84 0
769 -460 0
770 -302 0
770 -379 0
770 -494 0
770 -378 0
770 -293 0
770 -247 0
770 -332 0
770 -176 0
770 -277 0
770 -139 0
770 -91 0
770 -309 0
770 -320 0
770 -8 0
770 -82 0
770 -428 0
770 -417 0
771 -371 0
771 -397 0
771 -289 0
771 -311 0
771 -317 0
771 -281 0
771 -263 0
771 -260 0
771 -102 0
771 -121 0
771 -326 0
771 -485 0
771 -283 0
771 -244 0
771 -369 0
771 -248 0
771 -7 0
771 -321 0
771 -10 0
771 -43 0
771 -385 0
772 -479 0
772 -245 0
772 -373 0
772 -389 0
772 -403 0
772 -349 0
772 -386 0
772 -279 0
772 -297 0
772 -415 0
772 -314 0
772 -23 0
772 -318 0
772 -185 0
773 -272 0
773 -324 0
773 -378 0
773 -459 0
773 -383 0
773 -370 0
773 -298 0
773 -310 0
773 -325 0
773 -267 0
773 -277 0
773 -300 0
773 -68 0
773 -316 0
773 -489 0
773 -5 0
773 -88 0
773 -2 0
774 -331 0
774 -317 0
774 -281 0
774 -260 0
774 -256 0
774 -248 0
774 -401 0
774 -204 0
774 -388 0
774 -402 0
774 -83 0
774 -148 0
774 -244 0
774 -10 0
775 -462 0
775 -43 0
775 -61 0
775 -374 0
775 -339 0
775 -264 0
775 -499 0
775 -245 0
775 -257 0
775 -495 0
775 -229 0
775 -197 0
775 -42 0
775 -261 0
775 -181 0
775 -283 0
775 -221 0
775 -150 0
775 -282 0
775 -155 0
776 -402 0
776 -455 0
776 -395 0
776 -349 0
776 -324 0
776 -254 0
776 -384 0
776 -398 0
776 -187 0
776 -15 0
776 -297 0
776 -329 0
776 -266 0
776 -216 0
776 -287 0
776 -386 0
776 -32 0
776 -318 0
776 -352 0
776 -134 0
776 -475 0
777 -337 0
777 -179 0
777 -325 0
777 -367 0
777 -347 0
777 -177 0
777 -383 0
777 -251 0
778 -410 0
778 -286 0
778 -382 0
778 -375 0
778 -401 0
778 -263 0
778 -248 0
778 -92 0
778 -87 0
778 -76 0
778 -347 0
778 -260 0
778 -274 0
778 -114 0
778 -185 0
778 -204 0
778 -432 0
778 -393 0
778 -30 0
778 -26 0
778 -9 0
778 -439 0
779 -333 0
779 -308 0
779 -261 0
779 -373 0
779 -386 0
779 -365 0
779 -399 0
779 -329 0
779 -246 0
779 -375 0
779 -500 0
779 -105 0
779 -312 0
779 -250 0
779 -391 0
780 -390 0
780 -402 0
780 -436 0
780 -97 0
780 -378 0
780 -311 0
780 -187 0
780 -496 0
780 -442 0
780 -46 0
780 -310 0
780 -247 0
780 -270 0
780 -36 0
780 -213 0
780 -261 0
780 -307 0
780 -320 0
780 -298 0
780 -387 0
780 -267 0
780 -304 0
780 -145 0
780 -366 0
780 -255 0
781 -309 0
781 -184 0
781 -384 0
781 -382 0
781 -401 0
781 -223 0
781 -331 0
781 -311 0
781 -278 0
781 -78 0
781 -77 0
781 -294 0
781 -215 0
781 -371 0
781 -189 0
781 -8 0
781 -321 0
781 -13 0
781 -316 0
781 -263 0
781 -259 0
781 -239 0
782 -57 0
782 -241 0
782 -77 0
782 -461 0
782 -308 0
782 -302 0
782 -261 0
782 -423 0
782 -269 0
782 -408 0
782 -220 0
782 -323 0
782 -473 0
783 -253 0
783 -490 0
783 -172 0
783 -325 0
783 -323 0
783 -190 0
783 -171 0
783 -149 0
783 -148 0
783 -255 0
783 -48 0
784 -175 0
784 -271 0
784 -260 0
784 -21 0
784 -161 0
784 -463 0
784 -317 0
784 -183 0
784 -61 0
784 -388 0
784 -429 0
784 -164 0
784 -352 0
784 -396 0
784 -311 0
784 -306 0
784 -299 0
784 -133 0
784 -248 0
784 -31 0
784 -237 0
784 -256 0
785 -227 0
785 -161 0
785 -332 0
785 -307 0
785 -304 0
785 -236 0
785 -499 0
785 -173 0
785 -162 0
785 -351 0
785 -491 0
785 -282 0
785 -77 0
785 -240 0
785 -391 0
786 -378 0
786 -478 0
786 -496 0
786 -12 0
786 -455 0
786 -339 0
786 -250 0
786 -232 0
786 -346 0
786 -255 0
786 -200 0
786 -392 0
786 -261 0
786 -117 0
786 -447 0
787 -415 0
787 -452 0
787 -302 0
787 -185 0
787 -367 0
787 -175 0
787 -193 0
787 -197 0
787 -327 0
787 -176 0
787 -272 0
788 -245 0
788 -359 0
788 -377 0
788 -179 0
788 -310 0
788 -38 0
788 -320 0
788 -313 0
788 -81 0
788 -270 0
788 -243 0
788 -277 0
788 -462 0
788 -213 0
788 -273 0
788 -476 0
788 -136 0
788 -221 0
788 -184 0
788 -177 0
788 -283 0
789 -328 0
789 -294 0
789 -161 0
789 -199 0
789 -181 0
789 -299 0
789 -276 0
789 -391 0
789 -94 0
789 -274 0
789 -459 0
789 -239 0
789 -248 0
789 -483 0
789 -81 0
790 -496 0
790 -129 0
790 -392 0
790 -238 0
790 -186 0
790 -327 0
790 -300 0
790 -497 0
790 -332 0
790 -23 0
790 -385 0
790 -318 0
790 -165 0
790 -304 0
790 -472 0
790 -196 0
790 -54 0
791 -275 0
791 -131 0
791 -358 0
791 -339 0
791 -345 0
791 -401 0
791 -282 0
791 -261 0
791 -253 0
791 -258 0
791 -241 0
791 -325 0
791 -499 0
791 -310 0
791 -371 0
791 -188 0
791 -308 0
791 -348 0
792 -474 0
792 -427 0
792 -166 0
792 -170 0
792 -297 0
792 -212 0
792 -99 0
792 -20 0
792 -82 0
792 -220 0
792 -400 0
792 -441 0
792 -248 0
792 -308 0
792 -211 0
792 -193 0
792 -188 0
792 -254 0
792 -435 0
792 -153 0
792 -13 0
792 -411 0
792 -28 0
793 -273 0
793 -188 0
793 -251 0
793 -280 0
793 -213 0
793 -224 0
793 -217 0
793 -247 0
793 -262 0
793 -128 0
793 -115 0
793 -173 0
793 -277 0
794 -469 0
794 -395 0
794 -382 0
794 -218 0
794 -319 0
794 -195 0
794 -115 0
794 -32 0
794 -247 0
794 -94 0
794 -352 0
794 -228 0
794 -71 0
794 -271 0
794 -15 0
794 -102 0
794 -181 0
794 -439 0
794 -187 0
794 -326 0
795 -319 0
795 -182 0
795 -401 0
795 -135 0
795 -18 0
795 -163 0
795 -493 0
795 -494 0
795 -300 0
795 -202 0
795 -165 0
795 -278 0
795 -173 0
795 -215 0
795 -155 0
795 -208 0
795 -422 0
795 -466 0
795 -425 0
795 -5 0
796 -333 0
796 -325 0
796 -285 0
796 -238 0
796 -323 0
796 -286 0
796 -428 0
796 -120 0
796 -386 0
796 -213 0
796 -257 0
796 -346 0
796 -499 0
796 -189 0
796 -303 0
797 -465 0
797 -287 0
797 -254 0
797 -166 0
797 -184 0
797 -289 0
797 -299 0
797 -44 0
797 -353 0
797 -279 0
797 -250 0
797 -467 0
797 -269 0
798 -372 0
798 -184 0
798 -492 0
798 -270 0
798 -68 0
798 -88 0
798 -313 0
798 -198 0
798 -396 0
798 -320 0
798 -39 0
799 -401 0
799 -326 0
799 -263 0
799 -281 0
799 -278 0
799 -274 0
799 -366 0
799 -191 0
799 -317 0
799 -260 0
799 -419 0
799 -164 0
799 -165 0
799 -199 0
799 -161 0
799 -181 0
799 -372 0
800 -242 0
800 -497 0
800 -73 0
800 -153 0
800 -495 0
800 -128 0
800 -445 0
800 -332 0
800 -304 0
800 -162 0
800 -190 0
800 -214 0
800 -169 0
800 -188 0
800 -64 0
800 -318 0
800 -385 0
801 -291 0
801 -113 0
801 -257 0
801 -480 0
801 -463 0
801 -385 0
801 -303 0
801 -374 0
801 -345 0
801 -259 0
801 -261 0
801 -354 0
801 -85 0
801 -408 0
801 -283 0
801 -305 0
801 -202 0
801 -129 0
801 -339 0
801 -333 0
802 -192 0
802 -387 0
802 -348 0
802 -339 0
802 -323 0
802 -414 0
802 -308 0
802 -301 0
802 -291 0
802 -253 0
802 -296 0
802 -362 0
802 -191 0
802 -29 0
802 -402 0
802 -241 0
802 -346 0
802 -256 0
802 -318 0
802 -261 0
803 -364 0
803 -356 0
803 -322 0
803 -446 0
803 -291 0
803 -265 0
803 -314 0
803 -286 0
803 -272 0
803 -221 0
803 -348 0
803 -359 0
803 -357 0
804 -283 0
804 -124 0
804 -322 0
804 -288 0
804 -318 0
804 -232 0
804 -9 0
804 -169 0
804 -327 0
804 -196 0
804 -162 0
804 -426 0
804 -430 0
805 -48 0
805 -275 0
805 -261 0
805 -241 0
805 -173 0
805 -102 0
805 -404 0
805 -334 0
805 -408 0
805 -136 0
805 -291 0
805 -214 0
806 -444 0
806 -360 0
806 -229 0
806 -164 0
806 -135 0
806 -271 0
806 -260 0
806 -83 0
806 -222 0
806 -5 0
806 -191 0
806 -231 0
807 -271 0
807 -498 0
807 -492 0
807 -495 0
807 -287 0
807 -144 0
807 -400 0
807 -224 0
807 -149 0
807 -461 0
807 -425 0
807 -215 0
807 -236 0
807 -232 0
807 -178 0
807 -200 0
807 -4 0
807 -399 0
807 -111 0
808 -323 0
808 -309 0
808 -295 0
808 -99 0
808 -483 0
808 -61 0
808 -382 0
808 -359 0
808 -249 0
808 -63 0
808 -301 0
808 -296 0
808 -24 0
808 -346 0
809 -470 0
809 -268 0
809 -246 0
809 -193 0
809 -279 0
809 -373 0
809 -75 0
809 -172 0
809 -360 0
809 -337 0
809 -307 0
809 -292 0
809 -11 0
809 -272 0
809 -297 0
810 -313 0
810 -202 0
810 -195 0
810 -419 0
810 -426 0
810 -171 0
810 -180 0
810 -308 0
810 -81 0
810 -370 0
810 -293 0
811 -326 0
811 -321 0
811 -256 0
811 -172 0
811 -294 0
811 -246 0
811 -299 0
811 -375 0
811 -169 0
811 -306 0
811 -198 0
811 -410 0
811 -278 0
811 -274 0
811 -155 0
811 -53 0
812 -291 0
812 -266 0
812 -166 0
812 -185 0
812 -150 0
812 -388 0
812 -254 0
812 -139 0
812 -283 0
812 -15 0
812 -45 0
812 -174 0
812 -416 0
813 -419 0
813 -365 0
813 -266 0
813 -387 0
813 -180 0
813 -293 0
813 -277 0
813 -273 0
813 -194 0
813 -262 0
813 -42 0
813 -243 0
813 -47 0
813 -158 0
813 -26 0
813 -256 0
814 -452 0
814 -398 0
814 -365 0
814 -297 0
814 -287 0
814 -242 0
814 -292 0
814 -179 0
814 -246 0
814 -250 0
814 -279 0
814 -214 0
814 -190 0
814 -406 0
815 -5 0
815 -323 0
815 -360 0
815 -309 0
815 -329 0
815 -269 0
815 -220 0
815 -500 0
815 -187 0
815 -284 0
815 -244 0
815 -279 0
815 -346 0
815 -365 0
815 -443 0
815 -338 0
815 -184 0
815 -140 0
815 -407 0
815 -453 0
815 -325 0
816 -420 0
816 -287 0
816 -108 0
816 -276 0
816 -198 0
816 -313 0
816 -293 0
816 -443 0
816 -176 0
816 -180 0
816 -221 0
816 -190 0
816 -255 0
816 -37 0
817 -166 0
817 -286 0
817 -493 0
817 -278 0
817 -498 0
817 -244 0
817 -218 0
817 -253 0
817 -378 0
817 -191 0
817 -256 0
817 -183 0
817 -313 0
817 -289 0
817 -168 0
818 -491 0
818 -231 0
818 -500 0
818 -310 0
818 -162 0
818 -327 0
818 -451 0
818 -82 0
818 -325 0
818 -174 0
818 -241 0
818 -253 0
818 -275 0
818 -207 0
819 -315 0
819 -257 0
819 -254 0
819 -272 0
819 -166 0
819 -246 0
819 -413 0
819 -217 0
819 -214 0
819 -107 0
819 -181 0
819 -401 0
819 -297 0
819 -193 0
820 -329 0
820 -262 0
820 -247 0
820 -228 0
820 -167 0
820 -325 0
820 -186 0
820 -273 0
820 -192 0
820 -6 0
820 -190 0
821 -275 0
821 -331 0
821 -326 0
821 -263 0
821 -274 0
821 -495 0
821 -496 0
821 -172 0
821 -87 0
821 -171 0
821 -181 0
821 -256 0
821 -465 0
821 -372 0
821 -161 0
822 -497 0
822 -498 0
822 -135 0
822 -169 0
822 -18 0
822 -285 0
822 -98 0
822 -249 0
822 -295 0
822 -459 0
822 -449 0
822 -196 0
822 -188 0
822 -300 0
822 -89 0
822 -173 0
822 -318 0
822 -141 0
822 -492 0
822 -402 0
822 -327 0
822 -162 0
823 -445 0
823 -126 0
823 -381 0
823 -362 0
823 -333 0
823 -303 0
823 -265 0
823 -342 0
823 -275 0
823 -457 0
823 -310 0
823 -354 0
823 -372 0
823 -10 0
823 -65 0
823 -264 0
824 -309 0
824 -329 0
824 -119 0
824 -185 0
824 -268 0
824 -184 0
824 -170 0
824 -266 0
824 -67 0
824 -69 0
824 -193 0
824 -116 0
824 -260 0
824 -212 0
824 -365 0
824 -202 0
824 -182 0
824 -56 0
824 -53 0
825 -373 0
825 -268 0
825 -156 0
825 -383 0
825 -243 0
825 -392 0
825 -180 0
825 -364 0
825 -2 0
825 -387 0
825 -316 0
826 -399 0
826 -384 0
826 -331 0
826 -317 0
826 -260 0
826 -248 0
826 -281 0
826 -199 0
826 -181 0
826 -289 0
826 -494 0
826 -135 0
826 -252 0
826 -164 0
826 -131 0
826 -355 0
826 -187 0
826 -300 0
827 -393 0
827 -499 0
827 -494 0
827 -500 0
827 -76 0
827 -335 0
827 -310 0
827 -373 0
827 -147 0
827 -300 0
827 -50 0
827 -200 0
827 -169 0
827 -188 0
827 -243 0
827 -242 0
827 -400 0
828 -366 0
828 -180 0
828 -160 0
828 -228 0
828 -364 0
828 -368 0
828 -339 0
828 -336 0
828 -232 0
828 -265 0
828 -257 0
828 -261 0
828 -258 0
828 -42 0
828 -296 0
828 -310 0
828 -128 0
828 -212 0
828 -70 0
829 -412 0
829 -369 0
829 -312 0
829 -242 0
829 -272 0
829 -185 0
829 -297 0
829 -254 0
829 -266 0
829 -218 0
829 -40 0
829 -346 0
829 -441 0
829 -250 0
829 -115 0
829 -131 0
829 -215 0
829 -11 0
830 -420 0
830 -325 0
830 -288 0
830 -280 0
830 -251 0
830 -186 0
830 -217 0
830 -316 0
830 -262 0
830 -194 0
830 -408 0
830 -320 0
830 -273 0
830 -183 0
830 -1 0
830 -118 0
830 -305 0
830 -488 0
831 -382 0
831 -311 0
831 -252 0
831 -259 0
831 -181 0
831 -289 0
831 -219 0
831 -263 0
831 -479 0
831 -278 0
831 -439 0
831 -394 0
831 -422 0
832 -314 0
832 -266 0
832 -115 0
832 -499 0
832 -263 0
832 -496 0
832 -52 0
832 -405 0
832 -374 0
832 -370 0
832 -165 0
832 -123 0
832 -307 0
832 -196 0
832 -327 0
832 -322 0
832 -494 0
832 -498 0
832 -303 0
832 -247 0
833 -68 0
833 -72 0
833 -380 0
833 -381 0
833 -328 0
833 -302 0
833 -336 0
833 -469 0
833 -265 0
833 -346 0
833 -282 0
833 -437 0
833 -18 0
833 -225 0
833 -498 0
833 -308 0
833 -54 0
834 -470 0
834 -409 0
834 -436 0
834 -433 0
834 -395 0
834 -340 0
834 -274 0
834 -430 0
834 -268 0
834 -442 0
834 -400 0
834 -279 0
834 -324 0
834 -241 0
834 -77 0
834 -389 0
834 -70 0
834 -160 0
835 -355 0
835 -175 0
835 -191 0
835 -453 0
835 -235 0
835 -48 0
835 -374 0
835 -341 0
835 -74 0
835 -32 0
835 -171 0
835 -384 0
835 -428 0
835 -387 0
836 -196 0
836 -133 0
836 -152 0
836 -381 0
836 -348 0
836 -282 0
836 -376 0
836 -346 0
836 -296 0
836 -93 0
836 -265 0
836 -301 0
836 -147 0
836 -412 0
836 -229 0
837 -39 0
837 -8 0
837 -427 0
837 -455 0
837 -365 0
837 -355 0
837 -334 0
837 -358 0
837 -98 0
837 -395 0
837 -335 0
837 -349 0
837 -140 0
838 -426 0
838 -337 0
838 -326 0
838 -218 0
838 -404 0
838 -443 0
838 -368 0
838 -453 0
838 -383 0
838 -450 0
838 -344 0
838 -327 0
838 -21 0
838 -280 0
838 -419 0
838 -434 0
839 -406 0
839 -459 0
839 -390 0
839 -372 0
839 -63 0
839 -282 0
839 -57 0
839 -264 0
839 -111 0
839 -452 0
839 -346 0
839 -394 0
839 -238 0
839 -376 0
840 -433 0
840 -452 0
840 -417 0
840 -391 0
840 -357 0
840 -444 0
840 -491 0
840 -156 0
840 -231 0
840 -449 0
840 -185 0
840 -343 0
840 -266 0
840 -281 0
840 -219 0
840 -15 0
841 -475 0
841 -179 0
841 -115 0
841 -384 0
841 -140 0
841 -259 0
841 -445 0
841 -434 0
841 -428 0
841 -361 0
841 -448 0
841 -401 0
841 -353 0
841 -238 0
841 -330 0
841 -79 0
842 -450 0
842 -282 0
842 -194 0
842 -291 0
842 -489 0
842 -482 0
842 -368 0
842 -364 0
842 -359 0
842 -302 0
842 -151 0
842 -264 0
842 -123 0
842 -401 0
842 -286 0
842 -270 0
843 -305 0
843 -440 0
843 -377 0
843 -357 0
843 -276 0
843 -363 0
843 -444 0
843 -361 0
843 -62 0
843 -414 0
843 -487 0
843 -424 0
843 -268 0
844 -378 0
844 -387 0
844 -356 0
844 -293 0
844 -27 0
844 -445 0
844 -370 0
844 -341 0
844 -98 0
844 -29 0
844 -255 0
845 -296 0
845 -409 0
845 -277 0
845 -285 0
845 -128 0
845 -390 0
845 -398 0
845 -376 0
845 -354 0
845 -448 0
845 -328 0
845 -305 0
845 -282 0
845 -36 0
845 -348 0
845 -342 0
845 -403 0
845 -470 0
846 -366 0
846 -70 0
846 -408 0
846 -390 0
846 -381 0
846 -328 0
846 -492 0
846 -188 0
846 -372 0
846 -196 0
846 -243 0
847 -417 0
847 -211 0
847 -91 0
847 -441 0
847 -443 0
847 -438 0
847 -497 0
847 -482 0
847 -378 0
847 -280 0
847 -66 0
847 -234 0
847 -356 0
847 -300 0
847 -295 0
847 -341 0
847 -10 0
848 -59 0
848 -296 0
848 -85 0
848 -308 0
848 -390 0
848 -386 0
848 -376 0
848 -368 0
848 -364 0
848 -342 0
848 -346 0
848 -84 0
848 -359 0
848 -106 0
848 -405 0
848 -394 0
849 -430 0
849 -391 0
849 -389 0
849 -403 0
849 -340 0
849 -269 0
849 -279 0
849 -352 0
849 -334 0
849 -60 0
849 -234 0
849 -114 0
849 -343 0
849 -294 0
849 -353 0
849 -346 0
849 -131 0
849 -395 0
849 -440 0
849 -58 0
850 -205 0
850 -437 0
850 -378 0
850 -361 0
850 -273 0
850 -356 0
850 -270 0
850 -445 0
850 -344 0
850 -68 0
850 -136 0
850 -428 0
850 -347 0
850 -366 0
850 -10 0
851 -348 0
851 -359 0
851 -137 0
851 -284 0
851 -402 0
851 -394 0
851 -328 0
851 -303 0
851 -301 0
851 -296 0
851 -376 0
851 -346 0
851 -364 0
851 -84 0
851 -230 0
851 -219 0
851 -333 0
851 -270 0
851 -336 0
852 -359 0
852 -308 0
852 -427 0
852 -399 0
852 -365 0
852 -360 0
852 -152 0
852 -343 0
852 -442 0
852 -268 0
852 -306 0
852 -449 0
852 -283 0
852 -337 0
852 -247 0
852 -460 0
852 -221 0
852 -313 0
852 -436 0
852 -272 0
852 -177 0
853 -436 0
853 -443 0
853 -437 0
853 -392 0
853 -366 0
853 -356 0
853 -344 0
853 -273 0
853 -131 0
853 -335 0
853 -124 0
853 -190 0
853 -450 0
853 -277 0
853 -61 0
853 -228 0
853 -467 0
854 -339 0
854 -402 0
854 -390 0
854 -385 0
854 -381 0
854 -336 0
854 -303 0
854 -398 0
854 -346 0
854 -391 0
854 -260 0
854 -405 0
855 -440 0
855 -416 0
855 -389 0
855 -340 0
855 -334 0
855 -399 0
855 -205 0
855 -87 0
855 -84 0
855 -304 0
855 -343 0
856 -170 0
856 -306 0
856 -69 0
856 -29 0
856 -292 0
856 -480 0
856 -441 0
856 -434 0
856 -396 0
856 -431 0
856 -443 0
856 -424 0
856 -341 0
856 -40 0
857 -439 0
857 -416 0
857 -369 0
857 -389 0
857 -403 0
857 -329 0
857 -268 0
857 -355 0
857 -442 0
857 -296 0
857 -450 0
857 -336 0
857 -496 0
857 -427 0
857 -377 0
857 -203 0
857 -145 0
857 -34 0
858 -435 0
858 -344 0
858 -443 0
858 -22 0
858 -434 0
858 -431 0
858 -453 0
858 -338 0
858 -193 0
858 -411 0
858 -196 0
858 -335 0
858 -404 0
859 -28 0
859 -409 0
859 -402 0
859 -398 0
859 -390 0
859 -364 0
859 -346 0
859 -249 0
859 -335 0
859 -189 0
859 -339 0
859 -385 0
859 -274 0
859 -372 0
859 -323 0
860 -416 0
860 -389 0
860 -395 0
860 -343 0
860 -337 0
860 -334 0
860 -458 0
860 -417 0
860 -147 0
860 -316 0
860 -277 0
860 -172 0
860 -127 0
861 -446 0
861 -372 0
861 -476 0
861 -443 0
861 -428 0
861 -396 0
861 -445 0
861 -441 0
861 -344 0
861 -45 0
861 -392 0
861 -20 0
862 -407 0
862 -453 0
862 -131 0
862 -77 0
862 -405 0
862 -390 0
862 -485 0
862 -364 0
862 -351 0
862 -184 0
862 -308 0
862 -316 0
862 -402 0
862 -13 0
863 -420 0
863 -427 0
863 -455 0
863 -416 0
863 -377 0
863 -334 0
863 -287 0
863 -58 0
863 -360 0
863 -186 0
863 -466 0
863 -163 0
863 -59 0
863 -124 0
864 -409 0
864 -354 0
864 -345 0
864 -339 0
864 -274 0
864 -372 0
864 -395 0
864 -227 0
864 -153 0
864 -413 0
865 -416 0
865 -412 0
865 -399 0
865 -377 0
865 -369 0
865 -355 0
865 -343 0
865 -266 0
865 -319 0
865 -268 0
865 -379 0
865 -259 0
865 -201 0
865 -349 0
865 -434 0
866 -342 0
866 -469 0
866 -297 0
866 -104 0
866 -492 0
866 -404 0
866 -330 0
866 -251 0
866 -247 0
866 -277 0
866 -273 0
866 -28 0
866 -101 0
866 -356 0
866 -270 0
866 -140 0
866 -25 0
866 -490 0
867 -393 0
867 -311 0
867 -248 0
867 -175 0
867 -256 0
867 -100 0
867 -67 0
867 -9 0
867 -5 0
867 -274 0
867 -392 0
867 -2 0
868 -46 0
868 -105 0
868 -381 0
868 -19 0
868 -314 0
868 -489 0
868 -394 0
868 -380 0
868 -488 0
868 -369 0
868 -409 0
868 -333 0
868 -354 0
868 -398 0
868 -336 0
868 -239 0
869 -389 0
869 -395 0
869 -349 0
869 -343 0
869 -334 0
869 -242 0
869 -279 0
869 -207 0
869 -197 0
869 -52 0
869 -282 0
869 -166 0
869 -314 0
869 -273 0
869 -129 0
869 -50 0
869 -59 0
869 -291 0
870 -425 0
870 -343 0
870 -184 0
870 -445 0
870 -396 0
870 -387 0
870 -392 0
870 -378 0
870 -350 0
870 -247 0
870 -280 0
870 -208 0
870 -353 0
870 -335 0
870 -234 0
870 -25 0
870 -251 0
870 -207 0
871 -476 0
871 -211 0
871 -393 0
871 -375 0
871 -306 0
871 -311 0
871 -110 0
871 -392 0
871 -163 0
871 -2 0
871 -20 0
871 -248 0
871 -9 0
871 -3 0
872 -59 0
872 -473 0
872 -351 0
872 -394 0
872 -13 0
872 -376 0
872 -345 0
872 -333 0
872 -328 0
872 -280 0
872 -332 0
872 -343 0
872 -362 0
872 -125 0
872 -354 0
872 -439 0
872 -181 0
873 -389 0
873 -377 0
873 -340 0
873 -363 0
873 -360 0
873 -100 0
873 -485 0
873 -500 0
873 -312 0
873 -276 0
873 -314 0
873 -355 0
873 -171 0
873 -357 0
873 -124 0
873 -231 0
874 -242 0
874 -112 0
874 -106 0
874 -241 0
874 -383 0
874 -378 0
874 -370 0
874 -82 0
874 -344 0
874 -338 0
874 -40 0
874 -167 0
874 -353 0
874 -467 0
874 -231 0
874 -384 0
874 -177 0
874 -304 0
874 -255 0
874 -404 0
874 -365 0
875 -449 0
875 -233 0
875 -397 0
875 -388 0
875 -379 0
875 -256 0
875 -274 0
875 -355 0
875 -431 0
875 -131 0
875 -33 0
875 -10 0
876 -362 0
876 -183 0
876 -84 0
876 -413 0
876 -409 0
876 -394 0
876 -381 0
876 -364 0
876 -359 0
876 -354 0
876 -475 0
876 -328 0
876 -368 0
876 -100 0
876 -497 0
876 -246 0
876 -484 0
877 -6 0
877 -467 0
877 -340 0
877 -360 0
877 -250 0
877 -314 0
877 -272 0
877 -375 0
877 -391 0
877 -198 0
877 -358 0
877 -383 0
877 -242 0
877 -428 0
877 -62 0
877 -44 0
877 -173 0
877 -309 0
878 -112 0
878 -383 0
878 -277 0
878 -353 0
878 -247 0
878 -404 0
878 -218 0
878 -361 0
878 -358 0
878 -366 0
878 -402 0
878 -438 0
878 -201 0
878 -332 0
879 -302 0
879 -391 0
879 -276 0
879 -272 0
879 -401 0
879 -397 0
879 -260 0
879 -366 0
879 -150 0
879 -288 0
879 -6 0
879 -5 0
879 -267 0
879 -26 0
879 -439 0
879 -40 0
879 -2 0
879 -301 0
880 -105 0
880 -234 0
880 -398 0
880 -100 0
880 -420 0
880 -424 0
880 -413 0
880 -405 0
880 -385 0
880 -362 0
880 -346 0
880 -419 0
880 -48 0
880 -320 0
880 -351 0
880 -205 0
880 -152 0
880 -339 0
881 -362 0
881 -113 0
881 -419 0
881 -411 0
881 -407 0
881 -390 0
881 -172 0
881 -110 0
881 -372 0
881 -405 0
881 -91 0
881 -483 0
881 -395 0
881 -448 0
881 -385 0
882 -265 0
882 -485 0
882 -384 0
882 -256 0
882 -500 0
882 -263 0
882 -187 0
882 -271 0
882 -22 0
882 -80 0
882 -274 0
882 -321 0
882 -338 0
882 -460 0
882 -190 0
882 -67 0
882 -311 0
882 -371 0
882 -173 0
882 -248 0
882 -496 0
882 -9 0
882 -1 0
882 -322 0
882 -8 0
883 -368 0
883 -305 0
883 -330 0
883 -311 0
883 -46 0
883 -366 0
883 -370 0
883 -341 0
883 -217 0
883 -57 0
883 -344 0
883 -350 0
883 -2 0
884 -379 0
884 -271 0
884 -278 0
884 -248 0
884 -331 0
884 -290 0
884 -472 0
884 -150 0
884 -186 0
884 -121 0
884 -372 0
884 -3 0
884 -346 0
884 -2 0
884 -458 0
885 -237 0
885 -437 0
885 -277 0
885 -151 0
885 -210 0
885 -420 0
885 -425 0
885 -419 0
885 -342 0
885 -302 0
885 -409 0
885 -364 0
885 -325 0
885 -339 0
885 -201 0
885 -181 0
885 -497 0
885 -333 0
886 -457 0
886 -342 0
886 -399 0
886 -365 0
886 -334 0
886 -349 0
886 -337 0
886 -268 0
886 -319 0
886 -484 0
886 -343 0
886 -369 0
886 -112 0
886 -463 0
886 -302 0
886 -373 0
886 -64 0
886 -232 0
886 -73 0
886 -37 0
887 -389 0
887 -315 0
887 -118 0
887 -289 0
887 -347 0
887 -15 0
887 -374 0
887 -350 0
887 -356 0
887 -316 0
887 -330 0
887 -270 0
887 -255 0
887 -277 0
887 -262 0
887 -320 0
887 -78 0
887 -247 0
887 -243 0
887 -201 0
887 -338 0
888 -389 0
888 -289 0
888 -197 0
888 -497 0
888 -251 0
888 -3 0
888 -5 0
888 -105 0
888 -108 0
888 -331 0
888 -174 0
888 -244 0
888 -397 0
888 -10 0
888 -401 0
888 -419 0
888 -59 0
888 -8 0
889 -474 0
889 -395 0
889 -365 0
889 -343 0
889 -340 0
889 -337 0
889 -363 0
889 -328 0
889 -279 0
889 -266 0
889 -311 0
889 -276 0
889 -427 0
889 -436 0
889 -158 0
889 -265 0
889 -235 0
889 -61 0
889 -252 0
890 -419 0
890 -409 0
890 -415 0
890 -416 0
890 -380 0
890 -189 0
890 -212 0
890 -106 0
890 -121 0
890 -71 0
890 -141 0
890 -405 0
890 -156 0
890 -435 0
891 -40 0
891 -342 0
891 -333 0
891 -440 0
891 -268 0
891 -254 0
891 -306 0
891 -260 0
891 -358 0
891 -442 0
891 -273 0
891 -204 0
891 -255 0
891 -67 0
891 -314 0
891 -399 0
891 -395 0
892 -328 0
892 -34 0
892 -296 0
892 -43 0
892 -58 0
892 -366 0
892 -267 0
892 -374 0
892 -383 0
892 -247 0
892 -390 0
892 -40 0
892 -285 0
893 -397 0
893 -382 0
893 -181 0
893 -244 0
893 -36 0
893 -341 0
893 -225 0
893 -227 0
893 -409 0
893 -5 0
893 -388 0
893 -2 0
894 -221 0
894 -152 0
894 -424 0
894 -429 0
894 -381 0
894 -354 0
894 -345 0
894 -476 0
894 -343 0
894 -187 0
894 -359 0
894 -255 0
894 -436 0
894 -362 0
894 -337 0
895 -442 0
895 -275 0
895 -377 0
895 -363 0
895 -287 0
895 -242 0
895 -421 0
895 -254 0
895 -396 0
895 -373 0
895 -327 0
895 -165 0
895 -61 0
895 -246 0
896 -197 0
896 -383 0
896 -353 0
896 -247 0
896 -341 0
896 -358 0
896 -374 0
896 -378 0
896 -335 0
896 -347 0
896 -338 0
896 -273 0
896 -251 0
896 -438 0
896 -23 0
896 -21 0
896 -350 0
897 -269 0
897 -382 0
897 -371 0
897 -367 0
897 -20 0
897 -248 0
897 -281 0
897 -39 0
897 -73 0
897 -306 0
897 -140 0
897 -231 0
897 -284 0
897 -278 0
897 -36 0
897 -37 0
897 -96 0
897 -203 0
898 -134 0
898 -394 0
898 -458 0
898 -424 0
898 -419 0
898 -364 0
898 -362 0
898 -433 0
898 -294 0
898 -475 0
898 -116 0
898 -376 0
898 -122 0
898 -484 0
898 -429 0
898 -229 0
898 -329 0
898 -49 0
898 -283 0
898 -411 0
898 -426 0
899 -429 0
899 -389 0
899 -395 0
899 -369 0
899 -340 0
899 -329 0
899 -266 0
899 -272 0
899 -499 0
899 -299 0
899 -360 0
899 -442 0
899 -16 0
900 -336 0
900 -421 0
900 -455 0
900 -358 0
900 -443 0
900 -392 0
900 -383 0
900 -341 0
900 -251 0
900 -270 0
900 -344 0
900 -366 0
900 -221 0
900 -404 0
900 -69 0
900 -457 0
900 -313 0
900 -109 0
900 -1 0
901 -397 0
901 -371 0
901 -263 0
901 -252 0
901 -248 0
901 -120 0
901 -327 0
901 -485 0
901 -27 0
901 -9 0
902 -461 0
902 -137 0
902 -429 0
902 -422 0
902 -413 0
902 -407 0
902 -434 0
902 -414 0
902 -139 0
902 -376 0
902 -420 0
902 -209 0
902 -348 0
902 -269 0
903 -2 0
903 -372 0
903 -354 0
903 -359 0
903 -455 0
903 -399 0
903 -395 0
903 -377 0
903 -337 0
903 -48 0
903 -276 0
903 -27 0
903 -245 0
903 -262 0
903 -347 0
903 -358 0
903 -254 0
903 -155 0
903 -192 0
903 -285 0
903 -471 0
903 -167 0
904 -346 0
904 -291 0
904 -430 0
904 -249 0
904 -445 0
904 -251 0
904 -370 0
904 -347 0
904 -341 0
904 -387 0
904 -383 0
904 -357 0
904 -273 0
904 -148 0
904 -277 0
904 -327 0
905 -243 0
905 -140 0
905 -409 0
905 -394 0
905 -364 0
905 -359 0
905 -426 0
905 -398 0
905 -402 0
905 -446 0
905 -415 0
905 -68 0
905 -191 0
905 -161 0
906 -429 0
906 -478 0
906 -476 0
906 -436 0
906 -433 0
906 -417 0
906 -414 0
906 -352 0
906 -254 0
906 -242 0
906 -472 0
906 -43 0
906 -495 0
906 -231 0
906 -135 0
906 -264 0
906 -216 0
906 -426 0
906 -183 0
906 -214 0
906 -64 0
906 -128 0
907 -335 0
907 -219 0
907 -290 0
907 -32 0
907 -429 0
907 -405 0
907 -390 0
907 -359 0
907 -354 0
907 -369 0
907 -398 0
907 -413 0
907 -415 0
907 -69 0
907 -394 0
907 -209 0
907 -195 0
908 -476 0
908 -475 0
908 -472 0
908 -436 0
908 -430 0
908 -433 0
908 -442 0
908 -413 0
908 -421 0
908 -235 0
908 -123 0
908 -80 0
908 -455 0
908 -44 0
908 -48 0
908 -62 0
909 -441 0
909 -240 0
909 -10 0
909 -257 0
909 -439 0
909 -425 0
909 -422 0
909 -419 0
909 -381 0
909 -478 0
909 -380 0
909 -232 0
909 -447 0
909 -354 0
909 -358 0
909 -411 0
909 -398 0
909 -58 0
909 -410 0
910 -337 0
910 -17 0
910 -293 0
910 -477 0
910 -269 0
910 -68 0
911 -184 0
911 -432 0
911 -435 0
911 -380 0
911 -385 0
911 -422 0
911 -183 0
911 -447 0
911 -263 0
911 -394 0
911 -498 0
912 -475 0
912 -433 0
912 -414 0
912 -55 0
912 -141 0
912 -237 0
912 -436 0
912 -427 0
912 -113 0
912 -406 0
912 -410 0
912 -479 0
912 -458 0
913 -446 0
913 -426 0
913 -91 0
913 -435 0
913 -113 0
913 -336 0
913 -409 0
913 -198 0
913 -308 0
913 -197 0
913 -177 0
914 -489 0
914 -340 0
914 -166 0
914 -180 0
914 -460 0
914 -449 0
914 -452 0
914 -487 0
914 -421 0
914 -142 0
915 -138 0
915 -370 0
915 -447 0
915 -137 0
915 -60 0
915 -439 0
915 -432 0
915 -426 0
915 -394 0
915 -381 0
915 -140 0
915 -268 0
915 -315 0
915 -368 0
915 -7 0
915 -413 0
915 -408 0
916 -477 0
916 -471 0
916 -351 0
916 -427 0
916 -315 0
916 -472 0
916 -492 0
916 -444 0
916 -56 0
916 -325 0
916 -430 0
916 -158 0
916 -103 0
916 -36 0
916 -423 0
916 -81 0
917 -407 0
917 -475 0
917 -474 0
917 -449 0
917 -184 0
917 -314 0
917 -384 0
917 -18 0
917 -317 0
917 -436 0
917 -423 0
917 -14 0
917 -404 0
918 -451 0
918 -479 0
918 -469 0
918 -455 0
918 -421 0
918 -410 0
918 -266 0
918 -357 0
918 -476 0
918 -449 0
918 -117 0
918 -363 0
918 -216 0
918 -412 0
918 -290 0
918 -433 0
919 -320 0
919 -267 0
919 -408 0
919 -448 0
919 -456 0
919 -429 0
919 -420 0
919 -415 0
919 -407 0
919 -376 0
919 -425 0
919 -386 0
919 -458 0
919 -203 0
919 -479 0
920 -424 0
920 -374 0
920 -390 0
920 -426 0
920 -411 0
920 -381 0
920 -323 0
920 -407 0
920 -219 0
920 -60 0
920 -97 0
920 -257 0
920 -62 0
920 -107 0
920 -87 0
921 -413 0
921 -477 0
921 -475 0
921 -436 0
921 -449 0
921 -423 0
921 -365 0
921 -441 0
921 -285 0
921 -430 0
921 -99 0
921 -433 0
921 -199 0
922 -480 0
922 -405 0
922 -186 0
922 -42 0
922 -446 0
922 -464 0
922 -372 0
922 -380 0
922 -381 0
922 -376 0
922 -355 0
922 -123 0
922 -390 0
922 -404 0
922 -207 0
922 -153 0
922 -129 0
923 -476 0
923 -477 0
923 -485 0
923 -430 0
923 -296 0
923 -408 0
923 -406 0
923 -412 0
923 -418 0
923 -181 0
923 -150 0
923 -346 0
923 -141 0
923 -410 0
923 -436 0
923 -37 0
924 -140 0
924 -456 0
924 -463 0
924 -461 0
924 -405 0
924 -485 0
924 -385 0
924 -377 0
924 -11 0
924 -269 0
924 -321 0
924 -457 0
924 -37 0
924 -60 0
925 -456 0
925 -267 0
925 -243 0
925 -57 0
925 -118 0
925 -451 0
925 -411 0
925 -381 0
925 -457 0
925 -426 0
925 -309 0
925 -390 0
925 -264 0
926 -451 0
926 -325 0
926 -463 0
926 -446 0
926 -429 0
926 -390 0
926 -422 0
926 -76 0
926 -324 0
926 -349 0
926 -495 0
926 -308 0
926 -447 0
926 -78 0
926 -23 0
927 -372 0
927 -418 0
927 -403 0
927 -399 0
927 -340 0
927 -334 0
927 -421 0
927 -497 0
927 -202 0
927 -436 0
927 -313 0
927 -85 0
927 -455 0
927 -410 0
927 -360 0
928 -225 0
928 -13 0
928 -404 0
928 -18 0
928 -363 0
928 -338 0
928 -358 0
928 -176 0
928 -11 0
928 -452 0
928 -20 0
928 -344 0
928 -131 0
928 -306 0
929 -109 0
929 -133 0
929 -460 0
929 -456 0
929 -439 0
929 -411 0
929 -385 0
929 -365 0
929 -422 0
929 -97 0
929 -76 0
929 -145 0
929 -124 0
929 -297 0
929 -244 0
929 -15 0
929 -78 0
930 -444 0
930 -442 0
930 -427 0
930 -410 0
930 -389 0
930 -403 0
930 -449 0
930 -455 0
930 -498 0
930 -129 0
930 -494 0
930 -433 0
930 -491 0
930 -418 0
930 -400 0
930 -440 0
930 -113 0
930 -308 0
931 -175 0
931 -371 0
931 -397 0
931 -494 0
931 -451 0
931 -453 0
931 -428 0
931 -404 0
931 -288 0
931 -140 0
931 -350 0
931 -121 0
931 -335 0
932 -356 0
932 -419 0
932 -322 0
932 -479 0
932 -459 0
932 -458 0
932 -448 0
932 -409 0
932 -426 0
932 -346 0
932 -439 0
932 -425 0
932 -349 0
932 -271 0
932 -405 0
932 -132 0
932 -462 0
933 -9 0
933 -475 0
933 -440 0
933 -416 0
933 -355 0
933 -349 0
933 -177 0
933 -288 0
933 -357 0
933 -438 0
933 -60 0
933 -300 0
933 -200 0
933 -410 0
933 -337 0
933 -206 0
934 -272 0
934 -326 0
934 -129 0
934 -17 0
934 -250 0
934 -344 0
934 -347 0
934 -22 0
934 -151 0
934 -87 0
934 -29 0
934 -85 0
934 -219 0
934 -489 0
934 -428 0
934 -89 0
934 -361 0
935 -402 0
935 -182 0
935 -448 0
935 -446 0
935 -426 0
935 -425 0
935 -436 0
935 -29 0
935 -276 0
935 -458 0
935 -405 0
935 -353 0
935 -498 0
935 -250 0
935 -193 0
935 -422 0
936 -483 0
936 -476 0
936 -479 0
936 -444 0
936 -414 0
936 -399 0
936 -343 0
936 -357 0
936 -187 0
936 -113 0
936 -340 0
936 -152 0
936 -285 0
937 -405 0
937 -127 0
937 -495 0
937 -369 0
937 -18 0
937 -89 0
937 -443 0
937 -434 0
937 -431 0
937 -428 0
937 -356 0
937 -338 0
937 -20 0
937 -392 0
937 -11 0
938 -458 0
938 -476 0
938 -229 0
938 -20 0
938 -29 0
938 -92 0
938 -434 0
938 -392 0
938 -335 0
938 -318 0
938 -338 0
938 -374 0
938 -12 0
938 -441 0
938 -356 0
938 -361 0
938 -404 0
938 -19 0
938 -431 0
939 -450 0
939 -306 0
939 -280 0
939 -208 0
939 -219 0
939 -35 0
939 -456 0
939 -448 0
939 -422 0
939 -411 0
939 -407 0
939 -419 0
939 -312 0
939 -426 0
939 -398 0
940 -442 0
940 -418 0
940 -395 0
940 -399 0
940 -334 0
940 -357 0
940 -417 0
940 -449 0
940 -192 0
940 -277 0
940 -452 0
940 -166 0
940 -50 0
941 -460 0
941 -446 0
941 -345 0
941 -416 0
941 -319 0
941 -284 0
941 -60 0
941 -487 0
941 -428 0
941 -437 0
941 -431 0
941 -400 0
941 -344 0
941 -353 0
941 -375 0
941 -425 0
941 -405 0
941 -394 0
942 -427 0
942 -436 0
942 -406 0
942 -349 0
942 -416 0
942 -49 0
942 -414 0
942 -268 0
942 -412 0
942 -219 0
942 -162 0
942 -464 0
942 -51 0
943 -460 0
943 -442 0
943 -324 0
943 -18 0
943 -434 0
943 -438 0
943 -404 0
943 -341 0
943 -352 0
943 -22 0
943 -344 0
943 -4 0
943 -175 0
943 -292 0
943 -336 0
944 -5 0
944 -440 0
944 -412 0
944 -337 0
944 -244 0
944 -499 0
944 -418 0
944 -211 0
944 -350 0
944 -395 0
944 -233 0
944 -482 0
944 -417 0
944 -174 0
945 -11 0
945 -24 0
945 -453 0
945 -358 0
945 -29 0
945 -434 0
945 -192 0
945 -396 0
945 -310 0
945 -110 0
945 -161 0
945 -441 0
945 -335 0
945 -232 0
945 -149 0
946 -458 0
946 -439 0
946 -462 0
946 -461 0
946 -457 0
946 -447 0
946 -432 0
946 -420 0
946 -425 0
946 -471 0
946 -364 0
946 -411 0
946 -34 0
946 -118 0
946 -429 0
946 -424 0
946 -29 0
946 -451 0
946 -470 0
947 -462 0
947 -277 0
947 -457 0
947 -460 0
947 -390 0
947 -380 0
947 -422 0
947 -92 0
947 -435 0
947 -434 0
947 -90 0
947 -425 0
947 -405 0
947 -432 0
947 -467 0
948 -471 0
948 -354 0
948 -88 0
948 -425 0
948 -424 0
948 -413 0
948 -105 0
948 -249 0
948 -24 0
948 -206 0
948 -470 0
948 -446 0
948 -307 0
948 -156 0
949 -416 0
949 -410 0
949 -406 0
949 -423 0
949 -487 0
949 -225 0
949 -363 0
949 -132 0
949 -360 0
949 -447 0
949 -408 0
949 -112 0
949 -412 0
949 -369 0
949 -222 0
949 -321 0
950 -351 0
950 -377 0
950 -319 0
950 -27 0
950 -339 0
950 -135 0
950 -29 0
950 -85 0
950 -443 0
950 -434 0
950 -78 0
950 -358 0
950 -94 0
950 -344 0
950 -208 0
950 -76 0
950 -257 0
950 -64 0
950 -428 0
951 -270 0
951 -330 0
951 -325 0
951 -447 0
951 -419 0
951 -411 0
951 -398 0
951 -492 0
951 -455 0
951 -59 0
951 -422 0
951 -319 0
951 -424 0
951 -357 0
951 -466 0
951 -151 0
952 -380 0
952 -418 0
952 -410 0
952 -455 0
952 -225 0
952 -436 0
952 -427 0
952 -437 0
952 -320 0
952 -416 0
952 -260 0
952 -442 0
952 -477 0
952 -417 0
952 -116 0
953 -454 0
953 -420 0
953 -340 0
953 -13 0
953 -80 0
953 -437 0
953 -195 0
953 -344 0
953 -361 0
953 -356 0
953 -473 0
953 -55 0
953 -40 0
953 -166 0
953 -371 0
953 -228 0
953 -27 0
953 -490 0
953 -428 0
954 -413 0
954 -481 0
954 -462 0
954 -451 0
954 -448 0
954 -432 0
954 -336 0
954 -456 0
954 -384 0
954 -470 0
954 -53 0
954 -424 0
954 -128 0
954 -205 0
954 -178 0
954 -446 0
954 -84 0
955 -449 0
955 -440 0
955 -416 0
955 -410 0
955 -423 0
955 -393 0
955 -412 0
955 -274 0
955 -414 0
955 -332 0
955 -421 0
955 -475 0
955 -204 0
955 -188 0
955 -360 0
956 -75 0
956 -461 0
956 -83 0
956 -451 0
956 -447 0
956 -477 0
956 -485 0
956 -303 0
956 -241 0
956 -470 0
956 -426 0
956 -442 0
956 -458 0
956 -242 0
956 -465 0
956 -467 0
956 -370 0
956 -413 0
956 -150 0
956 -479 0
957 -149 0
957 -37 0
957 -480 0
957 -470 0
957 -459 0
957 -456 0
957 -454 0
957 -448 0
957 -439 0
957 -435 0
957 -290 0
957 -482 0
957 -342 0
957 -422 0
957 -473 0
957 -311 0
957 -463 0
958 -483 0
958 -460 0
958 -451 0
958 -358 0
958 -173 0
958 -467 0
958 -119 0
958 -454 0
958 -448 0
958 -420 0
958 -349 0
958 -275 0
958 -473 0
958 -447 0
958 -24 0
958 -234 0
958 -425 0
959 -482 0
959 -463 0
959 -460 0
959 -456 0
959 -446 0
959 -439 0
959 -429 0
959 -425 0
959 -88 0
959 -291 0
959 -461 0
959 -481 0
959 -4 0
959 -404 0
959 -95 0
959 -141 0
960 -462 0
960 -448 0
960 -424 0
960 -470 0
960 -457 0
960 -425 0
960 -420 0
960 -305 0
960 -481 0
960 -465 0
960 -170 0
960 -483 0
960 -466 0
960 -91 0
961 -439 0
961 -45 0
961 -482 0
961 -480 0
961 -467 0
961 -457 0
961 -299 0
961 -261 0
961 -202 0
961 -290 0
961 -466 0
961 -322 0
961 -309 0
962 -481 0
962 -467 0
962 -122 0
962 -283 0
962 -488 0
962 -483 0
962 -277 0
962 -457 0
962 -448 0
962 -422 0
962 -479 0
962 -124 0
962 -486 0
962 -451 0
962 -117 0
962 -459 0
963 -473 0
963 -480 0
963 -221 0
963 -483 0
963 -481 0
963 -466 0
963 -456 0
963 -359 0
963 -37 0
963 -421 0
963 -447 0
963 -451 0
963 -281 0
963 -172 0
963 -306 0
964 -489 0
964 -490 0
964 -466 0
964 -463 0
964 -462 0
964 -461 0
964 -457 0
964 -460 0
964 -257 0
964 -448 0
964 -447 0
964 -7 0
964 -419 0
964 -139 0
964 -415 0
964 -446 0
964 -470 0
964 -423 0
964 -465 0
964 -151 0
965 -490 0
965 -459 0
965 -461 0
965 -500 0
965 -101 0
965 -470 0
965 -448 0
965 -447 0
965 -457 0
965 -431 0
965 -401 0
965 -216 0
965 -480 0
965 -488 0
965 -71 0
966 -263 0
966 -35 0
966 -486 0
966 -462 0
966 -457 0
966 -456 0
966 -458 0
966 -454 0
966 -485 0
966 -349 0
966 -448 0
966 -309 0
966 -258 0
966 -119 0
966 -249 0
966 -343 0
966 -488 0
966 -316 0
967 -484 0
967 -483 0
967 -482 0
967 -298 0
967 -466 0
967 -459 0
967 -460 0
967 -439 0
967 -323 0
967 -229 0
967 -119 0
967 -225 0
967 -44 0
967 -165 0
967 -437 0
967 -326 0
968 -458 0
968 -304 0
968 -4 0
968 -489 0
968 -488 0
968 -462 0
968 -457 0
968 -456 0
968 -62 0
968 -323 0
968 -467 0
968 -461 0
968 -279 0
968 -179 0
968 -297 0
968 -100 0
968 -411 0
968 -451 0
968 -119 0
968 -484 0
968 -400 0
968 -163 0
969 -479 0
969 -348 0
969 -360 0
969 -471 0
969 -478 0
969 -250 0
969 -392 0
969 -181 0
969 -183 0
969 -423 0
969 -149 0
969 -485 0
969 -54 0
969 -325 0
969 -350 0
970 -128 0
970 -101 0
970 -210 0
970 -30 0
970 -488 0
970 -482 0
970 -466 0
970 -405 0
970 -376 0
970 -451 0
970 -490 0
970 -369 0
970 -74 0
970 -268 0
970 -15 0
970 -467 0
970 -462 0
970 -432 0
971 -412 0
971 -423 0
971 -414 0
971 -265 0
971 -474 0
971 -428 0
971 -417 0
971 -50 0
971 -167 0
971 -68 0
971 -48 0
971 -54 0
971 -168 0
971 -96 0
971 -406 0
971 -410 0
971 -160 0
972 -475 0
972 -469 0
972 -417 0
972 -246 0
972 -389 0
972 -252 0
972 -418 0
972 -172 0
972 -412 0
972 -238 0
972 -48 0
972 -45 0
972 -62 0
972 -410 0
972 -397 0
972 -65 0
973 -361 0
973 -404 0
973 -107 0
973 -25 0
973 -465 0
973 -461 0
973 -460 0
973 -478 0
973 -467 0
973 -229 0
973 -466 0
973 -104 0
973 -119 0
973 -384 0
974 -442 0
974 -408 0
974 -166 0
974 -68 0
974 -263 0
974 -54 0
974 -195 0
974 -431 0
974 -1 0
974 -232 0
974 -477 0
974 -51 0
974 -45 0
974 -93 0
974 -272 0
974 -61 0
974 -165 0
975 -452 0
975 -423 0
975 -406 0
975 -414 0
975 -416 0
975 -271 0
975 -187 0
975 -499 0
975 -80 0
975 -196 0
975 -474 0
975 -262 0
975 -469 0
975 -245 0
975 -218 0
975 -118 0
975 -42 0
976 -478 0
976 -477 0
976 -474 0
976 -351 0
976 -305 0
976 -449 0
976 -414 0
976 -199 0
976 -410 0
976 -421 0
976 -341 0
976 -366 0
976 -42 0
976 -452 0
976 -157 0
976 -65 0
977 -376 0
977 -418 0
977 -414 0
977 -340 0
977 -54 0
977 -183 0
977 -57 0
977 -370 0
977 -38 0
977 -45 0
977 -230 0
977 -412 0
977 -217 0
977 -471 0
977 -232 0
977 -325 0
977 -226 0
978 -475 0
978 -471 0
978 -412 0
978 -410 0
978 -418 0
978 -414 0
978 -349 0
978 -416 0
978 -195 0
978 -495 0
978 -343 0
978 -455 0
978 -42 0
978 -102 0
978 -111 0
978 -12 0
979 -478 0
979 -423 0
979 -421 0
979 -373 0
979 -474 0
979 -68 0
979 -185 0
979 -297 0
979 -475 0
979 -458 0
979 -325 0
979 -408 0
979 -417 0
979 -78 0
979 -65 0
979 -124 0
979 -459 0
979 -62 0
979 -44 0
979 -428 0
980 -464 0
980 -137 0
980 -459 0
980 -178 0
980 -482 0
980 -486 0
980 -483 0
980 -473 0
980 -332 0
980 -119 0
980 -189 0
980 -23 0
980 -410 0
980 -183 0
980 -371 0
980 -271 0
980 -433 0
980 -498 0
980 -254 0
980 -253 0
980 -22 0
981 -210 0
981 -488 0
981 -480 0
981 -483 0
981 -458 0
981 -471 0
981 -401 0
981 -352 0
981 -104 0
981 -465 0
981 -494 0
981 -422 0
981 -214 0
981 -123 0
981 -71 0
982 -462 0
982 -435 0
982 -489 0
982 -460 0
982 -234 0
982 -104 0
982 -119 0
982 -100 0
982 -97 0
982 -123 0
982 -463 0
983 -471 0
983 -465 0
983 -489 0
983 -109 0
983 -459 0
983 -455 0
983 -115 0
983 -123 0
983 -108 0
983 -223 0
983 -112 0
983 -482 0
983 -17 0
983 -433 0
984 -483 0
984 -378 0
984 -405 0
984 -489 0
984 -490 0
984 -480 0
984 -461 0
984 -420 0
984 -351 0
984 -345 0
984 -255 0
984 -24 0
984 -168 0
984 -207 0
984 -452 0
984 -326 0
984 -159 0
985 -364 0
985 -476 0
985 -433 0
985 -264 0
985 -421 0
985 -418 0
985 -375 0
985 -397 0
985 -168 0
985 -437 0
985 -22 0
985 -400 0
985 -178 0
985 -38 0
985 -45 0
985 -169 0
985 -419 0
985 -300 0
985 -96 0
985 -61 0
985 -140 0
986 -481 0
986 -136 0
986 -490 0
986 -473 0
986 -470 0
986 -461 0
986 -285 0
986 -287 0
986 -100 0
986 -440 0
986 -99 0
986 -498 0
986 -464 0
986 -199 0
986 -393 0
986 -97 0
986 -193 0
986 -20 0
987 -108 0
987 -482 0
987 -148 0
987 -468 0
987 -465 0
987 -334 0
987 -168 0
987 -294 0
987 -329 0
987 -145 0
987 -233 0
987 -112 0
987 -123 0
987 -13 0
987 -488 0
987 -490 0
988 -464 0
988 -67 0
988 -463 0
988 -119 0
988 -243 0
988 -207 0
988 -360 0
988 -268 0
988 -277 0
988 -200 0
988 -99 0
988 -112 0
988 -306 0
988 -489 0
989 -473 0
989 -466 0
989 -470 0
989 -372 0
989 -337 0
989 -379 0
989 -480 0
989 -310 0
989 -123 0
989 -39 0
989 -300 0
989 -229 0
989 -498 0
990 -99 0
990 -158 0
990 -149 0
990 -203 0
990 -462 0
990 -372 0
990 -494 0
990 -104 0
990 -108 0
990 -174 0
990 -493 0
990 -277 0
990 -207 0
991 -295 0
991 -304 0
991 -178 0
991 -107 0
991 -303 0
991 -261 0
991 -241 0
991 -245 0
991 -33 0
991 -495 0
991 -454 0
991 -327 0
991 -28 0
991 -200 0
991 -433 0
991 -132 0
991 -196 0
991 -234 0
991 -309 0
991 -249 0
992 -420 0
992 -196 0
992 -241 0
992 -253 0
992 -497 0
992 -401 0
992 -127 0
992 -175 0
992 -452 0
992 -446 0
992 -300 0
992 -249 0
992 -427 0
992 -134 0
993 -192 0
993 -9 0
993 -35 0
993 -332 0
993 -107 0
993 -500 0
993 -245 0
993 -322 0
993 -401 0
993 -492 0
993 -29 0
993 -258 0
993 -351 0
993 -300 0
993 -113 0
993 -265 0
993 -196 0
994 -290 0
994 -318 0
994 -307 0
994 -200 0
994 -178 0
994 -259 0
994 -258 0
994 -500 0
994 -192 0
994 -22 0
994 -196 0
994 -499 0
994 -434 0
995 -295 0
995 -318 0
995 -131 0
995 -173 0
995 -496 0
995 -385 0
995 -259 0
995 -241 0
995 -115 0
995 -377 0
995 -403 0
995 -306 0
995 -494 0
995 -493 0
995 -492 0
995 -139 0
995 -480 0
995 -72 0
995 -149 0
996 -42 0
996 -307 0
996 -145 0
996 -70 0
996 -500 0
996 -442 0
996 -312 0
996 -253 0
996 -360 0
996 -195 0
996 -247 0
996 -295 0
997 -307 0
997 -459 0
997 -285 0
997 -433 0
997 -264 0
997 -259 0
997 -496 0
997 -241 0
997 -271 0
997 -377 0
997 -494 0
997 -293 0
997 -253 0
998 -327 0
998 -439 0
998 -275 0
998 -264 0
998 -259 0
998 -261 0
998 -496 0
998 -342 0
998 -18 0
998 -297 0
998 -245 0
998 -492 0
998 -183 0
998 -283 0
998 -495 0
999 -318 0
999 -322 0
999 -151 0
999 -446 0
999 -286 0
999 -264 0
999 -261 0
999 -245 0
999 -314 0
999 -175 0
999 -497 0
999 -492 0
999 -491 0
999 -292 0
999 -451 0
999 -259 0
999 -241 0
999 -389 0
1000 -19 0
1000 -79 0
1000 -295 0
1000 -259 0
1000 -412 0
1000 -296 0
1000 -257 0
1000 -179 0
1000 -499 0
1000 -491 0
1000 -333 0
1000 -241 0
1000 -161 0
1000 -497 0
1000 -428 0
1000 -282 0
1000 -492 0
403 309 319 97 367 401 177 152 57 201 49 -501 0
135 388 26 270 401 1 28 5 31 40 -502 0
386 391 97 367 393 375 164 49 430 350 90 9 459 23 447 38 37 407 31 7 2 -503 0
315 211 371 416 2 381 28 236 31 33 10 9 259 34 26 -504 0
397 280 171 473 363 178 1 34 40 28 7 285 401 56 -505 0
242 266 256 375 397 407 123 7 360 179 423 408 271 363 -506 0
371 375 367 401 306 326 214 361 366 313 126 470 422 4 -507 0
397 393 289 111 375 344 465 86 137 343 358 165 423 35 32 36 38 7 3 61 -508 0
237 379 495 5 40 165 442 2 164 1 8 33 247 7 -509 0
340 287 382 401 235 97 281 226 288 379 40 5 9 208 35 485 367 219 143 -510 0
412 337 410 212 181 82 66 443 431 396 163 364 283 313 18 22 219 419 60 32 297 27 357 -511 0
314 191 356 67 109 74 408 107 81 452 250 88 64 36 25 427 77 38 -512 0
271 69 49 27 17 300 375 370 198 293 431 67 20 439 420 -513 0
322 180 21 32 300 107 246 72 19 90 25 424 80 -514 0
22 18 17 434 431 428 78 157 27 66 377 73 -515 0
108 316 454 404 41 50 34 33 31 19 239 83 -516 0
63 22 169 71 52 247 437 426 459 375 103 172 450 431 86 428 -517 0
220 244 95 481 441 438 356 82 78 89 344 136 473 139 192 146 358 12 -518 0
237 195 60 48 39 5 72 79 32 86 53 40 34 12 23 21 90 4 26 -519 0
362 442 309 115 73 445 230 152 441 87 11 450 22 -520 0
16 163 157 36 12 303 39 84 90 -521 0
354 472 100 275 392 76 13 441 450 165 29 60 138 89 75 361 156 -522 0
202 80 204 86 77 85 28 16 12 457 35 83 32 74 -523 0
305 442 250 364 80 78 20 441 361 450 73 163 373 320 154 114 118 113 434 234 -524 0
367 122 86 192 40 438 31 494 77 64 19 26 16 32 -525 0
147 202 37 3 307 168 139 360 61 39 23 16 1 84 210 5 289 128 357 36 30 -526 0
184 71 82 46 22 443 437 267 400 419 16 77 441 76 -527 0
156 378 259 219 147 12 475 67 31 33 19 88 25 466 477 444 34 38 -528 0
31 17 80 28 169 358 126 422 83 35 18 -529 0
87 123 12 267 163 476 261 466 33 4 227 81 59 34 21 88 38 23 39 -530 0
229 171 155 245 238 19 190 33 307 131 70 320 409 257 7 489 439 67 445 -531 0
207 223 498 103 7 30 9 38 414 -532 0
389 324 233 104 388 37 36 120 25 38 111 200 32 355 39 40 26 458 114 5 84 -533 0
223 252 187 299 85 134 327 361 458 31 84 174 38 23 90 131 32 88 305 86 35 313 -534 0
199 497 494 82 230 179 432 33 9 334 385 32 4 28 6 37 2 14 299 291 333 -535 0
220 443 31 461 35 232 16 25 5 23 6 28 333 -536 0
246 395 367 491 284 21 204 6 471 23 19 205 345 34 7 107 407 39 10 241 -537 0
401 294 135 169 84 290 21 1 25 31 16 14 9 175 7 363 6 403 -538 0
404 4 52 336 193 25 275 35 38 34 420 31 468 125 -539 0
375 6 393 18 14 36 30 38 34 413 7 282 103 468 258 429 -540 0
443 208 376 285 74 70 64 56 88 53 23 169 21 15 232 7 12 59 -541 0
225 108 45 331 36 472 57 155 236 58 477 -542 0
121 76 49 46 125 326 171 262 238 369 91 120 319 130 70 304 55 -543 0
212 497 95 74 381 76 103 327 160 59 83 211 17 126 359 289 145 162 61 -544 0
471 349 433 469 94 152 98 68 155 48 316 149 460 137 -545 0
269 346 121 58 221 124 153 55 454 418 95 52 117 113 -546 0
305 329 252 438 233 469 26 472 155 332 124 116 62 51 48 151 134 136 367 68 1 347 214 -547 0
476 475 474 478 312 469 496 392 142 140 136 452 65 -548 0
46 80 17 66 63 52 27 310 455 452 76 175 55 228 438 156 492 -549 0
271 498 177 114 148 160 93 86 59 64 90 482 91 154 74 -550 0
423 421 478 357 179 319 493 437 177 65 57 86 134 500 155 152 94 485 137 48 45 151 487 -551 0
73 43 498 331 92 75 89 220 351 149 87 138 466 -552 0
492 27 313 139 88 59 94 154 476 302 56 265 74 -553 0
479 346 476 284 68 143 137 152 323 94 48 158 174 358 164 5 67 -554 0
264 175 159 69 66 60 307 257 156 425 477 95 144 87 9 63 85 150 372 52 -555 0
163 198 60 59 142 91 232 44 118 359 422 376 332 64 342 -556 0
448 485 355 253 418 494 476 11 474 134 136 120 158 48 47 7 370 -557 0
474 150 92 89 71 73 63 135 490 55 80 43 463 84 -558 0
195 63 74 90 142 139 133 126 465 432 70 -559 0
52 150 71 422 356 326 472 280 58 232 133 49 89 469 351 397 87 -560 0
251 350 56 81 154 80 131 77 84 375 14 23 195 406 41 -561 0
409 475 339 478 469 421 386 398 20 158 320 435 467 3 489 68 65 2 230 410 54 477 -562 0
153 150 16 78 11 24 270 444 138 316 159 69 15 457 289 53 500 87 142 420 -563 0
117 350 273 169 61 53 62 58 154 151 130 84 74 44 70 264 -564 0
478 410 421 275 272 99 47 46 475 434 155 207 137 152 57 54 68 188 333 143 42 -565 0
245 308 123 209 71 78 69 58 297 38 147 46 19 118 84 -566 0
461 111 353 90 176 158 120 152 482 232 154 277 64 23 86 496 41 72 81 139 56 -567 0
364 477 197 17 158 48 472 146 478 74 412 109 244 363 311 25 -568 0
346 494 15 60 52 159 58 17 43 397 191 419 486 -569 0
129 44 199 151 154 96 479 90 160 423 56 61 88 14 337 -570 0
193 168 132 85 52 156 78 191 56 239 22 178 55 -571 0
50 16 13 131 90 41 61 84 407 23 171 88 21 25 70 154 64 416 59 -572 0
87 159 13 82 49 75 249 43 432 69 46 -573 0
319 21 16 164 72 14 390 61 83 13 431 84 458 -574 0
82 58 49 69 60 78 270 236 454 187 63 66 -575 0
172 132 82 58 237 29 60 298 283 13 11 437 71 307 475 447 372 304 -576 0
336 58 165 173 188 41 121 84 28 70 64 34 14 16 129 81 439 253 88 -577 0
389 189 231 55 17 27 148 22 76 124 228 138 453 80 -578 0
150 81 67 83 236 480 88 268 16 59 162 41 308 30 21 14 53 90 -579 0
55 71 66 13 431 43 137 445 65 229 89 483 419 264 87 -580 0
384 168 491 284 75 72 159 44 88 84 74 16 56 23 59 21 19 500 -581 0
355 58 29 78 52 55 153 305 49 15 396 345 448 20 69 7 463 133 -582 0
229 239 286 208 19 78 88 21 5 59 336 61 50 472 86 28 84 67 53 9 81 77 -583 0
16 282 53 139 70 90 88 25 219 67 418 -584 0
211 78 289 129 82 73 75 63 66 13 49 428 186 443 11 431 148 -585 0
185 207 199 498 496 20 272 61 278 74 88 72 134 14 32 21 90 56 -586 0
274 297 58 24 22 449 341 39 81 13 26 29 -587 0
89 17 64 50 23 90 14 74 -588 0
333 104 76 87 75 55 69 15 274 124 78 450 24 65 406 91 23 14 -589 0
159 89 250 320 83 415 221 32 215 413 30 129 9 370 26 25 115 33 440 -590 0
229 323 59 162 157 148 145 103 201 107 355 486 142 53 471 -591 0
345 444 246 391 123 150 159 147 46 43 153 231 322 374 106 204 144 132 454 8 138 487 407 64 114 240 274 -592 0
287 99 133 378 361 341 345 122 228 139 53 142 103 464 21 37 407 472 186 96 56 126 -593 0
462 458 124 116 181 221 158 47 101 180 234 314 223 66 113 -594 0
309 492 235 164 156 147 125 110 92 426 209 208 136 159 146 102 153 -595 0
367 234 47 124 59 495 142 111 448 327 -596 0
444 237 193 207 104 87 216 112 166 108 350 212 281 484 234 233 129 223 236 127 -597 0
463 82 212 79 26 221 94 43 186 260 105 146 -598 0
482 279 212 166 225 112 185 127 497 30 189 104 13 237 369 103 115 -599 0
10 483 481 303 119 99 245 210 252 205 44 445 324 211 98 218 26 444 473 -600 0
410 264 120 223 347 341 320 221 136 152 47 208 146 282 278 219 -601 0
345 334 205 132 156 150 138 161 125 357 11 55 144 484 231 235 53 201 107 -602 0
97 243 404 254 210 376 157 230 118 111 225 22 236 456 102 309 169 360 -603 0
432 212 225 184 317 119 27 305 495 344 431 253 441 487 211 -604 0
37 353 443 340 217 155 226 113 19 206 -605 0
408 369 182 144 114 238 168 230 172 239 56 121 467 -606 0
189 321 243 267 54 293 148 165 162 210 130 173 96 301 -607 0
10 488 402 342 211 166 170 207 285 268 127 489 190 104 57 236 -608 0
465 405 329 391 128 111 345 46 368 138 152 357 98 105 124 210 155 94 146 393 134 378 204 -609 0
478 260 384 214 231 172 114 227 205 68 106 9 235 168 217 144 -610 0
76 28 201 110 230 410 206 160 107 228 466 479 429 210 -611 0
489 100 17 119 484 216 -612 0
442 254 98 286 209 447 136 316 155 238 451 134 116 470 190 91 143 -613 0
218 231 209 159 147 144 95 227 198 191 117 54 296 45 141 135 84 203 458 156 148 5 -614 0
484 406 119 369 104 102 127 482 366 108 435 100 112 201 -615 0
390 349 250 447 143 202 245 76 353 234 128 149 146 140 98 105 24 -616 0
99 321 159 129 92 43 280 183 16 58 451 53 144 217 -617 0
150 168 272 44 264 195 499 145 126 6 203 485 148 76 111 452 -618 0
486 487 490 220 207 233 110 164 97 247 24 481 141 303 -619 0
229 214 469 271 98 45 124 116 113 155 94 128 215 160 -620 0
363 127 153 144 102 132 205 255 218 58 113 141 222 92 17 147 73 338 214 354 -621 0
319 132 59 288 68 42 473 332 206 203 236 174 215 429 142 441 154 8 402 66 -622 0
480 473 486 440 229 108 292 127 223 218 233 207 99 206 151 416 -623 0
129 58 316 152 270 208 233 355 143 140 217 489 134 42 221 45 -624 0
265 269 209 202 138 153 150 121 117 114 15 320 357 62 327 54 467 44 212 422 46 -625 0
132 265 313 277 68 344 107 210 174 133 41 228 372 17 151 215 15 475 -626 0
489 481 467 415 286 368 119 82 100 482 384 370 2 490 486 155 93 470 -627 0
225 105 187 75 360 255 101 137 217 224 113 83 93 -628 0
218 214 231 135 125 102 144 316 161 119 372 215 428 110 227 -629 0
19 232 219 461 206 203 96 111 265 210 282 -630 0
371 437 126 145 148 151 93 411 461 91 79 133 77 473 56 -631 0
329 150 129 82 80 60 58 52 344 43 125 387 138 117 8 73 -632 0
127 252 494 157 41 91 169 148 83 72 79 50 92 74 484 96 -633 0
412 393 141 101 341 431 226 143 234 354 344 42 98 -634 0
216 102 117 85 76 46 424 167 206 259 141 487 209 269 -635 0
435 413 52 272 105 98 116 124 42 146 51 45 135 387 54 -636 0
256 204 69 42 120 288 47 98 109 94 158 -637 0
485 309 216 117 153 135 106 49 13 43 430 283 339 14 383 25 40 -638 0
324 166 122 41 331 242 133 171 111 91 118 70 50 40 449 485 102 462 -639 0
394 381 323 400 57 121 137 143 113 94 120 47 62 146 45 30 240 128 33 213 155 98 -640 0
309 132 125 129 138 439 67 66 145 244 156 202 285 -641 0
225 263 187 1 114 482 47 228 157 148 139 111 173 305 130 421 436 79 -642 0
483 252 92 45 387 158 152 109 94 120 101 226 42 202 318 236 51 47 423 -643 0
444 170 306 95 63 49 227 132 135 125 69 484 202 482 52 -644 0
150 262 45 93 203 228 200 372 328 59 126 330 122 64 413 157 439 107 160 -645 0
458 362 211 260 263 371 218 108 135 82 158 137 105 120 143 -646 0
112 205 375 294 102 129 49 350 52 202 117 491 344 270 125 -647 0
112 299 59 154 232 160 151 145 44 2 313 70 111 343 356 -648 0
466 470 275 71 69 446 48 158 51 155 415 427 143 65 471 78 -649 0
253 216 115 252 141 73 66 75 292 52 7 179 38 377 107 220 91 394 49 -650 0
50 93 91 59 44 96 122 83 440 53 439 86 81 74 56 -651 0
390 385 471 469 292 17 453 128 146 155 116 240 134 42 57 -652 0
345 340 256 164 144 114 250 49 58 62 55 141 75 107 -653 0
51 111 44 41 145 107 91 83 59 133 419 406 487 464 130 376 96 26 12 74 -654 0
367 29 66 471 500 116 293 136 128 124 96 117 -655 0
129 69 43 46 63 243 121 283 431 136 73 150 105 75 58 204 420 -656 0
217 201 93 154 56 139 130 70 64 59 107 50 489 249 126 444 118 291 -657 0
197 472 27 134 45 404 116 42 48 51 69 105 266 387 293 -658 0
336 343 329 321 156 153 125 75 299 289 254 230 148 64 66 -659 0
159 403 250 325 290 215 245 67 93 154 107 133 91 130 362 373 157 380 401 53 -660 0
244 96 214 239 172 106 450 250 187 125 163 317 191 110 355 231 -661 0
174 307 215 203 178 196 192 232 228 19 83 488 130 337 126 -662 0
452 382 244 281 180 190 443 208 101 189 186 98 105 5 -663 0
112 294 191 110 27 172 335 270 384 199 149 200 494 1 93 317 473 239 -664 0
320 387 322 236 130 169 490 114 475 -665 0
455 492 329 434 461 225 104 237 216 100 35 112 207 315 -666 0
439 250 274 150 304 341 415 22 293 226 221 330 98 186 325 113 288 198 201 194 101 171 37 8 238 -667 0
309 331 227 187 218 47 299 338 198 209 90 230 306 405 6 191 -668 0
397 150 262 290 173 219 318 295 240 236 174 286 131 206 53 -669 0
444 297 211 294 287 223 197 319 304 255 229 233 353 97 42 329 219 246 56 -670 0
303 301 421 390 117 444 474 176 243 467 113 414 -671 0
339 284 331 281 235 440 495 222 177 231 239 200 205 289 199 -672 0
314 269 17 15 167 48 10 111 215 236 232 188 162 201 189 483 2 219 400 335 -673 0
371 119 438 188 304 300 290 203 219 215 201 178 165 295 3 103 130 173 364 -674 0
249 211 239 242 491 189 234 220 216 299 298 13 233 -675 0
492 55 356 215 224 221 163 192 313 288 44 262 88 2 488 54 230 325 372 433 -676 0
340 306 331 326 245 231 222 218 195 191 239 244 289 299 100 409 49 214 330 -677 0
297 492 496 64 304 322 240 219 290 98 332 355 169 318 448 -678 0
5 257 334 365 242 170 250 329 349 424 105 83 292 254 -679 0
359 421 306 293 121 211 149 283 155 167 330 165 224 194 21 183 238 -680 0
252 244 263 239 227 214 187 75 168 191 450 267 232 111 2 199 -681 0
377 314 220 212 329 315 382 102 89 326 285 287 175 166 184 319 333 293 246 -682 0
129 379 310 298 247 366 213 194 176 354 445 421 316 -683 0
490 312 309 269 179 166 329 279 237 348 314 233 305 213 126 -684 0
457 416 297 212 365 72 179 182 319 197 184 108 192 216 387 162 133 56 153 -685 0
424 478 310 496 239 252 140 176 194 172 171 213 116 13 165 283 248 -686 0
363 114 110 417 45 218 113 360 400 202 164 299 24 323 190 41 411 -687 0
492 491 295 219 394 216 206 154 332 348 390 398 321 98 -688 0
6 292 319 329 185 182 211 384 345 223 447 97 363 25 212 170 14 -689 0
222 298 260 234 62 136 186 330 98 310 262 391 198 478 313 -690 0
266 118 246 495 202 187 153 249 355 285 15 263 231 326 214 289 284 481 -691 0
276 177 20 378 295 318 332 165 3 461 286 21 178 290 355 327 228 -692 0
482 337 314 297 182 24 220 328 315 189 332 137 -693 0
474 372 97 153 400 267 213 320 298 333 163 198 142 30 204 -694 0
299 205 235 231 289 168 17 321 209 183 326 284 202 161 -695 0
211 104 47 327 389 85 157 178 91 240 295 33 160 203 308 174 307 192 -696 0
377 242 179 292 498 181 309 297 246 233 182 136 207 315 497 223 238 15 184 -697 0
398 395 48 154 201 262 243 238 29 224 171 322 163 140 320 183 10 3 208 -698 0
331 161 271 487 248 222 138 59 231 191 322 298 146 317 -699 0
310 63 192 285 240 165 162 290 173 170 253 189 2 304 332 -700 0
191 20 103 492 42 219 130 188 21 192 257 107 344 14 160 -701 0
218 222 172 161 317 404 135 95 209 227 110 -702 0
141 311 396 293 230 228 285 206 173 91 93 61 165 424 462 111 54 471 236 -703 0
323 313 234 163 226 66 186 190 101 120 146 208 236 338 136 230 -704 0
471 357 397 214 209 199 92 114 75 452 168 273 18 164 202 191 117 239 215 138 -705 0
266 184 175 97 388 214 129 180 45 210 172 165 192 103 336 396 333 81 142 461 139 107 -706 0
2 486 100 453 127 199 55 71 347 99 144 211 220 210 -707 0
354 402 157 98 171 146 94 128 221 200 67 -708 0
214 222 141 117 102 239 161 174 172 171 367 162 143 56 111 107 75 -709 0
254 96 341 292 347 145 153 134 203 323 173 142 403 122 308 388 303 201 455 -710 0
459 193 112 216 278 184 229 58 324 281 427 185 431 232 201 -711 0
394 207 193 127 123 108 287 220 15 401 146 153 255 163 435 148 -712 0
417 472 309 386 361 81 323 198 137 54 113 221 204 190 -713 0
170 235 168 52 95 468 422 106 284 109 306 368 239 289 218 231 102 -714 0
123 256 196 130 374 213 62 285 232 178 200 96 36 103 192 -715 0
333 394 233 179 182 104 244 89 207 99 170 279 69 71 126 217 123 145 151 110 -716 0
339 334 371 250 222 116 198 194 190 109 125 322 180 162 221 98 167 -717 0
191 102 122 87 231 280 172 140 284 181 173 88 23 -718 0
373 13 236 165 196 206 31 103 16 203 307 96 94 -719 0
465 254 123 112 104 100 197 159 71 370 179 108 232 113 298 158 127 19 -720 0
376 354 477 166 227 89 338 83 263 224 204 283 190 353 238 -721 0
346 375 227 161 129 485 205 390 294 400 218 114 32 153 236 102 86 96 62 284 255 -722 0
166 185 195 319 207 259 172 274 208 90 228 175 156 100 77 -723 0
323 302 360 193 479 366 298 133 234 288 204 88 163 194 171 101 217 98 320 74 -724 0
5 484 359 302 223 100 123 108 317 112 78 308 106 234 127 139 86 185 216 233 55 -725 0
465 305 171 213 217 176 221 137 146 194 186 124 224 163 102 36 -726 0
100 80 117 121 106 231 187 251 171 135 198 195 317 218 413 172 38 329 283 -727 0
306 135 494 330 316 146 347 130 122 169 1 482 201 178 283 440 215 -728 0
223 185 490 127 115 97 104 207 119 89 226 175 99 488 108 186 374 378 304 113 -729 0
231 227 382 27 177 113 136 224 217 95 25 3 234 124 226 183 101 170 486 70 -730 0
248 274 125 333 222 -731 0
131 69 335 310 210 385 219 201 169 154 411 35 197 174 296 107 -732 0
237 211 207 99 467 223 193 430 83 397 111 189 104 166 -733 0
312 248 277 208 283 402 217 98 105 200 180 171 77 -734 0
478 129 181 168 177 135 239 13 164 134 215 317 368 92 106 202 137 428 -735 0
211 271 206 215 130 200 445 32 295 178 466 -736 0
490 468 398 211 100 115 222 81 20 401 104 44 178 469 108 287 124 148 151 191 67 -737 0
395 212 168 11 288 226 204 171 190 186 109 213 414 183 116 -738 0
258 114 18 11 125 355 5 222 202 76 70 110 19 208 -739 0
49 290 107 219 203 188 139 122 118 307 174 173 96 84 346 130 -740 0
498 264 327 489 23 42 9 430 301 259 286 315 83 433 212 249 332 493 496 -741 0
324 182 276 153 401 466 358 344 386 445 319 312 257 184 484 -742 0
241 403 383 378 374 443 298 270 194 407 260 168 273 -743 0
375 299 289 326 256 156 281 465 128 394 341 397 488 -744 0
56 446 300 301 386 261 495 337 322 295 318 103 357 -745 0
449 265 391 369 399 58 103 108 175 179 315 242 382 155 430 113 312 109 194 -746 0
285 437 383 227 267 176 325 198 273 158 -747 0
440 170 388 393 379 331 260 252 263 48 228 311 183 -748 0
332 226 85 497 486 259 182 305 245 282 302 301 15 -749 0
287 272 242 373 294 235 403 353 17 51 60 430 341 26 25 -750 0
348 500 172 392 298 266 384 74 255 383 316 118 158 470 117 34 -751 0
382 367 397 299 306 281 276 260 336 177 117 379 244 120 96 78 243 -752 0
259 297 128 91 5 296 265 301 275 495 110 303 493 -753 0
301 416 369 373 337 287 117 233 184 153 421 173 41 300 -754 0
372 336 242 166 378 120 54 28 116 366 20 320 330 383 26 91 247 -755 0
388 393 371 401 271 181 116 457 281 248 34 10 -756 0
300 496 417 305 399 494 264 332 144 245 499 493 63 495 282 -757 0
259 149 290 499 257 308 264 449 303 422 296 492 282 491 245 302 5 265 -758 0
201 488 264 29 328 308 303 110 324 141 257 452 58 97 296 11 267 -759 0
384 256 331 382 239 311 140 375 195 -760 0
453 270 180 56 36 303 323 158 264 93 494 497 258 500 493 344 496 -761 0
354 112 106 66 326 407 374 378 288 332 216 270 251 238 316 183 33 432 79 86 9 243 -762 0
237 371 294 326 218 384 274 95 367 73 284 461 289 140 160 410 252 68 -763 0
344 496 22 455 305 296 291 476 366 245 340 254 328 253 30 -764 0
453 338 264 37 495 60 296 249 500 472 292 254 353 257 241 128 496 112 364 -765 0
487 446 457 485 369 440 268 449 272 412 377 451 403 76 452 -766 0
459 380 442 250 303 325 404 338 243 310 494 393 255 411 330 235 320 444 -767 0
395 340 269 254 367 312 246 396 378 17 279 373 327 -768 0
386 369 395 287 324 319 266 279 379 24 403 77 63 493 79 84 460 -769 0
302 379 494 378 293 247 332 176 277 139 91 309 320 8 82 428 417 -770 0
371 397 289 311 317 281 263 260 102 121 326 485 283 244 369 248 7 321 10 43 385 -771 0
479 245 373 389 403 349 386 279 297 415 314 23 318 185 -772 0
272 324 378 459 383 370 298 310 325 267 277 300 68 316 489 5 88 2 -773 0
331 317 281 260 256 248 401 204 388 402 83 148 244 10 -774 0
462 43 61 374 339 264 499 245 257 495 229 197 42 261 181 283 221 150 282 155 -775 0
402 455 395 349 324 254 384 398 187 15 297 329 266 216 287 386 32 318 352 134 475 -776 0
337 179 325 367 347 177 383 251 -777 0
410 286 382 375 401 263 248 92 87 76 347 260 274 114 185 204 432 393 30 26 9 439 -778 0
333 308 261 373 386 365 399 329 246 375 500 105 312 250 391 -779 0
390 402 436 97 378 311 187 496 442 46 310 247 270 36 213 261 307 320 298 387 267 304 145 366 255 -780 0
309 184 384 382 401 223 331 311 278 78 77 294 215 371 189 8 321 13 316 263 259 239 -781 0
57 241 77 461 308 302 261 423 269 408 220 323 473 -782 0
253 490 172 325 323 190 171 149 148 255 48 -783 0
175 271 260 21 161 463 317 183 61 388 429 164 352 396 311 306 299 133 248 31 237 256 -784 0
227 161 332 307 304 236 499 173 162 351 491 282 77 240 391 -785 0
378 478 496 12 455 339 250 232 346 255 200 392 261 117 447 -786 0
415 452 302 185 367 175 193 197 327 176 272 -787 0
245 359 377 179 310 38 320 313 81 270 243 277 462 213 273 476 136 221 184 177 283 -788 0
328 294 161 199 181 299 276 391 94 274 459 239 248 483 81 -789 0
496 129 392 238 186 327 300 497 332 23 385 318 165 304 472 196 54 -790 0
275 131 358 339 345 401 282 261 253 258 241 325 499 310 371 188 308 348 -791 0
474 427 166 170 297 212 99 20 82 220 400 441 248 308 211 193 188 254 435 153 13 411 28 -792 0
273 188 251 280 213 224 217 247 262 128 115 173 277 -793 0
469 395 382 218 319 195 115 32 247 94 352 228 71 271 15 102 181 439 187 326 -794 0
319 182 401 135 18 163 493 494 300 202 165 278 173 215 155 208 422 466 425 5 -795 0
333 325 285 238 323 286 428 120 386 213 257 346 499 189 303 -796 0
465 287 254 166 184 289 299 44 353 279 250 467 269 -797 0
372 184 492 270 68 88 313 198 396 320 39 -798 0
401 326 263 281 278 274 366 191 317 260 419 164 165 199 161 181 372 -799 0
242 497 73 153 495 128 445 332 304 162 190 214 169 188 64 318 385 -800 0
291 113 257 480 463 385 303 374 345 259 261 354 85 408 283 305 202 129 339 333 -801 0
192 387 348 339 323 414 308 301 291 253 296 362 191 29 402 241 346 256 318 261 -802 0
364 356 322 446 291 265 314 286 272 221 348 359 357 -803 0
283 124 322 288 318 232 9 169 327 196 162 426 430 -804 0
48 275 261 241 173 102 404 334 408 136 291 214 -805 0
444 360 229 164 135 271 260 83 222 5 191 231 -806 0
271 498 492 495 287 144 400 224 149 461 425 215 236 232 178 200 4 399 111 -807 0
323 309 295 99 483 61 382 359 249 63 301 296 24 346 -808 0
470 268 246 193 279 373 75 172 360 337 307 292 11 272 297 -809 0
313 202 195 419 426 171 180 308 81 370 293 -810 0
326 321 256 172 294 246 299 375 169 306 198 410 278 274 155 53 -811 0
291 266 166 185 150 388 254 139 283 15 45 174 416 -812 0
419 365 266 387 180 293 277 273 194 262 42 243 47 158 26 256 -813 0
452 398 365 297 287 242 292 179 246 250 279 214 190 406 -814 0
5 323 360 309 329 269 220 500 187 284 244 279 346 365 443 338 184 140 407 453 325 -815 0
420 287 108 276 198 313 293 443 176 180 221 190 255 37 -816 0
166 286 493 278 498 244 218 253 378 191 256 183 313 289 168 -817 0
491 231 500 310 162 327 451 82 325 174 241 253 275 207 -818 0
315 257 254 272 166 246 413 217 214 107 181 401 297 193 -819 0
329 262 247 228 167 325 186 273 192 6 190 -820 0
275 331 326 263 274 495 496 172 87 171 181 256 465 372 161 -821 0
497 498 135 169 18 285 98 249 295 459 449 196 188 300 89 173 318 141 492 402 327 162 -822 0
445 126 381 362 333 303 265 342 275 457 310 354 372 10 65 264 -823 0
309 329 119 185 268 184 170 266 67 69 193 116 260 212 365 202 182 56 53 -824 0
373 268 156 383 243 392 180 364 2 387 316 -825 0
399 384 331 317 260 248 281 199 181 289 494 135 252 164 131 355 187 300 -826 0
393 499 494 500 76 335 310 373 147 300 50 200 169 188 243 242 400 -827 0
366 180 160 228 364 368 339 336 232 265 257 261 258 42 296 310 128 212 70 -828 0
412 369 312 242 272 185 297 254 266 218 40 346 441 250 115 131 215 11 -829 0
420 325 288 280 251 186 217 316 262 194 408 320 273 183 1 118 305 488 -830 0
382 311 252 259 181 289 219 263 479 278 439 394 422 -831 0
314 266 115 499 263 496 52 405 374 370 165 123 307 196 327 322 494 498 303 247 -832 0
68 72 380 381 328 302 336 469 265 346 282 437 18 225 498 308 54 -833 0
470 409 436 433 395 340 274 430 268 442 400 279 324 241 77 389 70 160 -834 0
355 175 191 453 235 48 374 341 74 32 171 384 428 387 -835 0
196 133 152 381 348 282 376 346 296 93 265 301 147 412 229 -836 0
39 8 427 455 365 355 334 358 98 395 335 349 140 -837 0
426 337 326 218 404 443 368 453 383 450 344 327 21 280 419 434 -838 0
406 459 390 372 63 282 57 264 111 452 346 394 238 376 -839 0
433 452 417 391 357 444 491 156 231 449 185 343 266 281 219 15 -840 0
475 179 115 384 140 259 445 434 428 361 448 401 353 238 330 79 -841 0
450 282 194 291 489 482 368 364 359 302 151 264 123 401 286 270 -842 0
305 440 377 357 276 363 444 361 62 414 487 424 268 -843 0
378 387 356 293 27 445 370 341 98 29 255 -844 0
296 409 277 285 128 390 398 376 354 448 328 305 282 36 348 342 403 470 -845 0
366 70 408 390 381 328 492 188 372 196 243 -846 0
417 211 91 441 443 438 497 482 378 280 66 234 356 300 295 341 10 -847 0
59 296 85 308 390 386 376 368 364 342 346 84 359 106 405 394 -848 0
430 391 389 403 340 269 279 352 334 60 234 114 343 294 353 346 131 395 440 58 -849 0
205 437 378 361 273 356 270 445 344 68 136 428 347 366 10 -850 0
348 359 137 284 402 394 328 303 301 296 376 346 364 84 230 219 333 270 336 -851 0
359 308 427 399 365 360 152 343 442 268 306 449 283 337 247 460 221 313 436 272 177 -852 0
436 443 437 392 366 356 344 273 131 335 124 190 450 277 61 228 467 -853 0
339 402 390 385 381 336 303 398 346 391 260 405 -854 0
440 416 389 340 334 399 205 87 84 304 343 -855 0
170 306 69 29 292 480 441 434 396 431 443 424 341 40 -856 0
439 416 369 389 403 329 268 355 442 296 450 336 496 427 377 203 145 34 -857 0
435 344 443 22 434 431 453 338 193 411 196 335 404 -858 0
28 409 402 398 390 364 346 249 335 189 339 385 274 372 323 -859 0
416 389 395 343 337 334 458 417 147 316 277 172 127 -860 0
446 372 476 443 428 396 445 441 344 45 392 20 -861 0
407 453 131 77 405 390 485 364 351 184 308 316 402 13 -862 0
420 427 455 416 377 334 287 58 360 186 466 163 59 124 -863 0
409 354 345 339 274 372 395 227 153 413 -864 0
416 412 399 377 369 355 343 266 319 268 379 259 201 349 434 -865 0
342 469 297 104 492 404 330 251 247 277 273 28 101 356 270 140 25 490 -866 0
393 311 248 175 256 100 67 9 5 274 392 2 -867 0
46 105 381 19 314 489 394 380 488 369 409 333 354 398 336 239 -868 0
389 395 349 343 334 242 279 207 197 52 282 166 314 273 129 50 59 291 -869 0
425 343 184 445 396 387 392 378 350 247 280 208 353 335 234 25 251 207 -870 0
476 211 393 375 306 311 110 392 163 2 20 248 9 3 -871 0
59 473 351 394 13 376 345 333 328 280 332 343 362 125 354 439 181 -872 0
389 377 340 363 360 100 485 500 312 276 314 355 171 357 124 231 -873 0
242 112 106 241 383 378 370 82 344 338 40 167 353 467 231 384 177 304 255 404 365 -874 0
449 233 397 388 379 256 274 355 431 131 33 10 -875 0
362 183 84 413 409 394 381 364 359 354 475 328 368 100 497 246 484 -876 0
6 467 340 360 250 314 272 375 391 198 358 383 242 428 62 44 173 309 -877 0
112 383 277 353 247 404 218 361 358 366 402 438 201 332 -878 0
302 391 276 272 401 397 260 366 150 288 6 5 267 26 439 40 2 301 -879 0
105 234 398 100 420 424 413 405 385 362 346 419 48 320 351 205 152 339 -880 0
362 113 419 411 407 390 172 110 372 405 91 483 395 448 385 -881 0
265 485 384 256 500 263 187 271 22 80 274 321 338 460 190 67 311 371 173 248 496 9 1 322 8 -882 0
368 305 330 311 46 366 370 341 217 57 344 350 2 -883 0
379 271 278 248 331 290 472 150 186 121 372 3 346 2 458 -884 0
237 437 277 151 210 420 425 419 342 302 409 364 325 339 201 181 497 333 -885 0
457 342 399 365 334 349 337 268 319 484 343 369 112 463 302 373 64 232 73 37 -886 0
389 315 118 289 347 15 374 350 356 316 330 270 255 277 262 320 78 247 243 201 338 -887 0
389 289 197 497 251 3 5 105 108 331 174 244 397 10 401 419 59 8 -888 0
474 395 365 343 340 337 363 328 279 266 311 276 427 436 158 265 235 61 252 -889 0
419 409 415 416 380 189 212 106 121 71 141 405 156 435 -890 0
40 342 333 440 268 254 306 260 358 442 273 204 255 67 314 399 395 -891 0
328 34 296 43 58 366 267 374 383 247 390 40 285 -892 0
397 382 181 244 36 341 225 227 409 5 388 2 -893 0
221 152 424 429 381 354 345 476 343 187 359 255 436 362 337 -894 0
442 275 377 363 287 242 421 254 396 373 327 165 61 246 -895 0
197 383 353 247 341 358 374 378 335 347 338 273 251 438 23 21 350 -896 0
269 382 371 367 20 248 281 39 73 306 140 231 284 278 36 37 96 203 -897 0
134 394 458 424 419 364 362 433 294 475 116 376 122 484 429 229 329 49 283 411 426 -898 0
429 389 395 369 340 329 266 272 499 299 360 442 16 -899 0
336 421 455 358 443 392 383 341 251 270 344 366 221 404 69 457 313 109 1 -900 0
397 371 263 252 248 120 327 485 27 9 -901 0
461 137 429 422 413 407 434 414 139 376 420 209 348 269 -902 0
2 372 354 359 455 399 395 377 337 48 276 27 245 262 347 358 254 155 192 285 471 167 -903 0
346 291 430 249 445 251 370 347 341 387 383 357 273 148 277 327 -904 0
243 140 409 394 364 359 426 398 402 446 415 68 191 161 -905 0
429 478 476 436 433 417 414 352 254 242 472 43 495 231 135 264 216 426 183 214 64 128 -906 0
335 219 290 32 429 405 390 359 354 369 398 413 415 69 394 209 195 -907 0
476 475 472 436 430 433 442 413 421 235 123 80 455 44 48 62 -908 0
441 240 10 257 439 425 422 419 381 478 380 232 447 354 358 411 398 58 410 -909 0
337 17 293 477 269 68 -910 0
184 432 435 380 385 422 183 447 263 394 498 -911 0
475 433 414 55 141 237 436 427 113 406 410 479 458 -912 0
446 426 91 435 113 336 409 198 308 197 177 -913 0
489 340 166 180 460 449 452 487 421 142 -914 0
138 370 447 137 60 439 432 426 394 381 140 268 315 368 7 413 408 -915 0
477 471 351 427 315 472 492 444 56 325 430 158 103 36 423 81 -916 0
407 475 474 449 184 314 384 18 317 436 423 14 404 -917 0
451 479 469 455 421 410 266 357 476 449 117 363 216 412 290 433 -918 0
320 267 408 448 456 429 420 415 407 376 425 386 458 203 479 -919 0
424 374 390 426 411 381 323 407 219 60 97 257 62 107 87 -920 0
413 477 475 436 449 423 365 441 285 430 99 433 199 -921 0
480 405 186 42 446 464 372 380 381 376 355 123 390 404 207 153 129 -922 0
476 477 485 430 296 408 406 412 418 181 150 346 141 410 436 37 -923 0
140 456 463 461 405 485 385 377 11 269 321 457 37 60 -924 0
456 267 243 57 118 451 411 381 457 426 309 390 264 -925 0
451 325 463 446 429 390 422 76 324 349 495 308 447 78 23 -926 0
372 418 403 399 340 334 421 497 202 436 313 85 455 410 360 -927 0
225 13 404 18 363 338 358 176 11 452 20 344 131 306 -928 0
109 133 460 456 439 411 385 365 422 97 76 145 124 297 244 15 78 -929 0
444 442 427 410 389 403 449 455 498 129 494 433 491 418 400 440 113 308 -930 0
175 371 397 494 451 453 428 404 288 140 350 121 335 -931 0
356 419 322 479 459 458 448 409 426 346 439 425 349 271 405 132 462 -932 0
9 475 440 416 355 349 177 288 357 438 60 300 200 410 337 206 -933 0
272 326 129 17 250 344 347 22 151 87 29 85 219 489 428 89 361 -934 0
402 182 448 446 426 425 436 29 276 458 405 353 498 250 193 422 -935 0
483 476 479 444 414 399 343 357 187 113 340 152 285 -936 0
405 127 495 369 18 89 443 434 431 428 356 338 20 392 11 -937 0
458 476 229 20 29 92 434 392 335 318 338 374 12 441 356 361 404 19 431 -938 0
450 306 280 208 219 35 456 448 422 411 407 419 312 426 398 -939 0
442 418 395 399 334 357 417 449 192 277 452 166 50 -940 0
460 446 345 416 319 284 60 487 428 437 431 400 344 353 375 425 405 394 -941 0
427 436 406 349 416 49 414 268 412 219 162 464 51 -942 0
460 442 324 18 434 438 404 341 352 22 344 4 175 292 336 -943 0
5 440 412 337 244 499 418 211 350 395 233 482 417 174 -944 0
11 24 453 358 29 434 192 396 310 110 161 441 335 232 149 -945 0
458 439 462 461 457 447 432 420 425 471 364 411 34 118 429 424 29 451 470 -946 0
462 277 457 460 390 380 422 92 435 434 90 425 405 432 467 -947 0
471 354 88 425 424 413 105 249 24 206 470 446 307 156 -948 0
416 410 406 423 487 225 363 132 360 447 408 112 412 369 222 321 -949 0
351 377 319 27 339 135 29 85 443 434 78 358 94 344 208 76 257 64 428 -950 0
270 330 325 447 419 411 398 492 455 59 422 319 424 357 466 151 -951 0
380 418 410 455 225 436 427 437 320 416 260 442 477 417 116 -952 0
454 420 340 13 80 437 195 344 361 356 473 55 40 166 371 228 27 490 428 -953 0
413 481 462 451 448 432 336 456 384 470 53 424 128 205 178 446 84 -954 0
449 440 416 410 423 393 412 274 414 332 421 475 204 188 360 -955 0
75 461 83 451 447 477 485 303 241 470 426 442 458 242 465 467 370 413 150 479 -956 0
149 37 480 470 459 456 454 448 439 435 290 482 342 422 473 311 463 -957 0
483 460 451 358 173 467 119 454 448 420 349 275 473 447 24 234 425 -958 0
482 463 460 456 446 439 429 425 88 291 461 481 4 404 95 141 -959 0
462 448 424 470 457 425 420 305 481 465 170 483 466 91 -960 0
439 45 482 480 467 457 299 261 202 290 466 322 309 -961 0
481 467 122 283 488 483 277 457 448 422 479 124 486 451 117 459 -962 0
473 480 221 483 481 466 456 359 37 421 447 451 281 172 306 -963 0
489 490 466 463 462 461 457 460 257 448 447 7 419 139 415 446 470 423 465 151 -964 0
490 459 461 500 101 470 448 447 457 431 401 216 480 488 71 -965 0
263 35 486 462 457 456 458 454 485 349 448 309 258 119 249 343 488 316 -966 0
484 483 482 298 466 459 460 439 323 229 119 225 44 165 437 326 -967 0
458 304 4 489 488 462 457 456 62 323 467 461 279 179 297 100 411 451 119 484 400 163 -968 0
479 348 360 471 478 250 392 181 183 423 149 485 54 325 350 -969 0
128 101 210 30 488 482 466 405 376 451 490 369 74 268 15 467 462 432 -970 0
412 423 414 265 474 428 417 50 167 68 48 54 168 96 406 410 160 -971 0
475 469 417 246 389 252 418 172 412 238 48 45 62 410 397 65 -972 0
361 404 107 25 465 461 460 478 467 229 466 104 119 384 -973 0
442 408 166 68 263 54 195 431 1 232 477 51 45 93 272 61 165 -974 0
452 423 406 414 416 271 187 499 80 196 474 262 469 245 218 118 42 -975 0
478 477 474 351 305 449 414 199 410 421 341 366 42 452 157 65 -976 0
376 418 414 340 54 183 57 370 38 45 230 412 217 471 232 325 226 -977 0
475 471 412 410 418 414 349 416 195 495 343 455 42 102 111 12 -978 0
478 423 421 373 474 68 185 297 475 458 325 408 417 78 65 124 459 62 44 428 -979 0
464 137 459 178 482 486 483 473 332 119 189 23 410 183 371 271 433 498 254 253 22 -980 0
210 488 480 483 458 471 401 352 104 465 494 422 214 123 71 -981 0
462 435 489 460 234 104 119 100 97 123 463 -982 0
471 465 489 109 459 455 115 123 108 223 112 482 17 433 -983 0
483 378 405 489 490 480 461 420 351 345 255 24 168 207 452 326 159 -984 0
364 476 433 264 421 418 375 397 168 437 22 400 178 38 45 169 419 300 96 61 140 -985 0
481 136 490 473 470 461 285 287 100 440 99 498 464 199 393 97 193 20 -986 0
108 482 148 468 465 334 168 294 329 145 233 112 123 13 488 490 -987 0
464 67 463 119 243 207 360 268 277 200 99 112 306 489 -988 0
473 466 470 372 337 379 480 310 123 39 300 229 498 -989 0
99 158 149 203 462 372 494 104 108 174 493 277 207 -990 0
295 304 178 107 303 261 241 245 33 495 454 327 28 200 433 132 196 234 309 249 -991 0
420 196 241 253 497 401 127 175 452 446 300 249 427 134 -992 0
192 9 35 332 107 500 245 322 401 492 29 258 351 300 113 265 196 -993 0
290 318 307 200 178 259 258 500 192 22 196 499 434 -994 0
295 318 131 173 496 385 259 241 115 377 403 306 494 493 492 139 480 72 149 -995 0
42 307 145 70 500 442 312 253 360 195 247 295 -996 0
307 459 285 433 264 259 496 241 271 377 494 293 253 -997 0
327 439 275 264 259 261 496 342 18 297 245 492 183 283 495 -998 0
318 322 151 446 286 264 261 245 314 175 497 492 491 292 451 259 241 389 -999 0
19 79 295 259 412 296 257 179 499 491 333 241 161 497 428 282 492 -1000 0
-1 903 0
-1 809 0
-1 819 0
-1 597 0
-1 867 0
-1 901 0
-1 677 0
-1 652 0
-1 557 0
-1 701 0
-1 549 0
-2 635 0
-2 888 0
-2 526 0
-2 770 0
-2 901 0
-2 501 0
-2 528 0
-2 505 0
-2 531 0
-2 540 0
-3 886 0
-3 891 0
-3 597 0
-3 867 0
-3 893 0
-3 875 0
-3 664 0
-3 549 0
-3 930 0
-3 850 0
-3 590 0
-3 509 0
-3 959 0
-3 523 0
-3 947 0
-3 538 0
-3 537 0
-3 907 0
-3 531 0
-3 507 0
-3 502 0
-4 815 0
-4 711 0
-4 871 0
-4 916 0
-4 502 0
-4 881 0
-4 528 0
-4 736 0
-4 531 0
-4 533 0
-4 510 0
-4 509 0
-4 759 0
-4 534 0
-4 526 0
-5 897 0
-5 780 0
-5 671 0
-5 973 0
-5 863 0
-5 678 0
-5 501 0
-5 534 0
-5 540 0
-5 528 0
-5 507 0
-5 785 0
-5 901 0
-5 556 0
-6 742 0
-6 766 0
-6 756 0
-6 875 0
-6 897 0
-6 907 0
-6 623 0
-6 507 0
-6 860 0
-6 679 0
-6 923 0
-6 908 0
-6 771 0
-6 863 0
-7 871 0
-7 875 0
-7 867 0
-7 901 0
-7 806 0
-7 826 0
-7 714 0
-7 861 0
-7 866 0
-7 813 0
-7 626 0
-7 970 0
-7 922 0
-7 504 0
-8 897 0
-8 893 0
-8 789 0
-8 611 0
-8 875 0
-8 844 0
-8 965 0
-8 586 0
-8 637 0
-8 843 0
-8 858 0
-8 665 0
-8 923 0
-8 535 0
-8 532 0
-8 536 0
-8 538 0
-8 507 0
-8 503 0
-8 561 0
-9 737 0
-9 879 0
-9 995 0
-9 505 0
-9 540 0
-9 665 0
-9 942 0
-9 502 0
-9 664 0
-9 501 0
-9 508 0
-9 533 0
-9 747 0
-9 507 0
-10 840 0
-10 787 0
-10 882 0
-10 901 0
-10 735 0
-10 597 0
-10 781 0
-10 726 0
-10 788 0
-10 879 0
-10 540 0
-10 505 0
-10 509 0
-10 708 0
-10 535 0
-10 985 0
-10 867 0
-10 719 0
-10 643 0
-11 912 0
-11 837 0
-11 910 0
-11 712 0
-11 681 0
-11 582 0
-11 566 0
-11 943 0
-11 931 0
-11 896 0
-11 663 0
-11 864 0
-11 783 0
-11 813 0
-11 518 0
-11 522 0
-11 719 0
-11 919 0
-11 560 0
-11 532 0
-11 797 0
-11 527 0
-11 857 0
-12 814 0
-12 691 0
-12 856 0
-12 567 0
-12 609 0
-12 574 0
-12 908 0
-12 607 0
-12 581 0
-12 952 0
-12 750 0
-12 588 0
-12 564 0
-12 536 0
-12 525 0
-12 927 0
-12 577 0
-12 538 0
-13 771 0
-13 569 0
-13 549 0
-13 527 0
-13 517 0
-13 800 0
-13 875 0
-13 870 0
-13 698 0
-13 793 0
-13 931 0
-13 567 0
-13 520 0
-13 939 0
-13 920 0
-14 822 0
-14 680 0
-14 521 0
-14 532 0
-14 800 0
-14 607 0
-14 746 0
-14 572 0
-14 519 0
-14 590 0
-14 525 0
-14 924 0
-14 580 0
-15 522 0
-15 518 0
-15 517 0
-15 934 0
-15 931 0
-15 928 0
-15 578 0
-15 657 0
-15 527 0
-15 566 0
-15 877 0
-15 573 0
-16 608 0
-16 816 0
-16 954 0
-16 904 0
-16 541 0
-16 550 0
-16 534 0
-16 533 0
-16 531 0
-16 519 0
-16 739 0
-16 583 0
-17 563 0
-17 522 0
-17 669 0
-17 571 0
-17 552 0
-17 747 0
-17 937 0
-17 926 0
-17 959 0
-17 875 0
-17 603 0
-17 672 0
-17 950 0
-17 931 0
-17 586 0
-17 928 0
-18 720 0
-18 744 0
-18 595 0
-18 981 0
-18 941 0
-18 938 0
-18 856 0
-18 582 0
-18 578 0
-18 589 0
-18 844 0
-18 636 0
-18 973 0
-18 639 0
-18 692 0
-18 646 0
-18 858 0
-18 512 0
-19 737 0
-19 695 0
-19 560 0
-19 548 0
-19 539 0
-19 505 0
-19 572 0
-19 579 0
-19 532 0
-19 586 0
-19 553 0
-19 540 0
-19 534 0
-19 512 0
-19 523 0
-19 521 0
-19 590 0
-19 504 0
-19 526 0
-20 862 0
-20 942 0
-20 809 0
-20 615 0
-20 573 0
-20 945 0
-20 730 0
-20 652 0
-20 941 0
-20 587 0
-20 511 0
-20 950 0
-20 522 0
-21 516 0
-21 663 0
-21 657 0
-21 536 0
-21 512 0
-21 803 0
-21 539 0
-21 584 0
-21 590 0
-22 854 0
-22 972 0
-22 600 0
-22 775 0
-22 892 0
-22 576 0
-22 513 0
-22 941 0
-22 950 0
-22 665 0
-22 529 0
-22 560 0
-22 638 0
-22 589 0
-22 575 0
-22 861 0
-22 656 0
-23 702 0
-23 580 0
-23 704 0
-23 586 0
-23 577 0
-23 585 0
-23 528 0
-23 516 0
-23 512 0
-23 957 0
-23 535 0
-23 583 0
-23 532 0
-23 574 0
-24 805 0
-24 942 0
-24 750 0
-24 864 0
-24 580 0
-24 578 0
-24 520 0
-24 941 0
-24 861 0
-24 950 0
-24 573 0
-24 663 0
-24 873 0
-24 820 0
-24 654 0
-24 614 0
-24 618 0
-24 613 0
-24 934 0
-24 734 0
-25 867 0
-25 622 0
-25 586 0
-25 692 0
-25 540 0
-25 938 0
-25 531 0
-25 994 0
-25 577 0
-25 564 0
-25 519 0
-25 526 0
-25 516 0
-25 532 0
-26 647 0
-26 702 0
-26 537 0
-26 503 0
-26 807 0
-26 668 0
-26 639 0
-26 860 0
-26 561 0
-26 539 0
-26 523 0
-26 516 0
-26 501 0
-26 584 0
-26 710 0
-26 505 0
-26 789 0
-26 628 0
-26 857 0
-26 536 0
-26 530 0
-27 684 0
-27 571 0
-27 582 0
-27 546 0
-27 522 0
-27 943 0
-27 937 0
-27 767 0
-27 900 0
-27 919 0
-27 516 0
-27 577 0
-27 941 0
-27 576 0
-28 656 0
-28 878 0
-28 759 0
-28 719 0
-28 647 0
-28 512 0
-28 975 0
-28 567 0
-28 531 0
-28 533 0
-28 519 0
-28 588 0
-28 525 0
-28 966 0
-28 977 0
-28 944 0
-28 534 0
-28 538 0
-29 531 0
-29 517 0
-29 580 0
-29 528 0
-29 669 0
-29 858 0
-29 626 0
-29 922 0
-29 583 0
-29 535 0
-29 518 0
-30 587 0
-30 623 0
-30 512 0
-30 767 0
-30 663 0
-30 976 0
-30 761 0
-30 966 0
-30 533 0
-30 504 0
-30 727 0
-30 581 0
-30 559 0
-30 534 0
-30 521 0
-30 588 0
-30 538 0
-30 523 0
-30 539 0
-31 729 0
-31 671 0
-31 655 0
-31 745 0
-31 738 0
-31 519 0
-31 690 0
-31 533 0
-31 807 0
-31 631 0
-31 570 0
-31 820 0
-31 909 0
-31 757 0
-31 507 0
-31 989 0
-31 939 0
-31 567 0
-31 945 0
-32 707 0
-32 723 0
-32 998 0
-32 603 0
-32 507 0
-32 530 0
-32 509 0
-32 538 0
-32 914 0
-33 889 0
-33 824 0
-33 733 0
-33 604 0
-33 888 0
-33 537 0
-33 536 0
-33 620 0
-33 525 0
-33 538 0
-33 611 0
-33 700 0
-33 532 0
-33 855 0
-33 539 0
-33 540 0
-33 526 0
-33 958 0
-33 614 0
-33 505 0
-33 584 0
-34 723 0
-34 752 0
-34 687 0
-34 799 0
-34 585 0
-34 634 0
-34 827 0
-34 861 0
-34 958 0
-34 531 0
-34 584 0
-34 674 0
-34 538 0
-34 523 0
-34 590 0
-34 631 0
-34 532 0
-34 588 0
-34 805 0
-34 586 0
-34 535 0
-34 813 0
-35 699 0
-35 997 0
-35 994 0
-35 582 0
-35 730 0
-35 679 0
-35 932 0
-35 533 0
-35 509 0
-35 834 0
-35 885 0
-35 532 0
-35 504 0
-35 528 0
-35 506 0
-35 537 0
-35 502 0
-35 514 0
-35 799 0
-35 791 0
-35 833 0
-36 720 0
-36 943 0
-36 531 0
-36 961 0
-36 535 0
-36 732 0
-36 516 0
-36 525 0
-36 505 0
-36 523 0
-36 506 0
-36 528 0
-36 833 0
-37 746 0
-37 895 0
-37 867 0
-37 991 0
-37 784 0
-37 521 0
-37 704 0
-37 506 0
-37 971 0
-37 523 0
-37 519 0
-37 705 0
-37 845 0
-37 534 0
-37 507 0
-37 607 0
-37 907 0
-37 539 0
-37 510 0
-37 741 0
-38 901 0
-38 794 0
-38 635 0
-38 669 0
-38 584 0
-38 790 0
-38 521 0
-38 501 0
-38 525 0
-38 531 0
-38 516 0
-38 514 0
-38 509 0
-38 675 0
-38 507 0
-38 863 0
-38 506 0
-38 903 0
-39 904 0
-39 504 0
-39 552 0
-39 836 0
-39 693 0
-39 525 0
-39 775 0
-39 535 0
-39 538 0
-39 534 0
-39 920 0
-39 531 0
-39 968 0
-39 625 0
-40 875 0
-40 506 0
-40 893 0
-40 518 0
-40 514 0
-40 536 0
-40 530 0
-40 538 0
-40 534 0
-40 913 0
-40 507 0
-40 782 0
-40 603 0
-40 968 0
-40 758 0
-40 929 0
-41 943 0
-41 708 0
-41 876 0
-41 785 0
-41 574 0
-41 570 0
-41 564 0
-41 556 0
-41 588 0
-41 553 0
-41 523 0
-41 669 0
-41 521 0
-41 515 0
-41 732 0
-41 507 0
-41 512 0
-41 559 0
-42 725 0
-42 608 0
-42 545 0
-42 831 0
-42 536 0
-42 972 0
-42 557 0
-42 655 0
-42 736 0
-42 558 0
-42 977 0
-43 621 0
-43 576 0
-43 549 0
-43 546 0
-43 625 0
-43 826 0
-43 671 0
-43 762 0
-43 738 0
-43 869 0
-43 591 0
-43 620 0
-43 819 0
-43 630 0
-43 570 0
-43 804 0
-43 555 0
-44 712 0
-44 997 0
-44 595 0
-44 574 0
-44 881 0
-44 576 0
-44 603 0
-44 827 0
-44 660 0
-44 559 0
-44 583 0
-44 711 0
-44 517 0
-44 626 0
-44 859 0
-44 789 0
-44 645 0
-44 662 0
-44 561 0
-45 971 0
-45 849 0
-45 933 0
-45 969 0
-45 594 0
-45 652 0
-45 598 0
-45 568 0
-45 655 0
-45 548 0
-45 816 0
-45 649 0
-45 960 0
-45 637 0
-46 769 0
-46 846 0
-46 621 0
-46 558 0
-46 721 0
-46 624 0
-46 653 0
-46 555 0
-46 954 0
-46 918 0
-46 595 0
-46 552 0
-46 617 0
-46 613 0
-47 805 0
-47 829 0
-47 752 0
-47 938 0
-47 733 0
-47 969 0
-47 526 0
-47 972 0
-47 655 0
-47 832 0
-47 624 0
-47 616 0
-47 562 0
-47 551 0
-47 548 0
-47 651 0
-47 634 0
-47 636 0
-47 867 0
-47 568 0
-47 501 0
-47 847 0
-47 714 0
-48 976 0
-48 975 0
-48 974 0
-48 978 0
-48 812 0
-48 969 0
-48 996 0
-48 892 0
-48 642 0
-48 640 0
-48 636 0
-48 952 0
-48 565 0
-49 546 0
-49 580 0
-49 517 0
-49 566 0
-49 563 0
-49 552 0
-49 527 0
-49 810 0
-49 955 0
-49 952 0
-49 576 0
-49 675 0
-49 555 0
-49 728 0
-49 938 0
-49 656 0
-49 992 0
-50 771 0
-50 998 0
-50 677 0
-50 614 0
-50 648 0
-50 660 0
-50 593 0
-50 586 0
-50 559 0
-50 564 0
-50 590 0
-50 982 0
-50 591 0
-50 654 0
-50 574 0
-51 923 0
-51 921 0
-51 978 0
-51 857 0
-51 679 0
-51 819 0
-51 993 0
-51 937 0
-51 677 0
-51 565 0
-51 557 0
-51 586 0
-51 634 0
-51 1000 0
-51 655 0
-51 652 0
-51 594 0
-51 985 0
-51 637 0
-51 548 0
-51 545 0
-51 651 0
-51 987 0
-52 573 0
-52 543 0
-52 998 0
-52 831 0
-52 592 0
-52 575 0
-52 589 0
-52 720 0
-52 851 0
-52 649 0
-52 587 0
-52 638 0
-52 966 0
-53 992 0
-53 527 0
-53 813 0
-53 639 0
-53 588 0
-53 559 0
-53 594 0
-53 654 0
-53 976 0
-53 802 0
-53 556 0
-53 765 0
-53 574 0
-54 979 0
-54 846 0
-54 976 0
-54 784 0
-54 568 0
-54 643 0
-54 637 0
-54 652 0
-54 823 0
-54 594 0
-54 548 0
-54 658 0
-54 674 0
-54 858 0
-54 664 0
-54 505 0
-54 567 0
-55 764 0
-55 675 0
-55 659 0
-55 569 0
-55 566 0
-55 560 0
-55 807 0
-55 757 0
-55 656 0
-55 925 0
-55 977 0
-55 595 0
-55 644 0
-55 587 0
-55 509 0
-55 563 0
-55 585 0
-55 650 0
-55 872 0
-55 552 0
-56 663 0
-56 698 0
-56 560 0
-56 559 0
-56 642 0
-56 591 0
-56 732 0
-56 544 0
-56 618 0
-56 859 0
-56 922 0
-56 876 0
-56 832 0
-56 564 0
-56 842 0
-57 948 0
-57 985 0
-57 855 0
-57 753 0
-57 918 0
-57 994 0
-57 976 0
-57 511 0
-57 974 0
-57 634 0
-57 636 0
-57 620 0
-57 658 0
-57 548 0
-57 547 0
-57 507 0
-57 870 0
-58 974 0
-58 650 0
-58 592 0
-58 589 0
-58 571 0
-58 573 0
-58 563 0
-58 635 0
-58 990 0
-58 555 0
-58 580 0
-58 543 0
-58 963 0
-58 584 0
-59 695 0
-59 563 0
-59 574 0
-59 590 0
-59 642 0
-59 639 0
-59 633 0
-59 626 0
-59 965 0
-59 932 0
-59 570 0
-60 552 0
-60 650 0
-60 571 0
-60 922 0
-60 856 0
-60 826 0
-60 972 0
-60 780 0
-60 558 0
-60 732 0
-60 633 0
-60 549 0
-60 589 0
-60 969 0
-60 851 0
-60 897 0
-60 587 0
-61 751 0
-61 850 0
-61 556 0
-61 581 0
-61 654 0
-61 580 0
-61 631 0
-61 577 0
-61 584 0
-61 875 0
-61 514 0
-61 523 0
-61 695 0
-61 906 0
-61 541 0
-62 909 0
-62 975 0
-62 839 0
-62 978 0
-62 969 0
-62 921 0
-62 886 0
-62 898 0
-62 520 0
-62 658 0
-62 820 0
-62 935 0
-62 967 0
-62 503 0
-62 989 0
-62 568 0
-62 565 0
-62 502 0
-62 730 0
-62 910 0
-62 554 0
-62 977 0
-63 653 0
-63 650 0
-63 516 0
-63 578 0
-63 511 0
-63 524 0
-63 770 0
-63 944 0
-63 638 0
-63 816 0
-63 659 0
-63 569 0
-63 515 0
-63 957 0
-63 789 0
-63 553 0
-63 1000 0
-63 587 0
-63 642 0
-63 920 0
-64 617 0
-64 850 0
-64 773 0
-64 669 0
-64 561 0
-64 553 0
-64 562 0
-64 558 0
-64 654 0
-64 651 0
-64 630 0
-64 584 0
-64 574 0
-64 544 0
-64 570 0
-64 764 0
-65 978 0
-65 910 0
-65 921 0
-65 775 0
-65 772 0
-65 599 0
-65 547 0
-65 546 0
-65 975 0
-65 934 0
-65 655 0
-65 707 0
-65 637 0
-65 652 0
-65 557 0
-65 554 0
-65 568 0
-65 688 0
-65 833 0
-65 643 0
-65 542 0
-66 745 0
-66 808 0
-66 623 0
-66 709 0
-66 571 0
-66 578 0
-66 569 0
-66 558 0
-66 797 0
-66 538 0
-66 647 0
-66 546 0
-66 519 0
-66 618 0
-66 584 0
-67 961 0
-67 611 0
-67 853 0
-67 590 0
-67 676 0
-67 658 0
-67 620 0
-67 652 0
-67 982 0
-67 732 0
-67 654 0
-67 777 0
-67 564 0
-67 523 0
-67 586 0
-67 996 0
-67 541 0
-67 572 0
-67 581 0
-67 639 0
-67 556 0
-68 864 0
-68 977 0
-68 697 0
-68 517 0
-68 658 0
-68 548 0
-68 972 0
-68 646 0
-68 978 0
-68 574 0
-68 912 0
-68 609 0
-68 744 0
-68 863 0
-68 811 0
-68 525 0
-69 846 0
-69 994 0
-69 515 0
-69 560 0
-69 552 0
-69 659 0
-69 558 0
-69 517 0
-69 543 0
-69 897 0
-69 691 0
-69 919 0
-69 986 0
-70 629 0
-70 544 0
-70 699 0
-70 651 0
-70 654 0
-70 596 0
-70 979 0
-70 590 0
-70 660 0
-70 923 0
-70 556 0
-70 561 0
-70 588 0
-70 514 0
-70 837 0
-71 693 0
-71 668 0
-71 632 0
-71 585 0
-71 552 0
-71 656 0
-71 578 0
-71 691 0
-71 556 0
-71 739 0
-71 522 0
-71 678 0
-71 555 0
-72 550 0
-72 516 0
-72 513 0
-72 631 0
-72 590 0
-72 541 0
-72 561 0
-72 584 0
-72 907 0
-72 523 0
-72 671 0
-72 588 0
-72 521 0
-72 525 0
-72 570 0
-72 654 0
-72 564 0
-72 916 0
-72 559 0
-73 587 0
-73 659 0
-73 513 0
-73 582 0
-73 549 0
-73 575 0
-73 749 0
-73 543 0
-73 932 0
-73 569 0
-73 546 0
-74 819 0
-74 521 0
-74 516 0
-74 664 0
-74 572 0
-74 514 0
-74 890 0
-74 561 0
-74 583 0
-74 513 0
-74 931 0
-74 584 0
-74 958 0
-75 582 0
-75 558 0
-75 549 0
-75 569 0
-75 560 0
-75 578 0
-75 770 0
-75 736 0
-75 954 0
-75 687 0
-75 563 0
-75 566 0
-76 672 0
-76 632 0
-76 582 0
-76 558 0
-76 737 0
-76 529 0
-76 560 0
-76 798 0
-76 783 0
-76 513 0
-76 511 0
-76 937 0
-76 571 0
-76 807 0
-76 975 0
-76 947 0
-76 872 0
-76 804 0
-77 836 0
-77 558 0
-77 665 0
-77 673 0
-77 688 0
-77 541 0
-77 621 0
-77 584 0
-77 528 0
-77 570 0
-77 564 0
-77 534 0
-77 514 0
-77 516 0
-77 629 0
-77 581 0
-77 939 0
-77 753 0
-77 588 0
-78 889 0
-78 689 0
-78 731 0
-78 555 0
-78 517 0
-78 527 0
-78 648 0
-78 522 0
-78 576 0
-78 624 0
-78 728 0
-78 638 0
-78 953 0
-78 580 0
-79 650 0
-79 581 0
-79 567 0
-79 583 0
-79 736 0
-79 980 0
-79 588 0
-79 768 0
-79 516 0
-79 559 0
-79 662 0
-79 541 0
-79 808 0
-79 530 0
-79 521 0
-79 514 0
-79 553 0
-79 590 0
-80 555 0
-80 571 0
-80 566 0
-80 513 0
-80 931 0
-80 543 0
-80 637 0
-80 945 0
-80 565 0
-80 729 0
-80 589 0
-80 983 0
-80 919 0
-80 764 0
-80 587 0
-81 884 0
-81 668 0
-81 991 0
-81 784 0
-81 575 0
-81 572 0
-81 659 0
-81 544 0
-81 588 0
-81 584 0
-81 574 0
-81 516 0
-81 556 0
-81 523 0
-81 559 0
-81 521 0
-81 519 0
-81 1000 0
-82 855 0
-82 558 0
-82 529 0
-82 578 0
-82 552 0
-82 555 0
-82 653 0
-82 805 0
-82 549 0
-82 515 0
-82 896 0
-82 845 0
-82 948 0
-82 520 0
-82 569 0
-82 507 0
-82 963 0
-82 633 0
-83 729 0
-83 739 0
-83 786 0
-83 708 0
-83 519 0
-83 578 0
-83 588 0
-83 521 0
-83 505 0
-83 559 0
-83 836 0
-83 561 0
-83 550 0
-83 972 0
-83 586 0
-83 528 0
-83 584 0
-83 567 0
-83 553 0
-83 509 0
-83 581 0
-83 577 0
-84 516 0
-84 782 0
-84 553 0
-84 639 0
-84 570 0
-84 590 0
-84 588 0
-84 525 0
-84 719 0
-84 567 0
-84 918 0
-85 711 0
-85 578 0
-85 789 0
-85 629 0
-85 582 0
-85 573 0
-85 575 0
-85 563 0
-85 566 0
-85 513 0
-85 549 0
-85 928 0
-85 686 0
-85 943 0
-85 511 0
-85 931 0
-85 648 0
-86 685 0
-86 707 0
-86 699 0
-86 998 0
-86 996 0
-86 520 0
-86 772 0
-86 561 0
-86 778 0
-86 574 0
-86 588 0
-86 572 0
-86 634 0
-86 514 0
-86 532 0
-86 521 0
-86 590 0
-86 556 0
-87 774 0
-87 797 0
-87 558 0
-87 524 0
-87 522 0
-87 949 0
-87 841 0
-87 539 0
-87 581 0
-87 513 0
-87 526 0
-87 529 0
-88 589 0
-88 517 0
-88 564 0
-88 550 0
-88 523 0
-88 590 0
-88 514 0
-88 574 0
-89 833 0
-89 604 0
-89 576 0
-89 587 0
-89 575 0
-89 555 0
-89 569 0
-89 515 0
-89 774 0
-89 624 0
-89 578 0
-89 950 0
-89 524 0
-89 565 0
-89 906 0
-89 591 0
-89 523 0
-89 514 0
-90 659 0
-90 589 0
-90 750 0
-90 820 0
-90 583 0
-90 915 0
-90 721 0
-90 532 0
-90 715 0
-90 913 0
-90 530 0
-90 629 0
-90 509 0
-90 870 0
-90 526 0
-90 525 0
-90 615 0
-90 533 0
-90 940 0
-91 729 0
-91 823 0
-91 559 0
-91 662 0
-91 657 0
-91 648 0
-91 645 0
-91 603 0
-91 701 0
-91 607 0
-91 855 0
-91 986 0
-91 642 0
-91 553 0
-91 971 0
-92 845 0
-92 944 0
-92 746 0
-92 891 0
-92 623 0
-92 650 0
-92 659 0
-92 647 0
-92 546 0
-92 543 0
-92 653 0
-92 731 0
-92 822 0
-92 874 0
-92 606 0
-92 704 0
-92 644 0
-92 632 0
-92 954 0
-92 508 0
-92 638 0
-92 987 0
-92 907 0
-92 564 0
-92 614 0
-92 740 0
-92 774 0
-93 787 0
-93 599 0
-93 633 0
-93 878 0
-93 861 0
-93 841 0
-93 845 0
-93 622 0
-93 728 0
-93 639 0
-93 553 0
-93 642 0
-93 603 0
-93 964 0
-93 521 0
-93 537 0
-93 907 0
-93 972 0
-93 686 0
-93 596 0
-93 556 0
-93 626 0
-94 962 0
-94 958 0
-94 624 0
-94 616 0
-94 681 0
-94 721 0
-94 658 0
-94 547 0
-94 601 0
-94 680 0
-94 734 0
-94 814 0
-94 723 0
-94 566 0
-94 613 0
-95 809 0
-95 992 0
-95 735 0
-95 664 0
-95 656 0
-95 647 0
-95 625 0
-95 610 0
-95 592 0
-95 926 0
-95 709 0
-95 708 0
-95 636 0
-95 659 0
-95 646 0
-95 602 0
-95 653 0
-96 867 0
-96 734 0
-96 547 0
-96 624 0
-96 559 0
-96 995 0
-96 642 0
-96 611 0
-96 948 0
-96 827 0
-97 944 0
-97 737 0
-97 693 0
-97 707 0
-97 604 0
-97 587 0
-97 716 0
-97 612 0
-97 666 0
-97 608 0
-97 850 0
-97 712 0
-97 781 0
-97 984 0
-97 734 0
-97 733 0
-97 629 0
-97 723 0
-97 736 0
-97 627 0
-98 963 0
-98 582 0
-98 712 0
-98 579 0
-98 526 0
-98 721 0
-98 594 0
-98 543 0
-98 686 0
-98 760 0
-98 605 0
-98 646 0
-99 982 0
-99 779 0
-99 712 0
-99 666 0
-99 725 0
-99 612 0
-99 685 0
-99 627 0
-99 997 0
-99 530 0
-99 689 0
-99 604 0
-99 513 0
-99 737 0
-99 869 0
-99 603 0
-99 615 0
-100 510 0
-100 983 0
-100 981 0
-100 803 0
-100 619 0
-100 599 0
-100 745 0
-100 710 0
-100 752 0
-100 705 0
-100 544 0
-100 945 0
-100 824 0
-100 711 0
-100 598 0
-100 718 0
-100 526 0
-100 944 0
-100 973 0
-101 910 0
-101 764 0
-101 620 0
-101 723 0
-101 847 0
-101 841 0
-101 820 0
-101 721 0
-101 636 0
-101 652 0
-101 547 0
-101 708 0
-101 646 0
-101 782 0
-101 778 0
-101 719 0
-102 845 0
-102 834 0
-102 705 0
-102 632 0
-102 656 0
-102 650 0
-102 638 0
-102 661 0
-102 625 0
-102 857 0
-102 511 0
-102 555 0
-102 644 0
-102 984 0
-102 731 0
-102 735 0
-102 553 0
-102 701 0
-102 607 0
-103 597 0
-103 743 0
-103 904 0
-103 754 0
-103 710 0
-103 876 0
-103 657 0
-103 730 0
-103 618 0
-103 611 0
-103 725 0
-103 522 0
-103 736 0
-103 956 0
-103 602 0
-103 809 0
-103 669 0
-103 860 0
-104 932 0
-104 712 0
-104 725 0
-104 684 0
-104 817 0
-104 619 0
-104 527 0
-104 805 0
-104 995 0
-104 844 0
-104 931 0
-104 753 0
-104 941 0
-104 987 0
-104 711 0
-105 537 0
-105 853 0
-105 943 0
-105 840 0
-105 717 0
-105 655 0
-105 726 0
-105 613 0
-105 519 0
-105 706 0
-106 908 0
-106 869 0
-106 682 0
-106 644 0
-106 614 0
-106 738 0
-106 668 0
-106 730 0
-106 672 0
-106 739 0
-106 556 0
-106 621 0
-106 967 0
-107 689 0
-107 821 0
-107 743 0
-107 767 0
-107 554 0
-107 793 0
-107 648 0
-107 665 0
-107 662 0
-107 710 0
-107 630 0
-107 673 0
-107 596 0
-107 801 0
-108 510 0
-108 988 0
-108 902 0
-108 842 0
-108 711 0
-108 666 0
-108 670 0
-108 707 0
-108 785 0
-108 768 0
-108 627 0
-108 989 0
-108 690 0
-108 604 0
-108 557 0
-108 736 0
-109 965 0
-109 905 0
-109 829 0
-109 891 0
-109 628 0
-109 611 0
-109 845 0
-109 546 0
-109 868 0
-109 638 0
-109 652 0
-109 857 0
-109 598 0
-109 605 0
-109 624 0
-109 710 0
-109 655 0
-109 594 0
-109 646 0
-109 893 0
-109 634 0
-109 878 0
-109 704 0
-110 978 0
-110 760 0
-110 884 0
-110 714 0
-110 731 0
-110 672 0
-110 614 0
-110 727 0
-110 705 0
-110 568 0
-110 606 0
-110 509 0
-110 735 0
-110 668 0
-110 717 0
-110 644 0
-111 576 0
-111 528 0
-111 701 0
-111 610 0
-111 730 0
-111 910 0
-111 706 0
-111 660 0
-111 607 0
-111 728 0
-111 966 0
-111 979 0
-111 929 0
-111 710 0
-112 989 0
-112 600 0
-112 517 0
-112 619 0
-112 984 0
-112 716 0
-113 942 0
-113 754 0
-113 598 0
-113 786 0
-113 709 0
-113 947 0
-113 636 0
-113 816 0
-113 655 0
-113 738 0
-113 951 0
-113 634 0
-113 616 0
-113 970 0
-113 690 0
-113 591 0
-113 643 0
-114 718 0
-114 731 0
-114 709 0
-114 659 0
-114 647 0
-114 644 0
-114 595 0
-114 727 0
-114 698 0
-114 691 0
-114 617 0
-114 554 0
-114 796 0
-114 545 0
-114 641 0
-114 635 0
-114 584 0
-114 703 0
-114 958 0
-114 656 0
-114 648 0
-114 505 0
-115 984 0
-115 906 0
-115 619 0
-115 869 0
-115 604 0
-115 602 0
-115 627 0
-115 982 0
-115 866 0
-115 608 0
-115 935 0
-115 600 0
-115 612 0
-115 701 0
-116 890 0
-116 849 0
-116 750 0
-116 947 0
-116 643 0
-116 702 0
-116 745 0
-116 576 0
-116 853 0
-116 734 0
-116 628 0
-116 649 0
-116 646 0
-116 640 0
-116 598 0
-116 605 0
-116 524 0
-117 599 0
-117 821 0
-117 659 0
-117 629 0
-117 592 0
-117 543 0
-117 780 0
-117 683 0
-117 516 0
-117 558 0
-117 951 0
-117 553 0
-117 644 0
-117 717 0
-118 650 0
-118 668 0
-118 772 0
-118 544 0
-118 764 0
-118 695 0
-118 999 0
-118 645 0
-118 626 0
-118 506 0
-118 703 0
-118 985 0
-118 648 0
-118 576 0
-118 611 0
-118 952 0
-119 986 0
-119 987 0
-119 990 0
-119 720 0
-119 707 0
-119 733 0
-119 610 0
-119 664 0
-119 597 0
-119 747 0
-119 524 0
-119 981 0
-119 641 0
-119 803 0
-120 729 0
-120 714 0
-120 969 0
-120 771 0
-120 598 0
-120 545 0
-120 624 0
-120 616 0
-120 613 0
-120 655 0
-120 594 0
-120 628 0
-120 715 0
-120 660 0
-121 863 0
-121 627 0
-121 653 0
-121 644 0
-121 602 0
-121 632 0
-121 705 0
-121 755 0
-121 718 0
-121 558 0
-121 613 0
-121 641 0
-121 722 0
-121 592 0
-121 517 0
-121 647 0
-121 573 0
-121 838 0
-121 714 0
-121 854 0
-122 819 0
-122 632 0
-122 559 0
-122 788 0
-122 568 0
-122 542 0
-122 973 0
-122 832 0
-122 706 0
-122 703 0
-122 736 0
-122 674 0
-122 715 0
-122 929 0
-122 642 0
-122 941 0
-122 654 0
-122 508 0
-122 902 0
-122 566 0
-123 980 0
-123 973 0
-123 986 0
-123 940 0
-123 729 0
-123 608 0
-123 792 0
-123 627 0
-123 723 0
-123 718 0
-123 733 0
-123 707 0
-123 599 0
-123 706 0
-123 651 0
-123 916 0
-124 629 0
-124 558 0
-124 816 0
-124 652 0
-124 770 0
-124 708 0
-124 733 0
-124 855 0
-124 643 0
-124 640 0
-124 717 0
-124 989 0
-124 634 0
-124 542 0
-124 721 0
-124 545 0
-125 765 0
-125 769 0
-125 709 0
-125 702 0
-125 638 0
-125 653 0
-125 650 0
-125 621 0
-125 617 0
-125 614 0
-125 515 0
-125 820 0
-125 857 0
-125 562 0
-125 827 0
-125 554 0
-125 967 0
-125 544 0
-125 712 0
-125 922 0
-125 546 0
-126 632 0
-126 765 0
-126 813 0
-126 777 0
-126 568 0
-126 844 0
-126 607 0
-126 710 0
-126 674 0
-126 633 0
-126 541 0
-126 728 0
-126 872 0
-126 517 0
-126 651 0
-126 715 0
-126 515 0
-126 975 0
-127 989 0
-127 981 0
-127 967 0
-127 915 0
-127 786 0
-127 868 0
-127 619 0
-127 582 0
-127 600 0
-127 982 0
-127 884 0
-127 870 0
-127 502 0
-127 990 0
-127 986 0
-127 655 0
-127 593 0
-127 970 0
-128 725 0
-128 605 0
-128 687 0
-128 575 0
-128 860 0
-128 755 0
-128 601 0
-128 637 0
-128 717 0
-128 724 0
-128 613 0
-128 583 0
-128 593 0
-129 718 0
-129 714 0
-129 731 0
-129 635 0
-129 625 0
-129 602 0
-129 644 0
-129 816 0
-129 661 0
-129 619 0
-129 872 0
-129 715 0
-129 928 0
-129 610 0
-129 727 0
-130 519 0
-130 732 0
-130 719 0
-130 961 0
-130 706 0
-130 703 0
-130 596 0
-130 611 0
-130 765 0
-130 710 0
-130 782 0
-131 871 0
-131 937 0
-131 626 0
-131 645 0
-131 648 0
-131 651 0
-131 593 0
-131 911 0
-131 961 0
-131 591 0
-131 579 0
-131 633 0
-131 577 0
-131 973 0
-131 556 0
-132 829 0
-132 650 0
-132 629 0
-132 582 0
-132 580 0
-132 560 0
-132 558 0
-132 552 0
-132 844 0
-132 543 0
-132 625 0
-132 887 0
-132 638 0
-132 617 0
-132 508 0
-132 573 0
-133 627 0
-133 752 0
-133 994 0
-133 657 0
-133 541 0
-133 591 0
-133 669 0
-133 648 0
-133 583 0
-133 572 0
-133 579 0
-133 550 0
-133 592 0
-133 574 0
-133 984 0
-133 596 0
-134 912 0
-134 893 0
-134 641 0
-134 601 0
-134 841 0
-134 931 0
-134 726 0
-134 643 0
-134 734 0
-134 854 0
-134 844 0
-134 542 0
-134 598 0
-135 716 0
-135 602 0
-135 617 0
-135 585 0
-135 576 0
-135 546 0
-135 924 0
-135 667 0
-135 706 0
-135 759 0
-135 641 0
-135 987 0
-135 709 0
-135 769 0
-136 935 0
-136 913 0
-136 552 0
-136 772 0
-136 605 0
-136 598 0
-136 616 0
-136 624 0
-136 542 0
-136 646 0
-136 551 0
-136 545 0
-136 635 0
-136 887 0
-136 554 0
-137 756 0
-137 704 0
-137 569 0
-137 542 0
-137 620 0
-137 788 0
-137 547 0
-137 598 0
-137 609 0
-137 594 0
-137 658 0
-138 985 0
-138 809 0
-138 716 0
-138 617 0
-138 653 0
-138 635 0
-138 606 0
-138 549 0
-138 513 0
-138 543 0
-138 930 0
-138 783 0
-138 839 0
-138 514 0
-138 883 0
-138 525 0
-138 540 0
-139 824 0
-139 666 0
-139 622 0
-139 541 0
-139 831 0
-139 742 0
-139 633 0
-139 671 0
-139 611 0
-139 591 0
-139 618 0
-139 570 0
-139 550 0
-139 540 0
-139 949 0
-139 985 0
-139 602 0
-139 962 0
-140 894 0
-140 881 0
-140 823 0
-140 900 0
-140 557 0
-140 621 0
-140 637 0
-140 643 0
-140 613 0
-140 594 0
-140 620 0
-140 547 0
-140 562 0
-140 646 0
-140 545 0
-140 530 0
-140 740 0
-140 628 0
-140 533 0
-140 713 0
-140 655 0
-140 598 0
-141 809 0
-141 632 0
-141 625 0
-141 629 0
-141 638 0
-141 939 0
-141 567 0
-141 566 0
-141 645 0
-141 744 0
-141 656 0
-141 702 0
-141 785 0
-142 725 0
-142 763 0
-142 687 0
-142 501 0
-142 614 0
-142 982 0
-142 547 0
-142 728 0
-142 657 0
-142 648 0
-142 639 0
-142 611 0
-142 673 0
-142 805 0
-142 630 0
-142 921 0
-142 936 0
-142 579 0
-143 983 0
-143 752 0
-143 592 0
-143 545 0
-143 887 0
-143 658 0
-143 652 0
-143 609 0
-143 594 0
-143 620 0
-143 601 0
-143 726 0
-143 542 0
-143 702 0
-143 818 0
-143 736 0
-143 551 0
-143 547 0
-143 923 0
-144 944 0
-144 670 0
-144 806 0
-144 595 0
-144 563 0
-144 549 0
-144 727 0
-144 632 0
-144 635 0
-144 625 0
-144 569 0
-144 984 0
-144 702 0
-144 982 0
-144 552 0
-145 650 0
-145 762 0
-145 545 0
-145 593 0
-145 703 0
-145 728 0
-145 700 0
-145 872 0
-145 828 0
-145 559 0
-145 626 0
-145 830 0
-145 622 0
-145 564 0
-145 913 0
-145 657 0
-145 939 0
-145 607 0
-145 660 0
-146 958 0
-146 862 0
-146 711 0
-146 760 0
-146 763 0
-146 871 0
-146 718 0
-146 608 0
-146 635 0
-146 582 0
-146 658 0
-146 637 0
-146 605 0
-146 620 0
-146 643 0
-147 612 0
-147 705 0
-147 875 0
-147 794 0
-147 602 0
-147 629 0
-147 549 0
-147 850 0
-147 552 0
-147 702 0
-147 617 0
-147 991 0
-147 844 0
-147 770 0
-147 625 0
-148 612 0
-148 799 0
-148 559 0
-148 654 0
-148 732 0
-148 660 0
-148 651 0
-148 645 0
-148 544 0
-148 502 0
-148 813 0
-148 570 0
-148 611 0
-148 843 0
-148 856 0
-149 966 0
-149 970 0
-149 775 0
-149 571 0
-149 569 0
-149 946 0
-149 548 0
-149 658 0
-149 551 0
-149 655 0
-149 915 0
-149 927 0
-149 643 0
-149 565 0
-149 971 0
-149 578 0
-150 753 0
-150 716 0
-150 615 0
-150 752 0
-150 641 0
-150 573 0
-150 566 0
-150 575 0
-150 792 0
-150 552 0
-150 507 0
-150 679 0
-150 538 0
-150 877 0
-150 607 0
-150 720 0
-150 591 0
-150 894 0
-150 549 0
-151 550 0
-151 593 0
-151 591 0
-151 559 0
-151 544 0
-151 596 0
-151 622 0
-151 583 0
-151 940 0
-151 553 0
-151 939 0
-151 586 0
-151 581 0
-151 574 0
-151 556 0
-152 890 0
-152 885 0
-152 971 0
-152 969 0
-152 792 0
-152 517 0
-152 953 0
-152 628 0
-152 646 0
-152 655 0
-152 616 0
-152 740 0
-152 634 0
-152 542 0
-152 557 0
-153 845 0
-153 840 0
-153 756 0
-153 664 0
-153 644 0
-153 614 0
-153 750 0
-153 549 0
-153 558 0
-153 562 0
-153 555 0
-153 641 0
-153 575 0
-153 607 0
-154 551 0
-154 611 0
-154 544 0
-154 541 0
-154 645 0
-154 607 0
-154 591 0
-154 583 0
-154 559 0
-154 633 0
-154 919 0
-154 906 0
-154 987 0
-154 964 0
-154 630 0
-154 876 0
-154 596 0
-154 526 0
-154 512 0
-154 574 0
-155 867 0
-155 529 0
-155 566 0
-155 971 0
-155 1000 0
-155 616 0
-155 793 0
-155 636 0
-155 628 0
-155 624 0
-155 596 0
-155 617 0
-156 629 0
-156 569 0
-156 543 0
-156 546 0
-156 563 0
-156 743 0
-156 621 0
-156 783 0
-156 931 0
-156 636 0
-156 573 0
-156 650 0
-156 605 0
-156 575 0
-156 558 0
-156 704 0
-156 920 0
-157 717 0
-157 701 0
-157 593 0
-157 654 0
-157 556 0
-157 639 0
-157 630 0
-157 570 0
-157 564 0
-157 559 0
-157 607 0
-157 550 0
-157 989 0
-157 749 0
-157 626 0
-157 944 0
-157 618 0
-157 791 0
-158 697 0
-158 972 0
-158 527 0
-158 634 0
-158 545 0
-158 904 0
-158 616 0
-158 542 0
-158 548 0
-158 551 0
-158 569 0
-158 605 0
-158 766 0
-158 887 0
-158 793 0
-159 836 0
-159 843 0
-159 829 0
-159 821 0
-159 656 0
-159 653 0
-159 625 0
-159 575 0
-159 799 0
-159 789 0
-159 754 0
-159 730 0
-159 648 0
-159 564 0
-159 566 0
-160 659 0
-160 903 0
-160 750 0
-160 825 0
-160 790 0
-160 715 0
-160 745 0
-160 567 0
-160 593 0
-160 654 0
-160 607 0
-160 633 0
-160 591 0
-160 630 0
-160 862 0
-160 873 0
-160 657 0
-160 880 0
-160 901 0
-160 553 0
-161 744 0
-161 596 0
-161 714 0
-161 739 0
-161 672 0
-161 606 0
-161 950 0
-161 750 0
-161 687 0
-161 625 0
-161 663 0
-161 817 0
-161 691 0
-161 610 0
-161 855 0
-161 731 0
-162 674 0
-162 807 0
-162 715 0
-162 703 0
-162 678 0
-162 696 0
-162 692 0
-162 732 0
-162 728 0
-162 519 0
-162 583 0
-162 988 0
-162 630 0
-162 837 0
-162 626 0
-163 952 0
-163 882 0
-163 744 0
-163 781 0
-163 680 0
-163 690 0
-163 943 0
-163 708 0
-163 601 0
-163 689 0
-163 686 0
-163 598 0
-163 605 0
-163 505 0
-164 612 0
-164 794 0
-164 691 0
-164 610 0
-164 527 0
-164 672 0
-164 835 0
-164 770 0
-164 884 0
-164 699 0
-164 649 0
-164 700 0
-164 994 0
-164 501 0
-164 593 0
-164 817 0
-164 973 0
-164 739 0
-165 820 0
-165 887 0
-165 822 0
-165 736 0
-165 630 0
-165 669 0
-165 990 0
-165 614 0
-165 975 0
-166 955 0
-166 992 0
-166 829 0
-166 934 0
-166 961 0
-166 725 0
-166 604 0
-166 737 0
-166 716 0
-166 600 0
-166 535 0
-166 612 0
-166 707 0
-166 815 0
-167 939 0
-167 750 0
-167 774 0
-167 650 0
-167 804 0
-167 841 0
-167 915 0
-167 522 0
-167 793 0
-167 726 0
-167 721 0
-167 830 0
-167 598 0
-167 686 0
-167 825 0
-167 613 0
-167 788 0
-167 698 0
-167 701 0
-167 694 0
-167 601 0
-167 671 0
-167 537 0
-167 508 0
-167 738 0
-168 809 0
-168 831 0
-168 727 0
-168 687 0
-168 718 0
-168 547 0
-168 799 0
-168 838 0
-168 698 0
-168 709 0
-168 590 0
-168 730 0
-168 806 0
-168 905 0
-168 506 0
-168 691 0
-169 897 0
-169 650 0
-169 762 0
-169 790 0
-169 673 0
-169 719 0
-169 818 0
-169 795 0
-169 740 0
-169 736 0
-169 674 0
-169 786 0
-169 631 0
-169 706 0
-169 553 0
-170 944 0
-170 797 0
-170 711 0
-170 794 0
-170 787 0
-170 723 0
-170 697 0
-170 819 0
-170 804 0
-170 755 0
-170 729 0
-170 733 0
-170 853 0
-170 597 0
-170 542 0
-170 829 0
-170 719 0
-170 746 0
-170 556 0
-171 803 0
-171 801 0
-171 921 0
-171 890 0
-171 617 0
-171 944 0
-171 974 0
-171 676 0
-171 743 0
-171 967 0
-171 613 0
-171 914 0
-172 839 0
-172 784 0
-172 831 0
-172 781 0
-172 735 0
-172 940 0
-172 995 0
-172 722 0
-172 677 0
-172 731 0
-172 739 0
-172 700 0
-172 705 0
-172 789 0
-172 699 0
-173 814 0
-173 769 0
-173 517 0
-173 515 0
-173 667 0
-173 548 0
-173 510 0
-173 611 0
-173 715 0
-173 736 0
-173 732 0
-173 688 0
-173 662 0
-173 701 0
-173 689 0
-173 983 0
-173 502 0
-173 719 0
-173 900 0
-173 835 0
-174 871 0
-174 619 0
-174 938 0
-174 688 0
-174 804 0
-174 800 0
-174 790 0
-174 703 0
-174 719 0
-174 715 0
-174 701 0
-174 678 0
-174 665 0
-174 795 0
-174 503 0
-174 603 0
-174 630 0
-174 673 0
-174 864 0
-175 749 0
-175 711 0
-175 739 0
-175 742 0
-175 991 0
-175 689 0
-175 734 0
-175 720 0
-175 716 0
-175 799 0
-175 798 0
-175 513 0
-175 733 0
-176 992 0
-176 555 0
-176 856 0
-176 715 0
-176 724 0
-176 721 0
-176 663 0
-176 692 0
-176 813 0
-176 788 0
-176 544 0
-176 762 0
-176 588 0
-176 502 0
-176 988 0
-176 554 0
-176 730 0
-176 825 0
-176 872 0
-176 933 0
-177 840 0
-177 806 0
-177 831 0
-177 826 0
-177 745 0
-177 731 0
-177 722 0
-177 718 0
-177 695 0
-177 691 0
-177 739 0
-177 744 0
-177 789 0
-177 799 0
-177 600 0
-177 909 0
-177 549 0
-177 714 0
-177 830 0
-178 797 0
-178 992 0
-178 996 0
-178 564 0
-178 804 0
-178 822 0
-178 740 0
-178 719 0
-178 790 0
-178 598 0
-178 832 0
-178 855 0
-178 669 0
-178 818 0
-178 948 0
-179 505 0
-179 757 0
-179 834 0
-179 865 0
-179 742 0
-179 670 0
-179 750 0
-179 829 0
-179 849 0
-179 924 0
-179 605 0
-179 583 0
-179 792 0
-179 754 0
-180 859 0
-180 921 0
-180 806 0
-180 793 0
-180 621 0
-180 711 0
-180 649 0
-180 783 0
-180 655 0
-180 667 0
-180 830 0
-180 665 0
-180 724 0
-180 694 0
-180 521 0
-180 683 0
-180 738 0
-181 752 0
-181 744 0
-181 763 0
-181 739 0
-181 727 0
-181 714 0
-181 687 0
-181 575 0
-181 668 0
-181 691 0
-181 950 0
-181 767 0
-181 732 0
-181 611 0
-181 502 0
-181 699 0
-182 877 0
-182 814 0
-182 720 0
-182 712 0
-182 829 0
-182 815 0
-182 882 0
-182 602 0
-182 589 0
-182 826 0
-182 785 0
-182 787 0
-182 675 0
-182 666 0
-182 684 0
-182 819 0
-182 833 0
-182 793 0
-182 746 0
-183 629 0
-183 879 0
-183 810 0
-183 798 0
-183 747 0
-183 866 0
-183 713 0
-183 694 0
-183 676 0
-183 854 0
-183 945 0
-183 921 0
-183 816 0
-184 990 0
-184 812 0
-184 809 0
-184 769 0
-184 679 0
-184 666 0
-184 829 0
-184 779 0
-184 737 0
-184 848 0
-184 814 0
-184 733 0
-184 805 0
-184 713 0
-184 626 0
-185 957 0
-185 916 0
-185 797 0
-185 712 0
-185 865 0
-185 572 0
-185 679 0
-185 682 0
-185 819 0
-185 697 0
-185 684 0
-185 608 0
-185 692 0
-185 716 0
-185 887 0
-185 662 0
-185 633 0
-185 556 0
-185 653 0
-186 924 0
-186 978 0
-186 810 0
-186 996 0
-186 739 0
-186 752 0
-186 640 0
-186 676 0
-186 694 0
-186 672 0
-186 671 0
-186 713 0
-186 616 0
-186 513 0
-186 665 0
-186 783 0
-186 748 0
-187 863 0
-187 614 0
-187 610 0
-187 917 0
-187 545 0
-187 718 0
-187 613 0
-187 860 0
-187 900 0
-187 702 0
-187 664 0
-187 799 0
-187 524 0
-187 823 0
-187 690 0
-187 541 0
-187 911 0
-188 992 0
-188 991 0
-188 795 0
-188 719 0
-188 894 0
-188 716 0
-188 706 0
-188 654 0
-188 832 0
-188 848 0
-188 890 0
-188 898 0
-188 821 0
-188 598 0
-189 506 0
-189 792 0
-189 819 0
-189 829 0
-189 685 0
-189 682 0
-189 711 0
-189 884 0
-189 845 0
-189 723 0
-189 947 0
-189 597 0
-189 863 0
-189 525 0
-189 712 0
-189 670 0
-189 514 0
-190 722 0
-190 798 0
-190 760 0
-190 734 0
-190 562 0
-190 636 0
-190 686 0
-190 830 0
-190 598 0
-190 810 0
-190 762 0
-190 891 0
-190 698 0
-190 978 0
-190 813 0
-191 766 0
-191 618 0
-191 746 0
-191 995 0
-191 702 0
-191 687 0
-191 653 0
-191 749 0
-191 855 0
-191 785 0
-191 515 0
-191 763 0
-191 731 0
-191 826 0
-191 714 0
-191 789 0
-191 784 0
-191 981 0
-192 776 0
-192 677 0
-192 520 0
-192 878 0
-192 795 0
-192 818 0
-192 832 0
-192 665 0
-192 503 0
-192 961 0
-192 786 0
-192 521 0
-192 678 0
-192 790 0
-192 855 0
-192 827 0
-192 728 0
-193 982 0
-193 837 0
-193 814 0
-193 797 0
-193 682 0
-193 524 0
-193 720 0
-193 828 0
-193 815 0
-193 689 0
-193 832 0
-193 637 0
-194 974 0
-194 872 0
-194 597 0
-194 653 0
-194 900 0
-194 767 0
-194 713 0
-194 820 0
-194 798 0
-194 833 0
-194 663 0
-194 698 0
-194 642 0
-194 530 0
-194 704 0
-195 799 0
-195 705 0
-195 735 0
-195 731 0
-195 789 0
-195 668 0
-195 517 0
-195 821 0
-195 709 0
-195 683 0
-195 826 0
-195 784 0
-195 702 0
-195 661 0
-196 711 0
-196 604 0
-196 547 0
-196 827 0
-196 889 0
-196 585 0
-196 657 0
-196 678 0
-196 591 0
-196 740 0
-196 795 0
-196 533 0
-196 660 0
-196 703 0
-196 808 0
-196 674 0
-196 807 0
-196 692 0
-197 877 0
-197 742 0
-197 679 0
-197 792 0
-197 998 0
-197 681 0
-197 809 0
-197 797 0
-197 746 0
-197 733 0
-197 682 0
-197 636 0
-197 707 0
-197 815 0
-197 997 0
-197 723 0
-197 738 0
-197 515 0
-197 684 0
-198 898 0
-198 895 0
-198 548 0
-198 654 0
-198 701 0
-198 762 0
-198 743 0
-198 738 0
-198 529 0
-198 724 0
-198 671 0
-198 822 0
-198 663 0
-198 640 0
-198 820 0
-198 683 0
-198 510 0
-198 503 0
-198 708 0
-199 831 0
-199 661 0
-199 771 0
-199 987 0
-199 748 0
-199 722 0
-199 638 0
-199 559 0
-199 731 0
-199 691 0
-199 822 0
-199 798 0
-199 646 0
-199 817 0
-200 810 0
-200 563 0
-200 692 0
-200 785 0
-200 740 0
-200 665 0
-200 662 0
-200 790 0
-200 673 0
-200 670 0
-200 753 0
-200 689 0
-200 502 0
-200 804 0
-200 832 0
-201 691 0
-201 520 0
-201 603 0
-201 992 0
-201 542 0
-201 719 0
-201 630 0
-201 688 0
-201 521 0
-201 692 0
-201 757 0
-201 607 0
-201 844 0
-201 514 0
-201 660 0
-202 718 0
-202 722 0
-202 672 0
-202 661 0
-202 817 0
-202 904 0
-202 635 0
-202 595 0
-202 709 0
-202 727 0
-202 610 0
-203 641 0
-203 811 0
-203 896 0
-203 793 0
-203 730 0
-203 728 0
-203 785 0
-203 706 0
-203 673 0
-203 591 0
-203 593 0
-203 561 0
-203 665 0
-203 924 0
-203 962 0
-203 611 0
-203 554 0
-203 971 0
-203 736 0
-204 823 0
-204 813 0
-204 734 0
-204 663 0
-204 726 0
-204 566 0
-204 686 0
-204 690 0
-204 601 0
-204 620 0
-204 646 0
-204 708 0
-204 736 0
-204 838 0
-204 636 0
-204 730 0
-205 971 0
-205 857 0
-205 897 0
-205 714 0
-205 709 0
-205 699 0
-205 592 0
-205 614 0
-205 575 0
-205 952 0
-205 668 0
-205 773 0
-205 518 0
-205 664 0
-205 702 0
-205 691 0
-205 617 0
-205 739 0
-205 715 0
-205 638 0
-206 766 0
-206 684 0
-206 675 0
-206 597 0
-206 888 0
-206 714 0
-206 629 0
-206 680 0
-206 545 0
-206 710 0
-206 672 0
-206 665 0
-206 692 0
-206 603 0
-206 836 0
-206 896 0
-206 833 0
-206 581 0
-206 642 0
-206 961 0
-206 639 0
-206 607 0
-207 502 0
-207 986 0
-207 600 0
-207 953 0
-207 627 0
-207 699 0
-207 555 0
-207 571 0
-207 847 0
-207 599 0
-207 644 0
-207 711 0
-207 720 0
-207 710 0
-208 854 0
-208 902 0
-208 657 0
-208 598 0
-208 671 0
-208 646 0
-208 594 0
-208 628 0
-208 721 0
-208 700 0
-208 567 0
-209 714 0
-209 722 0
-209 641 0
-209 617 0
-209 602 0
-209 739 0
-209 661 0
-209 674 0
-209 672 0
-209 671 0
-209 867 0
-209 662 0
-209 643 0
-209 556 0
-209 611 0
-209 607 0
-209 575 0
-210 754 0
-210 596 0
-210 841 0
-210 792 0
-210 847 0
-210 645 0
-210 653 0
-210 634 0
-210 703 0
-210 823 0
-210 673 0
-210 642 0
-210 903 0
-210 622 0
-210 808 0
-210 888 0
-210 803 0
-210 701 0
-210 955 0
-211 959 0
-211 693 0
-211 612 0
-211 716 0
-211 778 0
-211 684 0
-211 729 0
-211 558 0
-211 824 0
-211 781 0
-211 927 0
-211 685 0
-211 931 0
-211 732 0
-211 701 0
-212 894 0
-212 707 0
-212 693 0
-212 627 0
-212 623 0
-212 608 0
-212 787 0
-212 720 0
-212 515 0
-212 901 0
-212 646 0
-212 653 0
-212 755 0
-212 663 0
-212 935 0
-212 648 0
-213 917 0
-213 972 0
-213 809 0
-213 886 0
-213 861 0
-213 581 0
-213 823 0
-213 698 0
-213 637 0
-213 554 0
-213 613 0
-213 721 0
-213 704 0
-213 690 0
-214 670 0
-214 735 0
-214 668 0
-214 552 0
-214 595 0
-214 968 0
-214 922 0
-214 606 0
-214 784 0
-214 609 0
-214 806 0
-214 868 0
-214 739 0
-214 789 0
-214 718 0
-214 731 0
-214 602 0
-215 623 0
-215 756 0
-215 696 0
-215 630 0
-215 874 0
-215 713 0
-215 562 0
-215 785 0
-215 732 0
-215 678 0
-215 700 0
-215 596 0
-215 536 0
-215 603 0
-215 692 0
-216 833 0
-216 894 0
-216 733 0
-216 679 0
-216 682 0
-216 604 0
-216 744 0
-216 589 0
-216 707 0
-216 599 0
-216 670 0
-216 779 0
-216 569 0
-216 571 0
-216 626 0
-216 717 0
-216 623 0
-216 645 0
-216 651 0
-216 610 0
-217 839 0
-217 834 0
-217 871 0
-217 750 0
-217 722 0
-217 616 0
-217 698 0
-217 694 0
-217 690 0
-217 609 0
-217 625 0
-217 822 0
-217 680 0
-217 662 0
-217 721 0
-217 598 0
-217 667 0
-218 691 0
-218 602 0
-218 622 0
-218 587 0
-218 731 0
-218 780 0
-218 672 0
-218 640 0
-218 784 0
-218 681 0
-218 673 0
-218 588 0
-218 523 0
-219 873 0
-219 513 0
-219 736 0
-219 665 0
-219 696 0
-219 706 0
-219 531 0
-219 603 0
-219 516 0
-219 703 0
-219 807 0
-219 596 0
-219 594 0
-220 965 0
-220 754 0
-220 623 0
-220 612 0
-220 604 0
-220 600 0
-220 697 0
-220 659 0
-220 571 0
-220 870 0
-220 679 0
-220 608 0
-220 732 0
-220 613 0
-220 798 0
-220 658 0
-220 627 0
-220 519 0
-221 876 0
-221 854 0
-221 977 0
-221 666 0
-221 727 0
-221 589 0
-221 838 0
-221 583 0
-221 763 0
-221 724 0
-221 704 0
-221 783 0
-221 690 0
-221 853 0
-221 738 0
-222 846 0
-222 875 0
-222 727 0
-222 661 0
-222 629 0
-222 985 0
-222 705 0
-222 890 0
-222 794 0
-222 900 0
-222 718 0
-222 614 0
-222 532 0
-222 653 0
-222 736 0
-222 602 0
-222 586 0
-222 596 0
-222 562 0
-222 784 0
-222 755 0
-223 666 0
-223 685 0
-223 695 0
-223 819 0
-223 707 0
-223 759 0
-223 672 0
-223 774 0
-223 708 0
-223 590 0
-223 728 0
-223 675 0
-223 656 0
-223 600 0
-223 577 0
-224 823 0
-224 802 0
-224 860 0
-224 693 0
-224 979 0
-224 866 0
-224 798 0
-224 633 0
-224 734 0
-224 788 0
-224 704 0
-224 588 0
-224 663 0
-224 694 0
-224 671 0
-224 601 0
-224 717 0
-224 598 0
-224 820 0
-224 574 0
-225 505 0
-225 984 0
-225 859 0
-225 802 0
-225 723 0
-225 600 0
-225 623 0
-225 608 0
-225 817 0
-225 612 0
-225 578 0
-225 808 0
-225 606 0
-225 734 0
-225 627 0
-225 639 0
-225 586 0
-225 685 0
-225 716 0
-225 733 0
-225 555 0
-226 965 0
-226 805 0
-226 671 0
-226 713 0
-226 717 0
-226 676 0
-226 721 0
-226 637 0
-226 646 0
-226 694 0
-226 686 0
-226 624 0
-226 724 0
-226 663 0
-226 602 0
-226 536 0
-227 600 0
-227 580 0
-227 617 0
-227 621 0
-227 606 0
-227 731 0
-227 687 0
-227 751 0
-227 671 0
-227 635 0
-227 698 0
-227 695 0
-227 817 0
-227 718 0
-227 913 0
-227 672 0
-227 538 0
-227 829 0
-227 783 0
-228 806 0
-228 635 0
-228 994 0
-228 830 0
-228 816 0
-228 646 0
-228 847 0
-228 630 0
-228 622 0
-228 669 0
-228 501 0
-228 982 0
-228 701 0
-228 678 0
-228 783 0
-228 940 0
-228 715 0
-229 723 0
-229 685 0
-229 990 0
-229 627 0
-229 615 0
-229 597 0
-229 604 0
-229 707 0
-229 619 0
-229 589 0
-229 726 0
-229 675 0
-229 599 0
-229 988 0
-229 608 0
-229 686 0
-229 874 0
-229 878 0
-229 804 0
-229 613 0
-230 731 0
-230 727 0
-230 882 0
-230 527 0
-230 677 0
-230 613 0
-230 636 0
-230 724 0
-230 717 0
-230 595 0
-230 525 0
-230 503 0
-230 734 0
-230 624 0
-230 726 0
-230 683 0
-230 601 0
-230 670 0
-230 986 0
-230 570 0
-231 748 0
-231 774 0
-231 625 0
-231 833 0
-231 722 0
-232 631 0
-232 569 0
-232 835 0
-232 810 0
-232 710 0
-232 885 0
-232 719 0
-232 701 0
-232 669 0
-232 654 0
-232 911 0
-232 535 0
-232 697 0
-232 674 0
-232 796 0
-232 607 0
-233 737 0
-233 711 0
-233 707 0
-233 599 0
-233 967 0
-233 723 0
-233 693 0
-233 930 0
-233 583 0
-233 897 0
-233 611 0
-233 689 0
-233 604 0
-233 666 0
-234 812 0
-234 748 0
-234 777 0
-234 708 0
-234 783 0
-234 902 0
-234 717 0
-234 598 0
-234 605 0
-234 700 0
-234 680 0
-234 671 0
-234 577 0
-235 978 0
-235 629 0
-235 681 0
-235 668 0
-235 677 0
-235 635 0
-235 739 0
-235 513 0
-235 664 0
-235 634 0
-235 715 0
-235 817 0
-235 868 0
-235 592 0
-235 606 0
-235 702 0
-235 637 0
-235 928 0
-236 711 0
-236 771 0
-236 706 0
-236 715 0
-236 630 0
-236 700 0
-236 945 0
-236 532 0
-236 795 0
-236 678 0
-236 966 0
-237 990 0
-237 968 0
-237 898 0
-237 711 0
-237 600 0
-237 615 0
-237 722 0
-237 581 0
-237 520 0
-237 901 0
-237 604 0
-237 544 0
-237 678 0
-237 969 0
-237 608 0
-237 787 0
-237 624 0
-237 648 0
-237 651 0
-237 691 0
-237 567 0
-238 895 0
-238 712 0
-238 668 0
-238 511 0
-238 788 0
-238 726 0
-238 704 0
-238 671 0
-238 690 0
-238 686 0
-238 609 0
-238 713 0
-238 914 0
-238 683 0
-238 616 0
-239 758 0
-239 614 0
-239 518 0
-239 511 0
-239 625 0
-239 855 0
-239 505 0
-239 722 0
-239 702 0
-239 576 0
-239 570 0
-239 610 0
-239 519 0
-239 708 0
-240 549 0
-240 790 0
-240 607 0
-240 719 0
-240 703 0
-240 688 0
-240 639 0
-240 622 0
-240 618 0
-240 807 0
-240 674 0
-240 673 0
-240 596 0
-240 584 0
-240 846 0
-240 630 0
-241 998 0
-241 764 0
-241 827 0
-241 989 0
-241 523 0
-241 542 0
-241 509 0
-241 930 0
-241 801 0
-241 759 0
-241 786 0
-241 815 0
-241 583 0
-241 933 0
-241 712 0
-241 749 0
-241 832 0
-241 993 0
-241 996 0
-242 824 0
-242 682 0
-242 776 0
-242 653 0
-242 901 0
-242 966 0
-242 858 0
-242 844 0
-242 886 0
-242 945 0
-242 819 0
-242 812 0
-242 757 0
-242 684 0
-242 984 0
-243 741 0
-243 903 0
-243 883 0
-243 878 0
-243 874 0
-243 943 0
-243 798 0
-243 770 0
-243 694 0
-243 907 0
-243 760 0
-243 668 0
-243 773 0
-244 875 0
-244 799 0
-244 789 0
-244 826 0
-244 756 0
-244 656 0
-244 781 0
-244 965 0
-244 628 0
-244 894 0
-244 841 0
-244 897 0
-244 988 0
-245 556 0
-245 946 0
-245 800 0
-245 801 0
-245 886 0
-245 761 0
-245 995 0
-245 837 0
-245 822 0
-245 795 0
-245 818 0
-245 603 0
-245 857 0
-246 949 0
-246 765 0
-246 891 0
-246 869 0
-246 899 0
-246 558 0
-246 603 0
-246 608 0
-246 675 0
-246 679 0
-246 815 0
-246 742 0
-246 882 0
-246 655 0
-246 930 0
-246 613 0
-246 812 0
-246 609 0
-246 694 0
-247 785 0
-247 937 0
-247 883 0
-247 727 0
-247 767 0
-247 676 0
-247 825 0
-247 698 0
-247 773 0
-247 658 0
-248 940 0
-248 670 0
-248 888 0
-248 893 0
-248 879 0
-248 831 0
-248 760 0
-248 752 0
-248 763 0
-248 548 0
-248 728 0
-248 811 0
-248 683 0
-249 832 0
-249 726 0
-249 585 0
-249 997 0
-249 986 0
-249 759 0
-249 682 0
-249 805 0
-249 745 0
-249 782 0
-249 802 0
-249 801 0
-249 515 0
-250 787 0
-250 772 0
-250 742 0
-250 873 0
-250 794 0
-250 735 0
-250 903 0
-250 853 0
-250 517 0
-250 551 0
-250 560 0
-250 930 0
-250 841 0
-250 526 0
-250 525 0
-251 848 0
-251 1000 0
-251 672 0
-251 892 0
-251 798 0
-251 766 0
-251 884 0
-251 574 0
-251 755 0
-251 883 0
-251 816 0
-251 618 0
-251 658 0
-251 970 0
-251 617 0
-251 534 0
-252 882 0
-252 867 0
-252 897 0
-252 799 0
-252 806 0
-252 781 0
-252 776 0
-252 760 0
-252 836 0
-252 677 0
-252 617 0
-252 879 0
-252 744 0
-252 620 0
-252 596 0
-252 578 0
-252 743 0
-253 759 0
-253 797 0
-253 628 0
-253 591 0
-253 505 0
-253 796 0
-253 765 0
-253 801 0
-253 775 0
-253 995 0
-253 610 0
-253 803 0
-253 993 0
-254 801 0
-254 916 0
-254 869 0
-254 873 0
-254 837 0
-254 787 0
-254 617 0
-254 733 0
-254 684 0
-254 653 0
-254 921 0
-254 673 0
-254 541 0
-254 800 0
-255 872 0
-255 836 0
-255 742 0
-255 666 0
-255 878 0
-255 620 0
-255 554 0
-255 528 0
-255 616 0
-255 866 0
-255 520 0
-255 820 0
-255 830 0
-255 883 0
-255 526 0
-255 591 0
-255 747 0
-256 888 0
-256 893 0
-256 871 0
-256 901 0
-256 771 0
-256 681 0
-256 616 0
-256 957 0
-256 781 0
-256 748 0
-256 534 0
-256 510 0
-257 800 0
-257 996 0
-257 917 0
-257 805 0
-257 899 0
-257 994 0
-257 764 0
-257 832 0
-257 644 0
-257 745 0
-257 999 0
-257 993 0
-257 563 0
-257 995 0
-257 782 0
-258 759 0
-258 649 0
-258 790 0
-258 999 0
-258 757 0
-258 808 0
-258 764 0
-258 949 0
-258 803 0
-258 922 0
-258 796 0
-258 992 0
-258 782 0
-258 991 0
-258 745 0
-258 802 0
-258 505 0
-258 765 0
-259 701 0
-259 988 0
-259 764 0
-259 529 0
-259 828 0
-259 808 0
-259 803 0
-259 610 0
-259 824 0
-259 641 0
-259 757 0
-259 952 0
-259 558 0
-259 597 0
-259 796 0
-259 511 0
-259 767 0
-260 884 0
-260 756 0
-260 831 0
-260 882 0
-260 739 0
-260 811 0
-260 640 0
-260 875 0
-260 695 0
-261 953 0
-261 770 0
-261 680 0
-261 556 0
-261 536 0
-261 803 0
-261 823 0
-261 658 0
-261 764 0
-261 593 0
-261 994 0
-261 997 0
-261 758 0
-261 1000 0
-261 993 0
-261 844 0
-261 996 0
-262 854 0
-262 612 0
-262 606 0
-262 566 0
-262 826 0
-262 907 0
-262 874 0
-262 878 0
-262 788 0
-262 832 0
-262 716 0
-262 770 0
-262 751 0
-262 738 0
-262 816 0
-262 683 0
-262 533 0
-262 932 0
-262 579 0
-262 586 0
-262 509 0
-262 743 0
-263 737 0
-263 871 0
-263 794 0
-263 826 0
-263 718 0
-263 884 0
-263 774 0
-263 595 0
-263 867 0
-263 573 0
-263 784 0
-263 961 0
-263 789 0
-263 640 0
-263 660 0
-263 910 0
-263 752 0
-263 568 0
-264 844 0
-264 996 0
-264 522 0
-264 955 0
-264 805 0
-264 796 0
-264 791 0
-264 976 0
-264 866 0
-264 745 0
-264 840 0
-264 754 0
-264 828 0
-264 753 0
-264 530 0
-265 953 0
-265 838 0
-265 764 0
-265 537 0
-265 995 0
-265 560 0
-265 796 0
-265 749 0
-265 1000 0
-265 972 0
-265 792 0
-265 754 0
-265 853 0
-265 757 0
-265 741 0
-265 628 0
-265 996 0
-265 612 0
-265 864 0
-266 987 0
-266 946 0
-266 957 0
-266 985 0
-266 869 0
-266 940 0
-266 768 0
-266 949 0
-266 772 0
-266 912 0
-266 877 0
-266 951 0
-266 903 0
-266 576 0
-266 952 0
-267 959 0
-267 880 0
-267 942 0
-267 750 0
-267 803 0
-267 825 0
-267 904 0
-267 838 0
-267 743 0
-267 810 0
-267 994 0
-267 893 0
-267 755 0
-267 911 0
-267 830 0
-267 735 0
-267 820 0
-267 944 0
-268 895 0
-268 840 0
-268 769 0
-268 754 0
-268 867 0
-268 812 0
-268 746 0
-268 896 0
-268 878 0
-268 517 0
-268 779 0
-268 873 0
-268 827 0
-269 886 0
-269 869 0
-269 895 0
-269 787 0
-269 824 0
-269 819 0
-269 766 0
-269 779 0
-269 879 0
-269 524 0
-269 903 0
-269 577 0
-269 563 0
-269 993 0
-269 579 0
-269 584 0
-269 960 0
-270 802 0
-270 879 0
-270 994 0
-270 878 0
-270 793 0
-270 747 0
-270 832 0
-270 676 0
-270 777 0
-270 639 0
-270 591 0
-270 809 0
-270 820 0
-270 508 0
-270 582 0
-270 928 0
-270 917 0
-271 871 0
-271 897 0
-271 789 0
-271 811 0
-271 817 0
-271 781 0
-271 763 0
-271 760 0
-271 602 0
-271 621 0
-271 826 0
-271 985 0
-271 783 0
-271 744 0
-271 869 0
-271 748 0
-271 507 0
-271 821 0
-271 510 0
-271 543 0
-271 885 0
-272 979 0
-272 745 0
-272 873 0
-272 889 0
-272 903 0
-272 849 0
-272 886 0
-272 779 0
-272 797 0
-272 915 0
-272 814 0
-272 523 0
-272 818 0
-272 685 0
-273 772 0
-273 824 0
-273 878 0
-273 959 0
-273 883 0
-273 870 0
-273 798 0
-273 810 0
-273 825 0
-273 767 0
-273 777 0
-273 800 0
-273 568 0
-273 816 0
-273 989 0
-273 505 0
-273 588 0
-273 502 0
-274 831 0
-274 817 0
-274 781 0
-274 760 0
-274 756 0
-274 748 0
-274 901 0
-274 704 0
-274 888 0
-274 902 0
-274 583 0
-274 648 0
-274 744 0
-274 510 0
-275 962 0
-275 543 0
-275 561 0
-275 874 0
-275 839 0
-275 764 0
-275 999 0
-275 745 0
-275 757 0
-275 995 0
-275 729 0
-275 697 0
-275 542 0
-275 761 0
-275 681 0
-275 783 0
-275 721 0
-275 650 0
-275 782 0
-275 655 0
-276 902 0
-276 955 0
-276 895 0
-276 849 0
-276 824 0
-276 754 0
-276 884 0
-276 898 0
-276 687 0
-276 515 0
-276 797 0
-276 829 0
-276 766 0
-276 716 0
-276 787 0
-276 886 0
-276 532 0
-276 818 0
-276 852 0
-276 634 0
-276 975 0
-277 837 0
-277 679 0
-277 825 0
-277 867 0
-277 847 0
-277 677 0
-277 883 0
-277 751 0
-278 910 0
-278 786 0
-278 882 0
-278 875 0
-278 901 0
-278 763 0
-278 748 0
-278 592 0
-278 587 0
-278 576 0
-278 847 0
-278 760 0
-278 774 0
-278 614 0
-278 685 0
-278 704 0
-278 932 0
-278 893 0
-278 530 0
-278 526 0
-278 509 0
-278 939 0
-279 833 0
-279 808 0
-279 761 0
-279 873 0
-279 886 0
-279 865 0
-279 899 0
-279 829 0
-279 746 0
-279 875 0
-279 1000 0
-279 605 0
-279 812 0
-279 750 0
-279 891 0
-280 890 0
-280 902 0
-280 936 0
-280 597 0
-280 878 0
-280 811 0
-280 687 0
-280 996 0
-280 942 0
-280 546 0
-280 810 0
-280 747 0
-280 770 0
-280 536 0
-280 713 0
-280 761 0
-280 807 0
-280 820 0
-280 798 0
-280 887 0
-280 767 0
-280 804 0
-280 645 0
-280 866 0
-280 755 0
-281 809 0
-281 684 0
-281 884 0
-281 882 0
-281 901 0
-281 723 0
-281 831 0
-281 811 0
-281 778 0
-281 578 0
-281 577 0
-281 794 0
-281 715 0
-281 871 0
-281 689 0
-281 508 0
-281 821 0
-281 513 0
-281 816 0
-281 763 0
-281 759 0
-281 739 0
-282 557 0
-282 741 0
-282 577 0
-282 961 0
-282 808 0
-282 802 0
-282 761 0
-282 923 0
-282 769 0
-282 908 0
-282 720 0
-282 823 0
-282 973 0
-283 753 0
-283 990 0
-283 672 0
-283 825 0
-283 823 0
-283 690 0
-283 671 0
-283 649 0
-283 648 0
-283 755 0
-283 548 0
-284 675 0
-284 771 0
-284 760 0
-284 521 0
-284 661 0
-284 963 0
-284 817 0
-284 683 0
-284 561 0
-284 888 0
-284 929 0
-284 664 0
-284 852 0
-284 896 0
-284 811 0
-284 806 0
-284 799 0
-284 633 0
-284 748 0
-284 531 0
-284 737 0
-284 756 0
-285 727 0
-285 661 0
-285 832 0
-285 807 0
-285 804 0
-285 736 0
-285 999 0
-285 673 0
-285 662 0
-285 851 0
-285 991 0
-285 782 0
-285 577 0
-285 740 0
-285 891 0
-286 878 0
-286 978 0
-286 996 0
-286 512 0
-286 955 0
-286 839 0
-286 750 0
-286 732 0
-286 846 0
-286 755 0
-286 700 0
-286 892 0
-286 761 0
-286 617 0
-286 947 0
-287 915 0
-287 952 0
-287 802 0
-287 685 0
-287 867 0
-287 675 0
-287 693 0
-287 697 0
-287 827 0
-287 676 0
-287 772 0
-288 745 0
-288 859 0
-288 877 0
-288 679 0
-288 810 0
-288 538 0
-288 820 0
-288 813 0
-288 581 0
-288 770 0
-288 743 0
-288 777 0
-288 962 0
-288 713 0
-288 773 0
-288 976 0
-288 636 0
-288 721 0
-288 684 0
-288 677 0
-288 783 0
-289 828 0
-289 794 0
-289 661 0
-289 699 0
-289 681 0
-289 799 0
-289 776 0
-289 891 0
-289 594 0
-289 774 0
-289 959 0
-289 739 0
-289 748 0
-289 983 0
-289 581 0
-290 996 0
-290 629 0
-290 892 0
-290 738 0
-290 686 0
-290 827 0
-290 800 0
-290 997 0
-290 832 0
-290 523 0
-290 885 0
-290 818 0
-290 665 0
-290 804 0
-290 972 0
-290 696 0
-290 554 0
-291 775 0
-291 631 0
-291 858 0
-291 839 0
-291 845 0
-291 901 0
-291 782 0
-291 761 0
-291 753 0
-291 758 0
-291 741 0
-291 825 0
-291 999 0
-291 810 0
-291 871 0
-291 688 0
-291 808 0
-291 848 0
-292 974 0
-292 927 0
-292 666 0
-292 670 0
-292 797 0
-292 712 0
-292 599 0
-292 520 0
-292 582 0
-292 720 0
-292 900 0
-292 941 0
-292 748 0
-292 808 0
-292 711 0
-292 693 0
-292 688 0
-292 754 0
-292 935 0
-292 653 0
-292 513 0
-292 911 0
-292 528 0
-293 773 0
-293 688 0
-293 751 0
-293 780 0
-293 713 0
-293 724 0
-293 717 0
-293 747 0
-293 762 0
-293 628 0
-293 615 0
-293 673 0
-293 777 0
-294 969 0
-294 895 0
-294 882 0
-294 718 0
-294 819 0
-294 695 0
-294 615 0
-294 532 0
-294 747 0
-294 594 0
-294 852 0
-294 728 0
-294 571 0
-294 771 0
-294 515 0
-294 602 0
-294 681 0
-294 939 0
-294 687 0
-294 826 0
-295 819 0
-295 682 0
-295 901 0
-295 635 0
-295 518 0
-295 663 0
-295 993 0
-295 994 0
-295 800 0
-295 702 0
-295 665 0
-295 778 0
-295 673 0
-295 715 0
-295 655 0
-295 708 0
-295 922 0
-295 966 0
-295 925 0
-295 505 0
-296 833 0
-296 825 0
-296 785 0
-296 738 0
-296 823 0
-296 786 0
-296 928 0
-296 620 0
-296 886 0
-296 713 0
-296 757 0
-296 846 0
-296 999 0
-296 689 0
-296 803 0
-297 965 0
-297 787 0
-297 754 0
-297 666 0
-297 684 0
-297 789 0
-297 799 0
-297 544 0
-297 853 0
-297 779 0
-297 750 0
-297 967 0
-297 769 0
-298 872 0
-298 684 0
-298 992 0
-298 770 0
-298 568 0
-298 588 0
-298 813 0
-298 698 0
-298 896 0
-298 820 0
-298 539 0
-299 901 0
-299 826 0
-299 763 0
-299 781 0
-299 778 0
-299 774 0
-299 866 0
-299 691 0
-299 817 0
-299 760 0
-299 919 0
-299 664 0
-299 665 0
-299 699 0
-299 661 0
-299 681 0
-299 872 0
-300 742 0
-300 997 0
-300 573 0
-300 653 0
-300 995 0
-300 628 0
-300 945 0
-300 832 0
-300 804 0
-300 662 0
-300 690 0
-300 714 0
-300 669 0
-300 688 0
-300 564 0
-300 818 0
-300 885 0
-301 791 0
-301 613 0
-301 757 0
-301 980 0
-301 963 0
-301 885 0
-301 803 0
-301 874 0
-301 845 0
-301 759 0
-301 761 0
-301 854 0
-301 585 0
-301 908 0
-301 783 0
-301 805 0
-301 702 0
-301 629 0
-301 839 0
-301 833 0
-302 692 0
-302 887 0
-302 848 0
-302 839 0
-302 823 0
-302 914 0
-302 808 0
-302 801 0
-302 791 0
-302 753 0
-302 796 0
-302 862 0
-302 691 0
-302 529 0
-302 902 0
-302 741 0
-302 846 0
-302 756 0
-302 818 0
-302 761 0
-303 864 0
-303 856 0
-303 822 0
-303 946 0
-303 791 0
-303 765 0
-303 814 0
-303 786 0
-303 772 0
-303 721 0
-303 848 0
-303 859 0
-303 857 0
-304 783 0
-304 624 0
-304 822 0
-304 788 0
-304 818 0
-304 732 0
-304 509 0
-304 669 0
-304 827 0
-304 696 0
-304 662 0
-304 926 0
-304 930 0
-305 548 0
-305 775 0
-305 761 0
-305 741 0
-305 673 0
-305 602 0
-305 904 0
-305 834 0
-305 908 0
-305 636 0
-305 791 0
-305 714 0
-306 944 0
-306 860 0
-306 729 0
-306 664 0
-306 635 0
-306 771 0
-306 760 0
-306 583 0
-306 722 0
-306 505 0
-306 691 0
-306 731 0
-307 771 0
-307 998 0
-307 992 0
-307 995 0
-307 787 0
-307 644 0
-307 900 0
-307 724 0
-307 649 0
-307 961 0
-307 925 0
-307 715 0
-307 736 0
-307 732 0
-307 678 0
-307 700 0
-307 504 0
-307 899 0
-307 611 0
-308 823 0
-308 809 0
-308 795 0
-308 599 0
-308 983 0
-308 561 0
-308 882 0
-308 859 0
-308 749 0
-308 563 0
-308 801 0
-308 796 0
-308 524 0
-308 846 0
-309 970 0
-309 768 0
-309 746 0
-309 693 0
-309 779 0
-309 873 0
-309 575 0
-309 672 0
-309 860 0
-309 837 0
-309 807 0
-309 792 0
-309 511 0
-309 772 0
-309 797 0
-310 813 0
-310 702 0
-310 695 0
-310 919 0
-310 926 0
-310 671 0
-310 680 0
-310 808 0
-310 581 0
-310 870 0
-310 793 0
-311 826 0
-311 821 0
-311 756 0
-311 672 0
-311 794 0
-311 746 0
-311 799 0
-311 875 0
-311 669 0
-311 806 0
-311 698 0
-311 910 0
-311 778 0
-311 774 0
-311 655 0
-311 553 0
-312 791 0
-312 766 0
-312 666 0
-312 685 0
-312 650 0
-312 888 0
-312 754 0
-312 639 0
-312 783 0
-312 515 0
-312 545 0
-312 674 0
-312 916 0
-313 919 0
-313 865 0
-313 766 0
-313 887 0
-313 680 0
-313 793 0
-313 777 0
-313 773 0
-313 694 0
-313 762 0
-313 542 0
-313 743 0
-313 547 0
-313 658 0
-313 526 0
-313 756 0
-314 952 0
-314 898 0
-314 865 0
-314 797 0
-314 787 0
-314 742 0
-314 792 0
-314 679 0
-314 746 0
-314 750 0
-314 779 0
-314 714 0
-314 690 0
-314 906 0
-315 505 0
-315 823 0
-315 860 0
-315 809 0
-315 829 0
-315 769 0
-315 720 0
-315 1000 0
-315 687 0
-315 784 0
-315 744 0
-315 779 0
-315 846 0
-315 865 0
-315 943 0
-315 838 0
-315 684 0
-315 640 0
-315 907 0
-315 953 0
-315 825 0
-316 920 0
-316 787 0
-316 608 0
-316 776 0
-316 698 0
-316 813 0
-316 793 0
-316 943 0
-316 676 0
-316 680 0
-316 721 0
-316 690 0
-316 755 0
-316 537 0
-317 666 0
-317 786 0
-317 993 0
-317 778 0
-317 998 0
-317 744 0
-317 718 0
-317 753 0
-317 878 0
-317 691 0
-317 756 0
-317 683 0
-317 813 0
-317 789 0
-317 668 0
-318 991 0
-318 731 0
-318 1000 0
-318 810 0
-318 662 0
-318 827 0
-318 951 0
-318 582 0
-318 825 0
-318 674 0
-318 741 0
-318 753 0
-318 775 0
-318 707 0
-319 815 0
-319 757 0
-319 754 0
-319 772 0
-319 666 0
-319 746 0
-319 913 0
-319 717 0
-319 714 0
-319 607 0
-319 681 0
-319 901 0
-319 797 0
-319 693 0
-320 829 0
-320 762 0
-320 747 0
-320 728 0
-320 667 0
-320 825 0
-320 686 0
-320 773 0
-320 692 0
-320 506 0
-320 690 0
-321 775 0
-321 831 0
-321 826 0
-321 763 0
-321 774 0
-321 995 0
-321 996 0
-321 672 0
-321 587 0
-321 671 0
-321 681 0
-321 756 0
-321 965 0
-321 872 0
-321 661 0
-322 997 0
-322 998 0
-322 635 0
-322 669 0
-322 518 0
-322 785 0
-322 598 0
-322 749 0
-322 795 0
-322 959 0
-322 949 0
-322 696 0
-322 688 0
-322 800 0
-322 589 0
-322 673 0
-322 818 0
-322 641 0
-322 992 0
-322 902 0
-322 827 0
-322 662 0
-323 945 0
-323 626 0
-323 881 0
-323 862 0
-323 833 0
-323 803 0
-323 765 0
-323 842 0
-323 775 0
-323 957 0
-323 810 0
-323 854 0
-323 872 0
-323 510 0
-323 565 0
-323 764 0
-324 809 0
-324 829 0
-324 619 0
-324 685 0
-324 768 0
-324 684 0
-324 670 0
-324 766 0
-324 567 0
-324 569 0
-324 693 0
-324 616 0
-324 760 0
-324 712 0
-324 865 0
-324 702 0
-324 682 0
-324 556 0
-324 553 0
-325 873 0
-325 768 0
-325 656 0
-325 883 0
-325 743 0
-325 892 0
-325 680 0
-325 864 0
-325 502 0
-325 887 0
-325 816 0
-326 899 0
-326 884 0
-326 831 0
-326 817 0
-326 760 0
-326 748 0
-326 781 0
-326 699 0
-326 681 0
-326 789 0
-326 994 0
-326 635 0
-326 752 0
-326 664 0
-326 631 0
-326 855 0
-326 687 0
-326 800 0
-327 893 0
-327 999 0
-327 994 0
-327 1000 0
-327 576 0
-327 835 0
-327 810 0
-327 873 0
-327 647 0
-327 800 0
-327 550 0
-327 700 0
-327 669 0
-327 688 0
-327 743 0
-327 742 0
-327 900 0
-328 866 0
-328 680 0
-328 660 0
-328 728 0
-328 864 0
-328 868 0
-328 839 0
-328 836 0
-328 732 0
-328 765 0
-328 757 0
-328 761 0
-328 758 0
-328 542 0
-328 796 0
-328 810 0
-328 628 0
-328 712 0
-328 570 0
-329 912 0
-329 869 0
-329 812 0
-329 742 0
-329 772 0
-329 685 0
-329 797 0
-329 754 0
-329 766 0
-329 718 0
-329 540 0
-329 846 0
-329 941 0
-329 750 0
-329 615 0
-329 631 0
-329 715 0
-329 511 0
-330 920 0
-330 825 0
-330 788 0
-330 780 0
-330 751 0
-330 686 0
-330 717 0
-330 816 0
-330 762 0
-330 694 0
-330 908 0
-330 820 0
-330 773 0
-330 683 0
-330 501 0
-330 618 0
-330 805 0
-330 988 0
-331 882 0
-331 811 0
-331 752 0
-331 759 0
-331 681 0
-331 789 0
-331 719 0
-331 763 0
-331 979 0
-331 778 0
-331 939 0
-331 894 0
-331 922 0
-332 814 0
-332 766 0
-332 615 0
-332 999 0
-332 763 0
-332 996 0
-332 552 0
-332 905 0
-332 874 0
-332 870 0
-332 665 0
-332 623 0
-332 807 0
-332 696 0
-332 827 0
-332 822 0
-332 994 0
-332 998 0
-332 803 0
-332 747 0
-333 568 0
-333 572 0
-333 880 0
-333 881 0
-333 828 0
-333 802 0
-333 836 0
-333 969 0
-333 765 0
-333 846 0
-333 782 0
-333 937 0
-333 518 0
-333 725 0
-333 998 0
-333 808 0
-333 554 0
-334 970 0
-334 909 0
-334 936 0
-334 933 0
-334 895 0
-334 840 0
-334 774 0
-334 930 0
-334 768 0
-334 942 0
-334 900 0
-334 779 0
-334 824 0
-334 741 0
-334 577 0
-334 889 0
-334 570 0
-334 660 0
-335 855 0
-335 675 0
-335 691 0
-335 953 0
-335 735 0
-335 548 0
-335 874 0
-335 841 0
-335 574 0
-335 532 0
-335 671 0
-335 884 0
-335 928 0
-335 887 0
-336 696 0
-336 633 0
-336 652 0
-336 881 0
-336 848 0
-336 782 0
-336 876 0
-336 846 0
-336 796 0
-336 593 0
-336 765 0
-336 801 0
-336 647 0
-336 912 0
-336 729 0
-337 539 0
-337 508 0
-337 927 0
-337 955 0
-337 865 0
-337 855 0
-337 834 0
-337 858 0
-337 598 0
-337 895 0
-337 835 0
-337 849 0
-337 640 0
-338 926 0
-338 837 0
-338 826 0
-338 718 0
-338 904 0
-338 943 0
-338 868 0
-338 953 0
-338 883 0
-338 950 0
-338 844 0
-338 827 0
-338 521 0
-338 780 0
-338 919 0
-338 934 0
-339 906 0
-339 959 0
-339 890 0
-339 872 0
-339 563 0
-339 782 0
-339 557 0
-339 764 0
-339 611 0
-339 952 0
-339 846 0
-339 894 0
-339 738 0
-339 876 0
-340 933 0
-340 952 0
-340 917 0
-340 891 0
-340 857 0
-340 944 0
-340 991 0
-340 656 0
-340 731 0
-340 949 0
-340 685 0
-340 843 0
-340 766 0
-340 781 0
-340 719 0
-340 515 0
-341 975 0
-341 679 0
-341 615 0
-341 884 0
-341 640 0
-341 759 0
-341 945 0
-341 934 0
-341 928 0
-341 861 0
-341 948 0
-341 901 0
-341 853 0
-341 738 0
-341 830 0
-341 579 0
-342 950 0
-342 782 0
-342 694 0
-342 791 0
-342 989 0
-342 982 0
-342 868 0
-342 864 0
-342 859 0
-342 802 0
-342 651 0
-342 764 0
-342 623 0
-342 901 0
-342 786 0
-342 770 0
-343 805 0
-343 940 0
-343 877 0
-343 857 0
-343 776 0
-343 863 0
-343 944 0
-343 861 0
-343 562 0
-343 914 0
-343 987 0
-343 924 0
-343 768 0
-344 878 0
-344 887 0
-344 856 0
-344 793 0
-344 527 0
-344 945 0
-344 870 0
-344 841 0
-344 598 0
-344 529 0
-344 755 0
-345 796 0
-345 909 0
-345 777 0
-345 785 0
-345 628 0
-345 890 0
-345 898 0
-345 876 0
-345 854 0
-345 948 0
-345 828 0
-345 805 0
-345 782 0
-345 536 0
-345 848 0
-345 842 0
-345 903 0
-345 970 0
-346 866 0
-346 570 0
-346 908 0
-346 890 0
-346 881 0
-346 828 0
-346 992 0
-346 688 0
-346 872 0
-346 696 0
-346 743 0
-347 917 0
-347 711 0
-347 591 0
-347 941 0
-347 943 0
-347 938 0
-347 997 0
-347 982 0
-347 878 0
-347 780 0
-347 566 0
-347 734 0
-347 856 0
-347 800 0
-347 795 0
-347 841 0
-347 510 0
-348 559 0
-348 796 0
-348 585 0
-348 808 0
-348 890 0
-348 886 0
-348 876 0
-348 868 0
-348 864 0
-348 842 0
-348 846 0
-348 584 0
-348 859 0
-348 606 0
-348 905 0
-348 894 0
-349 930 0
-349 891 0
-349 889 0
-349 903 0
-349 840 0
-349 769 0
-349 779 0
-349 852 0
-349 834 0
-349 560 0
-349 734 0
-349 614 0
-349 843 0
-349 794 0
-349 853 0
-349 846 0
-349 631 0
-349 895 0
-349 940 0
-349 558 0
-350 705 0
-350 937 0
-350 878 0
-350 861 0
-350 773 0
-350 856 0
-350 770 0
-350 945 0
-350 844 0
-350 568 0
-350 636 0
-350 928 0
-350 847 0
-350 866 0
-350 510 0
-351 848 0
-351 859 0
-351 637 0
-351 784 0
-351 902 0
-351 894 0
-351 828 0
-351 803 0
-351 801 0
-351 796 0
-351 876 0
-351 846 0
-351 864 0
-351 584 0
-351 730 0
-351 719 0
-351 833 0
-351 770 0
-351 836 0
-352 859 0
-352 808 0
-352 927 0
-352 899 0
-352 865 0
-352 860 0
-352 652 0
-352 843 0
-352 942 0
-352 768 0
-352 806 0
-352 949 0
-352 783 0
-352 837 0
-352 747 0
-352 960 0
-352 721 0
-352 813 0
-352 936 0
-352 772 0
-352 677 0
-353 936 0
-353 943 0
-353 937 0
-353 892 0
-353 866 0
-353 856 0
-353 844 0
-353 773 0
-353 631 0
-353 835 0
-353 624 0
-353 690 0
-353 950 0
-353 777 0
-353 561 0
-353 728 0
-353 967 0
-354 839 0
-354 902 0
-354 890 0
-354 885 0
-354 881 0
-354 836 0
-354 803 0
-354 898 0
-354 846 0
-354 891 0
-354 760 0
-354 905 0
-355 940 0
-355 916 0
-355 889 0
-355 840 0
-355 834 0
-355 899 0
-355 705 0
-355 587 0
-355 584 0
-355 804 0
-355 843 0
-356 670 0
-356 806 0
-356 569 0
-356 529 0
-356 792 0
-356 980 0
-356 941 0
-356 934 0
-356 896 0
-356 931 0
-356 943 0
-356 924 0
-356 841 0
-356 540 0
-357 939 0
-357 916 0
-357 869 0
-357 889 0
-357 903 0
-357 829 0
-357 768 0
-357 855 0
-357 942 0
-357 796 0
-357 950 0
-357 836 0
-357 996 0
-357 927 0
-357 877 0
-357 703 0
-357 645 0
-357 534 0
-358 935 0
-358 844 0
-358 943 0
-358 522 0
-358 934 0
-358 931 0
-358 953 0
-358 838 0
-358 693 0
-358 911 0
-358 696 0
-358 835 0
-358 904 0
-359 528 0
-359 909 0
-359 902 0
-359 898 0
-359 890 0
-359 864 0
-359 846 0
-359 749 0
-359 835 0
-359 689 0
-359 839 0
-359 885 0
-359 774 0
-359 872 0
-359 823 0
-360 916 0
-360 889 0
-360 895 0
-360 843 0
-360 837 0
-360 834 0
-360 958 0
-360 917 0
-360 647 0
-360 816 0
-360 777 0
-360 672 0
-360 627 0
-361 946 0
-361 872 0
-361 976 0
-361 943 0
-361 928 0
-361 896 0
-361 945 0
-361 941 0
-361 844 0
-361 545 0
-361 892 0
-361 520 0
-362 907 0
-362 953 0
-362 631 0
-362 577 0
-362 905 0
-362 890 0
-362 985 0
-362 864 0
-362 851 0
-362 684 0
-362 808 0
-362 816 0
-362 902 0
-362 513 0
-363 920 0
-363 927 0
-363 955 0
-363 916 0
-363 877 0
-363 834 0
-363 787 0
-363 558 0
-363 860 0
-363 686 0
-363 966 0
-363 663 0
-363 559 0
-363 624 0
-364 909 0
-364 854 0
-364 845 0
-364 839 0
-364 774 0
-364 872 0
-364 895 0
-364 727 0
-364 653 0
-364 913 0
-365 916 0
-365 912 0
-365 899 0
-365 877 0
-365 869 0
-365 855 0
-365 843 0
-365 766 0
-365 819 0
-365 768 0
-365 879 0
-365 759 0
-365 701 0
-365 849 0
-365 934 0
-366 842 0
-366 969 0
-366 797 0
-366 604 0
-366 992 0
-366 904 0
-366 830 0
-366 751 0
-366 747 0
-366 777 0
-366 773 0
-366 528 0
-366 601 0
-366 856 0
-366 770 0
-366 640 0
-366 525 0
-366 990 0
-367 893 0
-367 811 0
-367 748 0
-367 675 0
-367 756 0
-367 600 0
-367 567 0
-367 509 0
-367 505 0
-367 774 0
-367 892 0
-367 502 0
-368 546 0
-368 605 0
-368 881 0
-368 519 0
-368 814 0
-368 989 0
-368 894 0
-368 880 0
-368 988 0
-368 869 0
-368 909 0
-368 833 0
-368 854 0
-368 898 0
-368 836 0
-368 739 0
-369 889 0
-369 895 0
-369 849 0
-369 843 0
-369 834 0
-369 742 0
-369 779 0
-369 707 0
-369 697 0
-369 552 0
-369 782 0
-369 666 0
-369 814 0
-369 773 0
-369 629 0
-369 550 0
-369 559 0
-369 791 0
-370 925 0
-370 843 0
-370 684 0
-370 945 0
-370 896 0
-370 887 0
-370 892 0
-370 878 0
-370 850 0
-370 747 0
-370 780 0
-370 708 0
-370 853 0
-370 835 0
-370 734 0
-370 525 0
-370 751 0
-370 707 0
-371 976 0
-371 711 0
-371 893 0
-371 875 0
-371 806 0
-371 811 0
-371 610 0
-371 892 0
-371 663 0
-371 502 0
-371 520 0
-371 748 0
-371 509 0
-371 503 0
-372 559 0
-372 973 0
-372 851 0
-372 894 0
-372 513 0
-372 876 0
-372 845 0
-372 833 0
-372 828 0
-372 780 0
-372 832 0
-372 843 0
-372 862 0
-372 625 0
-372 854 0
-372 939 0
-372 681 0
-373 889 0
-373 877 0
-373 840 0
-373 863 0
-373 860 0
-373 600 0
-373 985 0
-373 1000 0
-373 812 0
-373 776 0
-373 814 0
-373 855 0
-373 671 0
-373 857 0
-373 624 0
-373 731 0
-374 742 0
-374 612 0
-374 606 0
-374 741 0
-374 883 0
-374 878 0
-374 870 0
-374 582 0
-374 844 0
-374 838 0
-374 540 0
-374 667 0
-374 853 0
-374 967 0
-374 731 0
-374 884 0
-374 677 0
-374 804 0
-374 755 0
-374 904 0
-374 865 0
-375 949 0
-375 733 0
-375 897 0
-375 888 0
-375 879 0
-375 756 0
-375 774 0
-375 855 0
-375 931 0
-375 631 0
-375 533 0
-375 510 0
-376 862 0
-376 683 0
-376 584 0
-376 913 0
-376 909 0
-376 894 0
-376 881 0
-376 864 0
-376 859 0
-376 854 0
-376 975 0
-376 828 0
-376 868 0
-376 600 0
-376 997 0
-376 746 0
-376 984 0
-377 506 0
-377 967 0
-377 840 0
-377 860 0
-377 750 0
-377 814 0
-377 772 0
-377 875 0
-377 891 0
-377 698 0
-377 858 0
-377 883 0
-377 742 0
-377 928 0
-377 562 0
-377 544 0
-377 673 0
-377 809 0
-378 612 0
-378 883 0
-378 777 0
-378 853 0
-378 747 0
-378 904 0
-378 718 0
-378 861 0
-378 858 0
-378 866 0
-378 902 0
-378 938 0
-378 701 0
-378 832 0
-379 802 0
-379 891 0
-379 776 0
-379 772 0
-379 901 0
-379 897 0
-379 760 0
-379 866 0
-379 650 0
-379 788 0
-379 506 0
-379 505 0
-379 767 0
-379 526 0
-379 939 0
-379 540 0
-379 502 0
-379 801 0
-380 605 0
-380 734 0
-380 898 0
-380 600 0
-380 920 0
-380 924 0
-380 913 0
-380 905 0
-380 885 0
-380 862 0
-380 846 0
-380 919 0
-380 548 0
-380 820 0
-380 851 0
-380 705 0
-380 652 0
-380 839 0
-381 862 0
-381 613 0
-381 919 0
-381 911 0
-381 907 0
-381 890 0
-381 672 0
-381 610 0
-381 872 0
-381 905 0
-381 591 0
-381 983 0
-381 895 0
-381 948 0
-381 885 0
-382 765 0
-382 985 0
-382 884 0
-382 756 0
-382 1000 0
-382 763 0
-382 687 0
-382 771 0
-382 522 0
-382 580 0
-382 774 0
-382 821 0
-382 838 0
-382 960 0
-382 690 0
-382 567 0
-382 811 0
-382 871 0
-382 673 0
-382 748 0
-382 996 0
-382 509 0
-382 501 0
-382 822 0
-382 508 0
-383 868 0
-383 805 0
-383 830 0
-383 811 0
-383 546 0
-383 866 0
-383 870 0
-383 841 0
-383 717 0
-383 557 0
-383 844 0
-383 850 0
-383 502 0
-384 879 0
-384 771 0
-384 778 0
-384 748 0
-384 831 0
-384 790 0
-384 972 0
-384 650 0
-384 686 0
-384 621 0
-384 872 0
-384 503 0
-384 846 0
-384 502 0
-384 958 0
-385 737 0
-385 937 0
-385 777 0
-385 651 0
-385 710 0
-385 920 0
-385 925 0
-385 919 0
-385 842 0
-385 802 0
-385 909 0
-385 864 0
-385 825 0
-385 839 0
-385 701 0
-385 681 0
-385 997 0
-385 833 0
-386 957 0
-386 842 0
-386 899 0
-386 865 0
-386 834 0
-386 849 0
-386 837 0
-386 768 0
-386 819 0
-386 984 0
-386 843 0
-386 869 0
-386 612 0
-386 963 0
-386 802 0
-386 873 0
-386 564 0
-386 732 0
-386 573 0
-386 537 0
-387 889 0
-387 815 0
-387 618 0
-387 789 0
-387 847 0
-387 515 0
-387 874 0
-387 850 0
-387 856 0
-387 816 0
-387 830 0
-387 770 0
-387 755 0
-387 777 0
-387 762 0
-387 820 0
-387 578 0
-387 747 0
-387 743 0
-387 701 0
-387 838 0
-388 889 0
-388 789 0
-388 697 0
-388 997 0
-388 751 0
-388 503 0
-388 505 0
-388 605 0
-388 608 0
-388 831 0
-388 674 0
-388 744 0
-388 897 0
-388 510 0
-388 901 0
-388 919 0
-388 559 0
-388 508 0
-389 974 0
-389 895 0
-389 865 0
-389 843 0
-389 840 0
-389 837 0
-389 863 0
-389 828 0
-389 779 0
-389 766 0
-389 811 0
-389 776 0
-389 927 0
-389 936 0
-389 658 0
-389 765 0
-389 735 0
-389 561 0
-389 752 0
-390 919 0
-390 909 0
-390 915 0
-390 916 0
-390 880 0
-390 689 0
-390 712 0
-390 606 0
-390 621 0
-390 571 0
-390 641 0
-390 905 0
-390 656 0
-390 935 0
-391 540 0
-391 842 0
-391 833 0
-391 940 0
-391 768 0
-391 754 0
-391 806 0
-391 760 0
-391 858 0
-391 942 0
-391 773 0
-391 704 0
-391 755 0
-391 567 0
-391 814 0
-391 899 0
-391 895 0
-392 828 0
-392 534 0
-392 796 0
-392 543 0
-392 558 0
-392 866 0
-392 767 0
-392 874 0
-392 883 0
-392 747 0
-392 890 0
-392 540 0
-392 785 0
-393 897 0
-393 882 0
-393 681 0
-393 744 0
-393 536 0
-393 841 0
-393 725 0
-393 727 0
-393 909 0
-393 505 0
-393 888 0
-393 502 0
-394 721 0
-394 652 0
-394 924 0
-394 929 0
-394 881 0
-394 854 0
-394 845 0
-394 976 0
-394 843 0
-394 687 0
-394 859 0
-394 755 0
-394 936 0
-394 862 0
-394 837 0
-395 942 0
-395 775 0
-395 877 0
-395 863 0
-395 787 0
-395 742 0
-395 921 0
-395 754 0
-395 896 0
-395 873 0
-395 827 0
-395 665 0
-395 561 0
-395 746 0
-396 697 0
-396 883 0
-396 853 0
-396 747 0
-396 841 0
-396 858 0
-396 874 0
-396 878 0
-396 835 0
-396 847 0
-396 838 0
-396 773 0
-396 751 0
-396 938 0
-396 523 0
-396 521 0
-396 850 0
-397 769 0
-397 882 0
-397 871 0
-397 867 0
-397 520 0
-397 748 0
-397 781 0
-397 539 0
-397 573 0
-397 806 0
-397 640 0
-397 731 0
-397 784 0
-397 778 0
-397 536 0
-397 537 0
-397 596 0
-397 703 0
-398 634 0
-398 894 0
-398 958 0
-398 924 0
-398 919 0
-398 864 0
-398 862 0
-398 933 0
-398 794 0
-398 975 0
-398 616 0
-398 876 0
-398 622 0
-398 984 0
-398 929 0
-398 729 0
-398 829 0
-398 549 0
-398 783 0
-398 911 0
-398 926 0
-399 929 0
-399 889 0
-399 895 0
-399 869 0
-399 840 0
-399 829 0
-399 766 0
-399 772 0
-399 999 0
-399 799 0
-399 860 0
-399 942 0
-399 516 0
-400 836 0
-400 921 0
-400 955 0
-400 858 0
-400 943 0
-400 892 0
-400 883 0
-400 841 0
-400 751 0
-400 770 0
-400 844 0
-400 866 0
-400 721 0
-400 904 0
-400 569 0
-400 957 0
-400 813 0
-400 609 0
-400 501 0
-401 897 0
-401 871 0
-401 763 0
-401 752 0
-401 748 0
-401 620 0
-401 827 0
-401 985 0
-401 527 0
-401 509 0
-402 961 0
-402 637 0
-402 929 0
-402 922 0
-402 913 0
-402 907 0
-402 934 0
-402 914 0
-402 639 0
-402 876 0
-402 920 0
-402 709 0
-402 848 0
-402 769 0
-403 502 0
-403 872 0
-403 854 0
-403 859 0
-403 955 0
-403 899 0
-403 895 0
-403 877 0
-403 837 0
-403 548 0
-403 776 0
-403 527 0
-403 745 0
-403 762 0
-403 847 0
-403 858 0
-403 754 0
-403 655 0
-403 692 0
-403 785 0
-403 971 0
-403 667 0
-404 846 0
-404 791 0
-404 930 0
-404 749 0
-404 945 0
-404 751 0
-404 870 0
-404 847 0
-404 841 0
-404 887 0
-404 883 0
-404 857 0
-404 773 0
-404 648 0
-404 777 0
-404 827 0
-405 743 0
-405 640 0
-405 909 0
-405 894 0
-405 864 0
-405 859 0
-405 926 0
-405 898 0
-405 902 0
-405 946 0
-405 915 0
-405 568 0
-405 691 0
-405 661 0
-406 929 0
-406 978 0
-406 976 0
-406 936 0
-406 933 0
-406 917 0
-406 914 0
-406 852 0
-406 754 0
-406 742 0
-406 972 0
-406 543 0
-406 995 0
-406 731 0
-406 635 0
-406 764 0
-406 716 0
-406 926 0
-406 683 0
-406 714 0
-406 564 0
-406 628 0
-407 835 0
-407 719 0
-407 790 0
-407 532 0
-407 929 0
-407 905 0
-407 890 0
-407 859 0
-407 854 0
-407 869 0
-407 898 0
-407 913 0
-407 915 0
-407 569 0
-407 894 0
-407 709 0
-407 695 0
-408 976 0
-408 975 0
-408 972 0
-408 936 0
-408 930 0
-408 933 0
-408 942 0
-408 913 0
-408 921 0
-408 735 0
-408 623 0
-408 580 0
-408 955 0
-408 544 0
-408 548 0
-408 562 0
-409 941 0
-409 740 0
-409 510 0
-409 757 0
-409 939 0
-409 925 0
-409 922 0
-409 919 0
-409 881 0
-409 978 0
-409 880 0
-409 732 0
-409 947 0
-409 854 0
-409 858 0
-409 911 0
-409 898 0
-409 558 0
-409 910 0
-410 837 0
-410 517 0
-410 793 0
-410 977 0
-410 769 0
-410 568 0
-411 684 0
-411 932 0
-411 935 0
-411 880 0
-411 885 0
-411 922 0
-411 683 0
-411 947 0
-411 763 0
-411 894 0
-411 998 0
-412 975 0
-412 933 0
-412 914 0
-412 555 0
-412 641 0
-412 737 0
-412 936 0
-412 927 0
-412 613 0
-412 906 0
-412 910 0
-412 979 0
-412 958 0
-413 946 0
-413 926 0
-413 591 0
-413 935 0
-413 613 0
-413 836 0
-413 909 0
-413 698 0
-413 808 0
-413 697 0
-413 677 0
-414 989 0
-414 840 0
-414 666 0
-414 680 0
-414 960 0
-414 949 0
-414 952 0
-414 987 0
-414 921 0
-414 642 0
-415 638 0
-415 870 0
-415 947 0
-415 637 0
-415 560 0
-415 939 0
-415 932 0
-415 926 0
-415 894 0
-415 881 0
-415 640 0
-415 768 0
-415 815 0
-415 868 0
-415 507 0
-415 913 0
-415 908 0
-416 977 0
-416 971 0
-416 851 0
-416 927 0
-416 815 0
-416 972 0
-416 992 0
-416 944 0
-416 556 0
-416 825 0
-416 930 0
-416 658 0
-416 603 0
-416 536 0
-416 923 0
-416 581 0
-417 907 0
-417 975 0
-417 974 0
-417 949 0
-417 684 0
-417 814 0
-417 884 0
-417 518 0
-417 817 0
-417 936 0
-417 923 0
-417 514 0
-417 904 0
-418 951 0
-418 979 0
-418 969 0
-418 955 0
-418 921 0
-418 910 0
-418 766 0
-418 857 0
-418 976 0
-418 949 0
-418 617 0
-418 863 0
-418 716 0
-418 912 0
-418 790 0
-418 933 0
-419 820 0
-419 767 0
-419 908 0
-419 948 0
-419 956 0
-419 929 0
-419 920 0
-419 915 0
-419 907 0
-419 876 0
-419 925 0
-419 886 0
-419 958 0
-419 703 0
-419 979 0
-420 924 0
-420 874 0
-420 890 0
-420 926 0
-420 911 0
-420 881 0
-420 823 0
-420 907 0
-420 719 0
-420 560 0
-420 597 0
-420 757 0
-420 562 0
-420 607 0
-420 587 0
-421 913 0
-421 977 0
-421 975 0
-421 936 0
-421 949 0
-421 923 0
-421 865 0
-421 941 0
-421 785 0
-421 930 0
-421 599 0
-421 933 0
-421 699 0
-422 980 0
-422 905 0
-422 686 0
-422 542 0
-422 946 0
-422 964 0
-422 872 0
-422 880 0
-422 881 0
-422 876 0
-422 855 0
-422 623 0
-422 890 0
-422 904 0
-422 707 0
-422 653 0
-422 629 0
-423 976 0
-423 977 0
-423 985 0
-423 930 0
-423 796 0
-423 908 0
-423 906 0
-423 912 0
-423 918 0
-423 681 0
-423 650 0
-423 846 0
-423 641 0
-423 910 0
-423 936 0
-423 537 0
-424 640 0
-424 956 0
-424 963 0
-424 961 0
-424 905 0
-424 985 0
-424 885 0
-424 877 0
-424 511 0
-424 769 0
-424 821 0
-424 957 0
-424 537 0
-424 560 0
-425 956 0
-425 767 0
-425 743 0
-425 557 0
-425 618 0
-425 951 0
-425 911 0
-425 881 0
-425 957 0
-425 926 0
-425 809 0
-425 890 0
-425 764 0
-426 951 0
-426 825 0
-426 963 0
-426 946 0
-426 929 0
-426 890 0
-426 922 0
-426 576 0
-426 824 0
-426 849 0
-426 995 0
-426 808 0
-426 947 0
-426 578 0
-426 523 0
-427 872 0
-427 918 0
-427 903 0
-427 899 0
-427 840 0
-427 834 0
-427 921 0
-427 997 0
-427 702 0
-427 936 0
-427 813 0
-427 585 0
-427 955 0
-427 910 0
-427 860 0
-428 725 0
-428 513 0
-428 904 0
-428 518 0
-428 863 0
-428 838 0
-428 858 0
-428 676 0
-428 511 0
-428 952 0
-428 520 0
-428 844 0
-428 631 0
-428 806 0
-429 609 0
-429 633 0
-429 960 0
-429 956 0
-429 939 0
-429 911 0
-429 885 0
-429 865 0
-429 922 0
-429 597 0
-429 576 0
-429 645 0
-429 624 0
-429 797 0
-429 744 0
-429 515 0
-429 578 0
-430 944 0
-430 942 0
-430 927 0
-430 910 0
-430 889 0
-430 903 0
-430 949 0
-430 955 0
-430 998 0
-430 629 0
-430 994 0
-430 933 0
-430 991 0
-430 918 0
-430 900 0
-430 940 0
-430 613 0
-430 808 0
-431 675 0
-431 871 0
-431 897 0
-431 994 0
-431 951 0
-431 953 0
-431 928 0
-431 904 0
-431 788 0
-431 640 0
-431 850 0
-431 621 0
-431 835 0
-432 856 0
-432 919 0
-432 822 0
-432 979 0
-432 959 0
-432 958 0
-432 948 0
-432 909 0
-432 926 0
-432 846 0
-432 939 0
-432 925 0
-432 849 0
-432 771 0
-432 905 0
-432 632 0
-432 962 0
-433 509 0
-433 975 0
-433 940 0
-433 916 0
-433 855 0
-433 849 0
-433 677 0
-433 788 0
-433 857 0
-433 938 0
-433 560 0
-433 800 0
-433 700 0
-433 910 0
-433 837 0
-433 706 0
-434 772 0
-434 826 0
-434 629 0
-434 517 0
-434 750 0
-434 844 0
-434 847 0
-434 522 0
-434 651 0
-434 587 0
-434 529 0
-434 585 0
-434 719 0
-434 989 0
-434 928 0
-434 589 0
-434 861 0
-435 902 0
-435 682 0
-435 948 0
-435 946 0
-435 926 0
-435 925 0
-435 936 0
-435 529 0
-435 776 0
-435 958 0
-435 905 0
-435 853 0
-435 998 0
-435 750 0
-435 693 0
-435 922 0
-436 983 0
-436 976 0
-436 979 0
-436 944 0
-436 914 0
-436 899 0
-436 843 0
-436 857 0
-436 687 0
-436 613 0
-436 840 0
-436 652 0
-436 785 0
-437 905 0
-437 627 0
-437 995 0
-437 869 0
-437 518 0
-437 589 0
-437 943 0
-437 934 0
-437 931 0
-437 928 0
-437 856 0
-437 838 0
-437 520 0
-437 892 0
-437 511 0
-438 958 0
-438 976 0
-438 729 0
-438 520 0
-438 529 0
-438 592 0
-438 934 0
-438 892 0
-438 835 0
-438 818 0
-438 838 0
-438 874 0
-438 512 0
-438 941 0
-438 856 0
-438 861 0
-438 904 0
-438 519 0
-438 931 0
-439 950 0
-439 806 0
-439 780 0
-439 708 0
-439 719 0
-439 535 0
-439 956 0
-439 948 0
-439 922 0
-439 911 0
-439 907 0
-439 919 0
-439 812 0
-439 926 0
-439 898 0
-440 942 0
-440 918 0
-440 895 0
-440 899 0
-440 834 0
-440 857 0
-440 917 0
-440 949 0
-440 692 0
-440 777 0
-440 952 0
-440 666 0
-440 550 0
-441 960 0
-441 946 0
-441 845 0
-441 916 0
-441 819 0
-441 784 0
-441 560 0
-441 987 0
-441 928 0
-441 937 0
-441 931 0
-441 900 0
-441 844 0
-441 853 0
-441 875 0
-441 925 0
-441 905 0
-441 894 0
-442 927 0
-442 936 0
-442 906 0
-442 849 0
-442 916 0
-442 549 0
-442 914 0
-442 768 0
-442 912 0
-442 719 0
-442 662 0
-442 964 0
-442 551 0
-443 960 0
-443 942 0
-443 824 0
-443 518 0
-443 934 0
-443 938 0
-443 904 0
-443 841 0
-443 852 0
-443 522 0
-443 844 0
-443 504 0
-443 675 0
-443 792 0
-443 836 0
-444 505 0
-444 940 0
-444 912 0
-444 837 0
-444 744 0
-444 999 0
-444 918 0
-444 711 0
-444 850 0
-444 895 0
-444 733 0
-444 982 0
-444 917 0
-444 674 0
-445 511 0
-445 524 0
-445 953 0
-445 858 0
-445 529 0
-445 934 0
-445 692 0
-445 896 0
-445 810 0
-445 610 0
-445 661 0
-445 941 0
-445 835 0
-445 732 0
-445 649 0
-446 958 0
-446 939 0
-446 962 0
-446 961 0
-446 957 0
-446 947 0
-446 932 0
-446 920 0
-446 925 0
-446 971 0
-446 864 0
-446 911 0
-446 534 0
-446 618 0
-446 929 0
-446 924 0
-446 529 0
-446 951 0
-446 970 0
-447 962 0
-447 777 0
-447 957 0
-447 960 0
-447 890 0
-447 880 0
-447 922 0
-447 592 0
-447 935 0
-447 934 0
-447 590 0
-447 925 0
-447 905 0
-447 932 0
-447 967 0
-448 971 0
-448 854 0
-448 588 0
-448 925 0
-448 924 0
-448 913 0
-448 605 0
-448 749 0
-448 524 0
-448 706 0
-448 970 0
-448 946 0
-448 807 0
-448 656 0
-449 916 0
-449 910 0
-449 906 0
-449 923 0
-449 987 0
-449 725 0
-449 863 0
-449 632 0
-449 860 0
-449 947 0
-449 908 0
-449 612 0
-449 912 0
-449 869 0
-449 722 0
-449 821 0
-450 851 0
-450 877 0
-450 819 0
-450 527 0
-450 839 0
-450 635 0
-450 529 0
-450 585 0
-450 943 0
-450 934 0
-450 578 0
-450 858 0
-450 594 0
-450 844 0
-450 708 0
-450 576 0
-450 757 0
-450 564 0
-450 928 0
-451 770 0
-451 830 0
-451 825 0
-451 947 0
-451 919 0
-451 911 0
-451 898 0
-451 992 0
-451 955 0
-451 559 0
-451 922 0
-451 819 0
-451 924 0
-451 857 0
-451 966 0
-451 651 0
-452 880 0
-452 918 0
-452 910 0
-452 955 0
-452 725 0
-452 936 0
-452 927 0
-452 937 0
-452 820 0
-452 916 0
-452 760 0
-452 942 0
-452 977 0
-452 917 0
-452 616 0
-453 954 0
-453 920 0
-453 840 0
-453 513 0
-453 580 0
-453 937 0
-453 695 0
-453 844 0
-453 861 0
-453 856 0
-453 973 0
-453 555 0
-453 540 0
-453 666 0
-453 871 0
-453 728 0
-453 527 0
-453 990 0
-453 928 0
-454 913 0
-454 981 0
-454 962 0
-454 951 0
-454 948 0
-454 932 0
-454 836 0
-454 956 0
-454 884 0
-454 970 0
-454 553 0
-454 924 0
-454 628 0
-454 705 0
-454 678 0
-454 946 0
-454 584 0
-455 949 0
-455 940 0
-455 916 0
-455 910 0
-455 923 0
-455 893 0
-455 912 0
-455 774 0
-455 914 0
-455 832 0
-455 921 0
-455 975 0
-455 704 0
-455 688 0
-455 860 0
-456 575 0
-456 961 0
-456 583 0
-456 951 0
-456 947 0
-456 977 0
-456 985 0
-456 803 0
-456 741 0
-456 970 0
-456 926 0
-456 942 0
-456 958 0
-456 742 0
-456 965 0
-456 967 0
-456 870 0
-456 913 0
-456 650 0
-456 979 0
-457 649 0
-457 537 0
-457 980 0
-457 970 0
-457 959 0
-457 956 0
-457 954 0
-457 948 0
-457 939 0
-457 935 0
-457 790 0
-457 982 0
-457 842 0
-457 922 0
-457 973 0
-457 811 0
-457 963 0
-458 983 0
-458 960 0
-458 951 0
-458 858 0
-458 673 0
-458 967 0
-458 619 0
-458 954 0
-458 948 0
-458 920 0
-458 849 0
-458 775 0
-458 973 0
-458 947 0
-458 524 0
-458 734 0
-458 925 0
-459 982 0
-459 963 0
-459 960 0
-459 956 0
-459 946 0
-459 939 0
-459 929 0
-459 925 0
-459 588 0
-459 791 0
-459 961 0
-459 981 0
-459 504 0
-459 904 0
-459 595 0
-459 641 0
-460 962 0
-460 948 0
-460 924 0
-460 970 0
-460 957 0
-460 925 0
-460 920 0
-460 805 0
-460 981 0
-460 965 0
-460 670 0
-460 983 0
-460 966 0
-460 591 0
-461 939 0
-461 545 0
-461 982 0
-461 980 0
-461 967 0
-461 957 0
-461 799 0
-461 761 0
-461 702 0
-461 790 0
-461 966 0
-461 822 0
-461 809 0
-462 981 0
-462 967 0
-462 622 0
-462 783 0
-462 988 0
-462 983 0
-462 777 0
-462 957 0
-462 948 0
-462 922 0
-462 979 0
-462 624 0
-462 986 0
-462 951 0
-462 617 0
-462 959 0
-463 973 0
-463 980 0
-463 721 0
-463 983 0
-463 981 0
-463 966 0
-463 956 0
-463 859 0
-463 537 0
-463 921 0
-463 947 0
-463 951 0
-463 781 0
-463 672 0
-463 806 0
-464 989 0
-464 990 0
-464 966 0
-464 963 0
-464 962 0
-464 961 0
-464 957 0
-464 960 0
-464 757 0
-464 948 0
-464 947 0
-464 507 0
-464 919 0
-464 639 0
-464 915 0
-464 946 0
-464 970 0
-464 923 0
-464 965 0
-464 651 0
-465 990 0
-465 959 0
-465 961 0
-465 1000 0
-465 601 0
-465 970 0
-465 948 0
-465 947 0
-465 957 0
-465 931 0
-465 901 0
-465 716 0
-465 980 0
-465 988 0
-465 571 0
-466 763 0
-466 535 0
-466 986 0
-466 962 0
-466 957 0
-466 956 0
-466 958 0
-466 954 0
-466 985 0
-466 849 0
-466 948 0
-466 809 0
-466 758 0
-466 619 0
-466 749 0
-466 843 0
-466 988 0
-466 816 0
-467 984 0
-467 983 0
-467 982 0
-467 798 0
-467 966 0
-467 959 0
-467 960 0
-467 939 0
-467 823 0
-467 729 0
-467 619 0
-467 725 0
-467 544 0
-467 665 0
-467 937 0
-467 826 0
-468 958 0
-468 804 0
-468 504 0
-468 989 0
-468 988 0
-468 962 0
-468 957 0
-468 956 0
-468 562 0
-468 823 0
-468 967 0
-468 961 0
-468 779 0
-468 679 0
-468 797 0
-468 600 0
-468 911 0
-468 951 0
-468 619 0
-468 984 0
-468 900 0
-468 663 0
-469 979 0
-469 848 0
-469 860 0
-469 971 0
-469 978 0
-469 750 0
-469 892 0
-469 681 0
-469 683 0
-469 923 0
-469 649 0
-469 985 0
-469 554 0
-469 825 0
-469 850 0
-470 628 0
-470 601 0
-470 710 0
-470 530 0
-470 988 0
-470 982 0
-470 966 0
-470 905 0
-470 876 0
-470 951 0
-470 990 0
-470 869 0
-470 574 0
-470 768 0
-470 515 0
-470 967 0
-470 962 0
-470 932 0
-471 912 0
-471 923 0
-471 914 0
-471 765 0
-471 974 0
-471 928 0
-471 917 0
-471 550 0
-471 667 0
-471 568 0
-471 548 0
-471 554 0
-471 668 0
-471 596 0
-471 906 0
-471 910 0
-471 660 0
-472 975 0
-472 969 0
-472 917 0
-472 746 0
-472 889 0
-472 752 0
-472 918 0
-472 672 0
-472 912 0
-472 738 0
-472 548 0
-472 545 0
-472 562 0
-472 910 0
-472 897 0
-472 565 0
-473 861 0
-473 904 0
-473 607 0
-473 525 0
-473 965 0
-473 961 0
-473 960 0
-473 978 0
-473 967 0
-473 729 0
-473 966 0
-473 604 0
-473 619 0
-473 884 0
-474 942 0
-474 908 0
-474 666 0
-474 568 0
-474 763 0
-474 554 0
-474 695 0
-474 931 0
-474 501 0
-474 732 0
-474 977 0
-474 551 0
-474 545 0
-474 593 0
-474 772 0
-474 561 0
-474 665 0
-475 952 0
-475 923 0
-475 906 0
-475 914 0
-475 916 0
-475 771 0
-475 687 0
-475 999 0
-475 580 0
-475 696 0
-475 974 0
-475 762 0
-475 969 0
-475 745 0
-475 718 0
-475 618 0
-475 542 0
-476 978 0
-476 977 0
-476 974 0
-476 851 0
-476 805 0
-476 949 0
-476 914 0
-476 699 0
-476 910 0
-476 921 0
-476 841 0
-476 866 0
-476 542 0
-476 952 0
-476 657 0
-476 565 0
-477 876 0
-477 918 0
-477 914 0
-477 840 0
-477 554 0
-477 683 0
-477 557 0
-477 870 0
-477 538 0
-477 545 0
-477 730 0
-477 912 0
-477 717 0
-477 971 0
-477 732 0
-477 825 0
-477 726 0
-478 975 0
-478 971 0
-478 912 0
-478 910 0
-478 918 0
-478 914 0
-478 849 0
-478 916 0
-478 695 0
-478 995 0
-478 843 0
-478 955 0
-478 542 0
-478 602 0
-478 611 0
-478 512 0
-479 978 0
-479 923 0
-479 921 0
-479 873 0
-479 974 0
-479 568 0
-479 685 0
-479 797 0
-479 975 0
-479 958 0
-479 825 0
-479 908 0
-479 917 0
-479 578 0
-479 565 0
-479 624 0
-479 959 0
-479 562 0
-479 544 0
-479 928 0
-480 964 0
-480 637 0
-480 959 0
-480 678 0
-480 982 0
-480 986 0
-480 983 0
-480 973 0
-480 832 0
-480 619 0
-480 689 0
-480 523 0
-480 910 0
-480 683 0
-480 871 0
-480 771 0
-480 933 0
-480 998 0
-480 754 0
-480 753 0
-480 522 0
-481 710 0
-481 988 0
-481 980 0
-481 983 0
-481 958 0
-481 971 0
-481 901 0
-481 852 0
-481 604 0
-481 965 0
-481 994 0
-481 922 0
-481 714 0
-481 623 0
-481 571 0
-482 962 0
-482 935 0
-482 989 0
-482 960 0
-482 734 0
-482 604 0
-482 619 0
-482 600 0
-482 597 0
-482 623 0
-482 963 0
-483 971 0
-483 965 0
-483 989 0
-483 609 0
-483 959 0
-483 955 0
-483 615 0
-483 623 0
-483 608 0
-483 723 0
-483 612 0
-483 982 0
-483 517 0
-483 933 0
-484 983 0
-484 878 0
-484 905 0
-484 989 0
-484 990 0
-484 980 0
-484 961 0
-484 920 0
-484 851 0
-484 845 0
-484 755 0
-484 524 0
-484 668 0
-484 707 0
-484 952 0
-484 826 0
-484 659 0
-485 864 0
-485 976 0
-485 933 0
-485 764 0
-485 921 0
-485 918 0
-485 875 0
-485 897 0
-485 668 0
-485 937 0
-485 522 0
-485 900 0
-485 678 0
-485 538 0
-485 545 0
-485 669 0
-485 919 0
-485 800 0
-485 596 0
-485 561 0
-485 640 0
-486 981 0
-486 636 0
-486 990 0
-486 973 0
-486 970 0
-486 961 0
-486 785 0
-486 787 0
-486 600 0
-486 940 0
-486 599 0
-486 998 0
-486 964 0
-486 699 0
-486 893 0
-486 597 0
-486 693 0
-486 520 0
-487 608 0
-487 982 0
-487 648 0
-487 968 0
-487 965 0
-487 834 0
-487 668 0
-487 794 0
-487 829 0
-487 645 0
-487 733 0
-487 612 0
-487 623 0
-487 513 0
-487 988 0
-487 990 0
-488 964 0
-488 567 0
-488 963 0
-488 619 0
-488 743 0
-488 707 0
-488 860 0
-488 768 0
-488 777 0
-488 700 0
-488 599 0
-488 612 0
-488 806 0
-488 989 0
-489 973 0
-489 966 0
-489 970 0
-489 872 0
-489 837 0
-489 879 0
-489 980 0
-489 810 0
-489 623 0
-489 539 0
-489 800 0
-489 729 0
-489 998 0
-490 599 0
-490 658 0
-490 649 0
-490 703 0
-490 962 0
-490 872 0
-490 994 0
-490 604 0
-490 608 0
-490 674 0
-490 993 0
-490 777 0
-490 707 0
-491 795 0
-491 804 0
-491 678 0
-491 607 0
-491 803 0
-491 761 0
-491 741 0
-491 745 0
-491 533 0
-491 995 0
-491 954 0
-491 827 0
-491 528 0
-491 700 0
-491 933 0
-491 632 0
-491 696 0
-491 734 0
-491 809 0
-491 749 0
-492 920 0
-492 696 0
-492 741 0
-492 753 0
-492 997 0
-492 901 0
-492 627 0
-492 675 0
-492 952 0
-492 946 0
-492 800 0
-492 749 0
-492 927 0
-492 634 0
-493 692 0
-493 509 0
-493 535 0
-493 832 0
-493 607 0
-493 1000 0
-493 745 0
-493 822 0
-493 901 0
-493 992 0
-493 529 0
-493 758 0
-493 851 0
-493 800 0
-493 613 0
-493 765 0
-493 696 0
-494 790 0
-494 818 0
-494 807 0
-494 700 0
-494 678 0
-494 759 0
-494 758 0
-494 1000 0
-494 692 0
-494 522 0
-494 696 0
-494 999 0
-494 934 0
-495 795 0
-495 818 0
-495 631 0
-495 673 0
-495 996 0
-495 885 0
-495 759 0
-495 741 0
-495 615 0
-495 877 0
-495 903 0
-495 806 0
-495 994 0
-495 993 0
-495 992 0
-495 639 0
-495 980 0
-495 572 0
-495 649 0
-496 542 0
-496 807 0
-496 645 0
-496 570 0
-496 1000 0
-496 942 0
-496 812 0
-496 753 0
-496 860 0
-496 695 0
-496 747 0
-496 795 0
-497 807 0
-497 959 0
-497 785 0
-497 933 0
-497 764 0
-497 759 0
-497 996 0
-497 741 0
-497 771 0
-497 877 0
-497 994 0
-497 793 0
-497 753 0
-498 827 0
-498 939 0
-498 775 0
-498 764 0
-498 759 0
-498 761 0
-498 996 0
-498 842 0
-498 518 0
-498 797 0
-498 745 0
-498 992 0
-498 683 0
-498 783 0
-498 995 0
-499 818 0
-499 822 0
-499 651 0
-499 946 0
-499 786 0
-499 764 0
-499 761 0
-499 745 0
-499 814 0
-499 675 0
-499 997 0
-499 992 0
-499 991 0
-499 792 0
-499 951 0
-499 759 0
-499 741 0
-499 889 0
-500 519 0
-500 579 0
-500 795 0
-500 759 0
-500 912 0
-500 796 0
-500 757 0
-500 679 0
-500 999 0
-500 991 0
-500 833 0
-500 741 0
-500 661 0
-500 997 0
-500 928 0
-500 782 0
-500 992 0
277 0
