p cnf 2240 8960
-974 2189 800 -330 0
-1830 851 -2176 1004 0
-460 1759 -623 -248 0
-1693 427 1123 -130 0
-149 -1014 1371 791 0
-808 -1927 407 1973 0
-1619 56 560 941 0
1854 742 1897 617 0
912 694 882 1420 0
-1335 2028 923 -1475 0
1342 -428 -2082 1684 0
48 -1972 1068 -219 0
1252 2200 657 -448 0
1673 2036 1307 -379 0
-438 -121 -2101 732 0
-1282 -730 466 -1701 0
-1095 938 377 325 0
-414 1305 -1225 -1047 0
2174 314 2023 1484 0
-157 -590 727 991 0
2024 -528 -1588 2198 0
-1493 -1102 -1189 1157 0
1072 -1096 2153 -938 0
-607 -680 -386 -1858 0
146 -807 1809 376 0
1171 -1125 99 -2149 0
-2215 1265 1149 -1202 0
-20 95 1478 1149 0
-939 256 2215 -476 0
1175 555 1769 -195 0
-1607 -1151 1490 714 0
2075 1054 720 -1891 0
-1935 -1816 -166 -29 0
1632 -2064 1734 -1203 0
1453 452 1697 -1574 0
375 -1350 -1553 1947 0
-1830 -851 -2176 -1004 0
-955 1586 -384 2058 0
-1070 -15 -1118 -507 0
549 1783 320 1482 0
369 1936 -374 -471 0
1039 -1685 -1372 -1870 0
-340 723 -1005 -1576 0
-1713 185 359 -53 0
1785 -1853 1847 -56 0
162 -142 -118 -747 0
975 -1464 1080 2210 0
-281 -826 -1277 54 0
1573 181 -1285 -1751 0
2113 483 1447 677 0
1775 -43 1602 148 0
1786 1671 1187 -1895 0
2080 2222 1205 -624 0
-486 111 -1328 335 0
-239 825 -1231 -187 0
1069 509 -825 1870 0
1217 187 -2233 1002 0
320 -1801 -1354 1029 0
2165 -1072 1951 -1524 0
-1397 -1263 -337 -95 0
-222 2202 704 -475 0
339 563 598 1808 0
-757 1611 -614 -1887 0
-774 731 1518 -1697 0
-1708 3 -1448 1206 0
-1772 -1236 -118 -258 0
1552 848 1561 371 0
-163 -1289 1696 372 0
-2072 -74 509 -1333 0
-1152 2179 -842 2122 0
-300 -839 -1362 -847 0
601 1192 748 1334 0
-820 -347 -33 -357 0
-479 834 1240 -970 0
1631 385 763 799 0
-1935 1311 -1552 1729 0
1788 1942 -927 1537 0
-186 1875 584 181 0
-1454 -1719 1516 690 0
-2196 1259 1113 673 0
1555 1582 -2128 -143 0
-422 -561 -1963 1411 0
31 1019 -1398 1244 0
380 -2123 906 1365 0
-1732 571 601 -889 0
-1641 -1888 -960 -493 0
-1472 -2133 -1385 2127 0
707 739 724 305 0
-2108 1848 -97 -1485 0
-393 2141 -2006 -1835 0
-753 1001 744 -2225 0
1993 1640 -13 -310 0
791 -1895 36 -337 0
-464 1050 1665 582 0
-779 -295 -1986 257 0
-1335 -2028 923 1475 0
734 -1270 1145 1801 0
601 1192 -748 -1334 0
-911 -1569 -1204 1062 0
1197 -106 1156 492 0
-1270 545 1899 -408 0
-864 -2115 260 -1669 0
-1436 2085 -655 -1608 0
802 -539 -199 1234 0
-602 1643 472 -182 0
285 707 52 924 0
-932 4 2055 -1 0
-1405 2073 -152 411 0
890 1309 -421 558 0
-845 1585 193 334 0
-1115 -1052 832 -2039 0
1123 -2135 1862 -1235 0
-874 -1727 -326 -1006 0
772 1639 1032 -355 0
-659 1127 -2141 -1739 0
-1860 1534 1731 2069 0
869 -2239 -539 -840 0
-1521 -1774 -1933 -731 0
-472 2095 473 1192 0
1549 -1415 1257 -533 0
-1064 -1315 2130 -775 0
429 2031 -47 -1761 0
-1048 486 323 -2063 0
-69 -1146 1442 1368 0
-549 -1783 -320 -1482 0
1042 -1366 1679 71 0
-489 376 2151 -949 0
-2090 -1374 1377 569 0
-1097 -1525 -1638 1189 0
1193 -2131 -722 257 0
1508 1559 1959 -1261 0
-2049 -362 548 1591 0
-1809 1893 1430 879 0
527 -1779 -840 -396 0
2130 1483 616 1570 0
-277 2117 567 -24 0
1238 -1045 2108 -1765 0
-431 1618 308 1281 0
-2000 -699 -1825 -2221 0
1735 1538 501 1185 0
-1437 1962 -2050 1665 0
-1873 -93 620 496 0
13 -1162 1489 -1111 0
-474 1077 1516 884 0
-1641 1888 -960 493 0
-1646 71 801 -1104 0
852 1806 -2041 1429 0
-1996 1476 1178 -1053 0
122 -1987 1332 -1758 0
1170 -2014 59 -3 0
-31 1661 573 -1782 0
1173 487 -2203 754 0
87 -1197 -529 712 0
1540 -283 80 1679 0
1946 1797 -1960 -96 0
-929 -2084 1348 1222 0
-1537 799 1388 1303 0
1169 1222 499 -254 0
1451 1480 1861 1163 0
1203 -1031 1447 2175 0
-2098 -1286 -1402 1247 0
908 -2155 -1301 -1512 0
-1883 311 -50 971 0
-1563 1591 -317 647 0
1589 -156 164 -1253 0
-1512 196 -995 -433 0
-1003 -1401 1728 430 0
1909 -518 -1393 778 0
-551 -792 -469 -871 0
-364 1231 -883 -1024 0
1568 -1681 -1700 -935 0
-1906 2157 -1473 1267 0
1016 1908 -704 -1964 0
-606 1567 234 1319 0
-1266 -37 -1491 2068 0
431 1618 308 -1281 0
772 -1639 1032 355 0
-559 832 -109 1805 0
1025 749 -356 1132 0
322 -134 -76 2227 0
-2026 1961 505 2185 0
1125 -1654 -6 -1645 0
609 660 -1370 -2053 0
-1696 530 66 2213 0
1685 1333 2106 -1806 0
734 1270 -1145 1801 0
-874 2176 -1377 512 0
-1282 730 -466 -1701 0
1639 1426 -758 -290 0
-1186 -1289 -1962 -1406 0
1012 935 703 -936 0
-678 1248 -941 2234 0
-645 83 -805 1264 0
-1206 -1159 -1086 740 0
-791 1895 36 -337 0
-2072 74 -509 -1333 0
-1434 -381 102 246 0
1245 767 544 1892 0
7 -2154 1116 947 0
-414 -1630 -2013 364 0
1013 -1338 -1974 -265 0
1495 -1857 -1325 877 0
-1568 1681 -1700 -935 0
967 -674 -2000 -1357 0
-1607 1151 -1490 714 0
1453 -452 1697 1574 0
395 -967 129 -2105 0
874 1727 326 1006 0
-1635 1294 -632 210 0
-1342 -428 2082 1684 0
1508 1559 -1959 1261 0
70 621 -1297 -1209 0
1508 -1559 1959 1261 0
-1472 2133 -1385 -2127 0
-1659 -1079 -1406 1050 0
-1709 1667 -998 145 0
-1521 -1774 1933 731 0
1207 887 392 1094 0
2159 -647 1433 -1376 0
-1876 -307 1755 1061 0
1492 -889 -1978 -1841 0
1841 -1580 748 -1446 0
-387 -598 -801 1287 0
908 -2155 1301 1512 0
-2169 -1198 426 1458 0
-1346 1717 -744 377 0
-1727 -569 -597 1674 0
-1714 235 -1304 -2214 0
2136 -2196 1554 -1291 0
1530 697 788 921 0
-1542 -1056 -1859 -643 0
1898 -664 1597 -497 0
278 2052 -1344 1716 0
-400 180 -1087 483 0
-1634 -1112 -1227 -194 0
-2215 1265 -1149 1202 0
474 -1077 1516 884 0
-1010 -2056 -368 1353 0
-1879 634 -822 -1340 0
-1588 502 2187 2212 0
31 -1019 -1398 -1244 0
413 -1776 2118 -636 0
-2106 436 54 -619 0
-766 1232 -45 -2003 0
-1851 -255 1668 1393 0
-1017 -1229 -110 -2151 0
-92 209 -1971 882 0
-1023 1560 -1594 1403 0
1460 1134 -759 1878 0
-1213 -1902 -1253 -979 0
781 1566 -431 -1215 0
2161 399 1412 -417 0
-1396 741 1687 1089 0
-1214 522 -224 -1606 0
671 1137 500 -962 0
135 -1684 -2170 -663 0
-958 738 1519 -1939 0
1070 15 -1118 -507 0
1830 851 2176 1004 0
-600 -898 -75 1299 0
-521 1111 -1412 477 0
-126 1250 -112 -717 0
-580 -1804 1566 2065 0
-841 534 1188 -99 0
1138 -27 -1945 1540 0
1310 -1088 -930 855 0
-1407 651 1273 1026 0
-400 -180 1087 483 0
1812 2048 -1453 385 0
-1977 1915 -2230 -272 0
940 811 1556 192 0
1407 -651 -1273 -1026 0
-1834 -429 -1607 1134 0
-766 -1232 45 -2003 0
-490 1482 -1497 444 0
-300 839 -1362 847 0
1451 1480 -1861 -1163 0
1935 -1816 166 -29 0
239 -825 -1231 -187 0
1946 -1797 1960 -96 0
-2145 -1622 -272 -570 0
736 345 2132 -992 0
-1368 -2103 959 1178 0
1079 843 1500 737 0
1578 -1038 -89 -1634 0
1454 1719 -1516 -690 0
-2225 325 1926 -906 0
198 -512 755 1219 0
389 1823 -2076 -104 0
702 -1495 -206 79 0
-2049 362 -548 1591 0
-502 632 -1609 341 0
659 1127 -2141 1739 0
1907 762 -2201 -2144 0
-1171 1125 99 -2149 0
742 -719 -1417 -1772 0
1160 -2198 1653 -2027 0
410 604 820 1904 0
-1466 1404 559 -1479 0
15 -505 -679 -242 0
-1983 -2126 1450 -1932 0
1558 -543 1572 -251 0
764 -1315 1914 -1381 0
1398 -2142 1446 -1239 0
-904 816 -1831 -813 0
-1292 392 -1137 -1351 0
-2104 -581 -1934 -651 0
998 1959 1752 268 0
-1213 1902 -1253 979 0
-1175 555 1769 195 0
1008 1066 881 1707 0
8 -2080 426 -39 0
681 -2146 1110 1243 0
494 -423 -1517 124 0
470 565 1919 -1968 0
-2013 605 348 -214 0
845 675 662 -1695 0
-1989 -868 -434 1821 0
-934 -1592 2038 -888 0
-64 -1507 1884 -403 0
358 -787 -25 -745 0
-219 309 -1147 1354 0
-783 -1964 -319 368 0
157 590 -727 -991 0
-917 -1858 1978 -880 0
-1676 1264 1277 -1035 0
-895 -1228 -1201 -1269 0
-1215 -32 -2088 -793 0
1920 -67 2117 -2089 0
-37 153 525 1098 0
-371 108 -834 -230 0
1653 -1868 -2121 768 0
1994 1108 1824 -1755 0
1734 702 -974 956 0
-1788 1942 927 1537 0
-1571 -233 2023 1795 0
-526 -303 466 367 0
445 -418 -1575 484 0
68 -131 -169 -354 0
1328 -1549 2099 -1466 0
-1673 -47 2137 -1151 0
-1270 -545 1899 408 0
-929 2084 -1348 1222 0
1336 464 -520 164 0
-1266 67 711 2092 0
931 132 36 20 0
1385 -2086 -625 716 0
1401 1358 1075 -1976 0
-1141 1100 -312 2096 0
-1878 -2002 -1490 -1535 0
-575 -78 -1136 -620 0
158 -537 -419 666 0
779 -278 1200 1144 0
2220 -2186 -2226 -765 0
584 404 -891 -797 0
-1706 -136 921 1182 0
-1075 -459 1103 894 0
1720 1966 -1509 1828 0
-304 553 -656 -639 0
1201 -672 -994 -670 0
739 101 -1660 -893 0
1342 -428 2082 -1684 0
535 -154 -453 577 0
1206 -1159 1086 740 0
-218 -113 1834 108 0
710 650 -1037 -127 0
-830 -29 1158 503 0
-1217 -187 -2233 1002 0
1524 -2064 -1067 -168 0
2137 -229 1984 228 0
-532 -1337 22 1694 0
213 -595 -290 105 0
-63 -1042 1781 626 0
-600 898 -75 -1299 0
70 -621 -1297 1209 0
-508 -1426 1855 -1179 0
1878 -2002 -1490 1535 0
2072 74 -509 1333 0
-750 897 1120 336 0
-1994 1108 -1824 -1755 0
788 -1119 681 1560 0
1327 -51 1730 -1875 0
599 -1836 -1903 1857 0
-850 176 -1101 1313 0
-1302 1645 -541 -1988 0
-1091 -691 754 -1614 0
-144 -2070 -455 -1657 0
-1071 -341 528 -517 0
-1588 502 -2187 -2212 0
-934 1628 2166 762 0
-1947 -1584 -339 -274 0
548 710 1107 2007 0
-163 1289 1696 -372 0
-1673 47 2137 1151 0
-1067 1919 1031 -180 0
-1929 1778 -683 1660 0
-1932 -476 1564 -2168 0
1152 -2179 -842 2122 0
976 -1513 -1283 1992 0
1531 2210 -1965 957 0
-1394 577 -653 1778 0
1714 -49 784 490 0
874 2176 1377 512 0
-1629 -852 1039 -207 0
-2051 2001 -319 -91 0
-291 2203 331 172 0
961 1700 -1957 794 0
-2090 1374 -1377 569 0
-179 1816 -2036 2031 0
-1078 649 1541 216 0
-1508 2140 1545 227 0
-1500 279 -582 -156 0
1877 373 1226 -1116 0
1854 -742 -1897 617 0
1714 235 -1304 2214 0
2072 -74 -509 -1333 0
2040 -465 -1148 -1776 0
1993 -521 662 1330 0
-1036 -546 1326 -365 0
-1439 1425 1376 -78 0
-340 -723 1005 -1576 0
-345 1555 1739 854 0
-1993 -521 662 -1330 0
-760 -1574 927 -763 0
-811 1322 -1141 -1154 0
-1175 2034 -1013 1850 0
65 -174 -401 1977 0
-592 -1288 -2009 -374 0
1439 1425 -1376 -78 0
1620 2218 -1773 1083 0
-607 680 -386 1858 0
-390 990 -1949 -1367 0
1270 545 -1899 -408 0
-44 1363 -591 1872 0
-1481 913 -785 635 0
-1876 307 -1755 1061 0
267 2022 -1979 -1553 0
279 -1873 1213 119 0
1310 1088 -930 -855 0
-1336 464 520 164 0
-439 -1852 86 1649 0
1489 700 -1839 1550 0
-635 871 -14 -1705 0
139 463 1905 1455 0
1493 -1102 -1189 -1157 0
-1429 -909 -1642 -1272 0
16 -17 -641 -2169 0
-1238 -1045 2108 1765 0
-1599 1455 475 783 0
-1015 -1463 685 346 0
1947 -1584 339 -274 0
-2230 1044 -1680 -1874 0
-1071 -341 -528 517 0
-2240 1923 -1969 776 0
823 -223 1251 -1613 0
2100 -1728 636 -910 0
31 1661 -573 -1782 0
-1544 956 2175 -1135 0
1822 622 -766 -1355 0
581 -235 -2047 1612 0
-1118 1940 738 -1617 0
-848 1542 638 554 0
-1131 1227 1049 -1108 0
1777 -1486 280 1325 0
1202 -1106 298 2168 0
665 -1844 -1373 -407 0
742 719 1417 -1772 0
-1847 1881 1492 -682 0
-1550 -705 727 -541 0
457 1260 16 -2134 0
116 -545 1409 420 0
477 -1030 -1839 -1216 0
-500 1471 -112 -1844 0
708 -1799 202 1899 0
2133 467 565 -2084 0
-1205 -2107 1562 -562 0
-676 -1475 -1666 756 0
228 178 1465 1750 0
-1256 1211 -1762 -610 0
437 -128 -964 -1159 0
929 2084 1348 1222 0
1637 -1155 782 1916 0
1694 926 847 -2139 0
1624 1510 -771 -1066 0
1888 -1131 2066 -266 0
-50 1837 -753 1953 0
743 -370 1708 1126 0
-1909 518 -1393 778 0
-1055 -780 274 -2019 0
-1032 -608 -2217 1703 0
658 1407 -1445 -1088 0
-1989 868 -434 -1821 0
1510 -761 -1793 -1430 0
1346 -1717 -744 377 0
-1936 350 -460 -1543 0
661 -816 735 1452 0
1979 -1584 932 -387 0
1394 -577 653 -1778 0
850 176 1101 1313 0
1410 -1390 -2110 -1619 0
-1223 221 1388 1807 0
1221 1210 -1743 133 0
-726 829 -1779 61 0
780 770 489 -381 0
605 -1710 2134 1225 0
464 -1050 1665 582 0
-837 -2048 -1803 689 0
-1155 -1291 488 -1497 0
2145 -1622 -272 570 0
1037 1367 -1234 -527 0
-862 1833 1319 627 0
-500 1471 112 1844 0
1499 1756 -182 -1183 0
2222 -97 -1320 -1211 0
-1629 -852 -1039 207 0
-409 1128 10 1324 0
-1292 2190 -1651 -730 0
-1061 -1918 806 1297 0
1804 -1399 372 -1742 0
603 1657 -690 -1295 0
-273 -23 -1995 -774 0
922 1394 1603 -101 0
-1544 956 -2175 1135 0
-1398 -2142 1446 1239 0
-949 2217 1675 -102 0
-1585 1330 399 -2114 0
795 1339 -910 -1886 0
-1836 -380 -269 876 0
1191 -1879 -1570 -2077 0
1932 476 -1564 2168 0
-665 1844 -1373 -407 0
2043 1898 -114 -2154 0
188 -1130 646 999 0
506 -1874 -1763 -1929 0
1856 1659 -481 -232 0
988 -2220 1065 -1259 0
1415 -1846 367 984 0
-1017 1229 110 -2151 0
-1321 -1720 1529 -722 0
678 -1248 -941 2234 0
405 2183 -865 945 0
-1331 1699 1011 1190 0
-146 -1017 201 1849 0
1017 1229 -110 -2151 0
1586 1813 728 450 0
821 -26 1970 -358 0
739 101 1660 893 0
519 -85 645 -660 0
-1132 -214 -1024 2227 0
-457 1260 16 2134 0
-162 -142 118 -747 0
-965 -1167 -1172 456 0
-490 -1482 1497 444 0
822 1906 977 1531 0
-1166 -473 -1958 462 0
-463 1435 -611 222 0
232 -737 -1928 297 0
-1268 1941 -510 -1911 0
1122 1543 -2116 1317 0
2121 942 -1478 298 0
-1443 810 1099 -1056 0
788 -1119 -681 -1560 0
1942 2061 1223 1866 0
-1020 -2044 -981 1656 0
837 2048 -1803 689 0
1188 -81 2143 1921 0
382 72 -599 -997 0
-2087 -2089 1044 -570 0
-35 -1180 2112 1810 0
157 590 727 991 0
703 1900 1166 -1643 0
-277 -2117 -567 -24 0
-1923 -1827 859 1527 0
92 209 -1971 -882 0
1794 -1735 -1212 -1359 0
1602 262 2016 -686 0
1124 -2043 583 -60 0
-410 604 -820 1904 0
-1849 1195 1386 -2182 0
-1909 518 1393 -778 0
-439 -1852 -86 -1649 0
-772 1639 -1032 -355 0
-532 -1337 -22 -1694 0
-63 1042 -1781 626 0
-715 458 -1316 1917 0
232 737 -1928 -297 0
1967 682 1670 917 0
-1162 1428 57 -321 0
668 -18 2037 895 0
-198 512 755 1219 0
2232 -1627 1938 -875 0
1650 -2173 1290 -1275 0
-1654 1766 1216 705 0
904 816 1831 -813 0
1950 1336 -271 -197 0
31 -1019 1398 1244 0
-1587 -2109 940 -652 0
-2035 1233 -633 1097 0
1202 1106 298 -2168 0
1934 -2214 -5 1689 0
-944 -1432 759 252 0
1973 -1682 225 1306 0
-2108 -1848 -97 1485 0
1734 702 974 -956 0
-98 1381 1174 1483 0
932 -4 2055 -1 0
-122 1987 -1332 1758 0
-1122 1543 2116 1317 0
-246 881 1703 -1172 0
-1773 -585 -153 646 0
-17 -1711 -8 -451 0
393 2141 2006 -1835 0
1888 -1131 -2066 266 0
-1353 91 1572 1469 0
2061 1341 -1843 1480 0
-2024 -528 1588 2198 0
2135 1589 1950 986 0
760 1574 -927 763 0
1156 -1869 -474 -1547 0
931 -132 36 -20 0
-469 -1871 -199 -1474 0
674 1349 177 1709 0
-106 -165 550 1969 0
-698 -656 618 1180 0
293 -208 1838 1246 0
-1188 81 2143 1921 0
-524 918 318 -286 0
2040 812 212 -447 0
1688 1706 -1798 -918 0
-2000 699 1825 -2221 0
707 739 -724 -305 0
1727 -569 -597 -1674 0
-1673 2036 -1307 -379 0
1349 1726 985 -699 0
-495 1228 551 261 0
1669 846 -330 -1135 0
698 656 618 1180 0
-228 -178 -1465 -1750 0
734 -1270 -1145 -1801 0
1240 218 1460 -1698 0
-430 -1886 -1103 623 0
-1659 1079 -1406 -1050 0
-931 132 -36 20 0
1677 1980 1548 -1432 0
20 95 -1478 1149 0
2230 -1044 -1680 -1874 0
-60 -321 1640 -1597 0
-1954 965 -375 -27 0
-890 1309 421 558 0
-454 -227 1133 1749 0
848 -1542 -638 -554 0
671 -120 1498 -887 0
1313 -503 -338 1548 0
-1169 1222 -499 -254 0
849 -716 55 -167 0
-955 560 915 1943 0
1955 -41 814 -1414 0
1694 926 -847 2139 0
1221 1210 1743 -133 0
-548 710 -1107 2007 0
2028 -1599 2172 -2056 0
1582 867 -1469 -360 0
-944 1432 -759 252 0
1380 -1331 -2216 -2071 0
-434 -1765 2207 -1198 0
-431 1618 -308 -1281 0
2192 388 -745 888 0
2113 -483 1447 -677 0
-422 561 1963 1411 0
-409 -1128 10 -1324 0
-201 2171 879 -508 0
490 1482 1497 444 0
1186 -1289 -1962 1406 0
1003 -1401 1728 -430 0
-1363 -1563 -1551 1425 0
-1055 780 274 2019 0
513 1095 -2165 2123 0
-1186 -1289 1962 1406 0
-521 1111 1412 -477 0
-1078 -482 1459 1558 0
2169 1198 426 1458 0
1434 381 102 246 0
-711 589 24 -1084 0
1390 -678 215 1615 0
-1096 2127 167 -1717 0
-1223 221 -1388 -1807 0
454 -227 1133 -1749 0
532 -1337 22 -1694 0
627 264 1985 785 0
1348 470 400 220 0
1257 819 -1479 -2039 0
-702 1495 -206 79 0
664 -395 1784 -1444 0
627 -264 -1985 785 0
1115 1052 832 -2039 0
-352 -842 -1668 1165 0
-892 1826 316 1509 0
1124 2043 -583 -60 0
1796 -1235 1748 1928 0
-1881 1992 -1732 -77 0
-1437 -1962 -2050 -1665 0
-1247 1411 -351 1184 0
-1952 1138 301 1366 0
-215 2228 872 2205 0
-2157 2178 2005 1767 0
1996 1476 -1178 -1053 0
-1436 -2085 655 -1608 0
360 -1648 251 -896 0
1095 938 377 -325 0
-1512 -196 -995 433 0
-849 716 55 -167 0
2145 1622 272 570 0
-162 142 -118 -747 0
-1777 1486 -280 -1325 0
1364 -701 1514 -103 0
-1383 838 -2167 2006 0
1037 -1367 -1234 527 0
1811 -1033 1076 950 0
387 598 801 -1287 0
-845 675 -662 -1695 0
-60 321 1640 1597 0
1245 -767 -544 1892 0
1039 -1685 1372 1870 0
-64 1507 -1884 -403 0
-1311 -538 -1101 -1158 0
345 1555 -1739 854 0
-294 -382 1721 -1422 0
1610 -1403 1110 -1731 0
-1556 -2096 -1433 -575 0
-208 862 2035 -913 0
163 -1437 204 -394 0
-908 2155 1301 1512 0
-1037 1367 1234 -527 0
-852 1806 2041 1429 0
1018 1981 -1916 461 0
-2043 -1898 -114 -2154 0
-798 -2097 1040 -2216 0
-1424 -270 1976 -1112 0
733 240 85 -2018 0
2161 399 -1412 417 0
1621 -875 1442 -2129 0
-2237 1693 -1796 -587 0
395 -967 -129 2105 0
-1860 1534 -1731 -2069 0
-1661 -184 -237 2142 0
1619 56 560 -941 0
-1245 -767 544 1892 0
2070 -207 -1272 1454 0
-2104 -581 1934 651 0
-4 -1370 435 -2022 0
1286 561 -914 1802 0
1125 -1654 6 1645 0
2026 -1961 505 2185 0
-331 1880 -439 590 0
-1121 -1058 2034 -2150 0
-1713 -185 359 53 0
495 1228 551 -261 0
418 -1034 1924 -1999 0
-2130 -1483 -616 -1570 0
1650 -2173 -1290 1275 0
479 -834 1240 -970 0
-2102 103 728 -169 0
1486 1422 -403 1903 0
-1331 1699 -1011 -1190 0
-684 -1641 -1760 40 0
-812 -1504 2081 1565 0
-1784 -1357 391 -107 0
-361 -1488 1577 1085 0
-239 -825 -1231 187 0
-966 -479 -1139 -176 0
-1292 -2190 -1651 730 0
1100 -1293 -30 2007 0
-1783 -734 1613 708 0
-648 -1380 -1662 -693 0
-836 1423 1811 1073 0
437 -128 964 1159 0
521 -1111 1412 -477 0
-1298 -2060 343 1610 0
638 1443 230 -692 0
7 2154 1116 -947 0
-1075 459 -1103 894 0
2149 -1921 -1020 -969 0
-1467 1663 -517 -1160 0
1740 709 1436 1435 0
-1491 1268 1084 1405 0
-1658 -1404 1342 1438 0
-358 -787 25 -745 0
-2181 -2212 -241 1564 0
1822 -622 -766 1355 0
-1123 2135 -1862 1235 0
-1148 540 1379 2081 0
-788 -1119 -681 1560 0
-1746 827 -1262 -1523 0
-206 -1777 1521 2189 0
661 318 824 2094 0
892 1826 -316 1509 0
-39 1562 -866 1825 0
-805 712 -1384 909 0
2026 1961 -505 2185 0
68 131 -169 354 0
-1783 -734 -1613 -708 0
1015 1463 -685 -346 0
1941 276 1306 135 0
-1616 -1362 1753 22 0
-2061 1341 1843 1480 0
-1754 -494 -92 -536 0
1487 496 1672 -378 0
575 78 1136 620 0
-2136 -202 1065 -2125 0
-121 213 -772 -1416 0
2013 605 -348 -214 0
854 1835 -1369 1449 0
1954 -965 375 27 0
-1957 478 45 526 0
-2101 355 -110 -1675 0
1402 -289 853 891 0
1051 1 -1287 953 0
996 -607 203 2025 0
1729 554 -833 -773 0
-874 2176 1377 -512 0
734 1270 1145 -1801 0
-2133 467 -565 -2084 0
-1990 -2161 1091 -2194 0
-637 1680 -683 -2111 0
1310 1088 930 855 0
-446 919 1391 -137 0
-122 -1987 1332 1758 0
-1335 2028 -923 1475 0
-2085 -764 -1279 366 0
1617 -725 -1262 -872 0
469 1871 -199 -1474 0
-228 178 1465 -1750 0
831 564 -1754 -1040 0
1191 -1879 1570 2077 0
1704 -1424 -1003 -1049 0
-1502 1892 1725 38 0
427 979 -986 591 0
-1913 -1009 417 1030 0
1542 1056 -1859 -643 0
1632 746 79 -1951 0
1946 1797 1960 96 0
-155 -123 -926 -1356 0
-520 2050 -796 1258 0
-584 -404 891 797 0
-760 1574 927 763 0
239 -825 1231 187 0
-1206 1159 1086 740 0
-1440 -813 -572 -2059 0
2171 -769 946 -1195 0
-1851 255 1668 -1393 0
931 -132 -36 20 0
-393 -2141 -2006 1835 0
-474 1077 -1516 -884 0
779 -278 -1200 -1144 0
-967 -674 -2000 1357 0
1326 1176 -1791 1468 0
-445 -418 1575 484 0
2131 -1604 413 1339 0
-708 1799 202 1899 0
-213 -595 -290 -105 0
2051 2001 319 -91 0
-2192 -388 -745 888 0
593 686 1361 -642 0
1193 2131 -722 -257 0
622 -2147 1207 2004 0
564 542 423 -2033 0
1935 1816 -166 -29 0
-1661 184 -237 -2142 0
-1028 696 442 -606 0
-360 1648 251 -896 0
215 2228 -872 2205 0
1876 -1583 -1946 2120 0
1909 518 -1393 -778 0
1368 -2103 959 -1178 0
369 -1936 374 -471 0
911 -1569 1204 1062 0
-1209 -287 1152 480 0
1466 1404 -559 -1479 0
1396 741 -1687 1089 0
1496 -1274 -959 -1503 0
-788 1119 -681 -1560 0
-1788 -1942 927 -1537 0
2174 314 -2023 -1484 0
2066 1704 1140 2100 0
302 -1414 -2177 -1832 0
500 -1471 112 1844 0
-1197 -106 -1156 492 0
1529 1986 -1800 -2052 0
1726 1989 -145 -1261 0
-1256 1211 1762 610 0
869 -2239 539 840 0
-238 2191 -2079 923 0
-798 -2097 -1040 2216 0
961 1601 1922 2188 0
-1310 1088 930 -855 0
1957 478 -45 526 0
1692 -1378 -1484 1557 0
460 -1759 623 248 0
1785 1967 915 1813 0
-1693 427 -1123 130 0
648 542 -2097 -741 0
1568 -1681 1700 935 0
-1637 -1155 -782 1916 0
513 1095 2165 -2123 0
72 876 1623 2113 0
963 -1860 908 1538 0
340 723 1005 -1576 0
-2149 -1921 1020 -969 0
188 1130 -646 999 0
659 -1127 -2141 -1739 0
861 247 726 -2239 0
-556 -238 -1955 1666 0
2140 268 2030 1877 0
-940 -811 1556 192 0
-1138 -27 -1945 -1540 0
364 -1231 883 1024 0
-673 -1689 2226 1273 0
-837 2048 1803 689 0
-115 -568 445 -1605 0
-360 -1648 251 896 0
1313 -503 338 -1548 0
68 131 169 -354 0
1885 -2148 -804 1284 0
708 -1799 -202 -1899 0
709 366 579 -2017 0
-1462 -2209 999 -1616 0
-217 -1587 1220 -829 0
-1578 1038 89 1634 0
-1402 -289 853 -891 0
-1208 -1615 -1674 11 0
1889 -159 1997 -809 0
-48 -1972 1068 219 0
-472 2095 -473 -1192 0
-2130 1483 616 -1570 0
1983 -2126 -1450 -1932 0
532 1337 -22 -1694 0
1240 218 -1460 1698 0
-1032 608 -2217 -1703 0
1215 -32 2088 -793 0
1629 -852 -1039 -207 0
-2235 587 -245 -297 0
1270 545 1899 408 0
-1757 363 966 -1288 0
1740 -709 -1436 1435 0
-1837 499 -916 -1345 0
1296 -781 1528 2238 0
1528 -580 -365 1715 0
331 1880 -439 -590 0
1923 1827 859 1527 0
-2187 2124 -249 -1621 0
-1639 -1426 758 290 0
-635 -871 -14 1705 0
-1530 -697 -788 -921 0
348 457 90 76 0
-144 2070 455 -1657 0
2234 -1943 -1506 315 0
1334 -1239 1958 1998 0
966 -479 -1139 176 0
2160 1150 942 -132 0
1521 1774 -1933 -731 0
116 545 -1409 420 0
-490 -1482 -1497 -444 0
1883 -311 50 -971 0
1667 -1533 334 73 0
1633 1387 -694 -1290 0
-2131 -1604 -413 1339 0
885 -2092 -1098 188 0
126 -1250 112 717 0
-224 -630 -1571 1890 0
1310 -1088 930 -855 0
599 1836 1903 1857 0
-1389 993 -687 -282 0
456 440 -1707 1945 0
-158 -537 -419 -666 0
779 278 1200 -1144 0
1552 -848 -1561 371 0
-301 -1954 -2053 267 0
-92 -209 1971 882 0
328 -1063 -273 -452 0
-1565 -1081 270 -89 0
1614 -172 1428 583 0
-1254 -1520 -333 531 0
-781 1566 -431 1215 0
146 1017 201 1849 0
-69 1146 1442 -1368 0
572 1307 1522 229 0
-952 -515 -1117 -982 0
-1619 56 -560 -941 0
-1364 701 1514 -103 0
-1398 2142 -1446 1239 0
-1152 -2179 842 2122 0
1897 -903 105 -1329 0
1652 -277 155 839 0
-1405 2073 152 -411 0
-414 1630 -2013 -364 0
-364 -1231 -883 1024 0
-1749 -107 2030 948 0
-1148 -540 -1379 2081 0
-713 1883 -1276 -586 0
-1443 810 -1099 1056 0
1507 1626 -1882 1721 0
449 491 1712 -223 0
-413 1776 -2118 636 0
-593 686 1361 642 0
1860 1534 -1731 2069 0
306 -179 -830 1980 0
1811 1033 1076 -950 0
919 2014 -161 -370 0
1864 1069 -1217 -1077 0
-1585 1330 -399 2114 0
-1552 848 -1561 371 0
-599 1836 1903 -1857 0
-1977 -1915 2230 -272 0
-1878 2002 -1490 1535 0
-2015 205 252 -2002 0
1064 1191 574 2119 0
1549 1415 1257 533 0
1405 -2073 -152 411 0
281 826 1277 -54 0
-173 -1296 -1085 -1036 0
736 345 -2132 992 0
-1201 -672 994 -670 0
191 1410 -406 1208 0
-224 -630 1571 -1890 0
1193 -2131 722 -257 0
-312 -2083 1136 -1487 0
845 675 -662 1695 0
414 1305 -1225 1047 0
-1942 2061 -1223 1866 0
-450 354 -1670 -386 0
2016 -586 2236 -849 0
-198 -512 -755 1219 0
1954 965 -375 27 0
332 616 815 -980 0
1278 -556 -302 -1128 0
1881 -1992 1732 77 0
-1662 -2163 804 -1687 0
-215 -2228 -872 2205 0
-1170 285 -1792 943 0
1207 -887 392 -1094 0
-1419 -1893 -1624 1855 0
-61 -2074 -62 -317 0
497 310 675 -129 0
1503 1053 2201 1316 0
1589 156 164 1253 0
-1392 195 -1058 1910 0
1023 -1560 -1594 1403 0
-1878 -2002 1490 1535 0
1109 658 -2027 752 0
393 -2141 -2006 -1835 0
-1923 1827 -859 1527 0
1436 2085 -655 1608 0
279 -1873 -1213 -119 0
-1586 1813 -728 450 0
-375 1350 1553 -1947 0
219 -309 1147 -1354 0
-958 -738 1519 1939 0
1080 332 1925 897 0
9 81 905 -1768 0
-1720 1966 -1509 -1828 0
-1217 -187 2233 -1002 0
1095 -938 377 325 0
-814 -576 900 2062 0
520 2050 -796 -1258 0
-387 598 801 1287 0
1498 1115 -1347 1471 0
2224 808 1457 276 0
1757 -363 -966 1288 0
221 2029 48 1843 0
405 2183 865 -945 0
-1328 -1549 -2099 -1466 0
1302 -1645 541 1988 0
2145 -1622 272 -570 0
1139 -1698 -338 944 0
758 1419 -1008 608 0
-395 967 -129 2105 0
1254 -1520 333 531 0
-352 -842 1668 -1165 0
-1847 1881 -1492 682 0
-1772 1236 118 -258 0
-526 303 -466 367 0
-622 2147 1207 2004 0
2200 1996 -821 -458 0
208 -862 -2035 913 0
185 -1481 -293 2204 0
-2224 808 -1457 276 0
2166 1129 -1814 -1236 0
709 -366 -579 -2017 0
-1590 -1791 -1082 -1725 0
1654 1766 1216 -705 0
-770 807 761 -886 0
1078 -649 -1541 -216 0
2102 103 -728 -169 0
-1708 -3 -1448 -1206 0
2068 1911 275 663 0
1746 -827 1262 1523 0
2206 -324 1456 841 0
-1210 604 -1004 -198 0
-1224 -1606 -2183 2199 0
-622 -2147 -1207 2004 0
-661 318 824 -2094 0
-1856 -1186 1399 -1249 0
435 519 1676 -344 0
774 -731 -1518 1697 0
1884 -2032 -1788 1022 0
1983 -2126 1450 1932 0
-1973 -1682 225 -1306 0
415 -945 299 -1745 0
-63 1042 1781 -626 0
-765 -1026 2158 -930 0
1010 -2056 368 1353 0
766 1232 -45 2003 0
1254 1520 -333 531 0
1549 1415 -1257 -533 0
1383 838 -2167 -2006 0
-489 376 -2151 949 0
-2069 -1243 -1418 501 0
-978 -1723 -2208 -1107 0
-2149 1921 -1020 -969 0
1586 -1813 -728 450 0
-515 -755 -1006 1746 0
1394 577 653 1778 0
2166 -1129 1814 -1236 0
1503 1053 -2201 -1316 0
849 716 -55 -167 0
456 -440 -1707 -1945 0
1503 -1053 2201 -1316 0
735 -1375 -2163 1400 0
1827 626 -1104 1051 0
-1997 -19 -613 -629 0
502 632 -1609 -341 0
-753 1001 -744 2225 0
1119 -798 789 -171 0
414 -1305 -1225 -1047 0
-1051 1 1287 953 0
-609 660 1370 -2053 0
506 -1874 1763 1929 0
-121 -213 772 -1416 0
1161 -1365 -1087 -1623 0
-1822 -898 -1094 1840 0
532 -1337 -22 1694 0
-243 -603 -84 1114 0
-814 -576 -900 -2062 0
1374 2058 383 2102 0
-776 -492 -1090 -989 0
114 1444 948 373 0
1530 -697 788 -921 0
-1769 -340 389 -1338 0
418 -1034 -1924 1999 0
-1604 465 -295 873 0
140 1718 -433 124 0
-157 590 -727 991 0
-428 1691 1620 2164 0
-2078 997 677 1544 0
2237 -1693 1796 587 0
698 656 -618 -1180 0
495 1228 -551 261 0
-1907 -762 2201 2144 0
1993 521 662 -1330 0
-1735 -1538 -501 -1185 0
-135 -1684 -2170 663 0
-457 -1260 16 -2134 0
2010 -1630 239 -1372 0
-1131 -1227 1049 1108 0
2055 344 826 -183 0
-721 1241 1413 1567 0
551 -792 469 -871 0
1604 465 295 873 0
414 -1305 1225 1047 0
185 -1481 293 -2204 0
1015 -1463 -685 346 0
-581 -235 2047 1612 0
2100 -1728 -636 910 0
402 -2162 610 -857 0
-2102 -103 728 169 0
-1994 -1108 1824 -1755 0
-654 -1768 82 -1184 0
-1796 1235 -1748 -1928 0
-380 -2123 906 -1365 0
327 -588 -558 1956 0
1185 -1971 -511 -1948 0
471 468 -1966 -1242 0
-1276 1953 55 -1346 0
-1634 1112 1227 -194 0
-508 1426 1855 1179 0
-471 468 1966 -1242 0
-435 519 -1676 -344 0
1558 543 -1572 -251 0
-810 706 -1546 -1636 0
-664 -395 -1784 -1444 0
-2080 -2222 1205 -624 0
709 -366 579 2017 0
49 -549 -1511 -823 0
1784 1357 391 -107 0
-1889 786 -1910 443 0
-1655 -743 480 1360 0
65 174 401 1977 0
-446 919 -1391 137 0
-61 -2074 62 317 0
1224 -1606 2183 2199 0
-1526 1408 -353 1440 0
1529 1986 1800 2052 0
1220 -192 62 -2159 0
-2021 -1747 1027 459 0
564 -542 -423 -2033 0
1677 -1980 1548 1432 0
-460 1759 623 248 0
1177 -175 -462 -844 0
-1722 -1010 1335 -867 0
-382 72 -599 997 0
-1141 1100 312 -2096 0
1617 725 1262 -872 0
1346 1717 744 377 0
1070 -15 1118 -507 0
2015 -205 -252 2002 0
1807 -398 1068 -858 0
791 1895 36 337 0
1157 495 818 -2037 0
-66 1468 -100 2229 0
-634 -1267 1532 -1502 0
-822 -1906 -977 -1531 0
1585 -1330 -399 2114 0
-513 -1095 2165 -2123 0
-1441 2045 1672 -245 0
-904 -816 -1831 813 0
190 -629 937 263 0
394 1258 308 -421 0
-1510 761 1793 1430 0
895 1228 1201 1269 0
2132 10 2177 333 0
1989 868 434 -1821 0
-778 -1760 1165 2197 0
1902 -1439 -44 -93 0
992 143 -1324 -896 0
186 -1875 -584 -181 0
1072 1096 -2153 -938 0
186 1875 -584 181 0
-1467 1663 517 1160 0
-237 996 -441 1012 0
2135 -1589 -1950 986 0
1034 1359 1948 912 0
-2165 -1072 -1951 -1524 0
-1181 -2011 1130 1753 0
-1735 1538 501 -1185 0
-899 425 -931 1014 0
-1894 644 313 -401 0
-684 1824 -266 -1918 0
-674 -1349 177 1709 0
-1168 -405 437 1033 0
-2104 581 1934 -651 0
-447 1815 493 -2197 0
-1185 -1971 511 -1948 0
-1556 2096 -1433 575 0
-2108 1848 97 1485 0
-191 1513 -1196 -701 0
-1729 -554 833 773 0
-1051 -1 -1287 953 0
494 423 1517 124 0
361 -1488 -1577 1085 0
-1064 1315 2130 775 0
564 -542 423 2033 0
-477 1030 1839 1216 0
1139 -1698 338 -944 0
-449 491 -1712 -223 0
1828 1800 1930 -284 0
-427 -979 986 -591 0
-798 2097 -1040 -2216 0
2085 764 -1279 366 0
-18 1573 -1593 2091 0
191 -1513 -1196 -701 0
1913 -1009 417 -1030 0
1772 -1236 118 -258 0
-461 1982 -309 1736 0
1804 -1399 -372 1742 0
-946 -1854 1179 595 0
-1807 398 1068 -858 0
1437 -1962 2050 -1665 0
1034 1359 -1948 -912 0
1722 1010 1335 -867 0
1071 341 -528 517 0
-1124 -2043 -583 -60 0
-822 1906 -977 1531 0
-2061 -1341 1843 -1480 0
-1245 767 544 -1892 0
-1793 -928 2193 1515 0
821 26 -1970 -358 0
154 1625 2139 -1501 0
-1095 938 -377 -325 0
-219 309 1147 -1354 0
-797 1819 1974 1285 0
-1072 1096 -2153 938 0
-6 -2180 -969 1060 0
1349 -1726 985 699 0
-661 -318 -824 -2094 0
-1885 2148 -804 1284 0
578 -1002 -883 356 0
-1238 -1045 -2108 -1765 0
698 2223 -1496 -1146 0
1097 -1525 -1638 -1189 0
778 1760 1165 2197 0
-1781 -1952 2018 609 0
-894 248 557 -2116 0
-1754 -494 92 536 0
742 -719 1417 1772 0
-1540 -283 80 -1679 0
1587 -2109 940 652 0
1957 -478 -45 -526 0
-2192 388 745 888 0
2000 699 1825 2221 0
-185 1481 -293 2204 0
50 1837 753 1953 0
-862 -1833 1319 -627 0
-1622 -1920 885 -2209 0
-1528 -580 365 1715 0
-1722 1010 1335 867 0
13 1162 1489 1111 0
-819 -498 -1255 1846 0
2136 -2196 -1554 1291 0
778 -1760 1165 -2197 0
-1233 -1028 -1493 1833 0
135 -1684 2170 663 0
1003 1401 -1728 -430 0
1063 863 -907 1341 0
-186 -1875 -584 181 0
-2220 -2186 2226 -765 0
648 -1380 -1662 693 0
1793 928 -2193 -1515 0
-2055 -344 826 -183 0
1278 556 -302 1128 0
-293 208 1838 1246 0
1693 427 1123 130 0
166 1761 -113 1561 0
697 -2071 171 983 0
1724 1199 1628 553 0
-1983 256 -639 -35 0
1380 1331 2216 -2071 0
-1757 -363 966 1288 0
387 -598 -801 -1287 0
1383 -838 -2167 2006 0
-2126 46 -304 -1627 0
-1693 -427 1123 130 0
279 1873 -1213 119 0
-253 -2091 1041 -1164 0
967 674 -2000 1357 0
-1900 1568 329 -175 0
-20 -95 1478 -1149 0
-1332 -1062 925 178 0
-592 1288 2009 -374 0
978 1723 -2208 -1107 0
1224 -1606 -2183 -2199 0
972 -589 1652 152 0
239 825 1231 -187 0
-1967 -682 -1670 -917 0
-1724 618 1907 1274 0
345 1555 1739 -854 0
408 2125 856 -151 0
-566 -688 2190 -973 0
-671 -120 1498 887 0
-944 1432 759 -252 0
2166 1129 1814 1236 0
-232 -737 -1928 -297 0
-291 -2203 -331 172 0
-1902 -1439 -44 93 0
2222 -97 1320 1211 0
-1037 1367 -1234 527 0
-1777 -1486 -280 1325 0
735 1375 2163 1400 0
-522 -924 1644 -416 0
523 231 869 -1871 0
331 1880 439 590 0
1772 1236 -118 -258 0
2215 -1265 1149 -1202 0
-1117 -679 827 1940 0
-838 2185 507 -1127 0
-901 -1329 -1416 657 0
2235 -587 -245 -297 0
1901 -1723 -2237 -1441 0
-995 -1517 1387 209 0
-710 650 -1037 127 0
-841 534 -1188 99 0
70 621 1297 1209 0
-88 -2073 751 1431 0
-819 -498 1255 -1846 0
802 539 -199 -1234 0
-575 -78 1136 620 0
-1405 -2073 152 411 0
599 1836 -1903 -1857 0
1633 1387 694 1290 0
729 817 504 -1421 0
-84 -144 1059 -1305 0
-246 -881 1703 1172 0
293 208 1838 -1246 0
-838 -2185 -507 -1127 0
-522 -924 -1644 416 0
1877 -373 1226 1116 0
869 2239 -539 840 0
-1089 -1284 -1594 343 0
-2192 388 -745 -888 0
940 -811 1556 -192 0
-1659 -1079 1406 -1050 0
-976 -1513 -1283 -1992 0
-387 598 -801 -1287 0
-2184 -2240 281 968 0
676 -1475 1666 756 0
602 -1643 -472 182 0
2087 -2089 1044 570 0
1209 -287 -1152 480 0
-453 2195 1745 1894 0
-429 2031 -47 1761 0
-821 26 1970 -358 0
668 -18 -2037 -895 0
-2145 -1622 272 570 0
-389 -1823 2076 104 0
750 -897 1120 336 0
526 -303 -466 367 0
-684 1641 1760 40 0
-1724 -1199 1628 553 0
-1132 214 1024 2227 0
-350 -58 1242 -1321 0
-1888 1131 2066 -266 0
73 -1752 1226 1395 0
-1639 1426 758 -290 0
-1635 -1294 632 210 0
-472 -2095 -473 1192 0
2184 74 -165 -436 0
1005 -1074 -721 -1823 0
2119 1340 -1664 -38 0
-520 -2050 796 1258 0
1091 -691 754 1614 0
1812 328 2231 -1770 0
446 -919 1391 -137 0
1470 141 1581 -1241 0
2218 -667 1818 -1991 0
-874 -2176 -1377 -512 0
-691 7 -1124 1741 0
406 -597 383 1514 0
1729 -554 833 -773 0
-1673 -2036 1307 -379 0
571 -1283 -2095 -1183 0
69 1146 -1442 -1368 0
-1350 -1434 1055 -1167 0
-2235 -587 245 -297 0
-1727 569 -597 -1674 0
-2136 -202 -1065 2125 0
-1641 1888 960 -493 0
791 -1895 -36 337 0
2108 -1848 97 1485 0
1175 -2034 1013 -1850 0
767 1463 -158 1577 0
-1488 1245 1590 -546 0
1831 -1522 -1465 -954 0
-481 -1748 2219 1598 0
-1486 1422 403 1903 0
-58 -1193 -795 -1759 0
-1390 678 -215 -1615 0
-138 1114 1092 -578 0
58 1193 795 1759 0
364 1231 883 -1024 0
911 -1569 -1204 -1062 0
-1827 626 1104 1051 0
-862 -1833 -1319 627 0
409 -1128 10 1324 0
-1374 2058 -383 2102 0
1121 -1058 -2034 -2150 0
1907 -762 -2201 2144 0
422 -159 1817 -1392 0
-2072 74 509 1333 0
-228 -178 1465 1750 0
-1704 1424 1003 1049 0
1356 -1501 -1763 -653 0
1711 1762 -624 -1678 0
-1901 1723 -2237 -1441 0
-778 1760 -1165 2197 0
1171 324 1302 1054 0
-527 1779 -840 -396 0
-190 -629 937 -263 0
-204 -2213 1309 -1280 0
1967 -682 1670 -917 0
389 -1823 2076 -104 0
-53 1764 652 1838 0
1132 -214 -1024 -2227 0
-1326 -1176 -1791 1468 0
150 -335 -717 -665 0
1260 1308 -451 -1937 0
277 2117 -567 -24 0
415 945 299 1745 0
1622 1920 -885 2209 0
998 -1959 -1752 268 0
1977 1915 -2230 272 0
733 240 -85 2018 0
-1298 2060 343 -1610 0
893 -1073 2111 125 0
-414 -1305 -1225 1047 0
1841 -1580 -748 1446 0
-955 -560 915 -1943 0
-479 -834 -1240 -970 0
1851 -255 -1668 1393 0
-814 576 -900 2062 0
-2133 467 565 2084 0
154 -1625 -2139 -1501 0
-4 1370 435 2022 0
-1602 262 -2016 -686 0
-41 -1369 1300 -2079 0
-634 1267 -1532 -1502 0
-520 2050 796 -1258 0
435 -519 1676 344 0
1036 546 1326 -365 0
864 -863 1451 -23 0
-1662 2163 804 1687 0
702 1495 -206 -79 0
322 134 76 2227 0
-267 2022 -1979 1553 0
572 -1307 -1522 229 0
-1327 51 1730 -1875 0
-218 -113 -1834 -108 0
83 -1090 87 240 0
-837 2048 -1803 -689 0
1826 -432 -538 -833 0
-1079 -843 1500 737 0
-2082 1083 -525 275 0
-607 680 386 -1858 0
53 1764 -652 1838 0
-532 1337 22 -1694 0
-72 876 -1623 2113 0
-1010 2056 368 1353 0
58 -1193 -795 1759 0
1624 -1510 771 -1066 0
637 1680 -683 2111 0
-1097 1525 -1638 -1189 0
1653 1868 2121 768 0
140 -1718 433 124 0
-1118 1940 -738 1617 0
-1119 -798 -789 -171 0
-1143 1896 2012 200 0
340 723 -1005 1576 0
2225 325 1926 906 0
-1008 -1066 -881 -1707 0
-1767 -1082 2229 -1532 0
-797 -1819 1974 -1285 0
1676 -1264 1277 -1035 0
-2172 139 -756 -649 0
-1487 -496 1672 -378 0
1663 1310 1109 -1671 0
-2208 -30 2045 -2083 0
457 1260 -16 2134 0
736 -1961 -659 -1520 0
-450 -354 1670 -386 0
2108 1848 -97 1485 0
2012 2236 -1361 625 0
141 -1730 672 628 0
-857 -1678 -1308 94 0
406 597 -383 1514 0
1061 1918 -806 -1297 0
413 -1776 -2118 636 0
-912 -694 -882 -1420 0
-439 1852 -86 1649 0
1407 -651 1273 1026 0
919 2014 161 370 0
1099 -1842 -2008 592 0
-1487 496 1672 378 0
-1812 2048 -1453 -385 0
911 -2054 -286 2156 0
1013 1338 -1974 265 0
-724 -922 416 -1224 0
-1175 555 -1769 -195 0
-106 165 -550 1969 0
-239 825 1231 187 0
975 1464 1080 -2210 0
-427 979 986 591 0
-1692 -1378 1484 1557 0
1348 -470 400 -220 0
1954 965 375 -27 0
277 -2117 -567 24 0
-1794 -1735 -1212 1359 0
508 -1426 1855 1179 0
678 1248 941 2234 0
865 1214 -1702 -128 0
1718 -2033 -1396 -2060 0
-576 -393 -1105 -1300 0
2098 1286 -1402 1247 0
892 -1826 316 1509 0
-1210 604 1004 198 0
529 1547 1642 -1719 0
1996 -1476 1178 -1053 0
-2082 -1083 -525 -275 0
789 -831 -1021 2146 0
-1278 -556 302 -1128 0
1021 536 -1418 511 0
497 310 -675 129 0
1692 -1378 1484 -1557 0
-208 862 -2035 913 0
-1673 -2036 -1307 379 0
-2156 -2094 -904 -353 0
2140 -268 -2030 1877 0
-13 1162 -1489 1111 0
1440 813 -572 -2059 0
-49 -549 1511 -823 0
48 1972 1068 219 0
-1048 486 -323 2063 0
-1836 380 -269 -876 0
-522 924 1644 416 0
757 1611 614 -1887 0
-75 1244 1998 1177 0
-285 -707 -52 -924 0
-1897 903 -105 1329 0
-460 -1759 -623 248 0
1391 -1686 1790 -803 0
-64 -1507 -1884 403 0
-1326 -1176 1791 -1468 0
-456 440 1707 1945 0
-1621 -875 -1442 -2129 0
2145 1622 -272 -570 0
1067 -1919 1031 -180 0
443 -2150 -1820 -1456 0
-811 -1322 -1141 1154 0
1080 -332 -1925 897 0
622 2147 -1207 2004 0
1015 1463 685 346 0
-1204 1382 -1535 -2 0
-864 -863 -1451 -23 0
817 901 -438 1865 0
-34 1656 -2020 -190 0
-1811 1033 1076 950 0
1924 -1794 878 695 0
870 -2162 138 749 0
-1688 824 1885 1375 0
-1794 1735 1212 1359 0
751 -972 -300 -2011 0
-1042 1366 -1679 -71 0
1876 -1583 1946 -2120 0
-1521 1774 -1933 731 0
-1555 1582 -2128 143 0
772 1639 -1032 355 0
2208 30 2045 -2083 0
-1633 -1387 694 1290 0
-1171 324 -1302 1054 0
-31 -1661 -573 -1782 0
-987 -1038 2042 518 0
815 98 -1016 790 0
643 316 284 -773 0
2061 -1341 1843 1480 0
184 -2025 -880 -1580 0
-726 -829 -1779 -61 0
-1934 -2214 5 1689 0
114 -1444 -948 373 0
-1193 2131 -722 257 0
-429 -2031 47 1761 0
899 425 931 1014 0
-48 -1972 -1068 -219 0
-410 1912 1219 -952 0
-1160 2198 1653 -2027 0
-446 -919 1391 137 0
-447 1815 -493 2197 0
447 -1815 -493 2197 0
2051 -2001 319 91 0
312 2083 1136 -1487 0
998 1959 -1752 -268 0
661 816 735 -1452 0
-602 1643 -472 182 0
1658 -2063 2164 -2099 0
1080 332 -1925 -897 0
-406 597 -383 -1514 0
1840 1351 -688 2152 0
18 -1573 -1593 2091 0
912 -694 882 -1420 0
-2235 587 245 297 0
1578 1504 1909 -1815 0
766 1232 45 -2003 0
1389 -993 -687 -282 0
-1434 381 -102 246 0
1462 2209 999 -1616 0
-1419 1893 -1624 -1855 0
523 -231 -869 -1871 0
1920 -67 -2117 2089 0
-770 807 -761 886 0
1255 -2004 2003 303 0
342 973 -1601 -573 0
138 1114 -1092 -578 0
1954 -965 -375 -27 0
830 29 1158 503 0
-1368 -2103 -959 -1178 0
-2218 667 1818 -1991 0
1143 -467 -1169 -2086 0
1196 -77 -1853 2110 0
934 1592 -2038 888 0
-607 -680 386 1858 0
-1994 1108 1824 1755 0
1528 580 -365 -1715 0
450 354 -1670 386 0
208 862 -2035 -913 0
1254 1520 333 -531 0
893 1073 -2111 125 0
114 1444 -948 -373 0
1427 687 -2044 1060 0
-976 1513 -1283 1992 0
-1313 503 -338 1548 0
-1610 1403 1110 -1731 0
-1109 658 -2027 -752 0
-535 -154 453 577 0
-1983 2126 -1450 -1932 0
-1347 1805 1373 -1682 0
-1276 -1953 55 1346 0
-1039 -1685 -1372 1870 0
438 -121 2101 732 0
1957 478 45 -526 0
17 -1711 8 -451 0
-691 -7 1124 1741 0
-634 1267 1532 1502 0
-890 -1309 -421 558 0
814 -576 -900 2062 0
943 305 950 125 0
-861 247 726 2239 0
304 -553 -656 -639 0
-736 -345 -2132 992 0
603 -1657 690 -1295 0
-1540 283 -80 -1679 0
-1157 495 818 2037 0
1012 935 -703 936 0
-1864 1069 1217 -1077 0
206 -1777 1521 -2189 0
-2211 -1046 1485 -1256 0
-917 -1858 -1978 880 0
1385 2086 625 716 0
1837 499 -916 1345 0
1160 -2198 -1653 2027 0
-294 382 1721 1422 0
-477 1030 -1839 -1216 0
-928 886 563 2019 0
1603 -535 -2199 -415 0
1655 -743 480 -1360 0
1957 -478 45 526 0
1544 956 -2175 -1135 0
-1438 -109 -225 -2170 0
-689 -1018 147 -2231 0
-1207 887 -392 1094 0
198 -512 -755 -1219 0
-524 -918 -318 -286 0
-201 -2171 -879 -508 0
422 -159 -1817 1392 0
996 607 -203 2025 0
163 -1289 1696 -372 0
-2138 1931 148 1301 0
-922 1394 1603 101 0
-350 -58 -1242 1321 0
1352 1397 1343 -1265 0
-1409 777 -1303 398 0
1975 -357 1314 -189 0
865 -1214 1702 -128 0
2106 436 -54 -619 0
1209 287 -1152 -480 0
73 1752 -1226 1395 0
-869 2239 -539 -840 0
9 -81 -905 -1768 0
874 -1727 -326 1006 0
339 -563 598 -1808 0
-327 588 -558 1956 0
1699 -1758 1750 42 0
-1920 -67 -2117 -2089 0
414 -1630 -2013 -364 0
350 58 -1242 1321 0
811 1322 1141 -1154 0
1035 619 -1384 2041 0
1181 2011 1130 1753 0
609 -660 1370 -2053 0
673 -1689 -2226 1273 0
-1191 1879 -1570 -2077 0
-1649 1891 2020 -613 0
-1929 -1778 -683 -1660 0
843 119 -378 2235 0
-2015 -205 -252 -2002 0
-2155 1298 140 1534 0
-2026 1961 -505 -2185 0
1487 -496 1672 378 0
1407 651 -1273 1026 0
974 -2189 800 -330 0
1495 -1857 1325 -877 0
1709 -1667 -998 145 0
-2200 -1996 821 458 0
280 -64 1789 1774 0
-1900 -1568 329 175 0
2068 -1911 -275 663 0
-1508 -2140 -1545 227 0
1020 -2044 -981 -1656 0
-1224 -1606 2183 -2199 0
-1783 734 -1613 708 0
947 193 -1395 1744 0
1260 -1308 -451 1937 0
-535 154 453 -577 0
1544 -956 -2175 1135 0
-173 -1296 1085 1036 0
-811 1322 1141 1154 0
1161 1365 -1087 1623 0
1266 37 -1491 2068 0
1257 -819 1479 -2039 0
-1773 -585 153 -646 0
-1832 531 -900 614 0
1005 -1074 721 1823 0
-567 2087 506 123 0
253 2091 -1041 1164 0
1842 369 1122 706 0
380 2123 906 -1365 0
92 -209 -1971 882 0
1790 -2122 296 -1851 0
-574 1536 -349 631 0
-2153 -1472 -168 -1968 0
-186 1875 -584 -181 0
1812 -328 2231 1770 0
556 238 -1955 1666 0
217 -1587 1220 829 0
-120 2147 -498 -1052 0
-1238 2211 211 322 0
-2160 -1150 -942 132 0
-862 1833 -1319 -627 0
1203 -1031 -1447 -2175 0
-911 -1569 1204 -1062 0
-1947 1584 339 -274 0
2069 1243 1418 -501 0
678 1248 -941 -2234 0
191 -1410 -406 -1208 0
-1830 -851 2176 1004 0
524 918 -318 -286 0
402 -1046 -1025 134 0
1669 -846 -330 1135 0
-753 -1001 -744 -2225 0
-388 288 2232 292 0
1934 -2214 5 -1689 0
-454 -227 -1133 -1749 0
2192 26 -1461 -1476 0
31 1661 573 1782 0
471 -468 -1966 1242 0
6 -2180 969 1060 0
-1747 -1144 557 -1600 0
-1013 1338 1974 265 0
-1427 687 2044 1060 0
514 1757 850 432 0
-870 -243 94 1596 0
215 2228 872 -2205 0
-1221 1210 1743 133 0
1604 -465 295 -873 0
-1091 -691 -754 1614 0
111 533 -1771 126 0
1551 2049 1647 978 0
2010 1630 239 1372 0
-2171 -769 -946 -1195 0
-2107 860 454 -1320 0
-911 -2054 286 2156 0
425 -2047 -1150 -547 0
567 -2087 506 123 0
-70 -621 -1297 -1209 0
-709 -366 -579 2017 0
65 174 -401 -1977 0
-912 694 882 -1420 0
1686 -161 -2179 1360 0
-1218 1786 1467 -1263 0
-200 1605 -642 -1275 0
-453 -2195 1745 -1894 0
1266 37 1491 -2068 0
-1321 1720 -1529 -722 0
-1457 -1323 718 1142 0
-1573 181 -1285 1751 0
-1401 -1358 1075 -1976 0
1488 -1245 1590 -546 0
-1161 -1365 1087 -1623 0
1941 276 -1306 -135 0
-2180 -1389 1913 1766 0
-1837 499 916 1345 0
-410 -1912 -1219 -952 0
-917 1858 1978 880 0
-2195 -532 65 -1625 0
163 1289 -1696 -372 0
-1905 -1740 216 1683 0
-1589 -156 -164 -1253 0
1832 -531 -900 614 0
2085 -764 -1279 -366 0
1493 -1102 1189 1157 0
1196 77 1853 2110 0
574 -1536 349 -631 0
-1394 577 653 -1778 0
1143 -467 1169 2086 0
-2180 -1389 -1913 -1766 0
-600 1019 -2152 -342 0
35 -1180 2112 -1810 0
-593 686 -1361 -642 0
191 -1410 406 1208 0
-1063 863 -907 -1341 0
848 -1542 638 554 0
-676 1475 1666 756 0
951 1421 -747 -2182 0
-739 101 1660 -893 0
-1118 -1940 738 1617 0
544 -666 1536 1664 0
-572 1307 1522 -229 0
237 -996 -441 1012 0
-1427 -687 2044 -1060 0
-1139 -1698 -338 -944 0
-149 1014 1371 -791 0
1654 -1766 -1216 -705 0
300 839 1362 847 0
1037 -1367 1234 -527 0
-1551 2049 1647 -978 0
2121 -942 -1478 -298 0
-2017 336 640 -611 0
1602 262 -2016 686 0
-911 2054 286 -2156 0
224 630 1571 -1890 0
447 1815 -493 -2197 0
-1854 -742 -1897 -617 0
-224 630 -1571 -1890 0
1131 1227 -1049 -1108 0
-758 1419 1008 608 0
-776 -492 1090 989 0
1021 -536 1418 511 0
-1012 -935 703 -936 0
-445 418 1575 -484 0
-592 -1288 2009 374 0
1071 -341 -528 -517 0
25 -2038 -142 1129 0
449 -491 1712 223 0
-1782 2188 -1681 441 0
605 1710 2134 -1225 0
-1693 -427 -1123 -130 0
698 -656 618 -1180 0
-1727 -569 597 -1674 0
1936 -350 -460 -1543 0
771 -1515 -440 -80 0
868 -1045 -1559 1690 0
1078 482 1459 1558 0
-1581 -670 234 -1985 0
2153 -1472 -168 1968 0
-843 119 -378 -2235 0
273 -23 -1995 774 0
-908 2155 -1301 -1512 0
-1363 1563 -1551 -1425 0
1252 -2200 -657 -448 0
-1323 150 1048 1927 0
1881 1992 1732 -77 0
2121 942 1478 -298 0
-1772 1236 -118 258 0
122 1987 -1332 -1758 0
1941 -276 1306 -135 0
-1631 -385 763 799 0
-461 -1982 309 1736 0
2026 1961 505 -2185 0
-184 2025 -880 -1580 0
166 -1761 113 1561 0
1688 824 -1885 1375 0
2215 -1265 -1149 1202 0
92 -209 1971 -882 0
684 -1824 -266 -1918 0
-648 1380 1662 -693 0
691 7 1124 1741 0
-1208 1615 1674 11 0
-154 1625 -2139 -1501 0
271 -796 -1618 -2088 0
1437 1962 -2050 -1665 0
-390 990 1949 1367 0
689 1018 147 -2231 0
-1956 -100 -1280 2005 0
-1396 -741 -1687 1089 0
429 2031 47 1761 0
-494 423 1517 -124 0
-2104 581 -1934 651 0
1095 938 -377 325 0
179 -1816 -2036 2031 0
1170 2014 -59 -3 0
1214 -522 -224 -1606 0
1879 634 822 -1340 0
48 -1972 -1068 219 0
-1252 -2200 -657 448 0
714 -2 1984 925 0
600 1019 2152 -342 0
1204 -1382 -1535 -2 0
-564 -542 -423 2033 0
-1278 556 302 1128 0
253 -2091 -1041 -1164 0
163 1437 -204 -394 0
-949 -2217 1675 102 0
1017 -1229 -110 2151 0
-2070 207 -1272 1454 0
-2028 -1599 -2172 -2056 0
-2174 -314 2023 1484 0
2220 -2186 2226 765 0
635 -871 -14 -1705 0
-16 -17 641 -2169 0
976 1513 1283 1992 0
-919 2014 -161 370 0
-526 -303 -466 -367 0
-1138 -27 1945 1540 0
917 1858 -1978 880 0
1616 1362 1753 22 0
627 -264 1985 -785 0
-1302 -1645 -541 1988 0
724 -922 416 1224 0
-841 -534 -1188 -99 0
-789 -831 -1021 -2146 0
-1302 -1645 541 -1988 0
-2206 786 2075 -19 0
464 -1050 -1665 -582 0
2015 205 -252 -2002 0
41 1369 -1300 2079 0
-1952 1138 -301 -1366 0
580 1804 -1566 -2065 0
431 -1618 308 1281 0
-1555 -1582 -2128 -143 0
1556 2096 -1433 -575 0
-2119 -1340 1664 38 0
4 1370 435 -2022 0
-902 1126 -740 -2174 0
901 1329 -1416 657 0
769 617 258 951 0
1438 -109 225 -2170 0
-2138 -1931 148 -1301 0
567 2087 506 -123 0
-2026 -1961 505 -2185 0
-1410 1390 2110 1619 0
-520 -2050 -796 -1258 0
9 -81 905 1768 0
-495 -1228 551 -261 0
222 2202 704 475 0
-1311 538 1101 -1158 0
16 17 -641 2169 0
-572 1307 -1522 229 0
1139 1698 -338 -944 0
-1652 -277 155 -839 0
-987 1583 -194 -1994 0
594 1609 69 2124 0
-2195 532 -65 -1625 0
-684 1824 266 1918 0
470 -565 1919 1968 0
634 -1267 -1532 -1502 0
-228 178 -1465 1750 0
-1405 -2073 -152 -411 0
163 -1289 -1696 372 0
-1304 -1845 -491 1511 0
1214 -522 224 1606 0
2115 920 -1163 -1626 0
-673 1689 2226 -1273 0
-1694 926 847 2139 0
949 -2217 1675 -102 0
-2218 -667 1818 1991 0
2035 -1233 633 -1097 0
-1099 -1842 -2008 -592 0
-1804 1399 372 -1742 0
1931 196 1595 -1633 0
601 -1192 748 -1334 0
841 -534 -1188 99 0
-1204 -1382 1535 -2 0
1862 197 2219 793 0
-904 -816 1831 -813 0
1775 -43 -1602 -148 0
-2085 764 -1279 -366 0
1429 -909 1642 -1272 0
-1170 -2014 59 3 0
412 -2026 -1254 1611 0
1718 2033 1396 -2060 0
-400 -180 -1087 -483 0
-1688 -1706 -1798 -918 0
1663 1310 -1109 1671 0
1389 993 -687 282 0
-968 -1527 -183 -953 0
-221 2029 48 -1843 0
-1170 2014 59 -3 0
-599 -1836 -1903 -1857 0
-1503 1053 2201 -1316 0
1635 -1294 632 -210 0
537 -1965 1230 685 0
-1171 -1125 -99 -2149 0
-484 828 971 -878 0
-1496 -1274 959 -1503 0
-1214 522 224 1606 0
-665 -1844 1373 -407 0
-70 621 1297 -1209 0
946 -1854 -1179 595 0
-1785 -1853 -1847 -56 0
1268 1941 510 -1911 0
1526 -1408 -353 1440 0
575 78 -1136 -620 0
2187 2124 -249 1621 0
1440 813 572 2059 0
-1016 -1908 704 1964 0
369 1936 374 471 0
894 248 -557 -2116 0
72 876 -1623 -2113 0
-792 1525 523 -818 0
2149 -1921 1020 969 0
-87 1197 529 -712 0
1780 -1408 1677 205 0
-874 1727 326 -1006 0
988 -1251 244 -1799 0
2153 1472 -168 -1968 0
723 117 2093 -914 0
-312 2083 1136 1487 0
-1925 -790 -640 -2202 0
1032 -608 2217 1703 0
1170 285 -1792 -943 0
1477 -2046 -543 -2001 0
-329 -794 1232 -1153 0
-1894 644 -313 401 0
-191 1410 -406 -1208 0
1863 220 1926 1161 0
-1188 -81 2143 -1921 0
2205 -326 -1523 11 0
-2042 -2120 1043 -255 0
-527 1779 840 396 0
1718 2033 -1396 2060 0
-709 366 -579 -2017 0
-144 -2070 455 1657 0
-1832 -531 -900 -614 0
262 828 -713 1237 0
-262 -828 -713 1237 0
-121 -213 -772 1416 0
-1496 1274 -959 -1503 0
1213 1902 1253 979 0
1064 -1315 2130 775 0
-1502 -1892 -1725 38 0
-870 -2162 138 -749 0
1398 2142 -1446 -1239 0
-122 1569 -1182 -524 0
-514 1757 -850 432 0
-232 -737 1928 297 0
1673 47 -2137 1151 0
1454 1719 1516 690 0
-837 1579 -1631 -777 0
-35 1180 2112 -1810 0
-1457 1323 -718 1142 0
795 1339 910 1886 0
2035 -1233 -633 1097 0
-1740 709 -1436 1435 0
-443 -2150 1820 -1456 0
-1489 700 -1839 -1550 0
1701 984 -1312 1771 0
1876 1583 -1946 -2120 0
-1860 -1534 -1731 2069 0
-2082 -1083 525 275 0
2068 -1911 275 -663 0
200 -1605 -642 -1275 0
2032 -1861 -1866 1882 0
-1924 -1794 878 -695 0
605 1710 -2134 1225 0
772 -1639 -1032 -355 0
160 -250 1120 579 0
-1549 1415 1257 -533 0
535 -154 453 -577 0
2211 1046 1485 -1256 0
1121 1058 -2034 2150 0
939 -1352 1810 1635 0
2077 -980 1464 -977 0
835 -669 173 -588 0
39 1562 866 1825 0
1233 -1028 1493 1833 0
212 -960 -1140 2118 0
9 1820 -1505 -534 0
1168 -405 437 -1033 0
-306 179 -830 1980 0
236 -1427 -34 -1852 0
-1551 -2049 1647 978 0
1722 -1010 1335 867 0
1646 -71 -801 1104 0
1143 -1896 2012 200 0
-1798 1530 -1023 2148 0
-1352 -1397 -1343 1265 0
415 -945 -299 1745 0
520 2050 796 1258 0
961 1601 -1922 -2188 0
698 2223 1496 1146 0
1932 -476 1564 2168 0
-1724 1199 -1628 553 0
-594 2112 -2223 -1294 0
770 -807 761 -886 0
-992 -143 1324 896 0
-1295 -884 2233 -1092 0
2194 1741 2114 -1744 0
2049 -362 548 -1591 0
1020 2044 981 -1656 0
911 1569 1204 -1062 0
2193 -1808 -283 1646 0
-1856 -1659 481 232 0
1461 -292 2129 -2103 0
1589 -156 -164 1253 0
515 -755 -1006 -1746 0
1788 -1942 927 1537 0
-1017 1229 -110 2151 0
1873 -93 620 -496 0
1688 -824 -1885 -1375 0
-41 1369 1300 2079 0
526 303 -466 -367 0
1775 43 -1602 148 0
-1502 1892 -1725 -38 0
1385 -2086 625 -716 0
1931 -196 -1595 -1633 0
-1780 -1408 1677 -205 0
-733 -240 -85 2018 0
2192 -388 745 888 0
1876 307 -1755 -1061 0
857 1678 1308 -94 0
949 2217 1675 102 0
1233 -1028 -1493 -1833 0
-1708 -3 1448 1206 0
1952 -1138 -301 -1366 0
-447 -1815 493 2197 0
-967 674 2000 1357 0
-810 706 1546 1636 0
-1658 -1404 -1342 -1438 0
2195 -532 -65 -1625 0
695 -43 -1237 -516 0
-1255 -2004 2003 -303 0
2017 336 640 611 0
710 650 1037 127 0
592 -1288 2009 -374 0
-1247 -1411 351 1184 0
1600 1317 1344 1546 0
-174 1462 2145 -1337 0
-2232 1627 -1938 875 0
-524 918 -318 286 0
-1646 71 -801 1104 0
461 -1982 309 -1736 0
-1726 -1989 -145 -1261 0
862 -1833 1319 627 0
-1676 -1264 1277 1035 0
681 2146 -1110 1243 0
-1336 -464 -520 164 0
-576 -393 1105 1300 0
-1256 -1211 1762 -610 0
-808 1927 407 -1973 0
2172 139 -756 649 0
-1894 -644 313 401 0
-1389 -993 687 -282 0
2184 -74 -165 436 0
-495 1228 -551 -261 0
-985 1821 -1458 866 0
1292 2190 -1651 730 0
-510 2224 -411 -1867 0
-1896 115 254 -12 0
-920 -2078 294 846 0
-555 1802 -1576 -1817 0
-659 -1127 2141 -1739 0
-1714 -49 784 -490 0
111 533 1771 -126 0
2224 -808 -1457 276 0
-1034 1359 -1948 912 0
2040 465 -1148 1776 0
-2108 -1848 97 -1485 0
83 1090 -87 240 0
1872 130 -1901 -1647 0
-2131 -1604 413 -1339 0
-1829 -412 -982 -242 0
1683 -482 -1477 655 0
-1650 2173 -1290 1275 0
1555 1582 2128 143 0
771 -1515 440 80 0
-650 -990 1293 -1322 0
1990 -2161 1091 2194 0
116 -1579 151 2057 0
449 1271 244 -2186 0
-1781 1952 2018 -609 0
-1380 -1331 2216 -2071 0
-162 142 118 747 0
-1132 -214 1024 -2227 0
-2098 1286 1402 1247 0
1832 -531 900 -614 0
427 979 986 -591 0
-1304 -1845 491 -1511 0
1896 115 254 12 0
947 193 1395 -1744 0
819 -498 -1255 -1846 0
-1018 -1981 1916 -461 0
584 404 891 797 0
537 -1965 -1230 -685 0
1380 -1331 2216 2071 0
160 250 1120 -579 0
-405 2183 -865 -945 0
115 -568 445 1605 0
-253 -2091 -1041 1164 0
-1202 1106 298 2168 0
50 -1837 753 -1953 0
-1716 -1636 -1930 -1859 0
-1186 1289 -1962 1406 0
-7 -2154 -1116 947 0
-1590 1791 1082 -1725 0
-1069 -509 -825 1870 0
522 -924 1644 416 0
342 -973 1601 -573 0
-1368 2103 -959 1178 0
-1952 -1138 301 -1366 0
1051 -1 -1287 -953 0
-281 826 -1277 -54 0
291 2203 -331 172 0
-961 1601 1922 -2188 0
-860 -1690 -1545 1848 0
-1276 1953 -55 1346 0
-1121 -1058 -2034 2150 0
2042 2120 -1043 255 0
1862 -197 -2219 793 0
-1913 1009 -417 1030 0
1486 -1422 403 1903 0
7 -2154 -1116 -947 0
2153 -1472 168 -1968 0
419 1318 349 250 0
-294 -382 -1721 1422 0
-674 1349 177 -1709 0
-352 842 1668 1165 0
1450 -241 -249 1938 0
-594 1609 69 -2124 0
1537 799 -1388 1303 0
-280 -64 -1789 1774 0
-1767 1082 2229 1532 0
1942 -2061 -1223 1866 0
-2082 1083 525 -275 0
-461 -1982 -309 -1736 0
1720 1966 1509 -1828 0
1827 -626 -1104 -1051 0
-1193 -2131 -722 -257 0
412 2026 1254 1611 0
1757 363 966 1288 0
753 1001 744 2225 0
1304 1845 491 -1511 0
-41 -1369 -1300 2079 0
870 243 94 1596 0
-1841 -1580 748 1446 0
-1873 93 -620 496 0
350 58 1242 -1321 0
-2017 -336 640 611 0
-836 1423 -1811 -1073 0
-2222 -97 1320 -1211 0
703 -1900 -1166 -1643 0
-1881 -1992 1732 -77 0
-1453 452 -1697 -1574 0
389 1823 2076 104 0
1997 -19 -613 629 0
-1409 -777 1303 398 0
808 -1927 407 -1973 0
-1713 -185 -359 -53 0
1467 1663 517 -1160 0
-1856 1659 -481 232 0
173 1296 -1085 -1036 0
752 -768 2160 -2067 0
1097 1525 -1638 1189 0
-991 -1988 -86 720 0
1898 -664 -1597 497 0
-163 1289 -1696 372 0
-1193 -2131 722 257 0
-2010 -1630 -239 -1372 0
360 1648 -251 -896 0
1188 81 2143 -1921 0
821 -26 -1970 358 0
-348 457 -90 76 0
1913 -1009 -417 1030 0
115 568 445 -1605 0
1913 1009 417 1030 0
-506 1874 1763 1929 0
-146 -807 -1809 376 0
1708 3 -1448 -1206 0
-648 542 -2097 741 0
805 -712 1384 -909 0
1724 618 -1907 1274 0
1993 -1640 13 -310 0
1975 357 -1314 -189 0
1932 -476 -1564 -2168 0
1624 -1510 -771 1066 0
843 119 378 -2235 0
-606 -1567 234 -1319 0
-400 180 1087 -483 0
-798 2097 1040 2216 0
815 98 1016 -790 0
-1383 -838 -2167 -2006 0
-53 -1764 -652 1838 0
-845 1585 -193 -334 0
917 1858 1978 -880 0
-1342 428 2082 -1684 0
-734 1270 1145 1801 0
1005 1074 721 -1823 0
-1342 428 -2082 1684 0
-1818 -88 1181 585 0
1496 1274 -959 1503 0
1423 299 -1168 644 0
425 2047 1150 -547 0
-35 -1180 -2112 -1810 0
57 -291 157 -700 0
2174 -314 2023 -1484 0
2055 -344 826 183 0
-1709 -1667 998 145 0
-998 1959 -1752 268 0
1889 -786 -1910 443 0
-916 -929 1863 1001 0
2080 2222 -1205 624 0
-1883 311 50 -971 0
-1688 -824 -1885 1375 0
-764 1315 1914 -1381 0
-1117 679 827 -1940 0
638 -1443 -230 -692 0
-1946 1797 1960 -96 0
1445 -2104 2067 -547 0
1492 889 1978 -1841 0
-1039 1685 1372 1870 0
-2240 1923 1969 -776 0
-922 -1394 -1603 101 0
485 133 -1939 -725 0
1979 1584 -932 -387 0
-410 604 820 -1904 0
-434 1765 2207 1198 0
1555 -1582 2128 -143 0
-1488 1245 -1590 546 0
-702 -1495 -206 -79 0
-668 18 2037 895 0
2224 808 -1457 -276 0
1218 1786 -1467 -1263 0
-1491 -1268 -1084 1405 0
-1472 2133 1385 2127 0
567 -2087 -506 -123 0
-1020 2044 -981 -1656 0
-609 -660 -1370 -2053 0
222 2202 -704 -475 0
-1651 962 1312 -1250 0
1787 -2204 1474 1705 0
1929 1778 -683 -1660 0
-972 -589 1652 -152 0
1729 554 833 773 0
1096 2127 167 1717 0
-1148 540 -1379 -2081 0
-835 -669 173 588 0
149 1014 -1371 -791 0
1902 -1439 44 93 0
428 -1691 1620 2164 0
-1828 -1800 1930 -284 0
-1785 1853 1847 -56 0
-238 -2191 2079 923 0
-1461 -292 -2129 -2103 0
1617 725 -1262 872 0
-1767 1082 -2229 -1532 0
1990 -993 1173 -1009 0
654 1768 -82 1184 0
-1336 -464 520 -164 0
-1555 -1582 2128 143 0
1166 -473 1958 462 0
-2143 -981 -937 -82 0
-812 -1504 -2081 -1565 0
-92 209 1971 -882 0
1443 810 1099 1056 0
-845 -675 -662 1695 0
-1889 -786 1910 443 0
-2115 -920 1163 1626 0
697 2071 171 -983 0
-1732 -571 601 889 0
-958 -738 -1519 -1939 0
-313 -1915 -836 637 0
-1829 412 -982 242 0
-1704 1424 -1003 -1049 0
-742 -719 -1417 1772 0
1732 571 601 889 0
1743 1904 189 1519 0
-1143 1896 -2012 -200 0
1459 -1057 -409 -1648 0
665 -1844 1373 407 0
-1035 619 -1384 -2041 0
84 144 1059 -1305 0
658 1407 1445 1088 0
-449 -1271 -244 2186 0
1034 -1359 1948 -912 0
-1635 1294 632 -210 0
-2065 -1249 -1598 -32 0
-1488 -1245 1590 546 0
-529 -1547 1642 -1719 0
437 128 964 -1159 0
-1973 1682 -225 -1306 0
-1240 -218 1460 -1698 0
1323 -150 -1048 -1927 0
215 -2228 872 2205 0
1321 -1720 -1529 -722 0
-166 1761 -113 -1561 0
-422 -159 1817 1392 0
-934 1592 -2038 -888 0
1847 -1881 1492 -682 0
64 1507 1884 -403 0
1255 -2004 -2003 -303 0
-764 -1315 1914 1381 0
526 -303 466 -367 0
406 -597 -383 -1514 0
390 -802 1713 -1787 0
-947 193 -1395 -1744 0
408 2125 -856 151 0
-1620 -2218 1773 -1083 0
-2062 -1887 170 -33 0
2087 -2089 -1044 -570 0
2132 -10 2177 -333 0
-1956 100 -1280 -2005 0
1537 -799 1388 1303 0
-1224 1606 -2183 -2199 0
-1217 187 -2233 -1002 0
2126 46 -304 1627 0
15 505 679 -242 0
-1508 1559 1959 1261 0
-1246 -612 1944 633 0
-1170 -285 -1792 -943 0
-218 113 1834 -108 0
-548 -710 -1107 -2007 0
519 85 645 660 0
638 -1443 230 692 0
1248 397 485 -2228 0
-802 -539 199 1234 0
-201 -2171 879 508 0
-1869 2072 1864 550 0
1208 1615 1674 -11 0
1499 -1756 182 -1183 0
-529 -1547 -1642 1719 0
1202 -1106 -298 -2168 0
-279 1873 -1213 -119 0
1667 1533 334 -73 0
1477 2046 -543 2001 0
-1025 -749 356 -1132 0
2013 605 348 214 0
2040 -812 -212 -447 0
-1207 887 392 -1094 0
-504 -732 1229 -1386 0
-664 395 1784 -1444 0
743 -370 -1708 -1126 0
-743 -370 -1708 1126 0
273 -23 1995 -774 0
-691 -7 -1124 -1741 0
2061 1341 1843 -1480 0
643 316 -284 773 0
1990 -2161 -1091 -2194 0
1145 420 858 1147 0
-904 816 1831 813 0
955 560 915 -1943 0
-2024 528 -1588 2198 0
352 842 1668 -1165 0
-1993 -1640 13 310 0
1013 -1338 1974 265 0
-1654 -1766 1216 -705 0
817 -901 438 1865 0
1747 -1144 -557 -1600 0
1451 -1480 1861 -1163 0
-2029 907 -1733 1770 0
-1924 1794 -878 -695 0
2193 -1808 283 -1646 0
-576 393 1105 -1300 0
-88 2073 751 -1431 0
-49 -549 -1511 823 0
-1160 -2198 1653 2027 0
-1202 -1106 -298 2168 0
154 1625 -2139 1501 0
-1756 976 -1364 131 0
-50 -1837 753 1953 0
1145 -420 858 -1147 0
-1197 106 -1156 -492 0
-736 -345 2132 -992 0
-648 -1380 1662 693 0
2098 51 -117 -404 0
1955 41 814 1414 0
1063 863 907 -1341 0
-1990 2161 1091 2194 0
-1735 1538 -501 1185 0
901 1329 1416 -657 0
-1443 -810 1099 1056 0
723 -117 2093 914 0
-369 -1936 -374 -471 0
1238 2211 211 -322 0
-190 -629 -937 263 0
-1495 -1857 -1325 -877 0
-605 -1710 -2134 1225 0
-544 666 1536 1664 0
-1352 1397 -1343 -1265 0
-1809 -1893 1430 -879 0
776 492 -1090 -989 0
1716 -1636 1930 -1859 0
1917 2144 1814 -1417 0
952 -515 1117 -982 0
-1542 -1056 1859 643 0
393 -2141 2006 1835 0
-1873 93 620 -496 0
-1586 -1813 728 450 0
-146 807 1809 376 0
-1271 1738 2158 1000 0
-988 -2220 1065 1259 0
1885 2148 -804 -1284 0
-226 446 -1539 -233 0
-12 1345 -311 -1575 0
-2136 2196 1554 -1291 0
-1913 -1009 -417 -1030 0
2085 -764 1279 366 0
-2021 -873 1200 -540 0
-892 -2009 514 468 0
-1897 -903 -105 -1329 0
1702 1890 1086 -314 0
1622 -1920 885 2209 0
443 2150 1820 -1456 0
-2232 1627 1938 -875 0
138 1114 1092 578 0
2115 -920 1163 -1626 0
-2184 -74 165 436 0
-713 -1883 1276 -586 0
-146 -807 1809 -376 0
198 512 -755 1219 0
-692 970 -363 2008 0
2013 -605 -348 214 0
1754 -494 -92 536 0
-1549 1415 -1257 533 0
-1568 1681 1700 935 0
566 688 2190 -973 0
-1507 -1626 1882 -1721 0
-703 -1900 1166 -1643 0
-802 539 -199 1234 0
-2012 -2236 1361 -625 0
2206 786 2075 19 0
-580 1804 -1566 2065 0
-1252 2200 -657 -448 0
1160 2198 1653 2027 0
899 425 -931 -1014 0
-2234 -1943 -1506 -315 0
-2235 -587 -245 297 0
1783 734 1613 708 0
1352 1397 -1343 1265 0
2024 -528 1588 -2198 0
1856 1186 -1399 1249 0
-138 -1114 -1092 -578 0
-9 -1820 -1505 -534 0
1788 -1942 -927 -1537 0
-28 -448 1865 1970 0
1230 -975 -750 1318 0
397 -1221 315 1830 0
-1436 -2085 -655 1608 0
944 -1432 -759 252 0
-779 -278 1200 -1144 0
-211 -90 641 2207 0
-438 -121 2101 -732 0
1658 1404 -1342 -1438 0
-780 -770 -489 381 0
-1438 109 -225 2170 0
684 1824 -266 1918 0
-485 133 -1939 725 0
-1633 1387 694 -1290 0
-955 1586 384 -2058 0
1100 -1293 30 -2007 0
-1321 -1720 -1529 722 0
1245 -767 544 -1892 0
806 287 40 -352 0
1896 -115 -254 12 0
-514 -1757 850 432 0
1355 -1299 -1153 -844 0
1170 -285 -1792 943 0
1751 -265 -2076 -1041 0
-1466 -1404 -559 -1479 0
2049 362 -548 -1591 0
551 792 469 871 0
987 1038 -2042 -518 0
1080 -332 1925 -897 0
-996 607 203 2025 0
1619 56 -560 941 0
1616 -1362 -1753 22 0
-661 -816 735 -1452 0
-599 -1836 1903 1857 0
1884 -2032 1788 -1022 0
1676 1264 -1277 -1035 0
-1634 1112 -1227 194 0
-389 1823 2076 -104 0
903 -715 -1252 -719 0
-961 1700 1957 794 0
805 712 -1384 -909 0
-2196 -1259 -1113 673 0
2106 -436 54 -619 0
854 1835 1369 -1449 0
1292 -2190 1651 730 0
-1854 -742 1897 617 0
-1391 -1686 1790 803 0
502 -632 1609 -341 0
-1145 420 858 -1147 0
-1212 -963 516 2138 0
2106 436 54 619 0
902 1126 740 -2174 0
-260 -800 -1933 -1995 0
911 2054 -286 -2156 0
279 1873 1213 -119 0
817 901 438 -1865 0
-1507 -1626 -1882 1721 0
1920 67 2117 2089 0
428 1691 1620 -2164 0
-410 -604 -820 -1904 0
975 -1464 -1080 -2210 0
1897 -903 -105 1329 0
49 549 1511 -823 0
-673 -1689 -2226 -1273 0
-1780 -306 2059 -379 0
-939 -256 -2215 -476 0
1952 1138 301 -1366 0
-1196 77 1853 -2110 0
513 -1095 -2165 -2123 0
-6 2180 969 1060 0
-780 -770 489 -381 0
1266 -37 -1491 -2068 0
1223 221 -1388 1807 0
1454 -1719 -1516 690 0
806 -287 40 352 0
-419 1318 349 -250 0
-870 243 -94 1596 0
-1696 -530 66 -2213 0
522 924 -1644 416 0
-1686 161 2179 -1360 0
-1453 -452 -1697 1574 0
-360 -1648 -251 -896 0
1837 499 916 -1345 0
-1034 1359 1948 -912 0
664 395 1784 1444 0
-1716 -1636 1930 1859 0
-567 -2087 506 -123 0
-752 -768 2160 2067 0
-769 617 -258 951 0
1542 1056 1859 643 0
939 1352 -1810 1635 0
991 1988 86 -720 0
549 -1783 320 -1482 0
-2100 1728 636 -910 0
-437 128 964 1159 0
-1622 1920 -885 -2209 0
291 -2203 -331 -172 0
246 -881 1703 -1172 0
-1696 530 -66 -2213 0
-784 -488 -1113 5 0
892 2009 514 468 0
-1445 2104 2067 -547 0
2028 1599 -2172 -2056 0
-1983 -256 -639 35 0
668 18 2037 -895 0
1029 -782 -1736 -444 0
-1827 626 -1104 -1051 0
-1124 2043 -583 60 0
-1524 2064 -1067 -168 0
-1879 634 822 1340 0
-2232 -1627 -1938 -875 0
-1355 1299 -1153 -844 0
204 2213 1309 -1280 0
-422 561 -1963 -1411 0
271 796 1618 -2088 0
-409 -1128 -10 1324 0
53 1764 652 -1838 0
566 1922 1282 478 0
186 1875 584 -181 0
-1880 -282 236 -487 0
484 828 -971 -878 0
1809 1893 -1430 879 0
830 -29 -1158 503 0
-596 -835 346 -361 0
-1614 172 -1428 -583 0
-1205 -2107 -1562 562 0
1947 1584 339 274 0
-603 1657 690 -1295 0
-1507 1626 1882 1721 0
868 1045 1559 1690 0
288 -46 1592 1199 0
1881 -1992 -1732 -77 0
992 -143 -1324 896 0
1353 91 -1572 1469 0
527 1779 840 -396 0
-1662 2163 -804 -1687 0
1238 -2211 211 322 0
733 -240 85 2018 0
-42 1452 -954 615 0
1032 608 2217 -1703 0
-1942 2061 1223 -1866 0
-1864 1069 -1217 1077 0
-1840 -1351 -688 2152 0
-797 -1819 -1974 1285 0
-1920 67 2117 -2089 0
1834 429 1607 -1134 0
1105 -1383 170 1975 0
2126 46 304 -1627 0
-890 1309 -421 -558 0
-1240 -218 -1460 1698 0
-1979 1584 932 -387 0
1900 1568 -329 -175 0
1286 561 914 -1802 0
2165 1072 1951 1524 0
1650 2173 -1290 -1275 0
736 -1961 659 1520 0
1673 2036 -1307 379 0
41 -1369 1300 2079 0
874 -1727 326 -1006 0
-1735 -1538 501 1185 0
-1173 487 -2203 -754 0
580 -1804 -1566 2065 0
1830 851 -2176 -1004 0
-1436 2085 655 1608 0
1621 875 1442 2129 0
1155 1291 -488 1497 0
-106 165 550 -1969 0
-443 -2150 -1820 1456 0
1685 -1333 2106 1806 0
294 -382 1721 1422 0
1072 1096 2153 938 0
-1191 1879 1570 2077 0
1901 1723 -2237 1441 0
-729 817 504 1421 0
-1453 452 1697 1574 0
-28 -787 -729 162 0
-1829 -1912 -757 347 0
425 -2047 1150 547 0
-2159 -647 1433 1376 0
-1439 -1425 -1376 -78 0
-1459 1057 409 1648 0
1585 1330 -399 -2114 0
1879 634 -822 1340 0
-1396 741 -1687 -1089 0
-12 -1345 -311 1575 0
2010 -1630 -239 1372 0
1929 -1778 -683 1660 0
-1957 478 -45 -526 0
1641 -1888 960 -493 0
61 2074 -62 -317 0
-1994 -1108 -1824 1755 0
-837 -2048 1803 -689 0
-1603 535 2199 415 0
952 -515 -1117 982 0
-823 -223 1251 1613 0
-922 1394 -1603 -101 0
-713 1883 1276 586 0
1138 -27 1945 -1540 0
-1898 664 -1597 497 0
92 209 1971 882 0
-2184 2240 -281 968 0
758 1419 1008 -608 0
-1072 -1096 2153 938 0
-163 -1289 -1696 -372 0
1331 -1699 -1011 -1190 0
-1624 1510 771 -1066 0
121 -213 -772 -1416 0
122 -1569 1182 524 0
-985 1821 1458 -866 0
329 794 -1232 1153 0
1812 -2048 -1453 -385 0
1706 136 -921 -1182 0
-1812 328 2231 1770 0
1889 786 -1910 -443 0
852 -1806 -2041 -1429 0
-2192 26 -1461 1476 0
-2171 769 -946 1195 0
64 -1507 1884 403 0
-1015 1463 685 -346 0
-571 1283 -2095 -1183 0
2090 1506 -384 -851 0
-812 1504 -2081 1565 0
-1070 15 -1118 507 0
-31 -1661 573 1782 0
607 -680 386 -1858 0
-2062 1887 170 33 0
-1489 700 1839 1550 0
-963 1860 -908 -1538 0
-519 85 645 -660 0
2130 1483 -616 -1570 0
939 256 -2215 -476 0
490 -1482 -1497 444 0
1686 -161 2179 -1360 0
1746 827 1262 -1523 0
2102 103 728 169 0
-211 90 -641 2207 0
1193 2131 722 257 0
-1789 -1022 -1518 -760 0
-2098 1286 -1402 -1247 0
1124 -2043 -583 60 0
-1271 -1738 -2158 1000 0
-1157 -495 818 -2037 0
-1011 1987 983 -136 0
1629 -852 1039 207 0
1032 608 -2217 1703 0
-1132 214 -1024 -2227 0
1402 289 853 -891 0
-2206 786 -2075 19 0
-812 1504 2081 -1565 0
2021 -873 -1200 -540 0
-2078 997 -677 -1544 0
-111 -533 -1771 126 0
-1203 1031 -1447 -2175 0
859 63 989 -733 0
-1201 672 -994 -670 0
1635 1294 632 210 0
-859 -63 -989 733 0
1586 1813 -728 -450 0
-1328 1549 2099 -1466 0
430 -1886 -1103 -623 0
-42 1452 954 -615 0
-455 1629 1047 2010 0
2133 -467 565 2084 0
1942 2061 -1223 -1866 0
1699 1758 -1750 42 0
-247 -1764 -217 -1944 0
213 595 290 105 0
1614 172 1428 -583 0
63 -1042 -1781 626 0
312 2083 -1136 1487 0
-808 1927 -407 1973 0
-2077 -980 1464 977 0
-769 617 258 -951 0
1429 909 -1642 -1272 0
-848 1542 -638 -554 0
-1897 903 105 -1329 0
-1499 1756 -182 1183 0
-1663 -1310 -1109 1671 0
-932 -4 2055 1 0
-2211 -1046 -1485 1256 0
-2230 -1044 1680 -1874 0
2021 -1747 1027 -459 0
-1773 585 -153 -646 0
-1788 1942 -927 -1537 0
895 1228 -1201 -1269 0
2196 -1259 -1113 -673 0
713 1883 1276 -586 0
-1754 494 -92 536 0
328 1063 -273 452 0
1854 742 -1897 -617 0
2107 860 454 1320 0
1298 2060 -343 -1610 0
1010 -2056 -368 -1353 0
224 -630 -1571 -1890 0
-2070 -207 -1272 -1454 0
760 -1574 -927 -763 0
1868 -2024 -2181 -1106 0
-1459 -1057 409 -1648 0
-1477 2046 543 2001 0
-1600 -1317 1344 1546 0
-260 800 1933 -1995 0
-1032 -608 2217 -1703 0
764 -1315 -1914 1381 0
390 -990 1949 1367 0
-1790 -2122 296 1851 0
-1409 777 1303 -398 0
1963 -809 263 654 0
-1224 1606 2183 2199 0
2218 -667 -1818 1991 0
-2029 -907 1733 1770 0
-659 1127 2141 1739 0
724 922 416 -1224 0
-758 -1419 1008 -608 0
-226 -446 -1539 233 0
1673 -2036 1307 379 0
-412 -2026 -1254 -1611 0
1842 369 -1122 -706 0
12 1345 -311 1575 0
-823 223 -1251 1613 0
-322 -134 -76 -2227 0
-1037 -1367 -1234 -527 0
146 1017 -201 -1849 0
-1008 1066 881 -1707 0
-1931 -196 -1595 1633 0
-783 1964 319 368 0
1794 1735 -1212 1359 0
-1942 -2061 -1223 -1866 0
-513 1095 2165 2123 0
-758 1419 -1008 -608 0
1328 1549 -2099 -1466 0
-449 1271 244 2186 0
-2066 1704 -1140 2100 0
530 1742 1176 -1715 0
-601 1192 748 -1334 0
-713 -1883 -1276 586 0
-1867 667 1431 -718 0
-1841 1580 748 -1446 0
1550 705 727 -541 0
262 828 713 -1237 0
2082 -1083 525 -275 0
-1402 -289 -853 891 0
226 -446 -1539 -233 0
-1769 340 -389 -1338 0
1224 1606 2183 -2199 0
721 1241 1413 -1567 0
-1018 1981 1916 461 0
2105 1695 1533 177 0
-995 1517 -1387 209 0
1849 1195 1386 2182 0
-431 -1618 308 -1281 0
61 -2074 -62 317 0
1508 2140 -1545 227 0
2143 981 -937 -82 0
-894 248 -557 2116 0
228 178 -1465 -1750 0
1588 502 2187 -2212 0
783 1964 -319 368 0
174 1462 -2145 -1337 0
1122 1543 2116 -1317 0
1459 -1057 409 1648 0
375 -1350 1553 -1947 0
-120 2147 498 1052 0
815 -98 1016 790 0
1396 741 1687 -1089 0
1716 1636 1930 1859 0
-678 1248 941 -2234 0
-236 -1427 34 -1852 0
1735 -1538 -501 1185 0
1934 2214 -5 -1689 0
-559 -832 109 1805 0
1162 1428 -57 -321 0
-267 2022 1979 -1553 0
-1364 -701 1514 103 0
174 1462 2145 1337 0
961 -1601 -1922 2188 0
-1832 531 900 -614 0
-929 -2084 -1348 -1222 0
-843 -119 -378 2235 0
-1410 -1390 -2110 1619 0
-698 2223 1496 -1146 0
648 -542 -2097 741 0
-111 533 -1771 -126 0
-69 1146 -1442 1368 0
908 2155 1301 -1512 0
1495 1857 -1325 -877 0
-1174 1194 2051 -1908 0
988 2220 1065 1259 0
566 688 -2190 973 0
-1453 -452 1697 -1574 0
66 1468 100 2229 0
-340 -723 -1005 1576 0
1481 913 785 635 0
-116 1579 151 2057 0
87 1197 -529 -712 0
-1614 -172 -1428 583 0
-2181 2212 -241 -1564 0
300 839 -1362 -847 0
635 871 14 -1705 0
1410 1390 -2110 1619 0
1335 -2028 923 -1475 0
-2077 980 1464 -977 0
-1298 2060 -343 1610 0
-893 -1073 2111 -125 0
1539 -803 552 1494 0
742 719 -1417 1772 0
-605 1710 -2134 -1225 0
-1924 1794 878 695 0
-1646 -71 801 1104 0
390 990 -1949 1367 0
2057 1007 1981 1803 0
-955 560 -915 -1943 0
-1751 -265 2076 -1041 0
-988 1251 244 -1799 0
1807 398 -1068 -858 0
750 897 1120 -336 0
236 1427 -34 1852 0
1115 -1052 832 2039 0
-1587 -2109 -940 652 0
-419 -1318 349 250 0
-402 -2162 -610 -857 0
-1818 88 1181 -585 0
1391 1686 -1790 -803 0
1390 678 -215 1615 0
-975 1464 1080 2210 0
1952 -1138 301 1366 0
-1487 -496 -1672 378 0
490 -1482 1497 -444 0
44 -1363 -591 1872 0
269 -513 -877 746 0
1603 535 -2199 415 0
1877 373 -1226 1116 0
1282 -730 466 1701 0
837 -2048 -1803 -689 0
1429 909 1642 1272 0
-1099 -1842 2008 592 0
2192 388 745 -888 0
1122 -1543 -2116 -1317 0
-1782 2188 1681 -441 0
1582 -867 1469 -360 0
944 1432 759 252 0
645 83 805 1264 0
966 479 1139 176 0
1459 1057 409 -1648 0
2172 -139 756 649 0
-1008 1066 -881 1707 0
-1173 -487 2203 -754 0
1374 -2058 -383 2102 0
306 179 830 1980 0
332 -616 -815 -980 0
278 2052 1344 -1716 0
410 -1912 1219 -952 0
-1677 -1980 -1548 1432 0
322 134 -76 -2227 0
1486 1422 403 -1903 0
2156 -2094 904 -353 0
-2049 -362 -548 -1591 0
237 996 -441 -1012 0
439 1852 86 1649 0
1880 282 -236 487 0
-671 120 -1498 887 0
-742 -719 1417 -1772 0
-500 -1471 112 -1844 0
1499 -1756 -182 1183 0
-259 -149 1712 -1738 0
-1596 1937 1710 -1059 0
548 710 -1107 -2007 0
1658 2063 2164 2099 0
-1512 -196 995 -433 0
-1876 -1583 1946 2120 0
544 666 -1536 1664 0
-783 -1964 319 -368 0
1724 -1199 -1628 553 0
-2200 1996 -821 458 0
711 589 24 1084 0
-58 -1193 795 1759 0
1074 -1327 -1470 -2093 0
-865 1214 -1702 128 0
1836 -380 269 876 0
1602 -262 2016 686 0
-947 -193 1395 -1744 0
-734 -1270 1145 -1801 0
1011 -1987 983 -136 0
-1637 1155 -782 -1916 0
-708 -1799 202 -1899 0
-2100 1728 -636 910 0
-2121 942 1478 298 0
261 994 -264 14 0
-390 -990 1949 -1367 0
-1089 -1284 1594 -343 0
-1016 1908 -704 1964 0
-2100 -1728 636 910 0
-361 1488 -1577 1085 0
-885 -2092 1098 188 0
2102 -103 -728 169 0
-1655 -743 -480 -1360 0
674 -1349 -177 1709 0
-1508 1559 -1959 -1261 0
-390 802 -1713 1787 0
-1164 -104 -1413 442 0
-302 1414 2177 1832 0
1186 1289 1962 1406 0
1994 1108 -1824 1755 0
-1292 -2190 1651 -730 0
-293 -208 1838 -1246 0
958 738 -1519 -1939 0
-729 -817 -504 1421 0
1550 705 -727 541 0
-1495 1857 1325 -877 0
-231 -612 -861 -1638 0
-549 1783 320 -1482 0
-1122 1543 -2116 -1317 0
1851 255 1668 1393 0
-1751 -265 -2076 1041 0
-1171 -324 1302 1054 0
174 -1462 -2145 1337 0
-2135 -1589 -1950 -986 0
1457 -1323 718 -1142 0
2113 483 -1447 -677 0
-203 -1093 936 -602 0
885 -2092 1098 -188 0
-627 264 1985 -785 0
-443 2150 -1820 -1456 0
535 154 453 577 0
-1508 -1559 -1959 1261 0
1993 1640 13 310 0
-1169 -1222 499 -254 0
-857 1678 1308 94 0
1295 884 -2233 1092 0
352 -842 1668 1165 0
870 243 -94 -1596 0
320 1801 -1354 -1029 0
1438 -109 -225 2170 0
-332 -616 -815 980 0
1775 43 1602 -148 0
544 -666 -1536 -1664 0
1005 1074 -721 1823 0
-1029 -782 1736 -444 0
260 800 1933 1995 0
-697 2071 -171 -983 0
-1935 1816 166 -29 0
814 -576 900 -2062 0
-413 -1776 2118 636 0
-68 -131 169 -354 0
1168 405 437 1033 0
-1268 -1941 510 -1911 0
8 2080 -426 -39 0
504 732 -1229 1386 0
-49 549 -1511 -823 0
-934 1628 -2166 -762 0
-1296 -781 -1528 2238 0
-752 -768 -2160 -2067 0
669 -2238 1281 -890 0
-784 488 -1113 -5 0
-1888 -1131 2066 266 0
-1470 141 -1581 -1241 0
-1650 -2173 1290 1275 0
-111 533 1771 126 0
431 1618 -308 1281 0
447 -1815 493 -2197 0
-905 933 -289 -351 0
-261 994 -264 -14 0
1894 -644 313 -401 0
-1238 2211 -211 -322 0
-870 -2162 -138 749 0
61 2074 62 317 0
-1131 1227 -1049 1108 0
-2205 -326 -1523 -11 0
-1407 -651 1273 -1026 0
28 787 729 -162 0
1635 1294 -632 -210 0
1889 -159 -1997 809 0
1204 1382 -1535 2 0
1581 670 -234 1985 0
1473 424 957 -1015 0
261 -994 264 14 0
219 309 -1147 -1354 0
1157 -495 -818 -2037 0
-114 1444 -948 373 0
1332 1062 -925 -178 0
-1510 761 -1793 -1430 0
-963 -1860 908 -1538 0
-160 250 -1120 -579 0
-1423 299 1168 644 0
1917 2144 -1814 1417 0
1989 868 -434 1821 0
-1565 1081 270 89 0
1217 -187 -2233 -1002 0
-2061 -1341 -1843 1480 0
-1188 -81 -2143 1921 0
228 -178 1465 -1750 0
951 1421 747 2182 0
806 287 -40 352 0
-764 1315 -1914 1381 0
-943 -305 -950 -125 0
390 -802 -1713 1787 0
859 63 -989 733 0
2026 -1961 -505 -2185 0
425 2047 -1150 547 0
430 -1886 1103 623 0
-1787 2204 -1474 -1705 0
1409 -777 1303 -398 0
1751 265 -2076 1041 0
-1268 -1941 -510 1911 0
477 -1030 1839 1216 0
2136 -202 -1065 -2125 0
-1121 -1505 -21 933 0
892 2009 -514 -468 0
-778 1760 1165 -2197 0
-1793 928 2193 -1515 0
1257 -819 -1479 2039 0
-410 1912 -1219 952 0
-1003 1401 1728 -430 0
-2194 1741 -2114 -1744 0
96 1494 296 -1043 0
-622 2147 -1207 -2004 0
529 -1547 1642 1719 0
190 -629 -937 -263 0
1355 -1299 1153 844 0
-37 153 -525 -1098 0
593 -686 -1361 -642 0
-845 -1585 193 -334 0
-726 -829 1779 61 0
-44 -1363 591 1872 0
-1907 762 -2201 2144 0
-1540 283 80 1679 0
1510 761 -1793 1430 0
-1896 -115 254 12 0
1246 -612 -1944 633 0
654 -1768 -82 -1184 0
-695 43 1237 516 0
2119 1340 1664 38 0
1099 1842 2008 592 0
-1526 -2054 2015 -1382 0
2065 -1249 1598 -32 0
-1069 -509 825 -1870 0
-1637 856 1554 1007 0
-1790 2122 296 -1851 0
-1119 -798 789 171 0
1873 93 -620 -496 0
521 1111 -1412 -477 0
327 588 558 1956 0
1651 962 1312 1250 0
892 -2009 -514 468 0
-943 305 -950 125 0
1537 799 1388 -1303 0
648 1380 1662 693 0
-1156 1869 -474 -1547 0
2153 1472 168 1968 0
870 -243 94 -1596 0
2017 -336 -640 611 0
424 -327 596 -2178 0
253 2091 1041 -1164 0
-1350 1434 -1055 -1167 0
-1983 -256 639 -35 0
-415 -945 -299 -1745 0
471 -468 1966 -1242 0
-1595 1775 593 2173 0
-2069 1243 1418 501 0
2013 -605 348 -214 0
-1578 -1504 1909 -1815 0
226 -446 1539 233 0
-1935 1311 1552 -1729 0
1724 -1199 1628 -553 0
1646 -71 801 -1104 0
-1734 702 -974 -956 0
860 -1690 -1545 -1848 0
-1683 -482 1477 655 0
218 113 1834 108 0
-1503 1053 -2201 1316 0
592 -1288 -2009 374 0
1169 -1222 -499 -254 0
1061 -1918 -806 1297 0
-1257 -819 1479 2039 0
1171 -324 -1302 1054 0
481 -1748 2219 -1598 0
-1754 494 92 -536 0
693 -1190 1400 615 0
-253 2091 1041 1164 0
238 2191 2079 923 0
-1350 -1434 -1055 1167 0
1655 743 -480 -1360 0
-68 131 -169 -354 0
2021 873 1200 -540 0
-1573 181 1285 -1751 0
221 2029 -48 -1843 0
-28 -787 729 -162 0
20 95 1478 -1149 0
-1573 -181 -1285 -1751 0
797 1819 1974 -1285 0
-1230 -975 750 1318 0
146 807 1809 -376 0
-430 -1886 1103 -623 0
-2069 1243 -1418 -501 0
1540 283 -80 1679 0
455 1629 1047 -2010 0
1558 -543 -1572 251 0
1963 -809 -263 -654 0
437 128 -964 1159 0
1000 855 1371 1187 0
1749 -107 -2030 948 0
-312 -2083 -1136 1487 0
-944 -1432 -759 -252 0
1124 2043 583 60 0
-1123 -2135 1862 1235 0
-418 1034 -1924 1999 0
-1012 935 703 936 0
2126 -46 304 1627 0
1867 -667 1431 -718 0
204 -2213 -1309 -1280 0
1326 -1176 1791 1468 0
-215 -2228 872 -2205 0
-1749 -107 -2030 -948 0
-934 -1628 -2166 762 0
-905 -933 -289 351 0
808 1927 407 1973 0
-1756 -976 1364 131 0
-637 -1680 -683 2111 0
393 2141 -2006 1835 0
845 -1585 193 334 0
1685 1333 -2106 1806 0
-481 -1748 -2219 -1598 0
-792 1525 -523 818 0
307 -1692 70 -1797 0
140 1718 433 -124 0
1718 -2033 1396 2060 0
580 -1804 1566 -2065 0
120 2147 498 -1052 0
-188 -1130 646 -999 0
963 1860 908 -1538 0
-1498 1115 1347 1471 0
-135 1684 2170 663 0
-1526 2054 2015 1382 0
-1072 1096 2153 -938 0
771 1515 -440 80 0
-2194 -1741 -2114 1744 0
-1037 -1367 1234 527 0
-1524 2064 1067 168 0
-1389 993 687 282 0
-1539 803 552 1494 0
1011 -1987 -983 136 0
1008 1066 -881 -1707 0
-60 -321 -1640 1597 0
-549 -1783 320 1482 0
-1171 1125 -99 2149 0
1756 -976 -1364 131 0
291 -2203 331 172 0
116 -1579 -151 -2057 0
-781 -1566 431 1215 0
-1487 496 -1672 -378 0
-735 -1375 2163 1400 0
-2196 1259 -1113 -673 0
-1587 2109 940 652 0
-1603 -535 2199 -415 0
-1868 -2024 2181 -1106 0
-322 -134 76 2227 0
-791 -1895 -36 -337 0
-1152 2179 842 -2122 0
1727 -569 597 1674 0
-1398 2142 1446 -1239 0
-425 2047 -1150 -547 0
1467 -1663 517 1160 0
-345 -1555 1739 -854 0
-1950 -1336 271 197 0
-673 1689 -2226 1273 0
-635 871 14 1705 0
-2010 -1630 239 1372 0
472 -2095 473 1192 0
-1171 -1125 99 2149 0
-674 1349 -177 1709 0
1122 -1543 2116 1317 0
-17 1711 -8 451 0
-1582 867 1469 -360 0
-1481 -913 785 635 0
4 -1370 435 2022 0
-594 2112 2223 1294 0
447 1815 493 2197 0
1883 -311 -50 971 0
-1737 59 -137 52 0
1571 233 2023 1795 0
98 -1381 -1174 -1483 0
947 -193 1395 1744 0
-729 817 -504 -1421 0
1840 1351 688 -2152 0
-1688 1706 -1798 918 0
-1282 -730 -466 1701 0
972 589 1652 -152 0
1967 -682 -1670 917 0
1460 1134 759 -1878 0
2065 1249 -1598 -32 0
-972 589 -1652 -152 0
1812 2048 1453 -385 0
390 -990 -1949 -1367 0
8 -2080 -426 39 0
1751 265 2076 -1041 0
1296 781 1528 -2238 0
-2075 1054 -720 -1891 0
-1492 889 -1978 -1841 0
1967 682 -1670 -917 0
1847 1881 -1492 -682 0
743 370 1708 -1126 0
-1117 -679 -827 -1940 0
2180 -1389 1913 -1766 0
836 1423 -1811 1073 0
-259 -149 -1712 1738 0
-1526 1408 353 -1440 0
-231 -612 861 1638 0
-584 404 891 -797 0
606 -1567 -234 -1319 0
958 738 1519 1939 0
621 902 1655 -1378 0
1654 -1766 1216 705 0
-140 -1718 -433 124 0
-928 -886 -563 2019 0
-1658 2063 2164 -2099 0
-2165 -1072 1951 1524 0
2133 -467 -565 -2084 0
-1619 -56 560 -941 0
449 491 -1712 223 0
797 1819 -1974 1285 0
-1246 612 1944 -633 0
352 842 -1668 1165 0
1793 928 2193 1515 0
708 1799 202 -1899 0
-1175 -555 1769 -195 0
-2159 647 1433 -1376 0
1466 -1404 -559 1479 0
1792 -1076 -964 1448 0
1327 51 1730 1875 0
-2021 -873 -1200 540 0
-852 -1806 -2041 1429 0
-1327 -51 -1730 -1875 0
-443 2150 1820 1456 0
-237 996 441 -1012 0
-126 -1250 -112 717 0
1268 -1941 -510 -1911 0
-203 1093 936 602 0
-1266 67 -711 -2092 0
1713 185 359 53 0
-96 -1494 -296 1043 0
-1935 -1311 1552 1729 0
1901 -1723 2237 1441 0
684 1824 266 -1918 0
-472 -2095 473 -1192 0
-2193 1808 -283 1646 0
1096 -2127 -167 1717 0
-795 -1339 910 1886 0
149 -1014 1371 -791 0
-450 354 1670 386 0
996 607 203 -2025 0
-267 -2022 1979 1553 0
500 -1471 -112 -1844 0
1714 49 -784 490 0
-1119 798 -789 171 0
-1539 803 -552 -1494 0
2070 207 1272 1454 0
-987 1038 -2042 518 0
-1460 -1134 -759 1878 0
435 -519 -1676 -344 0
1512 -196 995 433 0
-865 -1214 -1702 -128 0
602 1643 472 182 0
-406 -597 383 -1514 0
2087 2089 -1044 570 0
2021 1747 1027 459 0
281 826 -1277 54 0
-893 1073 2111 125 0
-991 1988 86 720 0
1252 -2200 657 448 0
822 1906 -977 -1531 0
1473 424 -957 1015 0
-1498 1115 -1347 -1471 0
-922 -1394 1603 -101 0
-599 1836 -1903 1857 0
-1743 1904 189 -1519 0
-1000 855 1371 -1187 0
-1713 185 -359 53 0
1935 -1311 -1552 1729 0
-1714 -49 -784 490 0
-208 -862 -2035 -913 0
-422 -561 1963 -1411 0
-707 -739 724 305 0
2090 -1374 -1377 569 0
572 1307 -1522 -229 0
1789 -1022 1518 -760 0
2135 1589 -1950 -986 0
1224 1606 -2183 2199 0
-1529 -1986 1800 2052 0
1880 282 236 -487 0
-174 -1462 -2145 -1337 0
-83 1090 87 240 0
246 881 -1703 -1172 0
1925 -790 640 -2202 0
707 -739 724 -305 0
673 -1689 2226 -1273 0
1117 679 827 1940 0
-269 513 -877 746 0
-280 -64 1789 -1774 0
428 1691 -1620 2164 0
212 960 -1140 -2118 0
-1822 -898 1094 -1840 0
-1610 -1403 1110 1731 0
1641 1888 960 493 0
1754 494 92 536 0
-1528 -580 -365 -1715 0
-568 1999 1420 -1650 0
1210 604 -1004 198 0
1467 -1663 -517 -1160 0
-1691 1142 1991 -323 0
361 1488 1577 1085 0
-2065 1249 1598 -32 0
-1260 1308 451 -1937 0
-402 2162 610 -857 0
1781 1952 2018 609 0
484 828 971 878 0
-332 616 -815 -980 0
-1867 -667 -1431 -718 0
1658 1404 1342 1438 0
-1879 -634 822 -1340 0
1205 2107 1562 -562 0
1441 2045 1672 245 0
-1537 -799 -1388 1303 0
-664 -395 1784 1444 0
760 1574 927 -763 0
-1947 1584 -339 274 0
-1450 241 -249 1938 0
2021 -873 1200 540 0
1818 -88 1181 -585 0
-1332 -1062 -925 -178 0
665 1844 -1373 407 0
1521 1774 1933 731 0
-987 1583 194 1994 0
2068 1911 -275 -663 0
-1840 1351 -688 -2152 0
2140 -268 2030 -1877 0
1790 2122 296 1851 0
2115 920 1163 1626 0
-2106 -436 -54 -619 0
-857 -1678 1308 -94 0
-141 -1730 -672 628 0
1078 -482 1459 -1558 0
-1889 159 1997 -809 0
-2032 -1861 1866 1882 0
1662 -2163 804 1687 0
1714 235 1304 -2214 0
2192 26 1461 1476 0
1796 1235 -1748 1928 0
1177 -175 462 844 0
-1651 962 -1312 1250 0
-736 345 -2132 -992 0
1220 192 62 2159 0
2205 326 1523 11 0
2069 -1243 -1418 -501 0
1397 -1263 337 -95 0
-430 1886 -1103 -623 0
382 -72 599 -997 0
-1743 1904 -189 1519 0
-191 -1513 1196 -701 0
408 -2125 -856 -151 0
-1856 -1186 -1399 1249 0
-1941 -276 -1306 -135 0
2090 -1506 384 -851 0
905 933 -289 351 0
-201 2171 -879 508 0
627 264 -1985 -785 0
917 -1858 -1978 -880 0
2157 -2178 2005 1767 0
-120 -2147 498 -1052 0
-2206 -786 2075 19 0
2077 -980 -1464 977 0
-1935 -1311 -1552 -1729 0
191 -1513 1196 701 0
2128 1722 -1449 2191 0
239 825 -1231 187 0
1883 311 50 971 0
-2132 -10 2177 333 0
-709 -366 579 -2017 0
-495 -1228 -551 261 0
1694 -926 847 2139 0
1350 1434 -1055 1167 0
-574 -1536 -349 -631 0
1588 -502 -2187 -2212 0
141 -1730 -672 -628 0
443 -2150 1820 1456 0
2098 -51 117 -404 0
1658 2063 -2164 -2099 0
320 -1801 1354 -1029 0
1213 1902 -1253 -979 0
285 -707 52 -924 0
2206 -786 -2075 19 0
-684 -1824 -266 1918 0
150 335 717 -665 0
160 250 -1120 579 0
1346 -1717 744 -377 0
-1616 1362 -1753 22 0
-267 -2022 -1979 -1553 0
-681 -2146 -1110 1243 0
-412 2026 1254 -1611 0
-2121 -942 -1478 298 0
-1343 1218 -210 1071 0
-185 -1481 -293 -2204 0
-2065 1249 -1598 32 0
1123 2135 1862 1235 0
-1593 -186 1269 -628 0
630 1737 226 -1644 0
1588 -502 2187 2212 0
-1493 -1102 1189 -1157 0
1210 604 1004 -198 0
-1673 2036 1307 379 0
-2102 103 -728 169 0
739 -101 1660 -893 0
606 -1567 234 1319 0
-1461 292 2129 -2103 0
-779 295 1986 257 0
-1787 -2204 1474 -1705 0
414 -1630 2013 364 0
2230 -1044 1680 1874 0
-1563 -1591 317 647 0
-1596 -1937 -1710 -1059 0
1069 509 825 -1870 0
1726 -1989 -145 1261 0
-1842 -369 -1122 -706 0
358 787 -25 745 0
1500 -279 582 156 0
1276 1953 55 1346 0
-1699 1758 1750 42 0
2082 1083 -525 -275 0
1822 622 766 1355 0
489 376 -2151 -949 0
438 121 2101 -732 0
-293 -208 -1838 1246 0
-408 -2125 -856 151 0
848 1542 638 -554 0
691 -7 1124 -1741 0
-901 -1329 1416 -657 0
1169 -1222 499 254 0
34 1656 -2020 190 0
-808 -1927 -407 -1973 0
2075 -1054 -720 -1891 0
1489 700 1839 -1550 0
1788 1942 927 -1537 0
-1711 -1762 -624 -1678 0
-204 -2213 -1309 1280 0
2024 528 -1588 -2198 0
1581 -670 234 1985 0
269 513 877 746 0
-1658 -2063 -2164 -2099 0
920 2078 -294 -846 0
-908 -2155 -1301 1512 0
1557 -1795 552 -1960 0
2090 1374 -1377 -569 0
-1526 2054 -2015 -1382 0
1491 1268 -1084 1405 0
1526 1408 -353 -1440 0
-1785 1967 -915 1813 0
-1883 -311 50 971 0
1983 256 639 -35 0
-810 -706 -1546 1636 0
460 -1759 -623 -248 0
-1604 -465 -295 -873 0
1872 -130 -1901 1647 0
1637 856 -1554 1007 0
380 2123 -906 1365 0
-141 -1730 672 -628 0
-1427 687 -2044 -1060 0
-791 1895 -36 337 0
173 -1296 1085 -1036 0
-412 2026 -1254 1611 0
1335 2028 923 1475 0
1593 -186 -1269 -628 0
2082 -1083 -525 275 0
1582 867 1469 360 0
2159 647 -1433 -1376 0
-769 -617 258 951 0
212 960 1140 2118 0
-454 227 1133 -1749 0
-521 -1111 -1412 -477 0
972 589 -1652 152 0
106 -165 -550 1969 0
-1064 -1315 -2130 775 0
1023 -1560 1594 -1403 0
-1701 -984 -1312 1771 0
1470 -141 -1581 -1241 0
-1139 1698 -338 944 0
1389 993 687 -282 0
831 -564 1754 -1040 0
-843 119 378 2235 0
-864 863 1451 -23 0
1996 -1476 -1178 1053 0
1089 -1284 1594 343 0
-968 1527 -183 953 0
-1729 554 -833 773 0
1423 299 1168 -644 0
243 603 -84 1114 0
-1632 746 -79 -1951 0
-438 121 -2101 -732 0
-1869 -2072 1864 -550 0
-916 929 1863 -1001 0
-380 2123 -906 -1365 0
-952 -515 1117 982 0
1897 903 105 1329 0
16 -17 641 2169 0
154 -1625 2139 1501 0
2206 -324 -1456 -841 0
139 -463 -1905 1455 0
2090 -1506 -384 851 0
-1181 2011 -1130 1753 0
1796 1235 1748 -1928 0
418 1034 -1924 -1999 0
895 -1228 1201 -1269 0
1487 496 -1672 378 0
-1385 -2086 -625 -716 0
-1123 -2135 -1862 -1235 0
-1658 1404 -1342 1438 0
-1493 1102 1189 1157 0
-1440 813 -572 2059 0
-998 1959 1752 -268 0
-481 1748 -2219 1598 0
-1828 1800 1930 284 0
-711 589 -24 1084 0
-345 1555 -1739 -854 0
1117 679 -827 -1940 0
1789 -1022 -1518 760 0
1374 2058 -383 -2102 0
-126 -1250 112 -717 0
932 4 2055 1 0
939 -1352 -1810 -1635 0
-414 1305 1225 1047 0
559 832 -109 -1805 0
-1255 2004 2003 303 0
-457 -1260 -16 2134 0
837 -1579 -1631 -777 0
-1531 2210 1965 957 0
1637 -1155 -782 -1916 0
-1804 1399 -372 1742 0
1156 -1869 474 1547 0
-2055 344 826 183 0
-1021 -536 -1418 511 0
757 1611 -614 1887 0
1906 2157 1473 1267 0
1586 -1813 728 -450 0
413 1776 -2118 -636 0
1392 -195 -1058 1910 0
-212 -960 1140 2118 0
-450 -354 -1670 386 0
-1005 1074 721 1823 0
-1105 1383 -170 -1975 0
862 1833 -1319 627 0
-2136 -2196 1554 1291 0
1593 -186 1269 628 0
1443 810 -1099 -1056 0
-1581 -670 -234 1985 0
6 -2180 -969 -1060 0
776 492 1090 989 0
-1029 782 1736 444 0
892 1826 316 -1509 0
1489 -700 -1839 -1550 0
1029 782 -1736 444 0
1331 -1699 1011 1190 0
-865 1214 1702 -128 0
1935 1311 -1552 -1729 0
2206 786 -2075 -19 0
-1061 1918 806 -1297 0
204 2213 -1309 1280 0
-21 -1850 -853 1819 0
-1872 -130 1901 1647 0
-259 149 -1712 -1738 0
439 -1852 -86 1649 0
301 1954 -2053 267 0
-830 29 -1158 503 0
116 -545 -1409 -420 0
1632 2064 1734 1203 0
765 1026 -2158 930 0
1784 1357 -391 107 0
-1472 -2133 1385 -2127 0
-2113 483 1447 -677 0
1979 1584 932 387 0
843 -119 378 2235 0
1557 1795 -552 -1960 0
-894 -248 -557 -2116 0
237 -996 441 -1012 0
-600 -898 75 -1299 0
-342 -973 -1601 -573 0
1637 856 1554 -1007 0
1451 -1480 -1861 1163 0
1673 -47 2137 1151 0
-1550 705 727 541 0
928 886 -563 2019 0
1832 531 -900 -614 0
-1632 -2064 1734 1203 0
-739 -101 1660 893 0
1164 104 1413 -442 0
1956 -100 1280 2005 0
217 -1587 -1220 -829 0
1071 341 528 -517 0
-96 1494 -296 -1043 0
-2077 -980 -1464 -977 0
1734 -702 -974 -956 0
-1323 -150 -1048 1927 0
838 2185 507 1127 0
-1557 -1795 -552 -1960 0
1407 651 1273 -1026 0
-2024 -528 -1588 -2198 0
1906 -2157 -1473 1267 0
-530 -1742 1176 -1715 0
634 1267 1532 -1502 0
-968 1527 183 -953 0
-1902 -1439 44 -93 0
-743 370 1708 1126 0
-1164 104 -1413 -442 0
-1780 -1408 -1677 205 0
1410 -1390 2110 1619 0
-1358 1379 -1027 1081 0
1207 -887 -392 1094 0
-2220 2186 -2226 -765 0
919 -2014 -161 370 0
729 -817 504 1421 0
758 -1419 1008 608 0
-1537 799 -1388 -1303 0
974 -2189 -800 330 0
780 770 -489 381 0
1512 196 995 -433 0
-1099 1842 -2008 592 0
-562 -2221 1133 -391 0
-869 -2239 539 -840 0
1075 459 -1103 -894 0
2012 2236 1361 -625 0
603 1657 690 1295 0
2220 2186 2226 -765 0
-9 -81 -905 1768 0
-388 -288 -2232 292 0
-1565 1081 -270 -89 0
-1145 -420 858 1147 0
-1170 2014 -59 3 0
-975 -1464 1080 -2210 0
-571 -1283 -2095 1183 0
920 -2078 294 -846 0
1530 -697 -788 921 0
122 1987 1332 1758 0
-504 732 1229 1386 0
-1529 1986 -1800 2052 0
-2159 647 -1433 1376 0
1424 270 1976 -1112 0
126 -1250 -112 -717 0
1607 1151 -1490 -714 0
1247 1411 351 1184 0
259 149 -1712 1738 0
34 -1656 2020 190 0
1162 -1428 57 -321 0
-66 -1468 -100 -2229 0
-470 565 1919 1968 0
-1661 -184 237 -2142 0
121 213 772 -1416 0
1175 2034 1013 1850 0
-771 1515 440 80 0
-2215 -1265 -1149 -1202 0
402 2162 610 857 0
850 -176 1101 -1313 0
345 -1555 -1739 -854 0
2017 -336 640 -611 0
-413 -1776 -2118 -636 0
-1424 270 1976 1112 0
-1595 1775 -593 -2173 0
566 -1922 1282 -478 0
-1818 -88 -1181 -585 0
810 -706 1546 1636 0
261 -994 -264 -14 0
581 235 2047 1612 0
-1699 -1758 -1750 42 0
1878 -2002 1490 -1535 0
-966 -479 1139 176 0
2230 1044 -1680 1874 0
-1233 1028 -1493 -1833 0
1641 1888 -960 -493 0
-1751 265 -2076 -1041 0
-212 960 1140 -2118 0
943 -305 950 -125 0
-1125 -1654 6 -1645 0
-260 -800 1933 1995 0
-116 545 1409 420 0
495 -1228 -551 -261 0
-307 1692 70 -1797 0
1862 -197 2219 -793 0
1042 -1366 -1679 -71 0
2078 -997 -677 -1544 0
-1451 1480 1861 -1163 0
-678 -1248 941 2234 0
-120 -2147 -498 1052 0
-213 -595 290 105 0
1397 1263 -337 -95 0
711 589 -24 -1084 0
-805 -712 1384 909 0
1392 195 1058 1910 0
1396 -741 -1687 -1089 0
580 1804 1566 2065 0
-2128 1722 -1449 -2191 0
-1161 1365 -1087 -1623 0
1565 -1081 -270 -89 0
-329 794 1232 1153 0
-1849 1195 -1386 2182 0
-1352 1397 1343 1265 0
-975 1464 -1080 -2210 0
-1495 1857 -1325 877 0
-1869 2072 -1864 -550 0
-1415 1846 367 984 0
-1064 1315 -2130 -775 0
-1526 -1408 -353 -1440 0
-1909 -518 -1393 -778 0
-2035 1233 633 -1097 0
1391 1686 1790 803 0
1993 -521 -662 -1330 0
-12 1345 311 1575 0
522 924 1644 -416 0
810 -706 -1546 -1636 0
-1669 -846 330 1135 0
-1429 909 -1642 1272 0
988 -2220 -1065 1259 0
-1907 -762 -2201 -2144 0
1335 -2028 -923 1475 0
-2066 1704 1140 -2100 0
-1266 37 -1491 -2068 0
-1979 1584 -932 387 0
-1268 1941 510 1911 0
-635 -871 14 -1705 0
-1781 -1952 -2018 -609 0
450 -354 1670 386 0
-774 731 -1518 1697 0
934 1628 -2166 762 0
-1064 -1191 574 2119 0
808 -1927 -407 1973 0
1131 1227 1049 1108 0
-1785 1853 -1847 56 0
-1100 -1293 30 2007 0
-1530 697 -788 921 0
2196 1259 1113 -673 0
-28 787 729 162 0
835 -669 -173 588 0
-138 1114 -1092 578 0
184 2025 -880 1580 0
-259 -1612 899 -1845 0
823 223 1251 1613 0
-676 1475 -1666 -756 0
-57 -291 157 700 0
-1673 -47 -2137 1151 0
-435 -519 -1676 344 0
711 -589 24 -1084 0
497 -310 675 129 0
4 -1370 -435 -2022 0
1363 1563 -1551 1425 0
2235 -587 245 297 0
1924 1794 878 -695 0
1993 521 -662 1330 0
1352 -1397 1343 1265 0
-2105 -1695 -1533 -177 0
-1789 -1022 1518 760 0
-2068 -1911 -275 -663 0
-2032 -1861 -1866 -1882 0
-1349 -1726 985 -699 0
1655 743 480 1360 0
1713 185 -359 -53 0
49 -549 1511 823 0
1326 -1176 -1791 -1468 0
-1582 -867 1469 360 0
1064 1191 -574 -2119 0
-899 -425 931 1014 0
-1573 -181 1285 1751 0
1467 1663 -517 1160 0
1603 535 2199 -415 0
1568 1681 1700 -935 0
-2184 2240 281 -968 0
-342 973 1601 -573 0
2232 -1627 -1938 875 0
-2066 -1704 -1140 -2100 0
2143 981 937 82 0
42 -1452 -954 615 0
-1202 1106 -298 -2168 0
-1826 -432 538 -833 0
1867 667 -1431 -718 0
-278 2052 -1344 -1716 0
965 -1167 1172 456 0
-1708 3 1448 -1206 0
2132 -10 -2177 333 0
-1223 -221 1388 -1807 0
88 2073 751 1431 0
1818 88 -1181 -585 0
1864 1069 1217 1077 0
1604 -465 -295 873 0
-2128 1722 1449 2191 0
-1020 -2044 981 -1656 0
-920 -2078 -294 -846 0
57 291 157 700 0
-1467 -1663 -517 1160 0
502 632 1609 341 0
692 970 363 2008 0
-1143 -467 -1169 2086 0
1358 1379 -1027 -1081 0
-903 -715 -1252 719 0
1983 -256 639 35 0
-140 -1718 433 -124 0
-231 612 861 -1638 0
-18 -1573 -1593 -2091 0
-2069 -1243 1418 -501 0
-1011 -1987 983 136 0
1649 1891 2020 613 0
1947 -1584 -339 274 0
17 1711 -8 -451 0
-869 -2239 -539 840 0
2126 -46 -304 -1627 0
-592 1288 -2009 374 0
576 393 1105 1300 0
757 -1611 614 1887 0
-1473 424 -957 -1015 0
1949 -1154 -2109 -359 0
-1074 1327 1470 2093 0
1913 1009 -417 -1030 0
-139 463 1905 -1455 0
-797 1819 -1974 -1285 0
1585 -1330 399 -2114 0
1798 1530 1023 2148 0
781 -1566 431 -1215 0
-697 2071 171 983 0
-1983 256 639 35 0
1495 1857 1325 877 0
2167 1070 -1314 958 0
1790 2122 -296 -1851 0
-1160 -2198 -1653 -2027 0
-494 -423 1517 124 0
-1036 546 -1326 -365 0
139 463 -1905 -1455 0
-601 -1192 -748 -1334 0
-218 113 -1834 108 0
2222 97 -1320 1211 0
1847 -1881 -1492 682 0
-1488 -1245 -1590 -546 0
-1704 -1424 1003 -1049 0
-427 979 -986 -591 0
44 1363 591 1872 0
1950 -1336 -271 197 0
830 -29 1158 -503 0
600 -898 75 1299 0
1286 -561 914 1802 0
424 327 596 2178 0
1849 -1195 1386 -2182 0
-821 26 -1970 358 0
1191 1879 1570 -2077 0
-645 83 805 -1264 0
-2137 -229 -1984 228 0
-594 1609 -69 2124 0
-2090 1506 384 -851 0
-892 -2009 -514 -468 0
967 674 2000 -1357 0
147 -1733 -1982 1972 0
469 -1871 -199 1474 0
-2240 -1923 1969 776 0
-39 -1562 866 1825 0
2066 -1704 -1140 2100 0
-427 -979 -986 591 0
-339 563 598 -1808 0
2104 -581 1934 -651 0
1551 2049 -1647 -978 0
-814 576 900 -2062 0
2029 -907 1733 -1770 0
515 -755 1006 1746 0
-2187 -2124 249 -1621 0
-733 -240 85 -2018 0
-1622 -1920 -885 2209 0
-1900 -1568 -329 -175 0
-1973 1682 225 1306 0
-593 -686 -1361 642 0
-766 1232 45 2003 0
-703 1900 1166 1643 0
838 2185 -507 -1127 0
1767 -1082 2229 1532 0
985 -1821 1458 -866 0
20 -95 -1478 -1149 0
2119 -1340 -1664 38 0
-1792 -1076 -964 -1448 0
1260 1308 451 1937 0
-198 -512 755 -1219 0
-1071 341 -528 -517 0
1223 -221 -1388 -1807 0
1174 1194 -2051 -1908 0
-1585 -1330 399 2114 0
1796 -1235 -1748 -1928 0
-1343 -1218 -210 -1071 0
1141 1100 -312 -2096 0
20 -95 1478 1149 0
12 -1345 -311 -1575 0
751 972 300 -2011 0
84 -144 1059 1305 0
174 -1462 2145 -1337 0
144 -2070 -455 1657 0
198 512 755 -1219 0
1067 1919 1031 180 0
-1563 -1591 -317 -647 0
-987 1038 2042 -518 0
-1356 1501 -1763 -653 0
671 120 -1498 -887 0
-870 2162 138 749 0
1867 667 1431 718 0
-1295 884 -2233 -1092 0
371 -108 834 230 0
431 -1618 -308 -1281 0
2042 -2120 1043 255 0
-2166 -1129 1814 1236 0
362 127 396 -2074 0
-1105 -1383 170 -1975 0
-2101 -355 110 -1675 0
1028 -696 442 -606 0
-1346 1717 744 -377 0
-523 -231 869 -1871 0
-1934 2214 -5 1689 0
1143 1896 -2012 200 0
-603 1657 -690 1295 0
1143 467 -1169 2086 0
122 -1987 -1332 1758 0
-892 2009 514 -468 0
-735 1375 2163 -1400 0
-293 208 -1838 -1246 0
1363 -1563 1551 1425 0
671 -1137 500 962 0
329 -794 1232 1153 0
1466 1404 559 1479 0
1528 580 365 1715 0
409 -1128 -10 -1324 0
-1008 -1066 881 1707 0
-1977 1915 2230 272 0
-1539 -803 -552 1494 0
1212 963 516 2138 0
-2119 1340 -1664 38 0
201 -2171 879 -508 0
2205 326 -1523 -11 0
66 -1468 -100 2229 0
-1686 -161 -2179 -1360 0
1355 1299 1153 -844 0
1125 1654 6 -1645 0
-446 -919 -1391 -137 0
-1659 1079 1406 1050 0
-1786 1671 1187 1895 0
259 -1612 -899 -1845 0
66 -1468 100 -2229 0
294 382 1721 -1422 0
-771 -1515 440 -80 0
222 -2202 -704 475 0
1868 2024 -2181 1106 0
1453 -452 -1697 -1574 0
-1528 580 -365 1715 0
2206 324 -1456 841 0
-1931 -196 1595 -1633 0
188 1130 646 -999 0
-1841 1580 -748 1446 0
1203 1031 -1447 2175 0
-669 -2238 -1281 -890 0
521 1111 1412 477 0
-1166 473 -1958 -462 0
723 -117 -2093 -914 0
1364 -701 -1514 103 0
1457 1323 718 1142 0
1349 1726 -985 699 0
-654 1768 82 1184 0
446 919 1391 137 0
661 816 -735 1452 0
-1716 1636 1930 -1859 0
-1380 1331 -2216 -2071 0
-269 513 877 -746 0
1900 1568 329 175 0
1614 172 -1428 583 0
-674 -1349 -177 -1709 0
-2187 2124 249 1621 0
2237 -1693 -1796 -587 0
2205 -326 1523 -11 0
-2161 -399 1412 -417 0
995 -1517 -1387 209 0
949 2217 -1675 -102 0
-211 -90 -641 -2207 0
-2128 -1722 -1449 2191 0
-1568 -1681 1700 -935 0
1917 -2144 1814 1417 0
-2130 1483 -616 1570 0
-494 423 -1517 124 0
544 666 1536 -1664 0
2187 -2124 -249 -1621 0
-1936 -350 -460 1543 0
-1332 1062 -925 178 0
-1788 -1942 -927 1537 0
-1499 1756 182 -1183 0
-1181 -2011 -1130 -1753 0
-1655 743 -480 1360 0
-664 395 -1784 1444 0
-1616 1362 1753 -22 0
1521 -1774 -1933 731 0
-609 660 -1370 2053 0
-854 -1835 1369 -1449 0
2000 -699 1825 -2221 0
1313 503 338 1548 0
-1862 -197 2219 793 0
-524 -918 318 286 0
-236 1427 -34 -1852 0
1138 27 -1945 -1540 0
780 -770 -489 -381 0
-838 -2185 507 1127 0
1115 -1052 -832 -2039 0
2237 1693 -1796 587 0
-362 -127 396 -2074 0
1016 -1908 -704 1964 0
39 1562 -866 -1825 0
952 515 1117 982 0
243 603 84 -1114 0
1079 -843 1500 -737 0
2184 2240 -281 -968 0
262 -828 713 1237 0
-2102 -103 -728 -169 0
1170 -2014 -59 3 0
-2237 1693 1796 587 0
410 -1912 -1219 952 0
-2195 -532 -65 1625 0
-393 -2141 2006 -1835 0
-1993 -1640 -13 -310 0
1751 -265 2076 1041 0
122 1569 -1182 524 0
-917 1858 -1978 -880 0
1472 2133 1385 -2127 0
1829 -1912 757 347 0
422 561 1963 -1411 0
-1245 767 -544 1892 0
2066 1704 -1140 -2100 0
1528 -580 365 -1715 0
-1093 68 1499 -680 0
-1950 -1336 -271 -197 0
594 -1609 69 -2124 0
1336 -464 -520 -164 0
764 1315 1914 1381 0
1726 1989 145 1261 0
1879 -634 -822 -1340 0
-253 2091 -1041 -1164 0
1661 184 -237 2142 0
1100 1293 30 2007 0
-845 -1585 -193 334 0
-1829 -1912 757 -347 0
-602 -1643 472 182 0
60 -321 -1640 -1597 0
-1812 -2048 -1453 385 0
-1080 332 -1925 897 0
1596 1937 -1710 -1059 0
-593 -686 1361 -642 0
-13 -1162 -1489 -1111 0
380 -2123 -906 -1365 0
-1011 1987 -983 136 0
819 498 -1255 1846 0
155 -123 926 -1356 0
-1963 809 -263 -654 0
1737 59 -137 -52 0
-1415 -1846 -367 984 0
-1701 984 1312 1771 0
218 -113 -1834 108 0
-320 1801 -1354 1029 0
-1028 696 -442 606 0
-671 -120 -1498 -887 0
-2184 74 165 -436 0
-2155 -1298 140 -1534 0
-12 -1345 311 -1575 0
1841 1580 748 1446 0
-1885 -2148 -804 -1284 0
1789 1022 1518 760 0
1156 1869 -474 1547 0
-1631 385 -763 799 0
-1079 843 1500 -737 0
1205 -2107 1562 562 0
664 -395 -1784 1444 0
-191 -1513 -1196 701 0
1342 428 -2082 -1684 0
514 -1757 850 -432 0
450 -354 -1670 -386 0
-2062 1887 -170 -33 0
893 -1073 -2111 -125 0
1876 1583 1946 2120 0
-835 669 173 -588 0
-1868 -2024 -2181 1106 0
-66 1468 100 -2229 0
1990 993 -1173 -1009 0
-1955 41 -814 1414 0
1348 470 -400 -220 0
-1394 -577 653 1778 0
-1571 -233 -2023 -1795 0
2138 -1931 148 1301 0
-221 -2029 -48 -1843 0
2240 1923 -1969 -776 0
2069 1243 -1418 501 0
1508 -2140 -1545 -227 0
1278 556 302 -1128 0
1792 1076 964 1448 0
-916 -929 -1863 -1001 0
2032 -1861 1866 -1882 0
1851 -255 1668 -1393 0
-1438 -109 225 2170 0
-1996 -1476 1178 1053 0
200 1605 642 -1275 0
-463 -1435 -611 -222 0
114 -1444 948 -373 0
-1811 -1033 1076 -950 0
-1641 -1888 960 493 0
-449 -491 1712 -223 0
-1654 1766 -1216 -705 0
811 -1322 -1141 -1154 0
643 -316 -284 -773 0
34 -1656 -2020 -190 0
812 1504 -2081 -1565 0
-1691 1142 -1991 323 0
-1714 -235 -1304 2214 0
2196 1259 -1113 673 0
1419 -1893 -1624 -1855 0
-519 -85 -645 -660 0
339 -563 -598 1808 0
792 -1525 -523 818 0
1194 1914 2046 1608 0
-1877 -373 -1226 1116 0
1409 -777 -1303 398 0
1266 -67 -711 -2092 0
-1792 -1076 964 1448 0
-1311 -538 1101 1158 0
1171 1125 99 2149 0
-1746 827 1262 1523 0
-947 193 1395 1744 0
1556 -2096 -1433 575 0
-1782 -2188 1681 441 0
-978 1723 2208 -1107 0
484 -828 -971 878 0
206 -1777 -1521 2189 0
-1042 -1366 -1679 71 0
232 737 1928 297 0
-966 479 -1139 176 0
2000 -699 -1825 2221 0
559 -832 -109 1805 0
211 90 -641 -2207 0
-1013 -1338 1974 -265 0
-976 1513 1283 -1992 0
792 1525 -523 -818 0
-2187 -2124 -249 1621 0
-360 1648 -251 896 0
1020 2044 -981 1656 0
508 1426 1855 -1179 0
-630 1737 -226 -1644 0
-369 -1936 374 471 0
-502 -632 -1609 -341 0
1565 1081 -270 89 0
669 -2238 -1281 890 0
-1877 373 -1226 -1116 0
1735 -1538 501 -1185 0
-2155 -1298 -140 1534 0
-1602 -262 -2016 686 0
-1894 -644 -313 -401 0
-1589 -156 164 1253 0
-1429 -909 1642 1272 0
-1079 -843 -1500 -737 0
2104 581 -1934 -651 0
7 2154 -1116 947 0
-429 -2031 -47 -1761 0
1115 1052 -832 2039 0
1780 1408 1677 -205 0
2181 -2212 -241 -1564 0
2062 -1887 -170 -33 0
-173 1296 -1085 1036 0
1659 1079 -1406 1050 0
1552 -848 1561 -371 0
121 -213 772 1416 0
-2222 97 -1320 -1211 0
-1326 1176 1791 1468 0
362 -127 396 2074 0
-1201 672 994 670 0
1188 81 -2143 1921 0
410 -604 -820 1904 0
-278 -2052 1344 -1716 0
-1162 1428 -57 321 0
1600 -1317 -1344 1546 0
412 2026 -1254 -1611 0
-1862 197 2219 -793 0
736 1961 659 -1520 0
1632 -746 79 1951 0
-1620 2218 -1773 -1083 0
-1828 -1800 -1930 284 0
-947 -193 -1395 1744 0
1787 2204 1474 -1705 0
1889 -786 1910 -443 0
463 1435 -611 -222 0
-174 -1462 2145 1337 0
-1983 2126 1450 1932 0
-1889 786 1910 -443 0
1997 -19 613 -629 0
581 235 -2047 -1612 0
-594 -2112 2223 -1294 0
-815 98 -1016 -790 0
1828 1800 -1930 284 0
919 -2014 161 -370 0
1851 255 -1668 -1393 0
-733 240 85 2018 0
-16 17 641 2169 0
201 -2171 -879 508 0
-322 134 76 -2227 0
939 256 2215 476 0
-723 -117 -2093 914 0
-1391 -1686 -1790 -803 0
-952 515 1117 -982 0
-1334 1239 1958 1998 0
1392 -195 1058 -1910 0
-485 133 1939 -725 0
375 1350 -1553 -1947 0
-1990 2161 -1091 -2194 0
931 132 -36 -20 0
1028 -696 -442 606 0
139 -463 1905 -1455 0
1629 852 1039 -207 0
-348 457 90 -76 0
-1694 -926 -847 2139 0
-903 715 -1252 -719 0
243 -603 84 1114 0
-1885 2148 804 -1284 0
-1105 -1383 -170 1975 0
-211 90 641 -2207 0
1145 420 -858 -1147 0
-838 2185 -507 1127 0
-479 -834 1240 970 0
1716 1636 -1930 -1859 0
635 871 -14 1705 0
-548 710 1107 -2007 0
600 -1019 2152 342 0
141 1730 -672 628 0
1709 1667 -998 -145 0
726 829 -1779 -61 0
-1917 2144 -1814 -1417 0
-648 -542 -2097 -741 0
-1355 1299 1153 844 0
1061 1918 806 1297 0
1397 -1263 -337 95 0
-435 519 1676 344 0
-1599 -1455 475 -783 0
2167 1070 1314 -958 0
-1023 1560 1594 -1403 0
6 2180 969 -1060 0
645 83 -805 -1264 0
1240 -218 1460 1698 0
-361 1488 1577 -1085 0
-1963 -809 263 -654 0
-87 1197 -529 712 0
1872 -130 1901 -1647 0
-477 -1030 -1839 1216 0
1743 -1904 -189 1519 0
-393 2141 2006 1835 0
661 -318 824 -2094 0
1673 -2036 -1307 -379 0
1737 -59 -137 52 0
-885 2092 1098 -188 0
-2040 465 1148 1776 0
-1864 -1069 -1217 -1077 0
-555 -1802 -1576 1817 0
-1769 -340 -389 1338 0
-845 675 662 1695 0
288 46 1592 -1199 0
-1451 -1480 1861 1163 0
-574 -1536 349 631 0
-1856 1659 481 -232 0
1935 1311 1552 1729 0
-1492 -889 1978 -1841 0
-707 739 724 -305 0
406 597 383 -1514 0
-2181 -2212 241 -1564 0
-2075 -1054 720 -1891 0
893 1073 2111 -125 0
600 -898 -75 -1299 0
1374 -2058 383 -2102 0
1152 2179 -842 -2122 0
-1459 -1057 -409 1648 0
1123 2135 -1862 -1235 0
-1454 -1719 -1516 -690 0
-2206 -324 -1456 841 0
753 -1001 744 -2225 0
1028 696 442 606 0
1276 -1953 -55 1346 0
1896 115 -254 -12 0
1595 1775 593 -2173 0
-2070 -207 1272 1454 0
-901 1329 1416 657 0
-1185 -1971 -511 1948 0
-760 1574 -927 -763 0
857 -1678 -1308 -94 0
-781 -1566 -431 -1215 0
414 1305 1225 -1047 0
940 -811 -1556 192 0
1121 -1505 21 933 0
-850 -176 1101 1313 0
203 1093 -936 602 0
-445 418 -1575 484 0
-1100 1293 30 -2007 0
-2021 1747 1027 -459 0
-1602 262 2016 686 0
695 43 1237 -516 0
-1121 1058 -2034 -2150 0
-1639 1426 -758 290 0
-1529 1986 1800 -2052 0
-1255 -2004 -2003 303 0
-28 787 -729 -162 0
215 -2228 -872 -2205 0
-139 -463 -1905 -1455 0
817 -901 -438 -1865 0
-1880 282 236 487 0
1706 -136 -921 1182 0
-1786 1671 -1187 -1895 0
-1827 -626 1104 -1051 0
811 -1322 1141 1154 0
-2106 -436 54 619 0
901 -1329 -1416 -657 0
-961 -1601 -1922 -2188 0
1829 -412 982 -242 0
-1193 2131 722 -257 0
-1304 1845 491 1511 0
-320 -1801 -1354 -1029 0
-15 -505 -679 242 0
-831 -564 -1754 -1040 0
-1415 1846 -367 -984 0
520 -2050 796 -1258 0
733 -240 -85 -2018 0
-638 1443 230 692 0
1604 465 -295 -873 0
1856 1659 481 232 0
-919 2014 161 -370 0
1692 1378 1484 1557 0
96 -1494 296 1043 0
-1578 1504 1909 1815 0
1876 -307 -1755 1061 0
-975 -1464 -1080 2210 0
795 -1339 -910 1886 0
-1692 1378 -1484 1557 0
654 -1768 82 1184 0
-958 738 -1519 1939 0
-961 -1700 -1957 794 0
-658 -1407 -1445 -1088 0
1975 357 1314 189 0
-390 802 1713 -1787 0
-1507 1626 -1882 -1721 0
1652 277 -155 839 0
1740 -709 1436 -1435 0
-390 -802 1713 1787 0
-571 -1283 2095 -1183 0
-179 -1816 -2036 -2031 0
-278 2052 1344 1716 0
-1906 -2157 1473 1267 0
1685 -1333 -2106 -1806 0
1071 -341 528 517 0
149 1014 1371 791 0
1649 -1891 -2020 613 0
-978 -1723 2208 1107 0
1279 775 631 160 0
1063 -863 -907 -1341 0
2167 -1070 1314 958 0
149 -1014 -1371 791 0
551 -792 -469 871 0
-1685 -1333 -2106 1806 0
-2040 812 212 447 0
2105 -1695 1533 -177 0
-504 732 -1229 -1386 0
1302 1645 541 -1988 0
-506 -1874 1763 -1929 0
1677 1980 -1548 1432 0
1206 -1159 -1086 -740 0
-1380 -1331 -2216 2071 0
-544 666 -1536 -1664 0
-767 -1463 -158 1577 0
160 -250 -1120 -579 0
943 -305 -950 125 0
-1005 -1074 -721 1823 0
1722 -1010 -1335 -867 0
-1437 -1962 2050 1665 0
1639 -1426 -758 290 0
259 1612 -899 1845 0
752 768 2160 2067 0
-1223 -221 -1388 1807 0
-1973 -1682 -225 1306 0
-868 1045 1559 -1690 0
-236 -1427 -34 1852 0
-1100 1293 -30 2007 0
530 -1742 1176 1715 0
246 881 1703 1172 0
-1607 1151 1490 -714 0
1155 -1291 -488 -1497 0
-931 -132 36 20 0
-894 -248 557 2116 0
-497 310 675 129 0
916 929 -1863 -1001 0
-2165 1072 -1951 1524 0
-1067 -1919 1031 180 0
2115 -920 -1163 1626 0
-821 -26 -1970 -358 0
-1313 503 338 -1548 0
-1796 -1235 -1748 1928 0
2181 -2212 241 1564 0
-1212 963 516 -2138 0
-1847 -1881 -1492 -682 0
-506 1874 -1763 -1929 0
571 1283 2095 -1183 0
-817 -901 -438 1865 0
-955 -560 -915 1943 0
1105 1383 170 -1975 0
-147 -1733 -1982 -1972 0
418 1034 1924 1999 0
-1212 963 -516 2138 0
767 -1463 -158 -1577 0
485 -133 1939 -725 0
-73 1752 1226 1395 0
-2057 1007 -1981 1803 0
576 393 -1105 -1300 0
-8 2080 426 -39 0
-1012 935 -703 -936 0
1462 -2209 999 1616 0
1726 -1989 145 -1261 0
454 -227 -1133 1749 0
1529 -1986 1800 -2052 0
-239 -825 1231 -187 0
2184 -2240 -281 968 0
-735 -1375 -2163 -1400 0
1311 -538 -1101 1158 0
-1621 875 1442 -2129 0
2042 -2120 -1043 -255 0
894 -248 -557 2116 0
1856 -1659 -481 232 0
1021 -536 -1418 -511 0
-1649 -1891 2020 613 0
798 2097 1040 -2216 0
568 1999 1420 1650 0
-1720 -1966 1509 -1828 0
53 -1764 -652 -1838 0
1266 -37 1491 2068 0
-805 -712 -1384 -909 0
-681 -2146 1110 -1243 0
-188 -1130 -646 999 0
2224 -808 1457 -276 0
951 -1421 -747 2182 0
-191 1513 1196 701 0
-1586 1813 728 -450 0
-2013 -605 -348 -214 0
-1392 195 1058 -1910 0
-530 1742 -1176 -1715 0
1461 292 -2129 -2103 0
348 -457 -90 76 0
2159 647 1433 1376 0
-306 -179 -830 -1980 0
-375 -1350 -1553 -1947 0
-1578 1504 -1909 -1815 0
723 117 -2093 914 0
453 -2195 -1745 -1894 0
-262 828 713 1237 0
-2040 812 -212 -447 0
-568 1999 -1420 1650 0
-988 2220 -1065 1259 0
1524 2064 -1067 168 0
-1902 1439 -44 -93 0
1889 159 1997 809 0
1898 664 1597 497 0
-380 2123 906 1365 0
1829 -1912 -757 -347 0
-166 -1761 113 -1561 0
313 1915 -836 637 0
-1931 196 -1595 -1633 0
-222 2202 -704 475 0
1888 1131 2066 266 0
968 -1527 -183 953 0
158 -537 419 -666 0
-2225 325 -1926 906 0
567 2087 -506 123 0
1558 543 1572 251 0
-146 1017 -201 1849 0
708 1799 -202 1899 0
1279 -775 631 -160 0
2028 -1599 -2172 2056 0
1174 1194 2051 1908 0
-724 922 416 1224 0
-395 967 129 -2105 0
1773 585 -153 646 0
-1252 -2200 657 -448 0
-1737 59 137 -52 0
1194 -1914 2046 -1608 0
1902 1439 44 -93 0
908 2155 -1301 1512 0
-329 794 -1232 -1153 0
1131 -1227 1049 -1108 0
1727 569 -597 1674 0
1503 -1053 -2201 1316 0
-65 -174 -401 -1977 0
73 -1752 -1226 -1395 0
-1955 41 814 -1414 0
-397 -1221 315 -1830 0
-394 -1258 -308 421 0
1397 1263 337 95 0
-1093 -68 -1499 -680 0
1551 -2049 -1647 978 0
709 366 -579 2017 0
-735 1375 -2163 1400 0
1196 -77 1853 -2110 0
-951 -1421 -747 -2182 0
508 1426 -1855 1179 0
-2075 1054 720 1891 0
-1946 -1797 1960 96 0
2078 997 -677 1544 0
185 1481 -293 -2204 0
2062 1887 170 -33 0
-1348 470 -400 220 0
1055 -780 274 2019 0
905 -933 -289 -351 0
-1156 1869 474 1547 0
-217 -1587 -1220 829 0
2157 2178 -2005 1767 0
-2160 1150 -942 -132 0
-1349 1726 -985 -699 0
-1010 -2056 368 -1353 0
684 1641 1760 -40 0
-115 568 -445 -1605 0
1276 1953 -55 -1346 0
166 -1761 -113 -1561 0
987 -1583 194 1994 0
1415 1846 367 -984 0
-1936 350 460 1543 0
1048 -486 323 -2063 0
-1124 2043 583 -60 0
1510 761 1793 -1430 0
269 513 -877 -746 0
1039 1685 1372 -1870 0
-779 295 -1986 -257 0
-2026 -1961 -505 2185 0
1563 -1591 -317 647 0
988 1251 244 1799 0
515 755 1006 -1746 0
1181 -2011 -1130 1753 0
1343 -1218 210 -1071 0
-1057 -676 1278 -1541 0
2171 769 946 1195 0
390 802 -1713 -1787 0
1827 626 1104 -1051 0
905 -933 289 351 0
1756 976 -1364 -131 0
1716 -1636 -1930 1859 0
-313 1915 836 637 0
-1477 -2046 543 -2001 0
-2161 399 1412 417 0
1256 -1211 -1762 -610 0
1036 -546 1326 365 0
-1383 -838 2167 2006 0
1828 -1800 1930 284 0
-1975 357 1314 -189 0
1169 1222 -499 254 0
-1854 742 -1897 617 0
1869 2072 -1864 550 0
1246 612 -1944 -633 0
-463 -1435 611 222 0
1651 -962 1312 -1250 0
-757 -1611 614 -1887 0
-988 -1251 -244 -1799 0
2104 581 1934 651 0
1829 1912 -757 347 0
2167 -1070 -1314 -958 0
-869 2239 539 840 0
-157 -590 -727 -991 0
-158 537 -419 666 0
2078 -997 677 1544 0
-1358 -1379 -1027 -1081 0
1498 -1115 -1347 -1471 0
-174 1462 -2145 1337 0
439 -1852 86 -1649 0
562 2221 1133 -391 0
-1481 913 785 -635 0
1512 196 -995 433 0
-2126 -46 -304 1627 0
-742 719 -1417 -1772 0
849 -716 -55 167 0
1238 1045 2108 1765 0
792 -1525 523 -818 0
1093 68 1499 680 0
-1624 -1510 771 1066 0
1100 1293 -30 -2007 0
-1620 -2218 -1773 1083 0
1531 -2210 1965 957 0
-500 -1471 -112 1844 0
-364 1231 883 1024 0
-1356 -1501 -1763 653 0
1507 -1626 -1882 -1721 0
2032 1861 1866 1882 0
-783 1964 -319 -368 0
-1699 -1758 1750 -42 0
1443 -810 1099 -1056 0
2208 -30 -2045 -2083 0
-139 -463 1905 1455 0
693 1190 1400 -615 0
869 2239 539 -840 0
-1177 -175 462 -844 0
390 802 1713 1787 0
-203 -1093 -936 602 0
1347 1805 -1373 -1682 0
-1292 2190 1651 730 0
231 -612 861 -1638 0
37 -153 525 1098 0
1401 -1358 -1075 -1976 0
689 -1018 -147 -2231 0
961 -1700 1957 794 0
1629 852 -1039 207 0
1282 730 466 -1701 0
968 1527 -183 -953 0
991 -1988 86 720 0
-1434 -381 -102 -246 0
1713 -185 359 -53 0
1676 -1264 -1277 1035 0
852 1806 2041 -1429 0
369 -1936 -374 471 0
1556 -2096 1433 -575 0
1701 -984 -1312 -1771 0
940 811 -1556 -192 0
-1780 1408 -1677 -205 0
1015 -1463 685 -346 0
721 -1241 -1413 -1567 0
1389 -993 687 282 0
564 542 -423 2033 0
-1194 -1914 -2046 -1608 0
-1334 -1239 -1958 1998 0
955 -560 -915 -1943 0
1409 777 1303 398 0
-1000 -855 1371 1187 0
-946 -1854 -1179 -595 0
-603 -1657 -690 -1295 0
-408 -2125 856 -151 0
2101 -355 -110 -1675 0
1118 1940 -738 -1617 0
-1531 2210 -1965 -957 0
1849 -1195 -1386 2182 0
2206 -786 2075 -19 0
2029 -907 -1733 1770 0
2211 1046 -1485 1256 0
186 -1875 584 181 0
1162 -1428 -57 321 0
-1830 851 2176 -1004 0
2055 344 -826 183 0
-1557 -1795 552 1960 0
-864 -863 1451 23 0
1683 482 1477 655 0
2028 1599 2172 2056 0
1311 538 -1101 -1158 0
1470 -141 1581 1241 0
-714 -2 1984 -925 0
648 542 2097 741 0
-1028 -696 -442 -606 0
998 -1959 1752 -268 0
1856 -1186 -1399 -1249 0
1869 -2072 -1864 -550 0
-2028 1599 -2172 2056 0
409 1128 -10 1324 0
574 1536 -349 -631 0
594 -2112 -2223 -1294 0
1171 -324 1302 -1054 0
-1125 -1654 -6 1645 0
-1025 749 -356 -1132 0
-1145 420 -858 1147 0
-1786 -1671 -1187 1895 0
-1486 -1422 403 -1903 0
1008 -1066 -881 1707 0
757 -1611 -614 -1887 0
-2225 -325 1926 906 0
-1310 -1088 -930 -855 0
-1156 -1869 474 -1547 0
453 2195 1745 -1894 0
-1075 -459 -1103 -894 0
-8 2080 -426 39 0
-600 -1019 2152 -342 0
13 -1162 -1489 1111 0
140 -1718 -433 -124 0
70 -621 1297 -1209 0
645 -83 805 -1264 0
-184 -2025 880 -1580 0
-271 -796 1618 -2088 0
-1355 -1299 -1153 844 0
1884 2032 -1788 -1022 0
-1629 852 1039 207 0
-150 335 -717 -665 0
-967 -674 2000 -1357 0
2136 -202 1065 2125 0
1164 -104 1413 442 0
-456 440 -1707 -1945 0
1563 1591 317 647 0
529 -1547 -1642 -1719 0
16 17 641 -2169 0
1089 1284 1594 -343 0
-1091 691 -754 -1614 0
1152 2179 842 2122 0
1048 486 323 2063 0
992 -143 1324 -896 0
1332 1062 925 178 0
267 -2022 -1979 1553 0
1441 -2045 1672 -245 0
1492 -889 1978 1841 0
-2080 2222 -1205 -624 0
1942 -2061 1223 -1866 0
621 -902 -1655 -1378 0
-892 -1826 -316 1509 0
-2077 980 -1464 977 0
-1385 2086 625 -716 0
1109 658 2027 -752 0
2070 -207 1272 -1454 0
-1510 -761 1793 -1430 0
-661 816 735 1452 0
-771 -1515 -440 80 0
1410 1390 2110 -1619 0
122 1569 1182 -524 0
-1266 37 1491 2068 0
-1542 1056 -1859 643 0
273 23 -1995 -774 0
1036 546 -1326 365 0
-965 1167 1172 456 0
-1909 -518 1393 778 0
-48 1972 1068 -219 0
-905 933 289 351 0
329 -794 -1232 -1153 0
-1706 -136 -921 -1182 0
-1602 -262 2016 -686 0
1481 -913 -785 635 0
1735 1538 -501 -1185 0
-789 831 1021 -2146 0
1691 -1142 1991 -323 0
345 -1555 1739 854 0
-20 95 -1478 -1149 0
106 -165 550 -1969 0
885 2092 -1098 -188 0
1827 -626 1104 1051 0
934 -1628 2166 762 0
965 1167 -1172 456 0
-1842 -369 1122 706 0
1582 -867 -1469 360 0
-342 -973 1601 573 0
31 1019 1398 -1244 0
-1652 277 155 839 0
126 1250 112 -717 0
135 1684 2170 -663 0
-1296 781 1528 2238 0
-219 -309 1147 1354 0
63 -1042 1781 -626 0
-1840 1351 688 2152 0
-20 -95 -1478 1149 0
-1173 -487 -2203 754 0
-549 1783 -320 1482 0
1711 -1762 624 -1678 0
1493 1102 -1189 1157 0
-1271 1738 -2158 -1000 0
797 -1819 1974 1285 0
-1105 1383 170 1975 0
1822 898 1094 -1840 0
837 1579 -1631 777 0
-1996 -1476 -1178 -1053 0
1510 -761 1793 1430 0
2040 -465 1148 1776 0
307 -1692 -70 1797 0
-1590 -1791 1082 1725 0
-1462 -2209 -999 1616 0
-1990 -993 -1173 -1009 0
-1496 1274 959 1503 0
-1035 619 1384 2041 0
495 -1228 551 261 0
-1993 -521 -662 1330 0
-1696 -530 -66 2213 0
1238 2211 -211 322 0
-770 -807 -761 -886 0
2156 2094 -904 -353 0
382 72 599 997 0
-1786 -1671 1187 -1895 0
2220 2186 -2226 765 0
-951 1421 -747 2182 0
1437 -1962 -2050 1665 0
-2240 -1923 -1969 -776 0
39 -1562 -866 1825 0
-714 2 -1984 -925 0
-1714 49 -784 -490 0
-2206 -786 -2075 -19 0
-627 264 -1985 785 0
-163 -1437 -204 -394 0
1427 -687 2044 1060 0
939 1352 1810 -1635 0
1658 -1404 -1342 1438 0
-714 -2 -1984 925 0
1075 -459 1103 -894 0
1529 -1986 -1800 2052 0
504 732 1229 -1386 0
965 1167 1172 -456 0
659 1127 2141 -1739 0
-995 -1517 -1387 -209 0
978 -1723 2208 -1107 0
-414 1630 2013 364 0
486 -111 1328 -335 0
1208 -1615 -1674 -11 0
28 -787 -729 -162 0
18 -1573 1593 -2091 0
1402 -289 -853 -891 0
2194 1741 -2114 1744 0
364 1231 -883 1024 0
1894 644 313 401 0
830 29 -1158 -503 0
28 448 1865 1970 0
-1247 1411 351 -1184 0
2195 -532 65 1625 0
-1245 -767 -544 -1892 0
1238 -1045 -2108 1765 0
-885 2092 -1098 188 0
1836 -380 -269 -876 0
-1747 1144 557 1600 0
-1822 622 766 -1355 0
1070 -15 -1118 507 0
922 -1394 1603 101 0
-1213 1902 1253 -979 0
75 -1244 -1998 -1177 0
1691 1142 1991 323 0
-294 382 -1721 -1422 0
-795 -1339 -910 -1886 0
-1906 -2157 -1473 -1267 0
-1832 -531 900 614 0
69 -1146 -1442 1368 0
-1639 -1426 -758 -290 0
-1389 -993 -687 282 0
-781 1566 431 -1215 0
155 123 926 1356 0
1398 2142 1446 1239 0
-502 -632 1609 341 0
-1692 1378 1484 -1557 0
1162 1428 57 321 0
-204 2213 1309 1280 0
658 -1407 1445 -1088 0
1450 -241 249 -1938 0
-6 -2180 969 -1060 0
155 123 -926 -1356 0
402 -1046 1025 -134 0
1542 -1056 1859 -643 0
508 -1426 -1855 -1179 0
1507 1626 1882 -1721 0
-703 1900 -1166 -1643 0
1743 -1904 189 -1519 0
-2222 97 1320 1211 0
784 -488 1113 5 0
767 1463 158 -1577 0
-2174 314 -2023 1484 0
-1334 1239 -1958 -1998 0
-1439 -1425 1376 78 0
-835 669 -173 588 0
795 -1339 910 -1886 0
-2121 942 -1478 -298 0
-766 -1232 -45 2003 0
-31 -1019 1398 -1244 0
1502 1892 -1725 38 0
472 -2095 -473 -1192 0
-1143 -1896 2012 -200 0
-544 -666 -1536 1664 0
1587 -2109 -940 -652 0
-1829 1912 757 347 0
-1785 -1853 1847 56 0
1785 1853 1847 56 0
1686 161 -2179 -1360 0
395 967 129 2105 0
-428 -1691 1620 -2164 0
1880 -282 -236 -487 0
1646 71 801 1104 0
-928 886 -563 -2019 0
463 1435 611 222 0
1767 -1082 -2229 -1532 0
-850 -176 -1101 -1313 0
203 -1093 -936 -602 0
-1353 91 -1572 -1469 0
2192 -388 -745 -888 0
-972 589 1652 152 0
-1934 -2214 -5 -1689 0
-2192 -388 745 -888 0
474 -1077 -1516 -884 0
-903 -715 1252 -719 0
2055 -344 -826 -183 0
-1773 585 153 646 0
-815 98 1016 790 0
1633 -1387 -694 1290 0
-327 588 558 -1956 0
-1872 -130 -1901 -1647 0
-408 2125 856 151 0
729 -817 -504 -1421 0
-1095 -938 -377 325 0
955 -1586 -384 2058 0
-671 120 1498 -887 0
-449 -1271 244 -2186 0
-736 -1961 -659 1520 0
750 897 -1120 336 0
-312 2083 -1136 -1487 0
-1667 1533 -334 -73 0
1531 -2210 -1965 -957 0
232 -737 1928 -297 0
1780 306 2059 -379 0
-892 1826 -316 -1509 0
-158 -537 419 666 0
1191 1879 -1570 2077 0
-1407 -651 -1273 1026 0
-556 238 1955 1666 0
1220 192 -62 -2159 0
-425 -2047 -1150 547 0
-1888 -1131 -2066 -266 0
-1834 -429 1607 -1134 0
1008 -1066 881 -1707 0
-1257 819 -1479 2039 0
-1070 -15 1118 507 0
-1842 369 -1122 706 0
-1005 -1074 721 -1823 0
1185 1971 511 -1948 0
1512 -196 -995 -433 0
-1634 -1112 1227 194 0
1353 91 1572 -1469 0
-1792 1076 -964 1448 0
967 -674 2000 1357 0
1358 1379 1027 1081 0
-1407 651 -1273 -1026 0
1842 -369 1122 -706 0
822 -1906 -977 1531 0
987 -1038 -2042 518 0
-1138 27 1945 -1540 0
1439 -1425 -1376 78 0
630 1737 -226 1644 0
288 -46 -1592 -1199 0
955 -560 915 1943 0
301 -1954 -2053 -267 0
766 -1232 45 2003 0
2024 528 1588 2198 0
-1714 235 1304 2214 0
1197 106 1156 -492 0
21 1850 -853 1819 0
313 1915 836 -637 0
-2206 -324 1456 -841 0
-1949 -1154 -2109 359 0
-439 1852 86 -1649 0
1997 19 613 629 0
-414 -1305 1225 -1047 0
-1123 2135 1862 -1235 0
-1812 328 -2231 -1770 0
1804 1399 -372 -1742 0
1565 1081 270 -89 0
-931 132 36 -20 0
-1732 -571 -601 -889 0
792 1525 523 818 0
1620 -2218 1773 1083 0
-1220 -192 -62 -2159 0
1790 -2122 -296 1851 0
-1901 1723 2237 1441 0
1646 71 -801 -1104 0
1983 2126 -1450 1932 0
-1000 -855 -1371 -1187 0
760 -1574 927 763 0
600 898 -75 1299 0
-358 787 -25 -745 0
2121 -942 1478 298 0
-422 159 -1817 1392 0
394 1258 -308 421 0
1405 2073 152 411 0
-1174 -1194 2051 1908 0
-681 2146 1110 1243 0
-1555 1582 2128 -143 0
42 1452 -954 -615 0
758 -1419 -1008 -608 0
1557 1795 552 1960 0
-1166 -473 1958 -462 0
-1170 -285 1792 943 0
-61 2074 -62 317 0
1171 1125 -99 -2149 0
8 2080 426 39 0
-413 1776 2118 -636 0
477 1030 1839 -1216 0
301 1954 2053 -267 0
1588 502 -2187 2212 0
-671 1137 -500 -962 0
-702 1495 206 -79 0
2211 -1046 1485 1256 0
-1897 -903 105 1329 0
-221 2029 -48 1843 0
-868 -1045 1559 1690 0
-1724 -618 -1907 1274 0
-1100 -1293 -30 -2007 0
-456 -440 -1707 1945 0
-2126 -46 304 -1627 0
-331 1880 439 -590 0
-689 1018 147 2231 0
-792 -1525 523 818 0
-621 902 -1655 -1378 0
2075 -1054 720 1891 0
-772 -1639 1032 -355 0
1003 -1401 -1728 430 0
-116 -545 -1409 420 0
2072 -74 509 1333 0
1789 1022 -1518 -760 0
1055 780 274 -2019 0
1079 843 -1500 -737 0
-551 792 469 -871 0
-114 -1444 948 373 0
-87 -1197 -529 -712 0
784 488 -1113 5 0
661 -816 -735 -1452 0
-819 498 -1255 -1846 0
995 -1517 1387 -209 0
-1166 473 1958 462 0
-154 -1625 -2139 1501 0
-1349 1726 985 699 0
1637 -856 1554 1007 0
277 2117 567 24 0
1368 2103 959 1178 0
-1415 -1846 367 -984 0
2211 -1046 -1485 -1256 0
-2174 314 2023 -1484 0
-967 674 -2000 -1357 0
-1221 1210 -1743 -133 0
-965 -1167 1172 -456 0
1923 -1827 859 -1527 0
-2161 399 -1412 -417 0
521 -1111 -1412 477 0
273 23 1995 774 0
-1296 -781 1528 -2238 0
1260 -1308 451 -1937 0
-895 1228 -1201 1269 0
-522 924 -1644 -416 0
-1952 -1138 -301 1366 0
-726 829 1779 -61 0
364 -1231 -883 -1024 0
-75 -1244 1998 -1177 0
-1459 1057 -409 -1648 0
-661 318 -824 2094 0
-405 -2183 -865 945 0
1963 809 263 -654 0
-806 287 40 352 0
-166 1761 113 1561 0
-1603 535 -2199 -415 0
2193 1808 283 1646 0
98 1381 -1174 1483 0
1593 186 -1269 628 0
-1121 1058 2034 2150 0
885 2092 1098 188 0
1017 -1229 110 -2151 0
932 -4 -2055 1 0
1812 328 -2231 1770 0
-1161 1365 1087 1623 0
2169 -1198 426 -1458 0
-1686 161 -2179 1360 0
-1034 -1359 -1948 -912 0
-988 -1251 244 1799 0
1048 486 -323 -2063 0
2075 1054 -720 1891 0
340 -723 1005 1576 0
1091 691 -754 1614 0
-301 1954 2053 267 0
1757 -363 966 -1288 0
-1177 175 -462 -844 0
584 -404 -891 797 0
1248 -397 -485 -2228 0
-788 -1119 681 -1560 0
566 1922 -1282 -478 0
61 -2074 62 -317 0
-1793 -928 -2193 -1515 0
-1139 1698 338 -944 0
-1067 -1919 -1031 -180 0
798 -2097 1040 2216 0
1635 -1294 -632 210 0
527 1779 -840 396 0
-698 -2223 -1496 -1146 0
-1826 432 -538 -833 0
-1390 -678 -215 1615 0
-1489 -700 -1839 1550 0
-1775 -43 1602 -148 0
-757 -1611 -614 1887 0
15 505 -679 242 0
1614 -172 -1428 -583 0
-584 -404 -891 -797 0
1696 530 -66 2213 0
514 1757 -850 -432 0
147 1733 1982 1972 0
2035 1233 633 1097 0
400 180 1087 483 0
-2211 1046 1485 1256 0
-1121 1505 -21 -933 0
-1963 809 263 654 0
1683 482 -1477 -655 0
1247 -1411 351 -1184 0
1488 1245 -1590 -546 0
-1789 1022 -1518 760 0
1792 -1076 964 -1448 0
1215 32 2088 793 0
443 2150 -1820 1456 0
1472 2133 -1385 2127 0
-2167 1070 1314 958 0
-1544 -956 2175 1135 0
770 -807 -761 886 0
1772 -1236 -118 258 0
-2051 -2001 -319 91 0
2021 1747 -1027 -459 0
-1502 -1892 1725 -38 0
-1080 -332 -1925 -897 0
147 1733 -1982 -1972 0
-1729 -554 -833 -773 0
456 440 1707 -1945 0
-1424 -270 -1976 1112 0
-157 590 727 -991 0
1565 -1081 270 89 0
1401 -1358 1075 1976 0
-2200 -1996 -821 -458 0
-18 1573 1593 -2091 0
1011 1987 983 136 0
-723 117 -2093 -914 0
-1923 1827 859 -1527 0
-1368 2103 959 -1178 0
-2085 -764 1279 -366 0
850 176 -1101 -1313 0
1304 -1845 -491 -1511 0
2069 -1243 1418 501 0
-1143 467 1169 2086 0
-271 796 -1618 -2088 0
1526 2054 2015 -1382 0
1925 790 -640 -2202 0
-1202 -1106 298 -2168 0
-767 1463 -158 -1577 0
1727 569 597 -1674 0
-806 -287 -40 352 0
-1164 -104 1413 -442 0
-1042 -1366 1679 -71 0
1051 -1 1287 953 0
571 -1283 2095 1183 0
1271 1738 2158 -1000 0
2192 -26 1461 -1476 0
-1477 2046 -543 -2001 0
-72 876 1623 -2113 0
96 -1494 -296 -1043 0
697 2071 -171 983 0
-2040 -465 1148 -1776 0
-976 -1513 1283 1992 0
-1694 -926 847 -2139 0
60 321 -1640 1597 0
-138 -1114 1092 578 0
-1233 1028 1493 1833 0
-1789 1022 1518 -760 0
-2171 769 946 -1195 0
-849 716 -55 167 0
1989 -868 -434 -1821 0
1221 -1210 1743 133 0
-1313 -503 -338 -1548 0
-149 -1014 -1371 -791 0
-815 -98 1016 -790 0
-1650 -2173 -1290 -1275 0
-1118 -1940 -738 -1617 0
1780 -1408 -1677 -205 0
247 -1764 -217 1944 0
-1837 -499 -916 1345 0
-1240 218 -1460 -1698 0
-859 -63 989 -733 0
2194 -1741 -2114 -1744 0
-1473 424 957 1015 0
802 -539 199 -1234 0
643 -316 284 773 0
2140 268 -2030 -1877 0
-1080 -332 1925 897 0
-1048 -486 323 2063 0
1035 -619 1384 2041 0
-2180 1389 1913 -1766 0
-1392 -195 1058 1910 0
515 755 -1006 1746 0
721 -1241 1413 1567 0
1240 -218 -1460 -1698 0
428 -1691 -1620 -2164 0
332 616 -815 980 0
1849 1195 -1386 -2182 0
135 1684 -2170 663 0
-39 -1562 -866 -1825 0
1637 -856 -1554 -1007 0
1491 -1268 -1084 -1405 0
-1169 1222 499 254 0
1266 67 -711 2092 0
698 -2223 1496 -1146 0
-1549 -1415 -1257 -533 0
-1588 -502 2187 -2212 0
-2149 1921 1020 969 0
-173 1296 1085 -1036 0
-1732 571 -601 889 0
-1889 -786 -1910 -443 0
1677 -1980 -1548 -1432 0
17 1711 8 451 0
-1949 -1154 2109 -359 0
327 -588 558 -1956 0
710 -650 1037 -127 0
1000 -855 1371 -1187 0
-1125 1654 -6 -1645 0
25 -2038 142 -1129 0
1526 -1408 353 -1440 0
596 -835 346 361 0
715 -458 1316 -1917 0
-1221 -1210 1743 -133 0
-1925 790 -640 2202 0
-630 -1737 -226 1644 0
455 -1629 1047 2010 0
743 370 -1708 1126 0
-1563 1591 317 -647 0
-1896 115 -254 12 0
-408 2125 -856 -151 0
1783 -734 1613 -708 0
-1512 196 995 433 0
1218 1786 1467 1263 0
1924 -1794 -878 -695 0
1581 670 234 -1985 0
-2194 -1741 2114 -1744 0
402 1046 -1025 -134 0
1856 1186 1399 -1249 0
1950 -1336 271 -197 0
609 -660 -1370 2053 0
1905 -1740 216 -1683 0
693 -1190 -1400 -615 0
-31 -1019 -1398 1244 0
-2137 -229 1984 -228 0
35 1180 2112 1810 0
2155 -1298 140 1534 0
463 -1435 611 -222 0
-1711 1762 624 -1678 0
-2206 324 -1456 -841 0
-469 1871 199 -1474 0
1708 -3 -1448 1206 0
1166 473 -1958 462 0
-698 -656 -618 -1180 0
1481 -913 785 -635 0
474 1077 1516 -884 0
144 2070 -455 -1657 0
116 1579 -151 2057 0
-328 -1063 273 -452 0
1661 -184 -237 -2142 0
1711 1762 624 1678 0
2180 1389 1913 1766 0
-764 -1315 -1914 -1381 0
-1051 -1 1287 -953 0
1121 1058 2034 -2150 0
-1451 1480 -1861 1163 0
1439 1425 1376 78 0
-1353 -91 1572 -1469 0
-2224 -808 -1457 -276 0
-1168 -405 -437 -1033 0
-66 -1468 100 2229 0
-204 2213 -1309 -1280 0
454 227 1133 1749 0
-31 1019 -1398 -1244 0
2232 1627 -1938 -875 0
556 -238 -1955 -1666 0
-606 -1567 -234 1319 0
-2160 -1150 942 -132 0
-1332 1062 925 -178 0
-402 -1046 -1025 -134 0
-2012 -2236 -1361 625 0
1331 1699 -1011 1190 0
934 -1628 -2166 -762 0
200 -1605 642 1275 0
-2208 30 2045 2083 0
342 973 1601 573 0
1782 -2188 -1681 441 0
-1402 289 853 891 0
1973 1682 -225 1306 0
1632 -746 -79 -1951 0
1662 2163 804 -1687 0
2057 -1007 -1981 1803 0
2078 997 677 -1544 0
-1279 -775 -631 -160 0
-1491 1268 -1084 -1405 0
-1396 -741 1687 -1089 0
-1530 697 788 -921 0
-566 -688 -2190 973 0
1749 107 -2030 -948 0
2137 229 1984 -228 0
219 309 1147 1354 0
28 787 -729 162 0
-987 -1583 -194 1994 0
35 -1180 -2112 1810 0
870 2162 138 -749 0
770 807 -761 -886 0
-721 -1241 -1413 1567 0
1781 -1952 2018 -609 0
961 -1700 -1957 -794 0
864 863 1451 23 0
2240 -1923 -1969 776 0
-2157 2178 -2005 -1767 0
-2010 1630 239 -1372 0
-2098 -1286 1402 -1247 0
-1500 -279 582 -156 0
-116 -545 1409 -420 0
-1207 -887 -392 -1094 0
-1667 -1533 334 -73 0
1173 487 2203 -754 0
446 -919 -1391 137 0
1661 -184 237 2142 0
-532 1337 -22 1694 0
-1010 2056 -368 -1353 0
-53 1764 -652 -1838 0
-1686 -161 2179 1360 0
-402 1046 1025 -134 0
122 -1569 -1182 -524 0
-711 -589 24 1084 0
-83 -1090 87 -240 0
138 -1114 1092 -578 0
-1993 1640 -13 310 0
-1492 -889 -1978 1841 0
1889 159 -1997 -809 0
689 1018 -147 2231 0
-2167 -1070 1314 -958 0
779 295 -1986 257 0
2090 1374 1377 569 0
1352 -1397 -1343 -1265 0
-2135 -1589 1950 986 0
-1552 848 1561 -371 0
594 -1609 -69 2124 0
634 -1267 1532 1502 0
-1473 -424 957 -1015 0
1131 -1227 -1049 1108 0
2136 202 -1065 2125 0
-684 -1824 266 -1918 0
-414 -1630 2013 -364 0
72 -876 1623 -2113 0
190 629 937 -263 0
-1941 276 1306 -135 0
805 -712 -1384 909 0
1143 -1896 -2012 -200 0
815 -98 -1016 -790 0
1711 -1762 -624 1678 0
-788 1119 681 1560 0
-2062 -1887 -170 33 0
1923 1827 -859 -1527 0
1829 1912 757 -347 0
-892 -1826 316 -1509 0
751 972 -300 2011 0
-734 -1270 -1145 1801 0
-146 -1017 -201 -1849 0
-2132 -10 -2177 -333 0
-2220 -2186 -2226 765 0
-697 -2071 171 -983 0
83 1090 87 -240 0
1436 -2085 -655 -1608 0
1079 -843 -1500 737 0
-1175 -555 -1769 195 0
362 -127 -396 -2074 0
-1946 -1797 -1960 -96 0
-892 2009 -514 468 0
-1450 -241 -249 -1938 0
-1956 100 1280 2005 0
-1726 -1989 145 1261 0
681 -2146 -1110 -1243 0
576 -393 1105 -1300 0
-2042 -2120 -1043 255 0
-710 -650 1037 127 0
1254 -1520 -333 -531 0
2040 812 -212 447 0
-375 -1350 1553 1947 0
300 -839 -1362 847 0
874 -2176 -1377 512 0
2215 1265 -1149 -1202 0
-2165 1072 1951 -1524 0
-412 -2026 1254 1611 0
-939 -1352 -1810 1635 0
-1374 -2058 -383 -2102 0
1295 -884 2233 1092 0
-658 -1407 1445 1088 0
-1205 2107 -1562 -562 0
-1185 1971 -511 -1948 0
-1327 51 -1730 1875 0
-215 2228 -872 -2205 0
179 1816 -2036 -2031 0
-1215 32 2088 -793 0
-1355 -1299 1153 -844 0
332 -616 815 980 0
1990 -993 -1173 1009 0
1720 -1966 1509 1828 0
-1957 -478 45 -526 0
1215 -32 -2088 793 0
1508 -1559 -1959 -1261 0
84 144 -1059 1305 0
-1704 -1424 -1003 1049 0
-1746 -827 -1262 1523 0
1119 798 789 171 0
783 -1964 319 368 0
-903 715 1252 719 0
903 715 -1252 719 0
-1822 898 1094 1840 0
774 731 1518 1697 0
-1074 1327 -1470 -2093 0
1256 1211 1762 -610 0
1349 -1726 -985 -699 0
-2143 981 -937 82 0
-724 -922 -416 1224 0
1780 306 -2059 379 0
1230 -975 750 -1318 0
-1023 -1560 -1594 -1403 0
-836 -1423 1811 -1073 0
-1954 965 375 27 0
750 -897 -1120 -336 0
1356 -1501 1763 653 0
39 -1562 866 -1825 0
868 -1045 1559 -1690 0
1834 -429 1607 1134 0
1201 672 -994 670 0
892 -1826 -316 -1509 0
-1524 -2064 1067 -168 0
18 1573 1593 2091 0
1067 1919 -1031 -180 0
-830 -29 -1158 -503 0
1573 -181 -1285 1751 0
1793 -928 -2193 1515 0
2119 -1340 1664 -38 0
-1884 2032 -1788 1022 0
-2193 -1808 -283 -1646 0
2128 -1722 -1449 -2191 0
-820 -347 33 357 0
9 -1820 -1505 534 0
1782 -2188 1681 -441 0
1787 2204 -1474 1705 0
-139 463 -1905 1455 0
2131 1604 -413 1339 0
-1935 -1816 166 29 0
-4 1370 -435 -2022 0
-28 448 -1865 1970 0
1074 1327 -1470 2093 0
422 561 -1963 1411 0
1702 -1890 1086 314 0
-2171 -769 946 1195 0
-1401 1358 -1075 -1976 0
992 143 1324 896 0
21 -1850 -853 -1819 0
-1556 -2096 1433 575 0
902 1126 -740 2174 0
1185 1971 -511 1948 0
-1492 889 1978 1841 0
-566 -1922 1282 478 0
1596 -1937 -1710 1059 0
892 -2009 514 -468 0
456 -440 1707 1945 0
211 90 641 2207 0
-1042 1366 1679 71 0
-1724 -618 1907 -1274 0
-1667 1533 334 73 0
-1996 1476 -1178 1053 0
-1876 1583 1946 -2120 0
-1701 -984 1312 -1771 0
-1266 -67 711 -2092 0
-307 1692 -70 1797 0
-307 -1692 -70 -1797 0
1659 -1079 1406 1050 0
-1495 -1857 1325 877 0
-21 1850 853 1819 0
805 712 1384 909 0
566 -1922 -1282 478 0
895 -1228 -1201 1269 0
-331 -1880 439 590 0
-627 -264 -1985 -785 0
-854 -1835 -1369 1449 0
1653 1868 -2121 -768 0
1197 -106 -1156 -492 0
-1997 -19 613 629 0
-963 1860 908 1538 0
-1879 -634 -822 1340 0
952 515 -1117 -982 0
-1631 -385 -763 -799 0
-1955 -41 -814 -1414 0
88 -2073 -751 1431 0
-1905 1740 216 -1683 0
2169 -1198 -426 1458 0
21 1850 853 -1819 0
-1624 -1510 -771 -1066 0
-1508 -1559 1959 -1261 0
-1867 667 -1431 718 0
-1057 -676 -1278 1541 0
-893 -1073 -2111 125 0
-17 1711 8 -451 0
-424 -327 -596 -2178 0
776 -492 1090 -989 0
1724 -618 1907 1274 0
-1653 1868 2121 -768 0
-1917 -2144 -1814 1417 0
-2222 -97 -1320 1211 0
-806 287 -40 -352 0
-1230 -975 -750 -1318 0
-1905 1740 -216 1683 0
-65 174 401 -1977 0
-1035 -619 1384 -2041 0
-1711 -1762 624 1678 0
-425 -2047 1150 -547 0
1787 -2204 -1474 -1705 0
1956 100 -1280 2005 0
-2090 -1506 384 851 0
31 -1661 -573 1782 0
-15 505 679 242 0
1424 -270 1976 1112 0
464 1050 -1665 582 0
1595 -1775 -593 -2173 0
409 1128 10 -1324 0
-751 972 300 2011 0
-671 -1137 -500 962 0
2080 -2222 -1205 -624 0
-1246 612 -1944 633 0
1441 2045 -1672 -245 0
1777 1486 -280 1325 0
1405 -2073 152 -411 0
2107 860 -454 -1320 0
434 -1765 2207 1198 0
576 -393 -1105 1300 0
1785 -1853 -1847 56 0
-1955 -41 814 1414 0
2065 1249 1598 32 0
659 -1127 2141 1739 0
1132 -214 1024 2227 0
1754 -494 92 -536 0
-1807 398 -1068 858 0
566 -688 -2190 -973 0
-1450 -241 249 1938 0
-2138 -1931 -148 1301 0
388 288 2232 -292 0
-1600 -1317 -1344 -1546 0
-232 737 -1928 297 0
1809 1893 1430 -879 0
2080 -2222 1205 624 0
-1270 545 -1899 408 0
-1121 1505 21 933 0
1828 -1800 -1930 -284 0
-556 -238 1955 -1666 0
-1282 730 466 1701 0
1676 1264 1277 1035 0
-562 2221 1133 391 0
600 -1019 -2152 -342 0
-206 -1777 -1521 -2189 0
1064 1315 2130 -775 0
985 1821 1458 866 0
1622 1920 885 -2209 0
-269 -513 877 746 0
917 -1858 1978 880 0
1118 1940 738 1617 0
676 -1475 -1666 -756 0
-1967 -682 1670 917 0
-831 -564 1754 1040 0
228 -178 -1465 1750 0
-1292 392 1137 1351 0
-1125 1654 6 1645 0
-2218 -667 -1818 -1991 0
246 -881 -1703 1172 0
479 834 1240 970 0
874 -2176 1377 -512 0
-1749 107 -2030 948 0
-1784 1357 391 107 0
-304 -553 656 -639 0
-757 1611 614 1887 0
-739 101 -1660 893 0
-1827 -626 -1104 1051 0
-668 18 -2037 -895 0
-1466 1404 -559 1479 0
-1552 -848 1561 371 0
340 -723 -1005 -1576 0
-2135 1589 1950 -986 0
-1856 1186 -1399 -1249 0
-939 256 -2215 476 0
-658 1407 -1445 1088 0
-1637 1155 782 1916 0
-2012 2236 -1361 -625 0
574 -1536 -349 631 0
-1822 -622 766 1355 0
-1836 -380 269 -876 0
1462 -2209 -999 -1616 0
1888 1131 -2066 -266 0
524 918 318 286 0
606 1567 -234 1319 0
-1021 536 1418 511 0
2157 -2178 -2005 -1767 0
1238 1045 -2108 -1765 0
-185 -1481 293 2204 0
713 1883 -1276 586 0
1786 -1671 1187 1895 0
1607 -1151 -1490 714 0
1057 676 1278 -1541 0
1881 1992 -1732 77 0
-860 -1690 1545 -1848 0
-638 1443 -230 -692 0
-515 755 -1006 -1746 0
1164 -104 -1413 -442 0
-489 -376 -2151 -949 0
260 -800 -1933 1995 0
-831 564 1754 -1040 0
-273 -23 1995 774 0
1691 1142 -1991 -323 0
-721 1241 -1413 -1567 0
2194 -1741 2114 1744 0
-638 -1443 230 -692 0
-1658 1404 1342 -1438 0
415 945 -299 -1745 0
1177 175 462 -844 0
-50 -1837 -753 -1953 0
766 -1232 -45 -2003 0
-974 -2189 800 330 0
-1335 -2028 -923 -1475 0
-497 -310 -675 129 0
-1013 1338 -1974 -265 0
1593 186 1269 -628 0
162 142 118 -747 0
1782 2188 -1681 -441 0
1188 -81 -2143 -1921 0
1777 -1486 -280 -1325 0
53 -1764 652 1838 0
1994 -1108 -1824 -1755 0
1578 -1038 89 1634 0
146 -1017 -201 1849 0
715 458 -1316 -1917 0
-1508 2140 -1545 -227 0
157 -590 -727 991 0
-1941 -276 1306 135 0
231 612 -861 -1638 0
1632 -2064 -1734 1203 0
845 1585 -193 334 0
-1780 -306 -2059 379 0
-961 1601 -1922 2188 0
820 -347 -33 357 0
-1531 -2210 -1965 957 0
-1391 1686 -1790 803 0
1218 -1786 -1467 1263 0
-1578 -1504 -1909 1815 0
-2130 -1483 616 1570 0
868 1045 -1559 -1690 0
-44 -1363 -591 -1872 0
2230 1044 1680 -1874 0
-864 2115 -260 -1669 0
-1310 -1088 930 855 0
1109 -658 -2027 -752 0
-1356 -1501 1763 -653 0
1694 -926 -847 -2139 0
1436 -2085 655 1608 0
445 418 -1575 -484 0
-1936 -350 460 -1543 0
1477 -2046 543 2001 0
522 -924 -1644 -416 0
1125 1654 -6 1645 0
-1174 1194 -2051 1908 0
-1208 1615 -1674 -11 0
-1350 1434 1055 1167 0
414 1630 -2013 364 0
-2153 1472 168 -1968 0
1061 -1918 806 -1297 0
-1842 369 1122 -706 0
469 -1871 199 -1474 0
-1740 -709 -1436 -1435 0
-1851 -255 -1668 -1393 0
1441 -2045 -1672 245 0
-1064 1191 -574 2119 0
1540 -283 -80 -1679 0
1724 1199 -1628 -553 0
2184 -2240 281 -968 0
-1096 2127 -167 1717 0
-1702 1890 -1086 -314 0
262 -828 -713 -1237 0
779 -295 1986 257 0
726 -829 1779 -61 0
1920 67 -2117 -2089 0
1012 -935 -703 -936 0
-1954 -965 -375 27 0
157 -590 727 -991 0
-2135 1589 -1950 986 0
-1020 2044 981 1656 0
1353 -91 -1572 -1469 0
-449 1271 -244 -2186 0
537 1965 1230 -685 0
1807 -398 -1068 858 0
-1257 819 1479 -2039 0
-96 -1494 296 -1043 0
1571 -233 -2023 1795 0
-361 -1488 -1577 -1085 0
-418 -1034 -1924 -1999 0
-1255 2004 -2003 -303 0
-2143 981 937 -82 0
146 -1017 201 -1849 0
-1441 -2045 1672 245 0
-857 1678 -1308 -94 0
1662 2163 -804 1687 0
1203 1031 1447 -2175 0
780 -770 489 381 0
1461 -292 -2129 2103 0
1740 709 -1436 -1435 0
1659 -1079 -1406 -1050 0
1784 -1357 391 107 0
1885 -2148 804 -1284 0
-1218 1786 -1467 1263 0
-1743 -1904 -189 -1519 0
916 -929 -1863 1001 0
-1214 -522 224 -1606 0
-523 231 -869 -1871 0
-1702 -1890 1086 -314 0
1834 429 -1607 1134 0
-776 492 -1090 989 0
1075 -459 -1103 894 0
-1057 676 -1278 -1541 0
-1586 -1813 -728 -450 0
-1552 -848 -1561 -371 0
-1673 47 -2137 -1151 0
-502 632 1609 -341 0
-425 2047 1150 547 0
-864 863 -1451 23 0
-481 1748 2219 -1598 0
-291 2203 -331 -172 0
1977 -1915 2230 272 0
-2090 1374 1377 -569 0
1206 1159 -1086 740 0
1350 1434 1055 -1167 0
1634 1112 1227 194 0
-382 -72 -599 -997 0
434 1765 -2207 1198 0
-676 -1475 1666 -756 0
-2000 699 -1825 2221 0
1994 -1108 1824 1755 0
1078 482 -1459 -1558 0
2160 -1150 942 132 0
-1811 -1033 -1076 950 0
1445 2104 -2067 -547 0
736 1961 -659 1520 0
6 2180 -969 1060 0
-1196 -77 1853 2110 0
-1993 1640 13 -310 0
1860 1534 1731 -2069 0
-1194 -1914 2046 1608 0
-1993 521 -662 -1330 0
974 2189 -800 -330 0
-1097 -1525 1638 -1189 0
-506 -1874 -1763 1929 0
2165 1072 -1951 -1524 0
472 2095 -473 1192 0
163 1289 1696 372 0
98 -1381 1174 1483 0
1599 -1455 -475 -783 0
920 2078 294 846 0
1443 -810 -1099 1056 0
-1260 -1308 -451 -1937 0
-1220 -192 62 2159 0
1526 1408 353 1440 0
1909 -518 1393 -778 0
470 -565 -1919 -1968 0
2240 -1923 1969 -776 0
-750 -897 -1120 336 0
350 -58 -1242 -1321 0
-566 688 -2190 -973 0
-1003 -1401 -1728 -430 0
-262 828 -713 -1237 0
1215 32 -2088 -793 0
-1724 618 -1907 -1274 0
-1688 -824 1885 -1375 0
1822 898 -1094 1840 0
-968 -1527 183 953 0
669 2238 -1281 -890 0
-73 1752 -1226 -1395 0
-684 -1641 1760 -40 0
1641 -1888 -960 493 0
1168 -405 -437 1033 0
506 1874 1763 -1929 0
-1095 -938 377 -325 0
-1078 482 -1459 1558 0
-1676 1264 -1277 1035 0
714 2 1984 -925 0
1537 -799 -1388 -1303 0
-1402 289 -853 -891 0
-388 -288 2232 -292 0
-42 -1452 954 615 0
-402 2162 -610 857 0
1011 1987 -983 -136 0
-1170 285 1792 -943 0
-564 542 -423 -2033 0
-1078 -482 -1459 -1558 0
-760 -1574 -927 763 0
811 1322 -1141 1154 0
637 -1680 683 2111 0
-1069 509 -825 -1870 0
771 1515 440 -80 0
-1781 1952 -2018 609 0
-2090 -1506 -384 -851 0
-1792 1076 964 -1448 0
-1358 1379 1027 -1081 0
1013 1338 1974 -265 0
-848 -1542 -638 554 0
191 1410 406 -1208 0
661 318 -824 -2094 0
394 -1258 308 421 0
783 -1964 -319 -368 0
865 1214 1702 128 0
1667 1533 -334 73 0
-1119 798 789 -171 0
115 568 -445 1605 0
1894 -644 -313 401 0
331 -1880 -439 590 0
726 -829 -1779 61 0
1069 -509 -825 -1870 0
1364 701 -1514 -103 0
-1462 2209 999 1616 0
548 -710 -1107 2007 0
1477 2046 543 -2001 0
823 -223 -1251 1613 0
-2016 -586 -2236 -849 0
1798 1530 -1023 -2148 0
-795 1339 -910 1886 0
-191 -1410 406 -1208 0
-2098 -51 117 404 0
1811 1033 -1076 950 0
778 -1760 -1165 2197 0
1637 1155 -782 1916 0
-1203 -1031 -1447 2175 0
-1714 -235 1304 -2214 0
397 1221 315 -1830 0
-1185 1971 511 1948 0
224 630 -1571 1890 0
281 -826 1277 54 0
-1005 1074 -721 -1823 0
-1571 233 2023 -1795 0
-992 -143 -1324 -896 0
-37 -153 525 -1098 0
-996 -607 203 -2025 0
-1578 1038 -89 -1634 0
-708 -1799 -202 1899 0
1500 279 -582 156 0
530 1742 -1176 1715 0
1186 -1289 1962 -1406 0
-1694 926 -847 -2139 0
-931 -132 -36 -20 0
1836 380 269 -876 0
1773 -585 153 646 0
2108 -1848 -97 -1485 0
1268 1941 -510 1911 0
236 1427 34 -1852 0
-1632 2064 1734 -1203 0
2155 1298 140 -1534 0
-1210 -604 1004 -198 0
852 -1806 2041 1429 0
-1016 1908 704 -1964 0
75 1244 1998 -1177 0
955 560 -915 1943 0
1012 -935 703 936 0
-1851 255 -1668 1393 0
1023 1560 -1594 -1403 0
-238 2191 2079 -923 0
-1558 543 -1572 251 0
-380 -2123 -906 1365 0
-1201 -672 -994 670 0
-1587 2109 -940 -652 0
-1394 -577 -653 -1778 0
-919 -2014 -161 -370 0
-668 -18 -2037 895 0
278 -2052 -1344 -1716 0
-486 -111 -1328 -335 0
-1266 -67 -711 2092 0
348 -457 90 -76 0
2029 907 1733 1770 0
1571 -233 2023 -1795 0
1699 -1758 -1750 -42 0
-821 -26 1970 358 0
991 1988 -86 720 0
2131 1604 413 -1339 0
-9 81 -905 -1768 0
526 303 466 367 0
-69 -1146 -1442 -1368 0
-2232 -1627 1938 875 0
1343 1218 210 1071 0
25 2038 142 1129 0
702 1495 206 79 0
-1215 -32 2088 793 0
-1220 192 62 -2159 0
-116 545 -1409 -420 0
1837 -499 916 1345 0
-1900 1568 -329 175 0
50 -1837 -753 1953 0
-1907 762 2201 -2144 0
-98 1381 -1174 -1483 0
1175 -555 -1769 -195 0
-2080 -2222 -1205 624 0
-1737 -59 137 52 0
1830 -851 -2176 1004 0
751 -972 300 2011 0
-707 -739 -724 -305 0
-2149 -1921 -1020 969 0
784 488 1113 -5 0
-1702 -1890 -1086 314 0
-1221 -1210 -1743 133 0
402 1046 1025 134 0
-88 -2073 -751 -1431 0
1688 -824 1885 1375 0
1655 -743 -480 1360 0
-1529 -1986 -1800 -2052 0
1332 -1062 -925 178 0
661 -318 -824 2094 0
301 -1954 2053 267 0
-243 603 -84 -1114 0
838 -2185 507 -1127 0
-1963 -809 -263 654 0
664 395 -1784 -1444 0
1292 -392 -1137 -1351 0
-841 -534 1188 99 0
-1726 1989 145 -1261 0
559 832 109 1805 0
-1593 186 1269 628 0
2157 2178 2005 -1767 0
-874 -1727 326 1006 0
-42 -1452 -954 -615 0
-1617 725 1262 872 0
-1740 -709 1436 1435 0
1097 -1525 1638 1189 0
-2013 -605 348 214 0
864 2115 260 -1669 0
-222 -2202 704 475 0
217 1587 1220 -829 0
-1206 1159 -1086 -740 0
1095 -938 -377 -325 0
-689 1018 -147 -2231 0
-1450 241 249 -1938 0
-1461 292 -2129 2103 0
911 -2054 286 -2156 0
-715 458 1316 -1917 0
-369 1936 -374 471 0
69 -1146 1442 -1368 0
-902 -1126 740 -2174 0
-1078 -649 -1541 216 0
1818 88 1181 585 0
1653 -1868 2121 -768 0
1213 -1902 -1253 979 0
-758 -1419 -1008 608 0
-111 -533 1771 -126 0
-4 -1370 -435 2022 0
739 -101 -1660 893 0
320 1801 1354 1029 0
-645 -83 -805 -1264 0
-1397 1263 337 -95 0
968 -1527 183 -953 0
510 2224 411 -1867 0
-1881 1992 1732 77 0
-2237 -1693 -1796 587 0
947 -193 -1395 -1744 0
1266 -67 711 2092 0
-1000 855 -1371 1187 0
-859 63 -989 -733 0
-1812 -2048 1453 -385 0
-2115 920 1163 -1626 0
-648 542 2097 -741 0
-1669 846 330 -1135 0
-1139 -1698 338 944 0
650 -990 1293 1322 0
-1323 150 -1048 -1927 0
1841 1580 -748 -1446 0
-584 404 -891 797 0
-9 -81 905 -1768 0
-2140 -268 -2030 -1877 0
1977 -1915 -2230 -272 0
836 1423 1811 -1073 0
650 990 -1293 1322 0
2102 -103 728 -169 0
400 -180 1087 -483 0
-602 -1643 -472 -182 0
769 -617 -258 951 0
-259 1612 -899 -1845 0
-8 -2080 426 39 0
1549 -1415 -1257 533 0
2113 -483 -1447 677 0
1794 -1735 1212 1359 0
430 1886 1103 -623 0
-2072 -74 -509 1333 0
1268 -1941 510 1911 0
-820 347 33 -357 0
-711 -589 -24 -1084 0
-328 -1063 -273 452 0
-784 488 1113 5 0
1688 -1706 1798 -918 0
1168 405 -437 -1033 0
-1500 279 582 156 0
-739 -101 -1660 -893 0
-208 -862 2035 913 0
870 -2162 -138 -749 0
-736 1961 -659 -1520 0
-1652 277 -155 -839 0
596 835 346 -361 0
602 -1643 472 -182 0
1949 1154 2109 -359 0
-645 -83 805 1264 0
-2211 1046 -1485 -1256 0
-1531 -2210 1965 -957 0
-991 -1988 86 -720 0
-916 929 -1863 1001 0
648 1380 -1662 -693 0
-1550 705 -727 -541 0
-1542 1056 1859 -643 0
671 -1137 -500 -962 0
-1947 -1584 339 274 0
-382 -72 599 997 0
162 -142 118 747 0
293 -208 -1838 -1246 0
-622 -2147 1207 -2004 0
-306 179 830 -1980 0
362 127 -396 2074 0
1811 -1033 -1076 -950 0
845 -675 662 1695 0
-394 1258 308 421 0
-1906 2157 1473 -1267 0
674 1349 -177 -1709 0
-1929 1778 683 -1660 0
2136 202 1065 -2125 0
-596 835 346 361 0
1486 -1422 -403 -1903 0
1439 -1425 1376 -78 0
1209 -287 1152 -480 0
-1847 -1881 1492 682 0
-1923 -1827 -859 -1527 0
684 -1824 266 1918 0
1334 -1239 -1958 -1998 0
-1863 -220 -1926 -1161 0
1213 -1902 1253 -979 0
1123 -2135 -1862 1235 0
-1363 -1563 1551 -1425 0
1786 -1671 -1187 -1895 0
434 1765 2207 -1198 0
307 1692 -70 -1797 0
1906 -2157 1473 -1267 0
-929 2084 1348 -1222 0
-1784 1357 -391 -107 0
1335 2028 -923 -1475 0
412 -2026 1254 -1611 0
-1295 884 2233 1092 0
-578 -1002 883 356 0
-155 -123 926 1356 0
1424 -270 -1976 -1112 0
2062 1887 -170 33 0
-190 629 -937 -263 0
-1840 -1351 688 -2152 0
-1157 495 -818 -2037 0
568 -1999 1420 -1650 0
-519 85 -645 660 0
-1932 -476 -1564 2168 0
810 706 1546 -1636 0
-1215 32 -2088 793 0
-278 -2052 -1344 1716 0
-1286 -561 914 -1802 0
2101 355 110 -1675 0
912 -694 -882 1420 0
1170 -285 1792 -943 0
-1822 -622 -766 -1355 0
410 -604 820 -1904 0
-1571 233 -2023 1795 0
-57 291 157 -700 0
1854 -742 1897 -617 0
1155 -1291 488 1497 0
408 -2125 856 151 0
-743 -370 1708 -1126 0
-422 159 1817 -1392 0
-693 -1190 -1400 615 0
-792 -1525 -523 -818 0
698 -2223 -1496 1146 0
-1174 -1194 -2051 -1908 0
600 898 75 -1299 0
-15 -505 679 -242 0
-415 -945 299 1745 0
1526 -2054 -2015 -1382 0
1842 -369 -1122 706 0
654 1768 82 -1184 0
-1470 141 1581 1241 0
281 -826 -1277 -54 0
-514 -1757 -850 -432 0
-2087 2089 1044 570 0
765 1026 2158 -930 0
294 -382 -1721 -1422 0
-1782 -2188 -1681 -441 0
1419 -1893 1624 1855 0
-141 1730 -672 -628 0
955 -1586 384 -2058 0
-2043 1898 114 -2154 0
1610 1403 1110 1731 0
-389 1823 -2076 104 0
788 1119 -681 1560 0
1905 1740 216 1683 0
-471 -468 -1966 -1242 0
64 -1507 -1884 -403 0
-1429 909 1642 -1272 0
-1578 -1038 89 -1634 0
820 347 -33 -357 0
-1209 287 -1152 480 0
1929 -1778 683 -1660 0
-1069 509 825 1870 0
-2167 -1070 -1314 958 0
-1724 -1199 -1628 -553 0
1706 -136 921 -1182 0
609 660 1370 2053 0
-1565 -1081 -270 89 0
1035 -619 -1384 -2041 0
-1949 1154 -2109 -359 0
-1295 -884 -2233 1092 0
1602 -262 -2016 -686 0
-1194 1914 -2046 1608 0
-1557 1795 -552 1960 0
-1074 -1327 1470 -2093 0
-342 973 -1601 573 0
120 -2147 498 1052 0
-7 2154 -1116 -947 0
-1296 781 -1528 -2238 0
-1155 -1291 -488 1497 0
2161 -399 1412 417 0
-1617 725 -1262 -872 0
1990 2161 1091 -2194 0
684 -1641 1760 40 0
-424 -327 596 2178 0
578 1002 -883 -356 0
-1524 -2064 -1067 168 0
200 1605 -642 1275 0
-919 -2014 161 370 0
-2113 483 -1447 677 0
-83 1090 -87 -240 0
-2136 2196 -1554 1291 0
1837 -499 -916 -1345 0
-943 305 950 -125 0
-1950 1336 271 -197 0
1298 2060 343 1610 0
713 -1883 -1276 -586 0
1925 -790 -640 2202 0
-277 2117 -567 24 0
-2055 344 -826 -183 0
-1834 429 1607 1134 0
823 223 -1251 -1613 0
-1558 -543 1572 251 0
1102 253 -668 -696 0
-2015 -205 252 2002 0
-8 -2080 -426 -39 0
-2215 -1265 1149 1202 0
213 595 -290 -105 0
2015 205 252 2002 0
221 -2029 48 -1843 0
2016 -586 -2236 849 0
329 794 1232 -1153 0
693 1190 -1400 615 0
-581 -235 -2047 -1612 0
486 -111 -1328 335 0
1637 1155 782 -1916 0
-1061 1918 -806 1297 0
736 -345 2132 992 0
-2105 -1695 1533 177 0
247 -1764 217 -1944 0
966 -479 1139 -176 0
-469 1871 -199 1474 0
-2017 -336 -640 -611 0
593 -686 1361 642 0
2137 229 -1984 228 0
-510 -2224 411 -1867 0
500 1471 112 -1844 0
422 159 -1817 -1392 0
-1691 -1142 1991 323 0
-1990 993 1173 -1009 0
-1780 1408 1677 205 0
-2208 -30 -2045 2083 0
-765 1026 -2158 -930 0
1348 -470 -400 220 0
1248 -397 485 2228 0
-236 1427 34 1852 0
2138 -1931 -148 -1301 0
-1804 -1399 -372 -1742 0
-895 1228 1201 -1269 0
1018 -1981 -1916 -461 0
-2172 -139 -756 649 0
1017 1229 110 2151 0
802 539 199 1234 0
-1662 -2163 -804 1687 0
-406 -597 -383 1514 0
1064 -1191 574 -2119 0
-1925 -790 640 2202 0
-2010 1630 -239 1372 0
-1990 -2161 -1091 2194 0
-1423 -299 1168 -644 0
-523 231 869 1871 0
-428 1691 -1620 -2164 0
-1898 664 1597 -497 0
158 537 -419 -666 0
1270 -545 -1899 408 0
-31 1019 1398 1244 0
-870 -243 -94 -1596 0
987 1038 2042 518 0
-1155 1291 -488 -1497 0
-75 1244 -1998 -1177 0
352 -842 -1668 -1165 0
-1057 676 1278 1541 0
1347 1805 1373 1682 0
788 1119 681 -1560 0
285 -707 -52 924 0
911 2054 286 2156 0
1632 2064 -1734 -1203 0
838 -2185 -507 1127 0
1818 -88 -1181 585 0
-637 -1680 683 -2111 0
736 -345 -2132 -992 0
-638 -1443 -230 692 0
-1780 306 -2059 -379 0
-188 1130 -646 -999 0
-70 621 -1297 1209 0
-1716 1636 -1930 1859 0
-1831 -1522 -1465 954 0
-2035 -1233 -633 -1097 0
1989 -868 434 1821 0
-1811 1033 -1076 -950 0
-28 448 1865 -1970 0
-681 2146 -1110 -1243 0
2181 2212 -241 1564 0
958 -738 1519 -1939 0
-247 -1764 217 1944 0
-116 1579 -151 -2057 0
485 -133 -1939 725 0
-1889 -159 -1997 -809 0
-455 1629 -1047 -2010 0
1946 -1797 -1960 96 0
-397 1221 315 1830 0
1883 311 -50 -971 0
502 -632 -1609 341 0
1885 2148 804 1284 0
1292 392 -1137 1351 0
1540 283 80 -1679 0
-650 990 -1293 -1322 0
1321 -1720 1529 722 0
-1702 1890 1086 314 0
-852 1806 -2041 -1429 0
-2157 -2178 2005 -1767 0
2043 -1898 -114 2154 0
-698 656 618 -1180 0
-508 -1426 -1855 1179 0
2143 -981 937 -82 0
158 537 419 666 0
1785 -1967 -915 1813 0
1743 1904 -189 -1519 0
-1617 -725 -1262 872 0
-1445 -2104 -2067 -547 0
-409 1128 -10 -1324 0
-1722 1010 -1335 -867 0
-2057 -1007 -1981 -1803 0
1454 -1719 1516 -690 0
-848 -1542 638 -554 0
-893 1073 -2111 -125 0
-920 2078 294 -846 0
-1869 -2072 -1864 550 0
-1757 -363 -966 -1288 0
1831 1522 -1465 954 0
1298 -2060 -343 1610 0
-1240 218 1460 1698 0
1756 976 1364 131 0
-1977 -1915 -2230 272 0
60 -321 1640 1597 0
-279 -1873 -1213 119 0
-44 1363 591 -1872 0
-928 -886 563 -2019 0
812 -1504 2081 -1565 0
2225 325 -1926 -906 0
-1683 -482 -1477 -655 0
2184 74 165 436 0
1445 2104 2067 547 0
-519 -85 645 660 0
-1669 -846 -330 -1135 0
2135 -1589 1950 -986 0
684 -1641 -1760 -40 0
-1878 2002 1490 -1535 0
-693 1190 -1400 -615 0
1326 1176 1791 -1468 0
-1931 196 1595 1633 0
-166 -1761 -113 1561 0
348 457 -90 -76 0
831 564 1754 1040 0
-1051 1 -1287 -953 0
-802 -539 -199 -1234 0
481 1748 -2219 -1598 0
1102 -253 -668 696 0
387 -598 801 1287 0
-1036 -546 -1326 365 0
1064 -1315 -2130 -775 0
-2051 2001 319 91 0
-1203 1031 1447 2175 0
1496 -1274 959 1503 0
-2119 -1340 -1664 -38 0
-332 616 815 980 0
1590 -1791 1082 -1725 0
1171 -1125 -99 2149 0
429 -2031 47 -1761 0
-1347 -1805 -1373 -1682 0
-1441 2045 -1672 245 0
1018 -1981 1916 461 0
-710 650 1037 -127 0
-1831 1522 1465 954 0
1025 -749 356 1132 0
-1652 -277 -155 839 0
-302 -1414 2177 -1832 0
1624 1510 771 1066 0
1878 2002 1490 1535 0
41 1369 1300 -2079 0
2200 -1996 -821 458 0
-1169 -1222 -499 254 0
-1734 -702 974 -956 0
1204 1382 1535 -2 0
-1650 2173 1290 -1275 0
1826 432 538 -833 0
1704 -1424 1003 1049 0
-1724 1199 1628 -553 0
-2090 1506 -384 851 0
-135 1684 -2170 -663 0
201 2171 879 508 0
-955 -1586 -384 -2058 0
-345 -1555 -1739 854 0
-578 -1002 -883 -356 0
-1863 -220 1926 1161 0
1860 -1534 1731 2069 0
1620 2218 1773 -1083 0
-1876 1583 -1946 2120 0
1347 -1805 -1373 1682 0
1747 -1144 557 1600 0
247 1764 217 1944 0
955 1586 384 2058 0
-1203 -1031 1447 -2175 0
-232 737 1928 -297 0
1673 47 2137 -1151 0
-1233 -1028 1493 -1833 0
-684 1641 -1760 -40 0
497 -310 -675 -129 0
-596 -835 -346 361 0
-1685 1333 2106 1806 0
637 1680 683 -2111 0
201 2171 -879 -508 0
1649 1891 -2020 -613 0
-2131 1604 413 1339 0
-429 2031 47 -1761 0
-34 1656 2020 190 0
1500 279 582 -156 0
-1812 -328 2231 -1770 0
789 831 -1021 -2146 0
-1028 -696 442 606 0
2106 -436 -54 619 0
-50 1837 753 -1953 0
-1039 1685 -1372 -1870 0
-1336 464 -520 -164 0
1983 2126 1450 -1932 0
1724 618 1907 -1274 0
-126 1250 112 717 0
413 1776 2118 636 0
-2051 -2001 319 -91 0
204 -2213 1309 1280 0
1423 -299 1168 644 0
1634 -1112 1227 -194 0
-566 1922 1282 -478 0
1878 2002 -1490 -1535 0
66 1468 -100 -2229 0
-1873 -93 -620 -496 0
-985 -1821 -1458 -866 0
410 1912 -1219 -952 0
-1932 476 -1564 -2168 0
-2218 667 -1818 1991 0
1493 1102 1189 -1157 0
2061 -1341 -1843 -1480 0
163 -1437 -204 394 0
427 -979 986 591 0
1141 -1100 -312 2096 0
1212 -963 516 -2138 0
-2169 -1198 -426 -1458 0
-190 629 937 263 0
594 2112 2223 -1294 0
1900 -1568 -329 175 0
-122 -1987 -1332 -1758 0
899 -425 -931 1014 0
-987 -1583 194 -1994 0
-1829 1912 -757 -347 0
2021 873 -1200 540 0
-1607 -1151 -1490 -714 0
1600 1317 -1344 -1546 0
1171 324 -1302 -1054 0
-802 539 199 -1234 0
1334 1239 1958 -1998 0
121 213 -772 1416 0
-2192 26 1461 -1476 0
-697 -2071 -171 983 0
1246 612 1944 633 0
-515 -755 1006 -1746 0
-1390 678 215 1615 0
-16 17 -641 -2169 0
987 -1583 -194 -1994 0
449 -491 -1712 -223 0
-9 -1820 1505 534 0
1649 -1891 2020 -613 0
-1807 -398 1068 858 0
-1457 1323 718 -1142 0
388 -288 -2232 -292 0
280 64 1789 -1774 0
1590 -1791 -1082 1725 0
1621 875 -1442 -2129 0
2105 -1695 -1533 177 0
-57 291 -157 700 0
939 -256 2215 -476 0
-1600 1317 1344 -1546 0
-437 128 -964 -1159 0
1696 -530 66 2213 0
-497 310 -675 -129 0
1754 494 -92 -536 0
-2107 -860 454 1320 0
1117 -679 -827 1940 0
-1162 -1428 57 321 0
-902 1126 740 2174 0
1462 2209 -999 1616 0
671 120 1498 887 0
-767 1463 158 1577 0
1701 -984 1312 1771 0
-1321 1720 1529 722 0
-449 491 1712 223 0
-1109 -658 2027 -752 0
1867 -667 -1431 718 0
-1213 -1902 1253 979 0
-479 834 -1240 970 0
1539 803 552 -1494 0
820 -347 33 -357 0
-2237 -1693 1796 -587 0
596 835 -346 361 0
-1342 -428 -2082 -1684 0
594 1609 -69 -2124 0
304 -553 656 639 0
1936 350 -460 1543 0
1496 1274 959 -1503 0
-920 2078 -294 846 0
2107 -860 -454 1320 0
976 -1513 1283 -1992 0
1633 -1387 694 -1290 0
1876 307 1755 1061 0
-1787 -2204 -1474 1705 0
1973 -1682 -225 -1306 0
-815 -98 -1016 790 0
1470 141 -1581 1241 0
-490 1482 1497 -444 0
-1102 -253 -668 -696 0
-578 1002 883 -356 0
-327 -588 -558 -1956 0
1737 59 137 52 0
361 -1488 1577 -1085 0
1587 2109 940 -652 0
928 -886 -563 -2019 0
1631 -385 -763 799 0
-1209 287 1152 -480 0
1034 -1359 -1948 912 0
-68 -131 -169 354 0
-578 1002 -883 356 0
-2078 -997 677 -1544 0
-2224 -808 1457 276 0
-594 -2112 -2223 1294 0
1502 1892 1725 -38 0
-1364 -701 -1514 -103 0
1055 780 -274 2019 0
-2090 -1374 -1377 -569 0
1323 150 1048 -1927 0
-736 -1961 659 -1520 0
-259 1612 899 1845 0
-1718 -2033 -1396 2060 0
-1401 -1358 -1075 1976 0
-106 -165 -550 -1969 0
-2098 51 117 -404 0
-1331 -1699 1011 -1190 0
1691 -1142 -1991 323 0
1461 292 2129 2103 0
-695 -43 1237 -516 0
-1025 749 356 1132 0
1654 1766 -1216 705 0
1714 -235 1304 2214 0
-1603 -535 -2199 415 0
1935 1816 166 29 0
671 -120 -1498 887 0
-1248 -397 485 -2228 0
603 -1657 -690 1295 0
-946 1854 1179 -595 0
211 -90 -641 2207 0
9 1820 1505 534 0
1905 -1740 -216 1683 0
-371 -108 -834 230 0
-1889 -159 1997 809 0
-643 316 -284 -773 0
1385 2086 -625 -716 0
932 4 -2055 -1 0
-1021 -536 1418 -511 0
2107 -860 454 -1320 0
2100 1728 636 910 0
1732 -571 601 -889 0
438 -121 -2101 -732 0
1902 1439 -44 93 0
-562 -2221 -1133 391 0
-179 -1816 2036 2031 0
-1410 -1390 2110 -1619 0
-1632 746 79 1951 0
2000 699 -1825 -2221 0
2172 139 756 -649 0
75 1244 -1998 1177 0
261 994 264 -14 0
222 -2202 704 -475 0
1473 -424 -957 -1015 0
510 -2224 411 1867 0
-1884 -2032 1788 1022 0
-1889 159 -1997 809 0
1175 -555 1769 195 0
1663 -1310 -1109 -1671 0
42 1452 954 615 0
-2234 -1943 1506 315 0
753 1001 -744 -2225 0
-776 492 1090 -989 0
-1434 381 102 -246 0
812 1504 2081 1565 0
-494 -423 -1517 -124 0
-1248 397 485 2228 0
-1722 -1010 -1335 867 0
-1181 2011 1130 -1753 0
836 -1423 -1811 -1073 0
402 2162 -610 -857 0
2155 1298 -140 1534 0
238 2191 -2079 -923 0
594 -2112 2223 1294 0
1398 -2142 -1446 1239 0
-601 1192 -748 1334 0
-752 768 -2160 2067 0
13 1162 -1489 -1111 0
-2155 1298 -140 -1534 0
1785 1853 -1847 -56 0
-1343 -1218 210 1071 0
848 1542 -638 554 0
-1551 -2049 -1647 -978 0
-435 -519 1676 -344 0
2077 980 -1464 -977 0
673 1689 2226 1273 0
537 1965 -1230 685 0
-1653 -1868 -2121 -768 0
1078 -649 1541 216 0
1460 -1134 -759 -1878 0
2105 1695 -1533 -177 0
-224 630 1571 1890 0
-669 2238 1281 -890 0
-1706 136 921 -1182 0
479 -834 -1240 970 0
-908 -2155 1301 -1512 0
-57 -291 -157 -700 0
-1311 538 -1101 1158 0
-1539 -803 552 -1494 0
753 -1001 -744 2225 0
1295 -884 -2233 -1092 0
-1775 -43 -1602 148 0
-523 -231 -869 1871 0
548 -710 1107 -2007 0
1556 2096 1433 575 0
1025 -749 -356 -1132 0
-1093 68 -1499 680 0
-261 -994 -264 14 0
-2157 -2178 -2005 1767 0
-939 1352 -1810 -1635 0
-301 -1954 2053 -267 0
-750 -897 1120 -336 0
-1950 1336 -271 197 0
1311 -538 1101 -1158 0
1121 -1058 2034 2150 0
-2101 -355 -110 1675 0
259 149 1712 -1738 0
-572 -1307 -1522 -229 0
405 -2183 -865 -945 0
422 -561 -1963 -1411 0
-184 -2025 -880 1580 0
410 604 -820 -1904 0
1072 -1096 -2153 938 0
-2029 -907 -1733 -1770 0
-477 -1030 1839 -1216 0
1772 1236 118 258 0
-457 1260 -16 -2134 0
1380 1331 -2216 2071 0
-1714 49 784 490 0
-188 1130 646 999 0
-114 -1444 -948 -373 0
-87 -1197 529 712 0
-1029 -782 -1736 444 0
1552 848 -1561 -371 0
1457 1323 -718 -1142 0
-1078 -649 1541 -216 0
2174 -314 -2023 1484 0
527 -1779 840 396 0
-1898 -664 -1597 -497 0
1603 -535 2199 415 0
1704 1424 -1003 1049 0
1409 777 -1303 -398 0
-1777 -1486 280 -1325 0
1782 2188 1681 441 0
238 -2191 -2079 923 0
1194 1914 -2046 -1608 0
1279 -775 -631 160 0
-340 723 1005 1576 0
-692 970 363 -2008 0
-600 -1019 -2152 342 0
-155 123 -926 1356 0
-2105 1695 1533 -177 0
-2035 -1233 633 1097 0
-1508 -2140 1545 -227 0
484 -828 971 -878 0
185 1481 293 2204 0
946 -1854 1179 -595 0
-1364 701 -1514 103 0
1983 -256 -639 -35 0
231 -612 -861 1638 0
-25 2038 -142 1129 0
243 -603 -84 -1114 0
-397 -1221 -315 1830 0
-454 227 -1133 1749 0
-322 134 -76 2227 0
-965 1167 -1172 -456 0
-306 -179 830 1980 0
1032 -608 -2217 -1703 0
-1581 670 234 1985 0
-1175 -2034 1013 1850 0
1773 585 153 -646 0
874 1727 -326 -1006 0
1812 -328 -2231 -1770 0
1632 746 -79 1951 0
752 768 -2160 -2067 0
-1651 -962 -1312 -1250 0
-203 1093 -936 -602 0
-2075 -1054 -720 1891 0
-515 755 1006 1746 0
1018 1981 1916 -461 0
943 305 -950 -125 0
-2078 -997 -677 1544 0
-1718 2033 1396 2060 0
1863 -220 1926 -1161 0
2234 -1943 1506 -315 0
489 -376 2151 -949 0
-2184 -2240 -281 -968 0
-1271 -1738 2158 -1000 0
-1637 -1155 782 -1916 0
-1917 -2144 1814 -1417 0
-934 -1592 -2038 888 0
519 85 -645 -660 0
-1212 -963 -516 -2138 0
735 1375 -2163 -1400 0
2159 -647 -1433 1376 0
-1460 1134 -759 -1878 0
-397 1221 -315 -1830 0
2208 -30 2045 2083 0
-689 -1018 -147 2231 0
2235 587 245 -297 0
-1677 1980 1548 1432 0
1223 -221 1388 1807 0
-1279 775 631 -160 0
-1170 -2014 -59 -3 0
1152 -2179 842 -2122 0
1292 -392 1137 1351 0
-58 1193 795 -1759 0
1840 -1351 -688 -2152 0
-437 -128 964 -1159 0
-158 537 419 -666 0
-1993 521 662 1330 0
841 534 1188 99 0
1539 -803 -552 -1494 0
-2013 605 -348 214 0
-1218 -1786 -1467 -1263 0
-402 -2162 610 857 0
-1578 -1038 -89 1634 0
934 -1592 -2038 -888 0
-1349 -1726 -985 699 0
-1173 487 2203 754 0
-291 -2203 331 -172 0
1000 855 -1371 -1187 0
783 1964 319 -368 0
2149 1921 1020 -969 0
-600 898 75 1299 0
1466 -1404 559 -1479 0
44 -1363 591 -1872 0
862 1833 1319 -627 0
2057 1007 -1981 -1803 0
-2137 229 1984 228 0
-7 -2154 1116 -947 0
-162 -142 -118 747 0
-1935 1816 -166 29 0
-96 1494 296 1043 0
350 -58 1242 1321 0
1949 -1154 2109 359 0
1935 -1311 1552 -1729 0
-1614 -172 1428 -583 0
-1798 -1530 -1023 -2148 0
-2021 -1747 -1027 -459 0
-269 -513 -877 -746 0
-1363 1563 1551 1425 0
535 154 -453 -577 0
-1954 -965 375 -27 0
2165 -1072 -1951 1524 0
1840 -1351 688 2152 0
-2000 -699 1825 2221 0
779 -295 -1986 -257 0
1896 -115 254 -12 0
774 -731 1518 -1697 0
1302 -1645 -541 -1988 0
-1798 1530 1023 -2148 0
-1807 -398 -1068 -858 0
-1619 -56 -560 941 0
781 -1566 -431 1215 0
397 -1221 -315 -1830 0
1148 540 -1379 2081 0
1383 -838 2167 -2006 0
-285 707 52 -924 0
-845 -675 662 -1695 0
231 612 861 1638 0
1286 -561 -914 -1802 0
715 -458 -1316 1917 0
1639 1426 758 290 0
-658 1407 1445 -1088 0
28 448 -1865 -1970 0
985 -1821 -1458 866 0
-1589 156 -164 1253 0
2138 1931 -148 1301 0
1693 427 -1123 -130 0
-1072 -1096 -2153 -938 0
-795 1339 910 -1886 0
-300 -839 1362 847 0
821 26 1970 358 0
1327 51 -1730 -1875 0
-1658 2063 -2164 2099 0
-497 -310 675 -129 0
995 1517 -1387 -209 0
778 1760 -1165 -2197 0
-2087 -2089 -1044 570 0
166 1761 113 -1561 0
621 902 -1655 1378 0
461 1982 -309 -1736 0
1109 -658 2027 752 0
2187 -2124 249 1621 0
63 1042 1781 626 0
902 -1126 740 2174 0
-1346 -1717 -744 -377 0
861 -247 -726 -2239 0
-940 811 1556 -192 0
-1080 332 1925 -897 0
-431 -1618 -308 1281 0
-1091 691 754 1614 0
1863 220 -1926 -1161 0
-1346 -1717 744 377 0
714 -2 -1984 -925 0
1508 2140 1545 -227 0
-2040 -812 -212 447 0
-779 -278 -1200 1144 0
-2133 -467 -565 2084 0
-1582 -867 -1469 -360 0
1822 -898 -1094 -1840 0
-304 553 656 639 0
-850 176 1101 -1313 0
1481 913 -785 -635 0
-1720 1966 1509 1828 0
2130 -1483 616 -1570 0
-9 1820 -1505 534 0
562 -2221 -1133 -391 0
-1323 -150 1048 -1927 0
115 -568 -445 -1605 0
-1828 1800 -1930 -284 0
-1558 543 1572 -251 0
-1313 -503 338 1548 0
-1210 -604 -1004 198 0
-1629 852 -1039 -207 0
-25 -2038 -142 -1129 0
1121 1505 -21 933 0
-2184 74 -165 436 0
-1034 -1359 1948 912 0
1924 1794 -878 695 0
-1078 649 -1541 -216 0
-1621 875 -1442 2129 0
-300 839 1362 -847 0
1578 -1504 1909 1815 0
-1876 307 1755 -1061 0
726 829 1779 61 0
903 715 1252 -719 0
1929 1778 683 1660 0
899 -425 931 -1014 0
-288 46 -1592 -1199 0
-529 1547 -1642 -1719 0
-135 -1684 2170 -663 0
-1798 -1530 1023 2148 0
-484 828 -971 878 0
1502 -1892 -1725 -38 0
1931 -196 1595 1633 0
1488 1245 1590 546 0
-410 -1912 1219 952 0
-1785 -1967 915 1813 0
477 1030 -1839 1216 0
1563 1591 -317 -647 0
2208 30 -2045 2083 0
702 -1495 206 -79 0
-1756 976 1364 -131 0
-630 -1737 226 -1644 0
-259 -1612 -899 1845 0
-581 235 -2047 1612 0
1596 1937 1710 1059 0
-163 -1437 204 394 0
-1016 -1908 -704 -1964 0
-1419 1893 1624 1855 0
837 -2048 1803 689 0
1652 277 155 -839 0
-1102 -253 668 696 0
1212 -963 -516 2138 0
692 970 -363 -2008 0
-2145 1622 272 -570 0
-92 -209 -1971 -882 0
-1685 -1333 2106 -1806 0
578 1002 883 356 0
1364 701 1514 103 0
1617 -725 1262 872 0
-1737 -59 -137 -52 0
-1168 405 -437 1033 0
-1917 2144 1814 1417 0
179 -1816 2036 -2031 0
-911 1569 -1204 -1062 0
2138 1931 148 -1301 0
-2225 -325 -1926 -906 0
1550 -705 727 541 0
944 1432 -759 -252 0
-1599 -1455 -475 783 0
-2143 -981 937 82 0
-1632 -2064 -1734 -1203 0
1205 -2107 -1562 -562 0
-998 -1959 1752 268 0
-122 -1569 1182 -524 0
-2172 -139 756 -649 0
988 1251 -244 -1799 0
-1121 -1505 21 -933 0
622 -2147 -1207 -2004 0
-453 -2195 -1745 1894 0
-1860 -1534 1731 -2069 0
-1498 -1115 -1347 1471 0
-2192 -26 1461 1476 0
-1863 220 1926 -1161 0
1581 -670 -234 -1985 0
-1691 -1142 -1991 -323 0
-1145 -420 -858 -1147 0
63 1042 -1781 -626 0
-2181 2212 241 1564 0
1860 -1534 -1731 -2069 0
-1055 780 -274 -2019 0
-2057 1007 1981 -1803 0
-671 1137 500 962 0
-1610 1403 -1110 1731 0
-765 -1026 -2158 930 0
-415 945 -299 1745 0
1956 -100 -1280 -2005 0
-835 -669 -173 -588 0
2222 97 1320 -1211 0
2098 -51 -117 404 0
1356 1501 -1763 653 0
-1148 -540 1379 -2081 0
-1467 -1663 517 -1160 0
211 -90 641 -2207 0
1769 340 -389 1338 0
-603 -1657 690 1295 0
267 2022 1979 1553 0
-2133 -467 565 -2084 0
-2131 1604 -413 -1339 0
1321 1720 1529 -722 0
1355 1299 -1153 844 0
-155 123 926 -1356 0
1166 -473 -1958 -462 0
1963 809 -263 654 0
21 -1850 853 1819 0
2200 -1996 821 -458 0
-733 240 -85 -2018 0
-1230 975 750 -1318 0
-1499 -1756 182 1183 0
-1419 -1893 1624 -1855 0
822 -1906 977 -1531 0
1020 -2044 981 1656 0
715 458 1316 1917 0
-2224 808 1457 -276 0
-693 1190 1400 615 0
-899 -425 -931 -1014 0
555 -1802 -1576 -1817 0
358 -787 25 745 0
-940 -811 -1556 -192 0
-1568 -1681 -1700 935 0
-1877 373 1226 1116 0
141 1730 672 -628 0
-144 2070 -455 1657 0
-2042 2120 1043 255 0
-1726 1989 -145 1261 0
-2205 326 -1523 11 0
1105 1383 -170 1975 0
841 -534 1188 -99 0
691 -7 -1124 1741 0
-1358 -1379 1027 1081 0
1295 884 2233 -1092 0
-65 174 -401 1977 0
-1622 1920 885 2209 0
1856 -1659 481 -232 0
-247 1764 -217 1944 0
163 1437 204 394 0
-567 2087 -506 -123 0
-382 72 599 -997 0
1472 -2133 -1385 -2127 0
2192 -26 -1461 1476 0
713 -1883 1276 586 0
1508 -2140 1545 227 0
806 -287 -40 -352 0
1836 380 -269 876 0
-1663 1310 -1109 -1671 0
-1767 -1082 -2229 1532 0
-84 144 1059 1305 0
658 -1407 -1445 1088 0
-1885 -2148 804 1284 0
1434 -381 -102 246 0
1141 1100 312 2096 0
-961 -1700 1957 -794 0
1233 1028 -1493 1833 0
15 -505 679 242 0
-1729 554 833 -773 0
2040 -812 212 447 0
-1018 1981 -1916 -461 0
1585 1330 399 2114 0
1621 -875 -1442 2129 0
-949 -2217 -1675 -102 0
-770 -807 761 886 0
-2029 907 1733 -1770 0
2132 10 -2177 -333 0
2043 1898 114 2154 0
-669 -2238 1281 890 0
1578 1038 -89 1634 0
894 -248 557 -2116 0
1210 -604 1004 198 0
-751 972 -300 -2011 0
1620 -2218 -1773 -1083 0
1028 696 -442 -606 0
-1155 1291 488 1497 0
-521 -1111 1412 477 0
1879 -634 822 1340 0
711 -589 -24 1084 0
-1796 1235 1748 1928 0
2070 207 -1272 -1454 0
1693 -427 -1123 130 0
-243 -603 84 -1114 0
1934 2214 5 1689 0
2184 2240 281 968 0
-362 127 396 2074 0
676 1475 1666 -756 0
634 1267 -1532 1502 0
1099 1842 -2008 -592 0
555 -1802 1576 1817 0
179 1816 2036 2031 0
260 -800 1933 -1995 0
-1124 -2043 583 60 0
-901 1329 -1416 -657 0
2237 1693 1796 -587 0
669 2238 1281 890 0
1217 -187 2233 1002 0
-823 223 1251 -1613 0
-693 -1190 1400 -615 0
575 -78 -1136 620 0
2172 -139 -756 -649 0
-1246 -612 -1944 -633 0
607 -680 -386 1858 0
-2132 10 -2177 333 0
555 1802 1576 -1817 0
-364 -1231 883 -1024 0
-870 243 94 -1596 0
-1143 -467 1169 -2086 0
-1032 608 2217 1703 0
1256 1211 -1762 610 0
735 -1375 2163 -1400 0
837 2048 1803 -689 0
-1632 -746 -79 1951 0
-418 1034 1924 -1999 0
-571 1283 2095 1183 0
1809 -1893 -1430 -879 0
-1867 -667 1431 718 0
-594 -1609 -69 -2124 0
-1747 1144 -557 -1600 0
-1663 -1310 1109 -1671 0
1524 2064 1067 -168 0
-1834 429 -1607 -1134 0
1773 -585 -153 -646 0
1350 -1434 1055 1167 0
147 -1733 1982 -1972 0
-650 -990 -1293 1322 0
486 111 -1328 -335 0
987 1583 194 -1994 0
845 -1585 -193 -334 0
419 1318 -349 -250 0
427 -979 -986 -591 0
1212 963 -516 -2138 0
-2200 1996 821 -458 0
1587 2109 -940 652 0
-1649 1891 -2020 613 0
-1849 -1195 1386 2182 0
1724 -618 -1907 -1274 0
-1188 81 -2143 -1921 0
-73 -1752 1226 -1395 0
-1701 984 -1312 -1771 0
568 1999 -1420 -1650 0
622 2147 1207 -2004 0
601 -1192 -748 1334 0
1023 1560 1594 1403 0
-238 -2191 -2079 -923 0
-1905 -1740 -216 -1683 0
-362 127 -396 -2074 0
-1326 1176 -1791 -1468 0
-1102 253 -668 696 0
-715 -458 -1316 -1917 0
-1718 2033 -1396 -2060 0
1429 -909 -1642 1272 0
691 7 -1124 -1741 0
-988 -2220 -1065 -1259 0
-1812 -328 -2231 1770 0
1955 41 -814 -1414 0
1078 649 -1541 216 0
-988 2220 1065 -1259 0
-831 564 -1754 1040 0
188 -1130 -646 -999 0
1713 -185 -359 53 0
-1785 -1967 -915 -1813 0
-605 -1710 2134 -1225 0
-146 1017 201 -1849 0
665 1844 1373 -407 0
-2156 2094 -904 353 0
988 2220 -1065 -1259 0
-329 -794 -1232 1153 0
1074 1327 1470 -2093 0
206 1777 1521 2189 0
35 1180 -2112 -1810 0
84 -144 -1059 -1305 0
-1793 928 -2193 1515 0
-537 -1965 -1230 685 0
1990 2161 -1091 2194 0
1270 -545 1899 -408 0
1777 1486 280 -1325 0
1714 -235 -1304 -2214 0
-575 78 -1136 620 0
-580 1804 1566 -2065 0
581 -235 2047 -1612 0
-868 -1045 -1559 -1690 0
572 -1307 1522 -229 0
-470 -565 1919 -1968 0
1035 619 1384 -2041 0
-1017 -1229 110 2151 0
191 1513 1196 -701 0
1181 2011 -1130 -1753 0
-428 -1691 -1620 2164 0
-530 -1742 -1176 1715 0
-1677 1980 -1548 -1432 0
-572 -1307 1522 229 0
695 -43 1237 516 0
1440 -813 -572 2059 0
-1595 -1775 -593 2173 0
-1503 -1053 2201 1316 0
784 -488 -1113 -5 0
464 1050 1665 -582 0
-564 542 423 2033 0
1321 1720 -1529 722 0
446 919 -1391 -137 0
-566 688 2190 973 0
150 335 -717 665 0
-246 -881 -1703 -1172 0
481 -1748 -2219 1598 0
-328 1063 273 452 0
-1942 -2061 1223 1866 0
1173 -487 -2203 -754 0
44 1363 -591 -1872 0
-1117 679 -827 1940 0
-2167 1070 -1314 -958 0
-2161 -399 -1412 417 0
1415 -1846 -367 -984 0
-1663 1310 1109 1671 0
1673 -47 -2137 -1151 0
-1498 -1115 1347 -1471 0
116 1579 151 -2057 0
2066 -1704 1140 -2100 0
-1248 397 -485 -2228 0
9 81 -905 1768 0
1402 289 -853 891 0
765 -1026 -2158 -930 0
-692 -970 363 2008 0
2195 532 -65 1625 0
779 278 -1200 1144 0
-1709 -1667 -998 -145 0
-822 -1906 977 1531 0
1279 775 -631 -160 0
-1769 340 389 1338 0
-1067 1919 -1031 180 0
1502 -1892 1725 38 0
-1063 -863 -907 1341 0
1156 1869 474 -1547 0
-1581 670 -234 -1985 0
-1854 742 1897 -617 0
-1055 -780 -274 2019 0
218 113 -1834 -108 0
-21 -1850 853 -1819 0
-1876 -1583 -1946 -2120 0
-1443 -810 -1099 -1056 0
1336 464 520 -164 0
-1979 -1584 932 387 0
-1451 -1480 -1861 -1163 0
707 -739 -724 305 0
-15 505 -679 -242 0
-1462 2209 -999 -1616 0
-424 327 596 -2178 0
-1692 -1378 -1484 -1557 0
1669 846 330 1135 0
-1160 2198 -1653 2027 0
606 1567 234 -1319 0
864 -2115 260 1669 0
-2107 -860 -454 -1320 0
-861 -247 -726 2239 0
331 -1880 439 -590 0
1039 1685 -1372 1870 0
-1589 156 164 -1253 0
-752 768 2160 -2067 0
-1528 580 365 -1715 0
422 -561 1963 1411 0
-1941 276 -1306 135 0
-313 -1915 836 -637 0
-261 -994 264 -14 0
2101 355 -110 1675 0
-198 512 -755 -1219 0
650 -990 -1293 -1322 0
1070 15 1118 507 0
1003 1401 1728 430 0
991 -1988 -86 -720 0
-819 498 1255 1846 0
1688 824 1885 -1375 0
1667 -1533 -334 -73 0
1336 -464 520 164 0
-122 1987 1332 -1758 0
-1257 -819 -1479 -2039 0
1247 1411 -351 -1184 0
514 -1757 -850 432 0
1069 -509 825 1870 0
-2156 2094 904 -353 0
2166 -1129 -1814 1236 0
-1924 -1794 -878 695 0
-2121 -942 1478 -298 0
2171 769 -946 -1195 0
1798 -1530 -1023 2148 0
-1266 -37 1491 -2068 0
-394 -1258 308 -421 0
791 1895 -36 -337 0
1186 1289 -1962 -1406 0
-1206 -1159 1086 -740 0
-395 -967 -129 -2105 0
-122 1569 1182 524 0
-874 -2176 1377 512 0
2218 667 -1818 -1991 0
-568 -1999 1420 1650 0
1201 -672 994 670 0
1573 181 1285 1751 0
-1115 -1052 -832 2039 0
-1604 -465 295 873 0
798 -2097 -1040 -2216 0
1063 -863 907 1341 0
120 2147 -498 1052 0
-596 835 -346 -361 0
-865 -1214 1702 128 0
-710 -650 -1037 -127 0
-410 -604 820 1904 0
1334 1239 -1958 1998 0
1173 -487 2203 754 0
226 446 1539 -233 0
65 -174 401 -1977 0
-2153 -1472 168 1968 0
2181 2212 241 -1564 0
-1621 -875 1442 2129 0
-72 -876 -1623 -2113 0
-750 897 -1120 -336 0
1427 687 2044 -1060 0
-2049 362 548 -1591 0
1610 1403 -1110 -1731 0
-2195 532 65 1625 0
-1097 1525 1638 1189 0
173 -1296 -1085 1036 0
724 922 -416 1224 0
-1013 -1338 -1974 265 0
405 -2183 865 945 0
1230 975 -750 -1318 0
-817 901 -438 -1865 0
-358 -787 -25 745 0
1669 -846 330 -1135 0
438 121 -2101 732 0
-810 -706 1546 -1636 0
1955 -41 -814 1414 0
2040 465 1148 -1776 0
2108 1848 97 -1485 0
-280 64 -1789 -1774 0
-2061 1341 -1843 -1480 0
-1348 -470 -400 -220 0
865 -1214 -1702 128 0
454 227 -1133 -1749 0
1424 270 -1976 1112 0
-1496 -1274 -959 1503 0
-1331 -1699 -1011 1190 0
1767 1082 -2229 1532 0
-122 -1569 -1182 524 0
-2230 -1044 -1680 1874 0
-899 425 931 -1014 0
-1486 -1422 -403 1903 0
312 -2083 1136 1487 0
1278 -556 302 1128 0
566 -688 2190 973 0
1296 781 -1528 2238 0
692 -970 363 -2008 0
-1156 -1869 -474 1547 0
-1530 -697 788 921 0
1599 1455 -475 783 0
-1238 -2211 211 -322 0
-2140 268 -2030 1877 0
2049 362 548 1591 0
1683 -482 1477 -655 0
-288 -46 -1592 1199 0
-1590 1791 -1082 1725 0
-2234 1943 -1506 315 0
556 -238 1955 1666 0
-313 1915 -836 -637 0
1699 1758 1750 -42 0
904 -816 1831 813 0
-1637 856 -1554 -1007 0
-1864 -1069 1217 1077 0
-767 -1463 158 -1577 0
1524 -2064 1067 168 0
922 1394 -1603 101 0
-661 -816 -735 1452 0
1622 -1920 -885 -2209 0
1089 1284 -1594 343 0
-1734 -702 -974 956 0
-2119 1340 1664 -38 0
-1161 -1365 -1087 1623 0
1781 1952 -2018 -609 0
-1254 1520 -333 -531 0
-49 549 1511 823 0
-390 -990 -1949 1367 0
1993 -1640 -13 310 0
963 -1860 -908 -1538 0
972 -589 -1652 -152 0
-822 1906 977 -1531 0
-39 1562 866 -1825 0
-789 -831 1021 2146 0
445 -418 1575 -484 0
-1500 -279 -582 156 0
-1015 1463 -685 346 0
819 -498 1255 1846 0
-548 -710 1107 2007 0
1091 -691 -754 -1614 0
-1550 -705 -727 541 0
-1709 1667 998 -145 0
1029 782 1736 -444 0
1826 432 -538 833 0
111 -533 -1771 -126 0
-564 -542 423 -2033 0
-729 -817 504 -1421 0
1590 1791 -1082 -1725 0
-60 321 -1640 -1597 0
304 553 656 -639 0
-2016 586 -2236 849 0
-2070 207 1272 -1454 0
-2136 202 -1065 -2125 0
449 1271 -244 2186 0
1217 187 2233 -1002 0
-1397 1263 -337 95 0
-912 694 -882 1420 0
-1401 1358 1075 1976 0
1350 -1434 -1055 -1167 0
-1637 -856 1554 -1007 0
400 180 -1087 -483 0
-484 -828 -971 -878 0
-6 2180 -969 -1060 0
1392 195 -1058 -1910 0
1876 -307 1755 -1061 0
861 247 -726 2239 0
862 -1833 -1319 -627 0
271 796 -1618 2088 0
1652 -277 -155 -839 0
1356 1501 1763 -653 0
764 1315 -1914 -1381 0
-1624 1510 -771 1066 0
-709 366 579 2017 0
1571 233 -2023 -1795 0
-212 -960 -1140 -2118 0
-2106 436 -54 619 0
-940 811 -1556 192 0
-17 -1711 8 451 0
-1343 1218 210 -1071 0
510 -2224 -411 -1867 0
-1558 -543 -1572 -251 0
435 519 -1676 344 0
-1510 -761 -1793 1430 0
-402 1046 -1025 134 0
849 716 55 167 0
-1740 709 1436 -1435 0
-566 1922 -1282 478 0
2012 -2236 1361 625 0
1048 -486 -323 2063 0
-2128 -1722 1449 -2191 0
-1925 790 640 -2202 0
1170 285 1792 943 0
1639 -1426 758 -290 0
1714 49 784 -490 0
-1278 -556 -302 1128 0
291 2203 331 -172 0
-1015 -1463 -685 -346 0
-1302 1645 541 1988 0
599 -1836 1903 -1857 0
1394 -577 -653 1778 0
-1856 -1659 -481 -232 0
-285 -707 52 924 0
1732 571 -601 -889 0
1952 1138 -301 1366 0
-1374 -2058 383 2102 0
-2016 -586 2236 849 0
837 -1579 1631 777 0
-387 -598 801 -1287 0
1530 697 -788 -921 0
-996 -607 -203 2025 0
1257 819 1479 2039 0
2035 1233 -633 -1097 0
1093 -68 -1499 680 0
-1310 1088 -930 855 0
-1794 1735 -1212 -1359 0
592 1288 -2009 -374 0
-952 515 -1117 982 0
-1596 -1937 1710 1059 0
-556 238 -1955 -1666 0
1616 -1362 1753 -22 0
-1347 1805 -1373 1682 0
64 1507 -1884 403 0
1089 -1284 -1594 -343 0
-1780 306 2059 379 0
-1205 2107 1562 562 0
-469 -1871 199 1474 0
-419 -1318 -349 -250 0
-988 1251 -244 1799 0
206 1777 -1521 -2189 0
-510 2224 411 1867 0
1498 -1115 1347 1471 0
-963 -1860 -908 1538 0
-1423 -299 -1168 644 0
-1818 88 -1181 585 0
1894 644 -313 -401 0
-1157 -495 -818 2037 0
-1270 -545 -1899 -408 0
-1064 1191 574 -2119 0
-149 1014 -1371 791 0
449 -1271 -244 -2186 0
83 -1090 -87 -240 0
1923 -1827 -859 1527 0
-1688 -1706 1798 918 0
-405 -2183 865 -945 0
-702 -1495 206 79 0
-1620 2218 1773 1083 0
-654 1768 -82 -1184 0
-1540 -283 -80 1679 0
-339 -563 -598 -1808 0
-18 -1573 1593 2091 0
-934 1592 2038 888 0
-2098 -51 -117 -404 0
253 -2091 1041 1164 0
678 -1248 941 -2234 0
1990 993 1173 1009 0
1255 2004 -2003 303 0
1786 1671 -1187 1895 0
12 1345 311 -1575 0
859 -63 -989 -733 0
1869 2072 1864 -550 0
-1470 -141 -1581 1241 0
-537 1965 -1230 -685 0
120 -2147 -498 -1052 0
-805 712 1384 -909 0
-1457 -1323 -718 -1142 0
1831 1522 1465 -954 0
1453 452 -1697 1574 0
1996 1476 1178 1053 0
-1286 -561 -914 1802 0
1434 381 -102 -246 0
-864 2115 260 1669 0
-147 1733 -1982 1972 0
837 1579 1631 -777 0
-307 -1692 70 1797 0
575 -78 1136 -620 0
1276 -1953 55 -1346 0
461 -1982 -309 1736 0
2042 2120 1043 -255 0
-1460 -1134 759 -1878 0
-474 -1077 -1516 884 0
-1756 -976 -1364 -131 0
-1990 993 -1173 1009 0
1550 -705 -727 -541 0
2128 -1722 1449 2191 0
1327 -51 -1730 1875 0
490 1482 -1497 -444 0
963 1860 -908 1538 0
138 -1114 -1092 578 0
-912 -694 882 1420 0
1578 -1504 -1909 -1815 0
1555 -1582 -2128 143 0
770 807 761 886 0
985 1821 -1458 -866 0
1947 1584 -339 -274 0
920 -2078 -294 846 0
2104 -581 -1934 651 0
1252 2200 -657 448 0
996 -607 -203 -2025 0
1491 1268 1084 -1405 0
1201 672 994 -670 0
-2193 1808 283 -1646 0
-402 -1046 1025 134 0
1877 -373 -1226 -1116 0
559 -832 109 -1805 0
388 -288 2232 292 0
1206 1159 1086 -740 0
-837 -1579 -1631 777 0
1631 385 -763 -799 0
-885 -2092 -1098 -188 0
-1499 -1756 -182 -1183 0
-1617 -725 1262 -872 0
-464 -1050 1665 -582 0
-461 1982 309 -1736 0
-212 960 -1140 2118 0
-529 1547 1642 1719 0
1347 -1805 1373 -1682 0
1438 109 225 2170 0
-200 -1605 -642 1275 0
-13 -1162 1489 1111 0
1256 -1211 1762 610 0
-1260 -1308 451 1937 0
-1989 -868 434 -1821 0
-1141 -1100 -312 -2096 0
-643 316 284 773 0
280 64 -1789 1774 0
414 1630 2013 -364 0
890 -1309 -421 -558 0
1401 1358 -1075 1976 0
-424 327 -596 2178 0
394 -1258 -308 -421 0
106 165 550 1969 0
1271 1738 -2158 1000 0
146 807 -1809 376 0
-648 -542 2097 741 0
1230 975 750 1318 0
648 -1380 1662 -693 0
307 1692 70 1797 0
25 2038 -142 -1129 0
2090 1506 384 851 0
1526 2054 -2015 1382 0
41 -1369 -1300 -2079 0
524 -918 -318 286 0
593 686 -1361 642 0
-779 278 1200 1144 0
1208 -1615 1674 11 0
1358 -1379 -1027 1081 0
-1526 -1408 353 1440 0
978 -1723 -2208 1107 0
-1658 -2063 2164 2099 0
-1397 -1263 337 95 0
-1191 -1879 -1570 2077 0
1769 -340 389 1338 0
-1880 282 -236 -487 0
-1141 -1100 312 2096 0
-1757 363 -966 1288 0
1692 1378 -1484 -1557 0
1282 730 -466 1701 0
1064 -1191 -574 2119 0
1415 1846 -367 984 0
-606 1567 -234 -1319 0
-526 303 466 -367 0
721 1241 -1413 1567 0
2196 -1259 1113 673 0
-769 -617 -258 -951 0
-1831 -1522 1465 -954 0
-2065 -1249 1598 32 0
-742 719 1417 1772 0
845 1585 193 -334 0
208 862 2035 913 0
-1279 775 -631 160 0
-140 1718 433 124 0
1936 350 460 -1543 0
-2193 -1808 283 1646 0
1831 -1522 1465 954 0
860 1690 1545 -1848 0
1935 -1816 -166 29 0
676 1475 -1666 756 0
-1677 -1980 1548 -1432 0
-992 143 -1324 896 0
1557 -1795 -552 1960 0
1780 -306 -2059 -379 0
1181 -2011 1130 -1753 0
769 617 -258 -951 0
946 1854 -1179 -595 0
894 248 557 2116 0
203 1093 936 -602 0
689 -1018 147 2231 0
1651 962 -1312 -1250 0
226 446 -1539 233 0
-774 -731 -1518 -1697 0
-150 335 717 665 0
-562 2221 -1133 -391 0
2131 -1604 -413 -1339 0
-1654 -1766 -1216 705 0
116 545 1409 -420 0
360 1648 251 896 0
1118 -1940 -738 1617 0
75 -1244 1998 1177 0
-508 1426 -1855 -1179 0
-504 -732 -1229 1386 0
-1949 1154 2109 359 0
1746 827 -1262 1523 0
-70 -621 1297 1209 0
1248 397 -485 2228 0
1595 1775 -593 2173 0
1975 -357 -1314 189 0
1197 106 -1156 492 0
-1883 -311 -50 -971 0
-932 4 -2055 1 0
845 -675 -662 -1695 0
-2113 -483 1447 677 0
-160 250 1120 579 0
-911 -2054 -286 -2156 0
1450 241 -249 -1938 0
1531 2210 1965 -957 0
-328 1063 -273 -452 0
1148 -540 1379 2081 0
710 -650 -1037 127 0
1459 1057 -409 1648 0
-121 213 772 1416 0
382 -72 -599 997 0
-1809 1893 -1430 -879 0
1331 1699 1011 -1190 0
1487 -496 -1672 -378 0
494 -423 1517 -124 0
-405 2183 865 945 0
1542 -1056 -1859 643 0
144 -2070 455 -1657 0
905 933 289 -351 0
-486 111 1328 -335 0
-13 1162 1489 -1111 0
1784 -1357 -391 -107 0
-1171 -324 -1302 -1054 0
260 800 -1933 -1995 0
510 2224 -411 1867 0
-1997 19 -613 629 0
1029 -782 1736 444 0
1596 -1937 1710 -1059 0
-992 143 1324 -896 0
684 1641 -1760 40 0
911 1569 -1204 1062 0
-1983 -2126 -1450 1932 0
457 -1260 -16 -2134 0
-1012 -935 -703 936 0
-1445 -2104 2067 547 0
-163 1437 -204 394 0
-1751 265 2076 1041 0
-1946 1797 -1960 96 0
-537 1965 1230 685 0
-1646 -71 -801 -1104 0
371 108 834 -230 0
-63 -1042 -1781 -626 0
-1286 561 914 1802 0
630 -1737 226 1644 0
-1975 -357 1314 189 0
1829 412 -982 -242 0
1353 -91 1572 1469 0
-415 945 299 -1745 0
397 1221 -315 1830 0
1607 -1151 1490 -714 0
-281 826 1277 54 0
1631 -385 763 -799 0
1223 221 1388 -1807 0
1729 -554 -833 773 0
-21 1850 -853 -1819 0
-83 -1090 -87 240 0
236 -1427 34 1852 0
419 -1318 349 -250 0
2077 980 1464 977 0
1210 -604 -1004 -198 0
1175 2034 -1013 -1850 0
968 1527 183 953 0
327 588 -558 -1956 0
-41 1369 -1300 -2079 0
-1549 -1415 1257 533 0
-226 446 1539 233 0
-669 2238 -1281 890 0
9 -1820 1505 -534 0
2101 -355 110 1675 0
578 -1002 883 -356 0
-1143 -1896 -2012 200 0
422 159 1817 1392 0
-820 347 -33 357 0
450 354 1670 -386 0
1202 1106 -298 2168 0
-206 1777 1521 -2189 0
-279 1873 1213 119 0
1936 -350 460 1543 0
1396 -741 1687 1089 0
461 1982 309 1736 0
-1440 813 572 -2059 0
-375 1350 -1553 1947 0
974 2189 800 330 0
-708 1799 -202 -1899 0
890 1309 421 -558 0
1709 1667 998 145 0
-723 117 2093 914 0
48 1972 -1068 -219 0
1141 -1100 312 -2096 0
2032 1861 -1866 -1882 0
789 831 1021 2146 0
-939 1352 1810 1635 0
987 1583 -194 1994 0
912 694 -882 -1420 0
1175 555 -1769 195 0
-200 -1605 642 -1275 0
-2206 324 1456 841 0
1164 104 -1413 442 0
1704 1424 1003 -1049 0
-1025 -749 -356 1132 0
-751 -972 -300 2011 0
2218 667 1818 1991 0
-2021 873 -1200 -540 0
-186 -1875 584 -181 0
-1021 536 -1418 -511 0
472 2095 473 -1192 0
-1175 2034 1013 -1850 0
-456 -440 1707 -1945 0
-513 1095 -2165 -2123 0
144 2070 455 1657 0
-279 -1873 1213 -119 0
-1876 -307 -1755 -1061 0
-206 1777 -1521 2189 0
-1699 1758 -1750 -42 0
551 792 -469 -871 0
-1374 2058 383 -2102 0
-695 43 -1237 -516 0
-1683 482 -1477 655 0
-185 1481 293 -2204 0
-736 345 2132 992 0
1170 2014 59 3 0
-817 901 438 1865 0
-551 -792 469 871 0
-2040 -465 -1148 1776 0
-2184 -74 -165 -436 0
841 534 -1188 -99 0
-147 -1733 1982 1972 0
217 1587 -1220 829 0
1829 -412 -982 242 0
1093 -68 1499 -680 0
-559 832 109 -1805 0
-84 -144 -1059 1305 0
1651 -962 -1312 1250 0
-304 -553 -656 639 0
-1856 1186 1399 1249 0
2049 -362 -548 1591 0
471 468 1966 1242 0
1419 1893 -1624 1855 0
-1653 -1868 2121 768 0
500 1471 -112 1844 0
278 -2052 1344 1716 0
37 153 -525 1098 0
1328 -1549 -2099 1466 0
864 2115 -260 1669 0
568 -1999 -1420 1650 0
-1667 -1533 -334 73 0
-1521 1774 1933 -731 0
1460 -1134 759 1878 0
-1493 1102 -1189 -1157 0
-544 -666 1536 -1664 0
835 669 -173 -588 0
-817 -901 438 -1865 0
-991 1988 -86 -720 0
571 1283 -2095 1183 0
-551 792 -469 871 0
288 46 -1592 1199 0
-1075 459 1103 -894 0
1521 -1774 1933 -731 0
765 -1026 2158 930 0
1906 2157 -1473 -1267 0
1873 -93 -620 496 0
-854 1835 -1369 -1449 0
1807 398 1068 858 0
-1585 -1330 -399 -2114 0
-1706 136 -921 1182 0
978 1723 2208 1107 0
455 -1629 -1047 -2010 0
1434 -381 102 -246 0
-1131 -1227 -1049 -1108 0
1010 2056 368 -1353 0
-1812 2048 1453 385 0
2240 1923 1969 776 0
-949 2217 -1675 102 0
-464 -1050 -1665 582 0
-951 -1421 747 2182 0
-1186 1289 1962 -1406 0
-555 1802 1576 1817 0
445 418 1575 484 0
18 1573 -1593 -2091 0
-661 816 -735 -1452 0
-1036 546 1326 365 0
1055 -780 -274 -2019 0
-943 -305 950 125 0
-438 121 2101 732 0
-1064 -1191 -574 -2119 0
1155 1291 488 -1497 0
864 -2115 -260 -1669 0
-998 -1959 -1752 -268 0
-418 -1034 1924 1999 0
-1901 -1723 -2237 1441 0
-1537 -799 1388 -1303 0
-1152 -2179 -842 -2122 0
-7 2154 1116 947 0
-88 2073 -751 1431 0
1037 1367 1234 527 0
-2021 873 1200 540 0
-765 1026 2158 930 0
1872 130 1901 1647 0
975 1464 -1080 2210 0
-1328 -1549 2099 1466 0
-527 -1779 -840 396 0
1507 -1626 1882 1721 0
1551 -2049 1647 -978 0
285 707 -52 -924 0
37 -153 -525 -1098 0
-150 -335 717 -665 0
1599 -1455 475 783 0
-72 -876 1623 2113 0
-486 -111 1328 335 0
-2028 -1599 2172 2056 0
1769 -340 -389 -1338 0
1282 -730 -466 -1701 0
-243 603 84 1114 0
1709 -1667 998 -145 0
-2192 -26 -1461 -1476 0
1973 1682 225 -1306 0
-147 1733 1982 -1972 0
457 -1260 16 2134 0
1221 -1210 -1743 -133 0
779 295 1986 -257 0
224 -630 1571 1890 0
-1171 324 1302 -1054 0
1097 1525 1638 -1189 0
439 1852 -86 -1649 0
-1616 -1362 -1753 -22 0
2065 -1249 -1598 32 0
2098 1286 1402 -1247 0
2016 586 2236 849 0
-779 -295 1986 -257 0
961 1700 1957 -794 0
-1929 -1778 683 1660 0
-1599 1455 -475 -783 0
-1655 743 480 -1360 0
1794 1735 1212 -1359 0
904 -816 -1831 -813 0
1057 676 -1278 1541 0
1099 -1842 2008 -592 0
1145 -420 -858 1147 0
1880 -282 236 487 0
-332 -616 815 -980 0
-843 -119 378 -2235 0
594 2112 -2223 1294 0
-1460 1134 759 1878 0
1898 664 -1597 -497 0
339 563 -598 -1808 0
-2043 1898 -114 2154 0
-513 -1095 -2165 2123 0
2200 1996 821 458 0
-2230 1044 1680 1874 0
1138 27 1945 1540 0
776 -492 -1090 989 0
-1380 1331 2216 2071 0
-905 -933 289 -351 0
-280 64 1789 1774 0
-1071 341 528 517 0
645 -83 -805 1264 0
1121 -1505 -21 -933 0
-951 1421 747 -2182 0
-1217 187 2233 1002 0
-1292 -392 -1137 1351 0
-1398 -2142 -1446 -1239 0
-358 787 25 745 0
-327 -588 558 1956 0
-1191 -1879 1570 -2077 0
-1633 -1387 -694 -1290 0
-1089 1284 -1594 -343 0
1105 -1383 -170 -1975 0
96 1494 -296 1043 0
1000 -855 -1371 1187 0
300 -839 1362 -847 0
-231 612 -861 1638 0
-84 144 -1059 -1305 0
1292 392 1137 -1351 0
-1074 -1327 -1470 2093 0
1016 -1908 704 -1964 0
904 816 -1831 813 0
-1633 1387 -694 1290 0
-73 -1752 -1226 1395 0
259 -149 -1712 -1738 0
-226 -446 1539 -233 0
-1896 -115 -254 -12 0
453 2195 -1745 1894 0
1214 522 224 -1606 0
-389 -1823 -2076 -104 0
1783 -734 -1613 708 0
934 -1592 2038 888 0
857 1678 -1308 94 0
-2032 1861 -1866 1882 0
1659 1079 1406 -1050 0
555 1802 -1576 1817 0
-271 796 1618 2088 0
-184 2025 880 1580 0
703 1900 -1166 1643 0
-2205 326 1523 -11 0
-1298 -2060 -343 -1610 0
111 -533 1771 126 0
1160 2198 -1653 -2027 0
-1688 1706 1798 -918 0
1390 -678 -215 -1615 0
-2115 920 -1163 1626 0
-371 108 834 230 0
-320 1801 1354 -1029 0
50 1837 -753 -1953 0
1720 -1966 -1509 -1828 0
-1749 107 2030 -948 0
-1862 197 -2219 793 0
-1347 -1805 1373 1682 0
1472 -2133 1385 2127 0
-485 -133 1939 725 0
-2205 -326 1523 11 0
-1588 -502 -2187 2212 0
605 -1710 -2134 -1225 0
836 -1423 1811 1073 0
-1784 -1357 -391 107 0
-630 1737 226 1644 0
681 2146 1110 -1243 0
-75 -1244 -1998 1177 0
395 967 -129 -2105 0
-470 565 -1919 -1968 0
-849 -716 -55 -167 0
1057 -676 -1278 -1541 0
-114 1444 948 -373 0
1785 -1967 915 -1813 0
-1196 77 -1853 2110 0
929 -2084 1348 -1222 0
-996 607 -203 -2025 0
-447 -1815 -493 -2197 0
402 -2162 -610 857 0
-514 1757 850 -432 0
-1653 1868 -2121 768 0
-2194 1741 2114 1744 0
-1881 -1992 -1732 77 0
929 -2084 -1348 1222 0
-2132 10 2177 -333 0
-849 -716 55 167 0
1925 790 640 2202 0
1233 1028 1493 -1833 0
2149 1921 -1020 969 0
-868 1045 -1559 1690 0
212 -960 1140 -2118 0
-1932 476 1564 2168 0
-1029 782 -1736 -444 0
859 -63 989 733 0
-437 -128 -964 1159 0
504 -732 1229 1386 0
1016 1908 704 1964 0
854 -1835 -1369 -1449 0
-285 707 -52 924 0
2180 1389 -1913 -1766 0
870 -243 -94 1596 0
965 -1167 -1172 -456 0
1734 -702 974 956 0
-277 -2117 567 24 0
-25 -2038 142 1129 0
523 -231 869 1871 0
1829 412 982 242 0
1488 -1245 -1590 546 0
-217 1587 1220 829 0
-621 902 1655 1378 0
-2166 1129 1814 -1236 0
-1743 -1904 189 1519 0
966 479 -1139 -176 0
530 -1742 -1176 -1715 0
-535 -154 -453 -577 0
1785 1967 -915 -1813 0
-860 1690 -1545 -1848 0
-961 1700 -1957 -794 0
-68 131 169 354 0
-1197 -106 1156 -492 0
835 669 173 588 0
-974 2189 -800 330 0
-53 -1764 652 -1838 0
-637 1680 683 2111 0
1650 2173 1290 1275 0
-698 -2223 1496 1146 0
1119 798 -789 -171 0
638 1443 -230 692 0
1822 -898 1094 1840 0
1714 -49 -784 -490 0
769 -617 258 -951 0
-665 1844 1373 407 0
387 598 -801 1287 0
635 -871 14 1705 0
-1348 -470 400 220 0
1830 -851 2176 -1004 0
-115 568 445 1605 0
1889 786 1910 443 0
-2137 229 -1984 -228 0
-1898 -664 1597 497 0
1311 538 1101 1158 0
463 -1435 -611 222 0
1862 197 -2219 -793 0
-1392 -195 -1058 -1910 0
1747 1144 557 -1600 0
1749 -107 2030 -948 0
-115 -568 -445 1605 0
1863 -220 -1926 1161 0
-961 -1601 1922 2188 0
1658 -2063 -2164 2099 0
-1872 130 1901 -1647 0
1868 -2024 2181 1106 0
-1099 1842 2008 -592 0
-273 23 -1995 774 0
1445 -2104 -2067 547 0
-1078 482 1459 -1558 0
208 -862 2035 -913 0
513 -1095 2165 2123 0
-537 -1965 1230 -685 0
-1503 -1053 -2201 -1316 0
-1997 19 613 -629 0
-1747 -1144 -557 1600 0
87 -1197 529 -712 0
1057 -676 1278 1541 0
1343 1218 -210 -1071 0
1271 -1738 2158 1000 0
-555 -1802 1576 -1817 0
-895 -1228 1201 1269 0
-1391 1686 1790 -803 0
698 -656 -618 1180 0
2195 532 65 -1625 0
1102 253 668 696 0
1363 1563 1551 -1425 0
328 -1063 273 452 0
-213 595 -290 105 0
-1990 -993 1173 1009 0
-2159 -647 -1433 -1376 0
-471 468 -1966 1242 0
1780 1408 -1677 205 0
2010 1630 -239 -1372 0
874 2176 -1377 -512 0
1749 107 2030 948 0
939 -256 -2215 476 0
-217 1587 -1220 -829 0
2012 -2236 -1361 -625 0
-1162 -1428 -57 -321 0
-568 -1999 -1420 -1650 0
-1790 2122 -296 1851 0
-1934 2214 5 -1689 0
1161 -1365 1087 1623 0
-1975 357 -1314 189 0
-1385 2086 -625 716 0
-1445 2104 -2067 547 0
12 -1345 311 1575 0
1323 150 -1048 1927 0
1368 -2103 -959 1178 0
1658 -1404 1342 -1438 0
-987 -1038 -2042 -518 0
424 327 -596 -2178 0
267 -2022 1979 -1553 0
1997 19 -613 -629 0
-1424 270 -1976 -1112 0
-1785 1967 915 -1813 0
-946 1854 -1179 595 0
72 -876 -1623 2113 0
184 -2025 880 1580 0
949 -2217 -1675 102 0
-261 994 264 14 0
28 -787 729 162 0
-1035 -619 -1384 2041 0
-1279 -775 631 160 0
221 -2029 -48 1843 0
1688 -1706 -1798 918 0
-859 63 989 733 0
-302 1414 -2177 -1832 0
-1089 1284 1594 343 0
814 576 -900 -2062 0
767 -1463 158 1577 0
294 382 -1721 1422 0
371 108 -834 230 0
955 1586 -384 -2058 0
-643 -316 -284 773 0
524 -918 318 -286 0
-1304 1845 -491 -1511 0
1834 -429 -1607 -1134 0
-1829 -412 982 242 0
1693 -427 1123 -130 0
1804 1399 372 1742 0
-140 1718 -433 -124 0
-154 -1625 2139 -1501 0
861 -247 726 2239 0
-2169 1198 426 -1458 0
2161 -399 -1412 -417 0
1864 -1069 1217 -1077 0
-2024 528 1588 -2198 0
-2040 -812 212 -447 0
-1486 1422 -403 -1903 0
-567 -2087 -506 123 0
-2107 860 -454 1320 0
1792 1076 -964 -1448 0
-1048 -486 -323 -2063 0
-1637 -856 -1554 1007 0
1332 -1062 925 -178 0
481 1748 2219 1598 0
1977 1915 2230 -272 0
-348 -457 -90 -76 0
-1061 -1918 -806 -1297 0
-1975 -357 -1314 -189 0
1499 1756 182 1183 0
2156 2094 904 353 0
-698 2223 -1496 1146 0
1328 1549 2099 1466 0
-668 -18 2037 -895 0
556 238 1955 -1666 0
1941 -276 -1306 135 0
789 -831 1021 -2146 0
-1718 -2033 1396 -2060 0
-1582 867 -1469 360 0
1949 1154 -2109 359 0
2136 2196 1554 1291 0
1042 1366 1679 -71 0
1383 838 2167 2006 0
-1489 -700 1839 -1550 0
819 498 1255 -1846 0
-1441 -2045 -1672 -245 0
850 -176 -1101 1313 0
-1772 -1236 118 258 0
-535 154 -453 577 0
2085 764 1279 -366 0
-455 -1629 -1047 2010 0
277 -2117 567 -24 0
389 -1823 -2076 104 0
-594 -1609 69 2124 0
621 -902 1655 1378 0
-348 -457 90 76 0
1423 -299 -1168 -644 0
-1783 734 1613 -708 0
1042 1366 -1679 71 0
2160 1150 -942 132 0
831 -564 -1754 1040 0
-141 1730 672 628 0
-1096 -2127 167 1717 0
-1837 -499 916 -1345 0
1036 -546 -1326 -365 0
1489 -700 1839 1550 0
1064 1315 -2130 775 0
-463 1435 611 -222 0
-1409 -777 -1303 -398 0
1096 2127 -167 -1717 0
-890 -1309 421 -558 0
1346 1717 -744 -377 0
695 43 -1237 516 0
489 -376 -2151 949 0
-861 247 -726 -2239 0
843 -119 -378 -2235 0
-1164 104 1413 442 0
-98 -1381 1174 -1483 0
-1920 -67 2117 2089 0
1405 2073 -152 -411 0
2156 -2094 -904 353 0
-1481 -913 -785 -635 0
1722 1010 -1335 867 0
49 549 -1511 823 0
-150 -335 -717 665 0
-510 -2224 -411 1867 0
-1248 -397 -485 2228 0
-695 -43 -1237 516 0
-1632 -746 79 -1951 0
-1829 412 982 -242 0
-1473 -424 -957 1015 0
2184 -74 165 -436 0
-489 -376 2151 949 0
703 -1900 1166 1643 0
-966 479 1139 -176 0
-1109 658 2027 752 0
1246 -612 1944 -633 0
902 -1126 -740 -2174 0
1783 734 -1613 -708 0
-811 -1322 1141 -1154 0
-1836 380 269 876 0
-339 563 -598 1808 0
-320 -1801 1354 1029 0
2087 2089 1044 -570 0
-28 -448 -1865 -1970 0
-648 1380 -1662 693 0
1746 -827 -1262 -1523 0
-1352 -1397 1343 -1265 0
808 1927 -407 -1973 0
-1238 -2211 -211 322 0
1868 2024 2181 -1106 0
-350 58 1242 1321 0
375 1350 1553 1947 0
-772 1639 1032 355 0
-1207 -887 392 1094 0
-1093 -68 1499 680 0
485 133 1939 725 0
-1593 186 -1269 -628 0
-1252 2200 657 448 0
-671 -1137 500 -962 0
607 680 386 1858 0
1143 1896 2012 -200 0
-559 -832 -109 -1805 0
1686 161 2179 1360 0
-911 2054 -286 2156 0
2171 -769 -946 1195 0
1708 -3 1448 -1206 0
247 1764 -217 -1944 0
57 291 -157 -700 0
1132 214 -1024 2227 0
-1809 -1893 -1430 879 0
-661 -318 824 2094 0
-779 278 -1200 -1144 0
-621 -902 -1655 1378 0
-200 1605 642 1275 0
1568 1681 -1700 935 0
87 1197 529 712 0
854 -1835 1369 1449 0
-2068 1911 -275 663 0
259 1612 899 -1845 0
1391 -1686 -1790 803 0
584 -404 891 -797 0
-2136 -2196 -1554 -1291 0
-1256 -1211 -1762 610 0
1207 887 -392 -1094 0
1696 530 66 -2213 0
1185 -1971 511 1948 0
-806 -287 40 -352 0
-1727 569 597 1674 0
-1593 -186 -1269 628 0
-259 149 1712 1738 0
486 111 1328 335 0
306 179 -830 -1980 0
-1175 -2034 -1013 -1850 0
1931 196 -1595 1633 0
724 -922 -416 -1224 0
2225 -325 -1926 906 0
1832 531 900 614 0
-2105 1695 -1533 177 0
-791 -1895 36 337 0
1498 1115 1347 -1471 0
-2220 2186 2226 765 0
-575 78 1136 -620 0
-422 -159 -1817 -1392 0
-2057 -1007 1981 1803 0
-25 2038 142 -1129 0
1856 -1186 1399 1249 0
390 990 1949 -1367 0
-2234 1943 1506 -315 0
474 1077 -1516 884 0
-1956 -100 1280 -2005 0
-955 -1586 384 2058 0
1205 2107 -1562 562 0
-390 -802 -1713 -1787 0
523 231 -869 1871 0
1619 -56 -560 -941 0
-301 1954 -2053 -267 0
-1477 -2046 -543 2001 0
-1967 682 -1670 917 0
648 -542 2097 -741 0
-2017 336 -640 611 0
2100 1728 -636 -910 0
58 1193 -795 -1759 0
150 -335 717 665 0
-784 -488 1113 -5 0
-1880 -282 -236 487 0
1148 -540 -1379 -2081 0
2234 1943 1506 315 0
-2196 -1259 1113 -673 0
302 -1414 2177 1832 0
774 731 -1518 -1697 0
-1957 -478 -45 526 0
-2169 1198 -426 1458 0
2029 907 -1733 -1770 0
-1614 172 1428 583 0
928 886 563 -2019 0
-1437 1962 2050 -1665 0
-772 -1639 -1032 355 0
-874 1727 -326 1006 0
88 2073 -751 -1431 0
1769 340 389 -1338 0
146 -807 -1809 -376 0
1599 1455 475 -783 0
2169 1198 -426 -1458 0
1245 767 -544 -1892 0
-1557 1795 552 -1960 0
-116 -1579 -151 2057 0
68 -131 169 354 0
-1115 1052 -832 -2039 0
1450 241 249 1938 0
203 -1093 936 602 0
-58 1193 -795 1759 0
2232 1627 1938 875 0
-2098 51 -117 404 0
-576 393 -1105 1300 0
1812 -2048 1453 385 0
-1661 184 237 2142 0
479 834 -1240 -970 0
673 1689 -2226 -1273 0
-34 -1656 2020 -190 0
1157 -495 818 2037 0
1909 518 1393 778 0
-369 1936 374 -471 0
-1122 -1543 -2116 1317 0
1438 109 -225 -2170 0
1732 -571 -601 889 0
-1884 -2032 -1788 -1022 0
-434 1765 -2207 -1198 0
2090 -1374 1377 -569 0
-678 -1248 -941 -2234 0
2043 -1898 114 -2154 0
630 -1737 -226 -1644 0
-581 235 2047 -1612 0
-830 29 1158 -503 0
-650 990 1293 1322 0
1589 156 -164 -1253 0
637 -1680 -683 -2111 0
-995 1517 1387 -209 0
1907 762 2201 2144 0
944 -1432 759 -252 0
1427 -687 -2044 -1060 0
1563 -1591 317 -647 0
519 -85 -645 660 0
-331 -1880 -439 -590 0
602 1643 -472 -182 0
-1688 824 -1885 -1375 0
1600 -1317 1344 -1546 0
-1777 1486 280 1325 0
429 -2031 -47 1761 0
-1260 1308 -451 1937 0
1979 -1584 -932 387 0
-1440 -813 572 2059 0
600 1019 -2152 342 0
1363 -1563 -1551 -1425 0
-302 -1414 -2177 1832 0
1194 -1914 -2046 1608 0
-1920 67 -2117 2089 0
1696 -530 -66 -2213 0
1368 2103 -959 -1178 0
304 553 -656 639 0
-98 -1381 -1174 1483 0
-736 1961 659 1520 0
-1018 -1981 -1916 461 0
-715 -458 1316 1917 0
-434 -1765 -2207 1198 0
797 -1819 -1974 -1285 0
-789 831 -1021 2146 0
-9 1820 1505 -534 0
-780 770 -489 -381 0
-362 -127 -396 2074 0
-1868 2024 -2181 -1106 0
-394 1258 -308 -421 0
-1079 843 -1500 737 0
-1011 -1987 -983 -136 0
-237 -996 441 1012 0
671 1137 -500 962 0
-659 -1127 -2141 1739 0
-48 1972 -1068 219 0
1220 -192 -62 2159 0
-179 1816 2036 -2031 0
419 -1318 -349 250 0
218 -113 1834 -108 0
434 -1765 -2207 -1198 0
1492 889 -1978 1841 0
1292 -2190 -1651 -730 0
-31 1661 -573 1782 0
238 -2191 2079 -923 0
987 -1038 2042 -518 0
1271 -1738 -2158 -1000 0
2136 2196 -1554 -1291 0
460 1759 623 -248 0
860 1690 -1545 1848 0
-1913 1009 417 -1030 0
-1063 863 907 1341 0
-1023 -1560 1594 1403 0
1296 -781 -1528 -2238 0
1096 -2127 167 -1717 0
1983 256 -639 35 0
-1177 175 462 844 0
-2043 -1898 114 2154 0
-978 1723 -2208 1107 0
-1177 -175 -462 844 0
-2085 764 1279 366 0
1457 -1323 -718 1142 0
-154 1625 2139 1501 0
1619 -56 560 941 0
-2021 1747 -1027 459 0
729 817 -504 1421 0
1157 495 -818 2037 0
-1194 1914 2046 -1608 0
-691 7 1124 -1741 0
922 -1394 -1603 -101 0
328 1063 273 -452 0
191 1513 -1196 701 0
-1003 1401 -1728 430 0
98 1381 1174 -1483 0
-778 -1760 -1165 -2197 0
-1544 -956 -2175 -1135 0
-2172 139 756 649 0
-692 -970 -363 -2008 0
-1491 -1268 1084 -1405 0
-16 -17 -641 2169 0
-643 -316 284 -773 0
-237 -996 -441 -1012 0
-484 -828 971 878 0
-260 800 -1933 1995 0
-580 -1804 -1566 -2065 0
280 -64 -1789 -1774 0
-1466 -1404 559 1479 0
-246 881 -1703 1172 0
1901 1723 2237 -1441 0
1873 93 620 496 0
1747 1144 -557 1600 0
-698 656 -618 1180 0
-34 -1656 -2020 190 0
-2138 1931 -148 -1301 0
1247 -1411 -351 1184 0
1798 -1530 1023 -2148 0
293 208 -1838 1246 0
-1254 1520 333 531 0
73 1752 1226 -1395 0
1473 -424 957 1015 0
1544 -956 2175 -1135 0
-2140 268 2030 -1877 0
-1902 1439 44 93 0
213 -595 290 -105 0
58 -1193 795 -1759 0
312 -2083 -1136 -1487 0
-1967 682 1670 -917 0
-2068 1911 275 -663 0
1139 1698 338 944 0
-247 1764 217 -1944 0
-574 1536 349 -631 0
-288 46 1592 1199 0
2137 -229 -1984 -228 0
2017 336 -640 -611 0
-780 770 489 381 0
302 1414 -2177 1832 0
607 680 -386 -1858 0
-972 -589 -1652 152 0
173 1296 1085 1036 0
-2208 30 -2045 -2083 0
-1390 -678 215 -1615 0
1174 -1194 -2051 1908 0
-707 739 -724 305 0
1074 -1327 1470 2093 0
810 706 -1546 1636 0
489 376 2151 949 0
860 -1690 1545 1848 0
-721 -1241 1413 -1567 0
-1711 1762 -624 1678 0
-35 1180 -2112 1810 0
-271 -796 -1618 2088 0
1900 -1568 329 -175 0
-1214 -522 -224 1606 0
460 1759 -623 248 0
313 -1915 -836 -637 0
1010 2056 -368 1353 0
-1356 1501 1763 653 0
-1884 2032 1788 -1022 0
2098 -1286 -1402 -1247 0
549 1783 -320 -1482 0
1780 -306 2059 379 0
1793 -928 2193 -1515 0
-771 1515 -440 -80 0
-1063 -863 907 -1341 0
-2180 1389 -1913 1766 0
-61 2074 62 -317 0
934 1628 2166 -762 0
-974 -2189 -800 -330 0
-2126 46 304 1627 0
34 1656 2020 -190 0
864 863 -1451 -23 0
88 -2073 751 -1431 0
1500 -279 -582 -156 0
-837 1579 1631 777 0
342 -973 -1601 573 0
1342 428 2082 1684 0
-1551 2049 -1647 978 0
-1278 556 -302 -1128 0
-1863 220 -1926 1161 0
1358 -1379 1027 -1081 0
-2032 1861 1866 -1882 0
-1438 109 225 -2170 0
1702 -1890 -1086 -314 0
1663 -1310 1109 1671 0
-1720 -1966 -1509 1828 0
-1826 432 538 833 0
-1804 -1399 372 1742 0
-281 -826 1277 -54 0
1102 -253 668 -696 0
2062 -1887 170 33 0
28 -448 1865 -1970 0
-861 -247 726 -2239 0
-222 -2202 -704 -475 0
269 -513 877 -746 0
-2055 -344 -826 183 0
1313 503 -338 -1548 0
529 1547 -1642 1719 0
-65 -174 401 1977 0
259 -1612 899 1845 0
361 1488 -1577 -1085 0
31 -1661 573 -1782 0
424 -327 -596 2178 0
-902 -1126 -740 2174 0
-2015 205 -252 2002 0
388 288 -2232 292 0
-1439 1425 -1376 78 0
-273 23 1995 -774 0
-1862 -197 -2219 -793 0
-221 -2029 48 1843 0
-1685 1333 -2106 -1806 0
190 629 -937 263 0
2160 -1150 -942 -132 0
1539 803 -552 1494 0
-1383 838 2167 -2006 0
951 -1421 747 -2182 0
-2166 1129 -1814 1236 0
-460 -1759 623 -248 0
1298 -2060 343 -1610 0
1021 536 1418 -511 0
-734 1270 -1145 -1801 0
-1872 130 -1901 1647 0
-1600 1317 -1344 1546 0
-2012 2236 1361 625 0
-9 81 905 1768 0
371 -108 -834 -230 0
1304 -1845 491 1511 0
1706 136 921 1182 0
857 -1678 1308 94 0
-527 -1779 840 -396 0
-1334 -1239 1958 -1998 0
-2028 1599 2172 -2056 0
-163 1437 204 -394 0
988 -1251 -244 1799 0
1607 1151 1490 714 0
-474 -1077 1516 -884 0
28 -448 -1865 1970 0
1121 1505 21 -933 0
469 1871 199 1474 0
-116 -1579 151 -2057 0
1847 1881 1492 682 0
-870 2162 -138 -749 0
1932 476 1564 -2168 0
-419 1318 -349 250 0
69 1146 1442 1368 0
1767 1082 2229 -1532 0
650 990 1293 -1322 0
-160 -250 1120 -579 0
-911 1569 1204 1062 0
-654 -1768 -82 1184 0
-1286 561 -914 -1802 0
-1669 846 -330 1135 0
162 142 -118 747 0
-985 -1821 1458 866 0
752 -768 -2160 2067 0
1209 287 1152 480 0
1905 1740 -216 -1683 0
2051 -2001 -319 -91 0
697 -2071 -171 -983 0
1119 -798 -789 171 0
1208 1615 -1674 11 0
449 -1271 244 2186 0
-1454 1719 1516 -690 0
1091 691 754 -1614 0
-1254 -1520 333 -531 0
-1385 -2086 625 716 0
946 1854 1179 595 0
-1822 622 -766 1355 0
-1841 -1580 -748 -1446 0
934 1592 2038 -888 0
-1115 1052 832 2039 0
453 -2195 1745 1894 0
-1353 -91 -1572 1469 0
306 -179 830 -1980 0
-600 1019 2152 342 0
-837 -1579 1631 -777 0
-934 -1628 2166 -762 0
2082 1083 525 275 0
-350 58 -1242 -1321 0
-1039 -1685 1372 -1870 0
520 -2050 -796 1258 0
1436 2085 655 -1608 0
-823 -223 -1251 -1613 0
-1247 -1411 -351 -1184 0
1701 984 1312 -1771 0
-2100 -1728 -636 -910 0
-191 -1410 -406 1208 0
-1649 -1891 -2020 -613 0
1323 -150 1048 1927 0
1238 -2211 -211 -322 0
-1109 -658 -2027 752 0
-723 -117 2093 -914 0
-2101 355 110 1675 0
-430 1886 1103 623 0
271 -796 1618 2088 0
668 18 -2037 895 0
-852 -1806 2041 -1429 0
-64 1507 1884 403 0
-2080 2222 1205 624 0
-1122 -1543 2116 -1317 0
-1868 2024 2181 1106 0
-1204 -1382 -1535 2 0
-1683 482 1477 -655 0
1578 1038 89 -1634 0
-1168 405 437 -1033 0
-1888 1131 -2066 266 0
-1526 -2054 -2015 1382 0
-1595 -1775 593 -2173 0
2225 -325 1926 -906 0
596 -835 -346 -361 0
-854 1835 1369 1449 0
-1427 -687 -2044 1060 0
360 -1648 -251 896 0
1610 -1403 -1110 1731 0
1075 459 1103 894 0
17 -1711 -8 451 0
-2066 -1704 1140 2100 0
-37 -153 -525 1098 0
961 -1601 1922 -2188 0
-406 597 383 1514 0
-1610 -1403 -1110 -1731 0
313 -1915 836 637 0
2015 -205 252 -2002 0
-191 1410 406 1208 0
-219 -309 -1147 -1354 0
2215 1265 1149 1202 0
1956 100 1280 -2005 0
1781 -1952 -2018 609 0
-665 -1844 -1373 407 0
1078 -482 -1459 1558 0
1093 68 -1499 -680 0
-1138 27 -1945 1540 0
692 -970 -363 2008 0
1025 749 356 -1132 0
2016 586 -2236 -849 0
1343 -1218 -210 1071 0
1688 1706 1798 918 0
928 -886 563 2019 0
-1196 -77 -1853 -2110 0
-1831 1522 -1465 -954 0
-621 -902 1655 -1378 0
1143 467 1169 -2086 0
37 153 525 -1098 0
-714 2 1984 925 0
2143 -981 -937 82 0
812 -1504 -2081 1565 0
1117 -679 827 -1940 0
-530 1742 1176 1715 0
455 1629 -1047 2010 0
-1238 1045 2108 -1765 0
-774 -731 1518 1697 0
-471 -468 1966 1242 0
-2136 202 1065 2125 0
504 -732 -1229 -1386 0
-1849 -1195 -1386 -2182 0
2098 -1286 1402 1247 0
-1651 -962 1312 1250 0
-1454 1719 -1516 690 0
1578 1504 -1909 1815 0
-751 -972 300 -2011 0
-2140 -268 2030 1877 0
-1877 -373 1226 -1116 0
1166 473 1958 -462 0
358 787 25 -745 0
-1276 -1953 -55 -1346 0
1616 1362 -1753 -22 0
976 1513 -1283 -1992 0
2235 587 -245 297 0
2180 -1389 -1913 1766 0
1437 1962 2050 1665 0
494 423 -1517 -124 0
2193 1808 -283 -1646 0
-1470 -141 1581 -1241 0
-634 -1267 -1532 1502 0
1809 -1893 1430 879 0
1148 540 1379 -2081 0
1573 -181 1285 -1751 0
-1238 1045 -2108 1765 0
-1632 2064 -1734 1203 0
-1596 1937 -1710 1059 0
1917 -2144 -1814 -1417 0
-485 -133 -1939 -725 0
1950 1336 271 197 0
-352 842 -1668 -1165 0
-1676 -1264 -1277 -1035 0
1826 -432 538 833 0
549 -1783 -320 1482 0
-1775 43 -1602 -148 0
2021 -1747 -1027 459 0
-1292 -392 1137 -1351 0
-566 -1922 -1282 -478 0
1869 -2072 1864 550 0
-1979 -1584 -932 -387 0
-2115 -920 -1163 -1626 0
-1423 299 -1168 -644 0
-2145 1622 -272 570 0
506 1874 -1763 1929 0
-453 2195 -1745 -1894 0
1067 -1919 -1031 180 0
-753 -1001 744 2225 0
1161 1365 1087 -1623 0
4 1370 -435 2022 0
-213 595 290 -105 0
-1796 -1235 1748 -1928 0
430 1886 -1103 623 0
592 1288 2009 374 0
-2068 -1911 275 663 0
-464 1050 -1665 -582 0
1634 1112 -1227 -194 0
-939 -256 2215 476 0
410 1912 1219 952 0
-2040 465 -1148 -1776 0
-1410 1390 -2110 -1619 0
106 165 -550 -1969 0
-609 -660 1370 2053 0
1544 956 2175 1135 0
-2160 1150 942 132 0
237 996 441 1012 0
1702 1890 -1086 314 0
1419 1893 1624 -1855 0
1634 -1112 -1227 194 0
820 347 33 357 0
302 1414 2177 -1832 0
-2042 2120 -1043 -255 0
-1209 -287 -1152 -480 0
-2153 1472 -168 1968 0
2187 2124 249 -1621 0
2072 74 509 -1333 0
2234 1943 -1506 -315 0
1174 -1194 2051 -1908 0
1491 -1268 1084 1405 0
-1230 975 -750 1318 0
1757 363 -966 -1288 0
798 2097 -1040 2216 0
-1989 868 434 1821 0
903 -715 1252 719 0
-1794 -1735 1212 -1359 0
1078 649 1541 -216 0
-160 -250 -1120 579 0
958 -738 -1519 1939 0
1737 -59 137 -52 0
-1197 106 1156 492 0
-1556 2096 1433 -575 0
-1790 -2122 -296 -1851 0
-1746 -827 1262 -1523 0
532 1337 22 1694 0
1662 -2163 -804 -1687 0
1595 -1775 593 2173 0
-2016 586 2236 -849 0
890 -1309 421 558 0
-1631 385 763 -799 0
-262 -828 713 -1237 0
-1734 702 974 956 0
1526 -2054 2015 1382 0
814 576 900 2062 0
470 565 -1919 1968 0
-1822 898 -1094 -1840 0
562 -2221 1133 391 0
-864 -2115 -260 1669 0
-1461 -292 2129 2103 0
-470 -565 -1919 1968 0
1440 -813 572 -2059 0
57 -291 -157 700 0
2155 -1298 -140 -1534 0
1118 -1940 738 -1617 0
-1604 465 295 -873 0
60 321 1640 -1597 0
-1102 253 668 -696 0
2098 51 117 404 0
219 -309 -1147 1354 0
1214 522 -224 1606 0
-724 922 -416 -1224 0
2057 -1007 1981 -1803 0
-703 -1900 -1166 1643 0
562 2221 -1133 391 0
-1348 470 400 -220 0
-146 807 -1809 -376 0
-2087 2089 -1044 -570 0
864 -863 -1451 23 0
-2174 -314 -2023 -1484 0
-445 -418 -1575 -484 0
-1208 -1615 1674 -11 0
-1635 -1294 -632 -210 0
-1328 1549 -2099 1466 0
574 1536 349 631 0
674 -1349 177 -1709 0
1590 1791 1082 1725 0
322 -134 76 -2227 0
155 -123 -926 1356 0
-1775 43 1602 148 0
-371 -108 834 -230 0
2051 2001 -319 91 0
1864 -1069 -1217 1077 0
781 1566 431 1215 0
126 1250 -112 717 0
-1070 15 1118 -507 0
-1220 192 -62 2159 0
1394 577 -653 -1778 0
-836 -1423 -1811 1073 0
-1096 -2127 -167 -1717 0
-455 -1629 1047 -2010 0
42 -1452 954 -615 0
1304 1845 -491 1511 0
-1787 2204 1474 1705 0
1390 678 215 -1615 0
-288 -46 1592 -1199 0
1661 184 237 -2142 0
1196 77 -1853 -2110 0
1708 3 1448 1206 0
259 -149 1712 1738 0
1177 175 -462 844 0
2128 1722 1449 -2191 0
-2156 -2094 904 353 0
-605 1710 2134 1225 0
1897 903 -105 -1329 0
-1204 1382 1535 2 0
916 929 1863 1001 0
-601 -1192 748 1334 0
1051 1 1287 -953 0
-395 -967 129 2105 0
870 2162 -138 749 0
1132 214 1024 -2227 0
-932 -4 -2055 -1 0
916 -929 1863 -1001 0
-449 -491 -1712 223 0
-1327 -51 1730 1875 0
-627 -264 1985 785 0
2133 467 -565 2084 0
1204 -1382 1535 2 0
400 -180 -1087 483 0
1292 2190 1651 -730 0
184 2025 880 -1580 0
-1143 467 -1169 -2086 0
901 -1329 1416 657 0
-743 370 -1708 -1126 0
2206 324 1456 -841 0
1255 2004 2003 -303 0
-939 -1352 1810 -1635 0
-339 -563 598 1808 0
-1218 -1786 1467 1263 0
-388 288 -2232 -292 0
-1826 -432 -538 833 0
1218 -1786 1467 -1263 0
-2166 -1129 -1814 -1236 0
1822 -622 766 -1355 0
714 2 -1984 925 0
-2113 -483 -1447 -677 0
1175 -2034 -1013 1850 0
1907 -762 2201 -2144 0
1302 1645 -541 1988 0
1266 67 711 -2092 0
1884 2032 1788 1022 0
995 1517 1387 209 0
-1901 -1723 2237 -1441 0
2130 -1483 -616 1570 0
1756 -976 1364 -131 0
-860 1690 1545 1848 0
929 2084 -1348 -1222 0
