p cnf 945 22923
1 2 3 4 5 6 7 8 9 10 11 12 13 14 15 0
16 17 18 19 20 21 22 23 24 25 26 27 28 29 30 0
31 32 33 34 35 36 37 38 39 40 41 42 43 44 45 0
46 47 48 49 50 51 52 53 54 55 56 57 58 59 60 0
61 62 63 64 65 66 67 68 69 70 71 72 73 74 75 0
76 77 78 79 80 81 82 83 84 85 86 87 88 89 90 0
91 92 93 94 95 96 97 98 99 100 101 102 103 104 105 0
106 107 108 109 110 111 112 113 114 115 116 117 118 119 120 0
121 122 123 124 125 126 127 128 129 130 131 132 133 134 135 0
136 137 138 139 140 141 142 143 144 145 146 147 148 149 150 0
151 152 153 154 155 156 157 158 159 160 161 162 163 164 165 0
166 167 168 169 170 171 172 173 174 175 176 177 178 179 180 0
181 182 183 184 185 186 187 188 189 190 191 192 193 194 195 0
196 197 198 199 200 201 202 203 204 205 206 207 208 209 210 0
211 212 213 214 215 216 217 218 219 220 221 222 223 224 225 0
226 227 228 229 230 231 232 233 234 235 236 237 238 239 240 0
241 242 243 244 245 246 247 248 249 250 251 252 253 254 255 0
256 257 258 259 260 261 262 263 264 265 266 267 268 269 270 0
271 272 273 274 275 276 277 278 279 280 281 282 283 284 285 0
286 287 288 289 290 291 292 293 294 295 296 297 298 299 300 0
301 302 303 304 305 306 307 308 309 310 311 312 313 314 315 0
316 317 318 319 320 321 322 323 324 325 326 327 328 329 330 0
331 332 333 334 335 336 337 338 339 340 341 342 343 344 345 0
346 347 348 349 350 351 352 353 354 355 356 357 358 359 360 0
361 362 363 364 365 366 367 368 369 370 371 372 373 374 375 0
376 377 378 379 380 381 382 383 384 385 386 387 388 389 390 0
391 392 393 394 395 396 397 398 399 400 401 402 403 404 405 0
406 407 408 409 410 411 412 413 414 415 416 417 418 419 420 0
421 422 423 424 425 426 427 428 429 430 431 432 433 434 435 0
436 437 438 439 440 441 442 443 444 445 446 447 448 449 450 0
451 452 453 454 455 456 457 458 459 460 461 462 463 464 465 0
466 467 468 469 470 471 472 473 474 475 476 477 478 479 480 0
481 482 483 484 485 486 487 488 489 490 491 492 493 494 495 0
496 497 498 499 500 501 502 503 504 505 506 507 508 509 510 0
511 512 513 514 515 516 517 518 519 520 521 522 523 524 525 0
526 527 528 529 530 531 532 533 534 535 536 537 538 539 540 0
541 542 543 544 545 546 547 548 549 550 551 552 553 554 555 0
556 557 558 559 560 561 562 563 564 565 566 567 568 569 570 0
571 572 573 574 575 576 577 578 579 580 581 582 583 584 585 0
586 587 588 589 590 591 592 593 594 595 596 597 598 599 600 0
601 602 603 604 605 606 607 608 609 610 611 612 613 614 615 0
616 617 618 619 620 621 622 623 624 625 626 627 628 629 630 0
631 632 633 634 635 636 637 638 639 640 641 642 643 644 645 0
646 647 648 649 650 651 652 653 654 655 656 657 658 659 660 0
661 662 663 664 665 666 667 668 669 670 671 672 673 674 675 0
676 677 678 679 680 681 682 683 684 685 686 687 688 689 690 0
691 692 693 694 695 696 697 698 699 700 701 702 703 704 705 0
706 707 708 709 710 711 712 713 714 715 716 717 718 719 720 0
721 722 723 724 725 726 727 728 729 730 731 732 733 734 735 0
736 737 738 739 740 741 742 743 744 745 746 747 748 749 750 0
751 752 753 754 755 756 757 758 759 760 761 762 763 764 765 0
766 767 768 769 770 771 772 773 774 775 776 777 778 779 780 0
781 782 783 784 785 786 787 788 789 790 791 792 793 794 795 0
796 797 798 799 800 801 802 803 804 805 806 807 808 809 810 0
811 812 813 814 815 816 817 818 819 820 821 822 823 824 825 0
826 827 828 829 830 831 832 833 834 835 836 837 838 839 840 0
841 842 843 844 845 846 847 848 849 850 851 852 853 854 855 0
856 857 858 859 860 861 862 863 864 865 866 867 868 869 870 0
871 872 873 874 875 876 877 878 879 880 881 882 883 884 885 0
886 887 888 889 890 891 892 893 894 895 896 897 898 899 900 0
901 902 903 904 905 906 907 908 909 910 911 912 913 914 915 0
916 917 918 919 920 921 922 923 924 925 926 927 928 929 930 0
931 932 933 934 935 936 937 938 939 940 941 942 943 944 945 0
-241 -856 0
-242 -857 0
-243 -858 0
-244 -859 0
-245 -860 0
-246 -861 0
-247 -862 0
-248 -863 0
-249 -864 0
-250 -865 0
-251 -866 0
-252 -867 0
-253 -868 0
-254 -869 0
-255 -870 0
-421 -466 0
-422 -467 0
-423 -468 0
-424 -469 0
-425 -470 0
-426 -471 0
-427 -472 0
-428 -473 0
-429 -474 0
-430 -475 0
-431 -476 0
-432 -477 0
-433 -478 0
-434 -479 0
-435 -480 0
-106 -121 0
-107 -122 0
-108 -123 0
-109 -124 0
-110 -125 0
-111 -126 0
-112 -127 0
-113 -128 0
-114 -129 0
-115 -130 0
-116 -131 0
-117 -132 0
-118 -133 0
-119 -134 0
-120 -135 0
-706 -661 0
-707 -662 0
-708 -663 0
-709 -664 0
-710 -665 0
-711 -666 0
-712 -667 0
-713 -668 0
-714 -669 0
-715 -670 0
-716 -671 0
-717 -672 0
-718 -673 0
-719 -674 0
-720 -675 0
-586 -601 0
-587 -602 0
-588 -603 0
-589 -604 0
-590 -605 0
-591 -606 0
-592 -607 0
-593 -608 0
-594 -609 0
-595 -610 0
-596 -611 0
-597 -612 0
-598 -613 0
-599 -614 0
-600 -615 0
-151 -196 0
-152 -197 0
-153 -198 0
-154 -199 0
-155 -200 0
-156 -201 0
-157 -202 0
-158 -203 0
-159 -204 0
-160 -205 0
-161 -206 0
-162 -207 0
-163 -208 0
-164 -209 0
-165 -210 0
-766 -211 0
-767 -212 0
-768 -213 0
-769 -214 0
-770 -215 0
-771 -216 0
-772 -217 0
-773 -218 0
-774 -219 0
-775 -220 0
-776 -221 0
-777 -222 0
-778 -223 0
-779 -224 0
-780 -225 0
-481 -556 0
-482 -557 0
-483 -558 0
-484 -559 0
-485 -560 0
-486 -561 0
-487 -562 0
-488 -563 0
-489 -564 0
-490 -565 0
-491 -566 0
-492 -567 0
-493 -568 0
-494 -569 0
-495 -570 0
-766 -751 0
-767 -752 0
-768 -753 0
-769 -754 0
-770 -755 0
-771 -756 0
-772 -757 0
-773 -758 0
-774 -759 0
-775 -760 0
-776 -761 0
-777 -762 0
-778 -763 0
-779 -764 0
-780 -765 0
-361 -496 0
-362 -497 0
-363 -498 0
-364 -499 0
-365 -500 0
-366 -501 0
-367 -502 0
-368 -503 0
-369 -504 0
-370 -505 0
-371 -506 0
-372 -507 0
-373 -508 0
-374 -509 0
-375 -510 0
-781 -226 0
-782 -227 0
-783 -228 0
-784 -229 0
-785 -230 0
-786 -231 0
-787 -232 0
-788 -233 0
-789 -234 0
-790 -235 0
-791 -236 0
-792 -237 0
-793 -238 0
-794 -239 0
-795 -240 0
-136 -796 0
-137 -797 0
-138 -798 0
-139 -799 0
-140 -800 0
-141 -801 0
-142 -802 0
-143 -803 0
-144 -804 0
-145 -805 0
-146 -806 0
-147 -807 0
-148 -808 0
-149 -809 0
-150 -810 0
-826 -301 0
-827 -302 0
-828 -303 0
-829 -304 0
-830 -305 0
-831 -306 0
-832 -307 0
-833 -308 0
-834 -309 0
-835 -310 0
-836 -311 0
-837 -312 0
-838 -313 0
-839 -314 0
-840 -315 0
-31 -211 0
-32 -212 0
-33 -213 0
-34 -214 0
-35 -215 0
-36 -216 0
-37 -217 0
-38 -218 0
-39 -219 0
-40 -220 0
-41 -221 0
-42 -222 0
-43 -223 0
-44 -224 0
-45 -225 0
-316 -406 0
-317 -407 0
-318 -408 0
-319 -409 0
-320 -410 0
-321 -411 0
-322 -412 0
-323 -413 0
-324 -414 0
-325 -415 0
-326 -416 0
-327 -417 0
-328 -418 0
-329 -419 0
-330 -420 0
-196 -346 0
-197 -347 0
-198 -348 0
-199 -349 0
-200 -350 0
-201 -351 0
-202 -352 0
-203 -353 0
-204 -354 0
-205 -355 0
-206 -356 0
-207 -357 0
-208 -358 0
-209 -359 0
-210 -360 0
-211 -361 0
-212 -362 0
-213 -363 0
-214 -364 0
-215 -365 0
-216 -366 0
-217 -367 0
-218 -368 0
-219 -369 0
-220 -370 0
-221 -371 0
-222 -372 0
-223 -373 0
-224 -374 0
-225 -375 0
-91 -301 0
-92 -302 0
-93 -303 0
-94 -304 0
-95 -305 0
-96 -306 0
-97 -307 0
-98 -308 0
-99 -309 0
-100 -310 0
-101 -311 0
-102 -312 0
-103 -313 0
-104 -314 0
-105 -315 0
-706 -316 0
-707 -317 0
-708 -318 0
-709 -319 0
-710 -320 0
-711 -321 0
-712 -322 0
-713 -323 0
-714 -324 0
-715 -325 0
-716 -326 0
-717 -327 0
-718 -328 0
-719 -329 0
-720 -330 0
-691 -841 0
-692 -842 0
-693 -843 0
-694 -844 0
-695 -845 0
-696 -846 0
-697 -847 0
-698 -848 0
-699 -849 0
-700 -850 0
-701 -851 0
-702 -852 0
-703 -853 0
-704 -854 0
-705 -855 0
-256 -436 0
-257 -437 0
-258 -438 0
-259 -439 0
-260 -440 0
-261 -441 0
-262 -442 0
-263 -443 0
-264 -444 0
-265 -445 0
-266 -446 0
-267 -447 0
-268 -448 0
-269 -449 0
-270 -450 0
-61 -886 0
-62 -887 0
-63 -888 0
-64 -889 0
-65 -890 0
-66 -891 0
-67 -892 0
-68 -893 0
-69 -894 0
-70 -895 0
-71 -896 0
-72 -897 0
-73 -898 0
-74 -899 0
-75 -900 0
-706 -856 0
-707 -857 0
-708 -858 0
-709 -859 0
-710 -860 0
-711 -861 0
-712 -862 0
-713 -863 0
-714 -864 0
-715 -865 0
-716 -866 0
-717 -867 0
-718 -868 0
-719 -869 0
-720 -870 0
-301 -601 0
-302 -602 0
-303 -603 0
-304 -604 0
-305 -605 0
-306 -606 0
-307 -607 0
-308 -608 0
-309 -609 0
-310 -610 0
-311 -611 0
-312 -612 0
-313 -613 0
-314 -614 0
-315 -615 0
-766 -406 0
-767 -407 0
-768 -408 0
-769 -409 0
-770 -410 0
-771 -411 0
-772 -412 0
-773 -413 0
-774 -414 0
-775 -415 0
-776 -416 0
-777 -417 0
-778 -418 0
-779 -419 0
-780 -420 0
-646 -346 0
-647 -347 0
-648 -348 0
-649 -349 0
-650 -350 0
-651 -351 0
-652 -352 0
-653 -353 0
-654 -354 0
-655 -355 0
-656 -356 0
-657 -357 0
-658 -358 0
-659 -359 0
-660 -360 0
-136 -451 0
-137 -452 0
-138 -453 0
-139 -454 0
-140 -455 0
-141 -456 0
-142 -457 0
-143 -458 0
-144 -459 0
-145 -460 0
-146 -461 0
-147 -462 0
-148 -463 0
-149 -464 0
-150 -465 0
-16 -391 0
-17 -392 0
-18 -393 0
-19 -394 0
-20 -395 0
-21 -396 0
-22 -397 0
-23 -398 0
-24 -399 0
-25 -400 0
-26 -401 0
-27 -402 0
-28 -403 0
-29 -404 0
-30 -405 0
-31 -406 0
-32 -407 0
-33 -408 0
-34 -409 0
-35 -410 0
-36 -411 0
-37 -412 0
-38 -413 0
-39 -414 0
-40 -415 0
-41 -416 0
-42 -417 0
-43 -418 0
-44 -419 0
-45 -420 0
-196 -541 0
-197 -542 0
-198 -543 0
-199 -544 0
-200 -545 0
-201 -546 0
-202 -547 0
-203 -548 0
-204 -549 0
-205 -550 0
-206 -551 0
-207 -552 0
-208 -553 0
-209 -554 0
-210 -555 0
-691 -496 0
-692 -497 0
-693 -498 0
-694 -499 0
-695 -500 0
-696 -501 0
-697 -502 0
-698 -503 0
-699 -504 0
-700 -505 0
-701 -506 0
-702 -507 0
-703 -508 0
-704 -509 0
-705 -510 0
-871 -661 0
-872 -662 0
-873 -663 0
-874 -664 0
-875 -665 0
-876 -666 0
-877 -667 0
-878 -668 0
-879 -669 0
-880 -670 0
-881 -671 0
-882 -672 0
-883 -673 0
-884 -674 0
-885 -675 0
-706 -511 0
-707 -512 0
-708 -513 0
-709 -514 0
-710 -515 0
-711 -516 0
-712 -517 0
-713 -518 0
-714 -519 0
-715 -520 0
-716 -521 0
-717 -522 0
-718 -523 0
-719 -524 0
-720 -525 0
-586 -451 0
-587 -452 0
-588 -453 0
-589 -454 0
-590 -455 0
-591 -456 0
-592 -457 0
-593 -458 0
-594 -459 0
-595 -460 0
-596 -461 0
-597 -462 0
-598 -463 0
-599 -464 0
-600 -465 0
-76 -556 0
-77 -557 0
-78 -558 0
-79 -559 0
-80 -560 0
-81 -561 0
-82 -562 0
-83 -563 0
-84 -564 0
-85 -565 0
-86 -566 0
-87 -567 0
-88 -568 0
-89 -569 0
-90 -570 0
-766 -61 0
-767 -62 0
-768 -63 0
-769 -64 0
-770 -65 0
-771 -66 0
-772 -67 0
-773 -68 0
-774 -69 0
-775 -70 0
-776 -71 0
-777 -72 0
-778 -73 0
-779 -74 0
-780 -75 0
-301 -796 0
-302 -797 0
-303 -798 0
-304 -799 0
-305 -800 0
-306 -801 0
-307 -802 0
-308 -803 0
-309 -804 0
-310 -805 0
-311 -806 0
-312 -807 0
-313 -808 0
-314 -809 0
-315 -810 0
-601 -466 0
-602 -467 0
-603 -468 0
-604 -469 0
-605 -470 0
-606 -471 0
-607 -472 0
-608 -473 0
-609 -474 0
-610 -475 0
-611 -476 0
-612 -477 0
-613 -478 0
-614 -479 0
-615 -480 0
-796 -751 0
-797 -752 0
-798 -753 0
-799 -754 0
-800 -755 0
-801 -756 0
-802 -757 0
-803 -758 0
-804 -759 0
-805 -760 0
-806 -761 0
-807 -762 0
-808 -763 0
-809 -764 0
-810 -765 0
-646 -541 0
-647 -542 0
-648 -543 0
-649 -544 0
-650 -545 0
-651 -546 0
-652 -547 0
-653 -548 0
-654 -549 0
-655 -550 0
-656 -551 0
-657 -552 0
-658 -553 0
-659 -554 0
-660 -555 0
-31 -61 0
-32 -62 0
-33 -63 0
-34 -64 0
-35 -65 0
-36 -66 0
-37 -67 0
-38 -68 0
-39 -69 0
-40 -70 0
-41 -71 0
-42 -72 0
-43 -73 0
-44 -74 0
-45 -75 0
-226 -886 0
-227 -887 0
-228 -888 0
-229 -889 0
-230 -890 0
-231 -891 0
-232 -892 0
-233 -893 0
-234 -894 0
-235 -895 0
-236 -896 0
-237 -897 0
-238 -898 0
-239 -899 0
-240 -900 0
-241 -361 0
-242 -362 0
-243 -363 0
-244 -364 0
-245 -365 0
-246 -366 0
-247 -367 0
-248 -368 0
-249 -369 0
-250 -370 0
-251 -371 0
-252 -372 0
-253 -373 0
-254 -374 0
-255 -375 0
-526 -556 0
-527 -557 0
-528 -558 0
-529 -559 0
-530 -560 0
-531 -561 0
-532 -562 0
-533 -563 0
-534 -564 0
-535 -565 0
-536 -566 0
-537 -567 0
-538 -568 0
-539 -569 0
-540 -570 0
-811 -751 0
-812 -752 0
-813 -753 0
-814 -754 0
-815 -755 0
-816 -756 0
-817 -757 0
-818 -758 0
-819 -759 0
-820 -760 0
-821 -761 0
-822 -762 0
-823 -763 0
-824 -764 0
-825 -765 0
-406 -496 0
-407 -497 0
-408 -498 0
-409 -499 0
-410 -500 0
-411 -501 0
-412 -502 0
-413 -503 0
-414 -504 0
-415 -505 0
-416 -506 0
-417 -507 0
-418 -508 0
-419 -509 0
-420 -510 0
-91 -151 0
-92 -152 0
-93 -153 0
-94 -154 0
-95 -155 0
-96 -156 0
-97 -157 0
-98 -158 0
-99 -159 0
-100 -160 0
-101 -161 0
-102 -162 0
-103 -163 0
-104 -164 0
-105 -165 0
-586 -106 0
-587 -107 0
-588 -108 0
-589 -109 0
-590 -110 0
-591 -111 0
-592 -112 0
-593 -113 0
-594 -114 0
-595 -115 0
-596 -116 0
-597 -117 0
-598 -118 0
-599 -119 0
-600 -120 0
-61 -736 0
-62 -737 0
-63 -738 0
-64 -739 0
-65 -740 0
-66 -741 0
-67 -742 0
-68 -743 0
-69 -744 0
-70 -745 0
-71 -746 0
-72 -747 0
-73 -748 0
-74 -749 0
-75 -750 0
-76 -211 0
-77 -212 0
-78 -213 0
-79 -214 0
-80 -215 0
-81 -216 0
-82 -217 0
-83 -218 0
-84 -219 0
-85 -220 0
-86 -221 0
-87 -222 0
-88 -223 0
-89 -224 0
-90 -225 0
-121 -841 0
-122 -842 0
-123 -843 0
-124 -844 0
-125 -845 0
-126 -846 0
-127 -847 0
-128 -848 0
-129 -849 0
-130 -850 0
-131 -851 0
-132 -852 0
-133 -853 0
-134 -854 0
-135 -855 0
-421 -511 0
-422 -512 0
-423 -513 0
-424 -514 0
-425 -515 0
-426 -516 0
-427 -517 0
-428 -518 0
-429 -519 0
-430 -520 0
-431 -521 0
-432 -522 0
-433 -523 0
-434 -524 0
-435 -525 0
-301 -451 0
-302 -452 0
-303 -453 0
-304 -454 0
-305 -455 0
-306 -456 0
-307 -457 0
-308 -458 0
-309 -459 0
-310 -460 0
-311 -461 0
-312 -462 0
-313 -463 0
-314 -464 0
-315 -465 0
-646 -196 0
-647 -197 0
-648 -198 0
-649 -199 0
-650 -200 0
-651 -201 0
-652 -202 0
-653 -203 0
-654 -204 0
-655 -205 0
-656 -206 0
-657 -207 0
-658 -208 0
-659 -209 0
-660 -210 0
-136 -301 0
-137 -302 0
-138 -303 0
-139 -304 0
-140 -305 0
-141 -306 0
-142 -307 0
-143 -308 0
-144 -309 0
-145 -310 0
-146 -311 0
-147 -312 0
-148 -313 0
-149 -314 0
-150 -315 0
-16 -241 0
-17 -242 0
-18 -243 0
-19 -244 0
-20 -245 0
-21 -246 0
-22 -247 0
-23 -248 0
-24 -249 0
-25 -250 0
-26 -251 0
-27 -252 0
-28 -253 0
-29 -254 0
-30 -255 0
-181 -466 0
-182 -467 0
-183 -468 0
-184 -469 0
-185 -470 0
-186 -471 0
-187 -472 0
-188 -473 0
-189 -474 0
-190 -475 0
-191 -476 0
-192 -477 0
-193 -478 0
-194 -479 0
-195 -480 0
-46 -931 0
-47 -932 0
-48 -933 0
-49 -934 0
-50 -935 0
-51 -936 0
-52 -937 0
-53 -938 0
-54 -939 0
-55 -940 0
-56 -941 0
-57 -942 0
-58 -943 0
-59 -944 0
-60 -945 0
-31 -256 0
-32 -257 0
-33 -258 0
-34 -259 0
-35 -260 0
-36 -261 0
-37 -262 0
-38 -263 0
-39 -264 0
-40 -265 0
-41 -266 0
-42 -267 0
-43 -268 0
-44 -269 0
-45 -270 0
-226 -541 0
-227 -542 0
-228 -543 0
-229 -544 0
-230 -545 0
-231 -546 0
-232 -547 0
-233 -548 0
-234 -549 0
-235 -550 0
-236 -551 0
-237 -552 0
-238 -553 0
-239 -554 0
-240 -555 0
-811 -406 0
-812 -407 0
-813 -408 0
-814 -409 0
-815 -410 0
-816 -411 0
-817 -412 0
-818 -413 0
-819 -414 0
-820 -415 0
-821 -416 0
-822 -417 0
-823 -418 0
-824 -419 0
-825 -420 0
-691 -346 0
-692 -347 0
-693 -348 0
-694 -349 0
-695 -350 0
-696 -351 0
-697 -352 0
-698 -353 0
-699 -354 0
-700 -355 0
-701 -356 0
-702 -357 0
-703 -358 0
-704 -359 0
-705 -360 0
-871 -511 0
-872 -512 0
-873 -513 0
-874 -514 0
-875 -515 0
-876 -516 0
-877 -517 0
-878 -518 0
-879 -519 0
-880 -520 0
-881 -521 0
-882 -522 0
-883 -523 0
-884 -524 0
-885 -525 0
-61 -391 0
-62 -392 0
-63 -393 0
-64 -394 0
-65 -395 0
-66 -396 0
-67 -397 0
-68 -398 0
-69 -399 0
-70 -400 0
-71 -401 0
-72 -402 0
-73 -403 0
-74 -404 0
-75 -405 0
-241 -556 0
-242 -557 0
-243 -558 0
-244 -559 0
-245 -560 0
-246 -561 0
-247 -562 0
-248 -563 0
-249 -564 0
-250 -565 0
-251 -566 0
-252 -567 0
-253 -568 0
-254 -569 0
-255 -570 0
-121 -496 0
-122 -497 0
-123 -498 0
-124 -499 0
-125 -500 0
-126 -501 0
-127 -502 0
-128 -503 0
-129 -504 0
-130 -505 0
-131 -506 0
-132 -507 0
-133 -508 0
-134 -509 0
-135 -510 0
-586 -301 0
-587 -302 0
-588 -303 0
-589 -304 0
-590 -305 0
-591 -306 0
-592 -307 0
-593 -308 0
-594 -309 0
-595 -310 0
-596 -311 0
-597 -312 0
-598 -313 0
-599 -314 0
-600 -315 0
-61 -931 0
-62 -932 0
-63 -933 0
-64 -934 0
-65 -935 0
-66 -936 0
-67 -937 0
-68 -938 0
-69 -939 0
-70 -940 0
-71 -941 0
-72 -942 0
-73 -943 0
-74 -944 0
-75 -945 0
-76 -406 0
-77 -407 0
-78 -408 0
-79 -409 0
-80 -410 0
-81 -411 0
-82 -412 0
-83 -413 0
-84 -414 0
-85 -415 0
-86 -416 0
-87 -417 0
-88 -418 0
-89 -419 0
-90 -420 0
-916 -661 0
-917 -662 0
-918 -663 0
-919 -664 0
-920 -665 0
-921 -666 0
-922 -667 0
-923 -668 0
-924 -669 0
-925 -670 0
-926 -671 0
-927 -672 0
-928 -673 0
-929 -674 0
-930 -675 0
-751 -511 0
-752 -512 0
-753 -513 0
-754 -514 0
-755 -515 0
-756 -516 0
-757 -517 0
-758 -518 0
-759 -519 0
-760 -520 0
-761 -521 0
-762 -522 0
-763 -523 0
-764 -524 0
-765 -525 0
-16 -436 0
-17 -437 0
-18 -438 0
-19 -439 0
-20 -440 0
-21 -441 0
-22 -442 0
-23 -443 0
-24 -444 0
-25 -445 0
-26 -446 0
-27 -447 0
-28 -448 0
-29 -449 0
-30 -450 0
-631 -451 0
-632 -452 0
-633 -453 0
-634 -454 0
-635 -455 0
-636 -456 0
-637 -457 0
-638 -458 0
-639 -459 0
-640 -460 0
-641 -461 0
-642 -462 0
-643 -463 0
-644 -464 0
-645 -465 0
-811 -61 0
-812 -62 0
-813 -63 0
-814 -64 0
-815 -65 0
-816 -66 0
-817 -67 0
-818 -68 0
-819 -69 0
-820 -70 0
-821 -71 0
-822 -72 0
-823 -73 0
-824 -74 0
-825 -75 0
-1 -496 0
-2 -497 0
-3 -498 0
-4 -499 0
-5 -500 0
-6 -501 0
-7 -502 0
-8 -503 0
-9 -504 0
-10 -505 0
-11 -506 0
-12 -507 0
-13 -508 0
-14 -509 0
-15 -510 0
-181 -661 0
-182 -662 0
-183 -663 0
-184 -664 0
-185 -665 0
-186 -666 0
-187 -667 0
-188 -668 0
-189 -669 0
-190 -670 0
-191 -671 0
-192 -672 0
-193 -673 0
-194 -674 0
-195 -675 0
-871 -166 0
-872 -167 0
-873 -168 0
-874 -169 0
-875 -170 0
-876 -171 0
-877 -172 0
-878 -173 0
-879 -174 0
-880 -175 0
-881 -176 0
-882 -177 0
-883 -178 0
-884 -179 0
-885 -180 0
-346 -796 0
-347 -797 0
-348 -798 0
-349 -799 0
-350 -800 0
-351 -801 0
-352 -802 0
-353 -803 0
-354 -804 0
-355 -805 0
-356 -806 0
-357 -807 0
-358 -808 0
-359 -809 0
-360 -810 0
-226 -736 0
-227 -737 0
-228 -738 0
-229 -739 0
-230 -740 0
-231 -741 0
-232 -742 0
-233 -743 0
-234 -744 0
-235 -745 0
-236 -746 0
-237 -747 0
-238 -748 0
-239 -749 0
-240 -750 0
-121 -151 0
-122 -152 0
-123 -153 0
-124 -154 0
-125 -155 0
-126 -156 0
-127 -157 0
-128 -158 0
-129 -159 0
-130 -160 0
-131 -161 0
-132 -162 0
-133 -163 0
-134 -164 0
-135 -165 0
-691 -541 0
-692 -542 0
-693 -543 0
-694 -544 0
-695 -545 0
-696 -546 0
-697 -547 0
-698 -548 0
-699 -549 0
-700 -550 0
-701 -551 0
-702 -552 0
-703 -553 0
-704 -554 0
-705 -555 0
-271 -886 0
-272 -887 0
-273 -888 0
-274 -889 0
-275 -890 0
-276 -891 0
-277 -892 0
-278 -893 0
-279 -894 0
-280 -895 0
-281 -896 0
-282 -897 0
-283 -898 0
-284 -899 0
-285 -900 0
-571 -556 0
-572 -557 0
-573 -558 0
-574 -559 0
-575 -560 0
-576 -561 0
-577 -562 0
-578 -563 0
-579 -564 0
-580 -565 0
-581 -566 0
-582 -567 0
-583 -568 0
-584 -569 0
-585 -570 0
-646 -46 0
-647 -47 0
-648 -48 0
-649 -49 0
-650 -50 0
-651 -51 0
-652 -52 0
-653 -53 0
-654 -54 0
-655 -55 0
-656 -56 0
-657 -57 0
-658 -58 0
-659 -59 0
-660 -60 0
-151 -826 0
-152 -827 0
-153 -828 0
-154 -829 0
-155 -830 0
-156 -831 0
-157 -832 0
-158 -833 0
-159 -834 0
-160 -835 0
-161 -836 0
-162 -837 0
-163 -838 0
-164 -839 0
-165 -840 0
-451 -496 0
-452 -497 0
-453 -498 0
-454 -499 0
-455 -500 0
-456 -501 0
-457 -502 0
-458 -503 0
-459 -504 0
-460 -505 0
-461 -506 0
-462 -507 0
-463 -508 0
-464 -509 0
-465 -510 0
-136 -151 0
-137 -152 0
-138 -153 0
-139 -154 0
-140 -155 0
-141 -156 0
-142 -157 0
-143 -158 0
-144 -159 0
-145 -160 0
-146 -161 0
-147 -162 0
-148 -163 0
-149 -164 0
-150 -165 0
-16 -91 0
-17 -92 0
-18 -93 0
-19 -94 0
-20 -95 0
-21 -96 0
-22 -97 0
-23 -98 0
-24 -99 0
-25 -100 0
-26 -101 0
-27 -102 0
-28 -103 0
-29 -104 0
-30 -105 0
-286 -901 0
-287 -902 0
-288 -903 0
-289 -904 0
-290 -905 0
-291 -906 0
-292 -907 0
-293 -908 0
-294 -909 0
-295 -910 0
-296 -911 0
-297 -912 0
-298 -913 0
-299 -914 0
-300 -915 0
-166 -841 0
-167 -842 0
-168 -843 0
-169 -844 0
-170 -845 0
-171 -846 0
-172 -847 0
-173 -848 0
-174 -849 0
-175 -850 0
-176 -851 0
-177 -852 0
-178 -853 0
-179 -854 0
-180 -855 0
-181 -316 0
-182 -317 0
-183 -318 0
-184 -319 0
-185 -320 0
-186 -321 0
-187 -322 0
-188 -323 0
-189 -324 0
-190 -325 0
-191 -326 0
-192 -327 0
-193 -328 0
-194 -329 0
-195 -330 0
-466 -511 0
-467 -512 0
-468 -513 0
-469 -514 0
-470 -515 0
-471 -516 0
-472 -517 0
-473 -518 0
-474 -519 0
-475 -520 0
-476 -521 0
-477 -522 0
-478 -523 0
-479 -524 0
-480 -525 0
-46 -781 0
-47 -782 0
-48 -783 0
-49 -784 0
-50 -785 0
-51 -786 0
-52 -787 0
-53 -788 0
-54 -789 0
-55 -790 0
-56 -791 0
-57 -792 0
-58 -793 0
-59 -794 0
-60 -795 0
-346 -451 0
-347 -452 0
-348 -453 0
-349 -454 0
-350 -455 0
-351 -456 0
-352 -457 0
-353 -458 0
-354 -459 0
-355 -460 0
-356 -461 0
-357 -462 0
-358 -463 0
-359 -464 0
-360 -465 0
-226 -391 0
-227 -392 0
-228 -393 0
-229 -394 0
-230 -395 0
-231 -396 0
-232 -397 0
-233 -398 0
-234 -399 0
-235 -400 0
-236 -401 0
-237 -402 0
-238 -403 0
-239 -404 0
-240 -405 0
-61 -241 0
-62 -242 0
-63 -243 0
-64 -244 0
-65 -245 0
-66 -246 0
-67 -247 0
-68 -248 0
-69 -249 0
-70 -250 0
-71 -251 0
-72 -252 0
-73 -253 0
-74 -254 0
-75 -255 0
-241 -406 0
-242 -407 0
-243 -408 0
-244 -409 0
-245 -410 0
-246 -411 0
-247 -412 0
-248 -413 0
-249 -414 0
-250 -415 0
-251 -416 0
-252 -417 0
-253 -418 0
-254 -419 0
-255 -420 0
-121 -346 0
-122 -347 0
-123 -348 0
-124 -349 0
-125 -350 0
-126 -351 0
-127 -352 0
-128 -353 0
-129 -354 0
-130 -355 0
-131 -356 0
-132 -357 0
-133 -358 0
-134 -359 0
-135 -360 0
-406 -541 0
-407 -542 0
-408 -543 0
-409 -544 0
-410 -545 0
-411 -546 0
-412 -547 0
-413 -548 0
-414 -549 0
-415 -550 0
-416 -551 0
-417 -552 0
-418 -553 0
-419 -554 0
-420 -555 0
-586 -151 0
-587 -152 0
-588 -153 0
-589 -154 0
-590 -155 0
-591 -156 0
-592 -157 0
-593 -158 0
-594 -159 0
-595 -160 0
-596 -161 0
-597 -162 0
-598 -163 0
-599 -164 0
-600 -165 0
-76 -256 0
-77 -257 0
-78 -258 0
-79 -259 0
-80 -260 0
-81 -261 0
-82 -262 0
-83 -263 0
-84 -264 0
-85 -265 0
-86 -266 0
-87 -267 0
-88 -268 0
-89 -269 0
-90 -270 0
-796 -451 0
-797 -452 0
-798 -453 0
-799 -454 0
-800 -455 0
-801 -456 0
-802 -457 0
-803 -458 0
-804 -459 0
-805 -460 0
-806 -461 0
-807 -462 0
-808 -463 0
-809 -464 0
-810 -465 0
-286 -556 0
-287 -557 0
-288 -558 0
-289 -559 0
-290 -560 0
-291 -561 0
-292 -562 0
-293 -563 0
-294 -564 0
-295 -565 0
-296 -566 0
-297 -567 0
-298 -568 0
-299 -569 0
-300 -570 0
-166 -496 0
-167 -497 0
-168 -498 0
-169 -499 0
-170 -500 0
-171 -501 0
-172 -502 0
-173 -503 0
-174 -504 0
-175 -505 0
-176 -506 0
-177 -507 0
-178 -508 0
-179 -509 0
-180 -510 0
-46 -436 0
-47 -437 0
-48 -438 0
-49 -439 0
-50 -440 0
-51 -441 0
-52 -442 0
-53 -443 0
-54 -444 0
-55 -445 0
-56 -446 0
-57 -447 0
-58 -448 0
-59 -449 0
-60 -450 0
-331 -631 0
-332 -632 0
-333 -633 0
-334 -634 0
-335 -635 0
-336 -636 0
-337 -637 0
-338 -638 0
-339 -639 0
-340 -640 0
-341 -641 0
-342 -642 0
-343 -643 0
-344 -644 0
-345 -645 0
-1 -346 0
-2 -347 0
-3 -348 0
-4 -349 0
-5 -350 0
-6 -351 0
-7 -352 0
-8 -353 0
-9 -354 0
-10 -355 0
-11 -356 0
-12 -357 0
-13 -358 0
-14 -359 0
-15 -360 0
-181 -511 0
-182 -512 0
-183 -513 0
-184 -514 0
-185 -515 0
-186 -516 0
-187 -517 0
-188 -518 0
-189 -519 0
-190 -520 0
-191 -521 0
-192 -522 0
-193 -523 0
-194 -524 0
-195 -525 0
-691 -391 0
-692 -392 0
-693 -393 0
-694 -394 0
-695 -395 0
-696 -396 0
-697 -397 0
-698 -398 0
-699 -399 0
-700 -400 0
-701 -401 0
-702 -402 0
-703 -403 0
-704 -404 0
-705 -405 0
-61 -436 0
-62 -437 0
-63 -438 0
-64 -439 0
-65 -440 0
-66 -441 0
-67 -442 0
-68 -443 0
-69 -444 0
-70 -445 0
-71 -446 0
-72 -447 0
-73 -448 0
-74 -449 0
-75 -450 0
-856 -616 0
-857 -617 0
-858 -618 0
-859 -619 0
-860 -620 0
-861 -621 0
-862 -622 0
-863 -623 0
-864 -624 0
-865 -625 0
-866 -626 0
-867 -627 0
-868 -628 0
-869 -629 0
-870 -630 0
-106 -601 0
-107 -602 0
-108 -603 0
-109 -604 0
-110 -605 0
-111 -606 0
-112 -607 0
-113 -608 0
-114 -609 0
-115 -610 0
-116 -611 0
-117 -612 0
-118 -613 0
-119 -614 0
-120 -615 0
-391 -796 0
-392 -797 0
-393 -798 0
-394 -799 0
-395 -800 0
-396 -801 0
-397 -802 0
-398 -803 0
-399 -804 0
-400 -805 0
-401 -806 0
-402 -807 0
-403 -808 0
-404 -809 0
-405 -810 0
-271 -736 0
-272 -737 0
-273 -738 0
-274 -739 0
-275 -740 0
-276 -741 0
-277 -742 0
-278 -743 0
-279 -744 0
-280 -745 0
-281 -746 0
-282 -747 0
-283 -748 0
-284 -749 0
-285 -750 0
-571 -406 0
-572 -407 0
-573 -408 0
-574 -409 0
-575 -410 0
-576 -411 0
-577 -412 0
-578 -413 0
-579 -414 0
-580 -415 0
-581 -416 0
-582 -417 0
-583 -418 0
-584 -419 0
-585 -420 0
-151 -676 0
-152 -677 0
-153 -678 0
-154 -679 0
-155 -680 0
-156 -681 0
-157 -682 0
-158 -683 0
-159 -684 0
-160 -685 0
-161 -686 0
-162 -687 0
-163 -688 0
-164 -689 0
-165 -690 0
-286 -751 0
-287 -752 0
-288 -753 0
-289 -754 0
-290 -755 0
-291 -756 0
-292 -757 0
-293 -758 0
-294 -759 0
-295 -760 0
-296 -761 0
-297 -762 0
-298 -763 0
-299 -764 0
-300 -765 0
-781 -706 0
-782 -707 0
-783 -708 0
-784 -709 0
-785 -710 0
-786 -711 0
-787 -712 0
-788 -713 0
-789 -714 0
-790 -715 0
-791 -716 0
-792 -717 0
-793 -718 0
-794 -719 0
-795 -720 0
-631 -496 0
-632 -497 0
-633 -498 0
-634 -499 0
-635 -500 0
-636 -501 0
-637 -502 0
-638 -503 0
-639 -504 0
-640 -505 0
-641 -506 0
-642 -507 0
-643 -508 0
-644 -509 0
-645 -510 0
-226 -241 0
-227 -242 0
-228 -243 0
-229 -244 0
-230 -245 0
-231 -246 0
-232 -247 0
-233 -248 0
-234 -249 0
-235 -250 0
-236 -251 0
-237 -252 0
-238 -253 0
-239 -254 0
-240 -255 0
-1 -541 0
-2 -542 0
-3 -543 0
-4 -544 0
-5 -545 0
-6 -546 0
-7 -547 0
-8 -548 0
-9 -549 0
-10 -550 0
-11 -551 0
-12 -552 0
-13 -553 0
-14 -554 0
-15 -555 0
-691 -46 0
-692 -47 0
-693 -48 0
-694 -49 0
-695 -50 0
-696 -51 0
-697 -52 0
-698 -53 0
-699 -54 0
-700 -55 0
-701 -56 0
-702 -57 0
-703 -58 0
-704 -59 0
-705 -60 0
-61 -91 0
-62 -92 0
-63 -93 0
-64 -94 0
-65 -95 0
-66 -96 0
-67 -97 0
-68 -98 0
-69 -99 0
-70 -100 0
-71 -101 0
-72 -102 0
-73 -103 0
-74 -104 0
-75 -105 0
-676 -661 0
-677 -662 0
-678 -663 0
-679 -664 0
-680 -665 0
-681 -666 0
-682 -667 0
-683 -668 0
-684 -669 0
-685 -670 0
-686 -671 0
-687 -672 0
-688 -673 0
-689 -674 0
-690 -675 0
-841 -796 0
-842 -797 0
-843 -798 0
-844 -799 0
-845 -800 0
-846 -801 0
-847 -802 0
-848 -803 0
-849 -804 0
-850 -805 0
-851 -806 0
-852 -807 0
-853 -808 0
-854 -809 0
-855 -810 0
-121 -196 0
-122 -197 0
-123 -198 0
-124 -199 0
-125 -200 0
-126 -201 0
-127 -202 0
-128 -203 0
-129 -204 0
-130 -205 0
-131 -206 0
-132 -207 0
-133 -208 0
-134 -209 0
-135 -210 0
-721 -736 0
-722 -737 0
-723 -738 0
-724 -739 0
-725 -740 0
-726 -741 0
-727 -742 0
-728 -743 0
-729 -744 0
-730 -745 0
-731 -746 0
-732 -747 0
-733 -748 0
-734 -749 0
-735 -750 0
-211 -841 0
-212 -842 0
-213 -843 0
-214 -844 0
-215 -845 0
-216 -846 0
-217 -847 0
-218 -848 0
-219 -849 0
-220 -850 0
-221 -851 0
-222 -852 0
-223 -853 0
-224 -854 0
-225 -855 0
-391 -451 0
-392 -452 0
-393 -453 0
-394 -454 0
-395 -455 0
-396 -456 0
-397 -457 0
-398 -458 0
-399 -459 0
-400 -460 0
-401 -461 0
-402 -462 0
-403 -463 0
-404 -464 0
-405 -465 0
-271 -391 0
-272 -392 0
-273 -393 0
-274 -394 0
-275 -395 0
-276 -396 0
-277 -397 0
-278 -398 0
-279 -399 0
-280 -400 0
-281 -401 0
-282 -402 0
-283 -403 0
-284 -404 0
-285 -405 0
-571 -61 0
-572 -62 0
-573 -63 0
-574 -64 0
-575 -65 0
-576 -66 0
-577 -67 0
-578 -68 0
-579 -69 0
-580 -70 0
-581 -71 0
-582 -72 0
-583 -73 0
-584 -74 0
-585 -75 0
-436 -526 0
-437 -527 0
-438 -528 0
-439 -529 0
-440 -530 0
-441 -531 0
-442 -532 0
-443 -533 0
-444 -534 0
-445 -535 0
-446 -536 0
-447 -537 0
-448 -538 0
-449 -539 0
-450 -540 0
-736 -751 0
-737 -752 0
-738 -753 0
-739 -754 0
-740 -755 0
-741 -756 0
-742 -757 0
-743 -758 0
-744 -759 0
-745 -760 0
-746 -761 0
-747 -762 0
-748 -763 0
-749 -764 0
-750 -765 0
-286 -406 0
-287 -407 0
-288 -408 0
-289 -409 0
-290 -410 0
-291 -411 0
-292 -412 0
-293 -413 0
-294 -414 0
-295 -415 0
-296 -416 0
-297 -417 0
-298 -418 0
-299 -419 0
-300 -420 0
-571 -601 0
-572 -602 0
-573 -603 0
-574 -604 0
-575 -605 0
-576 -606 0
-577 -607 0
-578 -608 0
-579 -609 0
-580 -610 0
-581 -611 0
-582 -612 0
-583 -613 0
-584 -614 0
-585 -615 0
-166 -346 0
-167 -347 0
-168 -348 0
-169 -349 0
-170 -350 0
-171 -351 0
-172 -352 0
-173 -353 0
-174 -354 0
-175 -355 0
-176 -356 0
-177 -357 0
-178 -358 0
-179 -359 0
-180 -360 0
-151 -871 0
-152 -872 0
-153 -873 0
-154 -874 0
-155 -875 0
-156 -876 0
-157 -877 0
-158 -878 0
-159 -879 0
-160 -880 0
-161 -881 0
-162 -882 0
-163 -883 0
-164 -884 0
-165 -885 0
-451 -541 0
-452 -542 0
-453 -543 0
-454 -544 0
-455 -545 0
-456 -546 0
-457 -547 0
-458 -548 0
-459 -549 0
-460 -550 0
-461 -551 0
-462 -552 0
-463 -553 0
-464 -554 0
-465 -555 0
-46 -286 0
-47 -287 0
-48 -288 0
-49 -289 0
-50 -290 0
-51 -291 0
-52 -292 0
-53 -293 0
-54 -294 0
-55 -295 0
-56 -296 0
-57 -297 0
-58 -298 0
-59 -299 0
-60 -300 0
-331 -481 0
-332 -482 0
-333 -483 0
-334 -484 0
-335 -485 0
-336 -486 0
-337 -487 0
-338 -488 0
-339 -489 0
-340 -490 0
-341 -491 0
-342 -492 0
-343 -493 0
-344 -494 0
-345 -495 0
-631 -151 0
-632 -152 0
-633 -153 0
-634 -154 0
-635 -155 0
-636 -156 0
-637 -157 0
-638 -158 0
-639 -159 0
-640 -160 0
-641 -161 0
-642 -162 0
-643 -163 0
-644 -164 0
-645 -165 0
-1 -196 0
-2 -197 0
-3 -198 0
-4 -199 0
-5 -200 0
-6 -201 0
-7 -202 0
-8 -203 0
-9 -204 0
-10 -205 0
-11 -206 0
-12 -207 0
-13 -208 0
-14 -209 0
-15 -210 0
-226 -436 0
-227 -437 0
-228 -438 0
-229 -439 0
-230 -440 0
-231 -441 0
-232 -442 0
-233 -443 0
-234 -444 0
-235 -445 0
-236 -446 0
-237 -447 0
-238 -448 0
-239 -449 0
-240 -450 0
-31 -886 0
-32 -887 0
-33 -888 0
-34 -889 0
-35 -890 0
-36 -891 0
-37 -892 0
-38 -893 0
-39 -894 0
-40 -895 0
-41 -896 0
-42 -897 0
-43 -898 0
-44 -899 0
-45 -900 0
-721 -391 0
-722 -392 0
-723 -393 0
-724 -394 0
-725 -395 0
-726 -396 0
-727 -397 0
-728 -398 0
-729 -399 0
-730 -400 0
-731 -401 0
-732 -402 0
-733 -403 0
-734 -404 0
-735 -405 0
-211 -496 0
-212 -497 0
-213 -498 0
-214 -499 0
-215 -500 0
-216 -501 0
-217 -502 0
-218 -503 0
-219 -504 0
-220 -505 0
-221 -506 0
-222 -507 0
-223 -508 0
-224 -509 0
-225 -510 0
-376 -631 0
-377 -632 0
-378 -633 0
-379 -634 0
-380 -635 0
-381 -636 0
-382 -637 0
-383 -638 0
-384 -639 0
-385 -640 0
-386 -641 0
-387 -642 0
-388 -643 0
-389 -644 0
-390 -645 0
-721 -931 0
-722 -932 0
-723 -933 0
-724 -934 0
-725 -935 0
-726 -936 0
-727 -937 0
-728 -938 0
-729 -939 0
-730 -940 0
-731 -941 0
-732 -942 0
-733 -943 0
-734 -944 0
-735 -945 0
-106 -451 0
-107 -452 0
-108 -453 0
-109 -454 0
-110 -455 0
-111 -456 0
-112 -457 0
-113 -458 0
-114 -459 0
-115 -460 0
-116 -461 0
-117 -462 0
-118 -463 0
-119 -464 0
-120 -465 0
-151 -526 0
-152 -527 0
-153 -528 0
-154 -529 0
-155 -530 0
-156 -531 0
-157 -532 0
-158 -533 0
-159 -534 0
-160 -535 0
-161 -536 0
-162 -537 0
-163 -538 0
-164 -539 0
-165 -540 0
-571 -256 0
-572 -257 0
-573 -258 0
-574 -259 0
-575 -260 0
-576 -261 0
-577 -262 0
-578 -263 0
-579 -264 0
-580 -265 0
-581 -266 0
-582 -267 0
-583 -268 0
-584 -269 0
-585 -270 0
-166 -541 0
-167 -542 0
-168 -543 0
-169 -544 0
-170 -545 0
-171 -546 0
-172 -547 0
-173 -548 0
-174 -549 0
-175 -550 0
-176 -551 0
-177 -552 0
-178 -553 0
-179 -554 0
-180 -555 0
-46 -481 0
-47 -482 0
-48 -483 0
-49 -484 0
-50 -485 0
-51 -486 0
-52 -487 0
-53 -488 0
-54 -489 0
-55 -490 0
-56 -491 0
-57 -492 0
-58 -493 0
-59 -494 0
-60 -495 0
-661 -496 0
-662 -497 0
-663 -498 0
-664 -499 0
-665 -500 0
-666 -501 0
-667 -502 0
-668 -503 0
-669 -504 0
-670 -505 0
-671 -506 0
-672 -507 0
-673 -508 0
-674 -509 0
-675 -510 0
-826 -631 0
-827 -632 0
-828 -633 0
-829 -634 0
-830 -635 0
-831 -636 0
-832 -637 0
-833 -638 0
-834 -639 0
-835 -640 0
-836 -641 0
-837 -642 0
-838 -643 0
-839 -644 0
-840 -645 0
-316 -736 0
-317 -737 0
-318 -738 0
-319 -739 0
-320 -740 0
-321 -741 0
-322 -742 0
-323 -743 0
-324 -744 0
-325 -745 0
-326 -746 0
-327 -747 0
-328 -748 0
-329 -749 0
-330 -750 0
-196 -676 0
-197 -677 0
-198 -678 0
-199 -679 0
-200 -680 0
-201 -681 0
-202 -682 0
-203 -683 0
-204 -684 0
-205 -685 0
-206 -686 0
-207 -687 0
-208 -688 0
-209 -689 0
-210 -690 0
-676 -511 0
-677 -512 0
-678 -513 0
-679 -514 0
-680 -515 0
-681 -516 0
-682 -517 0
-683 -518 0
-684 -519 0
-685 -520 0
-686 -521 0
-687 -522 0
-688 -523 0
-689 -524 0
-690 -525 0
-151 -181 0
-152 -182 0
-153 -183 0
-154 -184 0
-155 -185 0
-156 -186 0
-157 -187 0
-158 -188 0
-159 -189 0
-160 -190 0
-161 -191 0
-162 -192 0
-163 -193 0
-164 -194 0
-165 -195 0
-886 -796 0
-887 -797 0
-888 -798 0
-889 -799 0
-890 -800 0
-891 -801 0
-892 -802 0
-893 -803 0
-894 -804 0
-895 -805 0
-896 -806 0
-897 -807 0
-898 -808 0
-899 -809 0
-900 -810 0
-151 -721 0
-152 -722 0
-153 -723 0
-154 -724 0
-155 -725 0
-156 -726 0
-157 -727 0
-158 -728 0
-159 -729 0
-160 -730 0
-161 -731 0
-162 -732 0
-163 -733 0
-164 -734 0
-165 -735 0
-166 -196 0
-167 -197 0
-168 -198 0
-169 -199 0
-170 -200 0
-171 -201 0
-172 -202 0
-173 -203 0
-174 -204 0
-175 -205 0
-176 -206 0
-177 -207 0
-178 -208 0
-179 -209 0
-180 -210 0
-766 -736 0
-767 -737 0
-768 -738 0
-769 -739 0
-770 -740 0
-771 -741 0
-772 -742 0
-773 -743 0
-774 -744 0
-775 -745 0
-776 -746 0
-777 -747 0
-778 -748 0
-779 -749 0
-780 -750 0
-781 -211 0
-782 -212 0
-783 -213 0
-784 -214 0
-785 -215 0
-786 -216 0
-787 -217 0
-788 -218 0
-789 -219 0
-790 -220 0
-791 -221 0
-792 -222 0
-793 -223 0
-794 -224 0
-795 -225 0
-46 -136 0
-47 -137 0
-48 -138 0
-49 -139 0
-50 -140 0
-51 -141 0
-52 -142 0
-53 -143 0
-54 -144 0
-55 -145 0
-56 -146 0
-57 -147 0
-58 -148 0
-59 -149 0
-60 -150 0
-646 -676 0
-647 -677 0
-648 -678 0
-649 -679 0
-650 -680 0
-651 -681 0
-652 -682 0
-653 -683 0
-654 -684 0
-655 -685 0
-656 -686 0
-657 -687 0
-658 -688 0
-659 -689 0
-660 -690 0
-136 -781 0
-137 -782 0
-138 -783 0
-139 -784 0
-140 -785 0
-141 -786 0
-142 -787 0
-143 -788 0
-144 -789 0
-145 -790 0
-146 -791 0
-147 -792 0
-148 -793 0
-149 -794 0
-150 -795 0
-1 -46 0
-2 -47 0
-3 -48 0
-4 -49 0
-5 -50 0
-6 -51 0
-7 -52 0
-8 -53 0
-9 -54 0
-10 -55 0
-11 -56 0
-12 -57 0
-13 -58 0
-14 -59 0
-15 -60 0
-496 -556 0
-497 -557 0
-498 -558 0
-499 -559 0
-500 -560 0
-501 -561 0
-502 -562 0
-503 -563 0
-504 -564 0
-505 -565 0
-506 -566 0
-507 -567 0
-508 -568 0
-509 -569 0
-510 -570 0
-781 -751 0
-782 -752 0
-783 -753 0
-784 -754 0
-785 -755 0
-786 -756 0
-787 -757 0
-788 -758 0
-789 -759 0
-790 -760 0
-791 -761 0
-792 -762 0
-793 -763 0
-794 -764 0
-795 -765 0
-31 -736 0
-32 -737 0
-33 -738 0
-34 -739 0
-35 -740 0
-36 -741 0
-37 -742 0
-38 -743 0
-39 -744 0
-40 -745 0
-41 -746 0
-42 -747 0
-43 -748 0
-44 -749 0
-45 -750 0
-211 -346 0
-212 -347 0
-213 -348 0
-214 -349 0
-215 -350 0
-216 -351 0
-217 -352 0
-218 -353 0
-219 -354 0
-220 -355 0
-221 -356 0
-222 -357 0
-223 -358 0
-224 -359 0
-225 -360 0
-91 -286 0
-92 -287 0
-93 -288 0
-94 -289 0
-95 -290 0
-96 -291 0
-97 -292 0
-98 -293 0
-99 -294 0
-100 -295 0
-101 -296 0
-102 -297 0
-103 -298 0
-104 -299 0
-105 -300 0
-376 -481 0
-377 -482 0
-378 -483 0
-379 -484 0
-380 -485 0
-381 -486 0
-382 -487 0
-383 -488 0
-384 -489 0
-385 -490 0
-386 -491 0
-387 -492 0
-388 -493 0
-389 -494 0
-390 -495 0
-256 -421 0
-257 -422 0
-258 -423 0
-259 -424 0
-260 -425 0
-261 -426 0
-262 -427 0
-263 -428 0
-264 -429 0
-265 -430 0
-266 -431 0
-267 -432 0
-268 -433 0
-269 -434 0
-270 -435 0
-106 -301 0
-107 -302 0
-108 -303 0
-109 -304 0
-110 -305 0
-111 -306 0
-112 -307 0
-113 -308 0
-114 -309 0
-115 -310 0
-116 -311 0
-117 -312 0
-118 -313 0
-119 -314 0
-120 -315 0
-706 -841 0
-707 -842 0
-708 -843 0
-709 -844 0
-710 -845 0
-711 -846 0
-712 -847 0
-713 -848 0
-714 -849 0
-715 -850 0
-716 -851 0
-717 -852 0
-718 -853 0
-719 -854 0
-720 -855 0
-271 -436 0
-272 -437 0
-273 -438 0
-274 -439 0
-275 -440 0
-276 -441 0
-277 -442 0
-278 -443 0
-279 -444 0
-280 -445 0
-281 -446 0
-282 -447 0
-283 -448 0
-284 -449 0
-285 -450 0
-151 -376 0
-152 -377 0
-153 -378 0
-154 -379 0
-155 -380 0
-156 -381 0
-157 -382 0
-158 -383 0
-159 -384 0
-160 -385 0
-161 -386 0
-162 -387 0
-163 -388 0
-164 -389 0
-165 -390 0
-571 -106 0
-572 -107 0
-573 -108 0
-574 -109 0
-575 -110 0
-576 -111 0
-577 -112 0
-578 -113 0
-579 -114 0
-580 -115 0
-581 -116 0
-582 -117 0
-583 -118 0
-584 -119 0
-585 -120 0
-781 -406 0
-782 -407 0
-783 -408 0
-784 -409 0
-785 -410 0
-786 -411 0
-787 -412 0
-788 -413 0
-789 -414 0
-790 -415 0
-791 -416 0
-792 -417 0
-793 -418 0
-794 -419 0
-795 -420 0
-646 -871 0
-647 -872 0
-648 -873 0
-649 -874 0
-650 -875 0
-651 -876 0
-652 -877 0
-653 -878 0
-654 -879 0
-655 -880 0
-656 -881 0
-657 -882 0
-658 -883 0
-659 -884 0
-660 -885 0
-31 -391 0
-32 -392 0
-33 -393 0
-34 -394 0
-35 -395 0
-36 -396 0
-37 -397 0
-38 -398 0
-39 -399 0
-40 -400 0
-41 -401 0
-42 -402 0
-43 -403 0
-44 -404 0
-45 -405 0
-196 -526 0
-197 -527 0
-198 -528 0
-199 -529 0
-200 -530 0
-201 -531 0
-202 -532 0
-203 -533 0
-204 -534 0
-205 -535 0
-206 -536 0
-207 -537 0
-208 -538 0
-209 -539 0
-210 -540 0
-31 -931 0
-32 -932 0
-33 -933 0
-34 -934 0
-35 -935 0
-36 -936 0
-37 -937 0
-38 -938 0
-39 -939 0
-40 -940 0
-41 -941 0
-42 -942 0
-43 -943 0
-44 -944 0
-45 -945 0
-721 -436 0
-722 -437 0
-723 -438 0
-724 -439 0
-725 -440 0
-726 -441 0
-727 -442 0
-728 -443 0
-729 -444 0
-730 -445 0
-731 -446 0
-732 -447 0
-733 -448 0
-734 -449 0
-735 -450 0
-211 -541 0
-212 -542 0
-213 -543 0
-214 -544 0
-215 -545 0
-216 -546 0
-217 -547 0
-218 -548 0
-219 -549 0
-220 -550 0
-221 -551 0
-222 -552 0
-223 -553 0
-224 -554 0
-225 -555 0
-91 -481 0
-92 -482 0
-93 -483 0
-94 -484 0
-95 -485 0
-96 -486 0
-97 -487 0
-98 -488 0
-99 -489 0
-100 -490 0
-101 -491 0
-102 -492 0
-103 -493 0
-104 -494 0
-105 -495 0
-376 -676 0
-377 -677 0
-378 -678 0
-379 -679 0
-380 -680 0
-381 -681 0
-382 -682 0
-383 -683 0
-384 -684 0
-385 -685 0
-386 -686 0
-387 -687 0
-388 -688 0
-389 -689 0
-390 -690 0
-601 -451 0
-602 -452 0
-603 -453 0
-604 -454 0
-605 -455 0
-606 -456 0
-607 -457 0
-608 -458 0
-609 -459 0
-610 -460 0
-611 -461 0
-612 -462 0
-613 -463 0
-614 -464 0
-615 -465 0
-646 -526 0
-647 -527 0
-648 -528 0
-649 -529 0
-650 -530 0
-651 -531 0
-652 -532 0
-653 -533 0
-654 -534 0
-655 -535 0
-656 -536 0
-657 -537 0
-658 -538 0
-659 -539 0
-660 -540 0
-661 -541 0
-662 -542 0
-663 -543 0
-664 -544 0
-665 -545 0
-666 -546 0
-667 -547 0
-668 -548 0
-669 -549 0
-670 -550 0
-671 -551 0
-672 -552 0
-673 -553 0
-674 -554 0
-675 -555 0
-31 -586 0
-32 -587 0
-33 -588 0
-34 -589 0
-35 -590 0
-36 -591 0
-37 -592 0
-38 -593 0
-39 -594 0
-40 -595 0
-41 -596 0
-42 -597 0
-43 -598 0
-44 -599 0
-45 -600 0
-811 -736 0
-812 -737 0
-813 -738 0
-814 -739 0
-815 -740 0
-816 -741 0
-817 -742 0
-818 -743 0
-819 -744 0
-820 -745 0
-821 -746 0
-822 -747 0
-823 -748 0
-824 -749 0
-825 -750 0
-91 -136 0
-92 -137 0
-93 -138 0
-94 -139 0
-95 -140 0
-96 -141 0
-97 -142 0
-98 -143 0
-99 -144 0
-100 -145 0
-101 -146 0
-102 -147 0
-103 -148 0
-104 -149 0
-105 -150 0
-256 -271 0
-257 -272 0
-258 -273 0
-259 -274 0
-260 -275 0
-261 -276 0
-262 -277 0
-263 -278 0
-264 -279 0
-265 -280 0
-266 -281 0
-267 -282 0
-268 -283 0
-269 -284 0
-270 -285 0
-871 -841 0
-872 -842 0
-873 -843 0
-874 -844 0
-875 -845 0
-876 -846 0
-877 -847 0
-878 -848 0
-879 -849 0
-880 -850 0
-881 -851 0
-882 -852 0
-883 -853 0
-884 -854 0
-885 -855 0
-241 -886 0
-242 -887 0
-243 -888 0
-244 -889 0
-245 -890 0
-246 -891 0
-247 -892 0
-248 -893 0
-249 -894 0
-250 -895 0
-251 -896 0
-252 -897 0
-253 -898 0
-254 -899 0
-255 -900 0
-121 -826 0
-122 -827 0
-123 -828 0
-124 -829 0
-125 -830 0
-126 -831 0
-127 -832 0
-128 -833 0
-129 -834 0
-130 -835 0
-131 -836 0
-132 -837 0
-133 -838 0
-134 -839 0
-135 -840 0
-421 -496 0
-422 -497 0
-423 -498 0
-424 -499 0
-425 -500 0
-426 -501 0
-427 -502 0
-428 -503 0
-429 -504 0
-430 -505 0
-431 -506 0
-432 -507 0
-433 -508 0
-434 -509 0
-435 -510 0
-106 -151 0
-107 -152 0
-108 -153 0
-109 -154 0
-110 -155 0
-111 -156 0
-112 -157 0
-113 -158 0
-114 -159 0
-115 -160 0
-116 -161 0
-117 -162 0
-118 -163 0
-119 -164 0
-120 -165 0
-586 -631 0
-587 -632 0
-588 -633 0
-589 -634 0
-590 -635 0
-591 -636 0
-592 -637 0
-593 -638 0
-594 -639 0
-595 -640 0
-596 -641 0
-597 -642 0
-598 -643 0
-599 -644 0
-600 -645 0
-151 -226 0
-152 -227 0
-153 -228 0
-154 -229 0
-155 -230 0
-156 -231 0
-157 -232 0
-158 -233 0
-159 -234 0
-160 -235 0
-161 -236 0
-162 -237 0
-163 -238 0
-164 -239 0
-165 -240 0
-766 -241 0
-767 -242 0
-768 -243 0
-769 -244 0
-770 -245 0
-771 -246 0
-772 -247 0
-773 -248 0
-774 -249 0
-775 -250 0
-776 -251 0
-777 -252 0
-778 -253 0
-779 -254 0
-780 -255 0
-646 -181 0
-647 -182 0
-648 -183 0
-649 -184 0
-650 -185 0
-651 -186 0
-652 -187 0
-653 -188 0
-654 -189 0
-655 -190 0
-656 -191 0
-657 -192 0
-658 -193 0
-659 -194 0
-660 -195 0
-136 -286 0
-137 -287 0
-138 -288 0
-139 -289 0
-140 -290 0
-141 -291 0
-142 -292 0
-143 -293 0
-144 -294 0
-145 -295 0
-146 -296 0
-147 -297 0
-148 -298 0
-149 -299 0
-150 -300 0
-361 -526 0
-362 -527 0
-363 -528 0
-364 -529 0
-365 -530 0
-366 -531 0
-367 -532 0
-368 -533 0
-369 -534 0
-370 -535 0
-371 -536 0
-372 -537 0
-373 -538 0
-374 -539 0
-375 -540 0
-646 -721 0
-647 -722 0
-648 -723 0
-649 -724 0
-650 -725 0
-651 -726 0
-652 -727 0
-653 -728 0
-654 -729 0
-655 -730 0
-656 -731 0
-657 -732 0
-658 -733 0
-659 -734 0
-660 -735 0
-136 -826 0
-137 -827 0
-138 -828 0
-139 -829 0
-140 -830 0
-141 -831 0
-142 -832 0
-143 -833 0
-144 -834 0
-145 -835 0
-146 -836 0
-147 -837 0
-148 -838 0
-149 -839 0
-150 -840 0
-826 -331 0
-827 -332 0
-828 -333 0
-829 -334 0
-830 -335 0
-831 -336 0
-832 -337 0
-833 -338 0
-834 -339 0
-835 -340 0
-836 -341 0
-837 -342 0
-838 -343 0
-839 -344 0
-840 -345 0
-31 -241 0
-32 -242 0
-33 -243 0
-34 -244 0
-35 -245 0
-36 -246 0
-37 -247 0
-38 -248 0
-39 -249 0
-40 -250 0
-41 -251 0
-42 -252 0
-43 -253 0
-44 -254 0
-45 -255 0
-316 -436 0
-317 -437 0
-318 -438 0
-319 -439 0
-320 -440 0
-321 -441 0
-322 -442 0
-323 -443 0
-324 -444 0
-325 -445 0
-326 -446 0
-327 -447 0
-328 -448 0
-329 -449 0
-330 -450 0
-196 -376 0
-197 -377 0
-198 -378 0
-199 -379 0
-200 -380 0
-201 -381 0
-202 -382 0
-203 -383 0
-204 -384 0
-205 -385 0
-206 -386 0
-207 -387 0
-208 -388 0
-209 -389 0
-210 -390 0
-871 -496 0
-872 -497 0
-873 -498 0
-874 -499 0
-875 -500 0
-876 -501 0
-877 -502 0
-878 -503 0
-879 -504 0
-880 -505 0
-881 -506 0
-882 -507 0
-883 -508 0
-884 -509 0
-885 -510 0
-91 -331 0
-92 -332 0
-93 -333 0
-94 -334 0
-95 -335 0
-96 -336 0
-97 -337 0
-98 -338 0
-99 -339 0
-100 -340 0
-101 -341 0
-102 -342 0
-103 -343 0
-104 -344 0
-105 -345 0
-706 -346 0
-707 -347 0
-708 -348 0
-709 -349 0
-710 -350 0
-711 -351 0
-712 -352 0
-713 -353 0
-714 -354 0
-715 -355 0
-716 -356 0
-717 -357 0
-718 -358 0
-719 -359 0
-720 -360 0
-691 -871 0
-692 -872 0
-693 -873 0
-694 -874 0
-695 -875 0
-696 -876 0
-697 -877 0
-698 -878 0
-699 -879 0
-700 -880 0
-701 -881 0
-702 -882 0
-703 -883 0
-704 -884 0
-705 -885 0
-586 -286 0
-587 -287 0
-588 -288 0
-589 -289 0
-590 -290 0
-591 -291 0
-592 -292 0
-593 -293 0
-594 -294 0
-595 -295 0
-596 -296 0
-597 -297 0
-598 -298 0
-599 -299 0
-600 -300 0
-61 -916 0
-62 -917 0
-63 -918 0
-64 -919 0
-65 -920 0
-66 -921 0
-67 -922 0
-68 -923 0
-69 -924 0
-70 -925 0
-71 -926 0
-72 -927 0
-73 -928 0
-74 -929 0
-75 -930 0
-76 -391 0
-77 -392 0
-78 -393 0
-79 -394 0
-80 -395 0
-81 -396 0
-82 -397 0
-83 -398 0
-84 -399 0
-85 -400 0
-86 -401 0
-87 -402 0
-88 -403 0
-89 -404 0
-90 -405 0
-301 -631 0
-302 -632 0
-303 -633 0
-304 -634 0
-305 -635 0
-306 -636 0
-307 -637 0
-308 -638 0
-309 -639 0
-310 -640 0
-311 -641 0
-312 -642 0
-313 -643 0
-314 -644 0
-315 -645 0
-886 -496 0
-887 -497 0
-888 -498 0
-889 -499 0
-890 -500 0
-891 -501 0
-892 -502 0
-893 -503 0
-894 -504 0
-895 -505 0
-896 -506 0
-897 -507 0
-898 -508 0
-899 -509 0
-900 -510 0
-766 -436 0
-767 -437 0
-768 -438 0
-769 -439 0
-770 -440 0
-771 -441 0
-772 -442 0
-773 -443 0
-774 -444 0
-775 -445 0
-776 -446 0
-777 -447 0
-778 -448 0
-779 -449 0
-780 -450 0
-646 -376 0
-647 -377 0
-648 -378 0
-649 -379 0
-650 -380 0
-651 -381 0
-652 -382 0
-653 -383 0
-654 -384 0
-655 -385 0
-656 -386 0
-657 -387 0
-658 -388 0
-659 -389 0
-660 -390 0
-136 -481 0
-137 -482 0
-138 -483 0
-139 -484 0
-140 -485 0
-141 -486 0
-142 -487 0
-143 -488 0
-144 -489 0
-145 -490 0
-146 -491 0
-147 -492 0
-148 -493 0
-149 -494 0
-150 -495 0
-16 -421 0
-17 -422 0
-18 -423 0
-19 -424 0
-20 -425 0
-21 -426 0
-22 -427 0
-23 -428 0
-24 -429 0
-25 -430 0
-26 -431 0
-27 -432 0
-28 -433 0
-29 -434 0
-30 -435 0
-31 -436 0
-32 -437 0
-33 -438 0
-34 -439 0
-35 -440 0
-36 -441 0
-37 -442 0
-38 -443 0
-39 -444 0
-40 -445 0
-41 -446 0
-42 -447 0
-43 -448 0
-44 -449 0
-45 -450 0
-241 -736 0
-242 -737 0
-243 -738 0
-244 -739 0
-245 -740 0
-246 -741 0
-247 -742 0
-248 -743 0
-249 -744 0
-250 -745 0
-251 -746 0
-252 -747 0
-253 -748 0
-254 -749 0
-255 -750 0
-931 -241 0
-932 -242 0
-933 -243 0
-934 -244 0
-935 -245 0
-936 -246 0
-937 -247 0
-938 -248 0
-939 -249 0
-940 -250 0
-941 -251 0
-942 -252 0
-943 -253 0
-944 -254 0
-945 -255 0
-121 -676 0
-122 -677 0
-123 -678 0
-124 -679 0
-125 -680 0
-126 -681 0
-127 -682 0
-128 -683 0
-129 -684 0
-130 -685 0
-131 -686 0
-132 -687 0
-133 -688 0
-134 -689 0
-135 -690 0
-706 -541 0
-707 -542 0
-708 -543 0
-709 -544 0
-710 -545 0
-711 -546 0
-712 -547 0
-713 -548 0
-714 -549 0
-715 -550 0
-716 -551 0
-717 -552 0
-718 -553 0
-719 -554 0
-720 -555 0
-586 -481 0
-587 -482 0
-588 -483 0
-589 -484 0
-590 -485 0
-591 -486 0
-592 -487 0
-593 -488 0
-594 -489 0
-595 -490 0
-596 -491 0
-597 -492 0
-598 -493 0
-599 -494 0
-600 -495 0
-646 -31 0
-647 -32 0
-648 -33 0
-649 -34 0
-650 -35 0
-651 -36 0
-652 -37 0
-653 -38 0
-654 -39 0
-655 -40 0
-656 -41 0
-657 -42 0
-658 -43 0
-659 -44 0
-660 -45 0
-16 -76 0
-17 -77 0
-18 -78 0
-19 -79 0
-20 -80 0
-21 -81 0
-22 -82 0
-23 -83 0
-24 -84 0
-25 -85 0
-26 -86 0
-27 -87 0
-28 -88 0
-29 -89 0
-30 -90 0
-361 -376 0
-362 -377 0
-363 -378 0
-364 -379 0
-365 -380 0
-366 -381 0
-367 -382 0
-368 -383 0
-369 -384 0
-370 -385 0
-371 -386 0
-372 -387 0
-373 -388 0
-374 -389 0
-375 -390 0
-466 -496 0
-467 -497 0
-468 -498 0
-469 -499 0
-470 -500 0
-471 -501 0
-472 -502 0
-473 -503 0
-474 -504 0
-475 -505 0
-476 -506 0
-477 -507 0
-478 -508 0
-479 -509 0
-480 -510 0
-31 -91 0
-32 -92 0
-33 -93 0
-34 -94 0
-35 -95 0
-36 -96 0
-37 -97 0
-38 -98 0
-39 -99 0
-40 -100 0
-41 -101 0
-42 -102 0
-43 -103 0
-44 -104 0
-45 -105 0
-196 -226 0
-197 -227 0
-198 -228 0
-199 -229 0
-200 -230 0
-201 -231 0
-202 -232 0
-203 -233 0
-204 -234 0
-205 -235 0
-206 -236 0
-207 -237 0
-208 -238 0
-209 -239 0
-210 -240 0
-811 -241 0
-812 -242 0
-813 -243 0
-814 -244 0
-815 -245 0
-816 -246 0
-817 -247 0
-818 -248 0
-819 -249 0
-820 -250 0
-821 -251 0
-822 -252 0
-823 -253 0
-824 -254 0
-825 -255 0
-181 -841 0
-182 -842 0
-183 -843 0
-184 -844 0
-185 -845 0
-186 -846 0
-187 -847 0
-188 -848 0
-189 -849 0
-190 -850 0
-191 -851 0
-192 -852 0
-193 -853 0
-194 -854 0
-195 -855 0
-871 -346 0
-872 -347 0
-873 -348 0
-874 -349 0
-875 -350 0
-876 -351 0
-877 -352 0
-878 -353 0
-879 -354 0
-880 -355 0
-881 -356 0
-882 -357 0
-883 -358 0
-884 -359 0
-885 -360 0
-226 -916 0
-227 -917 0
-228 -918 0
-229 -919 0
-230 -920 0
-231 -921 0
-232 -922 0
-233 -923 0
-234 -924 0
-235 -925 0
-236 -926 0
-237 -927 0
-238 -928 0
-239 -929 0
-240 -930 0
-241 -391 0
-242 -392 0
-243 -393 0
-244 -394 0
-245 -395 0
-246 -396 0
-247 -397 0
-248 -398 0
-249 -399 0
-250 -400 0
-251 -401 0
-252 -402 0
-253 -403 0
-254 -404 0
-255 -405 0
-121 -331 0
-122 -332 0
-123 -333 0
-124 -334 0
-125 -335 0
-126 -336 0
-127 -337 0
-128 -338 0
-129 -339 0
-130 -340 0
-131 -341 0
-132 -342 0
-133 -343 0
-134 -344 0
-135 -345 0
-406 -526 0
-407 -527 0
-408 -528 0
-409 -529 0
-410 -530 0
-411 -531 0
-412 -532 0
-413 -533 0
-414 -534 0
-415 -535 0
-416 -536 0
-417 -537 0
-418 -538 0
-419 -539 0
-420 -540 0
-691 -721 0
-692 -722 0
-693 -723 0
-694 -724 0
-695 -725 0
-696 -726 0
-697 -727 0
-698 -728 0
-699 -729 0
-700 -730 0
-701 -731 0
-702 -732 0
-703 -733 0
-704 -734 0
-705 -735 0
-586 -136 0
-587 -137 0
-588 -138 0
-589 -139 0
-590 -140 0
-591 -141 0
-592 -142 0
-593 -143 0
-594 -144 0
-595 -145 0
-596 -146 0
-597 -147 0
-598 -148 0
-599 -149 0
-600 -150 0
-76 -241 0
-77 -242 0
-78 -243 0
-79 -244 0
-80 -245 0
-81 -246 0
-82 -247 0
-83 -248 0
-84 -249 0
-85 -250 0
-86 -251 0
-87 -252 0
-88 -253 0
-89 -254 0
-90 -255 0
-121 -871 0
-122 -872 0
-123 -873 0
-124 -874 0
-125 -875 0
-126 -876 0
-127 -877 0
-128 -878 0
-129 -879 0
-130 -880 0
-131 -881 0
-132 -882 0
-133 -883 0
-134 -884 0
-135 -885 0
-421 -541 0
-422 -542 0
-423 -543 0
-424 -544 0
-425 -545 0
-426 -546 0
-427 -547 0
-428 -548 0
-429 -549 0
-430 -550 0
-431 -551 0
-432 -552 0
-433 -553 0
-434 -554 0
-435 -555 0
-301 -481 0
-302 -482 0
-303 -483 0
-304 -484 0
-305 -485 0
-306 -486 0
-307 -487 0
-308 -488 0
-309 -489 0
-310 -490 0
-311 -491 0
-312 -492 0
-313 -493 0
-314 -494 0
-315 -495 0
-766 -286 0
-767 -287 0
-768 -288 0
-769 -289 0
-770 -290 0
-771 -291 0
-772 -292 0
-773 -293 0
-774 -294 0
-775 -295 0
-776 -296 0
-777 -297 0
-778 -298 0
-779 -299 0
-780 -300 0
-646 -226 0
-647 -227 0
-648 -228 0
-649 -229 0
-650 -230 0
-651 -231 0
-652 -232 0
-653 -233 0
-654 -234 0
-655 -235 0
-656 -236 0
-657 -237 0
-658 -238 0
-659 -239 0
-660 -240 0
-136 -331 0
-137 -332 0
-138 -333 0
-139 -334 0
-140 -335 0
-141 -336 0
-142 -337 0
-143 -338 0
-144 -339 0
-145 -340 0
-146 -341 0
-147 -342 0
-148 -343 0
-149 -344 0
-150 -345 0
-16 -271 0
-17 -272 0
-18 -273 0
-19 -274 0
-20 -275 0
-21 -276 0
-22 -277 0
-23 -278 0
-24 -279 0
-25 -280 0
-26 -281 0
-27 -282 0
-28 -283 0
-29 -284 0
-30 -285 0
-181 -496 0
-182 -497 0
-183 -498 0
-184 -499 0
-185 -500 0
-186 -501 0
-187 -502 0
-188 -503 0
-189 -504 0
-190 -505 0
-191 -506 0
-192 -507 0
-193 -508 0
-194 -509 0
-195 -510 0
-346 -631 0
-347 -632 0
-348 -633 0
-349 -634 0
-350 -635 0
-351 -636 0
-352 -637 0
-353 -638 0
-354 -639 0
-355 -640 0
-356 -641 0
-357 -642 0
-358 -643 0
-359 -644 0
-360 -645 0
-811 -436 0
-812 -437 0
-813 -438 0
-814 -439 0
-815 -440 0
-816 -441 0
-817 -442 0
-818 -443 0
-819 -444 0
-820 -445 0
-821 -446 0
-822 -447 0
-823 -448 0
-824 -449 0
-825 -450 0
-61 -421 0
-62 -422 0
-63 -423 0
-64 -424 0
-65 -425 0
-66 -426 0
-67 -427 0
-68 -428 0
-69 -429 0
-70 -430 0
-71 -431 0
-72 -432 0
-73 -433 0
-74 -434 0
-75 -435 0
-121 -526 0
-122 -527 0
-123 -528 0
-124 -529 0
-125 -530 0
-126 -531 0
-127 -532 0
-128 -533 0
-129 -534 0
-130 -535 0
-131 -536 0
-132 -537 0
-133 -538 0
-134 -539 0
-135 -540 0
-706 -391 0
-707 -392 0
-708 -393 0
-709 -394 0
-710 -395 0
-711 -396 0
-712 -397 0
-713 -398 0
-714 -399 0
-715 -400 0
-716 -401 0
-717 -402 0
-718 -403 0
-719 -404 0
-720 -405 0
-586 -331 0
-587 -332 0
-588 -333 0
-589 -334 0
-590 -335 0
-591 -336 0
-592 -337 0
-593 -338 0
-594 -339 0
-595 -340 0
-596 -341 0
-597 -342 0
-598 -343 0
-599 -344 0
-600 -345 0
-76 -436 0
-77 -437 0
-78 -438 0
-79 -439 0
-80 -440 0
-81 -441 0
-82 -442 0
-83 -443 0
-84 -444 0
-85 -445 0
-86 -446 0
-87 -447 0
-88 -448 0
-89 -449 0
-90 -450 0
-796 -631 0
-797 -632 0
-798 -633 0
-799 -634 0
-800 -635 0
-801 -636 0
-802 -637 0
-803 -638 0
-804 -639 0
-805 -640 0
-806 -641 0
-807 -642 0
-808 -643 0
-809 -644 0
-810 -645 0
-286 -736 0
-287 -737 0
-288 -738 0
-289 -739 0
-290 -740 0
-291 -741 0
-292 -742 0
-293 -743 0
-294 -744 0
-295 -745 0
-296 -746 0
-297 -747 0
-298 -748 0
-299 -749 0
-300 -750 0
-166 -676 0
-167 -677 0
-168 -678 0
-169 -679 0
-170 -680 0
-171 -681 0
-172 -682 0
-173 -683 0
-174 -684 0
-175 -685 0
-176 -686 0
-177 -687 0
-178 -688 0
-179 -689 0
-180 -690 0
-46 -616 0
-47 -617 0
-48 -618 0
-49 -619 0
-50 -620 0
-51 -621 0
-52 -622 0
-53 -623 0
-54 -624 0
-55 -625 0
-56 -626 0
-57 -627 0
-58 -628 0
-59 -629 0
-60 -630 0
-751 -541 0
-752 -542 0
-753 -543 0
-754 -544 0
-755 -545 0
-756 -546 0
-757 -547 0
-758 -548 0
-759 -549 0
-760 -550 0
-761 -551 0
-762 -552 0
-763 -553 0
-764 -554 0
-765 -555 0
-1 -526 0
-2 -527 0
-3 -528 0
-4 -529 0
-5 -530 0
-6 -531 0
-7 -532 0
-8 -533 0
-9 -534 0
-10 -535 0
-11 -536 0
-12 -537 0
-13 -538 0
-14 -539 0
-15 -540 0
-691 -31 0
-692 -32 0
-693 -33 0
-694 -34 0
-695 -35 0
-696 -36 0
-697 -37 0
-698 -38 0
-699 -39 0
-700 -40 0
-701 -41 0
-702 -42 0
-703 -43 0
-704 -44 0
-705 -45 0
-121 -181 0
-122 -182 0
-123 -183 0
-124 -184 0
-125 -185 0
-126 -186 0
-127 -187 0
-128 -188 0
-129 -189 0
-130 -190 0
-131 -191 0
-132 -192 0
-133 -193 0
-134 -194 0
-135 -195 0
-61 -616 0
-62 -617 0
-63 -618 0
-64 -619 0
-65 -620 0
-66 -621 0
-67 -622 0
-68 -623 0
-69 -624 0
-70 -625 0
-71 -626 0
-72 -627 0
-73 -628 0
-74 -629 0
-75 -630 0
-76 -91 0
-77 -92 0
-78 -93 0
-79 -94 0
-80 -95 0
-81 -96 0
-82 -97 0
-83 -98 0
-84 -99 0
-85 -100 0
-86 -101 0
-87 -102 0
-88 -103 0
-89 -104 0
-90 -105 0
-856 -796 0
-857 -797 0
-858 -798 0
-859 -799 0
-860 -800 0
-861 -801 0
-862 -802 0
-863 -803 0
-864 -804 0
-865 -805 0
-866 -806 0
-867 -807 0
-868 -808 0
-869 -809 0
-870 -810 0
-301 -331 0
-302 -332 0
-303 -333 0
-304 -334 0
-305 -335 0
-306 -336 0
-307 -337 0
-308 -338 0
-309 -339 0
-310 -340 0
-311 -341 0
-312 -342 0
-313 -343 0
-314 -344 0
-315 -345 0
-916 -346 0
-917 -347 0
-918 -348 0
-919 -349 0
-920 -350 0
-921 -351 0
-922 -352 0
-923 -353 0
-924 -354 0
-925 -355 0
-926 -356 0
-927 -357 0
-928 -358 0
-929 -359 0
-930 -360 0
-271 -916 0
-272 -917 0
-273 -918 0
-274 -919 0
-275 -920 0
-276 -921 0
-277 -922 0
-278 -923 0
-279 -924 0
-280 -925 0
-281 -926 0
-282 -927 0
-283 -928 0
-284 -929 0
-285 -930 0
-286 -391 0
-287 -392 0
-288 -393 0
-289 -394 0
-290 -395 0
-291 -396 0
-292 -397 0
-293 -398 0
-294 -399 0
-295 -400 0
-296 -401 0
-297 -402 0
-298 -403 0
-299 -404 0
-300 -405 0
-571 -586 0
-572 -587 0
-573 -588 0
-574 -589 0
-575 -590 0
-576 -591 0
-577 -592 0
-578 -593 0
-579 -594 0
-580 -595 0
-581 -596 0
-582 -597 0
-583 -598 0
-584 -599 0
-585 -600 0
-151 -856 0
-152 -857 0
-153 -858 0
-154 -859 0
-155 -860 0
-156 -861 0
-157 -862 0
-158 -863 0
-159 -864 0
-160 -865 0
-161 -866 0
-162 -867 0
-163 -868 0
-164 -869 0
-165 -870 0
-451 -526 0
-452 -527 0
-453 -528 0
-454 -529 0
-455 -530 0
-456 -531 0
-457 -532 0
-458 -533 0
-459 -534 0
-460 -535 0
-461 -536 0
-462 -537 0
-463 -538 0
-464 -539 0
-465 -540 0
-136 -181 0
-137 -182 0
-138 -183 0
-139 -184 0
-140 -185 0
-141 -186 0
-142 -187 0
-143 -188 0
-144 -189 0
-145 -190 0
-146 -191 0
-147 -192 0
-148 -193 0
-149 -194 0
-150 -195 0
-331 -466 0
-332 -467 0
-333 -468 0
-334 -469 0
-335 -470 0
-336 -471 0
-337 -472 0
-338 -473 0
-339 -474 0
-340 -475 0
-341 -476 0
-342 -477 0
-343 -478 0
-344 -479 0
-345 -480 0
-16 -121 0
-17 -122 0
-18 -123 0
-19 -124 0
-20 -125 0
-21 -126 0
-22 -127 0
-23 -128 0
-24 -129 0
-25 -130 0
-26 -131 0
-27 -132 0
-28 -133 0
-29 -134 0
-30 -135 0
-631 -136 0
-632 -137 0
-633 -138 0
-634 -139 0
-635 -140 0
-636 -141 0
-637 -142 0
-638 -143 0
-639 -144 0
-640 -145 0
-641 -146 0
-642 -147 0
-643 -148 0
-644 -149 0
-645 -150 0
-286 -931 0
-287 -932 0
-288 -933 0
-289 -934 0
-290 -935 0
-291 -936 0
-292 -937 0
-293 -938 0
-294 -939 0
-295 -940 0
-296 -941 0
-297 -942 0
-298 -943 0
-299 -944 0
-300 -945 0
-181 -346 0
-182 -347 0
-183 -348 0
-184 -349 0
-185 -350 0
-186 -351 0
-187 -352 0
-188 -353 0
-189 -354 0
-190 -355 0
-191 -356 0
-192 -357 0
-193 -358 0
-194 -359 0
-195 -360 0
-466 -541 0
-467 -542 0
-468 -543 0
-469 -544 0
-470 -545 0
-471 -546 0
-472 -547 0
-473 -548 0
-474 -549 0
-475 -550 0
-476 -551 0
-477 -552 0
-478 -553 0
-479 -554 0
-480 -555 0
-346 -481 0
-347 -482 0
-348 -483 0
-349 -484 0
-350 -485 0
-351 -486 0
-352 -487 0
-353 -488 0
-354 -489 0
-355 -490 0
-356 -491 0
-357 -492 0
-358 -493 0
-359 -494 0
-360 -495 0
-226 -421 0
-227 -422 0
-228 -423 0
-229 -424 0
-230 -425 0
-231 -426 0
-232 -427 0
-233 -428 0
-234 -429 0
-235 -430 0
-236 -431 0
-237 -432 0
-238 -433 0
-239 -434 0
-240 -435 0
-511 -616 0
-512 -617 0
-513 -618 0
-514 -619 0
-515 -620 0
-516 -621 0
-517 -622 0
-518 -623 0
-519 -624 0
-520 -625 0
-521 -626 0
-522 -627 0
-523 -628 0
-524 -629 0
-525 -630 0
-811 -286 0
-812 -287 0
-813 -288 0
-814 -289 0
-815 -290 0
-816 -291 0
-817 -292 0
-818 -293 0
-819 -294 0
-820 -295 0
-821 -296 0
-822 -297 0
-823 -298 0
-824 -299 0
-825 -300 0
-691 -226 0
-692 -227 0
-693 -228 0
-694 -229 0
-695 -230 0
-696 -231 0
-697 -232 0
-698 -233 0
-699 -234 0
-700 -235 0
-701 -236 0
-702 -237 0
-703 -238 0
-704 -239 0
-705 -240 0
-61 -271 0
-62 -272 0
-63 -273 0
-64 -274 0
-65 -275 0
-66 -276 0
-67 -277 0
-68 -278 0
-69 -279 0
-70 -280 0
-71 -281 0
-72 -282 0
-73 -283 0
-74 -284 0
-75 -285 0
-241 -436 0
-242 -437 0
-243 -438 0
-244 -439 0
-245 -440 0
-246 -441 0
-247 -442 0
-248 -443 0
-249 -444 0
-250 -445 0
-251 -446 0
-252 -447 0
-253 -448 0
-254 -449 0
-255 -450 0
-121 -376 0
-122 -377 0
-123 -378 0
-124 -379 0
-125 -380 0
-126 -381 0
-127 -382 0
-128 -383 0
-129 -384 0
-130 -385 0
-131 -386 0
-132 -387 0
-133 -388 0
-134 -389 0
-135 -390 0
-586 -181 0
-587 -182 0
-588 -183 0
-589 -184 0
-590 -185 0
-591 -186 0
-592 -187 0
-593 -188 0
-594 -189 0
-595 -190 0
-596 -191 0
-597 -192 0
-598 -193 0
-599 -194 0
-600 -195 0
-391 -631 0
-392 -632 0
-393 -633 0
-394 -634 0
-395 -635 0
-396 -636 0
-397 -637 0
-398 -638 0
-399 -639 0
-400 -640 0
-401 -641 0
-402 -642 0
-403 -643 0
-404 -644 0
-405 -645 0
-76 -286 0
-77 -287 0
-78 -288 0
-79 -289 0
-80 -290 0
-81 -291 0
-82 -292 0
-83 -293 0
-84 -294 0
-85 -295 0
-86 -296 0
-87 -297 0
-88 -298 0
-89 -299 0
-90 -300 0
-571 -241 0
-572 -242 0
-573 -243 0
-574 -244 0
-575 -245 0
-576 -246 0
-577 -247 0
-578 -248 0
-579 -249 0
-580 -250 0
-581 -251 0
-582 -252 0
-583 -253 0
-584 -254 0
-585 -255 0
-736 -931 0
-737 -932 0
-738 -933 0
-739 -934 0
-740 -935 0
-741 -936 0
-742 -937 0
-743 -938 0
-744 -939 0
-745 -940 0
-746 -941 0
-747 -942 0
-748 -943 0
-749 -944 0
-750 -945 0
-166 -526 0
-167 -527 0
-168 -528 0
-169 -529 0
-170 -530 0
-171 -531 0
-172 -532 0
-173 -533 0
-174 -534 0
-175 -535 0
-176 -536 0
-177 -537 0
-178 -538 0
-179 -539 0
-180 -540 0
-46 -466 0
-47 -467 0
-48 -468 0
-49 -469 0
-50 -470 0
-51 -471 0
-52 -472 0
-53 -473 0
-54 -474 0
-55 -475 0
-56 -476 0
-57 -477 0
-58 -478 0
-59 -479 0
-60 -480 0
-331 -661 0
-332 -662 0
-333 -663 0
-334 -664 0
-335 -665 0
-336 -666 0
-337 -667 0
-338 -668 0
-339 -669 0
-340 -670 0
-341 -671 0
-342 -672 0
-343 -673 0
-344 -674 0
-345 -675 0
-1 -376 0
-2 -377 0
-3 -378 0
-4 -379 0
-5 -380 0
-6 -381 0
-7 -382 0
-8 -383 0
-9 -384 0
-10 -385 0
-11 -386 0
-12 -387 0
-13 -388 0
-14 -389 0
-15 -390 0
-181 -541 0
-182 -542 0
-183 -543 0
-184 -544 0
-185 -545 0
-186 -546 0
-187 -547 0
-188 -548 0
-189 -549 0
-190 -550 0
-191 -551 0
-192 -552 0
-193 -553 0
-194 -554 0
-195 -555 0
-676 -496 0
-677 -497 0
-678 -498 0
-679 -499 0
-680 -500 0
-681 -501 0
-682 -502 0
-683 -503 0
-684 -504 0
-685 -505 0
-686 -506 0
-687 -507 0
-688 -508 0
-689 -509 0
-690 -510 0
-226 -616 0
-227 -617 0
-228 -618 0
-229 -619 0
-230 -620 0
-231 -621 0
-232 -622 0
-233 -623 0
-234 -624 0
-235 -625 0
-236 -626 0
-237 -627 0
-238 -628 0
-239 -629 0
-240 -630 0
-841 -631 0
-842 -632 0
-843 -633 0
-844 -634 0
-845 -635 0
-846 -636 0
-847 -637 0
-848 -638 0
-849 -639 0
-850 -640 0
-851 -641 0
-852 -642 0
-853 -643 0
-854 -644 0
-855 -645 0
-211 -676 0
-212 -677 0
-213 -678 0
-214 -679 0
-215 -680 0
-216 -681 0
-217 -682 0
-218 -683 0
-219 -684 0
-220 -685 0
-221 -686 0
-222 -687 0
-223 -688 0
-224 -689 0
-225 -690 0
-61 -466 0
-62 -467 0
-63 -468 0
-64 -469 0
-65 -470 0
-66 -471 0
-67 -472 0
-68 -473 0
-69 -474 0
-70 -475 0
-71 -476 0
-72 -477 0
-73 -478 0
-74 -479 0
-75 -480 0
-571 -436 0
-572 -437 0
-573 -438 0
-574 -439 0
-575 -440 0
-576 -441 0
-577 -442 0
-578 -443 0
-579 -444 0
-580 -445 0
-581 -446 0
-582 -447 0
-583 -448 0
-584 -449 0
-585 -450 0
-166 -181 0
-167 -182 0
-168 -183 0
-169 -184 0
-170 -185 0
-171 -186 0
-172 -187 0
-173 -188 0
-174 -189 0
-175 -190 0
-176 -191 0
-177 -192 0
-178 -193 0
-179 -194 0
-180 -195 0
-151 -706 0
-152 -707 0
-153 -708 0
-154 -709 0
-155 -710 0
-156 -711 0
-157 -712 0
-158 -713 0
-159 -714 0
-160 -715 0
-161 -716 0
-162 -717 0
-163 -718 0
-164 -719 0
-165 -720 0
-436 -901 0
-437 -902 0
-438 -903 0
-439 -904 0
-440 -905 0
-441 -906 0
-442 -907 0
-443 -908 0
-444 -909 0
-445 -910 0
-446 -911 0
-447 -912 0
-448 -913 0
-449 -914 0
-450 -915 0
-1 -31 0
-2 -32 0
-3 -33 0
-4 -34 0
-5 -35 0
-6 -36 0
-7 -37 0
-8 -38 0
-9 -39 0
-10 -40 0
-11 -41 0
-12 -42 0
-13 -43 0
-14 -44 0
-15 -45 0
-166 -721 0
-167 -722 0
-168 -723 0
-169 -724 0
-170 -725 0
-171 -726 0
-172 -727 0
-173 -728 0
-174 -729 0
-175 -730 0
-176 -731 0
-177 -732 0
-178 -733 0
-179 -734 0
-180 -735 0
-181 -196 0
-182 -197 0
-183 -198 0
-184 -199 0
-185 -200 0
-186 -201 0
-187 -202 0
-188 -203 0
-189 -204 0
-190 -205 0
-191 -206 0
-192 -207 0
-193 -208 0
-194 -209 0
-195 -210 0
-781 -736 0
-782 -737 0
-783 -738 0
-784 -739 0
-785 -740 0
-786 -741 0
-787 -742 0
-788 -743 0
-789 -744 0
-790 -745 0
-791 -746 0
-792 -747 0
-793 -748 0
-794 -749 0
-795 -750 0
-46 -661 0
-47 -662 0
-48 -663 0
-49 -664 0
-50 -665 0
-51 -666 0
-52 -667 0
-53 -668 0
-54 -669 0
-55 -670 0
-56 -671 0
-57 -672 0
-58 -673 0
-59 -674 0
-60 -675 0
-226 -271 0
-227 -272 0
-228 -273 0
-229 -274 0
-230 -275 0
-231 -276 0
-232 -277 0
-233 -278 0
-234 -279 0
-235 -280 0
-236 -281 0
-237 -282 0
-238 -283 0
-239 -284 0
-240 -285 0
-61 -121 0
-62 -122 0
-63 -123 0
-64 -124 0
-65 -125 0
-66 -126 0
-67 -127 0
-68 -128 0
-69 -129 0
-70 -130 0
-71 -131 0
-72 -132 0
-73 -133 0
-74 -134 0
-75 -135 0
-121 -226 0
-122 -227 0
-123 -228 0
-124 -229 0
-125 -230 0
-126 -231 0
-127 -232 0
-128 -233 0
-129 -234 0
-130 -235 0
-131 -236 0
-132 -237 0
-133 -238 0
-134 -239 0
-135 -240 0
-106 -286 0
-107 -287 0
-108 -288 0
-109 -289 0
-110 -290 0
-111 -291 0
-112 -292 0
-113 -293 0
-114 -294 0
-115 -295 0
-116 -296 0
-117 -297 0
-118 -298 0
-119 -299 0
-120 -300 0
-391 -481 0
-392 -482 0
-393 -483 0
-394 -484 0
-395 -485 0
-396 -486 0
-397 -487 0
-398 -488 0
-399 -489 0
-400 -490 0
-401 -491 0
-402 -492 0
-403 -493 0
-404 -494 0
-405 -495 0
-271 -421 0
-272 -422 0
-273 -423 0
-274 -424 0
-275 -425 0
-276 -426 0
-277 -427 0
-278 -428 0
-279 -429 0
-280 -430 0
-281 -431 0
-282 -432 0
-283 -433 0
-284 -434 0
-285 -435 0
-151 -361 0
-152 -362 0
-153 -363 0
-154 -364 0
-155 -365 0
-156 -366 0
-157 -367 0
-158 -368 0
-159 -369 0
-160 -370 0
-161 -371 0
-162 -372 0
-163 -373 0
-164 -374 0
-165 -375 0
-571 -91 0
-572 -92 0
-573 -93 0
-574 -94 0
-575 -95 0
-576 -96 0
-577 -97 0
-578 -98 0
-579 -99 0
-580 -100 0
-581 -101 0
-582 -102 0
-583 -103 0
-584 -104 0
-585 -105 0
-436 -556 0
-437 -557 0
-438 -558 0
-439 -559 0
-440 -560 0
-441 -561 0
-442 -562 0
-443 -563 0
-444 -564 0
-445 -565 0
-446 -566 0
-447 -567 0
-448 -568 0
-449 -569 0
-450 -570 0
-286 -436 0
-287 -437 0
-288 -438 0
-289 -439 0
-290 -440 0
-291 -441 0
-292 -442 0
-293 -443 0
-294 -444 0
-295 -445 0
-296 -446 0
-297 -447 0
-298 -448 0
-299 -449 0
-300 -450 0
-166 -376 0
-167 -377 0
-168 -378 0
-169 -379 0
-170 -380 0
-171 -381 0
-172 -382 0
-173 -383 0
-174 -384 0
-175 -385 0
-176 -386 0
-177 -387 0
-178 -388 0
-179 -389 0
-180 -390 0
-46 -316 0
-47 -317 0
-48 -318 0
-49 -319 0
-50 -320 0
-51 -321 0
-52 -322 0
-53 -323 0
-54 -324 0
-55 -325 0
-56 -326 0
-57 -327 0
-58 -328 0
-59 -329 0
-60 -330 0
-646 -856 0
-647 -857 0
-648 -858 0
-649 -859 0
-650 -860 0
-651 -861 0
-652 -862 0
-653 -863 0
-654 -864 0
-655 -865 0
-656 -866 0
-657 -867 0
-658 -868 0
-659 -869 0
-660 -870 0
-331 -511 0
-332 -512 0
-333 -513 0
-334 -514 0
-335 -515 0
-336 -516 0
-337 -517 0
-338 -518 0
-339 -519 0
-340 -520 0
-341 -521 0
-342 -522 0
-343 -523 0
-344 -524 0
-345 -525 0
-631 -181 0
-632 -182 0
-633 -183 0
-634 -184 0
-635 -185 0
-636 -186 0
-637 -187 0
-638 -188 0
-639 -189 0
-640 -190 0
-641 -191 0
-642 -192 0
-643 -193 0
-644 -194 0
-645 -195 0
-1 -226 0
-2 -227 0
-3 -228 0
-4 -229 0
-5 -230 0
-6 -231 0
-7 -232 0
-8 -233 0
-9 -234 0
-10 -235 0
-11 -236 0
-12 -237 0
-13 -238 0
-14 -239 0
-15 -240 0
-31 -916 0
-32 -917 0
-33 -918 0
-34 -919 0
-35 -920 0
-36 -921 0
-37 -922 0
-38 -923 0
-39 -924 0
-40 -925 0
-41 -926 0
-42 -927 0
-43 -928 0
-44 -929 0
-45 -930 0
-211 -526 0
-212 -527 0
-213 -528 0
-214 -529 0
-215 -530 0
-216 -531 0
-217 -532 0
-218 -533 0
-219 -534 0
-220 -535 0
-221 -536 0
-222 -537 0
-223 -538 0
-224 -539 0
-225 -540 0
-91 -466 0
-92 -467 0
-93 -468 0
-94 -469 0
-95 -470 0
-96 -471 0
-97 -472 0
-98 -473 0
-99 -474 0
-100 -475 0
-101 -476 0
-102 -477 0
-103 -478 0
-104 -479 0
-105 -480 0
-376 -661 0
-377 -662 0
-378 -663 0
-379 -664 0
-380 -665 0
-381 -666 0
-382 -667 0
-383 -668 0
-384 -669 0
-385 -670 0
-386 -671 0
-387 -672 0
-388 -673 0
-389 -674 0
-390 -675 0
-256 -601 0
-257 -602 0
-258 -603 0
-259 -604 0
-260 -605 0
-261 -606 0
-262 -607 0
-263 -608 0
-264 -609 0
-265 -610 0
-266 -611 0
-267 -612 0
-268 -613 0
-269 -614 0
-270 -615 0
-856 -496 0
-857 -497 0
-858 -498 0
-859 -499 0
-860 -500 0
-861 -501 0
-862 -502 0
-863 -503 0
-864 -504 0
-865 -505 0
-866 -506 0
-867 -507 0
-868 -508 0
-869 -509 0
-870 -510 0
-106 -481 0
-107 -482 0
-108 -483 0
-109 -484 0
-110 -485 0
-111 -486 0
-112 -487 0
-113 -488 0
-114 -489 0
-115 -490 0
-116 -491 0
-117 -492 0
-118 -493 0
-119 -494 0
-120 -495 0
-271 -616 0
-272 -617 0
-273 -618 0
-274 -619 0
-275 -620 0
-276 -621 0
-277 -622 0
-278 -623 0
-279 -624 0
-280 -625 0
-281 -626 0
-282 -627 0
-283 -628 0
-284 -629 0
-285 -630 0
-886 -631 0
-887 -632 0
-888 -633 0
-889 -634 0
-890 -635 0
-891 -636 0
-892 -637 0
-893 -638 0
-894 -639 0
-895 -640 0
-896 -641 0
-897 -642 0
-898 -643 0
-899 -644 0
-900 -645 0
-151 -556 0
-152 -557 0
-153 -558 0
-154 -559 0
-155 -560 0
-156 -561 0
-157 -562 0
-158 -563 0
-159 -564 0
-160 -565 0
-161 -566 0
-162 -567 0
-163 -568 0
-164 -569 0
-165 -570 0
-571 -286 0
-572 -287 0
-573 -288 0
-574 -289 0
-575 -290 0
-576 -291 0
-577 -292 0
-578 -293 0
-579 -294 0
-580 -295 0
-581 -296 0
-582 -297 0
-583 -298 0
-584 -299 0
-585 -300 0
-436 -751 0
-437 -752 0
-438 -753 0
-439 -754 0
-440 -755 0
-441 -756 0
-442 -757 0
-443 -758 0
-444 -759 0
-445 -760 0
-446 -761 0
-447 -762 0
-448 -763 0
-449 -764 0
-450 -765 0
-46 -511 0
-47 -512 0
-48 -513 0
-49 -514 0
-50 -515 0
-51 -516 0
-52 -517 0
-53 -518 0
-54 -519 0
-55 -520 0
-56 -521 0
-57 -522 0
-58 -523 0
-59 -524 0
-60 -525 0
-661 -526 0
-662 -527 0
-663 -528 0
-664 -529 0
-665 -530 0
-666 -531 0
-667 -532 0
-668 -533 0
-669 -534 0
-670 -535 0
-671 -536 0
-672 -537 0
-673 -538 0
-674 -539 0
-675 -540 0
-826 -661 0
-827 -662 0
-828 -663 0
-829 -664 0
-830 -665 0
-831 -666 0
-832 -667 0
-833 -668 0
-834 -669 0
-835 -670 0
-836 -671 0
-837 -672 0
-838 -673 0
-839 -674 0
-840 -675 0
-676 -541 0
-677 -542 0
-678 -543 0
-679 -544 0
-680 -545 0
-681 -546 0
-682 -547 0
-683 -548 0
-684 -549 0
-685 -550 0
-686 -551 0
-687 -552 0
-688 -553 0
-689 -554 0
-690 -555 0
-841 -676 0
-842 -677 0
-843 -678 0
-844 -679 0
-845 -680 0
-846 -681 0
-847 -682 0
-848 -683 0
-849 -684 0
-850 -685 0
-851 -686 0
-852 -687 0
-853 -688 0
-854 -689 0
-855 -690 0
-721 -616 0
-722 -617 0
-723 -618 0
-724 -619 0
-725 -620 0
-726 -621 0
-727 -622 0
-728 -623 0
-729 -624 0
-730 -625 0
-731 -626 0
-732 -627 0
-733 -628 0
-734 -629 0
-735 -630 0
-211 -721 0
-212 -722 0
-213 -723 0
-214 -724 0
-215 -725 0
-216 -726 0
-217 -727 0
-218 -728 0
-219 -729 0
-220 -730 0
-221 -731 0
-222 -732 0
-223 -733 0
-224 -734 0
-225 -735 0
-901 -226 0
-902 -227 0
-903 -228 0
-904 -229 0
-905 -230 0
-906 -231 0
-907 -232 0
-908 -233 0
-909 -234 0
-910 -235 0
-911 -236 0
-912 -237 0
-913 -238 0
-914 -239 0
-915 -240 0
-106 -136 0
-107 -137 0
-108 -138 0
-109 -139 0
-110 -140 0
-111 -141 0
-112 -142 0
-113 -143 0
-114 -144 0
-115 -145 0
-116 -146 0
-117 -147 0
-118 -148 0
-119 -149 0
-120 -150 0
-151 -211 0
-152 -212 0
-153 -213 0
-154 -214 0
-155 -215 0
-156 -216 0
-157 -217 0
-158 -218 0
-159 -219 0
-160 -220 0
-161 -221 0
-162 -222 0
-163 -223 0
-164 -224 0
-165 -225 0
-601 -631 0
-602 -632 0
-603 -633 0
-604 -634 0
-605 -635 0
-606 -636 0
-607 -637 0
-608 -638 0
-609 -639 0
-610 -640 0
-611 -641 0
-612 -642 0
-613 -643 0
-614 -644 0
-615 -645 0
-166 -226 0
-167 -227 0
-168 -228 0
-169 -229 0
-170 -230 0
-171 -231 0
-172 -232 0
-173 -233 0
-174 -234 0
-175 -235 0
-176 -236 0
-177 -237 0
-178 -238 0
-179 -239 0
-180 -240 0
-781 -241 0
-782 -242 0
-783 -243 0
-784 -244 0
-785 -245 0
-786 -246 0
-787 -247 0
-788 -248 0
-789 -249 0
-790 -250 0
-791 -251 0
-792 -252 0
-793 -253 0
-794 -254 0
-795 -255 0
-46 -166 0
-47 -167 0
-48 -168 0
-49 -169 0
-50 -170 0
-51 -171 0
-52 -172 0
-53 -173 0
-54 -174 0
-55 -175 0
-56 -176 0
-57 -177 0
-58 -178 0
-59 -179 0
-60 -180 0
-646 -706 0
-647 -707 0
-648 -708 0
-649 -709 0
-650 -710 0
-651 -711 0
-652 -712 0
-653 -713 0
-654 -714 0
-655 -715 0
-656 -716 0
-657 -717 0
-658 -718 0
-659 -719 0
-660 -720 0
-316 -421 0
-317 -422 0
-318 -423 0
-319 -424 0
-320 -425 0
-321 -426 0
-322 -427 0
-323 -428 0
-324 -429 0
-325 -430 0
-326 -431 0
-327 -432 0
-328 -433 0
-329 -434 0
-330 -435 0
-1 -76 0
-2 -77 0
-3 -78 0
-4 -79 0
-5 -80 0
-6 -81 0
-7 -82 0
-8 -83 0
-9 -84 0
-10 -85 0
-11 -86 0
-12 -87 0
-13 -88 0
-14 -89 0
-15 -90 0
-826 -856 0
-827 -857 0
-828 -858 0
-829 -859 0
-830 -860 0
-831 -861 0
-832 -862 0
-833 -863 0
-834 -864 0
-835 -865 0
-836 -866 0
-837 -867 0
-838 -868 0
-839 -869 0
-840 -870 0
-31 -766 0
-32 -767 0
-33 -768 0
-34 -769 0
-35 -770 0
-36 -771 0
-37 -772 0
-38 -773 0
-39 -774 0
-40 -775 0
-41 -776 0
-42 -777 0
-43 -778 0
-44 -779 0
-45 -780 0
-211 -376 0
-212 -377 0
-213 -378 0
-214 -379 0
-215 -380 0
-216 -381 0
-217 -382 0
-218 -383 0
-219 -384 0
-220 -385 0
-221 -386 0
-222 -387 0
-223 -388 0
-224 -389 0
-225 -390 0
-91 -316 0
-92 -317 0
-93 -318 0
-94 -319 0
-95 -320 0
-96 -321 0
-97 -322 0
-98 -323 0
-99 -324 0
-100 -325 0
-101 -326 0
-102 -327 0
-103 -328 0
-104 -329 0
-105 -330 0
-376 -511 0
-377 -512 0
-378 -513 0
-379 -514 0
-380 -515 0
-381 -516 0
-382 -517 0
-383 -518 0
-384 -519 0
-385 -520 0
-386 -521 0
-387 -522 0
-388 -523 0
-389 -524 0
-390 -525 0
-256 -451 0
-257 -452 0
-258 -453 0
-259 -454 0
-260 -455 0
-261 -456 0
-262 -457 0
-263 -458 0
-264 -459 0
-265 -460 0
-266 -461 0
-267 -462 0
-268 -463 0
-269 -464 0
-270 -465 0
-106 -331 0
-107 -332 0
-108 -333 0
-109 -334 0
-110 -335 0
-111 -336 0
-112 -337 0
-113 -338 0
-114 -339 0
-115 -340 0
-116 -341 0
-117 -342 0
-118 -343 0
-119 -344 0
-120 -345 0
-151 -406 0
-152 -407 0
-153 -408 0
-154 -409 0
-155 -410 0
-156 -411 0
-157 -412 0
-158 -413 0
-159 -414 0
-160 -415 0
-161 -416 0
-162 -417 0
-163 -418 0
-164 -419 0
-165 -420 0
-781 -436 0
-782 -437 0
-783 -438 0
-784 -439 0
-785 -440 0
-786 -441 0
-787 -442 0
-788 -443 0
-789 -444 0
-790 -445 0
-791 -446 0
-792 -447 0
-793 -448 0
-794 -449 0
-795 -450 0
-826 -511 0
-827 -512 0
-828 -513 0
-829 -514 0
-830 -515 0
-831 -516 0
-832 -517 0
-833 -518 0
-834 -519 0
-835 -520 0
-836 -521 0
-837 -522 0
-838 -523 0
-839 -524 0
-840 -525 0
-31 -421 0
-32 -422 0
-33 -423 0
-34 -424 0
-35 -425 0
-36 -426 0
-37 -427 0
-38 -428 0
-39 -429 0
-40 -430 0
-41 -431 0
-42 -432 0
-43 -433 0
-44 -434 0
-45 -435 0
-316 -616 0
-317 -617 0
-318 -618 0
-319 -619 0
-320 -620 0
-321 -621 0
-322 -622 0
-323 -623 0
-324 -624 0
-325 -625 0
-326 -626 0
-327 -627 0
-328 -628 0
-329 -629 0
-330 -630 0
-196 -556 0
-197 -557 0
-198 -558 0
-199 -559 0
-200 -560 0
-201 -561 0
-202 -562 0
-203 -563 0
-204 -564 0
-205 -565 0
-206 -566 0
-207 -567 0
-208 -568 0
-209 -569 0
-210 -570 0
-871 -676 0
-872 -677 0
-873 -678 0
-874 -679 0
-875 -680 0
-876 -681 0
-877 -682 0
-878 -683 0
-879 -684 0
-880 -685 0
-881 -686 0
-882 -687 0
-883 -688 0
-884 -689 0
-885 -690 0
-91 -511 0
-92 -512 0
-93 -513 0
-94 -514 0
-95 -515 0
-96 -516 0
-97 -517 0
-98 -518 0
-99 -519 0
-100 -520 0
-101 -521 0
-102 -522 0
-103 -523 0
-104 -524 0
-105 -525 0
-601 -481 0
-602 -482 0
-603 -483 0
-604 -484 0
-605 -485 0
-606 -486 0
-607 -487 0
-608 -488 0
-609 -489 0
-610 -490 0
-611 -491 0
-612 -492 0
-613 -493 0
-614 -494 0
-615 -495 0
-886 -676 0
-887 -677 0
-888 -678 0
-889 -679 0
-890 -680 0
-891 -681 0
-892 -682 0
-893 -683 0
-894 -684 0
-895 -685 0
-896 -686 0
-897 -687 0
-898 -688 0
-899 -689 0
-900 -690 0
-766 -616 0
-767 -617 0
-768 -618 0
-769 -619 0
-770 -620 0
-771 -621 0
-772 -622 0
-773 -623 0
-774 -624 0
-775 -625 0
-776 -626 0
-777 -627 0
-778 -628 0
-779 -629 0
-780 -630 0
-136 -661 0
-137 -662 0
-138 -663 0
-139 -664 0
-140 -665 0
-141 -666 0
-142 -667 0
-143 -668 0
-144 -669 0
-145 -670 0
-146 -671 0
-147 -672 0
-148 -673 0
-149 -674 0
-150 -675 0
-31 -76 0
-32 -77 0
-33 -78 0
-34 -79 0
-35 -80 0
-36 -81 0
-37 -82 0
-38 -83 0
-39 -84 0
-40 -85 0
-41 -86 0
-42 -87 0
-43 -88 0
-44 -89 0
-45 -90 0
-196 -211 0
-197 -212 0
-198 -213 0
-199 -214 0
-200 -215 0
-201 -216 0
-202 -217 0
-203 -218 0
-204 -219 0
-205 -220 0
-206 -221 0
-207 -222 0
-208 -223 0
-209 -224 0
-210 -225 0
-31 -616 0
-32 -617 0
-33 -618 0
-34 -619 0
-35 -620 0
-36 -621 0
-37 -622 0
-38 -623 0
-39 -624 0
-40 -625 0
-41 -626 0
-42 -627 0
-43 -628 0
-44 -629 0
-45 -630 0
-211 -226 0
-212 -227 0
-213 -228 0
-214 -229 0
-215 -230 0
-216 -231 0
-217 -232 0
-218 -233 0
-219 -234 0
-220 -235 0
-221 -236 0
-222 -237 0
-223 -238 0
-224 -239 0
-225 -240 0
-91 -166 0
-92 -167 0
-93 -168 0
-94 -169 0
-95 -170 0
-96 -171 0
-97 -172 0
-98 -173 0
-99 -174 0
-100 -175 0
-101 -176 0
-102 -177 0
-103 -178 0
-104 -179 0
-105 -180 0
-691 -706 0
-692 -707 0
-693 -708 0
-694 -709 0
-695 -710 0
-696 -711 0
-697 -712 0
-698 -713 0
-699 -714 0
-700 -715 0
-701 -716 0
-702 -717 0
-703 -718 0
-704 -719 0
-705 -720 0
-256 -301 0
-257 -302 0
-258 -303 0
-259 -304 0
-260 -305 0
-261 -306 0
-262 -307 0
-263 -308 0
-264 -309 0
-265 -310 0
-266 -311 0
-267 -312 0
-268 -313 0
-269 -314 0
-270 -315 0
-241 -916 0
-242 -917 0
-243 -918 0
-244 -919 0
-245 -920 0
-246 -921 0
-247 -922 0
-248 -923 0
-249 -924 0
-250 -925 0
-251 -926 0
-252 -927 0
-253 -928 0
-254 -929 0
-255 -930 0
-121 -856 0
-122 -857 0
-123 -858 0
-124 -859 0
-125 -860 0
-126 -861 0
-127 -862 0
-128 -863 0
-129 -864 0
-130 -865 0
-131 -866 0
-132 -867 0
-133 -868 0
-134 -869 0
-135 -870 0
-421 -526 0
-422 -527 0
-423 -528 0
-424 -529 0
-425 -530 0
-426 -531 0
-427 -532 0
-428 -533 0
-429 -534 0
-430 -535 0
-431 -536 0
-432 -537 0
-433 -538 0
-434 -539 0
-435 -540 0
-706 -721 0
-707 -722 0
-708 -723 0
-709 -724 0
-710 -725 0
-711 -726 0
-712 -727 0
-713 -728 0
-714 -729 0
-715 -730 0
-716 -731 0
-717 -732 0
-718 -733 0
-719 -734 0
-720 -735 0
-301 -466 0
-302 -467 0
-303 -468 0
-304 -469 0
-305 -470 0
-306 -471 0
-307 -472 0
-308 -473 0
-309 -474 0
-310 -475 0
-311 -476 0
-312 -477 0
-313 -478 0
-314 -479 0
-315 -480 0
-586 -661 0
-587 -662 0
-588 -663 0
-589 -664 0
-590 -665 0
-591 -666 0
-592 -667 0
-593 -668 0
-594 -669 0
-595 -670 0
-596 -671 0
-597 -672 0
-598 -673 0
-599 -674 0
-600 -675 0
-886 -331 0
-887 -332 0
-888 -333 0
-889 -334 0
-890 -335 0
-891 -336 0
-892 -337 0
-893 -338 0
-894 -339 0
-895 -340 0
-896 -341 0
-897 -342 0
-898 -343 0
-899 -344 0
-900 -345 0
-766 -271 0
-767 -272 0
-768 -273 0
-769 -274 0
-770 -275 0
-771 -276 0
-772 -277 0
-773 -278 0
-774 -279 0
-775 -280 0
-776 -281 0
-777 -282 0
-778 -283 0
-779 -284 0
-780 -285 0
-646 -211 0
-647 -212 0
-648 -213 0
-649 -214 0
-650 -215 0
-651 -216 0
-652 -217 0
-653 -218 0
-654 -219 0
-655 -220 0
-656 -221 0
-657 -222 0
-658 -223 0
-659 -224 0
-660 -225 0
-136 -316 0
-137 -317 0
-138 -318 0
-139 -319 0
-140 -320 0
-141 -321 0
-142 -322 0
-143 -323 0
-144 -324 0
-145 -325 0
-146 -326 0
-147 -327 0
-148 -328 0
-149 -329 0
-150 -330 0
-481 -616 0
-482 -617 0
-483 -618 0
-484 -619 0
-485 -620 0
-486 -621 0
-487 -622 0
-488 -623 0
-489 -624 0
-490 -625 0
-491 -626 0
-492 -627 0
-493 -628 0
-494 -629 0
-495 -630 0
-361 -556 0
-362 -557 0
-363 -558 0
-364 -559 0
-365 -560 0
-366 -561 0
-367 -562 0
-368 -563 0
-369 -564 0
-370 -565 0
-371 -566 0
-372 -567 0
-373 -568 0
-374 -569 0
-375 -570 0
-781 -286 0
-782 -287 0
-783 -288 0
-784 -289 0
-785 -290 0
-786 -291 0
-787 -292 0
-788 -293 0
-789 -294 0
-790 -295 0
-791 -296 0
-792 -297 0
-793 -298 0
-794 -299 0
-795 -300 0
-646 -751 0
-647 -752 0
-648 -753 0
-649 -754 0
-650 -755 0
-651 -756 0
-652 -757 0
-653 -758 0
-654 -759 0
-655 -760 0
-656 -761 0
-657 -762 0
-658 -763 0
-659 -764 0
-660 -765 0
-136 -856 0
-137 -857 0
-138 -858 0
-139 -859 0
-140 -860 0
-141 -861 0
-142 -862 0
-143 -863 0
-144 -864 0
-145 -865 0
-146 -866 0
-147 -867 0
-148 -868 0
-149 -869 0
-150 -870 0
-31 -271 0
-32 -272 0
-33 -273 0
-34 -274 0
-35 -275 0
-36 -276 0
-37 -277 0
-38 -278 0
-39 -279 0
-40 -280 0
-41 -281 0
-42 -282 0
-43 -283 0
-44 -284 0
-45 -285 0
-316 -466 0
-317 -467 0
-318 -468 0
-319 -469 0
-320 -470 0
-321 -471 0
-322 -472 0
-323 -473 0
-324 -474 0
-325 -475 0
-326 -476 0
-327 -477 0
-328 -478 0
-329 -479 0
-330 -480 0
-196 -406 0
-197 -407 0
-198 -408 0
-199 -409 0
-200 -410 0
-201 -411 0
-202 -412 0
-203 -413 0
-204 -414 0
-205 -415 0
-206 -416 0
-207 -417 0
-208 -418 0
-209 -419 0
-210 -420 0
-691 -901 0
-692 -902 0
-693 -903 0
-694 -904 0
-695 -905 0
-696 -906 0
-697 -907 0
-698 -908 0
-699 -909 0
-700 -910 0
-701 -911 0
-702 -912 0
-703 -913 0
-704 -914 0
-705 -915 0
-586 -316 0
-587 -317 0
-588 -318 0
-589 -319 0
-590 -320 0
-591 -321 0
-592 -322 0
-593 -323 0
-594 -324 0
-595 -325 0
-596 -326 0
-597 -327 0
-598 -328 0
-599 -329 0
-600 -330 0
-76 -421 0
-77 -422 0
-78 -423 0
-79 -424 0
-80 -425 0
-81 -426 0
-82 -427 0
-83 -428 0
-84 -429 0
-85 -430 0
-86 -431 0
-87 -432 0
-88 -433 0
-89 -434 0
-90 -435 0
-301 -661 0
-302 -662 0
-303 -663 0
-304 -664 0
-305 -665 0
-306 -666 0
-307 -667 0
-308 -668 0
-309 -669 0
-310 -670 0
-311 -671 0
-312 -672 0
-313 -673 0
-314 -674 0
-315 -675 0
-601 -331 0
-602 -332 0
-603 -333 0
-604 -334 0
-605 -335 0
-606 -336 0
-607 -337 0
-608 -338 0
-609 -339 0
-610 -340 0
-611 -341 0
-612 -342 0
-613 -343 0
-614 -344 0
-615 -345 0
-646 -406 0
-647 -407 0
-648 -408 0
-649 -409 0
-650 -410 0
-651 -411 0
-652 -412 0
-653 -413 0
-654 -414 0
-655 -415 0
-656 -416 0
-657 -417 0
-658 -418 0
-659 -419 0
-660 -420 0
-136 -511 0
-137 -512 0
-138 -513 0
-139 -514 0
-140 -515 0
-141 -516 0
-142 -517 0
-143 -518 0
-144 -519 0
-145 -520 0
-146 -521 0
-147 -522 0
-148 -523 0
-149 -524 0
-150 -525 0
-16 -451 0
-17 -452 0
-18 -453 0
-19 -454 0
-20 -455 0
-21 -456 0
-22 -457 0
-23 -458 0
-24 -459 0
-25 -460 0
-26 -461 0
-27 -462 0
-28 -463 0
-29 -464 0
-30 -465 0
-181 -676 0
-182 -677 0
-183 -678 0
-184 -679 0
-185 -680 0
-186 -681 0
-187 -682 0
-188 -683 0
-189 -684 0
-190 -685 0
-191 -686 0
-192 -687 0
-193 -688 0
-194 -689 0
-195 -690 0
-871 -181 0
-872 -182 0
-873 -183 0
-874 -184 0
-875 -185 0
-876 -186 0
-877 -187 0
-878 -188 0
-879 -189 0
-880 -190 0
-881 -191 0
-882 -192 0
-883 -193 0
-884 -194 0
-885 -195 0
-226 -751 0
-227 -752 0
-228 -753 0
-229 -754 0
-230 -755 0
-231 -756 0
-232 -757 0
-233 -758 0
-234 -759 0
-235 -760 0
-236 -761 0
-237 -762 0
-238 -763 0
-239 -764 0
-240 -765 0
-811 -616 0
-812 -617 0
-813 -618 0
-814 -619 0
-815 -620 0
-816 -621 0
-817 -622 0
-818 -623 0
-819 -624 0
-820 -625 0
-821 -626 0
-822 -627 0
-823 -628 0
-824 -629 0
-825 -630 0
-871 -721 0
-872 -722 0
-873 -723 0
-874 -724 0
-875 -725 0
-876 -726 0
-877 -727 0
-878 -728 0
-879 -729 0
-880 -730 0
-881 -731 0
-882 -732 0
-883 -733 0
-884 -734 0
-885 -735 0
-61 -601 0
-62 -602 0
-63 -603 0
-64 -604 0
-65 -605 0
-66 -606 0
-67 -607 0
-68 -608 0
-69 -609 0
-70 -610 0
-71 -611 0
-72 -612 0
-73 -613 0
-74 -614 0
-75 -615 0
-121 -706 0
-122 -707 0
-123 -708 0
-124 -709 0
-125 -710 0
-126 -711 0
-127 -712 0
-128 -713 0
-129 -714 0
-130 -715 0
-131 -716 0
-132 -717 0
-133 -718 0
-134 -719 0
-135 -720 0
-406 -901 0
-407 -902 0
-408 -903 0
-409 -904 0
-410 -905 0
-411 -906 0
-412 -907 0
-413 -908 0
-414 -909 0
-415 -910 0
-416 -911 0
-417 -912 0
-418 -913 0
-419 -914 0
-420 -915 0
-301 -316 0
-302 -317 0
-303 -318 0
-304 -319 0
-305 -320 0
-306 -321 0
-307 -322 0
-308 -323 0
-309 -324 0
-310 -325 0
-311 -326 0
-312 -327 0
-313 -328 0
-314 -329 0
-315 -330 0
-586 -511 0
-587 -512 0
-588 -513 0
-589 -514 0
-590 -515 0
-591 -516 0
-592 -517 0
-593 -518 0
-594 -519 0
-595 -520 0
-596 -521 0
-597 -522 0
-598 -523 0
-599 -524 0
-600 -525 0
-766 -121 0
-767 -122 0
-768 -123 0
-769 -124 0
-770 -125 0
-771 -126 0
-772 -127 0
-773 -128 0
-774 -129 0
-775 -130 0
-776 -131 0
-777 -132 0
-778 -133 0
-779 -134 0
-780 -135 0
-646 -61 0
-647 -62 0
-648 -63 0
-649 -64 0
-650 -65 0
-651 -66 0
-652 -67 0
-653 -68 0
-654 -69 0
-655 -70 0
-656 -71 0
-657 -72 0
-658 -73 0
-659 -74 0
-660 -75 0
-136 -166 0
-137 -167 0
-138 -168 0
-139 -169 0
-140 -170 0
-141 -171 0
-142 -172 0
-143 -173 0
-144 -174 0
-145 -175 0
-146 -176 0
-147 -177 0
-148 -178 0
-149 -179 0
-150 -180 0
-16 -106 0
-17 -107 0
-18 -108 0
-19 -109 0
-20 -110 0
-21 -111 0
-22 -112 0
-23 -113 0
-24 -114 0
-25 -115 0
-26 -116 0
-27 -117 0
-28 -118 0
-29 -119 0
-30 -120 0
-361 -406 0
-362 -407 0
-363 -408 0
-364 -409 0
-365 -410 0
-366 -411 0
-367 -412 0
-368 -413 0
-369 -414 0
-370 -415 0
-371 -416 0
-372 -417 0
-373 -418 0
-374 -419 0
-375 -420 0
-286 -916 0
-287 -917 0
-288 -918 0
-289 -919 0
-290 -920 0
-291 -921 0
-292 -922 0
-293 -923 0
-294 -924 0
-295 -925 0
-296 -926 0
-297 -927 0
-298 -928 0
-299 -929 0
-300 -930 0
-166 -856 0
-167 -857 0
-168 -858 0
-169 -859 0
-170 -860 0
-171 -861 0
-172 -862 0
-173 -863 0
-174 -864 0
-175 -865 0
-176 -866 0
-177 -867 0
-178 -868 0
-179 -869 0
-180 -870 0
-466 -526 0
-467 -527 0
-468 -528 0
-469 -529 0
-470 -530 0
-471 -531 0
-472 -532 0
-473 -533 0
-474 -534 0
-475 -535 0
-476 -536 0
-477 -537 0
-478 -538 0
-479 -539 0
-480 -540 0
-346 -466 0
-347 -467 0
-348 -468 0
-349 -469 0
-350 -470 0
-351 -471 0
-352 -472 0
-353 -473 0
-354 -474 0
-355 -475 0
-356 -476 0
-357 -477 0
-358 -478 0
-359 -479 0
-360 -480 0
-31 -121 0
-32 -122 0
-33 -123 0
-34 -124 0
-35 -125 0
-36 -126 0
-37 -127 0
-38 -128 0
-39 -129 0
-40 -130 0
-41 -131 0
-42 -132 0
-43 -133 0
-44 -134 0
-45 -135 0
-631 -661 0
-632 -662 0
-633 -663 0
-634 -664 0
-635 -665 0
-636 -666 0
-637 -667 0
-638 -668 0
-639 -669 0
-640 -670 0
-641 -671 0
-642 -672 0
-643 -673 0
-644 -674 0
-645 -675 0
-196 -256 0
-197 -257 0
-198 -258 0
-199 -259 0
-200 -260 0
-201 -261 0
-202 -262 0
-203 -263 0
-204 -264 0
-205 -265 0
-206 -266 0
-207 -267 0
-208 -268 0
-209 -269 0
-210 -270 0
-811 -271 0
-812 -272 0
-813 -273 0
-814 -274 0
-815 -275 0
-816 -276 0
-817 -277 0
-818 -278 0
-819 -279 0
-820 -280 0
-821 -281 0
-822 -282 0
-823 -283 0
-824 -284 0
-825 -285 0
-691 -211 0
-692 -212 0
-693 -213 0
-694 -214 0
-695 -215 0
-696 -216 0
-697 -217 0
-698 -218 0
-699 -219 0
-700 -220 0
-701 -221 0
-702 -222 0
-703 -223 0
-704 -224 0
-705 -225 0
-241 -421 0
-242 -422 0
-243 -423 0
-244 -424 0
-245 -425 0
-246 -426 0
-247 -427 0
-248 -428 0
-249 -429 0
-250 -430 0
-251 -431 0
-252 -432 0
-253 -433 0
-254 -434 0
-255 -435 0
-526 -616 0
-527 -617 0
-528 -618 0
-529 -619 0
-530 -620 0
-531 -621 0
-532 -622 0
-533 -623 0
-534 -624 0
-535 -625 0
-536 -626 0
-537 -627 0
-538 -628 0
-539 -629 0
-540 -630 0
-121 -361 0
-122 -362 0
-123 -363 0
-124 -364 0
-125 -365 0
-126 -366 0
-127 -367 0
-128 -368 0
-129 -369 0
-130 -370 0
-131 -371 0
-132 -372 0
-133 -373 0
-134 -374 0
-135 -375 0
-406 -556 0
-407 -557 0
-408 -558 0
-409 -559 0
-410 -560 0
-411 -561 0
-412 -562 0
-413 -563 0
-414 -564 0
-415 -565 0
-416 -566 0
-417 -567 0
-418 -568 0
-419 -569 0
-420 -570 0
-691 -751 0
-692 -752 0
-693 -753 0
-694 -754 0
-695 -755 0
-696 -756 0
-697 -757 0
-698 -758 0
-699 -759 0
-700 -760 0
-701 -761 0
-702 -762 0
-703 -763 0
-704 -764 0
-705 -765 0
-706 -226 0
-707 -227 0
-708 -228 0
-709 -229 0
-710 -230 0
-711 -231 0
-712 -232 0
-713 -233 0
-714 -234 0
-715 -235 0
-716 -236 0
-717 -237 0
-718 -238 0
-719 -239 0
-720 -240 0
-586 -166 0
-587 -167 0
-588 -168 0
-589 -169 0
-590 -170 0
-591 -171 0
-592 -172 0
-593 -173 0
-594 -174 0
-595 -175 0
-596 -176 0
-597 -177 0
-598 -178 0
-599 -179 0
-600 -180 0
-61 -796 0
-62 -797 0
-63 -798 0
-64 -799 0
-65 -800 0
-66 -801 0
-67 -802 0
-68 -803 0
-69 -804 0
-70 -805 0
-71 -806 0
-72 -807 0
-73 -808 0
-74 -809 0
-75 -810 0
-76 -271 0
-77 -272 0
-78 -273 0
-79 -274 0
-80 -275 0
-81 -276 0
-82 -277 0
-83 -278 0
-84 -279 0
-85 -280 0
-86 -281 0
-87 -282 0
-88 -283 0
-89 -284 0
-90 -285 0
-121 -901 0
-122 -902 0
-123 -903 0
-124 -904 0
-125 -905 0
-126 -906 0
-127 -907 0
-128 -908 0
-129 -909 0
-130 -910 0
-131 -911 0
-132 -912 0
-133 -913 0
-134 -914 0
-135 -915 0
-301 -511 0
-302 -512 0
-303 -513 0
-304 -514 0
-305 -515 0
-306 -516 0
-307 -517 0
-308 -518 0
-309 -519 0
-310 -520 0
-311 -521 0
-312 -522 0
-313 -523 0
-314 -524 0
-315 -525 0
-136 -361 0
-137 -362 0
-138 -363 0
-139 -364 0
-140 -365 0
-141 -366 0
-142 -367 0
-143 -368 0
-144 -369 0
-145 -370 0
-146 -371 0
-147 -372 0
-148 -373 0
-149 -374 0
-150 -375 0
-16 -301 0
-17 -302 0
-18 -303 0
-19 -304 0
-20 -305 0
-21 -306 0
-22 -307 0
-23 -308 0
-24 -309 0
-25 -310 0
-26 -311 0
-27 -312 0
-28 -313 0
-29 -314 0
-30 -315 0
-181 -526 0
-182 -527 0
-183 -528 0
-184 -529 0
-185 -530 0
-186 -531 0
-187 -532 0
-188 -533 0
-189 -534 0
-190 -535 0
-191 -536 0
-192 -537 0
-193 -538 0
-194 -539 0
-195 -540 0
-346 -661 0
-347 -662 0
-348 -663 0
-349 -664 0
-350 -665 0
-351 -666 0
-352 -667 0
-353 -668 0
-354 -669 0
-355 -670 0
-356 -671 0
-357 -672 0
-358 -673 0
-359 -674 0
-360 -675 0
-226 -601 0
-227 -602 0
-228 -603 0
-229 -604 0
-230 -605 0
-231 -606 0
-232 -607 0
-233 -608 0
-234 -609 0
-235 -610 0
-236 -611 0
-237 -612 0
-238 -613 0
-239 -614 0
-240 -615 0
-691 -406 0
-692 -407 0
-693 -408 0
-694 -409 0
-695 -410 0
-696 -411 0
-697 -412 0
-698 -413 0
-699 -414 0
-700 -415 0
-701 -416 0
-702 -417 0
-703 -418 0
-704 -419 0
-705 -420 0
-61 -451 0
-62 -452 0
-63 -453 0
-64 -454 0
-65 -455 0
-66 -456 0
-67 -457 0
-68 -458 0
-69 -459 0
-70 -460 0
-71 -461 0
-72 -462 0
-73 -463 0
-74 -464 0
-75 -465 0
-856 -631 0
-857 -632 0
-858 -633 0
-859 -634 0
-860 -635 0
-861 -636 0
-862 -637 0
-863 -638 0
-864 -639 0
-865 -640 0
-866 -641 0
-867 -642 0
-868 -643 0
-869 -644 0
-870 -645 0
-121 -556 0
-122 -557 0
-123 -558 0
-124 -559 0
-125 -560 0
-126 -561 0
-127 -562 0
-128 -563 0
-129 -564 0
-130 -565 0
-131 -566 0
-132 -567 0
-133 -568 0
-134 -569 0
-135 -570 0
-901 -706 0
-902 -707 0
-903 -708 0
-904 -709 0
-905 -710 0
-906 -711 0
-907 -712 0
-908 -713 0
-909 -714 0
-910 -715 0
-911 -716 0
-912 -717 0
-913 -718 0
-914 -719 0
-915 -720 0
-586 -361 0
-587 -362 0
-588 -363 0
-589 -364 0
-590 -365 0
-591 -366 0
-592 -367 0
-593 -368 0
-594 -369 0
-595 -370 0
-596 -371 0
-597 -372 0
-598 -373 0
-599 -374 0
-600 -375 0
-76 -466 0
-77 -467 0
-78 -468 0
-79 -469 0
-80 -470 0
-81 -471 0
-82 -472 0
-83 -473 0
-84 -474 0
-85 -475 0
-86 -476 0
-87 -477 0
-88 -478 0
-89 -479 0
-90 -480 0
-571 -421 0
-572 -422 0
-573 -423 0
-574 -424 0
-575 -425 0
-576 -426 0
-577 -427 0
-578 -428 0
-579 -429 0
-580 -430 0
-581 -431 0
-582 -432 0
-583 -433 0
-584 -434 0
-585 -435 0
-916 -721 0
-917 -722 0
-918 -723 0
-919 -724 0
-920 -725 0
-921 -726 0
-922 -727 0
-923 -728 0
-924 -729 0
-925 -730 0
-926 -731 0
-927 -732 0
-928 -733 0
-929 -734 0
-930 -735 0
-796 -661 0
-797 -662 0
-798 -663 0
-799 -664 0
-800 -665 0
-801 -666 0
-802 -667 0
-803 -668 0
-804 -669 0
-805 -670 0
-806 -671 0
-807 -672 0
-808 -673 0
-809 -674 0
-810 -675 0
-166 -706 0
-167 -707 0
-168 -708 0
-169 -709 0
-170 -710 0
-171 -711 0
-172 -712 0
-173 -713 0
-174 -714 0
-175 -715 0
-176 -716 0
-177 -717 0
-178 -718 0
-179 -719 0
-180 -720 0
-331 -841 0
-332 -842 0
-333 -843 0
-334 -844 0
-335 -845 0
-336 -846 0
-337 -847 0
-338 -848 0
-339 -849 0
-340 -850 0
-341 -851 0
-342 -852 0
-343 -853 0
-344 -854 0
-345 -855 0
-631 -511 0
-632 -512 0
-633 -513 0
-634 -514 0
-635 -515 0
-636 -516 0
-637 -517 0
-638 -518 0
-639 -519 0
-640 -520 0
-641 -521 0
-642 -522 0
-643 -523 0
-644 -524 0
-645 -525 0
-226 -256 0
-227 -257 0
-228 -258 0
-229 -259 0
-230 -260 0
-231 -261 0
-232 -262 0
-233 -263 0
-234 -264 0
-235 -265 0
-236 -266 0
-237 -267 0
-238 -268 0
-239 -269 0
-240 -270 0
-811 -121 0
-812 -122 0
-813 -123 0
-814 -124 0
-815 -125 0
-816 -126 0
-817 -127 0
-818 -128 0
-819 -129 0
-820 -130 0
-821 -131 0
-822 -132 0
-823 -133 0
-824 -134 0
-825 -135 0
-1 -556 0
-2 -557 0
-3 -558 0
-4 -559 0
-5 -560 0
-6 -561 0
-7 -562 0
-8 -563 0
-9 -564 0
-10 -565 0
-11 -566 0
-12 -567 0
-13 -568 0
-14 -569 0
-15 -570 0
-691 -61 0
-692 -62 0
-693 -63 0
-694 -64 0
-695 -65 0
-696 -66 0
-697 -67 0
-698 -68 0
-699 -69 0
-700 -70 0
-701 -71 0
-702 -72 0
-703 -73 0
-704 -74 0
-705 -75 0
-181 -721 0
-182 -722 0
-183 -723 0
-184 -724 0
-185 -725 0
-186 -726 0
-187 -727 0
-188 -728 0
-189 -729 0
-190 -730 0
-191 -731 0
-192 -732 0
-193 -733 0
-194 -734 0
-195 -735 0
-871 -226 0
-872 -227 0
-873 -228 0
-874 -229 0
-875 -230 0
-876 -231 0
-877 -232 0
-878 -233 0
-879 -234 0
-880 -235 0
-881 -236 0
-882 -237 0
-883 -238 0
-884 -239 0
-885 -240 0
-61 -106 0
-62 -107 0
-63 -108 0
-64 -109 0
-65 -110 0
-66 -111 0
-67 -112 0
-68 -113 0
-69 -114 0
-70 -115 0
-71 -116 0
-72 -117 0
-73 -118 0
-74 -119 0
-75 -120 0
-226 -796 0
-227 -797 0
-228 -798 0
-229 -799 0
-230 -800 0
-231 -801 0
-232 -802 0
-233 -803 0
-234 -804 0
-235 -805 0
-236 -806 0
-237 -807 0
-238 -808 0
-239 -809 0
-240 -810 0
-241 -271 0
-242 -272 0
-243 -273 0
-244 -274 0
-245 -275 0
-246 -276 0
-247 -277 0
-248 -278 0
-249 -279 0
-250 -280 0
-251 -281 0
-252 -282 0
-253 -283 0
-254 -284 0
-255 -285 0
-121 -211 0
-122 -212 0
-123 -213 0
-124 -214 0
-125 -215 0
-126 -216 0
-127 -217 0
-128 -218 0
-129 -219 0
-130 -220 0
-131 -221 0
-132 -222 0
-133 -223 0
-134 -224 0
-135 -225 0
-721 -751 0
-722 -752 0
-723 -753 0
-724 -754 0
-725 -755 0
-726 -756 0
-727 -757 0
-728 -758 0
-729 -759 0
-730 -760 0
-731 -761 0
-732 -762 0
-733 -763 0
-734 -764 0
-735 -765 0
-76 -121 0
-77 -122 0
-78 -123 0
-79 -124 0
-80 -125 0
-81 -126 0
-82 -127 0
-83 -128 0
-84 -129 0
-85 -130 0
-86 -131 0
-87 -132 0
-88 -133 0
-89 -134 0
-90 -135 0
-286 -421 0
-287 -422 0
-288 -423 0
-289 -424 0
-290 -425 0
-291 -426 0
-292 -427 0
-293 -428 0
-294 -429 0
-295 -430 0
-296 -431 0
-297 -432 0
-298 -433 0
-299 -434 0
-300 -435 0
-151 -886 0
-152 -887 0
-153 -888 0
-154 -889 0
-155 -890 0
-156 -891 0
-157 -892 0
-158 -893 0
-159 -894 0
-160 -895 0
-161 -896 0
-162 -897 0
-163 -898 0
-164 -899 0
-165 -900 0
-166 -361 0
-167 -362 0
-168 -363 0
-169 -364 0
-170 -365 0
-171 -366 0
-172 -367 0
-173 -368 0
-174 -369 0
-175 -370 0
-176 -371 0
-177 -372 0
-178 -373 0
-179 -374 0
-180 -375 0
-451 -556 0
-452 -557 0
-453 -558 0
-454 -559 0
-455 -560 0
-456 -561 0
-457 -562 0
-458 -563 0
-459 -564 0
-460 -565 0
-461 -566 0
-462 -567 0
-463 -568 0
-464 -569 0
-465 -570 0
-331 -496 0
-332 -497 0
-333 -498 0
-334 -499 0
-335 -500 0
-336 -501 0
-337 -502 0
-338 -503 0
-339 -504 0
-340 -505 0
-341 -506 0
-342 -507 0
-343 -508 0
-344 -509 0
-345 -510 0
-16 -151 0
-17 -152 0
-18 -153 0
-19 -154 0
-20 -155 0
-21 -156 0
-22 -157 0
-23 -158 0
-24 -159 0
-25 -160 0
-26 -161 0
-27 -162 0
-28 -163 0
-29 -164 0
-30 -165 0
-631 -166 0
-632 -167 0
-633 -168 0
-634 -169 0
-635 -170 0
-636 -171 0
-637 -172 0
-638 -173 0
-639 -174 0
-640 -175 0
-641 -176 0
-642 -177 0
-643 -178 0
-644 -179 0
-645 -180 0
-1 -211 0
-2 -212 0
-3 -213 0
-4 -214 0
-5 -215 0
-6 -216 0
-7 -217 0
-8 -218 0
-9 -219 0
-10 -220 0
-11 -221 0
-12 -222 0
-13 -223 0
-14 -224 0
-15 -225 0
-181 -376 0
-182 -377 0
-183 -378 0
-184 -379 0
-185 -380 0
-186 -381 0
-187 -382 0
-188 -383 0
-189 -384 0
-190 -385 0
-191 -386 0
-192 -387 0
-193 -388 0
-194 -389 0
-195 -390 0
-46 -841 0
-47 -842 0
-48 -843 0
-49 -844 0
-50 -845 0
-51 -846 0
-52 -847 0
-53 -848 0
-54 -849 0
-55 -850 0
-56 -851 0
-57 -852 0
-58 -853 0
-59 -854 0
-60 -855 0
-346 -511 0
-347 -512 0
-348 -513 0
-349 -514 0
-350 -515 0
-351 -516 0
-352 -517 0
-353 -518 0
-354 -519 0
-355 -520 0
-356 -521 0
-357 -522 0
-358 -523 0
-359 -524 0
-360 -525 0
-226 -451 0
-227 -452 0
-228 -453 0
-229 -454 0
-230 -455 0
-231 -456 0
-232 -457 0
-233 -458 0
-234 -459 0
-235 -460 0
-236 -461 0
-237 -462 0
-238 -463 0
-239 -464 0
-240 -465 0
-61 -301 0
-62 -302 0
-63 -303 0
-64 -304 0
-65 -305 0
-66 -306 0
-67 -307 0
-68 -308 0
-69 -309 0
-70 -310 0
-71 -311 0
-72 -312 0
-73 -313 0
-74 -314 0
-75 -315 0
-121 -406 0
-122 -407 0
-123 -408 0
-124 -409 0
-125 -410 0
-126 -411 0
-127 -412 0
-128 -413 0
-129 -414 0
-130 -415 0
-131 -416 0
-132 -417 0
-133 -418 0
-134 -419 0
-135 -420 0
-106 -466 0
-107 -467 0
-108 -468 0
-109 -469 0
-110 -470 0
-111 -471 0
-112 -472 0
-113 -473 0
-114 -474 0
-115 -475 0
-116 -476 0
-117 -477 0
-118 -478 0
-119 -479 0
-120 -480 0
-391 -661 0
-392 -662 0
-393 -663 0
-394 -664 0
-395 -665 0
-396 -666 0
-397 -667 0
-398 -668 0
-399 -669 0
-400 -670 0
-401 -671 0
-402 -672 0
-403 -673 0
-404 -674 0
-405 -675 0
-271 -601 0
-272 -602 0
-273 -603 0
-274 -604 0
-275 -605 0
-276 -606 0
-277 -607 0
-278 -608 0
-279 -609 0
-280 -610 0
-281 -611 0
-282 -612 0
-283 -613 0
-284 -614 0
-285 -615 0
-151 -541 0
-152 -542 0
-153 -543 0
-154 -544 0
-155 -545 0
-156 -546 0
-157 -547 0
-158 -548 0
-159 -549 0
-160 -550 0
-161 -551 0
-162 -552 0
-163 -553 0
-164 -554 0
-165 -555 0
-571 -271 0
-572 -272 0
-573 -273 0
-574 -274 0
-575 -275 0
-576 -276 0
-577 -277 0
-578 -278 0
-579 -279 0
-580 -280 0
-581 -281 0
-582 -282 0
-583 -283 0
-584 -284 0
-585 -285 0
-436 -736 0
-437 -737 0
-438 -738 0
-439 -739 0
-440 -740 0
-441 -741 0
-442 -742 0
-443 -743 0
-444 -744 0
-445 -745 0
-446 -746 0
-447 -747 0
-448 -748 0
-449 -749 0
-450 -750 0
-796 -511 0
-797 -512 0
-798 -513 0
-799 -514 0
-800 -515 0
-801 -516 0
-802 -517 0
-803 -518 0
-804 -519 0
-805 -520 0
-806 -521 0
-807 -522 0
-808 -523 0
-809 -524 0
-810 -525 0
-286 -616 0
-287 -617 0
-288 -618 0
-289 -619 0
-290 -620 0
-291 -621 0
-292 -622 0
-293 -623 0
-294 -624 0
-295 -625 0
-296 -626 0
-297 -627 0
-298 -628 0
-299 -629 0
-300 -630 0
-166 -556 0
-167 -557 0
-168 -558 0
-169 -559 0
-170 -560 0
-171 -561 0
-172 -562 0
-173 -563 0
-174 -564 0
-175 -565 0
-176 -566 0
-177 -567 0
-178 -568 0
-179 -569 0
-180 -570 0
-451 -751 0
-452 -752 0
-453 -753 0
-454 -754 0
-455 -755 0
-456 -756 0
-457 -757 0
-458 -758 0
-459 -759 0
-460 -760 0
-461 -761 0
-462 -762 0
-463 -763 0
-464 -764 0
-465 -765 0
-46 -496 0
-47 -497 0
-48 -498 0
-49 -499 0
-50 -500 0
-51 -501 0
-52 -502 0
-53 -503 0
-54 -504 0
-55 -505 0
-56 -506 0
-57 -507 0
-58 -508 0
-59 -509 0
-60 -510 0
-1 -406 0
-2 -407 0
-3 -408 0
-4 -409 0
-5 -410 0
-6 -411 0
-7 -412 0
-8 -413 0
-9 -414 0
-10 -415 0
-11 -416 0
-12 -417 0
-13 -418 0
-14 -419 0
-15 -420 0
-841 -661 0
-842 -662 0
-843 -663 0
-844 -664 0
-845 -665 0
-846 -666 0
-847 -667 0
-848 -668 0
-849 -669 0
-850 -670 0
-851 -671 0
-852 -672 0
-853 -673 0
-854 -674 0
-855 -675 0
-901 -211 0
-902 -212 0
-903 -213 0
-904 -214 0
-905 -215 0
-906 -216 0
-907 -217 0
-908 -218 0
-909 -219 0
-910 -220 0
-911 -221 0
-912 -222 0
-913 -223 0
-914 -224 0
-915 -225 0
-856 -676 0
-857 -677 0
-858 -678 0
-859 -679 0
-860 -680 0
-861 -681 0
-862 -682 0
-863 -683 0
-864 -684 0
-865 -685 0
-866 -686 0
-867 -687 0
-868 -688 0
-869 -689 0
-870 -690 0
-736 -616 0
-737 -617 0
-738 -618 0
-739 -619 0
-740 -620 0
-741 -621 0
-742 -622 0
-743 -623 0
-744 -624 0
-745 -625 0
-746 -626 0
-747 -627 0
-748 -628 0
-749 -629 0
-750 -630 0
-901 -751 0
-902 -752 0
-903 -753 0
-904 -754 0
-905 -755 0
-906 -756 0
-907 -757 0
-908 -758 0
-909 -759 0
-910 -760 0
-911 -761 0
-912 -762 0
-913 -763 0
-914 -764 0
-915 -765 0
-271 -796 0
-272 -797 0
-273 -798 0
-274 -799 0
-275 -800 0
-276 -801 0
-277 -802 0
-278 -803 0
-279 -804 0
-280 -805 0
-281 -806 0
-282 -807 0
-283 -808 0
-284 -809 0
-285 -810 0
-571 -466 0
-572 -467 0
-573 -468 0
-574 -469 0
-575 -470 0
-576 -471 0
-577 -472 0
-578 -473 0
-579 -474 0
-580 -475 0
-581 -476 0
-582 -477 0
-583 -478 0
-584 -479 0
-585 -480 0
-166 -211 0
-167 -212 0
-168 -213 0
-169 -214 0
-170 -215 0
-171 -216 0
-172 -217 0
-173 -218 0
-174 -219 0
-175 -220 0
-176 -221 0
-177 -222 0
-178 -223 0
-179 -224 0
-180 -225 0
-151 -736 0
-152 -737 0
-153 -738 0
-154 -739 0
-155 -740 0
-156 -741 0
-157 -742 0
-158 -743 0
-159 -744 0
-160 -745 0
-161 -746 0
-162 -747 0
-163 -748 0
-164 -749 0
-165 -750 0
-436 -931 0
-437 -932 0
-438 -933 0
-439 -934 0
-440 -935 0
-441 -936 0
-442 -937 0
-443 -938 0
-444 -939 0
-445 -940 0
-446 -941 0
-447 -942 0
-448 -943 0
-449 -944 0
-450 -945 0
-46 -151 0
-47 -152 0
-48 -153 0
-49 -154 0
-50 -155 0
-51 -156 0
-52 -157 0
-53 -158 0
-54 -159 0
-55 -160 0
-56 -161 0
-57 -162 0
-58 -163 0
-59 -164 0
-60 -165 0
-331 -346 0
-332 -347 0
-333 -348 0
-334 -349 0
-335 -350 0
-336 -351 0
-337 -352 0
-338 -353 0
-339 -354 0
-340 -355 0
-341 -356 0
-342 -357 0
-343 -358 0
-344 -359 0
-345 -360 0
-1 -61 0
-2 -62 0
-3 -63 0
-4 -64 0
-5 -65 0
-6 -66 0
-7 -67 0
-8 -68 0
-9 -69 0
-10 -70 0
-11 -71 0
-12 -72 0
-13 -73 0
-14 -74 0
-15 -75 0
-181 -226 0
-182 -227 0
-183 -228 0
-184 -229 0
-185 -230 0
-186 -231 0
-187 -232 0
-188 -233 0
-189 -234 0
-190 -235 0
-191 -236 0
-192 -237 0
-193 -238 0
-194 -239 0
-195 -240 0
-346 -361 0
-347 -362 0
-348 -363 0
-349 -364 0
-350 -365 0
-351 -366 0
-352 -367 0
-353 -368 0
-354 -369 0
-355 -370 0
-356 -371 0
-357 -372 0
-358 -373 0
-359 -374 0
-360 -375 0
-226 -301 0
-227 -302 0
-228 -303 0
-229 -304 0
-230 -305 0
-231 -306 0
-232 -307 0
-233 -308 0
-234 -309 0
-235 -310 0
-236 -311 0
-237 -312 0
-238 -313 0
-239 -314 0
-240 -315 0
-826 -841 0
-827 -842 0
-828 -843 0
-829 -844 0
-830 -845 0
-831 -846 0
-832 -847 0
-833 -848 0
-834 -849 0
-835 -850 0
-836 -851 0
-837 -852 0
-838 -853 0
-839 -854 0
-840 -855 0
-31 -751 0
-32 -752 0
-33 -753 0
-34 -754 0
-35 -755 0
-36 -756 0
-37 -757 0
-38 -758 0
-39 -759 0
-40 -760 0
-41 -761 0
-42 -762 0
-43 -763 0
-44 -764 0
-45 -765 0
-376 -496 0
-377 -497 0
-378 -498 0
-379 -499 0
-380 -500 0
-381 -501 0
-382 -502 0
-383 -503 0
-384 -504 0
-385 -505 0
-386 -506 0
-387 -507 0
-388 -508 0
-389 -509 0
-390 -510 0
-61 -151 0
-62 -152 0
-63 -153 0
-64 -154 0
-65 -155 0
-66 -156 0
-67 -157 0
-68 -158 0
-69 -159 0
-70 -160 0
-71 -161 0
-72 -162 0
-73 -163 0
-74 -164 0
-75 -165 0
-856 -331 0
-857 -332 0
-858 -333 0
-859 -334 0
-860 -335 0
-861 -336 0
-862 -337 0
-863 -338 0
-864 -339 0
-865 -340 0
-866 -341 0
-867 -342 0
-868 -343 0
-869 -344 0
-870 -345 0
-721 -796 0
-722 -797 0
-723 -798 0
-724 -799 0
-725 -800 0
-726 -801 0
-727 -802 0
-728 -803 0
-729 -804 0
-730 -805 0
-731 -806 0
-732 -807 0
-733 -808 0
-734 -809 0
-735 -810 0
-106 -316 0
-107 -317 0
-108 -318 0
-109 -319 0
-110 -320 0
-111 -321 0
-112 -322 0
-113 -323 0
-114 -324 0
-115 -325 0
-116 -326 0
-117 -327 0
-118 -328 0
-119 -329 0
-120 -330 0
-391 -511 0
-392 -512 0
-393 -513 0
-394 -514 0
-395 -515 0
-396 -516 0
-397 -517 0
-398 -518 0
-399 -519 0
-400 -520 0
-401 -521 0
-402 -522 0
-403 -523 0
-404 -524 0
-405 -525 0
-271 -451 0
-272 -452 0
-273 -453 0
-274 -454 0
-275 -455 0
-276 -456 0
-277 -457 0
-278 -458 0
-279 -459 0
-280 -460 0
-281 -461 0
-282 -462 0
-283 -463 0
-284 -464 0
-285 -465 0
-151 -391 0
-152 -392 0
-153 -393 0
-154 -394 0
-155 -395 0
-156 -396 0
-157 -397 0
-158 -398 0
-159 -399 0
-160 -400 0
-161 -401 0
-162 -402 0
-163 -403 0
-164 -404 0
-165 -405 0
-571 -121 0
-572 -122 0
-573 -123 0
-574 -124 0
-575 -125 0
-576 -126 0
-577 -127 0
-578 -128 0
-579 -129 0
-580 -130 0
-581 -131 0
-582 -132 0
-583 -133 0
-584 -134 0
-585 -135 0
-286 -466 0
-287 -467 0
-288 -468 0
-289 -469 0
-290 -470 0
-291 -471 0
-292 -472 0
-293 -473 0
-294 -474 0
-295 -475 0
-296 -476 0
-297 -477 0
-298 -478 0
-299 -479 0
-300 -480 0
-166 -406 0
-167 -407 0
-168 -408 0
-169 -409 0
-170 -410 0
-171 -411 0
-172 -412 0
-173 -413 0
-174 -414 0
-175 -415 0
-176 -416 0
-177 -417 0
-178 -418 0
-179 -419 0
-180 -420 0
-46 -346 0
-47 -347 0
-48 -348 0
-49 -349 0
-50 -350 0
-51 -351 0
-52 -352 0
-53 -353 0
-54 -354 0
-55 -355 0
-56 -356 0
-57 -357 0
-58 -358 0
-59 -359 0
-60 -360 0
-646 -886 0
-647 -887 0
-648 -888 0
-649 -889 0
-650 -890 0
-651 -891 0
-652 -892 0
-653 -893 0
-654 -894 0
-655 -895 0
-656 -896 0
-657 -897 0
-658 -898 0
-659 -899 0
-660 -900 0
-331 -541 0
-332 -542 0
-333 -543 0
-334 -544 0
-335 -545 0
-336 -546 0
-337 -547 0
-338 -548 0
-339 -549 0
-340 -550 0
-341 -551 0
-342 -552 0
-343 -553 0
-344 -554 0
-345 -555 0
-826 -496 0
-827 -497 0
-828 -498 0
-829 -499 0
-830 -500 0
-831 -501 0
-832 -502 0
-833 -503 0
-834 -504 0
-835 -505 0
-836 -506 0
-837 -507 0
-838 -508 0
-839 -509 0
-840 -510 0
-316 -601 0
-317 -602 0
-318 -603 0
-319 -604 0
-320 -605 0
-321 -606 0
-322 -607 0
-323 -608 0
-324 -609 0
-325 -610 0
-326 -611 0
-327 -612 0
-328 -613 0
-329 -614 0
-330 -615 0
-1 -256 0
-2 -257 0
-3 -258 0
-4 -259 0
-5 -260 0
-6 -261 0
-7 -262 0
-8 -263 0
-9 -264 0
-10 -265 0
-11 -266 0
-12 -267 0
-13 -268 0
-14 -269 0
-15 -270 0
-661 -901 0
-662 -902 0
-663 -903 0
-664 -904 0
-665 -905 0
-666 -906 0
-667 -907 0
-668 -908 0
-669 -909 0
-670 -910 0
-671 -911 0
-672 -912 0
-673 -913 0
-674 -914 0
-675 -915 0
-841 -511 0
-842 -512 0
-843 -513 0
-844 -514 0
-845 -515 0
-846 -516 0
-847 -517 0
-848 -518 0
-849 -519 0
-850 -520 0
-851 -521 0
-852 -522 0
-853 -523 0
-854 -524 0
-855 -525 0
-721 -451 0
-722 -452 0
-723 -453 0
-724 -454 0
-725 -455 0
-726 -456 0
-727 -457 0
-728 -458 0
-729 -459 0
-730 -460 0
-731 -461 0
-732 -462 0
-733 -463 0
-734 -464 0
-735 -465 0
-211 -556 0
-212 -557 0
-213 -558 0
-214 -559 0
-215 -560 0
-216 -561 0
-217 -562 0
-218 -563 0
-219 -564 0
-220 -565 0
-221 -566 0
-222 -567 0
-223 -568 0
-224 -569 0
-225 -570 0
-91 -496 0
-92 -497 0
-93 -498 0
-94 -499 0
-95 -500 0
-96 -501 0
-97 -502 0
-98 -503 0
-99 -504 0
-100 -505 0
-101 -506 0
-102 -507 0
-103 -508 0
-104 -509 0
-105 -510 0
-106 -511 0
-107 -512 0
-108 -513 0
-109 -514 0
-110 -515 0
-111 -516 0
-112 -517 0
-113 -518 0
-114 -519 0
-115 -520 0
-116 -521 0
-117 -522 0
-118 -523 0
-119 -524 0
-120 -525 0
-886 -661 0
-887 -662 0
-888 -663 0
-889 -664 0
-890 -665 0
-891 -666 0
-892 -667 0
-893 -668 0
-894 -669 0
-895 -670 0
-896 -671 0
-897 -672 0
-898 -673 0
-899 -674 0
-900 -675 0
-571 -316 0
-572 -317 0
-573 -318 0
-574 -319 0
-575 -320 0
-576 -321 0
-577 -322 0
-578 -323 0
-579 -324 0
-580 -325 0
-581 -326 0
-582 -327 0
-583 -328 0
-584 -329 0
-585 -330 0
-781 -616 0
-782 -617 0
-783 -618 0
-784 -619 0
-785 -620 0
-786 -621 0
-787 -622 0
-788 -623 0
-789 -624 0
-790 -625 0
-791 -626 0
-792 -627 0
-793 -628 0
-794 -629 0
-795 -630 0
-31 -601 0
-32 -602 0
-33 -603 0
-34 -604 0
-35 -605 0
-36 -606 0
-37 -607 0
-38 -608 0
-39 -609 0
-40 -610 0
-41 -611 0
-42 -612 0
-43 -613 0
-44 -614 0
-45 -615 0
-316 -796 0
-317 -797 0
-318 -798 0
-319 -799 0
-320 -800 0
-321 -801 0
-322 -802 0
-323 -803 0
-324 -804 0
-325 -805 0
-326 -806 0
-327 -807 0
-328 -808 0
-329 -809 0
-330 -810 0
-256 -286 0
-257 -287 0
-258 -288 0
-259 -289 0
-260 -290 0
-261 -291 0
-262 -292 0
-263 -293 0
-264 -294 0
-265 -295 0
-266 -296 0
-267 -297 0
-268 -298 0
-269 -299 0
-270 -300 0
-871 -856 0
-872 -857 0
-873 -858 0
-874 -859 0
-875 -860 0
-876 -861 0
-877 -862 0
-878 -863 0
-879 -864 0
-880 -865 0
-881 -866 0
-882 -867 0
-883 -868 0
-884 -869 0
-885 -870 0
-211 -751 0
-212 -752 0
-213 -753 0
-214 -754 0
-215 -755 0
-216 -756 0
-217 -757 0
-218 -758 0
-219 -759 0
-220 -760 0
-221 -761 0
-222 -762 0
-223 -763 0
-224 -764 0
-225 -765 0
-106 -166 0
-107 -167 0
-108 -168 0
-109 -169 0
-110 -170 0
-111 -171 0
-112 -172 0
-113 -173 0
-114 -174 0
-115 -175 0
-116 -176 0
-117 -177 0
-118 -178 0
-119 -179 0
-120 -180 0
-271 -301 0
-272 -302 0
-273 -303 0
-274 -304 0
-275 -305 0
-276 -306 0
-277 -307 0
-278 -308 0
-279 -309 0
-280 -310 0
-281 -311 0
-282 -312 0
-283 -313 0
-284 -314 0
-285 -315 0
-151 -241 0
-152 -242 0
-153 -243 0
-154 -244 0
-155 -245 0
-156 -246 0
-157 -247 0
-158 -248 0
-159 -249 0
-160 -250 0
-161 -251 0
-162 -252 0
-163 -253 0
-164 -254 0
-165 -255 0
-601 -661 0
-602 -662 0
-603 -663 0
-604 -664 0
-605 -665 0
-606 -666 0
-607 -667 0
-608 -668 0
-609 -669 0
-610 -670 0
-611 -671 0
-612 -672 0
-613 -673 0
-614 -674 0
-615 -675 0
-886 -856 0
-887 -857 0
-888 -858 0
-889 -859 0
-890 -860 0
-891 -861 0
-892 -862 0
-893 -863 0
-894 -864 0
-895 -865 0
-896 -866 0
-897 -867 0
-898 -868 0
-899 -869 0
-900 -870 0
-361 -541 0
-362 -542 0
-363 -543 0
-364 -544 0
-365 -545 0
-366 -546 0
-367 -547 0
-368 -548 0
-369 -549 0
-370 -550 0
-371 -551 0
-372 -552 0
-373 -553 0
-374 -554 0
-375 -555 0
-781 -271 0
-782 -272 0
-783 -273 0
-784 -274 0
-785 -275 0
-786 -276 0
-787 -277 0
-788 -278 0
-789 -279 0
-790 -280 0
-791 -281 0
-792 -282 0
-793 -283 0
-794 -284 0
-795 -285 0
-46 -196 0
-47 -197 0
-48 -198 0
-49 -199 0
-50 -200 0
-51 -201 0
-52 -202 0
-53 -203 0
-54 -204 0
-55 -205 0
-56 -206 0
-57 -207 0
-58 -208 0
-59 -209 0
-60 -210 0
-646 -736 0
-647 -737 0
-648 -738 0
-649 -739 0
-650 -740 0
-651 -741 0
-652 -742 0
-653 -743 0
-654 -744 0
-655 -745 0
-656 -746 0
-657 -747 0
-658 -748 0
-659 -749 0
-660 -750 0
-136 -841 0
-137 -842 0
-138 -843 0
-139 -844 0
-140 -845 0
-141 -846 0
-142 -847 0
-143 -848 0
-144 -849 0
-145 -850 0
-146 -851 0
-147 -852 0
-148 -853 0
-149 -854 0
-150 -855 0
-826 -346 0
-827 -347 0
-828 -348 0
-829 -349 0
-830 -350 0
-831 -351 0
-832 -352 0
-833 -353 0
-834 -354 0
-835 -355 0
-836 -356 0
-837 -357 0
-838 -358 0
-839 -359 0
-840 -360 0
-316 -451 0
-317 -452 0
-318 -453 0
-319 -454 0
-320 -455 0
-321 -456 0
-322 -457 0
-323 -458 0
-324 -459 0
-325 -460 0
-326 -461 0
-327 -462 0
-328 -463 0
-329 -464 0
-330 -465 0
-196 -391 0
-197 -392 0
-198 -393 0
-199 -394 0
-200 -395 0
-201 -396 0
-202 -397 0
-203 -398 0
-204 -399 0
-205 -400 0
-206 -401 0
-207 -402 0
-208 -403 0
-209 -404 0
-210 -405 0
-496 -616 0
-497 -617 0
-498 -618 0
-499 -619 0
-500 -620 0
-501 -621 0
-502 -622 0
-503 -623 0
-504 -624 0
-505 -625 0
-506 -626 0
-507 -627 0
-508 -628 0
-509 -629 0
-510 -630 0
-661 -751 0
-662 -752 0
-663 -753 0
-664 -754 0
-665 -755 0
-666 -756 0
-667 -757 0
-668 -758 0
-669 -759 0
-670 -760 0
-671 -761 0
-672 -762 0
-673 -763 0
-674 -764 0
-675 -765 0
-31 -796 0
-32 -797 0
-33 -798 0
-34 -799 0
-35 -800 0
-36 -801 0
-37 -802 0
-38 -803 0
-39 -804 0
-40 -805 0
-41 -806 0
-42 -807 0
-43 -808 0
-44 -809 0
-45 -810 0
-211 -406 0
-212 -407 0
-213 -408 0
-214 -409 0
-215 -410 0
-216 -411 0
-217 -412 0
-218 -413 0
-219 -414 0
-220 -415 0
-221 -416 0
-222 -417 0
-223 -418 0
-224 -419 0
-225 -420 0
-91 -346 0
-92 -347 0
-93 -348 0
-94 -349 0
-95 -350 0
-96 -351 0
-97 -352 0
-98 -353 0
-99 -354 0
-100 -355 0
-101 -356 0
-102 -357 0
-103 -358 0
-104 -359 0
-105 -360 0
-691 -886 0
-692 -887 0
-693 -888 0
-694 -889 0
-695 -890 0
-696 -891 0
-697 -892 0
-698 -893 0
-699 -894 0
-700 -895 0
-701 -896 0
-702 -897 0
-703 -898 0
-704 -899 0
-705 -900 0
-376 -541 0
-377 -542 0
-378 -543 0
-379 -544 0
-380 -545 0
-381 -546 0
-382 -547 0
-383 -548 0
-384 -549 0
-385 -550 0
-386 -551 0
-387 -552 0
-388 -553 0
-389 -554 0
-390 -555 0
-256 -481 0
-257 -482 0
-258 -483 0
-259 -484 0
-260 -485 0
-261 -486 0
-262 -487 0
-263 -488 0
-264 -489 0
-265 -490 0
-266 -491 0
-267 -492 0
-268 -493 0
-269 -494 0
-270 -495 0
-886 -511 0
-887 -512 0
-888 -513 0
-889 -514 0
-890 -515 0
-891 -516 0
-892 -517 0
-893 -518 0
-894 -519 0
-895 -520 0
-896 -521 0
-897 -522 0
-898 -523 0
-899 -524 0
-900 -525 0
-151 -436 0
-152 -437 0
-153 -438 0
-154 -439 0
-155 -440 0
-156 -441 0
-157 -442 0
-158 -443 0
-159 -444 0
-160 -445 0
-161 -446 0
-162 -447 0
-163 -448 0
-164 -449 0
-165 -450 0
-766 -451 0
-767 -452 0
-768 -453 0
-769 -454 0
-770 -455 0
-771 -456 0
-772 -457 0
-773 -458 0
-774 -459 0
-775 -460 0
-776 -461 0
-777 -462 0
-778 -463 0
-779 -464 0
-780 -465 0
-646 -391 0
-647 -392 0
-648 -393 0
-649 -394 0
-650 -395 0
-651 -396 0
-652 -397 0
-653 -398 0
-654 -399 0
-655 -400 0
-656 -401 0
-657 -402 0
-658 -403 0
-659 -404 0
-660 -405 0
-136 -496 0
-137 -497 0
-138 -498 0
-139 -499 0
-140 -500 0
-141 -501 0
-142 -502 0
-143 -503 0
-144 -504 0
-145 -505 0
-146 -506 0
-147 -507 0
-148 -508 0
-149 -509 0
-150 -510 0
-31 -451 0
-32 -452 0
-33 -453 0
-34 -454 0
-35 -455 0
-36 -456 0
-37 -457 0
-38 -458 0
-39 -459 0
-40 -460 0
-41 -461 0
-42 -462 0
-43 -463 0
-44 -464 0
-45 -465 0
-871 -706 0
-872 -707 0
-873 -708 0
-874 -709 0
-875 -710 0
-876 -711 0
-877 -712 0
-878 -713 0
-879 -714 0
-880 -715 0
-881 -716 0
-882 -717 0
-883 -718 0
-884 -719 0
-885 -720 0
-241 -751 0
-242 -752 0
-243 -753 0
-244 -754 0
-245 -755 0
-246 -756 0
-247 -757 0
-248 -758 0
-249 -759 0
-250 -760 0
-251 -761 0
-252 -762 0
-253 -763 0
-254 -764 0
-255 -765 0
-91 -541 0
-92 -542 0
-93 -543 0
-94 -544 0
-95 -545 0
-96 -546 0
-97 -547 0
-98 -548 0
-99 -549 0
-100 -550 0
-101 -551 0
-102 -552 0
-103 -553 0
-104 -554 0
-105 -555 0
-586 -496 0
-587 -497 0
-588 -498 0
-589 -499 0
-590 -500 0
-591 -501 0
-592 -502 0
-593 -503 0
-594 -504 0
-595 -505 0
-596 -506 0
-597 -507 0
-598 -508 0
-599 -509 0
-600 -510 0
-301 -841 0
-302 -842 0
-303 -843 0
-304 -844 0
-305 -845 0
-306 -846 0
-307 -847 0
-308 -848 0
-309 -849 0
-310 -850 0
-311 -851 0
-312 -852 0
-313 -853 0
-314 -854 0
-315 -855 0
-601 -511 0
-602 -512 0
-603 -513 0
-604 -514 0
-605 -515 0
-606 -516 0
-607 -517 0
-608 -518 0
-609 -519 0
-610 -520 0
-611 -521 0
-612 -522 0
-613 -523 0
-614 -524 0
-615 -525 0
-361 -391 0
-362 -392 0
-363 -393 0
-364 -394 0
-365 -395 0
-366 -396 0
-367 -397 0
-368 -398 0
-369 -399 0
-370 -400 0
-371 -401 0
-372 -402 0
-373 -403 0
-374 -404 0
-375 -405 0
-31 -106 0
-32 -107 0
-33 -108 0
-34 -109 0
-35 -110 0
-36 -111 0
-37 -112 0
-38 -113 0
-39 -114 0
-40 -115 0
-41 -116 0
-42 -117 0
-43 -118 0
-44 -119 0
-45 -120 0
-196 -241 0
-197 -242 0
-198 -243 0
-199 -244 0
-200 -245 0
-201 -246 0
-202 -247 0
-203 -248 0
-204 -249 0
-205 -250 0
-206 -251 0
-207 -252 0
-208 -253 0
-209 -254 0
-210 -255 0
-181 -856 0
-182 -857 0
-183 -858 0
-184 -859 0
-185 -860 0
-186 -861 0
-187 -862 0
-188 -863 0
-189 -864 0
-190 -865 0
-191 -866 0
-192 -867 0
-193 -868 0
-194 -869 0
-195 -870 0
-211 -256 0
-212 -257 0
-213 -258 0
-214 -259 0
-215 -260 0
-216 -261 0
-217 -262 0
-218 -263 0
-219 -264 0
-220 -265 0
-221 -266 0
-222 -267 0
-223 -268 0
-224 -269 0
-225 -270 0
-811 -796 0
-812 -797 0
-813 -798 0
-814 -799 0
-815 -800 0
-816 -801 0
-817 -802 0
-818 -803 0
-819 -804 0
-820 -805 0
-821 -806 0
-822 -807 0
-823 -808 0
-824 -809 0
-825 -810 0
-91 -196 0
-92 -197 0
-93 -198 0
-94 -199 0
-95 -200 0
-96 -201 0
-97 -202 0
-98 -203 0
-99 -204 0
-100 -205 0
-101 -206 0
-102 -207 0
-103 -208 0
-104 -209 0
-105 -210 0
-691 -736 0
-692 -737 0
-693 -738 0
-694 -739 0
-695 -740 0
-696 -741 0
-697 -742 0
-698 -743 0
-699 -744 0
-700 -745 0
-701 -746 0
-702 -747 0
-703 -748 0
-704 -749 0
-705 -750 0
-706 -211 0
-707 -212 0
-708 -213 0
-709 -214 0
-710 -215 0
-711 -216 0
-712 -217 0
-713 -218 0
-714 -219 0
-715 -220 0
-716 -221 0
-717 -222 0
-718 -223 0
-719 -224 0
-720 -225 0
-256 -331 0
-257 -332 0
-258 -333 0
-259 -334 0
-260 -335 0
-261 -336 0
-262 -337 0
-263 -338 0
-264 -339 0
-265 -340 0
-266 -341 0
-267 -342 0
-268 -343 0
-269 -344 0
-270 -345 0
-61 -781 0
-62 -782 0
-63 -783 0
-64 -784 0
-65 -785 0
-66 -786 0
-67 -787 0
-68 -788 0
-69 -789 0
-70 -790 0
-71 -791 0
-72 -792 0
-73 -793 0
-74 -794 0
-75 -795 0
-121 -886 0
-122 -887 0
-123 -888 0
-124 -889 0
-125 -890 0
-126 -891 0
-127 -892 0
-128 -893 0
-129 -894 0
-130 -895 0
-131 -896 0
-132 -897 0
-133 -898 0
-134 -899 0
-135 -900 0
-421 -556 0
-422 -557 0
-423 -558 0
-424 -559 0
-425 -560 0
-426 -561 0
-427 -562 0
-428 -563 0
-429 -564 0
-430 -565 0
-431 -566 0
-432 -567 0
-433 -568 0
-434 -569 0
-435 -570 0
-706 -751 0
-707 -752 0
-708 -753 0
-709 -754 0
-710 -755 0
-711 -756 0
-712 -757 0
-713 -758 0
-714 -759 0
-715 -760 0
-716 -761 0
-717 -762 0
-718 -763 0
-719 -764 0
-720 -765 0
-301 -496 0
-302 -497 0
-303 -498 0
-304 -499 0
-305 -500 0
-306 -501 0
-307 -502 0
-308 -503 0
-309 -504 0
-310 -505 0
-311 -506 0
-312 -507 0
-313 -508 0
-314 -509 0
-315 -510 0
-766 -301 0
-767 -302 0
-768 -303 0
-769 -304 0
-770 -305 0
-771 -306 0
-772 -307 0
-773 -308 0
-774 -309 0
-775 -310 0
-776 -311 0
-777 -312 0
-778 -313 0
-779 -314 0
-780 -315 0
-646 -241 0
-647 -242 0
-648 -243 0
-649 -244 0
-650 -245 0
-651 -246 0
-652 -247 0
-653 -248 0
-654 -249 0
-655 -250 0
-656 -251 0
-657 -252 0
-658 -253 0
-659 -254 0
-660 -255 0
-136 -346 0
-137 -347 0
-138 -348 0
-139 -349 0
-140 -350 0
-141 -351 0
-142 -352 0
-143 -353 0
-144 -354 0
-145 -355 0
-146 -356 0
-147 -357 0
-148 -358 0
-149 -359 0
-150 -360 0
-16 -286 0
-17 -287 0
-18 -288 0
-19 -289 0
-20 -290 0
-21 -291 0
-22 -292 0
-23 -293 0
-24 -294 0
-25 -295 0
-26 -296 0
-27 -297 0
-28 -298 0
-29 -299 0
-30 -300 0
-31 -301 0
-32 -302 0
-33 -303 0
-34 -304 0
-35 -305 0
-36 -306 0
-37 -307 0
-38 -308 0
-39 -309 0
-40 -310 0
-41 -311 0
-42 -312 0
-43 -313 0
-44 -314 0
-45 -315 0
-196 -436 0
-197 -437 0
-198 -438 0
-199 -439 0
-200 -440 0
-201 -441 0
-202 -442 0
-203 -443 0
-204 -444 0
-205 -445 0
-206 -446 0
-207 -447 0
-208 -448 0
-209 -449 0
-210 -450 0
-241 -601 0
-242 -602 0
-243 -603 0
-244 -604 0
-245 -605 0
-246 -606 0
-247 -607 0
-248 -608 0
-249 -609 0
-250 -610 0
-251 -611 0
-252 -612 0
-253 -613 0
-254 -614 0
-255 -615 0
-121 -541 0
-122 -542 0
-123 -543 0
-124 -544 0
-125 -545 0
-126 -546 0
-127 -547 0
-128 -548 0
-129 -549 0
-130 -550 0
-131 -551 0
-132 -552 0
-133 -553 0
-134 -554 0
-135 -555 0
-406 -736 0
-407 -737 0
-408 -738 0
-409 -739 0
-410 -740 0
-411 -741 0
-412 -742 0
-413 -743 0
-414 -744 0
-415 -745 0
-416 -746 0
-417 -747 0
-418 -748 0
-419 -749 0
-420 -750 0
-691 -931 0
-692 -932 0
-693 -933 0
-694 -934 0
-695 -935 0
-696 -936 0
-697 -937 0
-698 -938 0
-699 -939 0
-700 -940 0
-701 -941 0
-702 -942 0
-703 -943 0
-704 -944 0
-705 -945 0
-706 -406 0
-707 -407 0
-708 -408 0
-709 -409 0
-710 -410 0
-711 -411 0
-712 -412 0
-713 -413 0
-714 -414 0
-715 -415 0
-716 -416 0
-717 -417 0
-718 -418 0
-719 -419 0
-720 -420 0
-586 -346 0
-587 -347 0
-588 -348 0
-589 -349 0
-590 -350 0
-591 -351 0
-592 -352 0
-593 -353 0
-594 -354 0
-595 -355 0
-596 -356 0
-597 -357 0
-598 -358 0
-599 -359 0
-600 -360 0
-76 -451 0
-77 -452 0
-78 -453 0
-79 -454 0
-80 -455 0
-81 -456 0
-82 -457 0
-83 -458 0
-84 -459 0
-85 -460 0
-86 -461 0
-87 -462 0
-88 -463 0
-89 -464 0
-90 -465 0
-601 -361 0
-602 -362 0
-603 -363 0
-604 -364 0
-605 -365 0
-606 -366 0
-607 -367 0
-608 -368 0
-609 -369 0
-610 -370 0
-611 -371 0
-612 -372 0
-613 -373 0
-614 -374 0
-615 -375 0
-646 -436 0
-647 -437 0
-648 -438 0
-649 -439 0
-650 -440 0
-651 -441 0
-652 -442 0
-653 -443 0
-654 -444 0
-655 -445 0
-656 -446 0
-657 -447 0
-658 -448 0
-659 -449 0
-660 -450 0
-136 -541 0
-137 -542 0
-138 -543 0
-139 -544 0
-140 -545 0
-141 -546 0
-142 -547 0
-143 -548 0
-144 -549 0
-145 -550 0
-146 -551 0
-147 -552 0
-148 -553 0
-149 -554 0
-150 -555 0
-16 -481 0
-17 -482 0
-18 -483 0
-19 -484 0
-20 -485 0
-21 -486 0
-22 -487 0
-23 -488 0
-24 -489 0
-25 -490 0
-26 -491 0
-27 -492 0
-28 -493 0
-29 -494 0
-30 -495 0
-181 -706 0
-182 -707 0
-183 -708 0
-184 -709 0
-185 -710 0
-186 -711 0
-187 -712 0
-188 -713 0
-189 -714 0
-190 -715 0
-191 -716 0
-192 -717 0
-193 -718 0
-194 -719 0
-195 -720 0
-871 -211 0
-872 -212 0
-873 -213 0
-874 -214 0
-875 -215 0
-876 -216 0
-877 -217 0
-878 -218 0
-879 -219 0
-880 -220 0
-881 -221 0
-882 -222 0
-883 -223 0
-884 -224 0
-885 -225 0
-346 -841 0
-347 -842 0
-348 -843 0
-349 -844 0
-350 -845 0
-351 -846 0
-352 -847 0
-353 -848 0
-354 -849 0
-355 -850 0
-356 -851 0
-357 -852 0
-358 -853 0
-359 -854 0
-360 -855 0
-241 -256 0
-242 -257 0
-243 -258 0
-244 -259 0
-245 -260 0
-246 -261 0
-247 -262 0
-248 -263 0
-249 -264 0
-250 -265 0
-251 -266 0
-252 -267 0
-253 -268 0
-254 -269 0
-255 -270 0
-691 -586 0
-692 -587 0
-693 -588 0
-694 -589 0
-695 -590 0
-696 -591 0
-697 -592 0
-698 -593 0
-699 -594 0
-700 -595 0
-701 -596 0
-702 -597 0
-703 -598 0
-704 -599 0
-705 -600 0
-76 -106 0
-77 -107 0
-78 -108 0
-79 -109 0
-80 -110 0
-81 -111 0
-82 -112 0
-83 -113 0
-84 -114 0
-85 -115 0
-86 -116 0
-87 -117 0
-88 -118 0
-89 -119 0
-90 -120 0
-241 -796 0
-242 -797 0
-243 -798 0
-244 -799 0
-245 -800 0
-246 -801 0
-247 -802 0
-248 -803 0
-249 -804 0
-250 -805 0
-251 -806 0
-252 -807 0
-253 -808 0
-254 -809 0
-255 -810 0
-121 -736 0
-122 -737 0
-123 -738 0
-124 -739 0
-125 -740 0
-126 -741 0
-127 -742 0
-128 -743 0
-129 -744 0
-130 -745 0
-131 -746 0
-132 -747 0
-133 -748 0
-134 -749 0
-135 -750 0
-406 -931 0
-407 -932 0
-408 -933 0
-409 -934 0
-410 -935 0
-411 -936 0
-412 -937 0
-413 -938 0
-414 -939 0
-415 -940 0
-416 -941 0
-417 -942 0
-418 -943 0
-419 -944 0
-420 -945 0
-301 -346 0
-302 -347 0
-303 -348 0
-304 -349 0
-305 -350 0
-306 -351 0
-307 -352 0
-308 -353 0
-309 -354 0
-310 -355 0
-311 -356 0
-312 -357 0
-313 -358 0
-314 -359 0
-315 -360 0
-586 -541 0
-587 -542 0
-588 -543 0
-589 -544 0
-590 -545 0
-591 -546 0
-592 -547 0
-593 -548 0
-594 -549 0
-595 -550 0
-596 -551 0
-597 -552 0
-598 -553 0
-599 -554 0
-600 -555 0
-766 -151 0
-767 -152 0
-768 -153 0
-769 -154 0
-770 -155 0
-771 -156 0
-772 -157 0
-773 -158 0
-774 -159 0
-775 -160 0
-776 -161 0
-777 -162 0
-778 -163 0
-779 -164 0
-780 -165 0
-136 -196 0
-137 -197 0
-138 -198 0
-139 -199 0
-140 -200 0
-141 -201 0
-142 -202 0
-143 -203 0
-144 -204 0
-145 -205 0
-146 -206 0
-147 -207 0
-148 -208 0
-149 -209 0
-150 -210 0
-16 -136 0
-17 -137 0
-18 -138 0
-19 -139 0
-20 -140 0
-21 -141 0
-22 -142 0
-23 -143 0
-24 -144 0
-25 -145 0
-26 -146 0
-27 -147 0
-28 -148 0
-29 -149 0
-30 -150 0
-916 -901 0
-917 -902 0
-918 -903 0
-919 -904 0
-920 -905 0
-921 -906 0
-922 -907 0
-923 -908 0
-924 -909 0
-925 -910 0
-926 -911 0
-927 -912 0
-928 -913 0
-929 -914 0
-930 -915 0
-166 -886 0
-167 -887 0
-168 -888 0
-169 -889 0
-170 -890 0
-171 -891 0
-172 -892 0
-173 -893 0
-174 -894 0
-175 -895 0
-176 -896 0
-177 -897 0
-178 -898 0
-179 -899 0
-180 -900 0
-181 -361 0
-182 -362 0
-183 -363 0
-184 -364 0
-185 -365 0
-186 -366 0
-187 -367 0
-188 -368 0
-189 -369 0
-190 -370 0
-191 -371 0
-192 -372 0
-193 -373 0
-194 -374 0
-195 -375 0
-466 -556 0
-467 -557 0
-468 -558 0
-469 -559 0
-470 -560 0
-471 -561 0
-472 -562 0
-473 -563 0
-474 -564 0
-475 -565 0
-476 -566 0
-477 -567 0
-478 -568 0
-479 -569 0
-480 -570 0
-46 -826 0
-47 -827 0
-48 -828 0
-49 -829 0
-50 -830 0
-51 -831 0
-52 -832 0
-53 -833 0
-54 -834 0
-55 -835 0
-56 -836 0
-57 -837 0
-58 -838 0
-59 -839 0
-60 -840 0
-346 -496 0
-347 -497 0
-348 -498 0
-349 -499 0
-350 -500 0
-351 -501 0
-352 -502 0
-353 -503 0
-354 -504 0
-355 -505 0
-356 -506 0
-357 -507 0
-358 -508 0
-359 -509 0
-360 -510 0
-31 -151 0
-32 -152 0
-33 -153 0
-34 -154 0
-35 -155 0
-36 -156 0
-37 -157 0
-38 -158 0
-39 -159 0
-40 -160 0
-41 -161 0
-42 -162 0
-43 -163 0
-44 -164 0
-45 -165 0
-811 -301 0
-812 -302 0
-813 -303 0
-814 -304 0
-815 -305 0
-816 -306 0
-817 -307 0
-818 -308 0
-819 -309 0
-820 -310 0
-821 -311 0
-822 -312 0
-823 -313 0
-824 -314 0
-825 -315 0
-691 -241 0
-692 -242 0
-693 -243 0
-694 -244 0
-695 -245 0
-696 -246 0
-697 -247 0
-698 -248 0
-699 -249 0
-700 -250 0
-701 -251 0
-702 -252 0
-703 -253 0
-704 -254 0
-705 -255 0
-871 -406 0
-872 -407 0
-873 -408 0
-874 -409 0
-875 -410 0
-876 -411 0
-877 -412 0
-878 -413 0
-879 -414 0
-880 -415 0
-881 -416 0
-882 -417 0
-883 -418 0
-884 -419 0
-885 -420 0
-61 -286 0
-62 -287 0
-63 -288 0
-64 -289 0
-65 -290 0
-66 -291 0
-67 -292 0
-68 -293 0
-69 -294 0
-70 -295 0
-71 -296 0
-72 -297 0
-73 -298 0
-74 -299 0
-75 -300 0
-241 -451 0
-242 -452 0
-243 -453 0
-244 -454 0
-245 -455 0
-246 -456 0
-247 -457 0
-248 -458 0
-249 -459 0
-250 -460 0
-251 -461 0
-252 -462 0
-253 -463 0
-254 -464 0
-255 -465 0
-121 -391 0
-122 -392 0
-123 -393 0
-124 -394 0
-125 -395 0
-126 -396 0
-127 -397 0
-128 -398 0
-129 -399 0
-130 -400 0
-131 -401 0
-132 -402 0
-133 -403 0
-134 -404 0
-135 -405 0
-586 -196 0
-587 -197 0
-588 -198 0
-589 -199 0
-590 -200 0
-591 -201 0
-592 -202 0
-593 -203 0
-594 -204 0
-595 -205 0
-596 -206 0
-597 -207 0
-598 -208 0
-599 -209 0
-600 -210 0
-61 -826 0
-62 -827 0
-63 -828 0
-64 -829 0
-65 -830 0
-66 -831 0
-67 -832 0
-68 -833 0
-69 -834 0
-70 -835 0
-71 -836 0
-72 -837 0
-73 -838 0
-74 -839 0
-75 -840 0
-76 -301 0
-77 -302 0
-78 -303 0
-79 -304 0
-80 -305 0
-81 -306 0
-82 -307 0
-83 -308 0
-84 -309 0
-85 -310 0
-86 -311 0
-87 -312 0
-88 -313 0
-89 -314 0
-90 -315 0
-796 -496 0
-797 -497 0
-798 -498 0
-799 -499 0
-800 -500 0
-801 -501 0
-802 -502 0
-803 -503 0
-804 -504 0
-805 -505 0
-806 -506 0
-807 -507 0
-808 -508 0
-809 -509 0
-810 -510 0
-286 -601 0
-287 -602 0
-288 -603 0
-289 -604 0
-290 -605 0
-291 -606 0
-292 -607 0
-293 -608 0
-294 -609 0
-295 -610 0
-296 -611 0
-297 -612 0
-298 -613 0
-299 -614 0
-300 -615 0
-451 -736 0
-452 -737 0
-453 -738 0
-454 -739 0
-455 -740 0
-456 -741 0
-457 -742 0
-458 -743 0
-459 -744 0
-460 -745 0
-461 -746 0
-462 -747 0
-463 -748 0
-464 -749 0
-465 -750 0
-331 -676 0
-332 -677 0
-333 -678 0
-334 -679 0
-335 -680 0
-336 -681 0
-337 -682 0
-338 -683 0
-339 -684 0
-340 -685 0
-341 -686 0
-342 -687 0
-343 -688 0
-344 -689 0
-345 -690 0
-16 -331 0
-17 -332 0
-18 -333 0
-19 -334 0
-20 -335 0
-21 -336 0
-22 -337 0
-23 -338 0
-24 -339 0
-25 -340 0
-26 -341 0
-27 -342 0
-28 -343 0
-29 -344 0
-30 -345 0
-1 -391 0
-2 -392 0
-3 -393 0
-4 -394 0
-5 -395 0
-6 -396 0
-7 -397 0
-8 -398 0
-9 -399 0
-10 -400 0
-11 -401 0
-12 -402 0
-13 -403 0
-14 -404 0
-15 -405 0
-181 -556 0
-182 -557 0
-183 -558 0
-184 -559 0
-185 -560 0
-186 -561 0
-187 -562 0
-188 -563 0
-189 -564 0
-190 -565 0
-191 -566 0
-192 -567 0
-193 -568 0
-194 -569 0
-195 -570 0
-811 -496 0
-812 -497 0
-813 -498 0
-814 -499 0
-815 -500 0
-816 -501 0
-817 -502 0
-818 -503 0
-819 -504 0
-820 -505 0
-821 -506 0
-822 -507 0
-823 -508 0
-824 -509 0
-825 -510 0
-691 -436 0
-692 -437 0
-693 -438 0
-694 -439 0
-695 -440 0
-696 -441 0
-697 -442 0
-698 -443 0
-699 -444 0
-700 -445 0
-701 -446 0
-702 -447 0
-703 -448 0
-704 -449 0
-705 -450 0
-61 -481 0
-62 -482 0
-63 -483 0
-64 -484 0
-65 -485 0
-66 -486 0
-67 -487 0
-68 -488 0
-69 -489 0
-70 -490 0
-71 -491 0
-72 -492 0
-73 -493 0
-74 -494 0
-75 -495 0
-856 -661 0
-857 -662 0
-858 -663 0
-859 -664 0
-860 -665 0
-861 -666 0
-862 -667 0
-863 -668 0
-864 -669 0
-865 -670 0
-866 -671 0
-867 -672 0
-868 -673 0
-869 -674 0
-870 -675 0
-901 -736 0
-902 -737 0
-903 -738 0
-904 -739 0
-905 -740 0
-906 -741 0
-907 -742 0
-908 -743 0
-909 -744 0
-910 -745 0
-911 -746 0
-912 -747 0
-913 -748 0
-914 -749 0
-915 -750 0
-571 -451 0
-572 -452 0
-573 -453 0
-574 -454 0
-575 -455 0
-576 -456 0
-577 -457 0
-578 -458 0
-579 -459 0
-580 -460 0
-581 -461 0
-582 -462 0
-583 -463 0
-584 -464 0
-585 -465 0
-916 -751 0
-917 -752 0
-918 -753 0
-919 -754 0
-920 -755 0
-921 -756 0
-922 -757 0
-923 -758 0
-924 -759 0
-925 -760 0
-926 -761 0
-927 -762 0
-928 -763 0
-929 -764 0
-930 -765 0
-286 -796 0
-287 -797 0
-288 -798 0
-289 -799 0
-290 -800 0
-291 -801 0
-292 -802 0
-293 -803 0
-294 -804 0
-295 -805 0
-296 -806 0
-297 -807 0
-298 -808 0
-299 -809 0
-300 -810 0
-166 -736 0
-167 -737 0
-168 -738 0
-169 -739 0
-170 -740 0
-171 -741 0
-172 -742 0
-173 -743 0
-174 -744 0
-175 -745 0
-176 -746 0
-177 -747 0
-178 -748 0
-179 -749 0
-180 -750 0
-181 -211 0
-182 -212 0
-183 -213 0
-184 -214 0
-185 -215 0
-186 -216 0
-187 -217 0
-188 -218 0
-189 -219 0
-190 -220 0
-191 -221 0
-192 -222 0
-193 -223 0
-194 -224 0
-195 -225 0
-46 -676 0
-47 -677 0
-48 -678 0
-49 -679 0
-50 -680 0
-51 -681 0
-52 -682 0
-53 -683 0
-54 -684 0
-55 -685 0
-56 -686 0
-57 -687 0
-58 -688 0
-59 -689 0
-60 -690 0
-631 -541 0
-632 -542 0
-633 -543 0
-634 -544 0
-635 -545 0
-636 -546 0
-637 -547 0
-638 -548 0
-639 -549 0
-640 -550 0
-641 -551 0
-642 -552 0
-643 -553 0
-644 -554 0
-645 -555 0
-226 -286 0
-227 -287 0
-228 -288 0
-229 -289 0
-230 -290 0
-231 -291 0
-232 -292 0
-233 -293 0
-234 -294 0
-235 -295 0
-236 -296 0
-237 -297 0
-238 -298 0
-239 -299 0
-240 -300 0
-811 -151 0
-812 -152 0
-813 -153 0
-814 -154 0
-815 -155 0
-816 -156 0
-817 -157 0
-818 -158 0
-819 -159 0
-820 -160 0
-821 -161 0
-822 -162 0
-823 -163 0
-824 -164 0
-825 -165 0
-1 -586 0
-2 -587 0
-3 -588 0
-4 -589 0
-5 -590 0
-6 -591 0
-7 -592 0
-8 -593 0
-9 -594 0
-10 -595 0
-11 -596 0
-12 -597 0
-13 -598 0
-14 -599 0
-15 -600 0
-61 -136 0
-62 -137 0
-63 -138 0
-64 -139 0
-65 -140 0
-66 -141 0
-67 -142 0
-68 -143 0
-69 -144 0
-70 -145 0
-71 -146 0
-72 -147 0
-73 -148 0
-74 -149 0
-75 -150 0
-241 -301 0
-242 -302 0
-243 -303 0
-244 -304 0
-245 -305 0
-246 -306 0
-247 -307 0
-248 -308 0
-249 -309 0
-250 -310 0
-251 -311 0
-252 -312 0
-253 -313 0
-254 -314 0
-255 -315 0
-121 -241 0
-122 -242 0
-123 -243 0
-124 -244 0
-125 -245 0
-126 -246 0
-127 -247 0
-128 -248 0
-129 -249 0
-130 -250 0
-131 -251 0
-132 -252 0
-133 -253 0
-134 -254 0
-135 -255 0
-406 -436 0
-407 -437 0
-408 -438 0
-409 -439 0
-410 -440 0
-411 -441 0
-412 -442 0
-413 -443 0
-414 -444 0
-415 -445 0
-416 -446 0
-417 -447 0
-418 -448 0
-419 -449 0
-420 -450 0
-211 -886 0
-212 -887 0
-213 -888 0
-214 -889 0
-215 -890 0
-216 -891 0
-217 -892 0
-218 -893 0
-219 -894 0
-220 -895 0
-221 -896 0
-222 -897 0
-223 -898 0
-224 -899 0
-225 -900 0
-586 -46 0
-587 -47 0
-588 -48 0
-589 -49 0
-590 -50 0
-591 -51 0
-592 -52 0
-593 -53 0
-594 -54 0
-595 -55 0
-596 -56 0
-597 -57 0
-598 -58 0
-599 -59 0
-600 -60 0
-391 -496 0
-392 -497 0
-393 -498 0
-394 -499 0
-395 -500 0
-396 -501 0
-397 -502 0
-398 -503 0
-399 -504 0
-400 -505 0
-401 -506 0
-402 -507 0
-403 -508 0
-404 -509 0
-405 -510 0
-76 -151 0
-77 -152 0
-78 -153 0
-79 -154 0
-80 -155 0
-81 -156 0
-82 -157 0
-83 -158 0
-84 -159 0
-85 -160 0
-86 -161 0
-87 -162 0
-88 -163 0
-89 -164 0
-90 -165 0
-916 -406 0
-917 -407 0
-918 -408 0
-919 -409 0
-920 -410 0
-921 -411 0
-922 -412 0
-923 -413 0
-924 -414 0
-925 -415 0
-926 -416 0
-927 -417 0
-928 -418 0
-929 -419 0
-930 -420 0
-286 -451 0
-287 -452 0
-288 -453 0
-289 -454 0
-290 -455 0
-291 -456 0
-292 -457 0
-293 -458 0
-294 -459 0
-295 -460 0
-296 -461 0
-297 -462 0
-298 -463 0
-299 -464 0
-300 -465 0
-151 -916 0
-152 -917 0
-153 -918 0
-154 -919 0
-155 -920 0
-156 -921 0
-157 -922 0
-158 -923 0
-159 -924 0
-160 -925 0
-161 -926 0
-162 -927 0
-163 -928 0
-164 -929 0
-165 -930 0
-166 -391 0
-167 -392 0
-168 -393 0
-169 -394 0
-170 -395 0
-171 -396 0
-172 -397 0
-173 -398 0
-174 -399 0
-175 -400 0
-176 -401 0
-177 -402 0
-178 -403 0
-179 -404 0
-180 -405 0
-46 -331 0
-47 -332 0
-48 -333 0
-49 -334 0
-50 -335 0
-51 -336 0
-52 -337 0
-53 -338 0
-54 -339 0
-55 -340 0
-56 -341 0
-57 -342 0
-58 -343 0
-59 -344 0
-60 -345 0
-331 -526 0
-332 -527 0
-333 -528 0
-334 -529 0
-335 -530 0
-336 -531 0
-337 -532 0
-338 -533 0
-339 -534 0
-340 -535 0
-341 -536 0
-342 -537 0
-343 -538 0
-344 -539 0
-345 -540 0
-631 -196 0
-632 -197 0
-633 -198 0
-634 -199 0
-635 -200 0
-636 -201 0
-637 -202 0
-638 -203 0
-639 -204 0
-640 -205 0
-641 -206 0
-642 -207 0
-643 -208 0
-644 -209 0
-645 -210 0
-1 -241 0
-2 -242 0
-3 -243 0
-4 -244 0
-5 -245 0
-6 -246 0
-7 -247 0
-8 -248 0
-9 -249 0
-10 -250 0
-11 -251 0
-12 -252 0
-13 -253 0
-14 -254 0
-15 -255 0
-181 -406 0
-182 -407 0
-183 -408 0
-184 -409 0
-185 -410 0
-186 -411 0
-187 -412 0
-188 -413 0
-189 -414 0
-190 -415 0
-191 -416 0
-192 -417 0
-193 -418 0
-194 -419 0
-195 -420 0
-46 -871 0
-47 -872 0
-48 -873 0
-49 -874 0
-50 -875 0
-51 -876 0
-52 -877 0
-53 -878 0
-54 -879 0
-55 -880 0
-56 -881 0
-57 -882 0
-58 -883 0
-59 -884 0
-60 -885 0
-346 -541 0
-347 -542 0
-348 -543 0
-349 -544 0
-350 -545 0
-351 -546 0
-352 -547 0
-353 -548 0
-354 -549 0
-355 -550 0
-356 -551 0
-357 -552 0
-358 -553 0
-359 -554 0
-360 -555 0
-226 -481 0
-227 -482 0
-228 -483 0
-229 -484 0
-230 -485 0
-231 -486 0
-232 -487 0
-233 -488 0
-234 -489 0
-235 -490 0
-236 -491 0
-237 -492 0
-238 -493 0
-239 -494 0
-240 -495 0
-841 -496 0
-842 -497 0
-843 -498 0
-844 -499 0
-845 -500 0
-846 -501 0
-847 -502 0
-848 -503 0
-849 -504 0
-850 -505 0
-851 -506 0
-852 -507 0
-853 -508 0
-854 -509 0
-855 -510 0
-691 -286 0
-692 -287 0
-693 -288 0
-694 -289 0
-695 -290 0
-696 -291 0
-697 -292 0
-698 -293 0
-699 -294 0
-700 -295 0
-701 -296 0
-702 -297 0
-703 -298 0
-704 -299 0
-705 -300 0
-61 -331 0
-62 -332 0
-63 -333 0
-64 -334 0
-65 -335 0
-66 -336 0
-67 -337 0
-68 -338 0
-69 -339 0
-70 -340 0
-71 -341 0
-72 -342 0
-73 -343 0
-74 -344 0
-75 -345 0
-676 -901 0
-677 -902 0
-678 -903 0
-679 -904 0
-680 -905 0
-681 -906 0
-682 -907 0
-683 -908 0
-684 -909 0
-685 -910 0
-686 -911 0
-687 -912 0
-688 -913 0
-689 -914 0
-690 -915 0
-856 -511 0
-857 -512 0
-858 -513 0
-859 -514 0
-860 -515 0
-861 -516 0
-862 -517 0
-863 -518 0
-864 -519 0
-865 -520 0
-866 -521 0
-867 -522 0
-868 -523 0
-869 -524 0
-870 -525 0
-106 -496 0
-107 -497 0
-108 -498 0
-109 -499 0
-110 -500 0
-111 -501 0
-112 -502 0
-113 -503 0
-114 -504 0
-115 -505 0
-116 -506 0
-117 -507 0
-118 -508 0
-119 -509 0
-120 -510 0
-271 -631 0
-272 -632 0
-273 -633 0
-274 -634 0
-275 -635 0
-276 -636 0
-277 -637 0
-278 -638 0
-279 -639 0
-280 -640 0
-281 -641 0
-282 -642 0
-283 -643 0
-284 -644 0
-285 -645 0
-571 -301 0
-572 -302 0
-573 -303 0
-574 -304 0
-575 -305 0
-576 -306 0
-577 -307 0
-578 -308 0
-579 -309 0
-580 -310 0
-581 -311 0
-582 -312 0
-583 -313 0
-584 -314 0
-585 -315 0
-46 -526 0
-47 -527 0
-48 -528 0
-49 -529 0
-50 -530 0
-51 -531 0
-52 -532 0
-53 -533 0
-54 -534 0
-55 -535 0
-56 -536 0
-57 -537 0
-58 -538 0
-59 -539 0
-60 -540 0
-331 -721 0
-332 -722 0
-333 -723 0
-334 -724 0
-335 -725 0
-336 -726 0
-337 -727 0
-338 -728 0
-339 -729 0
-340 -730 0
-341 -731 0
-342 -732 0
-343 -733 0
-344 -734 0
-345 -735 0
-826 -676 0
-827 -677 0
-828 -678 0
-829 -679 0
-830 -680 0
-831 -681 0
-832 -682 0
-833 -683 0
-834 -684 0
-835 -685 0
-836 -686 0
-837 -687 0
-838 -688 0
-839 -689 0
-840 -690 0
-1 -436 0
-2 -437 0
-3 -438 0
-4 -439 0
-5 -440 0
-6 -441 0
-7 -442 0
-8 -443 0
-9 -444 0
-10 -445 0
-11 -446 0
-12 -447 0
-13 -448 0
-14 -449 0
-15 -450 0
-721 -631 0
-722 -632 0
-723 -633 0
-724 -634 0
-725 -635 0
-726 -636 0
-727 -637 0
-728 -638 0
-729 -639 0
-730 -640 0
-731 -641 0
-732 -642 0
-733 -643 0
-734 -644 0
-735 -645 0
-211 -736 0
-212 -737 0
-213 -738 0
-214 -739 0
-215 -740 0
-216 -741 0
-217 -742 0
-218 -743 0
-219 -744 0
-220 -745 0
-221 -746 0
-222 -747 0
-223 -748 0
-224 -749 0
-225 -750 0
-901 -241 0
-902 -242 0
-903 -243 0
-904 -244 0
-905 -245 0
-906 -246 0
-907 -247 0
-908 -248 0
-909 -249 0
-910 -250 0
-911 -251 0
-912 -252 0
-913 -253 0
-914 -254 0
-915 -255 0
-271 -286 0
-272 -287 0
-273 -288 0
-274 -289 0
-275 -290 0
-276 -291 0
-277 -292 0
-278 -293 0
-279 -294 0
-280 -295 0
-281 -296 0
-282 -297 0
-283 -298 0
-284 -299 0
-285 -300 0
-286 -301 0
-287 -302 0
-288 -303 0
-289 -304 0
-290 -305 0
-291 -306 0
-292 -307 0
-293 -308 0
-294 -309 0
-295 -310 0
-296 -311 0
-297 -312 0
-298 -313 0
-299 -314 0
-300 -315 0
-886 -841 0
-887 -842 0
-888 -843 0
-889 -844 0
-890 -845 0
-891 -846 0
-892 -847 0
-893 -848 0
-894 -849 0
-895 -850 0
-896 -851 0
-897 -852 0
-898 -853 0
-899 -854 0
-900 -855 0
-571 -496 0
-572 -497 0
-573 -498 0
-574 -499 0
-575 -500 0
-576 -501 0
-577 -502 0
-578 -503 0
-579 -504 0
-580 -505 0
-581 -506 0
-582 -507 0
-583 -508 0
-584 -509 0
-585 -510 0
-166 -241 0
-167 -242 0
-168 -243 0
-169 -244 0
-170 -245 0
-171 -246 0
-172 -247 0
-173 -248 0
-174 -249 0
-175 -250 0
-176 -251 0
-177 -252 0
-178 -253 0
-179 -254 0
-180 -255 0
-766 -781 0
-767 -782 0
-768 -783 0
-769 -784 0
-770 -785 0
-771 -786 0
-772 -787 0
-773 -788 0
-774 -789 0
-775 -790 0
-776 -791 0
-777 -792 0
-778 -793 0
-779 -794 0
-780 -795 0
-46 -181 0
-47 -182 0
-48 -183 0
-49 -184 0
-50 -185 0
-51 -186 0
-52 -187 0
-53 -188 0
-54 -189 0
-55 -190 0
-56 -191 0
-57 -192 0
-58 -193 0
-59 -194 0
-60 -195 0
-331 -376 0
-332 -377 0
-333 -378 0
-334 -379 0
-335 -380 0
-336 -381 0
-337 -382 0
-338 -383 0
-339 -384 0
-340 -385 0
-341 -386 0
-342 -387 0
-343 -388 0
-344 -389 0
-345 -390 0
-631 -46 0
-632 -47 0
-633 -48 0
-634 -49 0
-635 -50 0
-636 -51 0
-637 -52 0
-638 -53 0
-639 -54 0
-640 -55 0
-641 -56 0
-642 -57 0
-643 -58 0
-644 -59 0
-645 -60 0
-1 -91 0
-2 -92 0
-3 -93 0
-4 -94 0
-5 -95 0
-6 -96 0
-7 -97 0
-8 -98 0
-9 -99 0
-10 -100 0
-11 -101 0
-12 -102 0
-13 -103 0
-14 -104 0
-15 -105 0
-181 -256 0
-182 -257 0
-183 -258 0
-184 -259 0
-185 -260 0
-186 -261 0
-187 -262 0
-188 -263 0
-189 -264 0
-190 -265 0
-191 -266 0
-192 -267 0
-193 -268 0
-194 -269 0
-195 -270 0
-661 -736 0
-662 -737 0
-663 -738 0
-664 -739 0
-665 -740 0
-666 -741 0
-667 -742 0
-668 -743 0
-669 -744 0
-670 -745 0
-671 -746 0
-672 -747 0
-673 -748 0
-674 -749 0
-675 -750 0
-226 -331 0
-227 -332 0
-228 -333 0
-229 -334 0
-230 -335 0
-231 -336 0
-232 -337 0
-233 -338 0
-234 -339 0
-235 -340 0
-236 -341 0
-237 -342 0
-238 -343 0
-239 -344 0
-240 -345 0
-31 -781 0
-32 -782 0
-33 -783 0
-34 -784 0
-35 -785 0
-36 -786 0
-37 -787 0
-38 -788 0
-39 -789 0
-40 -790 0
-41 -791 0
-42 -792 0
-43 -793 0
-44 -794 0
-45 -795 0
-211 -391 0
-212 -392 0
-213 -393 0
-214 -394 0
-215 -395 0
-216 -396 0
-217 -397 0
-218 -398 0
-219 -399 0
-220 -400 0
-221 -401 0
-222 -402 0
-223 -403 0
-224 -404 0
-225 -405 0
-376 -526 0
-377 -527 0
-378 -528 0
-379 -529 0
-380 -530 0
-381 -531 0
-382 -532 0
-383 -533 0
-384 -534 0
-385 -535 0
-386 -536 0
-387 -537 0
-388 -538 0
-389 -539 0
-390 -540 0
-61 -181 0
-62 -182 0
-63 -183 0
-64 -184 0
-65 -185 0
-66 -186 0
-67 -187 0
-68 -188 0
-69 -189 0
-70 -190 0
-71 -191 0
-72 -192 0
-73 -193 0
-74 -194 0
-75 -195 0
-256 -466 0
-257 -467 0
-258 -468 0
-259 -469 0
-260 -470 0
-261 -471 0
-262 -472 0
-263 -473 0
-264 -474 0
-265 -475 0
-266 -476 0
-267 -477 0
-268 -478 0
-269 -479 0
-270 -480 0
-676 -751 0
-677 -752 0
-678 -753 0
-679 -754 0
-680 -755 0
-681 -756 0
-682 -757 0
-683 -758 0
-684 -759 0
-685 -760 0
-686 -761 0
-687 -762 0
-688 -763 0
-689 -764 0
-690 -765 0
-616 -241 0
-617 -242 0
-618 -243 0
-619 -244 0
-620 -245 0
-621 -246 0
-622 -247 0
-623 -248 0
-624 -249 0
-625 -250 0
-626 -251 0
-627 -252 0
-628 -253 0
-629 -254 0
-630 -255 0
-211 -931 0
-212 -932 0
-213 -933 0
-214 -934 0
-215 -935 0
-216 -936 0
-217 -937 0
-218 -938 0
-219 -939 0
-220 -940 0
-221 -941 0
-222 -942 0
-223 -943 0
-224 -944 0
-225 -945 0
-106 -346 0
-107 -347 0
-108 -348 0
-109 -349 0
-110 -350 0
-111 -351 0
-112 -352 0
-113 -353 0
-114 -354 0
-115 -355 0
-116 -356 0
-117 -357 0
-118 -358 0
-119 -359 0
-120 -360 0
-706 -886 0
-707 -887 0
-708 -888 0
-709 -889 0
-710 -890 0
-711 -891 0
-712 -892 0
-713 -893 0
-714 -894 0
-715 -895 0
-716 -896 0
-717 -897 0
-718 -898 0
-719 -899 0
-720 -900 0
-391 -541 0
-392 -542 0
-393 -543 0
-394 -544 0
-395 -545 0
-396 -546 0
-397 -547 0
-398 -548 0
-399 -549 0
-400 -550 0
-401 -551 0
-402 -552 0
-403 -553 0
-404 -554 0
-405 -555 0
-271 -481 0
-272 -482 0
-273 -483 0
-274 -484 0
-275 -485 0
-276 -486 0
-277 -487 0
-278 -488 0
-279 -489 0
-280 -490 0
-281 -491 0
-282 -492 0
-283 -493 0
-284 -494 0
-285 -495 0
-151 -421 0
-152 -422 0
-153 -423 0
-154 -424 0
-155 -425 0
-156 -426 0
-157 -427 0
-158 -428 0
-159 -429 0
-160 -430 0
-161 -431 0
-162 -432 0
-163 -433 0
-164 -434 0
-165 -435 0
-571 -151 0
-572 -152 0
-573 -153 0
-574 -154 0
-575 -155 0
-576 -156 0
-577 -157 0
-578 -158 0
-579 -159 0
-580 -160 0
-581 -161 0
-582 -162 0
-583 -163 0
-584 -164 0
-585 -165 0
-436 -616 0
-437 -617 0
-438 -618 0
-439 -619 0
-440 -620 0
-441 -621 0
-442 -622 0
-443 -623 0
-444 -624 0
-445 -625 0
-446 -626 0
-447 -627 0
-448 -628 0
-449 -629 0
-450 -630 0
-166 -436 0
-167 -437 0
-168 -438 0
-169 -439 0
-170 -440 0
-171 -441 0
-172 -442 0
-173 -443 0
-174 -444 0
-175 -445 0
-176 -446 0
-177 -447 0
-178 -448 0
-179 -449 0
-180 -450 0
-781 -451 0
-782 -452 0
-783 -453 0
-784 -454 0
-785 -455 0
-786 -456 0
-787 -457 0
-788 -458 0
-789 -459 0
-790 -460 0
-791 -461 0
-792 -462 0
-793 -463 0
-794 -464 0
-795 -465 0
-46 -376 0
-47 -377 0
-48 -378 0
-49 -379 0
-50 -380 0
-51 -381 0
-52 -382 0
-53 -383 0
-54 -384 0
-55 -385 0
-56 -386 0
-57 -387 0
-58 -388 0
-59 -389 0
-60 -390 0
-316 -631 0
-317 -632 0
-318 -633 0
-319 -634 0
-320 -635 0
-321 -636 0
-322 -637 0
-323 -638 0
-324 -639 0
-325 -640 0
-326 -641 0
-327 -642 0
-328 -643 0
-329 -644 0
-330 -645 0
-1 -286 0
-2 -287 0
-3 -288 0
-4 -289 0
-5 -290 0
-6 -291 0
-7 -292 0
-8 -293 0
-9 -294 0
-10 -295 0
-11 -296 0
-12 -297 0
-13 -298 0
-14 -299 0
-15 -300 0
-661 -931 0
-662 -932 0
-663 -933 0
-664 -934 0
-665 -935 0
-666 -936 0
-667 -937 0
-668 -938 0
-669 -939 0
-670 -940 0
-671 -941 0
-672 -942 0
-673 -943 0
-674 -944 0
-675 -945 0
-676 -406 0
-677 -407 0
-678 -408 0
-679 -409 0
-680 -410 0
-681 -411 0
-682 -412 0
-683 -413 0
-684 -414 0
-685 -415 0
-686 -416 0
-687 -417 0
-688 -418 0
-689 -419 0
-690 -420 0
-91 -526 0
-92 -527 0
-93 -528 0
-94 -529 0
-95 -530 0
-96 -531 0
-97 -532 0
-98 -533 0
-99 -534 0
-100 -535 0
-101 -536 0
-102 -537 0
-103 -538 0
-104 -539 0
-105 -540 0
-106 -541 0
-107 -542 0
-108 -543 0
-109 -544 0
-110 -545 0
-111 -546 0
-112 -547 0
-113 -548 0
-114 -549 0
-115 -550 0
-116 -551 0
-117 -552 0
-118 -553 0
-119 -554 0
-120 -555 0
-601 -496 0
-602 -497 0
-603 -498 0
-604 -499 0
-605 -500 0
-606 -501 0
-607 -502 0
-608 -503 0
-609 -504 0
-610 -505 0
-611 -506 0
-612 -507 0
-613 -508 0
-614 -509 0
-615 -510 0
-151 -616 0
-152 -617 0
-153 -618 0
-154 -619 0
-155 -620 0
-156 -621 0
-157 -622 0
-158 -623 0
-159 -624 0
-160 -625 0
-161 -626 0
-162 -627 0
-163 -628 0
-164 -629 0
-165 -630 0
-766 -631 0
-767 -632 0
-768 -633 0
-769 -634 0
-770 -635 0
-771 -636 0
-772 -637 0
-773 -638 0
-774 -639 0
-775 -640 0
-776 -641 0
-777 -642 0
-778 -643 0
-779 -644 0
-780 -645 0
-136 -676 0
-137 -677 0
-138 -678 0
-139 -679 0
-140 -680 0
-141 -681 0
-142 -682 0
-143 -683 0
-144 -684 0
-145 -685 0
-146 -686 0
-147 -687 0
-148 -688 0
-149 -689 0
-150 -690 0
-826 -721 0
-827 -722 0
-828 -723 0
-829 -724 0
-830 -725 0
-831 -726 0
-832 -727 0
-833 -728 0
-834 -729 0
-835 -730 0
-836 -731 0
-837 -732 0
-838 -733 0
-839 -734 0
-840 -735 0
-31 -631 0
-32 -632 0
-33 -633 0
-34 -634 0
-35 -635 0
-36 -636 0
-37 -637 0
-38 -638 0
-39 -639 0
-40 -640 0
-41 -641 0
-42 -642 0
-43 -643 0
-44 -644 0
-45 -645 0
-211 -241 0
-212 -242 0
-213 -243 0
-214 -244 0
-215 -245 0
-216 -246 0
-217 -247 0
-218 -248 0
-219 -249 0
-220 -250 0
-221 -251 0
-222 -252 0
-223 -253 0
-224 -254 0
-225 -255 0
-91 -181 0
-92 -182 0
-93 -183 0
-94 -184 0
-95 -185 0
-96 -186 0
-97 -187 0
-98 -188 0
-99 -189 0
-100 -190 0
-101 -191 0
-102 -192 0
-103 -193 0
-104 -194 0
-105 -195 0
-256 -316 0
-257 -317 0
-258 -318 0
-259 -319 0
-260 -320 0
-261 -321 0
-262 -322 0
-263 -323 0
-264 -324 0
-265 -325 0
-266 -326 0
-267 -327 0
-268 -328 0
-269 -329 0
-270 -330 0
-871 -886 0
-872 -887 0
-873 -888 0
-874 -889 0
-875 -890 0
-876 -891 0
-877 -892 0
-878 -893 0
-879 -894 0
-880 -895 0
-881 -896 0
-882 -897 0
-883 -898 0
-884 -899 0
-885 -900 0
-106 -196 0
-107 -197 0
-108 -198 0
-109 -199 0
-110 -200 0
-111 -201 0
-112 -202 0
-113 -203 0
-114 -204 0
-115 -205 0
-116 -206 0
-117 -207 0
-118 -208 0
-119 -209 0
-120 -210 0
-706 -736 0
-707 -737 0
-708 -738 0
-709 -739 0
-710 -740 0
-711 -741 0
-712 -742 0
-713 -743 0
-714 -744 0
-715 -745 0
-716 -746 0
-717 -747 0
-718 -748 0
-719 -749 0
-720 -750 0
-586 -676 0
-587 -677 0
-588 -678 0
-589 -679 0
-590 -680 0
-591 -681 0
-592 -682 0
-593 -683 0
-594 -684 0
-595 -685 0
-596 -686 0
-597 -687 0
-598 -688 0
-599 -689 0
-600 -690 0
-271 -331 0
-272 -332 0
-273 -333 0
-274 -334 0
-275 -335 0
-276 -336 0
-277 -337 0
-278 -338 0
-279 -339 0
-280 -340 0
-281 -341 0
-282 -342 0
-283 -343 0
-284 -344 0
-285 -345 0
-886 -346 0
-887 -347 0
-888 -348 0
-889 -349 0
-890 -350 0
-891 -351 0
-892 -352 0
-893 -353 0
-894 -354 0
-895 -355 0
-896 -356 0
-897 -357 0
-898 -358 0
-899 -359 0
-900 -360 0
-151 -271 0
-152 -272 0
-153 -273 0
-154 -274 0
-155 -275 0
-156 -276 0
-157 -277 0
-158 -278 0
-159 -279 0
-160 -280 0
-161 -281 0
-162 -282 0
-163 -283 0
-164 -284 0
-165 -285 0
-571 -1 0
-572 -2 0
-573 -3 0
-574 -4 0
-575 -5 0
-576 -6 0
-577 -7 0
-578 -8 0
-579 -9 0
-580 -10 0
-581 -11 0
-582 -12 0
-583 -13 0
-584 -14 0
-585 -15 0
-436 -466 0
-437 -467 0
-438 -468 0
-439 -469 0
-440 -470 0
-441 -471 0
-442 -472 0
-443 -473 0
-444 -474 0
-445 -475 0
-446 -476 0
-447 -477 0
-448 -478 0
-449 -479 0
-450 -480 0
-781 -301 0
-782 -302 0
-783 -303 0
-784 -304 0
-785 -305 0
-786 -306 0
-787 -307 0
-788 -308 0
-789 -309 0
-790 -310 0
-791 -311 0
-792 -312 0
-793 -313 0
-794 -314 0
-795 -315 0
-46 -226 0
-47 -227 0
-48 -228 0
-49 -229 0
-50 -230 0
-51 -231 0
-52 -232 0
-53 -233 0
-54 -234 0
-55 -235 0
-56 -236 0
-57 -237 0
-58 -238 0
-59 -239 0
-60 -240 0
-646 -766 0
-647 -767 0
-648 -768 0
-649 -769 0
-650 -770 0
-651 -771 0
-652 -772 0
-653 -773 0
-654 -774 0
-655 -775 0
-656 -776 0
-657 -777 0
-658 -778 0
-659 -779 0
-660 -780 0
-136 -871 0
-137 -872 0
-138 -873 0
-139 -874 0
-140 -875 0
-141 -876 0
-142 -877 0
-143 -878 0
-144 -879 0
-145 -880 0
-146 -881 0
-147 -882 0
-148 -883 0
-149 -884 0
-150 -885 0
-31 -286 0
-32 -287 0
-33 -288 0
-34 -289 0
-35 -290 0
-36 -291 0
-37 -292 0
-38 -293 0
-39 -294 0
-40 -295 0
-41 -296 0
-42 -297 0
-43 -298 0
-44 -299 0
-45 -300 0
-316 -481 0
-317 -482 0
-318 -483 0
-319 -484 0
-320 -485 0
-321 -486 0
-322 -487 0
-323 -488 0
-324 -489 0
-325 -490 0
-326 -491 0
-327 -492 0
-328 -493 0
-329 -494 0
-330 -495 0
-196 -421 0
-197 -422 0
-198 -423 0
-199 -424 0
-200 -425 0
-201 -426 0
-202 -427 0
-203 -428 0
-204 -429 0
-205 -430 0
-206 -431 0
-207 -432 0
-208 -433 0
-209 -434 0
-210 -435 0
-841 -391 0
-842 -392 0
-843 -393 0
-844 -394 0
-845 -395 0
-846 -396 0
-847 -397 0
-848 -398 0
-849 -399 0
-850 -400 0
-851 -401 0
-852 -402 0
-853 -403 0
-854 -404 0
-855 -405 0
-31 -826 0
-32 -827 0
-33 -828 0
-34 -829 0
-35 -830 0
-36 -831 0
-37 -832 0
-38 -833 0
-39 -834 0
-40 -835 0
-41 -836 0
-42 -837 0
-43 -838 0
-44 -839 0
-45 -840 0
-211 -436 0
-212 -437 0
-213 -438 0
-214 -439 0
-215 -440 0
-216 -441 0
-217 -442 0
-218 -443 0
-219 -444 0
-220 -445 0
-221 -446 0
-222 -447 0
-223 -448 0
-224 -449 0
-225 -450 0
-91 -376 0
-92 -377 0
-93 -378 0
-94 -379 0
-95 -380 0
-96 -381 0
-97 -382 0
-98 -383 0
-99 -384 0
-100 -385 0
-101 -386 0
-102 -387 0
-103 -388 0
-104 -389 0
-105 -390 0
-691 -916 0
-692 -917 0
-693 -918 0
-694 -919 0
-695 -920 0
-696 -921 0
-697 -922 0
-698 -923 0
-699 -924 0
-700 -925 0
-701 -926 0
-702 -927 0
-703 -928 0
-704 -929 0
-705 -930 0
-256 -511 0
-257 -512 0
-258 -513 0
-259 -514 0
-260 -515 0
-261 -516 0
-262 -517 0
-263 -518 0
-264 -519 0
-265 -520 0
-266 -521 0
-267 -522 0
-268 -523 0
-269 -524 0
-270 -525 0
-706 -931 0
-707 -932 0
-708 -933 0
-709 -934 0
-710 -935 0
-711 -936 0
-712 -937 0
-713 -938 0
-714 -939 0
-715 -940 0
-716 -941 0
-717 -942 0
-718 -943 0
-719 -944 0
-720 -945 0
-301 -676 0
-302 -677 0
-303 -678 0
-304 -679 0
-305 -680 0
-306 -681 0
-307 -682 0
-308 -683 0
-309 -684 0
-310 -685 0
-311 -686 0
-312 -687 0
-313 -688 0
-314 -689 0
-315 -690 0
-601 -346 0
-602 -347 0
-603 -348 0
-604 -349 0
-605 -350 0
-606 -351 0
-607 -352 0
-608 -353 0
-609 -354 0
-610 -355 0
-611 -356 0
-612 -357 0
-613 -358 0
-614 -359 0
-615 -360 0
-136 -526 0
-137 -527 0
-138 -528 0
-139 -529 0
-140 -530 0
-141 -531 0
-142 -532 0
-143 -533 0
-144 -534 0
-145 -535 0
-146 -536 0
-147 -537 0
-148 -538 0
-149 -539 0
-150 -540 0
-16 -466 0
-17 -467 0
-18 -468 0
-19 -469 0
-20 -470 0
-21 -471 0
-22 -472 0
-23 -473 0
-24 -474 0
-25 -475 0
-26 -476 0
-27 -477 0
-28 -478 0
-29 -479 0
-30 -480 0
-781 -496 0
-782 -497 0
-783 -498 0
-784 -499 0
-785 -500 0
-786 -501 0
-787 -502 0
-788 -503 0
-789 -504 0
-790 -505 0
-791 -506 0
-792 -507 0
-793 -508 0
-794 -509 0
-795 -510 0
-31 -481 0
-32 -482 0
-33 -483 0
-34 -484 0
-35 -485 0
-36 -486 0
-37 -487 0
-38 -488 0
-39 -489 0
-40 -490 0
-41 -491 0
-42 -492 0
-43 -493 0
-44 -494 0
-45 -495 0
-316 -676 0
-317 -677 0
-318 -678 0
-319 -679 0
-320 -680 0
-321 -681 0
-322 -682 0
-323 -683 0
-324 -684 0
-325 -685 0
-326 -686 0
-327 -687 0
-328 -688 0
-329 -689 0
-330 -690 0
-196 -616 0
-197 -617 0
-198 -618 0
-199 -619 0
-200 -620 0
-201 -621 0
-202 -622 0
-203 -623 0
-204 -624 0
-205 -625 0
-206 -626 0
-207 -627 0
-208 -628 0
-209 -629 0
-210 -630 0
-811 -631 0
-812 -632 0
-813 -633 0
-814 -634 0
-815 -635 0
-816 -636 0
-817 -637 0
-818 -638 0
-819 -639 0
-820 -640 0
-821 -641 0
-822 -642 0
-823 -643 0
-824 -644 0
-825 -645 0
-871 -736 0
-872 -737 0
-873 -738 0
-874 -739 0
-875 -740 0
-876 -741 0
-877 -742 0
-878 -743 0
-879 -744 0
-880 -745 0
-881 -746 0
-882 -747 0
-883 -748 0
-884 -749 0
-885 -750 0
-121 -721 0
-122 -722 0
-123 -723 0
-124 -724 0
-125 -725 0
-126 -726 0
-127 -727 0
-128 -728 0
-129 -729 0
-130 -730 0
-131 -731 0
-132 -732 0
-133 -733 0
-134 -734 0
-135 -735 0
-586 -526 0
-587 -527 0
-588 -528 0
-589 -529 0
-590 -530 0
-591 -531 0
-592 -532 0
-593 -533 0
-594 -534 0
-595 -535 0
-596 -536 0
-597 -537 0
-598 -538 0
-599 -539 0
-600 -540 0
-766 -136 0
-767 -137 0
-768 -138 0
-769 -139 0
-770 -140 0
-771 -141 0
-772 -142 0
-773 -143 0
-774 -144 0
-775 -145 0
-776 -146 0
-777 -147 0
-778 -148 0
-779 -149 0
-780 -150 0
-601 -541 0
-602 -542 0
-603 -543 0
-604 -544 0
-605 -545 0
-606 -546 0
-607 -547 0
-608 -548 0
-609 -549 0
-610 -550 0
-611 -551 0
-612 -552 0
-613 -553 0
-614 -554 0
-615 -555 0
-766 -676 0
-767 -677 0
-768 -678 0
-769 -679 0
-770 -680 0
-771 -681 0
-772 -682 0
-773 -683 0
-774 -684 0
-775 -685 0
-776 -686 0
-777 -687 0
-778 -688 0
-779 -689 0
-780 -690 0
-361 -421 0
-362 -422 0
-363 -423 0
-364 -424 0
-365 -425 0
-366 -426 0
-367 -427 0
-368 -428 0
-369 -429 0
-370 -430 0
-371 -431 0
-372 -432 0
-373 -433 0
-374 -434 0
-375 -435 0
-646 -616 0
-647 -617 0
-648 -618 0
-649 -619 0
-650 -620 0
-651 -621 0
-652 -622 0
-653 -623 0
-654 -624 0
-655 -625 0
-656 -626 0
-657 -627 0
-658 -628 0
-659 -629 0
-660 -630 0
-136 -721 0
-137 -722 0
-138 -723 0
-139 -724 0
-140 -725 0
-141 -726 0
-142 -727 0
-143 -728 0
-144 -729 0
-145 -730 0
-146 -731 0
-147 -732 0
-148 -733 0
-149 -734 0
-150 -735 0
-826 -226 0
-827 -227 0
-828 -228 0
-829 -229 0
-830 -230 0
-831 -231 0
-832 -232 0
-833 -233 0
-834 -234 0
-835 -235 0
-836 -236 0
-837 -237 0
-838 -238 0
-839 -239 0
-840 -240 0
-31 -136 0
-32 -137 0
-33 -138 0
-34 -139 0
-35 -140 0
-36 -141 0
-37 -142 0
-38 -143 0
-39 -144 0
-40 -145 0
-41 -146 0
-42 -147 0
-43 -148 0
-44 -149 0
-45 -150 0
-316 -331 0
-317 -332 0
-318 -333 0
-319 -334 0
-320 -335 0
-321 -336 0
-322 -337 0
-323 -338 0
-324 -339 0
-325 -340 0
-326 -341 0
-327 -342 0
-328 -343 0
-329 -344 0
-330 -345 0
-196 -271 0
-197 -272 0
-198 -273 0
-199 -274 0
-200 -275 0
-201 -276 0
-202 -277 0
-203 -278 0
-204 -279 0
-205 -280 0
-206 -281 0
-207 -282 0
-208 -283 0
-209 -284 0
-210 -285 0
-181 -886 0
-182 -887 0
-183 -888 0
-184 -889 0
-185 -890 0
-186 -891 0
-187 -892 0
-188 -893 0
-189 -894 0
-190 -895 0
-191 -896 0
-192 -897 0
-193 -898 0
-194 -899 0
-195 -900 0
-871 -391 0
-872 -392 0
-873 -393 0
-874 -394 0
-875 -395 0
-876 -396 0
-877 -397 0
-878 -398 0
-879 -399 0
-880 -400 0
-881 -401 0
-882 -402 0
-883 -403 0
-884 -404 0
-885 -405 0
-811 -826 0
-812 -827 0
-813 -828 0
-814 -829 0
-815 -830 0
-816 -831 0
-817 -832 0
-818 -833 0
-819 -834 0
-820 -835 0
-821 -836 0
-822 -837 0
-823 -838 0
-824 -839 0
-825 -840 0
-91 -226 0
-92 -227 0
-93 -228 0
-94 -229 0
-95 -230 0
-96 -231 0
-97 -232 0
-98 -233 0
-99 -234 0
-100 -235 0
-101 -236 0
-102 -237 0
-103 -238 0
-104 -239 0
-105 -240 0
-706 -241 0
-707 -242 0
-708 -243 0
-709 -244 0
-710 -245 0
-711 -246 0
-712 -247 0
-713 -248 0
-714 -249 0
-715 -250 0
-716 -251 0
-717 -252 0
-718 -253 0
-719 -254 0
-720 -255 0
-691 -766 0
-692 -767 0
-693 -768 0
-694 -769 0
-695 -770 0
-696 -771 0
-697 -772 0
-698 -773 0
-699 -774 0
-700 -775 0
-701 -776 0
-702 -777 0
-703 -778 0
-704 -779 0
-705 -780 0
-121 -916 0
-122 -917 0
-123 -918 0
-124 -919 0
-125 -920 0
-126 -921 0
-127 -922 0
-128 -923 0
-129 -924 0
-130 -925 0
-131 -926 0
-132 -927 0
-133 -928 0
-134 -929 0
-135 -930 0
-301 -526 0
-302 -527 0
-303 -528 0
-304 -529 0
-305 -530 0
-306 -531 0
-307 -532 0
-308 -533 0
-309 -534 0
-310 -535 0
-311 -536 0
-312 -537 0
-313 -538 0
-314 -539 0
-315 -540 0
-586 -721 0
-587 -722 0
-588 -723 0
-589 -724 0
-590 -725 0
-591 -726 0
-592 -727 0
-593 -728 0
-594 -729 0
-595 -730 0
-596 -731 0
-597 -732 0
-598 -733 0
-599 -734 0
-600 -735 0
-886 -391 0
-887 -392 0
-888 -393 0
-889 -394 0
-890 -395 0
-891 -396 0
-892 -397 0
-893 -398 0
-894 -399 0
-895 -400 0
-896 -401 0
-897 -402 0
-898 -403 0
-899 -404 0
-900 -405 0
-766 -331 0
-767 -332 0
-768 -333 0
-769 -334 0
-770 -335 0
-771 -336 0
-772 -337 0
-773 -338 0
-774 -339 0
-775 -340 0
-776 -341 0
-777 -342 0
-778 -343 0
-779 -344 0
-780 -345 0
-646 -271 0
-647 -272 0
-648 -273 0
-649 -274 0
-650 -275 0
-651 -276 0
-652 -277 0
-653 -278 0
-654 -279 0
-655 -280 0
-656 -281 0
-657 -282 0
-658 -283 0
-659 -284 0
-660 -285 0
-136 -376 0
-137 -377 0
-138 -378 0
-139 -379 0
-140 -380 0
-141 -381 0
-142 -382 0
-143 -383 0
-144 -384 0
-145 -385 0
-146 -386 0
-147 -387 0
-148 -388 0
-149 -389 0
-150 -390 0
-16 -316 0
-17 -317 0
-18 -318 0
-19 -319 0
-20 -320 0
-21 -321 0
-22 -322 0
-23 -323 0
-24 -324 0
-25 -325 0
-26 -326 0
-27 -327 0
-28 -328 0
-29 -329 0
-30 -330 0
-751 -931 0
-752 -932 0
-753 -933 0
-754 -934 0
-755 -935 0
-756 -936 0
-757 -937 0
-758 -938 0
-759 -939 0
-760 -940 0
-761 -941 0
-762 -942 0
-763 -943 0
-764 -944 0
-765 -945 0
-346 -676 0
-347 -677 0
-348 -678 0
-349 -679 0
-350 -680 0
-351 -681 0
-352 -682 0
-353 -683 0
-354 -684 0
-355 -685 0
-356 -686 0
-357 -687 0
-358 -688 0
-359 -689 0
-360 -690 0
-31 -331 0
-32 -332 0
-33 -333 0
-34 -334 0
-35 -335 0
-36 -336 0
-37 -337 0
-38 -338 0
-39 -339 0
-40 -340 0
-41 -341 0
-42 -342 0
-43 -343 0
-44 -344 0
-45 -345 0
-196 -466 0
-197 -467 0
-198 -468 0
-199 -469 0
-200 -470 0
-201 -471 0
-202 -472 0
-203 -473 0
-204 -474 0
-205 -475 0
-206 -476 0
-207 -477 0
-208 -478 0
-209 -479 0
-210 -480 0
-706 -436 0
-707 -437 0
-708 -438 0
-709 -439 0
-710 -440 0
-711 -441 0
-712 -442 0
-713 -443 0
-714 -444 0
-715 -445 0
-716 -446 0
-717 -447 0
-718 -448 0
-719 -449 0
-720 -450 0
-586 -376 0
-587 -377 0
-588 -378 0
-589 -379 0
-590 -380 0
-591 -381 0
-592 -382 0
-593 -383 0
-594 -384 0
-595 -385 0
-596 -386 0
-597 -387 0
-598 -388 0
-599 -389 0
-600 -390 0
-76 -481 0
-77 -482 0
-78 -483 0
-79 -484 0
-80 -485 0
-81 -486 0
-82 -487 0
-83 -488 0
-84 -489 0
-85 -490 0
-86 -491 0
-87 -492 0
-88 -493 0
-89 -494 0
-90 -495 0
-301 -721 0
-302 -722 0
-303 -723 0
-304 -724 0
-305 -725 0
-306 -726 0
-307 -727 0
-308 -728 0
-309 -729 0
-310 -730 0
-311 -731 0
-312 -732 0
-313 -733 0
-314 -734 0
-315 -735 0
-916 -736 0
-917 -737 0
-918 -738 0
-919 -739 0
-920 -740 0
-921 -741 0
-922 -742 0
-923 -743 0
-924 -744 0
-925 -745 0
-926 -746 0
-927 -747 0
-928 -748 0
-929 -749 0
-930 -750 0
-16 -511 0
-17 -512 0
-18 -513 0
-19 -514 0
-20 -515 0
-21 -516 0
-22 -517 0
-23 -518 0
-24 -519 0
-25 -520 0
-26 -521 0
-27 -522 0
-28 -523 0
-29 -524 0
-30 -525 0
-631 -526 0
-632 -527 0
-633 -528 0
-634 -529 0
-635 -530 0
-636 -531 0
-637 -532 0
-638 -533 0
-639 -534 0
-640 -535 0
-641 -536 0
-642 -537 0
-643 -538 0
-644 -539 0
-645 -540 0
-811 -136 0
-812 -137 0
-813 -138 0
-814 -139 0
-815 -140 0
-816 -141 0
-817 -142 0
-818 -143 0
-819 -144 0
-820 -145 0
-821 -146 0
-822 -147 0
-823 -148 0
-824 -149 0
-825 -150 0
-181 -736 0
-182 -737 0
-183 -738 0
-184 -739 0
-185 -740 0
-186 -741 0
-187 -742 0
-188 -743 0
-189 -744 0
-190 -745 0
-191 -746 0
-192 -747 0
-193 -748 0
-194 -749 0
-195 -750 0
-871 -241 0
-872 -242 0
-873 -243 0
-874 -244 0
-875 -245 0
-876 -246 0
-877 -247 0
-878 -248 0
-879 -249 0
-880 -250 0
-881 -251 0
-882 -252 0
-883 -253 0
-884 -254 0
-885 -255 0
-241 -286 0
-242 -287 0
-243 -288 0
-244 -289 0
-245 -290 0
-246 -291 0
-247 -292 0
-248 -293 0
-249 -294 0
-250 -295 0
-251 -296 0
-252 -297 0
-253 -298 0
-254 -299 0
-255 -300 0
-811 -676 0
-812 -677 0
-813 -678 0
-814 -679 0
-815 -680 0
-816 -681 0
-817 -682 0
-818 -683 0
-819 -684 0
-820 -685 0
-821 -686 0
-822 -687 0
-823 -688 0
-824 -689 0
-825 -690 0
-406 -421 0
-407 -422 0
-408 -423 0
-409 -424 0
-410 -425 0
-411 -426 0
-412 -427 0
-413 -428 0
-414 -429 0
-415 -430 0
-416 -431 0
-417 -432 0
-418 -433 0
-419 -434 0
-420 -435 0
-691 -616 0
-692 -617 0
-693 -618 0
-694 -619 0
-695 -620 0
-696 -621 0
-697 -622 0
-698 -623 0
-699 -624 0
-700 -625 0
-701 -626 0
-702 -627 0
-703 -628 0
-704 -629 0
-705 -630 0
-61 -661 0
-62 -662 0
-63 -663 0
-64 -664 0
-65 -665 0
-66 -666 0
-67 -667 0
-68 -668 0
-69 -669 0
-70 -670 0
-71 -671 0
-72 -672 0
-73 -673 0
-74 -674 0
-75 -675 0
-76 -136 0
-77 -137 0
-78 -138 0
-79 -139 0
-80 -140 0
-81 -141 0
-82 -142 0
-83 -143 0
-84 -144 0
-85 -145 0
-86 -146 0
-87 -147 0
-88 -148 0
-89 -149 0
-90 -150 0
-856 -841 0
-857 -842 0
-858 -843 0
-859 -844 0
-860 -845 0
-861 -846 0
-862 -847 0
-863 -848 0
-864 -849 0
-865 -850 0
-866 -851 0
-867 -852 0
-868 -853 0
-869 -854 0
-870 -855 0
-421 -436 0
-422 -437 0
-423 -438 0
-424 -439 0
-425 -440 0
-426 -441 0
-427 -442 0
-428 -443 0
-429 -444 0
-430 -445 0
-431 -446 0
-432 -447 0
-433 -448 0
-434 -449 0
-435 -450 0
-301 -376 0
-302 -377 0
-303 -378 0
-304 -379 0
-305 -380 0
-306 -381 0
-307 -382 0
-308 -383 0
-309 -384 0
-310 -385 0
-311 -386 0
-312 -387 0
-313 -388 0
-314 -389 0
-315 -390 0
-916 -391 0
-917 -392 0
-918 -393 0
-919 -394 0
-920 -395 0
-921 -396 0
-922 -397 0
-923 -398 0
-924 -399 0
-925 -400 0
-926 -401 0
-927 -402 0
-928 -403 0
-929 -404 0
-930 -405 0
-766 -181 0
-767 -182 0
-768 -183 0
-769 -184 0
-770 -185 0
-771 -186 0
-772 -187 0
-773 -188 0
-774 -189 0
-775 -190 0
-776 -191 0
-777 -192 0
-778 -193 0
-779 -194 0
-780 -195 0
-646 -121 0
-647 -122 0
-648 -123 0
-649 -124 0
-650 -125 0
-651 -126 0
-652 -127 0
-653 -128 0
-654 -129 0
-655 -130 0
-656 -131 0
-657 -132 0
-658 -133 0
-659 -134 0
-660 -135 0
-136 -226 0
-137 -227 0
-138 -228 0
-139 -229 0
-140 -230 0
-141 -231 0
-142 -232 0
-143 -233 0
-144 -234 0
-145 -235 0
-146 -236 0
-147 -237 0
-148 -238 0
-149 -239 0
-150 -240 0
-16 -166 0
-17 -167 0
-18 -168 0
-19 -169 0
-20 -170 0
-21 -171 0
-22 -172 0
-23 -173 0
-24 -174 0
-25 -175 0
-26 -176 0
-27 -177 0
-28 -178 0
-29 -179 0
-30 -180 0
-166 -916 0
-167 -917 0
-168 -918 0
-169 -919 0
-170 -920 0
-171 -921 0
-172 -922 0
-173 -923 0
-174 -924 0
-175 -925 0
-176 -926 0
-177 -927 0
-178 -928 0
-179 -929 0
-180 -930 0
-181 -391 0
-182 -392 0
-183 -393 0
-184 -394 0
-185 -395 0
-186 -396 0
-187 -397 0
-188 -398 0
-189 -399 0
-190 -400 0
-191 -401 0
-192 -402 0
-193 -403 0
-194 -404 0
-195 -405 0
-46 -856 0
-47 -857 0
-48 -858 0
-49 -859 0
-50 -860 0
-51 -861 0
-52 -862 0
-53 -863 0
-54 -864 0
-55 -865 0
-56 -866 0
-57 -867 0
-58 -868 0
-59 -869 0
-60 -870 0
-346 -526 0
-347 -527 0
-348 -528 0
-349 -529 0
-350 -530 0
-351 -531 0
-352 -532 0
-353 -533 0
-354 -534 0
-355 -535 0
-356 -536 0
-357 -537 0
-358 -538 0
-359 -539 0
-360 -540 0
-226 -466 0
-227 -467 0
-228 -468 0
-229 -469 0
-230 -470 0
-231 -471 0
-232 -472 0
-233 -473 0
-234 -474 0
-235 -475 0
-236 -476 0
-237 -477 0
-238 -478 0
-239 -479 0
-240 -480 0
-811 -331 0
-812 -332 0
-813 -333 0
-814 -334 0
-815 -335 0
-816 -336 0
-817 -337 0
-818 -338 0
-819 -339 0
-820 -340 0
-821 -341 0
-822 -342 0
-823 -343 0
-824 -344 0
-825 -345 0
-691 -271 0
-692 -272 0
-693 -273 0
-694 -274 0
-695 -275 0
-696 -276 0
-697 -277 0
-698 -278 0
-699 -279 0
-700 -280 0
-701 -281 0
-702 -282 0
-703 -283 0
-704 -284 0
-705 -285 0
-181 -931 0
-182 -932 0
-183 -933 0
-184 -934 0
-185 -935 0
-186 -936 0
-187 -937 0
-188 -938 0
-189 -939 0
-190 -940 0
-191 -941 0
-192 -942 0
-193 -943 0
-194 -944 0
-195 -945 0
-871 -436 0
-872 -437 0
-873 -438 0
-874 -439 0
-875 -440 0
-876 -441 0
-877 -442 0
-878 -443 0
-879 -444 0
-880 -445 0
-881 -446 0
-882 -447 0
-883 -448 0
-884 -449 0
-885 -450 0
-61 -316 0
-62 -317 0
-63 -318 0
-64 -319 0
-65 -320 0
-66 -321 0
-67 -322 0
-68 -323 0
-69 -324 0
-70 -325 0
-71 -326 0
-72 -327 0
-73 -328 0
-74 -329 0
-75 -330 0
-241 -481 0
-242 -482 0
-243 -483 0
-244 -484 0
-245 -485 0
-246 -486 0
-247 -487 0
-248 -488 0
-249 -489 0
-250 -490 0
-251 -491 0
-252 -492 0
-253 -493 0
-254 -494 0
-255 -495 0
-121 -421 0
-122 -422 0
-123 -423 0
-124 -424 0
-125 -425 0
-126 -426 0
-127 -427 0
-128 -428 0
-129 -429 0
-130 -430 0
-131 -431 0
-132 -432 0
-133 -433 0
-134 -434 0
-135 -435 0
-406 -616 0
-407 -617 0
-408 -618 0
-409 -619 0
-410 -620 0
-411 -621 0
-412 -622 0
-413 -623 0
-414 -624 0
-415 -625 0
-416 -626 0
-417 -627 0
-418 -628 0
-419 -629 0
-420 -630 0
-706 -286 0
-707 -287 0
-708 -288 0
-709 -289 0
-710 -290 0
-711 -291 0
-712 -292 0
-713 -293 0
-714 -294 0
-715 -295 0
-716 -296 0
-717 -297 0
-718 -298 0
-719 -299 0
-720 -300 0
-586 -226 0
-587 -227 0
-588 -228 0
-589 -229 0
-590 -230 0
-591 -231 0
-592 -232 0
-593 -233 0
-594 -234 0
-595 -235 0
-596 -236 0
-597 -237 0
-598 -238 0
-599 -239 0
-600 -240 0
-61 -856 0
-62 -857 0
-63 -858 0
-64 -859 0
-65 -860 0
-66 -861 0
-67 -862 0
-68 -863 0
-69 -864 0
-70 -865 0
-71 -866 0
-72 -867 0
-73 -868 0
-74 -869 0
-75 -870 0
-76 -331 0
-77 -332 0
-78 -333 0
-79 -334 0
-80 -335 0
-81 -336 0
-82 -337 0
-83 -338 0
-84 -339 0
-85 -340 0
-86 -341 0
-87 -342 0
-88 -343 0
-89 -344 0
-90 -345 0
-286 -631 0
-287 -632 0
-288 -633 0
-289 -634 0
-290 -635 0
-291 -636 0
-292 -637 0
-293 -638 0
-294 -639 0
-295 -640 0
-296 -641 0
-297 -642 0
-298 -643 0
-299 -644 0
-300 -645 0
-1 -421 0
-2 -422 0
-3 -423 0
-4 -424 0
-5 -425 0
-6 -426 0
-7 -427 0
-8 -428 0
-9 -429 0
-10 -430 0
-11 -431 0
-12 -432 0
-13 -433 0
-14 -434 0
-15 -435 0
-346 -721 0
-347 -722 0
-348 -723 0
-349 -724 0
-350 -725 0
-351 -726 0
-352 -727 0
-353 -728 0
-354 -729 0
-355 -730 0
-356 -731 0
-357 -732 0
-358 -733 0
-359 -734 0
-360 -735 0
-226 -661 0
-227 -662 0
-228 -663 0
-229 -664 0
-230 -665 0
-231 -666 0
-232 -667 0
-233 -668 0
-234 -669 0
-235 -670 0
-236 -671 0
-237 -672 0
-238 -673 0
-239 -674 0
-240 -675 0
-61 -511 0
-62 -512 0
-63 -513 0
-64 -514 0
-65 -515 0
-66 -516 0
-67 -517 0
-68 -518 0
-69 -519 0
-70 -520 0
-71 -521 0
-72 -522 0
-73 -523 0
-74 -524 0
-75 -525 0
-571 -481 0
-572 -482 0
-573 -483 0
-574 -484 0
-575 -485 0
-576 -486 0
-577 -487 0
-578 -488 0
-579 -489 0
-580 -490 0
-581 -491 0
-582 -492 0
-583 -493 0
-584 -494 0
-585 -495 0
-151 -751 0
-152 -752 0
-153 -753 0
-154 -754 0
-155 -755 0
-156 -756 0
-157 -757 0
-158 -758 0
-159 -759 0
-160 -760 0
-161 -761 0
-162 -762 0
-163 -763 0
-164 -764 0
-165 -765 0
-331 -361 0
-332 -362 0
-333 -363 0
-334 -364 0
-335 -365 0
-336 -366 0
-337 -367 0
-338 -368 0
-339 -369 0
-340 -370 0
-341 -371 0
-342 -372 0
-343 -373 0
-344 -374 0
-345 -375 0
-181 -241 0
-182 -242 0
-183 -243 0
-184 -244 0
-185 -245 0
-186 -246 0
-187 -247 0
-188 -248 0
-189 -249 0
-190 -250 0
-191 -251 0
-192 -252 0
-193 -253 0
-194 -254 0
-195 -255 0
-46 -706 0
-47 -707 0
-48 -708 0
-49 -709 0
-50 -710 0
-51 -711 0
-52 -712 0
-53 -713 0
-54 -714 0
-55 -715 0
-56 -716 0
-57 -717 0
-58 -718 0
-59 -719 0
-60 -720 0
-331 -901 0
-332 -902 0
-333 -903 0
-334 -904 0
-335 -905 0
-336 -906 0
-337 -907 0
-338 -908 0
-339 -909 0
-340 -910 0
-341 -911 0
-342 -912 0
-343 -913 0
-344 -914 0
-345 -915 0
-346 -376 0
-347 -377 0
-348 -378 0
-349 -379 0
-350 -380 0
-351 -381 0
-352 -382 0
-353 -383 0
-354 -384 0
-355 -385 0
-356 -386 0
-357 -387 0
-358 -388 0
-359 -389 0
-360 -390 0
-226 -316 0
-227 -317 0
-228 -318 0
-229 -319 0
-230 -320 0
-231 -321 0
-232 -322 0
-233 -323 0
-234 -324 0
-235 -325 0
-236 -326 0
-237 -327 0
-238 -328 0
-239 -329 0
-240 -330 0
-811 -181 0
-812 -182 0
-813 -183 0
-814 -184 0
-815 -185 0
-816 -186 0
-817 -187 0
-818 -188 0
-819 -189 0
-820 -190 0
-821 -191 0
-822 -192 0
-823 -193 0
-824 -194 0
-825 -195 0
-1 -616 0
-2 -617 0
-3 -618 0
-4 -619 0
-5 -620 0
-6 -621 0
-7 -622 0
-8 -623 0
-9 -624 0
-10 -625 0
-11 -626 0
-12 -627 0
-13 -628 0
-14 -629 0
-15 -630 0
-691 -121 0
-692 -122 0
-693 -123 0
-694 -124 0
-695 -125 0
-696 -126 0
-697 -127 0
-698 -128 0
-699 -129 0
-700 -130 0
-701 -131 0
-702 -132 0
-703 -133 0
-704 -134 0
-705 -135 0
-61 -166 0
-62 -167 0
-63 -168 0
-64 -169 0
-65 -170 0
-66 -171 0
-67 -172 0
-68 -173 0
-69 -174 0
-70 -175 0
-71 -176 0
-72 -177 0
-73 -178 0
-74 -179 0
-75 -180 0
-676 -736 0
-677 -737 0
-678 -738 0
-679 -739 0
-680 -740 0
-681 -741 0
-682 -742 0
-683 -743 0
-684 -744 0
-685 -745 0
-686 -746 0
-687 -747 0
-688 -748 0
-689 -749 0
-690 -750 0
-241 -331 0
-242 -332 0
-243 -333 0
-244 -334 0
-245 -335 0
-246 -336 0
-247 -337 0
-248 -338 0
-249 -339 0
-250 -340 0
-251 -341 0
-252 -342 0
-253 -343 0
-254 -344 0
-255 -345 0
-856 -346 0
-857 -347 0
-858 -348 0
-859 -349 0
-860 -350 0
-861 -351 0
-862 -352 0
-863 -353 0
-864 -354 0
-865 -355 0
-866 -356 0
-867 -357 0
-868 -358 0
-869 -359 0
-870 -360 0
-121 -271 0
-122 -272 0
-123 -273 0
-124 -274 0
-125 -275 0
-126 -276 0
-127 -277 0
-128 -278 0
-129 -279 0
-130 -280 0
-131 -281 0
-132 -282 0
-133 -283 0
-134 -284 0
-135 -285 0
-211 -916 0
-212 -917 0
-213 -918 0
-214 -919 0
-215 -920 0
-216 -921 0
-217 -922 0
-218 -923 0
-219 -924 0
-220 -925 0
-221 -926 0
-222 -927 0
-223 -928 0
-224 -929 0
-225 -930 0
-391 -526 0
-392 -527 0
-393 -528 0
-394 -529 0
-395 -530 0
-396 -531 0
-397 -532 0
-398 -533 0
-399 -534 0
-400 -535 0
-401 -536 0
-402 -537 0
-403 -538 0
-404 -539 0
-405 -540 0
-76 -181 0
-77 -182 0
-78 -183 0
-79 -184 0
-80 -185 0
-81 -186 0
-82 -187 0
-83 -188 0
-84 -189 0
-85 -190 0
-86 -191 0
-87 -192 0
-88 -193 0
-89 -194 0
-90 -195 0
-271 -466 0
-272 -467 0
-273 -468 0
-274 -469 0
-275 -470 0
-276 -471 0
-277 -472 0
-278 -473 0
-279 -474 0
-280 -475 0
-281 -476 0
-282 -477 0
-283 -478 0
-284 -479 0
-285 -480 0
-571 -136 0
-572 -137 0
-573 -138 0
-574 -139 0
-575 -140 0
-576 -141 0
-577 -142 0
-578 -143 0
-579 -144 0
-580 -145 0
-581 -146 0
-582 -147 0
-583 -148 0
-584 -149 0
-585 -150 0
-916 -436 0
-917 -437 0
-918 -438 0
-919 -439 0
-920 -440 0
-921 -441 0
-922 -442 0
-923 -443 0
-924 -444 0
-925 -445 0
-926 -446 0
-927 -447 0
-928 -448 0
-929 -449 0
-930 -450 0
-286 -481 0
-287 -482 0
-288 -483 0
-289 -484 0
-290 -485 0
-291 -486 0
-292 -487 0
-293 -488 0
-294 -489 0
-295 -490 0
-296 -491 0
-297 -492 0
-298 -493 0
-299 -494 0
-300 -495 0
-166 -421 0
-167 -422 0
-168 -423 0
-169 -424 0
-170 -425 0
-171 -426 0
-172 -427 0
-173 -428 0
-174 -429 0
-175 -430 0
-176 -431 0
-177 -432 0
-178 -433 0
-179 -434 0
-180 -435 0
-451 -616 0
-452 -617 0
-453 -618 0
-454 -619 0
-455 -620 0
-456 -621 0
-457 -622 0
-458 -623 0
-459 -624 0
-460 -625 0
-461 -626 0
-462 -627 0
-463 -628 0
-464 -629 0
-465 -630 0
-46 -361 0
-47 -362 0
-48 -363 0
-49 -364 0
-50 -365 0
-51 -366 0
-52 -367 0
-53 -368 0
-54 -369 0
-55 -370 0
-56 -371 0
-57 -372 0
-58 -373 0
-59 -374 0
-60 -375 0
-331 -556 0
-332 -557 0
-333 -558 0
-334 -559 0
-335 -560 0
-336 -561 0
-337 -562 0
-338 -563 0
-339 -564 0
-340 -565 0
-341 -566 0
-342 -567 0
-343 -568 0
-344 -569 0
-345 -570 0
-631 -226 0
-632 -227 0
-633 -228 0
-634 -229 0
-635 -230 0
-636 -231 0
-637 -232 0
-638 -233 0
-639 -234 0
-640 -235 0
-641 -236 0
-642 -237 0
-643 -238 0
-644 -239 0
-645 -240 0
-1 -271 0
-2 -272 0
-3 -273 0
-4 -274 0
-5 -275 0
-6 -276 0
-7 -277 0
-8 -278 0
-9 -279 0
-10 -280 0
-11 -281 0
-12 -282 0
-13 -283 0
-14 -284 0
-15 -285 0
-181 -436 0
-182 -437 0
-183 -438 0
-184 -439 0
-185 -440 0
-186 -441 0
-187 -442 0
-188 -443 0
-189 -444 0
-190 -445 0
-191 -446 0
-192 -447 0
-193 -448 0
-194 -449 0
-195 -450 0
-46 -901 0
-47 -902 0
-48 -903 0
-49 -904 0
-50 -905 0
-51 -906 0
-52 -907 0
-53 -908 0
-54 -909 0
-55 -910 0
-56 -911 0
-57 -912 0
-58 -913 0
-59 -914 0
-60 -915 0
-676 -391 0
-677 -392 0
-678 -393 0
-679 -394 0
-680 -395 0
-681 -396 0
-682 -397 0
-683 -398 0
-684 -399 0
-685 -400 0
-686 -401 0
-687 -402 0
-688 -403 0
-689 -404 0
-690 -405 0
-226 -511 0
-227 -512 0
-228 -513 0
-229 -514 0
-230 -515 0
-231 -516 0
-232 -517 0
-233 -518 0
-234 -519 0
-235 -520 0
-236 -521 0
-237 -522 0
-238 -523 0
-239 -524 0
-240 -525 0
-61 -361 0
-62 -362 0
-63 -363 0
-64 -364 0
-65 -365 0
-66 -366 0
-67 -367 0
-68 -368 0
-69 -369 0
-70 -370 0
-71 -371 0
-72 -372 0
-73 -373 0
-74 -374 0
-75 -375 0
-676 -931 0
-677 -932 0
-678 -933 0
-679 -934 0
-680 -935 0
-681 -936 0
-682 -937 0
-683 -938 0
-684 -939 0
-685 -940 0
-686 -941 0
-687 -942 0
-688 -943 0
-689 -944 0
-690 -945 0
-106 -526 0
-107 -527 0
-108 -528 0
-109 -529 0
-110 -530 0
-111 -531 0
-112 -532 0
-113 -533 0
-114 -534 0
-115 -535 0
-116 -536 0
-117 -537 0
-118 -538 0
-119 -539 0
-120 -540 0
-271 -661 0
-272 -662 0
-273 -663 0
-274 -664 0
-275 -665 0
-276 -666 0
-277 -667 0
-278 -668 0
-279 -669 0
-280 -670 0
-281 -671 0
-282 -672 0
-283 -673 0
-284 -674 0
-285 -675 0
-571 -331 0
-572 -332 0
-573 -333 0
-574 -334 0
-575 -335 0
-576 -336 0
-577 -337 0
-578 -338 0
-579 -339 0
-580 -340 0
-581 -341 0
-582 -342 0
-583 -343 0
-584 -344 0
-585 -345 0
-151 -601 0
-152 -602 0
-153 -603 0
-154 -604 0
-155 -605 0
-156 -606 0
-157 -607 0
-158 -608 0
-159 -609 0
-160 -610 0
-161 -611 0
-162 -612 0
-163 -613 0
-164 -614 0
-165 -615 0
-166 -616 0
-167 -617 0
-168 -618 0
-169 -619 0
-170 -620 0
-171 -621 0
-172 -622 0
-173 -623 0
-174 -624 0
-175 -625 0
-176 -626 0
-177 -627 0
-178 -628 0
-179 -629 0
-180 -630 0
-781 -631 0
-782 -632 0
-783 -633 0
-784 -634 0
-785 -635 0
-786 -636 0
-787 -637 0
-788 -638 0
-789 -639 0
-790 -640 0
-791 -641 0
-792 -642 0
-793 -643 0
-794 -644 0
-795 -645 0
-46 -556 0
-47 -557 0
-48 -558 0
-49 -559 0
-50 -560 0
-51 -561 0
-52 -562 0
-53 -563 0
-54 -564 0
-55 -565 0
-56 -566 0
-57 -567 0
-58 -568 0
-59 -569 0
-60 -570 0
-826 -706 0
-827 -707 0
-828 -708 0
-829 -709 0
-830 -710 0
-831 -711 0
-832 -712 0
-833 -713 0
-834 -714 0
-835 -715 0
-836 -716 0
-837 -717 0
-838 -718 0
-839 -719 0
-840 -720 0
-1 -466 0
-2 -467 0
-3 -468 0
-4 -469 0
-5 -470 0
-6 -471 0
-7 -472 0
-8 -473 0
-9 -474 0
-10 -475 0
-11 -476 0
-12 -477 0
-13 -478 0
-14 -479 0
-15 -480 0
-721 -661 0
-722 -662 0
-723 -663 0
-724 -664 0
-725 -665 0
-726 -666 0
-727 -667 0
-728 -668 0
-729 -669 0
-730 -670 0
-731 -671 0
-732 -672 0
-733 -673 0
-734 -674 0
-735 -675 0
-106 -181 0
-107 -182 0
-108 -183 0
-109 -184 0
-110 -185 0
-111 -186 0
-112 -187 0
-113 -188 0
-114 -189 0
-115 -190 0
-116 -191 0
-117 -192 0
-118 -193 0
-119 -194 0
-120 -195 0
-271 -316 0
-272 -317 0
-273 -318 0
-274 -319 0
-275 -320 0
-276 -321 0
-277 -322 0
-278 -323 0
-279 -324 0
-280 -325 0
-281 -326 0
-282 -327 0
-283 -328 0
-284 -329 0
-285 -330 0
-151 -256 0
-152 -257 0
-153 -258 0
-154 -259 0
-155 -260 0
-156 -261 0
-157 -262 0
-158 -263 0
-159 -264 0
-160 -265 0
-161 -266 0
-162 -267 0
-163 -268 0
-164 -269 0
-165 -270 0
-436 -451 0
-437 -452 0
-438 -453 0
-439 -454 0
-440 -455 0
-441 -456 0
-442 -457 0
-443 -458 0
-444 -459 0
-445 -460 0
-446 -461 0
-447 -462 0
-448 -463 0
-449 -464 0
-450 -465 0
-601 -676 0
-602 -677 0
-603 -678 0
-604 -679 0
-605 -680 0
-606 -681 0
-607 -682 0
-608 -683 0
-609 -684 0
-610 -685 0
-611 -686 0
-612 -687 0
-613 -688 0
-614 -689 0
-615 -690 0
-286 -331 0
-287 -332 0
-288 -333 0
-289 -334 0
-290 -335 0
-291 -336 0
-292 -337 0
-293 -338 0
-294 -339 0
-295 -340 0
-296 -341 0
-297 -342 0
-298 -343 0
-299 -344 0
-300 -345 0
-151 -796 0
-152 -797 0
-153 -798 0
-154 -799 0
-155 -800 0
-156 -801 0
-157 -802 0
-158 -803 0
-159 -804 0
-160 -805 0
-161 -806 0
-162 -807 0
-163 -808 0
-164 -809 0
-165 -810 0
-166 -271 0
-167 -272 0
-168 -273 0
-169 -274 0
-170 -275 0
-171 -276 0
-172 -277 0
-173 -278 0
-174 -279 0
-175 -280 0
-176 -281 0
-177 -282 0
-178 -283 0
-179 -284 0
-180 -285 0
-451 -466 0
-452 -467 0
-453 -468 0
-454 -469 0
-455 -470 0
-456 -471 0
-457 -472 0
-458 -473 0
-459 -474 0
-460 -475 0
-461 -476 0
-462 -477 0
-463 -478 0
-464 -479 0
-465 -480 0
-46 -211 0
-47 -212 0
-48 -213 0
-49 -214 0
-50 -215 0
-51 -216 0
-52 -217 0
-53 -218 0
-54 -219 0
-55 -220 0
-56 -221 0
-57 -222 0
-58 -223 0
-59 -224 0
-60 -225 0
-331 -406 0
-332 -407 0
-333 -408 0
-334 -409 0
-335 -410 0
-336 -411 0
-337 -412 0
-338 -413 0
-339 -414 0
-340 -415 0
-341 -416 0
-342 -417 0
-343 -418 0
-344 -419 0
-345 -420 0
-1 -121 0
-2 -122 0
-3 -123 0
-4 -124 0
-5 -125 0
-6 -126 0
-7 -127 0
-8 -128 0
-9 -129 0
-10 -130 0
-11 -131 0
-12 -132 0
-13 -133 0
-14 -134 0
-15 -135 0
-31 -811 0
-32 -812 0
-33 -813 0
-34 -814 0
-35 -815 0
-36 -816 0
-37 -817 0
-38 -818 0
-39 -819 0
-40 -820 0
-41 -821 0
-42 -822 0
-43 -823 0
-44 -824 0
-45 -825 0
-211 -421 0
-212 -422 0
-213 -423 0
-214 -424 0
-215 -425 0
-216 -426 0
-217 -427 0
-218 -428 0
-219 -429 0
-220 -430 0
-221 -431 0
-222 -432 0
-223 -433 0
-224 -434 0
-225 -435 0
-91 -361 0
-92 -362 0
-93 -363 0
-94 -364 0
-95 -365 0
-96 -366 0
-97 -367 0
-98 -368 0
-99 -369 0
-100 -370 0
-101 -371 0
-102 -372 0
-103 -373 0
-104 -374 0
-105 -375 0
-376 -556 0
-377 -557 0
-378 -558 0
-379 -559 0
-380 -560 0
-381 -561 0
-382 -562 0
-383 -563 0
-384 -564 0
-385 -565 0
-386 -566 0
-387 -567 0
-388 -568 0
-389 -569 0
-390 -570 0
-256 -496 0
-257 -497 0
-258 -498 0
-259 -499 0
-260 -500 0
-261 -501 0
-262 -502 0
-263 -503 0
-264 -504 0
-265 -505 0
-266 -506 0
-267 -507 0
-268 -508 0
-269 -509 0
-270 -510 0
-856 -391 0
-857 -392 0
-858 -393 0
-859 -394 0
-860 -395 0
-861 -396 0
-862 -397 0
-863 -398 0
-864 -399 0
-865 -400 0
-866 -401 0
-867 -402 0
-868 -403 0
-869 -404 0
-870 -405 0
-106 -376 0
-107 -377 0
-108 -378 0
-109 -379 0
-110 -380 0
-111 -381 0
-112 -382 0
-113 -383 0
-114 -384 0
-115 -385 0
-116 -386 0
-117 -387 0
-118 -388 0
-119 -389 0
-120 -390 0
-706 -916 0
-707 -917 0
-708 -918 0
-709 -919 0
-710 -920 0
-711 -921 0
-712 -922 0
-713 -923 0
-714 -924 0
-715 -925 0
-716 -926 0
-717 -927 0
-718 -928 0
-719 -929 0
-720 -930 0
-271 -511 0
-272 -512 0
-273 -513 0
-274 -514 0
-275 -515 0
-276 -516 0
-277 -517 0
-278 -518 0
-279 -519 0
-280 -520 0
-281 -521 0
-282 -522 0
-283 -523 0
-284 -524 0
-285 -525 0
-151 -451 0
-152 -452 0
-153 -453 0
-154 -454 0
-155 -455 0
-156 -456 0
-157 -457 0
-158 -458 0
-159 -459 0
-160 -460 0
-161 -461 0
-162 -462 0
-163 -463 0
-164 -464 0
-165 -465 0
-571 -181 0
-572 -182 0
-573 -183 0
-574 -184 0
-575 -185 0
-576 -186 0
-577 -187 0
-578 -188 0
-579 -189 0
-580 -190 0
-581 -191 0
-582 -192 0
-583 -193 0
-584 -194 0
-585 -195 0
-46 -406 0
-47 -407 0
-48 -408 0
-49 -409 0
-50 -410 0
-51 -411 0
-52 -412 0
-53 -413 0
-54 -414 0
-55 -415 0
-56 -416 0
-57 -417 0
-58 -418 0
-59 -419 0
-60 -420 0
-31 -466 0
-32 -467 0
-33 -468 0
-34 -469 0
-35 -470 0
-36 -471 0
-37 -472 0
-38 -473 0
-39 -474 0
-40 -475 0
-41 -476 0
-42 -477 0
-43 -478 0
-44 -479 0
-45 -480 0
-316 -661 0
-317 -662 0
-318 -663 0
-319 -664 0
-320 -665 0
-321 -666 0
-322 -667 0
-323 -668 0
-324 -669 0
-325 -670 0
-326 -671 0
-327 -672 0
-328 -673 0
-329 -674 0
-330 -675 0
-196 -601 0
-197 -602 0
-198 -603 0
-199 -604 0
-200 -605 0
-201 -606 0
-202 -607 0
-203 -608 0
-204 -609 0
-205 -610 0
-206 -611 0
-207 -612 0
-208 -613 0
-209 -614 0
-210 -615 0
-676 -436 0
-677 -437 0
-678 -438 0
-679 -439 0
-680 -440 0
-681 -441 0
-682 -442 0
-683 -443 0
-684 -444 0
-685 -445 0
-686 -446 0
-687 -447 0
-688 -448 0
-689 -449 0
-690 -450 0
-721 -511 0
-722 -512 0
-723 -513 0
-724 -514 0
-725 -515 0
-726 -516 0
-727 -517 0
-728 -518 0
-729 -519 0
-730 -520 0
-731 -521 0
-732 -522 0
-733 -523 0
-734 -524 0
-735 -525 0
-211 -616 0
-212 -617 0
-213 -618 0
-214 -619 0
-215 -620 0
-216 -621 0
-217 -622 0
-218 -623 0
-219 -624 0
-220 -625 0
-221 -626 0
-222 -627 0
-223 -628 0
-224 -629 0
-225 -630 0
-91 -556 0
-92 -557 0
-93 -558 0
-94 -559 0
-95 -560 0
-96 -561 0
-97 -562 0
-98 -563 0
-99 -564 0
-100 -565 0
-101 -566 0
-102 -567 0
-103 -568 0
-104 -569 0
-105 -570 0
-301 -856 0
-302 -857 0
-303 -858 0
-304 -859 0
-305 -860 0
-306 -861 0
-307 -862 0
-308 -863 0
-309 -864 0
-310 -865 0
-311 -866 0
-312 -867 0
-313 -868 0
-314 -869 0
-315 -870 0
-601 -526 0
-602 -527 0
-603 -528 0
-604 -529 0
-605 -530 0
-606 -531 0
-607 -532 0
-608 -533 0
-609 -534 0
-610 -535 0
-611 -536 0
-612 -537 0
-613 -538 0
-614 -539 0
-615 -540 0
-886 -721 0
-887 -722 0
-888 -723 0
-889 -724 0
-890 -725 0
-891 -726 0
-892 -727 0
-893 -728 0
-894 -729 0
-895 -730 0
-896 -731 0
-897 -732 0
-898 -733 0
-899 -734 0
-900 -735 0
-766 -661 0
-767 -662 0
-768 -663 0
-769 -664 0
-770 -665 0
-771 -666 0
-772 -667 0
-773 -668 0
-774 -669 0
-775 -670 0
-776 -671 0
-777 -672 0
-778 -673 0
-779 -674 0
-780 -675 0
-46 -61 0
-47 -62 0
-48 -63 0
-49 -64 0
-50 -65 0
-51 -66 0
-52 -67 0
-53 -68 0
-54 -69 0
-55 -70 0
-56 -71 0
-57 -72 0
-58 -73 0
-59 -74 0
-60 -75 0
-136 -706 0
-137 -707 0
-138 -708 0
-139 -709 0
-140 -710 0
-141 -711 0
-142 -712 0
-143 -713 0
-144 -714 0
-145 -715 0
-146 -716 0
-147 -717 0
-148 -718 0
-149 -719 0
-150 -720 0
-826 -211 0
-827 -212 0
-828 -213 0
-829 -214 0
-830 -215 0
-831 -216 0
-832 -217 0
-833 -218 0
-834 -219 0
-835 -220 0
-836 -221 0
-837 -222 0
-838 -223 0
-839 -224 0
-840 -225 0
-781 -676 0
-782 -677 0
-783 -678 0
-784 -679 0
-785 -680 0
-786 -681 0
-787 -682 0
-788 -683 0
-789 -684 0
-790 -685 0
-791 -686 0
-792 -687 0
-793 -688 0
-794 -689 0
-795 -690 0
-661 -616 0
-662 -617 0
-663 -618 0
-664 -619 0
-665 -620 0
-666 -621 0
-667 -622 0
-668 -623 0
-669 -624 0
-670 -625 0
-671 -626 0
-672 -627 0
-673 -628 0
-674 -629 0
-675 -630 0
-541 -556 0
-542 -557 0
-543 -558 0
-544 -559 0
-545 -560 0
-546 -561 0
-547 -562 0
-548 -563 0
-549 -564 0
-550 -565 0
-551 -566 0
-552 -567 0
-553 -568 0
-554 -569 0
-555 -570 0
-826 -751 0
-827 -752 0
-828 -753 0
-829 -754 0
-830 -755 0
-831 -756 0
-832 -757 0
-833 -758 0
-834 -759 0
-835 -760 0
-836 -761 0
-837 -762 0
-838 -763 0
-839 -764 0
-840 -765 0
-31 -661 0
-32 -662 0
-33 -663 0
-34 -664 0
-35 -665 0
-36 -666 0
-37 -667 0
-38 -668 0
-39 -669 0
-40 -670 0
-41 -671 0
-42 -672 0
-43 -673 0
-44 -674 0
-45 -675 0
-211 -271 0
-212 -272 0
-213 -273 0
-214 -274 0
-215 -275 0
-216 -276 0
-217 -277 0
-218 -278 0
-219 -279 0
-220 -280 0
-221 -281 0
-222 -282 0
-223 -283 0
-224 -284 0
-225 -285 0
-91 -211 0
-92 -212 0
-93 -213 0
-94 -214 0
-95 -215 0
-96 -216 0
-97 -217 0
-98 -218 0
-99 -219 0
-100 -220 0
-101 -221 0
-102 -222 0
-103 -223 0
-104 -224 0
-105 -225 0
-376 -406 0
-377 -407 0
-378 -408 0
-379 -409 0
-380 -410 0
-381 -411 0
-382 -412 0
-383 -413 0
-384 -414 0
-385 -415 0
-386 -416 0
-387 -417 0
-388 -418 0
-389 -419 0
-390 -420 0
-256 -346 0
-257 -347 0
-258 -348 0
-259 -349 0
-260 -350 0
-261 -351 0
-262 -352 0
-263 -353 0
-264 -354 0
-265 -355 0
-266 -356 0
-267 -357 0
-268 -358 0
-269 -359 0
-270 -360 0
-106 -226 0
-107 -227 0
-108 -228 0
-109 -229 0
-110 -230 0
-111 -231 0
-112 -232 0
-113 -233 0
-114 -234 0
-115 -235 0
-116 -236 0
-117 -237 0
-118 -238 0
-119 -239 0
-120 -240 0
-586 -706 0
-587 -707 0
-588 -708 0
-589 -709 0
-590 -710 0
-591 -711 0
-592 -712 0
-593 -713 0
-594 -714 0
-595 -715 0
-596 -716 0
-597 -717 0
-598 -718 0
-599 -719 0
-600 -720 0
-271 -361 0
-272 -362 0
-273 -363 0
-274 -364 0
-275 -365 0
-276 -366 0
-277 -367 0
-278 -368 0
-279 -369 0
-280 -370 0
-281 -371 0
-282 -372 0
-283 -373 0
-284 -374 0
-285 -375 0
-151 -301 0
-152 -302 0
-153 -303 0
-154 -304 0
-155 -305 0
-156 -306 0
-157 -307 0
-158 -308 0
-159 -309 0
-160 -310 0
-161 -311 0
-162 -312 0
-163 -313 0
-164 -314 0
-165 -315 0
-766 -316 0
-767 -317 0
-768 -318 0
-769 -319 0
-770 -320 0
-771 -321 0
-772 -322 0
-773 -323 0
-774 -324 0
-775 -325 0
-776 -326 0
-777 -327 0
-778 -328 0
-779 -329 0
-780 -330 0
-601 -721 0
-602 -722 0
-603 -723 0
-604 -724 0
-605 -725 0
-606 -726 0
-607 -727 0
-608 -728 0
-609 -729 0
-610 -730 0
-611 -731 0
-612 -732 0
-613 -733 0
-614 -734 0
-615 -735 0
-781 -331 0
-782 -332 0
-783 -333 0
-784 -334 0
-785 -335 0
-786 -336 0
-787 -337 0
-788 -338 0
-789 -339 0
-790 -340 0
-791 -341 0
-792 -342 0
-793 -343 0
-794 -344 0
-795 -345 0
-646 -796 0
-647 -797 0
-648 -798 0
-649 -799 0
-650 -800 0
-651 -801 0
-652 -802 0
-653 -803 0
-654 -804 0
-655 -805 0
-656 -806 0
-657 -807 0
-658 -808 0
-659 -809 0
-660 -810 0
-136 -901 0
-137 -902 0
-138 -903 0
-139 -904 0
-140 -905 0
-141 -906 0
-142 -907 0
-143 -908 0
-144 -909 0
-145 -910 0
-146 -911 0
-147 -912 0
-148 -913 0
-149 -914 0
-150 -915 0
-826 -406 0
-827 -407 0
-828 -408 0
-829 -409 0
-830 -410 0
-831 -411 0
-832 -412 0
-833 -413 0
-834 -414 0
-835 -415 0
-836 -416 0
-837 -417 0
-838 -418 0
-839 -419 0
-840 -420 0
-31 -316 0
-32 -317 0
-33 -318 0
-34 -319 0
-35 -320 0
-36 -321 0
-37 -322 0
-38 -323 0
-39 -324 0
-40 -325 0
-41 -326 0
-42 -327 0
-43 -328 0
-44 -329 0
-45 -330 0
-316 -511 0
-317 -512 0
-318 -513 0
-319 -514 0
-320 -515 0
-321 -516 0
-322 -517 0
-323 -518 0
-324 -519 0
-325 -520 0
-326 -521 0
-327 -522 0
-328 -523 0
-329 -524 0
-330 -525 0
-196 -451 0
-197 -452 0
-198 -453 0
-199 -454 0
-200 -455 0
-201 -456 0
-202 -457 0
-203 -458 0
-204 -459 0
-205 -460 0
-206 -461 0
-207 -462 0
-208 -463 0
-209 -464 0
-210 -465 0
-211 -466 0
-212 -467 0
-213 -468 0
-214 -469 0
-215 -470 0
-216 -471 0
-217 -472 0
-218 -473 0
-219 -474 0
-220 -475 0
-221 -476 0
-222 -477 0
-223 -478 0
-224 -479 0
-225 -480 0
-406 -751 0
-407 -752 0
-408 -753 0
-409 -754 0
-410 -755 0
-411 -756 0
-412 -757 0
-413 -758 0
-414 -759 0
-415 -760 0
-416 -761 0
-417 -762 0
-418 -763 0
-419 -764 0
-420 -765 0
-91 -406 0
-92 -407 0
-93 -408 0
-94 -409 0
-95 -410 0
-96 -411 0
-97 -412 0
-98 -413 0
-99 -414 0
-100 -415 0
-101 -416 0
-102 -417 0
-103 -418 0
-104 -419 0
-105 -420 0
-256 -541 0
-257 -542 0
-258 -543 0
-259 -544 0
-260 -545 0
-261 -546 0
-262 -547 0
-263 -548 0
-264 -549 0
-265 -550 0
-266 -551 0
-267 -552 0
-268 -553 0
-269 -554 0
-270 -555 0
-586 -901 0
-587 -902 0
-588 -903 0
-589 -904 0
-590 -905 0
-591 -906 0
-592 -907 0
-593 -908 0
-594 -909 0
-595 -910 0
-596 -911 0
-597 -912 0
-598 -913 0
-599 -914 0
-600 -915 0
-601 -376 0
-602 -377 0
-603 -378 0
-604 -379 0
-605 -380 0
-606 -381 0
-607 -382 0
-608 -383 0
-609 -384 0
-610 -385 0
-611 -386 0
-612 -387 0
-613 -388 0
-614 -389 0
-615 -390 0
-766 -511 0
-767 -512 0
-768 -513 0
-769 -514 0
-770 -515 0
-771 -516 0
-772 -517 0
-773 -518 0
-774 -519 0
-775 -520 0
-776 -521 0
-777 -522 0
-778 -523 0
-779 -524 0
-780 -525 0
-646 -451 0
-647 -452 0
-648 -453 0
-649 -454 0
-650 -455 0
-651 -456 0
-652 -457 0
-653 -458 0
-654 -459 0
-655 -460 0
-656 -461 0
-657 -462 0
-658 -463 0
-659 -464 0
-660 -465 0
-136 -556 0
-137 -557 0
-138 -558 0
-139 -559 0
-140 -560 0
-141 -561 0
-142 -562 0
-143 -563 0
-144 -564 0
-145 -565 0
-146 -566 0
-147 -567 0
-148 -568 0
-149 -569 0
-150 -570 0
-16 -496 0
-17 -497 0
-18 -498 0
-19 -499 0
-20 -500 0
-21 -501 0
-22 -502 0
-23 -503 0
-24 -504 0
-25 -505 0
-26 -506 0
-27 -507 0
-28 -508 0
-29 -509 0
-30 -510 0
-31 -511 0
-32 -512 0
-33 -513 0
-34 -514 0
-35 -515 0
-36 -516 0
-37 -517 0
-38 -518 0
-39 -519 0
-40 -520 0
-41 -521 0
-42 -522 0
-43 -523 0
-44 -524 0
-45 -525 0
-811 -661 0
-812 -662 0
-813 -663 0
-814 -664 0
-815 -665 0
-816 -666 0
-817 -667 0
-818 -668 0
-819 -669 0
-820 -670 0
-821 -671 0
-822 -672 0
-823 -673 0
-824 -674 0
-825 -675 0
-691 -601 0
-692 -602 0
-693 -603 0
-694 -604 0
-695 -605 0
-696 -606 0
-697 -607 0
-698 -608 0
-699 -609 0
-700 -610 0
-701 -611 0
-702 -612 0
-703 -613 0
-704 -614 0
-705 -615 0
-121 -751 0
-122 -752 0
-123 -753 0
-124 -754 0
-125 -755 0
-126 -756 0
-127 -757 0
-128 -758 0
-129 -759 0
-130 -760 0
-131 -761 0
-132 -762 0
-133 -763 0
-134 -764 0
-135 -765 0
-706 -616 0
-707 -617 0
-708 -618 0
-709 -619 0
-710 -620 0
-711 -621 0
-712 -622 0
-713 -623 0
-714 -624 0
-715 -625 0
-716 -626 0
-717 -627 0
-718 -628 0
-719 -629 0
-720 -630 0
-301 -361 0
-302 -362 0
-303 -363 0
-304 -364 0
-305 -365 0
-306 -366 0
-307 -367 0
-308 -368 0
-309 -369 0
-310 -370 0
-311 -371 0
-312 -372 0
-313 -373 0
-314 -374 0
-315 -375 0
-586 -556 0
-587 -557 0
-588 -558 0
-589 -559 0
-590 -560 0
-591 -561 0
-592 -562 0
-593 -563 0
-594 -564 0
-595 -565 0
-596 -566 0
-597 -567 0
-598 -568 0
-599 -569 0
-600 -570 0
-766 -166 0
-767 -167 0
-768 -168 0
-769 -169 0
-770 -170 0
-771 -171 0
-772 -172 0
-773 -173 0
-774 -174 0
-775 -175 0
-776 -176 0
-777 -177 0
-778 -178 0
-779 -179 0
-780 -180 0
-136 -211 0
-137 -212 0
-138 -213 0
-139 -214 0
-140 -215 0
-141 -216 0
-142 -217 0
-143 -218 0
-144 -219 0
-145 -220 0
-146 -221 0
-147 -222 0
-148 -223 0
-149 -224 0
-150 -225 0
-301 -901 0
-302 -902 0
-303 -903 0
-304 -904 0
-305 -905 0
-306 -906 0
-307 -907 0
-308 -908 0
-309 -909 0
-310 -910 0
-311 -911 0
-312 -912 0
-313 -913 0
-314 -914 0
-315 -915 0
-481 -511 0
-482 -512 0
-483 -513 0
-484 -514 0
-485 -515 0
-486 -516 0
-487 -517 0
-488 -518 0
-489 -519 0
-490 -520 0
-491 -521 0
-492 -522 0
-493 -523 0
-494 -524 0
-495 -525 0
-361 -451 0
-362 -452 0
-363 -453 0
-364 -454 0
-365 -455 0
-366 -456 0
-367 -457 0
-368 -458 0
-369 -459 0
-370 -460 0
-371 -461 0
-372 -462 0
-373 -463 0
-374 -464 0
-375 -465 0
-781 -181 0
-782 -182 0
-783 -183 0
-784 -184 0
-785 -185 0
-786 -186 0
-787 -187 0
-788 -188 0
-789 -189 0
-790 -190 0
-791 -191 0
-792 -192 0
-793 -193 0
-794 -194 0
-795 -195 0
-136 -751 0
-137 -752 0
-138 -753 0
-139 -754 0
-140 -755 0
-141 -756 0
-142 -757 0
-143 -758 0
-144 -759 0
-145 -760 0
-146 -761 0
-147 -762 0
-148 -763 0
-149 -764 0
-150 -765 0
-31 -166 0
-32 -167 0
-33 -168 0
-34 -169 0
-35 -170 0
-36 -171 0
-37 -172 0
-38 -173 0
-39 -174 0
-40 -175 0
-41 -176 0
-42 -177 0
-43 -178 0
-44 -179 0
-45 -180 0
-316 -361 0
-317 -362 0
-318 -363 0
-319 -364 0
-320 -365 0
-321 -366 0
-322 -367 0
-323 -368 0
-324 -369 0
-325 -370 0
-326 -371 0
-327 -372 0
-328 -373 0
-329 -374 0
-330 -375 0
-196 -301 0
-197 -302 0
-198 -303 0
-199 -304 0
-200 -305 0
-201 -306 0
-202 -307 0
-203 -308 0
-204 -309 0
-205 -310 0
-206 -311 0
-207 -312 0
-208 -313 0
-209 -314 0
-210 -315 0
-181 -916 0
-182 -917 0
-183 -918 0
-184 -919 0
-185 -920 0
-186 -921 0
-187 -922 0
-188 -923 0
-189 -924 0
-190 -925 0
-191 -926 0
-192 -927 0
-193 -928 0
-194 -929 0
-195 -930 0
-241 -466 0
-242 -467 0
-243 -468 0
-244 -469 0
-245 -470 0
-246 -471 0
-247 -472 0
-248 -473 0
-249 -474 0
-250 -475 0
-251 -476 0
-252 -477 0
-253 -478 0
-254 -479 0
-255 -480 0
-811 -856 0
-812 -857 0
-813 -858 0
-814 -859 0
-815 -860 0
-816 -861 0
-817 -862 0
-818 -863 0
-819 -864 0
-820 -865 0
-821 -866 0
-822 -867 0
-823 -868 0
-824 -869 0
-825 -870 0
-691 -796 0
-692 -797 0
-693 -798 0
-694 -799 0
-695 -800 0
-696 -801 0
-697 -802 0
-698 -803 0
-699 -804 0
-700 -805 0
-701 -806 0
-702 -807 0
-703 -808 0
-704 -809 0
-705 -810 0
-706 -271 0
-707 -272 0
-708 -273 0
-709 -274 0
-710 -275 0
-711 -276 0
-712 -277 0
-713 -278 0
-714 -279 0
-715 -280 0
-716 -281 0
-717 -282 0
-718 -283 0
-719 -284 0
-720 -285 0
-586 -211 0
-587 -212 0
-588 -213 0
-589 -214 0
-590 -215 0
-591 -216 0
-592 -217 0
-593 -218 0
-594 -219 0
-595 -220 0
-596 -221 0
-597 -222 0
-598 -223 0
-599 -224 0
-600 -225 0
-61 -841 0
-62 -842 0
-63 -843 0
-64 -844 0
-65 -845 0
-66 -846 0
-67 -847 0
-68 -848 0
-69 -849 0
-70 -850 0
-71 -851 0
-72 -852 0
-73 -853 0
-74 -854 0
-75 -855 0
-76 -316 0
-77 -317 0
-78 -318 0
-79 -319 0
-80 -320 0
-81 -321 0
-82 -322 0
-83 -323 0
-84 -324 0
-85 -325 0
-86 -326 0
-87 -327 0
-88 -328 0
-89 -329 0
-90 -330 0
-301 -556 0
-302 -557 0
-303 -558 0
-304 -559 0
-305 -560 0
-306 -561 0
-307 -562 0
-308 -563 0
-309 -564 0
-310 -565 0
-311 -566 0
-312 -567 0
-313 -568 0
-314 -569 0
-315 -570 0
-586 -751 0
-587 -752 0
-588 -753 0
-589 -754 0
-590 -755 0
-591 -756 0
-592 -757 0
-593 -758 0
-594 -759 0
-595 -760 0
-596 -761 0
-597 -762 0
-598 -763 0
-599 -764 0
-600 -765 0
-646 -301 0
-647 -302 0
-648 -303 0
-649 -304 0
-650 -305 0
-651 -306 0
-652 -307 0
-653 -308 0
-654 -309 0
-655 -310 0
-656 -311 0
-657 -312 0
-658 -313 0
-659 -314 0
-660 -315 0
-136 -406 0
-137 -407 0
-138 -408 0
-139 -409 0
-140 -410 0
-141 -411 0
-142 -412 0
-143 -413 0
-144 -414 0
-145 -415 0
-146 -416 0
-147 -417 0
-148 -418 0
-149 -419 0
-150 -420 0
-16 -346 0
-17 -347 0
-18 -348 0
-19 -349 0
-20 -350 0
-21 -351 0
-22 -352 0
-23 -353 0
-24 -354 0
-25 -355 0
-26 -356 0
-27 -357 0
-28 -358 0
-29 -359 0
-30 -360 0
-31 -361 0
-32 -362 0
-33 -363 0
-34 -364 0
-35 -365 0
-36 -366 0
-37 -367 0
-38 -368 0
-39 -369 0
-40 -370 0
-41 -371 0
-42 -372 0
-43 -373 0
-44 -374 0
-45 -375 0
-631 -901 0
-632 -902 0
-633 -903 0
-634 -904 0
-635 -905 0
-636 -906 0
-637 -907 0
-638 -908 0
-639 -909 0
-640 -910 0
-641 -911 0
-642 -912 0
-643 -913 0
-644 -914 0
-645 -915 0
-811 -511 0
-812 -512 0
-813 -513 0
-814 -514 0
-815 -515 0
-816 -516 0
-817 -517 0
-818 -518 0
-819 -519 0
-820 -520 0
-821 -521 0
-822 -522 0
-823 -523 0
-824 -524 0
-825 -525 0
-691 -451 0
-692 -452 0
-693 -453 0
-694 -454 0
-695 -455 0
-696 -456 0
-697 -457 0
-698 -458 0
-699 -459 0
-700 -460 0
-701 -461 0
-702 -462 0
-703 -463 0
-704 -464 0
-705 -465 0
-871 -616 0
-872 -617 0
-873 -618 0
-874 -619 0
-875 -620 0
-876 -621 0
-877 -622 0
-878 -623 0
-879 -624 0
-880 -625 0
-881 -626 0
-882 -627 0
-883 -628 0
-884 -629 0
-885 -630 0
-61 -496 0
-62 -497 0
-63 -498 0
-64 -499 0
-65 -500 0
-66 -501 0
-67 -502 0
-68 -503 0
-69 -504 0
-70 -505 0
-71 -506 0
-72 -507 0
-73 -508 0
-74 -509 0
-75 -510 0
-241 -661 0
-242 -662 0
-243 -663 0
-244 -664 0
-245 -665 0
-246 -666 0
-247 -667 0
-248 -668 0
-249 -669 0
-250 -670 0
-251 -671 0
-252 -672 0
-253 -673 0
-254 -674 0
-255 -675 0
-121 -601 0
-122 -602 0
-123 -603 0
-124 -604 0
-125 -605 0
-126 -606 0
-127 -607 0
-128 -608 0
-129 -609 0
-130 -610 0
-131 -611 0
-132 -612 0
-133 -613 0
-134 -614 0
-135 -615 0
-406 -796 0
-407 -797 0
-408 -798 0
-409 -799 0
-410 -800 0
-411 -801 0
-412 -802 0
-413 -803 0
-414 -804 0
-415 -805 0
-416 -806 0
-417 -807 0
-418 -808 0
-419 -809 0
-420 -810 0
-586 -406 0
-587 -407 0
-588 -408 0
-589 -409 0
-590 -410 0
-591 -411 0
-592 -412 0
-593 -413 0
-594 -414 0
-595 -415 0
-596 -416 0
-597 -417 0
-598 -418 0
-599 -419 0
-600 -420 0
-76 -511 0
-77 -512 0
-78 -513 0
-79 -514 0
-80 -515 0
-81 -516 0
-82 -517 0
-83 -518 0
-84 -519 0
-85 -520 0
-86 -521 0
-87 -522 0
-88 -523 0
-89 -524 0
-90 -525 0
-166 -751 0
-167 -752 0
-168 -753 0
-169 -754 0
-170 -755 0
-171 -756 0
-172 -757 0
-173 -758 0
-174 -759 0
-175 -760 0
-176 -761 0
-177 -762 0
-178 -763 0
-179 -764 0
-180 -765 0
-751 -616 0
-752 -617 0
-753 -618 0
-754 -619 0
-755 -620 0
-756 -621 0
-757 -622 0
-758 -623 0
-759 -624 0
-760 -625 0
-761 -626 0
-762 -627 0
-763 -628 0
-764 -629 0
-765 -630 0
-16 -541 0
-17 -542 0
-18 -543 0
-19 -544 0
-20 -545 0
-21 -546 0
-22 -547 0
-23 -548 0
-24 -549 0
-25 -550 0
-26 -551 0
-27 -552 0
-28 -553 0
-29 -554 0
-30 -555 0
-811 -166 0
-812 -167 0
-813 -168 0
-814 -169 0
-815 -170 0
-816 -171 0
-817 -172 0
-818 -173 0
-819 -174 0
-820 -175 0
-821 -176 0
-822 -177 0
-823 -178 0
-824 -179 0
-825 -180 0
-1 -601 0
-2 -602 0
-3 -603 0
-4 -604 0
-5 -605 0
-6 -606 0
-7 -607 0
-8 -608 0
-9 -609 0
-10 -610 0
-11 -611 0
-12 -612 0
-13 -613 0
-14 -614 0
-15 -615 0
-871 -271 0
-872 -272 0
-873 -273 0
-874 -274 0
-875 -275 0
-876 -276 0
-877 -277 0
-878 -278 0
-879 -279 0
-880 -280 0
-881 -281 0
-882 -282 0
-883 -283 0
-884 -284 0
-885 -285 0
-346 -901 0
-347 -902 0
-348 -903 0
-349 -904 0
-350 -905 0
-351 -906 0
-352 -907 0
-353 -908 0
-354 -909 0
-355 -910 0
-356 -911 0
-357 -912 0
-358 -913 0
-359 -914 0
-360 -915 0
-226 -841 0
-227 -842 0
-228 -843 0
-229 -844 0
-230 -845 0
-231 -846 0
-232 -847 0
-233 -848 0
-234 -849 0
-235 -850 0
-236 -851 0
-237 -852 0
-238 -853 0
-239 -854 0
-240 -855 0
-241 -316 0
-242 -317 0
-243 -318 0
-244 -319 0
-245 -320 0
-246 -321 0
-247 -322 0
-248 -323 0
-249 -324 0
-250 -325 0
-251 -326 0
-252 -327 0
-253 -328 0
-254 -329 0
-255 -330 0
-121 -256 0
-122 -257 0
-123 -258 0
-124 -259 0
-125 -260 0
-126 -261 0
-127 -262 0
-128 -263 0
-129 -264 0
-130 -265 0
-131 -266 0
-132 -267 0
-133 -268 0
-134 -269 0
-135 -270 0
-811 -706 0
-812 -707 0
-813 -708 0
-814 -709 0
-815 -710 0
-816 -711 0
-817 -712 0
-818 -713 0
-819 -714 0
-820 -715 0
-821 -716 0
-822 -717 0
-823 -718 0
-824 -719 0
-825 -720 0
-406 -451 0
-407 -452 0
-408 -453 0
-409 -454 0
-410 -455 0
-411 -456 0
-412 -457 0
-413 -458 0
-414 -459 0
-415 -460 0
-416 -461 0
-417 -462 0
-418 -463 0
-419 -464 0
-420 -465 0
-691 -646 0
-692 -647 0
-693 -648 0
-694 -649 0
-695 -650 0
-696 -651 0
-697 -652 0
-698 -653 0
-699 -654 0
-700 -655 0
-701 -656 0
-702 -657 0
-703 -658 0
-704 -659 0
-705 -660 0
-586 -61 0
-587 -62 0
-588 -63 0
-589 -64 0
-590 -65 0
-591 -66 0
-592 -67 0
-593 -68 0
-594 -69 0
-595 -70 0
-596 -71 0
-597 -72 0
-598 -73 0
-599 -74 0
-600 -75 0
-76 -166 0
-77 -167 0
-78 -168 0
-79 -169 0
-80 -170 0
-81 -171 0
-82 -172 0
-83 -173 0
-84 -174 0
-85 -175 0
-86 -176 0
-87 -177 0
-88 -178 0
-89 -179 0
-90 -180 0
-121 -796 0
-122 -797 0
-123 -798 0
-124 -799 0
-125 -800 0
-126 -801 0
-127 -802 0
-128 -803 0
-129 -804 0
-130 -805 0
-131 -806 0
-132 -807 0
-133 -808 0
-134 -809 0
-135 -810 0
-301 -406 0
-302 -407 0
-303 -408 0
-304 -409 0
-305 -410 0
-306 -411 0
-307 -412 0
-308 -413 0
-309 -414 0
-310 -415 0
-311 -416 0
-312 -417 0
-313 -418 0
-314 -419 0
-315 -420 0
-646 -151 0
-647 -152 0
-648 -153 0
-649 -154 0
-650 -155 0
-651 -156 0
-652 -157 0
-653 -158 0
-654 -159 0
-655 -160 0
-656 -161 0
-657 -162 0
-658 -163 0
-659 -164 0
-660 -165 0
-151 -931 0
-152 -932 0
-153 -933 0
-154 -934 0
-155 -935 0
-156 -936 0
-157 -937 0
-158 -938 0
-159 -939 0
-160 -940 0
-161 -941 0
-162 -942 0
-163 -943 0
-164 -944 0
-165 -945 0
-136 -256 0
-137 -257 0
-138 -258 0
-139 -259 0
-140 -260 0
-141 -261 0
-142 -262 0
-143 -263 0
-144 -264 0
-145 -265 0
-146 -266 0
-147 -267 0
-148 -268 0
-149 -269 0
-150 -270 0
-16 -196 0
-17 -197 0
-18 -198 0
-19 -199 0
-20 -200 0
-21 -201 0
-22 -202 0
-23 -203 0
-24 -204 0
-25 -205 0
-26 -206 0
-27 -207 0
-28 -208 0
-29 -209 0
-30 -210 0
-631 -211 0
-632 -212 0
-633 -213 0
-634 -214 0
-635 -215 0
-636 -216 0
-637 -217 0
-638 -218 0
-639 -219 0
-640 -220 0
-641 -221 0
-642 -222 0
-643 -223 0
-644 -224 0
-645 -225 0
-181 -421 0
-182 -422 0
-183 -423 0
-184 -424 0
-185 -425 0
-186 -426 0
-187 -427 0
-188 -428 0
-189 -429 0
-190 -430 0
-191 -431 0
-192 -432 0
-193 -433 0
-194 -434 0
-195 -435 0
-46 -886 0
-47 -887 0
-48 -888 0
-49 -889 0
-50 -890 0
-51 -891 0
-52 -892 0
-53 -893 0
-54 -894 0
-55 -895 0
-56 -896 0
-57 -897 0
-58 -898 0
-59 -899 0
-60 -900 0
-346 -556 0
-347 -557 0
-348 -558 0
-349 -559 0
-350 -560 0
-351 -561 0
-352 -562 0
-353 -563 0
-354 -564 0
-355 -565 0
-356 -566 0
-357 -567 0
-358 -568 0
-359 -569 0
-360 -570 0
-631 -751 0
-632 -752 0
-633 -753 0
-634 -754 0
-635 -755 0
-636 -756 0
-637 -757 0
-638 -758 0
-639 -759 0
-640 -760 0
-641 -761 0
-642 -762 0
-643 -763 0
-644 -764 0
-645 -765 0
-226 -496 0
-227 -497 0
-228 -498 0
-229 -499 0
-230 -500 0
-231 -501 0
-232 -502 0
-233 -503 0
-234 -504 0
-235 -505 0
-236 -506 0
-237 -507 0
-238 -508 0
-239 -509 0
-240 -510 0
-691 -301 0
-692 -302 0
-693 -303 0
-694 -304 0
-695 -305 0
-696 -306 0
-697 -307 0
-698 -308 0
-699 -309 0
-700 -310 0
-701 -311 0
-702 -312 0
-703 -313 0
-704 -314 0
-705 -315 0
-61 -346 0
-62 -347 0
-63 -348 0
-64 -349 0
-65 -350 0
-66 -351 0
-67 -352 0
-68 -353 0
-69 -354 0
-70 -355 0
-71 -356 0
-72 -357 0
-73 -358 0
-74 -359 0
-75 -360 0
-241 -511 0
-242 -512 0
-243 -513 0
-244 -514 0
-245 -515 0
-246 -516 0
-247 -517 0
-248 -518 0
-249 -519 0
-250 -520 0
-251 -521 0
-252 -522 0
-253 -523 0
-254 -524 0
-255 -525 0
-121 -451 0
-122 -452 0
-123 -453 0
-124 -454 0
-125 -455 0
-126 -456 0
-127 -457 0
-128 -458 0
-129 -459 0
-130 -460 0
-131 -461 0
-132 -462 0
-133 -463 0
-134 -464 0
-135 -465 0
-586 -256 0
-587 -257 0
-588 -258 0
-589 -259 0
-590 -260 0
-591 -261 0
-592 -262 0
-593 -263 0
-594 -264 0
-595 -265 0
-596 -266 0
-597 -267 0
-598 -268 0
-599 -269 0
-600 -270 0
-76 -361 0
-77 -362 0
-78 -363 0
-79 -364 0
-80 -365 0
-81 -366 0
-82 -367 0
-83 -368 0
-84 -369 0
-85 -370 0
-86 -371 0
-87 -372 0
-88 -373 0
-89 -374 0
-90 -375 0
-286 -661 0
-287 -662 0
-288 -663 0
-289 -664 0
-290 -665 0
-291 -666 0
-292 -667 0
-293 -668 0
-294 -669 0
-295 -670 0
-296 -671 0
-297 -672 0
-298 -673 0
-299 -674 0
-300 -675 0
-166 -601 0
-167 -602 0
-168 -603 0
-169 -604 0
-170 -605 0
-171 -606 0
-172 -607 0
-173 -608 0
-174 -609 0
-175 -610 0
-176 -611 0
-177 -612 0
-178 -613 0
-179 -614 0
-180 -615 0
-46 -541 0
-47 -542 0
-48 -543 0
-49 -544 0
-50 -545 0
-51 -546 0
-52 -547 0
-53 -548 0
-54 -549 0
-55 -550 0
-56 -551 0
-57 -552 0
-58 -553 0
-59 -554 0
-60 -555 0
-331 -736 0
-332 -737 0
-333 -738 0
-334 -739 0
-335 -740 0
-336 -741 0
-337 -742 0
-338 -743 0
-339 -744 0
-340 -745 0
-341 -746 0
-342 -747 0
-343 -748 0
-344 -749 0
-345 -750 0
-1 -451 0
-2 -452 0
-3 -453 0
-4 -454 0
-5 -455 0
-6 -456 0
-7 -457 0
-8 -458 0
-9 -459 0
-10 -460 0
-11 -461 0
-12 -462 0
-13 -463 0
-14 -464 0
-15 -465 0
-181 -616 0
-182 -617 0
-183 -618 0
-184 -619 0
-185 -620 0
-186 -621 0
-187 -622 0
-188 -623 0
-189 -624 0
-190 -625 0
-191 -626 0
-192 -627 0
-193 -628 0
-194 -629 0
-195 -630 0
-346 -751 0
-347 -752 0
-348 -753 0
-349 -754 0
-350 -755 0
-351 -756 0
-352 -757 0
-353 -758 0
-354 -759 0
-355 -760 0
-356 -761 0
-357 -762 0
-358 -763 0
-359 -764 0
-360 -765 0
-61 -541 0
-62 -542 0
-63 -543 0
-64 -544 0
-65 -545 0
-66 -546 0
-67 -547 0
-68 -548 0
-69 -549 0
-70 -550 0
-71 -551 0
-72 -552 0
-73 -553 0
-74 -554 0
-75 -555 0
-856 -721 0
-857 -722 0
-858 -723 0
-859 -724 0
-860 -725 0
-861 -726 0
-862 -727 0
-863 -728 0
-864 -729 0
-865 -730 0
-866 -731 0
-867 -732 0
-868 -733 0
-869 -734 0
-870 -735 0
-391 -901 0
-392 -902 0
-393 -903 0
-394 -904 0
-395 -905 0
-396 -906 0
-397 -907 0
-398 -908 0
-399 -909 0
-400 -910 0
-401 -911 0
-402 -912 0
-403 -913 0
-404 -914 0
-405 -915 0
-271 -841 0
-272 -842 0
-273 -843 0
-274 -844 0
-275 -845 0
-276 -846 0
-277 -847 0
-278 -848 0
-279 -849 0
-280 -850 0
-281 -851 0
-282 -852 0
-283 -853 0
-284 -854 0
-285 -855 0
-286 -316 0
-287 -317 0
-288 -318 0
-289 -319 0
-290 -320 0
-291 -321 0
-292 -322 0
-293 -323 0
-294 -324 0
-295 -325 0
-296 -326 0
-297 -327 0
-298 -328 0
-299 -329 0
-300 -330 0
-571 -511 0
-572 -512 0
-573 -513 0
-574 -514 0
-575 -515 0
-576 -516 0
-577 -517 0
-578 -518 0
-579 -519 0
-580 -520 0
-581 -521 0
-582 -522 0
-583 -523 0
-584 -524 0
-585 -525 0
-166 -256 0
-167 -257 0
-168 -258 0
-169 -259 0
-170 -260 0
-171 -261 0
-172 -262 0
-173 -263 0
-174 -264 0
-175 -265 0
-176 -266 0
-177 -267 0
-178 -268 0
-179 -269 0
-180 -270 0
-151 -781 0
-152 -782 0
-153 -783 0
-154 -784 0
-155 -785 0
-156 -786 0
-157 -787 0
-158 -788 0
-159 -789 0
-160 -790 0
-161 -791 0
-162 -792 0
-163 -793 0
-164 -794 0
-165 -795 0
-331 -391 0
-332 -392 0
-333 -393 0
-334 -394 0
-335 -395 0
-336 -396 0
-337 -397 0
-338 -398 0
-339 -399 0
-340 -400 0
-341 -401 0
-342 -402 0
-343 -403 0
-344 -404 0
-345 -405 0
-16 -46 0
-17 -47 0
-18 -48 0
-19 -49 0
-20 -50 0
-21 -51 0
-22 -52 0
-23 -53 0
-24 -54 0
-25 -55 0
-26 -56 0
-27 -57 0
-28 -58 0
-29 -59 0
-30 -60 0
-631 -61 0
-632 -62 0
-633 -63 0
-634 -64 0
-635 -65 0
-636 -66 0
-637 -67 0
-638 -68 0
-639 -69 0
-640 -70 0
-641 -71 0
-642 -72 0
-643 -73 0
-644 -74 0
-645 -75 0
-1 -106 0
-2 -107 0
-3 -108 0
-4 -109 0
-5 -110 0
-6 -111 0
-7 -112 0
-8 -113 0
-9 -114 0
-10 -115 0
-11 -116 0
-12 -117 0
-13 -118 0
-14 -119 0
-15 -120 0
-286 -856 0
-287 -857 0
-288 -858 0
-289 -859 0
-290 -860 0
-291 -861 0
-292 -862 0
-293 -863 0
-294 -864 0
-295 -865 0
-296 -866 0
-297 -867 0
-298 -868 0
-299 -869 0
-300 -870 0
-166 -796 0
-167 -797 0
-168 -798 0
-169 -799 0
-170 -800 0
-171 -801 0
-172 -802 0
-173 -803 0
-174 -804 0
-175 -805 0
-176 -806 0
-177 -807 0
-178 -808 0
-179 -809 0
-180 -810 0
-181 -271 0
-182 -272 0
-183 -273 0
-184 -274 0
-185 -275 0
-186 -276 0
-187 -277 0
-188 -278 0
-189 -279 0
-190 -280 0
-191 -281 0
-192 -282 0
-193 -283 0
-194 -284 0
-195 -285 0
-46 -736 0
-47 -737 0
-48 -738 0
-49 -739 0
-50 -740 0
-51 -741 0
-52 -742 0
-53 -743 0
-54 -744 0
-55 -745 0
-56 -746 0
-57 -747 0
-58 -748 0
-59 -749 0
-60 -750 0
-346 -406 0
-347 -407 0
-348 -408 0
-349 -409 0
-350 -410 0
-351 -411 0
-352 -412 0
-353 -413 0
-354 -414 0
-355 -415 0
-356 -416 0
-357 -417 0
-358 -418 0
-359 -419 0
-360 -420 0
-226 -346 0
-227 -347 0
-228 -348 0
-229 -349 0
-230 -350 0
-231 -351 0
-232 -352 0
-233 -353 0
-234 -354 0
-235 -355 0
-236 -356 0
-237 -357 0
-238 -358 0
-239 -359 0
-240 -360 0
-826 -886 0
-827 -887 0
-828 -888 0
-829 -889 0
-830 -890 0
-831 -891 0
-832 -892 0
-833 -893 0
-834 -894 0
-835 -895 0
-836 -896 0
-837 -897 0
-838 -898 0
-839 -899 0
-840 -900 0
-511 -541 0
-512 -542 0
-513 -543 0
-514 -544 0
-515 -545 0
-516 -546 0
-517 -547 0
-518 -548 0
-519 -549 0
-520 -550 0
-521 -551 0
-522 -552 0
-523 -553 0
-524 -554 0
-525 -555 0
-811 -211 0
-812 -212 0
-813 -213 0
-814 -214 0
-815 -215 0
-816 -216 0
-817 -217 0
-818 -218 0
-819 -219 0
-820 -220 0
-821 -221 0
-822 -222 0
-823 -223 0
-824 -224 0
-825 -225 0
-1 -646 0
-2 -647 0
-3 -648 0
-4 -649 0
-5 -650 0
-6 -651 0
-7 -652 0
-8 -653 0
-9 -654 0
-10 -655 0
-11 -656 0
-12 -657 0
-13 -658 0
-14 -659 0
-15 -660 0
-691 -151 0
-692 -152 0
-693 -153 0
-694 -154 0
-695 -155 0
-696 -156 0
-697 -157 0
-698 -158 0
-699 -159 0
-700 -160 0
-701 -161 0
-702 -162 0
-703 -163 0
-704 -164 0
-705 -165 0
-61 -196 0
-62 -197 0
-63 -198 0
-64 -199 0
-65 -200 0
-66 -201 0
-67 -202 0
-68 -203 0
-69 -204 0
-70 -205 0
-71 -206 0
-72 -207 0
-73 -208 0
-74 -209 0
-75 -210 0
-121 -301 0
-122 -302 0
-123 -303 0
-124 -304 0
-125 -305 0
-126 -306 0
-127 -307 0
-128 -308 0
-129 -309 0
-130 -310 0
-131 -311 0
-132 -312 0
-133 -313 0
-134 -314 0
-135 -315 0
-721 -841 0
-722 -842 0
-723 -843 0
-724 -844 0
-725 -845 0
-726 -846 0
-727 -847 0
-728 -848 0
-729 -849 0
-730 -850 0
-731 -851 0
-732 -852 0
-733 -853 0
-734 -854 0
-735 -855 0
-106 -361 0
-107 -362 0
-108 -363 0
-109 -364 0
-110 -365 0
-111 -366 0
-112 -367 0
-113 -368 0
-114 -369 0
-115 -370 0
-116 -371 0
-117 -372 0
-118 -373 0
-119 -374 0
-120 -375 0
-391 -556 0
-392 -557 0
-393 -558 0
-394 -559 0
-395 -560 0
-396 -561 0
-397 -562 0
-398 -563 0
-399 -564 0
-400 -565 0
-401 -566 0
-402 -567 0
-403 -568 0
-404 -569 0
-405 -570 0
-271 -496 0
-272 -497 0
-273 -498 0
-274 -499 0
-275 -500 0
-276 -501 0
-277 -502 0
-278 -503 0
-279 -504 0
-280 -505 0
-281 -506 0
-282 -507 0
-283 -508 0
-284 -509 0
-285 -510 0
-571 -166 0
-572 -167 0
-573 -168 0
-574 -169 0
-575 -170 0
-576 -171 0
-577 -172 0
-578 -173 0
-579 -174 0
-580 -175 0
-581 -176 0
-582 -177 0
-583 -178 0
-584 -179 0
-585 -180 0
-286 -511 0
-287 -512 0
-288 -513 0
-289 -514 0
-290 -515 0
-291 -516 0
-292 -517 0
-293 -518 0
-294 -519 0
-295 -520 0
-296 -521 0
-297 -522 0
-298 -523 0
-299 -524 0
-300 -525 0
-166 -451 0
-167 -452 0
-168 -453 0
-169 -454 0
-170 -455 0
-171 -456 0
-172 -457 0
-173 -458 0
-174 -459 0
-175 -460 0
-176 -461 0
-177 -462 0
-178 -463 0
-179 -464 0
-180 -465 0
-46 -391 0
-47 -392 0
-48 -393 0
-49 -394 0
-50 -395 0
-51 -396 0
-52 -397 0
-53 -398 0
-54 -399 0
-55 -400 0
-56 -401 0
-57 -402 0
-58 -403 0
-59 -404 0
-60 -405 0
-1 -301 0
-2 -302 0
-3 -303 0
-4 -304 0
-5 -305 0
-6 -306 0
-7 -307 0
-8 -308 0
-9 -309 0
-10 -310 0
-11 -311 0
-12 -312 0
-13 -313 0
-14 -314 0
-15 -315 0
-721 -496 0
-722 -497 0
-723 -498 0
-724 -499 0
-725 -500 0
-726 -501 0
-727 -502 0
-728 -503 0
-729 -504 0
-730 -505 0
-731 -506 0
-732 -507 0
-733 -508 0
-734 -509 0
-735 -510 0
-211 -601 0
-212 -602 0
-213 -603 0
-214 -604 0
-215 -605 0
-216 -606 0
-217 -607 0
-218 -608 0
-219 -609 0
-220 -610 0
-221 -611 0
-222 -612 0
-223 -613 0
-224 -614 0
-225 -615 0
-736 -511 0
-737 -512 0
-738 -513 0
-739 -514 0
-740 -515 0
-741 -516 0
-742 -517 0
-743 -518 0
-744 -519 0
-745 -520 0
-746 -521 0
-747 -522 0
-748 -523 0
-749 -524 0
-750 -525 0
-106 -556 0
-107 -557 0
-108 -558 0
-109 -559 0
-110 -560 0
-111 -561 0
-112 -562 0
-113 -563 0
-114 -564 0
-115 -565 0
-116 -566 0
-117 -567 0
-118 -568 0
-119 -569 0
-120 -570 0
-391 -751 0
-392 -752 0
-393 -753 0
-394 -754 0
-395 -755 0
-396 -756 0
-397 -757 0
-398 -758 0
-399 -759 0
-400 -760 0
-401 -761 0
-402 -762 0
-403 -763 0
-404 -764 0
-405 -765 0
-571 -361 0
-572 -362 0
-573 -363 0
-574 -364 0
-575 -365 0
-576 -366 0
-577 -367 0
-578 -368 0
-579 -369 0
-580 -370 0
-581 -371 0
-582 -372 0
-583 -373 0
-584 -374 0
-585 -375 0
-781 -661 0
-782 -662 0
-783 -663 0
-784 -664 0
-785 -665 0
-786 -666 0
-787 -667 0
-788 -668 0
-789 -669 0
-790 -670 0
-791 -671 0
-792 -672 0
-793 -673 0
-794 -674 0
-795 -675 0
-826 -736 0
-827 -737 0
-828 -738 0
-829 -739 0
-830 -740 0
-831 -741 0
-832 -742 0
-833 -743 0
-834 -744 0
-835 -745 0
-836 -746 0
-837 -747 0
-838 -748 0
-839 -749 0
-840 -750 0
-376 -391 0
-377 -392 0
-378 -393 0
-379 -394 0
-380 -395 0
-381 -396 0
-382 -397 0
-383 -398 0
-384 -399 0
-385 -400 0
-386 -401 0
-387 -402 0
-388 -403 0
-389 -404 0
-390 -405 0
-676 -616 0
-677 -617 0
-678 -618 0
-679 -619 0
-680 -620 0
-681 -621 0
-682 -622 0
-683 -623 0
-684 -624 0
-685 -625 0
-686 -626 0
-687 -627 0
-688 -628 0
-689 -629 0
-690 -630 0
-841 -751 0
-842 -752 0
-843 -753 0
-844 -754 0
-845 -755 0
-846 -756 0
-847 -757 0
-848 -758 0
-849 -759 0
-850 -760 0
-851 -761 0
-852 -762 0
-853 -763 0
-854 -764 0
-855 -765 0
-211 -796 0
-212 -797 0
-213 -798 0
-214 -799 0
-215 -800 0
-216 -801 0
-217 -802 0
-218 -803 0
-219 -804 0
-220 -805 0
-221 -806 0
-222 -807 0
-223 -808 0
-224 -809 0
-225 -810 0
-106 -211 0
-107 -212 0
-108 -213 0
-109 -214 0
-110 -215 0
-111 -216 0
-112 -217 0
-113 -218 0
-114 -219 0
-115 -220 0
-116 -221 0
-117 -222 0
-118 -223 0
-119 -224 0
-120 -225 0
-391 -406 0
-392 -407 0
-393 -408 0
-394 -409 0
-395 -410 0
-396 -411 0
-397 -412 0
-398 -413 0
-399 -414 0
-400 -415 0
-401 -416 0
-402 -417 0
-403 -418 0
-404 -419 0
-405 -420 0
-271 -346 0
-272 -347 0
-273 -348 0
-274 -349 0
-275 -350 0
-276 -351 0
-277 -352 0
-278 -353 0
-279 -354 0
-280 -355 0
-281 -356 0
-282 -357 0
-283 -358 0
-284 -359 0
-285 -360 0
-151 -286 0
-152 -287 0
-153 -288 0
-154 -289 0
-155 -290 0
-156 -291 0
-157 -292 0
-158 -293 0
-159 -294 0
-160 -295 0
-161 -296 0
-162 -297 0
-163 -298 0
-164 -299 0
-165 -300 0
-436 -481 0
-437 -482 0
-438 -483 0
-439 -484 0
-440 -485 0
-441 -486 0
-442 -487 0
-443 -488 0
-444 -489 0
-445 -490 0
-446 -491 0
-447 -492 0
-448 -493 0
-449 -494 0
-450 -495 0
-286 -361 0
-287 -362 0
-288 -363 0
-289 -364 0
-290 -365 0
-291 -366 0
-292 -367 0
-293 -368 0
-294 -369 0
-295 -370 0
-296 -371 0
-297 -372 0
-298 -373 0
-299 -374 0
-300 -375 0
-166 -301 0
-167 -302 0
-168 -303 0
-169 -304 0
-170 -305 0
-171 -306 0
-172 -307 0
-173 -308 0
-174 -309 0
-175 -310 0
-176 -311 0
-177 -312 0
-178 -313 0
-179 -314 0
-180 -315 0
-781 -316 0
-782 -317 0
-783 -318 0
-784 -319 0
-785 -320 0
-786 -321 0
-787 -322 0
-788 -323 0
-789 -324 0
-790 -325 0
-791 -326 0
-792 -327 0
-793 -328 0
-794 -329 0
-795 -330 0
-46 -241 0
-47 -242 0
-48 -243 0
-49 -244 0
-50 -245 0
-51 -246 0
-52 -247 0
-53 -248 0
-54 -249 0
-55 -250 0
-56 -251 0
-57 -252 0
-58 -253 0
-59 -254 0
-60 -255 0
-646 -781 0
-647 -782 0
-648 -783 0
-649 -784 0
-650 -785 0
-651 -786 0
-652 -787 0
-653 -788 0
-654 -789 0
-655 -790 0
-656 -791 0
-657 -792 0
-658 -793 0
-659 -794 0
-660 -795 0
-331 -436 0
-332 -437 0
-333 -438 0
-334 -439 0
-335 -440 0
-336 -441 0
-337 -442 0
-338 -443 0
-339 -444 0
-340 -445 0
-341 -446 0
-342 -447 0
-343 -448 0
-344 -449 0
-345 -450 0
-136 -886 0
-137 -887 0
-138 -888 0
-139 -889 0
-140 -890 0
-141 -891 0
-142 -892 0
-143 -893 0
-144 -894 0
-145 -895 0
-146 -896 0
-147 -897 0
-148 -898 0
-149 -899 0
-150 -900 0
-826 -391 0
-827 -392 0
-828 -393 0
-829 -394 0
-830 -395 0
-831 -396 0
-832 -397 0
-833 -398 0
-834 -399 0
-835 -400 0
-836 -401 0
-837 -402 0
-838 -403 0
-839 -404 0
-840 -405 0
-316 -496 0
-317 -497 0
-318 -498 0
-319 -499 0
-320 -500 0
-321 -501 0
-322 -502 0
-323 -503 0
-324 -504 0
-325 -505 0
-326 -506 0
-327 -507 0
-328 -508 0
-329 -509 0
-330 -510 0
-1 -151 0
-2 -152 0
-3 -153 0
-4 -154 0
-5 -155 0
-6 -156 0
-7 -157 0
-8 -158 0
-9 -159 0
-10 -160 0
-11 -161 0
-12 -162 0
-13 -163 0
-14 -164 0
-15 -165 0
-841 -406 0
-842 -407 0
-843 -408 0
-844 -409 0
-845 -410 0
-846 -411 0
-847 -412 0
-848 -413 0
-849 -414 0
-850 -415 0
-851 -416 0
-852 -417 0
-853 -418 0
-854 -419 0
-855 -420 0
-31 -841 0
-32 -842 0
-33 -843 0
-34 -844 0
-35 -845 0
-36 -846 0
-37 -847 0
-38 -848 0
-39 -849 0
-40 -850 0
-41 -851 0
-42 -852 0
-43 -853 0
-44 -854 0
-45 -855 0
-211 -451 0
-212 -452 0
-213 -453 0
-214 -454 0
-215 -455 0
-216 -456 0
-217 -457 0
-218 -458 0
-219 -459 0
-220 -460 0
-221 -461 0
-222 -462 0
-223 -463 0
-224 -464 0
-225 -465 0
-91 -391 0
-92 -392 0
-93 -393 0
-94 -394 0
-95 -395 0
-96 -396 0
-97 -397 0
-98 -398 0
-99 -399 0
-100 -400 0
-101 -401 0
-102 -402 0
-103 -403 0
-104 -404 0
-105 -405 0
-256 -526 0
-257 -527 0
-258 -528 0
-259 -529 0
-260 -530 0
-261 -531 0
-262 -532 0
-263 -533 0
-264 -534 0
-265 -535 0
-266 -536 0
-267 -537 0
-268 -538 0
-269 -539 0
-270 -540 0
-106 -406 0
-107 -407 0
-108 -408 0
-109 -409 0
-110 -410 0
-111 -411 0
-112 -412 0
-113 -413 0
-114 -414 0
-115 -415 0
-116 -416 0
-117 -417 0
-118 -418 0
-119 -419 0
-120 -420 0
-271 -541 0
-272 -542 0
-273 -543 0
-274 -544 0
-275 -545 0
-276 -546 0
-277 -547 0
-278 -548 0
-279 -549 0
-280 -550 0
-281 -551 0
-282 -552 0
-283 -553 0
-284 -554 0
-285 -555 0
-151 -481 0
-152 -482 0
-153 -483 0
-154 -484 0
-155 -485 0
-156 -486 0
-157 -487 0
-158 -488 0
-159 -489 0
-160 -490 0
-161 -491 0
-162 -492 0
-163 -493 0
-164 -494 0
-165 -495 0
-571 -211 0
-572 -212 0
-573 -213 0
-574 -214 0
-575 -215 0
-576 -216 0
-577 -217 0
-578 -218 0
-579 -219 0
-580 -220 0
-581 -221 0
-582 -222 0
-583 -223 0
-584 -224 0
-585 -225 0
-766 -496 0
-767 -497 0
-768 -498 0
-769 -499 0
-770 -500 0
-771 -501 0
-772 -502 0
-773 -503 0
-774 -504 0
-775 -505 0
-776 -506 0
-777 -507 0
-778 -508 0
-779 -509 0
-780 -510 0
-601 -901 0
-602 -902 0
-603 -903 0
-604 -904 0
-605 -905 0
-606 -906 0
-607 -907 0
-608 -908 0
-609 -909 0
-610 -910 0
-611 -911 0
-612 -912 0
-613 -913 0
-614 -914 0
-615 -915 0
-781 -511 0
-782 -512 0
-783 -513 0
-784 -514 0
-785 -515 0
-786 -516 0
-787 -517 0
-788 -518 0
-789 -519 0
-790 -520 0
-791 -521 0
-792 -522 0
-793 -523 0
-794 -524 0
-795 -525 0
-31 -496 0
-32 -497 0
-33 -498 0
-34 -499 0
-35 -500 0
-36 -501 0
-37 -502 0
-38 -503 0
-39 -504 0
-40 -505 0
-41 -506 0
-42 -507 0
-43 -508 0
-44 -509 0
-45 -510 0
-871 -751 0
-872 -752 0
-873 -753 0
-874 -754 0
-875 -755 0
-876 -756 0
-877 -757 0
-878 -758 0
-879 -759 0
-880 -760 0
-881 -761 0
-882 -762 0
-883 -763 0
-884 -764 0
-885 -765 0
-721 -541 0
-722 -542 0
-723 -543 0
-724 -544 0
-725 -545 0
-726 -546 0
-727 -547 0
-728 -548 0
-729 -549 0
-730 -550 0
-731 -551 0
-732 -552 0
-733 -553 0
-734 -554 0
-735 -555 0
-901 -151 0
-902 -152 0
-903 -153 0
-904 -154 0
-905 -155 0
-906 -156 0
-907 -157 0
-908 -158 0
-909 -159 0
-910 -160 0
-911 -161 0
-912 -162 0
-913 -163 0
-914 -164 0
-915 -165 0
-706 -601 0
-707 -602 0
-708 -603 0
-709 -604 0
-710 -605 0
-711 -606 0
-712 -607 0
-713 -608 0
-714 -609 0
-715 -610 0
-716 -611 0
-717 -612 0
-718 -613 0
-719 -614 0
-720 -615 0
-301 -886 0
-302 -887 0
-303 -888 0
-304 -889 0
-305 -890 0
-306 -891 0
-307 -892 0
-308 -893 0
-309 -894 0
-310 -895 0
-311 -896 0
-312 -897 0
-313 -898 0
-314 -899 0
-315 -900 0
-601 -556 0
-602 -557 0
-603 -558 0
-604 -559 0
-605 -560 0
-606 -561 0
-607 -562 0
-608 -563 0
-609 -564 0
-610 -565 0
-611 -566 0
-612 -567 0
-613 -568 0
-614 -569 0
-615 -570 0
-886 -751 0
-887 -752 0
-888 -753 0
-889 -754 0
-890 -755 0
-891 -756 0
-892 -757 0
-893 -758 0
-894 -759 0
-895 -760 0
-896 -761 0
-897 -762 0
-898 -763 0
-899 -764 0
-900 -765 0
-481 -496 0
-482 -497 0
-483 -498 0
-484 -499 0
-485 -500 0
-486 -501 0
-487 -502 0
-488 -503 0
-489 -504 0
-490 -505 0
-491 -506 0
-492 -507 0
-493 -508 0
-494 -509 0
-495 -510 0
-361 -436 0
-362 -437 0
-363 -438 0
-364 -439 0
-365 -440 0
-366 -441 0
-367 -442 0
-368 -443 0
-369 -444 0
-370 -445 0
-371 -446 0
-372 -447 0
-373 -448 0
-374 -449 0
-375 -450 0
-46 -91 0
-47 -92 0
-48 -93 0
-49 -94 0
-50 -95 0
-51 -96 0
-52 -97 0
-53 -98 0
-54 -99 0
-55 -100 0
-56 -101 0
-57 -102 0
-58 -103 0
-59 -104 0
-60 -105 0
-646 -631 0
-647 -632 0
-648 -633 0
-649 -634 0
-650 -635 0
-651 -636 0
-652 -637 0
-653 -638 0
-654 -639 0
-655 -640 0
-656 -641 0
-657 -642 0
-658 -643 0
-659 -644 0
-660 -645 0
-136 -736 0
-137 -737 0
-138 -738 0
-139 -739 0
-140 -740 0
-141 -741 0
-142 -742 0
-143 -743 0
-144 -744 0
-145 -745 0
-146 -746 0
-147 -747 0
-148 -748 0
-149 -749 0
-150 -750 0
-826 -241 0
-827 -242 0
-828 -243 0
-829 -244 0
-830 -245 0
-831 -246 0
-832 -247 0
-833 -248 0
-834 -249 0
-835 -250 0
-836 -251 0
-837 -252 0
-838 -253 0
-839 -254 0
-840 -255 0
-316 -346 0
-317 -347 0
-318 -348 0
-319 -349 0
-320 -350 0
-321 -351 0
-322 -352 0
-323 -353 0
-324 -354 0
-325 -355 0
-326 -356 0
-327 -357 0
-328 -358 0
-329 -359 0
-330 -360 0
-196 -286 0
-197 -287 0
-198 -288 0
-199 -289 0
-200 -290 0
-201 -291 0
-202 -292 0
-203 -293 0
-204 -294 0
-205 -295 0
-206 -296 0
-207 -297 0
-208 -298 0
-209 -299 0
-210 -300 0
-496 -511 0
-497 -512 0
-498 -513 0
-499 -514 0
-500 -515 0
-501 -516 0
-502 -517 0
-503 -518 0
-504 -519 0
-505 -520 0
-506 -521 0
-507 -522 0
-508 -523 0
-509 -524 0
-510 -525 0
-211 -301 0
-212 -302 0
-213 -303 0
-214 -304 0
-215 -305 0
-216 -306 0
-217 -307 0
-218 -308 0
-219 -309 0
-220 -310 0
-221 -311 0
-222 -312 0
-223 -313 0
-224 -314 0
-225 -315 0
-811 -841 0
-812 -842 0
-813 -843 0
-814 -844 0
-815 -845 0
-816 -846 0
-817 -847 0
-818 -848 0
-819 -849 0
-820 -850 0
-821 -851 0
-822 -852 0
-823 -853 0
-824 -854 0
-825 -855 0
-91 -241 0
-92 -242 0
-93 -243 0
-94 -244 0
-95 -245 0
-96 -246 0
-97 -247 0
-98 -248 0
-99 -249 0
-100 -250 0
-101 -251 0
-102 -252 0
-103 -253 0
-104 -254 0
-105 -255 0
-691 -781 0
-692 -782 0
-693 -783 0
-694 -784 0
-695 -785 0
-696 -786 0
-697 -787 0
-698 -788 0
-699 -789 0
-700 -790 0
-701 -791 0
-702 -792 0
-703 -793 0
-704 -794 0
-705 -795 0
-376 -436 0
-377 -437 0
-378 -438 0
-379 -439 0
-380 -440 0
-381 -441 0
-382 -442 0
-383 -443 0
-384 -444 0
-385 -445 0
-386 -446 0
-387 -447 0
-388 -448 0
-389 -449 0
-390 -450 0
-256 -376 0
-257 -377 0
-258 -378 0
-259 -379 0
-260 -380 0
-261 -381 0
-262 -382 0
-263 -383 0
-264 -384 0
-265 -385 0
-266 -386 0
-267 -387 0
-268 -388 0
-269 -389 0
-270 -390 0
-106 -256 0
-107 -257 0
-108 -258 0
-109 -259 0
-110 -260 0
-111 -261 0
-112 -262 0
-113 -263 0
-114 -264 0
-115 -265 0
-116 -266 0
-117 -267 0
-118 -268 0
-119 -269 0
-120 -270 0
-301 -541 0
-302 -542 0
-303 -543 0
-304 -544 0
-305 -545 0
-306 -546 0
-307 -547 0
-308 -548 0
-309 -549 0
-310 -550 0
-311 -551 0
-312 -552 0
-313 -553 0
-314 -554 0
-315 -555 0
-706 -796 0
-707 -797 0
-708 -798 0
-709 -799 0
-710 -800 0
-711 -801 0
-712 -802 0
-713 -803 0
-714 -804 0
-715 -805 0
-716 -806 0
-717 -807 0
-718 -808 0
-719 -809 0
-720 -810 0
-586 -736 0
-587 -737 0
-588 -738 0
-589 -739 0
-590 -740 0
-591 -741 0
-592 -742 0
-593 -743 0
-594 -744 0
-595 -745 0
-596 -746 0
-597 -747 0
-598 -748 0
-599 -749 0
-600 -750 0
-886 -406 0
-887 -407 0
-888 -408 0
-889 -409 0
-890 -410 0
-891 -411 0
-892 -412 0
-893 -413 0
-894 -414 0
-895 -415 0
-896 -416 0
-897 -417 0
-898 -418 0
-899 -419 0
-900 -420 0
-151 -331 0
-152 -332 0
-153 -333 0
-154 -334 0
-155 -335 0
-156 -336 0
-157 -337 0
-158 -338 0
-159 -339 0
-160 -340 0
-161 -341 0
-162 -342 0
-163 -343 0
-164 -344 0
-165 -345 0
-766 -346 0
-767 -347 0
-768 -348 0
-769 -349 0
-770 -350 0
-771 -351 0
-772 -352 0
-773 -353 0
-774 -354 0
-775 -355 0
-776 -356 0
-777 -357 0
-778 -358 0
-779 -359 0
-780 -360 0
-646 -286 0
-647 -287 0
-648 -288 0
-649 -289 0
-650 -290 0
-651 -291 0
-652 -292 0
-653 -293 0
-654 -294 0
-655 -295 0
-656 -296 0
-657 -297 0
-658 -298 0
-659 -299 0
-660 -300 0
-136 -391 0
-137 -392 0
-138 -393 0
-139 -394 0
-140 -395 0
-141 -396 0
-142 -397 0
-143 -398 0
-144 -399 0
-145 -400 0
-146 -401 0
-147 -402 0
-148 -403 0
-149 -404 0
-150 -405 0
-601 -751 0
-602 -752 0
-603 -753 0
-604 -754 0
-605 -755 0
-606 -756 0
-607 -757 0
-608 -758 0
-609 -759 0
-610 -760 0
-611 -761 0
-612 -762 0
-613 -763 0
-614 -764 0
-615 -765 0
-646 -826 0
-647 -827 0
-648 -828 0
-649 -829 0
-650 -830 0
-651 -831 0
-652 -832 0
-653 -833 0
-654 -834 0
-655 -835 0
-656 -836 0
-657 -837 0
-658 -838 0
-659 -839 0
-660 -840 0
-136 -931 0
-137 -932 0
-138 -933 0
-139 -934 0
-140 -935 0
-141 -936 0
-142 -937 0
-143 -938 0
-144 -939 0
-145 -940 0
-146 -941 0
-147 -942 0
-148 -943 0
-149 -944 0
-150 -945 0
-826 -436 0
-827 -437 0
-828 -438 0
-829 -439 0
-830 -440 0
-831 -441 0
-832 -442 0
-833 -443 0
-834 -444 0
-835 -445 0
-836 -446 0
-837 -447 0
-838 -448 0
-839 -449 0
-840 -450 0
-31 -346 0
-32 -347 0
-33 -348 0
-34 -349 0
-35 -350 0
-36 -351 0
-37 -352 0
-38 -353 0
-39 -354 0
-40 -355 0
-41 -356 0
-42 -357 0
-43 -358 0
-44 -359 0
-45 -360 0
-316 -541 0
-317 -542 0
-318 -543 0
-319 -544 0
-320 -545 0
-321 -546 0
-322 -547 0
-323 -548 0
-324 -549 0
-325 -550 0
-326 -551 0
-327 -552 0
-328 -553 0
-329 -554 0
-330 -555 0
-196 -481 0
-197 -482 0
-198 -483 0
-199 -484 0
-200 -485 0
-201 -486 0
-202 -487 0
-203 -488 0
-204 -489 0
-205 -490 0
-206 -491 0
-207 -492 0
-208 -493 0
-209 -494 0
-210 -495 0
-91 -436 0
-92 -437 0
-93 -438 0
-94 -439 0
-95 -440 0
-96 -441 0
-97 -442 0
-98 -443 0
-99 -444 0
-100 -445 0
-101 -446 0
-102 -447 0
-103 -448 0
-104 -449 0
-105 -450 0
-706 -451 0
-707 -452 0
-708 -453 0
-709 -454 0
-710 -455 0
-711 -456 0
-712 -457 0
-713 -458 0
-714 -459 0
-715 -460 0
-716 -461 0
-717 -462 0
-718 -463 0
-719 -464 0
-720 -465 0
-586 -391 0
-587 -392 0
-588 -393 0
-589 -394 0
-590 -395 0
-591 -396 0
-592 -397 0
-593 -398 0
-594 -399 0
-595 -400 0
-596 -401 0
-597 -402 0
-598 -403 0
-599 -404 0
-600 -405 0
-76 -496 0
-77 -497 0
-78 -498 0
-79 -499 0
-80 -500 0
-81 -501 0
-82 -502 0
-83 -503 0
-84 -504 0
-85 -505 0
-86 -506 0
-87 -507 0
-88 -508 0
-89 -509 0
-90 -510 0
-301 -736 0
-302 -737 0
-303 -738 0
-304 -739 0
-305 -740 0
-306 -741 0
-307 -742 0
-308 -743 0
-309 -744 0
-310 -745 0
-311 -746 0
-312 -747 0
-313 -748 0
-314 -749 0
-315 -750 0
-601 -406 0
-602 -407 0
-603 -408 0
-604 -409 0
-605 -410 0
-606 -411 0
-607 -412 0
-608 -413 0
-609 -414 0
-610 -415 0
-611 -416 0
-612 -417 0
-613 -418 0
-614 -419 0
-615 -420 0
-766 -541 0
-767 -542 0
-768 -543 0
-769 -544 0
-770 -545 0
-771 -546 0
-772 -547 0
-773 -548 0
-774 -549 0
-775 -550 0
-776 -551 0
-777 -552 0
-778 -553 0
-779 -554 0
-780 -555 0
-16 -526 0
-17 -527 0
-18 -528 0
-19 -529 0
-20 -530 0
-21 -531 0
-22 -532 0
-23 -533 0
-24 -534 0
-25 -535 0
-26 -536 0
-27 -537 0
-28 -538 0
-29 -539 0
-30 -540 0
-181 -751 0
-182 -752 0
-183 -753 0
-184 -754 0
-185 -755 0
-186 -756 0
-187 -757 0
-188 -758 0
-189 -759 0
-190 -760 0
-191 -761 0
-192 -762 0
-193 -763 0
-194 -764 0
-195 -765 0
-31 -541 0
-32 -542 0
-33 -543 0
-34 -544 0
-35 -545 0
-36 -546 0
-37 -547 0
-38 -548 0
-39 -549 0
-40 -550 0
-41 -551 0
-42 -552 0
-43 -553 0
-44 -554 0
-45 -555 0
-691 -631 0
-692 -632 0
-693 -633 0
-694 -634 0
-695 -635 0
-696 -636 0
-697 -637 0
-698 -638 0
-699 -639 0
-700 -640 0
-701 -641 0
-702 -642 0
-703 -643 0
-704 -644 0
-705 -645 0
-871 -796 0
-872 -797 0
-873 -798 0
-874 -799 0
-875 -800 0
-876 -801 0
-877 -802 0
-878 -803 0
-879 -804 0
-880 -805 0
-881 -806 0
-882 -807 0
-883 -808 0
-884 -809 0
-885 -810 0
-61 -676 0
-62 -677 0
-63 -678 0
-64 -679 0
-65 -680 0
-66 -681 0
-67 -682 0
-68 -683 0
-69 -684 0
-70 -685 0
-71 -686 0
-72 -687 0
-73 -688 0
-74 -689 0
-75 -690 0
-241 -841 0
-242 -842 0
-243 -843 0
-244 -844 0
-245 -845 0
-246 -846 0
-247 -847 0
-248 -848 0
-249 -849 0
-250 -850 0
-251 -851 0
-252 -852 0
-253 -853 0
-254 -854 0
-255 -855 0
-121 -781 0
-122 -782 0
-123 -783 0
-124 -784 0
-125 -785 0
-126 -786 0
-127 -787 0
-128 -788 0
-129 -789 0
-130 -790 0
-131 -791 0
-132 -792 0
-133 -793 0
-134 -794 0
-135 -795 0
-421 -451 0
-422 -452 0
-423 -453 0
-424 -454 0
-425 -455 0
-426 -456 0
-427 -457 0
-428 -458 0
-429 -459 0
-430 -460 0
-431 -461 0
-432 -462 0
-433 -463 0
-434 -464 0
-435 -465 0
-301 -391 0
-302 -392 0
-303 -393 0
-304 -394 0
-305 -395 0
-306 -396 0
-307 -397 0
-308 -398 0
-309 -399 0
-310 -400 0
-311 -401 0
-312 -402 0
-313 -403 0
-314 -404 0
-315 -405 0
-646 -136 0
-647 -137 0
-648 -138 0
-649 -139 0
-650 -140 0
-651 -141 0
-652 -142 0
-653 -143 0
-654 -144 0
-655 -145 0
-656 -146 0
-657 -147 0
-658 -148 0
-659 -149 0
-660 -150 0
-136 -241 0
-137 -242 0
-138 -243 0
-139 -244 0
-140 -245 0
-141 -246 0
-142 -247 0
-143 -248 0
-144 -249 0
-145 -250 0
-146 -251 0
-147 -252 0
-148 -253 0
-149 -254 0
-150 -255 0
-16 -181 0
-17 -182 0
-18 -183 0
-19 -184 0
-20 -185 0
-21 -186 0
-22 -187 0
-23 -188 0
-24 -189 0
-25 -190 0
-26 -191 0
-27 -192 0
-28 -193 0
-29 -194 0
-30 -195 0
-481 -541 0
-482 -542 0
-483 -543 0
-484 -544 0
-485 -545 0
-486 -546 0
-487 -547 0
-488 -548 0
-489 -549 0
-490 -550 0
-491 -551 0
-492 -552 0
-493 -553 0
-494 -554 0
-495 -555 0
-361 -481 0
-362 -482 0
-363 -483 0
-364 -484 0
-365 -485 0
-366 -486 0
-367 -487 0
-368 -488 0
-369 -489 0
-370 -490 0
-371 -491 0
-372 -492 0
-373 -493 0
-374 -494 0
-375 -495 0
-826 -286 0
-827 -287 0
-828 -288 0
-829 -289 0
-830 -290 0
-831 -291 0
-832 -292 0
-833 -293 0
-834 -294 0
-835 -295 0
-836 -296 0
-837 -297 0
-838 -298 0
-839 -299 0
-840 -300 0
-31 -196 0
-32 -197 0
-33 -198 0
-34 -199 0
-35 -200 0
-36 -201 0
-37 -202 0
-38 -203 0
-39 -204 0
-40 -205 0
-41 -206 0
-42 -207 0
-43 -208 0
-44 -209 0
-45 -210 0
-631 -736 0
-632 -737 0
-633 -738 0
-634 -739 0
-635 -740 0
-636 -741 0
-637 -742 0
-638 -743 0
-639 -744 0
-640 -745 0
-641 -746 0
-642 -747 0
-643 -748 0
-644 -749 0
-645 -750 0
-316 -391 0
-317 -392 0
-318 -393 0
-319 -394 0
-320 -395 0
-321 -396 0
-322 -397 0
-323 -398 0
-324 -399 0
-325 -400 0
-326 -401 0
-327 -402 0
-328 -403 0
-329 -404 0
-330 -405 0
-196 -331 0
-197 -332 0
-198 -333 0
-199 -334 0
-200 -335 0
-201 -336 0
-202 -337 0
-203 -338 0
-204 -339 0
-205 -340 0
-206 -341 0
-207 -342 0
-208 -343 0
-209 -344 0
-210 -345 0
-811 -346 0
-812 -347 0
-813 -348 0
-814 -349 0
-815 -350 0
-816 -351 0
-817 -352 0
-818 -353 0
-819 -354 0
-820 -355 0
-821 -356 0
-822 -357 0
-823 -358 0
-824 -359 0
-825 -360 0
-241 -496 0
-242 -497 0
-243 -498 0
-244 -499 0
-245 -500 0
-246 -501 0
-247 -502 0
-248 -503 0
-249 -504 0
-250 -505 0
-251 -506 0
-252 -507 0
-253 -508 0
-254 -509 0
-255 -510 0
-121 -436 0
-122 -437 0
-123 -438 0
-124 -439 0
-125 -440 0
-126 -441 0
-127 -442 0
-128 -443 0
-129 -444 0
-130 -445 0
-131 -446 0
-132 -447 0
-133 -448 0
-134 -449 0
-135 -450 0
-811 -886 0
-812 -887 0
-813 -888 0
-814 -889 0
-815 -890 0
-816 -891 0
-817 -892 0
-818 -893 0
-819 -894 0
-820 -895 0
-821 -896 0
-822 -897 0
-823 -898 0
-824 -899 0
-825 -900 0
-406 -631 0
-407 -632 0
-408 -633 0
-409 -634 0
-410 -635 0
-411 -636 0
-412 -637 0
-413 -638 0
-414 -639 0
-415 -640 0
-416 -641 0
-417 -642 0
-418 -643 0
-419 -644 0
-420 -645 0
-691 -826 0
-692 -827 0
-693 -828 0
-694 -829 0
-695 -830 0
-696 -831 0
-697 -832 0
-698 -833 0
-699 -834 0
-700 -835 0
-701 -836 0
-702 -837 0
-703 -838 0
-704 -839 0
-705 -840 0
-706 -301 0
-707 -302 0
-708 -303 0
-709 -304 0
-710 -305 0
-711 -306 0
-712 -307 0
-713 -308 0
-714 -309 0
-715 -310 0
-716 -311 0
-717 -312 0
-718 -313 0
-719 -314 0
-720 -315 0
-586 -241 0
-587 -242 0
-588 -243 0
-589 -244 0
-590 -245 0
-591 -246 0
-592 -247 0
-593 -248 0
-594 -249 0
-595 -250 0
-596 -251 0
-597 -252 0
-598 -253 0
-599 -254 0
-600 -255 0
-61 -871 0
-62 -872 0
-63 -873 0
-64 -874 0
-65 -875 0
-66 -876 0
-67 -877 0
-68 -878 0
-69 -879 0
-70 -880 0
-71 -881 0
-72 -882 0
-73 -883 0
-74 -884 0
-75 -885 0
-76 -346 0
-77 -347 0
-78 -348 0
-79 -349 0
-80 -350 0
-81 -351 0
-82 -352 0
-83 -353 0
-84 -354 0
-85 -355 0
-86 -356 0
-87 -357 0
-88 -358 0
-89 -359 0
-90 -360 0
-766 -391 0
-767 -392 0
-768 -393 0
-769 -394 0
-770 -395 0
-771 -396 0
-772 -397 0
-773 -398 0
-774 -399 0
-775 -400 0
-776 -401 0
-777 -402 0
-778 -403 0
-779 -404 0
-780 -405 0
-646 -331 0
-647 -332 0
-648 -333 0
-649 -334 0
-650 -335 0
-651 -336 0
-652 -337 0
-653 -338 0
-654 -339 0
-655 -340 0
-656 -341 0
-657 -342 0
-658 -343 0
-659 -344 0
-660 -345 0
-136 -436 0
-137 -437 0
-138 -438 0
-139 -439 0
-140 -440 0
-141 -441 0
-142 -442 0
-143 -443 0
-144 -444 0
-145 -445 0
-146 -446 0
-147 -447 0
-148 -448 0
-149 -449 0
-150 -450 0
-16 -376 0
-17 -377 0
-18 -378 0
-19 -379 0
-20 -380 0
-21 -381 0
-22 -382 0
-23 -383 0
-24 -384 0
-25 -385 0
-26 -386 0
-27 -387 0
-28 -388 0
-29 -389 0
-30 -390 0
-181 -601 0
-182 -602 0
-183 -603 0
-184 -604 0
-185 -605 0
-186 -606 0
-187 -607 0
-188 -608 0
-189 -609 0
-190 -610 0
-191 -611 0
-192 -612 0
-193 -613 0
-194 -614 0
-195 -615 0
-346 -736 0
-347 -737 0
-348 -738 0
-349 -739 0
-350 -740 0
-351 -741 0
-352 -742 0
-353 -743 0
-354 -744 0
-355 -745 0
-356 -746 0
-357 -747 0
-358 -748 0
-359 -749 0
-360 -750 0
-631 -931 0
-632 -932 0
-633 -933 0
-634 -934 0
-635 -935 0
-636 -936 0
-637 -937 0
-638 -938 0
-639 -939 0
-640 -940 0
-641 -941 0
-642 -942 0
-643 -943 0
-644 -944 0
-645 -945 0
-226 -676 0
-227 -677 0
-228 -678 0
-229 -679 0
-230 -680 0
-231 -681 0
-232 -682 0
-233 -683 0
-234 -684 0
-235 -685 0
-236 -686 0
-237 -687 0
-238 -688 0
-239 -689 0
-240 -690 0
-61 -526 0
-62 -527 0
-63 -528 0
-64 -529 0
-65 -530 0
-66 -531 0
-67 -532 0
-68 -533 0
-69 -534 0
-70 -535 0
-71 -536 0
-72 -537 0
-73 -538 0
-74 -539 0
-75 -540 0
-706 -496 0
-707 -497 0
-708 -498 0
-709 -499 0
-710 -500 0
-711 -501 0
-712 -502 0
-713 -503 0
-714 -504 0
-715 -505 0
-716 -506 0
-717 -507 0
-718 -508 0
-719 -509 0
-720 -510 0
-586 -436 0
-587 -437 0
-588 -438 0
-589 -439 0
-590 -440 0
-591 -441 0
-592 -442 0
-593 -443 0
-594 -444 0
-595 -445 0
-596 -446 0
-597 -447 0
-598 -448 0
-599 -449 0
-600 -450 0
-76 -541 0
-77 -542 0
-78 -543 0
-79 -544 0
-80 -545 0
-81 -546 0
-82 -547 0
-83 -548 0
-84 -549 0
-85 -550 0
-86 -551 0
-87 -552 0
-88 -553 0
-89 -554 0
-90 -555 0
-766 -46 0
-767 -47 0
-768 -48 0
-769 -49 0
-770 -50 0
-771 -51 0
-772 -52 0
-773 -53 0
-774 -54 0
-775 -55 0
-776 -56 0
-777 -57 0
-778 -58 0
-779 -59 0
-780 -60 0
-16 -31 0
-17 -32 0
-18 -33 0
-19 -34 0
-20 -35 0
-21 -36 0
-22 -37 0
-23 -38 0
-24 -39 0
-25 -40 0
-26 -41 0
-27 -42 0
-28 -43 0
-29 -44 0
-30 -45 0
-796 -736 0
-797 -737 0
-798 -738 0
-799 -739 0
-800 -740 0
-801 -741 0
-802 -742 0
-803 -743 0
-804 -744 0
-805 -745 0
-806 -746 0
-807 -747 0
-808 -748 0
-809 -749 0
-810 -750 0
-286 -841 0
-287 -842 0
-288 -843 0
-289 -844 0
-290 -845 0
-291 -846 0
-292 -847 0
-293 -848 0
-294 -849 0
-295 -850 0
-296 -851 0
-297 -852 0
-298 -853 0
-299 -854 0
-300 -855 0
-166 -781 0
-167 -782 0
-168 -783 0
-169 -784 0
-170 -785 0
-171 -786 0
-172 -787 0
-173 -788 0
-174 -789 0
-175 -790 0
-176 -791 0
-177 -792 0
-178 -793 0
-179 -794 0
-180 -795 0
-46 -721 0
-47 -722 0
-48 -723 0
-49 -724 0
-50 -725 0
-51 -726 0
-52 -727 0
-53 -728 0
-54 -729 0
-55 -730 0
-56 -731 0
-57 -732 0
-58 -733 0
-59 -734 0
-60 -735 0
-331 -916 0
-332 -917 0
-333 -918 0
-334 -919 0
-335 -920 0
-336 -921 0
-337 -922 0
-338 -923 0
-339 -924 0
-340 -925 0
-341 -926 0
-342 -927 0
-343 -928 0
-344 -929 0
-345 -930 0
-346 -391 0
-347 -392 0
-348 -393 0
-349 -394 0
-350 -395 0
-351 -396 0
-352 -397 0
-353 -398 0
-354 -399 0
-355 -400 0
-356 -401 0
-357 -402 0
-358 -403 0
-359 -404 0
-360 -405 0
-31 -46 0
-32 -47 0
-33 -48 0
-34 -49 0
-35 -50 0
-36 -51 0
-37 -52 0
-38 -53 0
-39 -54 0
-40 -55 0
-41 -56 0
-42 -57 0
-43 -58 0
-44 -59 0
-45 -60 0
-511 -526 0
-512 -527 0
-513 -528 0
-514 -529 0
-515 -530 0
-516 -531 0
-517 -532 0
-518 -533 0
-519 -534 0
-520 -535 0
-521 -536 0
-522 -537 0
-523 -538 0
-524 -539 0
-525 -540 0
-1 -631 0
-2 -632 0
-3 -633 0
-4 -634 0
-5 -635 0
-6 -636 0
-7 -637 0
-8 -638 0
-9 -639 0
-10 -640 0
-11 -641 0
-12 -642 0
-13 -643 0
-14 -644 0
-15 -645 0
-691 -136 0
-692 -137 0
-693 -138 0
-694 -139 0
-695 -140 0
-696 -141 0
-697 -142 0
-698 -143 0
-699 -144 0
-700 -145 0
-701 -146 0
-702 -147 0
-703 -148 0
-704 -149 0
-705 -150 0
-181 -796 0
-182 -797 0
-183 -798 0
-184 -799 0
-185 -800 0
-186 -801 0
-187 -802 0
-188 -803 0
-189 -804 0
-190 -805 0
-191 -806 0
-192 -807 0
-193 -808 0
-194 -809 0
-195 -810 0
-871 -301 0
-872 -302 0
-873 -303 0
-874 -304 0
-875 -305 0
-876 -306 0
-877 -307 0
-878 -308 0
-879 -309 0
-880 -310 0
-881 -311 0
-882 -312 0
-883 -313 0
-884 -314 0
-885 -315 0
-346 -931 0
-347 -932 0
-348 -933 0
-349 -934 0
-350 -935 0
-351 -936 0
-352 -937 0
-353 -938 0
-354 -939 0
-355 -940 0
-356 -941 0
-357 -942 0
-358 -943 0
-359 -944 0
-360 -945 0
-241 -346 0
-242 -347 0
-243 -348 0
-244 -349 0
-245 -350 0
-246 -351 0
-247 -352 0
-248 -353 0
-249 -354 0
-250 -355 0
-251 -356 0
-252 -357 0
-253 -358 0
-254 -359 0
-255 -360 0
-526 -541 0
-527 -542 0
-528 -543 0
-529 -544 0
-530 -545 0
-531 -546 0
-532 -547 0
-533 -548 0
-534 -549 0
-535 -550 0
-536 -551 0
-537 -552 0
-538 -553 0
-539 -554 0
-540 -555 0
-121 -286 0
-122 -287 0
-123 -288 0
-124 -289 0
-125 -290 0
-126 -291 0
-127 -292 0
-128 -293 0
-129 -294 0
-130 -295 0
-131 -296 0
-132 -297 0
-133 -298 0
-134 -299 0
-135 -300 0
-406 -481 0
-407 -482 0
-408 -483 0
-409 -484 0
-410 -485 0
-411 -486 0
-412 -487 0
-413 -488 0
-414 -489 0
-415 -490 0
-416 -491 0
-417 -492 0
-418 -493 0
-419 -494 0
-420 -495 0
-691 -676 0
-692 -677 0
-693 -678 0
-694 -679 0
-695 -680 0
-696 -681 0
-697 -682 0
-698 -683 0
-699 -684 0
-700 -685 0
-701 -686 0
-702 -687 0
-703 -688 0
-704 -689 0
-705 -690 0
-586 -91 0
-587 -92 0
-588 -93 0
-589 -94 0
-590 -95 0
-591 -96 0
-592 -97 0
-593 -98 0
-594 -99 0
-595 -100 0
-596 -101 0
-597 -102 0
-598 -103 0
-599 -104 0
-600 -105 0
-61 -721 0
-62 -722 0
-63 -723 0
-64 -724 0
-65 -725 0
-66 -726 0
-67 -727 0
-68 -728 0
-69 -729 0
-70 -730 0
-71 -731 0
-72 -732 0
-73 -733 0
-74 -734 0
-75 -735 0
-76 -196 0
-77 -197 0
-78 -198 0
-79 -199 0
-80 -200 0
-81 -201 0
-82 -202 0
-83 -203 0
-84 -204 0
-85 -205 0
-86 -206 0
-87 -207 0
-88 -208 0
-89 -209 0
-90 -210 0
-301 -436 0
-302 -437 0
-303 -438 0
-304 -439 0
-305 -440 0
-306 -441 0
-307 -442 0
-308 -443 0
-309 -444 0
-310 -445 0
-311 -446 0
-312 -447 0
-313 -448 0
-314 -449 0
-315 -450 0
-286 -496 0
-287 -497 0
-288 -498 0
-289 -499 0
-290 -500 0
-291 -501 0
-292 -502 0
-293 -503 0
-294 -504 0
-295 -505 0
-296 -506 0
-297 -507 0
-298 -508 0
-299 -509 0
-300 -510 0
-16 -226 0
-17 -227 0
-18 -228 0
-19 -229 0
-20 -230 0
-21 -231 0
-22 -232 0
-23 -233 0
-24 -234 0
-25 -235 0
-26 -236 0
-27 -237 0
-28 -238 0
-29 -239 0
-30 -240 0
-631 -241 0
-632 -242 0
-633 -243 0
-634 -244 0
-635 -245 0
-636 -246 0
-637 -247 0
-638 -248 0
-639 -249 0
-640 -250 0
-641 -251 0
-642 -252 0
-643 -253 0
-644 -254 0
-645 -255 0
-181 -451 0
-182 -452 0
-183 -453 0
-184 -454 0
-185 -455 0
-186 -456 0
-187 -457 0
-188 -458 0
-189 -459 0
-190 -460 0
-191 -461 0
-192 -462 0
-193 -463 0
-194 -464 0
-195 -465 0
-46 -916 0
-47 -917 0
-48 -918 0
-49 -919 0
-50 -920 0
-51 -921 0
-52 -922 0
-53 -923 0
-54 -924 0
-55 -925 0
-56 -926 0
-57 -927 0
-58 -928 0
-59 -929 0
-60 -930 0
-226 -526 0
-227 -527 0
-228 -528 0
-229 -529 0
-230 -530 0
-231 -531 0
-232 -532 0
-233 -533 0
-234 -534 0
-235 -535 0
-236 -536 0
-237 -537 0
-238 -538 0
-239 -539 0
-240 -540 0
-811 -391 0
-812 -392 0
-813 -393 0
-814 -394 0
-815 -395 0
-816 -396 0
-817 -397 0
-818 -398 0
-819 -399 0
-820 -400 0
-821 -401 0
-822 -402 0
-823 -403 0
-824 -404 0
-825 -405 0
-691 -331 0
-692 -332 0
-693 -333 0
-694 -334 0
-695 -335 0
-696 -336 0
-697 -337 0
-698 -338 0
-699 -339 0
-700 -340 0
-701 -341 0
-702 -342 0
-703 -343 0
-704 -344 0
-705 -345 0
-61 -376 0
-62 -377 0
-63 -378 0
-64 -379 0
-65 -380 0
-66 -381 0
-67 -382 0
-68 -383 0
-69 -384 0
-70 -385 0
-71 -386 0
-72 -387 0
-73 -388 0
-74 -389 0
-75 -390 0
-241 -541 0
-242 -542 0
-243 -543 0
-244 -544 0
-245 -545 0
-246 -546 0
-247 -547 0
-248 -548 0
-249 -549 0
-250 -550 0
-251 -551 0
-252 -552 0
-253 -553 0
-254 -554 0
-255 -555 0
-121 -481 0
-122 -482 0
-123 -483 0
-124 -484 0
-125 -485 0
-126 -486 0
-127 -487 0
-128 -488 0
-129 -489 0
-130 -490 0
-131 -491 0
-132 -492 0
-133 -493 0
-134 -494 0
-135 -495 0
-736 -496 0
-737 -497 0
-738 -498 0
-739 -499 0
-740 -500 0
-741 -501 0
-742 -502 0
-743 -503 0
-744 -504 0
-745 -505 0
-746 -506 0
-747 -507 0
-748 -508 0
-749 -509 0
-750 -510 0
-391 -736 0
-392 -737 0
-393 -738 0
-394 -739 0
-395 -740 0
-396 -741 0
-397 -742 0
-398 -743 0
-399 -744 0
-400 -745 0
-401 -746 0
-402 -747 0
-403 -748 0
-404 -749 0
-405 -750 0
-271 -676 0
-272 -677 0
-273 -678 0
-274 -679 0
-275 -680 0
-276 -681 0
-277 -682 0
-278 -683 0
-279 -684 0
-280 -685 0
-281 -686 0
-282 -687 0
-283 -688 0
-284 -689 0
-285 -690 0
-571 -346 0
-572 -347 0
-573 -348 0
-574 -349 0
-575 -350 0
-576 -351 0
-577 -352 0
-578 -353 0
-579 -354 0
-580 -355 0
-581 -356 0
-582 -357 0
-583 -358 0
-584 -359 0
-585 -360 0
-751 -496 0
-752 -497 0
-753 -498 0
-754 -499 0
-755 -500 0
-756 -501 0
-757 -502 0
-758 -503 0
-759 -504 0
-760 -505 0
-761 -506 0
-762 -507 0
-763 -508 0
-764 -509 0
-765 -510 0
-631 -436 0
-632 -437 0
-633 -438 0
-634 -439 0
-635 -440 0
-636 -441 0
-637 -442 0
-638 -443 0
-639 -444 0
-640 -445 0
-641 -446 0
-642 -447 0
-643 -448 0
-644 -449 0
-645 -450 0
-811 -46 0
-812 -47 0
-813 -48 0
-814 -49 0
-815 -50 0
-816 -51 0
-817 -52 0
-818 -53 0
-819 -54 0
-820 -55 0
-821 -56 0
-822 -57 0
-823 -58 0
-824 -59 0
-825 -60 0
-1 -481 0
-2 -482 0
-3 -483 0
-4 -484 0
-5 -485 0
-6 -486 0
-7 -487 0
-8 -488 0
-9 -489 0
-10 -490 0
-11 -491 0
-12 -492 0
-13 -493 0
-14 -494 0
-15 -495 0
-226 -721 0
-227 -722 0
-228 -723 0
-229 -724 0
-230 -725 0
-231 -726 0
-232 -727 0
-233 -728 0
-234 -729 0
-235 -730 0
-236 -731 0
-237 -732 0
-238 -733 0
-239 -734 0
-240 -735 0
-841 -736 0
-842 -737 0
-843 -738 0
-844 -739 0
-845 -740 0
-846 -741 0
-847 -742 0
-848 -743 0
-849 -744 0
-850 -745 0
-851 -746 0
-852 -747 0
-853 -748 0
-854 -749 0
-855 -750 0
-121 -136 0
-122 -137 0
-123 -138 0
-124 -139 0
-125 -140 0
-126 -141 0
-127 -142 0
-128 -143 0
-129 -144 0
-130 -145 0
-131 -146 0
-132 -147 0
-133 -148 0
-134 -149 0
-135 -150 0
-721 -676 0
-722 -677 0
-723 -678 0
-724 -679 0
-725 -680 0
-726 -681 0
-727 -682 0
-728 -683 0
-729 -684 0
-730 -685 0
-731 -686 0
-732 -687 0
-733 -688 0
-734 -689 0
-735 -690 0
-856 -751 0
-857 -752 0
-858 -753 0
-859 -754 0
-860 -755 0
-861 -756 0
-862 -757 0
-863 -758 0
-864 -759 0
-865 -760 0
-866 -761 0
-867 -762 0
-868 -763 0
-869 -764 0
-870 -765 0
-391 -931 0
-392 -932 0
-393 -933 0
-394 -934 0
-395 -935 0
-396 -936 0
-397 -937 0
-398 -938 0
-399 -939 0
-400 -940 0
-401 -941 0
-402 -942 0
-403 -943 0
-404 -944 0
-405 -945 0
-286 -346 0
-287 -347 0
-288 -348 0
-289 -349 0
-290 -350 0
-291 -351 0
-292 -352 0
-293 -353 0
-294 -354 0
-295 -355 0
-296 -356 0
-297 -357 0
-298 -358 0
-299 -359 0
-300 -360 0
-571 -541 0
-572 -542 0
-573 -543 0
-574 -544 0
-575 -545 0
-576 -546 0
-577 -547 0
-578 -548 0
-579 -549 0
-580 -550 0
-581 -551 0
-582 -552 0
-583 -553 0
-584 -554 0
-585 -555 0
-166 -286 0
-167 -287 0
-168 -288 0
-169 -289 0
-170 -290 0
-171 -291 0
-172 -292 0
-173 -293 0
-174 -294 0
-175 -295 0
-176 -296 0
-177 -297 0
-178 -298 0
-179 -299 0
-180 -300 0
-451 -481 0
-452 -482 0
-453 -483 0
-454 -484 0
-455 -485 0
-456 -486 0
-457 -487 0
-458 -488 0
-459 -489 0
-460 -490 0
-461 -491 0
-462 -492 0
-463 -493 0
-464 -494 0
-465 -495 0
-331 -421 0
-332 -422 0
-333 -423 0
-334 -424 0
-335 -425 0
-336 -426 0
-337 -427 0
-338 -428 0
-339 -429 0
-340 -430 0
-341 -431 0
-342 -432 0
-343 -433 0
-344 -434 0
-345 -435 0
-1 -136 0
-2 -137 0
-3 -138 0
-4 -139 0
-5 -140 0
-6 -141 0
-7 -142 0
-8 -143 0
-9 -144 0
-10 -145 0
-11 -146 0
-12 -147 0
-13 -148 0
-14 -149 0
-15 -150 0
-166 -826 0
-167 -827 0
-168 -828 0
-169 -829 0
-170 -830 0
-171 -831 0
-172 -832 0
-173 -833 0
-174 -834 0
-175 -835 0
-176 -836 0
-177 -837 0
-178 -838 0
-179 -839 0
-180 -840 0
-181 -301 0
-182 -302 0
-183 -303 0
-184 -304 0
-185 -305 0
-186 -306 0
-187 -307 0
-188 -308 0
-189 -309 0
-190 -310 0
-191 -311 0
-192 -312 0
-193 -313 0
-194 -314 0
-195 -315 0
-346 -436 0
-347 -437 0
-348 -438 0
-349 -439 0
-350 -440 0
-351 -441 0
-352 -442 0
-353 -443 0
-354 -444 0
-355 -445 0
-356 -446 0
-357 -447 0
-358 -448 0
-359 -449 0
-360 -450 0
-226 -376 0
-227 -377 0
-228 -378 0
-229 -379 0
-230 -380 0
-231 -381 0
-232 -382 0
-233 -383 0
-234 -384 0
-235 -385 0
-236 -386 0
-237 -387 0
-238 -388 0
-239 -389 0
-240 -390 0
-1 -676 0
-2 -677 0
-3 -678 0
-4 -679 0
-5 -680 0
-6 -681 0
-7 -682 0
-8 -683 0
-9 -684 0
-10 -685 0
-11 -686 0
-12 -687 0
-13 -688 0
-14 -689 0
-15 -690 0
-691 -181 0
-692 -182 0
-693 -183 0
-694 -184 0
-695 -185 0
-696 -186 0
-697 -187 0
-698 -188 0
-699 -189 0
-700 -190 0
-701 -191 0
-702 -192 0
-703 -193 0
-704 -194 0
-705 -195 0
-61 -226 0
-62 -227 0
-63 -228 0
-64 -229 0
-65 -230 0
-66 -231 0
-67 -232 0
-68 -233 0
-69 -234 0
-70 -235 0
-71 -236 0
-72 -237 0
-73 -238 0
-74 -239 0
-75 -240 0
-676 -796 0
-677 -797 0
-678 -798 0
-679 -799 0
-680 -800 0
-681 -801 0
-682 -802 0
-683 -803 0
-684 -804 0
-685 -805 0
-686 -806 0
-687 -807 0
-688 -808 0
-689 -809 0
-690 -810 0
-856 -406 0
-857 -407 0
-858 -408 0
-859 -409 0
-860 -410 0
-861 -411 0
-862 -412 0
-863 -413 0
-864 -414 0
-865 -415 0
-866 -416 0
-867 -417 0
-868 -418 0
-869 -419 0
-870 -420 0
-106 -391 0
-107 -392 0
-108 -393 0
-109 -394 0
-110 -395 0
-111 -396 0
-112 -397 0
-113 -398 0
-114 -399 0
-115 -400 0
-116 -401 0
-117 -402 0
-118 -403 0
-119 -404 0
-120 -405 0
-271 -526 0
-272 -527 0
-273 -528 0
-274 -529 0
-275 -530 0
-276 -531 0
-277 -532 0
-278 -533 0
-279 -534 0
-280 -535 0
-281 -536 0
-282 -537 0
-283 -538 0
-284 -539 0
-285 -540 0
-151 -466 0
-152 -467 0
-153 -468 0
-154 -469 0
-155 -470 0
-156 -471 0
-157 -472 0
-158 -473 0
-159 -474 0
-160 -475 0
-161 -476 0
-162 -477 0
-163 -478 0
-164 -479 0
-165 -480 0
-571 -196 0
-572 -197 0
-573 -198 0
-574 -199 0
-575 -200 0
-576 -201 0
-577 -202 0
-578 -203 0
-579 -204 0
-580 -205 0
-581 -206 0
-582 -207 0
-583 -208 0
-584 -209 0
-585 -210 0
-436 -661 0
-437 -662 0
-438 -663 0
-439 -664 0
-440 -665 0
-441 -666 0
-442 -667 0
-443 -668 0
-444 -669 0
-445 -670 0
-446 -671 0
-447 -672 0
-448 -673 0
-449 -674 0
-450 -675 0
-796 -436 0
-797 -437 0
-798 -438 0
-799 -439 0
-800 -440 0
-801 -441 0
-802 -442 0
-803 -443 0
-804 -444 0
-805 -445 0
-806 -446 0
-807 -447 0
-808 -448 0
-809 -449 0
-810 -450 0
-286 -541 0
-287 -542 0
-288 -543 0
-289 -544 0
-290 -545 0
-291 -546 0
-292 -547 0
-293 -548 0
-294 -549 0
-295 -550 0
-296 -551 0
-297 -552 0
-298 -553 0
-299 -554 0
-300 -555 0
-166 -481 0
-167 -482 0
-168 -483 0
-169 -484 0
-170 -485 0
-171 -486 0
-172 -487 0
-173 -488 0
-174 -489 0
-175 -490 0
-176 -491 0
-177 -492 0
-178 -493 0
-179 -494 0
-180 -495 0
-46 -421 0
-47 -422 0
-48 -423 0
-49 -424 0
-50 -425 0
-51 -426 0
-52 -427 0
-53 -428 0
-54 -429 0
-55 -430 0
-56 -431 0
-57 -432 0
-58 -433 0
-59 -434 0
-60 -435 0
-331 -616 0
-332 -617 0
-333 -618 0
-334 -619 0
-335 -620 0
-336 -621 0
-337 -622 0
-338 -623 0
-339 -624 0
-340 -625 0
-341 -626 0
-342 -627 0
-343 -628 0
-344 -629 0
-345 -630 0
-1 -331 0
-2 -332 0
-3 -333 0
-4 -334 0
-5 -335 0
-6 -336 0
-7 -337 0
-8 -338 0
-9 -339 0
-10 -340 0
-11 -341 0
-12 -342 0
-13 -343 0
-14 -344 0
-15 -345 0
-676 -451 0
-677 -452 0
-678 -453 0
-679 -454 0
-680 -455 0
-681 -456 0
-682 -457 0
-683 -458 0
-684 -459 0
-685 -460 0
-686 -461 0
-687 -462 0
-688 -463 0
-689 -464 0
-690 -465 0
-736 -541 0
-737 -542 0
-738 -543 0
-739 -544 0
-740 -545 0
-741 -546 0
-742 -547 0
-743 -548 0
-744 -549 0
-745 -550 0
-746 -551 0
-747 -552 0
-748 -553 0
-749 -554 0
-750 -555 0
-271 -721 0
-272 -722 0
-273 -723 0
-274 -724 0
-275 -725 0
-276 -726 0
-277 -727 0
-278 -728 0
-279 -729 0
-280 -730 0
-281 -731 0
-282 -732 0
-283 -733 0
-284 -734 0
-285 -735 0
-886 -736 0
-887 -737 0
-888 -738 0
-889 -739 0
-890 -740 0
-891 -741 0
-892 -742 0
-893 -743 0
-894 -744 0
-895 -745 0
-896 -746 0
-897 -747 0
-898 -748 0
-899 -749 0
-900 -750 0
-571 -391 0
-572 -392 0
-573 -393 0
-574 -394 0
-575 -395 0
-576 -396 0
-577 -397 0
-578 -398 0
-579 -399 0
-580 -400 0
-581 -401 0
-582 -402 0
-583 -403 0
-584 -404 0
-585 -405 0
-151 -661 0
-152 -662 0
-153 -663 0
-154 -664 0
-155 -665 0
-156 -666 0
-157 -667 0
-158 -668 0
-159 -669 0
-160 -670 0
-161 -671 0
-162 -672 0
-163 -673 0
-164 -674 0
-165 -675 0
-46 -76 0
-47 -77 0
-48 -78 0
-49 -79 0
-50 -80 0
-51 -81 0
-52 -82 0
-53 -83 0
-54 -84 0
-55 -85 0
-56 -86 0
-57 -87 0
-58 -88 0
-59 -89 0
-60 -90 0
-31 -676 0
-32 -677 0
-33 -678 0
-34 -679 0
-35 -680 0
-36 -681 0
-37 -682 0
-38 -683 0
-39 -684 0
-40 -685 0
-41 -686 0
-42 -687 0
-43 -688 0
-44 -689 0
-45 -690 0
-211 -286 0
-212 -287 0
-213 -288 0
-214 -289 0
-215 -290 0
-216 -291 0
-217 -292 0
-218 -293 0
-219 -294 0
-220 -295 0
-221 -296 0
-222 -297 0
-223 -298 0
-224 -299 0
-225 -300 0
-376 -421 0
-377 -422 0
-378 -423 0
-379 -424 0
-380 -425 0
-381 -426 0
-382 -427 0
-383 -428 0
-384 -429 0
-385 -430 0
-386 -431 0
-387 -432 0
-388 -433 0
-389 -434 0
-390 -435 0
-61 -76 0
-62 -77 0
-63 -78 0
-64 -79 0
-65 -80 0
-66 -81 0
-67 -82 0
-68 -83 0
-69 -84 0
-70 -85 0
-71 -86 0
-72 -87 0
-73 -88 0
-74 -89 0
-75 -90 0
-256 -361 0
-257 -362 0
-258 -363 0
-259 -364 0
-260 -365 0
-261 -366 0
-262 -367 0
-263 -368 0
-264 -369 0
-265 -370 0
-266 -371 0
-267 -372 0
-268 -373 0
-269 -374 0
-270 -375 0
-106 -241 0
-107 -242 0
-108 -243 0
-109 -244 0
-110 -245 0
-111 -246 0
-112 -247 0
-113 -248 0
-114 -249 0
-115 -250 0
-116 -251 0
-117 -252 0
-118 -253 0
-119 -254 0
-120 -255 0
-391 -436 0
-392 -437 0
-393 -438 0
-394 -439 0
-395 -440 0
-396 -441 0
-397 -442 0
-398 -443 0
-399 -444 0
-400 -445 0
-401 -446 0
-402 -447 0
-403 -448 0
-404 -449 0
-405 -450 0
-271 -376 0
-272 -377 0
-273 -378 0
-274 -379 0
-275 -380 0
-276 -381 0
-277 -382 0
-278 -383 0
-279 -384 0
-280 -385 0
-281 -386 0
-282 -387 0
-283 -388 0
-284 -389 0
-285 -390 0
-151 -316 0
-152 -317 0
-153 -318 0
-154 -319 0
-155 -320 0
-156 -321 0
-157 -322 0
-158 -323 0
-159 -324 0
-160 -325 0
-161 -326 0
-162 -327 0
-163 -328 0
-164 -329 0
-165 -330 0
-571 -46 0
-572 -47 0
-573 -48 0
-574 -49 0
-575 -50 0
-576 -51 0
-577 -52 0
-578 -53 0
-579 -54 0
-580 -55 0
-581 -56 0
-582 -57 0
-583 -58 0
-584 -59 0
-585 -60 0
-436 -511 0
-437 -512 0
-438 -513 0
-439 -514 0
-440 -515 0
-441 -516 0
-442 -517 0
-443 -518 0
-444 -519 0
-445 -520 0
-446 -521 0
-447 -522 0
-448 -523 0
-449 -524 0
-450 -525 0
-601 -736 0
-602 -737 0
-603 -738 0
-604 -739 0
-605 -740 0
-606 -741 0
-607 -742 0
-608 -743 0
-609 -744 0
-610 -745 0
-611 -746 0
-612 -747 0
-613 -748 0
-614 -749 0
-615 -750 0
-166 -331 0
-167 -332 0
-168 -333 0
-169 -334 0
-170 -335 0
-171 -336 0
-172 -337 0
-173 -338 0
-174 -339 0
-175 -340 0
-176 -341 0
-177 -342 0
-178 -343 0
-179 -344 0
-180 -345 0
-781 -346 0
-782 -347 0
-783 -348 0
-784 -349 0
-785 -350 0
-786 -351 0
-787 -352 0
-788 -353 0
-789 -354 0
-790 -355 0
-791 -356 0
-792 -357 0
-793 -358 0
-794 -359 0
-795 -360 0
-46 -271 0
-47 -272 0
-48 -273 0
-49 -274 0
-50 -275 0
-51 -276 0
-52 -277 0
-53 -278 0
-54 -279 0
-55 -280 0
-56 -281 0
-57 -282 0
-58 -283 0
-59 -284 0
-60 -285 0
-646 -811 0
-647 -812 0
-648 -813 0
-649 -814 0
-650 -815 0
-651 -816 0
-652 -817 0
-653 -818 0
-654 -819 0
-655 -820 0
-656 -821 0
-657 -822 0
-658 -823 0
-659 -824 0
-660 -825 0
-136 -916 0
-137 -917 0
-138 -918 0
-139 -919 0
-140 -920 0
-141 -921 0
-142 -922 0
-143 -923 0
-144 -924 0
-145 -925 0
-146 -926 0
-147 -927 0
-148 -928 0
-149 -929 0
-150 -930 0
-316 -526 0
-317 -527 0
-318 -528 0
-319 -529 0
-320 -530 0
-321 -531 0
-322 -532 0
-323 -533 0
-324 -534 0
-325 -535 0
-326 -536 0
-327 -537 0
-328 -538 0
-329 -539 0
-330 -540 0
-1 -181 0
-2 -182 0
-3 -183 0
-4 -184 0
-5 -185 0
-6 -186 0
-7 -187 0
-8 -188 0
-9 -189 0
-10 -190 0
-11 -191 0
-12 -192 0
-13 -193 0
-14 -194 0
-15 -195 0
-841 -436 0
-842 -437 0
-843 -438 0
-844 -439 0
-845 -440 0
-846 -441 0
-847 -442 0
-848 -443 0
-849 -444 0
-850 -445 0
-851 -446 0
-852 -447 0
-853 -448 0
-854 -449 0
-855 -450 0
-31 -871 0
-32 -872 0
-33 -873 0
-34 -874 0
-35 -875 0
-36 -876 0
-37 -877 0
-38 -878 0
-39 -879 0
-40 -880 0
-41 -881 0
-42 -882 0
-43 -883 0
-44 -884 0
-45 -885 0
-211 -481 0
-212 -482 0
-213 -483 0
-214 -484 0
-215 -485 0
-216 -486 0
-217 -487 0
-218 -488 0
-219 -489 0
-220 -490 0
-221 -491 0
-222 -492 0
-223 -493 0
-224 -494 0
-225 -495 0
-91 -421 0
-92 -422 0
-93 -423 0
-94 -424 0
-95 -425 0
-96 -426 0
-97 -427 0
-98 -428 0
-99 -429 0
-100 -430 0
-101 -431 0
-102 -432 0
-103 -433 0
-104 -434 0
-105 -435 0
-376 -616 0
-377 -617 0
-378 -618 0
-379 -619 0
-380 -620 0
-381 -621 0
-382 -622 0
-383 -623 0
-384 -624 0
-385 -625 0
-386 -626 0
-387 -627 0
-388 -628 0
-389 -629 0
-390 -630 0
-256 -556 0
-257 -557 0
-258 -558 0
-259 -559 0
-260 -560 0
-261 -561 0
-262 -562 0
-263 -563 0
-264 -564 0
-265 -565 0
-266 -566 0
-267 -567 0
-268 -568 0
-269 -569 0
-270 -570 0
-106 -436 0
-107 -437 0
-108 -438 0
-109 -439 0
-110 -440 0
-111 -441 0
-112 -442 0
-113 -443 0
-114 -444 0
-115 -445 0
-116 -446 0
-117 -447 0
-118 -448 0
-119 -449 0
-120 -450 0
-586 -916 0
-587 -917 0
-588 -918 0
-589 -919 0
-590 -920 0
-591 -921 0
-592 -922 0
-593 -923 0
-594 -924 0
-595 -925 0
-596 -926 0
-597 -927 0
-598 -928 0
-599 -929 0
-600 -930 0
-601 -391 0
-602 -392 0
-603 -393 0
-604 -394 0
-605 -395 0
-606 -396 0
-607 -397 0
-608 -398 0
-609 -399 0
-610 -400 0
-611 -401 0
-612 -402 0
-613 -403 0
-614 -404 0
-615 -405 0
-151 -511 0
-152 -512 0
-153 -513 0
-154 -514 0
-155 -515 0
-156 -516 0
-157 -517 0
-158 -518 0
-159 -519 0
-160 -520 0
-161 -521 0
-162 -522 0
-163 -523 0
-164 -524 0
-165 -525 0
-781 -541 0
-782 -542 0
-783 -543 0
-784 -544 0
-785 -545 0
-786 -546 0
-787 -547 0
-788 -548 0
-789 -549 0
-790 -550 0
-791 -551 0
-792 -552 0
-793 -553 0
-794 -554 0
-795 -555 0
-826 -616 0
-827 -617 0
-828 -618 0
-829 -619 0
-830 -620 0
-831 -621 0
-832 -622 0
-833 -623 0
-834 -624 0
-835 -625 0
-836 -626 0
-837 -627 0
-838 -628 0
-839 -629 0
-840 -630 0
-31 -526 0
-32 -527 0
-33 -528 0
-34 -529 0
-35 -530 0
-36 -531 0
-37 -532 0
-38 -533 0
-39 -534 0
-40 -535 0
-41 -536 0
-42 -537 0
-43 -538 0
-44 -539 0
-45 -540 0
-316 -721 0
-317 -722 0
-318 -723 0
-319 -724 0
-320 -725 0
-321 -726 0
-322 -727 0
-323 -728 0
-324 -729 0
-325 -730 0
-326 -731 0
-327 -732 0
-328 -733 0
-329 -734 0
-330 -735 0
-196 -661 0
-197 -662 0
-198 -663 0
-199 -664 0
-200 -665 0
-201 -666 0
-202 -667 0
-203 -668 0
-204 -669 0
-205 -670 0
-206 -671 0
-207 -672 0
-208 -673 0
-209 -674 0
-210 -675 0
-901 -181 0
-902 -182 0
-903 -183 0
-904 -184 0
-905 -185 0
-906 -186 0
-907 -187 0
-908 -188 0
-909 -189 0
-910 -190 0
-911 -191 0
-912 -192 0
-913 -193 0
-914 -194 0
-915 -195 0
-706 -631 0
-707 -632 0
-708 -633 0
-709 -634 0
-710 -635 0
-711 -636 0
-712 -637 0
-713 -638 0
-714 -639 0
-715 -640 0
-716 -641 0
-717 -642 0
-718 -643 0
-719 -644 0
-720 -645 0
-151 -166 0
-152 -167 0
-153 -168 0
-154 -169 0
-155 -170 0
-156 -171 0
-157 -172 0
-158 -173 0
-159 -174 0
-160 -175 0
-161 -176 0
-162 -177 0
-163 -178 0
-164 -179 0
-165 -180 0
-301 -916 0
-302 -917 0
-303 -918 0
-304 -919 0
-305 -920 0
-306 -921 0
-307 -922 0
-308 -923 0
-309 -924 0
-310 -925 0
-311 -926 0
-312 -927 0
-313 -928 0
-314 -929 0
-315 -930 0
-481 -526 0
-482 -527 0
-483 -528 0
-484 -529 0
-485 -530 0
-486 -531 0
-487 -532 0
-488 -533 0
-489 -534 0
-490 -535 0
-491 -536 0
-492 -537 0
-493 -538 0
-494 -539 0
-495 -540 0
-766 -721 0
-767 -722 0
-768 -723 0
-769 -724 0
-770 -725 0
-771 -726 0
-772 -727 0
-773 -728 0
-774 -729 0
-775 -730 0
-776 -731 0
-777 -732 0
-778 -733 0
-779 -734 0
-780 -735 0
-361 -466 0
-362 -467 0
-363 -468 0
-364 -469 0
-365 -470 0
-366 -471 0
-367 -472 0
-368 -473 0
-369 -474 0
-370 -475 0
-371 -476 0
-372 -477 0
-373 -478 0
-374 -479 0
-375 -480 0
-46 -121 0
-47 -122 0
-48 -123 0
-49 -124 0
-50 -125 0
-51 -126 0
-52 -127 0
-53 -128 0
-54 -129 0
-55 -130 0
-56 -131 0
-57 -132 0
-58 -133 0
-59 -134 0
-60 -135 0
-646 -661 0
-647 -662 0
-648 -663 0
-649 -664 0
-650 -665 0
-651 -666 0
-652 -667 0
-653 -668 0
-654 -669 0
-655 -670 0
-656 -671 0
-657 -672 0
-658 -673 0
-659 -674 0
-660 -675 0
-826 -271 0
-827 -272 0
-828 -273 0
-829 -274 0
-830 -275 0
-831 -276 0
-832 -277 0
-833 -278 0
-834 -279 0
-835 -280 0
-836 -281 0
-837 -282 0
-838 -283 0
-839 -284 0
-840 -285 0
-31 -181 0
-32 -182 0
-33 -183 0
-34 -184 0
-35 -185 0
-36 -186 0
-37 -187 0
-38 -188 0
-39 -189 0
-40 -190 0
-41 -191 0
-42 -192 0
-43 -193 0
-44 -194 0
-45 -195 0
-316 -376 0
-317 -377 0
-318 -378 0
-319 -379 0
-320 -380 0
-321 -381 0
-322 -382 0
-323 -383 0
-324 -384 0
-325 -385 0
-326 -386 0
-327 -387 0
-328 -388 0
-329 -389 0
-330 -390 0
-196 -316 0
-197 -317 0
-198 -318 0
-199 -319 0
-200 -320 0
-201 -321 0
-202 -322 0
-203 -323 0
-204 -324 0
-205 -325 0
-206 -326 0
-207 -327 0
-208 -328 0
-209 -329 0
-210 -330 0
-496 -541 0
-497 -542 0
-498 -543 0
-499 -544 0
-500 -545 0
-501 -546 0
-502 -547 0
-503 -548 0
-504 -549 0
-505 -550 0
-506 -551 0
-507 -552 0
-508 -553 0
-509 -554 0
-510 -555 0
-541 -616 0
-542 -617 0
-543 -618 0
-544 -619 0
-545 -620 0
-546 -621 0
-547 -622 0
-548 -623 0
-549 -624 0
-550 -625 0
-551 -626 0
-552 -627 0
-553 -628 0
-554 -629 0
-555 -630 0
-31 -721 0
-32 -722 0
-33 -723 0
-34 -724 0
-35 -725 0
-36 -726 0
-37 -727 0
-38 -728 0
-39 -729 0
-40 -730 0
-41 -731 0
-42 -732 0
-43 -733 0
-44 -734 0
-45 -735 0
-211 -331 0
-212 -332 0
-213 -333 0
-214 -334 0
-215 -335 0
-216 -336 0
-217 -337 0
-218 -338 0
-219 -339 0
-220 -340 0
-221 -341 0
-222 -342 0
-223 -343 0
-224 -344 0
-225 -345 0
-811 -871 0
-812 -872 0
-813 -873 0
-814 -874 0
-815 -875 0
-816 -876 0
-817 -877 0
-818 -878 0
-819 -879 0
-820 -880 0
-821 -881 0
-822 -882 0
-823 -883 0
-824 -884 0
-825 -885 0
-91 -271 0
-92 -272 0
-93 -273 0
-94 -274 0
-95 -275 0
-96 -276 0
-97 -277 0
-98 -278 0
-99 -279 0
-100 -280 0
-101 -281 0
-102 -282 0
-103 -283 0
-104 -284 0
-105 -285 0
-691 -811 0
-692 -812 0
-693 -813 0
-694 -814 0
-695 -815 0
-696 -816 0
-697 -817 0
-698 -818 0
-699 -819 0
-700 -820 0
-701 -821 0
-702 -822 0
-703 -823 0
-704 -824 0
-705 -825 0
-376 -466 0
-377 -467 0
-378 -468 0
-379 -469 0
-380 -470 0
-381 -471 0
-382 -472 0
-383 -473 0
-384 -474 0
-385 -475 0
-386 -476 0
-387 -477 0
-388 -478 0
-389 -479 0
-390 -480 0
-256 -406 0
-257 -407 0
-258 -408 0
-259 -409 0
-260 -410 0
-261 -411 0
-262 -412 0
-263 -413 0
-264 -414 0
-265 -415 0
-266 -416 0
-267 -417 0
-268 -418 0
-269 -419 0
-270 -420 0
-886 -436 0
-887 -437 0
-888 -438 0
-889 -439 0
-890 -440 0
-891 -441 0
-892 -442 0
-893 -443 0
-894 -444 0
-895 -445 0
-896 -446 0
-897 -447 0
-898 -448 0
-899 -449 0
-900 -450 0
-646 -316 0
-647 -317 0
-648 -318 0
-649 -319 0
-650 -320 0
-651 -321 0
-652 -322 0
-653 -323 0
-654 -324 0
-655 -325 0
-656 -326 0
-657 -327 0
-658 -328 0
-659 -329 0
-660 -330 0
-136 -421 0
-137 -422 0
-138 -423 0
-139 -424 0
-140 -425 0
-141 -426 0
-142 -427 0
-143 -428 0
-144 -429 0
-145 -430 0
-146 -431 0
-147 -432 0
-148 -433 0
-149 -434 0
-150 -435 0
-16 -361 0
-17 -362 0
-18 -363 0
-19 -364 0
-20 -365 0
-21 -366 0
-22 -367 0
-23 -368 0
-24 -369 0
-25 -370 0
-26 -371 0
-27 -372 0
-28 -373 0
-29 -374 0
-30 -375 0
-781 -391 0
-782 -392 0
-783 -393 0
-784 -394 0
-785 -395 0
-786 -396 0
-787 -397 0
-788 -398 0
-789 -399 0
-790 -400 0
-791 -401 0
-792 -402 0
-793 -403 0
-794 -404 0
-795 -405 0
-31 -376 0
-32 -377 0
-33 -378 0
-34 -379 0
-35 -380 0
-36 -381 0
-37 -382 0
-38 -383 0
-39 -384 0
-40 -385 0
-41 -386 0
-42 -387 0
-43 -388 0
-44 -389 0
-45 -390 0
-196 -511 0
-197 -512 0
-198 -513 0
-199 -514 0
-200 -515 0
-201 -516 0
-202 -517 0
-203 -518 0
-204 -519 0
-205 -520 0
-206 -521 0
-207 -522 0
-208 -523 0
-209 -524 0
-210 -525 0
-871 -631 0
-872 -632 0
-873 -633 0
-874 -634 0
-875 -635 0
-876 -636 0
-877 -637 0
-878 -638 0
-879 -639 0
-880 -640 0
-881 -641 0
-882 -642 0
-883 -643 0
-884 -644 0
-885 -645 0
-241 -676 0
-242 -677 0
-243 -678 0
-244 -679 0
-245 -680 0
-246 -681 0
-247 -682 0
-248 -683 0
-249 -684 0
-250 -685 0
-251 -686 0
-252 -687 0
-253 -688 0
-254 -689 0
-255 -690 0
-121 -616 0
-122 -617 0
-123 -618 0
-124 -619 0
-125 -620 0
-126 -621 0
-127 -622 0
-128 -623 0
-129 -624 0
-130 -625 0
-131 -626 0
-132 -627 0
-133 -628 0
-134 -629 0
-135 -630 0
-586 -421 0
-587 -422 0
-588 -423 0
-589 -424 0
-590 -425 0
-591 -426 0
-592 -427 0
-593 -428 0
-594 -429 0
-595 -430 0
-596 -431 0
-597 -432 0
-598 -433 0
-599 -434 0
-600 -435 0
-76 -526 0
-77 -527 0
-78 -528 0
-79 -529 0
-80 -530 0
-81 -531 0
-82 -532 0
-83 -533 0
-84 -534 0
-85 -535 0
-86 -536 0
-87 -537 0
-88 -538 0
-89 -539 0
-90 -540 0
-601 -436 0
-602 -437 0
-603 -438 0
-604 -439 0
-605 -440 0
-606 -441 0
-607 -442 0
-608 -443 0
-609 -444 0
-610 -445 0
-611 -446 0
-612 -447 0
-613 -448 0
-614 -449 0
-615 -450 0
-646 -511 0
-647 -512 0
-648 -513 0
-649 -514 0
-650 -515 0
-651 -516 0
-652 -517 0
-653 -518 0
-654 -519 0
-655 -520 0
-656 -521 0
-657 -522 0
-658 -523 0
-659 -524 0
-660 -525 0
-136 -616 0
-137 -617 0
-138 -618 0
-139 -619 0
-140 -620 0
-141 -621 0
-142 -622 0
-143 -623 0
-144 -624 0
-145 -625 0
-146 -626 0
-147 -627 0
-148 -628 0
-149 -629 0
-150 -630 0
-16 -556 0
-17 -557 0
-18 -558 0
-19 -559 0
-20 -560 0
-21 -561 0
-22 -562 0
-23 -563 0
-24 -564 0
-25 -565 0
-26 -566 0
-27 -567 0
-28 -568 0
-29 -569 0
-30 -570 0
-871 -286 0
-872 -287 0
-873 -288 0
-874 -289 0
-875 -290 0
-876 -291 0
-877 -292 0
-878 -293 0
-879 -294 0
-880 -295 0
-881 -296 0
-882 -297 0
-883 -298 0
-884 -299 0
-885 -300 0
-226 -856 0
-227 -857 0
-228 -858 0
-229 -859 0
-230 -860 0
-231 -861 0
-232 -862 0
-233 -863 0
-234 -864 0
-235 -865 0
-236 -866 0
-237 -867 0
-238 -868 0
-239 -869 0
-240 -870 0
-811 -721 0
-812 -722 0
-813 -723 0
-814 -724 0
-815 -725 0
-816 -726 0
-817 -727 0
-818 -728 0
-819 -729 0
-820 -730 0
-821 -731 0
-822 -732 0
-823 -733 0
-824 -734 0
-825 -735 0
-406 -466 0
-407 -467 0
-408 -468 0
-409 -469 0
-410 -470 0
-411 -471 0
-412 -472 0
-413 -473 0
-414 -474 0
-415 -475 0
-416 -476 0
-417 -477 0
-418 -478 0
-419 -479 0
-420 -480 0
-91 -121 0
-92 -122 0
-93 -123 0
-94 -124 0
-95 -125 0
-96 -126 0
-97 -127 0
-98 -128 0
-99 -129 0
-100 -130 0
-101 -131 0
-102 -132 0
-103 -133 0
-104 -134 0
-105 -135 0
-691 -661 0
-692 -662 0
-693 -663 0
-694 -664 0
-695 -665 0
-696 -666 0
-697 -667 0
-698 -668 0
-699 -669 0
-700 -670 0
-701 -671 0
-702 -672 0
-703 -673 0
-704 -674 0
-705 -675 0
-871 -826 0
-872 -827 0
-873 -828 0
-874 -829 0
-875 -830 0
-876 -831 0
-877 -832 0
-878 -833 0
-879 -834 0
-880 -835 0
-881 -836 0
-882 -837 0
-883 -838 0
-884 -839 0
-885 -840 0
-61 -706 0
-62 -707 0
-63 -708 0
-64 -709 0
-65 -710 0
-66 -711 0
-67 -712 0
-68 -713 0
-69 -714 0
-70 -715 0
-71 -716 0
-72 -717 0
-73 -718 0
-74 -719 0
-75 -720 0
-421 -481 0
-422 -482 0
-423 -483 0
-424 -484 0
-425 -485 0
-426 -486 0
-427 -487 0
-428 -488 0
-429 -489 0
-430 -490 0
-431 -491 0
-432 -492 0
-433 -493 0
-434 -494 0
-435 -495 0
-706 -676 0
-707 -677 0
-708 -678 0
-709 -679 0
-710 -680 0
-711 -681 0
-712 -682 0
-713 -683 0
-714 -684 0
-715 -685 0
-716 -686 0
-717 -687 0
-718 -688 0
-719 -689 0
-720 -690 0
-301 -421 0
-302 -422 0
-303 -423 0
-304 -424 0
-305 -425 0
-306 -426 0
-307 -427 0
-308 -428 0
-309 -429 0
-310 -430 0
-311 -431 0
-312 -432 0
-313 -433 0
-314 -434 0
-315 -435 0
-886 -286 0
-887 -287 0
-888 -288 0
-889 -289 0
-890 -290 0
-891 -291 0
-892 -292 0
-893 -293 0
-894 -294 0
-895 -295 0
-896 -296 0
-897 -297 0
-898 -298 0
-899 -299 0
-900 -300 0
-766 -226 0
-767 -227 0
-768 -228 0
-769 -229 0
-770 -230 0
-771 -231 0
-772 -232 0
-773 -233 0
-774 -234 0
-775 -235 0
-776 -236 0
-777 -237 0
-778 -238 0
-779 -239 0
-780 -240 0
-646 -166 0
-647 -167 0
-648 -168 0
-649 -169 0
-650 -170 0
-651 -171 0
-652 -172 0
-653 -173 0
-654 -174 0
-655 -175 0
-656 -176 0
-657 -177 0
-658 -178 0
-659 -179 0
-660 -180 0
-136 -271 0
-137 -272 0
-138 -273 0
-139 -274 0
-140 -275 0
-141 -276 0
-142 -277 0
-143 -278 0
-144 -279 0
-145 -280 0
-146 -281 0
-147 -282 0
-148 -283 0
-149 -284 0
-150 -285 0
-16 -211 0
-17 -212 0
-18 -213 0
-19 -214 0
-20 -215 0
-21 -216 0
-22 -217 0
-23 -218 0
-24 -219 0
-25 -220 0
-26 -221 0
-27 -222 0
-28 -223 0
-29 -224 0
-30 -225 0
-361 -511 0
-362 -512 0
-363 -513 0
-364 -514 0
-365 -515 0
-366 -516 0
-367 -517 0
-368 -518 0
-369 -519 0
-370 -520 0
-371 -521 0
-372 -522 0
-373 -523 0
-374 -524 0
-375 -525 0
-31 -226 0
-32 -227 0
-33 -228 0
-34 -229 0
-35 -230 0
-36 -231 0
-37 -232 0
-38 -233 0
-39 -234 0
-40 -235 0
-41 -236 0
-42 -237 0
-43 -238 0
-44 -239 0
-45 -240 0
-196 -361 0
-197 -362 0
-198 -363 0
-199 -364 0
-200 -365 0
-201 -366 0
-202 -367 0
-203 -368 0
-204 -369 0
-205 -370 0
-206 -371 0
-207 -372 0
-208 -373 0
-209 -374 0
-210 -375 0
-691 -316 0
-692 -317 0
-693 -318 0
-694 -319 0
-695 -320 0
-696 -321 0
-697 -322 0
-698 -323 0
-699 -324 0
-700 -325 0
-701 -326 0
-702 -327 0
-703 -328 0
-704 -329 0
-705 -330 0
-241 -526 0
-242 -527 0
-243 -528 0
-244 -529 0
-245 -530 0
-246 -531 0
-247 -532 0
-248 -533 0
-249 -534 0
-250 -535 0
-251 -536 0
-252 -537 0
-253 -538 0
-254 -539 0
-255 -540 0
-121 -466 0
-122 -467 0
-123 -468 0
-124 -469 0
-125 -470 0
-126 -471 0
-127 -472 0
-128 -473 0
-129 -474 0
-130 -475 0
-131 -476 0
-132 -477 0
-133 -478 0
-134 -479 0
-135 -480 0
-406 -661 0
-407 -662 0
-408 -663 0
-409 -664 0
-410 -665 0
-411 -666 0
-412 -667 0
-413 -668 0
-414 -669 0
-415 -670 0
-416 -671 0
-417 -672 0
-418 -673 0
-419 -674 0
-420 -675 0
-691 -856 0
-692 -857 0
-693 -858 0
-694 -859 0
-695 -860 0
-696 -861 0
-697 -862 0
-698 -863 0
-699 -864 0
-700 -865 0
-701 -866 0
-702 -867 0
-703 -868 0
-704 -869 0
-705 -870 0
-706 -331 0
-707 -332 0
-708 -333 0
-709 -334 0
-710 -335 0
-711 -336 0
-712 -337 0
-713 -338 0
-714 -339 0
-715 -340 0
-716 -341 0
-717 -342 0
-718 -343 0
-719 -344 0
-720 -345 0
-586 -271 0
-587 -272 0
-588 -273 0
-589 -274 0
-590 -275 0
-591 -276 0
-592 -277 0
-593 -278 0
-594 -279 0
-595 -280 0
-596 -281 0
-597 -282 0
-598 -283 0
-599 -284 0
-600 -285 0
-61 -901 0
-62 -902 0
-63 -903 0
-64 -904 0
-65 -905 0
-66 -906 0
-67 -907 0
-68 -908 0
-69 -909 0
-70 -910 0
-71 -911 0
-72 -912 0
-73 -913 0
-74 -914 0
-75 -915 0
-76 -376 0
-77 -377 0
-78 -378 0
-79 -379 0
-80 -380 0
-81 -381 0
-82 -382 0
-83 -383 0
-84 -384 0
-85 -385 0
-86 -386 0
-87 -387 0
-88 -388 0
-89 -389 0
-90 -390 0
-301 -616 0
-302 -617 0
-303 -618 0
-304 -619 0
-305 -620 0
-306 -621 0
-307 -622 0
-308 -623 0
-309 -624 0
-310 -625 0
-311 -626 0
-312 -627 0
-313 -628 0
-314 -629 0
-315 -630 0
-916 -631 0
-917 -632 0
-918 -633 0
-919 -634 0
-920 -635 0
-921 -636 0
-922 -637 0
-923 -638 0
-924 -639 0
-925 -640 0
-926 -641 0
-927 -642 0
-928 -643 0
-929 -644 0
-930 -645 0
-286 -676 0
-287 -677 0
-288 -678 0
-289 -679 0
-290 -680 0
-291 -681 0
-292 -682 0
-293 -683 0
-294 -684 0
-295 -685 0
-296 -686 0
-297 -687 0
-298 -688 0
-299 -689 0
-300 -690 0
-136 -466 0
-137 -467 0
-138 -468 0
-139 -469 0
-140 -470 0
-141 -471 0
-142 -472 0
-143 -473 0
-144 -474 0
-145 -475 0
-146 -476 0
-147 -477 0
-148 -478 0
-149 -479 0
-150 -480 0
-331 -751 0
-332 -752 0
-333 -753 0
-334 -754 0
-335 -755 0
-336 -756 0
-337 -757 0
-338 -758 0
-339 -759 0
-340 -760 0
-341 -761 0
-342 -762 0
-343 -763 0
-344 -764 0
-345 -765 0
-16 -406 0
-17 -407 0
-18 -408 0
-19 -409 0
-20 -410 0
-21 -411 0
-22 -412 0
-23 -413 0
-24 -414 0
-25 -415 0
-26 -416 0
-27 -417 0
-28 -418 0
-29 -419 0
-30 -420 0
-691 -511 0
-692 -512 0
-693 -513 0
-694 -514 0
-695 -515 0
-696 -516 0
-697 -517 0
-698 -518 0
-699 -519 0
-700 -520 0
-701 -521 0
-702 -522 0
-703 -523 0
-704 -524 0
-705 -525 0
-61 -556 0
-62 -557 0
-63 -558 0
-64 -559 0
-65 -560 0
-66 -561 0
-67 -562 0
-68 -563 0
-69 -564 0
-70 -565 0
-71 -566 0
-72 -567 0
-73 -568 0
-74 -569 0
-75 -570 0
-241 -721 0
-242 -722 0
-243 -723 0
-244 -724 0
-245 -725 0
-246 -726 0
-247 -727 0
-248 -728 0
-249 -729 0
-250 -730 0
-251 -731 0
-252 -732 0
-253 -733 0
-254 -734 0
-255 -735 0
-856 -736 0
-857 -737 0
-858 -738 0
-859 -739 0
-860 -740 0
-861 -741 0
-862 -742 0
-863 -743 0
-864 -744 0
-865 -745 0
-866 -746 0
-867 -747 0
-868 -748 0
-869 -749 0
-870 -750 0
-121 -661 0
-122 -662 0
-123 -663 0
-124 -664 0
-125 -665 0
-126 -666 0
-127 -667 0
-128 -668 0
-129 -669 0
-130 -670 0
-131 -671 0
-132 -672 0
-133 -673 0
-134 -674 0
-135 -675 0
-586 -466 0
-587 -467 0
-588 -468 0
-589 -469 0
-590 -470 0
-591 -471 0
-592 -472 0
-593 -473 0
-594 -474 0
-595 -475 0
-596 -476 0
-597 -477 0
-598 -478 0
-599 -479 0
-600 -480 0
-271 -856 0
-272 -857 0
-273 -858 0
-274 -859 0
-275 -860 0
-276 -861 0
-277 -862 0
-278 -863 0
-279 -864 0
-280 -865 0
-281 -866 0
-282 -867 0
-283 -868 0
-284 -869 0
-285 -870 0
-571 -526 0
-572 -527 0
-573 -528 0
-574 -529 0
-575 -530 0
-576 -531 0
-577 -532 0
-578 -533 0
-579 -534 0
-580 -535 0
-581 -536 0
-582 -537 0
-583 -538 0
-584 -539 0
-585 -540 0
-16 -61 0
-17 -62 0
-18 -63 0
-19 -64 0
-20 -65 0
-21 -66 0
-22 -67 0
-23 -68 0
-24 -69 0
-25 -70 0
-26 -71 0
-27 -72 0
-28 -73 0
-29 -74 0
-30 -75 0
-181 -286 0
-182 -287 0
-183 -288 0
-184 -289 0
-185 -290 0
-186 -291 0
-187 -292 0
-188 -293 0
-189 -294 0
-190 -295 0
-191 -296 0
-192 -297 0
-193 -298 0
-194 -299 0
-195 -300 0
-466 -481 0
-467 -482 0
-468 -483 0
-469 -484 0
-470 -485 0
-471 -486 0
-472 -487 0
-473 -488 0
-474 -489 0
-475 -490 0
-476 -491 0
-477 -492 0
-478 -493 0
-479 -494 0
-480 -495 0
-46 -751 0
-47 -752 0
-48 -753 0
-49 -754 0
-50 -755 0
-51 -756 0
-52 -757 0
-53 -758 0
-54 -759 0
-55 -760 0
-56 -761 0
-57 -762 0
-58 -763 0
-59 -764 0
-60 -765 0
-346 -421 0
-347 -422 0
-348 -423 0
-349 -424 0
-350 -425 0
-351 -426 0
-352 -427 0
-353 -428 0
-354 -429 0
-355 -430 0
-356 -431 0
-357 -432 0
-358 -433 0
-359 -434 0
-360 -435 0
-631 -616 0
-632 -617 0
-633 -618 0
-634 -619 0
-635 -620 0
-636 -621 0
-637 -622 0
-638 -623 0
-639 -624 0
-640 -625 0
-641 -626 0
-642 -627 0
-643 -628 0
-644 -629 0
-645 -630 0
-226 -361 0
-227 -362 0
-228 -363 0
-229 -364 0
-230 -365 0
-231 -366 0
-232 -367 0
-233 -368 0
-234 -369 0
-235 -370 0
-236 -371 0
-237 -372 0
-238 -373 0
-239 -374 0
-240 -375 0
-511 -556 0
-512 -557 0
-513 -558 0
-514 -559 0
-515 -560 0
-516 -561 0
-517 -562 0
-518 -563 0
-519 -564 0
-520 -565 0
-521 -566 0
-522 -567 0
-523 -568 0
-524 -569 0
-525 -570 0
-811 -226 0
-812 -227 0
-813 -228 0
-814 -229 0
-815 -230 0
-816 -231 0
-817 -232 0
-818 -233 0
-819 -234 0
-820 -235 0
-821 -236 0
-822 -237 0
-823 -238 0
-824 -239 0
-825 -240 0
-1 -661 0
-2 -662 0
-3 -663 0
-4 -664 0
-5 -665 0
-6 -666 0
-7 -667 0
-8 -668 0
-9 -669 0
-10 -670 0
-11 -671 0
-12 -672 0
-13 -673 0
-14 -674 0
-15 -675 0
-691 -166 0
-692 -167 0
-693 -168 0
-694 -169 0
-695 -170 0
-696 -171 0
-697 -172 0
-698 -173 0
-699 -174 0
-700 -175 0
-701 -176 0
-702 -177 0
-703 -178 0
-704 -179 0
-705 -180 0
-181 -826 0
-182 -827 0
-183 -828 0
-184 -829 0
-185 -830 0
-186 -831 0
-187 -832 0
-188 -833 0
-189 -834 0
-190 -835 0
-191 -836 0
-192 -837 0
-193 -838 0
-194 -839 0
-195 -840 0
-871 -331 0
-872 -332 0
-873 -333 0
-874 -334 0
-875 -335 0
-876 -336 0
-877 -337 0
-878 -338 0
-879 -339 0
-880 -340 0
-881 -341 0
-882 -342 0
-883 -343 0
-884 -344 0
-885 -345 0
-61 -211 0
-62 -212 0
-63 -213 0
-64 -214 0
-65 -215 0
-66 -216 0
-67 -217 0
-68 -218 0
-69 -219 0
-70 -220 0
-71 -221 0
-72 -222 0
-73 -223 0
-74 -224 0
-75 -225 0
-241 -376 0
-242 -377 0
-243 -378 0
-244 -379 0
-245 -380 0
-246 -381 0
-247 -382 0
-248 -383 0
-249 -384 0
-250 -385 0
-251 -386 0
-252 -387 0
-253 -388 0
-254 -389 0
-255 -390 0
-121 -316 0
-122 -317 0
-123 -318 0
-124 -319 0
-125 -320 0
-126 -321 0
-127 -322 0
-128 -323 0
-129 -324 0
-130 -325 0
-131 -326 0
-132 -327 0
-133 -328 0
-134 -329 0
-135 -330 0
-406 -511 0
-407 -512 0
-408 -513 0
-409 -514 0
-410 -515 0
-411 -516 0
-412 -517 0
-413 -518 0
-414 -519 0
-415 -520 0
-416 -521 0
-417 -522 0
-418 -523 0
-419 -524 0
-420 -525 0
-586 -121 0
-587 -122 0
-588 -123 0
-589 -124 0
-590 -125 0
-591 -126 0
-592 -127 0
-593 -128 0
-594 -129 0
-595 -130 0
-596 -131 0
-597 -132 0
-598 -133 0
-599 -134 0
-600 -135 0
-61 -751 0
-62 -752 0
-63 -753 0
-64 -754 0
-65 -755 0
-66 -756 0
-67 -757 0
-68 -758 0
-69 -759 0
-70 -760 0
-71 -761 0
-72 -762 0
-73 -763 0
-74 -764 0
-75 -765 0
-76 -226 0
-77 -227 0
-78 -228 0
-79 -229 0
-80 -230 0
-81 -231 0
-82 -232 0
-83 -233 0
-84 -234 0
-85 -235 0
-86 -236 0
-87 -237 0
-88 -238 0
-89 -239 0
-90 -240 0
-286 -526 0
-287 -527 0
-288 -528 0
-289 -529 0
-290 -530 0
-291 -531 0
-292 -532 0
-293 -533 0
-294 -534 0
-295 -535 0
-296 -536 0
-297 -537 0
-298 -538 0
-299 -539 0
-300 -540 0
-166 -466 0
-167 -467 0
-168 -468 0
-169 -469 0
-170 -470 0
-171 -471 0
-172 -472 0
-173 -473 0
-174 -474 0
-175 -475 0
-176 -476 0
-177 -477 0
-178 -478 0
-179 -479 0
-180 -480 0
-451 -661 0
-452 -662 0
-453 -663 0
-454 -664 0
-455 -665 0
-456 -666 0
-457 -667 0
-458 -668 0
-459 -669 0
-460 -670 0
-461 -671 0
-462 -672 0
-463 -673 0
-464 -674 0
-465 -675 0
-16 -256 0
-17 -257 0
-18 -258 0
-19 -259 0
-20 -260 0
-21 -261 0
-22 -262 0
-23 -263 0
-24 -264 0
-25 -265 0
-26 -266 0
-27 -267 0
-28 -268 0
-29 -269 0
-30 -270 0
-1 -316 0
-2 -317 0
-3 -318 0
-4 -319 0
-5 -320 0
-6 -321 0
-7 -322 0
-8 -323 0
-9 -324 0
-10 -325 0
-11 -326 0
-12 -327 0
-13 -328 0
-14 -329 0
-15 -330 0
-181 -481 0
-182 -482 0
-183 -483 0
-184 -484 0
-185 -485 0
-186 -486 0
-187 -487 0
-188 -488 0
-189 -489 0
-190 -490 0
-191 -491 0
-192 -492 0
-193 -493 0
-194 -494 0
-195 -495 0
-346 -616 0
-347 -617 0
-348 -618 0
-349 -619 0
-350 -620 0
-351 -621 0
-352 -622 0
-353 -623 0
-354 -624 0
-355 -625 0
-356 -626 0
-357 -627 0
-358 -628 0
-359 -629 0
-360 -630 0
-226 -556 0
-227 -557 0
-228 -558 0
-229 -559 0
-230 -560 0
-231 -561 0
-232 -562 0
-233 -563 0
-234 -564 0
-235 -565 0
-236 -566 0
-237 -567 0
-238 -568 0
-239 -569 0
-240 -570 0
-61 -406 0
-62 -407 0
-63 -408 0
-64 -409 0
-65 -410 0
-66 -411 0
-67 -412 0
-68 -413 0
-69 -414 0
-70 -415 0
-71 -416 0
-72 -417 0
-73 -418 0
-74 -419 0
-75 -420 0
-121 -511 0
-122 -512 0
-123 -513 0
-124 -514 0
-125 -515 0
-126 -516 0
-127 -517 0
-128 -518 0
-129 -519 0
-130 -520 0
-131 -521 0
-132 -522 0
-133 -523 0
-134 -524 0
-135 -525 0
-571 -376 0
-572 -377 0
-573 -378 0
-574 -379 0
-575 -380 0
-576 -381 0
-577 -382 0
-578 -383 0
-579 -384 0
-580 -385 0
-581 -386 0
-582 -387 0
-583 -388 0
-584 -389 0
-585 -390 0
-916 -676 0
-917 -677 0
-918 -678 0
-919 -679 0
-920 -680 0
-921 -681 0
-922 -682 0
-923 -683 0
-924 -684 0
-925 -685 0
-926 -686 0
-927 -687 0
-928 -688 0
-929 -689 0
-930 -690 0
-796 -616 0
-797 -617 0
-798 -618 0
-799 -619 0
-800 -620 0
-801 -621 0
-802 -622 0
-803 -623 0
-804 -624 0
-805 -625 0
-806 -626 0
-807 -627 0
-808 -628 0
-809 -629 0
-810 -630 0
-286 -721 0
-287 -722 0
-288 -723 0
-289 -724 0
-290 -725 0
-291 -726 0
-292 -727 0
-293 -728 0
-294 -729 0
-295 -730 0
-296 -731 0
-297 -732 0
-298 -733 0
-299 -734 0
-300 -735 0
-166 -661 0
-167 -662 0
-168 -663 0
-169 -664 0
-170 -665 0
-171 -666 0
-172 -667 0
-173 -668 0
-174 -669 0
-175 -670 0
-176 -671 0
-177 -672 0
-178 -673 0
-179 -674 0
-180 -675 0
-46 -601 0
-47 -602 0
-48 -603 0
-49 -604 0
-50 -605 0
-51 -606 0
-52 -607 0
-53 -608 0
-54 -609 0
-55 -610 0
-56 -611 0
-57 -612 0
-58 -613 0
-59 -614 0
-60 -615 0
-331 -796 0
-332 -797 0
-333 -798 0
-334 -799 0
-335 -800 0
-336 -801 0
-337 -802 0
-338 -803 0
-339 -804 0
-340 -805 0
-341 -806 0
-342 -807 0
-343 -808 0
-344 -809 0
-345 -810 0
-1 -511 0
-2 -512 0
-3 -513 0
-4 -514 0
-5 -515 0
-6 -516 0
-7 -517 0
-8 -518 0
-9 -519 0
-10 -520 0
-11 -521 0
-12 -522 0
-13 -523 0
-14 -524 0
-15 -525 0
-676 -631 0
-677 -632 0
-678 -633 0
-679 -634 0
-680 -635 0
-681 -636 0
-682 -637 0
-683 -638 0
-684 -639 0
-685 -640 0
-686 -641 0
-687 -642 0
-688 -643 0
-689 -644 0
-690 -645 0
-121 -166 0
-122 -167 0
-123 -168 0
-124 -169 0
-125 -170 0
-126 -171 0
-127 -172 0
-128 -173 0
-129 -174 0
-130 -175 0
-131 -176 0
-132 -177 0
-133 -178 0
-134 -179 0
-135 -180 0
-391 -421 0
-392 -422 0
-393 -423 0
-394 -424 0
-395 -425 0
-396 -426 0
-397 -427 0
-398 -428 0
-399 -429 0
-400 -430 0
-401 -431 0
-402 -432 0
-403 -433 0
-404 -434 0
-405 -435 0
-571 -31 0
-572 -32 0
-573 -33 0
-574 -34 0
-575 -35 0
-576 -36 0
-577 -37 0
-578 -38 0
-579 -39 0
-580 -40 0
-581 -41 0
-582 -42 0
-583 -43 0
-584 -44 0
-585 -45 0
-436 -496 0
-437 -497 0
-438 -498 0
-439 -499 0
-440 -500 0
-441 -501 0
-442 -502 0
-443 -503 0
-444 -504 0
-445 -505 0
-446 -506 0
-447 -507 0
-448 -508 0
-449 -509 0
-450 -510 0
-271 -901 0
-272 -902 0
-273 -903 0
-274 -904 0
-275 -905 0
-276 -906 0
-277 -907 0
-278 -908 0
-279 -909 0
-280 -910 0
-281 -911 0
-282 -912 0
-283 -913 0
-284 -914 0
-285 -915 0
-286 -376 0
-287 -377 0
-288 -378 0
-289 -379 0
-290 -380 0
-291 -381 0
-292 -382 0
-293 -383 0
-294 -384 0
-295 -385 0
-296 -386 0
-297 -387 0
-298 -388 0
-299 -389 0
-300 -390 0
-151 -841 0
-152 -842 0
-153 -843 0
-154 -844 0
-155 -845 0
-156 -846 0
-157 -847 0
-158 -848 0
-159 -849 0
-160 -850 0
-161 -851 0
-162 -852 0
-163 -853 0
-164 -854 0
-165 -855 0
-166 -316 0
-167 -317 0
-168 -318 0
-169 -319 0
-170 -320 0
-171 -321 0
-172 -322 0
-173 -323 0
-174 -324 0
-175 -325 0
-176 -326 0
-177 -327 0
-178 -328 0
-179 -329 0
-180 -330 0
-451 -511 0
-452 -512 0
-453 -513 0
-454 -514 0
-455 -515 0
-456 -516 0
-457 -517 0
-458 -518 0
-459 -519 0
-460 -520 0
-461 -521 0
-462 -522 0
-463 -523 0
-464 -524 0
-465 -525 0
-46 -256 0
-47 -257 0
-48 -258 0
-49 -259 0
-50 -260 0
-51 -261 0
-52 -262 0
-53 -263 0
-54 -264 0
-55 -265 0
-56 -266 0
-57 -267 0
-58 -268 0
-59 -269 0
-60 -270 0
-331 -451 0
-332 -452 0
-333 -453 0
-334 -454 0
-335 -455 0
-336 -456 0
-337 -457 0
-338 -458 0
-339 -459 0
-340 -460 0
-341 -461 0
-342 -462 0
-343 -463 0
-344 -464 0
-345 -465 0
-631 -121 0
-632 -122 0
-633 -123 0
-634 -124 0
-635 -125 0
-636 -126 0
-637 -127 0
-638 -128 0
-639 -129 0
-640 -130 0
-641 -131 0
-642 -132 0
-643 -133 0
-644 -134 0
-645 -135 0
-1 -166 0
-2 -167 0
-3 -168 0
-4 -169 0
-5 -170 0
-6 -171 0
-7 -172 0
-8 -173 0
-9 -174 0
-10 -175 0
-11 -176 0
-12 -177 0
-13 -178 0
-14 -179 0
-15 -180 0
-181 -331 0
-182 -332 0
-183 -333 0
-184 -334 0
-185 -335 0
-186 -336 0
-187 -337 0
-188 -338 0
-189 -339 0
-190 -340 0
-191 -341 0
-192 -342 0
-193 -343 0
-194 -344 0
-195 -345 0
-46 -796 0
-47 -797 0
-48 -798 0
-49 -799 0
-50 -800 0
-51 -801 0
-52 -802 0
-53 -803 0
-54 -804 0
-55 -805 0
-56 -806 0
-57 -807 0
-58 -808 0
-59 -809 0
-60 -810 0
-226 -406 0
-227 -407 0
-228 -408 0
-229 -409 0
-230 -410 0
-231 -411 0
-232 -412 0
-233 -413 0
-234 -414 0
-235 -415 0
-236 -416 0
-237 -417 0
-238 -418 0
-239 -419 0
-240 -420 0
-31 -856 0
-32 -857 0
-33 -858 0
-34 -859 0
-35 -860 0
-36 -861 0
-37 -862 0
-38 -863 0
-39 -864 0
-40 -865 0
-41 -866 0
-42 -867 0
-43 -868 0
-44 -869 0
-45 -870 0
-61 -256 0
-62 -257 0
-63 -258 0
-64 -259 0
-65 -260 0
-66 -261 0
-67 -262 0
-68 -263 0
-69 -264 0
-70 -265 0
-71 -266 0
-72 -267 0
-73 -268 0
-74 -269 0
-75 -270 0
-856 -436 0
-857 -437 0
-858 -438 0
-859 -439 0
-860 -440 0
-861 -441 0
-862 -442 0
-863 -443 0
-864 -444 0
-865 -445 0
-866 -446 0
-867 -447 0
-868 -448 0
-869 -449 0
-870 -450 0
-721 -901 0
-722 -902 0
-723 -903 0
-724 -904 0
-725 -905 0
-726 -906 0
-727 -907 0
-728 -908 0
-729 -909 0
-730 -910 0
-731 -911 0
-732 -912 0
-733 -913 0
-734 -914 0
-735 -915 0
-106 -421 0
-107 -422 0
-108 -423 0
-109 -424 0
-110 -425 0
-111 -426 0
-112 -427 0
-113 -428 0
-114 -429 0
-115 -430 0
-116 -431 0
-117 -432 0
-118 -433 0
-119 -434 0
-120 -435 0
-391 -616 0
-392 -617 0
-393 -618 0
-394 -619 0
-395 -620 0
-396 -621 0
-397 -622 0
-398 -623 0
-399 -624 0
-400 -625 0
-401 -626 0
-402 -627 0
-403 -628 0
-404 -629 0
-405 -630 0
-271 -556 0
-272 -557 0
-273 -558 0
-274 -559 0
-275 -560 0
-276 -561 0
-277 -562 0
-278 -563 0
-279 -564 0
-280 -565 0
-281 -566 0
-282 -567 0
-283 -568 0
-284 -569 0
-285 -570 0
-151 -496 0
-152 -497 0
-153 -498 0
-154 -499 0
-155 -500 0
-156 -501 0
-157 -502 0
-158 -503 0
-159 -504 0
-160 -505 0
-161 -506 0
-162 -507 0
-163 -508 0
-164 -509 0
-165 -510 0
-571 -226 0
-572 -227 0
-573 -228 0
-574 -229 0
-575 -230 0
-576 -231 0
-577 -232 0
-578 -233 0
-579 -234 0
-580 -235 0
-581 -236 0
-582 -237 0
-583 -238 0
-584 -239 0
-585 -240 0
-601 -916 0
-602 -917 0
-603 -918 0
-604 -919 0
-605 -920 0
-606 -921 0
-607 -922 0
-608 -923 0
-609 -924 0
-610 -925 0
-611 -926 0
-612 -927 0
-613 -928 0
-614 -929 0
-615 -930 0
-166 -511 0
-167 -512 0
-168 -513 0
-169 -514 0
-170 -515 0
-171 -516 0
-172 -517 0
-173 -518 0
-174 -519 0
-175 -520 0
-176 -521 0
-177 -522 0
-178 -523 0
-179 -524 0
-180 -525 0
-46 -451 0
-47 -452 0
-48 -453 0
-49 -454 0
-50 -455 0
-51 -456 0
-52 -457 0
-53 -458 0
-54 -459 0
-55 -460 0
-56 -461 0
-57 -462 0
-58 -463 0
-59 -464 0
-60 -465 0
-1 -361 0
-2 -362 0
-3 -363 0
-4 -364 0
-5 -365 0
-6 -366 0
-7 -367 0
-8 -368 0
-9 -369 0
-10 -370 0
-11 -371 0
-12 -372 0
-13 -373 0
-14 -374 0
-15 -375 0
-841 -616 0
-842 -617 0
-843 -618 0
-844 -619 0
-845 -620 0
-846 -621 0
-847 -622 0
-848 -623 0
-849 -624 0
-850 -625 0
-851 -626 0
-852 -627 0
-853 -628 0
-854 -629 0
-855 -630 0
-211 -661 0
-212 -662 0
-213 -663 0
-214 -664 0
-215 -665 0
-216 -666 0
-217 -667 0
-218 -668 0
-219 -669 0
-220 -670 0
-221 -671 0
-222 -672 0
-223 -673 0
-224 -674 0
-225 -675 0
-901 -166 0
-902 -167 0
-903 -168 0
-904 -169 0
-905 -170 0
-906 -171 0
-907 -172 0
-908 -173 0
-909 -174 0
-910 -175 0
-911 -176 0
-912 -177 0
-913 -178 0
-914 -179 0
-915 -180 0
-91 -601 0
-92 -602 0
-93 -603 0
-94 -604 0
-95 -605 0
-96 -606 0
-97 -607 0
-98 -608 0
-99 -609 0
-100 -610 0
-101 -611 0
-102 -612 0
-103 -613 0
-104 -614 0
-105 -615 0
-271 -751 0
-272 -752 0
-273 -753 0
-274 -754 0
-275 -755 0
-276 -756 0
-277 -757 0
-278 -758 0
-279 -759 0
-280 -760 0
-281 -761 0
-282 -762 0
-283 -763 0
-284 -764 0
-285 -765 0
-766 -706 0
-767 -707 0
-768 -708 0
-769 -709 0
-770 -710 0
-771 -711 0
-772 -712 0
-773 -713 0
-774 -714 0
-775 -715 0
-776 -716 0
-777 -717 0
-778 -718 0
-779 -719 0
-780 -720 0
-46 -106 0
-47 -107 0
-48 -108 0
-49 -109 0
-50 -110 0
-51 -111 0
-52 -112 0
-53 -113 0
-54 -114 0
-55 -115 0
-56 -116 0
-57 -117 0
-58 -118 0
-59 -119 0
-60 -120 0
-1 -16 0
-2 -17 0
-3 -18 0
-4 -19 0
-5 -20 0
-6 -21 0
-7 -22 0
-8 -23 0
-9 -24 0
-10 -25 0
-11 -26 0
-12 -27 0
-13 -28 0
-14 -29 0
-15 -30 0
-496 -526 0
-497 -527 0
-498 -528 0
-499 -529 0
-500 -530 0
-501 -531 0
-502 -532 0
-503 -533 0
-504 -534 0
-505 -535 0
-506 -536 0
-507 -537 0
-508 -538 0
-509 -539 0
-510 -540 0
-781 -721 0
-782 -722 0
-783 -723 0
-784 -724 0
-785 -725 0
-786 -726 0
-787 -727 0
-788 -728 0
-789 -729 0
-790 -730 0
-791 -731 0
-792 -732 0
-793 -733 0
-794 -734 0
-795 -735 0
-826 -796 0
-827 -797 0
-828 -798 0
-829 -799 0
-830 -800 0
-831 -801 0
-832 -802 0
-833 -803 0
-834 -804 0
-835 -805 0
-836 -806 0
-837 -807 0
-838 -808 0
-839 -809 0
-840 -810 0
-31 -706 0
-32 -707 0
-33 -708 0
-34 -709 0
-35 -710 0
-36 -711 0
-37 -712 0
-38 -713 0
-39 -714 0
-40 -715 0
-41 -716 0
-42 -717 0
-43 -718 0
-44 -719 0
-45 -720 0
-211 -316 0
-212 -317 0
-213 -318 0
-214 -319 0
-215 -320 0
-216 -321 0
-217 -322 0
-218 -323 0
-219 -324 0
-220 -325 0
-221 -326 0
-222 -327 0
-223 -328 0
-224 -329 0
-225 -330 0
-91 -256 0
-92 -257 0
-93 -258 0
-94 -259 0
-95 -260 0
-96 -261 0
-97 -262 0
-98 -263 0
-99 -264 0
-100 -265 0
-101 -266 0
-102 -267 0
-103 -268 0
-104 -269 0
-105 -270 0
-376 -451 0
-377 -452 0
-378 -453 0
-379 -454 0
-380 -455 0
-381 -456 0
-382 -457 0
-383 -458 0
-384 -459 0
-385 -460 0
-386 -461 0
-387 -462 0
-388 -463 0
-389 -464 0
-390 -465 0
-256 -391 0
-257 -392 0
-258 -393 0
-259 -394 0
-260 -395 0
-261 -396 0
-262 -397 0
-263 -398 0
-264 -399 0
-265 -400 0
-266 -401 0
-267 -402 0
-268 -403 0
-269 -404 0
-270 -405 0
-211 -856 0
-212 -857 0
-213 -858 0
-214 -859 0
-215 -860 0
-216 -861 0
-217 -862 0
-218 -863 0
-219 -864 0
-220 -865 0
-221 -866 0
-222 -867 0
-223 -868 0
-224 -869 0
-225 -870 0
-106 -271 0
-107 -272 0
-108 -273 0
-109 -274 0
-110 -275 0
-111 -276 0
-112 -277 0
-113 -278 0
-114 -279 0
-115 -280 0
-116 -281 0
-117 -282 0
-118 -283 0
-119 -284 0
-120 -285 0
-391 -466 0
-392 -467 0
-393 -468 0
-394 -469 0
-395 -470 0
-396 -471 0
-397 -472 0
-398 -473 0
-399 -474 0
-400 -475 0
-401 -476 0
-402 -477 0
-403 -478 0
-404 -479 0
-405 -480 0
-271 -406 0
-272 -407 0
-273 -408 0
-274 -409 0
-275 -410 0
-276 -411 0
-277 -412 0
-278 -413 0
-279 -414 0
-280 -415 0
-281 -416 0
-282 -417 0
-283 -418 0
-284 -419 0
-285 -420 0
-151 -346 0
-152 -347 0
-153 -348 0
-154 -349 0
-155 -350 0
-156 -351 0
-157 -352 0
-158 -353 0
-159 -354 0
-160 -355 0
-161 -356 0
-162 -357 0
-163 -358 0
-164 -359 0
-165 -360 0
-436 -541 0
-437 -542 0
-438 -543 0
-439 -544 0
-440 -545 0
-441 -546 0
-442 -547 0
-443 -548 0
-444 -549 0
-445 -550 0
-446 -551 0
-447 -552 0
-448 -553 0
-449 -554 0
-450 -555 0
-46 -301 0
-47 -302 0
-48 -303 0
-49 -304 0
-50 -305 0
-51 -306 0
-52 -307 0
-53 -308 0
-54 -309 0
-55 -310 0
-56 -311 0
-57 -312 0
-58 -313 0
-59 -314 0
-60 -315 0
-646 -841 0
-647 -842 0
-648 -843 0
-649 -844 0
-650 -845 0
-651 -846 0
-652 -847 0
-653 -848 0
-654 -849 0
-655 -850 0
-656 -851 0
-657 -852 0
-658 -853 0
-659 -854 0
-660 -855 0
-316 -556 0
-317 -557 0
-318 -558 0
-319 -559 0
-320 -560 0
-321 -561 0
-322 -562 0
-323 -563 0
-324 -564 0
-325 -565 0
-326 -566 0
-327 -567 0
-328 -568 0
-329 -569 0
-330 -570 0
-196 -496 0
-197 -497 0
-198 -498 0
-199 -499 0
-200 -500 0
-201 -501 0
-202 -502 0
-203 -503 0
-204 -504 0
-205 -505 0
-206 -506 0
-207 -507 0
-208 -508 0
-209 -509 0
-210 -510 0
-31 -901 0
-32 -902 0
-33 -903 0
-34 -904 0
-35 -905 0
-36 -906 0
-37 -907 0
-38 -908 0
-39 -909 0
-40 -910 0
-41 -911 0
-42 -912 0
-43 -913 0
-44 -914 0
-45 -915 0
-721 -406 0
-722 -407 0
-723 -408 0
-724 -409 0
-725 -410 0
-726 -411 0
-727 -412 0
-728 -413 0
-729 -414 0
-730 -415 0
-731 -416 0
-732 -417 0
-733 -418 0
-734 -419 0
-735 -420 0
-211 -511 0
-212 -512 0
-213 -513 0
-214 -514 0
-215 -515 0
-216 -516 0
-217 -517 0
-218 -518 0
-219 -519 0
-220 -520 0
-221 -521 0
-222 -522 0
-223 -523 0
-224 -524 0
-225 -525 0
-91 -451 0
-92 -452 0
-93 -453 0
-94 -454 0
-95 -455 0
-96 -456 0
-97 -457 0
-98 -458 0
-99 -459 0
-100 -460 0
-101 -461 0
-102 -462 0
-103 -463 0
-104 -464 0
-105 -465 0
-301 -751 0
-302 -752 0
-303 -753 0
-304 -754 0
-305 -755 0
-306 -756 0
-307 -757 0
-308 -758 0
-309 -759 0
-310 -760 0
-311 -761 0
-312 -762 0
-313 -763 0
-314 -764 0
-315 -765 0
-601 -421 0
-602 -422 0
-603 -423 0
-604 -424 0
-605 -425 0
-606 -426 0
-607 -427 0
-608 -428 0
-609 -429 0
-610 -430 0
-611 -431 0
-612 -432 0
-613 -433 0
-614 -434 0
-615 -435 0
-886 -616 0
-887 -617 0
-888 -618 0
-889 -619 0
-890 -620 0
-891 -621 0
-892 -622 0
-893 -623 0
-894 -624 0
-895 -625 0
-896 -626 0
-897 -627 0
-898 -628 0
-899 -629 0
-900 -630 0
-646 -496 0
-647 -497 0
-648 -498 0
-649 -499 0
-650 -500 0
-651 -501 0
-652 -502 0
-653 -503 0
-654 -504 0
-655 -505 0
-656 -506 0
-657 -507 0
-658 -508 0
-659 -509 0
-660 -510 0
-136 -601 0
-137 -602 0
-138 -603 0
-139 -604 0
-140 -605 0
-141 -606 0
-142 -607 0
-143 -608 0
-144 -609 0
-145 -610 0
-146 -611 0
-147 -612 0
-148 -613 0
-149 -614 0
-150 -615 0
-661 -511 0
-662 -512 0
-663 -513 0
-664 -514 0
-665 -515 0
-666 -516 0
-667 -517 0
-668 -518 0
-669 -519 0
-670 -520 0
-671 -521 0
-672 -522 0
-673 -523 0
-674 -524 0
-675 -525 0
-31 -556 0
-32 -557 0
-33 -558 0
-34 -559 0
-35 -560 0
-36 -561 0
-37 -562 0
-38 -563 0
-39 -564 0
-40 -565 0
-41 -566 0
-42 -567 0
-43 -568 0
-44 -569 0
-45 -570 0
-316 -751 0
-317 -752 0
-318 -753 0
-319 -754 0
-320 -755 0
-321 -756 0
-322 -757 0
-323 -758 0
-324 -759 0
-325 -760 0
-326 -761 0
-327 -762 0
-328 -763 0
-329 -764 0
-330 -765 0
-91 -106 0
-92 -107 0
-93 -108 0
-94 -109 0
-95 -110 0
-96 -111 0
-97 -112 0
-98 -113 0
-99 -114 0
-100 -115 0
-101 -116 0
-102 -117 0
-103 -118 0
-104 -119 0
-105 -120 0
