p cnf 1444 7479
404 -1164 -1328 1009 616 -55 847 -130 -137 -81 0
-1328 -1022 -164 1161 -392 1189 807 0
-10 -207 602 0
-505 -1103 -544 767 277 484 1060 -871 1328 848 592 -1410 0
-879 -103 -542 -886 -723 -1440 -767 687 1350 1328 1214 0
197 1122 871 719 -1306 1328 -1051 484 -1118 881 -1147 767 1366 405 311 0
354 1328 767 984 1027 -460 -1228 484 -94 495 -1266 871 405 0
-1261 1377 -1318 558 -267 -977 0
871 767 1309 -405 612 484 -1031 1328 568 960 -27 -106 0
952 767 -269 -871 -1257 772 -307 127 847 1296 484 -530 1328 0
1305 1042 -993 -325 -469 0
119 1366 -292 767 484 871 212 405 -939 1328 1147 0
767 96 -1106 429 -871 1328 1402 176 484 1061 -1374 528 734 181 1355 0
513 717 773 -1328 -1236 0
-659 484 -871 767 1296 952 -716 1257 127 1328 1109 501 0
-1328 -1326 -774 -1330 -1017 -695 1188 982 -722 348 271 1218 0
871 767 -405 -969 1239 1328 614 -1309 916 484 875 0
925 1120 948 767 1388 456 1328 484 -871 0
-268 -871 767 -1093 1328 -716 659 -835 1257 952 1296 501 1109 484 0
-150 -968 -1255 -578 0
-368 633 0
-1328 -267 -328 -1370 -856 0
-425 208 -51 229 -484 789 107 -361 767 1328 -1364 1394 -645 0
573 -1341 0
1208 357 145 484 441 767 -358 405 1443 1328 871 -520 680 523 0
-1153 1417 0
413 0
-1200 1434 767 -1005 332 298 -69 -1062 -29 729 -73 871 405 -755 1328 484 0
-19 951 0
1328 -405 -1415 -1376 778 -1040 871 767 484 139 0
231 142 -15 798 -96 0
-405 65 -791 789 484 580 -641 -1091 1060 1328 871 767 0
-770 -1229 7 767 -557 -762 -484 1328 189 347 -1256 0
602 464 785 0
-669 767 484 871 487 405 1328 1266 0
1267 1044 497 -148 -136 -1294 -374 -743 0
-514 -259 417 -1058 339 0
-1283 -361 -107 767 168 -1364 -51 199 -549 1328 -166 -484 -1116 0
580 -2 871 767 -405 -1091 65 484 1328 -641 -791 1060 0
655 -789 -363 -847 -96 0
1328 370 -320 -889 1165 -1075 -931 -767 0
1234 -877 0
784 1328 941 598 -1264 -1224 -767 -227 1277 0
999 30 0
-774 -1328 982 1218 -1326 -722 271 1330 0
520 1400 -413 0
-751 -932 736 0
1058 1416 -1442 0
-433 1166 1199 405 -397 -537 484 1328 767 753 871 -786 427 -494 0
1328 1152 -370 -1340 -204 -1426 -767 -316 -605 263 0
1237 424 -1328 892 383 0
-484 15 -842 1328 767 -832 1003 -1028 1143 1430 0
206 -719 -1058 400 417 259 1262 0
181 373 280 1101 96 -1357 0
1020 456 -925 -682 1328 484 -1331 -871 767 1390 -788 0
1069 392 807 -164 -1022 -1338 -1328 568 1189 -664 0
767 405 1418 669 1328 1169 484 1266 871 0
-1266 405 1027 94 495 1328 -460 484 767 581 871 0
353 690 -1177 -871 1328 525 -456 -1071 484 767 0
-1049 858 770 0
-792 1210 237 366 767 619 -484 1328 891 0
767 -1097 -1018 -100 1011 376 188 -834 1328 -484 0
-871 -532 -1301 -917 -439 -1258 484 -615 247 1328 767 1274 220 901 -141 0
-484 -399 -765 -322 -175 767 1213 -906 1379 -1170 1328 -1282 518 597 0
-958 717 1328 1362 -1076 -767 1287 806 -674 -1336 -419 0
1168 -484 1328 767 347 1197 -471 1253 -189 282 0
-839 -740 871 -112 -1154 -478 880 484 -405 767 -1373 1328 -1215 16 -563 0
1255 918 -558 -717 -700 0
454 767 1328 1323 201 -1430 -484 476 -440 0
271 -1326 1218 -982 -1328 487 -774 -1082 0
-1328 -483 568 -964 -807 -359 731 -1416 0
865 -124 -1409 14 72 -1318 705 0
-397 494 753 767 348 1328 484 -1252 871 405 0
-168 785 339 0
-854 779 1122 767 601 1347 875 -405 484 871 809 1328 916 -1309 1059 969 0
-886 -879 1328 -767 -723 -1046 450 -704 1065 -857 1440 -103 585 0
-85 105 -528 484 281 -871 1402 767 -1374 1328 343 0
-1305 932 1405 262 221 0
494 274 753 767 -397 -46 484 871 405 685 1252 -653 1328 569 0
-977 865 -14 0
-834 -198 -980 699 -1018 376 -46 1126 -484 -188 1328 -100 767 -656 0
-1161 -1178 567 267 -775 0
156 512 328 -1349 -1375 625 -1328 0
-643 -750 225 0
-337 -299 487 -1218 1212 1433 -1328 -1087 0
97 268 -1090 0
-941 -142 -760 -767 -227 -566 -768 1328 -1133 1277 0
850 1305 325 622 272 -457 1042 0
-181 142 1231 -368 1260 0
-784 941 -227 -32 1328 408 -1157 -767 1277 -918 0
-800 1200 -510 0
267 -5 1261 0
-1279 -614 670 -713 -775 0
-539 1328 275 568 1322 405 484 871 180 131 -753 767 0
484 871 288 -65 -1435 -629 -405 981 767 1125 1328 -631 -382 -268 0
1165 -889 -767 1328 168 320 370 0
-361 -107 -484 -51 1328 199 767 168 -1116 166 -1364 0
-341 1328 605 -767 -214 635 -370 -29 700 1 1152 0
1364 -361 -989 649 -484 1056 205 -1255 767 976 1328 0
871 484 -112 767 613 181 874 -405 1328 839 -1021 -740 -1373 0
1231 -558 1264 1170 -1289 0
-524 -801 1042 993 -325 847 1305 675 -1137 0
1246 394 1144 758 -1175 -1294 449 -767 -671 1328 586 445 -436 0
-1153 520 0
-832 -484 1430 -842 767 -1028 -379 709 -1003 60 1143 1328 0
1105 989 -361 -484 767 1328 1364 0
-413 987 736 0
611 -920 484 1328 682 749 456 -871 -925 767 1055 0
1151 1305 836 1090 1408 -1353 420 -1042 0
61 1255 858 0
1328 -767 1129 1150 227 0
767 839 -1373 484 1328 -740 871 -874 -405 -112 713 0
115 -1328 -942 -1235 -271 -371 1218 -1304 0
-1439 405 -729 871 -1035 484 767 -896 -1086 407 1328 0
-812 1328 781 -606 -277 -871 484 453 767 0
-415 -634 550 -860 -1078 177 -338 -496 -1111 1014 1284 0
-36 -1285 1077 511 -329 405 1328 -381 678 1066 484 -225 -676 871 767 0
1150 1390 -977 -1409 747 72 0
1235 1368 0
-309 424 -1328 257 -1237 297 93 730 558 -1244 0
-386 -1328 513 240 -482 -845 -736 1236 368 846 0
-935 118 -720 831 -1302 578 0
177 -338 -415 1014 1111 -1231 -496 -634 0
474 -894 -840 871 -1095 -739 1328 767 -405 1427 90 946 484 0
268 1058 987 0
1269 1409 -178 0
767 -25 1328 -697 -252 -135 -484 -347 -547 0
798 61 -274 0
-1258 -871 -141 220 -532 -917 439 1328 901 -301 767 -1301 484 -615 0
-484 -590 -1249 1328 -1392 541 767 619 -761 -237 366 -792 0
272 -440 1042 1305 325 -457 622 0
991 277 -954 -871 767 1328 -154 546 544 998 484 940 0
709 -484 335 1384 286 1328 -832 970 1430 767 1028 1053 859 256 0
311 197 871 -1306 -881 333 1328 -1051 -1118 -1147 767 484 1366 405 0
1194 1217 -1294 767 -282 -937 -189 872 933 347 -484 463 1161 1328 0
1416 1234 0
-932 1200 -1178 796 -713 0
-1268 -292 -527 -776 1039 -101 274 -534 -58 0
-1094 871 809 -1309 -405 -823 708 -916 484 1328 -630 -1371 767 0
-849 -747 121 0
-990 -867 1328 -1152 451 -160 -370 -926 -767 -29 0
1058 -1433 -1369 0
-10 -127 -333 0
440 1282 -1011 801 670 0
784 -1224 -767 -1081 1328 -227 1277 941 -598 -1264 -535 0
1398 -792 366 -560 767 -484 590 -1249 -237 15 533 666 1328 0
1328 871 767 669 -1169 405 -584 1266 484 422 187 0
-124 -267 14 705 1390 -1409 865 0
1026 177 -1368 -415 -338 -1014 0
-100 957 -484 767 376 780 1328 1018 0
1364 1328 -484 -361 767 1056 -1444 976 -989 205 0
-1150 -1065 -500 664 1231 0
1073 -1124 -1328 -217 845 461 111 -885 -1303 1236 513 -736 0
-1058 -1396 -1150 -417 0
978 1149 871 1396 -405 767 484 -146 1328 0
-353 393 -948 0
484 1298 114 1011 -1149 947 -405 -1399 -146 1179 1328 330 767 871 0
871 484 27 -405 1309 -267 767 1328 960 0
753 767 433 -315 -786 484 -494 -313 131 985 871 104 405 -694 -397 1328 0
-865 983 558 -1146 6 0
-1058 259 -400 417 225 -1442 0
1086 1328 767 -1439 871 484 405 -729 0
-1328 -1236 -245 589 -773 513 0
1262 417 -131 -1122 -1058 400 259 0
-1058 -619 -259 417 0
1336 1362 806 -958 -674 1287 -243 -1076 -419 1328 -767 789 0
-1283 348 -484 -1364 -361 -51 57 -549 1328 -107 -1116 -166 199 767 0
-823 -405 356 -1309 -1371 1328 767 708 871 484 -916 -1094 -630 0
-1328 392 568 1189 807 -1338 1069 -164 -1022 637 0
1328 -736 788 767 350 -682 -925 456 -88 1284 -871 1001 484 -163 1344 0
-405 1328 484 767 330 1298 871 947 114 -146 -1399 -1149 1011 19 0
855 333 767 501 -1109 -1276 503 1328 510 1257 1296 -871 -1102 952 484 0
-487 -1181 -178 0
1170 417 -1058 -259 225 0
405 568 180 871 484 767 612 1322 -753 1328 -539 275 0
1429 -656 687 -405 1376 -868 767 778 -365 878 1328 838 484 871 0
918 -450 -1179 1075 1409 0
-148 -136 1044 -743 -374 -497 -656 687 -735 907 1267 0
61 606 801 0
904 -55 -404 -627 -81 -1164 -1444 -235 -1328 0
-871 1328 456 484 767 1331 1020 -682 -925 -987 -788 626 0
-15 785 -619 0
-709 -5 -934 0
1024 -1328 616 404 -137 -1164 -130 -1009 -55 -81 0
-381 405 871 1383 -268 1077 -36 76 767 -678 -813 -1295 1328 484 0
-1271 -943 -484 468 1279 210 1328 767 -376 0
-484 -366 767 1113 1381 1176 448 1328 147 0
1170 -564 -343 0
-259 -1058 -809 417 46 0
767 1279 -36 405 1242 -381 484 -1077 -721 -1142 -1422 1328 -1033 871 0
-331 619 60 -339 1101 780 0
767 405 871 -1383 -678 -36 1328 1077 815 -381 484 0
1150 -767 -227 -941 760 1328 1277 0
-12 910 915 414 -767 -1277 -227 1328 -864 0
1328 767 -826 1402 -997 847 484 -930 528 -1374 -871 -646 -1061 0
-713 -948 -847 1294 -373 0
785 564 0
-194 -805 1328 414 13 -767 465 0
-926 -655 763 -1200 1418 -921 0
-691 916 969 767 871 -854 -1309 484 -1347 -405 1328 875 779 0
298 484 767 73 -1062 405 -755 332 871 -926 1434 1328 729 0
845 -1328 -987 1190 1236 513 -467 116 461 -754 885 0
-137 -1203 -1328 -1009 -55 616 -1164 1024 -81 -130 404 0
-57 -1270 1269 -1418 630 0
-612 -1058 -417 1231 0
-88 788 -682 -350 456 -245 -871 1328 -163 767 484 -925 0
-1064 767 376 -100 -1437 1328 -484 834 -1018 207 0
-877 -127 -1289 480 464 0
767 321 -631 1328 -405 629 -65 1098 -206 484 871 -1110 -1382 -382 481 0
-391 -1351 1328 72 -443 723 -767 0
871 484 405 523 145 1328 709 -553 1443 767 -818 -1208 0
127 1060 1012 -1438 420 -736 0
-750 142 1170 0
-368 -751 -1284 0
-1291 -1328 1164 -594 -55 902 0
1376 700 841 1328 -1429 923 871 778 484 295 -405 767 0
-1065 -1025 -500 1040 1294 0
-1284 1203 -546 243 1260 0
767 1402 -1061 1328 826 528 -871 484 -997 1101 -930 -1374 0
347 -1229 767 7 -1256 -770 1328 -484 189 -557 -1340 0
-441 -231 1443 767 357 1208 523 -358 484 1328 405 970 145 871 680 0
116 1236 -736 -1328 1190 845 461 -440 885 -467 513 754 0
724 188 660 1060 -834 1097 -100 767 -1018 1328 -484 376 -28 0
-1284 -219 245 0
-78 30 -1150 0
-939 -212 1328 405 119 450 484 871 767 1366 1442 -1280 1147 0
295 -923 1328 -1429 871 -292 767 -215 1359 484 922 778 841 -405 1376 1166 0
425 1200 -649 796 -1179 0
-67 -465 -767 249 1328 1308 455 -1282 110 -50 -1303 -194 -1196 0
-144 66 31 -1328 1270 328 1349 416 -545 99 0
-123 551 -245 767 484 -871 1328 1297 -1155 1002 0
-72 -78 289 0
366 767 761 -975 -1249 1328 -792 -590 -1392 274 -484 1247 541 -237 0
-107 1072 -361 -1314 1116 1328 442 -484 767 -51 -1364 -642 0
1170 1200 -127 1203 -373 0
-226 670 -1025 975 -450 0
-464 -1040 912 -1269 558 90 0
-1303 -224 -405 767 1373 -677 787 484 1328 871 599 0
-5 770 -356 0
767 -488 149 484 -1147 871 278 -292 1328 1366 -311 -1306 405 -965 0
252 1328 -347 -484 767 747 0
-1076 674 -401 1011 -138 1287 -41 1328 -767 340 -243 0
-634 -1078 1270 177 -338 1014 -415 -860 -496 -1111 550 0
1400 245 664 -57 231 0
-207 801 -789 -1090 -1161 0
1444 745 -78 0
1282 -247 -1211 0
1363 55 437 1179 1105 752 -1328 -698 0
-18 394 -39 758 -1175 1328 -944 -1187 -1144 -671 -767 -364 0
-660 724 1328 -28 376 809 1097 -1018 -834 767 -100 188 -694 -484 0
-1328 -992 1007 -1164 -55 904 235 -404 -81 -627 168 636 0
-991 785 1203 0
1328 501 -1109 -1260 767 1102 1296 952 1257 -871 484 0
-1105 -1181 0
-873 615 484 -563 220 767 -871 -1033 -1342 -179 -141 1328 -917 342 -1258 0
-137 -1164 -616 1101 -1328 -130 -81 -55 404 0
-225 -873 -179 -141 220 615 342 -1258 -917 767 -563 -871 1328 484 -1342 0
717 1328 871 36 -381 405 484 767 -1023 0
220 917 767 -396 1339 -1352 -141 1328 -301 484 -472 -1258 -871 0
425 1444 97 0
953 206 -850 0
-1279 -1418 920 656 607 0
948 513 1236 988 -461 845 -718 -1328 0
19 -138 -401 1328 674 -1231 340 -767 -41 -1076 1287 0
581 -1022 807 -1328 -164 392 1189 -1069 0
1438 469 250 0
951 -373 0
-767 1328 1129 227 -567 0
-145 484 -228 871 -186 767 523 1328 405 0
314 -1178 -800 0
-767 90 879 703 919 -1286 -1057 -723 -886 1328 0
469 -343 -178 0
1402 767 528 -1269 1106 176 1328 -1374 -871 1061 484 1355 0
887 893 767 327 -664 1328 484 -1266 -495 871 405 0
804 1326 1181 -1328 986 1218 -572 271 -71 0
1269 -1390 -1090 -1284 440 0
-675 -546 -719 -1025 -709 0
-500 918 -398 602 -348 0
-889 370 877 1165 -320 1328 -29 931 -767 0
370 1328 -1165 -1409 -889 -767 0
-1153 -1270 0
-709 -1390 520 -1253 -1161 0
-1396 250 1231 0
1170 -373 464 -1090 691 0
767 -484 832 934 1328 1430 1006 574 0
187 -305 807 164 -1328 0
-1109 1257 -855 -871 1296 -1102 767 484 952 1328 1090 501 0
1178 871 65 484 -791 -1091 767 -405 363 580 -641 1328 0
-484 1328 911 767 -1207 597 -322 1201 -518 -317 -175 -1131 0
377 1328 -1147 1306 405 86 -1414 1366 719 767 -508 484 871 0
-758 -1221 -767 1328 1181 0
1401 484 -1299 1328 70 405 -1266 460 -606 -1068 767 871 495 1156 352 0
-767 1277 1328 -227 -1159 -918 -1206 -784 1157 408 941 1412 -32 0
1328 923 767 -1429 841 -405 871 1376 295 484 778 1072 0
484 871 86 767 1306 405 -292 -1147 1366 1328 -377 -1414 0
513 -1328 240 1279 -845 846 -482 1236 -386 -440 0
1296 1328 1090 -871 -1015 -1160 767 -952 484 0
-1147 -86 871 1161 1306 484 -1414 405 1328 1366 767 0
243 1269 -1150 -1024 630 0
79 -568 -5 0
461 -1328 -111 513 845 -885 1236 353 0
280 1328 1257 484 -345 -418 767 -387 952 -871 -501 1296 0
-1237 730 -507 424 309 -1328 -243 -1244 1114 -473 0
879 -723 90 -1286 1328 919 -1057 703 450 -767 -886 0
484 740 -694 -432 961 1328 -1373 -405 -1292 -883 1274 871 767 0
-1402 484 -158 128 -265 932 767 861 -871 1328 0
-1122 -719 -413 0
-614 -363 -1270 186 480 0
-413 425 -1007 0
871 -1400 -397 -537 1199 484 405 -494 1328 427 753 -433 767 -786 0
-65 -135 -405 21 484 -382 631 1328 767 871 308 0
-694 505 767 632 592 -1410 1060 277 -871 -544 848 -1325 1328 484 -1103 0
373 1178 -561 322 -484 -538 -827 767 817 1328 0
-1048 -1416 305 638 807 909 1418 -1328 164 0
-630 -261 192 643 776 -534 -29 1099 0
142 736 -1113 -1161 -733 0
1146 -866 6 529 -973 207 -59 -865 667 -602 0
740 871 -405 767 -1292 484 -432 1328 -1200 -961 -1373 0
-600 -424 -977 -1328 0
-55 1164 1291 -186 -1328 0
-1153 -280 0
394 364 733 -1175 758 -767 1328 -1144 -671 0
225 -737 -643 0
-1120 456 767 1388 1328 -871 519 948 484 925 0
-1328 54 654 1369 877 -1370 -328 856 0
-807 -1328 1377 359 731 0
-1351 1328 -770 723 443 -767 0
235 904 -1164 -81 -55 60 -404 -1328 992 -627 0
-1191 405 -1366 484 871 1328 -722 767 0
-405 170 411 112 -1354 871 -1373 767 1328 -740 484 0
596 1400 520 0
1328 125 -300 397 767 431 405 484 871 504 753 510 0
780 -136 1101 148 -326 15 -1358 -1063 1044 0
231 -403 1281 0
1002 934 -531 767 -1297 816 1328 -241 -871 484 551 118 790 0
680 1208 871 357 484 1101 145 767 523 405 1328 1443 358 0
656 1234 0
-1058 -400 417 46 259 -96 0
-1289 393 -414 0
510 786 -493 753 171 767 -575 -494 -397 -714 1328 484 871 405 0
366 1328 -573 792 959 -484 -435 -688 -1219 767 369 0
107 789 767 -361 229 1345 -1364 1394 208 -645 -484 1328 -51 0
484 871 -405 960 1328 27 1309 767 -1172 0
277 592 1328 -544 1060 767 505 -871 -1410 1325 -1103 848 484 0
-295 -405 871 1376 778 -58 -876 303 -748 -1429 1328 1263 767 484 -1203 0
627 -404 927 -1328 1205 -607 -55 1007 -81 53 1361 -1164 0
1075 -373 655 292 691 0
30 -750 1159 0
778 1328 876 -748 1101 871 -295 1376 -405 1263 -1429 484 767 0
-381 971 405 1328 -36 484 678 871 -1303 1077 -559 329 1324 -1307 767 -1254 0
-892 -800 -717 0
-918 -767 1277 -1216 -784 -227 48 941 1238 -1159 -408 1167 1328 0
-641 -1091 871 484 580 -405 767 65 1328 789 1178 -791 0
1328 -630 -346 871 298 332 223 -1172 -506 484 729 405 -650 1062 1434 767 0
1172 -1161 1203 -226 606 0
-81 -404 235 -627 -992 636 1166 -1164 -292 -1328 -55 904 0
871 -292 -648 405 -1366 767 484 1328 1191 -1100 0
194 68 1328 668 1178 -767 746 -2 200 0
348 495 57 -246 -1121 484 767 426 -1266 1140 460 405 -1068 871 1328 -352 0
93 424 -297 -1244 -1328 -1261 -309 -1237 730 0
-800 -948 987 0
-1408 -398 -564 0
767 343 1328 1402 105 -1374 -528 -871 281 484 85 -434 181 0
-356 -500 -413 0
1324 1284 127 -1193 96 207 0
-78 926 1409 0
1143 1003 1328 -832 767 -842 60 1430 -1028 -484 0
484 767 -58 -721 1328 871 -1422 -381 405 -36 1142 -1077 0
277 -548 484 290 1103 1220 767 -544 1328 -1203 -871 0
-767 227 -1159 1328 -1135 9 -1129 1050 1150 0
464 -1065 -373 -1090 1438 0
271 -423 -1326 319 774 -1328 -722 213 1387 1218 789 0
-1189 802 807 1180 -1328 172 -164 1065 -1019 0
1443 1328 1208 -680 405 484 767 523 871 145 368 0
-1177 1284 1071 713 525 690 -456 484 -871 1328 767 0
259 -1058 417 -400 -1105 -373 0
546 871 -405 484 1110 481 -631 1328 767 629 -65 -382 -1382 0
-1049 -118 -640 0
-792 619 366 -891 767 1404 1328 1210 237 -484 0
417 -550 -612 400 259 -1262 -1058 0
345 -301 767 1328 1257 -418 -402 -268 -387 484 -871 952 -501 1296 0
484 767 -868 -405 -365 1328 1429 1376 838 878 -656 871 778 640 0
596 918 1264 0
617 -767 -135 1074 394 758 1328 -671 1175 0
-487 -400 259 1368 -1058 417 0
-611 -871 484 682 932 1328 749 -925 456 767 0
1147 1408 1328 1366 -212 767 405 119 871 1280 484 -939 0
-801 -841 1117 767 -1429 484 -1312 295 209 -405 1376 1328 -470 871 778 0
-546 1170 -72 858 1282 0
1191 767 484 871 1100 312 -1366 405 1442 1328 1122 -648 0
-1341 -1324 0
-267 -1420 95 934 -1237 1393 974 -730 424 -1328 0
-500 918 -1289 -700 464 0
-767 -227 -1277 1328 -30 -910 0
484 1173 -1103 -871 1328 -1293 1012 -592 -1029 428 -544 277 -1410 767 0
-365 619 778 871 1328 1429 878 484 868 -405 767 1376 0
1433 -977 487 -745 187 353 0
-210 767 -484 1007 468 -943 -376 1328 0
-322 -597 767 -175 -469 -484 1328 367 0
871 484 405 767 352 -1266 -1068 568 460 495 -1156 1328 0
484 1328 753 -685 -397 871 1252 494 767 405 -121 0
-564 -785 0
484 1297 1155 -871 756 1328 -380 -602 207 -486 767 -123 551 1002 0
481 -382 -405 -65 -631 767 484 991 871 1382 1328 629 0
-1282 -1303 513 1073 111 -885 845 -217 -1328 461 1236 -1124 0
61 292 -57 0
859 767 -273 335 -832 -484 1028 1328 -256 1430 0
1196 -767 -194 -843 1328 -465 -464 0
1328 -926 451 -370 -1152 -990 -160 -29 -767 -867 0
-871 -128 861 1328 -1402 484 -469 -265 767 0
-1113 -403 -619 0
135 -1424 -800 0
23 -247 -614 0
-1147 767 405 -732 -311 484 871 1184 1328 161 -1306 1442 965 1366 1348 0
-767 1287 674 138 1396 1328 -1076 0
1264 -420 -72 -450 -932 0
-1287 -828 -767 1328 -745 -185 1259 0
1176 1328 147 -920 448 -366 767 1381 -484 0
736 -1090 -368 -1065 -1390 0
-103 -767 585 -723 -879 1328 -857 1012 1440 -886 -704 1046 0
-1304 -1328 1218 942 -271 -567 0
1253 767 -237 -541 -590 -1392 -484 366 1328 -1249 -792 0
-207 -333 -19 -398 -643 0
767 -1200 575 484 753 1328 -494 405 -397 786 171 871 0
918 1159 -479 0
-226 -614 -450 -156 664 0
-1429 871 -405 1263 484 1279 1376 -748 778 767 876 -295 1328 0
-637 1234 0
767 -1372 -405 -146 484 1328 1365 1399 -1149 814 612 871 0
-58 -381 -1142 -721 -1077 871 484 405 1328 -36 1242 767 -1422 0
886 -723 -995 1328 -134 -289 -767 0
60 -871 484 1061 -1374 -734 1402 528 -1106 1355 1328 176 767 0
-722 -484 -1430 1328 767 -201 0
-502 -1262 400 -1058 259 798 417 0
-558 1172 -1065 1303 -348 0
-871 220 -615 484 767 -917 1328 1301 -1258 -141 1345 0
-1328 271 1326 1218 487 572 0
1251 766 -1411 496 1014 -415 -1228 -338 177 -860 -273 0
1066 484 -511 -676 1328 -381 405 -225 -329 -36 1077 678 767 871 0
607 -902 -5 0
-871 484 -387 -501 1296 952 767 -866 1257 418 1328 0
767 570 -56 1328 -1296 -2 862 127 -489 484 -871 0
1418 1171 -177 -415 717 156 938 819 0
-1328 807 1180 -164 1333 172 1274 -860 -1189 802 -1386 1019 0
-483 502 -964 -359 731 568 -1328 -807 0
766 496 -1411 1014 87 -1228 177 -338 -415 1251 -273 0
-871 1002 -583 767 1328 -551 -266 1198 829 484 414 0
1419 509 597 -322 518 -1379 1328 -175 510 767 -1079 -1170 -1030 -484 0
-1149 484 767 871 1328 1365 -405 -146 -814 1399 -1163 1072 -1372 608 0
-112 871 -740 1328 -1373 484 478 -405 767 -273 -839 -1215 0
-359 -807 502 -964 731 -483 -1328 877 0
-448 1181 -366 767 1328 -484 0
1357 -373 -78 0
228 405 -145 484 1328 767 934 871 523 126 0
468 1271 700 767 -376 1072 -943 1328 210 -484 0
722 314 -568 58 -1270 0
-5 -1122 -763 0
-1435 363 1060 -65 981 -631 1125 767 871 -629 -288 -405 484 1328 -382 0
-1390 -1226 -78 0
-745 517 1432 1328 361 -484 216 767 0
1075 -413 630 0
767 -871 917 -141 484 -206 -1258 220 -1339 1328 0
767 599 1373 -677 -405 348 484 1328 -224 1274 -787 871 0
-723 879 -1057 -886 1328 1286 -858 -767 919 0
298 -1434 767 484 -1075 -1052 729 -244 405 1328 332 871 -285 869 0
-1049 975 1172 0
730 -309 -297 424 -1244 -1237 -289 -1328 93 0
-736 -328 -54 -1370 654 856 -1328 0
376 188 -834 767 28 687 -100 1097 -484 -1018 1328 0
244 871 1328 767 332 405 -1434 729 298 -1409 484 0
484 207 -1441 1297 -1183 551 1002 170 767 1335 1328 -871 -1038 123 203 0
121 -1161 -479 0
717 175 -484 767 -844 -322 1328 0
767 795 -289 484 1328 447 894 -405 871 0
1112 -640 -1279 0
-747 -991 -118 573 944 0
227 1050 -1129 1150 -1135 1328 -767 9 0
30 0
-564 -877 -1179 0
405 523 -1281 484 1127 -1443 871 767 1139 145 1328 113 -293 0
-487 1329 722 0
1421 871 1328 372 -405 -894 356 -840 1427 4 170 390 587 767 484 739 0
-1406 751 0
1328 -671 -767 -3 514 758 -394 0
1061 767 675 734 484 1355 528 176 -1374 -1106 -871 1328 1402 -429 0
-1442 0
-1404 -891 -792 -573 -793 237 767 1210 -484 366 619 1328 0
807 164 -1048 -1328 638 305 -909 1418 0
202 101 -534 151 410 -776 658 -301 -225 -1303 0
-510 1255 -1377 186 918 0
156 -1349 328 -1375 -1288 -512 625 -1328 356 0
-1341 -420 0
709 -1057 -767 -886 90 879 703 1328 919 -1286 -723 0
231 655 1255 573 -700 0
1203 -127 -181 1255 142 0
424 730 -1318 -507 473 1114 -651 309 -1244 -1328 -1237 0
597 911 852 -175 -301 -1201 767 1328 -518 -317 -322 -484 -1207 0
-1058 259 417 -1262 400 -637 656 0
-767 586 1144 1161 -671 394 1328 -436 -445 758 -1175 0
112 -1354 -740 484 1166 -405 -516 871 -1373 -411 767 -555 1328 0
121 -1424 -219 0
-537 1328 -427 753 1199 -494 405 -563 -433 657 484 -786 767 -397 871 1274 0
1294 -413 944 0
506 729 871 1434 332 1062 767 298 156 1328 484 405 0
848 277 505 -1410 767 -1325 -544 484 -632 -871 592 1060 1328 -1103 0
719 197 -881 871 405 484 311 1366 1328 -1147 767 -1306 -1051 -1118 0
630 -1341 0
758 60 -1175 -767 394 -445 1144 586 1328 -671 -436 0
1265 -1279 -1058 417 -259 0
1399 -1089 -1365 -1372 871 -146 484 877 1328 -405 994 1041 348 -1130 767 -1149 0
-57 435 -1418 -1024 691 0
-289 -767 466 -665 -723 -134 1328 886 995 0
-181 -1253 135 1438 1409 0
349 1172 975 0
82 510 -1308 -194 -67 -465 719 -1196 -624 1328 1316 -310 -767 0
1328 -1342 615 220 -141 179 -871 -917 -58 -873 767 -1258 484 0
767 -1312 778 871 -209 484 1376 -1429 1328 -405 -470 -46 -841 1117 687 295 0
-787 484 767 -1416 599 -405 871 -224 1373 348 1328 -677 0
-1179 -127 -643 -850 -991 0
1427 -894 -840 -372 484 739 1328 -1360 767 -1084 450 -165 -808 871 -405 0
-1341 46 0
-858 -1219 366 15 369 -688 1328 767 959 -484 792 0
767 -484 448 -1176 -366 1328 1253 0
-1068 1299 405 484 767 495 871 352 1418 1328 460 1156 -1266 0
571 928 578 1302 -1428 122 348 0
1042 -325 1305 524 993 398 0
1086 767 871 -729 484 405 1328 -1409 0
-484 -943 1328 -376 767 118 -468 0
121 -850 -1113 142 -449 0
-656 376 767 -188 -834 -100 -980 -484 -1018 -699 1328 0
649 1328 -405 484 767 1354 -740 871 112 -1373 0
-1284 -815 596 0
-484 1161 1300 -162 -189 347 -1240 -282 -872 1328 -577 -121 767 0
1328 -179 -871 -141 342 -1342 615 -225 -917 -1258 484 -1033 -873 767 220 0
-1379 518 -175 -322 767 -1419 1328 509 -484 -142 597 0
767 515 484 568 -277 612 -871 453 -812 1328 -781 0
405 892 -298 871 -485 1328 484 767 729 0
314 -1178 97 0
130 -1164 404 368 -1328 -81 -55 0
-1328 -55 -627 992 -1164 -404 649 904 -81 235 0
-1328 -299 1087 -567 -1218 0
-405 484 797 871 833 -1123 -778 -588 767 907 1328 0
933 -1194 347 -484 -289 872 1328 -189 -937 767 -282 0
-438 1324 -225 1272 767 484 141 610 1385 220 -1258 -871 1328 0
921 58 -1011 -510 -1122 0
-1211 -449 944 0
1200 563 -750 0
499 700 767 1328 834 -1193 -484 -1064 1225 1437 376 -100 -1018 0
1262 -619 -60 417 -1058 400 259 0
767 1430 1174 1028 -898 -335 -75 1328 -741 -484 -520 991 -832 0
871 -913 767 639 298 1403 1367 484 118 1328 -908 -332 729 405 0
-1253 1417 -168 607 -747 0
1104 -972 -1428 578 122 -928 571 700 1302 0
-373 -1065 -500 670 975 0
941 -1167 -767 1328 -784 1277 -227 -408 -926 -1216 0
606 480 -449 975 -907 0
-1094 484 -1309 -1172 767 -916 -823 708 -1371 1328 -405 871 0
-755 639 -69 -29 298 -73 405 -1062 767 729 871 1434 -1005 484 1328 332 0
1328 -100 -28 687 767 -724 -834 188 376 1097 -1018 -484 0
1345 1138 406 949 -1266 871 484 495 767 460 -2 251 1068 1328 405 0
1008 1289 -871 1328 767 -1327 -314 -1002 -825 -1243 484 0
-612 796 1058 0
-1324 -57 1228 -156 -675 0
23 -637 -19 0
360 -465 -767 -194 764 67 1328 414 -1196 0
-939 484 1366 763 -212 -1280 871 405 1442 119 767 1328 1147 0
72 -767 723 1328 1351 0
1328 -316 1152 263 -1426 204 -605 679 -767 -1033 945 -370 0
268 -417 -490 -1058 0
871 -650 298 1434 1062 -223 729 767 1328 484 -630 332 405 -506 -346 0
871 1263 1376 -405 -876 303 767 1328 -748 -295 778 -1429 1279 484 0
206 1033 1185 0
-1328 -696 -425 -255 132 -513 0
384 484 1408 220 1258 767 1036 -1115 1328 1148 -871 0
1122 871 1366 1306 767 508 -292 -1414 1328 405 86 -1147 377 484 0
-437 752 -1328 55 1363 -339 0
-747 23 -1161 0
-380 -486 1328 484 643 1155 -871 756 1002 551 207 1297 767 -123 0
1065 -871 484 1328 220 -1258 767 -1301 532 -615 -141 -917 0
-173 -751 -90 0
-747 121 250 0
-825 -871 484 767 -1243 -79 -1002 -1327 207 1328 1008 0
528 484 -826 -871 -997 -930 -1374 -1061 646 1402 181 767 1328 -1203 0
-373 393 1357 0
-1287 187 1328 -1259 -185 -977 565 -828 -767 0
1334 239 247 -832 767 1328 1096 1430 1028 1274 -484 335 -859 -711 0
-717 243 1185 0
1328 366 767 688 -484 -186 792 0
19 456 -1055 1328 749 611 -925 767 -1290 -871 484 682 932 0
582 1179 545 1349 1195 -1328 -167 328 0
929 -370 -1417 1328 -662 1152 102 -225 -270 1426 -767 -605 0
-752 55 -1328 1105 1363 0
1287 401 1328 674 892 -1076 -767 -138 0
287 456 -1120 767 925 1328 -1439 1388 -871 -519 948 484 0
871 381 -2 1012 1223 484 767 405 1328 -1356 -1320 182 0
-568 1058 -131 0
-1341 607 0
-860 172 -1189 1180 -164 802 -1019 -1328 807 0
-1166 314 796 243 1318 0
1152 -767 1426 -605 -370 1328 -1417 662 -270 0
871 -1169 1266 -584 -860 1328 187 -422 405 669 484 767 0
1349 -900 328 526 -1391 144 683 603 -545 -1328 550 0
410 101 -534 -776 -301 658 151 202 -1303 719 0
767 -1036 1148 -871 -1159 484 1258 1328 220 0
1328 484 407 -1035 -79 405 -896 -314 -729 -1086 767 871 0
383 424 -1328 1237 -977 0
-127 -713 -789 -932 -118 0
-1284 -948 -449 -847 -373 0
1163 550 -798 -814 767 -146 -405 492 484 1399 608 1365 871 1328 -1149 -1372 0
-226 -713 1231 -1150 858 0
-57 1228 -675 1231 -643 0
1365 484 1399 608 -1372 -1163 -146 1328 612 -1149 767 -405 -814 871 0
-173 -1341 0
484 1328 -1075 64 871 1023 -334 1012 36 767 -782 405 -381 0
-767 -723 703 -1286 -886 -46 -1057 90 919 1328 879 0
-34 767 -871 1328 -1108 260 1002 551 484 1297 -602 123 -203 207 1134 0
767 820 -792 1249 366 1113 -484 -237 1328 0
1328 394 -364 1187 449 -1294 -1175 -18 -671 -39 -767 758 -1144 0
280 -175 -518 -317 767 -301 -322 911 -484 1328 -1201 -1207 597 0
1200 1417 1439 -1122 -1179 0
175 -1438 767 -322 -484 1328 -1357 -412 844 777 1248 0
-871 1328 -861 373 -1402 484 767 0
753 170 405 871 484 397 504 431 125 767 1328 -300 0
-989 976 -361 1328 205 1056 1364 -484 -607 767 -1439 0
-484 476 -454 637 1328 1323 201 767 -1430 709 0
1264 -413 918 0
871 298 1062 -691 -650 -346 332 729 -506 405 1328 170 223 484 767 1434 0
-40 484 871 -112 -1162 1274 -1373 767 -740 1145 -694 -191 -405 1328 -839 1215 0
633 -775 0
231 -700 314 573 -1025 0
767 -871 -277 -781 453 -812 -736 -515 1328 484 0
871 1191 484 -1100 767 405 -648 168 1328 -1366 0
692 -267 958 -1076 -767 1209 1287 1328 -674 -1128 0
1328 871 484 -405 447 795 767 -1261 894 0
-1058 400 1262 417 -850 259 1368 0
-1424 1444 1058 0
-558 267 -751 0
-130 -1164 404 -339 -616 -1328 -137 -81 -55 0
-1239 1328 -1282 871 484 -1309 -405 725 916 -232 1088 767 -969 875 0
-1328 87 -157 914 -545 328 689 144 1349 -967 1391 0
-877 -737 314 0
-271 1218 1304 487 -1328 0
602 -847 -1007 1357 -1289 0
1012 328 914 -545 -157 1349 689 144 967 -1328 1391 0
-575 -1303 871 171 714 405 -494 484 1328 786 753 767 -397 0
123 1002 -1038 420 551 -871 1335 1328 -1441 1297 -1183 203 767 484 0
-1149 -1343 1328 484 871 1372 -233 1399 -759 767 -146 -405 373 0
129 122 769 -571 247 809 -1428 1032 578 1302 -1282 0
266 1198 -551 -871 414 1002 1328 767 484 0
-751 -687 -780 0
-489 -871 -1296 484 570 -56 1328 862 767 -1260 1178 0
-164 -1010 -74 -1180 807 742 -1328 318 991 -225 -1189 0
-405 1150 871 767 -146 1328 -978 1149 -1275 484 0
1400 -373 -847 245 440 0
1261 30 1058 0
556 1226 1244 730 424 540 -1328 -1237 0
1236 -1328 -461 -866 -718 988 513 845 0
-892 243 -750 0
-1363 -745 55 -1328 0
567 -1181 -1049 0
871 1424 298 1328 729 484 767 913 405 1367 -332 0
-1279 -1153 0
694 -10 -1274 0
733 -547 -252 767 25 1328 -697 -484 -79 -347 0
-398 633 0
1433 328 -1349 -1328 1375 0
-534 -776 -658 459 1274 101 719 1222 1442 -43 -475 0
-1200 510 -563 348 1166 131 0
-564 858 -450 0
1193 1203 -751 0
484 767 -146 -405 1328 608 -1149 -1372 -814 614 1399 492 1163 1365 87 871 0
-282 -121 -872 767 -189 -944 347 -484 1300 -577 -162 -1240 1328 0
267 231 -1025 -1161 -1253 0
-388 -1269 -284 -661 6 1146 -707 59 -865 0
1328 -1260 1296 1257 767 716 -871 1109 484 501 952 0
-1153 -510 0
1439 953 1075 0
429 528 767 -871 1355 1328 1402 734 484 -1170 96 1061 176 -1374 -1106 0
1302 571 972 131 122 -563 578 -928 -1428 510 1104 0
-245 368 1284 -1368 713 815 0
-619 -15 -564 0
-581 -72 630 -500 1159 0
245 1368 393 0
892 -1128 1328 1287 -1076 1209 958 -674 -767 692 0
1328 405 494 -1252 -397 484 871 -607 753 767 0
-1339 767 220 -871 1328 917 1345 484 -141 -1258 0
-1178 245 796 858 440 0
-1424 349 -912 0
-1418 -775 -614 -700 -907 0
-1050 1328 -1040 9 -767 227 -1129 0
919 -767 709 -723 -886 703 -1057 -1286 -46 879 1328 0
2 1357 -1025 860 292 0
1261 -1049 -558 0
305 -79 164 1048 -1328 807 0
-175 518 767 181 -1438 -1379 -1030 1419 1328 -322 509 597 -484 -1079 0
-484 767 -282 156 937 347 872 933 -189 1328 0
-809 -479 -247 0
-958 1287 -1362 1328 -1318 -674 -767 -1076 -419 0
871 405 510 -313 -315 1328 104 484 -786 -985 767 -494 433 -397 753 0
-425 -51 767 107 -484 -1364 208 -229 1328 -361 0
-918 609 -1159 1226 1436 -6 -1016 -865 0
-527 -1281 -1039 -534 -776 -101 -1268 0
-605 679 639 1328 -1426 945 263 -316 1152 -370 204 -767 0
-1353 398 1305 836 -1151 -1042 0
655 1231 231 920 -649 0
466 -723 995 356 886 -665 -767 -630 -134 1328 0
-1328 -942 1218 -271 115 -1304 -1439 371 -567 0
1058 -558 331 0
-1179 -1406 -612 0
1328 -29 -867 -767 451 -160 -990 -370 -630 -1152 0
1315 -1340 -903 767 729 1328 871 405 484 -298 485 0
170 484 397 405 -300 431 1328 -563 125 767 753 -504 871 0
871 494 274 405 -397 484 569 -653 753 1252 685 767 1328 0
267 1318 596 0
-1065 23 -72 0
914 877 -967 144 -1328 -157 1391 1349 689 612 328 -545 0
1179 -767 323 1328 49 1221 -758 -283 581 0
298 -650 1434 871 -223 1328 332 546 729 767 1062 -506 -346 405 484 0
655 292 1409 -907 630 0
1328 405 767 484 871 -1356 182 -1320 1178 381 1223 -1033 0
1002 767 -380 -486 551 -871 490 1155 -123 -756 1328 1297 484 0
-750 -363 -546 0
-405 767 1328 -1154 16 -740 -1373 -563 484 871 1442 -1215 -112 -839 -478 880 0
1308 -767 -67 1328 -1196 -194 -465 110 207 -455 0
-484 376 -188 -100 767 -834 -1018 1328 980 -656 0
-776 410 -151 -534 -1075 658 101 0
-545 1349 328 -1328 -31 -144 1284 0
-1090 -847 -1049 0
-465 -767 843 1196 1279 -1013 -351 1408 -744 1328 -194 0
118 -100 -1437 -484 834 376 1328 -1018 -1064 767 0
1328 -1409 405 729 755 484 871 -1062 298 1434 767 332 0
-1328 -1236 296 -245 -589 -773 513 0
-564 243 186 0
-207 464 -751 0
529 207 -866 6 -59 667 -865 1146 -973 -602 0
774 -1235 -1328 1218 319 213 1387 -722 -423 -1326 271 0
1112 464 866 0
1328 700 767 -46 1126 -198 -834 376 -1018 -980 699 -100 -484 -188 0
668 746 194 -2 200 420 1328 68 -767 0
-315 104 1328 -397 484 -786 433 985 753 -313 405 -494 871 767 -694 0
-188 -100 -980 -691 -1018 -699 -834 1328 376 -484 767 0
484 1402 -871 373 767 1328 528 1061 -176 1355 -1374 0
-925 484 767 -682 253 1328 -871 88 788 -1409 456 -1080 0
1328 -918 -1129 -767 227 -1135 9 -79 1050 0
1063 -136 1253 -326 1044 148 0
273 1234 0
-522 484 871 -382 -631 -405 264 767 -481 907 1328 629 -1395 -65 0
144 683 -1328 -1391 1349 -900 687 328 -526 -545 0
484 1366 649 1306 1328 871 767 -1147 405 1414 0
1328 405 -1077 1024 -381 721 767 -36 484 871 0
-1012 -747 -449 -1113 142 0
-127 58 921 -991 1255 0
932 484 405 767 -230 1328 -523 871 89 -109 -294 0
414 767 1002 484 -583 -871 -266 1328 -551 1198 -829 0
1234 1033 0
-741 -832 -898 1328 -520 -335 767 1028 -484 75 1430 0
734 -1374 1402 176 1328 -292 484 1355 -871 429 1061 -1106 1166 528 767 0
767 1225 -1018 376 1437 -484 -100 499 1324 -1064 1328 834 907 0
-639 785 1269 0
22 -614 1282 0
871 -1309 -708 1328 -1231 -916 -405 767 484 0
1328 1149 1037 -405 -1255 484 -146 871 1275 -314 767 -978 108 0
952 1257 333 484 767 -835 659 501 127 -871 -716 1109 1296 1093 1328 0
-484 767 645 229 -361 -51 -425 -1364 208 107 1328 0
-479 1193 -991 0
91 -484 1328 -792 366 1249 1113 767 -820 -237 0
-19 -15 -1024 1444 630 0
1132 -736 -245 -296 -589 -1328 -773 513 -1236 0
-168 -1181 79 1228 -96 0
347 1141 -933 -117 872 159 884 -189 -484 1328 449 -282 767 0
-484 -573 366 -590 1247 541 -1392 -1249 274 -792 761 1328 767 -237 0
-1328 -1087 -337 -299 187 -796 -1218 1212 0
-578 1433 150 0
-255 -513 -1328 948 -132 0
302 -167 545 -1328 -582 1195 1178 1349 328 0
-405 484 767 -1149 1399 814 1365 -1372 -146 1328 1369 871 0
683 1349 -1328 144 612 328 -603 -694 -1391 -900 526 -545 0
743 -148 1044 1267 -136 -374 1072 0
1328 -770 704 -857 -723 -886 -767 -103 1440 -879 0
-1208 905 -1310 -818 1443 484 1328 871 709 553 970 811 145 405 523 767 0
-558 314 -717 796 -991 0
-370 -605 1346 1328 -1107 1152 -1426 316 -767 -1340 0
1148 1328 767 -871 1258 -1115 220 384 -301 1036 484 0
393 -850 921 0
729 1328 871 767 -926 -1315 -298 405 484 485 0
633 -90 0
790 -1297 816 1328 -531 -871 398 551 1002 767 -602 484 -241 0
796 -1418 -581 -877 -500 0
88 1025 788 767 -925 1080 456 -871 -682 484 253 1328 444 0
871 321 -1382 629 481 -1110 991 767 1328 484 -405 1060 -382 -1098 -631 -65 0
767 1328 1442 -1306 1366 -965 278 484 149 488 -311 1122 871 -1147 405 1241 0
-918 -767 941 408 1277 32 -227 -784 1328 0
1279 484 871 767 405 -1077 -1142 1328 -721 -36 -381 -1422 1242 -231 0
159 872 767 -117 347 -282 1141 -933 -1200 -189 -484 1328 1161 884 0
480 520 573 -700 -19 0
-1058 -19 417 -502 -259 0
800 0
79 722 1231 -558 1303 0
879 -1057 -767 1328 -573 -886 1286 -723 919 0
-677 -224 484 -1416 -787 767 -694 1328 599 -405 871 1373 0
-925 -749 484 456 -871 1105 1328 767 682 0
-773 -1075 -589 1132 513 -1328 -296 -245 -1236 0
425 1112 339 0
-187 951 0
-1330 982 -722 695 -1328 -774 271 -1326 1218 0
1328 672 767 517 1433 -484 -1432 216 -745 361 0
-59 6 -529 -135 1146 -865 667 -973 0
-630 263 1328 -316 -605 639 679 -1426 204 -945 1152 -767 -370 0
-649 -10 607 0
-691 729 405 1403 639 484 -908 -913 871 298 1367 -332 1328 767 0
-227 408 -289 -767 -32 941 1277 1328 -1157 -784 0
29 1058 -1377 0
146 1328 484 -853 -405 1369 871 767 0
-484 -872 -162 -189 -1240 347 1328 -577 -944 767 1161 -282 1300 0
-886 -723 226 -543 1328 1000 -879 103 -767 0
-2 -776 658 -410 -534 101 0
927 -1328 53 -81 -55 627 -404 1361 -975 168 1205 -1164 0
-168 2 -1181 670 860 0
505 -1325 632 -544 1060 -871 1328 767 848 484 -1410 592 277 -1103 0
767 1366 -1306 763 -1147 197 1118 311 1328 871 405 484 0
206 -850 22 0
1357 -800 -280 0
59 661 -458 1204 173 -45 1065 207 1146 -865 6 0
1060 325 1012 771 1305 -1265 950 272 -622 1042 -783 0
1409 1200 1075 -1122 1203 0
-798 1369 1072 72 -606 614 0
1191 1377 1328 648 871 484 767 -1366 405 0
-988 -461 513 815 -1328 1236 845 0
700 -922 871 1359 767 -215 778 295 1376 -1429 1328 841 -405 484 -923 0
-737 -713 245 0
871 -853 1328 1433 767 -405 146 484 0
-1161 -226 -19 -1253 1400 0
-347 -697 25 -547 733 -252 1328 767 -484 0
871 1328 767 -405 -146 -1037 484 1275 -978 -314 1149 0
-374 1044 -735 687 1267 -656 96 -136 -743 -148 -497 0
-1003 -1028 637 1143 -379 700 1430 -842 1328 767 -832 -484 0
991 1220 -544 -1193 767 290 484 -871 1103 1328 277 -652 548 0
767 -361 1328 -425 -484 -1364 107 -208 -51 0
-750 -639 926 0
103 1324 882 -767 -1193 -723 1328 -879 1000 543 -886 521 0
-1418 -1181 -168 944 -568 0
440 79 1235 801 860 0
-1122 -675 -510 -1345 314 0
871 1328 397 405 125 767 300 753 484 -918 0
-127 1260 -849 0
1287 -767 692 -267 -1209 1328 -674 -183 -1076 958 -1128 1034 0
-530 952 127 -269 484 -871 -307 333 1296 1328 767 -1257 772 0
-547 -314 -484 767 -347 -252 1328 -79 25 -697 0
1357 231 -15 469 630 0
1200 -131 -219 0
-33 -405 -694 875 -1309 871 389 1328 916 767 484 -304 -779 969 -1250 809 0
767 1328 -1266 1401 871 1156 352 405 614 495 -798 -70 484 -1068 460 -1299 0
-1373 -405 411 -740 -1354 1161 871 112 1328 767 484 0
-1369 953 -1270 0
-1164 514 591 -55 -1158 -1328 81 378 0
-1328 -305 -243 164 807 0
1234 -449 0
1433 767 672 361 187 216 -1432 1328 -484 517 0
-1196 -618 -866 -767 1328 -465 360 -84 -764 -194 67 0
343 1137 1305 1042 -325 -524 993 0
-78 -1418 -502 0
-981 -382 -1435 -631 1125 484 767 1328 -405 852 -629 -65 871 0
-602 991 333 -225 713 181 0
-1055 -925 1011 1328 682 -1290 484 456 -871 611 767 749 19 0
2 1112 -581 0
-970 1400 -10 0
405 -753 180 -736 871 1328 767 484 1322 275 539 0
-525 767 690 -456 -871 1328 -1177 368 484 0
1196 414 -767 -465 1328 1013 843 -194 0
1362 1287 806 -1231 1328 -767 -958 -419 -1318 -674 1336 -1076 0
1296 -871 -1257 767 484 1328 952 772 530 847 0
-1377 -750 1261 0
-510 -1161 -733 918 858 0
-314 118 -770 -480 -1200 -1172 0
-233 767 -759 -405 -1343 1328 871 1372 484 1178 -146 -1149 1399 0
-1015 830 1328 767 484 1160 1296 1090 -952 -871 0
435 918 1409 -450 -1178 0
-907 -1153 0
1236 -1328 513 -845 368 -386 -240 0
1075 435 -403 0
-921 -1033 675 850 -206 1012 0
-199 -484 767 -107 502 -361 1328 -1364 -51 -1116 0
-550 -87 -479 0
1287 1328 -712 -1076 958 195 -674 1128 -186 -767 -1092 0
936 -655 -148 -374 1044 1397 -136 -1267 0
281 -871 434 105 85 280 1328 1402 -528 767 484 -1374 0
1053 1028 1384 767 1430 1328 335 637 859 256 -484 286 970 -832 0
-1410 -1029 -544 -1203 -592 -1103 484 -1173 767 1328 277 428 -871 0
1127 871 405 -293 -113 -1443 484 145 523 60 1328 767 0
484 925 948 456 1328 -1388 -871 767 0
-1261 1237 424 -383 -1328 1083 0
1340 1439 -78 0
-403 -1181 1235 0
-264 498 -522 -405 -631 871 1328 -382 -1193 -65 629 -481 484 -1395 767 0
1170 606 -934 -1113 1400 0
-1341 -1007 0
334 871 767 1328 1023 490 36 -782 484 405 64 -381 0
995 886 -665 450 466 -134 -767 -723 -289 1328 0
-292 -975 619 -1040 1181 847 0
-1101 1112 -280 0
-365 871 -868 878 -405 907 767 1376 1328 -838 1429 778 484 0
-510 1400 1444 292 798 0
767 733 -347 -484 -121 -252 -697 1328 25 -547 0
1328 456 395 1020 -626 -987 -682 -871 -788 1331 484 -925 767 789 0
-1153 1264 0
-405 767 809 1328 -33 -1309 -304 -779 871 875 916 484 -1250 969 389 0
136 -920 1182 -120 1186 0
1328 1197 -484 -471 -331 -803 -121 -1168 -189 282 767 347 0
-57 58 -902 -1012 1228 0
1260 -847 61 0
-484 322 767 827 1328 373 0
1328 1430 -832 767 19 -1028 -1143 -484 0
26 -405 1415 1328 -1376 139 484 778 871 996 118 767 0
-394 -671 -767 640 3 912 1230 -421 758 491 1328 0
-767 103 -886 1328 882 127 -879 -521 543 1000 -723 0
630 1409 921 801 -719 0
-871 -873 767 220 -141 1328 -1033 484 -1258 615 -917 179 -1342 0
534 -211 19 701 1192 0
1328 -767 -314 -1135 9 1050 -79 227 -1129 0
-1203 375 1279 462 631 484 871 767 -382 1328 -21 -405 -65 308 0
1225 907 -1018 376 -1064 1328 499 767 1437 -100 834 -484 0
484 274 767 516 -1354 -405 -740 1328 871 -411 112 -1373 0
196 620 1018 -957 376 767 709 -46 -92 1328 -484 -100 0
-649 920 655 -709 -717 0
-116 885 845 1236 -1328 1190 513 948 461 0
1219 792 366 1328 767 398 369 -688 959 -484 0
-1060 1265 -413 0
-750 -15 -1253 0
1045 272 1042 1305 325 -623 457 675 622 0
1281 61 -19 0
1120 456 767 925 1388 -245 -871 484 1328 0
138 674 1328 -767 -1076 558 1287 0
-1396 -178 186 0
-1270 22 -1369 0
-398 860 -1150 -717 602 0
767 -139 1328 -1376 -186 -405 778 484 871 0
349 79 -581 0
259 -619 417 -780 -1262 -1058 400 0
72 226 173 1065 -289 90 0
597 -322 -484 -317 -518 -175 -1207 343 767 -911 1328 0
-487 393 567 0
1261 -1150 0
414 767 1002 -551 484 -871 -1198 1328 0
-1416 1069 807 392 -164 568 -1328 -1338 1189 -1022 0
1075 29 1185 0
1328 991 -871 -544 484 -1029 277 767 1173 -1193 -1103 428 1293 -592 -1410 0
1391 -1328 -545 328 -860 144 1349 -914 0
511 1066 871 -329 1077 -676 767 405 1285 678 484 1012 719 -381 -36 1328 0
-1425 1378 -762 -1044 -136 0
-175 -324 -595 -484 1113 -597 -322 1328 767 -367 0
135 -348 -763 -274 691 0
484 767 -152 1328 -871 -644 824 1324 44 -1416 -220 0
-1430 -484 -476 1025 201 767 1328 0
341 605 1152 -370 1328 -1269 -767 0
-977 424 -730 -974 -1328 -1237 0
801 633 0
-915 -30 1328 -1277 -227 -767 910 0
-10 796 722 0
468 568 -484 1271 210 -376 612 -943 767 1328 0
-807 731 -964 -483 -1416 -359 877 -1328 0
877 1025 1323 201 -454 476 -484 1328 767 -1430 0
-490 -800 -414 0
1244 -554 -1328 -1237 1377 1337 -540 424 717 730 556 0
94 747 1027 -1266 767 484 871 495 1328 405 -460 0
953 866 -1390 0
-840 -405 -372 484 739 767 1084 1418 871 -894 1427 1328 0
-840 -1360 -1084 1427 -405 484 808 739 1328 -372 90 -894 871 767 0
484 551 1328 767 1002 1108 1297 -203 1418 123 -871 0
852 -1428 -1193 1302 -20 578 -362 -122 -955 510 0
-913 -332 484 298 871 405 1367 -1417 767 908 1328 1403 729 0
23 1368 -713 0
1147 405 484 119 1366 767 763 939 1328 871 0
886 -767 -466 1328 -723 995 420 -134 -665 0
450 807 305 638 909 164 -1328 -1416 -1048 0
-954 998 484 1328 277 -940 767 -871 544 546 0
-1409 370 1328 -320 -931 1165 -889 -767 0
767 1028 -484 -832 -335 -520 1430 898 1328 0
1376 841 1359 778 -1429 922 -656 767 -405 484 295 -215 871 -923 1328 687 0
1424 1436 -865 -609 -1016 -6 0
1298 -405 -146 767 947 330 484 1328 -1399 550 871 114 -1149 87 0
-689 1391 914 144 -545 -1328 -314 328 1349 0
-331 733 -1294 449 -944 -762 0
1328 433 405 -397 -494 484 767 871 753 -694 -786 104 -315 313 0
494 484 871 -653 569 1252 767 -397 131 405 753 1328 274 685 0
739 356 390 1065 372 1328 1421 767 -894 587 871 -840 4 1427 484 -405 0
-875 1043 614 1328 -405 916 767 484 871 -1309 0
-671 1074 758 -767 394 617 1175 1328 -762 0
730 540 1244 -1328 717 -1237 424 556 0
-750 1416 79 0
949 373 495 871 -251 1138 767 484 460 1068 -1266 405 1328 0
1328 237 366 1210 912 891 767 -484 -792 0
-713 921 1260 -1324 186 0
-109 294 -523 484 89 -230 -1400 871 405 1328 767 581 0
1437 834 -484 767 -1064 -499 907 1328 -100 376 -1018 0
-1399 -405 1328 484 767 -146 -1149 330 947 1179 114 550 871 1298 0
1372 1343 1399 -405 -759 579 -233 1328 789 -1149 1178 484 871 -146 767 0
-614 1228 670 -700 -775 0
-832 767 -1096 1328 363 335 1430 239 1334 -711 -859 1028 -484 0
-1266 984 -94 1328 405 484 495 -460 871 767 -273 1027 581 -354 0
1328 871 484 767 405 -1266 -893 -495 -79 0
-1304 -722 115 -942 -1328 -271 371 -1255 1218 0
484 -532 767 -439 -917 -615 -1301 -141 1328 901 -871 220 1012 -1258 0
328 545 -582 -302 -167 1195 775 1349 877 -1328 0
900 -1328 1349 328 144 -1391 550 -545 0
-546 606 -78 0
-770 1317 1328 -621 1065 484 -604 -894 -1427 871 -405 767 -794 0
1203 -789 61 0
767 827 1328 -484 -469 322 0
-1340 767 405 -298 -485 729 1328 484 871 0
-849 -173 -72 0
502 1396 487 1105 1369 -1368 0
101 -43 1122 -534 459 -658 -475 1222 1442 -225 -776 0
-564 664 273 0
-1189 -1180 807 -164 74 187 -1328 0
-1328 -1164 591 -1281 378 640 1158 821 -55 81 0
-259 -1058 -709 -131 417 0
-405 -839 767 131 -40 1328 -1373 1162 484 1215 871 -112 -740 0
-381 1077 767 -813 871 76 1383 484 -36 1295 -678 1328 405 -1033 -301 0
-1328 144 -157 328 -967 1349 -545 689 914 612 87 1391 0
1417 -639 -1211 0
1328 -1319 37 -1374 -871 1061 528 484 90 767 -1355 1402 0
871 113 -1281 484 -1443 767 1127 1139 145 -293 1328 970 405 523 0
97 800 0
871 -480 -65 822 -409 484 382 -279 -702 767 -1075 1328 -405 0
-1328 -296 -1075 -736 -1236 1132 -773 -589 513 0
-1189 807 -1328 1180 639 -802 -164 -1119 -63 0
-484 1210 767 237 366 -1404 793 -792 619 -891 1328 0
606 1303 -247 480 435 0
-331 -421 -767 -394 -671 758 1328 3 -1230 0
177 -338 -607 -496 -415 1078 -634 -1111 1014 0
1170 1260 1357 860 -368 0
668 1408 420 68 200 194 746 1328 -767 0
-1373 1215 1328 484 767 40 871 -405 -839 -740 -112 131 0
-796 -1082 1218 271 -774 -1328 -982 -1326 0
1146 207 173 661 1204 6 -458 -865 -45 59 -691 0
730 473 1114 309 -1328 -1237 -1244 424 -243 763 651 -507 0
1044 1063 -136 -326 -331 148 0
-763 -78 -57 0
425 607 -643 -15 -19 0
-1108 -34 -871 767 1002 -1134 1408 -203 551 1328 1297 123 484 0
-737 -1226 602 0
-1196 -301 67 -465 1328 852 -767 -194 -618 -764 360 -84 0
1345 579 1328 484 767 1343 -405 871 1372 1178 -146 1399 -759 -1149 -233 0
570 484 -489 -871 -2 -56 1328 767 862 -1296 -1260 0
663 -534 -184 -459 -776 101 -658 274 738 0
-737 -948 440 0
801 1282 -850 -700 670 0
484 952 -871 -1257 1296 -772 -1260 767 1328 0
551 203 1328 420 484 1297 123 -871 1002 767 1183 0
767 1068 460 -860 949 251 1345 495 1328 1138 -1266 871 406 484 405 0
1152 -767 929 1426 -1417 -270 -605 -662 102 -370 1328 0
-1328 870 -424 600 -1261 0
-417 -1058 770 289 0
-1065 -10 -173 0
-517 1328 -484 216 767 -745 361 0
-886 1328 -723 -1255 -1000 -879 103 -767 0
-136 619 1358 -326 1044 -1063 148 0
-481 498 -631 -405 -1282 -1303 484 -522 871 -382 1328 -65 629 -264 -1395 767 0
484 382 871 -1264 767 -405 -65 -702 409 1328 0
-1373 484 871 767 131 1145 -1162 -740 -839 1215 -191 -694 -112 -405 -40 1328 0
1402 -1438 484 -1374 -1355 -871 528 1328 1061 767 1319 0
612 723 -443 -1351 450 391 -767 446 1328 0
417 1265 -1058 259 -852 -400 0
-57 -1122 -849 0
-479 -333 -127 0
-1341 -1122 0
-496 177 -796 -338 634 -415 1014 0
-484 -142 844 1328 -322 767 175 -1248 0
1182 120 1025 -425 1072 136 1186 0
417 225 -333 259 -1058 -400 0
-747 1303 -1166 1172 -1065 0
-737 750 0
1328 -484 -282 347 747 -1141 -189 872 767 -933 0
1033 -675 -564 0
639 -661 707 -691 6 -1417 -865 59 1146 -388 -284 0
-1316 -67 -194 1289 1328 -1308 -1196 -465 -767 0
649 -81 -992 -627 -1164 235 636 904 -1328 -404 168 -55 0
-403 -640 -1279 0
951 798 0
-484 832 -243 767 1430 1328 -574 0
-453 767 484 -796 -277 -871 1328 0
1115 767 -871 1148 1258 220 484 1328 449 1036 0
1255 393 770 0
-964 -1328 -807 -483 -359 -1416 502 731 0
298 -1062 729 767 1434 332 1328 871 484 -655 -73 1005 -755 405 0
1303 79 -247 801 -789 0
-1338 -164 700 392 -1328 807 -1022 -664 1069 1189 0
1328 -244 729 -285 405 869 -1434 643 -1052 298 -691 767 332 871 484 0
1281 -637 785 0
134 -767 1328 -723 -289 886 0
1438 -558 243 -1289 1264 0
1122 601 1328 767 -405 -854 916 1347 484 871 1059 -1309 875 779 969 131 0
551 1090 767 1328 1155 -486 -756 -871 -123 484 1002 1297 -380 0
1105 -437 1363 -1328 55 752 0
-800 -934 231 0
747 1011 -469 19 -920 1105 0
-1087 -796 1212 -1218 -1328 -299 -337 -722 0
273 1228 1185 0
23 -700 -1011 0
-1266 887 -1439 1328 767 405 871 893 484 -897 -327 -495 -860 0
-604 -1427 -894 1328 484 -770 1317 871 -405 -794 -621 767 0
580 767 -641 -405 65 1328 -1091 363 484 1060 871 -791 0
-363 -948 1231 1235 -558 0
-510 22 -348 0
1328 669 -584 484 -422 1266 405 871 187 -1169 767 0
-405 1328 767 871 224 484 -798 1373 0
513 1236 -461 815 988 -718 845 -1328 0
-1058 -356 -417 918 0
1328 -605 -767 -270 1426 -370 -29 102 929 1152 -662 -1417 0
-899 1328 767 747 47 51 -1364 -361 -484 0
-902 1235 -932 -168 -420 0
-211 568 701 -1192 -1416 534 1345 0
1161 733 -547 1328 -484 767 -252 25 -347 -697 0
-112 -563 -478 -1215 1274 -1373 767 -1154 484 -740 871 880 -405 -839 16 1328 0
484 871 405 767 -664 1266 584 -1169 1328 669 0
796 -877 664 2 -118 0
1228 79 1294 -1025 292 0
-404 -81 904 -1328 -1269 -55 -235 -627 -1164 0
767 484 -871 1328 644 850 -220 0
1264 30 97 0
469 1269 -1408 1264 630 0
-544 -1410 1328 -592 -871 767 484 1029 428 277 -1103 -691 0
424 730 -556 -245 1244 -1328 -1237 0
-564 -1377 -558 0
-1326 -1330 -567 695 -1328 1218 271 982 -774 0
-523 484 19 767 871 89 1328 -109 581 405 294 -230 0
-944 -194 -805 -956 -767 1328 465 -13 0
469 691 435 -719 921 0
-767 -704 1440 -723 585 450 1328 -103 356 -886 -879 -1046 -857 0
-581 1058 -60 0
1266 484 584 669 767 1328 -1169 871 -745 405 0
88 -1368 767 -253 -925 -682 -871 456 484 788 1328 0
-912 -1406 121 0
-520 767 1328 871 -109 89 484 405 -230 -294 -523 0
167 -1328 1349 775 545 328 0
1152 -767 -370 -1 -1075 -214 635 -341 605 1328 0
-907 -1072 953 0
464 -1011 -500 918 -1408 0
1400 944 -1289 1040 602 0
-226 -413 -173 0
-387 -418 -268 -501 484 1296 952 -871 1257 1328 767 -345 0
1218 1326 -986 -71 271 -1328 19 804 1181 -572 0
-471 1328 347 803 -135 -1168 -484 -189 282 767 1197 0
-484 -1379 767 -1170 181 509 1328 597 1419 518 -1030 -322 -175 -1079 0
1159 -90 -500 -19 630 0
-879 1440 1328 -723 -704 585 -103 -767 -857 500 1046 -886 0
1328 -871 277 -630 484 940 -154 544 546 767 998 -954 0
687 -397 313 767 104 1328 753 871 -786 484 405 -494 433 -315 0
1281 633 0
-990 -370 -867 -767 -926 -160 -1152 1328 -630 451 0
440 -568 -398 1235 -1418 0
-807 -1328 -731 502 0
-1060 -1406 801 0
1112 301 58 0
-934 1400 -1289 -675 -719 0
426 1328 767 -1068 495 -246 -1121 -1266 871 1140 -352 -860 484 -1416 405 460 0
-767 1328 -828 -185 -1287 -1259 565 187 -1231 0
417 -1058 -400 -612 259 -1284 0
518 597 1328 -175 767 -322 181 -484 -1379 -509 0
456 767 1020 1331 484 1328 -925 373 -682 -871 626 -788 0
-265 128 -469 1328 484 158 -1402 861 96 767 -871 0
-1226 999 0
625 -512 -1328 -1349 1288 -1375 328 1178 0
400 -1058 -1262 259 -1274 417 -247 0
23 -1408 -1289 0
1274 -658 -1303 738 -694 -534 -776 663 184 -459 101 0
-219 142 1438 0
96 -1374 767 1328 105 484 85 -528 -871 281 -434 -1281 1402 0
-627 -904 649 -55 -81 -404 -1164 -1328 0
767 1328 -1360 -1084 -405 -808 1427 -840 871 450 -372 484 -894 763 739 -165 0
-789 1329 -991 0
550 1349 328 -1391 -545 -1328 144 -900 -526 683 0
-420 -413 -490 0
-543 103 -879 -886 1000 -767 1328 -723 -770 0
-450 -932 796 245 -1178 0
-1418 -850 801 -568 -719 0
-405 608 -1372 767 1328 -814 871 1399 1163 -146 1365 87 550 484 -1149 492 0
1396 600 -1328 -424 870 0
1294 -5 762 0
-170 -78 798 0
895 -336 -774 -796 -722 1218 1082 1070 -1328 271 -982 -1326 0
1044 -136 -425 374 -148 248 0
-194 -50 249 420 1328 110 -465 1408 -767 455 1308 -67 -1196 0
243 -737 -892 0
1328 -161 484 1366 -1306 405 -311 965 -1147 871 767 57 0
1374 1328 767 -858 181 1402 -83 242 -1004 -871 -1273 484 0
767 1328 277 207 155 484 -1103 593 1410 -871 -544 0
277 484 -801 -544 767 1103 1328 -1220 -871 0
644 1328 -871 484 767 1345 -220 0
596 121 135 0
602 -1024 567 -1007 -558 0
796 -1341 0
-1266 1011 405 581 495 484 1328 767 1027 -460 -354 -94 871 984 0
-624 1408 -1308 82 -67 -602 1328 -465 -767 -194 1316 -1196 -310 0
-691 1152 -370 1328 1346 -605 -1426 -767 -1107 316 0
1370 -1328 -796 -328 0
1433 -1087 -337 -1328 1212 -299 -1218 187 0
-259 -343 417 -1058 -1101 0
1328 1113 -465 843 1196 -194 744 -767 -1013 0
-751 121 -912 0
1328 809 916 -405 -779 969 484 767 -1250 871 -33 -1309 875 -304 389 247 0
-1240 1328 -872 -189 -484 -162 1300 -577 -282 347 767 -480 -944 0
-518 597 1328 317 280 -484 767 -322 -175 -1207 0
320 1328 1165 -889 -767 370 -435 0
156 -1328 1288 -1375 -512 -1349 625 328 0
1185 -500 -450 0
-450 -479 -356 0
-5 219 0
-1105 951 0
918 858 -449 -1178 -747 0
-1077 -36 871 484 767 405 -1033 1012 -381 1242 -1142 -721 1328 -1422 0
1328 867 -1152 1408 -160 -990 -370 451 -767 0
926 97 1417 0
-770 -1229 767 347 1161 -1256 189 7 -484 -557 1328 0
-796 1070 -1328 -774 895 -1326 -982 1218 1082 271 -336 0
767 428 1293 484 131 -1029 1173 -871 -544 1328 -592 363 -1103 -1410 277 0
-1147 1366 377 508 1306 -1414 767 484 405 871 1442 86 -292 1328 0
-1429 1376 767 -405 -841 1328 295 871 775 778 484 1312 0
-467 845 116 885 -1328 -206 1190 1236 -754 461 513 0
-1324 -847 -181 -733 921 0
-1016 609 -865 -289 1226 -6 -926 1436 0
1297 1335 551 767 -871 484 -670 1002 -1183 123 1441 203 1328 0
-90 -226 1112 0
103 521 -879 543 1328 1000 1324 -886 -767 882 356 -723 0
-647 447 -405 -79 767 -276 871 894 -795 -1255 484 1328 0
767 1352 1328 -1258 -141 -206 484 -871 220 917 1339 0
-449 -479 1294 0
1042 52 847 -272 1047 890 1305 325 0
268 0
1024 1296 -772 767 952 484 -1257 1328 -871 0
97 1172 1282 0
-101 -527 -1281 -776 -1268 -1039 -534 0
902 1291 1164 -55 -1328 0
-1341 0
1401 484 405 -70 568 871 -273 -1299 767 1328 352 -1068 -1266 495 1156 460 0
845 988 -77 -301 -461 -1328 1236 -736 718 562 513 0
-374 -520 1397 -1267 -656 970 -1067 -136 -936 1044 -148 0
-982 895 -1326 1070 271 -336 1218 -1328 1082 614 -774 -722 0
-527 -1268 274 -58 -776 -101 1039 -534 637 0
-226 -247 -19 858 -170 0
871 484 -125 1328 348 405 767 753 397 0
934 -894 871 1427 -963 1328 -837 767 484 -405 -962 840 193 118 0
360 -465 67 420 -764 -618 -194 1328 -84 -301 -767 -1196 0
-1012 -849 -850 0
-847 -127 -1406 0
484 767 -301 615 1328 -871 -1342 -342 220 -141 -1258 -179 -873 -917 0
-871 1328 141 -438 767 484 220 1272 675 -1258 -1385 0
328 -416 -1193 99 -545 -1328 31 1349 66 877 -144 0
658 202 151 101 -301 410 -776 1324 -534 719 0
325 -1045 457 1042 -206 272 -623 -1033 1012 622 1305 0
-871 -1029 363 1173 484 767 428 -544 -1103 -592 1328 -1410 -1293 277 0
845 461 111 226 1236 -885 -1328 -1073 513 0
-619 633 0
952 767 484 345 -418 402 1328 -871 -268 -387 1257 -501 1296 0
-713 1185 -815 0
-332 -913 298 908 -435 484 767 1367 405 1328 871 729 1403 0
292 785 -1442 0
-420 602 -775 1260 245 0
-750 762 -449 0
-1258 767 1328 -472 1339 484 -141 -871 -1352 220 396 -206 917 -225 0
58 121 -850 -763 1417 0
-359 -807 -1328 -440 483 731 -964 0
-1057 703 -886 -1286 -723 1328 919 879 356 709 -767 0
-767 1259 -186 1328 -185 -828 -1287 0
-348 1200 -78 0
-700 -640 785 0
-385 1116 642 -107 614 -484 1328 -51 -361 649 -1314 767 -1364 442 0
1444 -450 573 -1011 -1024 0
-639 -479 691 0
670 97 -907 0
767 778 484 1328 -1429 1312 871 295 -405 1376 -841 1072 0
476 -484 201 -1430 767 -1323 1328 -1281 0
-1130 -1372 994 484 87 -146 871 1399 767 -1149 550 -1365 1328 1041 -1089 -405 0
1141 -484 1328 -1200 159 -282 767 872 -189 -933 449 347 -117 884 0
-1253 -1161 -207 520 -19 0
516 -1373 15 767 1328 871 484 -405 -1354 112 -411 -740 0
-1364 710 51 47 -361 -1413 899 19 1328 1011 767 -484 0
-1182 -1444 1186 136 0
220 -1115 1148 -871 1258 -384 1328 1036 450 767 -921 484 0
605 -370 -341 1328 -1340 -767 1152 214 0
169 405 -1340 871 903 484 1328 729 -691 767 -298 1315 485 0
-1417 -755 -1062 729 332 484 298 871 69 -73 1328 1434 -1005 767 405 0
145 358 1208 767 405 -231 871 1443 1328 680 523 484 357 0
-398 -490 1112 0
417 801 400 -1058 -1262 259 -1101 0
1328 767 -267 453 484 -277 -871 812 0
269 -530 -1257 1328 1296 952 484 -871 767 772 847 0
824 767 1328 -220 -644 -440 484 152 -871 44 0
-1208 811 523 905 484 145 -975 553 767 405 1328 1443 -818 970 871 -1310 0
372 767 390 -894 587 871 484 -840 -405 1427 1328 -1421 90 739 0
-1181 -877 -1270 -1007 1357 0
845 513 815 1236 718 -1328 -461 -562 -77 988 0
-1059 -1309 767 916 1328 -854 969 -405 871 1347 779 484 875 247 0
-871 1061 484 780 -1319 767 1328 -1374 528 -1355 1402 -37 924 0
1328 -762 347 189 1229 767 -484 0
871 1266 669 1328 -584 484 422 767 -1169 -1228 405 0
-1341 121 0
-232 767 875 -1309 1328 -725 -405 -1239 -969 96 484 916 871 0
-131 1200 -5 0
101 -663 738 -459 170 -534 -776 -658 0
-300 753 405 125 871 484 767 1166 397 -431 1328 0
1214 1328 -103 -767 -542 1350 -723 -1440 -858 -879 -886 0
-333 206 0
-1184 970 405 1366 -1147 965 -311 -732 484 871 161 767 -1306 1328 0
400 -156 1261 259 -1262 -1058 417 0
-786 405 -494 1328 753 433 315 348 484 871 767 -397 0
465 -194 490 -767 956 1328 -805 -13 863 0
917 181 484 -1258 -141 220 767 1339 -1352 -871 472 1328 0
1387 -423 319 -1328 213 1218 271 774 -1235 789 -1326 0
-342 -917 767 1328 -179 -1033 -141 615 484 -1342 -1258 -871 -873 220 0
975 -500 -181 -72 670 0
871 1328 767 484 321 -65 -1382 629 481 -1110 -382 -405 991 -1098 -631 0
-1364 1116 902 -361 1328 -51 442 -107 1314 -484 767 0
-118 1438 656 -850 -1113 0
-693 767 871 -975 1328 -1309 -1043 247 916 484 -1232 -875 -405 -966 0
289 999 0
-338 1111 -496 177 -634 1014 156 -415 0
22 -1105 -1024 0
1226 -6 609 -865 1436 -1159 -1016 -289 0
-751 339 -1007 0
-1076 674 -767 558 1328 1287 -138 401 0
999 655 0
767 1328 -871 -1296 862 -56 484 -1260 570 333 -489 0
-1319 -37 484 528 1328 -1355 274 -888 -1374 767 -871 1061 1402 -924 96 0
-923 484 778 841 871 767 295 -405 1376 -670 1328 -1429 -1359 0
1049 0
188 -834 376 1328 -484 550 -1018 -1097 767 -100 0
1075 -247 -1072 -118 -274 0
866 -1153 0
1193 -852 596 0
713 -370 270 -767 1426 -605 1328 1152 0
-1351 -767 -391 1007 -443 1328 723 0
-871 -34 1002 -1108 260 1328 1297 1408 1134 484 123 -203 767 551 0
-1153 -490 0
-871 203 -1183 1002 484 1297 767 -1335 551 1328 123 1226 0
58 469 -333 79 -96 0
-237 91 1328 -792 767 1249 -484 -464 366 -820 0
-233 -146 871 775 -1149 -759 1328 484 767 1399 1372 -405 -1343 0
-538 -561 767 322 -827 373 1328 817 -484 0
-78 -1253 920 0
-1003 1328 1143 -379 -842 767 -832 637 1430 -484 709 -1028 0
1033 -1058 417 1262 259 225 400 0
-57 292 -178 0
484 -85 1402 767 -528 -1374 105 -871 281 619 1328 0
960 247 484 -27 -405 871 809 1328 1309 -106 -1031 767 0
-879 -723 1000 -543 -886 207 1328 103 -767 0
-852 -991 1185 0
767 -872 -577 1328 -282 -480 347 1300 -484 -162 -1240 643 -189 0
-545 -1391 -900 -526 328 1179 -1328 1349 144 683 0
415 -567 684 1311 0
-975 -405 767 -27 484 960 1328 1309 1031 871 0
1444 -5 -1007 0
-992 235 -1164 -81 -55 -1328 -627 -425 -404 -636 904 0
593 -871 767 -155 1328 143 -1103 1410 484 -1203 277 -544 0
513 116 -440 885 -467 1236 1190 461 845 754 510 -1328 0
1065 484 1328 -1095 871 -552 767 500 946 -474 -739 -405 1427 -840 -894 0
-571 -975 1302 -1428 769 578 1032 122 -129 0
-19 1075 -420 464 1159 0
605 1 1328 -767 -341 -370 -214 1152 700 -1269 635 0
1426 -929 -767 -662 -270 -605 181 1152 1328 -370 0
-1420 424 -267 95 -1237 1393 -1328 -730 -186 974 0
1409 -90 -763 1228 -568 0
-1289 -420 250 0
-875 -1172 871 767 -1043 -1309 966 1328 916 -405 484 0
-834 376 1328 28 188 118 767 1097 -1018 -100 -484 0
-270 -767 -605 929 1328 -662 1152 -630 102 1426 -370 -225 0
484 767 1315 871 -298 729 485 903 -770 169 -1340 1328 405 0
-57 1416 0
944 860 -1150 186 -1161 0
-889 -767 320 370 -1409 1328 1165 0
-103 -879 -767 -542 -1440 1350 -1214 173 1321 450 -886 -723 1328 0
125 300 767 -1200 405 484 1328 753 871 397 0
-1153 0
375 -65 631 871 462 1060 -1203 -21 -405 -382 484 1328 308 767 0
1274 599 871 767 1373 877 -224 484 -787 -677 -405 1328 0
-219 1294 762 0
-682 456 -871 -1020 -788 767 -925 484 -1368 1328 0
366 560 666 590 -792 1328 -1269 767 -237 -484 -1249 0
767 871 -1292 1328 -1373 170 -405 484 432 740 0
-1270 -1211 -87 0
1328 -254 -62 1076 -767 1287 -1261 -1389 0
-400 417 259 -1058 268 0
565 -767 -185 -828 -1287 -977 -1259 1433 1328 0
999 921 0
-957 1328 780 -100 -92 376 767 196 1018 620 -484 0
1328 543 103 -879 521 882 -886 -767 -723 226 450 1000 0
-1113 -1101 0
-892 1231 -219 0
-494 -1303 405 871 171 753 1328 -397 -714 -493 767 -575 786 484 0
412 175 1328 343 -484 844 767 1248 -322 0
767 484 1328 -405 1149 978 1369 871 -146 0
-871 1328 -690 -1177 484 353 -456 767 0
-481 363 498 -405 1328 -631 -65 -1395 629 871 484 767 -264 -522 -382 -1193 0
1049 349 0
871 767 484 1328 -145 -628 523 -126 228 405 970 -1400 -8 0
277 -871 1103 -1220 767 1328 -544 789 484 0
-1408 -847 -1390 1357 1400 0
490 -602 1155 767 -380 484 -871 756 -123 1002 1297 551 1328 -486 0
1328 -314 767 407 -729 871 -1086 405 484 -896 639 -1035 0
-1349 156 -1328 328 1375 0
-1418 999 0
951 -1345 0
1328 784 -535 1277 -1224 -918 -767 -598 941 643 -1081 -227 0
809 614 -1172 247 -975 -1282 0
-765 -322 -175 1379 -399 518 -1438 -484 597 1213 1328 96 -906 767 0
259 -1226 30 -400 417 -1058 0
-539 -798 871 180 767 1322 568 405 1328 275 484 -753 0
-713 1294 186 135 -1150 0
1432 216 1328 -484 361 767 517 514 0
926 393 1409 0
145 -520 871 -222 523 1313 727 818 -1208 405 -757 767 1443 1328 484 0
-865 -602 -59 529 667 1146 6 -973 226 -866 0
523 145 767 -1443 -1127 871 405 1328 484 -1281 0
1255 -849 -356 0
1185 1417 -639 0
250 -733 1294 0
1132 -245 -296 -1328 -773 -589 500 -1236 513 0
668 -767 1178 194 68 746 200 1408 1328 0
97 567 1235 0
-495 405 1328 767 1418 -1266 484 893 871 -887 0
-1007 -1406 339 0
1155 551 -602 -486 -871 484 -380 -480 1297 756 1002 767 -123 1328 0
-1408 -420 -479 0
-1308 1408 -767 1316 -624 -465 -310 82 1328 -1196 420 -67 -194 0
1438 -719 921 1409 435 0
-420 -490 596 0
58 -643 349 0
-805 -194 1328 -13 1408 -767 465 -863 1226 956 0
484 377 405 1366 1328 86 -508 871 -1147 767 1306 -1414 -292 0
-96 -1101 -1406 0
-1016 1436 -6 -1159 -865 -1264 609 -289 0
-1087 -299 -1328 -796 1212 -1218 487 -337 0
-763 -1166 691 1303 -1390 0
405 145 1443 1313 818 727 767 222 523 -1208 -757 1166 637 484 871 1328 0
282 -189 767 1328 -1197 -471 347 -331 -484 0
1438 -181 920 -1418 -1024 0
1025 -454 1323 1328 -1430 767 -484 201 476 0
484 -1399 -146 -405 747 767 871 -1149 -947 1298 1328 0
-631 -1303 -65 484 871 1328 498 -405 629 -1395 767 -481 -264 -522 -382 -1193 0
-1418 -614 -1270 801 -991 0
-1387 1218 774 271 -1328 -1326 487 0
485 -1340 729 871 1328 169 1315 405 -298 903 767 484 0
-956 1226 -13 -194 -805 -767 1328 465 0
457 363 -623 272 1042 -1045 622 1305 325 -1033 333 0
-302 709 1349 545 328 1195 -167 -1328 -582 -46 0
780 627 -81 1361 -1328 -55 -404 -1164 -1205 927 0
366 1328 820 -237 -792 767 1249 -920 -484 0
866 464 -403 0
708 -1094 -1309 -405 871 1328 484 823 -916 -1371 420 767 0
-917 1328 -1301 643 532 -141 -871 767 484 -1258 -615 220 0
1261 999 0
-849 46 -1011 0
141 -871 220 1328 675 -1258 438 484 767 0
-664 405 495 -426 460 1328 -352 871 767 -1266 -1068 1140 484 -246 0
239 -1096 1430 335 -711 -859 -1400 1328 -832 -484 767 1028 1334 0
-1410 -544 991 632 277 1060 -1103 505 848 -1325 592 -871 767 484 1328 0
-67 -1303 420 110 1328 249 -50 1308 455 -1196 -767 -465 -194 0
121 135 -413 0
1225 1328 -100 499 767 834 376 1437 -46 907 -1018 -1064 -484 0
1376 871 295 780 484 767 470 -841 -405 778 -1312 1117 1328 -1429 0
-65 484 321 991 -1098 871 719 481 -405 1328 -1110 629 -631 -1382 -382 767 0
-398 -1012 1264 -733 -1161 0
671 706 -767 -331 758 979 -673 1328 0
194 -746 -767 668 1390 1328 0
-296 -1236 -589 -245 1132 -773 513 -1328 0
-449 1040 1409 1075 -1007 0
-875 -693 1328 484 -1043 916 -975 767 871 -966 -1232 -405 -1309 0
-810 -851 338 -415 1233 177 514 0
-2 570 862 484 -871 -56 1328 -489 -1296 767 1178 0
-405 484 -1309 708 1094 -916 1328 -1172 871 767 0
146 1328 484 -11 853 -1202 767 -405 775 871 0
-759 1372 1343 1399 871 767 1270 -146 -1149 -579 -405 1328 484 -233 0
1181 -1328 1326 -572 1218 271 71 0
-224 871 767 -677 -599 -405 348 1373 484 1328 0
-847 -207 1357 -1289 -168 0
-420 -398 -751 0
-1211 -181 -280 0
-273 -243 -722 713 87 649 0
632 592 -1410 -871 -1103 1060 767 -544 -1325 848 484 1328 809 505 277 0
672 517 767 1433 -484 649 -1432 361 216 1328 0
1328 551 1002 -1108 34 1408 -871 1297 484 767 -203 123 0
1328 391 356 -767 446 -443 450 723 -1351 0
970 807 -1328 1180 -164 -1189 -1119 -802 63 -452 0
146 -853 767 484 871 -405 487 1328 0
-301 988 718 562 -77 852 513 1236 -1328 845 -461 0
871 767 -786 -537 1199 753 1122 -397 657 1328 -433 405 484 131 -494 -427 0
-991 1234 0
-1175 1144 586 -671 -1246 -436 1328 445 394 1161 -767 758 0
219 0
709 201 767 1025 -1430 1328 476 -484 -454 1323 0
1328 -723 -103 -886 173 1350 542 -1440 -767 -879 0
-1011 250 46 0
860 -502 250 0
-405 -522 -631 -65 1328 629 767 484 -498 871 -481 -1395 -264 -1265 -382 0
1297 -871 1328 1002 484 551 1226 486 1155 767 -123 0
737 -750 0
417 1262 30 -1058 400 259 926 0
405 -965 -311 -1147 -149 871 1328 484 1366 767 87 -1306 0
-1307 871 767 329 -381 -36 405 1077 1254 -559 1328 971 678 484 -206 0
1296 -1303 127 -835 1257 1109 659 -716 501 952 1093 484 -871 767 1328 0
-1429 767 -1359 295 1376 -1269 778 -923 841 -405 484 871 1328 0
1159 1185 1264 0
484 1328 -1427 794 -405 72 -894 767 871 0
1444 425 -800 0
114 1298 19 -1149 330 767 484 1328 -405 -1399 947 -146 871 550 0
-906 -1131 1379 597 -1213 767 -484 -399 1328 -322 518 -175 -765 0
1328 767 -484 733 -697 -347 -547 -25 -252 0
999 1172 0
-1426 -263 -273 1328 -767 -316 -605 -370 1152 0
-207 1159 1075 -398 798 0
-403 -907 -780 0
-619 573 -1406 0
231 1185 -637 0
-1328 600 -267 -576 -424 -870 -799 -79 0
1357 975 -510 798 656 0
142 -1024 -87 -96 920 0
-800 206 921 0
1025 970 -655 -1400 60 -520 0
-737 770 -450 0
405 871 -1306 -1147 -311 484 1366 1328 1065 -965 149 -278 767 0
-1172 578 -720 -831 -935 -1302 -1200 500 0
484 767 -1029 -1173 -592 -544 1328 428 363 -871 -1410 -1103 277 0
400 259 417 -1058 1262 -490 1417 0
991 -563 450 700 247 877 0
250 -1007 745 0
-219 694 -170 0
917 220 484 -871 -1258 -141 767 1328 -602 1352 1339 0
871 1328 669 1266 422 -584 484 353 767 405 -1169 0
110 1308 1328 -50 207 1408 -465 -194 -1196 -767 455 -67 249 0
809 104 -397 405 -315 753 433 -313 767 985 -694 484 1328 -786 871 -494 0
1054 -691 -1426 316 1346 -190 -605 1152 1107 -767 1328 -370 0
-1331 484 -245 767 1328 -788 1020 -682 -871 456 -925 0
376 -100 1328 499 767 834 127 1437 -1225 -484 -1018 -1064 0
-182 381 405 871 484 767 675 -1320 -1356 1328 0
871 -1051 1366 767 991 -1147 719 -1118 -1306 1328 405 484 881 311 197 0
573 -1058 -259 417 46 0
400 30 417 289 -1262 -1058 259 0
1200 440 -789 -368 -127 0
892 -177 -938 -415 819 0
-137 -616 -1164 -130 -81 -1328 1024 404 -55 0
277 767 1328 484 -143 1410 -1103 593 -1193 1324 -544 1227 -155 -871 0
-888 -37 -1374 -924 1402 767 96 1061 1328 -871 528 484 -1355 -1319 -1438 0
767 405 460 -246 -1068 1140 -352 850 -1266 1121 495 871 484 1328 426 0
-1281 -484 -891 -573 -792 -1404 1328 767 366 1210 237 -793 0
-142 -325 524 1305 1042 993 0
975 -403 1282 0
565 187 -1287 -1259 1328 1433 -828 -185 -767 0
-175 -1282 1328 -765 -1303 597 1213 1379 -322 518 767 -399 -484 -906 0
-1011 -1253 -907 121 602 0
-902 607 -219 0
807 1010 -1328 -164 -1180 -1189 318 181 -74 0
101 -658 -534 738 1324 -694 -459 1274 184 663 -776 0
-368 440 1318 567 121 0
709 484 277 -871 548 1220 767 1103 290 -544 -1193 -652 1328 0
394 1328 -1144 -1175 758 -18 -121 39 -767 -671 -364 0
-480 1328 812 -871 -277 484 767 453 0
-1128 -767 1328 -267 -692 -1076 1287 -674 958 0
-1255 1328 -495 767 -273 -327 893 484 -1266 405 887 -897 871 0
391 500 -443 -767 -446 1328 723 -1351 0
425 292 691 1439 655 0
-470 1328 778 767 -841 -975 -46 -405 -1312 871 1117 295 -1429 -209 484 1376 0
1328 -827 -484 322 561 767 -1318 0
-1169 669 -584 484 871 1328 187 405 1266 1433 767 -422 0
331 -1406 1294 0
1264 -398 1294 -1161 -850 0
-1408 1234 0
1195 545 -1328 -167 582 328 -573 1349 0
-1253 -181 469 135 691 0
-1181 2 -168 -1418 1294 0
-723 1328 995 -665 886 356 450 -134 466 -767 0
-400 -1345 -1058 417 259 -502 0
-737 -991 480 0
-77 1236 513 562 -461 718 -1328 845 988 815 0
608 -814 1163 -1149 1328 492 612 1399 871 -405 -146 484 -1372 1365 767 0
153 696 -440 -513 -255 -1328 132 -1368 0
-1312 -46 -209 778 -1429 767 484 -405 -841 1117 -470 1328 295 1376 871 0
999 -546 0
596 1075 630 0
767 277 -544 -871 -592 -1103 1328 -428 484 789 -1410 0
-1166 -127 -1390 -1408 480 0
328 1391 -914 144 1349 1433 -1328 -545 0
1112 292 -719 0
655 -970 -737 0
911 -1438 597 -484 1328 -175 -1201 -317 -518 -1207 -322 767 -1170 0
484 1184 1442 -1306 965 871 -732 767 1328 -1147 161 1366 405 -1348 -311 0
-1328 1072 1082 -774 -982 895 271 336 -1326 1218 0
1096 1028 637 -484 335 239 1334 247 -859 767 1328 -832 1430 -711 0
-747 -912 -178 0
1380 -858 -236 1428 1302 578 0
-1253 -15 -737 0
1255 1282 -932 -546 -1065 0
-767 487 1328 185 -1287 0
-767 -1013 -465 351 1196 -744 843 490 1328 -194 0
892 -1136 -1083 424 1237 -1328 1278 -383 0
767 -1372 -1149 -146 -1365 877 484 -1041 871 -405 1328 994 1399 -1130 0
-807 483 -964 -1328 -359 -2 731 0
-1328 1164 -55 1291 -745 0
1181 -1363 55 -1328 0
1328 484 1390 551 1002 123 767 -203 -871 1297 1108 0
1012 -782 871 484 1023 643 1328 -334 -381 64 767 405 36 0
505 277 809 484 632 1328 592 -1103 -544 -1410 848 -694 -1325 -871 767 0
-1214 -723 -886 -542 -1321 1328 -767 500 1350 -1440 -103 -879 0
-98 -655 767 306 -1006 832 -484 574 1328 1430 0
1328 -438 610 1272 767 675 -871 1385 484 141 220 -1258 -225 0
875 -1309 484 871 -405 -779 767 -33 1250 1328 969 916 -1172 0
79 -1049 -581 0
-420 858 -850 1264 -1065 0
-630 405 -650 484 871 170 1328 -346 767 -506 332 729 298 223 1434 1062 0
-487 0
1328 145 293 1127 405 523 767 -1443 484 912 871 0
1328 1076 -1389 254 -767 -1261 1287 0
-1090 -1058 259 417 -400 -1226 0
-753 1328 275 -180 871 405 767 484 -1200 0
656 -780 785 0
-891 1328 -792 619 237 -484 366 767 1404 1210 0
-207 1409 1203 -1090 -363 0
-459 1274 -1303 738 -694 101 -776 -534 184 -658 663 0
1289 1287 -254 -767 -1389 62 1328 1076 17 0
-671 -394 912 758 1328 -767 3 421 0
656 -479 -687 0
-137 -1009 -1328 404 -81 1007 -55 -1164 616 1024 -130 0
517 -1432 216 361 -672 767 -484 1328 1024 0
484 -963 1427 840 -405 871 767 193 -962 -894 1065 118 -837 1328 0
-767 -828 717 1328 -565 -185 -1259 -1287 0
121 2 -15 -733 -934 0
-417 -502 1439 -1058 0
417 1357 259 -1058 -400 -1424 0
-322 -518 -1207 1201 -484 -317 767 -175 1328 -268 597 911 0
730 717 -1337 556 -1237 -554 424 1244 -540 -1328 0
-397 685 871 767 484 -1438 653 405 1252 494 753 1328 569 0
-534 658 202 719 -776 410 151 -1303 101 -301 0
767 1053 1430 -484 335 -832 -286 1028 859 256 1328 970 0
1072 -920 1025 373 -745 733 0
968 614 -578 -150 789 348 477 0
922 841 -405 1376 -923 484 -1429 1166 871 295 767 778 1328 700 -215 1359 0
301 -1153 0
-2 484 -1138 949 495 1068 767 -1266 871 1328 405 460 0
596 206 -1012 0
-643 999 0
-1058 1193 -417 -420 0
148 -136 1044 326 -339 0
135 860 1409 -763 -581 0
514 -1443 484 767 871 145 1328 523 -1127 405 0
-1179 -178 -1433 0
987 440 -1211 0
-1202 1328 353 853 -405 146 484 767 871 11 -218 0
-1065 1255 -420 1264 -675 0
1328 494 -397 1252 484 767 871 -563 569 753 685 -653 405 -46 0
858 -1406 -356 0
-709 920 -649 520 245 0
-975 640 1179 -1203 -858 1166 0
633 186 0
694 -1274 -479 0
-247 -737 1172 0
-832 1328 -484 19 1028 898 1430 -335 767 0
-484 1328 1253 366 959 767 -688 -1219 369 792 0
-719 1438 -1418 -850 -581 0
767 -670 376 -726 234 -484 1328 80 100 1085 0
-55 904 -81 -339 -404 235 -1164 -627 -1328 992 0
753 -694 1328 433 871 405 767 -494 -315 -313 -786 -563 -397 484 985 104 0
-1305 -987 -440 -736 221 1405 -262 0
-1340 -918 -1277 -864 915 12 1328 910 -767 -227 0
871 431 -504 170 405 -300 753 397 125 1328 767 484 0
-537 -427 484 657 405 1328 -397 -494 1199 1274 871 767 -786 131 -433 753 0
-668 1328 1289 194 -767 0
1335 1328 767 203 -871 420 -1441 -1172 551 484 1297 -1038 1002 123 -1183 0
1 -630 -370 635 1152 -214 -341 -29 605 -767 1328 0
1328 484 1402 1061 767 -37 -1355 -1319 -1374 -871 -1438 -888 528 -924 274 0
-1065 -1253 135 469 -96 0
767 1002 -866 829 -551 484 -583 -871 1198 -266 1328 0
-1356 182 767 871 1223 1328 381 -1033 484 1012 -1320 405 0
-767 -194 -1196 -465 1308 50 -67 1328 907 455 110 0
220 -917 484 -1301 -141 -871 1012 767 532 -1258 -615 1328 0
256 767 970 1328 -484 335 1430 859 -1053 1028 -832 0
1007 1363 1105 437 55 752 -698 -1328 0
1152 1426 -1075 1328 -270 -605 -370 -767 -102 929 -662 0
-1090 -1345 -90 -1012 602 0
119 1366 484 763 -212 -939 405 767 1328 1147 1280 871 0
-350 -925 -88 484 -163 -871 -682 456 788 1328 767 72 0
-484 1430 832 -98 637 767 -1006 306 1328 -655 574 0
1328 -146 767 484 -405 871 1149 108 1037 1275 -978 -314 0
345 -418 952 -501 1328 484 767 -871 -387 1257 402 -268 1296 0
-871 1328 127 767 -835 1093 484 1257 1296 501 659 952 -716 1109 0
840 -894 767 -837 484 -405 -963 -858 1328 962 1427 871 0
921 -78 -850 0
1002 551 1328 -871 -1200 123 1408 1297 1134 -203 767 -1108 260 -34 484 0
767 574 -1006 306 -655 1328 832 1430 -484 450 -98 0
-506 405 1328 -630 767 -650 332 1062 729 484 1434 298 871 346 0
-121 -1187 -671 394 -364 758 -1175 1328 -1144 -39 -18 -767 0
558 1179 932 -339 1181 581 0
958 -1076 1287 -767 1377 -674 1128 1328 712 -1092 195 715 348 0
607 -558 567 -226 -168 0
-767 -1231 -401 340 -243 -1076 1328 -41 1287 -138 674 0
-1196 -465 -67 1328 398 1316 82 -1308 -767 -194 624 0
131 601 1347 871 1059 1328 767 -1309 969 247 779 875 484 -405 -854 916 0
1204 -865 -458 45 661 59 -121 6 1146 0
-792 767 38 1249 -820 -484 1101 1328 366 -237 -91 0
-837 871 -963 1328 484 193 -962 767 173 -405 -858 1427 840 -894 0
1357 -333 -568 469 58 0
159 -484 1328 449 -189 884 -282 117 1141 767 -933 872 347 0
1328 68 746 194 1408 668 200 1390 -767 0
1255 -450 23 0
-102 -767 929 -1417 -662 -270 -370 1152 1426 -605 1328 0
-241 1328 551 790 1002 -871 -1297 484 816 767 531 -142 0
-933 1141 872 767 449 347 -282 -884 -484 -189 1328 0
1328 767 -1193 -397 753 484 171 493 -575 786 871 405 -494 -714 -563 0
1311 -684 415 -1431 1105 0
268 1260 22 0
-443 72 1328 -1351 391 723 -767 -446 0
277 1328 -1193 -544 848 767 -1410 -1325 -1103 505 632 592 -871 -694 484 0
596 736 987 0
1002 484 551 -486 1297 767 -123 1155 -1357 1328 380 -871 0
484 767 -405 725 916 809 -232 871 875 -1239 1088 -969 247 1328 -1309 0
767 405 485 -1340 -770 484 871 1328 169 -298 903 1315 729 0
767 484 1320 850 381 405 871 1328 0
-443 612 -767 446 391 -1351 723 1328 72 0
394 436 -762 1144 -1175 -671 758 586 -767 1328 0
596 -226 -173 0
90 -405 -1429 -841 1376 1328 295 778 -1312 767 871 484 -1117 0
1277 566 -767 -760 -227 1328 -30 -941 0
466 -665 356 886 -767 995 450 1328 -134 -723 0
77 845 988 718 513 1236 -1328 -461 932 0
999 -763 0
170 -227 -918 941 1277 -32 1412 -784 1328 408 -1206 -767 1157 0
250 -1105 607 0
1112 1265 801 0
1079 597 -1030 -1379 -484 -322 -206 1419 518 509 767 1328 -175 0
1228 -1418 -800 0
767 1178 1328 -561 -538 -827 817 322 -1170 -484 0
801 -747 -1090 -991 -207 0
-145 126 -1040 228 523 767 484 1328 871 405 0
767 189 1424 347 1328 1256 -1229 -484 0
-830 1296 -871 1423 484 1090 -1015 1160 767 -952 1328 0
-510 1200 97 0
-751 860 664 0
1287 -767 -1076 806 1328 -674 1362 -419 1336 -1318 -958 0
-46 877 -302 545 -167 1349 328 -582 -1328 1195 0
-719 -932 798 1200 -1012 0
255 -1235 -513 -1328 0
1328 -67 207 -194 455 -249 1308 -1196 -50 -767 110 -465 0
953 -1289 -490 0
975 -877 -1072 -156 520 0
605 -341 -767 -370 15 1152 -214 1328 -635 0
758 -617 1328 1175 -767 394 368 -671 0
1424 706 1328 -767 671 979 -174 -1294 673 758 0
785 -60 -970 0
1255 858 -178 0
19 767 -201 -1430 1328 -484 0
633 1269 0
1379 767 -322 906 -484 597 -175 1328 226 518 -399 0
231 -637 -1211 0
-1058 -417 29 1159 0
-150 -477 1179 -578 968 0
-1018 767 -100 -188 -484 980 376 1011 1328 -834 0
374 -248 907 1044 -355 181 -148 -136 -238 280 0
-568 135 -733 -934 -15 0
-90 1318 656 -1011 1172 0
-65 -405 871 484 363 767 462 631 -382 1328 -21 375 308 1060 0
1328 -871 487 484 1177 -456 767 0
1328 -200 746 -987 668 68 194 -767 0
-558 633 0
88 1080 -682 -133 484 -440 -444 788 767 456 -871 1328 348 253 -925 0
-700 -789 520 573 -934 0
612 789 968 348 477 -578 -150 0
135 -15 1294 798 -934 0
-1090 1260 393 0
-40 871 -1162 1215 1145 -112 131 484 -405 -1373 1274 -191 -839 1328 767 -740 0
369 -1219 1328 792 -484 -858 366 959 -435 -688 767 0
-675 -156 1282 -877 606 0
-484 347 872 -282 -1194 1328 -937 933 -189 767 1424 0
-1166 -170 -363 469 1282 0
1203 1357 1170 -348 -127 0
-825 1328 -1243 767 -1008 -1444 -871 484 -1002 0
57 405 -648 -1100 871 484 -1366 1328 767 1191 0
484 1328 -1313 818 145 767 523 405 -1208 871 -757 1443 637 0
934 -227 768 -760 -1133 -566 1277 -1040 -941 1328 -767 0
-842 767 -832 -1281 -1028 1328 1430 1143 -484 1003 0
-265 96 158 767 1328 181 861 -871 128 -1402 484 0
-118 -750 -700 0
1199 405 -786 -427 1328 484 -397 -433 -537 753 510 -494 871 -657 767 0
546 1277 -227 -784 -32 941 1412 1206 -767 1157 408 1328 0
-870 1396 -424 600 -799 -1328 -576 -314 0
-127 -789 -700 -932 245 0
30 -417 -1058 0
1075 607 -15 1444 -19 0
1218 -271 -1304 -567 -1328 -942 371 115 0
977 23 -1377 0
88 -871 456 767 -682 484 1328 850 -925 -444 253 788 133 1080 0
-675 267 243 1235 -948 0
331 -1253 0
-1433 23 -877 0
-339 594 686 1164 -1291 -55 -1328 0
-568 292 -1025 -907 -1418 0
-619 1058 339 0
767 -86 -1147 1306 1328 -1414 484 871 405 1366 763 0
-1031 767 1309 -106 -27 1328 614 484 871 -405 612 960 0
-6 -865 1150 -1436 0
1409 691 -849 0
-1326 423 -1328 271 319 774 1218 373 1387 0
691 435 1264 606 -1408 0
1328 1248 412 175 -322 -484 767 -1357 844 0
-711 -1400 1328 335 767 1430 -239 -484 1028 -832 -859 0
544 484 277 998 154 767 -871 940 546 1328 -954 0
-134 -665 1328 500 -767 886 -723 995 -466 0
-1318 1328 871 767 -405 791 484 65 -641 0
484 -405 1298 -1149 767 -1399 947 871 775 1328 -114 -146 0
-174 1424 758 979 706 449 673 1328 -767 671 0
630 435 -751 0
767 1328 1028 -1400 335 1096 1274 -484 1430 239 -859 -711 1334 -832 0
-1147 1366 -1241 149 719 -965 871 -311 484 -1306 488 767 278 1328 405 0
1318 -368 567 736 -1161 0
347 912 -189 1328 1197 767 -484 1168 282 -471 0
767 -1376 996 1415 -858 -656 -26 871 778 484 139 1328 -405 0
-1253 -5 573 0
-1159 871 740 484 -1292 1328 432 -1373 -405 767 0
602 -90 1172 -1072 -1279 0
-1147 1366 871 311 1328 -1306 -602 197 484 767 405 1118 0
349 801 -546 0
-96 -373 250 0
-1416 1328 312 484 871 405 767 877 1191 1100 -648 -1366 0
460 484 1068 -251 871 1138 1328 495 -2 405 767 949 -1266 0
-1326 1218 -1328 1387 1390 -319 774 271 0
-1072 1329 656 0
187 -164 1022 807 -1328 1189 0
722 1234 0
484 871 -381 -36 -1142 -1131 -1077 1328 -1242 767 405 -1422 -721 0
-365 778 1429 1328 1376 767 -405 878 343 -838 -868 871 484 0
-72 400 259 -1396 417 -1262 -1058 0
-43 -776 459 101 637 -658 -534 -475 -1222 0
-1025 292 79 944 860 0
-400 -619 259 -1101 417 -1058 0
156 -405 -146 1328 1372 -233 -1149 759 1399 484 767 871 0
1328 -1028 767 709 1143 -1003 -832 1430 637 -379 -484 -842 0
503 -268 855 501 767 -1109 484 1276 -871 1296 -1102 952 1257 1328 0
-815 -368 1112 0
-1149 484 1399 871 994 -1372 767 57 -1130 877 -1365 -405 1328 -1089 1041 -146 0
-948 -127 -450 -789 -368 0
-1442 -1122 -479 0
-168 1444 -750 0
85 -871 1328 434 105 -528 767 484 1402 343 281 -1374 0
-1172 708 -1094 1328 484 809 -1309 -823 871 -1371 -916 -405 767 0
237 1210 767 -1404 640 1328 -793 -484 366 -792 619 -891 0
-170 58 -373 -333 1438 0
991 1366 881 197 767 -1306 405 1328 484 1442 -1147 311 -1118 -1051 871 0
-948 -1226 1058 0
1236 240 -1328 -846 513 -482 -987 -845 -386 0
-227 1277 760 -1040 -941 1328 -767 0
-1119 -1328 807 1180 -164 -802 -1189 -63 -273 0
-675 -1122 -643 -510 1255 0
-127 1265 0
-874 1328 -798 -740 767 -112 -405 871 839 484 -1373 0
-1166 1303 860 245 -57 0
-58 -381 -1077 767 871 -721 1328 -1142 -1422 -36 484 -1242 405 0
761 274 -1249 -484 1247 -237 1328 767 541 -1392 366 -573 -792 -590 0
314 349 -1179 0
-979 -1040 -767 758 1328 671 706 0
-331 -189 1328 1197 -1168 767 -484 -803 347 282 934 -471 0
-530 767 847 952 -871 772 1328 -269 -307 1296 484 -1257 0
1203 -789 -178 0
366 767 1219 369 1253 -688 -484 1328 959 792 0
-1072 975 314 -1270 -449 0
118 767 726 1085 1328 376 100 -484 0
-1432 1328 -745 767 361 517 -484 672 216 0
678 1328 971 1077 329 871 484 767 -36 1324 559 -381 405 0
-1214 -723 1350 1328 -886 173 -542 -103 -1440 -767 -879 1321 0
1318 -700 186 314 796 0
-1390 -1065 1172 -274 -510 0
141 -871 1328 -1258 220 767 484 643 -1272 -438 0
-1399 1369 871 767 1328 -1298 -1149 484 -146 -405 0
-767 -1264 -194 1328 13 465 -805 0
-764 -767 -1196 -194 618 -866 1328 360 -465 67 0
-489 56 -871 1328 -1260 862 767 570 484 -1296 0
854 767 871 916 484 969 875 1328 247 -405 -1309 779 0
-907 -789 975 -168 -546 0
-612 250 -1433 0
-788 484 1328 395 -682 1331 1020 456 -925 1284 -626 -871 767 713 0
-766 -415 502 496 177 -338 1014 0
953 -1178 -1433 0
-614 -1058 417 -1369 -1262 400 259 0
970 -148 -374 181 -1267 1044 -656 1397 -1067 -936 -136 0
-1149 1130 1399 -1365 767 -146 871 -1372 484 -405 1328 502 0
1349 1178 416 -545 31 -144 -1328 99 328 66 0
927 -1164 -81 -1361 -1328 -55 -607 -404 627 0
480 -1166 -1025 -1122 231 0
682 -925 611 767 -871 -1055 749 1328 456 932 484 1290 0
-157 144 328 1349 -967 -545 -1328 877 1391 689 914 87 0
-69 1328 332 -73 298 -1005 1434 871 -755 -1200 405 729 763 -1062 484 767 0
-907 691 -449 1439 1040 0
1112 858 -500 0
1328 -682 713 -133 1284 484 1080 788 456 -925 88 -444 767 253 -871 0
1125 871 -631 -1435 -288 981 767 -382 -405 -629 -65 852 1328 484 0
-33 871 -1309 -304 916 875 -405 969 247 -779 484 389 1328 809 767 -1250 0
767 381 871 1320 405 1328 484 1345 0
-370 316 -605 -767 -691 1054 1346 -1426 1107 190 1152 1328 0
767 1300 1328 -282 -944 -189 577 -872 -1240 347 -484 -162 0
1328 -767 1133 -760 1277 -566 -227 -941 -1040 0
-361 1328 -385 -51 442 -1314 -107 -1364 -484 767 1007 1116 -607 642 0
-1265 593 -871 -544 277 1410 991 -155 1328 484 -143 1227 767 -1103 0
-118 -775 -614 656 -717 0
807 -1048 164 909 638 -1328 305 1418 -29 0
-407 405 -1086 -729 -1269 1328 484 -896 871 767 0
-544 767 1328 848 484 277 592 -1103 -871 -1410 173 -505 0
328 -545 -144 207 31 1349 -99 -1328 0
1082 -774 -1328 895 -606 -336 271 -982 -1326 1218 -1070 0
-405 -146 -759 484 -1149 871 1178 -233 1372 1399 579 1328 1343 767 0
767 991 1227 277 -155 -1193 1328 -143 1410 -544 -1103 484 593 -871 0
218 484 767 871 146 1433 1328 -405 853 11 -1202 0
-717 -892 97 0
-729 484 407 -1439 405 1328 -1086 871 1035 767 -896 0
484 -36 405 871 678 -381 1077 -329 1066 1328 676 -921 767 0
-649 23 -1105 0
243 -907 1040 267 -733 0
-250 -849 0
1376 1117 -975 -209 778 -656 484 -405 871 -841 1328 295 -470 -1312 767 -1429 0
871 -1208 484 523 -818 905 -1310 767 -801 1443 405 145 1328 -811 553 0
767 -1086 484 871 -729 -407 1328 -896 -1444 405 0
-1400 523 357 1328 -58 484 680 871 1443 -441 767 1208 -358 405 145 0
767 1402 -528 105 -871 1328 85 281 640 484 -1281 -434 -1374 0
-1328 885 116 513 1190 845 461 719 1236 754 510 -467 0
-871 105 767 912 1328 -281 484 1402 -1374 -528 0
712 1128 958 -715 1287 195 -1092 -767 -1076 1328 -674 1377 0
-1090 -333 -750 0
250 -187 -568 0
-767 110 1308 -194 -455 -67 226 1328 -465 -1196 0
1305 -1353 414 -1042 -836 0
513 773 353 -1236 -1328 0
-65 -481 -631 767 484 1328 -801 629 871 264 -405 -1395 -522 -382 0
-72 -1065 1329 0
-912 135 -403 0
1077 -971 405 871 678 -36 1328 329 -381 767 484 850 0
-400 259 -131 -1324 -1058 417 0
975 656 -170 -510 -373 0
-1060 250 606 0
-760 -1133 1328 768 -941 934 -566 -227 118 -767 1277 0
87 -656 363 1065 247 1274 0
238 1044 374 -944 -248 -136 -148 0
-307 952 847 1296 484 767 -530 1328 -1257 -871 333 -269 772 0
-564 -970 -60 0
-907 920 607 -713 -118 0
-356 1058 267 0
-849 1438 469 0
1203 -333 606 79 -1324 0
-22 0
-5 46 -118 0
-1426 1328 -263 1152 -605 -370 -767 -316 -1439 0
6 747 -1146 -865 983 0
235 -992 1166 -55 649 -1164 -627 -81 -1328 -404 636 904 0
583 -871 1002 1328 -551 -266 414 767 484 1198 0
484 -1215 -1154 767 -740 -405 16 871 -1373 -478 1328 -1303 -880 -839 -112 0
-1328 -1326 774 -1235 1218 -423 213 319 271 1387 0
633 464 0
-78 655 -1025 0
767 -197 405 1328 311 484 871 1366 -1147 -1306 719 0
-675 633 0
767 -237 -484 1113 1249 38 -792 1328 366 -91 -820 0
-791 767 -425 -641 65 1091 484 871 1328 -405 0
-1202 871 1433 484 767 218 853 1328 187 146 11 -405 0
-839 -563 -740 -405 1328 -1154 -1215 -880 -478 871 16 -1373 -112 767 484 0
1328 832 -1159 -484 1006 767 1430 574 0
-420 602 944 -1025 1040 0
176 1061 -292 96 1402 429 734 484 -1106 -1374 -871 528 1355 1328 767 0
1287 -401 1328 -138 -340 -767 674 -1076 -41 717 0
547 -484 -252 1328 -347 733 767 0
-1427 871 484 -1317 -794 -604 -894 1328 -621 226 -405 767 0
415 1311 -684 -1431 1181 0
767 -791 -801 -405 871 1328 -641 1091 484 65 0
-164 -1333 172 -656 -1328 1180 802 -1189 807 1019 0
1328 405 767 -2 484 495 -1266 871 460 1068 -949 0
-1002 -825 1289 -1243 -871 -1327 -79 767 1008 1328 484 0
-886 1214 -767 -1440 -103 -542 -723 1328 173 1350 -879 0
596 1235 796 0
970 -936 1044 1397 -1267 -1400 -136 -148 -1067 -374 -520 0
1308 -67 -767 -465 -110 -194 1328 -1196 1270 0
-1090 -333 -737 0
187 -802 807 -1328 -1189 1119 1180 -164 0
767 1328 -367 -142 -484 595 -597 -175 -322 0
1328 767 -484 -322 -1357 175 -844 0
1234 0
789 484 767 65 791 -641 1328 871 -405 0
-1270 596 -550 0
1303 -274 -403 0
930 528 1328 -871 484 -1061 368 1402 -1374 767 0
-381 1324 678 767 1328 405 -1307 871 1254 -559 -36 971 484 1077 329 0
-573 1044 -1358 -326 -1063 148 15 -136 1113 0
754 719 -1328 461 1190 885 116 1236 -467 713 513 845 0
35 -983 -1146 1245 -865 912 6 0
-845 846 1236 240 -440 -386 -482 -1328 513 -736 0
-1186 136 -745 0
-1279 -709 670 -15 1439 0
1082 895 271 -982 -1328 336 1181 -774 1218 -1326 0
-767 1328 706 979 671 174 673 398 758 0
1235 -775 314 1170 736 0
-1442 -719 1185 0
-746 -1318 668 194 -767 1328 0
-739 -840 484 946 500 871 -894 767 -474 -405 1427 -1095 1328 552 0
122 1302 614 -769 578 -571 -1428 0
-1373 -555 -1354 637 767 112 1328 -516 -740 -411 871 484 -405 -694 0
-1103 484 -544 -1265 1328 1410 -593 -871 767 277 0
-645 -361 107 1394 1328 -51 -425 767 -1364 229 -484 208 0
-1303 767 678 1077 -36 484 -1307 -1282 1328 971 871 -381 -559 329 405 -1254 0
1328 350 -736 788 484 -682 1001 456 -163 -925 -871 -88 767 -1344 0
-259 -1058 417 -1226 142 0
425 -1153 0
-871 1198 1002 484 1328 266 1226 767 -551 0
186 -709 1318 722 79 0
169 729 1315 871 485 903 405 639 -770 -298 484 1328 767 0
-1328 -328 1369 1370 0
-69 1434 484 298 -29 -691 1328 729 405 -1005 332 -73 871 -1062 -755 767 0
-1189 -1386 172 1180 -860 568 -164 1019 1333 807 -1328 802 0
22 944 -733 0
-1166 -902 -614 1303 -87 0
-331 -189 -484 1197 -803 347 -1168 1328 767 -471 282 0
1348 1328 871 1122 484 405 -311 965 1442 767 -1147 -732 -1306 1184 161 1366 0
23 -1442 -57 0
1329 225 -1345 0
-58 1242 871 1328 -36 484 -1077 -1422 1279 -381 -1142 405 767 -721 0
-815 -1153 0
655 1417 292 -1007 1439 0
1231 -1406 186 0
606 -675 -709 655 -719 0
947 -405 484 114 871 -1149 -330 1179 1328 1298 -1399 767 -146 0
-40 871 484 -1373 -1162 -839 1328 1215 -112 767 -740 -1145 -405 131 0
1328 356 -443 568 446 -767 723 -1351 391 0
1030 -175 -322 1328 518 181 -1379 509 597 767 1419 -484 0
-1408 -118 1282 801 -1072 0
-700 1409 -907 -90 1172 0
1226 1328 -13 956 -805 465 -194 -767 500 -863 0
342 -1342 -141 -1258 220 -1033 -873 484 -179 1328 615 -917 1442 -871 767 0
-600 -567 -424 -1328 0
578 1302 -362 -20 -122 955 -1203 -1428 0
1340 349 435 0
766 496 -415 1251 -273 -1411 713 -338 -860 177 1014 0
-1217 872 933 767 -670 1328 -189 -937 -282 1194 -484 347 0
1305 546 -1042 -1353 1151 1090 -921 836 0
-906 1328 1379 -765 -175 597 1213 -1170 -322 -399 767 518 -1438 -484 0
-405 1376 -876 484 767 -748 -295 687 1328 1279 1263 303 871 -1429 778 0
-789 22 -852 0
-496 1369 -415 -338 634 177 1014 0
-1277 -227 1328 -1264 -12 915 -864 -767 910 0
-1186 136 -745 0
-1196 -206 -465 -767 -1308 -194 -624 82 1316 1328 310 -67 0
-776 475 101 -658 459 -1416 -534 0
-331 1328 228 -126 484 8 767 405 871 -145 523 0
602 1234 0
1318 -413 267 0
-131 -348 250 0
-736 1405 -440 -1260 -262 -1305 221 0
484 871 -1409 767 1328 -485 405 729 -298 0
767 1365 -1372 -1149 -814 -146 -608 484 156 -405 871 1328 1399 0
1132 513 -296 -1328 -589 -773 -440 -245 -1236 0
-1049 -912 -1424 0
767 1328 -753 -275 871 405 -798 484 0
-1128 -767 1328 -692 1369 1287 958 -674 -1076 0
1393 974 -730 424 -1237 1420 95 -1318 -1328 0
-849 1439 630 0
-405 -1309 767 966 484 -875 871 -1043 1328 -975 916 0
1328 -1260 806 -419 -674 -1076 1287 1362 -767 -958 -1336 0
-1113 142 1294 -363 -747 0
-612 -877 -479 0
-723 -886 1000 -882 96 -767 1328 543 103 -879 0
-1221 733 -767 1328 -758 0
-1390 23 602 0
-1328 -1393 424 -730 95 -1237 974 -186 0
-405 767 1328 -854 -1309 1347 871 779 916 969 247 484 1059 875 -601 0
789 767 484 1328 -871 -998 277 544 0
-649 1234 0
-1007 596 425 0
1439 801 480 1303 -247 0
-789 951 0
563 -131 -479 0
1253 -963 840 -405 -837 871 484 -894 1328 962 1427 767 0
484 952 835 1328 767 -871 501 -716 1109 659 907 1257 1296 0
767 1179 -1402 158 581 128 -265 861 484 1328 -871 0
-1318 -1083 424 1136 1237 -383 -1328 1278 0
767 871 -978 1149 1328 -108 -146 484 1037 1275 1289 -405 0
568 -376 1271 1072 -484 468 1328 767 -943 210 0
871 -276 447 -405 -647 484 1328 767 -1255 -795 894 0
-703 -767 879 -1438 -886 -1057 1328 -1286 919 -723 0
-737 -1418 273 0
-1122 1203 2 -1418 -348 0
1011 833 797 1328 484 -588 -778 -405 767 -1123 871 0
1306 1328 871 377 -508 767 86 -1414 405 484 -1147 -1170 1366 0
-234 -670 1085 1328 767 80 100 -726 -484 376 0
-1297 -871 1002 241 551 767 1328 484 1253 790 816 0
278 1442 1366 1328 1241 -1147 484 149 -1306 871 -965 767 405 488 247 -311 0
871 484 767 -289 -405 621 -894 -1427 -794 1328 0
1181 871 1328 230 -523 405 767 484 0
871 -1193 522 767 -481 484 629 -631 1328 -405 -65 -382 0
561 1328 -827 767 -484 322 373 0
-640 46 -751 0
484 118 -1297 -531 -241 -871 1328 551 816 398 767 1002 790 0
871 484 -405 1399 57 -1089 -1372 -1149 -146 767 1328 -1365 994 348 -1130 1041 0
-1261 14 -705 865 0
871 767 1023 782 484 64 -381 405 1328 36 -944 0
1024 -1314 385 -484 -1364 -51 1328 -361 767 1116 -107 642 442 0
-712 -1092 1128 1328 -674 1025 958 -767 195 1287 -1076 0
-819 -177 1396 -415 0
1340 -800 1075 0
1294 -751 331 0
1328 -977 -1287 185 -767 0
-717 267 -181 1444 -1181 0
1228 -1324 -775 921 -57 0
23 -502 273 0
-181 142 -348 -1279 573 0
-1328 637 -164 392 -1338 1069 700 807 1189 -1022 0
15 -438 484 141 -1258 -871 1328 220 -1385 767 1272 0
-1013 -744 843 1328 -465 -464 420 -767 1196 -351 -194 0
-215 871 295 841 -405 -292 -1429 484 767 -923 687 922 1328 778 1359 1376 0
1402 242 -1273 -871 484 -83 -858 1328 -142 1374 -1004 767 0
1350 -723 1328 -103 -1440 -886 -879 -767 -770 542 0
1399 1328 -1149 492 -146 1163 -814 -1372 -405 -798 484 767 614 608 1365 871 0
-322 509 -1079 -1030 1419 518 -1170 767 -484 -1438 -175 1328 -1379 597 0
-361 -989 1364 -1056 -484 767 514 205 1328 0
-871 767 1377 484 -644 -220 1328 -44 0
1255 -356 250 0
-1120 767 -1439 -519 1388 456 925 484 -871 287 1284 1328 0
-1007 1417 -649 567 -558 0
-1341 -687 0
-997 -1374 -930 1402 528 -58 -871 -1061 -826 484 1328 767 -1131 646 0
-73 -69 767 484 871 729 405 -691 298 763 1328 -755 332 -1005 1434 -1062 0
730 297 170 -1237 430 -1244 -1328 424 -267 93 -257 -309 0
287 948 484 1328 -871 -1120 1388 767 -519 925 456 0
-877 267 135 567 -775 0
1112 664 1228 0
1296 -387 -501 418 1328 1257 952 -871 484 767 1090 0
484 1328 -755 1434 405 332 -73 69 -1062 767 -29 -1005 298 871 729 0
871 1354 767 -405 -1373 1328 1166 -740 112 484 0
-1294 767 1085 -484 376 1328 -726 -80 100 0
-767 419 1328 -674 -1368 -1076 -958 1287 0
593 767 1410 -544 -871 277 -1265 -1227 1328 -1103 -155 484 -143 0
-100 1324 -1064 376 1328 -484 499 767 1437 834 -46 -1018 1225 0
-614 -612 0
-449 -737 762 0
-522 -65 1328 -481 -382 629 226 871 -631 1395 -405 484 767 0
-348 563 1329 0
1011 1179 833 -778 -405 1328 -1123 588 767 797 484 871 0
753 767 786 -1303 405 -397 1328 171 871 484 575 -494 0
-136 -326 -1358 148 1101 60 1044 -1063 780 0
767 -405 631 1279 363 871 -65 1328 484 -21 308 375 -382 462 0
-682 -395 -925 -871 815 456 1020 1328 484 767 -626 1331 -788 0
1363 -1328 -339 55 752 -437 0
-405 614 960 767 -27 1328 484 1031 1309 871 0
-717 920 670 607 -700 0
-701 187 534 0
-1309 916 -405 1328 -1347 779 875 484 -854 969 247 767 871 0
1251 496 177 -273 -415 -1411 87 1014 766 -1228 -338 0
-265 -1402 861 1328 767 484 -871 1101 -128 0
-631 767 -405 484 -629 871 -1125 -382 815 -65 1328 0
-670 767 797 1328 871 -778 1123 -405 484 0
-469 -871 581 -265 767 158 484 -1402 861 128 1328 0
-484 733 767 -347 1328 252 0
1328 597 1207 -518 -484 -469 767 -175 -322 0
573 920 250 0
-775 1075 -247 314 798 0
1112 -514 -1024 0
-415 368 177 1233 338 810 -607 649 -851 0
484 871 -523 -89 -109 1328 767 -230 405 -339 0
-758 747 -767 1328 283 1221 49 0
-282 872 767 933 -484 1328 747 -189 347 937 0
1146 6 -865 59 284 -661 -388 -926 0
1328 -1094 767 -1371 484 -1309 -916 -405 -630 -823 708 -1172 871 0
-1341 918 0
-289 767 1328 -405 -840 484 587 -894 -390 871 372 1427 739 0
1075 -57 -1284 -1418 1269 0
-775 -751 -550 0
335 1430 -832 1053 286 1384 -484 1028 256 859 767 1328 1442 970 0
1269 -226 -763 -709 -1025 0
-1418 -57 691 1075 -368 0
-469 767 -1402 484 -861 1328 -871 0
-174 1328 706 -1294 449 671 -767 673 979 758 0
1112 -932 987 0
-178 -72 -90 0
394 1328 -291 -767 681 -1074 1175 758 -1203 -671 449 617 0
850 -871 484 -644 1328 -220 -44 767 0
1185 -280 -181 0
871 767 1306 508 86 637 405 1328 377 -1414 484 -1147 1366 1122 0
-425 -1444 -745 -339 1007 168 0
-93 -1231 424 730 -1244 -1237 -1328 -309 0
148 -1063 -136 1044 1358 619 -326 0
349 -343 142 0
1396 -1328 -79 -576 -424 -870 600 -799 0
-1012 -719 798 -948 -1166 0
-1326 1218 -1330 271 1017 -774 -695 -722 -1328 982 0
1172 -614 -78 0
607 920 -1279 670 243 0
1328 229 767 1394 -607 -645 -484 -51 -361 -425 208 -1364 107 0
1165 -320 370 -29 1328 -767 -1409 931 -889 0
1329 -733 -449 0
-1328 514 -1164 -55 378 591 821 1158 -1281 81 0
-558 1235 243 -1012 -948 0
1328 991 -605 102 929 -662 -767 1152 -29 1426 -270 -370 0
-484 1328 376 1324 1437 767 499 -1064 -1193 834 -100 1225 -1018 0
1328 -615 1012 767 -917 1301 -871 -1258 -141 220 484 0
-871 -1327 -1243 -602 -825 484 1328 1008 -1002 -314 767 0
1176 -484 -147 -366 1328 1381 -920 448 767 581 0
-420 -90 1264 -450 469 0
515 -871 -606 -1193 -781 484 -812 453 767 1328 -277 0
767 -56 127 484 -489 1328 333 -871 862 570 -1296 0
-1406 736 -932 0
767 -980 1126 -100 1122 699 -198 -1018 -834 -484 1328 -656 -188 376 0
-411 484 871 767 112 1328 -1373 -1354 -405 516 1166 -740 0
767 893 484 -79 887 405 871 897 -1266 -495 -327 1328 0
-146 484 -405 -1149 -1365 877 1399 -1130 -1372 767 -994 1328 871 0
523 -680 484 1328 767 1208 871 405 145 1443 -231 0
333 484 1328 -952 -1423 1296 -871 -1015 1090 -830 1160 767 0
1329 -1150 1159 0
-1058 -1424 -417 762 0
1328 -937 933 546 1194 -282 -189 872 -484 -463 767 1217 347 0
-405 871 767 382 -480 -65 -702 409 484 1328 0
-484 -322 1328 343 -175 767 -597 -367 -324 -595 0
926 1417 -800 0
1263 484 303 -748 -876 -1429 -58 1376 -405 767 778 -295 1279 871 1328 0
-1411 177 766 -338 -415 -1251 1014 649 496 0
1444 -363 -932 1235 607 0
-1340 7 -1256 -484 -1229 -121 189 767 1328 -557 347 0
484 -329 -381 -676 405 1077 1328 -1033 678 1066 511 1012 871 -36 1285 767 0
-1152 -990 -435 -767 451 160 1328 -370 0
607 -1024 -413 0
890 325 -1265 -268 333 -272 1042 52 -1047 1305 0
890 -1047 325 -268 127 1305 333 -272 1042 52 0
61 -373 -1101 0
633 -847 0
339 -400 417 259 -368 -1058 0
-894 1427 739 -1084 -840 -372 484 -1360 1065 -405 1328 -808 871 450 -165 767 0
-1040 1277 -941 1328 -767 -227 1133 -760 -566 0
-1196 82 -624 -194 -767 1328 -465 420 -1308 1316 -310 -67 719 0
417 259 1193 1262 -1012 400 -1058 0
289 -737 -1065 0
-792 1247 -237 1328 -484 15 541 366 761 -1249 -573 -590 -1392 767 0
-536 -338 -415 1270 -1014 815 177 -42 -1026 -1228 0
1235 1444 -649 -932 -1012 0
-753 348 -275 871 405 484 767 1328 0
-730 -1328 -1237 -974 902 424 0
-684 415 -722 1431 -796 1311 -1368 0
-872 347 1328 -282 -1240 767 -1357 -162 -484 -189 -1300 0
1328 -618 -767 -465 84 360 -1196 -268 67 -764 -194 0
-245 941 1277 1224 1328 -767 -227 784 0
-1328 1218 1326 271 -804 -71 -572 1181 0
-413 206 -1012 0
1296 767 952 1328 -855 1257 -1417 501 484 -1102 -1109 -871 0
630 -1406 435 0
1264 -1377 186 -1289 -1012 0
1150 1328 -767 -784 941 -408 -227 1216 1277 0
1202 156 853 -405 146 871 767 1328 484 0
6 -973 -464 1146 -865 -529 667 -59 0
484 1125 1328 -405 -382 871 1435 -631 -65 767 -866 -629 0
1402 528 930 -871 767 484 373 -1374 1328 -1061 0
-567 405 767 -729 871 484 1328 1086 0
568 -74 -225 807 -1328 318 -1180 742 -1010 -164 -1189 0
424 -1244 1418 -1328 -1237 730 -1114 309 0
882 -879 -723 -886 103 1000 543 1328 500 -767 -521 0
767 -256 970 1430 859 1328 1028 335 -832 -484 0
400 1282 259 -1262 1265 -1058 417 0
-144 1349 -545 -99 1270 31 328 -1328 0
-678 405 1295 -813 -301 76 484 -36 871 -381 1328 1077 1383 1012 767 0
1328 387 -501 1257 767 -871 952 1296 484 815 0
847 -1257 -530 767 -871 1296 -307 772 952 -269 484 1279 1328 0
-1380 1302 1179 578 1428 0
405 767 -669 1266 484 502 871 1328 0
-194 1408 -1013 420 1328 1196 843 -744 -767 -351 -465 0
-484 1328 347 1168 1197 -189 -331 282 -471 767 0
-1113 1444 -649 -420 469 0
-622 272 771 -783 -1265 950 325 1012 1305 1042 1060 0
-1328 -245 -296 -773 -1236 -1132 -589 513 0
-832 767 1028 335 1430 637 859 1053 -484 286 256 -563 1384 1328 0
-118 -78 -1011 0
920 951 0
871 614 484 960 1309 1328 27 -405 767 0
-79 1328 484 767 893 405 871 -1266 -887 -495 0
871 643 -1095 -894 1328 500 -840 1427 767 946 -474 -405 -739 -552 484 0
767 484 -405 871 1328 -1373 432 740 -1200 -1292 0
484 767 1296 952 -871 -1109 -1228 501 1102 1257 1328 0
1298 -1149 114 947 -1399 -405 484 19 1328 871 -146 1179 330 767 0
813 -866 -678 1383 484 1328 871 1077 767 -36 -381 405 0
-136 449 -1044 -344 -670 1425 1378 -944 0
1328 1221 -758 49 323 -283 1179 -767 449 0
-573 -792 -1392 767 -484 -590 1328 541 -237 366 -1249 -761 0
953 -19 231 0
54 -328 654 612 1369 -1328 856 -1370 0
1405 221 -262 -1305 -606 850 -1260 0
363 871 -1435 -629 852 767 -288 484 1328 -405 1125 -631 -65 -382 981 0
-187 2 953 0
-967 -1328 1391 1122 914 -545 144 689 328 1349 -157 87 0
29 -564 435 0
-10 479 0
36 -1264 405 484 1328 -381 -64 767 871 1023 0
168 1182 1072 120 1186 373 136 0
-1018 -1064 834 96 -499 -100 1328 767 1437 -484 376 0
484 740 767 -432 -405 449 871 -961 -1292 -1373 1328 0
-136 1267 -148 -1400 -497 -743 -735 96 -374 687 1044 0
-87 -1369 1329 0
767 1328 -1108 -34 551 484 -1134 -203 -464 123 -871 1297 1002 0
871 1041 -1365 550 57 -1130 -1372 484 994 -146 -405 1328 767 -1089 -1149 1399 0
-1253 -373 1438 -1377 135 0
271 -71 19 -1328 1218 -572 -796 -986 1326 804 0
-1428 1104 991 247 972 578 571 1302 -563 -928 122 0
-540 424 1337 -1237 730 717 1244 -1328 556 -554 -267 0
1218 1181 -1328 423 1387 -1326 319 774 271 0
789 -405 65 871 -1091 -791 580 1328 767 -641 484 0
-23 0
207 1328 -241 -871 767 484 816 -531 551 -602 -1297 1002 790 0
417 259 921 400 1262 -1058 -1226 0
1255 953 -500 0
596 -356 -500 0
1059 767 484 1347 -1309 779 875 916 1012 1328 -405 -601 969 -854 871 0
-1203 -975 236 578 24 1428 1166 1302 1380 0
1064 376 1328 -484 -1018 907 834 767 -100 0
79 -719 -850 860 -398 0
-1049 -349 0
267 231 722 79 186 0
1328 373 817 -827 322 -561 -538 -484 -1438 767 0
-564 656 -780 0
-479 273 860 0
758 18 -1175 1328 -364 -671 -121 394 -767 -1144 0
1324 1349 66 -1328 -545 -144 99 1270 31 -416 328 0
-29 102 -662 929 1426 -370 1152 -605 -270 -630 1328 -767 0
220 -871 484 -615 -532 -1301 -917 -1258 767 -141 -656 -901 1328 0
1234 -247 0
767 1179 871 -1149 -1399 1328 -405 -146 -1298 484 0
-1150 -717 -1408 607 464 0
-206 -1258 1328 1339 917 -225 220 -871 -141 -1352 396 -472 484 767 0
-1113 -800 -1253 0
-901 -58 -1258 -615 -917 484 767 -532 1328 -871 -1301 220 -141 0
-801 -1137 993 -524 1042 1305 -325 -1131 -1170 0
1002 816 767 398 1328 551 484 -1297 241 -871 790 0
-1274 1329 798 0
-832 -484 1328 19 -859 1430 335 711 767 1028 0
-243 1328 715 -1231 -1076 -674 -767 958 195 1128 1287 712 -1092 0
1122 -433 1328 767 484 1199 -397 -427 -786 657 871 131 405 -537 -494 753 0
-514 -649 -564 0
1368 -353 1058 0
-207 -1090 -789 1269 -363 0
-1122 520 314 -1166 -19 0
907 -136 -374 687 -148 -1400 -743 1267 -497 -735 1044 0
-1215 -405 767 478 -839 1328 -112 -563 484 871 -740 -1373 0
-1153 -852 0
1328 -244 -869 767 332 -1434 405 1226 871 729 484 298 0
767 934 -484 842 -832 1430 -1028 1328 1143 0
-1353 836 546 1408 1151 -1042 490 1305 0
1175 -671 -58 681 -135 758 1328 -1074 617 394 -767 -291 0
-991 1269 -226 606 1172 0
-1253 -259 -1058 -1424 417 0
1149 -405 1275 -314 871 108 1037 767 -146 -978 484 550 1328 0
374 1044 -248 -520 -355 -238 907 -136 280 -148 0
144 -545 328 -900 -683 -1391 550 1349 -1328 0
-1058 -131 417 400 259 -1262 694 0
-405 -759 550 767 -233 871 1399 579 484 -146 1372 1178 -1149 1343 1328 0
-1153 1131 0
1328 -767 805 1226 465 -194 0
-415 -338 177 -1026 536 -245 -1014 0
394 1175 1074 -464 -671 -767 1328 617 758 0
-1426 -605 -767 1054 1346 -190 1274 -630 1152 1107 -370 316 1328 0
-133 1328 484 57 88 767 253 1080 -871 -925 -444 788 -440 -682 456 0
484 277 767 1328 998 544 940 -954 -871 -1193 546 -154 0
730 -1231 93 -1328 -309 -1244 424 -1237 -297 0
-631 1270 -405 -382 -65 629 484 871 522 -481 767 1328 0
-1390 -1090 440 691 -368 0
548 -871 -544 1220 -801 -652 290 484 767 277 1103 1328 0
1158 821 81 378 -1164 -1328 -1281 1007 591 -55 0
-747 858 918 944 -877 0
250 267 977 0
235 -404 -627 636 -81 -1164 -992 -55 649 904 -1328 0
-259 -1058 1193 417 1438 0
23 -1396 243 0
-266 -602 -871 -583 -770 -551 484 -829 1002 767 1198 1328 0
-573 1122 809 127 -796 -918 0
953 1131 469 0
-146 767 -978 -314 871 1149 1328 -405 -1275 484 0
-1279 142 -373 573 -877 0
272 1305 1042 -783 950 325 127 -622 1012 771 1060 0
-554 -540 -1237 1244 643 717 -1328 730 1337 424 556 0
1328 910 -1277 915 12 -227 -864 -1159 -770 -767 0
-72 -96 -1253 1170 135 0
767 -435 996 139 -1376 1328 1415 778 871 484 118 -26 -405 0
637 -225 1274 1442 -29 -1416 0
113 145 767 1127 1328 640 484 -1443 1139 523 405 871 -1281 -293 0
-366 -920 1328 767 -484 -448 0
-1405 948 -1305 221 0
1294 -847 -1345 -181 921 0
-1224 1277 -598 1081 -535 941 -1264 1328 -227 784 -767 0
-57 1400 -934 -717 664 0
-1417 -67 -194 -1308 -1196 1316 1328 -465 -82 -767 0
417 400 -356 1262 691 -1058 259 0
1255 -420 -90 1170 1264 0
352 484 495 1369 -1068 -1156 405 -1266 460 1328 871 767 0
386 -1328 513 1236 -845 368 0
871 1366 484 -1306 1328 405 161 1442 -1147 1184 767 965 -732 1348 1122 -311 0
767 484 -1366 -648 -312 405 1328 -440 1191 871 1100 0
181 -148 374 -136 -355 -248 280 1044 -238 907 0
520 292 -850 1294 -643 0
1431 -1235 502 415 1311 1369 -684 0
845 1236 -1124 -885 1073 -1328 -736 -440 -217 111 461 513 0
-480 -1410 -592 -1103 428 -544 484 -871 1029 277 1328 767 0
1366 405 1328 939 -1159 767 1147 119 871 484 0
484 1328 -381 1383 280 1077 -76 -678 405 -813 -36 767 871 0
-1058 -1262 259 400 -809 417 0
314 999 0
1328 -484 -832 767 60 -1028 -1143 1430 0
455 -465 1328 -67 -1196 -767 -194 1308 -249 -1265 -50 110 0
-671 1144 -1175 -767 -586 394 1328 1161 758 0
357 145 405 871 1328 -358 680 -441 1208 767 484 -231 1443 523 -1400 0
-288 -1435 -382 852 1125 1328 871 484 981 -405 767 -65 -301 -631 -629 0
-818 405 484 1443 -1208 523 145 767 -553 1328 871 1025 0
-762 706 671 -979 -767 1328 758 0
1114 -1244 730 -1328 309 424 -243 -1237 507 0
1296 -1109 484 1257 501 952 -871 1328 333 855 1276 767 -1102 503 0
-30 -767 -864 -227 915 910 -1277 -1340 12 1328 0
-717 -57 860 -170 -1166 0
-941 1328 -227 1277 -1133 -767 -1040 -760 -566 -1159 768 0
1361 -404 -1164 -81 -55 -607 627 53 927 1205 -1328 0
-164 1180 -1189 -728 63 1442 -802 807 -273 -1328 452 -1119 0
926 349 1269 0
-194 1328 -301 360 -764 -465 -1196 67 -618 -866 -767 -84 0
110 249 455 -50 420 207 -194 -67 -465 -767 -1196 1308 1328 0
186 243 785 0
633 1203 0
1408 956 500 -767 1328 -194 -805 465 -13 -863 0
-361 -1444 1328 767 -484 1364 -205 -989 0
778 780 1263 1376 767 -295 876 -405 871 -1429 -748 484 1328 0
-339 1011 -1413 1328 -361 47 -1364 899 767 710 51 -484 0
-767 892 -1389 254 1328 1287 1076 0
614 484 871 1309 -405 -960 767 1328 0
-1058 1281 417 -259 -60 0
767 484 -894 372 739 1421 -840 546 1427 871 1328 -405 587 390 -4 0
-1068 1328 502 460 -1266 405 495 871 -1156 352 767 484 0
1328 -484 767 -216 361 1105 0
-51 549 -107 767 -484 -1364 1328 -1116 199 168 -166 -361 0
-612 -877 -10 0
527 -101 -534 581 -776 0
-1029 1328 -1410 428 991 484 -871 1173 -592 277 1293 -544 767 -1103 363 0
405 57 311 -1147 -197 1366 -1306 1328 484 871 767 0
484 1388 456 -1120 767 925 1328 368 -871 519 0
298 871 -244 729 -1052 -1434 405 484 767 639 1328 -1075 332 869 -285 0
-405 960 871 767 1328 -106 -27 1309 614 -1031 809 484 0
-118 -1011 393 0
-1426 263 1152 -945 1442 -370 -605 -767 204 1328 -316 679 -563 0
-722 -1330 348 271 1188 -774 -1328 -695 982 1218 -1326 -1017 0
-1092 1377 715 -1076 195 1328 1128 -767 -243 -674 1287 958 712 0
-1318 1328 -958 -674 -419 1362 1336 -1076 -767 1287 806 1345 0
1228 -403 664 0
-484 767 237 -792 1328 793 366 1210 -891 1113 -1404 0
871 -65 767 1328 -21 462 -382 375 308 631 484 363 -1203 -405 0
1368 -178 -368 0
871 -405 894 -795 1328 276 -1255 767 484 447 0
-871 690 -1177 -456 767 187 525 1433 1328 484 1071 0
-818 145 405 553 484 767 1443 1328 1310 523 -655 871 -1208 0
798 694 250 0
-566 -941 768 -1040 -918 -227 -767 1277 -760 -1133 1328 0
382 -405 1328 767 -1075 871 500 484 -702 822 -279 -409 -65 0
-1288 -1328 156 625 -1349 -512 877 -1375 328 0
-864 -767 -1277 12 -770 915 1328 910 -30 -227 0
-400 417 -815 987 259 -1058 0
1218 -567 -271 -371 -942 -1304 115 -1328 0
1194 170 -1172 1328 872 347 -937 463 -189 -282 767 1217 933 -484 0
-1279 -700 1185 0
-145 1025 871 523 -228 405 1328 767 484 0
-405 871 -339 -778 -833 797 484 767 -1123 1328 0
267 -849 977 0
-841 -656 484 -46 -405 1376 -209 767 1328 295 871 -470 778 -1429 -1312 1117 0
-877 1185 -1178 0
1302 122 809 -571 578 131 1032 129 -1193 -1428 769 0
-127 -751 -847 0
-513 -440 153 696 -1328 -736 -255 132 0
400 1368 -1262 259 606 417 -1058 0
752 -1328 1105 1363 -698 168 437 55 0
-219 770 -356 0
-1047 -272 -268 890 1305 325 127 -206 52 1042 0
495 984 -273 -1266 -94 405 1328 767 -460 1027 1011 -354 484 871 0
-1026 -415 42 -1014 368 -338 -536 177 0
-96 -1341 0
-219 1261 267 0
918 1269 -1279 1439 -450 0
-1153 -1178 0
274 1328 -1252 484 -397 767 753 405 871 494 0
405 1266 767 -584 1328 -1169 871 484 -273 669 1433 -422 0
514 1233 -810 177 -851 -415 338 0
294 871 767 -1400 1328 484 89 970 -230 -523 405 -109 0
822 -279 -480 -409 1060 -702 382 -405 -65 767 484 1328 871 0
1101 -464 847 -58 368 -1203 0
1328 207 -266 414 1198 484 -583 767 1002 -551 -871 -829 0
99 -1328 328 1270 -66 31 -545 1349 -144 0
484 599 1328 -677 348 871 1373 767 -405 -224 -787 0
-178 58 -1345 0
-762 1328 -1229 -557 7 189 347 -1256 -484 767 0
-1328 1189 -664 -1022 -164 637 807 392 -1338 1069 0
816 767 551 934 398 -531 -241 1328 -871 484 -1297 790 1002 0
951 -487 0
-314 -1328 -576 -799 -424 600 -79 -870 0
999 -1424 0
395 789 -925 767 -682 1328 456 -788 -871 1331 -626 484 1345 1020 0
-178 435 1439 0
16 767 -1033 871 484 -740 -1154 -839 -405 -1215 -112 1328 -1373 -478 -880 0
-40 871 -1303 1328 -405 -1373 -112 1215 767 -740 1145 191 -839 -1162 484 0
534 701 57 -211 -2 -798 -1192 0
1175 733 -767 -617 758 394 1328 -671 0
850 221 1405 -987 -262 -606 -1305 0
-1017 1188 -1326 271 -774 -1328 982 1218 -1330 -695 -722 -796 0
1152 -929 -370 1426 1328 -270 -605 -767 -435 -662 0
1417 607 -57 435 -1418 0
-597 1328 595 767 -367 -484 -322 1101 -175 0
1152 316 -605 -1346 -1426 1328 -767 -1439 -370 0
722 79 1318 1231 -274 0
1328 -1000 1284 -886 -767 103 -879 -723 0
355 -136 374 -148 1113 -248 1044 -238 0
271 774 1345 -796 -1328 213 1387 319 1218 -1326 -423 0
-865 35 -1245 -1269 -1146 -135 -121 6 -983 0
568 -1266 460 484 871 352 767 405 -1068 -1401 -1299 1156 1328 495 0
-568 -1390 -398 1159 1075 0
-405 767 -314 1149 484 978 871 -146 1328 0
767 1328 -484 347 -282 162 -944 -189 -872 0
-871 484 1328 -58 -1385 -438 141 220 -1258 767 1272 0
-1105 -259 -487 -1058 417 0
-814 -1372 608 767 492 614 871 1328 1163 -146 -1149 -405 612 484 1399 1365 0
-414 -398 -1049 0
118 -471 347 -484 1328 1161 -1168 1197 282 -803 767 -189 0
1443 767 405 484 1328 145 709 871 -818 -905 523 553 -1208 -1310 0
-1340 1278 1237 424 -1328 -1083 -1136 -383 -770 0
484 1279 1376 -1429 778 767 748 -295 1263 1328 871 -405 0
-871 343 -528 767 1402 1328 -105 484 -1374 0
-667 6 1146 -59 -865 1390 0
-784 -921 1167 -1216 1238 -767 1328 -227 941 -48 1277 -408 0
-1178 -72 464 1172 -87 0
-1058 -490 -417 1264 0
-420 440 1235 -581 -1418 0
1033 206 -1211 0
-1406 -675 -1012 0
-1433 22 -1178 0
767 -237 366 590 -792 666 1398 -560 1328 15 -484 -292 533 -1249 0
374 -136 -238 96 -355 -248 280 181 -148 1044 0
920 -1113 22 0
708 -405 484 871 -1309 -916 -918 1094 1328 767 0
679 -29 263 -1426 204 -316 -605 -945 -370 1152 -630 1328 -767 0
382 -405 767 1060 871 -702 822 -409 363 484 1328 -279 -65 0
1125 1328 -1435 363 -382 -631 -405 981 852 871 -65 767 -288 -629 484 0
266 1328 -551 1198 484 -871 -30 767 1002 0
1253 -142 902 1424 934 118 0
-323 -283 932 1328 -758 1221 49 -767 0
207 1328 -871 -825 484 -1327 -602 1008 -1243 767 -1002 0
975 46 0
-226 -403 -90 0
-767 420 -1196 -866 1328 360 67 -618 -84 -764 -465 -194 0
1218 -1326 774 -1328 -1235 -1387 271 0
546 -871 484 998 1328 767 544 277 954 0
268 -847 -403 0
-405 947 1328 1179 -1399 767 871 1298 -1149 484 -146 114 330 0
292 633 0
-1076 -674 1287 -806 -1318 -958 1328 -767 -419 1362 0
41 -401 -767 -920 1287 1328 674 -1076 -138 0
722 -1024 1444 -1324 -581 0
-933 1141 -121 -117 347 872 -189 884 -484 1328 159 767 -282 1161 0
1075 -1289 464 1159 -709 0
995 -665 -134 -289 1328 -767 466 -723 356 886 0
1039 -534 -776 -101 -58 -527 -1268 637 709 0
259 400 417 -1058 1262 339 664 0
-231 1279 -597 -322 -367 324 -484 767 -258 -175 1328 -595 0
-107 -1283 -549 -1116 199 649 168 -361 767 -51 -484 1328 -1364 -166 0
1328 -871 767 -615 -1258 -1301 -141 -532 220 -901 1012 -917 484 0
-27 1328 -1031 871 614 -106 1309 -405 960 767 484 0
-849 -1072 -687 0
1328 277 1410 -1103 -544 593 155 -480 484 767 -871 0
637 -898 -484 1328 -335 -832 767 1174 1430 1028 -520 -741 -75 0
-1328 802 807 -860 -1333 -164 -1189 1019 172 1180 0
405 113 1328 145 -293 1127 523 -1139 343 767 871 -1443 484 0
25 -547 767 -252 -121 1328 -347 1161 -697 -484 0
1122 -939 1328 767 -1280 119 405 -212 1366 1147 763 484 871 0
-484 -1229 767 347 1256 1328 189 -762 0
-72 953 -226 0
213 1218 319 271 -1326 1387 789 -423 -1328 774 1345 0
1328 1066 -511 -36 767 -676 1077 405 484 678 -381 -329 675 871 0
785 435 29 0
895 -774 -796 -1070 -982 -1326 1218 271 -336 1082 -1328 0
778 118 -405 -1376 871 -139 1328 484 767 0
596 607 -1024 0
-1164 -81 404 -1328 -130 137 -1444 -55 0
-1270 -649 -614 1203 -546 0
1112 1040 1264 0
1287 -17 62 1076 -243 1328 -254 -1255 -767 -1389 0
-120 1186 -339 1182 136 0
1424 1328 671 -767 -979 758 706 0
767 -405 -962 1328 -894 -837 840 -142 871 1427 -193 -963 484 0
-567 767 -405 894 -447 484 871 1328 0
-721 484 1328 -1077 -58 -36 -381 767 871 1422 405 0
-274 -247 79 -1011 -907 0
778 -876 1376 767 -295 907 -1429 1263 -405 871 1328 484 -748 -303 0
-126 523 484 -145 -1400 -8 228 871 767 1328 -435 405 -628 0
480 -649 573 -1011 425 0
-1328 -807 359 731 502 0
-767 1328 465 -194 -1075 -805 956 1226 -863 -13 0
-415 -1014 1270 -1228 -42 815 -536 -1026 -338 177 0
943 767 -484 -376 1011 1328 0
-158 -265 -1402 -469 -871 1328 767 861 484 128 0
1438 -1341 0
-136 374 -238 1044 1101 -148 355 -248 0
1230 449 -394 491 3 -767 -671 -421 758 1328 -1294 0
400 -1262 417 -775 259 339 -1058 0
450 -46 879 1328 -1286 -767 -1057 -886 703 -723 919 0
79 231 -373 1438 -15 0
1328 -834 -100 1122 -198 376 767 -980 -188 -1018 1126 699 -484 131 0
425 292 1400 1200 798 0
1302 1104 247 122 -1428 -563 571 -928 578 972 991 0
-1328 815 562 718 1236 845 513 -461 -440 -77 988 0
500 956 -13 -805 -194 1328 465 -767 -1075 -863 0
877 625 356 -1328 -1349 -1288 -512 -1375 328 0
-737 -649 -902 0
1400 -649 -1270 -934 920 0
-751 573 -619 0
242 1328 1374 484 -871 -142 -1004 1402 1273 767 0
-88 456 -682 788 1328 1001 -163 -1344 767 815 350 -925 -871 484 0
871 1328 -1422 1142 767 -1077 675 484 405 -381 -36 -721 0
364 -1144 -767 -1175 394 -121 1328 -671 758 0
-353 440 23 0
767 1056 -976 1364 -484 -1444 -989 205 -361 1328 0
956 -863 -194 465 -767 1226 -13 -805 1328 0
-602 1002 207 -551 -583 1198 -266 -829 1328 -871 767 484 0
782 484 36 405 871 767 64 -381 1328 675 1023 0
194 -767 398 668 746 1328 -68 0
-643 -1007 -847 -181 -850 0
-387 -345 952 1257 1328 767 847 1296 -501 484 -418 -871 0
405 484 1328 753 494 685 569 871 -397 -653 709 767 1252 -46 0
1281 -1406 -709 0
1433 1328 146 -405 853 -218 767 484 -1202 871 11 0
-460 405 -94 -920 767 1027 -984 -1266 871 495 484 1328 0
1106 1328 -1374 -871 1402 528 767 1061 1355 176 -1357 484 0
-403 -368 -815 0
-849 -1060 606 0
405 484 1366 1328 -119 -243 871 1147 767 0
301 596 -1324 0
1107 190 -370 -1426 1346 316 -605 363 1152 -767 1328 1054 0
-35 -865 -983 -1040 6 -1146 0
-178 -1166 -348 0
-288 -382 -1435 852 484 -629 767 871 1328 -405 1060 -631 -65 1125 981 0
951 -1011 0
807 -164 392 1189 -1022 -1328 -1069 -664 0
1131 1185 1170 0
-87 -750 -156 0
635 1 1328 605 -370 1152 -767 -214 -630 -341 -1269 0
758 -421 1328 -1281 491 -671 -394 640 1230 -767 3 0
-832 -335 -484 709 -520 -741 -75 -898 767 1328 1430 1174 1028 0
-736 -513 -1368 696 -255 132 -1328 153 0
-1101 1058 -932 0
144 1178 -1391 -900 603 -545 328 1349 683 526 -1328 0
-538 322 -484 1328 -827 -561 767 -2 373 817 0
843 1328 -1013 1196 -1131 351 -767 -465 -194 -744 0
-637 -934 -737 0
-922 1328 1359 -923 295 841 871 778 767 484 1376 -405 -1429 -215 675 0
-684 415 1369 1431 -1368 1311 502 0
1002 1328 551 -1297 484 -871 767 241 -464 790 816 0
-871 -1327 1008 1289 767 484 -1243 -825 1328 -1002 0
1328 -1075 871 298 332 484 -1434 -244 729 869 767 405 1052 0
435 -747 -568 944 1159 0
-605 991 -270 -767 -1417 929 1328 -662 -370 102 1152 1426 0
-1269 -865 6 -983 90 -1245 -464 -1146 35 0
-792 666 1328 675 -484 -560 -1249 590 1398 366 767 -533 -237 0
1328 1072 -468 767 -376 -484 -943 0
-576 1396 1377 -1328 600 -424 -870 -799 0
554 730 1244 -1237 424 -540 -1328 717 556 0
286 -484 709 256 1442 1384 1053 767 -832 859 1328 1430 1028 335 0
953 1417 1409 0
1387 -319 1218 774 -1235 -1328 271 -1326 0
556 -267 -1237 1244 424 -554 1337 -1328 730 643 -540 0
-88 788 456 -682 350 1328 -925 1001 -736 614 767 -163 1344 -871 484 0
-1056 767 733 1328 -484 -361 -989 1364 205 0
-857 -723 -767 -1046 1065 -879 -103 131 1440 1328 -704 585 -886 0
-168 339 -564 0
1277 -1224 -227 941 -598 1328 784 -1040 -767 535 0
-800 -226 289 0
-1417 -691 -1409 639 -1269 -926 0
-1273 1402 767 242 1328 1374 -1004 484 -871 -83 -142 0
1044 -374 -1267 -136 -148 1025 -1397 0
1152 -29 -316 204 -945 679 -605 639 263 -370 1328 -767 -1426 0
-1120 -871 925 -519 456 1388 484 767 -287 1328 1289 0
1328 1427 -587 -405 -840 739 871 484 156 767 372 -894 0
1287 -1076 747 -767 674 1328 401 -138 0
403 1112 0
-630 1328 767 650 332 484 729 405 871 -506 1434 298 1062 0
1328 -1159 -408 -784 -1216 1277 -767 -227 941 -1167 0
484 -314 -276 871 894 -647 -795 -405 767 1328 447 -79 0
97 -719 -763 0
767 405 484 1266 1169 1328 871 669 -977 0
-87 975 314 -1072 944 0
852 -871 -1410 -1325 592 277 -1103 484 767 505 848 -632 -544 1328 0
-1101 417 -400 -847 -1058 259 0
-1270 -413 -550 0
-1101 -280 -403 0
767 957 -100 1328 376 1011 1018 -484 0
-1328 -271 1396 1218 1304 0
-1328 -1236 513 -987 -589 -296 -773 -1132 0
767 220 -532 -917 1328 901 484 439 1012 -1301 -141 -1258 -615 -871 0
1281 -178 -19 0
1328 871 -1429 767 1279 -295 -405 1376 484 778 -1263 0
370 1328 1165 -320 -1409 -1416 -767 931 -889 0
1002 -871 -551 -266 767 1328 1198 484 -762 583 0
578 1302 1380 1166 1428 1279 -46 24 236 0
393 -934 -19 0
-1181 -717 -96 -1377 1444 0
-1328 1179 752 168 437 55 1363 -698 0
318 -1010 807 -2 -164 -1328 -742 -1180 -74 -1189 0
1122 -630 -694 1324 568 709 0
-1237 -554 -1328 1337 556 -480 424 1244 730 717 -540 0
484 -516 -1373 555 1328 112 -1354 767 -405 -740 -1170 -411 871 0
-1161 1294 920 -1270 -902 0
-185 -977 1259 -767 -828 1328 -1287 0
807 1189 1022 -164 649 -1328 0
-282 -484 912 347 -162 -1240 -872 -189 -1300 1328 767 0
767 125 170 1328 356 484 753 -300 397 -504 431 405 871 0
-6 1436 -1040 -1016 -609 -865 0
484 -894 -405 -946 767 -245 -840 1427 1328 871 -739 0
-767 -360 1328 815 67 -465 -1196 -194 0
-1211 -907 656 0
263 1328 -767 204 -435 -316 -679 -370 -605 -1426 1152 0
-683 144 -1391 -1328 -314 -900 -545 1349 328 0
-403 858 -500 0
-674 57 1128 -1076 -767 1328 712 958 715 195 1377 -1092 1287 0
659 1328 1296 1093 484 -835 -871 1257 1109 127 501 -716 767 952 -1303 0
-146 1149 -405 87 871 1328 -314 108 1037 767 -978 484 1275 0
405 1313 60 484 523 818 1443 -757 -727 -1208 145 1328 767 871 0
1355 734 1402 528 -871 484 280 -1374 1328 -429 1061 176 767 -1106 0
1324 -58 -225 1345 643 -301 0
484 -301 -36 -813 767 871 1383 1328 1077 405 -381 -678 -76 0
-1022 -164 392 -2 -1328 1069 1338 807 1189 0
274 775 90 -801 -975 780 0
-343 469 61 0
-231 -381 -1077 -36 -1142 1328 1242 -1422 767 484 405 -721 -58 871 0
-814 1163 1365 484 608 1270 -405 871 -1372 -492 1328 -1149 -146 767 1399 0
186 -1289 1264 -363 267 0
179 970 -141 -917 -1258 1328 -873 -1342 615 -871 484 220 767 0
877 66 -144 1270 1349 31 -545 99 -1328 -416 328 0
674 1105 1287 138 -767 -1076 1328 0
-247 1172 -750 0
-975 -364 -39 -767 394 -1175 1187 274 1328 -18 758 -671 -1144 0
1116 -107 442 1314 1328 -484 1007 -51 767 -361 -1364 0
-1007 -168 -479 0
-450 -356 -10 0
1328 484 308 462 631 -382 -405 -65 871 375 -231 -21 1279 767 0
168 -686 1164 -1291 1407 -1328 -858 594 -55 0
767 -756 1002 1297 1328 -486 1155 -871 551 -380 -123 -866 484 0
-1258 767 713 220 917 -1339 -871 484 -141 1328 0
629 -405 871 481 -382 767 321 1328 484 -1382 1098 -631 -1110 -65 991 0
-767 723 391 446 -1351 -443 1328 72 450 0
1328 92 376 767 -957 780 620 196 -100 1018 -484 0
-1423 500 -1015 484 1296 1328 -952 767 -1075 1160 -871 -830 0
-612 -413 -1178 0
1028 1328 -898 767 75 1430 181 -741 -832 -484 -335 0
-716 1093 1109 952 1328 -871 767 -835 127 659 1296 501 484 1257 0
567 -568 464 -1377 1228 0
-1166 -510 1112 0
-767 -723 521 1328 103 882 -879 543 1000 -886 226 0
1167 -1238 941 1277 -227 -408 -1216 1328 -784 -767 -655 0
-408 -784 -918 1238 1277 1328 -1216 1167 -767 941 -227 48 763 0
767 1252 753 1166 685 405 -397 494 484 871 1328 -569 0
-1033 -563 639 970 1442 -273 0
-750 314 -877 0
23 745 -168 0
1028 -1400 711 335 -859 -484 1328 -832 767 1430 0
877 1377 -722 -440 168 -1416 0
521 -886 103 356 -767 -879 -723 1328 882 543 226 1000 0
260 551 1297 767 -602 -1108 1328 1002 -1200 1134 -34 484 123 -203 -871 0
1222 -534 459 -776 1442 719 -658 -43 1274 101 -475 0
-1074 617 291 -671 758 -767 1175 394 1328 -331 0
-484 780 -957 620 1018 196 1328 -92 767 -100 376 700 0
-484 -1283 -1116 -1364 1328 -549 -107 168 767 -51 199 -166 57 -361 0
920 -649 -1284 -934 520 0
-463 -282 347 -135 -189 1194 1217 -937 1328 767 -484 872 933 0
484 1443 1328 523 -1208 709 -818 767 553 405 -1310 811 145 871 905 0
1328 456 767 88 -925 -253 484 788 -440 -682 -871 0
-942 1218 -371 1289 115 -1328 -271 -1304 0
-1324 -19 801 -333 480 0
-10 29 630 0
-484 347 1328 -331 -189 282 471 767 0
1439 22 1075 0
-1279 573 469 -450 1357 0
1235 440 860 -581 -546 0
523 -145 -228 484 767 934 1328 405 871 0
-36 971 1328 484 405 -1282 329 -559 -381 767 -1307 678 1077 871 -1033 -1254 0
-1105 607 -849 0
-1025 1269 -207 -763 231 0
-1442 -57 1329 0
1346 1328 316 190 1054 -1426 1107 -370 1152 -605 -1075 -767 0
1297 170 -1441 -871 551 767 420 203 484 -1183 1335 1328 123 -1038 1002 0
-405 739 -894 -808 1427 -1360 165 1328 767 226 -840 -372 484 -1084 871 0
-1341 1400 0
394 -292 1144 445 -1175 1328 -671 586 -436 1246 758 -1294 -767 0
-1328 -1164 -55 1158 81 591 168 821 1007 378 0
101 -301 410 658 719 1324 -534 -776 151 202 0
-1195 -121 328 1349 -167 -1328 545 0
1321 809 -1214 173 -879 -767 1328 -886 -723 -103 -542 1350 -1440 0
-280 -96 -413 0
1274 274 170 -694 -1303 -798 0
-72 22 -226 0
-178 -619 920 0
523 970 -293 1328 -1443 1139 405 767 -1400 484 871 1127 145 113 0
1416 1185 2 0
-181 -96 -479 0
1234 -1377 0
-405 510 1328 -740 767 -1021 484 -112 871 -613 839 140 874 -1373 0
938 -177 -415 -1171 819 -186 0
484 925 -1368 456 1328 767 -871 -1388 0
-1236 513 932 296 -773 -1328 -589 0
-1328 -870 1396 -424 576 600 0
1374 1328 -242 484 -871 -1040 -1004 767 1402 0
484 1328 767 1298 156 -947 -405 -1149 -1399 -146 871 0
-299 1181 -1218 -1328 -1087 -1212 0
-514 785 -649 0
15 -590 -792 1328 541 -573 -237 -1249 -484 761 1247 767 -1392 366 0
245 -368 -1049 0
-1076 -767 -138 -186 1328 1287 41 674 -401 0
-1118 311 -1051 1328 1366 -225 -1147 484 991 871 767 -1306 881 197 405 0
1328 -51 -1364 1116 -361 -442 -484 -107 767 1105 0
-1342 342 -141 -873 484 -1033 -1258 1328 767 220 -179 -917 615 -871 0
-967 877 1349 -1328 1391 -545 689 328 144 -157 914 131 0
-1208 274 523 1443 145 553 484 -975 811 905 405 1328 767 871 -818 -1310 0
-481 -631 1328 -522 498 767 -1303 -382 -65 -1395 629 -405 1060 871 484 -264 0
-510 -1122 -1179 921 -1345 0
333 -440 -1033 1408 363 -1170 0
-1396 1409 400 417 -1058 1262 259 0
-1179 602 267 567 -1270 0
767 -778 833 797 1328 687 -405 -1123 581 484 871 588 0
953 268 1260 0
513 -1328 1270 845 461 -885 1236 -111 0
144 -900 809 -1391 -603 526 -1328 -545 328 1349 550 683 0
1223 1345 767 484 -2 -1320 -1356 381 871 182 405 1328 0
-449 23 -733 0
-637 1329 -19 0
1258 1036 -225 -871 484 -1115 -384 767 1328 220 1148 -921 0
-871 -1103 -1227 -155 852 484 -544 1328 1410 277 767 -143 593 0
-405 1065 1328 173 -647 767 894 447 484 871 -795 -276 0
76 1295 -301 852 1077 -813 871 -678 -381 484 -36 1383 767 405 1328 0
456 682 -871 767 -749 932 -925 484 1328 0
-700 -1279 -1211 0
767 697 -547 -484 -347 1328 -1444 -252 0
-1390 -643 -274 -333 -420 0
-920 1176 -366 767 -484 1328 1381 -147 -573 448 0
767 871 407 -896 -729 -1086 405 1035 -1417 1328 484 0
-300 -504 125 1328 753 397 871 131 767 405 431 484 -563 0
902 -1291 -55 -858 1407 1164 -686 594 -1328 0
-619 0
1439 435 61 0
-1306 405 871 -292 484 -1147 1328 -1118 1366 197 1051 311 767 0
-700 573 -934 -1178 -1025 0
1328 -454 1323 201 1025 767 -484 -1430 476 -1416 0
-276 -795 -314 -1255 894 767 -647 1328 -405 871 447 484 0
-1390 -178 464 0
208 -1394 229 -51 767 -1260 -1364 -361 -645 107 1328 -484 0
691 250 1409 0
-1185 -1211 0
1419 518 -1030 767 -1438 -484 509 719 -322 -1379 597 1328 -1079 -175 0
1328 -1152 -767 160 451 -990 449 -370 0
484 767 -894 871 -840 72 -739 -946 -405 1328 1427 0
-341 1152 -1 1328 -767 605 635 -1269 -370 -214 0
-821 -1164 1158 81 -1328 378 514 -55 591 0
1416 -1211 2 0
916 767 875 -1309 550 -405 1328 -779 33 484 871 969 0
-1289 1368 -417 -1058 0
-1105 393 -902 0
-1179 61 -1433 0
-1297 398 767 1002 790 -871 551 -816 1328 484 0
1417 -1345 267 -675 -763 0
1234 -1442 0
512 -1375 -1294 625 328 -1328 -1349 0
607 -747 602 425 -1253 0
484 242 1328 96 -1004 -1273 767 1374 1402 -83 -871 -142 0
58 61 -1345 0
767 -834 188 -1018 376 -1097 -484 -100 687 1328 0
484 853 146 218 -1202 11 767 87 871 550 -405 1328 0
767 1077 1012 405 76 -1033 -36 -813 -381 1328 -678 1383 1295 484 871 0
871 797 833 -1123 588 -405 484 -778 1179 1328 -656 767 0
958 -1209 -1034 614 -1076 -767 692 -183 -798 -674 -1128 1328 1287 0
1186 1182 -425 136 1007 168 120 0
-1116 -51 -166 767 -484 -1364 -107 168 -1283 199 -607 -361 -549 1328 0
-1328 -722 -1326 -695 1218 1188 -1017 271 -774 982 -1330 0
-1025 655 393 0
1218 -1328 -774 -982 -796 -1326 1082 895 271 -336 1070 0
1328 1206 -784 1412 408 -767 1157 -227 1277 -32 -1264 941 0
1328 -1020 767 -987 484 -788 456 -682 -871 -925 0
267 -1341 0
871 -405 193 -837 -894 1328 -963 -962 934 484 840 173 1427 767 0
502 -1416 -964 -359 -807 -483 -1328 731 0
373 484 -528 -1374 767 -105 -871 1328 1402 0
1203 469 1357 -877 -127 0
-767 443 723 1328 -1351 -267 0
860 -1341 0
-675 921 -1049 0
1200 -1011 -1024 -168 573 0
644 1328 -722 -220 -871 767 484 0
-1266 405 871 581 484 495 -860 -460 -94 1027 984 -354 1328 767 0
1191 1328 484 -1416 -648 312 871 767 405 -1366 57 1100 0
557 -762 -1229 189 1328 347 -1256 -484 767 0
-643 722 -1024 -1007 -581 0
31 99 -545 -66 -144 328 1179 -1328 1349 0
251 484 460 871 406 1138 495 405 789 949 -1266 1328 1068 -2 767 0
-207 567 -558 -168 -1024 0
-627 -1328 1007 636 904 649 -81 -992 235 -55 -1164 -404 0
871 -1281 1328 1127 523 405 -113 -1443 -293 484 767 145 0
-405 -146 871 1365 767 608 -1149 -1372 484 -814 87 1399 612 1163 492 1328 0
968 612 -578 877 1178 -150 477 0
-361 1364 976 1328 767 -989 1056 -484 205 -1444 -1439 0
-494 -694 433 405 985 484 -397 871 753 -313 104 1328 -786 767 -315 0
-977 424 730 -1244 -1237 309 -1114 -1328 0
-420 1357 -847 -1072 602 0
-1330 -1326 -695 1218 271 -1328 -774 -1235 982 -1017 -1188 0
-1309 -405 -969 1328 875 767 -1239 484 -1088 725 127 916 871 -232 0
109 767 -655 1328 871 405 -523 484 -230 0
58 79 -717 722 267 0
1328 -1149 484 -146 -405 871 -1298 1105 -1399 767 0
917 767 -1352 1324 1339 484 -1258 -141 396 -472 1328 -225 220 -871 0
74 -1228 -164 -1189 -1180 807 -1328 0
-237 -1392 -573 767 -590 -792 -484 541 761 366 1328 1247 -1249 0
871 780 1429 767 -365 1376 868 -405 1328 778 484 878 0
247 725 1328 1088 875 -1309 -1282 916 -969 767 -1239 871 484 -232 -405 0
-243 1287 1328 62 1076 -767 -1389 -254 -1261 -17 0
-966 -1309 -405 709 -693 -875 -1232 1328 -1043 767 -46 916 484 871 0
210 -1271 -376 1328 1072 -943 -484 767 468 0
97 231 -934 0
951 -57 0
-980 -198 -656 -188 699 376 -1018 767 -834 -484 1126 -100 1328 0
1390 -602 207 -464 1226 -866 0
164 807 -638 -1048 1418 305 -1328 0
-1345 -181 670 -847 -1012 0
987 -1153 0
-1058 -417 -60 435 0
-792 -761 780 767 -1392 366 -1249 -590 541 1328 -237 -484 0
449 -364 1187 -671 -1175 1328 -39 -975 -18 394 -1144 -767 758 0
250 -1324 -1345 0
-866 -871 1327 767 484 -1002 1328 -825 -1243 1008 0
1024 -607 902 649 514 1105 0
97 866 -1226 0
-121 -364 -671 -1175 1187 -18 394 1328 -39 -767 -1144 758 0
1328 -484 201 934 767 -1430 -476 0
484 -1033 767 1328 871 -334 1023 405 1012 36 64 -381 -782 0
-1328 558 -424 -870 600 576 0
772 -530 952 484 -269 -268 -871 1296 1328 767 307 -1257 0
1058 -637 -168 0
-860 -607 550 -796 1284 -1231 0
1264 22 -1150 0
484 -1340 485 903 767 871 169 1315 405 729 -298 1328 0
-789 -96 -449 -546 -847 0
484 -372 450 -808 -1360 -894 1328 -840 871 767 173 1427 -165 739 -1084 -405 0
1328 -1152 -767 -990 -370 -1159 -451 0
-495 767 893 405 484 871 -1266 1328 887 733 327 0
-747 -1253 -226 -649 -1007 0
-1012 250 -850 0
-1345 -709 -15 -118 -907 0
-170 975 -348 656 425 0
620 -100 -92 1018 1328 780 376 -957 -484 709 767 196 0
-767 828 -977 -185 1328 -1287 0
3 449 1328 912 -394 491 -671 -767 758 1230 -421 0
-1012 186 -643 -57 1228 0
1101 1328 -175 367 767 -597 -484 -322 0
-91 1328 847 -1332 -237 -38 366 -484 767 -792 1249 -820 0
487 299 -1328 -1218 0
-1058 417 1303 206 259 400 -1262 0
332 -1434 1328 405 871 -1075 -285 298 -244 -1052 -480 729 767 869 484 0
-1164 -1328 -927 -404 -55 -745 627 -81 0
-1024 -1211 -649 0
-1406 -550 -775 0
484 -46 470 767 -1312 1117 -405 1376 778 871 295 -841 1328 -1429 0
400 1131 259 417 -1058 -907 -1262 0
1248 -322 844 -412 490 175 1328 -777 -484 767 0
-767 -370 1328 -1439 1152 341 605 0
866 602 1185 0
-207 -1341 0
1200 435 -1122 -1279 1409 0
-606 453 1328 -812 515 767 -781 -871 -277 484 0
865 14 558 705 124 0
-173 -72 250 0
-709 -1113 -948 1170 -1025 0
-1377 -581 567 860 -226 0
245 1260 860 464 -1408 0
-767 -1133 1277 -1040 118 -941 768 -760 1328 -227 -566 0
-847 480 -1025 -96 -363 0
-1389 1287 -17 -767 1328 1076 -1261 62 -254 0
417 -1262 259 987 400 -1058 -1270 0
-932 987 -403 0
-935 578 -1302 720 -770 0
-1200 -1237 424 -243 -1244 651 730 -1328 309 -507 1114 473 0
-135 -1245 35 -983 90 -1146 1161 6 -865 0
871 -112 16 484 -839 -405 -740 767 -478 1154 -1373 1328 -1215 274 0
-626 1020 1328 -788 -987 -925 1345 -682 -871 767 484 395 456 1331 0
1274 -405 740 -1373 1328 -1200 767 484 -883 961 -432 -1292 871 0
518 -322 -399 -484 343 -175 765 1328 767 597 1379 -906 0
1264 -675 1231 -1377 -1289 0
-41 558 -1076 1328 -138 340 -401 1287 -767 19 674 0
-1424 135 97 0
-642 767 -1364 -361 -51 442 1116 -1314 514 -484 -107 1328 0
-484 1328 -189 282 -471 -1197 347 1424 767 0
-643 -274 -247 -1279 -1072 0
637 476 1323 -454 1328 -1430 877 -484 767 201 0
-767 -370 -1417 1426 270 1152 -605 1328 0
-127 -1090 -5 0
902 -1171 938 -415 -177 819 0
-637 -1058 -449 -417 0
-733 1303 975 656 1200 0
-405 -1312 -841 484 -46 778 -1117 -1429 1328 871 767 295 1376 0
142 -373 -127 1203 -450 0
871 372 356 739 484 -840 -405 390 1328 -894 587 1427 767 -1421 0
-930 826 -1374 -1061 528 1328 484 -1131 -871 1402 -997 767 0
484 1138 871 -406 405 251 767 -1260 495 1328 949 -1266 460 1068 0
-245 -282 767 1328 347 -484 -872 -189 162 0
707 -284 -661 6 -388 -602 1065 1146 639 59 -865 0
-916 767 484 -1094 708 871 -405 823 -1309 -1172 -1371 1328 0
-1328 -988 -461 815 1236 513 845 0
1167 -767 -784 1277 -227 1328 -408 -1264 941 -48 -1216 1238 0
-852 -991 -1211 0
-1303 184 663 -694 -459 -776 101 738 -658 1122 -534 0
-675 -1090 602 121 -1345 0
-770 414 892 -762 -30 -1340 0
187 1266 -669 767 871 1328 405 484 0
-189 -162 -484 767 1226 1240 347 1328 -282 -872 0
871 767 405 -1051 -1306 311 -881 484 197 -1147 -1118 1366 1328 719 0
255 353 -513 -1328 0
-1065 -90 785 0
600 576 -1328 -424 -870 -1444 0
-1072 1040 -1408 -207 944 0
1328 933 -937 767 -282 170 -189 872 1217 347 1194 -484 -121 463 0
484 405 903 -691 639 -298 729 485 767 1328 871 1315 169 0
-399 1213 1328 -484 597 518 767 -765 -906 -175 -322 96 1379 0
527 -534 -101 -776 19 0
-33 484 1328 -1250 969 -405 -779 809 -1309 875 304 916 767 871 0
-94 871 1328 495 1027 19 484 984 -860 -1266 405 -460 -354 767 0
23 -1072 656 0
1269 -1049 926 0
1065 -886 -103 -723 -857 -767 1328 1440 -879 704 0
-693 -405 809 -966 709 -875 767 -1043 1328 871 -1232 -1309 916 484 0
328 -900 1060 -1328 603 526 1349 683 -545 -1391 144 0
767 -405 947 871 1179 1328 -146 -114 484 -1149 1298 -1399 0
-348 1400 1303 292 1357 0
-877 -118 135 -733 573 0
22 1131 469 0
-557 -7 -1256 -1229 -762 1328 189 347 767 -484 0
-146 1328 733 484 871 1149 -1037 767 1275 -405 -978 0
-1150 -717 -420 664 602 0
-405 -778 -797 484 871 1328 1072 767 0
-622 1305 1042 272 771 325 950 -783 127 1012 1060 0
-850 -510 858 -1122 -643 0
-1400 -136 -1267 970 -148 -1067 1044 -520 -936 1397 -374 0
-1211 -1178 -877 0
-1072 -687 250 0
1170 -343 785 0
267 -87 1417 567 -1179 0
-1328 696 1178 -2 132 153 -513 -255 0
-1110 871 -1382 -405 -321 481 629 -631 1328 -801 -65 484 767 -382 0
-563 204 -29 -316 -945 -605 1152 -767 -1426 679 263 1328 -370 0
484 398 -1297 -871 767 531 -241 790 816 551 1328 1002 0
332 871 170 767 223 -346 1328 729 -1172 1062 405 -650 484 1434 -506 298 0
277 1410 -871 155 484 593 767 -1265 -1103 -544 1328 0
484 877 -1149 994 -146 1041 -1365 -405 767 -1372 1089 1399 -1130 1328 871 0
-524 847 -1137 993 1042 1305 -1170 -801 -325 0
128 767 861 -1402 1179 1328 484 158 -265 -871 -469 0
-484 -306 1430 767 -1006 574 -655 1328 832 0
-74 -1180 -1189 -225 -164 -1228 807 -1328 -1010 318 742 0
484 767 -621 -1427 -770 -894 1328 -794 -405 604 871 0
958 -1231 -767 1328 -1209 -183 -1128 1287 -674 -1034 -267 -1076 692 0
691 -932 -719 921 1439 0
164 1418 -1328 305 1048 807 0
-1208 523 1443 1328 1310 -818 145 767 553 405 871 709 484 0
-548 1328 484 277 -801 290 -544 1220 -871 767 1103 0
1328 1343 -759 -405 767 -1149 550 1345 -146 484 -233 871 579 1399 1372 0
877 1165 -1409 1328 370 931 -889 -767 -320 0
1203 -546 1439 -333 -1324 0
-546 606 393 0
517 187 361 767 216 -1432 -607 1328 672 -484 0
-1443 484 405 1328 -1127 767 1025 871 523 145 0
-55 168 -130 -1328 -137 -1009 -1203 616 -81 -1164 404 0
-1442 -737 -763 0
-546 975 -907 -1025 -991 0
-948 -1377 1231 801 1235 0
-1326 774 319 423 -1328 271 1218 1387 -1235 0
-1262 259 -1058 417 400 -274 -60 0
637 -516 -740 -1354 112 484 -405 -555 871 1166 767 -1373 1328 -411 0
-1232 -875 -405 916 -975 767 -966 -1043 1328 -693 484 871 709 -1309 0
-373 -96 -849 0
450 -770 356 -1255 -858 500 0
-382 -606 -308 -405 484 767 871 -65 631 1328 0
-789 -991 23 0
198 1328 -100 -834 -188 376 699 767 -656 -484 -1018 -980 0
1336 1328 1287 1362 806 -419 -1076 1345 -674 -958 -767 -1231 0
1058 -1396 977 0
-740 112 1354 1328 871 -405 484 -798 -1373 767 0
-578 -150 1011 968 -477 0
758 -39 449 -18 -1144 1187 -121 394 -767 1328 -1175 -364 -671 0
-1264 500 717 -944 490 -1075 0
-1274 785 -274 0
420 1328 484 753 -300 125 397 504 431 405 767 871 0
-1350 -886 -879 -723 1328 -103 550 -1440 -767 0
-405 484 -778 1328 1011 871 1123 767 797 0
-370 -341 -214 1328 635 605 1 -29 -1269 1152 -767 0
-858 767 484 871 963 1328 840 1427 -405 -894 0
1318 1040 -96 243 -733 0
-282 1240 347 -872 -944 1328 -162 -484 767 -189 0
1271 1328 -943 612 468 1072 -484 210 -376 767 0
-1192 534 701 -211 1345 57 -798 0
97 -414 -490 0
1328 227 -767 -9 -1129 -30 0
1332 1328 -38 366 -1203 767 -820 1249 -91 -792 15 -237 -484 0
548 709 1328 290 -544 -871 -46 -652 277 767 484 1103 1220 0
-1284 -948 -1345 435 -333 0
-767 420 1328 -194 956 -805 -13 465 -1075 -863 0
-1406 1203 1193 0
-847 -181 -1012 -1072 -643 0
-299 487 -337 1212 -1218 -1328 -1087 0
-840 -894 -405 474 946 871 500 767 -739 -1095 1427 484 1328 0
1145 -191 -839 131 1215 -405 -1373 871 484 -112 -40 767 -1162 -740 1328 1274 0
417 259 -1262 -1065 400 29 -1058 0
97 480 -852 0
1178 1399 -233 759 -405 -1149 871 1372 484 1328 767 -146 0
-368 -1406 -1284 0
639 263 -1426 204 -370 -767 1152 -945 -316 1442 679 1328 -605 0
1060 363 -1110 1328 871 321 629 -1098 -382 -631 -1382 484 -65 767 481 -405 0
-156 999 0
1328 767 580 65 -791 -1091 -2 484 -641 -405 871 1178 0
-807 483 -359 -964 -1328 502 731 0
871 -840 1427 450 739 -894 1328 484 1084 -405 767 -372 0
-1328 -773 1132 -589 513 -440 -296 -1236 -736 0
-484 -322 767 399 96 518 1328 -175 597 1379 0
-767 -310 -624 -67 -1196 1328 719 -465 -194 82 1316 -1308 -602 0
378 591 -1328 -55 619 81 -1164 -1158 0
-1178 -156 435 -568 722 0
1359 841 -405 -923 871 922 -1429 1376 295 -215 767 778 700 484 -292 1328 0
484 753 1274 -657 767 -537 405 -494 1328 -427 871 -786 1199 -433 -397 0
-865 1146 -661 -691 6 59 -602 639 -284 707 -388 0
-1377 1255 918 -1166 -717 0
999 0
767 484 -740 -1021 -405 871 -112 1328 874 -140 -613 510 -1373 -694 839 0
944 121 186 -1150 -87 0
767 -1273 1328 1402 181 484 -1004 1374 -83 96 242 -871 0
1328 -65 -382 767 -264 871 -1395 1060 -631 -522 629 -405 -481 484 498 -1193 0
29 -737 1340 0
785 -581 1416 0
-767 72 723 -1351 -443 391 1328 446 0
135 435 -1324 -733 1159 0
-100 -1018 -484 1328 767 1097 376 687 -28 188 -834 -724 0
-449 331 785 0
-1253 -1113 97 0
-932 633 0
1357 656 -1390 -420 -847 0
1328 -1415 767 139 871 -1376 484 -405 778 -670 0
546 767 1435 -631 871 -65 -405 1328 -382 484 -629 1125 0
-1218 -745 -1328 -1087 -299 -1212 0
784 643 -1264 941 -1081 -227 -598 1328 -767 -535 1277 -1224 0
-877 -1274 1058 0
-1311 487 415 0
-57 607 1228 58 921 0
1184 965 -1306 161 -1147 871 767 484 -1348 -311 -732 1328 1366 405 719 0
1062 405 -670 -650 332 1434 729 484 346 1328 767 871 -506 298 0
-60 61 -1025 0
1127 405 484 871 -1281 -1443 523 -1400 113 767 -293 145 1328 1139 0
300 767 125 753 397 405 1328 484 170 871 0
-751 1281 -709 0
-871 1433 1328 690 -1177 484 525 -456 713 1071 767 0
1328 -1410 -1103 277 -871 550 484 -848 -544 592 767 0
1284 -788 1345 395 -626 767 1328 -682 456 1331 484 -925 -871 1020 0
484 894 447 -405 767 871 -276 -647 -1255 1065 -795 1328 0
-983 35 1161 -865 -121 -1245 -135 6 -1146 0
730 -1244 309 -1261 507 -1328 -1237 424 1114 0
-775 -1178 722 -568 -934 0
-1101 633 0
277 544 940 767 -871 1328 -1193 998 484 -954 -154 991 0
-1032 -1428 578 122 -571 769 356 1302 0
-1161 -10 121 0
484 -141 -871 1328 220 -1258 -917 -615 -532 -439 -1301 247 1012 767 901 0
-557 189 -1229 767 1328 -135 347 -484 -7 -1256 0
944 97 762 0
405 278 871 1366 -965 767 1328 -488 -656 -1147 -311 484 -1306 149 0
-1196 624 82 -1308 1328 1316 -465 -767 -194 -67 -520 0
1200 -274 469 -1012 -719 0
347 471 1328 282 902 -189 767 -484 0
1107 -605 1152 316 -767 1054 -190 -691 -1426 1328 1274 -370 1346 0
-1328 -404 -81 1205 -1164 927 274 627 -55 1007 1361 53 0
-832 767 1328 -1053 -484 1430 639 256 1028 335 859 0
1200 999 0
736 -449 425 245 -1181 0
-1372 994 -1130 -1089 -146 -1149 1328 1399 484 1041 877 767 87 -1365 -405 871 0
-231 441 523 680 145 871 405 767 1208 484 -358 357 1443 1328 0
-183 1034 -1128 692 -767 -1209 -674 958 -606 1328 -1076 1287 0
181 -1079 1419 597 -484 -322 509 -1379 767 1328 -1030 518 -175 0
-798 -839 -112 -405 -1373 484 871 767 1328 -1215 478 -740 0
815 1024 1270 717 -1235 -1228 0
1158 81 591 378 -1328 -55 514 821 -1164 0
-850 -1090 -558 602 -1324 0
-1284 1368 -849 0
-747 602 -1090 -675 -1324 0
-368 1368 61 0
-413 -596 0
1297 1328 -871 203 767 -1441 -602 1002 1335 123 -1183 420 -1038 484 551 0
706 979 1424 -767 758 671 673 -435 1328 -174 0
778 -656 -748 1263 -876 871 -405 1279 1376 -295 484 767 303 1328 -1429 0
277 -1103 428 1029 -1410 -592 363 767 -544 -871 1328 484 0
-700 801 -1072 1282 921 0
-1090 -847 349 0
767 -1373 1145 -694 -839 871 1274 -405 1328 -740 -112 -191 1215 -40 484 -1162 0
-405 871 -631 1328 1125 280 -981 -65 767 484 -629 -382 -1435 0
-1277 915 -30 -918 -227 1328 910 -864 12 -767 0
520 -733 1040 -1377 1231 0
1058 1265 -1178 0
853 -977 871 1328 1202 146 -405 484 767 0
332 729 484 -506 -346 767 871 1328 -630 1062 1434 639 405 298 -650 223 0
-661 284 -865 1146 -388 -1159 59 6 0
-136 1044 168 -148 -1267 -374 -1397 0
-368 1417 243 -1150 630 0
-310 -624 -1196 -465 1328 510 -67 -602 -194 1316 82 -767 -1308 0
-840 -1360 -372 165 450 767 -1084 -894 484 739 871 1328 -405 -808 1427 0
333 1328 484 767 -871 500 1160 -1423 -1015 -830 -952 1296 0
807 -1189 -1328 -1180 -1010 742 -1228 318 -74 -164 0
206 -1153 0
701 -79 211 534 0
523 145 60 767 405 553 -818 871 -1310 -1208 -905 1328 484 1443 0
-767 775 -1175 -671 394 364 -1144 1328 758 0
718 -461 815 -1328 988 77 1236 845 513 0
-36 767 -676 -511 871 484 405 -381 1077 1328 -329 678 -520 1066 0
-370 160 -926 -1152 -990 1328 451 -767 0
-792 -1332 1249 -38 767 1328 -91 -820 -237 -484 1113 366 0
767 896 871 -729 -926 1328 405 -1086 484 0
220 1328 -871 484 1272 -438 637 675 141 1385 610 -1258 767 0
1028 -335 1328 -484 1430 -520 767 -741 -898 1174 -75 -832 0
-1266 495 1328 871 1068 -949 767 460 484 -1368 405 0
1236 513 -386 368 -1328 -846 -845 -482 240 0
1172 -991 -226 1409 801 0
-413 -717 1231 0
177 902 -415 851 1233 338 0
1328 -17 -254 62 -1389 -767 -1255 -1439 1076 1287 0
953 920 -1113 0
-713 -1390 736 -90 -1090 0
81 -378 -55 -1164 -1328 -745 0
-51 1394 -645 767 -1364 107 229 -361 -484 1328 208 649 789 0
-751 -1060 801 0
-664 1156 405 -1299 -1068 460 871 767 495 352 1328 484 -1266 -1401 0
-37 -871 1101 -1374 484 1061 1402 -1355 -1319 924 1328 767 528 0
1236 -240 -135 513 -845 -386 -1328 0
-1124 217 -1265 513 1073 1236 845 461 111 -1328 -885 0
767 1328 -1404 619 -891 -484 -793 366 1210 237 -792 0
1284 -1120 767 948 456 925 -871 1328 -519 287 1388 484 0
-982 -1328 -774 -1326 -1082 1218 1369 271 0
387 767 1296 1328 -268 -501 484 952 1257 -871 0
-268 490 -987 -1265 -1131 -206 0
424 -1237 -1420 -730 974 -1328 95 118 1393 934 0
393 -1390 -1226 0
-1279 596 46 0
-1235 1328 -767 -668 194 0
-87 -1270 1185 0
951 0
-257 -309 297 -1237 430 424 -1231 -1328 730 -267 -1244 93 0
1275 1037 -146 1149 108 1328 -978 -1255 484 767 871 -1439 -405 0
245 -420 1260 -87 464 0
-1025 -675 -719 -934 -420 0
-1249 -237 1392 -484 775 767 -590 1328 366 -792 0
145 767 680 484 1443 871 357 1328 -441 405 970 -1400 523 -358 1208 0
-361 -1413 -710 51 -1364 767 1328 -484 899 -339 47 0
-1309 -405 484 -969 1324 916 767 -1193 875 -1239 871 1088 1328 -232 725 0
-403 -558 1318 0
-885 1236 -1282 -217 461 1073 111 -1124 1284 845 513 -1328 0
210 1072 -484 -943 -376 1328 1271 767 468 0
-1040 566 -767 1328 -941 1277 -760 -227 0
-1256 1328 767 -484 -762 7 1161 -557 -1229 189 347 0
1220 1328 1103 767 484 548 -544 -871 852 652 277 290 0
505 -1103 1328 592 767 -1203 848 -871 1325 484 277 -544 -1410 0
620 -46 196 767 700 1018 -484 -92 376 -957 1328 -100 0
-90 -450 -1024 1231 -1150 0
670 656 -750 0
51 -361 767 1328 -484 899 1011 649 -1364 47 -1413 710 0
-140 -1373 -405 991 871 -112 -740 839 -613 1328 -225 -1021 767 874 484 0
400 -1442 -1058 259 417 1262 0
1287 -254 1328 733 -1389 -767 -62 1076 0
672 361 517 -484 -745 767 187 216 -1432 1328 0
-96 464 1170 -1090 1409 0
-832 -484 767 1430 1328 -1028 1143 -842 -1003 60 700 -379 0
767 -871 1004 1374 373 1328 484 1402 0
-1394 -1364 107 1328 1024 -484 -361 767 229 -51 208 -645 0
-267 405 275 767 871 484 -753 1328 -180 0
-540 -267 1337 1377 424 -554 -1237 -1328 1244 556 730 0
767 -1360 1328 -1084 763 -165 -372 -808 871 173 739 -840 484 -405 1427 -894 0
-301 -381 -36 405 1077 -1383 484 871 -678 1328 767 0
1104 -928 -1428 122 1302 571 1166 578 -972 0
523 871 767 1025 1328 405 1443 1208 484 145 -680 0
186 796 -1377 -1279 314 0
-752 -1328 1363 55 558 0
767 1317 173 871 -604 -1340 -794 -621 -894 -1427 484 -405 1328 0
871 916 1328 -975 1232 767 -1043 484 -405 -875 -966 -1309 0
-1345 736 -333 245 -274 0
703 -767 -1286 450 -1057 -886 -723 1328 356 879 919 0
1328 871 484 -1409 729 767 405 298 -1367 -332 0
-363 -479 -1060 0
328 -1375 -314 -1328 -1349 -625 0
425 1409 1040 630 -449 0
-739 871 484 1328 1427 -405 -840 -1095 946 -1357 474 -894 767 0
1328 767 -519 287 925 -871 484 -1120 948 -1255 1388 456 0
-408 941 -227 1167 48 -1216 -767 -1159 1328 -784 1238 1277 0
-100 1328 767 -188 -484 -1400 376 699 -834 -1018 -980 198 0
-581 -850 142 860 -719 0
671 -673 979 758 706 -767 1424 1328 0
1345 1012 405 767 -1356 381 1328 871 182 1223 484 -1320 0
-472 1339 767 220 -871 -1258 484 -396 1328 -141 -1352 -206 917 0
-960 484 614 1328 -405 767 1309 871 0
1425 1253 1378 -1044 344 -136 0
1328 797 833 -1123 932 484 767 -778 -405 -588 871 0
-57 -709 520 664 -156 0
1328 -767 1128 958 1377 -195 -1076 -674 -1092 1287 0
250 1400 -1025 0
111 1073 845 -1328 513 461 1236 907 1124 -885 0
-1119 452 63 -802 -164 -1189 1180 -1033 728 -1328 807 0
656 1185 -907 0
-1228 -206 510 719 -520 -1417 0
-5 -207 -1226 0
-765 -175 1328 96 518 -399 1379 597 1213 -484 -1282 -906 767 -322 0
-131 -849 -348 0
1328 767 -726 80 100 -484 -630 -670 234 1085 376 0
-10 736 440 0
369 792 959 -1219 -484 366 -573 -688 767 1328 1253 0
-1065 858 -546 469 1282 0
807 -79 -1189 -164 -1180 -1328 -318 -74 0
-1414 700 1328 405 637 1306 86 377 -1147 1366 767 508 484 871 0
1072 -425 1182 1186 136 120 168 0
-784 -1172 -227 408 170 1277 -32 -1206 941 1157 1328 -767 1412 0
-682 88 456 788 -253 1328 767 -871 -925 502 484 0
-403 206 -675 0
484 -277 789 -453 767 1328 -871 0
767 -835 1328 952 1093 127 659 1109 1257 -1282 501 -871 484 -716 1296 0
596 -1060 1265 0
1109 501 -659 1257 -716 952 1328 1090 1296 767 -871 484 0
477 1178 348 968 612 -578 -150 0
1328 397 767 484 871 -504 -300 125 -630 431 356 753 405 0
1328 -871 490 486 767 484 1002 1297 -123 551 1155 0
-420 -1289 -849 0
578 -1428 362 500 1302 -20 -122 0
-127 250 1260 0
-333 -847 785 0
1167 1277 -227 -1216 -408 -767 -784 -1159 1238 1328 -1200 48 941 0
131 1122 1349 144 -967 328 1391 689 914 -157 -545 -1328 0
1164 -1291 -686 -1407 -1328 -55 902 594 0
-1231 -484 -1085 1328 100 376 767 0
-694 767 1328 -740 -839 880 -478 16 871 -1215 -405 484 1274 -1373 -112 -1154 0
-733 331 61 0
-1442 -10 -1122 0
370 -722 -767 1328 889 0
-568 -643 -1179 -1270 722 0
236 -975 578 -1203 1428 1380 1302 24 700 0
-469 128 767 1328 181 -1402 158 -871 484 861 -265 0
30 -5 918 0
-373 953 -280 0
-1408 -490 1185 0
1328 1138 -2 -860 -1266 767 871 484 406 405 1068 460 949 251 495 0
464 -1289 -643 -333 -568 0
-1306 639 871 -1147 405 965 767 732 -311 1328 1366 484 161 0
-1416 -1328 807 452 -164 568 -1189 -802 -1119 -728 1180 63 0
871 484 495 405 502 1068 460 -1266 767 1328 -949 0
-1244 93 424 -309 430 -1231 297 730 -1328 -257 170 -1237 0
297 430 730 -1231 -257 424 -1244 -1237 -1328 93 -309 0
767 -1266 -460 484 -94 495 1328 -664 405 871 -984 1027 0
809 484 767 1328 875 -779 871 -405 -304 969 -1250 389 -1309 -33 916 0
-1153 -226 0
331 -400 259 -1058 417 464 0
-480 -935 -1200 -720 -831 -1172 -1302 578 0
273 -10 860 0
234 376 -726 767 1085 700 1328 80 -46 100 -484 0
379 -842 1328 -484 767 -832 1143 -1003 -1170 -1028 1430 0
1269 -19 1318 -763 1400 0
-1058 -1442 -417 29 0
-775 -1178 602 1172 -72 0
-1049 142 -343 0
-484 -98 832 -1006 -29 1328 709 306 574 767 1430 0
1328 1144 -671 394 758 -586 -767 -1175 733 0
-131 -1166 -751 0
-333 -546 -789 435 -1324 0
-781 1328 484 -515 -871 852 767 453 -277 -812 0
-219 5 0
-1068 1328 495 502 -352 460 246 -1266 767 484 871 405 0
871 -1282 -382 498 -631 629 -405 363 -522 767 484 -264 -65 1328 -481 -1395 0
785 858 -450 0
398 -805 -194 1328 -767 -956 465 -13 0
78 393 0
-168 -546 -932 1235 607 0
-948 -1072 -1113 -700 1438 0
-390 871 767 372 587 -894 -405 1427 484 -289 739 -840 1328 0
843 1196 -1013 1328 -744 -767 -465 -194 -464 351 0
975 633 0
-1049 -90 289 0
-405 1275 -146 1037 1149 108 871 -1255 1328 767 87 484 -978 0
-941 1277 768 -566 -1159 -227 1328 -1133 -760 -767 118 0
796 -479 722 0
767 1002 123 484 -34 1134 -1108 -871 -260 -866 -203 551 1328 1297 0
719 1328 -1147 1366 405 -1306 767 197 871 1051 484 311 -1118 0
-898 1328 767 -520 -335 -484 1028 1430 -832 741 0
57 -925 484 -682 1080 -871 -444 88 253 -133 788 456 767 1328 348 0
1228 -1181 -168 -568 1357 0
-865 59 -661 1377 6 388 1146 0
871 523 -1139 -1443 767 -293 1328 113 405 145 1127 -1281 484 0
-1012 58 -1090 -72 602 0
-1278 -1328 424 -383 1237 -1083 558 0
1277 -408 1328 -227 1418 -767 1216 -784 941 0
1328 -194 -866 -465 360 -767 764 -1196 67 0
417 1262 400 -1058 -348 259 -1369 0
1215 87 1328 871 484 -740 -839 -112 767 -405 40 -1373 0
1328 -1269 758 -1175 -767 -671 436 394 586 1144 0
953 301 -1345 0
-871 -128 -1402 -265 484 767 -339 861 1328 0
400 1262 1400 46 -1058 417 259 0
-247 -500 -170 -1345 -90 0
-747 393 -1424 0
461 -1328 1190 -1417 885 845 1236 -116 513 0
1442 -767 679 -605 -945 -370 -1426 263 -630 1152 -316 1328 204 0
1424 -1261 -289 -30 1226 -926 0
899 1328 -1364 710 19 51 -1413 -607 767 -361 47 -484 0
921 630 606 1269 -719 0
605 1328 -370 -635 -214 -1269 1152 -767 -341 0
22 1228 -502 0
86 700 405 -1414 871 484 377 508 1328 -1147 1442 767 1306 1366 0
-1324 -5 -643 0
-203 207 -34 1002 -1108 484 260 1328 1297 551 123 767 1134 -871 763 0
22 1417 1409 0
-177 1171 938 -243 717 156 -415 819 0
-1164 -1328 514 -55 -378 81 0
1439 393 1340 0
194 1390 746 68 668 -200 -767 1328 0
-67 110 398 -194 50 1308 -767 -1196 1328 -465 455 0
-1253 -1161 1318 -1025 -709 0
805 -194 1328 -767 465 717 0
767 -405 -693 809 916 484 247 -875 -1043 -1232 871 -1309 1328 -966 0
818 1313 -1208 871 222 727 -1400 1443 767 523 1328 -757 145 -292 405 484 0
902 1164 -686 -1328 594 -1291 -55 1407 0
-675 -902 -713 -1324 1260 0
-1075 -1434 767 729 -244 332 484 1328 869 285 405 871 298 -1052 0
871 405 767 -332 1367 -435 484 729 1403 1328 -908 298 934 -913 0
-640 -564 -700 0
135 -1065 -1166 798 1172 0
-795 894 447 767 -405 484 -1444 871 276 1328 0
460 -1266 871 767 1345 484 1068 251 789 949 405 1138 495 1328 406 0
-850 -675 -178 0
-894 871 -739 -474 -552 946 -1095 -840 1328 -480 484 767 643 1427 -405 0
1097 376 -724 188 -484 -100 767 640 1328 -28 -834 -1018 0
1419 -484 1328 518 -175 1079 597 -1379 -322 -1030 509 767 -1131 0
1112 -60 520 0
-991 -1011 -675 -643 -127 0
-1018 1437 1328 -1225 767 376 -1064 -484 -100 499 1279 834 0
357 1328 1208 -358 680 405 523 871 970 1443 484 767 -1203 145 -441 0
-572 -986 1181 -1328 -71 271 1218 1326 804 1011 0
523 484 8 228 405 934 -145 -126 1328 767 871 0
29 417 -259 -1058 -1161 0
-717 314 -1377 1203 796 0
1328 484 767 405 871 -523 -109 294 89 -230 -1400 19 0
142 999 0
-41 -340 -1076 -138 558 1328 -767 674 1287 -401 0
712 1328 1287 -674 -1231 195 958 1377 715 -767 1128 -1076 -1092 0
780 -326 -136 1044 -1358 15 148 -1063 1113 0
-948 736 -5 0
1200 -737 563 0
-207 866 596 0
-1175 -767 1144 758 -445 586 -331 1328 394 -436 -671 0
-156 858 -226 -649 -614 0
-1439 -1120 484 1388 -1255 925 456 -519 767 287 1328 -871 0
-103 -1321 1350 -542 1328 -1440 -886 -879 -767 -1214 1060 -723 0
1027 1328 -354 871 581 -94 -460 495 984 405 767 484 -1266 0
729 405 871 -298 -1269 484 1328 485 -903 767 1315 0
366 767 -435 792 369 -688 1253 -484 959 1328 -1219 0
-957 767 -100 1328 376 -573 620 1018 -196 -484 0
59 661 6 458 1204 1146 -865 -918 0
694 -1341 0
871 -405 767 -1427 -762 -621 -794 1328 -894 484 604 0
944 -1153 0
951 469 0
-942 -1328 1218 -567 -271 -1304 -722 371 115 0
1083 -1328 -383 424 -30 1237 0
920 121 -902 -713 944 0
767 484 -816 551 790 1002 -1297 -871 1424 1328 0
1328 872 -933 -484 -282 -884 1424 767 347 1141 -189 0
-1072 -1253 121 -1377 -1279 0
-1389 1328 1150 -767 1287 254 1076 0
1328 484 495 767 405 -460 581 -1027 871 -1266 0
-77 988 718 -1328 1236 845 -987 -562 -461 513 0
-675 -1012 -751 0
-1164 514 -55 821 -1328 378 591 1007 1158 81 0
277 484 356 546 -871 940 767 -954 -154 998 1328 544 0
-1235 1218 1387 -423 -796 -1328 319 213 271 -1326 774 0
1328 448 -366 -1381 619 767 -484 1176 0
376 620 -100 -196 -484 1018 1328 -957 767 780 0
1178 -578 614 477 877 968 -150 0
-86 -1147 1328 -1414 871 1306 1366 484 -292 405 767 0
-948 -127 -713 858 -789 0
-1129 1050 1150 1135 9 -767 1328 227 0
-237 -1249 666 1113 767 -792 1328 1398 590 -560 -533 -484 366 0
46 -640 -1406 0
480 -1390 -398 -700 -127 0
-1367 484 1328 -435 729 405 767 871 -332 298 0
239 767 -711 335 1028 1430 -859 -832 1328 -1400 -484 -1334 0
1326 71 -572 -567 -1328 1218 271 0
739 4 372 484 871 -894 1427 587 1421 1328 170 390 -840 767 -1172 -405 0
1059 -854 484 875 -1309 1347 131 916 779 1328 247 767 871 -405 969 601 0
1438 -1377 1235 186 -948 0
-227 -598 -1224 941 535 1277 -767 784 1328 -1357 0
-1058 -1226 -1262 259 400 -546 417 0
1328 1277 -760 -1133 -227 -941 -566 -767 -768 -1264 0
1328 -767 -419 1287 -958 -186 -806 -1076 -674 1362 0
-1161 -1211 135 0
1305 1289 -1042 1353 0
834 -499 -1018 -100 -1064 1328 1437 -484 640 767 376 0
1430 -832 1328 286 256 1384 1028 1053 767 709 335 -484 637 859 0
-482 240 846 -386 1236 368 -845 -1328 513 1279 0
1328 989 1396 -361 767 1364 -484 0
-584 -422 187 484 405 669 1433 871 767 1266 1328 -1169 0
786 871 767 -397 484 1328 348 -171 753 405 -494 0
-858 871 -405 -435 -1376 139 484 1328 -26 767 996 778 1415 0
-413 -1279 46 0
1377 -484 201 1328 -1430 -476 767 0
-1050 9 -1444 -767 1328 -1129 227 0
1 -370 1328 -214 635 -767 -1269 605 1152 -341 0
-1410 -871 484 277 1328 -1103 -848 592 767 -544 1060 0
847 871 484 1328 680 145 767 -358 1208 1443 523 405 441 357 0
785 1033 -675 0
801 -178 606 0
1328 -36 767 484 -381 -1077 -721 -135 1422 871 405 0
348 1373 -405 1328 871 767 224 484 0
-1373 484 874 -112 767 839 1328 871 -405 613 -740 274 -1021 0
1270 -42 713 -1026 -415 -338 815 -536 -1014 177 0
-737 670 656 0
-78 -414 -1289 0
-1264 1436 -1016 609 -6 -926 -918 -865 0
180 405 484 131 275 -753 1322 871 -539 -563 1328 767 0
1328 -871 -925 456 88 -440 -444 484 253 -682 788 1080 -133 767 0
-871 -1342 -141 220 -873 342 1442 1324 615 1328 767 484 -917 -1258 -179 0
424 730 1244 556 -1328 554 -1237 -540 -1357 0
1417 596 691 0
35 -983 90 -1245 1161 -1146 -464 -865 6 0
-1033 -917 -871 615 -1342 -141 -179 -873 767 -342 1328 220 484 -1258 0
-817 767 322 -827 -561 -425 -484 1328 0
1328 1424 979 671 -174 758 673 706 -767 0
-1369 250 -550 0
-597 -258 1101 1328 -1438 -175 767 324 -322 -367 -484 -595 0
-370 -990 1328 -1340 -1152 -451 -767 0
523 871 1328 405 222 1443 727 767 -1208 1313 145 484 818 637 -757 -1400 0
1112 331 944 0
845 885 -1328 116 461 1190 513 467 -520 1236 0
796 1235 -413 0
-405 131 767 871 -1162 -191 1215 -839 247 -1373 1328 -40 1145 -740 -112 484 0
780 -905 871 145 1443 -1208 1328 523 405 -818 767 553 484 -1310 0
-374 1267 -573 735 -497 -136 -148 1044 -743 0
1328 -644 -824 -220 767 -871 -58 484 44 0
-1012 -348 -719 142 -274 0
607 -170 722 -581 425 0
902 871 1427 -894 840 484 -405 767 963 1328 0
819 -245 -415 938 -177 -1231 1418 1171 0
1328 -484 700 -842 637 -1003 -379 1430 767 -1028 1143 -832 0
-796 1218 -1328 -567 -271 115 371 -1304 -942 0
1328 952 1109 767 501 1270 1257 716 484 1296 -871 0
1379 -322 518 -469 767 -484 399 1328 597 -175 0
805 -767 1289 1328 465 -194 0
185 1328 -767 1396 -1287 0
-942 -1304 -1328 1218 -271 -567 -115 0
332 871 244 767 -245 729 1328 -1434 484 298 405 0
-145 405 484 -628 1328 767 871 -858 523 -126 228 970 -8 0
1262 -502 417 400 -1058 -57 259 0
-79 -807 -1328 731 359 0
-368 -709 2 722 -948 0
1281 -934 349 0
920 393 -1253 0
767 -405 1427 -289 -894 -963 871 837 484 840 1328 0
1328 -606 -453 -871 484 767 -277 0
145 60 523 767 1328 871 358 357 1208 405 1443 680 484 0
-405 -112 -740 -40 767 1215 871 -1162 1328 -839 484 -1373 1145 191 363 0
-107 1328 767 1116 -51 -1364 -442 -484 1007 -361 0
231 1159 1255 -90 630 0
-809 0
484 -939 -212 -29 1366 1147 1328 763 405 -1280 871 119 767 0
-275 871 484 405 1328 -753 -796 767 0
484 171 767 -397 -494 493 -575 1328 786 -1193 405 871 -1303 753 -714 0
-792 -793 366 237 -484 619 -1404 -891 -1281 1210 1328 767 0
1172 -1390 -90 656 -1279 0
1397 -936 -1267 -1067 -1400 -148 181 -136 970 1044 -374 0
1417 -700 1172 -1072 -90 0
767 -871 1402 -1273 -83 1328 96 484 -1004 -435 242 1374 0
729 -244 405 -1052 1328 -691 484 869 298 -285 871 -1075 332 -1434 767 0
1157 941 408 -1412 -32 -784 -767 -918 -227 1328 1277 0
1328 -918 9 -1135 -767 -1159 1050 -1129 227 0
-243 1328 -254 1076 62 -1389 -1231 1287 -767 -17 0
-1328 594 -686 -55 1164 1407 1007 168 -1291 0
4 871 739 1328 1427 484 -405 1421 587 390 170 372 173 -840 -894 767 0
-1364 710 1328 -484 51 -607 -361 47 -1413 -339 899 767 0
-1274 400 417 1262 259 -1058 563 0
-1328 -71 -722 1181 1218 -986 804 1326 271 -572 0
1377 -1083 -1136 424 1278 -383 892 -1328 1237 0
729 1403 484 1367 1328 767 -913 298 934 871 405 -691 -332 -908 0
-1150 951 0
862 -871 767 570 489 -1296 484 1328 -425 0
-1345 -763 -1012 -558 1417 0
-381 767 1077 1328 1270 484 871 678 329 -36 405 -971 0
-621 -794 90 -1427 484 604 -894 -405 871 1328 767 0
-1024 -902 97 0
-415 -1235 -1014 1026 -338 177 0
-1131 993 -1137 -524 -325 1042 -1170 1305 -1438 0
-51 -361 -484 642 -107 442 -798 -1364 -1314 1007 1328 -385 1116 767 0
785 273 664 0
-1175 394 1328 -671 -664 -586 -767 758 1144 0
-1341 -809 0
1416 79 -737 0
-1122 1417 435 1200 -1011 0
-589 -1236 513 -296 -1328 -1132 490 -773 0
-1270 97 -156 0
-1377 2 567 664 121 0
-264 484 -382 -1395 871 -481 1060 629 -405 -522 767 -631 1328 498 -65 363 0
1282 -809 -413 0
405 871 767 1242 -721 -36 -1077 -58 1012 -1142 484 -1422 1328 -381 0
1146 1204 -691 -458 661 59 173 -865 6 -45 226 0
1415 -1376 871 767 -858 484 118 996 -405 -26 139 1328 778 0
44 824 767 -220 1328 -644 -871 -152 850 484 0
-226 664 -568 -763 1409 0
-55 -130 -1328 1007 404 -58 -1009 -1164 616 -81 -137 0
-211 701 534 -1416 -2 -1192 -798 0
1096 1430 709 767 -711 -859 1028 335 -832 239 1274 -484 1334 1328 0
1297 1155 490 1328 -486 756 -380 -480 551 1002 -871 -123 484 767 0
767 -347 -697 1328 -252 25 -121 -79 -547 -484 0
-1196 280 -194 -764 618 -767 1328 360 -465 67 0
267 -1090 58 602 -850 0
1328 570 -489 862 -1296 -987 484 767 -871 56 0
-424 -1328 1396 -600 0
298 729 223 -691 405 -506 -346 484 1328 871 639 -650 1434 767 1062 332 0
1328 -361 989 767 1364 -1444 -484 0
-55 1164 1407 594 -1328 902 1007 -1291 -686 0
-55 -992 -636 -627 -1328 -81 235 904 -404 -1164 649 0
-36 -381 767 1077 405 678 871 -971 484 1324 1328 329 0
-1260 789 -1368 1390 373 1345 0
1328 277 548 484 290 1220 652 767 -871 -544 1103 -801 0
1409 1329 -639 0
1416 -479 -568 0
-868 778 -365 1429 767 878 871 838 640 1376 -405 1328 484 -656 0
767 -1257 1296 772 484 -871 -135 1328 530 952 0
-987 817 322 767 538 1328 -484 -827 -561 0
484 871 -405 614 1328 -916 -708 -1309 767 0
58 1231 1318 1159 1439 0
484 1184 1328 -1147 1442 405 -732 1122 965 -1306 767 871 161 -311 1366 1348 0
813 -921 871 1077 -36 1383 767 -678 -381 405 1328 484 0
-1233 1105 338 -415 177 0
-581 -403 2 0
1159 785 1040 0
-381 871 767 -678 1328 -36 813 1077 -301 405 484 1383 0
318 -164 -1328 -74 -1180 -1010 991 -1416 742 807 -1189 0
-1150 -775 -1408 -717 -207 0
1143 -1028 1430 379 -832 60 1328 -1003 767 -484 -842 0
739 -840 484 1427 -372 808 871 1328 450 -1360 767 -1084 -405 -894 0
1328 220 -871 484 873 -1342 615 767 -917 -141 643 -1258 0
1417 -877 -775 -72 1172 0
-1328 328 1349 -914 144 -545 87 1391 0
487 1218 271 -1326 1330 -1328 -774 982 0
164 807 909 305 -1048 1418 -1328 638 0
-621 484 -604 -894 -794 -1427 1317 767 -770 1328 -1340 871 -405 0
1289 1328 -484 -976 1056 205 767 1364 -361 -989 0
1374 1004 -186 1328 -871 767 484 1402 0
-792 -573 -560 -484 -1249 1398 1328 590 533 767 15 666 366 -237 0
435 245 722 736 2 0
678 -225 511 -381 -36 405 1328 767 1285 1077 1066 -1033 871 -676 484 -329 0
484 -276 -405 894 1328 767 447 948 647 871 -795 0
-1355 528 -1438 1402 -871 -1374 1061 -1319 -888 -37 767 -924 484 1328 0
-405 -858 193 -837 767 1328 840 871 1427 484 -963 -962 934 -894 0
871 1023 643 1328 -381 484 405 -64 767 36 0
-1189 -1180 -1328 -164 807 713 74 0
1328 -154 -1193 767 -871 544 -954 484 277 940 -630 998 0
-639 23 1409 0
-438 -871 -301 -1258 1385 1328 -610 767 484 1272 220 141 0
1397 -1267 -148 -374 1067 -936 15 -136 1044 0
767 376 80 234 1085 1328 100 700 -670 -484 -726 0
-1426 639 -370 1328 204 -316 263 -563 679 -605 1152 -945 -767 0
424 297 170 730 -1237 -1328 93 -1244 -1172 -309 430 -257 0
1231 596 -717 0
546 1328 767 21 484 308 631 -65 871 -405 -382 0
127 -501 484 -402 1257 345 -387 1328 767 -871 952 -418 1296 -301 0
484 -304 247 -1309 969 -405 -33 875 871 809 916 -1250 389 1328 767 -779 0
-209 -405 484 -1429 -841 778 -975 -1312 -470 295 1328 1117 274 1376 767 871 0
180 1007 767 405 871 484 -753 275 1328 -1322 0
1349 -900 328 -1391 -545 683 -603 526 144 -1328 550 0
-767 -867 1328 -990 -370 450 -160 451 -29 -1152 0
1025 850 57 -1409 502 348 0
767 1028 -741 -75 709 -225 1328 1430 -832 -484 -898 1174 -335 0
-1410 -544 -1103 767 505 277 991 -1193 632 1328 -871 592 848 -1325 484 0
-581 722 425 630 -902 0
173 376 -100 -484 1328 1097 28 -1018 767 -834 188 0
-348 -763 464 1303 691 0
1193 -789 -849 0
767 -73 -755 332 -1062 1434 405 1328 729 298 871 -29 484 1005 0
-778 767 1181 1328 871 484 -797 -405 0
494 767 1252 871 405 1328 274 -685 484 753 -397 0
-977 865 -14 0
-1161 -564 -912 0
-322 1328 280 -911 767 597 -484 -175 -518 -317 -1207 0
-675 349 921 0
-1164 -1328 -55 -627 -404 -235 -81 904 649 0
-1429 303 -748 -295 1279 1263 767 -876 1328 -405 1376 -1203 484 871 778 0
1159 926 0
-224 -405 -787 348 599 1328 -694 1373 871 -677 767 484 0
1328 -175 -484 767 518 -322 -1379 1419 597 1030 509 -520 0
762 -733 -78 0
-1328 807 1019 1274 1333 -1386 568 1180 -1189 802 -164 172 0
877 -150 789 968 -578 612 477 0
-1172 1335 551 123 -1038 1297 484 1328 -1183 767 -1441 -871 203 170 1002 0
736 -849 -353 0
-726 356 80 376 767 -630 1328 1085 -484 234 100 0
-465 -194 420 -1013 -351 1196 843 -744 -767 1328 -231 0
796 -1369 0
-1237 -473 -507 -1244 1114 424 309 -1328 558 730 0
-1328 -982 1218 1082 -567 -774 -1326 271 -895 0
-10 -420 -1408 0
-1406 -687 -780 0
971 329 405 678 -36 871 -381 1077 484 1328 559 -921 767 0
-41 340 674 558 1328 -1076 -138 1287 -767 -401 0
917 -141 1328 484 396 -871 -1258 767 -1352 220 -472 1339 -225 1324 0
339 920 0
767 -258 1328 -597 -367 324 -1170 -175 -484 -595 -322 -1438 0
-449 630 -373 1417 1040 0
-1228 -74 -164 807 -1180 -1328 -1189 318 -742 -1010 0
743 -136 1007 -374 1044 -148 1267 0
-747 440 -398 1294 1264 0
-1328 1361 -81 53 627 168 -55 -607 927 -404 -1164 1205 0
1329 -747 -1161 0
1328 -242 1374 -1004 484 -871 1402 767 -142 0
-879 -1214 -723 -103 -1440 1328 1350 -767 356 450 -542 -886 1321 0
181 734 1328 -1374 1061 -1106 484 -1170 767 1402 -871 528 176 429 1355 0
292 -403 -719 0
1329 -353 440 0
87 -634 1014 550 177 -1111 -338 1284 -1078 -415 -496 0
-1058 417 400 1262 520 259 1131 0
-809 -614 -849 0
-1007 1235 -1408 -932 -902 0
366 1113 -688 -484 792 369 1328 1219 767 959 0
289 -90 349 0
-1193 484 848 1328 -871 505 -1103 1060 592 -1410 767 -1325 277 -544 632 0
1058 339 -1181 0
-722 487 -1235 -796 -567 1181 0
1329 -713 1368 0
850 871 1077 767 405 1328 -678 -381 484 -1383 -36 0
-653 494 753 131 484 871 685 569 767 -563 405 1252 -397 1328 0
894 276 90 871 767 -405 484 1328 447 -795 0
487 -1218 299 -1328 0
-1103 -544 -871 484 277 767 -593 1410 789 1328 0
-348 664 -500 79 -1122 0
1418 -1266 871 1068 484 767 949 460 1328 495 -1138 405 0
-1147 1328 197 -1118 1051 405 -1306 1366 181 871 484 767 311 0
10 -479 0
-1165 1377 -767 1328 -889 370 0
1328 -871 812 767 484 453 -277 -606 0
424 1114 507 -1237 -926 -1244 -1328 730 309 0
-484 767 597 -322 -175 509 1328 -1419 -1417 518 -1379 0
-314 1050 -1129 1328 -767 9 -1135 1150 227 0
871 1328 -397 -494 786 575 753 767 484 171 207 405 0
101 -658 1122 -475 459 -534 1442 -776 1222 719 -43 0
-1288 356 -630 -1375 328 625 -1349 -1328 -512 0
784 -767 -227 941 1328 1224 1277 1150 0
-767 -1231 -254 -1439 -1389 1076 1328 -17 1287 62 0
1007 767 453 781 484 1328 -871 -812 -277 0
1014 -860 -415 713 -273 1251 -1411 177 496 -338 766 0
-614 -1024 -156 -1065 858 0
484 767 -860 1328 -1103 -871 277 -1410 -428 -544 -592 0
-567 1253 -30 -1172 763 1090 0
643 -244 767 484 298 -285 -1075 405 1328 869 -1434 -1052 729 871 332 0
981 871 767 -629 -405 1328 -1435 -382 484 -631 1125 -1265 288 -65 0
563 -1166 785 0
-1428 578 1302 -122 1178 20 0
1328 -301 484 -644 44 -871 767 824 -220 152 0
-751 -809 975 0
-1203 -291 758 1175 1328 -1074 394 -671 681 -135 -767 617 0
356 -767 -694 1321 -1440 1350 -879 -103 -1214 1328 -542 -886 -723 0
405 -714 -575 -494 -397 753 786 484 171 1328 767 -1303 871 493 0
-1015 1090 1296 -830 -952 -1075 1328 -1423 484 767 1160 -871 0
484 960 -27 1309 1031 1007 767 -405 871 1328 0
333 -1260 -268 127 1090 847 0
1409 1075 655 -96 292 0
1328 -1147 767 405 -311 -1306 488 -965 1122 484 149 278 1366 871 -1241 0
-484 1179 448 1328 -920 767 1381 -147 1176 -366 0
-1193 -362 578 510 -1428 -122 -955 852 1302 -20 0
907 -520 1113 -944 280 -425 0
484 481 -405 -65 1328 -631 -1110 -520 -321 767 -1382 871 629 -382 0
767 -1381 1328 1176 -484 -366 448 -339 0
-792 -237 1328 366 1332 -38 767 -484 1113 -1203 -820 1249 -91 0
-136 -1444 -1044 -1378 0
1318 -1211 -1377 0
-178 -932 -353 0
852 500 1279 -1282 510 1178 0
-479 -700 46 0
1185 -449 944 0
-1027 -1266 405 484 871 767 -460 495 1328 502 0
-612 -1341 0
-767 991 -662 1152 -370 -225 -605 -270 929 1328 102 1426 0
-1428 122 578 571 -1104 450 -928 1302 0
-594 -55 -1040 1164 -1328 -1291 0
36 767 500 -782 1328 484 -334 1023 871 64 405 643 -381 0
-1162 1215 131 -405 -740 -191 -112 871 484 -40 1328 -839 1145 -1373 767 0
-534 1324 -694 738 -658 -776 101 1274 -459 663 184 0
-185 -1287 -767 1328 565 -977 -1259 -828 0
393 -57 -763 0
767 1011 871 797 -405 1328 833 484 -1123 588 -778 581 0
767 -146 -405 579 1343 -759 1372 1399 871 1328 1345 -233 -1149 789 484 0
-329 1328 -36 850 -1066 -381 1077 405 767 484 678 871 0
-819 -567 -415 -177 0
550 900 -545 144 -1328 1349 -1391 328 0
-751 1269 691 0
484 1179 89 294 1328 970 -230 -109 767 -523 405 871 0
-510 -274 -614 245 -87 0
405 -381 -678 1328 -813 871 767 1077 -76 1383 675 484 -36 0
34 -926 -203 551 484 1297 767 123 1328 -1108 1002 -871 0
953 135 -747 0
-645 -1364 107 -425 1394 1328 229 -361 -484 -51 1345 208 767 0
-410 101 658 -776 1345 -534 0
22 -953 0
-1122 292 -751 0
761 541 -590 1247 767 -484 -573 -1392 -792 -237 366 1328 -1249 0
-366 767 1328 -484 448 -1381 -920 1176 0
466 886 995 -134 -665 -723 -289 356 1328 -767 0
-1244 -473 309 730 -1237 -507 1114 424 -1328 -655 0
-1011 656 -948 1282 801 0
376 -620 118 1328 -100 1018 -957 767 -484 0
918 -450 -1011 1075 1269 0
871 1328 896 767 405 -1261 484 -729 -1086 0
-644 767 -220 850 -824 484 -871 44 1328 0
-832 286 256 970 -1384 -484 767 1028 1328 859 1053 1430 335 0
-1305 -221 353 0
1305 420 1042 272 -622 -783 325 -950 0
-799 -424 -576 600 -1328 -870 1377 -314 0
-433 -786 484 767 -537 1274 -494 1328 -397 1199 753 871 427 405 0
1231 -10 243 0
-449 -1150 121 186 -1270 0
142 -1166 -363 798 1282 0
1255 -90 -247 2 -170 0
-694 880 -1154 1328 -740 -478 -1215 -112 871 484 -839 -405 -1373 -563 767 16 0
1032 -571 578 809 -1282 122 247 769 1302 -1428 129 0
-449 1228 121 -902 920 0
-168 1234 0
767 484 1328 1376 -405 778 871 1072 -878 1429 0
1361 927 -1164 53 -81 168 1205 627 -55 -404 -1328 1007 0
-723 704 -103 -767 1328 -886 1440 -879 -691 -857 0
-871 484 767 -1368 1177 -456 1328 0
-1181 -487 61 0
400 -1262 1416 -87 417 259 -1058 0
1200 -348 393 0
-578 -968 -150 -314 0
1231 -368 -226 -450 -1150 0
-1319 -871 37 767 -1357 528 -1374 1328 484 -1355 1402 1061 0
204 -767 639 1152 -605 263 1328 -316 -370 -1426 -679 0
484 1328 -740 871 1065 1162 1215 -112 -405 767 -1373 -40 -839 0
-188 -100 376 1328 -699 -834 767 -1018 -980 118 -484 0
877 -677 1373 -1416 599 767 1328 871 -787 -405 484 -224 0
170 1328 -224 871 677 1373 -405 767 484 0
-1211 268 -333 0
1044 -326 -1063 -136 -573 60 148 -1358 1101 0
484 -382 -405 522 629 -631 -481 -606 871 767 -65 1328 0
1297 484 -871 1328 1390 203 1002 551 767 123 1183 0
1328 214 605 1152 1161 -370 -341 -767 0
918 -849 -1150 0
-775 -156 -1049 0
1318 -558 1112 0
277 -918 1328 954 767 -871 484 998 544 0
-1161 -348 944 858 918 0
1328 -871 1324 -152 -644 44 484 -220 824 -225 767 0
1085 234 -484 -46 -726 767 376 -670 100 80 1328 0
-178 -61 0
1328 1321 -723 -879 -1214 -886 -1440 -103 -767 -694 809 -542 1350 0
-664 767 405 523 871 1328 818 757 145 1443 484 -1208 0
-163 -736 484 -88 788 -1001 1328 456 767 350 -682 -925 -871 0
-168 425 1185 0
-871 484 1226 551 -1108 1297 767 1002 -203 123 34 1328 0
920 -649 -156 231 1400 0
775 1270 156 550 87 1369 0
-574 1328 1430 767 19 832 -484 0
-847 1131 0
767 1249 -237 1113 -820 -91 -792 1328 -38 366 -484 1332 0
1328 405 -292 1366 377 86 508 871 767 -1414 484 700 1306 -1147 0
1246 1161 -436 -1175 445 586 1144 758 -1294 -671 394 1328 -767 0
-758 -767 1221 1328 -762 -49 0
709 19 -1281 637 -231 934 0
-850 -546 664 -568 -719 0
1178 1433 1179 877 -314 612 0
-991 -96 -847 606 1444 0
1065 -886 1440 -1046 585 -857 356 1328 -723 -103 -704 -879 -767 0
767 405 1328 298 484 871 1418 332 729 1434 755 -1062 0
-1227 -143 -1103 -544 1328 -871 484 767 1410 593 277 127 -155 0
-1296 -570 1328 484 862 -871 -1260 767 0
932 147 -366 448 1381 -484 767 1176 1328 0
1391 -545 157 144 -1328 914 87 689 328 1349 0
844 175 -1248 -1264 -322 767 1328 -484 0
-138 -401 -767 674 1287 -41 -1076 -469 -340 1328 0
1302 1428 -24 1380 578 236 640 0
-254 -1261 -17 62 1328 1076 -1255 -1389 1287 -767 0
1234 243 0
-676 405 -381 -36 511 719 678 484 1328 -225 1285 1066 1077 -329 767 871 0
1328 1028 -832 1430 -711 -859 239 -484 -1281 335 767 -1334 0
763 767 871 939 1328 484 119 405 1147 1366 0
-1161 1234 0
1185 301 225 0
81 -1328 -55 -1164 378 591 168 1158 640 821 0
845 513 -987 -1328 461 111 -885 1236 1073 217 -1124 0
1444 745 393 0
1328 484 767 1296 952 -402 -387 1257 -268 -871 -501 -418 345 0
61 977 -558 0
-432 740 961 -1292 871 1328 -694 -29 484 -883 -405 -1373 767 0
1379 597 -399 767 -484 -142 518 906 -175 -322 1328 0
139 484 118 -1415 871 -405 1328 778 767 -1376 0
767 -433 -397 871 1328 -786 -494 1199 405 484 1012 -427 -657 -537 753 0
322 817 373 767 -561 -1170 1328 -538 -484 -827 0
-934 1294 -747 -15 1303 0
484 -975 916 767 -725 -405 871 -232 -969 -1309 1328 875 -1239 0
259 -637 -181 -1058 417 -400 0
1328 871 -65 -702 382 363 822 767 -405 -409 -480 -279 484 0
-443 72 -767 1328 446 723 356 -1351 391 0
-1258 -871 484 1301 -917 87 767 -141 1328 -615 220 0
578 877 122 928 1302 571 -1428 0
61 186 -1396 0
514 -1164 -1328 -55 -378 81 0
-767 -758 -49 1221 1328 558 0
-194 -744 1408 -464 843 -1013 -767 1196 -351 -465 1328 0
646 -997 -871 -1374 767 -1061 1402 -930 484 -1131 1328 -826 528 0
-81 -1328 -137 1024 -1164 -1009 404 168 -130 -55 616 0
1328 484 488 1122 767 1366 -965 -1147 -311 -1306 405 871 149 1241 1442 278 0
-1289 -1113 -709 655 1170 0
-767 1328 -1416 931 -889 -630 370 -320 1165 0
-1410 -1103 1293 -592 767 277 484 131 1328 -1029 -544 1173 991 -871 428 0
174 671 1328 -767 -944 673 758 979 706 0
245 -847 656 736 -373 0
1062 871 484 1328 298 1434 332 405 506 -1409 729 767 0
1302 578 -1428 122 -571 769 247 -1193 809 1032 129 0
-1328 -967 1349 914 -545 689 144 328 131 87 -157 1391 0
347 1328 767 -189 1424 1240 -484 -872 -282 -162 0
1150 942 1218 -271 -1328 -1304 0
132 -1328 -255 153 -1368 696 -513 0
-181 -1270 -1181 314 -1007 0
708 -405 -823 -1094 -916 247 871 -1309 -1371 767 356 484 1328 0
-490 -1408 -1211 0
736 1193 1058 0
766 177 1418 -338 -415 1014 496 1411 0
464 -1406 -207 0
-871 -1402 861 1328 -469 484 767 265 0
-1434 1328 332 298 869 871 767 484 285 -1417 405 729 -1052 -244 0
1234 225 0
220 -1258 141 610 484 -438 675 1328 1272 767 1385 -871 0
1328 753 484 -494 -315 -563 405 767 104 433 131 -313 985 871 -397 -786 0
736 -170 -1345 -368 -333 0
-484 -827 561 767 322 -142 1328 0
-1150 -207 -87 -398 -717 0
-92 767 620 -100 -957 700 376 196 1328 -484 -46 1018 0
-424 1396 -576 799 -1328 600 -870 0
-247 -72 -500 58 -170 0
631 871 -375 -65 462 -382 1328 484 -21 -405 -1265 767 308 0
630 -333 142 -373 58 0
-1208 405 818 145 767 -757 -1313 871 1328 484 523 1443 -1269 0
15 -1022 392 -1069 -164 1189 807 -1328 0
-581 722 -1007 1075 -902 0
1261 977 -78 0
-564 -1065 -90 0
1023 871 -381 36 405 -782 767 64 484 1328 643 334 0
1148 384 1258 220 -871 1036 484 -1115 -921 1328 767 0
-2 1328 871 -1091 789 767 -405 484 -791 65 580 -641 0
748 778 1376 -670 -405 1263 1328 -1429 484 767 871 -295 0
1260 987 0
-1396 -717 22 0
-786 767 -494 -433 -537 -1199 871 405 1328 753 -397 484 1274 0
-1179 -1178 1112 0
767 376 -484 -620 1328 -121 1018 -957 -100 0
788 253 -682 484 767 1328 88 815 456 1080 -871 133 -444 -925 0
880 -478 -112 767 -740 16 -1373 -405 -563 871 -1215 -1154 1328 -839 484 0
-767 490 68 -200 194 746 1328 668 0
-145 -126 -8 523 767 484 1328 -520 405 871 228 628 0
1181 1218 1326 572 -1328 271 0
-170 -1166 -719 -1012 -1289 0
-183 -1209 -267 -767 692 -674 -1034 614 1328 1287 958 -1076 -1128 0
-484 -339 47 1328 710 -1364 767 -361 899 51 -1413 19 0
-225 1328 1324 1258 -384 1036 484 -1115 -871 1148 220 767 0
547 -484 1328 -1261 767 -252 -347 0
573 314 1170 -373 -1279 0
637 -341 1152 1328 1 -1269 -214 -370 -767 605 635 0
-482 846 513 -845 -386 240 -440 -1328 1236 368 0
-96 1417 1439 -449 1040 0
-1147 767 1442 197 484 405 871 1122 311 881 -1118 1328 -1051 1366 -1306 0
767 842 -484 -832 -1028 60 1328 1143 1430 0
-1017 -1328 -1326 -722 982 1188 1218 -1330 -774 271 -695 -796 0
187 -1328 -807 -731 0
-502 722 0
1058 1131 425 0
1328 -405 -1309 484 1239 1284 -969 875 767 871 916 0
-908 -913 484 -435 1328 405 729 298 -332 871 1403 1367 767 0
145 405 1328 484 -1310 767 274 -1400 523 -818 -1208 553 811 1443 905 871 0
-975 1380 1279 578 1166 24 236 1428 1302 0
484 123 767 -871 1002 -1200 1297 763 260 -203 -34 1328 551 -1108 1134 0
-716 333 1328 -1282 1109 1296 659 767 -835 484 501 1257 952 1093 -871 0
926 -639 -737 0
206 400 417 -1058 1262 268 259 0
664 -1284 -363 1260 480 0
182 871 484 381 405 -1223 767 -987 1328 -1356 -1320 0
-187 -178 -581 0
-118 -219 46 0
-767 1390 1328 -668 194 0
1298 871 947 -405 484 767 1328 -920 -1149 -1399 -114 -146 0
1328 979 706 -858 671 673 -174 758 1424 -767 0
-1200 961 -432 484 -29 871 -1373 -1292 767 740 1328 -405 -883 0
484 242 767 1402 -1004 -871 1374 -1273 83 -142 1328 0
425 245 -1181 440 1294 0
-737 -118 -700 0
912 35 1245 6 -983 -865 -1146 0
1187 394 -1144 -1175 -767 -671 -18 -364 1328 -39 758 -1294 -121 0
-546 1265 -800 0
-630 767 100 -46 -484 234 376 1085 80 1328 -726 0
360 -194 -1196 764 -465 -866 67 -767 1328 0
1349 1195 -46 328 775 -167 545 -582 -302 -1328 0
904 675 -636 -404 -55 -81 -627 -992 -1164 235 -1328 0
376 -80 1085 1328 767 -484 100 640 -726 0
-767 1328 -243 -1287 565 -185 -1259 -828 -977 0
-852 -403 1203 0
-1029 -592 -544 484 -1400 -1173 277 428 1328 -871 767 -1103 -1410 0
-1439 -798 187 19 57 1345 0
-1020 767 -871 -788 456 1328 -1368 484 -682 -925 0
1179 -230 -523 871 405 89 767 484 581 -109 294 1328 0
-370 -1152 1328 990 -767 -243 0
-376 -484 1328 640 468 -210 -943 767 0
635 605 1328 -767 637 1 -341 -370 -630 1152 -214 0
718 845 -461 -301 -77 562 815 -1328 988 513 1236 0
-1417 -346 -223 298 767 1434 -506 405 -650 871 729 1062 332 1328 484 0
877 484 994 -1130 -146 -405 767 1328 -1149 871 1041 -1089 -1372 -1365 1399 0
-1061 646 484 -826 -871 -58 -1374 528 -997 -1203 -930 1328 767 1402 0
1328 -484 -1229 912 -1256 347 557 189 767 0
-443 -858 723 -391 -767 1328 -1351 0
-807 -964 -483 731 -1328 502 -359 0
-405 871 -382 484 -65 -308 767 631 1024 1328 0
1237 -1328 -383 -1278 892 424 -1083 0
941 1157 -784 -32 170 -767 408 -227 -1206 1328 1277 -918 1412 0
563 23 -348 0
-421 758 -767 -944 -394 -491 3 1328 -671 1230 0
-1330 1218 -1328 -774 -695 1017 271 1181 982 -1326 0
100 -484 234 1328 767 -670 80 -726 1085 356 376 0
-1025 1329 -970 0
-1106 176 1328 -1170 484 -871 734 1402 1355 -1374 528 767 -429 1061 0
-670 1253 -1444 -1357 -655 -762 0
-1261 767 -1243 1328 -871 -1002 484 825 0
1152 -1054 -656 1107 1328 -605 -1426 -370 1346 -767 316 0
744 398 -465 -1013 843 1196 -194 1328 -767 0
767 1243 -1002 -871 1390 484 1328 0
1328 -767 -565 -828 -977 -185 -1259 -1287 0
-177 938 -415 -245 -243 156 1171 819 0
-1150 435 243 691 -1270 0
-763 292 -1049 0
-1328 1304 1218 -567 -271 0
-55 -425 -1164 -1328 591 81 1158 -821 378 0
602 1329 -1390 0
-912 633 0
767 -740 -1354 112 -516 1328 -411 1166 -555 700 871 484 -1373 -405 0
948 -547 -252 -25 767 -697 1328 -347 -484 0
-647 894 767 1328 -795 484 173 -405 871 447 -1255 -276 0
-564 -274 -1274 0
865 1377 14 705 -124 72 -1318 0
1328 -246 1140 -1068 495 -352 484 871 767 405 460 -1266 -1228 1121 426 0
-333 1260 1329 0
1185 -247 1282 0
-859 239 767 1430 1028 1334 709 637 -484 -711 1096 1328 335 -832 0
1284 -1328 1236 1073 111 217 -885 -1124 845 461 513 0
-977 730 -1328 1244 -556 -1237 424 0
691 -1253 -747 -1024 -168 0
871 405 -1140 767 -1416 -1068 495 484 1328 460 -246 -1266 -352 0
2 -568 -413 0
-97 -800 0
347 1328 449 -933 872 767 -484 -1141 -282 -189 0
366 -237 1328 -1249 1392 -792 767 -484 -573 -590 0
-403 -1166 -510 0
-19 -700 655 -500 573 0
1231 -558 231 1159 1439 0
324 -484 -595 -258 767 -597 1328 -175 -322 -367 1101 -1170 0
1396 -576 -799 -424 600 -870 -1328 -267 0
529 667 -973 1146 -865 -1417 -59 6 -866 226 0
1180 452 807 -728 -1189 -802 -164 -273 63 568 -1119 -1328 0
317 -866 -484 597 -175 -322 -518 -1207 767 1328 0
1328 -871 -952 -1260 1015 484 1296 767 0
-1175 -436 445 394 586 1246 1144 1166 1328 758 449 -671 -767 0
1179 -328 -654 856 -1370 -1328 0
-1113 -1153 0
49 -283 323 -767 581 1221 1328 -758 -1294 0
-90 1172 -907 -1377 -1011 0
-886 -1400 -585 -879 -857 1328 -767 1440 -704 -723 -103 0
-908 871 298 1403 -435 729 639 484 767 405 -913 1328 -332 1367 0
1282 1193 0
376 -694 -100 -1018 724 767 -484 188 687 -660 -834 1097 -28 1328 0
1265 -1153 0
1295 1328 852 1077 1383 484 -381 871 -813 405 -301 767 -36 -678 76 0
1328 220 484 -1352 -472 991 917 -225 -1258 396 767 1339 -871 -141 0
729 298 871 332 -1434 -1052 639 405 -480 -244 -285 767 869 484 1328 0
314 469 -127 1203 -181 0
-892 349 186 0
761 767 1328 366 -792 -237 -484 -1247 -801 541 -1249 -1392 -590 0
-619 61 920 0
-564 722 -1181 0
-902 -15 -1324 425 -19 0
578 -1428 972 1302 571 1104 -928 -563 247 510 122 0
778 1376 -1359 767 871 484 -1429 -923 295 841 1328 -405 700 0
328 31 1349 1324 -545 -144 66 99 -1193 -1328 -416 0
101 -534 -225 -658 -776 -475 1442 459 1274 1222 -43 0
-51 107 767 -208 1328 -1364 -484 1105 -361 0
-563 -273 1180 -728 452 63 -802 807 -1328 -1119 -164 -1189 0
298 767 484 -1403 1253 -913 729 871 -332 1328 405 1367 0
1328 295 778 871 209 767 -1429 1376 -470 -405 -1312 1117 907 484 -841 0
788 1080 767 88 253 1328 -682 484 368 -925 444 456 -871 0
1087 -299 -1218 -1328 -977 0
437 698 1363 1105 752 -1328 55 0
449 450 -29 1408 -243 -1159 0
-325 -801 -1137 675 -1131 993 1305 1042 -524 0
-127 602 -1289 -1179 480 0
-1392 15 366 761 -792 767 -975 -484 1328 -237 -590 541 -1249 1247 0
1267 -1400 687 -735 907 -497 -136 -374 1044 -148 -743 0
258 -595 -322 -175 1328 767 -367 -597 -484 324 -1131 0
785 -775 -87 0
-1352 1339 917 220 -206 767 1328 -472 -1258 -141 484 -871 396 0
-690 -456 -245 767 -871 484 1328 -1177 0
596 -127 268 0
-1438 -167 1195 1349 328 -582 545 -1328 302 0
767 -366 448 -484 -920 -1176 1328 0
484 991 871 767 -65 629 481 1328 -1382 -405 -1110 -382 -631 -321 0
724 700 1328 188 -660 -28 -484 1097 767 -100 -834 -1018 376 687 0
480 999 0
333 325 272 -623 457 -1045 363 1042 -1033 1305 622 0
1182 168 120 136 1007 373 1186 0
-643 -1178 -247 -775 798 0
-58 -1077 -381 -36 -1142 -1033 405 484 871 -1422 -721 767 1328 1242 0
904 -1164 -55 -404 235 -992 -292 -81 -1328 636 649 -627 0
245 664 -1408 1260 -207 0
-1111 -1078 -860 -496 1014 177 1270 -634 -415 -338 550 0
871 224 1373 767 484 -722 1328 -405 0
-15 -643 -709 -907 -1011 0
405 -858 934 1328 -8 871 228 -628 484 523 767 -126 -145 0
-879 1328 543 -882 -767 -723 103 1000 -886 226 0
382 767 1328 822 -65 484 871 -702 1060 -279 -409 -405 -1075 0
-730 424 -1237 -186 -974 -1328 0
-692 -1128 958 -1076 -767 -674 1287 1328 1396 0
301 58 -403 0
-933 1328 763 -189 -282 -484 -117 767 872 1141 884 159 347 449 0
-72 1400 231 -1253 -1161 0
1328 767 1085 -484 -670 376 100 726 0
1328 361 -607 -1432 517 649 -484 672 216 767 0
408 1328 -767 1277 -918 941 -227 1157 -32 1412 -784 -1206 0
295 778 767 780 -1312 871 470 484 -405 -841 -1429 1117 1328 1376 0
979 673 -435 671 1328 706 -1294 -767 758 -174 0
-311 405 -563 1348 161 1442 -1306 484 871 1328 1184 767 965 -732 -1147 1366 0
-894 -405 372 739 587 226 1421 -4 1328 390 484 1427 871 767 -840 0
-1113 1444 -1408 607 469 0
721 484 -36 -1077 405 767 1328 871 850 -381 0
-700 245 607 -907 920 0
-245 -567 902 156 892 1418 0
724 -660 376 -1018 767 -484 -834 -46 -28 1328 700 -100 1097 188 0
-51 107 -1368 767 -1364 -208 1328 -361 -484 0
-1270 -1161 1172 -1179 -72 0
240 -1328 -845 368 846 -386 513 -482 1236 0
-403 1265 801 0
250 -487 796 0
775 871 767 1443 -553 484 523 1328 405 -818 -1208 145 0
767 -1255 -447 484 871 894 -405 1328 0
664 1438 440 79 1235 0
-688 1328 366 959 619 767 792 -484 -369 0
-51 -107 -361 642 -385 -484 1116 -1364 -798 -1314 442 614 1328 767 0
1357 999 0
-20 362 -1428 -122 1302 578 -480 0
-834 767 -100 1279 -484 376 1328 660 1097 188 -28 -1018 724 0
-322 -484 181 518 1419 -1030 767 1328 -175 509 -1379 -1079 597 510 0
1235 -487 22 0
-1328 974 -1237 -142 1393 -730 95 424 1420 0
-871 -1357 1328 861 265 484 -1402 767 0
514 -792 237 -1210 1328 -484 366 767 0
-737 1170 142 0
1170 -10 1438 0
1400 -970 -479 0
1275 -1439 -146 -405 1328 484 1149 108 -314 -978 871 1037 767 0
758 1328 733 -394 -767 -671 -3 0
975 -247 -564 0
-877 796 1228 1203 79 0
-1284 -479 -713 0
495 767 -1416 57 426 -1121 460 -1266 -352 405 -246 -1068 484 1140 1328 871 0
767 523 727 -1208 1443 1313 818 1328 405 145 -757 484 222 871 637 0
871 1328 1062 1434 729 405 -346 -630 332 484 298 -650 223 767 -506 0
-695 1218 850 -1328 271 -774 -1326 -1017 -1188 982 -1330 0
767 -109 -89 871 -523 -230 405 19 484 1328 0
-1377 1203 606 -1090 -207 0
484 -1103 593 277 -155 -1193 767 1410 1227 1324 -871 -143 1328 -544 0
484 871 767 1328 558 -778 1123 -405 797 0
-10 -1007 -168 0
-1178 -247 58 -156 798 0
1328 484 -871 767 -1296 -1235 -862 0
670 417 -1058 400 -1424 259 -1262 0
-540 1244 556 558 730 -1328 -1237 424 554 0
-861 1181 -871 1328 484 767 -1402 0
736 -398 -877 -156 1235 0
860 664 -1406 0
987 -948 97 0
-510 -1122 -850 58 -118 0
767 -484 637 1025 201 -1430 1323 1328 476 -454 0
-723 103 -879 -1193 882 -886 226 543 521 -767 1000 1328 0
-1374 1402 1101 484 -871 1328 1355 528 767 1061 176 -734 -1106 0
-487 796 -849 0
-698 -1328 752 1007 1363 55 581 437 0
-348 -1166 61 0
-719 664 79 -420 -850 0
417 -259 -1058 -1024 987 0
-842 -484 -379 -1003 637 60 1328 1143 1430 767 -1028 -832 0
153 -255 -2 -1328 696 -513 -736 132 0
-1303 405 1077 -381 -559 -1307 -36 1328 -1254 1012 767 678 329 971 484 871 0
1211 0
259 417 -1058 1193 -1262 400 -1060 0
767 1328 -896 484 407 -1035 -1086 -691 405 -729 -1439 871 0
490 -465 -50 -1196 -194 110 1308 -767 1328 -249 -67 455 0
-871 1328 861 -1402 158 767 181 484 1179 -265 128 0
-738 -459 -776 -658 -534 101 568 0
1267 -670 -374 1044 -148 -743 -136 497 0
807 1180 802 1019 -1328 -164 1386 1333 -1189 -860 172 0
487 -1328 -1218 299 0
273 -502 1329 0
-227 -1216 941 -767 48 1277 1238 -1200 -784 -408 -1159 1328 1167 0
-713 -564 -368 0
417 -1058 -1262 1172 400 289 259 0
-441 405 -1203 357 1443 767 484 523 1328 1208 -358 680 145 -58 871 0
1396 -799 -1328 -424 -870 -576 600 0
1293 1173 484 -544 767 -1029 -1103 1122 428 1328 -1410 277 -871 363 -592 0
926 691 -219 0
-818 1443 1328 871 405 767 -1208 523 90 553 1310 484 145 0
995 -134 -723 -767 1328 665 -1294 886 0
-343 1131 -403 0
934 -101 -776 -534 -527 1268 0
1406 0
1303 1159 121 435 -733 0
-78 -789 480 0
484 -1084 -165 739 1065 1427 -808 -894 767 -840 1328 -1360 -372 871 -405 -1200 0
1328 484 -871 1258 767 220 -1148 -243 0
484 871 -1149 1130 -405 767 -1365 1328 1399 877 -1372 -146 0
14 -267 1390 1377 -124 865 705 0
-301 -534 101 202 658 -776 -225 410 1324 151 0
767 1215 -112 -1162 -40 -405 -740 -839 -1373 247 -191 871 1274 1145 484 1328 0
484 139 778 871 -26 1328 -1376 118 -656 996 767 1415 -405 0
918 858 -733 -991 135 0
-1390 -1396 -400 417 259 -1058 0
-602 551 767 484 1297 260 1002 1408 1134 -871 1328 -203 -1108 -34 123 0
-1324 -581 -333 480 606 0
-405 871 -837 840 -894 90 767 962 484 1328 1427 -963 0
-670 -1044 -136 -344 1378 1425 449 -1357 0
-1211 -15 -1113 0
1440 -857 -704 -1046 -767 -886 1122 1328 585 -103 356 -879 -723 0
231 -568 -373 142 -15 0
-1153 1282 0
-871 615 -1342 220 767 -1258 -141 484 -179 -873 342 1324 -917 1328 -225 0
-871 -1109 952 484 719 503 127 1296 855 1328 1257 -1102 501 767 -1276 0
-1328 974 424 -1237 -1393 95 -730 558 0
-1362 1390 -958 -1076 -674 1328 1287 -767 -419 0
259 -1058 417 400 -363 -1262 225 0
-550 -849 -1369 0
-51 168 -199 -1116 1328 -361 -107 -484 -1364 767 0
-1021 767 -140 871 -694 -613 -405 484 -1373 -740 1328 839 -112 -225 874 0
408 1277 -32 941 1206 1328 1157 1412 -784 -767 -227 -918 0
-136 -374 181 -1400 1044 970 -936 -1067 -1267 1397 -148 0
975 -991 606 655 -907 0
1366 1328 405 484 767 1147 763 871 -119 0
-560 366 1398 -1249 590 -237 666 -484 1328 -792 15 533 767 0
736 -87 314 1235 -675 0
1430 -520 -832 767 -484 -741 1328 -225 -898 -335 1174 -75 1028 0
-1105 -1058 -417 -733 0
-747 -1058 -1396 -259 417 0
901 -615 -871 -917 -1301 -532 -225 1328 484 220 -439 767 -1258 -141 1012 0
-839 767 191 1328 -1373 -112 871 484 -405 1145 131 -1162 -740 -40 1215 0
363 1328 -791 580 767 871 789 -405 -641 65 484 -1091 0
977 -1377 1329 0
-1340 485 484 -1315 1328 -298 405 729 871 767 0
1197 -484 282 347 -803 767 1161 -471 -331 -1168 -189 1328 0
-564 801 -363 0
-1062 1434 767 73 729 298 405 332 484 -755 1328 871 -29 0
-822 767 -480 -409 -702 1328 484 -405 871 382 -65 0
767 -1176 448 -366 558 -484 1328 0
-592 -871 484 -1193 1173 428 -1103 -1410 -1029 277 1293 1328 767 -544 1122 0
1269 -1406 691 0
-958 373 -806 1362 -767 1328 -419 -1076 -674 1287 0
1328 -484 -741 767 637 709 -75 -898 1028 -335 -832 1174 1430 0
-480 767 1328 484 1427 -840 871 -405 1065 -552 -1095 -474 946 -894 -739 0
-604 1328 767 -894 1317 871 -405 -621 484 -1427 -770 -794 0
-510 -614 -368 -170 -87 0
1241 -1147 484 278 -311 1122 1366 767 488 1328 -1306 -965 871 405 149 0
-865 -458 -691 1146 1204 661 59 -45 226 6 173 0
1430 832 -1006 1328 306 -98 767 574 709 -484 -655 0
951 -747 0
-487 953 1235 0
267 -717 -733 1040 656 0
-747 22 135 0
934 523 871 970 -126 -145 484 228 -628 1328 767 405 -8 0
-510 563 1185 0
-1345 -849 -1324 0
1144 1328 -671 -1175 -767 394 586 -436 1161 758 1246 445 0
-908 1403 118 405 -913 484 -332 767 298 871 729 1328 934 1367 0
-1390 22 866 0
-1045 -1033 363 1305 1042 325 272 622 457 -206 -623 0
1012 457 325 333 -1045 -1033 1042 1305 272 -623 622 0
845 461 1236 111 -1073 1284 513 -885 -1328 0
767 1366 119 1147 -1280 484 -939 -212 763 450 871 405 1328 0
-614 393 1172 0
1328 -1075 777 -1438 -322 844 175 1248 -484 -412 767 0
1296 -501 484 852 952 767 -871 -387 345 -418 1328 -402 -301 1257 0
-684 1311 1369 -1235 415 -722 1431 0
479 0
-1051 -1306 767 871 197 881 1366 -225 311 405 -1118 1122 1328 484 -1147 0
-87 186 -614 1200 1303 0
-510 -449 -747 573 -118 0
1124 461 -1328 932 513 111 1236 1073 -885 845 0
-1260 -606 -469 850 1289 353 0
767 484 1328 797 871 -405 -1123 -778 833 1011 588 0
871 64 767 405 -381 1023 484 1328 36 -1075 500 -782 -334 0
1057 879 -723 -886 -767 1328 -1255 0
-1024 -514 -403 0
-789 393 480 0
-336 -1326 -722 1082 -774 -796 1218 895 -1328 271 1070 -982 0
520 -1181 243 267 1444 0
767 -405 484 -708 -916 871 -1309 -1172 1328 0
871 789 1328 767 65 641 -405 484 0
-1049 762 331 0
-886 703 -767 -1057 -1286 879 919 90 1328 356 -723 0
-164 247 172 1333 802 1274 -1328 1180 -1189 1019 807 -1386 0
767 -88 163 -682 1328 788 -871 -925 -736 484 456 0
684 415 1396 1311 0
1417 918 -450 1439 1203 0
974 95 -1237 424 -186 -1420 1393 -730 -1328 1377 0
-1013 -464 843 -231 1328 -194 -465 1196 -767 -351 -744 0
-112 -613 140 839 1328 871 -405 484 874 -740 -1373 767 333 -1021 0
1105 1328 51 -1364 -47 -361 767 -484 0
-719 22 -57 0
-1376 1328 484 139 871 778 -996 780 1415 -405 767 0
-933 767 -282 872 -189 347 1141 -926 1328 -484 -884 0
-1324 225 -479 0
-1213 518 -322 597 -906 96 1328 -175 -399 -484 767 -765 1379 0
484 871 1328 -405 65 767 789 -1091 -641 -791 -580 0
1426 -270 -602 662 -605 1152 1328 -767 -370 0
-414 -737 -1408 0
-770 1317 -604 -621 767 484 173 1328 -1427 -405 -894 871 -794 0
534 -211 1345 -1192 -1416 -798 701 0
797 1011 871 -778 -1123 484 -833 -405 767 1328 0
-902 -363 -1270 1203 -614 0
-775 349 -156 0
958 -1034 -1128 -1209 -183 692 1287 1328 -1076 -767 -798 -674 -1231 0
-1328 271 804 -722 -572 1218 -796 -71 1326 -986 0
-1279 1170 573 1255 1357 0
331 762 349 0
-534 776 763 -630 -1075 -261 1099 192 0
271 -1330 -1326 -1017 -722 1218 982 -1188 -695 -774 -1328 0
767 1366 1328 484 1122 119 1147 -29 -1280 871 -939 405 -212 0
578 -831 -1172 -720 500 -935 450 -1302 0
177 -338 496 -1251 -1411 -664 1014 -415 766 0
1328 640 778 -405 1429 -365 767 1376 -868 878 871 -838 484 0
-1303 767 -397 405 -494 1328 786 484 -171 753 871 0
-450 425 -72 1040 1294 0
484 -405 1433 87 218 11 767 146 1328 871 853 -1202 0
-194 455 -67 1308 110 -465 1328 -1196 207 50 -767 0
-1041 -1372 1399 -1149 1328 -405 871 -146 -1130 767 994 -1365 775 484 0
871 1328 484 -1400 -757 222 -1208 145 523 405 1313 970 727 1443 818 767 0
-356 417 -259 -1058 121 0
852 -866 -465 1328 360 -1196 -84 -618 -764 67 -767 -194 0
-671 -39 -1175 758 394 1328 -18 -767 -1144 -801 -1187 -364 0
-156 606 1170 1282 -1179 0
1328 871 -894 -405 -926 -1084 767 484 -840 -372 1360 739 1427 0
417 400 -687 -1262 46 259 -1058 0
639 -691 -661 6 -865 -1417 -388 707 -284 1146 59 0
-1328 638 -1048 807 1418 909 305 450 164 0
-227 -1277 -767 -1040 910 915 864 1328 0
2 -247 -274 -1011 670 0
-1203 631 1328 871 21 484 -405 767 308 -382 -65 0
-1065 -747 -1253 -1007 -1024 0
-1058 1262 400 259 -809 -131 417 0
758 -767 445 1166 -1175 -436 586 -671 1328 -292 394 1144 1246 0
725 875 -1309 1328 -405 -969 -1193 916 -1282 1088 -232 871 -1239 767 484 0
-194 -767 -464 1279 843 -744 -351 -465 1196 -1013 1328 0
-619 -417 -1058 331 0
-348 -274 -363 1282 -948 0
-767 1221 449 323 -1294 49 1328 -283 -758 0
-1259 -185 -565 353 -1287 -767 -828 1328 0
271 502 1218 -1326 1330 -1328 -774 982 0
-1148 -871 1328 1258 220 -921 484 767 0
-173 -1065 -479 0
-383 424 892 -1328 1237 1083 0
-1072 -118 -709 2 -15 0
1326 -71 -1328 -986 -572 1218 804 -722 1011 271 0
-845 -482 1279 -386 -231 1236 -1328 846 513 240 0
-178 977 -558 0
-96 -368 1260 243 142 0
-649 -479 607 0
-1297 531 -241 767 -866 790 551 -871 1002 1328 816 484 0
-871 220 -225 484 1148 1328 450 767 -384 1036 -1115 1258 0
553 523 -818 871 405 1443 905 970 145 -1310 811 767 -1208 -1400 1328 484 0
-1119 -802 63 1180 -164 728 807 -1189 452 -1328 -2 0
1297 1155 767 486 1226 484 551 1002 -871 1328 -123 0
-62 -1389 -767 1328 1076 1287 -254 -186 0
-1438 -469 343 -1131 -142 -1170 0
1328 767 -486 1155 756 1002 643 551 -380 -871 -123 1297 -480 484 0
-284 -865 1146 59 707 -661 1065 6 -388 -1417 639 0
767 871 405 -1266 893 -327 -897 1328 887 -495 -1255 484 -1439 0
1264 1159 -1211 0
722 -948 2 -1284 -274 0
1428 1011 1302 -1380 578 0
-219 -420 -414 0
1328 788 -871 253 -444 456 -440 1080 -925 767 -133 484 713 -682 88 0
-107 199 767 -51 -607 -1364 -166 -361 1328 649 -1283 -1116 -549 -484 0
767 484 1328 36 643 405 871 -381 -1023 0
-736 -350 484 -871 1328 -682 -88 -925 456 788 -163 767 0
1075 -1153 0
-1260 1257 1296 952 1328 767 387 484 -501 -871 0
-1277 -227 -910 892 1328 -767 0
-1237 -1244 -977 -1328 -93 -309 424 730 0
772 847 952 -871 -269 1296 767 -530 1328 307 484 -1257 0
-792 -237 1328 -484 767 -820 91 366 1249 1253 0
881 871 -1306 484 1366 -1147 767 1328 719 311 405 -1118 197 -1051 0
-602 1316 -194 82 -1308 1328 -1196 -767 -67 624 -465 0
1328 -484 1364 767 -989 -205 902 -361 0
785 -1161 -912 0
-74 -1328 -1228 -1180 -1010 -164 -1416 807 742 318 -1189 0
633 339 0
378 81 -55 -591 514 -1164 -1328 0
-952 -871 484 1296 -1015 -1160 767 1328 -1264 0
-722 1431 -1368 -684 1311 415 1369 0
937 347 767 -189 -282 1328 872 933 -484 -1294 0
1440 -879 -1046 -723 1122 -704 1065 -886 -767 -103 585 -857 1328 0
-71 1326 804 1218 -572 -986 -1328 1181 -796 271 0
-581 633 0
-484 767 -317 1328 280 597 -1170 -1201 -1207 -322 -175 911 -518 0
-450 -614 -90 -156 1228 0
-892 -5 1231 0
381 484 871 405 767 -1235 1328 1320 0
1328 -542 -103 356 -879 -1440 1321 -1214 -767 173 -886 1350 -723 0
-865 1436 -289 609 -926 -1016 -1264 -6 0
-178 -398 -1289 0
393 -733 762 0
225 23 -1345 0
871 484 -670 -1429 -841 767 1376 778 -1117 295 -405 1328 -1312 0
57 1328 405 767 484 312 -1366 1191 1100 871 -648 1442 0
-338 -415 -1228 -1014 -1026 -42 815 1284 177 -536 0
-671 1328 -1144 18 -364 758 -762 -1175 -767 394 0
-637 -564 1281 0
-173 289 -219 0
-484 -1229 347 414 -7 767 189 1328 -1256 -557 0
767 -145 405 523 -8 1328 228 871 -126 628 484 934 0
-178 1040 -1150 0
-1159 1328 -1216 941 -227 1277 -784 -767 1167 -48 1238 -408 0
-750 -1065 289 0
-96 -219 1357 0
142 469 393 0
-607 53 -81 927 -55 -1164 -404 -1328 274 1361 627 1205 0
-540 -1328 556 424 730 -1237 717 1244 1337 -554 0
767 832 1328 -231 -1006 574 1430 98 306 -484 0
-564 464 602 0
484 1328 -1309 916 -405 871 969 33 875 767 614 -779 0
-10 267 -1377 0
-450 -500 -1211 0
767 629 -264 -65 -522 -498 -405 -1193 1328 -481 484 871 -1395 -382 -631 0
134 1328 886 -767 -723 -1231 0
1444 -1377 1231 -1181 -907 0
-767 323 -1294 1328 1221 747 -283 -758 49 0
912 -767 -671 758 -491 3 1328 1230 -421 -394 0
-236 118 1428 1302 578 1380 0
501 -1109 767 952 1296 484 -871 503 1328 855 -1276 -1102 1257 333 0
1328 495 460 871 -1299 484 352 767 -1266 568 614 -1068 405 1156 1401 -70 0
-1011 121 -1253 1417 656 0
-673 706 979 671 -767 1328 -331 758 0
1251 177 1014 -1411 -273 496 87 766 -415 -338 713 0
-740 555 1166 871 -411 -405 484 -1373 -1354 767 1328 112 -516 0
-767 -1076 692 1287 -1209 1328 -1128 -674 -186 183 958 0
-72 -1270 -877 1172 1269 0
767 833 -778 -1123 -656 871 588 1328 797 -405 687 484 0
464 -643 -420 -333 798 0
457 1042 325 622 272 623 -921 1305 0
1444 -1012 292 520 -1345 0
664 -178 -502 0
606 23 -363 0
-800 -170 1303 0
-1320 -1356 405 1328 -182 1345 484 871 381 767 0
1387 -1235 -1328 -213 1218 319 774 -1326 271 -423 0
-800 655 520 0
-1196 1328 -194 67 -767 -465 -360 -866 0
860 596 1228 0
400 -1058 -763 1262 417 926 259 0
1328 597 -1201 -518 -484 911 767 -301 -317 -322 -1438 -1207 -175 0
-87 -1181 -1007 -1178 655 0
1114 -1237 424 -507 -1244 -651 -243 309 -1328 730 473 0
-534 -29 170 776 -1075 192 -261 1099 0
-1058 -417 926 1340 0
-1357 777 844 -412 175 767 -322 1328 1248 -484 0
238 374 -136 -148 -248 -1357 1044 0
-1109 484 -1102 767 1328 855 -871 -503 501 847 952 1296 1257 0
1203 480 349 0
958 692 -767 1209 1287 72 -1076 -1128 -674 1328 0
-1024 -1179 -168 480 796 0
-131 596 -510 0
-1328 -540 -554 1244 730 -1237 -1337 556 -1318 424 0
1328 -405 877 1373 484 348 767 -787 599 -224 -677 871 0
-1043 1328 -405 871 -1309 -875 767 484 916 -966 -975 1232 0
818 1443 767 484 523 145 637 757 -1208 1328 405 871 0
1328 -332 -1269 -1403 405 484 767 298 729 -913 871 1367 0
58 -751 -1324 0
204 679 263 -370 1152 -316 -767 -605 -1075 -1426 945 1328 0
-219 1193 480 0
-1427 871 484 -894 767 892 1328 794 -405 0
-1328 1019 -164 -1189 807 1180 -1333 802 172 581 0
-1328 424 1278 -1136 -770 1377 1237 -383 -1083 0
1323 454 -484 -231 -1430 201 476 1328 767 0
487 -1311 415 0
1328 767 281 -434 85 1402 -871 -1374 -528 105 181 484 640 0
-1438 -2 817 -484 -538 -561 767 322 -827 1328 0
1419 -1379 510 1328 767 -322 518 -1079 -175 719 509 -484 597 -1030 0
-625 -1375 -1349 328 -918 -1328 0
902 594 -55 -686 -1291 1164 -1328 -435 1407 0
-737 -1377 1261 0
-534 1442 101 -43 -776 -658 -475 -225 1222 1122 459 0
-397 685 1252 871 569 405 767 494 753 1328 -653 709 131 484 0
-484 -1085 100 767 376 1328 1011 0
-361 -51 -484 107 1328 -425 229 -1364 1394 208 -645 767 649 0
-1318 -1409 -267 705 14 865 -124 0
-245 -1328 773 -1236 513 0
-921 36 -381 1328 871 1023 -64 767 405 484 0
-637 -934 -750 0
1141 872 -121 1328 767 -117 159 -933 884 -282 -484 449 347 -189 0
-1072 -15 -1279 -709 79 0
-1166 633 0
484 -871 861 1328 558 265 -1402 767 0
1228 1231 -1150 -1065 858 0
-440 -461 988 562 513 -1328 718 845 852 1236 -77 0
-682 -871 -88 1328 767 163 -925 788 1369 484 456 0
-655 871 -372 767 1328 -840 808 739 -1360 1427 484 -1084 -894 -405 0
758 -671 1328 -291 617 -135 -1294 681 1175 -1074 -767 394 0
1181 -942 1218 -1328 -115 -271 -1304 0
-631 -629 -405 -801 -981 1328 871 767 -382 -1435 -65 1125 484 0
-267 1237 1377 -383 -1136 -1328 -1083 1278 424 0
-1090 -219 -127 0
-1370 -328 -856 -1328 -314 0
36 405 767 -381 1023 -782 -1075 1328 643 64 -334 484 871 0
-767 414 668 1328 -746 194 0
-1357 -670 -1044 1425 -136 1378 -344 -655 0
487 -1218 1087 -299 -1328 0
640 514 821 -1328 -55 378 591 -1164 1158 81 0
918 1040 -751 0
871 -231 -1077 -381 1012 -1422 484 -1142 -721 -36 1242 405 767 1328 0
1305 -921 420 1090 -1353 1151 -1042 836 0
-879 882 103 1000 -767 1328 -723 -886 -1193 543 450 521 0
932 55 1363 752 -1328 437 698 0
14 1377 705 -124 -1318 865 -267 0
-533 1328 767 366 -484 590 1398 -237 -560 15 -792 -1249 666 0
809 1032 -571 122 -1428 -1193 129 131 769 578 1302 0
-1120 815 1388 -871 767 1328 484 -519 456 925 -287 0
-1006 574 767 1328 -306 -1281 1430 -484 832 0
398 343 932 847 -801 675 0
-1011 -640 61 0
778 1376 767 -209 -841 1117 -405 -656 871 -1312 295 -470 484 687 1328 -1429 0
-1058 -207 -400 417 259 -356 0
-1181 567 349 0
-469 767 405 984 -94 354 -460 871 -1266 495 1328 1027 484 0
-1379 767 597 1419 509 -1030 -484 518 1328 181 -175 1079 -322 0
-1284 1260 186 -991 -546 0
-1153 -717 0
-1254 1324 767 1328 -1307 -381 971 1012 484 1077 405 -36 871 678 -559 329 0
113 484 -1400 405 523 1127 145 1328 -1281 1139 767 -293 -1443 871 0
-1195 -1328 545 328 775 -167 1349 0
-494 405 753 1328 484 871 767 -694 -786 315 -397 433 0
767 1328 -1364 -484 -339 47 -899 -361 51 0
-301 -36 1295 1077 1328 1012 484 -813 76 -678 1383 767 -381 405 871 0
902 729 1328 871 484 405 -1367 -332 298 767 0
767 -606 -163 1328 -88 484 788 -925 1001 456 -871 -1344 350 -682 0
-1026 -536 1284 713 -338 815 -415 -1014 177 -42 0
-187 79 -78 0
-123 1155 1328 1297 551 1002 -486 -871 -380 484 756 767 490 0
1193 -1341 0
277 -544 1328 767 -121 1103 484 -871 1220 -290 0
-541 -237 -1392 1328 366 -1249 -590 -792 767 90 -484 0
-484 -937 1217 1328 933 347 463 767 1194 -282 170 872 -1294 -189 0
-871 825 484 767 1226 -1002 -1243 1328 0
-1296 862 767 -56 484 -1260 -871 -489 127 570 1328 0
-414 999 0
1372 1328 -759 871 -233 767 579 1343 -146 550 87 -1149 1399 -405 484 0
656 -207 1040 -1289 944 0
-871 -925 1284 -1055 -1290 767 749 682 1328 713 484 611 456 0
-12 -864 910 -767 1328 -227 -30 -1277 915 0
167 1349 328 545 -1328 -607 0
-376 -484 -1271 -736 468 210 1328 767 -943 0
767 682 611 -925 749 484 932 -1290 456 -871 -1055 1328 0
920 -1024 1231 1170 1357 0
-932 785 440 0
719 -301 -1303 -1075 -231 -2 0
1172 798 -510 464 -1065 0
-141 484 767 333 -1258 1328 -396 -871 -1352 1339 -472 917 220 0
-282 -1294 1194 933 872 -484 767 463 -1172 1328 -189 -937 347 1217 0
951 -614 0
625 -1349 612 -1288 877 -512 -1328 -1375 328 0
366 -484 1253 767 1328 -688 959 -858 792 -1219 369 0
-952 -830 484 -871 767 1160 1423 -1015 1296 1328 490 0
-750 -902 -649 0
-767 -339 1328 1221 283 49 -758 0
-1209 -1034 -767 958 -1076 1287 -798 692 1328 -183 -674 -1128 -267 0
871 1122 405 1328 312 -648 1100 -1366 484 -1416 1191 767 0
763 484 648 -1366 871 405 767 1191 1328 0
678 405 871 1066 -381 -329 1328 -36 1077 -225 676 484 767 0
-333 -847 -564 0
-1087 1212 -1218 -299 353 337 -1328 0
491 912 -394 1328 -421 -767 -671 758 3 1230 0
-164 802 1019 807 -1189 -1328 172 1386 1333 363 1180 0
-796 -767 1351 723 1328 0
767 1376 1328 -295 303 778 -405 1263 -656 -1203 -876 871 484 -1429 -748 0
-1260 221 -1305 1405 -606 -440 -262 0
1058 -487 0
-480 -409 -702 500 382 822 767 1328 871 -65 -279 -405 484 0
1328 -484 175 844 -1357 1248 -777 767 -412 -322 0
-121 -1229 -1256 7 1328 -557 -762 -484 767 189 347 0
871 -1077 484 -721 767 1142 1328 -36 405 1113 -381 -1422 0
774 -1328 -1326 -319 1387 1218 271 -567 0
-767 -1057 1328 -886 -770 879 -723 -919 0
1172 -356 0
-607 1024 177 -415 -851 -664 1233 338 810 0
-796 -982 -336 895 1070 -1326 1218 -1328 -774 271 614 1082 0
1289 1243 -871 -1002 484 767 1328 0
-484 620 196 1018 -957 -92 -46 1328 780 -100 376 767 0
871 -868 878 838 1376 767 484 -1281 778 -405 1328 1429 -365 640 0
1434 767 -69 332 729 -1062 -1200 -1005 1328 871 -755 639 484 405 298 -73 0
1328 -354 1027 -1266 405 581 984 767 -94 495 484 19 871 -460 0
-1226 -800 866 0
-1406 -809 975 0
159 -189 763 -117 -121 884 767 1328 -282 1141 872 -933 347 -484 0
767 1408 832 1430 574 -1006 306 -484 98 1328 0
30 0
523 767 680 1208 1443 145 -231 484 871 1328 405 -357 0
22 -490 -1289 0
-1211 -363 1265 0
-1237 -186 974 -730 -1328 424 -95 0
-689 -545 328 914 1391 -1328 144 1349 87 0
1061 176 528 484 -871 -1170 1328 429 -1374 1355 1402 734 -1106 767 0
1008 1289 -825 -1243 -871 1328 -1002 -1327 484 767 207 0
951 1255 0
-175 -317 -1207 -484 -322 -1201 1328 -1170 597 767 911 -518 852 0
592 -544 -1103 -1325 505 484 809 -1410 1328 848 277 767 991 632 -871 0
1226 465 -194 1328 -805 -13 863 956 -767 0
774 -1326 271 -1328 -1368 -1387 1218 0
1122 -776 738 663 -658 184 -534 -694 101 -1303 -459 0
-274 -1065 1172 1318 -348 0
573 -449 -118 135 -348 0
1328 1402 -1374 484 -281 -1357 -528 767 105 -871 0
-363 1234 0
633 435 0
895 1082 271 -1326 -774 1218 336 -796 -1328 -982 0
1328 131 171 493 -397 405 -714 484 871 753 767 786 -563 -494 -575 0
1186 136 733 -1182 0
464 -1408 480 -127 -348 0
-1103 -143 767 -871 1227 484 1328 277 -155 -1193 593 1410 -544 -1265 0
131 1302 -571 129 769 578 809 1032 -1428 122 -1282 0
612 1007 -796 -267 -736 568 0
550 -405 218 1328 11 146 767 484 187 853 -1202 871 0
-550 -87 -10 0
-871 484 1183 156 767 1002 1328 123 1297 551 203 0
61 -398 -1289 0
906 96 -484 -399 -322 518 597 767 1328 -175 1379 0
-5 -173 289 0
-144 1349 -545 328 -1328 1433 -31 0
-629 -65 -405 -382 1125 852 484 -1435 767 871 -631 1328 -288 981 0
1011 -778 1328 -1123 687 797 767 484 871 -405 833 588 0
1002 -1108 1408 1328 551 260 -34 767 -203 123 207 -871 1297 1134 484 0
-181 -750 1357 0
326 1044 -920 148 -136 0
298 871 -1075 405 1328 332 767 484 -244 -869 -1434 729 0
245 -368 349 0
-368 -713 785 0
1438 596 1131 0
-405 840 -837 -858 -894 1328 767 -963 193 484 -962 871 1427 0
-1211 273 1228 0
403 0
1131 -259 -1058 268 417 0
1203 -19 -546 -247 1303 0
1417 1269 -403 0
-368 -948 -333 -1345 630 0
-478 484 880 -112 -839 -405 -740 1328 -563 -1154 871 16 1442 -1215 767 -1373 0
1248 -484 500 -412 175 -1357 1328 -322 777 767 844 0
1234 -713 0
-1120 -519 925 456 -871 1388 484 767 1328 713 287 1284 0
-871 1090 484 862 767 1328 -1296 -570 0
424 -1237 -507 473 -1328 -1200 1377 730 1114 309 651 -1244 0
484 -883 -1200 1328 -432 -1292 740 450 -405 961 767 871 -1373 0
1164 -55 -1328 594 -686 398 -1407 -1291 0
767 991 -1193 1328 -277 453 -871 515 -781 484 -812 0
-1442 -564 292 0
798 22 1303 0
-597 -231 -367 1328 1101 -595 767 -484 -175 324 -322 -258 0
484 1066 -206 1328 -36 767 -329 405 -1285 -381 678 1077 -676 871 511 0
292 -643 -733 -1012 520 0
-866 767 1328 123 484 1002 551 1297 1335 -1183 1038 -1441 -871 203 0
259 417 -490 -1262 -1058 -226 400 0
-1231 -243 1396 717 892 -186 0
-449 1040 691 -1072 1075 0
349 670 -780 0
168 1164 -686 594 -55 1407 -1328 -1291 902 0
-187 1058 -502 0
1056 767 -1439 205 1364 -989 1328 976 -361 -484 -1255 0
-363 1200 798 -398 1282 0
214 605 -341 -1269 -370 1328 -767 1152 0
277 -592 -1029 -871 1328 484 -1103 -544 -1293 428 767 -1410 852 1173 0
871 484 182 1328 -1320 -1356 767 1178 381 1223 -2 405 0
1328 -715 1287 712 -674 1128 195 850 -1076 -1092 -767 958 0
722 -1211 1235 0
-1309 -823 767 -1094 -1371 484 809 247 708 -916 871 -405 1328 0
-690 1328 484 -977 -456 -871 -1177 767 0
-405 484 -79 -647 871 447 -795 -276 1328 173 767 894 0
145 1328 871 484 1127 523 405 767 -1281 -1443 293 0
-487 0
-440 -1328 696 -513 -255 1178 132 153 0
-404 -1164 1205 -425 -53 627 927 -55 -81 1361 -1328 0
-335 1328 713 -484 1028 767 1430 898 -832 0
1328 767 -906 -322 -484 518 1379 1213 -399 -175 96 597 -765 -1170 0
-347 912 -547 767 -252 -484 697 1328 0
-135 1175 -671 1328 -617 758 394 -767 0
-1073 1236 461 948 111 -1328 513 -885 845 0
-767 941 48 -1216 -1200 1277 1238 763 1328 -227 -408 -784 1167 0
-1239 -969 875 871 -405 1328 -1282 725 -1309 -232 1324 1088 767 484 916 0
-465 -767 -231 -351 843 1328 -194 1279 1196 -1013 -744 0
-428 -1103 -871 -1410 767 1328 363 484 -592 277 -544 0
1176 581 448 1179 -366 1381 -147 1328 767 -484 0
1366 405 1414 1328 -1147 1306 871 484 57 767 0
1328 347 -471 -331 803 1197 767 282 -484 -189 -1168 0
-1328 420 -1375 -512 1288 328 -1349 625 0
767 875 -405 -1239 871 484 -969 -1309 916 1328 207 232 0
-1147 484 86 -292 1328 405 -1414 767 1366 508 1306 871 637 377 0
1444 1303 656 -348 975 0
1427 1328 -552 -894 173 767 -1095 -474 484 500 -840 871 -405 -739 946 0
694 -274 -751 0
-1442 -763 -750 0
-615 767 -532 -871 220 247 484 -917 -141 901 -439 -225 -1301 -1258 1328 0
1303 -19 -1007 -15 -902 0
-456 690 -745 -525 1328 484 -871 -1177 767 0
-1279 -800 -118 0
871 1100 1122 1191 484 57 -648 -1366 1328 312 405 767 0
-259 417 -1058 -637 -1442 0
-767 -370 -1417 1426 1328 -605 1152 -929 -662 -270 0
1025 120 1007 373 1182 136 1186 0
-404 775 627 -81 -927 -1328 -55 -1164 0
871 405 1328 -896 484 -1086 -729 767 -407 -1439 0
1438 1264 1439 -1408 1269 0
-227 -784 1277 1328 -767 408 1150 32 941 0
484 277 -505 1328 -1103 -871 848 -1410 592 -480 767 -544 0
-181 1234 0
-44 -220 484 767 -644 643 1328 -871 0
767 -347 -252 547 1424 1328 -484 0
772 1296 269 -871 -530 767 -1257 952 1328 484 847 0
767 946 226 -405 -1095 1427 -894 552 -474 -840 1328 871 -739 484 0
1131 -800 142 0
484 -1374 429 1328 1402 734 528 -871 1061 1355 -1106 176 767 -292 -1170 0
1307 -559 971 767 -381 871 678 329 1077 405 1328 1324 -36 484 0
366 -792 820 -484 -237 1249 1328 368 767 0
-737 -1274 -170 0
1224 -1264 1328 -227 784 -767 1277 941 0
-181 -1090 469 267 464 0
-1263 -1429 -295 767 1376 -405 1328 778 484 871 1072 0
-840 356 484 372 767 1328 739 871 -405 -587 -894 1427 0
-1012 -713 1260 -156 58 0
-751 796 -1181 0
3 -762 -671 758 421 -394 1328 -767 0
343 -484 1030 1328 -1379 767 -322 518 -175 509 1419 597 0
335 -484 -832 1334 -231 -1096 -859 767 1028 1430 239 -711 1328 0
1328 -409 871 382 822 279 767 -65 -702 -405 484 490 0
-311 -1306 1442 965 -1147 767 1328 405 1366 871 -161 484 0
-655 -344 1378 -1044 -136 -944 -1294 1425 0
1065 871 -894 484 -770 767 -794 -1427 -405 1317 1328 -621 -604 0
1055 456 -925 611 932 484 1328 682 749 767 -871 0
-1420 -186 -1328 -730 934 1393 974 -1237 95 424 0
1328 484 523 405 -1310 1443 871 -1208 767 811 553 -1400 145 905 709 -818 0
1159 23 -1150 0
1439 -274 1159 267 -717 0
484 353 -871 -456 767 1177 1328 0
1012 1305 325 622 457 272 1042 -1033 -206 -1045 -623 0
-87 -72 -1179 135 1172 0
1402 484 -1374 -176 1355 -871 1061 767 -1170 1328 528 0
469 -78 142 0
-1328 -164 -392 807 -1022 -664 1189 0
-524 1042 993 847 1305 -1438 675 -1137 -325 0
767 -920 -792 237 1328 366 -484 -1210 0
-413 -907 -687 0
1185 -649 -1024 0
-1211 1303 -1274 0
-834 -1018 767 376 -188 -484 699 1328 -656 -198 131 -980 -100 1126 0
-1150 186 1294 -1161 1228 0
-792 -1249 1328 -237 60 590 -1398 -560 366 666 -484 767 0
747 1328 -189 -484 282 767 347 471 0
-1373 -1292 484 1328 871 740 883 -405 -1200 767 -432 961 0
1303 1400 1200 292 -373 0
484 767 871 -206 1328 405 76 -678 -36 1383 -381 -1295 -813 1077 0
-1162 -839 871 -405 -740 484 767 -40 1215 -1145 274 -112 -1373 1328 0
-1149 -146 -405 1328 871 1369 233 1372 767 484 1399 0
347 767 -484 189 -762 557 -1256 -1229 1328 0
-142 -1353 836 -1042 -1151 1305 0
767 1328 1430 1006 -655 574 832 -484 0
1410 -871 143 767 96 277 484 -155 -544 1328 -1103 593 0
484 1328 871 767 -631 -405 -382 481 1382 -65 -606 629 0
1328 -1094 -405 767 -1294 -1309 484 -916 1371 708 871 0
1328 149 405 1274 767 484 1366 -311 871 1122 278 -1147 -965 488 -1306 1241 0
-1424 -78 -747 0
801 691 1439 1264 -1408 0
771 -783 1060 -622 1042 950 1305 325 -1265 272 363 0
30 918 -219 0
-1024 -902 -800 0
-1211 301 225 0
-736 -1328 718 562 988 1236 -77 815 513 845 -461 0
-484 767 487 -216 361 1328 0
-780 633 0
-100 1328 834 1437 1225 499 -484 376 907 -1064 -1018 767 700 0
1328 -484 -367 767 -175 -258 -1170 -322 1279 324 -595 -597 0
-479 630 29 0
-195 -674 892 1128 1328 958 -1092 1287 -1076 -767 0
-736 -987 948 -440 353 932 0
1146 -1204 6 661 -267 -865 59 0
-534 776 -1439 -192 0
999 762 0
860 259 400 -612 1262 -1058 417 0
-1354 767 -694 -740 -1373 1328 -411 -555 484 112 -405 -516 1274 871 0
-815 1368 953 0
187 1212 -1328 487 -299 -1218 -1087 -337 0
92 1328 767 -484 1279 196 1018 -100 376 -957 620 0
-55 627 -81 -927 -607 -1164 -404 -1328 0
484 -432 -1373 -961 274 740 -405 1328 -1292 871 767 0
-314 871 -729 1328 407 -1086 484 -1035 767 -896 405 -1439 0
475 -534 459 -658 57 101 -776 0
-322 597 -469 -1379 -175 1328 518 -509 767 -484 0
-1390 -420 -581 1159 1075 0
745 951 0
714 -494 -575 484 767 171 753 -397 405 786 1328 871 96 0
274 -58 -1281 -292 581 -435 0
-219 -763 -1122 0
-705 14 865 1150 0
-573 148 -326 1113 -1358 -136 1044 -1063 60 0
484 -748 -1429 -405 -303 1328 871 -876 778 -295 1263 1279 1376 767 0
484 871 -1162 -839 -740 -1145 -112 -40 -405 -1373 1328 1215 -656 767 0
878 1328 484 -868 838 778 -405 871 -365 1429 1376 640 767 687 0
1294 -1341 0
-1370 654 -328 612 -1328 54 877 856 0
767 1328 1315 -169 485 -298 903 405 -1340 729 484 871 0
-671 -291 394 1175 617 -767 681 -135 449 -1074 1328 758 0
1328 -65 484 702 382 767 871 -480 -405 0
767 -1061 528 997 484 1402 -871 -930 -1374 -1131 1328 0
871 -1429 767 778 484 -405 368 -295 -1263 1328 1376 0
1436 -30 -865 1016 -6 0
405 484 -506 298 729 1062 -926 1328 1434 332 650 767 871 0
1421 484 -894 767 173 4 -405 1328 390 587 739 1065 871 372 1427 -840 0
-614 -156 -90 -713 -500 0
228 -126 -628 -145 -8 405 523 1328 484 767 871 934 0
767 -339 1328 -361 -1364 51 -484 -47 0
23 -187 1416 0
200 1390 68 194 -767 1328 746 668 0
-1391 550 -545 328 -1328 -603 526 -900 144 877 1349 683 0
-871 1071 767 1284 187 484 -456 690 -1177 525 1328 0
-15 -60 0
871 -112 1021 -740 -405 510 484 874 839 1328 767 -1373 0
-767 -227 -1264 1277 941 535 1328 -598 -1224 784 0
495 502 871 246 -1068 405 460 -1266 484 1328 767 -352 0
767 1381 448 -366 1328 -147 -920 1176 -484 0
-871 -1103 1328 789 484 767 592 -1410 -544 -848 277 0
-561 -538 -484 1178 817 -827 -2 322 1328 767 0
-896 -79 -1086 405 767 -691 -1035 407 1328 871 484 -729 0
-631 -1193 -481 -65 -1282 -405 871 629 -522 498 484 -382 1328 -264 767 -1395 0
-767 -671 449 1230 -421 758 640 3 491 -394 1328 0
636 -55 -1164 -292 -1328 1007 -81 -404 -992 -627 904 235 0
203 1335 767 -1441 1328 123 -602 -871 484 1002 551 -1172 1297 -1183 -1038 0
-752 -1444 -1328 55 1363 0
871 -714 171 753 131 484 -575 493 -494 -397 767 405 -1303 786 1328 0
1033 921 -750 0
-46 1302 236 -1203 1166 1428 1380 24 578 0
141 -1258 -1272 675 -871 484 220 1328 767 -438 0
692 -767 -183 1287 -243 958 -1209 1328 -1076 -1034 -674 -1128 -1231 0
767 -322 -175 324 1101 -484 1328 -595 -597 -367 258 0
-722 333 1442 15 247 -1159 0
980 1328 -1018 -484 -860 -834 376 -100 767 -188 0
-980 699 198 -484 -100 -188 376 767 -1018 1328 -834 640 0
-908 -913 729 118 1328 1403 -435 298 484 767 405 -332 871 1367 0
-156 231 -247 -1179 798 0
-1372 1089 994 -1149 1041 1328 767 -405 484 -1365 -146 850 -1130 1399 871 0
72 -767 568 1328 -1351 446 723 -443 391 0
-1147 311 713 484 1328 -197 -1306 767 405 1366 871 0
132 -1368 -513 -1328 -153 696 -255 0
-1266 246 871 405 484 -352 460 -1068 -1416 767 1328 495 0
-19 -709 -849 0
1366 1328 -1147 1184 -732 1442 484 405 965 1348 -1306 767 161 -311 871 0
81 -1328 378 343 591 -821 -55 -1164 1158 0
578 -720 356 -935 -831 -480 450 -1302 0
573 -902 -1011 -168 -510 0
-775 -1279 245 -614 656 0
824 1328 152 767 44 -644 484 -871 850 -220 0
97 655 520 0
1001 -88 788 1344 1328 614 -798 350 -871 -925 -682 -163 484 767 456 0
-514 -1105 -178 0
360 -194 -767 -1196 1328 -465 618 398 67 -764 0
-1439 871 -495 887 -79 405 -1266 -897 767 893 484 1328 -327 0
-343 1131 1112 0
1261 -417 -1058 -892 0
-178 -640 -1011 0
-544 277 1328 1103 652 767 -871 -1438 548 1220 290 484 0
-602 1328 -335 1430 767 -484 741 1028 -898 -832 0
-607 810 -415 1233 -664 177 368 338 -851 0
405 1366 1328 -1147 767 161 -732 1184 -1306 -1033 -1348 -311 484 871 965 0
-375 308 -405 -65 1328 -21 871 767 462 -1131 631 -382 484 0
1401 -860 1156 767 495 -1299 -1266 484 405 -70 1328 460 352 568 871 -1068 0
1346 1054 -370 -691 316 247 1328 -605 1152 -767 -190 -1426 1107 0
-425 1186 120 1182 1007 1025 136 0
328 -545 1324 -144 -1328 31 612 99 -416 1349 66 0
921 -1012 -5 0
59 6 661 -865 72 1146 -1204 0
691 -713 1318 567 -932 0
-800 -156 -1270 0
-1328 616 -137 -130 404 1024 1009 -1164 -55 -81 0
-1411 766 177 496 -415 713 1014 -338 87 -273 1251 0
1425 -136 -1044 -344 -655 1378 -670 -944 0
-282 1328 347 -484 -480 -577 -162 -189 1161 -1240 1300 -872 767 0
1159 858 -1345 -226 630 0
-920 487 57 -1260 1150 614 0
230 -523 871 19 484 1328 405 767 0
767 961 871 -432 -405 1328 883 -1292 1408 740 -1373 484 0
-902 999 0
-621 767 484 -604 -894 -794 -1427 871 -1317 1328 -405 414 0
1195 328 -582 302 545 775 -1328 -167 1349 0
-484 -670 376 100 -726 767 1328 1085 -80 0
-1147 763 1328 405 965 1366 484 732 871 767 -311 161 -1306 0
261 -534 192 -1340 776 0
964 -807 -359 731 -1328 502 0
523 767 145 1328 1443 -655 484 1208 871 405 680 -357 0
-629 1328 -382 -631 871 852 484 -65 -405 767 -1125 0
-886 542 -879 -767 -1440 -723 1350 -103 173 1328 0
887 405 1328 -1266 871 767 -495 893 -327 -1228 484 897 0
670 -5 -687 0
-871 767 1002 1328 -551 -1198 1390 484 0
-352 -1068 767 495 484 871 -246 -1121 1140 1328 -1266 -1416 460 405 348 426 0
-1150 1040 61 0
-534 170 763 1099 776 192 -261 643 0
630 250 1439 0
-227 1424 -760 -767 566 -941 1328 1277 0
597 1379 -175 -484 518 96 1213 1328 -1303 767 -399 -906 -765 -322 0
-1368 1311 -684 1431 415 -796 502 0
-1006 -484 1430 574 -98 1328 450 -29 767 832 306 0
-247 1439 -118 -274 -907 0
655 -1166 231 -789 -1122 0
858 -780 -417 -1058 0
-631 629 1328 -1193 -382 -481 264 484 -405 -65 871 767 -1395 -522 0
1331 395 1328 -682 1020 767 713 456 -626 -925 -788 -987 484 -871 0
701 1345 568 -211 57 -1192 534 0
484 1429 778 1328 871 -405 912 767 878 1376 365 0
-311 484 161 767 -1306 -1147 965 1366 871 1328 405 1442 732 0
225 440 1058 0
-416 877 1349 328 -545 -1328 66 612 99 -144 31 0
691 -639 -10 0
177 1251 -415 -860 -1228 496 766 1014 -273 -1411 -338 0
953 1282 -614 0
-332 1328 -435 298 1367 767 -913 405 729 -1403 871 484 0
-1328 -1190 513 353 845 1236 461 885 0
871 643 869 -285 332 1328 767 298 -244 484 -1052 729 -480 405 -1434 0
-1418 393 -502 0
-146 1399 767 484 1328 -233 -405 579 871 87 -759 789 -1149 1372 1343 0
736 1409 1264 435 -1408 0
-814 -405 1163 1399 -1149 -146 1365 767 612 608 492 550 1328 -1372 871 484 0
-227 -1133 1277 -1159 -767 -941 768 1328 -918 -566 -760 0
717 1328 -405 767 484 702 382 871 -65 0
495 767 1328 460 1156 405 -1266 1401 352 70 -1068 871 484 -1299 568 0
-413 -1113 573 0
484 1173 277 363 1293 428 -871 1328 -1029 -592 -1103 -544 -1410 767 0
-1337 -554 556 730 1090 -540 -1328 -1237 1244 424 0
-563 -1373 -1215 -478 1328 484 16 767 -839 -112 1154 -740 -405 871 0
267 -948 1170 1235 186 0
1328 484 1289 -1002 -1243 767 -871 825 0
871 -523 1179 484 767 294 19 1328 -109 -230 89 405 0
501 484 1257 767 952 -1109 -871 -1276 127 333 1328 855 -1102 503 1296 0
400 -1262 -1058 259 -780 975 417 0
-496 -634 775 -415 1078 -1111 -338 177 1014 0
-871 1160 484 1423 1296 -830 -1015 1328 -268 -952 767 0
871 -694 1442 -405 -1373 -1215 1328 -839 767 -112 -740 -478 484 16 -1154 880 0
-118 440 -1113 1438 -1072 0
798 944 975 1200 656 0
762 -800 944 0
921 -219 -1012 0
-409 279 -65 -702 484 -405 -1265 767 822 382 871 1328 0
405 -1434 1328 484 332 -691 -1052 -285 767 -244 729 869 639 298 871 0
767 -471 347 -1197 282 -189 1424 1328 -484 0
-1010 568 -1189 -1180 807 318 -1416 -1328 742 -74 -164 0
-5 -1284 245 0
-751 -60 1400 0
1328 484 -1015 830 847 -952 767 1160 1296 -871 0
709 1430 637 574 306 -1006 767 -484 -98 1328 832 0
-484 767 376 -28 -100 724 -660 -834 188 1097 -1018 1328 -694 -46 0
917 484 767 -1352 220 991 -472 -141 -871 -1258 1328 1339 -225 396 0
-796 1311 415 -1235 -684 -722 1431 0
-987 -1328 696 132 -255 -153 -513 0
-1268 -527 -231 -292 -101 709 -534 -776 1039 0
1328 -405 767 871 484 -677 348 787 599 -224 1373 0
484 544 767 1328 940 -954 277 998 154 -871 420 0
1007 -385 767 -361 -51 442 -1364 -484 -107 1116 1328 649 642 -1314 0
877 1100 767 484 405 -648 1328 -1366 57 312 1191 871 0
49 -283 323 1221 747 -758 -767 1328 0
58 798 1438 1357 -333 0
1328 -946 -405 1427 -894 484 500 767 871 -739 -840 0
767 -79 405 -896 871 1328 -1439 407 484 -729 -1086 -1035 0
-87 -564 -775 0
405 1434 332 -73 298 871 69 729 -1005 -1062 -921 767 484 1328 -755 0
-527 709 1039 -58 -534 -776 -1268 -292 -101 0
-1153 135 0
-719 -1211 -1442 0
999 -934 0
376 -484 -100 809 767 1097 700 -28 724 -834 188 -660 -1018 1328 0
1257 501 1328 -503 767 -1102 333 -1109 1296 484 -871 952 855 0
798 -1274 23 0
1357 -737 -181 0
484 -30 -894 767 621 871 1328 -794 -1427 -405 0
-487 23 722 0
643 -1240 -484 1328 -872 -282 767 -162 -577 -189 -944 1300 347 0
-675 1400 -948 -719 -19 0
-767 -889 370 -320 1328 1165 -1409 931 0
131 1328 -714 -575 -494 753 871 484 171 786 767 405 493 -397 1324 0
-328 -1328 856 -654 1007 -1370 0
1233 177 338 -851 810 -415 368 649 775 0
1205 -975 -55 1361 -1164 274 -81 627 -1328 53 -404 927 0
767 484 998 277 544 -871 546 -954 -154 940 1328 0
243 -1211 -717 0
187 -1169 871 1328 767 484 1266 669 405 584 0
951 1368 0
-1408 1329 -1289 0
953 1318 977 0
1386 -2 1180 1333 -1328 807 172 -1189 -164 802 1019 0
1433 1212 -337 -1328 -1218 -299 -722 -1087 0
1344 -163 456 -736 1328 -871 1001 -682 -925 484 350 767 -88 788 0
661 -458 1204 90 59 -865 1146 45 6 0
-717 79 -1324 -558 722 0
-484 100 -670 376 -1085 767 1328 0
920 -15 23 0
691 -1341 0
-1119 452 807 1442 -563 -1328 -164 1180 -802 63 -1189 -728 0
515 453 -277 767 -812 991 -606 1328 -781 -871 484 0
910 -1277 12 -767 1328 -864 -30 -1159 915 -227 0
767 -908 484 -913 -691 -332 1403 405 729 871 -435 1367 298 1328 0
-767 1135 -1264 9 1050 227 1328 -1129 0
-354 484 767 871 1328 984 -1266 -860 -460 405 495 1027 -273 -94 0
484 767 1241 1122 1328 488 1366 405 -965 -1306 149 -1147 278 -311 871 0
-500 -1153 0
-568 -1025 1228 670 292 0
1237 424 -1136 -267 892 -383 -1083 -1328 1278 0
-247 -614 1329 0
948 -1444 -567 -314 -1261 -79 0
-877 1228 480 796 -581 0
-1328 -217 -736 111 845 513 -885 1284 461 -1124 1073 1236 0
-154 356 277 940 998 767 991 1328 484 -954 -871 544 0
682 484 -871 -749 456 -1368 -925 767 1328 0
1231 1260 921 58 -713 0
-1265 52 -1047 -206 325 890 1305 1042 -268 -272 0
-1284 -932 -1065 1318 567 0
1393 -1420 -1237 118 424 -730 -1328 95 -186 974 0
-1090 -490 0
1234 29 0
953 -789 -852 0
601 809 247 1328 969 767 1059 916 779 875 -854 484 871 -1309 -405 1347 0
-1328 -1420 -730 424 974 -1237 95 -186 1393 0
767 727 871 405 523 1313 -1208 1443 145 222 1166 -292 1328 484 818 -757 0
-5 -170 694 0
-1430 1328 201 -484 168 476 767 -1323 0
1409 1264 630 -1408 -932 0
929 -662 -1417 -270 -767 -370 -605 1152 1426 -630 1328 102 0
-36 1328 -559 -1254 -381 484 871 -1307 971 405 329 1324 -1033 1077 678 767 0
-675 -1324 -763 1417 -72 0
767 1328 201 709 476 -1430 1323 -454 -484 -1416 0
87 871 -1202 218 1328 11 484 853 -405 767 1433 146 0
950 363 -783 127 1305 272 1042 1060 771 325 -622 0
-1384 -1033 -832 286 -484 256 1028 1053 1328 767 859 335 1430 0
-605 -1107 -1426 1065 1328 -370 1152 316 -767 1346 0
-1309 708 484 -916 -405 1094 -1172 1328 767 871 0
1356 -1320 484 405 767 1328 871 381 1345 0
798 -763 -510 691 -558 0
3 -394 -421 1230 1328 -767 491 912 758 -1294 -671 0
-1159 -1277 -918 1328 915 910 -767 12 -864 -227 0
807 1418 -305 164 -1328 0
-507 309 -1244 -1237 424 -1328 473 -651 730 -921 1114 0
61 -1072 -780 0
376 -1064 1225 -1193 1328 499 -100 -484 1437 -1018 907 834 767 0
-142 -1207 767 317 -518 597 -484 -175 1328 -322 0
1328 1345 -1258 220 767 438 484 141 -871 0
-1010 -1328 -1228 318 -164 807 -74 -1189 -1180 568 742 0
1444 1303 722 607 -581 0
-645 107 -607 1328 229 1345 208 -484 767 -1364 1394 -361 -51 0
1377 1393 -1328 -1420 -730 424 118 -1237 974 95 0
871 1328 637 700 -411 -555 767 -516 112 -1373 -1354 -740 484 -405 0
-1253 -619 349 0
1328 871 -161 -1147 484 965 405 -273 767 -311 -1306 1366 0
606 951 0
-1058 400 -675 -1101 1262 417 259 0
-1008 -825 -1002 1328 767 -1243 -871 1289 484 0
13 465 1226 -805 -194 -767 1328 0
-1328 -240 1236 948 -386 513 -845 0
1122 247 484 871 149 488 -965 1241 -1147 767 1366 -311 -1306 1328 405 278 0
1234 -970 0
631 767 484 -382 -405 462 -21 -231 -1203 1328 375 871 -65 308 0
-532 -615 439 1328 363 -871 -141 220 -1301 -1258 901 484 767 -917 0
-363 -546 -737 0
-420 -5 -414 0
-185 892 -767 -1287 1328 828 0
-343 1438 -751 0
1255 520 1294 -1065 1040 0
-706 758 1328 671 -767 1424 0
-802 -164 -728 -1416 -273 1180 -1328 807 63 452 -1119 -1189 0
243 -1396 1329 0
349 -948 -932 0
573 -902 425 -1011 -991 0
-1057 -767 1286 879 -723 -886 919 1328 90 0
491 1328 -394 -767 -421 -671 1230 3 -1281 758 912 0
-1116 767 -1364 1328 -361 1025 549 -484 -51 199 -107 -166 0
484 1274 -740 874 510 -613 767 839 1328 -1021 -1373 -405 -112 871 -140 0
464 2 860 -763 1409 0
-720 -1302 -935 831 578 -858 0
1328 -767 -674 892 -1076 -958 -419 1287 -1362 0
461 845 1284 1124 111 1073 513 -1328 -885 1236 0
767 216 -672 361 -484 1328 -1432 517 -745 0
1203 1260 -1284 -1418 -363 0
417 -173 -1262 -356 400 -1058 259 0
767 871 631 -1203 -405 484 308 1328 -21 462 375 -382 -65 0
1211 1185 0
-640 633 0
1408 1328 -871 -203 551 1297 123 1108 767 1002 484 0
-902 -1161 -1284 944 920 0
1328 345 -387 1296 1257 -871 767 -501 -418 402 -268 484 952 0
1371 871 -405 -975 -1309 -916 708 -1094 484 767 1328 0
-8 -126 -435 1328 934 405 523 -628 767 484 871 228 -145 0
-78 -156 -1369 0
1328 -1149 1372 1399 484 1178 -405 -146 233 767 871 0
1328 134 -1255 -767 886 -723 0
767 -1400 1028 239 -859 -711 1096 1328 -832 -484 335 1334 1430 0
1438 921 -1011 656 -1113 0
164 568 909 1418 -1328 -1048 807 305 638 0
-1047 890 127 333 1305 52 -272 -268 1042 325 0
871 1328 405 767 -311 149 484 -1306 -488 1366 1122 -965 278 -1147 0
-1249 -792 -237 -666 767 590 -920 -484 1328 366 0
638 -1048 568 909 -1328 305 164 -29 807 0
-767 864 -1277 1328 -227 -762 915 910 0
-1113 1131 -259 417 -1058 0
-713 -1284 -10 0
1328 952 847 -871 -1257 1296 -772 484 767 0
-449 -789 858 918 135 0
859 767 -484 335 1028 -1053 934 -832 1430 256 1328 0
-1418 -368 1260 1170 -96 0
1283 -1116 -1364 -51 -107 850 -166 -549 -484 1328 767 -361 199 0
617 -671 1328 758 1175 291 394 -767 -135 -1074 0
286 1442 767 1328 -563 859 1384 335 1053 1028 -484 1430 256 -832 0
460 251 949 -2 1068 484 495 1328 405 406 -1266 767 871 1138 0
767 871 1328 1202 853 484 146 -405 1433 0
201 -1323 1025 767 476 -1430 -484 1328 0
366 -484 -560 590 1398 -792 1166 533 666 -1249 1328 767 15 -237 0
-463 -189 933 -484 767 1194 347 -1294 1328 872 1217 -937 -282 0
1328 528 1402 646 484 -1131 -871 96 767 -826 -997 -930 -1061 -1374 0
-415 819 -177 -938 892 0
-502 664 61 0
1138 -2 484 -1266 871 460 405 1328 495 767 949 251 1068 -406 0
-1318 6 -865 -667 -59 1146 0
-733 -96 -991 -847 -546 0
-1235 -268 1113 -1282 719 -1264 0
633 331 0
-145 405 934 871 484 228 523 -1400 -126 -628 767 -8 1328 0
-152 850 767 484 824 44 -220 -644 -871 877 1328 0
-449 -747 736 1264 -398 0
-484 1024 -361 767 -1364 -1413 -710 899 1328 51 47 0
-1390 -207 -849 0
-614 -991 -546 -1270 664 0
-767 1196 -843 1328 1024 -465 -194 0
-717 1400 -733 1040 -1377 0
-413 -207 866 0
801 -546 -1049 0
460 405 495 871 251 -1228 484 1328 1068 -1266 949 -406 767 1138 0
947 -146 871 1328 484 -405 87 114 1298 1011 -1149 330 -1399 767 0
1439 58 142 -96 -333 0
1163 -405 1365 1328 1399 608 -1149 -492 767 -814 -1372 -606 871 484 -146 0
-343 633 0
-81 -1328 927 1361 -607 -404 627 -1164 -55 -1205 0
951 -1025 0
484 -871 767 -1177 -1071 1328 690 815 -456 525 0
729 -244 -1357 869 767 332 -1434 405 871 1328 1052 484 298 0
-871 489 847 570 767 484 -1296 862 1328 0
-775 -568 314 722 231 0
-1305 850 -736 221 1405 -1260 -262 0
518 -399 -484 1213 -322 1379 -175 -1303 -906 597 -765 767 -1438 1328 0
1402 528 -930 -1374 1328 280 -646 484 -826 -1061 767 -997 -871 0
585 -767 -886 1328 -857 -103 -879 -723 -1046 1440 -704 1065 0
400 417 -1105 1262 259 -1025 -1058 0
-484 -322 -258 -1438 767 -597 -231 324 -367 -175 -595 1328 0
-440 885 754 -1328 461 1236 116 -467 1190 513 713 845 0
767 -1043 -875 -693 -1232 916 -1309 -405 1328 484 871 247 -46 -966 0
767 -484 -322 518 -1228 -509 -1379 -175 1328 597 0
-544 -155 484 -871 1328 277 593 767 1227 -1265 -143 1410 -1103 0
1220 767 1328 548 -871 -544 -652 277 -801 484 1103 991 290 0
-1058 1265 1262 259 400 417 -510 0
-850 951 0
713 456 -871 -1120 925 287 767 484 948 1328 1388 -519 0
1328 -1266 871 484 -1416 -246 405 495 460 767 -1068 -352 1140 -426 0
417 -902 1261 -1058 -259 0
-776 410 101 -231 -202 658 151 -534 0
-965 1328 -1306 149 1366 -311 1122 405 484 -1147 -278 871 767 0
510 -140 -613 767 -1373 871 -1021 -225 -405 1328 839 874 -740 484 -112 0
44 -871 1328 767 -220 -824 168 484 -644 0
-875 -1309 1328 -405 -975 767 916 1043 871 484 0
1170 23 469 0
1197 -1168 1328 347 -331 -803 -471 -189 118 282 -484 767 0
1282 -348 -363 -170 -932 0
926 -400 417 -1058 -643 259 0
-1328 -730 -95 -1237 974 424 1424 0
-894 1427 1328 871 -165 767 -405 -1084 -840 173 1065 -372 -808 484 739 -1360 0
525 187 -1177 484 353 -871 690 1328 -456 1071 767 0
-440 484 -925 -871 767 1284 -133 456 -682 1328 88 788 253 1080 -444 0
1328 -314 -347 -484 -547 25 1161 -697 767 -252 0
405 1328 19 89 294 -230 767 -523 -109 871 484 0
885 932 513 116 845 467 -1328 1190 461 1236 0
-405 1415 767 1328 -1376 778 118 484 871 139 -26 996 0
1339 -1258 484 220 767 472 917 -141 -206 -871 -1352 1328 0
-885 461 -1328 513 845 1284 1236 -111 0
-871 -1357 484 -1004 1328 -242 1374 1402 767 0
-67 207 -194 -767 110 -50 1308 -1196 249 455 -465 1328 -1282 0
1329 1255 -450 0
767 19 294 1328 -109 871 -523 405 484 89 -230 970 0
1040 -564 1159 0
400 417 259 -1058 331 1262 1269 0
1328 -51 -1364 767 -107 385 642 -361 -1314 442 -484 1116 -606 0
-274 633 0
878 484 640 778 1429 -365 767 -868 -405 871 1328 1376 838 0
-274 -363 -1289 1282 1200 0
-514 349 -902 0
-46 376 1328 -100 499 -484 700 1437 -1018 767 834 1225 -1064 0
-803 -471 1328 -121 934 767 -484 347 -1168 -189 1197 282 0
1328 692 -1076 -1128 614 -183 -1209 958 -674 -243 -1034 -767 1287 0
1170 1234 0
227 -767 1129 1150 1328 0
551 123 484 1002 1335 767 -871 1297 -1441 1038 203 -1183 1328 420 0
-1031 -106 -405 767 1328 568 960 614 871 484 1309 -27 0
-886 -1286 -767 -1057 919 879 1328 500 -723 -703 0
860 -5 -1418 0
-534 -435 776 -1099 -261 192 0
-164 -1189 807 -1119 63 728 -1328 -802 -273 452 1180 0
1328 -1366 57 405 -1191 767 484 871 0
63 -164 -1119 -802 452 -1189 1180 807 -1416 -1328 -563 -728 0
-841 -209 687 1376 -405 1328 484 871 -1312 295 1117 -1429 767 778 -470 274 0
-1328 1180 -802 -63 -1189 807 -164 -1119 -79 0
-612 596 -1178 0
-78 1260 -1090 0
231 -763 1400 1269 -1390 0
1231 -849 -1396 0
1116 -798 -607 442 -484 -1364 -385 -1314 767 642 -51 -361 -107 1328 0
-168 425 -1211 0
164 -1328 807 -909 1408 -1048 638 305 0
-831 578 -1200 -480 -1302 -935 356 -720 0
-1284 -932 2 -170 722 0
-932 -1049 -948 0
1359 -1429 1328 -215 -656 295 871 -923 484 922 -405 1166 778 841 1376 767 0
-227 941 -784 1328 1412 -918 -767 -1206 1157 408 1277 -1159 -32 0
1328 -1221 747 -767 -758 0
719 -1110 -1382 767 -65 -1098 1328 1060 -382 629 484 481 871 -405 -631 321 0
331 -1058 -417 1040 0
578 571 -1200 -1104 122 1302 -1428 -928 0
664 633 0
767 -871 484 -225 44 824 -220 877 1328 -152 -644 0
-1320 -921 1356 405 484 767 871 381 1328 0
-1178 267 567 1269 -87 0
328 1375 -1349 -1328 -1231 0
-700 1234 0
79 2 97 0
347 189 -1229 -484 767 1328 1256 -30 0
523 -1208 484 767 1328 145 757 871 818 405 1025 1443 0
767 405 1328 1366 57 484 -119 1147 871 0
-918 -1040 1150 -1264 -30 -1159 0
-207 602 -479 0
629 -631 1328 871 -1382 -65 -1098 321 767 484 363 -405 991 -382 481 -1110 0
2 22 -187 0
1258 484 1345 767 1328 -1148 220 -871 0
-1147 -1118 197 719 484 -1306 871 767 1366 -225 405 1328 881 -1051 311 0
-185 1328 -828 -1231 -243 -1259 -1287 -767 565 0
-713 1318 736 1269 567 0
-709 -413 231 0
405 -495 -887 871 -1266 484 767 1328 1150 893 0
-1304 -1255 -567 371 -1328 -271 1218 115 -942 0
245 999 0
-1122 79 858 1228 -348 0
1112 135 -912 0
-1345 121 -15 -934 944 0
-561 -484 373 -817 322 1328 767 -827 0
-825 -1002 -1243 -1008 -464 484 1328 -871 767 0
-1341 -709 0
464 469 -96 -1090 -1377 0
-1328 -1439 115 -942 -796 -271 371 -1304 1218 0
311 1366 1328 767 -1147 -1306 719 405 1118 871 484 197 0
590 666 1328 -1249 15 -484 -237 767 -792 -1398 366 -560 0
1328 -484 -1364 107 902 -361 -51 767 208 -229 0
1328 145 871 523 405 767 818 1313 484 -1208 -757 637 -727 1443 0
-750 -1424 -1161 0
-1266 1328 405 871 484 1396 767 -495 -893 0
612 767 484 -608 -405 -146 1399 -1372 1328 871 -1149 1365 -814 0
-57 664 1231 520 -934 0
-1090 999 0
-849 920 573 0
573 -118 -733 -1178 -1161 0
-376 767 -484 1328 -796 943 0
-1244 -1328 257 424 93 -670 730 297 -309 -1237 0
1112 1235 -1181 0
767 -631 871 1382 -382 1328 -1228 -405 629 484 481 -65 0
-1328 982 -695 -1330 1025 1218 -1326 -774 1017 271 0
268 1185 -333 0
435 1112 1075 0
1303 1112 -274 0
-81 -137 -130 -1164 -425 404 616 -1328 1009 -55 0
121 142 -733 -1113 440 0
987 -353 22 0
-1326 -1328 -796 -774 -336 271 -982 1218 1082 895 1070 -798 0
23 1260 -333 0
763 1122 -292 719 1442 57 0
450 356 -831 -1302 -720 -935 578 500 0
-723 -767 1328 -1057 -121 879 -886 -919 0
1318 -800 1261 0
-423 -1260 774 -213 271 1218 -1328 319 1387 -1326 0
1373 767 -224 1328 484 677 -405 871 348 0
-36 -1077 484 -381 1328 -721 1422 -921 871 405 767 0
-353 951 0
667 -865 -1417 -59 1146 -866 529 6 207 -973 0
-15 469 -96 -170 231 0
-1049 -1418 664 0
593 991 767 -1103 1227 -871 484 -544 -155 277 1410 1328 -1193 -143 0
65 -641 1091 1328 -791 871 789 -405 484 767 0
-792 237 -484 1253 366 1210 891 1328 767 0
-462 1113 -382 -405 -21 631 767 1328 308 -65 871 484 0
1050 -767 -314 9 227 -1159 -1129 -1135 1328 0
1377 -405 -224 484 1328 767 871 1373 677 0
-612 -219 314 0
1389 1076 -767 1328 1396 1287 0
-1105 -78 -902 0
-78 -19 -934 0
767 -898 1028 741 -335 -484 -832 1328 934 1430 0
1191 -1366 405 767 -312 484 871 719 1100 -648 1328 0
1253 767 1328 -688 366 -484 792 -369 959 0
1262 -502 -487 417 400 -1058 259 0
555 -1373 484 767 1328 -411 -516 -1303 -405 112 -1354 871 -740 0
-1265 -783 950 1305 -622 363 771 1042 1060 272 325 0
-1076 -1318 -419 789 806 -674 1362 1336 1287 -958 -767 1328 0
785 -558 -1377 0
376 196 1018 -484 -46 -100 -92 780 -957 767 1328 620 0
-1226 1264 0
484 871 -1371 1328 -1094 -1282 767 -916 708 -1309 -405 823 0
1328 -268 1257 -501 952 -387 -871 484 418 1296 767 0
767 484 -1290 -1055 456 611 1284 682 -871 932 1328 749 -925 0
-219 -709 -934 0
29 -750 1340 0
1318 22 977 0
-361 -47 1328 -1364 -484 767 1105 51 0
776 -630 -261 192 -534 643 763 1099 0
-1159 -767 -1172 1277 408 1412 -32 941 -1206 -784 1328 -227 1157 0
88 253 -925 788 767 -440 -682 -871 456 484 1328 -1080 0
-1319 767 -975 1402 -37 1061 -924 528 -1355 -871 1328 274 -1374 -888 484 0
-74 -164 -1228 -1180 -1328 807 -318 -1189 0
767 -494 -397 753 550 405 -786 484 315 433 1328 871 0
376 -834 -1018 699 -980 -100 1279 -188 767 1328 -1126 -484 -198 0
1328 345 -387 333 952 -871 1257 -501 852 1296 -402 767 484 -418 0
12 -770 915 -1277 -1340 1328 910 -227 -767 -864 0
730 -540 424 -554 1377 556 -480 -1237 1244 1337 -1328 0
58 -1324 -1406 0
-709 250 -19 0
-1326 -982 72 -895 -774 271 1218 -1328 1082 0
-1012 -1341 0
1366 -1306 -965 405 -311 1122 871 1328 -149 767 -1147 484 0
767 1077 1383 -301 1328 484 -36 405 -813 1295 76 871 -678 -381 0
494 569 767 1328 753 653 1252 -397 405 510 685 484 871 0
467 845 713 513 116 -1328 1236 461 1190 885 0
-1289 670 1438 -1113 -700 0
457 -206 -1033 622 1042 1305 325 -623 363 -1045 272 0
-1144 -671 758 39 780 1328 -364 394 -767 -1175 -18 0
-1328 -576 600 -1318 799 -870 -424 0
633 858 0
-405 1427 -840 484 72 372 1328 -587 767 871 739 -894 0
-1335 484 203 1328 1297 123 551 767 -289 -1183 1002 -871 0
-670 -289 156 546 -1172 170 0
1328 -767 -3 -671 -394 912 758 0
-142 -1004 242 -435 1374 767 1402 -1273 484 -871 1328 -83 0
1438 -479 1170 0
23 -970 -1025 0
767 484 893 -495 -1266 -327 1328 871 897 887 405 1289 0
958 -767 717 -1076 195 -674 1287 -715 1128 1328 -1092 712 0
994 -1365 -146 767 1328 -1372 1041 484 1399 871 -1149 87 -1089 -405 348 -1130 0
1302 20 -122 578 -1428 789 0
918 289 0
1112 1203 -852 0
-189 347 933 -1172 1217 -937 -282 463 1194 -484 1161 1328 767 872 0
-405 767 871 33 -779 916 969 1328 484 809 875 -1309 0
1328 1440 -103 -879 -860 -767 -886 857 -723 0
719 855 484 767 1328 -1276 510 1296 -1102 -1109 952 501 503 1257 -871 0
1255 22 -500 0
1185 1318 -1377 0
-1101 1357 349 0
-932 1235 -1007 -649 921 0
-1047 890 -272 -206 52 1305 -1265 1042 -268 325 0
1399 -1368 -405 1328 871 -146 1372 233 767 484 -1149 0
1082 -336 -1070 -774 -1328 271 -1326 895 1218 -1235 -982 0
465 -13 -767 1408 -194 -805 420 -863 956 1328 0
-767 -618 -84 -764 -194 -465 67 -1196 -866 1408 360 1328 0
844 1328 -484 -412 -1131 175 767 -777 1248 -322 0
88 -871 1328 -682 788 456 767 444 -925 1080 -440 484 253 0
1400 -1406 -60 0
-737 1033 921 0
-237 366 -792 -590 -1247 1328 -484 767 1113 -1249 541 761 -1392 0
121 1409 1228 -581 -763 0
-682 -788 767 1331 456 1328 -871 -987 -395 -925 1020 -626 484 0
1105 -107 -484 -1364 -1116 1328 -51 767 -361 -199 0
-664 1022 1189 807 -164 -1328 0
440 -564 -932 0
724 -100 -484 188 1097 -28 376 687 1328 -1018 767 660 -834 0
958 1287 -1209 -1034 -1076 -767 -674 -267 1328 -1128 -183 692 0
807 -1010 -1228 318 -164 -1328 -1180 -1189 991 -74 742 0
484 830 1296 -1015 -944 -952 1160 1328 767 -871 0
655 -1122 -19 -1166 -1178 0
1413 -920 767 51 -484 47 1328 -361 -1364 899 0
-1364 -51 442 -484 1116 767 1328 72 1314 -107 -361 0
-775 -1270 1112 0
-177 819 -243 -415 -1231 -245 1171 938 0
-776 459 -534 -1222 -658 -292 101 -475 -43 0
631 375 308 767 462 -382 -65 -405 -21 484 1328 -231 1060 871 0
902 594 -55 -1328 1164 -1291 686 0
135 -449 -1150 -1284 186 0
-1328 892 383 1237 424 0
-598 784 -227 -535 -767 1081 1277 1328 1090 941 -1224 0
-894 1328 946 -1095 -840 -739 -552 767 500 871 1427 -405 484 -474 0
314 1282 606 -87 -398 0
461 845 719 -467 1190 116 754 -1328 513 -736 885 1236 0
1161 59 -865 -284 -661 -707 6 1146 -388 0
-733 -510 292 1400 -170 0
502 958 -674 1328 1128 -767 1287 -1076 1092 0
484 -433 -786 537 -494 405 871 -397 1274 753 767 1328 0
-729 639 -896 767 -1035 484 1328 -1086 -691 405 871 407 0
918 -1166 -500 -1289 602 0
352 -1068 -1266 871 1328 -1299 460 405 484 -70 495 -273 1156 -860 1401 767 0
520 -87 -1007 -1181 314 0
767 484 1328 405 871 -1320 -1318 381 1356 0
366 1404 619 -891 -484 -792 1328 237 1210 767 0
1303 -1153 0
-1196 -194 84 -618 -764 -465 1328 490 360 -767 67 0
871 963 72 840 -405 -894 1328 484 767 1427 0
967 689 144 1349 -157 -545 914 87 -1328 328 1391 0
289 97 -226 0
-990 -1152 450 451 -160 -370 1328 -867 -767 -926 0
-78 -1072 670 0
484 1376 -405 1328 871 -1429 -215 295 778 1359 700 -923 922 767 841 0
-948 999 0
1444 999 0
-54 -328 1178 -1370 856 -1328 654 0
110 207 -50 455 249 -1303 -767 1328 -194 -1196 -465 -67 1308 0
-456 -871 1328 690 484 767 1071 525 1433 353 -1177 0
-711 1065 -859 -239 -832 1028 335 1328 1430 767 -484 0
-328 856 -1370 54 654 1369 -1328 0
-767 649 -370 1152 1328 341 605 0
-42 177 -1014 -1026 815 713 -338 -415 -536 1284 0
393 798 -170 0
877 -359 -964 -1416 731 -1328 -483 -807 0
-171 405 871 484 767 1284 1328 -494 753 -397 786 0
738 -534 -776 663 -658 -459 1122 1324 101 -694 184 0
-796 -960 1309 871 -405 484 1328 767 0
-1328 1377 730 473 651 -1237 -1244 -243 -507 424 309 1114 0
767 -367 1101 -484 -597 1328 -322 -595 -175 -324 0
871 1328 -1285 -329 1066 -36 484 1077 -381 405 678 -206 -676 767 511 0
-1216 -227 1277 -767 -30 -784 941 -1167 1328 -408 0
259 480 289 417 -1058 -400 0
871 767 -244 298 484 332 729 869 1090 -1052 -1434 285 405 1328 0
-1328 328 -144 -31 -545 1349 1270 0
1190 885 845 513 -1328 1236 -116 461 713 0
-1076 -401 674 1287 1328 558 -41 -767 340 1011 -138 0
700 -484 376 -100 131 -188 -1018 -834 699 1328 767 -980 1126 -198 0
-1328 -944 -589 296 -773 513 -1236 0
722 785 -1181 0
-1105 -649 1329 0
912 -484 347 767 872 1328 -1217 -937 -282 -189 933 1194 0
-292 1166 60 -664 675 -1269 0
944 -403 331 0
-1249 -792 590 560 1253 -484 1328 366 767 666 -237 0
1303 596 694 0
1328 -1364 -549 -166 -51 1024 -361 -1116 767 -107 -484 1283 199 0
-1438 -1170 1305 -325 -524 -1137 847 993 1042 0
767 -1376 -405 1328 118 484 871 139 1415 778 -996 0
767 1430 -1006 -484 306 -655 -98 832 -29 574 1328 0
30 1264 -800 0
-800 1172 1282 0
-403 339 425 0
484 767 610 1385 1328 141 700 637 -1258 1272 -438 220 -871 0
-750 -991 480 0
-484 780 1018 -957 767 376 1328 -100 -620 0
-839 -1215 1328 -405 871 639 -1373 767 -16 -740 -112 484 -478 0
-1369 -789 -1058 417 -400 259 0
767 405 494 1328 569 709 -653 484 685 274 1252 871 753 -397 0
534 581 701 -211 1192 0
-250 0
1328 -1077 405 -721 -381 -1142 -36 -1422 767 871 -206 484 -1242 0
-958 806 1328 -1076 -419 1287 -767 1336 -1318 1362 -243 -674 0
996 871 778 -26 1328 -1376 687 139 484 767 118 -405 1415 0
1418 819 938 1171 -415 717 -1231 -177 0
-1211 1170 1131 0
785 801 -363 0
281 1402 85 1328 484 -1374 105 -871 767 343 434 -528 0
1328 -107 -361 -484 767 -1364 -51 1116 1369 -442 0
546 1328 -871 277 544 -998 484 767 0
1328 669 405 -584 -1169 767 1266 484 871 -422 187 0
916 -405 -1239 -1172 -969 875 -1309 767 232 484 871 1328 0
550 87 -1078 -634 -338 177 1284 -1111 -415 1014 -496 0
413 596 0
767 1064 834 -100 1284 -1018 1328 -484 376 0
-1324 -643 -219 0
97 -643 301 0
-404 -1164 -55 -1328 -1361 927 -1444 627 -81 0
1112 1269 1417 0
-61 0
1328 -652 -544 991 -871 1220 484 -46 1103 277 290 767 548 0
664 -1377 567 -568 135 0
1328 643 -739 871 -1095 -894 -474 -405 484 -840 946 1427 173 -552 767 0
-1147 767 -563 1348 1442 405 965 871 -311 -1306 -732 1184 484 1328 1366 161 0
59 1146 6 -865 661 -289 1204 458 0
-860 406 -273 1138 460 495 949 1328 871 -1266 1068 405 767 484 251 0
-1266 1328 -327 -273 887 -79 405 -495 484 893 -897 767 871 0
-736 1328 767 1344 -163 788 -871 -798 -682 1001 350 -88 456 484 -925 0
-1429 -405 -470 484 274 -841 295 871 -209 1376 1328 1117 -46 778 767 -1312 0
1357 -87 -1178 975 -1072 0
1440 -767 -857 -585 1328 -103 -879 -858 -704 -723 -886 0
-983 -865 -1146 6 -35 1424 0
-1068 871 1328 -273 426 484 -1266 405 767 -352 -246 460 1140 495 -1121 -860 0
-784 1277 -408 1167 -1159 1238 941 1328 -1216 48 -227 -918 -767 0
-926 1328 -767 -370 -1152 990 0
100 234 767 700 80 1085 376 -484 -726 356 1328 0
1374 1004 1402 -142 -871 1328 484 767 0
-872 347 162 -484 747 767 1328 -189 -282 0
596 944 1294 0
1075 1340 97 0
-739 871 -1095 -894 1090 767 552 484 946 -474 1427 1328 -840 -405 0
107 -51 229 -645 -361 -1364 -1394 208 1328 -484 -425 767 0
923 778 484 -405 1328 871 295 -664 1376 841 -1429 767 0
-57 953 -719 0
-135 -484 767 595 -367 -322 -175 1328 -597 0
1024 -130 -1009 -58 -1164 -55 -1328 404 -137 616 -81 0
1248 -1170 777 767 844 500 1328 -412 -322 175 -484 0
1185 722 1235 0
839 871 -740 1328 -405 -112 767 -1373 484 -874 510 0
570 489 1328 -1296 484 767 -1260 862 -871 0
-1418 417 400 1261 -1058 259 1262 0
-1424 -1058 -259 417 30 0
-948 -219 736 0
-295 1376 1263 767 -405 -464 -1429 748 778 871 1328 484 0
118 700 640 1279 1011 -46 0
484 365 640 1328 871 778 1429 1376 878 -405 767 0
-1406 918 1040 0
54 568 612 856 -1370 -328 654 -1328 0
901 -615 220 -1258 -532 484 1274 -141 1328 -439 767 -871 1324 -917 -1301 0
-832 767 256 1430 859 335 1053 1328 -286 970 1028 -484 0
-16 -112 -405 -1215 767 -563 -740 484 -1373 1328 871 -839 -478 0
-400 417 259 245 -1058 1261 0
348 1328 537 405 -397 -494 -433 871 484 753 767 -786 0
1328 875 -1250 916 969 -1309 -33 304 767 -779 687 484 871 -405 0
767 -1201 1328 -1207 -484 -1438 280 -322 -518 -175 911 597 -317 0
-1215 16 1328 871 -478 -112 767 1154 -1373 -839 -405 -740 970 484 0
1231 -751 186 0
1402 528 -1131 930 -1374 -1061 1328 767 -871 484 0
860 -502 -849 0
1328 871 -1282 -725 -405 -1239 875 916 767 484 -232 -969 -1309 0
1184 -563 767 1328 161 405 -732 -311 1366 871 -1306 484 1442 1348 -1147 965 0
-858 1407 -435 -55 -1291 -686 1164 594 -1328 0
-1181 656 -1284 425 -948 0
1324 405 678 767 484 1328 -1307 329 971 871 -381 -559 -36 1077 -1254 0
1234 -450 0
1302 -122 -1282 -362 991 -1428 578 -20 852 -955 0
405 1443 -655 818 484 -757 523 -1313 -1208 767 145 1328 871 0
654 856 -1328 -1370 -328 568 612 54 0
1328 -1068 1156 -798 352 -70 -1266 495 871 405 1401 484 568 767 -1299 460 0
602 -1011 -398 480 -127 0
-1058 400 -1262 259 -1274 -1442 417 0
-558 -207 -991 -1090 606 0
-786 -537 -433 657 1328 131 -397 -563 767 484 1199 -427 405 871 753 -494 0
-812 -871 -277 781 767 1328 -1203 484 453 0
767 -1372 484 -1149 814 1328 1365 1399 1369 -405 -146 871 0
339 745 61 0
-733 953 944 0
612 877 328 -167 545 -582 1349 1195 -302 -1328 0
1328 484 -786 -397 -315 871 -494 433 -694 405 767 -104 753 0
-574 767 1430 -484 1328 832 -655 0
-230 484 871 1328 767 109 405 558 -523 0
-496 1284 -1111 -338 -1078 177 -415 550 -860 1014 -634 0
-1328 591 -339 -1164 -1158 -55 81 378 0
-1255 1328 894 -405 767 795 484 871 447 0
22 -1345 301 0
-79 807 1189 -1328 -164 -1022 -392 0
164 -1416 909 305 -1328 638 -1048 807 568 0
-1244 297 93 -1237 730 -1231 -309 424 257 -1328 0
-757 222 484 1443 1328 1313 727 -1208 818 767 637 -292 523 145 405 871 0
87 -859 1328 335 711 -484 1430 1028 -832 767 0
-220 44 484 767 -871 -644 824 1324 850 -152 1328 0
1040 -403 1264 0
-1416 568 -1192 -2 534 -211 701 0
1128 1287 958 -767 1328 -674 -1076 1396 1092 0
1265 606 22 0
1402 484 528 767 -1355 1328 1319 -1374 373 1061 -871 0
1175 617 -767 -681 847 758 1328 394 -671 -291 -1074 0
-405 -839 -563 484 767 -112 -1154 16 -740 1328 -1373 1274 880 -478 -1215 871 0
-458 -865 6 173 661 -691 59 1146 207 -45 1204 0
-582 545 775 328 -1328 1349 -167 1195 -302 612 0
-867 -767 -990 451 -1152 450 -160 -29 -370 1328 0
1061 528 484 -1374 1402 1355 -1106 1328 -1170 176 -734 767 -871 0
289 393 -72 0
767 1328 -871 -567 -1002 484 1243 0
847 1257 -716 1296 952 -871 1109 835 1328 501 767 484 659 0
292 1400 -348 -170 944 0
1146 173 -865 -45 1204 661 59 -458 1065 6 226 0
767 -871 952 1257 345 852 -387 484 -268 1328 -501 1296 -418 -402 0
-1119 -273 1180 -1189 -1328 807 63 -802 -452 -164 0
767 1430 247 1334 1096 335 -859 -711 239 -1400 1028 1328 -484 -832 0
1328 -405 -1309 767 232 -1239 871 -969 -1282 875 916 484 0
-405 65 767 484 1328 -606 641 871 0
1318 1058 -490 0
-175 767 280 597 -322 -518 1328 -484 1207 0
-1209 717 1034 -1076 -674 692 1328 958 -183 1287 -767 -1128 0
397 -125 753 170 871 405 484 767 1328 0
-413 -1324 301 0
767 -872 -162 -1240 347 -282 -189 1328 1300 -484 -135 577 0
-696 132 -1328 -255 -1368 -513 0
1428 578 1302 1380 236 24 1279 -975 700 0
-383 -770 1278 -1328 -1136 424 -1083 892 1237 0
-194 1196 -464 -1013 -465 1328 744 843 -767 0
758 673 1328 706 1424 -767 979 174 671 0
-658 -475 -776 43 101 763 -534 459 0
740 -883 450 -1292 767 -432 484 -29 -1373 -405 871 1328 961 0
606 121 -398 1264 -449 0
-1058 -170 417 926 -1262 400 259 0
-1289 1159 -207 1075 -274 0
97 -1279 -118 0
-219 796 567 0
-765 518 -906 -484 -1213 -1265 597 1379 1328 767 -175 -399 -322 0
1442 101 1122 459 -43 -658 -534 719 -475 -776 1222 0
916 1250 -33 -405 1328 767 871 969 -1309 484 -779 173 875 0
484 405 495 -1121 -352 -1266 426 -1068 -246 1140 460 348 767 -273 871 1328 0
-948 -1166 796 -713 -1178 0
1061 484 1328 -1355 1402 -1374 -1438 -37 -1319 -871 528 -924 767 888 0
767 -1068 460 484 -1266 495 1328 352 -1401 405 1072 1156 -1299 871 0
1433 -1328 -328 1370 0
-852 1193 -413 0
1048 -1328 -1159 807 305 164 0
1328 997 -1374 -871 484 -1061 767 -1357 528 1402 -930 0
-1058 -1369 417 -259 -1011 0
-1303 -301 -534 658 -776 -225 151 202 410 101 0
1107 -190 -370 316 -630 1328 -691 -767 -605 1346 -1426 1054 1152 0
767 333 484 1328 -871 1102 501 -1109 1296 1257 952 0
-1418 -877 796 858 2 0
-1044 733 -1378 -136 0
1346 -370 -767 -605 -190 1054 1152 -691 -29 -1426 1107 316 1328 0
918 -991 186 1318 1255 0
-758 49 -323 -767 -283 1221 -944 1328 0
-1443 767 484 523 619 -113 1127 -293 145 405 871 1328 0
-417 46 -1058 1294 0
767 1328 356 484 372 -840 -894 587 -405 1427 739 -390 871 0
-1274 -991 -1058 417 -400 259 0
596 -809 1282 0
-362 -20 955 1279 578 -1428 1302 -122 0
767 -835 -716 1296 1328 501 -1265 1109 1257 -1093 484 -871 659 952 0
-100 767 -957 1018 1328 92 -1438 -484 620 196 376 0
792 -484 767 1328 -959 -1040 -688 366 0
-1105 1058 745 0
1333 802 568 -1386 -164 1180 -1189 -1328 807 -1416 172 1019 0
-261 -534 -29 776 -630 -1075 1099 192 0
404 -81 168 -1164 -130 -1328 -137 -55 616 1007 -1009 0
1368 250 -1284 0
-405 -1438 693 -966 767 484 -1043 -1232 -1309 1328 871 -875 916 0
484 767 -826 1402 1328 528 -871 -930 -646 -1374 -1061 -1131 -997 0
-1270 -1072 975 -877 655 0
-535 1277 941 -1081 -227 -598 -1159 -1264 1328 784 -1224 -767 0
328 1349 -545 144 157 689 1179 914 1391 -1328 0
712 1128 -1231 1328 715 958 -767 -1076 -1092 -674 57 1287 195 0
-403 -717 186 0
-1153 1235 0
242 -1273 -1004 767 484 -435 -83 -871 -858 1402 1328 1374 0
-1231 -1076 1287 1328 -41 -138 -767 340 558 -401 674 0
-219 1400 655 0
767 -216 -745 -484 1328 361 0
-417 -131 -1058 630 0
-742 -1328 -164 -1010 318 -1180 -1189 -74 807 333 0
1185 -226 -1065 0
-417 -1058 -356 -809 0
1328 874 -1373 -740 871 -602 -112 -405 839 767 484 1021 0
-648 767 -312 57 1191 -1366 1100 405 871 484 1328 0
1340 -1049 435 0
-750 -1408 -414 0
-1304 -567 -1328 942 1218 -271 0
-691 -121 -918 -267 207 173 0
1416 417 -649 -1058 -259 0
-1328 -1370 -856 1369 -328 0
1328 -1102 952 855 -520 501 -871 -503 1296 -1109 767 484 1257 0
1178 668 -767 200 1328 1390 68 194 746 0
-481 -405 871 -1193 484 1395 -65 1328 -631 -382 767 629 -522 0
-671 -1074 394 1101 -767 1328 617 1175 291 758 0
999 1340 0
-671 -292 1328 -767 758 586 1161 -436 394 -1175 445 1144 1246 0
1328 551 207 -123 484 -486 -871 1297 767 -380 490 1155 756 1002 0
-918 -6 -1264 609 -865 -1016 -1159 1436 0
1328 1037 871 1275 -405 -146 1149 550 767 484 108 -978 87 0
-1318 -2 -425 -987 -1235 1178 0
484 -381 1077 -36 226 1328 559 405 971 767 678 871 329 0
390 587 1421 4 871 767 -894 -840 1427 739 356 -405 372 173 1328 484 0
-498 -631 871 -405 -382 -522 -264 1328 629 -1395 -65 767 484 -1265 -481 0
-948 440 -750 0
1328 1396 1076 -767 1389 1287 0
-1413 -1364 -361 -469 899 51 767 1328 -484 -710 47 0
767 -169 -298 1328 405 414 484 903 729 485 871 1315 0
-751 -96 -1101 0
-1309 916 -875 -405 -607 871 767 1043 1328 484 0
131 -1400 -860 1122 1012 -691 0
-1264 -1236 513 -1328 589 -773 0
-156 -1179 -1408 1235 736 0
-775 -403 -1270 0
655 -5 1400 0
-747 1203 -363 -226 1172 0
736 -1341 0
-1131 1042 -1438 -524 -325 675 -1137 1305 993 0
523 -8 484 -435 -628 -145 405 -858 871 767 -126 1328 228 0
1294 -373 -226 -450 1040 0
952 772 -530 767 1328 1113 1296 -871 269 484 -1257 0
-1189 807 172 -1328 -1416 802 -860 1180 -164 1019 -1386 1333 0
1068 460 406 405 251 -273 495 -1266 1138 871 949 1328 767 484 -2 0
181 242 -142 -1004 -871 1402 -1273 767 1374 484 -83 1328 0
-767 -1440 173 -879 -723 1328 -1350 -103 -886 0
41 -1076 1287 -401 -767 1328 558 -138 674 0
-1261 227 -1129 1328 -767 -9 0
1402 1328 1273 -331 767 242 -871 484 -1004 1374 0
116 -736 885 513 1190 845 754 -467 461 1236 713 -1328 0
-373 -178 -1101 0
918 -500 -877 -1390 -398 0
-1065 -368 -156 -614 -500 0
739 484 1427 767 871 356 372 4 1421 -405 587 -894 390 -1172 1328 -840 0
696 153 132 1178 -513 -1368 -1328 -255 0
785 58 225 0
1166 -767 -1175 -436 586 758 445 1161 -671 1246 1328 1144 394 0
-1021 -112 -613 1328 -1373 -140 484 -405 874 767 839 871 510 -740 0
790 484 551 1002 -1297 -531 1328 767 -871 -241 207 398 816 0
9 -767 1328 227 -1129 -1050 1150 0
1203 480 -1049 0
520 -1166 -1122 1255 -934 0
1444 -1007 -219 0
-118 999 0
-1058 -118 289 417 -259 0
-784 408 -767 1328 1277 -32 941 -30 -1157 -227 0
7 -557 1328 -484 347 189 -762 -1340 767 -1229 -1256 0
-15 1234 0
953 -1396 -717 0
1180 802 87 807 -172 -1328 -1189 -164 0
-469 484 -925 682 456 -871 749 1328 -1055 611 1290 767 0
1113 -1131 1279 -135 -231 1024 0
-382 -606 484 -629 1328 871 -405 767 -631 -1125 -65 0
-81 -1164 -1328 -55 -404 -664 -627 -904 0
1282 -850 -90 -546 -450 0
-591 -1328 81 378 -55 -1444 -1164 0
758 -364 -1144 1328 1187 -975 -671 -39 -767 -18 -121 394 -1175 0
-700 -1178 -368 796 -948 0
784 1328 -1224 -535 1277 941 -1159 -598 -227 -1081 -767 -918 0
-1105 -1058 417 400 -1262 259 -1072 0
-932 -1390 -1090 -713 121 0
-1373 767 -405 871 1292 740 1328 484 -798 0
-175 767 367 1328 -597 -484 -322 1024 0
-1302 935 -1255 578 0
-1309 693 -875 767 916 1328 484 -1282 -966 -1232 871 -1043 -405 0
-260 767 1328 1297 123 1408 1002 -203 -34 -871 1134 551 484 -1108 0
523 675 405 1328 818 -1208 -222 1443 484 145 -757 871 767 727 1313 0
2 596 -568 0
871 1275 484 1328 767 -405 1037 -978 1270 -108 1149 -146 0
-1122 292 -1406 0
-647 894 -405 1328 -795 871 484 -276 447 -314 1065 767 0
-871 -1015 484 -1075 -830 1296 -1423 1160 127 767 1328 -952 0
544 -940 1328 -871 277 -954 767 484 -1294 998 0
1128 -1076 -1092 958 715 57 348 -767 195 -674 1287 1328 712 0
-1072 1417 292 655 630 0
-920 -448 -366 -484 767 1328 0
1328 -186 671 -706 -767 758 0
123 1335 -464 1328 1002 484 203 -871 1441 1297 551 767 -1183 0
-852 -800 480 0
119 -1280 1122 484 767 1147 871 1366 1442 -212 -939 1328 405 0
736 250 -353 0
-78 -353 -948 0
259 400 273 1416 -1058 1262 417 0
-376 568 1271 767 -484 468 -943 210 -46 1328 0
1369 -1370 54 654 568 -328 -1328 856 0
1329 1416 -187 0
1433 484 218 550 871 853 146 767 -1202 1328 11 -405 0
-786 131 985 405 484 104 -494 -694 767 753 871 1328 -315 433 -313 -397 0
1326 -1328 -71 1011 804 -572 -986 19 1218 271 0
-118 -775 -614 243 -907 0
-405 767 621 871 -1427 -794 1328 484 -770 -894 0
767 871 484 740 450 1328 -432 -883 -1292 -405 961 -1373 1274 0
-902 801 -991 1260 -1284 0
-222 -1208 405 818 727 767 1328 484 637 1313 1443 -757 871 523 145 0
1024 775 -851 649 177 338 -415 810 1233 0
484 -871 -384 -29 220 1148 1328 1324 1258 767 1036 -1115 0
484 453 -812 1328 -781 991 515 612 -277 -871 767 0
-313 405 767 753 -985 -397 -786 433 484 104 -315 1060 -494 1328 871 0
767 405 484 -298 729 871 1328 485 1315 903 -1340 169 639 0
-361 -989 -205 -484 1150 767 1328 1364 0
370 889 1328 -1439 -767 0
1402 -930 767 -1374 -997 -871 -1061 1101 1328 484 528 826 0
-82 -194 -1196 -465 -1308 1316 -767 1328 -602 -67 0
-1113 -363 -902 -1007 469 0
594 -686 -1328 -55 -1407 1164 -1291 -425 0
-1058 -400 -809 259 1193 417 0
236 1428 578 -24 1302 640 1380 0
-1049 -934 1281 0
-510 -348 953 0
-1049 -170 -274 0
-1060 -1341 0
-90 -1406 -173 0
871 -1266 495 -1409 -1068 -352 -1140 -246 460 405 767 484 1328 0
767 1328 1284 277 -1103 1410 -593 484 -544 -871 0
-1058 259 417 -60 58 -400 0
1328 1052 -1269 298 871 -1434 729 767 484 -244 405 869 332 0
-854 1347 -1400 767 -1059 -1309 779 1328 -405 484 969 875 916 871 0
-1328 845 461 713 513 1236 885 -1190 0
19 340 1011 -138 -41 -401 -1076 1328 1287 674 -767 0
484 -405 1328 767 -21 -65 308 871 631 -382 -1203 -462 0
-1328 -572 1218 -920 1326 271 -71 -804 0
-238 374 280 -148 -136 -520 1044 -248 907 -355 0
-547 -347 -314 25 733 1328 -697 767 -484 -252 0
-545 1349 914 144 -689 328 -1328 -691 1391 0
1438 1131 -413 0
464 -1226 349 0
-405 484 767 -878 871 1429 640 1376 1328 778 0
1340 630 -219 0
691 -413 1417 0
-762 -1328 -1278 424 -1083 1237 -383 0
-760 1133 -227 -566 1253 -941 1328 -767 1277 0
1234 -639 0
-201 -1430 767 -484 1328 1025 0
-539 871 275 767 180 1322 484 612 1328 -563 -753 405 0
-79 934 170 643 763 -1340 0
1401 -1266 352 568 -1068 1156 495 460 1328 405 871 484 -1299 767 -70 0
405 729 484 -869 1328 -1434 332 -926 767 -244 298 871 0
1040 1255 1294 -226 -181 0
-246 484 495 1418 1328 -1140 460 -1068 405 871 767 -352 -1266 0
-58 -1061 96 1402 484 767 528 -871 -930 -1374 -997 646 -826 1328 0
597 -484 -317 1328 280 767 -1207 -322 -518 -175 -911 0
-267 -1328 -1237 763 651 1114 473 424 309 -1244 -507 730 0
30 -1150 393 0
722 -737 567 0
-335 991 -225 1430 -832 -484 -898 767 -741 -75 1174 1028 1328 0
-780 1203 -400 417 -1058 259 0
605 -370 -341 1328 637 1 700 -767 -214 1152 635 0
-767 889 -1409 370 1328 0
-928 571 578 -1428 1104 972 131 1302 -563 991 122 0
1390 -767 194 1328 746 -68 668 0
1040 30 -1049 0
-501 484 127 767 345 -402 952 -418 1328 -387 -871 1296 1257 -268 0
1376 871 767 -365 838 -405 1328 1429 687 484 878 778 -868 -1281 0
-170 186 860 -57 -510 0
-675 1112 206 0
-894 1427 72 1084 -405 484 739 -372 1328 -840 767 871 0
581 1363 437 -1328 1105 752 55 -698 0
-1122 596 -719 0
918 -1150 250 0
1216 -767 -227 -408 1328 -1159 941 1277 -784 0
1077 -36 -1417 1066 -329 484 678 676 405 1328 871 -381 767 0
421 758 1328 -394 912 3 -767 -671 0
1236 885 1190 -1328 713 513 116 -754 845 461 -467 0
405 -381 678 1285 511 1066 871 1328 484 1077 767 -225 -676 -329 -36 0
-484 767 1141 1161 -933 449 872 -282 -117 884 1328 347 -189 159 0
484 1328 871 729 -1417 903 -169 405 -298 485 1315 767 0
382 767 702 -606 871 -65 -405 1328 484 0
1328 767 406 789 1138 405 484 -273 871 251 -1266 460 495 1068 949 0
-607 -1438 -46 -573 709 -121 0
-675 -450 -72 -546 1282 0
-41 -138 -767 -401 -243 -1076 1287 558 1328 340 674 0
-1168 -189 1197 -803 767 1328 -471 -121 347 282 1161 -484 0
-1101 1357 -1049 0
-943 1328 -468 -267 -376 767 -484 0
-1374 -888 -1438 -37 -975 767 484 -1355 1402 1328 528 -1319 -924 -871 1061 0
-1136 -1340 -383 -1083 -267 -1328 424 1237 1278 0
-1328 99 127 -144 1349 -545 31 416 66 328 0
1430 574 -306 832 449 1328 -1006 -484 767 0
-736 456 -925 -163 -871 788 350 -682 1001 -88 767 484 1328 1344 713 0
-136 1425 -331 -1044 1378 344 0
-181 -373 23 0
767 -484 -469 -844 175 -322 1328 0
-1206 -767 -32 -1172 1157 1328 -784 941 -918 408 -227 1277 1412 0
1050 1328 9 948 227 -767 -1129 1135 0
-779 -1282 916 484 -389 1328 871 875 -405 767 -1250 -1309 -304 -33 969 0
1329 469 1170 0
877 477 -578 614 -150 968 789 0
-484 792 1328 1253 -959 767 366 -688 0
-96 1357 -5 0
-1341 -1284 0
248 -148 -136 374 1044 373 0
6 -973 667 529 1146 -865 -866 -59 -1417 207 0
-1270 -247 -934 798 -1179 0
-1391 526 683 -603 -694 -1328 -900 1349 -545 144 550 328 0
-413 268 -127 0
-348 -1122 664 480 2 0
-376 1271 -46 210 1328 767 468 -484 700 -943 0
1328 809 -405 1059 779 484 247 1347 871 875 916 601 -1309 -854 767 969 0
-1284 1417 -1150 435 243 0
871 1149 1275 -146 550 -978 1328 1037 -1439 -405 484 767 108 0
17 -1261 1076 -767 -254 1287 -1389 1328 62 0
-398 -1408 785 0
920 -902 860 -449 135 0
1253 767 -484 1328 688 366 792 0
832 306 -1006 574 450 767 1430 1328 -484 637 -98 0
484 954 -871 767 277 1328 998 544 -480 0
-1340 1198 -551 484 1002 -583 414 767 -829 -266 -871 1328 0
976 -361 -1444 -484 -989 205 -1255 1328 1056 1364 767 0
-1284 664 -57 655 231 0
-1049 -892 186 0
1347 1059 871 969 -405 1328 247 875 1122 -854 484 779 601 -1309 767 916 0
-619 0
612 -1328 54 877 -1370 856 -328 654 0
201 877 1323 476 -1416 -1430 -484 -454 767 1328 0
1159 435 -747 1294 2 0
-1244 309 730 -1328 -1114 -243 424 -1237 0
1234 1159 0
177 -338 -415 -722 -766 1014 496 0
-162 -189 -872 -1240 -944 -282 1328 767 -1300 -484 347 0
-753 1322 767 405 484 180 1328 -539 275 871 -798 131 0
1185 1303 -1274 0
1065 1146 -388 59 -865 707 6 -284 639 -661 -602 0
-1364 -339 -1413 767 710 1328 51 -361 -484 899 47 0
-871 -281 105 1328 343 484 -1374 1402 767 -528 0
-737 -168 1444 0
802 187 -164 807 -1189 -172 -1328 1180 0
630 1159 -226 58 1255 0
-393 0
-1274 -1122 0
-484 1201 -518 -1207 911 -175 -317 1328 767 -322 597 280 0
-870 948 -1328 600 799 -576 -424 0
1042 -993 -325 932 1305 0
-675 1260 607 -643 -713 0
314 289 1058 0
-1390 -709 -643 -398 -333 0
1328 -723 -767 879 919 -886 -1286 -703 90 -1057 0
-207 -649 425 -747 -1253 0
-1408 -417 225 -1058 0
-263 -605 1328 -316 -767 639 -1426 1152 -370 0
-10 -1060 -363 0
405 767 871 1328 -1086 -729 896 484 -1439 0
97 1265 -546 0
-1309 -916 -1172 1371 708 1328 -405 -1094 767 484 871 0
-427 -397 -786 657 -537 131 484 1274 -494 405 1199 871 767 -433 1328 753 0
-247 1203 1303 -934 606 0
-420 -398 -1406 0
1221 49 747 449 323 -767 1328 -758 -283 0
1007 -1314 -361 -484 1328 442 385 642 -51 -107 -1364 1116 767 0
250 -207 -1390 0
572 1105 271 1326 1218 -1328 0
1328 1306 -1414 767 -377 15 -1147 86 1366 484 405 871 0
79 999 0
1328 484 871 -311 405 -1147 1366 57 767 -149 -965 -1306 0
1328 767 376 726 -484 1085 -918 100 0
-932 2 722 630 245 0
-146 -1149 -1399 1298 1328 767 -405 1179 484 -947 871 0
-1153 -719 0
-1244 424 -1318 -1237 -309 -257 -430 730 297 93 -1328 0
-928 -1428 131 1104 -563 510 972 122 571 1302 578 0
-1268 -534 -231 -776 -101 -527 -292 1039 274 0
910 -1277 -30 -227 -915 -767 1328 0
1399 1372 -233 484 759 1328 1390 871 -405 -146 767 -1149 0
-921 220 1148 -871 -1115 1328 1258 1036 767 484 -384 0
484 -963 840 -405 767 118 1427 -962 1328 193 871 -858 -837 -894 0
-85 105 1402 484 767 -1374 281 -871 -528 1328 1101 0
1150 -910 -767 -227 -1277 1328 0
767 -871 484 824 -152 1328 877 -644 -1416 -220 44 0
-1264 941 1081 -598 -767 -535 1277 1328 -227 784 -1224 0
1185 135 -1161 0
243 -1150 1269 1075 607 0
480 -96 -847 -168 606 0
-1270 655 -709 -57 664 0
-461 815 562 988 718 1236 -1328 513 852 845 -77 0
971 1012 484 678 1328 767 -36 1077 -1254 -1307 405 871 -1033 -381 -559 329 0
30 -737 1159 0
-709 1159 -717 -558 1439 0
1436 1226 -865 -1016 609 -6 -918 -926 0
-502 951 0
-1189 -164 807 1010 -74 -1328 -1228 318 -1180 0
93 -430 -309 730 424 546 -1328 -1244 297 -257 -1237 0
984 495 767 -94 1027 354 -1266 581 1328 871 484 405 -460 0
767 778 1312 1328 -405 -841 1376 484 871 -46 -1429 295 0
729 871 1328 -435 1367 -332 298 484 767 405 913 0
194 68 420 1328 1390 668 746 200 -767 0
-1226 -219 -207 0
-65 -382 767 -1435 -629 871 484 1328 981 -301 1060 -288 1125 -405 -631 0
96 1007 687 -573 -1294 -1400 0
-135 -121 912 1161 747 1424 0
-425 55 752 1363 698 -1328 437 0
-1130 1025 -1041 -405 1328 871 -1372 484 994 -1365 1399 -146 767 -1149 0
-379 60 -832 1143 1430 -842 -1028 -484 767 -1003 1328 0
1318 1261 97 0
1328 193 -405 767 484 1065 -837 840 -963 -894 871 173 -962 1427 0
643 1090 -245 -1357 1226 -480 0
484 1402 281 767 -1374 -528 105 -871 85 1328 -434 343 0
-780 573 0
177 -415 -536 -1228 815 -1026 -338 -42 1284 -1014 0
256 -563 970 1328 335 1384 1028 1053 767 -832 286 859 1430 -484 0
-1211 563 -510 0
-1439 -1075 -1340 -29 -435 -630 0
127 1328 -871 767 1109 952 501 484 1257 1296 716 0
-802 -1328 1180 -164 -1189 -273 807 1119 0
1444 -1179 -1024 796 -991 0
500 -1236 513 -296 -1328 -440 -589 1132 -773 0
323 49 -758 747 1221 -767 -283 1328 1179 0
-482 -231 513 1236 240 -1328 -386 -845 368 846 0
1328 -602 -1316 -1196 -767 -1308 -465 -194 -67 0
-1179 633 0
-722 -1328 1218 -1304 -271 -796 115 371 -942 0
1402 83 1328 484 398 -1004 1374 -1273 767 -871 242 0
484 -794 -1427 -894 1317 -621 -405 -604 -770 871 767 -1340 1328 0
-665 995 1328 -767 -134 -289 -723 466 886 -630 0
-1049 -619 -1253 0
-1237 -1244 424 -507 -267 1114 1377 730 309 473 651 -1328 0
-1123 484 797 1328 871 -833 767 -405 780 -778 0
-892 999 0
1042 1305 -1260 -272 -890 325 0
-976 -484 -989 1328 767 1024 1056 -361 205 1364 0
-902 -510 -274 860 -57 0
229 645 767 1328 -484 208 -361 -51 -1364 107 514 0
-1042 -1353 1090 1151 1408 1305 836 546 0
-301 -381 1077 1295 767 1328 -813 76 1383 871 -678 484 405 -36 0
-792 15 237 1328 640 -891 366 -793 767 1210 -1404 -484 0
-516 -405 -740 767 484 -411 -1354 1166 1328 112 871 -555 -1373 -694 0
103 -879 543 1000 -882 -767 -723 1328 -886 -858 0
484 -405 693 767 916 -1043 -1309 1328 -975 -966 -875 871 -1232 0
587 739 871 -894 1427 1421 1328 -405 4 484 372 356 -840 767 390 0
1328 662 1152 -1340 -370 -767 1426 -270 -605 0
-1024 -1153 0
-1328 -975 -404 -55 53 1361 -1164 1205 927 -607 -81 627 0
-467 845 1190 1236 461 510 513 -1328 116 885 754 713 0
1075 1269 1200 -789 -1122 0
-79 -534 -192 776 0
430 -309 424 -257 93 -1231 -1244 -1328 730 -1237 297 1377 0
-1139 405 871 484 -293 -520 767 113 523 145 -1443 1127 1328 0
767 700 210 -376 -484 1271 468 1328 -943 612 0
-366 1176 -484 1179 767 15 -147 448 1328 1381 0
487 337 1212 -1218 -299 -1087 -1328 0
886 665 -723 -134 995 -858 -767 1328 0
767 -1103 1173 -544 484 277 -1410 -1193 1328 -592 1293 428 363 -1029 -871 0
425 -1179 796 -902 -450 0
871 -1366 1191 405 484 1328 767 648 57 0
1363 752 55 1105 -698 437 -1328 0
-1149 608 871 767 1163 -1372 -146 1328 1365 484 492 612 -798 -405 -814 1399 0
484 682 1328 -1290 932 767 456 1011 749 -925 -1055 -871 611 0
360 -84 -764 -767 -618 67 -465 -1196 1328 852 -194 1408 0
1188 -1330 271 -1017 -695 57 1218 -1326 -774 -1328 -722 982 0
349 -1418 664 0
1092 -674 1328 -1076 1128 -767 1377 1287 958 0
627 1361 -55 1205 -81 927 -607 -53 -1328 -1164 -404 0
356 578 -720 -831 -1302 500 -1200 -935 0
767 538 817 -827 322 1328 373 -484 -561 0
767 1328 242 1374 -1004 1101 -871 484 1273 1402 0
-921 836 1305 -1042 1151 -1353 420 490 0
-940 767 1328 277 484 998 -871 -954 544 -1203 0
926 999 0
-1289 951 0
325 -801 272 1305 -771 950 -622 1042 -783 0
1438 -156 -368 -181 1260 0
-156 1170 -96 -1024 920 0
-489 -871 570 484 1328 767 -1296 -268 56 862 0
-1281 -528 85 1328 484 343 -1374 105 -871 1402 281 -434 767 0
1329 -877 -1433 0
1346 -29 -605 1107 316 1054 -630 -190 1328 1152 -767 -370 -1426 0
-850 1417 -1324 -90 -763 0
-1408 606 1282 -775 314 0
1328 484 1266 871 669 1169 767 187 405 0
-361 767 649 205 1364 -484 -1444 1328 1056 -989 976 0
-656 484 1328 687 871 1376 -876 -1429 767 -295 778 303 -748 1263 -405 0
81 -55 -1164 378 912 -591 -1328 0
-81 -745 -1164 -1328 -55 130 404 0
206 2 1058 0
-194 1408 -84 67 -1196 360 -767 -465 -618 -764 1328 420 0
-1189 -1328 -802 -273 807 1119 -164 1180 0
-219 79 -568 0
969 -1309 871 -860 854 1328 767 484 916 875 -405 779 0
-370 -204 -316 1152 639 -605 263 -1426 -767 1328 0
839 -405 -140 -1021 -740 -613 1328 -1373 -694 484 -112 874 767 871 1274 0
-865 529 1146 -973 667 226 6 -866 -1417 -59 0
-629 -405 1125 871 1435 -65 -382 852 -631 484 1328 767 0
643 -227 -535 -480 -767 784 -1224 1328 -1081 1277 941 -598 0
-1098 -405 -1382 991 -65 -631 510 767 871 481 321 629 484 -1110 -382 1328 0
-527 -534 1268 -101 -435 -776 0
1231 1444 -1181 1318 656 0
408 -1412 1157 -227 -784 -767 -32 941 -670 1328 1277 0
1023 -782 871 484 1328 36 405 -334 64 500 767 -1033 -381 0
-420 1264 858 440 -72 0
-719 225 0
-534 663 738 -658 709 101 -776 -184 -459 0
259 400 417 655 -1424 1262 -1058 0
545 -302 -1328 1195 -582 328 1349 -167 775 0
1234 -333 0
-1072 -907 22 0
-1058 -1226 -414 -417 0
1082 -895 -796 -774 271 -1328 -982 1218 -1326 0
871 1105 405 -1027 -1266 -460 1328 495 484 767 0
-733 1264 121 -363 -398 0
392 807 1069 -1338 -1022 -1328 -164 1189 -664 0
-404 -55 627 -1328 -1361 -81 -1164 90 927 0
921 -1179 736 1235 -87 0
164 -29 807 909 -1328 305 450 -1048 638 0
1236 513 -1328 -461 845 -988 353 0
1159 918 -10 0
551 -871 1002 -790 -1297 767 902 1328 484 0
-1011 953 -1279 0
405 484 397 767 753 170 125 -431 1328 871 -300 0
-871 -1109 501 -206 1296 1328 1276 -1102 855 1257 952 767 503 484 0
-1147 377 1366 484 1328 508 1122 405 871 767 -1414 1306 1442 86 0
625 -1349 -1375 -1288 612 328 -1328 156 -512 0
-682 -925 1331 -626 789 456 713 1020 -788 -871 1328 767 484 395 0
1277 -784 -1159 941 -1216 -227 1167 -408 -1238 1328 -767 0
-479 243 1231 0
871 304 -975 875 1328 -405 -1250 767 916 -779 969 -33 -1309 484 0
738 -658 -776 -630 -459 -663 -534 101 0
-1147 488 767 278 1274 1366 405 871 1122 149 484 1241 -1306 1328 -965 -311 0
-210 -484 1072 -943 767 1328 468 -376 0
1037 -405 871 484 1328 -314 -978 1275 767 -108 1149 -146 0
420 956 1226 465 -767 -805 -13 1328 -194 -863 0
-1294 -1044 -1357 -344 1425 -655 1378 -136 0
-1328 -255 132 -987 -513 -153 696 0
484 1313 767 -1208 871 818 -727 1443 523 405 -757 1328 145 60 0
484 332 -506 -650 1328 1062 767 298 729 -346 871 405 223 1434 -630 -691 0
-419 -767 -674 -1076 1362 -1231 1287 -243 1328 806 1336 -958 0
1058 987 1235 0
802 -164 -1328 1180 -860 807 -1189 -172 0
510 -362 -955 -1428 852 -1282 1302 578 -20 -122 0
484 871 -460 94 495 1328 1418 1027 767 405 -1266 0
-187 393 79 0
1076 -1439 1287 -1389 -767 -1261 -254 1328 -17 62 0
484 -826 -1131 -930 -1061 767 528 646 -997 -871 1328 -1203 1402 -1374 0
374 -136 -238 -355 1044 -248 96 280 181 -148 0
-219 -687 670 0
1328 767 484 871 -1281 -868 -365 1376 878 640 838 -405 1429 778 0
-484 107 208 -229 -1364 1328 -51 -361 1390 767 0
-741 1328 -484 -520 -898 1430 767 -832 -335 1028 -1174 -75 0
1105 -1328 55 -1363 0
-37 -871 280 -924 528 1328 1402 -1319 -1355 1061 767 -1374 888 484 0
-433 1328 -494 -397 1199 753 1274 -427 484 767 657 -537 405 -786 871 0
405 -397 1328 871 -569 753 494 1252 484 767 685 274 0
-490 -1058 -400 417 259 866 0
-1324 -850 292 520 670 0
480 1193 -5 0
-78 -393 0
-871 1002 1226 1328 484 790 -816 767 551 -1297 0
-370 -635 1152 -341 -435 -767 605 1328 -214 0
322 -561 -827 817 767 1328 -1131 -484 538 0
-1267 -936 -136 181 -1067 1397 -656 1044 970 -148 -374 0
-1406 -1181 796 0
449 -436 -767 1144 394 758 -671 586 1246 -1175 1328 1161 445 0
-907 -733 975 480 -363 0
-494 484 753 -315 767 871 -786 1328 -104 405 -397 433 173 0
1345 405 871 381 1223 484 -1320 1328 767 -1356 182 0
-1324 -850 -847 1444 -181 0
405 1166 -757 727 1443 767 -1208 145 871 1313 970 222 484 818 1328 523 0
1287 -254 717 -767 17 62 1076 -1389 1328 0
-1048 -638 -1328 449 807 305 164 0
798 -178 -274 0
-798 1218 -774 271 1070 -796 895 -1326 -982 -336 1082 -1328 0
-484 -91 767 366 1328 1332 -58 -820 -1203 -792 -237 -38 1249 0
-1058 135 -490 -259 417 0
-751 1406 0
-1231 1328 405 753 871 767 -125 397 484 0
1357 97 -280 0
-185 -767 565 -1287 -243 1328 1433 -828 -1259 0
271 1218 -1328 1326 -572 747 71 0
1366 405 -1147 1414 -292 1306 767 1328 871 484 0
216 517 -745 -484 767 361 1328 1432 0
-1279 -274 670 -1345 -247 0
-219 -550 -156 0
-146 1328 1130 1399 -1365 871 -1372 1369 484 -1149 -405 767 0
1042 -272 890 1047 1305 52 325 -1131 0
-368 440 796 -118 -1178 0
-1058 -417 1131 944 0
-247 -72 -170 858 231 0
1307 675 871 678 329 1077 484 971 -36 767 405 1328 -381 -559 0
871 -1309 -1239 767 -405 -232 1328 484 875 -1282 1088 -969 725 916 809 0
-417 -1058 -1274 -450 0
347 -944 1328 -189 -162 -872 -577 767 -282 -1240 1300 -484 0
1328 1430 -832 649 -1028 767 -484 -1143 0
-170 97 1303 0
-767 -886 -1321 -879 1350 -542 -1214 173 1328 -103 -1440 -723 0
482 -386 1236 -845 1113 240 513 -1328 0
767 462 -21 -65 871 -1203 1328 631 -382 484 308 -375 -405 0
767 597 -175 1270 -484 518 399 -322 1379 1328 0
871 -732 484 767 1366 1348 -311 1184 405 965 -1147 -1306 1328 161 1442 0
-936 -656 -1067 970 -148 -520 -136 -1267 1044 1397 -374 0
211 -1439 534 701 0
1193 250 -789 0
1439 29 1329 0
1416 -568 -10 0
-1236 513 -773 589 -1328 948 0
780 -670 907 1072 -656 687 0
767 -933 872 1328 -189 -484 -159 449 347 884 -282 1141 0
633 -60 0
349 1200 -1166 0
-776 -459 -534 101 -798 -738 -658 0
-634 -496 -338 1014 550 -1078 177 -415 87 1270 -1111 0
1427 484 871 -405 1328 -894 -840 767 -1360 -1200 -808 739 763 -165 -1084 -372 0
1261 393 977 0
484 -1191 405 871 1328 57 767 -1366 0
-573 1328 405 871 484 1252 -397 767 753 685 494 -569 0
749 1328 484 -611 456 -925 767 -871 682 747 0
-10 656 -687 0
-737 -87 -156 0
-57 -775 -1418 630 1417 0
394 -671 -1144 -331 -18 -1175 -364 758 39 -767 1328 0
484 871 405 -104 -315 -397 -786 753 -494 767 1328 433 -1200 0
272 -736 1042 -622 1305 783 325 0
1328 747 1221 -49 -767 -758 0
-180 871 767 -798 275 -753 1328 484 405 0
-1264 -598 784 -1224 -227 941 -918 -535 -1081 1328 1277 -767 0
753 1252 -1200 494 767 1328 871 484 405 -397 -685 0
-536 815 -338 713 -42 -1014 177 1270 -1026 -415 0
1365 -1149 -146 -814 -608 1399 72 1328 -1372 -405 871 767 484 0
-627 -1328 -745 -1164 -904 -404 -81 -55 0
886 -466 995 -767 -289 -665 -723 1328 -134 0
22 425 745 0
-435 -1376 778 996 871 139 -405 1415 1328 767 -26 484 687 0
376 1126 1122 -980 -484 699 -100 767 -1018 -188 1328 -198 -46 -834 0
860 -90 567 2 -1377 0
670 -847 -373 -713 736 0
237 1328 -484 366 619 -1210 -792 767 0
-415 338 368 -664 1233 -851 177 810 775 0
918 -558 243 -1279 1255 0
1345 767 484 615 1342 -141 -871 220 1328 -917 -1258 0
417 -1058 469 1368 -259 0
-1406 -581 -568 0
-322 844 -1170 1248 175 -412 777 1328 -484 -1357 767 0
-1231 -977 -185 -767 1328 -828 -1287 565 -1259 0
1040 1231 -181 1318 -733 0
-267 -1328 730 -257 424 1377 -1237 -1244 297 -309 93 430 0
-456 1328 690 767 -1177 -1071 353 -871 525 484 0
446 -443 723 391 568 1328 -1351 612 -767 0
-957 -196 -100 376 640 -484 620 1328 1018 767 0
-1253 -1390 -700 121 -907 0
-557 -1256 1328 347 -484 -121 -1229 7 189 1161 767 0
-866 -618 -1196 -767 -194 84 1328 67 -764 -465 360 0
-767 -760 -768 1277 -1133 1328 -941 -566 -1040 -227 0
606 1265 953 0
970 168 181 15 449 -656 0
60 767 1328 871 405 -523 484 -89 -109 -230 0
816 484 -871 -241 551 790 1002 207 1328 -1297 934 767 -531 0
-376 -484 943 767 1072 1328 0
-1328 1218 986 -71 271 804 -572 1326 -1235 0
-1366 -648 871 484 1191 1100 767 405 57 312 1328 0
-370 -204 1152 -316 1328 -1426 263 639 -605 -767 0
-1341 -127 0
-1103 593 484 143 -1265 -155 767 -871 -544 1410 1328 277 0
-5 796 567 0
1427 -963 837 -405 840 767 1328 484 871 1424 -894 0
484 -1118 -1051 -1306 311 871 -1147 1442 405 1328 881 767 197 719 1366 0
15 -891 366 -573 -484 237 767 1210 -1404 -793 -792 1328 0
1264 953 -1150 0
753 -397 1328 767 493 1324 405 871 -494 -714 171 786 -575 484 -1193 0
15 666 -1249 1328 -792 767 -237 1398 -484 366 -560 590 533 -573 0
-1011 -700 1329 0
-55 -594 -1291 -1328 1164 -1444 0
361 767 -517 1328 -484 216 -977 0
-405 1088 -969 -232 916 1324 767 484 871 875 -1239 1328 -1309 809 725 0
879 -767 1328 -919 -723 90 -886 -1057 0
548 -652 1103 -801 -544 767 -1193 1328 277 290 1220 -871 484 0
682 1055 749 -871 456 1328 368 484 767 611 -925 0
1328 767 282 347 934 -484 -1168 1197 -471 -189 -803 118 0
-500 770 -800 0
-886 450 1328 543 -879 103 -767 356 521 1000 882 -723 0
171 -575 1328 871 484 405 786 -397 -494 1166 767 714 753 0
990 -767 -370 -1439 1328 -1152 0
-1166 -789 440 245 -127 0
319 1387 -1326 -1328 1218 -423 -1235 774 213 1345 271 0
-484 -322 907 1379 -175 1328 -906 767 597 518 -399 765 0
-513 -1368 255 -1328 0
647 -276 894 767 871 484 1328 -795 447 -405 -1255 0
400 417 -1262 -1058 331 -90 259 0
-1007 -449 -1181 -1178 -156 0
1228 -1058 1262 987 417 400 259 0
1138 767 1328 -664 405 -251 484 871 -1266 495 460 949 1068 0
-403 -398 -490 0
-432 767 740 -1373 484 -1292 1328 961 -1303 883 -405 871 0
-894 -840 1095 767 -405 871 1427 -739 1328 946 500 484 0
-170 -1274 -750 0
767 753 786 -714 871 -1303 484 -494 -397 405 171 1328 -575 493 1324 0
-709 1269 -763 -72 520 0
-664 1181 368 -186 775 514 0
1269 -763 267 -19 520 0
1417 -450 435 918 -789 0
-1249 -484 590 -237 -1398 767 1328 619 -560 366 666 -792 0
-355 -248 -136 -238 280 374 96 -148 1044 -520 0
-767 915 -227 -30 910 -1277 1328 864 0
871 19 1011 -354 1027 495 -460 405 767 1328 484 984 -1266 -94 0
1328 838 1376 484 640 878 1429 871 -868 778 767 -405 -365 0
-381 767 -1023 850 36 484 405 871 1328 0
-212 763 1147 -939 767 484 405 1366 119 -1280 871 1328 0
-506 -1172 298 332 1434 1328 223 1062 -650 639 871 484 729 767 -346 405 0
292 520 921 -1345 -1007 0
-1438 1328 -538 -561 -484 -1170 -827 322 817 767 0
227 9 1050 -1129 -767 1328 -918 -1135 1150 0
168 -51 1328 767 -166 -484 -549 1283 199 -361 -1116 -107 -1364 0
-865 1146 6 -661 388 59 -1409 0
-1377 -479 267 0
-871 767 484 1328 -1296 862 -489 -1260 570 -56 0
-170 -19 -1024 -15 -1007 0
1258 484 -871 1148 -1036 1328 767 220 643 0
-65 484 -405 382 -801 -409 1328 -702 871 -822 767 0
612 1328 484 1322 180 -753 767 -539 405 -798 275 871 0
63 -164 -802 -452 -1119 807 -1328 -1189 1180 581 0
-779 -33 871 -304 -389 484 -1250 767 -1309 1328 969 -405 1060 916 875 0
-36 767 -301 1077 871 -678 484 -1295 -381 1383 405 -813 1328 76 0
349 770 858 0
1204 173 661 -45 1146 226 59 1065 -865 6 -458 0
767 -1116 166 -1409 -1364 -51 199 -361 -484 1328 -107 0
-1058 -717 -417 987 0
1329 -168 745 0
-900 328 526 -603 -1391 144 -1328 1349 877 809 -545 683 0
-1270 464 -877 567 267 0
-1060 -546 -219 0
484 871 -405 875 916 -779 969 767 -1309 -33 1250 809 1328 0
785 975 -247 0
-219 860 -1418 0
386 353 513 1236 -845 -1328 0
871 767 -1184 -1147 -311 484 1328 405 161 -1306 1442 1366 965 -732 0
484 -141 396 -206 1339 917 -472 767 220 1328 1324 -871 -1258 -1352 0
-1149 114 484 1179 -1399 947 1298 767 871 1328 330 -146 -405 87 0
1296 1328 484 767 -1423 1090 -1015 -871 -952 1160 -830 0
1439 267 1159 186 1303 0
849 250 0
767 871 510 629 719 -65 -405 321 -382 1328 481 -1098 -631 -1382 -1110 484 0
15 1253 -573 1113 -920 619 0
1328 -1006 1430 832 574 767 98 -655 306 -484 0
-1083 -383 -1328 1278 -1136 892 -1340 1237 424 0
-1011 670 1438 -1408 -1113 0
-800 301 -643 0
-170 999 0
871 405 484 104 -397 -563 -315 985 767 -313 -494 809 -786 433 753 1328 0
-1282 -232 -1088 916 725 -1239 484 871 -1309 1328 -969 -405 767 875 0
1443 145 1208 357 767 -441 484 523 -231 -358 680 871 1328 405 0
-939 871 484 1328 763 405 212 119 767 1366 1147 0
-849 -1007 745 0
-987 -1305 1405 -736 221 -262 850 0
871 -405 -1429 484 778 1376 841 700 1359 1328 215 767 -923 295 0
1261 349 -558 0
-1064 -1225 -1018 1328 -484 -100 767 499 834 907 1437 376 0
-343 1438 -1406 0
-356 -1341 0
-1153 268 0
1328 767 -1307 -381 1077 484 329 -1265 678 1254 971 871 -559 405 -36 0
546 -65 767 871 -405 629 1395 -382 -481 1328 484 -631 -522 0
-907 670 -800 0
484 767 -1296 1328 -871 -862 -1260 0
1024 137 -1164 -130 -55 404 -1328 -81 0
-1373 484 112 1328 -405 1166 411 767 -740 871 -1354 0
-798 -860 767 1156 405 -1068 871 460 352 -1299 484 1328 -1266 495 -70 1401 0
1328 175 -484 1248 500 767 844 777 -322 -1075 -412 0
1167 -227 -767 -408 941 -1159 -784 1238 -1216 48 1328 1277 763 0
770 97 -500 0
-282 -189 347 767 912 -933 884 872 -159 -484 1141 1328 0
666 -1249 533 -560 -237 -292 1398 1328 -792 590 366 -573 -484 767 0
-1036 767 1328 484 1148 220 1258 -921 -871 0
1328 -79 405 -495 -897 767 -1266 871 887 -327 484 893 0
100 376 1328 80 -234 1085 -484 767 -726 420 0
292 -637 0
1284 -1124 513 -1328 -217 1073 -885 111 1236 461 845 0
110 414 -455 -767 -1196 1328 -194 1308 -465 -67 0
871 1328 -1373 961 -432 740 -405 -1200 -883 767 -1292 484 0
1178 1391 689 -1328 144 1349 -545 967 328 -157 914 0
-72 -181 1438 464 -1090 0
394 -671 1175 -767 -1074 -681 -944 1328 617 -291 758 0
1328 -370 929 -605 -767 1152 333 -102 -662 -270 1426 0
770 999 0
-568 -751 -581 0
-1287 -977 828 -767 -185 1328 0
767 1217 -484 347 -121 463 -937 872 -282 -189 -1294 1328 1194 933 0
-664 -176 528 484 1402 -1374 1328 -871 767 1355 1061 0
417 -400 -280 -1058 1131 259 0
-484 767 1229 892 189 347 1328 0
-1090 -932 -1390 -1284 -1161 0
551 1297 207 1002 -1441 767 123 203 -1183 -1038 1328 -871 420 1335 484 0
958 692 1328 -674 -267 -1209 -767 -183 1287 -1076 -1034 -243 -1128 0
76 -678 -813 852 1295 871 -1033 -381 767 405 -36 1328 1383 484 1077 0
602 259 -1058 29 417 -400 0
1302 236 24 -46 1428 1279 578 1380 700 0
840 871 -894 -405 -962 193 -963 -837 1427 767 484 -858 1065 1328 0
860 1228 -413 0
619 343 912 640 514 -1281 0
243 -1289 801 1264 267 0
-1442 0
347 767 189 747 1328 -484 1229 0
29 1075 -1211 0
694 -274 -1406 0
871 1328 405 -753 -798 484 275 180 -1322 767 0
-1123 484 -778 588 871 -656 1011 767 -405 833 1328 797 0
1044 -374 -1267 -148 60 1397 -936 1067 -136 0
-918 -1294 -630 -1231 356 420 0
-912 61 -747 0
871 1035 948 1328 -1086 407 484 405 767 -896 -729 0
-786 405 131 1199 -494 -433 484 753 767 -397 657 871 -537 1328 -427 -563 0
-809 0
22 -1011 -1279 0
1302 612 -769 122 -571 578 -1428 0
170 -405 -1215 -112 -478 -16 -1373 871 1328 -839 -740 484 767 0
-434 96 1402 -871 484 1328 -1374 -528 281 85 767 343 105 0
465 -13 -805 956 -194 -767 490 863 1328 0
-1433 -612 -849 0
920 -87 135 1294 -902 0
-603 328 -545 -1391 1349 877 -900 144 526 683 612 -1328 0
-867 -767 -1152 -29 -370 -990 1328 -160 451 -630 0
-1122 1439 -1178 1200 1269 0
-1328 1195 709 -302 545 1349 -167 -582 775 328 0
1401 -1068 -1299 484 1328 1156 614 352 767 495 871 460 405 -273 -70 -1266 0
567 -1396 0
-1265 546 1060 363 -801 -606 0
1328 -753 405 871 1166 484 275 767 -1322 180 0
1408 325 622 457 1305 623 1042 272 0
-584 405 767 -1169 669 484 1266 -273 1328 187 -422 871 0
767 -871 -1115 1036 1258 -921 220 -384 1328 1148 484 -29 0
-891 237 767 793 -1404 -792 366 343 -484 1328 1210 0
-339 767 710 649 51 -1413 899 1328 47 -1364 -361 -484 0
-269 767 -1131 772 -1257 1296 -871 484 -530 1328 307 952 0
-850 23 1033 0
123 -1108 -871 551 1002 -34 1297 -203 767 1328 -1134 484 -655 0
788 713 -925 -133 253 -444 1328 767 484 348 456 1080 -871 88 -682 0
-1328 -467 1190 754 1236 513 885 461 116 845 713 0
-1328 1019 -164 1180 -860 1333 247 172 807 -1189 -1386 802 0
1173 -544 428 -871 -1103 -1410 1122 -592 484 277 -1029 131 1293 767 1328 0
-22 953 0
-1013 -464 -351 -744 -767 -465 1328 843 -194 1196 0
753 125 767 431 -300 871 1328 170 484 397 405 -504 131 0
417 29 259 -639 400 -1058 1262 0
-1328 -309 -1237 424 -93 156 -1244 730 0
-1076 1287 1377 -767 -674 1328 195 958 -1092 -712 1128 0
1328 -871 484 1396 -1388 925 767 456 0
-1065 1234 0
767 146 853 1433 484 218 187 -405 -1202 11 1328 871 0
-313 104 433 753 809 985 -315 767 1328 405 -494 -694 484 -397 -786 871 0
-1065 425 567 -558 607 0
-1341 -131 0
-785 0
767 -159 1141 347 884 -189 1328 872 -655 -484 -282 -933 0
-624 -602 82 1316 -767 -194 1328 -1308 310 -465 -1196 -67 0
-1170 1069 1338 1189 -1022 -1328 807 -164 392 0
-243 1171 819 -415 -1231 -177 717 938 0
1260 -1012 -775 -643 -713 0
1329 -23 0
-484 -920 366 -792 -237 -1249 1328 -590 1392 767 0
767 -1033 -1342 615 1328 -917 -871 484 220 873 -141 -1258 0
-405 961 767 -1200 -883 -694 -1292 1328 -432 871 484 740 -1373 0
-649 469 -1007 -1113 -546 0
-855 1296 1328 -1109 -1102 501 333 767 484 -871 952 1257 0
-127 259 1193 -1058 417 -400 0
-1018 -28 376 809 1097 1328 687 -834 188 -100 724 767 -484 -660 0
-822 767 382 -702 484 871 -405 -409 1328 -65 -944 0
-283 -323 1328 -758 -767 49 1221 747 0
523 1139 767 -293 1127 -1443 871 484 113 1328 405 145 -1281 0
-15 417 -637 -259 -1058 0
-58 -1009 -1203 -81 -130 -137 -1164 616 404 -55 -1328 0
268 0
1058 1261 567 0
449 1147 1366 1328 871 767 484 119 -939 405 212 0
-815 245 -800 0
675 1328 -438 141 -1258 -871 -610 1272 1385 484 767 220 0
523 484 1443 871 1328 680 767 -464 145 405 1208 -357 0
141 484 1272 610 1385 1328 -871 675 767 700 220 -438 -1258 0
-644 767 -152 -220 44 850 -225 1328 -871 484 824 0
-717 186 1112 0
-1033 1324 -179 484 615 -141 220 -1342 -917 1328 -871 767 -1258 342 -873 0
-700 46 -10 0
1328 699 -1018 -834 767 -100 -484 -198 376 -656 -188 -980 -1126 0
484 1328 893 405 -1266 -1255 887 -79 -327 -897 871 -495 767 0
1328 -1193 -1103 -544 1410 593 -143 767 277 -155 1227 -871 -1265 484 0
871 1328 -841 -405 -46 -470 209 -1312 1117 778 484 1376 295 -1429 767 0
-1116 -51 -1283 -107 -484 -166 -361 767 199 -549 348 649 1328 -1364 0
273 -750 -1418 0
-136 936 -374 -1267 -148 1044 449 1397 0
244 1328 298 405 767 729 -1075 484 332 871 -1434 0
-273 1328 767 669 405 -1169 871 -584 -860 1266 -422 484 0
-465 -1308 -1228 -767 -67 -194 -1196 1328 -1316 0
-1076 1287 -1318 -767 -958 1328 419 -674 0
308 1328 871 -65 -462 -21 -801 -382 631 767 484 -405 0
1328 -227 408 156 -784 32 1277 941 -767 0
791 -641 546 871 65 1328 -405 767 484 0
920 -1058 -259 -1105 417 0
982 -1326 -1330 271 1218 -774 695 -1409 -1328 0
852 -362 991 -955 -1282 -20 -1428 578 -122 1302 0
1429 778 868 767 1376 871 -405 640 -365 484 1328 878 0
-606 453 -515 -277 -781 -812 -871 484 767 1328 0
-1115 1328 1258 -871 450 1036 484 1148 -384 767 220 -29 0
168 904 -81 1166 -1164 -404 -627 -992 235 -55 636 -1328 0
1328 -1056 -484 -361 -1444 205 767 1364 -989 0
-782 871 1023 64 36 484 767 -381 1328 405 -206 334 0
-545 328 -900 144 526 809 -1391 -694 -603 683 1349 -1328 0
1058 -1179 -780 0
798 -849 694 0
778 1328 1376 878 1429 365 871 -405 484 767 -670 0
-1199 -537 484 405 -494 -433 -786 1328 -397 -1200 871 753 767 0
-823 -1172 356 -405 767 -916 871 -1371 708 1328 -1309 -1094 484 0
1011 -405 484 -778 767 -797 871 1328 0
871 405 1328 753 -786 -397 767 104 433 -315 1166 313 484 -494 0
-36 -225 767 -381 1077 405 -329 484 871 -1066 678 1328 0
484 612 871 247 960 767 -106 -27 -405 1328 1309 -1031 0
656 -118 920 607 1228 0
-469 221 1405 262 -1305 0
678 405 -225 871 511 -329 -381 1285 1066 484 -36 1328 1012 1077 -676 767 0
261 776 -1340 192 -534 0
1351 1328 -767 723 -1255 0
40 -798 484 767 1328 1215 -112 -839 -740 871 -1373 -405 0
-1413 1328 649 51 47 710 767 -1364 899 -484 -361 -607 0
-38 366 -237 1328 -91 -484 1249 -573 1332 767 -820 -792 15 0
333 952 772 767 -269 1328 -1257 484 -530 1296 -307 1279 -871 0
405 -1306 763 -1147 484 1328 1366 -311 149 -278 -965 871 767 0
767 -1183 1328 -871 -1335 123 420 1002 484 551 203 1297 0
951 1439 0
-507 473 424 -1328 -1200 1114 -1237 730 309 763 651 -1244 0
-441 -231 405 767 -358 1328 1208 523 871 1443 484 -1203 145 680 357 0
-1211 520 -970 0
-804 1326 1181 271 -71 1218 -572 -1328 0
1328 -767 -364 274 394 -1144 -121 758 -18 -39 -671 -1175 1187 0
-1299 767 352 405 70 1328 460 -1228 495 871 484 -1266 -1068 1156 1401 0
220 767 -917 1342 484 -871 1328 -141 615 -1258 -1033 0
-168 469 -902 -1012 -1113 0
-1364 767 1116 -361 -51 -107 1007 -1314 442 -385 1328 642 -484 0
563 1234 0
1329 -181 -373 0
-733 1294 -849 0
573 -219 -1253 0
325 -622 771 363 1060 127 -783 1305 272 950 1042 0
-112 484 -839 767 871 -1373 1215 1328 170 -740 1162 -405 -40 0
-226 801 -1377 1172 -789 0
-397 786 -1303 1328 -575 -563 767 171 -714 753 871 -494 484 493 405 0
1328 -903 1315 729 871 485 484 -298 405 -762 767 0
1361 -404 -53 927 -801 -1164 1205 -1328 -55 -81 627 0
-1366 1100 405 1191 1442 871 877 484 312 1328 767 -648 0
484 -460 1328 -984 767 405 871 495 -94 581 -1266 1027 0
986 -1328 -572 -469 804 271 -71 1218 1326 0
-363 975 -907 1444 -789 0
456 713 1328 1344 -163 -871 788 350 767 1001 -925 -88 1284 484 -682 0
-10 -449 1294 0
-480 -1203 852 991 789 -1193 0
871 321 -405 363 -1098 1328 629 -65 484 -631 -1382 -382 481 -1110 510 767 0
-858 673 -435 758 1328 -767 706 671 979 -174 0
-19 231 22 0
1099 -1075 192 776 763 -534 170 -261 0
484 -1260 1328 -862 767 -871 -1296 0
-1345 393 -643 0
-405 -1371 -1172 247 871 767 -916 -1094 708 -1309 -823 484 1328 0
-832 767 -484 1028 -256 19 1430 1328 859 335 0
-1255 -1439 733 1396 1150 1289 0
-970 -750 655 0
405 -655 523 767 -145 1328 871 126 228 484 0
400 259 1262 1200 417 289 -1058 0
745 425 953 0
922 778 -215 1376 700 1359 -1429 -405 767 841 -656 -923 1328 871 484 295 0
-181 -1101 -564 0
871 19 -230 89 1328 -523 767 484 405 -294 -109 0
568 -106 871 -27 1328 -405 809 1309 960 -1031 767 484 0
250 -1122 -57 0
1161 -1159 639 1377 -602 1065 0
-1046 1440 585 -886 -723 -879 1328 1122 -704 131 -857 -767 -103 0
767 -27 1328 484 1309 -736 871 -405 106 -1031 960 0
452 -728 -164 -273 -1328 807 63 -1119 -1189 -802 1180 0
501 127 484 1257 -1276 -1109 333 -871 952 503 -1102 1328 855 767 1296 0
-60 -1049 655 0
-79 9 -767 -1135 1328 1150 1050 227 -1129 0
1231 -1341 0
1328 581 588 -405 1179 484 871 767 797 -778 833 -1123 0
-1318 -1328 -132 -255 -513 0
1204 173 207 -45 -458 661 1065 6 -865 1146 59 0
528 181 176 1402 1328 -871 -1106 429 767 1166 1061 484 -1374 734 1355 0
175 -944 844 767 1248 412 1328 -322 -484 0
1277 941 -535 -1081 784 -598 -480 -1159 -767 1328 -1224 -227 0
-907 -1181 860 -168 79 0
-581 -187 61 0
1347 767 484 871 -854 875 916 -975 -1309 -405 969 -1059 779 1328 0
1328 -370 87 316 -1426 1152 -605 -1346 -767 0
328 31 -1328 1349 99 -144 -545 -416 66 1270 0
1282 1255 -546 440 -90 0
-789 -118 573 944 -1161 0
-759 1372 767 1399 -146 1178 -405 484 -1149 -579 1328 871 1343 -233 0
-87 -274 -614 1200 -717 0
871 903 -1340 729 1315 1328 169 484 -298 485 767 405 -691 0
-494 104 1328 753 -694 -985 871 405 -313 767 -315 -786 484 -397 433 0
778 484 -748 -405 -876 -58 1328 1376 303 -1429 687 1263 871 -295 767 0
871 1328 -1077 767 484 -36 405 -58 721 -381 0
226 -866 -1417 -1318 -1264 -135 0
348 477 968 -150 1178 614 -578 0
240 -1328 -845 1236 932 482 513 -386 0
484 767 610 675 1385 1272 1324 220 -871 -1258 141 -438 1328 0
612 -512 625 -1288 -1375 328 -1349 -630 -1328 0
-614 -1166 -1024 -170 -87 0
1160 -1423 -1015 484 1328 -830 -952 1090 767 1296 127 -871 0
-1181 633 0
64 782 36 -381 1023 1328 643 405 871 484 767 0
484 1296 767 1328 127 -716 501 659 -871 952 1109 835 1257 0
591 -55 821 -1328 514 1158 378 -1164 81 168 0
-767 -1426 316 1346 1107 -435 -605 -1054 1152 1328 -370 0
-487 567 -78 0
-849 1400 -1025 0
-1165 370 -889 -767 -1340 1328 0
1302 -563 571 578 -928 131 972 991 122 1104 -1428 0
796 314 -510 243 -558 0
-255 -1368 132 -1328 -513 -2 696 153 0
1328 -630 871 1434 405 767 298 1062 506 332 729 484 0
-545 -144 31 99 96 1349 -1328 328 -66 0
1328 484 -1199 -397 405 -786 -494 871 767 -433 -537 753 -691 0
567 -90 -1284 1318 440 0
-1404 1210 1328 767 -484 -891 -1281 -792 -793 366 237 640 0
1328 908 484 871 729 1367 767 405 298 -142 1403 -332 -913 0
1024 -1328 -845 386 513 1236 0
1152 -1426 -605 1328 -767 -316 -679 263 -370 970 204 0
339 -178 745 0
-46 1328 1271 1072 -484 -943 210 468 -376 767 0
-642 -361 442 1116 1007 -484 767 -107 -51 1328 -1364 -1314 0
1181 -572 804 -71 271 1218 1326 -1328 -986 0
871 1328 182 381 -1356 767 405 1223 484 1345 -1033 -1320 0
1318 -1324 186 1439 1159 0
-19 -420 1170 655 -1113 0
1024 -415 42 -338 -536 -1026 177 -1014 0
-90 -72 61 0
484 1061 -924 -1319 888 -801 -1355 1328 -1374 -37 528 767 -871 1402 0
1377 974 1393 -267 -1237 -1420 424 -730 95 -1328 0
376 -198 -100 -1018 1328 1012 -1126 767 -188 -834 -484 -980 699 0
-860 -664 1418 -273 -1228 502 0
1328 767 -1416 -871 -152 -644 850 484 824 -220 44 0
103 543 1324 -886 1000 521 -723 -767 -879 1328 226 882 0
-562 845 513 988 -77 -461 -268 718 -1328 1236 0
770 -750 -450 0
-1226 -750 602 0
-26 -405 1415 687 996 -656 139 871 778 1328 -1376 484 767 0
-654 1369 -328 -1370 -1328 856 0
1327 1328 -825 1008 -1002 484 -1243 -871 1289 767 0
1189 392 -164 -1338 -1022 807 -1328 -1416 -664 1069 0
473 -507 -243 424 -1237 -1244 1114 730 651 -1328 309 0
405 949 -1138 495 767 871 1328 484 460 -1266 1390 1068 0
-15 -1113 1185 0
-178 -60 -1025 0
1180 1333 802 172 807 -164 -1189 -1328 -1386 -860 1019 0
281 -434 85 1328 640 767 484 343 -1374 -528 1402 -871 105 0
767 568 -781 -277 -871 -812 453 1328 515 -1193 484 0
-1341 -550 0
1328 -134 -770 -767 -723 -995 886 0
23 -1369 -87 0
-688 369 15 366 -484 1253 -1219 959 792 1328 767 0
1172 -809 -5 0
-1177 484 525 767 -871 690 1071 -456 353 1328 0
-1166 -131 -1406 0
921 -127 -1345 -991 858 0
1373 274 1328 -599 -224 -677 871 767 -405 484 0
-1130 -994 1399 -1365 -1409 -146 484 767 -1149 1328 871 -405 -1372 0
-348 951 0
-359 964 -1328 731 -807 581 0
-767 -135 394 -291 617 -671 681 1328 1175 758 -1074 0
-353 61 -932 0
-674 1287 -1209 -1076 692 183 -1128 1072 1328 958 -767 0
-81 130 1024 -1164 -55 -1328 404 0
1182 373 1186 1025 136 120 1072 0
-842 1328 -1003 379 1143 -231 -484 767 1430 -832 -1028 0
-132 -1328 -1368 -513 -255 0
1366 871 86 1306 -377 1328 -1414 484 405 -1147 767 -292 0
847 767 1296 -231 -269 952 -871 484 1328 -530 -307 -1257 772 0
767 1328 109 -523 484 -230 871 405 19 0
767 822 871 1328 -405 279 382 484 -409 -480 -65 -702 0
-1416 -359 731 -1328 568 -483 -807 -964 0
1040 -1424 0
-1203 631 -308 871 -405 -65 1328 484 767 -382 0
-348 -1012 -719 -398 -170 0
798 121 1159 944 435 0
245 1260 -207 -398 -649 0
484 390 1328 372 871 1421 -894 739 1427 356 587 767 -405 -840 -4 0
596 231 -709 0
-218 146 767 853 -1202 484 -405 1270 871 1328 11 0
1328 -212 871 119 767 -939 1147 -29 450 1366 -1280 484 405 0
767 -871 -277 515 1328 453 -606 612 -812 -781 484 0
148 -136 -326 -573 1044 1101 -1358 15 -1063 0
665 -767 -289 886 -134 995 1328 -723 0
328 -1328 900 1349 -1391 -545 144 1433 0
-1002 -825 1328 1008 948 -871 -1243 1327 484 767 0
457 1305 1042 -623 325 622 -1170 272 1045 0
-871 1328 484 788 767 88 253 -682 -245 456 -925 -1080 0
394 1187 -671 -1294 758 274 -1175 -1144 -767 -18 -39 1328 -364 0
-1328 -271 371 -1255 1218 115 -1304 -1439 -942 0
-719 736 -19 -675 655 0
484 -1352 767 1328 -141 472 -1258 917 220 -871 -58 1339 0
-131 -247 0
-1196 110 249 -194 -465 1408 -1282 1308 -67 -767 1328 -50 455 0
394 1175 758 -1294 -671 -1074 1328 -767 617 -291 -58 681 0
1165 931 -1409 370 -320 -889 1328 -630 -767 0
-850 1033 1329 0
-164 -1019 -79 -1328 -1189 802 172 1180 807 0
-1404 -793 15 -891 -792 767 1210 619 -484 1328 366 237 0
-1438 528 -37 -1374 767 484 1402 -1355 -871 924 -1319 1061 1328 0
-1249 767 -1392 -573 366 -792 -541 -590 -237 -484 1328 0
-1189 -164 581 1010 318 -1180 807 -74 -1328 0
1028 -484 -898 1328 -832 -75 -335 1430 -1174 -741 -231 767 0
-559 405 871 1077 767 484 1307 329 907 971 1328 -36 -381 678 0
-237 767 761 1247 -975 -792 -1249 366 1328 -1392 -573 -590 541 -484 0
404 -1328 -55 -81 -464 -130 -1164 137 0
-532 -141 -1301 1328 484 -1258 220 767 901 1324 -225 -439 -917 -871 -615 0
142 1131 97 0
277 -544 -871 709 1220 1328 290 -652 -801 548 484 767 1103 0
608 -1372 871 484 775 -814 1399 -405 1328 -1163 -146 -1149 1365 767 0
767 -92 -100 709 -484 -957 376 1328 196 620 -46 1018 0
-11 -405 1433 -1202 767 853 484 146 1328 871 0
-1296 -1318 1328 -570 862 -871 767 484 0
1328 -1426 1152 -1054 1107 -767 -370 -691 -605 1346 316 0
-265 -1402 -871 484 128 581 1328 158 767 96 861 0
-237 1113 1332 366 -484 -792 -38 767 1249 -573 1328 -91 -820 0
-767 758 -1230 -394 912 3 -421 -671 1328 0
-614 250 -809 0
-417 -1101 -398 -1058 0
-99 -545 -144 -314 328 1349 -1328 31 0
767 1328 -484 933 -282 463 -189 1217 -1294 347 1194 872 -937 0
1239 875 1328 -969 484 767 871 -405 -1309 916 -1282 0
1385 -1258 1272 -438 1328 484 767 -610 220 -1170 -871 141 0
767 777 1328 844 -322 -1357 -484 -1075 175 1248 -412 0
767 -289 -405 484 -1084 739 -840 871 -372 1328 -894 1360 1427 0
-189 643 347 -872 -282 -162 1300 -484 767 -1240 -577 -121 1328 0
-1328 1270 -416 31 1349 -545 -1193 328 -144 99 66 0
-259 -1058 417 -912 331 0
405 1223 484 1345 871 1328 381 -1320 1178 182 767 -1356 0
356 131 809 -1193 -46 612 0
921 -877 606 1282 -775 0
417 206 -1058 231 -259 0
-925 -871 713 -1290 456 -1055 611 767 749 1328 932 682 484 0
-134 1328 -723 -767 886 -995 -918 0
1234 -1274 0
-69 484 -755 -1005 1328 729 -1062 405 767 1434 763 -29 -73 332 871 298 0
1297 -34 1328 484 767 1408 763 -203 -871 -1108 551 123 1002 260 1134 0
691 -775 243 -1150 1075 0
-484 1328 366 -664 -237 -1249 -666 767 590 -792 0
871 753 1328 484 -1294 397 125 405 -300 -431 767 0
-415 1233 -186 851 338 177 0
-605 -370 1152 270 -1439 -767 1328 1426 0
1328 451 -370 -990 -926 867 -160 -1152 -767 0
-1103 -632 277 848 592 -1325 1328 505 484 -1410 1060 -871 767 -544 0
1255 1318 243 1203 918 0
1328 484 767 871 641 -1235 -405 65 0
1109 767 952 -716 -871 1093 1257 -1303 1296 484 659 1328 -835 501 -1282 0
786 -397 767 171 871 -575 1328 -494 753 484 405 -493 127 -714 0
-1166 563 -564 0
-767 598 -1224 941 784 1328 1226 1277 -227 0
-1072 -1178 -156 -181 975 0
-1284 -815 -413 0
-449 -564 331 0
-1065 -1211 -226 0
394 -1175 758 -671 -1144 1328 -767 -364 18 90 0
484 -871 -544 767 -573 290 277 1328 1220 -548 1103 0
-103 -767 -723 1328 -704 -879 1440 -886 -585 1065 -857 0
-1266 327 1328 893 -495 887 871 767 405 484 -79 0
1278 -1083 414 -1328 -383 1136 1237 424 0
-381 1328 1023 -334 64 405 767 643 871 484 -782 36 0
1328 1028 767 -1174 -832 333 -898 -741 -484 -335 1430 -75 0
1328 787 -405 599 484 -224 -440 -677 767 1373 871 0
-170 -226 1255 -247 -581 0
-318 -164 -1328 -74 -1189 -1180 -602 807 0
-1212 487 -1087 -299 -1218 -1328 0
525 1328 -456 -871 767 1071 -1177 1284 353 484 690 0
398 628 228 523 1328 767 -145 -8 484 405 -126 871 0
-1049 314 -1179 0
484 -1373 1328 1274 -740 871 767 -411 112 1166 -555 -1354 -516 -405 0
58 -643 -1049 0
871 -33 969 -304 -1250 -1309 1328 484 -779 -694 809 -405 916 875 389 767 0
484 -563 -1342 342 -179 1328 -871 -1258 -917 615 220 1442 -873 -141 767 0
-847 -178 1260 0
-166 -51 1328 199 -549 168 348 767 -1364 -1116 -1283 -361 -484 -107 0
1212 337 -299 -1328 -1218 -1235 -1087 0
1368 -78 245 0
767 484 -854 969 779 875 871 1347 -1309 -1282 1059 916 1328 -405 -601 0
-871 -1061 1402 1328 767 -1374 997 -930 528 484 -464 0
871 -702 -405 1328 767 484 -409 -480 -65 822 382 -279 0
-987 1284 1331 484 -871 -626 -682 -925 -788 1328 456 767 1020 395 0
-1083 424 1136 1278 -383 -1328 892 1237 0
926 1058 79 0
1070 1082 -1326 614 -798 895 -774 -336 -1328 1218 271 -982 0
-280 -96 596 0
322 -484 -827 -561 1328 -817 767 343 0
-871 -123 1297 484 767 756 -486 1328 643 -380 1155 551 490 1002 0
-10 -96 -181 0
58 -564 225 0
-1375 512 -1328 -1349 625 328 1179 0
856 -1328 -328 654 -1370 -54 1369 0
-1040 -858 398 -435 -186 -331 0
-1281 -394 758 -421 1230 1328 491 -767 3 -671 -1294 0
-361 205 -607 649 -484 1056 976 1364 767 1328 -989 0
1255 975 -226 670 -168 0
405 460 -352 767 -1416 1328 1140 -246 484 -1121 426 -1068 871 495 -1266 0
-994 -1365 1399 -405 -1130 1328 871 -1149 484 156 -146 -1372 767 0
-438 1385 141 -871 610 637 1328 -1258 220 767 1324 484 1272 0
-78 314 -1433 0
-1049 -1226 464 0
-706 671 758 733 1328 -767 0
366 38 -237 1328 -484 -820 767 -91 1249 619 -792 0
-759 1372 -233 87 1399 -405 767 1178 484 -146 579 1328 871 -1149 1343 0
-1211 -815 -713 0
975 -614 61 0
657 -786 871 405 -537 1328 -397 767 1274 753 -427 -433 1199 1122 -494 484 0
484 -871 -829 -266 767 1002 1198 1328 -583 -602 -551 414 0
877 1328 931 1165 -767 -889 -1416 -320 370 0
-829 767 414 1328 -871 -266 1002 -770 484 -551 1198 -583 0
-136 1378 -762 -1044 -1425 0
1373 1274 599 -224 767 871 -787 -405 -694 -677 484 1328 0
1275 -405 -978 775 -146 1149 1328 -1037 484 767 871 0
-922 841 -923 1376 778 484 871 -215 295 767 1328 907 1359 -1429 -405 0
484 -292 -1414 1328 871 86 1366 405 767 377 -1147 1306 508 0
643 1328 64 484 -782 1023 36 -381 405 -334 767 -1033 871 0
145 -1208 727 1328 1313 970 767 818 -757 637 405 523 484 871 222 1443 0
567 999 0
128 1328 861 -1402 767 -265 280 484 -158 -871 0
951 1409 0
-871 901 484 767 -1258 -615 -532 1012 -439 1328 -1301 -141 -917 220 1324 0
1007 1363 752 -698 437 168 55 -1328 0
-564 1269 -639 0
-1390 464 61 0
-227 784 598 1328 -30 -767 -1224 1277 941 0
-500 1231 -90 -1150 -649 0
-1181 440 425 670 -1284 0
597 -322 -518 -484 767 911 280 -317 -1201 -175 -1207 1328 0
767 277 -480 1328 1220 -544 -290 1103 484 -871 0
-1279 664 796 -877 79 0
513 988 718 -736 -461 -77 562 1236 -1328 -440 845 0
520 921 292 -1072 -1324 0
-670 -1421 767 -405 1427 739 -894 587 372 484 -840 871 390 1328 0
456 -871 1020 1331 -682 1328 -925 767 -395 -1260 -626 484 -788 0
1328 -723 -767 -886 857 -879 1440 -103 1065 0
944 -747 -1324 -934 -15 0
-500 -168 1040 -72 1294 0
61 1409 1269 0
-268 345 1328 1257 -501 1296 767 -402 -418 -871 333 484 952 -387 0
1328 767 -456 -1177 -525 -871 353 484 690 0
-413 -131 -510 0
-858 1328 671 979 -174 758 -767 673 706 449 0
142 -1161 -1113 606 1294 0
-1007 1058 46 0
259 417 301 -400 -1058 206 0
-630 370 1328 -767 -889 -29 1165 -320 931 0
871 969 875 -405 1328 -1309 1059 247 484 -854 916 779 601 767 1347 0
-741 75 1028 767 -1281 -484 -832 -898 1430 -335 1328 0
-552 1328 -840 -480 -1095 767 -474 -894 484 -739 946 500 1427 -405 871 0
1073 111 845 1236 1284 -217 461 -1328 -440 -1124 -885 513 0
-723 131 -704 1328 -1046 -857 585 -879 450 -767 -103 1440 -886 0
948 -1042 1353 1305 0
1328 -758 -767 49 747 581 323 1221 -283 0
-550 -5 -156 0
310 490 -1308 -767 -624 1316 1328 82 -194 -67 -465 -1196 0
871 960 767 -106 -1031 484 -405 614 1328 247 1309 -27 0
484 788 163 -871 -88 456 -1368 1328 -925 -682 767 0
1218 319 -1326 1387 -423 -796 -722 -1328 213 774 271 0
1255 770 -78 0
1297 -602 551 207 -1441 -871 -1183 1002 123 1328 767 203 1335 484 -1038 0
253 1284 -925 1080 -682 88 767 456 -444 484 57 788 -133 1328 -871 0
1112 1281 231 0
767 366 -959 -688 1328 1253 -484 792 0
1039 -101 -776 -1268 637 -527 709 -231 -534 0
-1328 77 280 513 845 718 988 -461 1236 0
1328 484 767 -1198 -551 892 1002 -871 0
-784 1328 -408 -1216 -1159 -227 1277 1238 941 1167 -767 48 0
1042 457 325 -1033 1012 272 333 -623 -1045 1305 622 0
1257 952 -871 345 -387 1328 1296 127 767 -418 -402 -501 484 333 0
-775 -1369 61 0
1418 156 819 938 -415 -245 1171 -177 0
731 964 -1328 168 -807 -359 0
-1356 871 1328 484 381 -425 405 -182 -1320 767 0
1113 -820 1332 767 -91 -58 -237 -792 1249 -38 366 -484 1328 0
550 144 -1328 -900 1349 683 612 328 526 -1391 -603 -545 0
-809 1058 -612 0
-373 22 -280 0
871 -631 991 481 -405 767 -1382 -382 1110 484 629 -65 1328 0
807 1442 -1328 -1119 568 1180 -728 -802 -1189 63 -164 452 0
-775 -178 -1369 0
-879 1328 173 -103 -767 1350 -694 -723 -886 1321 -1440 -542 -1214 0
57 -211 568 534 -1192 -2 701 0
-1297 398 -241 551 767 1002 790 -871 484 816 1328 -531 0
-333 -934 -789 801 -1324 0
785 -1101 -181 0
-876 -1429 871 1263 -405 -303 1328 767 1376 484 778 -748 847 -295 0
1024 810 -664 338 -415 177 775 -851 1233 0
349 655 -60 0
1044 1267 -374 -136 -497 -743 735 -148 780 0
435 314 -1270 798 -247 0
1077 -1282 1324 484 405 767 1328 -1307 -559 -381 971 871 -36 678 -1254 329 0
1390 -1297 484 -790 1002 767 1328 -871 551 0
15 -1170 637 700 1161 649 0
-96 -1418 2 -1025 292 0
-767 -465 -194 -1308 1316 1328 -1196 -67 -82 414 0
-274 349 -170 0
-789 -581 1303 -546 -247 0
-194 1196 1328 843 -464 1013 -767 -465 0
424 -1328 974 -730 -95 -1237 -1261 0
700 767 376 -484 699 1126 1328 -1018 -656 -188 -834 -100 -198 -980 0
596 -907 -687 0
-865 -1261 -1436 -6 0
1062 767 -289 298 405 1328 332 484 729 -506 650 871 1434 0
-1112 -403 0
142 -5 1438 0
-1196 -310 -602 -194 -465 1328 -1308 -67 -624 1316 82 -767 0
-696 -255 132 -1328 -513 932 0
440 -1284 -847 -373 655 0
1324 101 -534 -694 738 663 -776 1122 -459 184 -658 0
1234 -87 0
1228 567 -581 -207 -1377 0
894 871 484 647 447 1328 -276 -795 767 226 -405 0
1328 -206 -1258 -141 -1352 767 917 396 -871 -472 1339 484 220 991 0
-118 -1122 -581 -348 1228 0
-363 1172 -789 -226 -558 0
1433 -578 150 0
-234 100 1085 -726 1279 80 -484 376 767 1328 0
-1372 -1130 -1365 1270 871 -146 994 -405 1399 1041 1089 484 767 1328 -1149 0
772 530 1328 -1257 952 767 484 1296 1090 -871 0
-484 -367 -175 -595 258 324 -597 1328 767 -322 -1131 0
-1279 469 573 1200 -181 0
1165 -931 -320 1328 370 -440 -889 -767 0
-1131 -386 513 -846 -845 -1328 240 -482 1236 0
872 -1200 -117 1328 767 347 884 -282 159 763 -189 -484 -933 1141 0
1399 -146 -1149 -1260 484 -233 1328 1343 -579 767 871 -405 -759 1372 0
-902 -514 -1049 0
-1021 -740 874 1328 871 -405 -1373 991 -112 -613 767 839 484 510 -140 0
1328 -604 -894 -1427 -621 -405 871 -770 -794 767 484 -1317 0
-141 220 1339 -871 1328 917 1352 484 -1258 767 643 0
966 1328 767 -875 -405 -1309 916 871 484 -1043 -121 0
1328 335 1430 -239 1028 -484 -832 767 -711 934 -859 0
827 1328 767 322 -484 -1235 0
-1074 1328 617 1175 -291 -767 -681 -671 758 394 -135 0
-484 1028 -859 -711 -656 -832 335 1328 239 767 -1334 1430 0
-10 1033 -1012 0
-1275 871 -146 156 1149 767 1328 484 -405 -978 0
-1042 1305 -921 1151 836 490 -1353 546 0
339 349 1444 0
1328 952 767 -871 -530 -269 772 -231 127 1296 -307 -1257 484 0
-900 -1391 1349 -683 328 144 -545 -1328 173 0
1408 836 -1353 490 1151 420 1305 -1042 0
-1113 -1025 -934 736 1170 0
-382 1125 -629 484 -65 852 -405 767 871 -631 288 1328 981 -1435 0
349 -640 -118 0
1399 612 484 -1149 1328 1365 -492 608 -814 -405 -146 871 -1372 1163 767 0
166 -1364 -361 -1116 1328 767 199 902 -107 -484 -51 0
114 -1149 -146 -330 767 947 -469 -405 484 871 1328 -1399 1298 0
361 767 -1432 517 -672 353 1328 -484 216 0
-871 1402 484 528 -1374 1106 1328 1061 767 176 -1170 1355 0
407 767 -729 -1086 484 405 -896 871 -1035 -1439 1328 639 0
-231 513 -1328 -736 1236 240 846 -482 -845 -386 0
-246 -1266 484 1140 871 1025 -1068 495 767 1328 -352 405 -426 460 0
951 -72 0
1328 -920 767 366 688 792 -484 0
1357 231 -15 1439 1438 0
1328 586 -436 394 -1246 -671 445 758 -1175 -944 1144 -767 0
1328 1120 1150 456 484 -871 767 1388 925 0
865 1390 1377 14 705 72 -124 0
767 484 593 -143 -155 -544 1227 1324 1410 -1103 1328 -1265 -871 277 0
-484 -1357 -322 1328 -1248 767 175 844 0
-1049 1444 339 0
944 -156 -1007 -877 -1181 0
397 -300 125 405 170 484 -504 871 1328 767 431 -630 753 0
951 -733 0
1444 573 -500 -1011 -649 0
-962 484 840 -837 -894 -858 1427 -193 -405 767 871 1328 -963 0
1328 -937 463 872 -189 767 -484 933 1161 1194 -121 347 1217 -282 0
-1091 -987 1328 -580 -791 871 767 -405 -641 65 484 0
-75 991 1328 1174 -335 -484 767 637 1028 1430 -741 -898 -832 0
-484 1328 -91 -237 -38 767 1113 -820 1249 366 -792 -1332 0
1038 1297 484 551 -1441 -871 1335 203 546 1328 767 123 -1183 1002 0
-1255 1328 857 -879 -886 -767 1440 -723 -103 0
440 1234 0
277 592 505 1325 484 -871 -1410 1328 848 -1103 687 767 -544 0
-257 93 430 -1328 424 -1244 730 -309 297 -1237 -1231 -1172 0
-1012 -479 1033 0
-1025 953 520 0
865 14 1390 -1409 705 -124 72 0
-1153 1318 0
-1390 951 0
-1196 -194 420 -602 82 -767 1316 -624 -67 -310 -1308 1328 -465 0
-248 -520 96 374 -136 280 1044 -355 -148 -238 0
-955 1302 -122 991 578 852 -20 -1193 -362 -1428 0
-767 -341 -370 -214 1328 605 -1170 -1 635 1152 0
111 -217 1236 461 -1124 513 1073 -885 1284 -1303 845 -1328 0
325 1305 783 272 -606 -622 1042 0
-958 -1076 -767 1328 1287 419 1396 -674 0
871 -1310 523 405 553 905 -975 767 484 709 1328 -818 811 -1208 145 1443 0
484 871 274 767 811 1328 553 145 405 709 905 523 -1310 1443 -1208 -818 0
3 -671 758 -767 -394 619 -421 -1230 1328 0
-722 -1017 -1330 1188 271 -695 982 -1326 1218 -1328 -774 0
758 -291 394 -1074 -671 -58 -767 -1203 1328 681 1175 617 0
-753 405 871 1322 1328 275 539 484 180 767 -798 0
-1058 -640 -259 417 -780 0
-832 -1281 1430 1328 -484 767 1028 256 1053 335 -286 859 0
1198 414 1002 829 767 1328 -551 484 -871 -266 -583 0
767 1328 484 -788 -925 1020 456 -871 -682 -1331 -987 0
274 -776 -231 -534 -101 -527 1039 637 -1268 0
1147 1366 1328 405 719 119 871 -939 1280 767 484 -212 0
-10 -637 -709 0
1369 -1370 856 -328 612 -1328 654 54 0
47 899 51 -339 -1364 1328 767 1413 -361 -484 0
67 1289 -767 1328 -360 -1196 -194 -465 0
-405 907 871 484 778 26 1415 996 1328 -1376 139 767 0
333 1296 -1102 -1276 501 719 1328 503 1257 767 -871 855 -1109 484 952 0
-274 -510 -763 -747 691 0
767 -231 -358 -441 680 1443 1208 1328 405 484 145 523 -58 357 871 0
840 1427 -894 -962 226 767 1328 -193 484 -405 871 -963 -837 0
1143 767 1430 1161 -1028 842 -832 -484 1328 0
-540 -1237 424 643 -554 -480 -1328 1337 556 1244 730 0
-733 -178 331 0
1222 1442 -534 1274 -658 -776 -225 101 -43 459 -475 0
-1345 -991 -118 -675 -127 0
-1042 -836 -1353 1305 414 0
-1328 1407 -1291 1007 -686 -435 1164 594 -55 0
500 -830 -952 767 484 1296 1160 -871 -1015 1328 -1423 1090 0
-1113 596 573 0
1328 -641 65 767 -791 871 -1091 -580 484 -1265 -405 0
871 484 -1149 767 -1399 -405 1298 947 114 1270 1328 -146 -330 0
1427 -1095 1065 767 -405 -474 871 -894 946 -552 -739 173 484 -840 1328 0
456 1072 767 1328 350 484 -682 -925 -163 -1001 -871 -88 788 0
-1390 918 -500 -1179 -1408 0
767 484 1373 -677 -224 871 -405 168 -599 1328 0
204 679 -370 -316 1328 -945 1152 -1426 263 -767 -605 639 0
1255 -1369 -417 -1058 0
-1416 1189 1069 -1022 807 -1338 -164 -1328 392 700 0
767 -1276 952 -1109 484 855 503 1257 510 1328 1296 -871 333 501 -1102 0
-405 767 -1427 1328 871 -770 794 484 -894 0
884 -282 767 -189 117 347 -921 -933 1328 -484 872 159 1141 0
-1443 -1281 1139 1127 -293 484 113 767 523 640 871 405 1328 145 0
-1288 156 -1349 328 -1375 -1328 625 -512 0
1328 -227 -1264 -480 941 -767 784 1277 -535 -1081 -598 -1224 0
767 -925 815 682 484 611 -1055 1290 1328 456 749 -871 0
951 -1369 0
347 1418 -933 -282 -484 1328 872 767 -1141 -189 0
-1302 -480 578 -831 -935 450 -1172 -720 0
-1025 1357 -847 -1408 -207 0
-649 801 1260 480 -1284 0
-713 -750 245 0
141 484 220 1161 -1272 767 -438 -1258 -871 1328 0
-871 646 767 -997 1328 -826 -1374 -1061 484 96 1402 181 -930 528 0
739 1328 -405 -808 -1084 -894 767 -1360 -840 871 484 1427 450 -372 -165 -1200 0
484 610 -871 220 141 767 -438 1272 700 -1258 -225 1385 1328 0
-1231 -871 484 767 277 -998 1328 544 0
-1282 -1031 871 960 1328 484 -405 106 1309 767 -27 0
769 129 122 -1428 1032 247 -1193 -571 578 1302 809 0
-131 563 -10 0
1305 1042 -272 -987 -890 325 0
-834 1097 687 -100 -484 767 -28 724 -660 -46 188 1328 -1018 376 0
-942 -1328 -1304 1218 -271 733 -115 0
-232 916 875 1328 1088 -405 -1193 -1239 -1309 725 247 484 -969 871 767 0
-78 -892 -1396 0
1402 514 -871 -1374 484 -105 1328 -528 767 0
1228 -1153 0
-1068 460 352 767 871 495 484 1156 1299 -1266 1328 72 405 0
-126 871 405 1328 60 523 484 8 228 767 -145 0
1349 328 157 914 -545 689 144 -1400 -1328 1391 0
614 1433 1011 348 -1255 789 0
101 410 -776 643 658 -534 -151 0
-1072 393 670 0
996 767 398 -1376 -405 26 1328 484 871 1415 778 139 0
1112 268 -847 0
-67 455 -194 1308 -1196 -465 -767 207 1328 249 -50 110 0
-1302 578 935 -314 0
2 -1153 0
1099 170 -29 192 -534 -261 643 776 0
-484 252 -567 -347 767 1328 0
578 720 -770 -1302 -935 0
-298 -30 1328 484 -1315 485 871 405 767 729 0
142 -1024 860 -181 920 0
807 -1328 172 1180 -1189 -164 1333 -1416 -1386 247 1019 802 0
941 -1238 -408 -1216 1277 1328 -767 -1040 1167 -227 -784 0
-2 807 638 -909 -1328 305 164 -1048 0
-1354 1274 112 -1373 484 -740 767 -516 -405 700 871 -555 -411 1328 0
-259 417 -612 -1058 607 0
1193 -10 -991 0
-1382 484 -405 767 481 -65 1110 -1417 629 1328 -631 -382 871 0
131 1032 122 769 578 1302 809 -571 -1428 129 -1282 0
-1179 -1178 -403 0
1175 -291 449 1328 681 758 617 -767 -1294 394 -671 -1074 0
-189 -484 -1168 -142 -471 282 767 1328 803 347 1197 0
96 -497 -148 687 -136 -735 -1400 -743 1267 -374 1044 0
-1060 -546 -5 0
798 953 1303 0
-991 1203 -564 0
736 2 -934 -368 722 0
-709 -479 -637 0
-1068 -1121 495 -273 -246 -1266 -1416 426 -352 871 484 460 767 1140 1328 405 0
1282 975 1112 0
-363 1265 1185 0
560 -792 666 -484 366 1328 15 590 767 -1249 -237 0
-1261 -1237 424 540 556 -1328 730 1244 0
216 767 361 1328 649 517 -1432 -745 -484 672 0
-713 -1181 425 -948 1400 0
349 1040 30 0
177 -415 338 1181 -1233 0
775 767 1328 1319 1402 -871 -1355 -1374 484 528 1061 0
807 392 -1328 -1022 -164 1338 -664 1189 1069 0
314 -5 -612 0
1438 -1024 920 243 1357 0
1255 425 975 670 -1065 0
-68 746 1328 668 194 -425 -767 0
1328 -990 -1075 -767 -160 451 -370 867 -1152 0
1188 -796 271 -695 -1330 57 -774 -1017 982 -1328 1218 -1326 0
796 -500 -168 -902 -1179 0
-723 -886 1328 90 879 1057 -767 0
1042 -325 343 993 1137 -524 1305 0
-843 -465 -767 1289 -194 1328 1196 0
-405 1292 740 -1373 1328 767 871 -243 484 0
-1369 -1058 259 -1262 -487 417 400 0
1007 -361 -385 -1314 -51 442 767 1328 -107 1116 642 -1364 614 -484 0
-1329 23 0
-906 1379 1328 -322 96 597 -175 -399 518 767 -484 765 0
220 484 1036 1328 1258 1115 1148 -921 -871 767 0
6 -865 -983 35 90 -135 -1269 -1146 -1245 0
633 58 0
-613 -740 -405 484 -1021 991 874 -112 871 -1373 839 767 1274 1328 -140 0
-1428 769 578 122 1302 -571 -1032 -1172 0
-1416 -352 871 460 -246 426 -1266 1121 -1068 1328 495 484 767 1140 405 0
753 405 -563 125 356 -504 484 431 871 767 397 1328 -300 0
37 1402 -1319 -1355 -871 767 1061 528 1328 -1374 -1438 484 0
1226 667 -865 -59 1146 6 973 0
1416 -581 -564 0
1297 767 -921 -34 123 1002 -1108 -203 -260 1134 1328 551 -871 484 0
-420 944 1040 -168 -1390 0
501 1257 333 1328 1109 952 127 -835 -716 659 1296 767 1093 -871 484 0
-1429 -405 1359 215 778 60 295 871 -923 767 1376 484 1328 841 0
852 -1282 1302 -955 -122 -20 -362 510 578 -1428 0
-776 459 101 -29 -534 -658 43 -475 0
-373 267 135 1170 -1253 0
-296 500 -773 1132 -589 513 -1328 -1075 -1236 0
164 305 -1328 -638 -1048 807 581 0
934 776 -1099 -261 192 -534 0
-1351 391 1328 -443 -736 723 -446 -767 0
871 405 -860 893 -273 887 -327 -897 1328 -1266 484 -495 767 0
1112 -907 -780 0
772 -307 1296 1279 -530 1328 484 952 -871 -231 -1257 767 -269 0
518 -1379 597 509 -322 767 1328 181 -1419 -484 -175 0
739 767 -1084 1427 1360 450 -372 484 1328 871 -894 -405 -840 0
-219 1172 -809 0
1012 1274 -532 220 -871 -615 -917 -1258 -1301 -141 1328 901 -439 484 767 0
806 789 -1076 -958 1336 -767 1287 1345 1362 -674 1328 -419 0
-237 -792 -573 -1247 -1392 767 -1249 541 1328 -484 761 366 -590 0
736 -479 440 0
-1424 -737 -1161 0
-1430 767 1025 1328 1323 454 476 -484 201 0
-1396 951 0
405 484 511 719 -381 1066 -676 1077 678 1285 -36 1328 -329 510 871 767 0
-15 670 1075 -1011 -709 0
1212 -337 487 -299 -1328 -1218 -722 -1087 0
-534 658 202 -776 101 1324 410 -225 151 -301 0
1328 -739 767 -894 946 -405 -289 871 1427 -840 484 1095 0
-719 -763 -800 0
-1433 951 0
1107 1346 -767 1328 -1426 247 316 -29 1054 -190 -370 -605 1152 0
-854 -1309 484 601 969 1347 1059 1328 916 247 871 779 -405 767 875 0
-1340 -770 1198 -551 767 -266 484 -583 1002 -829 1328 -871 0
871 1328 -1239 -232 -969 -1088 767 -1282 725 484 -1309 875 -405 916 0
545 -167 582 775 -1328 1349 1195 328 0
1161 1328 758 -671 -1175 1144 -767 586 436 394 0
-17 1328 1287 62 -767 1076 -1231 -1389 -254 -1261 0
664 1235 -568 440 142 0
417 -1262 400 259 268 -1058 1265 0
-871 1328 -925 767 682 -245 456 -611 749 484 0
1409 -1279 121 656 -1253 0
363 871 -311 1328 484 405 767 -1241 488 1366 149 -1147 278 -965 -1306 0
-767 -103 -886 -1350 1328 -879 -1255 -723 -1440 0
456 -682 767 368 -925 350 -1001 484 -163 -88 1328 788 -871 0
533 590 15 -484 666 767 -560 -237 366 -792 1166 1398 1328 -1249 0
-388 -865 59 -284 -661 639 1146 707 -691 -602 6 0
206 1075 -1058 -417 0
-871 767 -801 277 484 -290 1220 1103 1328 -544 0
-1058 -417 1265 -500 0
-65 484 767 -288 871 1328 -405 -629 -1435 -382 981 -631 -301 852 1125 0
-1305 -1405 1289 221 0
953 -1024 -1105 0
-134 -723 995 356 -630 466 886 1328 -665 -767 0
1090 767 484 -871 -952 1296 1328 -1160 -1015 0
-612 -751 -1179 0
-1004 280 1402 -1273 484 1328 242 1374 -871 83 767 0
-1152 -990 -926 1328 -767 -451 -370 0
-800 567 1235 0
1427 -405 484 -858 -963 837 1328 -894 840 871 767 0
-331 366 959 1328 792 -369 -688 767 -484 0
1328 767 1388 925 456 484 733 519 -871 -1120 0
-613 -1021 -740 -1373 -1303 874 1328 767 -112 140 -405 839 484 871 0
484 -602 1328 767 -871 1008 -1002 -1243 -825 1289 -1327 0
1236 513 368 -845 240 482 -386 -1328 0
1412 1328 -918 -227 1277 -1206 408 -767 941 -32 -784 1157 0
393 -892 -1396 0
865 14 747 124 705 0
-763 -207 2 1409 664 0
107 -51 767 229 -361 1328 -1364 645 373 -484 208 0
-1360 -921 767 -405 484 871 1427 -808 -1084 739 -894 165 -372 1328 -840 0
-871 767 1328 -1297 398 551 484 1002 -790 0
-711 239 1028 709 1328 -859 1096 1334 767 335 1430 -1400 -832 -484 0
-1345 1159 435 135 1294 0
440 1185 987 0
1032 -129 -571 578 -1428 1302 -46 769 122 0
1185 520 -970 0
-284 -661 -865 -1417 639 -388 1065 59 1146 707 6 0
-607 -1364 1394 -645 649 -484 229 208 767 1328 -51 -361 107 0
-15 -479 573 0
-484 1143 60 637 1328 767 -832 -1003 -842 -1028 1430 -379 0
767 145 905 1443 523 484 1328 -1310 -811 -818 405 709 553 -1208 871 0
694 -413 1303 0
-502 953 1228 0
767 -1018 376 1328 834 1011 1064 -100 -484 0
-1090 268 -800 0
-566 768 1328 -1040 -1133 -767 -760 1277 -227 -941 0
1114 651 -507 473 -1237 424 309 -267 -1328 -243 -1244 730 0
-58 -534 -776 101 658 -202 410 151 0
-751 858 -356 0
-1406 267 -558 0
-322 1101 -597 -367 -258 -175 324 -484 -595 767 1279 1328 0
-400 417 -1058 259 -713 1416 0
-1264 -865 -59 6 973 667 1146 0
-69 -1062 405 484 -691 729 -755 871 1328 -73 1434 -1005 332 639 767 298 0
871 1328 -1376 -405 778 484 139 -331 767 -996 1415 0
1000 1328 -521 -767 543 103 -886 -879 226 -723 882 0
577 1090 -484 -189 -162 -872 347 767 -1240 -282 1328 1300 0
-918 -941 768 -760 -566 1277 -767 934 1328 -1133 -227 0
-1018 -484 767 -100 907 -1437 -1064 1328 834 376 0
-871 1402 -1355 767 1328 -37 -1438 528 181 -888 -1374 -1319 484 -924 1061 0
1377 -870 -576 600 -1328 -799 -424 -267 0
933 -937 872 -1294 347 -282 1328 -1194 767 -189 -484 0
767 1328 871 409 484 -702 -405 546 382 -65 0
-767 -864 1328 910 -1277 -227 12 -30 915 0
178 61 0
1075 722 -1179 -568 -156 0
767 669 -422 484 -1169 871 187 1266 -584 -860 405 1328 0
670 520 -450 -72 975 0
-934 -1166 -1122 -1025 -500 0
672 767 361 1328 -484 -607 517 -1432 -745 216 0
-1265 333 890 1305 52 325 1042 -272 -1047 -268 0
484 871 640 405 1328 -1443 970 145 1127 -293 1139 523 113 767 0
272 546 -783 -622 325 1042 1305 -950 0
-1166 1200 -1049 0
1328 -465 -767 -135 843 -194 1013 1196 0
1236 461 -1228 885 -1328 845 -1190 513 0
-730 974 -1237 -1328 1420 95 424 1393 -186 0
-405 1328 484 853 146 871 -1202 767 218 11 1433 0
-5 121 -1424 0
1328 -58 -91 -792 -38 366 1249 -820 -484 767 -237 -573 1332 0
999 670 0
-649 -510 -1179 1444 796 0
1277 -767 902 760 -227 -941 1328 0
-519 484 -1120 925 -287 456 -871 1388 948 1328 767 0
177 -338 766 1014 -415 1411 496 -243 0
871 484 755 1434 -1062 767 405 332 729 298 1328 -29 0
-1231 -1237 93 -309 730 -1328 -430 424 297 -257 -1244 0
-1309 767 -694 809 916 -405 875 1328 389 871 -33 969 484 -304 -779 -1250 0
767 281 484 -1374 -528 1402 85 105 -434 1328 181 -871 96 0
180 -798 1322 767 405 1328 275 -539 -753 871 484 0
581 568 -79 -1416 -2 187 0
1297 484 -1155 -123 490 -871 767 1002 551 1328 0
649 484 -871 220 767 141 1328 438 -1258 0
975 -614 -178 0
-780 1262 -1166 400 -1058 417 259 0
-1166 691 798 1318 -763 0
1328 767 -252 733 -347 -484 -547 697 0
19 -871 1328 767 1284 682 484 611 -1055 749 456 -1290 -925 0
-178 -1072 -780 0
-72 630 858 2 1159 0
-1072 951 0
-514 633 0
1178 -56 -489 333 570 1328 767 862 484 -1296 -871 0
-1277 -30 -915 -767 1328 -227 910 0
809 -767 1321 450 1328 -1214 -103 -1440 -886 1350 -879 -542 -723 0
395 1328 -925 -682 1020 -987 767 -871 -788 1331 -626 484 456 0
-272 325 890 1305 -52 490 1042 0
-1357 -1294 -1044 1425 1378 -136 -344 449 0
286 1028 -484 1328 -832 1053 1430 767 859 1384 256 970 335 0
551 -1155 -871 1390 1328 1297 484 1002 -123 767 0
630 -5 1340 0
1148 1328 -921 -384 220 767 1324 1036 -871 1258 484 -1115 0
1328 -282 -937 1194 872 -1294 767 933 347 -1217 -484 -189 0
1157 1277 408 941 -32 -227 -1412 -784 -767 1328 -1040 0
-333 -932 -709 245 -1345 0
767 569 753 274 -563 405 -653 1328 685 494 484 1252 -397 871 0
953 987 -353 0
22 1368 -815 0
951 1260 0
-546 1400 1170 -19 -1113 0
1328 -405 484 871 1292 -1200 767 740 -1373 0
-649 -558 691 567 425 0
682 1328 -925 767 -1055 713 611 484 749 1011 -1290 456 -871 0
-659 1257 767 501 1328 -716 1296 226 484 -871 952 1109 0
1328 767 -366 1381 1176 15 -484 -920 -147 448 0
47 1413 -361 1328 51 -1364 767 899 514 -484 0
-865 1436 -6 -30 1016 0
-1109 -1102 484 503 -1276 333 1257 1328 1296 767 -871 855 501 952 0
-1205 927 -81 627 -404 -339 -55 -1164 -1328 1361 0
-1181 243 1444 1400 1318 0
-767 1328 -1409 958 -674 1287 1128 -1076 -195 -1092 0
484 -923 1376 -405 -1429 871 841 295 215 1328 1359 767 780 778 0
-1207 852 -322 -518 280 911 -175 -317 -484 1328 767 -1201 597 0
-794 1065 1328 -1427 -894 1317 871 -621 -405 484 173 767 -604 0
29 -763 0
1025 767 405 -523 230 484 1328 871 0
15 -484 767 366 -1249 -666 1328 -237 590 -792 0
-624 1408 1316 -767 -1308 510 -194 -465 -1196 1328 -310 -67 82 0
-871 717 -952 1328 1015 767 1296 484 0
545 1349 328 -1195 -1328 -314 -167 0
-405 -1043 916 1328 484 -966 -875 -1232 -1309 871 -975 809 -693 767 0
-602 -973 226 667 6 1146 -59 -865 529 -866 0
352 484 1299 495 767 460 -1068 1156 405 568 871 -1266 1328 0
-682 -871 767 368 1328 626 456 -788 1020 484 1331 -925 0
206 921 97 0
-46 1428 24 1380 1302 236 700 578 -1203 0
417 -1058 400 292 1262 259 -60 0
1122 689 -157 914 -967 1349 1391 144 612 328 -545 -1328 0
225 -10 -1324 0
-78 -1345 -643 0
753 -433 871 1328 -397 405 -786 -494 767 537 484 -860 0
231 -1153 0
902 -361 767 1328 -899 -1364 51 -484 47 0
-1072 121 -1253 -700 1318 0
205 -1444 1328 976 -484 -361 767 1056 -989 -607 1364 0
-213 -1328 271 774 1387 319 1218 -1235 -1326 -423 0
1328 902 361 767 216 -484 -517 0
-160 -1152 1328 -767 -370 451 -926 -867 -990 0
999 -1253 0
998 277 -154 -630 356 940 1328 544 484 767 -954 -871 0
1270 66 -1328 99 328 -545 1349 612 -144 -416 31 0
256 286 -231 1028 1053 -484 335 767 -832 1430 1328 859 -1384 0
-348 -581 -1279 -1418 -1122 0
484 -1220 -544 -607 277 767 1103 -871 1328 0
1441 -871 1328 203 551 420 -1183 123 1335 1297 767 484 1002 0
998 852 -871 1328 544 154 940 767 277 484 -954 0
405 871 247 -1147 278 488 149 -311 1241 1328 -965 767 1274 484 -1306 1366 0
-100 -607 1328 957 1018 767 -484 376 0
1328 -38 366 15 1113 -237 -484 1332 -792 1249 -820 767 -91 0
-1076 1362 -958 -1336 1287 1328 -674 -1318 806 -767 -419 0
-796 1311 -684 502 415 1431 -1235 0
1285 511 -36 1328 -329 -381 678 405 1077 871 510 1066 -676 767 -225 484 0
916 -405 -779 875 1328 484 969 -1309 -33 767 -1250 809 389 -304 871 0
-1121 -860 426 871 460 1328 -1068 1140 -246 57 405 767 484 495 -1266 -352 0
871 -504 131 125 484 767 -630 431 753 1328 397 405 -300 0
-780 -1049 670 0
1262 400 -637 -970 259 -1058 417 0
1305 890 -272 -52 325 1042 1090 0
199 -484 -361 514 -1116 -1364 -51 549 -107 -166 1328 767 0
448 1176 -366 15 -484 -147 -573 1381 1328 767 0
314 393 -1433 0
128 1328 767 -871 -469 -1402 -265 484 158 861 0
-465 1308 1289 1328 -110 -767 -1196 -194 -67 0
767 -602 484 816 1002 -871 790 -531 -1297 118 1328 551 -241 0
-815 97 245 0
-871 1155 -123 1297 1002 484 -486 767 -464 1328 380 551 0
-745 871 -11 146 484 1328 767 -405 -1202 853 0
-923 295 1328 922 1376 778 -405 687 767 -215 -1429 1359 484 841 871 700 0
-850 58 -127 -991 314 0
894 767 1328 484 72 871 -447 -405 0
-1345 -1284 -932 -333 -934 0
-15 920 1329 0
1090 -921 546 948 -142 414 0
-327 -860 -897 1328 767 887 871 -495 484 405 -1266 893 -79 0
767 -595 -484 1101 -175 -258 1328 -367 -597 -322 324 0
-420 -1150 -717 -649 464 0
767 -840 1065 1328 -894 1421 1427 390 739 372 -405 484 587 -1172 871 4 0
-1058 -417 186 339 0
-29 -755 1434 767 729 871 -1062 -1005 -69 298 -73 405 1328 332 484 0
691 -5 926 0
-563 -753 484 1322 767 1328 -798 871 -539 180 275 405 0
-1341 -568 0
-871 -1374 -37 1328 528 -1355 -924 484 -888 1402 1061 767 -975 181 -1319 0
97 1228 -1418 0
161 -732 767 871 1328 484 -1184 -1147 -311 -292 -1306 965 405 1366 0
-221 -1305 353 0
-865 -121 -464 35 -983 6 -1146 1161 -1245 0
-1396 -417 -1058 -487 0
767 -871 1115 1148 1036 -58 220 1258 1328 484 0
-1406 -514 607 0
581 437 752 1179 1363 -698 55 -1328 0
-326 780 148 -136 60 -1063 1113 -1358 1044 0
723 443 -767 -1351 72 1328 0
-415 177 717 -338 -1014 -1026 536 0
-722 -807 -731 -1328 0
-622 950 -771 1305 -783 325 272 1042 -1438 0
767 -237 -792 533 366 666 1166 -292 -1249 -484 590 -560 1328 1398 0
-36 -381 -1066 405 767 -1228 1328 1077 678 -329 871 484 0
-701 534 187 0
-682 788 -871 -444 1328 484 1080 -925 767 88 456 -440 133 253 0
-886 1328 -723 226 -767 103 -879 -1000 0
926 417 -259 -934 -1058 0
79 2 -800 0
866 -1211 602 0
568 515 1328 -277 -812 484 767 453 -606 -781 -871 0
729 871 767 1328 484 405 73 -1062 -755 -926 332 1434 298 0
1061 1402 -1106 176 -1374 484 767 429 1166 1355 1328 528 -1170 -871 734 0
633 0
277 290 1220 -652 484 -801 1328 -871 1103 -544 548 767 -46 0
-735 -743 -656 -148 96 687 -374 1267 -136 -497 1044 0
-1328 -730 424 1253 95 974 -1393 -1237 0
-414 349 -398 0
860 -57 -274 -1024 1200 0
1252 767 405 871 494 484 1328 753 569 274 653 -397 685 0
-514 61 -1105 0
606 -363 1329 0
1328 767 1041 -1149 -1130 -405 871 -1365 1399 -146 994 -1372 -1089 877 484 550 0
-1018 687 1328 -660 724 376 1097 767 -484 -28 -834 188 -100 0
-1326 -774 -1330 -695 1188 982 1218 -1017 348 271 57 -1328 0
-440 513 1073 111 -1282 1236 -1124 461 -885 -217 845 -1328 0
-1062 1005 298 767 -1269 729 405 484 871 332 -73 1434 -755 1328 0
-1113 921 -168 469 607 0
1232 871 -573 1328 916 -405 -966 484 -1043 -875 -1309 767 0
-332 1328 767 405 298 871 913 484 729 1367 -926 0
484 382 767 500 1328 -702 -405 871 822 -279 -409 -65 363 0
-1179 -877 785 0
1235 736 142 -877 -775 0
1195 -167 328 545 -582 1349 -302 709 612 -1328 0
194 68 1390 -2 -767 1328 668 746 200 0
-1349 328 156 625 -630 -1375 -512 -1288 -1328 0
-331 -767 283 -758 49 1328 1221 0
1274 1346 1054 1152 316 1328 1107 -605 -767 247 -190 -1426 -370 0
-15 573 -10 0
767 405 293 1127 871 145 484 1328 -655 523 -1443 0
1296 1090 767 1015 -871 -952 1328 484 0
-1078 1014 -1111 -634 -496 177 -338 87 1270 550 -415 0
-436 -671 394 1144 -767 675 1328 -1175 586 -1246 758 445 0
729 871 767 1328 332 405 298 484 -650 346 1062 1434 -506 -1269 0
-405 767 484 916 875 -1309 854 1328 779 871 614 969 0
-767 1328 227 -9 1150 -1129 0
-1209 -1128 1328 692 -767 -1076 958 -267 1287 183 -674 0
510 1066 -1033 678 -329 -676 -381 767 1077 871 484 405 1328 -36 1285 511 0
-1258 -871 615 1328 -141 220 639 484 767 -917 -1342 873 0
-247 -809 -10 0
-871 1328 -1340 -266 767 -829 -583 -551 207 1198 484 1002 0
1328 -740 484 613 -1021 839 874 510 -405 767 871 -112 -1373 0
1198 -464 1002 583 -551 1328 484 -871 767 -266 0
-605 1152 -691 316 1328 -767 -1426 -1346 -370 0
-1266 405 -495 1328 484 -893 871 502 767 0
1164 686 -331 -1328 -55 -1291 594 0
-723 1046 -857 -103 -886 -704 1065 -879 1328 585 -767 1440 0
-563 1302 972 578 -1428 122 571 -928 1104 247 510 0
951 977 0
1328 844 -412 777 767 -322 175 -1438 1248 -1170 -484 0
-484 -1219 959 792 366 767 -573 1328 369 15 -688 0
-491 -394 343 -421 758 -671 1230 1328 3 -767 0
871 -1373 -405 1021 839 767 -740 484 1328 170 -112 874 0
-1265 767 871 -405 321 1098 481 484 -631 -382 1328 -65 629 -1382 -1110 0
550 687 809 173 1060 -694 0
-825 -871 1008 -1002 -1243 -1327 1328 767 -79 484 -314 0
22 520 -1025 0
1389 -1261 -767 1287 1076 1328 0
750 0
-403 -60 520 0
1443 -1310 905 -520 145 -818 523 -1208 767 1328 405 484 553 -811 871 0
-850 61 -675 0
-405 778 484 -139 1328 1072 871 767 -1376 0
1297 -486 1328 551 -871 -123 1155 767 490 484 380 1002 0
-1172 297 -1237 -309 93 -1244 1377 -257 730 424 430 -1328 0
-175 1328 181 597 1419 509 -484 518 -322 -1379 767 -1079 719 -1030 0
484 -930 -1374 1402 -1061 181 -997 528 646 767 -826 -1131 1328 -871 0
-568 -849 -187 0
280 852 -866 -301 815 -268 0
-751 -514 607 0
715 -674 -1076 1287 -767 195 -1092 1377 958 1128 712 1328 0
-175 1328 -322 -518 815 767 597 1207 -484 0
-405 1427 -894 484 1095 767 1328 -840 1226 946 871 -739 0
-484 239 767 1334 637 -832 335 1430 1328 1096 -1400 -859 1028 -711 0
1328 -1250 -1309 484 809 916 -33 969 -779 871 -304 767 875 -389 -405 0
484 -191 871 1274 -1373 1145 -740 247 -405 -1162 -112 -40 1328 -839 1215 767 0
-259 417 -700 -1058 -1274 0
-1270 801 480 243 -614 0
-607 57 -1116 1328 -1283 -361 767 -107 -1364 -51 -484 199 -166 -549 0
1328 -1320 484 -206 381 767 182 -1356 871 -1223 405 0
852 -1193 -20 578 -122 -362 -955 1302 -1428 991 0
-400 -1058 259 1260 417 1368 0
1200 860 1303 -57 -368 0
1040 633 0
-1113 -619 1112 0
-424 -1261 600 -1328 870 0
-1269 -121 -865 -1146 -464 6 35 -1245 -983 0
-147 1328 581 -484 767 1381 1176 -366 -573 448 0
871 1328 -405 -1043 -975 -46 -693 -966 -1232 -1309 -875 484 767 916 0
-625 -1375 -1349 156 328 -1328 0
484 1328 916 969 -405 -1172 875 871 -854 -1347 -1309 779 767 0
1345 1328 871 405 381 767 -1356 -1320 -1223 484 182 0
1429 -405 778 1376 1328 -878 514 767 484 871 0
-607 -415 -851 1233 338 1024 649 810 177 0
-1289 -643 -581 -333 -207 0
1416 -417 243 -1058 0
907 -497 -136 -374 687 -735 -656 -743 1044 1267 -148 0
1260 607 245 -398 602 0
1344 1328 456 -88 788 713 484 -163 -682 350 -871 -925 1001 614 767 0
-871 350 -798 -682 -88 -163 484 1344 1284 767 1328 -925 456 788 1001 0
-888 528 484 96 -924 -1374 1328 -37 1402 181 -871 -1355 767 1061 -1319 0
736 425 -1181 -713 655 0
1042 -206 1305 -272 890 52 325 -268 -1047 127 0
414 420 490 1408 398 1289 0
1405 -262 -987 -1305 -440 221 -606 0
-1289 -118 656 801 1282 0
23 29 1439 0
659 767 -835 127 -1093 501 1328 484 1109 -871 -716 952 1296 1257 0
-719 1269 736 1439 921 0
1296 -952 127 -830 333 484 1328 -871 767 -1423 -1015 1160 0
1128 715 -767 -674 1287 195 958 -243 712 1328 -1076 348 -1092 0
-1364 649 -1314 642 -107 442 1116 -607 -361 767 -484 -51 1328 -385 0
1416 1058 722 0
925 484 -1255 1388 1328 -1120 456 -519 713 287 -871 767 0
328 167 1433 545 -1328 1349 0
-1179 142 1282 -87 606 0
-1369 -156 393 0
-110 1328 -1196 207 -67 1308 -767 -194 -465 0
-1237 730 424 717 1244 -556 -1328 0
767 1309 871 1328 106 960 -1031 614 484 -405 -27 0
567 -750 722 0
510 -753 539 275 405 767 484 180 1328 871 1322 0
1357 -368 -87 1438 1260 0
713 353 1071 690 -1177 1328 525 -871 767 -456 484 0
117 -282 884 -484 159 872 1328 -135 -933 -189 347 767 1141 0
1378 -344 -944 -1044 -1294 1425 -136 449 0
349 292 -763 0
-886 -767 879 -723 1328 1057 -607 0
-1303 -1282 226 -1265 1270 907 0
-1390 1040 -1408 944 -1007 0
-1012 58 1417 -763 -747 0
1328 -871 -917 -273 615 220 -141 484 -1258 767 1342 0
