p cnf 1280 8636
293 294 561 562 -727 0
293 294 561 562 -728 0
293 294 -561 727 728 0
293 294 -562 727 728 0
-293 561 562 727 728 0
-294 561 562 727 728 0
-293 -561 -727 0
-293 -561 -728 0
-293 -562 -727 0
-293 -562 -728 0
-294 -561 -727 0
-294 -561 -728 0
-294 -562 -727 0
-294 -562 -728 0
241 242 971 972 -1237 0
241 242 971 972 -1238 0
241 242 -971 1237 1238 0
241 242 -972 1237 1238 0
-241 971 972 1237 1238 0
-242 971 972 1237 1238 0
-241 -971 -1237 0
-241 -971 -1238 0
-241 -972 -1237 0
-241 -972 -1238 0
-242 -971 -1237 0
-242 -971 -1238 0
-242 -972 -1237 0
-242 -972 -1238 0
939 940 1023 1024 -1149 0
939 940 1023 1024 -1150 0
939 940 -1023 1149 1150 0
939 940 -1024 1149 1150 0
-939 1023 1024 1149 1150 0
-940 1023 1024 1149 1150 0
-939 -1023 -1149 0
-939 -1023 -1150 0
-939 -1024 -1149 0
-939 -1024 -1150 0
-940 -1023 -1149 0
-940 -1023 -1150 0
-940 -1024 -1149 0
-940 -1024 -1150 0
29 30 249 250 1003 1004 0
29 30 -249 -1003 0
29 30 -249 -1004 0
29 30 -250 -1003 0
29 30 -250 -1004 0
-29 249 250 -1003 0
-29 249 250 -1004 0
-30 249 250 -1003 0
-30 249 250 -1004 0
-29 -249 1003 1004 0
-29 -250 1003 1004 0
-30 -249 1003 1004 0
-30 -250 1003 1004 0
293 294 641 642 1081 1082 0
293 294 -641 -1081 0
293 294 -641 -1082 0
293 294 -642 -1081 0
293 294 -642 -1082 0
-293 641 642 -1081 0
-293 641 642 -1082 0
-294 641 642 -1081 0
-294 641 642 -1082 0
-293 -641 1081 1082 0
-293 -642 1081 1082 0
-294 -641 1081 1082 0
-294 -642 1081 1082 0
833 834 1207 1208 -1259 0
833 834 1207 1208 -1260 0
833 834 -1207 1259 1260 0
833 834 -1208 1259 1260 0
-833 1207 1208 1259 1260 0
-834 1207 1208 1259 1260 0
-833 -1207 -1259 0
-833 -1207 -1260 0
-833 -1208 -1259 0
-833 -1208 -1260 0
-834 -1207 -1259 0
-834 -1207 -1260 0
-834 -1208 -1259 0
-834 -1208 -1260 0
1 2 595 596 -619 0
1 2 595 596 -620 0
1 2 -595 619 620 0
1 2 -596 619 620 0
-1 595 596 619 620 0
-2 595 596 619 620 0
-1 -595 -619 0
-1 -595 -620 0
-1 -596 -619 0
-1 -596 -620 0
-2 -595 -619 0
-2 -595 -620 0
-2 -596 -619 0
-2 -596 -620 0
139 140 365 366 -1169 0
139 140 365 366 -1170 0
139 140 -365 1169 1170 0
139 140 -366 1169 1170 0
-139 365 366 1169 1170 0
-140 365 366 1169 1170 0
-139 -365 -1169 0
-139 -365 -1170 0
-139 -366 -1169 0
-139 -366 -1170 0
-140 -365 -1169 0
-140 -365 -1170 0
-140 -366 -1169 0
-140 -366 -1170 0
309 310 661 662 -1177 0
309 310 661 662 -1178 0
309 310 -661 1177 1178 0
309 310 -662 1177 1178 0
-309 661 662 1177 1178 0
-310 661 662 1177 1178 0
-309 -661 -1177 0
-309 -661 -1178 0
-309 -662 -1177 0
-309 -662 -1178 0
-310 -661 -1177 0
-310 -661 -1178 0
-310 -662 -1177 0
-310 -662 -1178 0
77 78 101 102 -903 0
77 78 101 102 -904 0
77 78 -101 903 904 0
77 78 -102 903 904 0
-77 101 102 903 904 0
-78 101 102 903 904 0
-77 -101 -903 0
-77 -101 -904 0
-77 -102 -903 0
-77 -102 -904 0
-78 -101 -903 0
-78 -101 -904 0
-78 -102 -903 0
-78 -102 -904 0
119 120 161 162 -477 0
119 120 161 162 -478 0
119 120 -161 477 478 0
119 120 -162 477 478 0
-119 161 162 477 478 0
-120 161 162 477 478 0
-119 -161 -477 0
-119 -161 -478 0
-119 -162 -477 0
-119 -162 -478 0
-120 -161 -477 0
-120 -161 -478 0
-120 -162 -477 0
-120 -162 -478 0
173 174 215 216 295 296 0
173 174 -215 -295 0
173 174 -215 -296 0
173 174 -216 -295 0
173 174 -216 -296 0
-173 215 216 -295 0
-173 215 216 -296 0
-174 215 216 -295 0
-174 215 216 -296 0
-173 -215 295 296 0
-173 -216 295 296 0
-174 -215 295 296 0
-174 -216 295 296 0
329 330 1031 1032 -1089 0
329 330 1031 1032 -1090 0
329 330 -1031 1089 1090 0
329 330 -1032 1089 1090 0
-329 1031 1032 1089 1090 0
-330 1031 1032 1089 1090 0
-329 -1031 -1089 0
-329 -1031 -1090 0
-329 -1032 -1089 0
-329 -1032 -1090 0
-330 -1031 -1089 0
-330 -1031 -1090 0
-330 -1032 -1089 0
-330 -1032 -1090 0
573 574 843 844 1101 1102 0
573 574 -843 -1101 0
573 574 -843 -1102 0
573 574 -844 -1101 0
573 574 -844 -1102 0
-573 843 844 -1101 0
-573 843 844 -1102 0
-574 843 844 -1101 0
-574 843 844 -1102 0
-573 -843 1101 1102 0
-573 -844 1101 1102 0
-574 -843 1101 1102 0
-574 -844 1101 1102 0
127 128 135 136 673 674 0
127 128 -135 -673 0
127 128 -135 -674 0
127 128 -136 -673 0
127 128 -136 -674 0
-127 135 136 -673 0
-127 135 136 -674 0
-128 135 136 -673 0
-128 135 136 -674 0
-127 -135 673 674 0
-127 -136 673 674 0
-128 -135 673 674 0
-128 -136 673 674 0
361 362 735 736 -763 0
361 362 735 736 -764 0
361 362 -735 763 764 0
361 362 -736 763 764 0
-361 735 736 763 764 0
-362 735 736 763 764 0
-361 -735 -763 0
-361 -735 -764 0
-361 -736 -763 0
-361 -736 -764 0
-362 -735 -763 0
-362 -735 -764 0
-362 -736 -763 0
-362 -736 -764 0
107 108 159 160 -579 0
107 108 159 160 -580 0
107 108 -159 579 580 0
107 108 -160 579 580 0
-107 159 160 579 580 0
-108 159 160 579 580 0
-107 -159 -579 0
-107 -159 -580 0
-107 -160 -579 0
-107 -160 -580 0
-108 -159 -579 0
-108 -159 -580 0
-108 -160 -579 0
-108 -160 -580 0
99 100 631 632 1199 1200 0
99 100 -631 -1199 0
99 100 -631 -1200 0
99 100 -632 -1199 0
99 100 -632 -1200 0
-99 631 632 -1199 0
-99 631 632 -1200 0
-100 631 632 -1199 0
-100 631 632 -1200 0
-99 -631 1199 1200 0
-99 -632 1199 1200 0
-100 -631 1199 1200 0
-100 -632 1199 1200 0
465 466 549 550 867 868 0
465 466 -549 -867 0
465 466 -549 -868 0
465 466 -550 -867 0
465 466 -550 -868 0
-465 549 550 -867 0
-465 549 550 -868 0
-466 549 550 -867 0
-466 549 550 -868 0
-465 -549 867 868 0
-465 -550 867 868 0
-466 -549 867 868 0
-466 -550 867 868 0
19 20 859 860 -1169 0
19 20 859 860 -1170 0
19 20 -859 1169 1170 0
19 20 -860 1169 1170 0
-19 859 860 1169 1170 0
-20 859 860 1169 1170 0
-19 -859 -1169 0
-19 -859 -1170 0
-19 -860 -1169 0
-19 -860 -1170 0
-20 -859 -1169 0
-20 -859 -1170 0
-20 -860 -1169 0
-20 -860 -1170 0
357 358 505 506 945 946 0
357 358 -505 -945 0
357 358 -505 -946 0
357 358 -506 -945 0
357 358 -506 -946 0
-357 505 506 -945 0
-357 505 506 -946 0
-358 505 506 -945 0
-358 505 506 -946 0
-357 -505 945 946 0
-357 -506 945 946 0
-358 -505 945 946 0
-358 -506 945 946 0
67 68 967 968 -1031 0
67 68 967 968 -1032 0
67 68 -967 1031 1032 0
67 68 -968 1031 1032 0
-67 967 968 1031 1032 0
-68 967 968 1031 1032 0
-67 -967 -1031 0
-67 -967 -1032 0
-67 -968 -1031 0
-67 -968 -1032 0
-68 -967 -1031 0
-68 -967 -1032 0
-68 -968 -1031 0
-68 -968 -1032 0
903 904 939 940 -1069 0
903 904 939 940 -1070 0
903 904 -939 1069 1070 0
903 904 -940 1069 1070 0
-903 939 940 1069 1070 0
-904 939 940 1069 1070 0
-903 -939 -1069 0
-903 -939 -1070 0
-903 -940 -1069 0
-903 -940 -1070 0
-904 -939 -1069 0
-904 -939 -1070 0
-904 -940 -1069 0
-904 -940 -1070 0
783 784 1095 1096 -1097 0
783 784 1095 1096 -1098 0
783 784 -1095 1097 1098 0
783 784 -1096 1097 1098 0
-783 1095 1096 1097 1098 0
-784 1095 1096 1097 1098 0
-783 -1095 -1097 0
-783 -1095 -1098 0
-783 -1096 -1097 0
-783 -1096 -1098 0
-784 -1095 -1097 0
-784 -1095 -1098 0
-784 -1096 -1097 0
-784 -1096 -1098 0
457 458 891 892 1213 1214 0
457 458 -891 -1213 0
457 458 -891 -1214 0
457 458 -892 -1213 0
457 458 -892 -1214 0
-457 891 892 -1213 0
-457 891 892 -1214 0
-458 891 892 -1213 0
-458 891 892 -1214 0
-457 -891 1213 1214 0
-457 -892 1213 1214 0
-458 -891 1213 1214 0
-458 -892 1213 1214 0
111 112 353 354 883 884 0
111 112 -353 -883 0
111 112 -353 -884 0
111 112 -354 -883 0
111 112 -354 -884 0
-111 353 354 -883 0
-111 353 354 -884 0
-112 353 354 -883 0
-112 353 354 -884 0
-111 -353 883 884 0
-111 -354 883 884 0
-112 -353 883 884 0
-112 -354 883 884 0
29 30 651 652 667 668 0
29 30 -651 -667 0
29 30 -651 -668 0
29 30 -652 -667 0
29 30 -652 -668 0
-29 651 652 -667 0
-29 651 652 -668 0
-30 651 652 -667 0
-30 651 652 -668 0
-29 -651 667 668 0
-29 -652 667 668 0
-30 -651 667 668 0
-30 -652 667 668 0
381 382 597 598 -977 0
381 382 597 598 -978 0
381 382 -597 977 978 0
381 382 -598 977 978 0
-381 597 598 977 978 0
-382 597 598 977 978 0
-381 -597 -977 0
-381 -597 -978 0
-381 -598 -977 0
-381 -598 -978 0
-382 -597 -977 0
-382 -597 -978 0
-382 -598 -977 0
-382 -598 -978 0
69 70 373 374 -1205 0
69 70 373 374 -1206 0
69 70 -373 1205 1206 0
69 70 -374 1205 1206 0
-69 373 374 1205 1206 0
-70 373 374 1205 1206 0
-69 -373 -1205 0
-69 -373 -1206 0
-69 -374 -1205 0
-69 -374 -1206 0
-70 -373 -1205 0
-70 -373 -1206 0
-70 -374 -1205 0
-70 -374 -1206 0
451 452 589 590 1271 1272 0
451 452 -589 -1271 0
451 452 -589 -1272 0
451 452 -590 -1271 0
451 452 -590 -1272 0
-451 589 590 -1271 0
-451 589 590 -1272 0
-452 589 590 -1271 0
-452 589 590 -1272 0
-451 -589 1271 1272 0
-451 -590 1271 1272 0
-452 -589 1271 1272 0
-452 -590 1271 1272 0
23 24 449 450 477 478 0
23 24 -449 -477 0
23 24 -449 -478 0
23 24 -450 -477 0
23 24 -450 -478 0
-23 449 450 -477 0
-23 449 450 -478 0
-24 449 450 -477 0
-24 449 450 -478 0
-23 -449 477 478 0
-23 -450 477 478 0
-24 -449 477 478 0
-24 -450 477 478 0
91 92 211 212 -705 0
91 92 211 212 -706 0
91 92 -211 705 706 0
91 92 -212 705 706 0
-91 211 212 705 706 0
-92 211 212 705 706 0
-91 -211 -705 0
-91 -211 -706 0
-91 -212 -705 0
-91 -212 -706 0
-92 -211 -705 0
-92 -211 -706 0
-92 -212 -705 0
-92 -212 -706 0
153 154 361 362 -843 0
153 154 361 362 -844 0
153 154 -361 843 844 0
153 154 -362 843 844 0
-153 361 362 843 844 0
-154 361 362 843 844 0
-153 -361 -843 0
-153 -361 -844 0
-153 -362 -843 0
-153 -362 -844 0
-154 -361 -843 0
-154 -361 -844 0
-154 -362 -843 0
-154 -362 -844 0
67 68 83 84 -781 0
67 68 83 84 -782 0
67 68 -83 781 782 0
67 68 -84 781 782 0
-67 83 84 781 782 0
-68 83 84 781 782 0
-67 -83 -781 0
-67 -83 -782 0
-67 -84 -781 0
-67 -84 -782 0
-68 -83 -781 0
-68 -83 -782 0
-68 -84 -781 0
-68 -84 -782 0
393 394 773 774 1023 1024 0
393 394 -773 -1023 0
393 394 -773 -1024 0
393 394 -774 -1023 0
393 394 -774 -1024 0
-393 773 774 -1023 0
-393 773 774 -1024 0
-394 773 774 -1023 0
-394 773 774 -1024 0
-393 -773 1023 1024 0
-393 -774 1023 1024 0
-394 -773 1023 1024 0
-394 -774 1023 1024 0
451 452 629 630 733 734 0
451 452 -629 -733 0
451 452 -629 -734 0
451 452 -630 -733 0
451 452 -630 -734 0
-451 629 630 -733 0
-451 629 630 -734 0
-452 629 630 -733 0
-452 629 630 -734 0
-451 -629 733 734 0
-451 -630 733 734 0
-452 -629 733 734 0
-452 -630 733 734 0
129 130 761 762 -1181 0
129 130 761 762 -1182 0
129 130 -761 1181 1182 0
129 130 -762 1181 1182 0
-129 761 762 1181 1182 0
-130 761 762 1181 1182 0
-129 -761 -1181 0
-129 -761 -1182 0
-129 -762 -1181 0
-129 -762 -1182 0
-130 -761 -1181 0
-130 -761 -1182 0
-130 -762 -1181 0
-130 -762 -1182 0
35 36 383 384 -471 0
35 36 383 384 -472 0
35 36 -383 471 472 0
35 36 -384 471 472 0
-35 383 384 471 472 0
-36 383 384 471 472 0
-35 -383 -471 0
-35 -383 -472 0
-35 -384 -471 0
-35 -384 -472 0
-36 -383 -471 0
-36 -383 -472 0
-36 -384 -471 0
-36 -384 -472 0
177 178 453 454 785 786 0
177 178 -453 -785 0
177 178 -453 -786 0
177 178 -454 -785 0
177 178 -454 -786 0
-177 453 454 -785 0
-177 453 454 -786 0
-178 453 454 -785 0
-178 453 454 -786 0
-177 -453 785 786 0
-177 -454 785 786 0
-178 -453 785 786 0
-178 -454 785 786 0
217 218 879 880 -1059 0
217 218 879 880 -1060 0
217 218 -879 1059 1060 0
217 218 -880 1059 1060 0
-217 879 880 1059 1060 0
-218 879 880 1059 1060 0
-217 -879 -1059 0
-217 -879 -1060 0
-217 -880 -1059 0
-217 -880 -1060 0
-218 -879 -1059 0
-218 -879 -1060 0
-218 -880 -1059 0
-218 -880 -1060 0
35 36 775 776 -877 0
35 36 775 776 -878 0
35 36 -775 877 878 0
35 36 -776 877 878 0
-35 775 776 877 878 0
-36 775 776 877 878 0
-35 -775 -877 0
-35 -775 -878 0
-35 -776 -877 0
-35 -776 -878 0
-36 -775 -877 0
-36 -775 -878 0
-36 -776 -877 0
-36 -776 -878 0
639 640 1139 1140 1215 1216 0
639 640 -1139 -1215 0
639 640 -1139 -1216 0
639 640 -1140 -1215 0
639 640 -1140 -1216 0
-639 1139 1140 -1215 0
-639 1139 1140 -1216 0
-640 1139 1140 -1215 0
-640 1139 1140 -1216 0
-639 -1139 1215 1216 0
-639 -1140 1215 1216 0
-640 -1139 1215 1216 0
-640 -1140 1215 1216 0
209 210 303 304 -1157 0
209 210 303 304 -1158 0
209 210 -303 1157 1158 0
209 210 -304 1157 1158 0
-209 303 304 1157 1158 0
-210 303 304 1157 1158 0
-209 -303 -1157 0
-209 -303 -1158 0
-209 -304 -1157 0
-209 -304 -1158 0
-210 -303 -1157 0
-210 -303 -1158 0
-210 -304 -1157 0
-210 -304 -1158 0
491 492 923 924 961 962 0
491 492 -923 -961 0
491 492 -923 -962 0
491 492 -924 -961 0
491 492 -924 -962 0
-491 923 924 -961 0
-491 923 924 -962 0
-492 923 924 -961 0
-492 923 924 -962 0
-491 -923 961 962 0
-491 -924 961 962 0
-492 -923 961 962 0
-492 -924 961 962 0
145 146 277 278 -607 0
145 146 277 278 -608 0
145 146 -277 607 608 0
145 146 -278 607 608 0
-145 277 278 607 608 0
-146 277 278 607 608 0
-145 -277 -607 0
-145 -277 -608 0
-145 -278 -607 0
-145 -278 -608 0
-146 -277 -607 0
-146 -277 -608 0
-146 -278 -607 0
-146 -278 -608 0
441 442 501 502 -935 0
441 442 501 502 -936 0
441 442 -501 935 936 0
441 442 -502 935 936 0
-441 501 502 935 936 0
-442 501 502 935 936 0
-441 -501 -935 0
-441 -501 -936 0
-441 -502 -935 0
-441 -502 -936 0
-442 -501 -935 0
-442 -501 -936 0
-442 -502 -935 0
-442 -502 -936 0
87 88 315 316 1253 1254 0
87 88 -315 -1253 0
87 88 -315 -1254 0
87 88 -316 -1253 0
87 88 -316 -1254 0
-87 315 316 -1253 0
-87 315 316 -1254 0
-88 315 316 -1253 0
-88 315 316 -1254 0
-87 -315 1253 1254 0
-87 -316 1253 1254 0
-88 -315 1253 1254 0
-88 -316 1253 1254 0
43 44 553 554 705 706 0
43 44 -553 -705 0
43 44 -553 -706 0
43 44 -554 -705 0
43 44 -554 -706 0
-43 553 554 -705 0
-43 553 554 -706 0
-44 553 554 -705 0
-44 553 554 -706 0
-43 -553 705 706 0
-43 -554 705 706 0
-44 -553 705 706 0
-44 -554 705 706 0
177 178 179 180 -1183 0
177 178 179 180 -1184 0
177 178 -179 1183 1184 0
177 178 -180 1183 1184 0
-177 179 180 1183 1184 0
-178 179 180 1183 1184 0
-177 -179 -1183 0
-177 -179 -1184 0
-177 -180 -1183 0
-177 -180 -1184 0
-178 -179 -1183 0
-178 -179 -1184 0
-178 -180 -1183 0
-178 -180 -1184 0
309 310 787 788 851 852 0
309 310 -787 -851 0
309 310 -787 -852 0
309 310 -788 -851 0
309 310 -788 -852 0
-309 787 788 -851 0
-309 787 788 -852 0
-310 787 788 -851 0
-310 787 788 -852 0
-309 -787 851 852 0
-309 -788 851 852 0
-310 -787 851 852 0
-310 -788 851 852 0
939 940 943 944 991 992 0
939 940 -943 -991 0
939 940 -943 -992 0
939 940 -944 -991 0
939 940 -944 -992 0
-939 943 944 -991 0
-939 943 944 -992 0
-940 943 944 -991 0
-940 943 944 -992 0
-939 -943 991 992 0
-939 -944 991 992 0
-940 -943 991 992 0
-940 -944 991 992 0
91 92 391 392 -723 0
91 92 391 392 -724 0
91 92 -391 723 724 0
91 92 -392 723 724 0
-91 391 392 723 724 0
-92 391 392 723 724 0
-91 -391 -723 0
-91 -391 -724 0
-91 -392 -723 0
-91 -392 -724 0
-92 -391 -723 0
-92 -391 -724 0
-92 -392 -723 0
-92 -392 -724 0
367 368 787 788 -913 0
367 368 787 788 -914 0
367 368 -787 913 914 0
367 368 -788 913 914 0
-367 787 788 913 914 0
-368 787 788 913 914 0
-367 -787 -913 0
-367 -787 -914 0
-367 -788 -913 0
-367 -788 -914 0
-368 -787 -913 0
-368 -787 -914 0
-368 -788 -913 0
-368 -788 -914 0
235 236 797 798 999 1000 0
235 236 -797 -999 0
235 236 -797 -1000 0
235 236 -798 -999 0
235 236 -798 -1000 0
-235 797 798 -999 0
-235 797 798 -1000 0
-236 797 798 -999 0
-236 797 798 -1000 0
-235 -797 999 1000 0
-235 -798 999 1000 0
-236 -797 999 1000 0
-236 -798 999 1000 0
17 18 71 72 -345 0
17 18 71 72 -346 0
17 18 -71 345 346 0
17 18 -72 345 346 0
-17 71 72 345 346 0
-18 71 72 345 346 0
-17 -71 -345 0
-17 -71 -346 0
-17 -72 -345 0
-17 -72 -346 0
-18 -71 -345 0
-18 -71 -346 0
-18 -72 -345 0
-18 -72 -346 0
17 18 865 866 -1135 0
17 18 865 866 -1136 0
17 18 -865 1135 1136 0
17 18 -866 1135 1136 0
-17 865 866 1135 1136 0
-18 865 866 1135 1136 0
-17 -865 -1135 0
-17 -865 -1136 0
-17 -866 -1135 0
-17 -866 -1136 0
-18 -865 -1135 0
-18 -865 -1136 0
-18 -866 -1135 0
-18 -866 -1136 0
475 476 911 912 -1173 0
475 476 911 912 -1174 0
475 476 -911 1173 1174 0
475 476 -912 1173 1174 0
-475 911 912 1173 1174 0
-476 911 912 1173 1174 0
-475 -911 -1173 0
-475 -911 -1174 0
-475 -912 -1173 0
-475 -912 -1174 0
-476 -911 -1173 0
-476 -911 -1174 0
-476 -912 -1173 0
-476 -912 -1174 0
33 34 45 46 975 976 0
33 34 -45 -975 0
33 34 -45 -976 0
33 34 -46 -975 0
33 34 -46 -976 0
-33 45 46 -975 0
-33 45 46 -976 0
-34 45 46 -975 0
-34 45 46 -976 0
-33 -45 975 976 0
-33 -46 975 976 0
-34 -45 975 976 0
-34 -46 975 976 0
557 558 573 574 787 788 0
557 558 -573 -787 0
557 558 -573 -788 0
557 558 -574 -787 0
557 558 -574 -788 0
-557 573 574 -787 0
-557 573 574 -788 0
-558 573 574 -787 0
-558 573 574 -788 0
-557 -573 787 788 0
-557 -574 787 788 0
-558 -573 787 788 0
-558 -574 787 788 0
741 742 825 826 -1085 0
741 742 825 826 -1086 0
741 742 -825 1085 1086 0
741 742 -826 1085 1086 0
-741 825 826 1085 1086 0
-742 825 826 1085 1086 0
-741 -825 -1085 0
-741 -825 -1086 0
-741 -826 -1085 0
-741 -826 -1086 0
-742 -825 -1085 0
-742 -825 -1086 0
-742 -826 -1085 0
-742 -826 -1086 0
603 604 689 690 -779 0
603 604 689 690 -780 0
603 604 -689 779 780 0
603 604 -690 779 780 0
-603 689 690 779 780 0
-604 689 690 779 780 0
-603 -689 -779 0
-603 -689 -780 0
-603 -690 -779 0
-603 -690 -780 0
-604 -689 -779 0
-604 -689 -780 0
-604 -690 -779 0
-604 -690 -780 0
325 326 331 332 -631 0
325 326 331 332 -632 0
325 326 -331 631 632 0
325 326 -332 631 632 0
-325 331 332 631 632 0
-326 331 332 631 632 0
-325 -331 -631 0
-325 -331 -632 0
-325 -332 -631 0
-325 -332 -632 0
-326 -331 -631 0
-326 -331 -632 0
-326 -332 -631 0
-326 -332 -632 0
57 58 909 910 -1263 0
57 58 909 910 -1264 0
57 58 -909 1263 1264 0
57 58 -910 1263 1264 0
-57 909 910 1263 1264 0
-58 909 910 1263 1264 0
-57 -909 -1263 0
-57 -909 -1264 0
-57 -910 -1263 0
-57 -910 -1264 0
-58 -909 -1263 0
-58 -909 -1264 0
-58 -910 -1263 0
-58 -910 -1264 0
109 110 355 356 -1145 0
109 110 355 356 -1146 0
109 110 -355 1145 1146 0
109 110 -356 1145 1146 0
-109 355 356 1145 1146 0
-110 355 356 1145 1146 0
-109 -355 -1145 0
-109 -355 -1146 0
-109 -356 -1145 0
-109 -356 -1146 0
-110 -355 -1145 0
-110 -355 -1146 0
-110 -356 -1145 0
-110 -356 -1146 0
461 462 473 474 687 688 0
461 462 -473 -687 0
461 462 -473 -688 0
461 462 -474 -687 0
461 462 -474 -688 0
-461 473 474 -687 0
-461 473 474 -688 0
-462 473 474 -687 0
-462 473 474 -688 0
-461 -473 687 688 0
-461 -474 687 688 0
-462 -473 687 688 0
-462 -474 687 688 0
413 414 799 800 1063 1064 0
413 414 -799 -1063 0
413 414 -799 -1064 0
413 414 -800 -1063 0
413 414 -800 -1064 0
-413 799 800 -1063 0
-413 799 800 -1064 0
-414 799 800 -1063 0
-414 799 800 -1064 0
-413 -799 1063 1064 0
-413 -800 1063 1064 0
-414 -799 1063 1064 0
-414 -800 1063 1064 0
201 202 817 818 -1105 0
201 202 817 818 -1106 0
201 202 -817 1105 1106 0
201 202 -818 1105 1106 0
-201 817 818 1105 1106 0
-202 817 818 1105 1106 0
-201 -817 -1105 0
-201 -817 -1106 0
-201 -818 -1105 0
-201 -818 -1106 0
-202 -817 -1105 0
-202 -817 -1106 0
-202 -818 -1105 0
-202 -818 -1106 0
129 130 485 486 -865 0
129 130 485 486 -866 0
129 130 -485 865 866 0
129 130 -486 865 866 0
-129 485 486 865 866 0
-130 485 486 865 866 0
-129 -485 -865 0
-129 -485 -866 0
-129 -486 -865 0
-129 -486 -866 0
-130 -485 -865 0
-130 -485 -866 0
-130 -486 -865 0
-130 -486 -866 0
75 76 449 450 661 662 0
75 76 -449 -661 0
75 76 -449 -662 0
75 76 -450 -661 0
75 76 -450 -662 0
-75 449 450 -661 0
-75 449 450 -662 0
-76 449 450 -661 0
-76 449 450 -662 0
-75 -449 661 662 0
-75 -450 661 662 0
-76 -449 661 662 0
-76 -450 661 662 0
47 48 341 342 359 360 0
47 48 -341 -359 0
47 48 -341 -360 0
47 48 -342 -359 0
47 48 -342 -360 0
-47 341 342 -359 0
-47 341 342 -360 0
-48 341 342 -359 0
-48 341 342 -360 0
-47 -341 359 360 0
-47 -342 359 360 0
-48 -341 359 360 0
-48 -342 359 360 0
481 482 495 496 -1183 0
481 482 495 496 -1184 0
481 482 -495 1183 1184 0
481 482 -496 1183 1184 0
-481 495 496 1183 1184 0
-482 495 496 1183 1184 0
-481 -495 -1183 0
-481 -495 -1184 0
-481 -496 -1183 0
-481 -496 -1184 0
-482 -495 -1183 0
-482 -495 -1184 0
-482 -496 -1183 0
-482 -496 -1184 0
421 422 581 582 1111 1112 0
421 422 -581 -1111 0
421 422 -581 -1112 0
421 422 -582 -1111 0
421 422 -582 -1112 0
-421 581 582 -1111 0
-421 581 582 -1112 0
-422 581 582 -1111 0
-422 581 582 -1112 0
-421 -581 1111 1112 0
-421 -582 1111 1112 0
-422 -581 1111 1112 0
-422 -582 1111 1112 0
173 174 631 632 697 698 0
173 174 -631 -697 0
173 174 -631 -698 0
173 174 -632 -697 0
173 174 -632 -698 0
-173 631 632 -697 0
-173 631 632 -698 0
-174 631 632 -697 0
-174 631 632 -698 0
-173 -631 697 698 0
-173 -632 697 698 0
-174 -631 697 698 0
-174 -632 697 698 0
31 32 79 80 247 248 0
31 32 -79 -247 0
31 32 -79 -248 0
31 32 -80 -247 0
31 32 -80 -248 0
-31 79 80 -247 0
-31 79 80 -248 0
-32 79 80 -247 0
-32 79 80 -248 0
-31 -79 247 248 0
-31 -80 247 248 0
-32 -79 247 248 0
-32 -80 247 248 0
79 80 131 132 -1133 0
79 80 131 132 -1134 0
79 80 -131 1133 1134 0
79 80 -132 1133 1134 0
-79 131 132 1133 1134 0
-80 131 132 1133 1134 0
-79 -131 -1133 0
-79 -131 -1134 0
-79 -132 -1133 0
-79 -132 -1134 0
-80 -131 -1133 0
-80 -131 -1134 0
-80 -132 -1133 0
-80 -132 -1134 0
29 30 1213 1214 1241 1242 0
29 30 -1213 -1241 0
29 30 -1213 -1242 0
29 30 -1214 -1241 0
29 30 -1214 -1242 0
-29 1213 1214 -1241 0
-29 1213 1214 -1242 0
-30 1213 1214 -1241 0
-30 1213 1214 -1242 0
-29 -1213 1241 1242 0
-29 -1214 1241 1242 0
-30 -1213 1241 1242 0
-30 -1214 1241 1242 0
259 260 947 948 973 974 0
259 260 -947 -973 0
259 260 -947 -974 0
259 260 -948 -973 0
259 260 -948 -974 0
-259 947 948 -973 0
-259 947 948 -974 0
-260 947 948 -973 0
-260 947 948 -974 0
-259 -947 973 974 0
-259 -948 973 974 0
-260 -947 973 974 0
-260 -948 973 974 0
205 206 223 224 663 664 0
205 206 -223 -663 0
205 206 -223 -664 0
205 206 -224 -663 0
205 206 -224 -664 0
-205 223 224 -663 0
-205 223 224 -664 0
-206 223 224 -663 0
-206 223 224 -664 0
-205 -223 663 664 0
-205 -224 663 664 0
-206 -223 663 664 0
-206 -224 663 664 0
45 46 121 122 -379 0
45 46 121 122 -380 0
45 46 -121 379 380 0
45 46 -122 379 380 0
-45 121 122 379 380 0
-46 121 122 379 380 0
-45 -121 -379 0
-45 -121 -380 0
-45 -122 -379 0
-45 -122 -380 0
-46 -121 -379 0
-46 -121 -380 0
-46 -122 -379 0
-46 -122 -380 0
127 128 299 300 1151 1152 0
127 128 -299 -1151 0
127 128 -299 -1152 0
127 128 -300 -1151 0
127 128 -300 -1152 0
-127 299 300 -1151 0
-127 299 300 -1152 0
-128 299 300 -1151 0
-128 299 300 -1152 0
-127 -299 1151 1152 0
-127 -300 1151 1152 0
-128 -299 1151 1152 0
-128 -300 1151 1152 0
233 234 325 326 -1101 0
233 234 325 326 -1102 0
233 234 -325 1101 1102 0
233 234 -326 1101 1102 0
-233 325 326 1101 1102 0
-234 325 326 1101 1102 0
-233 -325 -1101 0
-233 -325 -1102 0
-233 -326 -1101 0
-233 -326 -1102 0
-234 -325 -1101 0
-234 -325 -1102 0
-234 -326 -1101 0
-234 -326 -1102 0
327 328 915 916 1133 1134 0
327 328 -915 -1133 0
327 328 -915 -1134 0
327 328 -916 -1133 0
327 328 -916 -1134 0
-327 915 916 -1133 0
-327 915 916 -1134 0
-328 915 916 -1133 0
-328 915 916 -1134 0
-327 -915 1133 1134 0
-327 -916 1133 1134 0
-328 -915 1133 1134 0
-328 -916 1133 1134 0
341 342 713 714 -909 0
341 342 713 714 -910 0
341 342 -713 909 910 0
341 342 -714 909 910 0
-341 713 714 909 910 0
-342 713 714 909 910 0
-341 -713 -909 0
-341 -713 -910 0
-341 -714 -909 0
-341 -714 -910 0
-342 -713 -909 0
-342 -713 -910 0
-342 -714 -909 0
-342 -714 -910 0
691 692 763 764 965 966 0
691 692 -763 -965 0
691 692 -763 -966 0
691 692 -764 -965 0
691 692 -764 -966 0
-691 763 764 -965 0
-691 763 764 -966 0
-692 763 764 -965 0
-692 763 764 -966 0
-691 -763 965 966 0
-691 -764 965 966 0
-692 -763 965 966 0
-692 -764 965 966 0
265 266 417 418 1039 1040 0
265 266 -417 -1039 0
265 266 -417 -1040 0
265 266 -418 -1039 0
265 266 -418 -1040 0
-265 417 418 -1039 0
-265 417 418 -1040 0
-266 417 418 -1039 0
-266 417 418 -1040 0
-265 -417 1039 1040 0
-265 -418 1039 1040 0
-266 -417 1039 1040 0
-266 -418 1039 1040 0
705 706 909 910 1137 1138 0
705 706 -909 -1137 0
705 706 -909 -1138 0
705 706 -910 -1137 0
705 706 -910 -1138 0
-705 909 910 -1137 0
-705 909 910 -1138 0
-706 909 910 -1137 0
-706 909 910 -1138 0
-705 -909 1137 1138 0
-705 -910 1137 1138 0
-706 -909 1137 1138 0
-706 -910 1137 1138 0
269 270 731 732 -819 0
269 270 731 732 -820 0
269 270 -731 819 820 0
269 270 -732 819 820 0
-269 731 732 819 820 0
-270 731 732 819 820 0
-269 -731 -819 0
-269 -731 -820 0
-269 -732 -819 0
-269 -732 -820 0
-270 -731 -819 0
-270 -731 -820 0
-270 -732 -819 0
-270 -732 -820 0
331 332 795 796 -1057 0
331 332 795 796 -1058 0
331 332 -795 1057 1058 0
331 332 -796 1057 1058 0
-331 795 796 1057 1058 0
-332 795 796 1057 1058 0
-331 -795 -1057 0
-331 -795 -1058 0
-331 -796 -1057 0
-331 -796 -1058 0
-332 -795 -1057 0
-332 -795 -1058 0
-332 -796 -1057 0
-332 -796 -1058 0
293 294 347 348 -439 0
293 294 347 348 -440 0
293 294 -347 439 440 0
293 294 -348 439 440 0
-293 347 348 439 440 0
-294 347 348 439 440 0
-293 -347 -439 0
-293 -347 -440 0
-293 -348 -439 0
-293 -348 -440 0
-294 -347 -439 0
-294 -347 -440 0
-294 -348 -439 0
-294 -348 -440 0
255 256 603 604 -1227 0
255 256 603 604 -1228 0
255 256 -603 1227 1228 0
255 256 -604 1227 1228 0
-255 603 604 1227 1228 0
-256 603 604 1227 1228 0
-255 -603 -1227 0
-255 -603 -1228 0
-255 -604 -1227 0
-255 -604 -1228 0
-256 -603 -1227 0
-256 -603 -1228 0
-256 -604 -1227 0
-256 -604 -1228 0
479 480 561 562 -835 0
479 480 561 562 -836 0
479 480 -561 835 836 0
479 480 -562 835 836 0
-479 561 562 835 836 0
-480 561 562 835 836 0
-479 -561 -835 0
-479 -561 -836 0
-479 -562 -835 0
-479 -562 -836 0
-480 -561 -835 0
-480 -561 -836 0
-480 -562 -835 0
-480 -562 -836 0
13 14 1027 1028 -1085 0
13 14 1027 1028 -1086 0
13 14 -1027 1085 1086 0
13 14 -1028 1085 1086 0
-13 1027 1028 1085 1086 0
-14 1027 1028 1085 1086 0
-13 -1027 -1085 0
-13 -1027 -1086 0
-13 -1028 -1085 0
-13 -1028 -1086 0
-14 -1027 -1085 0
-14 -1027 -1086 0
-14 -1028 -1085 0
-14 -1028 -1086 0
193 194 443 444 -463 0
193 194 443 444 -464 0
193 194 -443 463 464 0
193 194 -444 463 464 0
-193 443 444 463 464 0
-194 443 444 463 464 0
-193 -443 -463 0
-193 -443 -464 0
-193 -444 -463 0
-193 -444 -464 0
-194 -443 -463 0
-194 -443 -464 0
-194 -444 -463 0
-194 -444 -464 0
535 536 639 640 -1113 0
535 536 639 640 -1114 0
535 536 -639 1113 1114 0
535 536 -640 1113 1114 0
-535 639 640 1113 1114 0
-536 639 640 1113 1114 0
-535 -639 -1113 0
-535 -639 -1114 0
-535 -640 -1113 0
-535 -640 -1114 0
-536 -639 -1113 0
-536 -639 -1114 0
-536 -640 -1113 0
-536 -640 -1114 0
165 166 511 512 -1087 0
165 166 511 512 -1088 0
165 166 -511 1087 1088 0
165 166 -512 1087 1088 0
-165 511 512 1087 1088 0
-166 511 512 1087 1088 0
-165 -511 -1087 0
-165 -511 -1088 0
-165 -512 -1087 0
-165 -512 -1088 0
-166 -511 -1087 0
-166 -511 -1088 0
-166 -512 -1087 0
-166 -512 -1088 0
517 518 537 538 793 794 0
517 518 -537 -793 0
517 518 -537 -794 0
517 518 -538 -793 0
517 518 -538 -794 0
-517 537 538 -793 0
-517 537 538 -794 0
-518 537 538 -793 0
-518 537 538 -794 0
-517 -537 793 794 0
-517 -538 793 794 0
-518 -537 793 794 0
-518 -538 793 794 0
67 68 805 806 -1077 0
67 68 805 806 -1078 0
67 68 -805 1077 1078 0
67 68 -806 1077 1078 0
-67 805 806 1077 1078 0
-68 805 806 1077 1078 0
-67 -805 -1077 0
-67 -805 -1078 0
-67 -806 -1077 0
-67 -806 -1078 0
-68 -805 -1077 0
-68 -805 -1078 0
-68 -806 -1077 0
-68 -806 -1078 0
309 310 649 650 -899 0
309 310 649 650 -900 0
309 310 -649 899 900 0
309 310 -650 899 900 0
-309 649 650 899 900 0
-310 649 650 899 900 0
-309 -649 -899 0
-309 -649 -900 0
-309 -650 -899 0
-309 -650 -900 0
-310 -649 -899 0
-310 -649 -900 0
-310 -650 -899 0
-310 -650 -900 0
773 774 941 942 -1079 0
773 774 941 942 -1080 0
773 774 -941 1079 1080 0
773 774 -942 1079 1080 0
-773 941 942 1079 1080 0
-774 941 942 1079 1080 0
-773 -941 -1079 0
-773 -941 -1080 0
-773 -942 -1079 0
-773 -942 -1080 0
-774 -941 -1079 0
-774 -941 -1080 0
-774 -942 -1079 0
-774 -942 -1080 0
605 606 623 624 1021 1022 0
605 606 -623 -1021 0
605 606 -623 -1022 0
605 606 -624 -1021 0
605 606 -624 -1022 0
-605 623 624 -1021 0
-605 623 624 -1022 0
-606 623 624 -1021 0
-606 623 624 -1022 0
-605 -623 1021 1022 0
-605 -624 1021 1022 0
-606 -623 1021 1022 0
-606 -624 1021 1022 0
345 346 353 354 -627 0
345 346 353 354 -628 0
345 346 -353 627 628 0
345 346 -354 627 628 0
-345 353 354 627 628 0
-346 353 354 627 628 0
-345 -353 -627 0
-345 -353 -628 0
-345 -354 -627 0
-345 -354 -628 0
-346 -353 -627 0
-346 -353 -628 0
-346 -354 -627 0
-346 -354 -628 0
71 72 93 94 789 790 0
71 72 -93 -789 0
71 72 -93 -790 0
71 72 -94 -789 0
71 72 -94 -790 0
-71 93 94 -789 0
-71 93 94 -790 0
-72 93 94 -789 0
-72 93 94 -790 0
-71 -93 789 790 0
-71 -94 789 790 0
-72 -93 789 790 0
-72 -94 789 790 0
771 772 837 838 1213 1214 0
771 772 -837 -1213 0
771 772 -837 -1214 0
771 772 -838 -1213 0
771 772 -838 -1214 0
-771 837 838 -1213 0
-771 837 838 -1214 0
-772 837 838 -1213 0
-772 837 838 -1214 0
-771 -837 1213 1214 0
-771 -838 1213 1214 0
-772 -837 1213 1214 0
-772 -838 1213 1214 0
361 362 705 706 957 958 0
361 362 -705 -957 0
361 362 -705 -958 0
361 362 -706 -957 0
361 362 -706 -958 0
-361 705 706 -957 0
-361 705 706 -958 0
-362 705 706 -957 0
-362 705 706 -958 0
-361 -705 957 958 0
-361 -706 957 958 0
-362 -705 957 958 0
-362 -706 957 958 0
105 106 119 120 1071 1072 0
105 106 -119 -1071 0
105 106 -119 -1072 0
105 106 -120 -1071 0
105 106 -120 -1072 0
-105 119 120 -1071 0
-105 119 120 -1072 0
-106 119 120 -1071 0
-106 119 120 -1072 0
-105 -119 1071 1072 0
-105 -120 1071 1072 0
-106 -119 1071 1072 0
-106 -120 1071 1072 0
113 114 587 588 -1001 0
113 114 587 588 -1002 0
113 114 -587 1001 1002 0
113 114 -588 1001 1002 0
-113 587 588 1001 1002 0
-114 587 588 1001 1002 0
-113 -587 -1001 0
-113 -587 -1002 0
-113 -588 -1001 0
-113 -588 -1002 0
-114 -587 -1001 0
-114 -587 -1002 0
-114 -588 -1001 0
-114 -588 -1002 0
1 2 471 472 941 942 0
1 2 -471 -941 0
1 2 -471 -942 0
1 2 -472 -941 0
1 2 -472 -942 0
-1 471 472 -941 0
-1 471 472 -942 0
-2 471 472 -941 0
-2 471 472 -942 0
-1 -471 941 942 0
-1 -472 941 942 0
-2 -471 941 942 0
-2 -472 941 942 0
1 2 271 272 -987 0
1 2 271 272 -988 0
1 2 -271 987 988 0
1 2 -272 987 988 0
-1 271 272 987 988 0
-2 271 272 987 988 0
-1 -271 -987 0
-1 -271 -988 0
-1 -272 -987 0
-1 -272 -988 0
-2 -271 -987 0
-2 -271 -988 0
-2 -272 -987 0
-2 -272 -988 0
223 224 747 748 973 974 0
223 224 -747 -973 0
223 224 -747 -974 0
223 224 -748 -973 0
223 224 -748 -974 0
-223 747 748 -973 0
-223 747 748 -974 0
-224 747 748 -973 0
-224 747 748 -974 0
-223 -747 973 974 0
-223 -748 973 974 0
-224 -747 973 974 0
-224 -748 973 974 0
77 78 165 166 -275 0
77 78 165 166 -276 0
77 78 -165 275 276 0
77 78 -166 275 276 0
-77 165 166 275 276 0
-78 165 166 275 276 0
-77 -165 -275 0
-77 -165 -276 0
-77 -166 -275 0
-77 -166 -276 0
-78 -165 -275 0
-78 -165 -276 0
-78 -166 -275 0
-78 -166 -276 0
123 124 589 590 -919 0
123 124 589 590 -920 0
123 124 -589 919 920 0
123 124 -590 919 920 0
-123 589 590 919 920 0
-124 589 590 919 920 0
-123 -589 -919 0
-123 -589 -920 0
-123 -590 -919 0
-123 -590 -920 0
-124 -589 -919 0
-124 -589 -920 0
-124 -590 -919 0
-124 -590 -920 0
133 134 337 338 851 852 0
133 134 -337 -851 0
133 134 -337 -852 0
133 134 -338 -851 0
133 134 -338 -852 0
-133 337 338 -851 0
-133 337 338 -852 0
-134 337 338 -851 0
-134 337 338 -852 0
-133 -337 851 852 0
-133 -338 851 852 0
-134 -337 851 852 0
-134 -338 851 852 0
247 248 399 400 1021 1022 0
247 248 -399 -1021 0
247 248 -399 -1022 0
247 248 -400 -1021 0
247 248 -400 -1022 0
-247 399 400 -1021 0
-247 399 400 -1022 0
-248 399 400 -1021 0
-248 399 400 -1022 0
-247 -399 1021 1022 0
-247 -400 1021 1022 0
-248 -399 1021 1022 0
-248 -400 1021 1022 0
865 866 1151 1152 -1269 0
865 866 1151 1152 -1270 0
865 866 -1151 1269 1270 0
865 866 -1152 1269 1270 0
-865 1151 1152 1269 1270 0
-866 1151 1152 1269 1270 0
-865 -1151 -1269 0
-865 -1151 -1270 0
-865 -1152 -1269 0
-865 -1152 -1270 0
-866 -1151 -1269 0
-866 -1151 -1270 0
-866 -1152 -1269 0
-866 -1152 -1270 0
473 474 751 752 793 794 0
473 474 -751 -793 0
473 474 -751 -794 0
473 474 -752 -793 0
473 474 -752 -794 0
-473 751 752 -793 0
-473 751 752 -794 0
-474 751 752 -793 0
-474 751 752 -794 0
-473 -751 793 794 0
-473 -752 793 794 0
-474 -751 793 794 0
-474 -752 793 794 0
217 218 383 384 -663 0
217 218 383 384 -664 0
217 218 -383 663 664 0
217 218 -384 663 664 0
-217 383 384 663 664 0
-218 383 384 663 664 0
-217 -383 -663 0
-217 -383 -664 0
-217 -384 -663 0
-217 -384 -664 0
-218 -383 -663 0
-218 -383 -664 0
-218 -384 -663 0
-218 -384 -664 0
445 446 553 554 709 710 0
445 446 -553 -709 0
445 446 -553 -710 0
445 446 -554 -709 0
445 446 -554 -710 0
-445 553 554 -709 0
-445 553 554 -710 0
-446 553 554 -709 0
-446 553 554 -710 0
-445 -553 709 710 0
-445 -554 709 710 0
-446 -553 709 710 0
-446 -554 709 710 0
221 222 969 970 1179 1180 0
221 222 -969 -1179 0
221 222 -969 -1180 0
221 222 -970 -1179 0
221 222 -970 -1180 0
-221 969 970 -1179 0
-221 969 970 -1180 0
-222 969 970 -1179 0
-222 969 970 -1180 0
-221 -969 1179 1180 0
-221 -970 1179 1180 0
-222 -969 1179 1180 0
-222 -970 1179 1180 0
535 536 849 850 1057 1058 0
535 536 -849 -1057 0
535 536 -849 -1058 0
535 536 -850 -1057 0
535 536 -850 -1058 0
-535 849 850 -1057 0
-535 849 850 -1058 0
-536 849 850 -1057 0
-536 849 850 -1058 0
-535 -849 1057 1058 0
-535 -850 1057 1058 0
-536 -849 1057 1058 0
-536 -850 1057 1058 0
195 196 885 886 -1211 0
195 196 885 886 -1212 0
195 196 -885 1211 1212 0
195 196 -886 1211 1212 0
-195 885 886 1211 1212 0
-196 885 886 1211 1212 0
-195 -885 -1211 0
-195 -885 -1212 0
-195 -886 -1211 0
-195 -886 -1212 0
-196 -885 -1211 0
-196 -885 -1212 0
-196 -886 -1211 0
-196 -886 -1212 0
11 12 39 40 -771 0
11 12 39 40 -772 0
11 12 -39 771 772 0
11 12 -40 771 772 0
-11 39 40 771 772 0
-12 39 40 771 772 0
-11 -39 -771 0
-11 -39 -772 0
-11 -40 -771 0
-11 -40 -772 0
-12 -39 -771 0
-12 -39 -772 0
-12 -40 -771 0
-12 -40 -772 0
731 732 745 746 -1089 0
731 732 745 746 -1090 0
731 732 -745 1089 1090 0
731 732 -746 1089 1090 0
-731 745 746 1089 1090 0
-732 745 746 1089 1090 0
-731 -745 -1089 0
-731 -745 -1090 0
-731 -746 -1089 0
-731 -746 -1090 0
-732 -745 -1089 0
-732 -745 -1090 0
-732 -746 -1089 0
-732 -746 -1090 0
69 70 271 272 303 304 0
69 70 -271 -303 0
69 70 -271 -304 0
69 70 -272 -303 0
69 70 -272 -304 0
-69 271 272 -303 0
-69 271 272 -304 0
-70 271 272 -303 0
-70 271 272 -304 0
-69 -271 303 304 0
-69 -272 303 304 0
-70 -271 303 304 0
-70 -272 303 304 0
421 422 1063 1064 -1185 0
421 422 1063 1064 -1186 0
421 422 -1063 1185 1186 0
421 422 -1064 1185 1186 0
-421 1063 1064 1185 1186 0
-422 1063 1064 1185 1186 0
-421 -1063 -1185 0
-421 -1063 -1186 0
-421 -1064 -1185 0
-421 -1064 -1186 0
-422 -1063 -1185 0
-422 -1063 -1186 0
-422 -1064 -1185 0
-422 -1064 -1186 0
183 184 263 264 -649 0
183 184 263 264 -650 0
183 184 -263 649 650 0
183 184 -264 649 650 0
-183 263 264 649 650 0
-184 263 264 649 650 0
-183 -263 -649 0
-183 -263 -650 0
-183 -264 -649 0
-183 -264 -650 0
-184 -263 -649 0
-184 -263 -650 0
-184 -264 -649 0
-184 -264 -650 0
163 164 181 182 533 534 0
163 164 -181 -533 0
163 164 -181 -534 0
163 164 -182 -533 0
163 164 -182 -534 0
-163 181 182 -533 0
-163 181 182 -534 0
-164 181 182 -533 0
-164 181 182 -534 0
-163 -181 533 534 0
-163 -182 533 534 0
-164 -181 533 534 0
-164 -182 533 534 0
13 14 97 98 677 678 0
13 14 -97 -677 0
13 14 -97 -678 0
13 14 -98 -677 0
13 14 -98 -678 0
-13 97 98 -677 0
-13 97 98 -678 0
-14 97 98 -677 0
-14 97 98 -678 0
-13 -97 677 678 0
-13 -98 677 678 0
-14 -97 677 678 0
-14 -98 677 678 0
493 494 687 688 785 786 0
493 494 -687 -785 0
493 494 -687 -786 0
493 494 -688 -785 0
493 494 -688 -786 0
-493 687 688 -785 0
-493 687 688 -786 0
-494 687 688 -785 0
-494 687 688 -786 0
-493 -687 785 786 0
-493 -688 785 786 0
-494 -687 785 786 0
-494 -688 785 786 0
185 186 771 772 -1129 0
185 186 771 772 -1130 0
185 186 -771 1129 1130 0
185 186 -772 1129 1130 0
-185 771 772 1129 1130 0
-186 771 772 1129 1130 0
-185 -771 -1129 0
-185 -771 -1130 0
-185 -772 -1129 0
-185 -772 -1130 0
-186 -771 -1129 0
-186 -771 -1130 0
-186 -772 -1129 0
-186 -772 -1130 0
169 170 1025 1026 -1187 0
169 170 1025 1026 -1188 0
169 170 -1025 1187 1188 0
169 170 -1026 1187 1188 0
-169 1025 1026 1187 1188 0
-170 1025 1026 1187 1188 0
-169 -1025 -1187 0
-169 -1025 -1188 0
-169 -1026 -1187 0
-169 -1026 -1188 0
-170 -1025 -1187 0
-170 -1025 -1188 0
-170 -1026 -1187 0
-170 -1026 -1188 0
419 420 923 924 -1059 0
419 420 923 924 -1060 0
419 420 -923 1059 1060 0
419 420 -924 1059 1060 0
-419 923 924 1059 1060 0
-420 923 924 1059 1060 0
-419 -923 -1059 0
-419 -923 -1060 0
-419 -924 -1059 0
-419 -924 -1060 0
-420 -923 -1059 0
-420 -923 -1060 0
-420 -924 -1059 0
-420 -924 -1060 0
465 466 745 746 -987 0
465 466 745 746 -988 0
465 466 -745 987 988 0
465 466 -746 987 988 0
-465 745 746 987 988 0
-466 745 746 987 988 0
-465 -745 -987 0
-465 -745 -988 0
-465 -746 -987 0
-465 -746 -988 0
-466 -745 -987 0
-466 -745 -988 0
-466 -746 -987 0
-466 -746 -988 0
401 402 721 722 915 916 0
401 402 -721 -915 0
401 402 -721 -916 0
401 402 -722 -915 0
401 402 -722 -916 0
-401 721 722 -915 0
-401 721 722 -916 0
-402 721 722 -915 0
-402 721 722 -916 0
-401 -721 915 916 0
-401 -722 915 916 0
-402 -721 915 916 0
-402 -722 915 916 0
183 184 207 208 -213 0
183 184 207 208 -214 0
183 184 -207 213 214 0
183 184 -208 213 214 0
-183 207 208 213 214 0
-184 207 208 213 214 0
-183 -207 -213 0
-183 -207 -214 0
-183 -208 -213 0
-183 -208 -214 0
-184 -207 -213 0
-184 -207 -214 0
-184 -208 -213 0
-184 -208 -214 0
155 156 175 176 -1223 0
155 156 175 176 -1224 0
155 156 -175 1223 1224 0
155 156 -176 1223 1224 0
-155 175 176 1223 1224 0
-156 175 176 1223 1224 0
-155 -175 -1223 0
-155 -175 -1224 0
-155 -176 -1223 0
-155 -176 -1224 0
-156 -175 -1223 0
-156 -175 -1224 0
-156 -176 -1223 0
-156 -176 -1224 0
69 70 873 874 -1171 0
69 70 873 874 -1172 0
69 70 -873 1171 1172 0
69 70 -874 1171 1172 0
-69 873 874 1171 1172 0
-70 873 874 1171 1172 0
-69 -873 -1171 0
-69 -873 -1172 0
-69 -874 -1171 0
-69 -874 -1172 0
-70 -873 -1171 0
-70 -873 -1172 0
-70 -874 -1171 0
-70 -874 -1172 0
253 254 393 394 -1051 0
253 254 393 394 -1052 0
253 254 -393 1051 1052 0
253 254 -394 1051 1052 0
-253 393 394 1051 1052 0
-254 393 394 1051 1052 0
-253 -393 -1051 0
-253 -393 -1052 0
-253 -394 -1051 0
-253 -394 -1052 0
-254 -393 -1051 0
-254 -393 -1052 0
-254 -394 -1051 0
-254 -394 -1052 0
547 548 677 678 -889 0
547 548 677 678 -890 0
547 548 -677 889 890 0
547 548 -678 889 890 0
-547 677 678 889 890 0
-548 677 678 889 890 0
-547 -677 -889 0
-547 -677 -890 0
-547 -678 -889 0
-547 -678 -890 0
-548 -677 -889 0
-548 -677 -890 0
-548 -678 -889 0
-548 -678 -890 0
5 6 189 190 -1247 0
5 6 189 190 -1248 0
5 6 -189 1247 1248 0
5 6 -190 1247 1248 0
-5 189 190 1247 1248 0
-6 189 190 1247 1248 0
-5 -189 -1247 0
-5 -189 -1248 0
-5 -190 -1247 0
-5 -190 -1248 0
-6 -189 -1247 0
-6 -189 -1248 0
-6 -190 -1247 0
-6 -190 -1248 0
591 592 943 944 -1261 0
591 592 943 944 -1262 0
591 592 -943 1261 1262 0
591 592 -944 1261 1262 0
-591 943 944 1261 1262 0
-592 943 944 1261 1262 0
-591 -943 -1261 0
-591 -943 -1262 0
-591 -944 -1261 0
-591 -944 -1262 0
-592 -943 -1261 0
-592 -943 -1262 0
-592 -944 -1261 0
-592 -944 -1262 0
123 124 127 128 -911 0
123 124 127 128 -912 0
123 124 -127 911 912 0
123 124 -128 911 912 0
-123 127 128 911 912 0
-124 127 128 911 912 0
-123 -127 -911 0
-123 -127 -912 0
-123 -128 -911 0
-123 -128 -912 0
-124 -127 -911 0
-124 -127 -912 0
-124 -128 -911 0
-124 -128 -912 0
419 420 443 444 727 728 0
419 420 -443 -727 0
419 420 -443 -728 0
419 420 -444 -727 0
419 420 -444 -728 0
-419 443 444 -727 0
-419 443 444 -728 0
-420 443 444 -727 0
-420 443 444 -728 0
-419 -443 727 728 0
-419 -444 727 728 0
-420 -443 727 728 0
-420 -444 727 728 0
301 302 313 314 -953 0
301 302 313 314 -954 0
301 302 -313 953 954 0
301 302 -314 953 954 0
-301 313 314 953 954 0
-302 313 314 953 954 0
-301 -313 -953 0
-301 -313 -954 0
-301 -314 -953 0
-301 -314 -954 0
-302 -313 -953 0
-302 -313 -954 0
-302 -314 -953 0
-302 -314 -954 0
91 92 521 522 -1197 0
91 92 521 522 -1198 0
91 92 -521 1197 1198 0
91 92 -522 1197 1198 0
-91 521 522 1197 1198 0
-92 521 522 1197 1198 0
-91 -521 -1197 0
-91 -521 -1198 0
-91 -522 -1197 0
-91 -522 -1198 0
-92 -521 -1197 0
-92 -521 -1198 0
-92 -522 -1197 0
-92 -522 -1198 0
503 504 657 658 -1271 0
503 504 657 658 -1272 0
503 504 -657 1271 1272 0
503 504 -658 1271 1272 0
-503 657 658 1271 1272 0
-504 657 658 1271 1272 0
-503 -657 -1271 0
-503 -657 -1272 0
-503 -658 -1271 0
-503 -658 -1272 0
-504 -657 -1271 0
-504 -657 -1272 0
-504 -658 -1271 0
-504 -658 -1272 0
741 742 1041 1042 1249 1250 0
741 742 -1041 -1249 0
741 742 -1041 -1250 0
741 742 -1042 -1249 0
741 742 -1042 -1250 0
-741 1041 1042 -1249 0
-741 1041 1042 -1250 0
-742 1041 1042 -1249 0
-742 1041 1042 -1250 0
-741 -1041 1249 1250 0
-741 -1042 1249 1250 0
-742 -1041 1249 1250 0
-742 -1042 1249 1250 0
323 324 851 852 855 856 0
323 324 -851 -855 0
323 324 -851 -856 0
323 324 -852 -855 0
323 324 -852 -856 0
-323 851 852 -855 0
-323 851 852 -856 0
-324 851 852 -855 0
-324 851 852 -856 0
-323 -851 855 856 0
-323 -852 855 856 0
-324 -851 855 856 0
-324 -852 855 856 0
703 704 717 718 937 938 0
703 704 -717 -937 0
703 704 -717 -938 0
703 704 -718 -937 0
703 704 -718 -938 0
-703 717 718 -937 0
-703 717 718 -938 0
-704 717 718 -937 0
-704 717 718 -938 0
-703 -717 937 938 0
-703 -718 937 938 0
-704 -717 937 938 0
-704 -718 937 938 0
39 40 311 312 1185 1186 0
39 40 -311 -1185 0
39 40 -311 -1186 0
39 40 -312 -1185 0
39 40 -312 -1186 0
-39 311 312 -1185 0
-39 311 312 -1186 0
-40 311 312 -1185 0
-40 311 312 -1186 0
-39 -311 1185 1186 0
-39 -312 1185 1186 0
-40 -311 1185 1186 0
-40 -312 1185 1186 0
219 220 571 572 1111 1112 0
219 220 -571 -1111 0
219 220 -571 -1112 0
219 220 -572 -1111 0
219 220 -572 -1112 0
-219 571 572 -1111 0
-219 571 572 -1112 0
-220 571 572 -1111 0
-220 571 572 -1112 0
-219 -571 1111 1112 0
-219 -572 1111 1112 0
-220 -571 1111 1112 0
-220 -572 1111 1112 0
305 306 747 748 841 842 0
305 306 -747 -841 0
305 306 -747 -842 0
305 306 -748 -841 0
305 306 -748 -842 0
-305 747 748 -841 0
-305 747 748 -842 0
-306 747 748 -841 0
-306 747 748 -842 0
-305 -747 841 842 0
-305 -748 841 842 0
-306 -747 841 842 0
-306 -748 841 842 0
205 206 399 400 -987 0
205 206 399 400 -988 0
205 206 -399 987 988 0
205 206 -400 987 988 0
-205 399 400 987 988 0
-206 399 400 987 988 0
-205 -399 -987 0
-205 -399 -988 0
-205 -400 -987 0
-205 -400 -988 0
-206 -399 -987 0
-206 -399 -988 0
-206 -400 -987 0
-206 -400 -988 0
365 366 1147 1148 1161 1162 0
365 366 -1147 -1161 0
365 366 -1147 -1162 0
365 366 -1148 -1161 0
365 366 -1148 -1162 0
-365 1147 1148 -1161 0
-365 1147 1148 -1162 0
-366 1147 1148 -1161 0
-366 1147 1148 -1162 0
-365 -1147 1161 1162 0
-365 -1148 1161 1162 0
-366 -1147 1161 1162 0
-366 -1148 1161 1162 0
297 298 1023 1024 -1025 0
297 298 1023 1024 -1026 0
297 298 -1023 1025 1026 0
297 298 -1024 1025 1026 0
-297 1023 1024 1025 1026 0
-298 1023 1024 1025 1026 0
-297 -1023 -1025 0
-297 -1023 -1026 0
-297 -1024 -1025 0
-297 -1024 -1026 0
-298 -1023 -1025 0
-298 -1023 -1026 0
-298 -1024 -1025 0
-298 -1024 -1026 0
459 460 555 556 -1077 0
459 460 555 556 -1078 0
459 460 -555 1077 1078 0
459 460 -556 1077 1078 0
-459 555 556 1077 1078 0
-460 555 556 1077 1078 0
-459 -555 -1077 0
-459 -555 -1078 0
-459 -556 -1077 0
-459 -556 -1078 0
-460 -555 -1077 0
-460 -555 -1078 0
-460 -556 -1077 0
-460 -556 -1078 0
17 18 927 928 -967 0
17 18 927 928 -968 0
17 18 -927 967 968 0
17 18 -928 967 968 0
-17 927 928 967 968 0
-18 927 928 967 968 0
-17 -927 -967 0
-17 -927 -968 0
-17 -928 -967 0
-17 -928 -968 0
-18 -927 -967 0
-18 -927 -968 0
-18 -928 -967 0
-18 -928 -968 0
47 48 277 278 411 412 0
47 48 -277 -411 0
47 48 -277 -412 0
47 48 -278 -411 0
47 48 -278 -412 0
-47 277 278 -411 0
-47 277 278 -412 0
-48 277 278 -411 0
-48 277 278 -412 0
-47 -277 411 412 0
-47 -278 411 412 0
-48 -277 411 412 0
-48 -278 411 412 0
207 208 985 986 1031 1032 0
207 208 -985 -1031 0
207 208 -985 -1032 0
207 208 -986 -1031 0
207 208 -986 -1032 0
-207 985 986 -1031 0
-207 985 986 -1032 0
-208 985 986 -1031 0
-208 985 986 -1032 0
-207 -985 1031 1032 0
-207 -986 1031 1032 0
-208 -985 1031 1032 0
-208 -986 1031 1032 0
409 410 891 892 1007 1008 0
409 410 -891 -1007 0
409 410 -891 -1008 0
409 410 -892 -1007 0
409 410 -892 -1008 0
-409 891 892 -1007 0
-409 891 892 -1008 0
-410 891 892 -1007 0
-410 891 892 -1008 0
-409 -891 1007 1008 0
-409 -892 1007 1008 0
-410 -891 1007 1008 0
-410 -892 1007 1008 0
223 224 937 938 1103 1104 0
223 224 -937 -1103 0
223 224 -937 -1104 0
223 224 -938 -1103 0
223 224 -938 -1104 0
-223 937 938 -1103 0
-223 937 938 -1104 0
-224 937 938 -1103 0
-224 937 938 -1104 0
-223 -937 1103 1104 0
-223 -938 1103 1104 0
-224 -937 1103 1104 0
-224 -938 1103 1104 0
289 290 1197 1198 1265 1266 0
289 290 -1197 -1265 0
289 290 -1197 -1266 0
289 290 -1198 -1265 0
289 290 -1198 -1266 0
-289 1197 1198 -1265 0
-289 1197 1198 -1266 0
-290 1197 1198 -1265 0
-290 1197 1198 -1266 0
-289 -1197 1265 1266 0
-289 -1198 1265 1266 0
-290 -1197 1265 1266 0
-290 -1198 1265 1266 0
709 710 735 736 -1007 0
709 710 735 736 -1008 0
709 710 -735 1007 1008 0
709 710 -736 1007 1008 0
-709 735 736 1007 1008 0
-710 735 736 1007 1008 0
-709 -735 -1007 0
-709 -735 -1008 0
-709 -736 -1007 0
-709 -736 -1008 0
-710 -735 -1007 0
-710 -735 -1008 0
-710 -736 -1007 0
-710 -736 -1008 0
171 172 353 354 1225 1226 0
171 172 -353 -1225 0
171 172 -353 -1226 0
171 172 -354 -1225 0
171 172 -354 -1226 0
-171 353 354 -1225 0
-171 353 354 -1226 0
-172 353 354 -1225 0
-172 353 354 -1226 0
-171 -353 1225 1226 0
-171 -354 1225 1226 0
-172 -353 1225 1226 0
-172 -354 1225 1226 0
1061 1062 1109 1110 -1197 0
1061 1062 1109 1110 -1198 0
1061 1062 -1109 1197 1198 0
1061 1062 -1110 1197 1198 0
-1061 1109 1110 1197 1198 0
-1062 1109 1110 1197 1198 0
-1061 -1109 -1197 0
-1061 -1109 -1198 0
-1061 -1110 -1197 0
-1061 -1110 -1198 0
-1062 -1109 -1197 0
-1062 -1109 -1198 0
-1062 -1110 -1197 0
-1062 -1110 -1198 0
161 162 385 386 -1255 0
161 162 385 386 -1256 0
161 162 -385 1255 1256 0
161 162 -386 1255 1256 0
-161 385 386 1255 1256 0
-162 385 386 1255 1256 0
-161 -385 -1255 0
-161 -385 -1256 0
-161 -386 -1255 0
-161 -386 -1256 0
-162 -385 -1255 0
-162 -385 -1256 0
-162 -386 -1255 0
-162 -386 -1256 0
323 324 331 332 -735 0
323 324 331 332 -736 0
323 324 -331 735 736 0
323 324 -332 735 736 0
-323 331 332 735 736 0
-324 331 332 735 736 0
-323 -331 -735 0
-323 -331 -736 0
-323 -332 -735 0
-323 -332 -736 0
-324 -331 -735 0
-324 -331 -736 0
-324 -332 -735 0
-324 -332 -736 0
283 284 1129 1130 -1167 0
283 284 1129 1130 -1168 0
283 284 -1129 1167 1168 0
283 284 -1130 1167 1168 0
-283 1129 1130 1167 1168 0
-284 1129 1130 1167 1168 0
-283 -1129 -1167 0
-283 -1129 -1168 0
-283 -1130 -1167 0
-283 -1130 -1168 0
-284 -1129 -1167 0
-284 -1129 -1168 0
-284 -1130 -1167 0
-284 -1130 -1168 0
185 186 711 712 1087 1088 0
185 186 -711 -1087 0
185 186 -711 -1088 0
185 186 -712 -1087 0
185 186 -712 -1088 0
-185 711 712 -1087 0
-185 711 712 -1088 0
-186 711 712 -1087 0
-186 711 712 -1088 0
-185 -711 1087 1088 0
-185 -712 1087 1088 0
-186 -711 1087 1088 0
-186 -712 1087 1088 0
9 10 521 522 1137 1138 0
9 10 -521 -1137 0
9 10 -521 -1138 0
9 10 -522 -1137 0
9 10 -522 -1138 0
-9 521 522 -1137 0
-9 521 522 -1138 0
-10 521 522 -1137 0
-10 521 522 -1138 0
-9 -521 1137 1138 0
-9 -522 1137 1138 0
-10 -521 1137 1138 0
-10 -522 1137 1138 0
667 668 949 950 -1169 0
667 668 949 950 -1170 0
667 668 -949 1169 1170 0
667 668 -950 1169 1170 0
-667 949 950 1169 1170 0
-668 949 950 1169 1170 0
-667 -949 -1169 0
-667 -949 -1170 0
-667 -950 -1169 0
-667 -950 -1170 0
-668 -949 -1169 0
-668 -949 -1170 0
-668 -950 -1169 0
-668 -950 -1170 0
79 80 165 166 -313 0
79 80 165 166 -314 0
79 80 -165 313 314 0
79 80 -166 313 314 0
-79 165 166 313 314 0
-80 165 166 313 314 0
-79 -165 -313 0
-79 -165 -314 0
-79 -166 -313 0
-79 -166 -314 0
-80 -165 -313 0
-80 -165 -314 0
-80 -166 -313 0
-80 -166 -314 0
19 20 381 382 -413 0
19 20 381 382 -414 0
19 20 -381 413 414 0
19 20 -382 413 414 0
-19 381 382 413 414 0
-20 381 382 413 414 0
-19 -381 -413 0
-19 -381 -414 0
-19 -382 -413 0
-19 -382 -414 0
-20 -381 -413 0
-20 -381 -414 0
-20 -382 -413 0
-20 -382 -414 0
35 36 187 188 345 346 0
35 36 -187 -345 0
35 36 -187 -346 0
35 36 -188 -345 0
35 36 -188 -346 0
-35 187 188 -345 0
-35 187 188 -346 0
-36 187 188 -345 0
-36 187 188 -346 0
-35 -187 345 346 0
-35 -188 345 346 0
-36 -187 345 346 0
-36 -188 345 346 0
893 894 995 996 -1269 0
893 894 995 996 -1270 0
893 894 -995 1269 1270 0
893 894 -996 1269 1270 0
-893 995 996 1269 1270 0
-894 995 996 1269 1270 0
-893 -995 -1269 0
-893 -995 -1270 0
-893 -996 -1269 0
-893 -996 -1270 0
-894 -995 -1269 0
-894 -995 -1270 0
-894 -996 -1269 0
-894 -996 -1270 0
313 314 363 364 463 464 0
313 314 -363 -463 0
313 314 -363 -464 0
313 314 -364 -463 0
313 314 -364 -464 0
-313 363 364 -463 0
-313 363 364 -464 0
-314 363 364 -463 0
-314 363 364 -464 0
-313 -363 463 464 0
-313 -364 463 464 0
-314 -363 463 464 0
-314 -364 463 464 0
7 8 1119 1120 1229 1230 0
7 8 -1119 -1229 0
7 8 -1119 -1230 0
7 8 -1120 -1229 0
7 8 -1120 -1230 0
-7 1119 1120 -1229 0
-7 1119 1120 -1230 0
-8 1119 1120 -1229 0
-8 1119 1120 -1230 0
-7 -1119 1229 1230 0
-7 -1120 1229 1230 0
-8 -1119 1229 1230 0
-8 -1120 1229 1230 0
503 504 647 648 -1027 0
503 504 647 648 -1028 0
503 504 -647 1027 1028 0
503 504 -648 1027 1028 0
-503 647 648 1027 1028 0
-504 647 648 1027 1028 0
-503 -647 -1027 0
-503 -647 -1028 0
-503 -648 -1027 0
-503 -648 -1028 0
-504 -647 -1027 0
-504 -647 -1028 0
-504 -648 -1027 0
-504 -648 -1028 0
427 428 603 604 -1107 0
427 428 603 604 -1108 0
427 428 -603 1107 1108 0
427 428 -604 1107 1108 0
-427 603 604 1107 1108 0
-428 603 604 1107 1108 0
-427 -603 -1107 0
-427 -603 -1108 0
-427 -604 -1107 0
-427 -604 -1108 0
-428 -603 -1107 0
-428 -603 -1108 0
-428 -604 -1107 0
-428 -604 -1108 0
655 656 763 764 -957 0
655 656 763 764 -958 0
655 656 -763 957 958 0
655 656 -764 957 958 0
-655 763 764 957 958 0
-656 763 764 957 958 0
-655 -763 -957 0
-655 -763 -958 0
-655 -764 -957 0
-655 -764 -958 0
-656 -763 -957 0
-656 -763 -958 0
-656 -764 -957 0
-656 -764 -958 0
43 44 129 130 677 678 0
43 44 -129 -677 0
43 44 -129 -678 0
43 44 -130 -677 0
43 44 -130 -678 0
-43 129 130 -677 0
-43 129 130 -678 0
-44 129 130 -677 0
-44 129 130 -678 0
-43 -129 677 678 0
-43 -130 677 678 0
-44 -129 677 678 0
-44 -130 677 678 0
23 24 1013 1014 -1249 0
23 24 1013 1014 -1250 0
23 24 -1013 1249 1250 0
23 24 -1014 1249 1250 0
-23 1013 1014 1249 1250 0
-24 1013 1014 1249 1250 0
-23 -1013 -1249 0
-23 -1013 -1250 0
-23 -1014 -1249 0
-23 -1014 -1250 0
-24 -1013 -1249 0
-24 -1013 -1250 0
-24 -1014 -1249 0
-24 -1014 -1250 0
107 108 505 506 589 590 0
107 108 -505 -589 0
107 108 -505 -590 0
107 108 -506 -589 0
107 108 -506 -590 0
-107 505 506 -589 0
-107 505 506 -590 0
-108 505 506 -589 0
-108 505 506 -590 0
-107 -505 589 590 0
-107 -506 589 590 0
-108 -505 589 590 0
-108 -506 589 590 0
75 76 911 912 1279 1280 0
75 76 -911 -1279 0
75 76 -911 -1280 0
75 76 -912 -1279 0
75 76 -912 -1280 0
-75 911 912 -1279 0
-75 911 912 -1280 0
-76 911 912 -1279 0
-76 911 912 -1280 0
-75 -911 1279 1280 0
-75 -912 1279 1280 0
-76 -911 1279 1280 0
-76 -912 1279 1280 0
347 348 595 596 785 786 0
347 348 -595 -785 0
347 348 -595 -786 0
347 348 -596 -785 0
347 348 -596 -786 0
-347 595 596 -785 0
-347 595 596 -786 0
-348 595 596 -785 0
-348 595 596 -786 0
-347 -595 785 786 0
-347 -596 785 786 0
-348 -595 785 786 0
-348 -596 785 786 0
643 644 649 650 1051 1052 0
643 644 -649 -1051 0
643 644 -649 -1052 0
643 644 -650 -1051 0
643 644 -650 -1052 0
-643 649 650 -1051 0
-643 649 650 -1052 0
-644 649 650 -1051 0
-644 649 650 -1052 0
-643 -649 1051 1052 0
-643 -650 1051 1052 0
-644 -649 1051 1052 0
-644 -650 1051 1052 0
581 582 721 722 -1239 0
581 582 721 722 -1240 0
581 582 -721 1239 1240 0
581 582 -722 1239 1240 0
-581 721 722 1239 1240 0
-582 721 722 1239 1240 0
-581 -721 -1239 0
-581 -721 -1240 0
-581 -722 -1239 0
-581 -722 -1240 0
-582 -721 -1239 0
-582 -721 -1240 0
-582 -722 -1239 0
-582 -722 -1240 0
131 132 483 484 -1043 0
131 132 483 484 -1044 0
131 132 -483 1043 1044 0
131 132 -484 1043 1044 0
-131 483 484 1043 1044 0
-132 483 484 1043 1044 0
-131 -483 -1043 0
-131 -483 -1044 0
-131 -484 -1043 0
-131 -484 -1044 0
-132 -483 -1043 0
-132 -483 -1044 0
-132 -484 -1043 0
-132 -484 -1044 0
319 320 539 540 -939 0
319 320 539 540 -940 0
319 320 -539 939 940 0
319 320 -540 939 940 0
-319 539 540 939 940 0
-320 539 540 939 940 0
-319 -539 -939 0
-319 -539 -940 0
-319 -540 -939 0
-319 -540 -940 0
-320 -539 -939 0
-320 -539 -940 0
-320 -540 -939 0
-320 -540 -940 0
237 238 287 288 881 882 0
237 238 -287 -881 0
237 238 -287 -882 0
237 238 -288 -881 0
237 238 -288 -882 0
-237 287 288 -881 0
-237 287 288 -882 0
-238 287 288 -881 0
-238 287 288 -882 0
-237 -287 881 882 0
-237 -288 881 882 0
-238 -287 881 882 0
-238 -288 881 882 0
153 154 823 824 -995 0
153 154 823 824 -996 0
153 154 -823 995 996 0
153 154 -824 995 996 0
-153 823 824 995 996 0
-154 823 824 995 996 0
-153 -823 -995 0
-153 -823 -996 0
-153 -824 -995 0
-153 -824 -996 0
-154 -823 -995 0
-154 -823 -996 0
-154 -824 -995 0
-154 -824 -996 0
727 728 869 870 1111 1112 0
727 728 -869 -1111 0
727 728 -869 -1112 0
727 728 -870 -1111 0
727 728 -870 -1112 0
-727 869 870 -1111 0
-727 869 870 -1112 0
-728 869 870 -1111 0
-728 869 870 -1112 0
-727 -869 1111 1112 0
-727 -870 1111 1112 0
-728 -869 1111 1112 0
-728 -870 1111 1112 0
111 112 377 378 -517 0
111 112 377 378 -518 0
111 112 -377 517 518 0
111 112 -378 517 518 0
-111 377 378 517 518 0
-112 377 378 517 518 0
-111 -377 -517 0
-111 -377 -518 0
-111 -378 -517 0
-111 -378 -518 0
-112 -377 -517 0
-112 -377 -518 0
-112 -378 -517 0
-112 -378 -518 0
71 72 293 294 1039 1040 0
71 72 -293 -1039 0
71 72 -293 -1040 0
71 72 -294 -1039 0
71 72 -294 -1040 0
-71 293 294 -1039 0
-71 293 294 -1040 0
-72 293 294 -1039 0
-72 293 294 -1040 0
-71 -293 1039 1040 0
-71 -294 1039 1040 0
-72 -293 1039 1040 0
-72 -294 1039 1040 0
107 108 303 304 991 992 0
107 108 -303 -991 0
107 108 -303 -992 0
107 108 -304 -991 0
107 108 -304 -992 0
-107 303 304 -991 0
-107 303 304 -992 0
-108 303 304 -991 0
-108 303 304 -992 0
-107 -303 991 992 0
-107 -304 991 992 0
-108 -303 991 992 0
-108 -304 991 992 0
185 186 311 312 597 598 0
185 186 -311 -597 0
185 186 -311 -598 0
185 186 -312 -597 0
185 186 -312 -598 0
-185 311 312 -597 0
-185 311 312 -598 0
-186 311 312 -597 0
-186 311 312 -598 0
-185 -311 597 598 0
-185 -312 597 598 0
-186 -311 597 598 0
-186 -312 597 598 0
197 198 609 610 1263 1264 0
197 198 -609 -1263 0
197 198 -609 -1264 0
197 198 -610 -1263 0
197 198 -610 -1264 0
-197 609 610 -1263 0
-197 609 610 -1264 0
-198 609 610 -1263 0
-198 609 610 -1264 0
-197 -609 1263 1264 0
-197 -610 1263 1264 0
-198 -609 1263 1264 0
-198 -610 1263 1264 0
69 70 571 572 1059 1060 0
69 70 -571 -1059 0
69 70 -571 -1060 0
69 70 -572 -1059 0
69 70 -572 -1060 0
-69 571 572 -1059 0
-69 571 572 -1060 0
-70 571 572 -1059 0
-70 571 572 -1060 0
-69 -571 1059 1060 0
-69 -572 1059 1060 0
-70 -571 1059 1060 0
-70 -572 1059 1060 0
243 244 915 916 959 960 0
243 244 -915 -959 0
243 244 -915 -960 0
243 244 -916 -959 0
243 244 -916 -960 0
-243 915 916 -959 0
-243 915 916 -960 0
-244 915 916 -959 0
-244 915 916 -960 0
-243 -915 959 960 0
-243 -916 959 960 0
-244 -915 959 960 0
-244 -916 959 960 0
161 162 731 732 -871 0
161 162 731 732 -872 0
161 162 -731 871 872 0
161 162 -732 871 872 0
-161 731 732 871 872 0
-162 731 732 871 872 0
-161 -731 -871 0
-161 -731 -872 0
-161 -732 -871 0
-161 -732 -872 0
-162 -731 -871 0
-162 -731 -872 0
-162 -732 -871 0
-162 -732 -872 0
99 100 1057 1058 -1231 0
99 100 1057 1058 -1232 0
99 100 -1057 1231 1232 0
99 100 -1058 1231 1232 0
-99 1057 1058 1231 1232 0
-100 1057 1058 1231 1232 0
-99 -1057 -1231 0
-99 -1057 -1232 0
-99 -1058 -1231 0
-99 -1058 -1232 0
-100 -1057 -1231 0
-100 -1057 -1232 0
-100 -1058 -1231 0
-100 -1058 -1232 0
289 290 423 424 -1065 0
289 290 423 424 -1066 0
289 290 -423 1065 1066 0
289 290 -424 1065 1066 0
-289 423 424 1065 1066 0
-290 423 424 1065 1066 0
-289 -423 -1065 0
-289 -423 -1066 0
-289 -424 -1065 0
-289 -424 -1066 0
-290 -423 -1065 0
-290 -423 -1066 0
-290 -424 -1065 0
-290 -424 -1066 0
219 220 489 490 -995 0
219 220 489 490 -996 0
219 220 -489 995 996 0
219 220 -490 995 996 0
-219 489 490 995 996 0
-220 489 490 995 996 0
-219 -489 -995 0
-219 -489 -996 0
-219 -490 -995 0
-219 -490 -996 0
-220 -489 -995 0
-220 -489 -996 0
-220 -490 -995 0
-220 -490 -996 0
79 80 213 214 297 298 0
79 80 -213 -297 0
79 80 -213 -298 0
79 80 -214 -297 0
79 80 -214 -298 0
-79 213 214 -297 0
-79 213 214 -298 0
-80 213 214 -297 0
-80 213 214 -298 0
-79 -213 297 298 0
-79 -214 297 298 0
-80 -213 297 298 0
-80 -214 297 298 0
277 278 307 308 -923 0
277 278 307 308 -924 0
277 278 -307 923 924 0
277 278 -308 923 924 0
-277 307 308 923 924 0
-278 307 308 923 924 0
-277 -307 -923 0
-277 -307 -924 0
-277 -308 -923 0
-277 -308 -924 0
-278 -307 -923 0
-278 -307 -924 0
-278 -308 -923 0
-278 -308 -924 0
41 42 551 552 1049 1050 0
41 42 -551 -1049 0
41 42 -551 -1050 0
41 42 -552 -1049 0
41 42 -552 -1050 0
-41 551 552 -1049 0
-41 551 552 -1050 0
-42 551 552 -1049 0
-42 551 552 -1050 0
-41 -551 1049 1050 0
-41 -552 1049 1050 0
-42 -551 1049 1050 0
-42 -552 1049 1050 0
843 844 989 990 1089 1090 0
843 844 -989 -1089 0
843 844 -989 -1090 0
843 844 -990 -1089 0
843 844 -990 -1090 0
-843 989 990 -1089 0
-843 989 990 -1090 0
-844 989 990 -1089 0
-844 989 990 -1090 0
-843 -989 1089 1090 0
-843 -990 1089 1090 0
-844 -989 1089 1090 0
-844 -990 1089 1090 0
79 80 597 598 -1071 0
79 80 597 598 -1072 0
79 80 -597 1071 1072 0
79 80 -598 1071 1072 0
-79 597 598 1071 1072 0
-80 597 598 1071 1072 0
-79 -597 -1071 0
-79 -597 -1072 0
-79 -598 -1071 0
-79 -598 -1072 0
-80 -597 -1071 0
-80 -597 -1072 0
-80 -598 -1071 0
-80 -598 -1072 0
379 380 663 664 677 678 0
379 380 -663 -677 0
379 380 -663 -678 0
379 380 -664 -677 0
379 380 -664 -678 0
-379 663 664 -677 0
-379 663 664 -678 0
-380 663 664 -677 0
-380 663 664 -678 0
-379 -663 677 678 0
-379 -664 677 678 0
-380 -663 677 678 0
-380 -664 677 678 0
133 134 171 172 -511 0
133 134 171 172 -512 0
133 134 -171 511 512 0
133 134 -172 511 512 0
-133 171 172 511 512 0
-134 171 172 511 512 0
-133 -171 -511 0
-133 -171 -512 0
-133 -172 -511 0
-133 -172 -512 0
-134 -171 -511 0
-134 -171 -512 0
-134 -172 -511 0
-134 -172 -512 0
65 66 277 278 777 778 0
65 66 -277 -777 0
65 66 -277 -778 0
65 66 -278 -777 0
65 66 -278 -778 0
-65 277 278 -777 0
-65 277 278 -778 0
-66 277 278 -777 0
-66 277 278 -778 0
-65 -277 777 778 0
-65 -278 777 778 0
-66 -277 777 778 0
-66 -278 777 778 0
81 82 251 252 659 660 0
81 82 -251 -659 0
81 82 -251 -660 0
81 82 -252 -659 0
81 82 -252 -660 0
-81 251 252 -659 0
-81 251 252 -660 0
-82 251 252 -659 0
-82 251 252 -660 0
-81 -251 659 660 0
-81 -252 659 660 0
-82 -251 659 660 0
-82 -252 659 660 0
235 236 1225 1226 1249 1250 0
235 236 -1225 -1249 0
235 236 -1225 -1250 0
235 236 -1226 -1249 0
235 236 -1226 -1250 0
-235 1225 1226 -1249 0
-235 1225 1226 -1250 0
-236 1225 1226 -1249 0
-236 1225 1226 -1250 0
-235 -1225 1249 1250 0
-235 -1226 1249 1250 0
-236 -1225 1249 1250 0
-236 -1226 1249 1250 0
167 168 205 206 -907 0
167 168 205 206 -908 0
167 168 -205 907 908 0
167 168 -206 907 908 0
-167 205 206 907 908 0
-168 205 206 907 908 0
-167 -205 -907 0
-167 -205 -908 0
-167 -206 -907 0
-167 -206 -908 0
-168 -205 -907 0
-168 -205 -908 0
-168 -206 -907 0
-168 -206 -908 0
1 2 249 250 707 708 0
1 2 -249 -707 0
1 2 -249 -708 0
1 2 -250 -707 0
1 2 -250 -708 0
-1 249 250 -707 0
-1 249 250 -708 0
-2 249 250 -707 0
-2 249 250 -708 0
-1 -249 707 708 0
-1 -250 707 708 0
-2 -249 707 708 0
-2 -250 707 708 0
571 572 1233 1234 1253 1254 0
571 572 -1233 -1253 0
571 572 -1233 -1254 0
571 572 -1234 -1253 0
571 572 -1234 -1254 0
-571 1233 1234 -1253 0
-571 1233 1234 -1254 0
-572 1233 1234 -1253 0
-572 1233 1234 -1254 0
-571 -1233 1253 1254 0
-571 -1234 1253 1254 0
-572 -1233 1253 1254 0
-572 -1234 1253 1254 0
201 202 993 994 1023 1024 0
201 202 -993 -1023 0
201 202 -993 -1024 0
201 202 -994 -1023 0
201 202 -994 -1024 0
-201 993 994 -1023 0
-201 993 994 -1024 0
-202 993 994 -1023 0
-202 993 994 -1024 0
-201 -993 1023 1024 0
-201 -994 1023 1024 0
-202 -993 1023 1024 0
-202 -994 1023 1024 0
45 46 1113 1114 -1273 0
45 46 1113 1114 -1274 0
45 46 -1113 1273 1274 0
45 46 -1114 1273 1274 0
-45 1113 1114 1273 1274 0
-46 1113 1114 1273 1274 0
-45 -1113 -1273 0
-45 -1113 -1274 0
-45 -1114 -1273 0
-45 -1114 -1274 0
-46 -1113 -1273 0
-46 -1113 -1274 0
-46 -1114 -1273 0
-46 -1114 -1274 0
79 80 289 290 -727 0
79 80 289 290 -728 0
79 80 -289 727 728 0
79 80 -290 727 728 0
-79 289 290 727 728 0
-80 289 290 727 728 0
-79 -289 -727 0
-79 -289 -728 0
-79 -290 -727 0
-79 -290 -728 0
-80 -289 -727 0
-80 -289 -728 0
-80 -290 -727 0
-80 -290 -728 0
391 392 717 718 -1229 0
391 392 717 718 -1230 0
391 392 -717 1229 1230 0
391 392 -718 1229 1230 0
-391 717 718 1229 1230 0
-392 717 718 1229 1230 0
-391 -717 -1229 0
-391 -717 -1230 0
-391 -718 -1229 0
-391 -718 -1230 0
-392 -717 -1229 0
-392 -717 -1230 0
-392 -718 -1229 0
-392 -718 -1230 0
193 194 299 300 519 520 0
193 194 -299 -519 0
193 194 -299 -520 0
193 194 -300 -519 0
193 194 -300 -520 0
-193 299 300 -519 0
-193 299 300 -520 0
-194 299 300 -519 0
-194 299 300 -520 0
-193 -299 519 520 0
-193 -300 519 520 0
-194 -299 519 520 0
-194 -300 519 520 0
381 382 599 600 755 756 0
381 382 -599 -755 0
381 382 -599 -756 0
381 382 -600 -755 0
381 382 -600 -756 0
-381 599 600 -755 0
-381 599 600 -756 0
-382 599 600 -755 0
-382 599 600 -756 0
-381 -599 755 756 0
-381 -600 755 756 0
-382 -599 755 756 0
-382 -600 755 756 0
325 326 431 432 761 762 0
325 326 -431 -761 0
325 326 -431 -762 0
325 326 -432 -761 0
325 326 -432 -762 0
-325 431 432 -761 0
-325 431 432 -762 0
-326 431 432 -761 0
-326 431 432 -762 0
-325 -431 761 762 0
-325 -432 761 762 0
-326 -431 761 762 0
-326 -432 761 762 0
445 446 525 526 829 830 0
445 446 -525 -829 0
445 446 -525 -830 0
445 446 -526 -829 0
445 446 -526 -830 0
-445 525 526 -829 0
-445 525 526 -830 0
-446 525 526 -829 0
-446 525 526 -830 0
-445 -525 829 830 0
-445 -526 829 830 0
-446 -525 829 830 0
-446 -526 829 830 0
277 278 915 916 -1145 0
277 278 915 916 -1146 0
277 278 -915 1145 1146 0
277 278 -916 1145 1146 0
-277 915 916 1145 1146 0
-278 915 916 1145 1146 0
-277 -915 -1145 0
-277 -915 -1146 0
-277 -916 -1145 0
-277 -916 -1146 0
-278 -915 -1145 0
-278 -915 -1146 0
-278 -916 -1145 0
-278 -916 -1146 0
255 256 781 782 815 816 0
255 256 -781 -815 0
255 256 -781 -816 0
255 256 -782 -815 0
255 256 -782 -816 0
-255 781 782 -815 0
-255 781 782 -816 0
-256 781 782 -815 0
-256 781 782 -816 0
-255 -781 815 816 0
-255 -782 815 816 0
-256 -781 815 816 0
-256 -782 815 816 0
157 158 641 642 1113 1114 0
157 158 -641 -1113 0
157 158 -641 -1114 0
157 158 -642 -1113 0
157 158 -642 -1114 0
-157 641 642 -1113 0
-157 641 642 -1114 0
-158 641 642 -1113 0
-158 641 642 -1114 0
-157 -641 1113 1114 0
-157 -642 1113 1114 0
-158 -641 1113 1114 0
-158 -642 1113 1114 0
15 16 229 230 -811 0
15 16 229 230 -812 0
15 16 -229 811 812 0
15 16 -230 811 812 0
-15 229 230 811 812 0
-16 229 230 811 812 0
-15 -229 -811 0
-15 -229 -812 0
-15 -230 -811 0
-15 -230 -812 0
-16 -229 -811 0
-16 -229 -812 0
-16 -230 -811 0
-16 -230 -812 0
393 394 433 434 -561 0
393 394 433 434 -562 0
393 394 -433 561 562 0
393 394 -434 561 562 0
-393 433 434 561 562 0
-394 433 434 561 562 0
-393 -433 -561 0
-393 -433 -562 0
-393 -434 -561 0
-393 -434 -562 0
-394 -433 -561 0
-394 -433 -562 0
-394 -434 -561 0
-394 -434 -562 0
879 880 1027 1028 -1083 0
879 880 1027 1028 -1084 0
879 880 -1027 1083 1084 0
879 880 -1028 1083 1084 0
-879 1027 1028 1083 1084 0
-880 1027 1028 1083 1084 0
-879 -1027 -1083 0
-879 -1027 -1084 0
-879 -1028 -1083 0
-879 -1028 -1084 0
-880 -1027 -1083 0
-880 -1027 -1084 0
-880 -1028 -1083 0
-880 -1028 -1084 0
329 330 427 428 913 914 0
329 330 -427 -913 0
329 330 -427 -914 0
329 330 -428 -913 0
329 330 -428 -914 0
-329 427 428 -913 0
-329 427 428 -914 0
-330 427 428 -913 0
-330 427 428 -914 0
-329 -427 913 914 0
-329 -428 913 914 0
-330 -427 913 914 0
-330 -428 913 914 0
15 16 319 320 1249 1250 0
15 16 -319 -1249 0
15 16 -319 -1250 0
15 16 -320 -1249 0
15 16 -320 -1250 0
-15 319 320 -1249 0
-15 319 320 -1250 0
-16 319 320 -1249 0
-16 319 320 -1250 0
-15 -319 1249 1250 0
-15 -320 1249 1250 0
-16 -319 1249 1250 0
-16 -320 1249 1250 0
353 354 771 772 1065 1066 0
353 354 -771 -1065 0
353 354 -771 -1066 0
353 354 -772 -1065 0
353 354 -772 -1066 0
-353 771 772 -1065 0
-353 771 772 -1066 0
-354 771 772 -1065 0
-354 771 772 -1066 0
-353 -771 1065 1066 0
-353 -772 1065 1066 0
-354 -771 1065 1066 0
-354 -772 1065 1066 0
783 784 931 932 1013 1014 0
783 784 -931 -1013 0
783 784 -931 -1014 0
783 784 -932 -1013 0
783 784 -932 -1014 0
-783 931 932 -1013 0
-783 931 932 -1014 0
-784 931 932 -1013 0
-784 931 932 -1014 0
-783 -931 1013 1014 0
-783 -932 1013 1014 0
-784 -931 1013 1014 0
-784 -932 1013 1014 0
989 990 1189 1190 1245 1246 0
989 990 -1189 -1245 0
989 990 -1189 -1246 0
989 990 -1190 -1245 0
989 990 -1190 -1246 0
-989 1189 1190 -1245 0
-989 1189 1190 -1246 0
-990 1189 1190 -1245 0
-990 1189 1190 -1246 0
-989 -1189 1245 1246 0
-989 -1190 1245 1246 0
-990 -1189 1245 1246 0
-990 -1190 1245 1246 0
503 504 557 558 -1065 0
503 504 557 558 -1066 0
503 504 -557 1065 1066 0
503 504 -558 1065 1066 0
-503 557 558 1065 1066 0
-504 557 558 1065 1066 0
-503 -557 -1065 0
-503 -557 -1066 0
-503 -558 -1065 0
-503 -558 -1066 0
-504 -557 -1065 0
-504 -557 -1066 0
-504 -558 -1065 0
-504 -558 -1066 0
41 42 315 316 -1127 0
41 42 315 316 -1128 0
41 42 -315 1127 1128 0
41 42 -316 1127 1128 0
-41 315 316 1127 1128 0
-42 315 316 1127 1128 0
-41 -315 -1127 0
-41 -315 -1128 0
-41 -316 -1127 0
-41 -316 -1128 0
-42 -315 -1127 0
-42 -315 -1128 0
-42 -316 -1127 0
-42 -316 -1128 0
481 482 541 542 1137 1138 0
481 482 -541 -1137 0
481 482 -541 -1138 0
481 482 -542 -1137 0
481 482 -542 -1138 0
-481 541 542 -1137 0
-481 541 542 -1138 0
-482 541 542 -1137 0
-482 541 542 -1138 0
-481 -541 1137 1138 0
-481 -542 1137 1138 0
-482 -541 1137 1138 0
-482 -542 1137 1138 0
21 22 103 104 149 150 0
21 22 -103 -149 0
21 22 -103 -150 0
21 22 -104 -149 0
21 22 -104 -150 0
-21 103 104 -149 0
-21 103 104 -150 0
-22 103 104 -149 0
-22 103 104 -150 0
-21 -103 149 150 0
-21 -104 149 150 0
-22 -103 149 150 0
-22 -104 149 150 0
59 60 613 614 1197 1198 0
59 60 -613 -1197 0
59 60 -613 -1198 0
59 60 -614 -1197 0
59 60 -614 -1198 0
-59 613 614 -1197 0
-59 613 614 -1198 0
-60 613 614 -1197 0
-60 613 614 -1198 0
-59 -613 1197 1198 0
-59 -614 1197 1198 0
-60 -613 1197 1198 0
-60 -614 1197 1198 0
495 496 1177 1178 1201 1202 0
495 496 -1177 -1201 0
495 496 -1177 -1202 0
495 496 -1178 -1201 0
495 496 -1178 -1202 0
-495 1177 1178 -1201 0
-495 1177 1178 -1202 0
-496 1177 1178 -1201 0
-496 1177 1178 -1202 0
-495 -1177 1201 1202 0
-495 -1178 1201 1202 0
-496 -1177 1201 1202 0
-496 -1178 1201 1202 0
15 16 311 312 -1029 0
15 16 311 312 -1030 0
15 16 -311 1029 1030 0
15 16 -312 1029 1030 0
-15 311 312 1029 1030 0
-16 311 312 1029 1030 0
-15 -311 -1029 0
-15 -311 -1030 0
-15 -312 -1029 0
-15 -312 -1030 0
-16 -311 -1029 0
-16 -311 -1030 0
-16 -312 -1029 0
-16 -312 -1030 0
143 144 649 650 -873 0
143 144 649 650 -874 0
143 144 -649 873 874 0
143 144 -650 873 874 0
-143 649 650 873 874 0
-144 649 650 873 874 0
-143 -649 -873 0
-143 -649 -874 0
-143 -650 -873 0
-143 -650 -874 0
-144 -649 -873 0
-144 -649 -874 0
-144 -650 -873 0
-144 -650 -874 0
7 8 643 644 673 674 0
7 8 -643 -673 0
7 8 -643 -674 0
7 8 -644 -673 0
7 8 -644 -674 0
-7 643 644 -673 0
-7 643 644 -674 0
-8 643 644 -673 0
-8 643 644 -674 0
-7 -643 673 674 0
-7 -644 673 674 0
-8 -643 673 674 0
-8 -644 673 674 0
323 324 705 706 1099 1100 0
323 324 -705 -1099 0
323 324 -705 -1100 0
323 324 -706 -1099 0
323 324 -706 -1100 0
-323 705 706 -1099 0
-323 705 706 -1100 0
-324 705 706 -1099 0
-324 705 706 -1100 0
-323 -705 1099 1100 0
-323 -706 1099 1100 0
-324 -705 1099 1100 0
-324 -706 1099 1100 0
1011 1012 1193 1194 -1203 0
1011 1012 1193 1194 -1204 0
1011 1012 -1193 1203 1204 0
1011 1012 -1194 1203 1204 0
-1011 1193 1194 1203 1204 0
-1012 1193 1194 1203 1204 0
-1011 -1193 -1203 0
-1011 -1193 -1204 0
-1011 -1194 -1203 0
-1011 -1194 -1204 0
-1012 -1193 -1203 0
-1012 -1193 -1204 0
-1012 -1194 -1203 0
-1012 -1194 -1204 0
103 104 797 798 -1227 0
103 104 797 798 -1228 0
103 104 -797 1227 1228 0
103 104 -798 1227 1228 0
-103 797 798 1227 1228 0
-104 797 798 1227 1228 0
-103 -797 -1227 0
-103 -797 -1228 0
-103 -798 -1227 0
-103 -798 -1228 0
-104 -797 -1227 0
-104 -797 -1228 0
-104 -798 -1227 0
-104 -798 -1228 0
437 438 711 712 1183 1184 0
437 438 -711 -1183 0
437 438 -711 -1184 0
437 438 -712 -1183 0
437 438 -712 -1184 0
-437 711 712 -1183 0
-437 711 712 -1184 0
-438 711 712 -1183 0
-438 711 712 -1184 0
-437 -711 1183 1184 0
-437 -712 1183 1184 0
-438 -711 1183 1184 0
-438 -712 1183 1184 0
577 578 671 672 -683 0
577 578 671 672 -684 0
577 578 -671 683 684 0
577 578 -672 683 684 0
-577 671 672 683 684 0
-578 671 672 683 684 0
-577 -671 -683 0
-577 -671 -684 0
-577 -672 -683 0
-577 -672 -684 0
-578 -671 -683 0
-578 -671 -684 0
-578 -672 -683 0
-578 -672 -684 0
177 178 783 784 -1141 0
177 178 783 784 -1142 0
177 178 -783 1141 1142 0
177 178 -784 1141 1142 0
-177 783 784 1141 1142 0
-178 783 784 1141 1142 0
-177 -783 -1141 0
-177 -783 -1142 0
-177 -784 -1141 0
-177 -784 -1142 0
-178 -783 -1141 0
-178 -783 -1142 0
-178 -784 -1141 0
-178 -784 -1142 0
45 46 519 520 743 744 0
45 46 -519 -743 0
45 46 -519 -744 0
45 46 -520 -743 0
45 46 -520 -744 0
-45 519 520 -743 0
-45 519 520 -744 0
-46 519 520 -743 0
-46 519 520 -744 0
-45 -519 743 744 0
-45 -520 743 744 0
-46 -519 743 744 0
-46 -520 743 744 0
285 286 917 918 1071 1072 0
285 286 -917 -1071 0
285 286 -917 -1072 0
285 286 -918 -1071 0
285 286 -918 -1072 0
-285 917 918 -1071 0
-285 917 918 -1072 0
-286 917 918 -1071 0
-286 917 918 -1072 0
-285 -917 1071 1072 0
-285 -918 1071 1072 0
-286 -917 1071 1072 0
-286 -918 1071 1072 0
39 40 599 600 -1165 0
39 40 599 600 -1166 0
39 40 -599 1165 1166 0
39 40 -600 1165 1166 0
-39 599 600 1165 1166 0
-40 599 600 1165 1166 0
-39 -599 -1165 0
-39 -599 -1166 0
-39 -600 -1165 0
-39 -600 -1166 0
-40 -599 -1165 0
-40 -599 -1166 0
-40 -600 -1165 0
-40 -600 -1166 0
953 954 1001 1002 1115 1116 0
953 954 -1001 -1115 0
953 954 -1001 -1116 0
953 954 -1002 -1115 0
953 954 -1002 -1116 0
-953 1001 1002 -1115 0
-953 1001 1002 -1116 0
-954 1001 1002 -1115 0
-954 1001 1002 -1116 0
-953 -1001 1115 1116 0
-953 -1002 1115 1116 0
-954 -1001 1115 1116 0
-954 -1002 1115 1116 0
7 8 55 56 211 212 0
7 8 -55 -211 0
7 8 -55 -212 0
7 8 -56 -211 0
7 8 -56 -212 0
-7 55 56 -211 0
-7 55 56 -212 0
-8 55 56 -211 0
-8 55 56 -212 0
-7 -55 211 212 0
-7 -56 211 212 0
-8 -55 211 212 0
-8 -56 211 212 0
169 170 447 448 1121 1122 0
169 170 -447 -1121 0
169 170 -447 -1122 0
169 170 -448 -1121 0
169 170 -448 -1122 0
-169 447 448 -1121 0
-169 447 448 -1122 0
-170 447 448 -1121 0
-170 447 448 -1122 0
-169 -447 1121 1122 0
-169 -448 1121 1122 0
-170 -447 1121 1122 0
-170 -448 1121 1122 0
471 472 707 708 1109 1110 0
471 472 -707 -1109 0
471 472 -707 -1110 0
471 472 -708 -1109 0
471 472 -708 -1110 0
-471 707 708 -1109 0
-471 707 708 -1110 0
-472 707 708 -1109 0
-472 707 708 -1110 0
-471 -707 1109 1110 0
-471 -708 1109 1110 0
-472 -707 1109 1110 0
-472 -708 1109 1110 0
1095 1096 1145 1146 1193 1194 0
1095 1096 -1145 -1193 0
1095 1096 -1145 -1194 0
1095 1096 -1146 -1193 0
1095 1096 -1146 -1194 0
-1095 1145 1146 -1193 0
-1095 1145 1146 -1194 0
-1096 1145 1146 -1193 0
-1096 1145 1146 -1194 0
-1095 -1145 1193 1194 0
-1095 -1146 1193 1194 0
-1096 -1145 1193 1194 0
-1096 -1146 1193 1194 0
499 500 977 978 -1095 0
499 500 977 978 -1096 0
499 500 -977 1095 1096 0
499 500 -978 1095 1096 0
-499 977 978 1095 1096 0
-500 977 978 1095 1096 0
-499 -977 -1095 0
-499 -977 -1096 0
-499 -978 -1095 0
-499 -978 -1096 0
-500 -977 -1095 0
-500 -977 -1096 0
-500 -978 -1095 0
-500 -978 -1096 0
223 224 455 456 1153 1154 0
223 224 -455 -1153 0
223 224 -455 -1154 0
223 224 -456 -1153 0
223 224 -456 -1154 0
-223 455 456 -1153 0
-223 455 456 -1154 0
-224 455 456 -1153 0
-224 455 456 -1154 0
-223 -455 1153 1154 0
-223 -456 1153 1154 0
-224 -455 1153 1154 0
-224 -456 1153 1154 0
209 210 459 460 1097 1098 0
209 210 -459 -1097 0
209 210 -459 -1098 0
209 210 -460 -1097 0
209 210 -460 -1098 0
-209 459 460 -1097 0
-209 459 460 -1098 0
-210 459 460 -1097 0
-210 459 460 -1098 0
-209 -459 1097 1098 0
-209 -460 1097 1098 0
-210 -459 1097 1098 0
-210 -460 1097 1098 0
69 70 423 424 -701 0
69 70 423 424 -702 0
69 70 -423 701 702 0
69 70 -424 701 702 0
-69 423 424 701 702 0
-70 423 424 701 702 0
-69 -423 -701 0
-69 -423 -702 0
-69 -424 -701 0
-69 -424 -702 0
-70 -423 -701 0
-70 -423 -702 0
-70 -424 -701 0
-70 -424 -702 0
793 794 799 800 -967 0
793 794 799 800 -968 0
793 794 -799 967 968 0
793 794 -800 967 968 0
-793 799 800 967 968 0
-794 799 800 967 968 0
-793 -799 -967 0
-793 -799 -968 0
-793 -800 -967 0
-793 -800 -968 0
-794 -799 -967 0
-794 -799 -968 0
-794 -800 -967 0
-794 -800 -968 0
119 120 677 678 -941 0
119 120 677 678 -942 0
119 120 -677 941 942 0
119 120 -678 941 942 0
-119 677 678 941 942 0
-120 677 678 941 942 0
-119 -677 -941 0
-119 -677 -942 0
-119 -678 -941 0
-119 -678 -942 0
-120 -677 -941 0
-120 -677 -942 0
-120 -678 -941 0
-120 -678 -942 0
321 322 431 432 -509 0
321 322 431 432 -510 0
321 322 -431 509 510 0
321 322 -432 509 510 0
-321 431 432 509 510 0
-322 431 432 509 510 0
-321 -431 -509 0
-321 -431 -510 0
-321 -432 -509 0
-321 -432 -510 0
-322 -431 -509 0
-322 -431 -510 0
-322 -432 -509 0
-322 -432 -510 0
275 276 705 706 -815 0
275 276 705 706 -816 0
275 276 -705 815 816 0
275 276 -706 815 816 0
-275 705 706 815 816 0
-276 705 706 815 816 0
-275 -705 -815 0
-275 -705 -816 0
-275 -706 -815 0
-275 -706 -816 0
-276 -705 -815 0
-276 -705 -816 0
-276 -706 -815 0
-276 -706 -816 0
79 80 211 212 1089 1090 0
79 80 -211 -1089 0
79 80 -211 -1090 0
79 80 -212 -1089 0
79 80 -212 -1090 0
-79 211 212 -1089 0
-79 211 212 -1090 0
-80 211 212 -1089 0
-80 211 212 -1090 0
-79 -211 1089 1090 0
-79 -212 1089 1090 0
-80 -211 1089 1090 0
-80 -212 1089 1090 0
37 38 61 62 -839 0
37 38 61 62 -840 0
37 38 -61 839 840 0
37 38 -62 839 840 0
-37 61 62 839 840 0
-38 61 62 839 840 0
-37 -61 -839 0
-37 -61 -840 0
-37 -62 -839 0
-37 -62 -840 0
-38 -61 -839 0
-38 -61 -840 0
-38 -62 -839 0
-38 -62 -840 0
37 38 153 154 1115 1116 0
37 38 -153 -1115 0
37 38 -153 -1116 0
37 38 -154 -1115 0
37 38 -154 -1116 0
-37 153 154 -1115 0
-37 153 154 -1116 0
-38 153 154 -1115 0
-38 153 154 -1116 0
-37 -153 1115 1116 0
-37 -154 1115 1116 0
-38 -153 1115 1116 0
-38 -154 1115 1116 0
35 36 257 258 1059 1060 0
35 36 -257 -1059 0
35 36 -257 -1060 0
35 36 -258 -1059 0
35 36 -258 -1060 0
-35 257 258 -1059 0
-35 257 258 -1060 0
-36 257 258 -1059 0
-36 257 258 -1060 0
-35 -257 1059 1060 0
-35 -258 1059 1060 0
-36 -257 1059 1060 0
-36 -258 1059 1060 0
421 422 1027 1028 -1147 0
421 422 1027 1028 -1148 0
421 422 -1027 1147 1148 0
421 422 -1028 1147 1148 0
-421 1027 1028 1147 1148 0
-422 1027 1028 1147 1148 0
-421 -1027 -1147 0
-421 -1027 -1148 0
-421 -1028 -1147 0
-421 -1028 -1148 0
-422 -1027 -1147 0
-422 -1027 -1148 0
-422 -1028 -1147 0
-422 -1028 -1148 0
135 136 487 488 -903 0
135 136 487 488 -904 0
135 136 -487 903 904 0
135 136 -488 903 904 0
-135 487 488 903 904 0
-136 487 488 903 904 0
-135 -487 -903 0
-135 -487 -904 0
-135 -488 -903 0
-135 -488 -904 0
-136 -487 -903 0
-136 -487 -904 0
-136 -488 -903 0
-136 -488 -904 0
713 714 797 798 -857 0
713 714 797 798 -858 0
713 714 -797 857 858 0
713 714 -798 857 858 0
-713 797 798 857 858 0
-714 797 798 857 858 0
-713 -797 -857 0
-713 -797 -858 0
-713 -798 -857 0
-713 -798 -858 0
-714 -797 -857 0
-714 -797 -858 0
-714 -798 -857 0
-714 -798 -858 0
283 284 747 748 -1007 0
283 284 747 748 -1008 0
283 284 -747 1007 1008 0
283 284 -748 1007 1008 0
-283 747 748 1007 1008 0
-284 747 748 1007 1008 0
-283 -747 -1007 0
-283 -747 -1008 0
-283 -748 -1007 0
-283 -748 -1008 0
-284 -747 -1007 0
-284 -747 -1008 0
-284 -748 -1007 0
-284 -748 -1008 0
89 90 179 180 215 216 0
89 90 -179 -215 0
89 90 -179 -216 0
89 90 -180 -215 0
89 90 -180 -216 0
-89 179 180 -215 0
-89 179 180 -216 0
-90 179 180 -215 0
-90 179 180 -216 0
-89 -179 215 216 0
-89 -180 215 216 0
-90 -179 215 216 0
-90 -180 215 216 0
601 602 663 664 1225 1226 0
601 602 -663 -1225 0
601 602 -663 -1226 0
601 602 -664 -1225 0
601 602 -664 -1226 0
-601 663 664 -1225 0
-601 663 664 -1226 0
-602 663 664 -1225 0
-602 663 664 -1226 0
-601 -663 1225 1226 0
-601 -664 1225 1226 0
-602 -663 1225 1226 0
-602 -664 1225 1226 0
289 290 833 834 887 888 0
289 290 -833 -887 0
289 290 -833 -888 0
289 290 -834 -887 0
289 290 -834 -888 0
-289 833 834 -887 0
-289 833 834 -888 0
-290 833 834 -887 0
-290 833 834 -888 0
-289 -833 887 888 0
-289 -834 887 888 0
-290 -833 887 888 0
-290 -834 887 888 0
59 60 387 388 541 542 0
59 60 -387 -541 0
59 60 -387 -542 0
59 60 -388 -541 0
59 60 -388 -542 0
-59 387 388 -541 0
-59 387 388 -542 0
-60 387 388 -541 0
-60 387 388 -542 0
-59 -387 541 542 0
-59 -388 541 542 0
-60 -387 541 542 0
-60 -388 541 542 0
73 74 453 454 -601 0
73 74 453 454 -602 0
73 74 -453 601 602 0
73 74 -454 601 602 0
-73 453 454 601 602 0
-74 453 454 601 602 0
-73 -453 -601 0
-73 -453 -602 0
-73 -454 -601 0
-73 -454 -602 0
-74 -453 -601 0
-74 -453 -602 0
-74 -454 -601 0
-74 -454 -602 0
623 624 655 656 -987 0
623 624 655 656 -988 0
623 624 -655 987 988 0
623 624 -656 987 988 0
-623 655 656 987 988 0
-624 655 656 987 988 0
-623 -655 -987 0
-623 -655 -988 0
-623 -656 -987 0
-623 -656 -988 0
-624 -655 -987 0
-624 -655 -988 0
-624 -656 -987 0
-624 -656 -988 0
625 626 663 664 -1215 0
625 626 663 664 -1216 0
625 626 -663 1215 1216 0
625 626 -664 1215 1216 0
-625 663 664 1215 1216 0
-626 663 664 1215 1216 0
-625 -663 -1215 0
-625 -663 -1216 0
-625 -664 -1215 0
-625 -664 -1216 0
-626 -663 -1215 0
-626 -663 -1216 0
-626 -664 -1215 0
-626 -664 -1216 0
83 84 671 672 -1195 0
83 84 671 672 -1196 0
83 84 -671 1195 1196 0
83 84 -672 1195 1196 0
-83 671 672 1195 1196 0
-84 671 672 1195 1196 0
-83 -671 -1195 0
-83 -671 -1196 0
-83 -672 -1195 0
-83 -672 -1196 0
-84 -671 -1195 0
-84 -671 -1196 0
-84 -672 -1195 0
-84 -672 -1196 0
63 64 939 940 -1129 0
63 64 939 940 -1130 0
63 64 -939 1129 1130 0
63 64 -940 1129 1130 0
-63 939 940 1129 1130 0
-64 939 940 1129 1130 0
-63 -939 -1129 0
-63 -939 -1130 0
-63 -940 -1129 0
-63 -940 -1130 0
-64 -939 -1129 0
-64 -939 -1130 0
-64 -940 -1129 0
-64 -940 -1130 0
27 28 895 896 947 948 0
27 28 -895 -947 0
27 28 -895 -948 0
27 28 -896 -947 0
27 28 -896 -948 0
-27 895 896 -947 0
-27 895 896 -948 0
-28 895 896 -947 0
-28 895 896 -948 0
-27 -895 947 948 0
-27 -896 947 948 0
-28 -895 947 948 0
-28 -896 947 948 0
1043 1044 1115 1116 -1169 0
1043 1044 1115 1116 -1170 0
1043 1044 -1115 1169 1170 0
1043 1044 -1116 1169 1170 0
-1043 1115 1116 1169 1170 0
-1044 1115 1116 1169 1170 0
-1043 -1115 -1169 0
-1043 -1115 -1170 0
-1043 -1116 -1169 0
-1043 -1116 -1170 0
-1044 -1115 -1169 0
-1044 -1115 -1170 0
-1044 -1116 -1169 0
-1044 -1116 -1170 0
69 70 691 692 1279 1280 0
69 70 -691 -1279 0
69 70 -691 -1280 0
69 70 -692 -1279 0
69 70 -692 -1280 0
-69 691 692 -1279 0
-69 691 692 -1280 0
-70 691 692 -1279 0
-70 691 692 -1280 0
-69 -691 1279 1280 0
-69 -692 1279 1280 0
-70 -691 1279 1280 0
-70 -692 1279 1280 0
137 138 319 320 -327 0
137 138 319 320 -328 0
137 138 -319 327 328 0
137 138 -320 327 328 0
-137 319 320 327 328 0
-138 319 320 327 328 0
-137 -319 -327 0
-137 -319 -328 0
-137 -320 -327 0
-137 -320 -328 0
-138 -319 -327 0
-138 -319 -328 0
-138 -320 -327 0
-138 -320 -328 0
409 410 635 636 969 970 0
409 410 -635 -969 0
409 410 -635 -970 0
409 410 -636 -969 0
409 410 -636 -970 0
-409 635 636 -969 0
-409 635 636 -970 0
-410 635 636 -969 0
-410 635 636 -970 0
-409 -635 969 970 0
-409 -636 969 970 0
-410 -635 969 970 0
-410 -636 969 970 0
869 870 1123 1124 1151 1152 0
869 870 -1123 -1151 0
869 870 -1123 -1152 0
869 870 -1124 -1151 0
869 870 -1124 -1152 0
-869 1123 1124 -1151 0
-869 1123 1124 -1152 0
-870 1123 1124 -1151 0
-870 1123 1124 -1152 0
-869 -1123 1151 1152 0
-869 -1124 1151 1152 0
-870 -1123 1151 1152 0
-870 -1124 1151 1152 0
109 110 559 560 -1279 0
109 110 559 560 -1280 0
109 110 -559 1279 1280 0
109 110 -560 1279 1280 0
-109 559 560 1279 1280 0
-110 559 560 1279 1280 0
-109 -559 -1279 0
-109 -559 -1280 0
-109 -560 -1279 0
-109 -560 -1280 0
-110 -559 -1279 0
-110 -559 -1280 0
-110 -560 -1279 0
-110 -560 -1280 0
93 94 509 510 595 596 0
93 94 -509 -595 0
93 94 -509 -596 0
93 94 -510 -595 0
93 94 -510 -596 0
-93 509 510 -595 0
-93 509 510 -596 0
-94 509 510 -595 0
-94 509 510 -596 0
-93 -509 595 596 0
-93 -510 595 596 0
-94 -509 595 596 0
-94 -510 595 596 0
281 282 419 420 507 508 0
281 282 -419 -507 0
281 282 -419 -508 0
281 282 -420 -507 0
281 282 -420 -508 0
-281 419 420 -507 0
-281 419 420 -508 0
-282 419 420 -507 0
-282 419 420 -508 0
-281 -419 507 508 0
-281 -420 507 508 0
-282 -419 507 508 0
-282 -420 507 508 0
93 94 1023 1024 -1125 0
93 94 1023 1024 -1126 0
93 94 -1023 1125 1126 0
93 94 -1024 1125 1126 0
-93 1023 1024 1125 1126 0
-94 1023 1024 1125 1126 0
-93 -1023 -1125 0
-93 -1023 -1126 0
-93 -1024 -1125 0
-93 -1024 -1126 0
-94 -1023 -1125 0
-94 -1023 -1126 0
-94 -1024 -1125 0
-94 -1024 -1126 0
57 58 449 450 1269 1270 0
57 58 -449 -1269 0
57 58 -449 -1270 0
57 58 -450 -1269 0
57 58 -450 -1270 0
-57 449 450 -1269 0
-57 449 450 -1270 0
-58 449 450 -1269 0
-58 449 450 -1270 0
-57 -449 1269 1270 0
-57 -450 1269 1270 0
-58 -449 1269 1270 0
-58 -450 1269 1270 0
361 362 845 846 1129 1130 0
361 362 -845 -1129 0
361 362 -845 -1130 0
361 362 -846 -1129 0
361 362 -846 -1130 0
-361 845 846 -1129 0
-361 845 846 -1130 0
-362 845 846 -1129 0
-362 845 846 -1130 0
-361 -845 1129 1130 0
-361 -846 1129 1130 0
-362 -845 1129 1130 0
-362 -846 1129 1130 0
173 174 649 650 739 740 0
173 174 -649 -739 0
173 174 -649 -740 0
173 174 -650 -739 0
173 174 -650 -740 0
-173 649 650 -739 0
-173 649 650 -740 0
-174 649 650 -739 0
-174 649 650 -740 0
-173 -649 739 740 0
-173 -650 739 740 0
-174 -649 739 740 0
-174 -650 739 740 0
467 468 613 614 995 996 0
467 468 -613 -995 0
467 468 -613 -996 0
467 468 -614 -995 0
467 468 -614 -996 0
-467 613 614 -995 0
-467 613 614 -996 0
-468 613 614 -995 0
-468 613 614 -996 0
-467 -613 995 996 0
-467 -614 995 996 0
-468 -613 995 996 0
-468 -614 995 996 0
53 54 719 720 1111 1112 0
53 54 -719 -1111 0
53 54 -719 -1112 0
53 54 -720 -1111 0
53 54 -720 -1112 0
-53 719 720 -1111 0
-53 719 720 -1112 0
-54 719 720 -1111 0
-54 719 720 -1112 0
-53 -719 1111 1112 0
-53 -720 1111 1112 0
-54 -719 1111 1112 0
-54 -720 1111 1112 0
93 94 747 748 -1243 0
93 94 747 748 -1244 0
93 94 -747 1243 1244 0
93 94 -748 1243 1244 0
-93 747 748 1243 1244 0
-94 747 748 1243 1244 0
-93 -747 -1243 0
-93 -747 -1244 0
-93 -748 -1243 0
-93 -748 -1244 0
-94 -747 -1243 0
-94 -747 -1244 0
-94 -748 -1243 0
-94 -748 -1244 0
115 116 199 200 781 782 0
115 116 -199 -781 0
115 116 -199 -782 0
115 116 -200 -781 0
115 116 -200 -782 0
-115 199 200 -781 0
-115 199 200 -782 0
-116 199 200 -781 0
-116 199 200 -782 0
-115 -199 781 782 0
-115 -200 781 782 0
-116 -199 781 782 0
-116 -200 781 782 0
621 622 729 730 949 950 0
621 622 -729 -949 0
621 622 -729 -950 0
621 622 -730 -949 0
621 622 -730 -950 0
-621 729 730 -949 0
-621 729 730 -950 0
-622 729 730 -949 0
-622 729 730 -950 0
-621 -729 949 950 0
-621 -730 949 950 0
-622 -729 949 950 0
-622 -730 949 950 0
325 326 593 594 -829 0
325 326 593 594 -830 0
325 326 -593 829 830 0
325 326 -594 829 830 0
-325 593 594 829 830 0
-326 593 594 829 830 0
-325 -593 -829 0
-325 -593 -830 0
-325 -594 -829 0
-325 -594 -830 0
-326 -593 -829 0
-326 -593 -830 0
-326 -594 -829 0
-326 -594 -830 0
111 112 473 474 941 942 0
111 112 -473 -941 0
111 112 -473 -942 0
111 112 -474 -941 0
111 112 -474 -942 0
-111 473 474 -941 0
-111 473 474 -942 0
-112 473 474 -941 0
-112 473 474 -942 0
-111 -473 941 942 0
-111 -474 941 942 0
-112 -473 941 942 0
-112 -474 941 942 0
101 102 545 546 681 682 0
101 102 -545 -681 0
101 102 -545 -682 0
101 102 -546 -681 0
101 102 -546 -682 0
-101 545 546 -681 0
-101 545 546 -682 0
-102 545 546 -681 0
-102 545 546 -682 0
-101 -545 681 682 0
-101 -546 681 682 0
-102 -545 681 682 0
-102 -546 681 682 0
163 164 437 438 -1183 0
163 164 437 438 -1184 0
163 164 -437 1183 1184 0
163 164 -438 1183 1184 0
-163 437 438 1183 1184 0
-164 437 438 1183 1184 0
-163 -437 -1183 0
-163 -437 -1184 0
-163 -438 -1183 0
-163 -438 -1184 0
-164 -437 -1183 0
-164 -437 -1184 0
-164 -438 -1183 0
-164 -438 -1184 0
343 344 505 506 -723 0
343 344 505 506 -724 0
343 344 -505 723 724 0
343 344 -506 723 724 0
-343 505 506 723 724 0
-344 505 506 723 724 0
-343 -505 -723 0
-343 -505 -724 0
-343 -506 -723 0
-343 -506 -724 0
-344 -505 -723 0
-344 -505 -724 0
-344 -506 -723 0
-344 -506 -724 0
571 572 1031 1032 -1201 0
571 572 1031 1032 -1202 0
571 572 -1031 1201 1202 0
571 572 -1032 1201 1202 0
-571 1031 1032 1201 1202 0
-572 1031 1032 1201 1202 0
-571 -1031 -1201 0
-571 -1031 -1202 0
-571 -1032 -1201 0
-571 -1032 -1202 0
-572 -1031 -1201 0
-572 -1031 -1202 0
-572 -1032 -1201 0
-572 -1032 -1202 0
517 518 867 868 1237 1238 0
517 518 -867 -1237 0
517 518 -867 -1238 0
517 518 -868 -1237 0
517 518 -868 -1238 0
-517 867 868 -1237 0
-517 867 868 -1238 0
-518 867 868 -1237 0
-518 867 868 -1238 0
-517 -867 1237 1238 0
-517 -868 1237 1238 0
-518 -867 1237 1238 0
-518 -868 1237 1238 0
109 110 279 280 1155 1156 0
109 110 -279 -1155 0
109 110 -279 -1156 0
109 110 -280 -1155 0
109 110 -280 -1156 0
-109 279 280 -1155 0
-109 279 280 -1156 0
-110 279 280 -1155 0
-110 279 280 -1156 0
-109 -279 1155 1156 0
-109 -280 1155 1156 0
-110 -279 1155 1156 0
-110 -280 1155 1156 0
225 226 817 818 961 962 0
225 226 -817 -961 0
225 226 -817 -962 0
225 226 -818 -961 0
225 226 -818 -962 0
-225 817 818 -961 0
-225 817 818 -962 0
-226 817 818 -961 0
-226 817 818 -962 0
-225 -817 961 962 0
-225 -818 961 962 0
-226 -817 961 962 0
-226 -818 961 962 0
183 184 445 446 743 744 0
183 184 -445 -743 0
183 184 -445 -744 0
183 184 -446 -743 0
183 184 -446 -744 0
-183 445 446 -743 0
-183 445 446 -744 0
-184 445 446 -743 0
-184 445 446 -744 0
-183 -445 743 744 0
-183 -446 743 744 0
-184 -445 743 744 0
-184 -446 743 744 0
417 418 689 690 -885 0
417 418 689 690 -886 0
417 418 -689 885 886 0
417 418 -690 885 886 0
-417 689 690 885 886 0
-418 689 690 885 886 0
-417 -689 -885 0
-417 -689 -886 0
-417 -690 -885 0
-417 -690 -886 0
-418 -689 -885 0
-418 -689 -886 0
-418 -690 -885 0
-418 -690 -886 0
89 90 611 612 -1221 0
89 90 611 612 -1222 0
89 90 -611 1221 1222 0
89 90 -612 1221 1222 0
-89 611 612 1221 1222 0
-90 611 612 1221 1222 0
-89 -611 -1221 0
-89 -611 -1222 0
-89 -612 -1221 0
-89 -612 -1222 0
-90 -611 -1221 0
-90 -611 -1222 0
-90 -612 -1221 0
-90 -612 -1222 0
283 284 367 368 -507 0
283 284 367 368 -508 0
283 284 -367 507 508 0
283 284 -368 507 508 0
-283 367 368 507 508 0
-284 367 368 507 508 0
-283 -367 -507 0
-283 -367 -508 0
-283 -368 -507 0
-283 -368 -508 0
-284 -367 -507 0
-284 -367 -508 0
-284 -368 -507 0
-284 -368 -508 0
243 244 841 842 -981 0
243 244 841 842 -982 0
243 244 -841 981 982 0
243 244 -842 981 982 0
-243 841 842 981 982 0
-244 841 842 981 982 0
-243 -841 -981 0
-243 -841 -982 0
-243 -842 -981 0
-243 -842 -982 0
-244 -841 -981 0
-244 -841 -982 0
-244 -842 -981 0
-244 -842 -982 0
269 270 705 706 -1109 0
269 270 705 706 -1110 0
269 270 -705 1109 1110 0
269 270 -706 1109 1110 0
-269 705 706 1109 1110 0
-270 705 706 1109 1110 0
-269 -705 -1109 0
-269 -705 -1110 0
-269 -706 -1109 0
-269 -706 -1110 0
-270 -705 -1109 0
-270 -705 -1110 0
-270 -706 -1109 0
-270 -706 -1110 0
385 386 419 420 -447 0
385 386 419 420 -448 0
385 386 -419 447 448 0
385 386 -420 447 448 0
-385 419 420 447 448 0
-386 419 420 447 448 0
-385 -419 -447 0
-385 -419 -448 0
-385 -420 -447 0
-385 -420 -448 0
-386 -419 -447 0
-386 -419 -448 0
-386 -420 -447 0
-386 -420 -448 0
461 462 709 710 1243 1244 0
461 462 -709 -1243 0
461 462 -709 -1244 0
461 462 -710 -1243 0
461 462 -710 -1244 0
-461 709 710 -1243 0
-461 709 710 -1244 0
-462 709 710 -1243 0
-462 709 710 -1244 0
-461 -709 1243 1244 0
-461 -710 1243 1244 0
-462 -709 1243 1244 0
-462 -710 1243 1244 0
93 94 239 240 -857 0
93 94 239 240 -858 0
93 94 -239 857 858 0
93 94 -240 857 858 0
-93 239 240 857 858 0
-94 239 240 857 858 0
-93 -239 -857 0
-93 -239 -858 0
-93 -240 -857 0
-93 -240 -858 0
-94 -239 -857 0
-94 -239 -858 0
-94 -240 -857 0
-94 -240 -858 0
159 160 323 324 739 740 0
159 160 -323 -739 0
159 160 -323 -740 0
159 160 -324 -739 0
159 160 -324 -740 0
-159 323 324 -739 0
-159 323 324 -740 0
-160 323 324 -739 0
-160 323 324 -740 0
-159 -323 739 740 0
-159 -324 739 740 0
-160 -323 739 740 0
-160 -324 739 740 0
301 302 335 336 -831 0
301 302 335 336 -832 0
301 302 -335 831 832 0
301 302 -336 831 832 0
-301 335 336 831 832 0
-302 335 336 831 832 0
-301 -335 -831 0
-301 -335 -832 0
-301 -336 -831 0
-301 -336 -832 0
-302 -335 -831 0
-302 -335 -832 0
-302 -336 -831 0
-302 -336 -832 0
341 342 603 604 893 894 0
341 342 -603 -893 0
341 342 -603 -894 0
341 342 -604 -893 0
341 342 -604 -894 0
-341 603 604 -893 0
-341 603 604 -894 0
-342 603 604 -893 0
-342 603 604 -894 0
-341 -603 893 894 0
-341 -604 893 894 0
-342 -603 893 894 0
-342 -604 893 894 0
239 240 695 696 1121 1122 0
239 240 -695 -1121 0
239 240 -695 -1122 0
239 240 -696 -1121 0
239 240 -696 -1122 0
-239 695 696 -1121 0
-239 695 696 -1122 0
-240 695 696 -1121 0
-240 695 696 -1122 0
-239 -695 1121 1122 0
-239 -696 1121 1122 0
-240 -695 1121 1122 0
-240 -696 1121 1122 0
325 326 671 672 867 868 0
325 326 -671 -867 0
325 326 -671 -868 0
325 326 -672 -867 0
325 326 -672 -868 0
-325 671 672 -867 0
-325 671 672 -868 0
-326 671 672 -867 0
-326 671 672 -868 0
-325 -671 867 868 0
-325 -672 867 868 0
-326 -671 867 868 0
-326 -672 867 868 0
55 56 315 316 337 338 0
55 56 -315 -337 0
55 56 -315 -338 0
55 56 -316 -337 0
55 56 -316 -338 0
-55 315 316 -337 0
-55 315 316 -338 0
-56 315 316 -337 0
-56 315 316 -338 0
-55 -315 337 338 0
-55 -316 337 338 0
-56 -315 337 338 0
-56 -316 337 338 0
371 372 917 918 -1235 0
371 372 917 918 -1236 0
371 372 -917 1235 1236 0
371 372 -918 1235 1236 0
-371 917 918 1235 1236 0
-372 917 918 1235 1236 0
-371 -917 -1235 0
-371 -917 -1236 0
-371 -918 -1235 0
-371 -918 -1236 0
-372 -917 -1235 0
-372 -917 -1236 0
-372 -918 -1235 0
-372 -918 -1236 0
639 640 1019 1020 -1199 0
639 640 1019 1020 -1200 0
639 640 -1019 1199 1200 0
639 640 -1020 1199 1200 0
-639 1019 1020 1199 1200 0
-640 1019 1020 1199 1200 0
-639 -1019 -1199 0
-639 -1019 -1200 0
-639 -1020 -1199 0
-639 -1020 -1200 0
-640 -1019 -1199 0
-640 -1019 -1200 0
-640 -1020 -1199 0
-640 -1020 -1200 0
367 368 449 450 -707 0
367 368 449 450 -708 0
367 368 -449 707 708 0
367 368 -450 707 708 0
-367 449 450 707 708 0
-368 449 450 707 708 0
-367 -449 -707 0
-367 -449 -708 0
-367 -450 -707 0
-367 -450 -708 0
-368 -449 -707 0
-368 -449 -708 0
-368 -450 -707 0
-368 -450 -708 0
205 206 541 542 -863 0
205 206 541 542 -864 0
205 206 -541 863 864 0
205 206 -542 863 864 0
-205 541 542 863 864 0
-206 541 542 863 864 0
-205 -541 -863 0
-205 -541 -864 0
-205 -542 -863 0
-205 -542 -864 0
-206 -541 -863 0
-206 -541 -864 0
-206 -542 -863 0
-206 -542 -864 0
555 556 631 632 -1093 0
555 556 631 632 -1094 0
555 556 -631 1093 1094 0
555 556 -632 1093 1094 0
-555 631 632 1093 1094 0
-556 631 632 1093 1094 0
-555 -631 -1093 0
-555 -631 -1094 0
-555 -632 -1093 0
-555 -632 -1094 0
-556 -631 -1093 0
-556 -631 -1094 0
-556 -632 -1093 0
-556 -632 -1094 0
173 174 303 304 -629 0
173 174 303 304 -630 0
173 174 -303 629 630 0
173 174 -304 629 630 0
-173 303 304 629 630 0
-174 303 304 629 630 0
-173 -303 -629 0
-173 -303 -630 0
-173 -304 -629 0
-173 -304 -630 0
-174 -303 -629 0
-174 -303 -630 0
-174 -304 -629 0
-174 -304 -630 0
29 30 427 428 1043 1044 0
29 30 -427 -1043 0
29 30 -427 -1044 0
29 30 -428 -1043 0
29 30 -428 -1044 0
-29 427 428 -1043 0
-29 427 428 -1044 0
-30 427 428 -1043 0
-30 427 428 -1044 0
-29 -427 1043 1044 0
-29 -428 1043 1044 0
-30 -427 1043 1044 0
-30 -428 1043 1044 0
67 68 735 736 -1201 0
67 68 735 736 -1202 0
67 68 -735 1201 1202 0
67 68 -736 1201 1202 0
-67 735 736 1201 1202 0
-68 735 736 1201 1202 0
-67 -735 -1201 0
-67 -735 -1202 0
-67 -736 -1201 0
-67 -736 -1202 0
-68 -735 -1201 0
-68 -735 -1202 0
-68 -736 -1201 0
-68 -736 -1202 0
583 584 1083 1084 -1133 0
583 584 1083 1084 -1134 0
583 584 -1083 1133 1134 0
583 584 -1084 1133 1134 0
-583 1083 1084 1133 1134 0
-584 1083 1084 1133 1134 0
-583 -1083 -1133 0
-583 -1083 -1134 0
-583 -1084 -1133 0
-583 -1084 -1134 0
-584 -1083 -1133 0
-584 -1083 -1134 0
-584 -1084 -1133 0
-584 -1084 -1134 0
633 634 897 898 -1063 0
633 634 897 898 -1064 0
633 634 -897 1063 1064 0
633 634 -898 1063 1064 0
-633 897 898 1063 1064 0
-634 897 898 1063 1064 0
-633 -897 -1063 0
-633 -897 -1064 0
-633 -898 -1063 0
-633 -898 -1064 0
-634 -897 -1063 0
-634 -897 -1064 0
-634 -898 -1063 0
-634 -898 -1064 0
525 526 613 614 865 866 0
525 526 -613 -865 0
525 526 -613 -866 0
525 526 -614 -865 0
525 526 -614 -866 0
-525 613 614 -865 0
-525 613 614 -866 0
-526 613 614 -865 0
-526 613 614 -866 0
-525 -613 865 866 0
-525 -614 865 866 0
-526 -613 865 866 0
-526 -614 865 866 0
621 622 677 678 1095 1096 0
621 622 -677 -1095 0
621 622 -677 -1096 0
621 622 -678 -1095 0
621 622 -678 -1096 0
-621 677 678 -1095 0
-621 677 678 -1096 0
-622 677 678 -1095 0
-622 677 678 -1096 0
-621 -677 1095 1096 0
-621 -678 1095 1096 0
-622 -677 1095 1096 0
-622 -678 1095 1096 0
147 148 575 576 583 584 0
147 148 -575 -583 0
147 148 -575 -584 0
147 148 -576 -583 0
147 148 -576 -584 0
-147 575 576 -583 0
-147 575 576 -584 0
-148 575 576 -583 0
-148 575 576 -584 0
-147 -575 583 584 0
-147 -576 583 584 0
-148 -575 583 584 0
-148 -576 583 584 0
15 16 997 998 1095 1096 0
15 16 -997 -1095 0
15 16 -997 -1096 0
15 16 -998 -1095 0
15 16 -998 -1096 0
-15 997 998 -1095 0
-15 997 998 -1096 0
-16 997 998 -1095 0
-16 997 998 -1096 0
-15 -997 1095 1096 0
-15 -998 1095 1096 0
-16 -997 1095 1096 0
-16 -998 1095 1096 0
133 134 885 886 955 956 0
133 134 -885 -955 0
133 134 -885 -956 0
133 134 -886 -955 0
133 134 -886 -956 0
-133 885 886 -955 0
-133 885 886 -956 0
-134 885 886 -955 0
-134 885 886 -956 0
-133 -885 955 956 0
-133 -886 955 956 0
-134 -885 955 956 0
-134 -886 955 956 0
69 70 395 396 937 938 0
69 70 -395 -937 0
69 70 -395 -938 0
69 70 -396 -937 0
69 70 -396 -938 0
-69 395 396 -937 0
-69 395 396 -938 0
-70 395 396 -937 0
-70 395 396 -938 0
-69 -395 937 938 0
-69 -396 937 938 0
-70 -395 937 938 0
-70 -396 937 938 0
95 96 419 420 -807 0
95 96 419 420 -808 0
95 96 -419 807 808 0
95 96 -420 807 808 0
-95 419 420 807 808 0
-96 419 420 807 808 0
-95 -419 -807 0
-95 -419 -808 0
-95 -420 -807 0
-95 -420 -808 0
-96 -419 -807 0
-96 -419 -808 0
-96 -420 -807 0
-96 -420 -808 0
245 246 601 602 -1177 0
245 246 601 602 -1178 0
245 246 -601 1177 1178 0
245 246 -602 1177 1178 0
-245 601 602 1177 1178 0
-246 601 602 1177 1178 0
-245 -601 -1177 0
-245 -601 -1178 0
-245 -602 -1177 0
-245 -602 -1178 0
-246 -601 -1177 0
-246 -601 -1178 0
-246 -602 -1177 0
-246 -602 -1178 0
561 562 601 602 679 680 0
561 562 -601 -679 0
561 562 -601 -680 0
561 562 -602 -679 0
561 562 -602 -680 0
-561 601 602 -679 0
-561 601 602 -680 0
-562 601 602 -679 0
-562 601 602 -680 0
-561 -601 679 680 0
-561 -602 679 680 0
-562 -601 679 680 0
-562 -602 679 680 0
369 370 1155 1156 1251 1252 0
369 370 -1155 -1251 0
369 370 -1155 -1252 0
369 370 -1156 -1251 0
369 370 -1156 -1252 0
-369 1155 1156 -1251 0
-369 1155 1156 -1252 0
-370 1155 1156 -1251 0
-370 1155 1156 -1252 0
-369 -1155 1251 1252 0
-369 -1156 1251 1252 0
-370 -1155 1251 1252 0
-370 -1156 1251 1252 0
55 56 837 838 -1083 0
55 56 837 838 -1084 0
55 56 -837 1083 1084 0
55 56 -838 1083 1084 0
-55 837 838 1083 1084 0
-56 837 838 1083 1084 0
-55 -837 -1083 0
-55 -837 -1084 0
-55 -838 -1083 0
-55 -838 -1084 0
-56 -837 -1083 0
-56 -837 -1084 0
-56 -838 -1083 0
-56 -838 -1084 0
193 194 227 228 699 700 0
193 194 -227 -699 0
193 194 -227 -700 0
193 194 -228 -699 0
193 194 -228 -700 0
-193 227 228 -699 0
-193 227 228 -700 0
-194 227 228 -699 0
-194 227 228 -700 0
-193 -227 699 700 0
-193 -228 699 700 0
-194 -227 699 700 0
-194 -228 699 700 0
439 440 711 712 1063 1064 0
439 440 -711 -1063 0
439 440 -711 -1064 0
439 440 -712 -1063 0
439 440 -712 -1064 0
-439 711 712 -1063 0
-439 711 712 -1064 0
-440 711 712 -1063 0
-440 711 712 -1064 0
-439 -711 1063 1064 0
-439 -712 1063 1064 0
-440 -711 1063 1064 0
-440 -712 1063 1064 0
101 102 771 772 951 952 0
101 102 -771 -951 0
101 102 -771 -952 0
101 102 -772 -951 0
101 102 -772 -952 0
-101 771 772 -951 0
-101 771 772 -952 0
-102 771 772 -951 0
-102 771 772 -952 0
-101 -771 951 952 0
-101 -772 951 952 0
-102 -771 951 952 0
-102 -772 951 952 0
223 224 399 400 -513 0
223 224 399 400 -514 0
223 224 -399 513 514 0
223 224 -400 513 514 0
-223 399 400 513 514 0
-224 399 400 513 514 0
-223 -399 -513 0
-223 -399 -514 0
-223 -400 -513 0
-223 -400 -514 0
-224 -399 -513 0
-224 -399 -514 0
-224 -400 -513 0
-224 -400 -514 0
529 530 665 666 -931 0
529 530 665 666 -932 0
529 530 -665 931 932 0
529 530 -666 931 932 0
-529 665 666 931 932 0
-530 665 666 931 932 0
-529 -665 -931 0
-529 -665 -932 0
-529 -666 -931 0
-529 -666 -932 0
-530 -665 -931 0
-530 -665 -932 0
-530 -666 -931 0
-530 -666 -932 0
1087 1088 1163 1164 1181 1182 0
1087 1088 -1163 -1181 0
1087 1088 -1163 -1182 0
1087 1088 -1164 -1181 0
1087 1088 -1164 -1182 0
-1087 1163 1164 -1181 0
-1087 1163 1164 -1182 0
-1088 1163 1164 -1181 0
-1088 1163 1164 -1182 0
-1087 -1163 1181 1182 0
-1087 -1164 1181 1182 0
-1088 -1163 1181 1182 0
-1088 -1164 1181 1182 0
57 58 483 484 -787 0
57 58 483 484 -788 0
57 58 -483 787 788 0
57 58 -484 787 788 0
-57 483 484 787 788 0
-58 483 484 787 788 0
-57 -483 -787 0
-57 -483 -788 0
-57 -484 -787 0
-57 -484 -788 0
-58 -483 -787 0
-58 -483 -788 0
-58 -484 -787 0
-58 -484 -788 0
299 300 663 664 763 764 0
299 300 -663 -763 0
299 300 -663 -764 0
299 300 -664 -763 0
299 300 -664 -764 0
-299 663 664 -763 0
-299 663 664 -764 0
-300 663 664 -763 0
-300 663 664 -764 0
-299 -663 763 764 0
-299 -664 763 764 0
-300 -663 763 764 0
-300 -664 763 764 0
319 320 689 690 1041 1042 0
319 320 -689 -1041 0
319 320 -689 -1042 0
319 320 -690 -1041 0
319 320 -690 -1042 0
-319 689 690 -1041 0
-319 689 690 -1042 0
-320 689 690 -1041 0
-320 689 690 -1042 0
-319 -689 1041 1042 0
-319 -690 1041 1042 0
-320 -689 1041 1042 0
-320 -690 1041 1042 0
595 596 835 836 1085 1086 0
595 596 -835 -1085 0
595 596 -835 -1086 0
595 596 -836 -1085 0
595 596 -836 -1086 0
-595 835 836 -1085 0
-595 835 836 -1086 0
-596 835 836 -1085 0
-596 835 836 -1086 0
-595 -835 1085 1086 0
-595 -836 1085 1086 0
-596 -835 1085 1086 0
-596 -836 1085 1086 0
275 276 569 570 -1021 0
275 276 569 570 -1022 0
275 276 -569 1021 1022 0
275 276 -570 1021 1022 0
-275 569 570 1021 1022 0
-276 569 570 1021 1022 0
-275 -569 -1021 0
-275 -569 -1022 0
-275 -570 -1021 0
-275 -570 -1022 0
-276 -569 -1021 0
-276 -569 -1022 0
-276 -570 -1021 0
-276 -570 -1022 0
427 428 553 554 799 800 0
427 428 -553 -799 0
427 428 -553 -800 0
427 428 -554 -799 0
427 428 -554 -800 0
-427 553 554 -799 0
-427 553 554 -800 0
-428 553 554 -799 0
-428 553 554 -800 0
-427 -553 799 800 0
-427 -554 799 800 0
-428 -553 799 800 0
-428 -554 799 800 0
673 674 1025 1026 -1239 0
673 674 1025 1026 -1240 0
673 674 -1025 1239 1240 0
673 674 -1026 1239 1240 0
-673 1025 1026 1239 1240 0
-674 1025 1026 1239 1240 0
-673 -1025 -1239 0
-673 -1025 -1240 0
-673 -1026 -1239 0
-673 -1026 -1240 0
-674 -1025 -1239 0
-674 -1025 -1240 0
-674 -1026 -1239 0
-674 -1026 -1240 0
215 216 657 658 -939 0
215 216 657 658 -940 0
215 216 -657 939 940 0
215 216 -658 939 940 0
-215 657 658 939 940 0
-216 657 658 939 940 0
-215 -657 -939 0
-215 -657 -940 0
-215 -658 -939 0
-215 -658 -940 0
-216 -657 -939 0
-216 -657 -940 0
-216 -658 -939 0
-216 -658 -940 0
49 50 93 94 -309 0
49 50 93 94 -310 0
49 50 -93 309 310 0
49 50 -94 309 310 0
-49 93 94 309 310 0
-50 93 94 309 310 0
-49 -93 -309 0
-49 -93 -310 0
-49 -94 -309 0
-49 -94 -310 0
-50 -93 -309 0
-50 -93 -310 0
-50 -94 -309 0
-50 -94 -310 0
31 32 261 262 883 884 0
31 32 -261 -883 0
31 32 -261 -884 0
31 32 -262 -883 0
31 32 -262 -884 0
-31 261 262 -883 0
-31 261 262 -884 0
-32 261 262 -883 0
-32 261 262 -884 0
-31 -261 883 884 0
-31 -262 883 884 0
-32 -261 883 884 0
-32 -262 883 884 0
717 718 735 736 811 812 0
717 718 -735 -811 0
717 718 -735 -812 0
717 718 -736 -811 0
717 718 -736 -812 0
-717 735 736 -811 0
-717 735 736 -812 0
-718 735 736 -811 0
-718 735 736 -812 0
-717 -735 811 812 0
-717 -736 811 812 0
-718 -735 811 812 0
-718 -736 811 812 0
5 6 97 98 977 978 0
5 6 -97 -977 0
5 6 -97 -978 0
5 6 -98 -977 0
5 6 -98 -978 0
-5 97 98 -977 0
-5 97 98 -978 0
-6 97 98 -977 0
-6 97 98 -978 0
-5 -97 977 978 0
-5 -98 977 978 0
-6 -97 977 978 0
-6 -98 977 978 0
81 82 539 540 -769 0
81 82 539 540 -770 0
81 82 -539 769 770 0
81 82 -540 769 770 0
-81 539 540 769 770 0
-82 539 540 769 770 0
-81 -539 -769 0
-81 -539 -770 0
-81 -540 -769 0
-81 -540 -770 0
-82 -539 -769 0
-82 -539 -770 0
-82 -540 -769 0
-82 -540 -770 0
107 108 607 608 -1005 0
107 108 607 608 -1006 0
107 108 -607 1005 1006 0
107 108 -608 1005 1006 0
-107 607 608 1005 1006 0
-108 607 608 1005 1006 0
-107 -607 -1005 0
-107 -607 -1006 0
-107 -608 -1005 0
-107 -608 -1006 0
-108 -607 -1005 0
-108 -607 -1006 0
-108 -608 -1005 0
-108 -608 -1006 0
9 10 703 704 887 888 0
9 10 -703 -887 0
9 10 -703 -888 0
9 10 -704 -887 0
9 10 -704 -888 0
-9 703 704 -887 0
-9 703 704 -888 0
-10 703 704 -887 0
-10 703 704 -888 0
-9 -703 887 888 0
-9 -704 887 888 0
-10 -703 887 888 0
-10 -704 887 888 0
337 338 747 748 1063 1064 0
337 338 -747 -1063 0
337 338 -747 -1064 0
337 338 -748 -1063 0
337 338 -748 -1064 0
-337 747 748 -1063 0
-337 747 748 -1064 0
-338 747 748 -1063 0
-338 747 748 -1064 0
-337 -747 1063 1064 0
-337 -748 1063 1064 0
-338 -747 1063 1064 0
-338 -748 1063 1064 0
127 128 351 352 727 728 0
127 128 -351 -727 0
127 128 -351 -728 0
127 128 -352 -727 0
127 128 -352 -728 0
-127 351 352 -727 0
-127 351 352 -728 0
-128 351 352 -727 0
-128 351 352 -728 0
-127 -351 727 728 0
-127 -352 727 728 0
-128 -351 727 728 0
-128 -352 727 728 0
337 338 983 984 1243 1244 0
337 338 -983 -1243 0
337 338 -983 -1244 0
337 338 -984 -1243 0
337 338 -984 -1244 0
-337 983 984 -1243 0
-337 983 984 -1244 0
-338 983 984 -1243 0
-338 983 984 -1244 0
-337 -983 1243 1244 0
-337 -984 1243 1244 0
-338 -983 1243 1244 0
-338 -984 1243 1244 0
283 284 583 584 943 944 0
283 284 -583 -943 0
283 284 -583 -944 0
283 284 -584 -943 0
283 284 -584 -944 0
-283 583 584 -943 0
-283 583 584 -944 0
-284 583 584 -943 0
-284 583 584 -944 0
-283 -583 943 944 0
-283 -584 943 944 0
-284 -583 943 944 0
-284 -584 943 944 0
113 114 1105 1106 1213 1214 0
113 114 -1105 -1213 0
113 114 -1105 -1214 0
113 114 -1106 -1213 0
113 114 -1106 -1214 0
-113 1105 1106 -1213 0
-113 1105 1106 -1214 0
-114 1105 1106 -1213 0
-114 1105 1106 -1214 0
-113 -1105 1213 1214 0
-113 -1106 1213 1214 0
-114 -1105 1213 1214 0
-114 -1106 1213 1214 0
545 546 869 870 941 942 0
545 546 -869 -941 0
545 546 -869 -942 0
545 546 -870 -941 0
545 546 -870 -942 0
-545 869 870 -941 0
-545 869 870 -942 0
-546 869 870 -941 0
-546 869 870 -942 0
-545 -869 941 942 0
-545 -870 941 942 0
-546 -869 941 942 0
-546 -870 941 942 0
247 248 315 316 -635 0
247 248 315 316 -636 0
247 248 -315 635 636 0
247 248 -316 635 636 0
-247 315 316 635 636 0
-248 315 316 635 636 0
-247 -315 -635 0
-247 -315 -636 0
-247 -316 -635 0
-247 -316 -636 0
-248 -315 -635 0
-248 -315 -636 0
-248 -316 -635 0
-248 -316 -636 0
121 122 451 452 -1245 0
121 122 451 452 -1246 0
121 122 -451 1245 1246 0
121 122 -452 1245 1246 0
-121 451 452 1245 1246 0
-122 451 452 1245 1246 0
-121 -451 -1245 0
-121 -451 -1246 0
-121 -452 -1245 0
-121 -452 -1246 0
-122 -451 -1245 0
-122 -451 -1246 0
-122 -452 -1245 0
-122 -452 -1246 0
109 110 545 546 1079 1080 0
109 110 -545 -1079 0
109 110 -545 -1080 0
109 110 -546 -1079 0
109 110 -546 -1080 0
-109 545 546 -1079 0
-109 545 546 -1080 0
-110 545 546 -1079 0
-110 545 546 -1080 0
-109 -545 1079 1080 0
-109 -546 1079 1080 0
-110 -545 1079 1080 0
-110 -546 1079 1080 0
467 468 1225 1226 1239 1240 0
467 468 -1225 -1239 0
467 468 -1225 -1240 0
467 468 -1226 -1239 0
467 468 -1226 -1240 0
-467 1225 1226 -1239 0
-467 1225 1226 -1240 0
-468 1225 1226 -1239 0
-468 1225 1226 -1240 0
-467 -1225 1239 1240 0
-467 -1226 1239 1240 0
-468 -1225 1239 1240 0
-468 -1226 1239 1240 0
417 418 555 556 -965 0
417 418 555 556 -966 0
417 418 -555 965 966 0
417 418 -556 965 966 0
-417 555 556 965 966 0
-418 555 556 965 966 0
-417 -555 -965 0
-417 -555 -966 0
-417 -556 -965 0
-417 -556 -966 0
-418 -555 -965 0
-418 -555 -966 0
-418 -556 -965 0
-418 -556 -966 0
19 20 1065 1066 1085 1086 0
19 20 -1065 -1085 0
19 20 -1065 -1086 0
19 20 -1066 -1085 0
19 20 -1066 -1086 0
-19 1065 1066 -1085 0
-19 1065 1066 -1086 0
-20 1065 1066 -1085 0
-20 1065 1066 -1086 0
-19 -1065 1085 1086 0
-19 -1066 1085 1086 0
-20 -1065 1085 1086 0
-20 -1066 1085 1086 0
83 84 149 150 513 514 0
83 84 -149 -513 0
83 84 -149 -514 0
83 84 -150 -513 0
83 84 -150 -514 0
-83 149 150 -513 0
-83 149 150 -514 0
-84 149 150 -513 0
-84 149 150 -514 0
-83 -149 513 514 0
-83 -150 513 514 0
-84 -149 513 514 0
-84 -150 513 514 0
91 92 651 652 917 918 0
91 92 -651 -917 0
91 92 -651 -918 0
91 92 -652 -917 0
91 92 -652 -918 0
-91 651 652 -917 0
-91 651 652 -918 0
-92 651 652 -917 0
-92 651 652 -918 0
-91 -651 917 918 0
-91 -652 917 918 0
-92 -651 917 918 0
-92 -652 917 918 0
393 394 463 464 705 706 0
393 394 -463 -705 0
393 394 -463 -706 0
393 394 -464 -705 0
393 394 -464 -706 0
-393 463 464 -705 0
-393 463 464 -706 0
-394 463 464 -705 0
-394 463 464 -706 0
-393 -463 705 706 0
-393 -464 705 706 0
-394 -463 705 706 0
-394 -464 705 706 0
957 958 1219 1220 -1231 0
957 958 1219 1220 -1232 0
957 958 -1219 1231 1232 0
957 958 -1220 1231 1232 0
-957 1219 1220 1231 1232 0
-958 1219 1220 1231 1232 0
-957 -1219 -1231 0
-957 -1219 -1232 0
-957 -1220 -1231 0
-957 -1220 -1232 0
-958 -1219 -1231 0
-958 -1219 -1232 0
-958 -1220 -1231 0
-958 -1220 -1232 0
629 630 689 690 -775 0
629 630 689 690 -776 0
629 630 -689 775 776 0
629 630 -690 775 776 0
-629 689 690 775 776 0
-630 689 690 775 776 0
-629 -689 -775 0
-629 -689 -776 0
-629 -690 -775 0
-629 -690 -776 0
-630 -689 -775 0
-630 -689 -776 0
-630 -690 -775 0
-630 -690 -776 0
285 286 853 854 897 898 0
285 286 -853 -897 0
285 286 -853 -898 0
285 286 -854 -897 0
285 286 -854 -898 0
-285 853 854 -897 0
-285 853 854 -898 0
-286 853 854 -897 0
-286 853 854 -898 0
-285 -853 897 898 0
-285 -854 897 898 0
-286 -853 897 898 0
-286 -854 897 898 0
5 6 395 396 1189 1190 0
5 6 -395 -1189 0
5 6 -395 -1190 0
5 6 -396 -1189 0
5 6 -396 -1190 0
-5 395 396 -1189 0
-5 395 396 -1190 0
-6 395 396 -1189 0
-6 395 396 -1190 0
-5 -395 1189 1190 0
-5 -396 1189 1190 0
-6 -395 1189 1190 0
-6 -396 1189 1190 0
363 364 439 440 677 678 0
363 364 -439 -677 0
363 364 -439 -678 0
363 364 -440 -677 0
363 364 -440 -678 0
-363 439 440 -677 0
-363 439 440 -678 0
-364 439 440 -677 0
-364 439 440 -678 0
-363 -439 677 678 0
-363 -440 677 678 0
-364 -439 677 678 0
-364 -440 677 678 0
499 500 785 786 1219 1220 0
499 500 -785 -1219 0
499 500 -785 -1220 0
499 500 -786 -1219 0
499 500 -786 -1220 0
-499 785 786 -1219 0
-499 785 786 -1220 0
-500 785 786 -1219 0
-500 785 786 -1220 0
-499 -785 1219 1220 0
-499 -786 1219 1220 0
-500 -785 1219 1220 0
-500 -786 1219 1220 0
605 606 729 730 -1183 0
605 606 729 730 -1184 0
605 606 -729 1183 1184 0
605 606 -730 1183 1184 0
-605 729 730 1183 1184 0
-606 729 730 1183 1184 0
-605 -729 -1183 0
-605 -729 -1184 0
-605 -730 -1183 0
-605 -730 -1184 0
-606 -729 -1183 0
-606 -729 -1184 0
-606 -730 -1183 0
-606 -730 -1184 0
265 266 705 706 1147 1148 0
265 266 -705 -1147 0
265 266 -705 -1148 0
265 266 -706 -1147 0
265 266 -706 -1148 0
-265 705 706 -1147 0
-265 705 706 -1148 0
-266 705 706 -1147 0
-266 705 706 -1148 0
-265 -705 1147 1148 0
-265 -706 1147 1148 0
-266 -705 1147 1148 0
-266 -706 1147 1148 0
57 58 161 162 -577 0
57 58 161 162 -578 0
57 58 -161 577 578 0
57 58 -162 577 578 0
-57 161 162 577 578 0
-58 161 162 577 578 0
-57 -161 -577 0
-57 -161 -578 0
-57 -162 -577 0
-57 -162 -578 0
-58 -161 -577 0
-58 -161 -578 0
-58 -162 -577 0
-58 -162 -578 0
5 6 15 16 1055 1056 0
5 6 -15 -1055 0
5 6 -15 -1056 0
5 6 -16 -1055 0
5 6 -16 -1056 0
-5 15 16 -1055 0
-5 15 16 -1056 0
-6 15 16 -1055 0
-6 15 16 -1056 0
-5 -15 1055 1056 0
-5 -16 1055 1056 0
-6 -15 1055 1056 0
-6 -16 1055 1056 0
565 566 689 690 -777 0
565 566 689 690 -778 0
565 566 -689 777 778 0
565 566 -690 777 778 0
-565 689 690 777 778 0
-566 689 690 777 778 0
-565 -689 -777 0
-565 -689 -778 0
-565 -690 -777 0
-565 -690 -778 0
-566 -689 -777 0
-566 -689 -778 0
-566 -690 -777 0
-566 -690 -778 0
497 498 987 988 1159 1160 0
497 498 -987 -1159 0
497 498 -987 -1160 0
497 498 -988 -1159 0
497 498 -988 -1160 0
-497 987 988 -1159 0
-497 987 988 -1160 0
-498 987 988 -1159 0
-498 987 988 -1160 0
-497 -987 1159 1160 0
-497 -988 1159 1160 0
-498 -987 1159 1160 0
-498 -988 1159 1160 0
159 160 1173 1174 1269 1270 0
159 160 -1173 -1269 0
159 160 -1173 -1270 0
159 160 -1174 -1269 0
159 160 -1174 -1270 0
-159 1173 1174 -1269 0
-159 1173 1174 -1270 0
-160 1173 1174 -1269 0
-160 1173 1174 -1270 0
-159 -1173 1269 1270 0
-159 -1174 1269 1270 0
-160 -1173 1269 1270 0
-160 -1174 1269 1270 0
209 210 777 778 -953 0
209 210 777 778 -954 0
209 210 -777 953 954 0
209 210 -778 953 954 0
-209 777 778 953 954 0
-210 777 778 953 954 0
-209 -777 -953 0
-209 -777 -954 0
-209 -778 -953 0
-209 -778 -954 0
-210 -777 -953 0
-210 -777 -954 0
-210 -778 -953 0
-210 -778 -954 0
221 222 625 626 -1201 0
221 222 625 626 -1202 0
221 222 -625 1201 1202 0
221 222 -626 1201 1202 0
-221 625 626 1201 1202 0
-222 625 626 1201 1202 0
-221 -625 -1201 0
-221 -625 -1202 0
-221 -626 -1201 0
-221 -626 -1202 0
-222 -625 -1201 0
-222 -625 -1202 0
-222 -626 -1201 0
-222 -626 -1202 0
227 228 845 846 -959 0
227 228 845 846 -960 0
227 228 -845 959 960 0
227 228 -846 959 960 0
-227 845 846 959 960 0
-228 845 846 959 960 0
-227 -845 -959 0
-227 -845 -960 0
-227 -846 -959 0
-227 -846 -960 0
-228 -845 -959 0
-228 -845 -960 0
-228 -846 -959 0
-228 -846 -960 0
347 348 673 674 1001 1002 0
347 348 -673 -1001 0
347 348 -673 -1002 0
347 348 -674 -1001 0
347 348 -674 -1002 0
-347 673 674 -1001 0
-347 673 674 -1002 0
-348 673 674 -1001 0
-348 673 674 -1002 0
-347 -673 1001 1002 0
-347 -674 1001 1002 0
-348 -673 1001 1002 0
-348 -674 1001 1002 0
259 260 433 434 -649 0
259 260 433 434 -650 0
259 260 -433 649 650 0
259 260 -434 649 650 0
-259 433 434 649 650 0
-260 433 434 649 650 0
-259 -433 -649 0
-259 -433 -650 0
-259 -434 -649 0
-259 -434 -650 0
-260 -433 -649 0
-260 -433 -650 0
-260 -434 -649 0
-260 -434 -650 0
445 446 975 976 -1051 0
445 446 975 976 -1052 0
445 446 -975 1051 1052 0
445 446 -976 1051 1052 0
-445 975 976 1051 1052 0
-446 975 976 1051 1052 0
-445 -975 -1051 0
-445 -975 -1052 0
-445 -976 -1051 0
-445 -976 -1052 0
-446 -975 -1051 0
-446 -975 -1052 0
-446 -976 -1051 0
-446 -976 -1052 0
713 714 801 802 -1149 0
713 714 801 802 -1150 0
713 714 -801 1149 1150 0
713 714 -802 1149 1150 0
-713 801 802 1149 1150 0
-714 801 802 1149 1150 0
-713 -801 -1149 0
-713 -801 -1150 0
-713 -802 -1149 0
-713 -802 -1150 0
-714 -801 -1149 0
-714 -801 -1150 0
-714 -802 -1149 0
-714 -802 -1150 0
229 230 635 636 675 676 0
229 230 -635 -675 0
229 230 -635 -676 0
229 230 -636 -675 0
229 230 -636 -676 0
-229 635 636 -675 0
-229 635 636 -676 0
-230 635 636 -675 0
-230 635 636 -676 0
-229 -635 675 676 0
-229 -636 675 676 0
-230 -635 675 676 0
-230 -636 675 676 0
363 364 803 804 -1035 0
363 364 803 804 -1036 0
363 364 -803 1035 1036 0
363 364 -804 1035 1036 0
-363 803 804 1035 1036 0
-364 803 804 1035 1036 0
-363 -803 -1035 0
-363 -803 -1036 0
-363 -804 -1035 0
-363 -804 -1036 0
-364 -803 -1035 0
-364 -803 -1036 0
-364 -804 -1035 0
-364 -804 -1036 0
157 158 417 418 437 438 0
157 158 -417 -437 0
157 158 -417 -438 0
157 158 -418 -437 0
157 158 -418 -438 0
-157 417 418 -437 0
-157 417 418 -438 0
-158 417 418 -437 0
-158 417 418 -438 0
-157 -417 437 438 0
-157 -418 437 438 0
-158 -417 437 438 0
-158 -418 437 438 0
653 654 1143 1144 1193 1194 0
653 654 -1143 -1193 0
653 654 -1143 -1194 0
653 654 -1144 -1193 0
653 654 -1144 -1194 0
-653 1143 1144 -1193 0
-653 1143 1144 -1194 0
-654 1143 1144 -1193 0
-654 1143 1144 -1194 0
-653 -1143 1193 1194 0
-653 -1144 1193 1194 0
-654 -1143 1193 1194 0
-654 -1144 1193 1194 0
259 260 295 296 809 810 0
259 260 -295 -809 0
259 260 -295 -810 0
259 260 -296 -809 0
259 260 -296 -810 0
-259 295 296 -809 0
-259 295 296 -810 0
-260 295 296 -809 0
-260 295 296 -810 0
-259 -295 809 810 0
-259 -296 809 810 0
-260 -295 809 810 0
-260 -296 809 810 0
193 194 311 312 -605 0
193 194 311 312 -606 0
193 194 -311 605 606 0
193 194 -312 605 606 0
-193 311 312 605 606 0
-194 311 312 605 606 0
-193 -311 -605 0
-193 -311 -606 0
-193 -312 -605 0
-193 -312 -606 0
-194 -311 -605 0
-194 -311 -606 0
-194 -312 -605 0
-194 -312 -606 0
201 202 1213 1214 1261 1262 0
201 202 -1213 -1261 0
201 202 -1213 -1262 0
201 202 -1214 -1261 0
201 202 -1214 -1262 0
-201 1213 1214 -1261 0
-201 1213 1214 -1262 0
-202 1213 1214 -1261 0
-202 1213 1214 -1262 0
-201 -1213 1261 1262 0
-201 -1214 1261 1262 0
-202 -1213 1261 1262 0
-202 -1214 1261 1262 0
121 122 407 408 -639 0
121 122 407 408 -640 0
121 122 -407 639 640 0
121 122 -408 639 640 0
-121 407 408 639 640 0
-122 407 408 639 640 0
-121 -407 -639 0
-121 -407 -640 0
-121 -408 -639 0
-121 -408 -640 0
-122 -407 -639 0
-122 -407 -640 0
-122 -408 -639 0
-122 -408 -640 0
111 112 371 372 -1189 0
111 112 371 372 -1190 0
111 112 -371 1189 1190 0
111 112 -372 1189 1190 0
-111 371 372 1189 1190 0
-112 371 372 1189 1190 0
-111 -371 -1189 0
-111 -371 -1190 0
-111 -372 -1189 0
-111 -372 -1190 0
-112 -371 -1189 0
-112 -371 -1190 0
-112 -372 -1189 0
-112 -372 -1190 0
481 482 811 812 859 860 0
481 482 -811 -859 0
481 482 -811 -860 0
481 482 -812 -859 0
481 482 -812 -860 0
-481 811 812 -859 0
-481 811 812 -860 0
-482 811 812 -859 0
-482 811 812 -860 0
-481 -811 859 860 0
-481 -812 859 860 0
-482 -811 859 860 0
-482 -812 859 860 0
189 190 711 712 -1103 0
189 190 711 712 -1104 0
189 190 -711 1103 1104 0
189 190 -712 1103 1104 0
-189 711 712 1103 1104 0
-190 711 712 1103 1104 0
-189 -711 -1103 0
-189 -711 -1104 0
-189 -712 -1103 0
-189 -712 -1104 0
-190 -711 -1103 0
-190 -711 -1104 0
-190 -712 -1103 0
-190 -712 -1104 0
147 148 819 820 1123 1124 0
147 148 -819 -1123 0
147 148 -819 -1124 0
147 148 -820 -1123 0
147 148 -820 -1124 0
-147 819 820 -1123 0
-147 819 820 -1124 0
-148 819 820 -1123 0
-148 819 820 -1124 0
-147 -819 1123 1124 0
-147 -820 1123 1124 0
-148 -819 1123 1124 0
-148 -820 1123 1124 0
833 834 899 900 -1091 0
833 834 899 900 -1092 0
833 834 -899 1091 1092 0
833 834 -900 1091 1092 0
-833 899 900 1091 1092 0
-834 899 900 1091 1092 0
-833 -899 -1091 0
-833 -899 -1092 0
-833 -900 -1091 0
-833 -900 -1092 0
-834 -899 -1091 0
-834 -899 -1092 0
-834 -900 -1091 0
-834 -900 -1092 0
211 212 433 434 -483 0
211 212 433 434 -484 0
211 212 -433 483 484 0
211 212 -434 483 484 0
-211 433 434 483 484 0
-212 433 434 483 484 0
-211 -433 -483 0
-211 -433 -484 0
-211 -434 -483 0
-211 -434 -484 0
-212 -433 -483 0
-212 -433 -484 0
-212 -434 -483 0
-212 -434 -484 0
75 76 525 526 863 864 0
75 76 -525 -863 0
75 76 -525 -864 0
75 76 -526 -863 0
75 76 -526 -864 0
-75 525 526 -863 0
-75 525 526 -864 0
-76 525 526 -863 0
-76 525 526 -864 0
-75 -525 863 864 0
-75 -526 863 864 0
-76 -525 863 864 0
-76 -526 863 864 0
267 268 319 320 -1187 0
267 268 319 320 -1188 0
267 268 -319 1187 1188 0
267 268 -320 1187 1188 0
-267 319 320 1187 1188 0
-268 319 320 1187 1188 0
-267 -319 -1187 0
-267 -319 -1188 0
-267 -320 -1187 0
-267 -320 -1188 0
-268 -319 -1187 0
-268 -319 -1188 0
-268 -320 -1187 0
-268 -320 -1188 0
301 302 629 630 -1229 0
301 302 629 630 -1230 0
301 302 -629 1229 1230 0
301 302 -630 1229 1230 0
-301 629 630 1229 1230 0
-302 629 630 1229 1230 0
-301 -629 -1229 0
-301 -629 -1230 0
-301 -630 -1229 0
-301 -630 -1230 0
-302 -629 -1229 0
-302 -629 -1230 0
-302 -630 -1229 0
-302 -630 -1230 0
53 54 649 650 -1025 0
53 54 649 650 -1026 0
53 54 -649 1025 1026 0
53 54 -650 1025 1026 0
-53 649 650 1025 1026 0
-54 649 650 1025 1026 0
-53 -649 -1025 0
-53 -649 -1026 0
-53 -650 -1025 0
-53 -650 -1026 0
-54 -649 -1025 0
-54 -649 -1026 0
-54 -650 -1025 0
-54 -650 -1026 0
359 360 607 608 1111 1112 0
359 360 -607 -1111 0
359 360 -607 -1112 0
359 360 -608 -1111 0
359 360 -608 -1112 0
-359 607 608 -1111 0
-359 607 608 -1112 0
-360 607 608 -1111 0
-360 607 608 -1112 0
-359 -607 1111 1112 0
-359 -608 1111 1112 0
-360 -607 1111 1112 0
-360 -608 1111 1112 0
351 352 671 672 -1027 0
351 352 671 672 -1028 0
351 352 -671 1027 1028 0
351 352 -672 1027 1028 0
-351 671 672 1027 1028 0
-352 671 672 1027 1028 0
-351 -671 -1027 0
-351 -671 -1028 0
-351 -672 -1027 0
-351 -672 -1028 0
-352 -671 -1027 0
-352 -671 -1028 0
-352 -672 -1027 0
-352 -672 -1028 0
599 600 935 936 1169 1170 0
599 600 -935 -1169 0
599 600 -935 -1170 0
599 600 -936 -1169 0
599 600 -936 -1170 0
-599 935 936 -1169 0
-599 935 936 -1170 0
-600 935 936 -1169 0
-600 935 936 -1170 0
-599 -935 1169 1170 0
-599 -936 1169 1170 0
-600 -935 1169 1170 0
-600 -936 1169 1170 0
167 168 569 570 -873 0
167 168 569 570 -874 0
167 168 -569 873 874 0
167 168 -570 873 874 0
-167 569 570 873 874 0
-168 569 570 873 874 0
-167 -569 -873 0
-167 -569 -874 0
-167 -570 -873 0
-167 -570 -874 0
-168 -569 -873 0
-168 -569 -874 0
-168 -570 -873 0
-168 -570 -874 0
109 110 173 174 -583 0
109 110 173 174 -584 0
109 110 -173 583 584 0
109 110 -174 583 584 0
-109 173 174 583 584 0
-110 173 174 583 584 0
-109 -173 -583 0
-109 -173 -584 0
-109 -174 -583 0
-109 -174 -584 0
-110 -173 -583 0
-110 -173 -584 0
-110 -174 -583 0
-110 -174 -584 0
71 72 315 316 1153 1154 0
71 72 -315 -1153 0
71 72 -315 -1154 0
71 72 -316 -1153 0
71 72 -316 -1154 0
-71 315 316 -1153 0
-71 315 316 -1154 0
-72 315 316 -1153 0
-72 315 316 -1154 0
-71 -315 1153 1154 0
-71 -316 1153 1154 0
-72 -315 1153 1154 0
-72 -316 1153 1154 0
95 96 973 974 1259 1260 0
95 96 -973 -1259 0
95 96 -973 -1260 0
95 96 -974 -1259 0
95 96 -974 -1260 0
-95 973 974 -1259 0
-95 973 974 -1260 0
-96 973 974 -1259 0
-96 973 974 -1260 0
-95 -973 1259 1260 0
-95 -974 1259 1260 0
-96 -973 1259 1260 0
-96 -974 1259 1260 0
205 206 569 570 -685 0
205 206 569 570 -686 0
205 206 -569 685 686 0
205 206 -570 685 686 0
-205 569 570 685 686 0
-206 569 570 685 686 0
-205 -569 -685 0
-205 -569 -686 0
-205 -570 -685 0
-205 -570 -686 0
-206 -569 -685 0
-206 -569 -686 0
-206 -570 -685 0
-206 -570 -686 0
647 648 1015 1016 1263 1264 0
647 648 -1015 -1263 0
647 648 -1015 -1264 0
647 648 -1016 -1263 0
647 648 -1016 -1264 0
-647 1015 1016 -1263 0
-647 1015 1016 -1264 0
-648 1015 1016 -1263 0
-648 1015 1016 -1264 0
-647 -1015 1263 1264 0
-647 -1016 1263 1264 0
-648 -1015 1263 1264 0
-648 -1016 1263 1264 0
95 96 619 620 -895 0
95 96 619 620 -896 0
95 96 -619 895 896 0
95 96 -620 895 896 0
-95 619 620 895 896 0
-96 619 620 895 896 0
-95 -619 -895 0
-95 -619 -896 0
-95 -620 -895 0
-95 -620 -896 0
-96 -619 -895 0
-96 -619 -896 0
-96 -620 -895 0
-96 -620 -896 0
691 692 1063 1064 1099 1100 0
691 692 -1063 -1099 0
691 692 -1063 -1100 0
691 692 -1064 -1099 0
691 692 -1064 -1100 0
-691 1063 1064 -1099 0
-691 1063 1064 -1100 0
-692 1063 1064 -1099 0
-692 1063 1064 -1100 0
-691 -1063 1099 1100 0
-691 -1064 1099 1100 0
-692 -1063 1099 1100 0
-692 -1064 1099 1100 0
187 188 327 328 1049 1050 0
187 188 -327 -1049 0
187 188 -327 -1050 0
187 188 -328 -1049 0
187 188 -328 -1050 0
-187 327 328 -1049 0
-187 327 328 -1050 0
-188 327 328 -1049 0
-188 327 328 -1050 0
-187 -327 1049 1050 0
-187 -328 1049 1050 0
-188 -327 1049 1050 0
-188 -328 1049 1050 0
517 518 715 716 759 760 0
517 518 -715 -759 0
517 518 -715 -760 0
517 518 -716 -759 0
517 518 -716 -760 0
-517 715 716 -759 0
-517 715 716 -760 0
-518 715 716 -759 0
-518 715 716 -760 0
-517 -715 759 760 0
-517 -716 759 760 0
-518 -715 759 760 0
-518 -716 759 760 0
1 2 63 64 527 528 0
1 2 -63 -527 0
1 2 -63 -528 0
1 2 -64 -527 0
1 2 -64 -528 0
-1 63 64 -527 0
-1 63 64 -528 0
-2 63 64 -527 0
-2 63 64 -528 0
-1 -63 527 528 0
-1 -64 527 528 0
-2 -63 527 528 0
-2 -64 527 528 0
623 624 987 988 -1021 0
623 624 987 988 -1022 0
623 624 -987 1021 1022 0
623 624 -988 1021 1022 0
-623 987 988 1021 1022 0
-624 987 988 1021 1022 0
-623 -987 -1021 0
-623 -987 -1022 0
-623 -988 -1021 0
-623 -988 -1022 0
-624 -987 -1021 0
-624 -987 -1022 0
-624 -988 -1021 0
-624 -988 -1022 0
149 150 465 466 -797 0
149 150 465 466 -798 0
149 150 -465 797 798 0
149 150 -466 797 798 0
-149 465 466 797 798 0
-150 465 466 797 798 0
-149 -465 -797 0
-149 -465 -798 0
-149 -466 -797 0
-149 -466 -798 0
-150 -465 -797 0
-150 -465 -798 0
-150 -466 -797 0
-150 -466 -798 0
483 484 555 556 855 856 0
483 484 -555 -855 0
483 484 -555 -856 0
483 484 -556 -855 0
483 484 -556 -856 0
-483 555 556 -855 0
-483 555 556 -856 0
-484 555 556 -855 0
-484 555 556 -856 0
-483 -555 855 856 0
-483 -556 855 856 0
-484 -555 855 856 0
-484 -556 855 856 0
111 112 765 766 -835 0
111 112 765 766 -836 0
111 112 -765 835 836 0
111 112 -766 835 836 0
-111 765 766 835 836 0
-112 765 766 835 836 0
-111 -765 -835 0
-111 -765 -836 0
-111 -766 -835 0
-111 -766 -836 0
-112 -765 -835 0
-112 -765 -836 0
-112 -766 -835 0
-112 -766 -836 0
393 394 635 636 917 918 0
393 394 -635 -917 0
393 394 -635 -918 0
393 394 -636 -917 0
393 394 -636 -918 0
-393 635 636 -917 0
-393 635 636 -918 0
-394 635 636 -917 0
-394 635 636 -918 0
-393 -635 917 918 0
-393 -636 917 918 0
-394 -635 917 918 0
-394 -636 917 918 0
161 162 335 336 -949 0
161 162 335 336 -950 0
161 162 -335 949 950 0
161 162 -336 949 950 0
-161 335 336 949 950 0
-162 335 336 949 950 0
-161 -335 -949 0
-161 -335 -950 0
-161 -336 -949 0
-161 -336 -950 0
-162 -335 -949 0
-162 -335 -950 0
-162 -336 -949 0
-162 -336 -950 0
351 352 485 486 -1093 0
351 352 485 486 -1094 0
351 352 -485 1093 1094 0
351 352 -486 1093 1094 0
-351 485 486 1093 1094 0
-352 485 486 1093 1094 0
-351 -485 -1093 0
-351 -485 -1094 0
-351 -486 -1093 0
-351 -486 -1094 0
-352 -485 -1093 0
-352 -485 -1094 0
-352 -486 -1093 0
-352 -486 -1094 0
7 8 187 188 -705 0
7 8 187 188 -706 0
7 8 -187 705 706 0
7 8 -188 705 706 0
-7 187 188 705 706 0
-8 187 188 705 706 0
-7 -187 -705 0
-7 -187 -706 0
-7 -188 -705 0
-7 -188 -706 0
-8 -187 -705 0
-8 -187 -706 0
-8 -188 -705 0
-8 -188 -706 0
313 314 403 404 -703 0
313 314 403 404 -704 0
313 314 -403 703 704 0
313 314 -404 703 704 0
-313 403 404 703 704 0
-314 403 404 703 704 0
-313 -403 -703 0
-313 -403 -704 0
-313 -404 -703 0
-313 -404 -704 0
-314 -403 -703 0
-314 -403 -704 0
-314 -404 -703 0
-314 -404 -704 0
295 296 721 722 729 730 0
295 296 -721 -729 0
295 296 -721 -730 0
295 296 -722 -729 0
295 296 -722 -730 0
-295 721 722 -729 0
-295 721 722 -730 0
-296 721 722 -729 0
-296 721 722 -730 0
-295 -721 729 730 0
-295 -722 729 730 0
-296 -721 729 730 0
-296 -722 729 730 0
19 20 323 324 477 478 0
19 20 -323 -477 0
19 20 -323 -478 0
19 20 -324 -477 0
19 20 -324 -478 0
-19 323 324 -477 0
-19 323 324 -478 0
-20 323 324 -477 0
-20 323 324 -478 0
-19 -323 477 478 0
-19 -324 477 478 0
-20 -323 477 478 0
-20 -324 477 478 0
535 536 981 982 1261 1262 0
535 536 -981 -1261 0
535 536 -981 -1262 0
535 536 -982 -1261 0
535 536 -982 -1262 0
-535 981 982 -1261 0
-535 981 982 -1262 0
-536 981 982 -1261 0
-536 981 982 -1262 0
-535 -981 1261 1262 0
-535 -982 1261 1262 0
-536 -981 1261 1262 0
-536 -982 1261 1262 0
395 396 459 460 789 790 0
395 396 -459 -789 0
395 396 -459 -790 0
395 396 -460 -789 0
395 396 -460 -790 0
-395 459 460 -789 0
-395 459 460 -790 0
-396 459 460 -789 0
-396 459 460 -790 0
-395 -459 789 790 0
-395 -460 789 790 0
-396 -459 789 790 0
-396 -460 789 790 0
615 616 821 822 -959 0
615 616 821 822 -960 0
615 616 -821 959 960 0
615 616 -822 959 960 0
-615 821 822 959 960 0
-616 821 822 959 960 0
-615 -821 -959 0
-615 -821 -960 0
-615 -822 -959 0
-615 -822 -960 0
-616 -821 -959 0
-616 -821 -960 0
-616 -822 -959 0
-616 -822 -960 0
179 180 491 492 -1237 0
179 180 491 492 -1238 0
179 180 -491 1237 1238 0
179 180 -492 1237 1238 0
-179 491 492 1237 1238 0
-180 491 492 1237 1238 0
-179 -491 -1237 0
-179 -491 -1238 0
-179 -492 -1237 0
-179 -492 -1238 0
-180 -491 -1237 0
-180 -491 -1238 0
-180 -492 -1237 0
-180 -492 -1238 0
539 540 831 832 1231 1232 0
539 540 -831 -1231 0
539 540 -831 -1232 0
539 540 -832 -1231 0
539 540 -832 -1232 0
-539 831 832 -1231 0
-539 831 832 -1232 0
-540 831 832 -1231 0
-540 831 832 -1232 0
-539 -831 1231 1232 0
-539 -832 1231 1232 0
-540 -831 1231 1232 0
-540 -832 1231 1232 0
493 494 977 978 1149 1150 0
493 494 -977 -1149 0
493 494 -977 -1150 0
493 494 -978 -1149 0
493 494 -978 -1150 0
-493 977 978 -1149 0
-493 977 978 -1150 0
-494 977 978 -1149 0
-494 977 978 -1150 0
-493 -977 1149 1150 0
-493 -978 1149 1150 0
-494 -977 1149 1150 0
-494 -978 1149 1150 0
489 490 591 592 -973 0
489 490 591 592 -974 0
489 490 -591 973 974 0
489 490 -592 973 974 0
-489 591 592 973 974 0
-490 591 592 973 974 0
-489 -591 -973 0
-489 -591 -974 0
-489 -592 -973 0
-489 -592 -974 0
-490 -591 -973 0
-490 -591 -974 0
-490 -592 -973 0
-490 -592 -974 0
13 14 27 28 487 488 0
13 14 -27 -487 0
13 14 -27 -488 0
13 14 -28 -487 0
13 14 -28 -488 0
-13 27 28 -487 0
-13 27 28 -488 0
-14 27 28 -487 0
-14 27 28 -488 0
-13 -27 487 488 0
-13 -28 487 488 0
-14 -27 487 488 0
-14 -28 487 488 0
667 668 1015 1016 -1071 0
667 668 1015 1016 -1072 0
667 668 -1015 1071 1072 0
667 668 -1016 1071 1072 0
-667 1015 1016 1071 1072 0
-668 1015 1016 1071 1072 0
-667 -1015 -1071 0
-667 -1015 -1072 0
-667 -1016 -1071 0
-667 -1016 -1072 0
-668 -1015 -1071 0
-668 -1015 -1072 0
-668 -1016 -1071 0
-668 -1016 -1072 0
19 20 405 406 -527 0
19 20 405 406 -528 0
19 20 -405 527 528 0
19 20 -406 527 528 0
-19 405 406 527 528 0
-20 405 406 527 528 0
-19 -405 -527 0
-19 -405 -528 0
-19 -406 -527 0
-19 -406 -528 0
-20 -405 -527 0
-20 -405 -528 0
-20 -406 -527 0
-20 -406 -528 0
727 728 869 870 1099 1100 0
727 728 -869 -1099 0
727 728 -869 -1100 0
727 728 -870 -1099 0
727 728 -870 -1100 0
-727 869 870 -1099 0
-727 869 870 -1100 0
-728 869 870 -1099 0
-728 869 870 -1100 0
-727 -869 1099 1100 0
-727 -870 1099 1100 0
-728 -869 1099 1100 0
-728 -870 1099 1100 0
271 272 411 412 459 460 0
271 272 -411 -459 0
271 272 -411 -460 0
271 272 -412 -459 0
271 272 -412 -460 0
-271 411 412 -459 0
-271 411 412 -460 0
-272 411 412 -459 0
-272 411 412 -460 0
-271 -411 459 460 0
-271 -412 459 460 0
-272 -411 459 460 0
-272 -412 459 460 0
137 138 741 742 -907 0
137 138 741 742 -908 0
137 138 -741 907 908 0
137 138 -742 907 908 0
-137 741 742 907 908 0
-138 741 742 907 908 0
-137 -741 -907 0
-137 -741 -908 0
-137 -742 -907 0
-137 -742 -908 0
-138 -741 -907 0
-138 -741 -908 0
-138 -742 -907 0
-138 -742 -908 0
305 306 429 430 1001 1002 0
305 306 -429 -1001 0
305 306 -429 -1002 0
305 306 -430 -1001 0
305 306 -430 -1002 0
-305 429 430 -1001 0
-305 429 430 -1002 0
-306 429 430 -1001 0
-306 429 430 -1002 0
-305 -429 1001 1002 0
-305 -430 1001 1002 0
-306 -429 1001 1002 0
-306 -430 1001 1002 0
1 2 487 488 1041 1042 0
1 2 -487 -1041 0
1 2 -487 -1042 0
1 2 -488 -1041 0
1 2 -488 -1042 0
-1 487 488 -1041 0
-1 487 488 -1042 0
-2 487 488 -1041 0
-2 487 488 -1042 0
-1 -487 1041 1042 0
-1 -488 1041 1042 0
-2 -487 1041 1042 0
-2 -488 1041 1042 0
381 382 435 436 -553 0
381 382 435 436 -554 0
381 382 -435 553 554 0
381 382 -436 553 554 0
-381 435 436 553 554 0
-382 435 436 553 554 0
-381 -435 -553 0
-381 -435 -554 0
-381 -436 -553 0
-381 -436 -554 0
-382 -435 -553 0
-382 -435 -554 0
-382 -436 -553 0
-382 -436 -554 0
539 540 809 810 827 828 0
539 540 -809 -827 0
539 540 -809 -828 0
539 540 -810 -827 0
539 540 -810 -828 0
-539 809 810 -827 0
-539 809 810 -828 0
-540 809 810 -827 0
-540 809 810 -828 0
-539 -809 827 828 0
-539 -810 827 828 0
-540 -809 827 828 0
-540 -810 827 828 0
263 264 721 722 989 990 0
263 264 -721 -989 0
263 264 -721 -990 0
263 264 -722 -989 0
263 264 -722 -990 0
-263 721 722 -989 0
-263 721 722 -990 0
-264 721 722 -989 0
-264 721 722 -990 0
-263 -721 989 990 0
-263 -722 989 990 0
-264 -721 989 990 0
-264 -722 989 990 0
619 620 885 886 -1003 0
619 620 885 886 -1004 0
619 620 -885 1003 1004 0
619 620 -886 1003 1004 0
-619 885 886 1003 1004 0
-620 885 886 1003 1004 0
-619 -885 -1003 0
-619 -885 -1004 0
-619 -886 -1003 0
-619 -886 -1004 0
-620 -885 -1003 0
-620 -885 -1004 0
-620 -886 -1003 0
-620 -886 -1004 0
115 116 405 406 -767 0
115 116 405 406 -768 0
115 116 -405 767 768 0
115 116 -406 767 768 0
-115 405 406 767 768 0
-116 405 406 767 768 0
-115 -405 -767 0
-115 -405 -768 0
-115 -406 -767 0
-115 -406 -768 0
-116 -405 -767 0
-116 -405 -768 0
-116 -406 -767 0
-116 -406 -768 0
501 502 557 558 -955 0
501 502 557 558 -956 0
501 502 -557 955 956 0
501 502 -558 955 956 0
-501 557 558 955 956 0
-502 557 558 955 956 0
-501 -557 -955 0
-501 -557 -956 0
-501 -558 -955 0
-501 -558 -956 0
-502 -557 -955 0
-502 -557 -956 0
-502 -558 -955 0
-502 -558 -956 0
83 84 845 846 -1021 0
83 84 845 846 -1022 0
83 84 -845 1021 1022 0
83 84 -846 1021 1022 0
-83 845 846 1021 1022 0
-84 845 846 1021 1022 0
-83 -845 -1021 0
-83 -845 -1022 0
-83 -846 -1021 0
-83 -846 -1022 0
-84 -845 -1021 0
-84 -845 -1022 0
-84 -846 -1021 0
-84 -846 -1022 0
441 442 963 964 -1085 0
441 442 963 964 -1086 0
441 442 -963 1085 1086 0
441 442 -964 1085 1086 0
-441 963 964 1085 1086 0
-442 963 964 1085 1086 0
-441 -963 -1085 0
-441 -963 -1086 0
-441 -964 -1085 0
-441 -964 -1086 0
-442 -963 -1085 0
-442 -963 -1086 0
-442 -964 -1085 0
-442 -964 -1086 0
55 56 517 518 639 640 0
55 56 -517 -639 0
55 56 -517 -640 0
55 56 -518 -639 0
55 56 -518 -640 0
-55 517 518 -639 0
-55 517 518 -640 0
-56 517 518 -639 0
-56 517 518 -640 0
-55 -517 639 640 0
-55 -518 639 640 0
-56 -517 639 640 0
-56 -518 639 640 0
355 356 409 410 675 676 0
355 356 -409 -675 0
355 356 -409 -676 0
355 356 -410 -675 0
355 356 -410 -676 0
-355 409 410 -675 0
-355 409 410 -676 0
-356 409 410 -675 0
-356 409 410 -676 0
-355 -409 675 676 0
-355 -410 675 676 0
-356 -409 675 676 0
-356 -410 675 676 0
401 402 517 518 -867 0
401 402 517 518 -868 0
401 402 -517 867 868 0
401 402 -518 867 868 0
-401 517 518 867 868 0
-402 517 518 867 868 0
-401 -517 -867 0
-401 -517 -868 0
-401 -518 -867 0
-401 -518 -868 0
-402 -517 -867 0
-402 -517 -868 0
-402 -518 -867 0
-402 -518 -868 0
65 66 779 780 -983 0
65 66 779 780 -984 0
65 66 -779 983 984 0
65 66 -780 983 984 0
-65 779 780 983 984 0
-66 779 780 983 984 0
-65 -779 -983 0
-65 -779 -984 0
-65 -780 -983 0
-65 -780 -984 0
-66 -779 -983 0
-66 -779 -984 0
-66 -780 -983 0
-66 -780 -984 0
83 84 237 238 611 612 0
83 84 -237 -611 0
83 84 -237 -612 0
83 84 -238 -611 0
83 84 -238 -612 0
-83 237 238 -611 0
-83 237 238 -612 0
-84 237 238 -611 0
-84 237 238 -612 0
-83 -237 611 612 0
-83 -238 611 612 0
-84 -237 611 612 0
-84 -238 611 612 0
521 522 735 736 897 898 0
521 522 -735 -897 0
521 522 -735 -898 0
521 522 -736 -897 0
521 522 -736 -898 0
-521 735 736 -897 0
-521 735 736 -898 0
-522 735 736 -897 0
-522 735 736 -898 0
-521 -735 897 898 0
-521 -736 897 898 0
-522 -735 897 898 0
-522 -736 897 898 0
437 438 465 466 -1241 0
437 438 465 466 -1242 0
437 438 -465 1241 1242 0
437 438 -466 1241 1242 0
-437 465 466 1241 1242 0
-438 465 466 1241 1242 0
-437 -465 -1241 0
-437 -465 -1242 0
-437 -466 -1241 0
-437 -466 -1242 0
-438 -465 -1241 0
-438 -465 -1242 0
-438 -466 -1241 0
-438 -466 -1242 0
359 360 397 398 -489 0
359 360 397 398 -490 0
359 360 -397 489 490 0
359 360 -398 489 490 0
-359 397 398 489 490 0
-360 397 398 489 490 0
-359 -397 -489 0
-359 -397 -490 0
-359 -398 -489 0
-359 -398 -490 0
-360 -397 -489 0
-360 -397 -490 0
-360 -398 -489 0
-360 -398 -490 0
207 208 983 984 985 986 0
207 208 -983 -985 0
207 208 -983 -986 0
207 208 -984 -985 0
207 208 -984 -986 0
-207 983 984 -985 0
-207 983 984 -986 0
-208 983 984 -985 0
-208 983 984 -986 0
-207 -983 985 986 0
-207 -984 985 986 0
-208 -983 985 986 0
-208 -984 985 986 0
123 124 691 692 769 770 0
123 124 -691 -769 0
123 124 -691 -770 0
123 124 -692 -769 0
123 124 -692 -770 0
-123 691 692 -769 0
-123 691 692 -770 0
-124 691 692 -769 0
-124 691 692 -770 0
-123 -691 769 770 0
-123 -692 769 770 0
-124 -691 769 770 0
-124 -692 769 770 0
259 260 323 324 -821 0
259 260 323 324 -822 0
259 260 -323 821 822 0
259 260 -324 821 822 0
-259 323 324 821 822 0
-260 323 324 821 822 0
-259 -323 -821 0
-259 -323 -822 0
-259 -324 -821 0
-259 -324 -822 0
-260 -323 -821 0
-260 -323 -822 0
-260 -324 -821 0
-260 -324 -822 0
5 6 275 276 -1279 0
5 6 275 276 -1280 0
5 6 -275 1279 1280 0
5 6 -276 1279 1280 0
-5 275 276 1279 1280 0
-6 275 276 1279 1280 0
-5 -275 -1279 0
-5 -275 -1280 0
-5 -276 -1279 0
-5 -276 -1280 0
-6 -275 -1279 0
-6 -275 -1280 0
-6 -276 -1279 0
-6 -276 -1280 0
3 4 477 478 -1039 0
3 4 477 478 -1040 0
3 4 -477 1039 1040 0
3 4 -478 1039 1040 0
-3 477 478 1039 1040 0
-4 477 478 1039 1040 0
-3 -477 -1039 0
-3 -477 -1040 0
-3 -478 -1039 0
-3 -478 -1040 0
-4 -477 -1039 0
-4 -477 -1040 0
-4 -478 -1039 0
-4 -478 -1040 0
705 706 763 764 1131 1132 0
705 706 -763 -1131 0
705 706 -763 -1132 0
705 706 -764 -1131 0
705 706 -764 -1132 0
-705 763 764 -1131 0
-705 763 764 -1132 0
-706 763 764 -1131 0
-706 763 764 -1132 0
-705 -763 1131 1132 0
-705 -764 1131 1132 0
-706 -763 1131 1132 0
-706 -764 1131 1132 0
51 52 195 196 263 264 0
51 52 -195 -263 0
51 52 -195 -264 0
51 52 -196 -263 0
51 52 -196 -264 0
-51 195 196 -263 0
-51 195 196 -264 0
-52 195 196 -263 0
-52 195 196 -264 0
-51 -195 263 264 0
-51 -196 263 264 0
-52 -195 263 264 0
-52 -196 263 264 0
73 74 361 362 -839 0
73 74 361 362 -840 0
73 74 -361 839 840 0
73 74 -362 839 840 0
-73 361 362 839 840 0
-74 361 362 839 840 0
-73 -361 -839 0
-73 -361 -840 0
-73 -362 -839 0
-73 -362 -840 0
-74 -361 -839 0
-74 -361 -840 0
-74 -362 -839 0
-74 -362 -840 0
255 256 489 490 1115 1116 0
255 256 -489 -1115 0
255 256 -489 -1116 0
255 256 -490 -1115 0
255 256 -490 -1116 0
-255 489 490 -1115 0
-255 489 490 -1116 0
-256 489 490 -1115 0
-256 489 490 -1116 0
-255 -489 1115 1116 0
-255 -490 1115 1116 0
-256 -489 1115 1116 0
-256 -490 1115 1116 0
241 242 349 350 581 582 0
241 242 -349 -581 0
241 242 -349 -582 0
241 242 -350 -581 0
241 242 -350 -582 0
-241 349 350 -581 0
-241 349 350 -582 0
-242 349 350 -581 0
-242 349 350 -582 0
-241 -349 581 582 0
-241 -350 581 582 0
-242 -349 581 582 0
-242 -350 581 582 0
151 152 757 758 995 996 0
151 152 -757 -995 0
151 152 -757 -996 0
151 152 -758 -995 0
151 152 -758 -996 0
-151 757 758 -995 0
-151 757 758 -996 0
-152 757 758 -995 0
-152 757 758 -996 0
-151 -757 995 996 0
-151 -758 995 996 0
-152 -757 995 996 0
-152 -758 995 996 0
231 232 781 782 1259 1260 0
231 232 -781 -1259 0
231 232 -781 -1260 0
231 232 -782 -1259 0
231 232 -782 -1260 0
-231 781 782 -1259 0
-231 781 782 -1260 0
-232 781 782 -1259 0
-232 781 782 -1260 0
-231 -781 1259 1260 0
-231 -782 1259 1260 0
-232 -781 1259 1260 0
-232 -782 1259 1260 0
931 932 999 1000 1111 1112 0
931 932 -999 -1111 0
931 932 -999 -1112 0
931 932 -1000 -1111 0
931 932 -1000 -1112 0
-931 999 1000 -1111 0
-931 999 1000 -1112 0
-932 999 1000 -1111 0
-932 999 1000 -1112 0
-931 -999 1111 1112 0
-931 -1000 1111 1112 0
-932 -999 1111 1112 0
-932 -1000 1111 1112 0
887 888 947 948 979 980 0
887 888 -947 -979 0
887 888 -947 -980 0
887 888 -948 -979 0
887 888 -948 -980 0
-887 947 948 -979 0
-887 947 948 -980 0
-888 947 948 -979 0
-888 947 948 -980 0
-887 -947 979 980 0
-887 -948 979 980 0
-888 -947 979 980 0
-888 -948 979 980 0
307 308 415 416 -639 0
307 308 415 416 -640 0
307 308 -415 639 640 0
307 308 -416 639 640 0
-307 415 416 639 640 0
-308 415 416 639 640 0
-307 -415 -639 0
-307 -415 -640 0
-307 -416 -639 0
-307 -416 -640 0
-308 -415 -639 0
-308 -415 -640 0
-308 -416 -639 0
-308 -416 -640 0
91 92 309 310 913 914 0
91 92 -309 -913 0
91 92 -309 -914 0
91 92 -310 -913 0
91 92 -310 -914 0
-91 309 310 -913 0
-91 309 310 -914 0
-92 309 310 -913 0
-92 309 310 -914 0
-91 -309 913 914 0
-91 -310 913 914 0
-92 -309 913 914 0
-92 -310 913 914 0
71 72 105 106 751 752 0
71 72 -105 -751 0
71 72 -105 -752 0
71 72 -106 -751 0
71 72 -106 -752 0
-71 105 106 -751 0
-71 105 106 -752 0
-72 105 106 -751 0
-72 105 106 -752 0
-71 -105 751 752 0
-71 -106 751 752 0
-72 -105 751 752 0
-72 -106 751 752 0
261 262 303 304 1253 1254 0
261 262 -303 -1253 0
261 262 -303 -1254 0
261 262 -304 -1253 0
261 262 -304 -1254 0
-261 303 304 -1253 0
-261 303 304 -1254 0
-262 303 304 -1253 0
-262 303 304 -1254 0
-261 -303 1253 1254 0
-261 -304 1253 1254 0
-262 -303 1253 1254 0
-262 -304 1253 1254 0
767 768 811 812 851 852 0
767 768 -811 -851 0
767 768 -811 -852 0
767 768 -812 -851 0
767 768 -812 -852 0
-767 811 812 -851 0
-767 811 812 -852 0
-768 811 812 -851 0
-768 811 812 -852 0
-767 -811 851 852 0
-767 -812 851 852 0
-768 -811 851 852 0
-768 -812 851 852 0
71 72 787 788 1147 1148 0
71 72 -787 -1147 0
71 72 -787 -1148 0
71 72 -788 -1147 0
71 72 -788 -1148 0
-71 787 788 -1147 0
-71 787 788 -1148 0
-72 787 788 -1147 0
-72 787 788 -1148 0
-71 -787 1147 1148 0
-71 -788 1147 1148 0
-72 -787 1147 1148 0
-72 -788 1147 1148 0
31 32 707 708 1241 1242 0
31 32 -707 -1241 0
31 32 -707 -1242 0
31 32 -708 -1241 0
31 32 -708 -1242 0
-31 707 708 -1241 0
-31 707 708 -1242 0
-32 707 708 -1241 0
-32 707 708 -1242 0
-31 -707 1241 1242 0
-31 -708 1241 1242 0
-32 -707 1241 1242 0
-32 -708 1241 1242 0
109 110 563 564 -1173 0
109 110 563 564 -1174 0
109 110 -563 1173 1174 0
109 110 -564 1173 1174 0
-109 563 564 1173 1174 0
-110 563 564 1173 1174 0
-109 -563 -1173 0
-109 -563 -1174 0
-109 -564 -1173 0
-109 -564 -1174 0
-110 -563 -1173 0
-110 -563 -1174 0
-110 -564 -1173 0
-110 -564 -1174 0
61 62 145 146 815 816 0
61 62 -145 -815 0
61 62 -145 -816 0
61 62 -146 -815 0
61 62 -146 -816 0
-61 145 146 -815 0
-61 145 146 -816 0
-62 145 146 -815 0
-62 145 146 -816 0
-61 -145 815 816 0
-61 -146 815 816 0
-62 -145 815 816 0
-62 -146 815 816 0
167 168 681 682 1273 1274 0
167 168 -681 -1273 0
167 168 -681 -1274 0
167 168 -682 -1273 0
167 168 -682 -1274 0
-167 681 682 -1273 0
-167 681 682 -1274 0
-168 681 682 -1273 0
-168 681 682 -1274 0
-167 -681 1273 1274 0
-167 -682 1273 1274 0
-168 -681 1273 1274 0
-168 -682 1273 1274 0
417 418 1057 1058 -1119 0
417 418 1057 1058 -1120 0
417 418 -1057 1119 1120 0
417 418 -1058 1119 1120 0
-417 1057 1058 1119 1120 0
-418 1057 1058 1119 1120 0
-417 -1057 -1119 0
-417 -1057 -1120 0
-417 -1058 -1119 0
-417 -1058 -1120 0
-418 -1057 -1119 0
-418 -1057 -1120 0
-418 -1058 -1119 0
-418 -1058 -1120 0
301 302 1177 1178 1181 1182 0
301 302 -1177 -1181 0
301 302 -1177 -1182 0
301 302 -1178 -1181 0
301 302 -1178 -1182 0
-301 1177 1178 -1181 0
-301 1177 1178 -1182 0
-302 1177 1178 -1181 0
-302 1177 1178 -1182 0
-301 -1177 1181 1182 0
-301 -1178 1181 1182 0
-302 -1177 1181 1182 0
-302 -1178 1181 1182 0
519 520 879 880 -965 0
519 520 879 880 -966 0
519 520 -879 965 966 0
519 520 -880 965 966 0
-519 879 880 965 966 0
-520 879 880 965 966 0
-519 -879 -965 0
-519 -879 -966 0
-519 -880 -965 0
-519 -880 -966 0
-520 -879 -965 0
-520 -879 -966 0
-520 -880 -965 0
-520 -880 -966 0
393 394 529 530 -857 0
393 394 529 530 -858 0
393 394 -529 857 858 0
393 394 -530 857 858 0
-393 529 530 857 858 0
-394 529 530 857 858 0
-393 -529 -857 0
-393 -529 -858 0
-393 -530 -857 0
-393 -530 -858 0
-394 -529 -857 0
-394 -529 -858 0
-394 -530 -857 0
-394 -530 -858 0
757 758 1019 1020 -1087 0
757 758 1019 1020 -1088 0
757 758 -1019 1087 1088 0
757 758 -1020 1087 1088 0
-757 1019 1020 1087 1088 0
-758 1019 1020 1087 1088 0
-757 -1019 -1087 0
-757 -1019 -1088 0
-757 -1020 -1087 0
-757 -1020 -1088 0
-758 -1019 -1087 0
-758 -1019 -1088 0
-758 -1020 -1087 0
-758 -1020 -1088 0
217 218 1059 1060 1123 1124 0
217 218 -1059 -1123 0
217 218 -1059 -1124 0
217 218 -1060 -1123 0
217 218 -1060 -1124 0
-217 1059 1060 -1123 0
-217 1059 1060 -1124 0
-218 1059 1060 -1123 0
-218 1059 1060 -1124 0
-217 -1059 1123 1124 0
-217 -1060 1123 1124 0
-218 -1059 1123 1124 0
-218 -1060 1123 1124 0
635 636 1057 1058 1187 1188 0
635 636 -1057 -1187 0
635 636 -1057 -1188 0
635 636 -1058 -1187 0
635 636 -1058 -1188 0
-635 1057 1058 -1187 0
-635 1057 1058 -1188 0
-636 1057 1058 -1187 0
-636 1057 1058 -1188 0
-635 -1057 1187 1188 0
-635 -1058 1187 1188 0
-636 -1057 1187 1188 0
-636 -1058 1187 1188 0
567 568 655 656 -721 0
567 568 655 656 -722 0
567 568 -655 721 722 0
567 568 -656 721 722 0
-567 655 656 721 722 0
-568 655 656 721 722 0
-567 -655 -721 0
-567 -655 -722 0
-567 -656 -721 0
-567 -656 -722 0
-568 -655 -721 0
-568 -655 -722 0
-568 -656 -721 0
-568 -656 -722 0
861 862 921 922 1045 1046 0
861 862 -921 -1045 0
861 862 -921 -1046 0
861 862 -922 -1045 0
861 862 -922 -1046 0
-861 921 922 -1045 0
-861 921 922 -1046 0
-862 921 922 -1045 0
-862 921 922 -1046 0
-861 -921 1045 1046 0
-861 -922 1045 1046 0
-862 -921 1045 1046 0
-862 -922 1045 1046 0
657 658 1167 1168 1173 1174 0
657 658 -1167 -1173 0
657 658 -1167 -1174 0
657 658 -1168 -1173 0
657 658 -1168 -1174 0
-657 1167 1168 -1173 0
-657 1167 1168 -1174 0
-658 1167 1168 -1173 0
-658 1167 1168 -1174 0
-657 -1167 1173 1174 0
-657 -1168 1173 1174 0
-658 -1167 1173 1174 0
-658 -1168 1173 1174 0
149 150 467 468 997 998 0
149 150 -467 -997 0
149 150 -467 -998 0
149 150 -468 -997 0
149 150 -468 -998 0
-149 467 468 -997 0
-149 467 468 -998 0
-150 467 468 -997 0
-150 467 468 -998 0
-149 -467 997 998 0
-149 -468 997 998 0
-150 -467 997 998 0
-150 -468 997 998 0
289 290 691 692 1003 1004 0
289 290 -691 -1003 0
289 290 -691 -1004 0
289 290 -692 -1003 0
289 290 -692 -1004 0
-289 691 692 -1003 0
-289 691 692 -1004 0
-290 691 692 -1003 0
-290 691 692 -1004 0
-289 -691 1003 1004 0
-289 -692 1003 1004 0
-290 -691 1003 1004 0
-290 -692 1003 1004 0
223 224 881 882 927 928 0
223 224 -881 -927 0
223 224 -881 -928 0
223 224 -882 -927 0
223 224 -882 -928 0
-223 881 882 -927 0
-223 881 882 -928 0
-224 881 882 -927 0
-224 881 882 -928 0
-223 -881 927 928 0
-223 -882 927 928 0
-224 -881 927 928 0
-224 -882 927 928 0
159 160 619 620 1021 1022 0
159 160 -619 -1021 0
159 160 -619 -1022 0
159 160 -620 -1021 0
159 160 -620 -1022 0
-159 619 620 -1021 0
-159 619 620 -1022 0
-160 619 620 -1021 0
-160 619 620 -1022 0
-159 -619 1021 1022 0
-159 -620 1021 1022 0
-160 -619 1021 1022 0
-160 -620 1021 1022 0
505 506 641 642 -987 0
505 506 641 642 -988 0
505 506 -641 987 988 0
505 506 -642 987 988 0
-505 641 642 987 988 0
-506 641 642 987 988 0
-505 -641 -987 0
-505 -641 -988 0
-505 -642 -987 0
-505 -642 -988 0
-506 -641 -987 0
-506 -641 -988 0
-506 -642 -987 0
-506 -642 -988 0
1031 1032 1093 1094 1105 1106 0
1031 1032 -1093 -1105 0
1031 1032 -1093 -1106 0
1031 1032 -1094 -1105 0
1031 1032 -1094 -1106 0
-1031 1093 1094 -1105 0
-1031 1093 1094 -1106 0
-1032 1093 1094 -1105 0
-1032 1093 1094 -1106 0
-1031 -1093 1105 1106 0
-1031 -1094 1105 1106 0
-1032 -1093 1105 1106 0
-1032 -1094 1105 1106 0
405 406 895 896 -991 0
405 406 895 896 -992 0
405 406 -895 991 992 0
405 406 -896 991 992 0
-405 895 896 991 992 0
-406 895 896 991 992 0
-405 -895 -991 0
-405 -895 -992 0
-405 -896 -991 0
-405 -896 -992 0
-406 -895 -991 0
-406 -895 -992 0
-406 -896 -991 0
-406 -896 -992 0
73 74 457 458 -643 0
73 74 457 458 -644 0
73 74 -457 643 644 0
73 74 -458 643 644 0
-73 457 458 643 644 0
-74 457 458 643 644 0
-73 -457 -643 0
-73 -457 -644 0
-73 -458 -643 0
-73 -458 -644 0
-74 -457 -643 0
-74 -457 -644 0
-74 -458 -643 0
-74 -458 -644 0
237 238 641 642 1147 1148 0
237 238 -641 -1147 0
237 238 -641 -1148 0
237 238 -642 -1147 0
237 238 -642 -1148 0
-237 641 642 -1147 0
-237 641 642 -1148 0
-238 641 642 -1147 0
-238 641 642 -1148 0
-237 -641 1147 1148 0
-237 -642 1147 1148 0
-238 -641 1147 1148 0
-238 -642 1147 1148 0
695 696 965 966 -1157 0
695 696 965 966 -1158 0
695 696 -965 1157 1158 0
695 696 -966 1157 1158 0
-695 965 966 1157 1158 0
-696 965 966 1157 1158 0
-695 -965 -1157 0
-695 -965 -1158 0
-695 -966 -1157 0
-695 -966 -1158 0
-696 -965 -1157 0
-696 -965 -1158 0
-696 -966 -1157 0
-696 -966 -1158 0
155 156 423 424 -1107 0
155 156 423 424 -1108 0
155 156 -423 1107 1108 0
155 156 -424 1107 1108 0
-155 423 424 1107 1108 0
-156 423 424 1107 1108 0
-155 -423 -1107 0
-155 -423 -1108 0
-155 -424 -1107 0
-155 -424 -1108 0
-156 -423 -1107 0
-156 -423 -1108 0
-156 -424 -1107 0
-156 -424 -1108 0
231 232 675 676 -1007 0
231 232 675 676 -1008 0
231 232 -675 1007 1008 0
231 232 -676 1007 1008 0
-231 675 676 1007 1008 0
-232 675 676 1007 1008 0
-231 -675 -1007 0
-231 -675 -1008 0
-231 -676 -1007 0
-231 -676 -1008 0
-232 -675 -1007 0
-232 -675 -1008 0
-232 -676 -1007 0
-232 -676 -1008 0
77 78 361 362 1155 1156 0
77 78 -361 -1155 0
77 78 -361 -1156 0
77 78 -362 -1155 0
77 78 -362 -1156 0
-77 361 362 -1155 0
-77 361 362 -1156 0
-78 361 362 -1155 0
-78 361 362 -1156 0
-77 -361 1155 1156 0
-77 -362 1155 1156 0
-78 -361 1155 1156 0
-78 -362 1155 1156 0
115 116 795 796 1277 1278 0
115 116 -795 -1277 0
115 116 -795 -1278 0
115 116 -796 -1277 0
115 116 -796 -1278 0
-115 795 796 -1277 0
-115 795 796 -1278 0
-116 795 796 -1277 0
-116 795 796 -1278 0
-115 -795 1277 1278 0
-115 -796 1277 1278 0
-116 -795 1277 1278 0
-116 -796 1277 1278 0
171 172 349 350 -441 0
171 172 349 350 -442 0
171 172 -349 441 442 0
171 172 -350 441 442 0
-171 349 350 441 442 0
-172 349 350 441 442 0
-171 -349 -441 0
-171 -349 -442 0
-171 -350 -441 0
-171 -350 -442 0
-172 -349 -441 0
-172 -349 -442 0
-172 -350 -441 0
-172 -350 -442 0
685 686 707 708 -1011 0
685 686 707 708 -1012 0
685 686 -707 1011 1012 0
685 686 -708 1011 1012 0
-685 707 708 1011 1012 0
-686 707 708 1011 1012 0
-685 -707 -1011 0
-685 -707 -1012 0
-685 -708 -1011 0
-685 -708 -1012 0
-686 -707 -1011 0
-686 -707 -1012 0
-686 -708 -1011 0
-686 -708 -1012 0
899 900 919 920 -1123 0
899 900 919 920 -1124 0
899 900 -919 1123 1124 0
899 900 -920 1123 1124 0
-899 919 920 1123 1124 0
-900 919 920 1123 1124 0
-899 -919 -1123 0
-899 -919 -1124 0
-899 -920 -1123 0
-899 -920 -1124 0
-900 -919 -1123 0
-900 -919 -1124 0
-900 -920 -1123 0
-900 -920 -1124 0
31 32 477 478 599 600 0
31 32 -477 -599 0
31 32 -477 -600 0
31 32 -478 -599 0
31 32 -478 -600 0
-31 477 478 -599 0
-31 477 478 -600 0
-32 477 478 -599 0
-32 477 478 -600 0
-31 -477 599 600 0
-31 -478 599 600 0
-32 -477 599 600 0
-32 -478 599 600 0
165 166 183 184 855 856 0
165 166 -183 -855 0
165 166 -183 -856 0
165 166 -184 -855 0
165 166 -184 -856 0
-165 183 184 -855 0
-165 183 184 -856 0
-166 183 184 -855 0
-166 183 184 -856 0
-165 -183 855 856 0
-165 -184 855 856 0
-166 -183 855 856 0
-166 -184 855 856 0
207 208 439 440 525 526 0
207 208 -439 -525 0
207 208 -439 -526 0
207 208 -440 -525 0
207 208 -440 -526 0
-207 439 440 -525 0
-207 439 440 -526 0
-208 439 440 -525 0
-208 439 440 -526 0
-207 -439 525 526 0
-207 -440 525 526 0
-208 -439 525 526 0
-208 -440 525 526 0
597 598 843 844 983 984 0
597 598 -843 -983 0
597 598 -843 -984 0
597 598 -844 -983 0
597 598 -844 -984 0
-597 843 844 -983 0
-597 843 844 -984 0
-598 843 844 -983 0
-598 843 844 -984 0
-597 -843 983 984 0
-597 -844 983 984 0
-598 -843 983 984 0
-598 -844 983 984 0
109 110 497 498 957 958 0
109 110 -497 -957 0
109 110 -497 -958 0
109 110 -498 -957 0
109 110 -498 -958 0
-109 497 498 -957 0
-109 497 498 -958 0
-110 497 498 -957 0
-110 497 498 -958 0
-109 -497 957 958 0
-109 -498 957 958 0
-110 -497 957 958 0
-110 -498 957 958 0
31 32 697 698 841 842 0
31 32 -697 -841 0
31 32 -697 -842 0
31 32 -698 -841 0
31 32 -698 -842 0
-31 697 698 -841 0
-31 697 698 -842 0
-32 697 698 -841 0
-32 697 698 -842 0
-31 -697 841 842 0
-31 -698 841 842 0
-32 -697 841 842 0
-32 -698 841 842 0
277 278 535 536 -791 0
277 278 535 536 -792 0
277 278 -535 791 792 0
277 278 -536 791 792 0
-277 535 536 791 792 0
-278 535 536 791 792 0
-277 -535 -791 0
-277 -535 -792 0
-277 -536 -791 0
-277 -536 -792 0
-278 -535 -791 0
-278 -535 -792 0
-278 -536 -791 0
-278 -536 -792 0
75 76 191 192 -957 0
75 76 191 192 -958 0
75 76 -191 957 958 0
75 76 -192 957 958 0
-75 191 192 957 958 0
-76 191 192 957 958 0
-75 -191 -957 0
-75 -191 -958 0
-75 -192 -957 0
-75 -192 -958 0
-76 -191 -957 0
-76 -191 -958 0
-76 -192 -957 0
-76 -192 -958 0
101 102 341 342 735 736 0
101 102 -341 -735 0
101 102 -341 -736 0
101 102 -342 -735 0
101 102 -342 -736 0
-101 341 342 -735 0
-101 341 342 -736 0
-102 341 342 -735 0
-102 341 342 -736 0
-101 -341 735 736 0
-101 -342 735 736 0
-102 -341 735 736 0
-102 -342 735 736 0
25 26 53 54 865 866 0
25 26 -53 -865 0
25 26 -53 -866 0
25 26 -54 -865 0
25 26 -54 -866 0
-25 53 54 -865 0
-25 53 54 -866 0
-26 53 54 -865 0
-26 53 54 -866 0
-25 -53 865 866 0
-25 -54 865 866 0
-26 -53 865 866 0
-26 -54 865 866 0
285 286 941 942 1143 1144 0
285 286 -941 -1143 0
285 286 -941 -1144 0
285 286 -942 -1143 0
285 286 -942 -1144 0
-285 941 942 -1143 0
-285 941 942 -1144 0
-286 941 942 -1143 0
-286 941 942 -1144 0
-285 -941 1143 1144 0
-285 -942 1143 1144 0
-286 -941 1143 1144 0
-286 -942 1143 1144 0
83 84 91 92 727 728 0
83 84 -91 -727 0
83 84 -91 -728 0
83 84 -92 -727 0
83 84 -92 -728 0
-83 91 92 -727 0
-83 91 92 -728 0
-84 91 92 -727 0
-84 91 92 -728 0
-83 -91 727 728 0
-83 -92 727 728 0
-84 -91 727 728 0
-84 -92 727 728 0
71 72 425 426 -597 0
71 72 425 426 -598 0
71 72 -425 597 598 0
71 72 -426 597 598 0
-71 425 426 597 598 0
-72 425 426 597 598 0
-71 -425 -597 0
-71 -425 -598 0
-71 -426 -597 0
-71 -426 -598 0
-72 -425 -597 0
-72 -425 -598 0
-72 -426 -597 0
-72 -426 -598 0
11 12 157 158 -1219 0
11 12 157 158 -1220 0
11 12 -157 1219 1220 0
11 12 -158 1219 1220 0
-11 157 158 1219 1220 0
-12 157 158 1219 1220 0
-11 -157 -1219 0
-11 -157 -1220 0
-11 -158 -1219 0
-11 -158 -1220 0
-12 -157 -1219 0
-12 -157 -1220 0
-12 -158 -1219 0
-12 -158 -1220 0
299 300 525 526 657 658 0
299 300 -525 -657 0
299 300 -525 -658 0
299 300 -526 -657 0
299 300 -526 -658 0
-299 525 526 -657 0
-299 525 526 -658 0
-300 525 526 -657 0
-300 525 526 -658 0
-299 -525 657 658 0
-299 -526 657 658 0
-300 -525 657 658 0
-300 -526 657 658 0
5 6 53 54 -399 0
5 6 53 54 -400 0
5 6 -53 399 400 0
5 6 -54 399 400 0
-5 53 54 399 400 0
-6 53 54 399 400 0
-5 -53 -399 0
-5 -53 -400 0
-5 -54 -399 0
-5 -54 -400 0
-6 -53 -399 0
-6 -53 -400 0
-6 -54 -399 0
-6 -54 -400 0
359 360 361 362 1243 1244 0
359 360 -361 -1243 0
359 360 -361 -1244 0
359 360 -362 -1243 0
359 360 -362 -1244 0
-359 361 362 -1243 0
-359 361 362 -1244 0
-360 361 362 -1243 0
-360 361 362 -1244 0
-359 -361 1243 1244 0
-359 -362 1243 1244 0
-360 -361 1243 1244 0
-360 -362 1243 1244 0
179 180 637 638 -785 0
179 180 637 638 -786 0
179 180 -637 785 786 0
179 180 -638 785 786 0
-179 637 638 785 786 0
-180 637 638 785 786 0
-179 -637 -785 0
-179 -637 -786 0
-179 -638 -785 0
-179 -638 -786 0
-180 -637 -785 0
-180 -637 -786 0
-180 -638 -785 0
-180 -638 -786 0
335 336 837 838 1015 1016 0
335 336 -837 -1015 0
335 336 -837 -1016 0
335 336 -838 -1015 0
335 336 -838 -1016 0
-335 837 838 -1015 0
-335 837 838 -1016 0
-336 837 838 -1015 0
-336 837 838 -1016 0
-335 -837 1015 1016 0
-335 -838 1015 1016 0
-336 -837 1015 1016 0
-336 -838 1015 1016 0
453 454 845 846 1241 1242 0
453 454 -845 -1241 0
453 454 -845 -1242 0
453 454 -846 -1241 0
453 454 -846 -1242 0
-453 845 846 -1241 0
-453 845 846 -1242 0
-454 845 846 -1241 0
-454 845 846 -1242 0
-453 -845 1241 1242 0
-453 -846 1241 1242 0
-454 -845 1241 1242 0
-454 -846 1241 1242 0
601 602 1055 1056 1101 1102 0
601 602 -1055 -1101 0
601 602 -1055 -1102 0
601 602 -1056 -1101 0
601 602 -1056 -1102 0
-601 1055 1056 -1101 0
-601 1055 1056 -1102 0
-602 1055 1056 -1101 0
-602 1055 1056 -1102 0
-601 -1055 1101 1102 0
-601 -1056 1101 1102 0
-602 -1055 1101 1102 0
-602 -1056 1101 1102 0
557 558 1121 1122 -1279 0
557 558 1121 1122 -1280 0
557 558 -1121 1279 1280 0
557 558 -1122 1279 1280 0
-557 1121 1122 1279 1280 0
-558 1121 1122 1279 1280 0
-557 -1121 -1279 0
-557 -1121 -1280 0
-557 -1122 -1279 0
-557 -1122 -1280 0
-558 -1121 -1279 0
-558 -1121 -1280 0
-558 -1122 -1279 0
-558 -1122 -1280 0
331 332 801 802 1011 1012 0
331 332 -801 -1011 0
331 332 -801 -1012 0
331 332 -802 -1011 0
331 332 -802 -1012 0
-331 801 802 -1011 0
-331 801 802 -1012 0
-332 801 802 -1011 0
-332 801 802 -1012 0
-331 -801 1011 1012 0
-331 -802 1011 1012 0
-332 -801 1011 1012 0
-332 -802 1011 1012 0
159 160 171 172 -549 0
159 160 171 172 -550 0
159 160 -171 549 550 0
159 160 -172 549 550 0
-159 171 172 549 550 0
-160 171 172 549 550 0
-159 -171 -549 0
-159 -171 -550 0
-159 -172 -549 0
-159 -172 -550 0
-160 -171 -549 0
-160 -171 -550 0
-160 -172 -549 0
-160 -172 -550 0
473 474 613 614 617 618 0
473 474 -613 -617 0
473 474 -613 -618 0
473 474 -614 -617 0
473 474 -614 -618 0
-473 613 614 -617 0
-473 613 614 -618 0
-474 613 614 -617 0
-474 613 614 -618 0
-473 -613 617 618 0
-473 -614 617 618 0
-474 -613 617 618 0
-474 -614 617 618 0
241 242 475 476 -813 0
241 242 475 476 -814 0
241 242 -475 813 814 0
241 242 -476 813 814 0
-241 475 476 813 814 0
-242 475 476 813 814 0
-241 -475 -813 0
-241 -475 -814 0
-241 -476 -813 0
-241 -476 -814 0
-242 -475 -813 0
-242 -475 -814 0
-242 -476 -813 0
-242 -476 -814 0
313 314 617 618 741 742 0
313 314 -617 -741 0
313 314 -617 -742 0
313 314 -618 -741 0
313 314 -618 -742 0
-313 617 618 -741 0
-313 617 618 -742 0
-314 617 618 -741 0
-314 617 618 -742 0
-313 -617 741 742 0
-313 -618 741 742 0
-314 -617 741 742 0
-314 -618 741 742 0
163 164 363 364 -485 0
163 164 363 364 -486 0
163 164 -363 485 486 0
163 164 -364 485 486 0
-163 363 364 485 486 0
-164 363 364 485 486 0
-163 -363 -485 0
-163 -363 -486 0
-163 -364 -485 0
-163 -364 -486 0
-164 -363 -485 0
-164 -363 -486 0
-164 -364 -485 0
-164 -364 -486 0
143 144 271 272 -1021 0
143 144 271 272 -1022 0
143 144 -271 1021 1022 0
143 144 -272 1021 1022 0
-143 271 272 1021 1022 0
-144 271 272 1021 1022 0
-143 -271 -1021 0
-143 -271 -1022 0
-143 -272 -1021 0
-143 -272 -1022 0
-144 -271 -1021 0
-144 -271 -1022 0
-144 -272 -1021 0
-144 -272 -1022 0
193 194 1175 1176 -1215 0
193 194 1175 1176 -1216 0
193 194 -1175 1215 1216 0
193 194 -1176 1215 1216 0
-193 1175 1176 1215 1216 0
-194 1175 1176 1215 1216 0
-193 -1175 -1215 0
-193 -1175 -1216 0
-193 -1176 -1215 0
-193 -1176 -1216 0
-194 -1175 -1215 0
-194 -1175 -1216 0
-194 -1176 -1215 0
-194 -1176 -1216 0
671 672 817 818 -919 0
671 672 817 818 -920 0
671 672 -817 919 920 0
671 672 -818 919 920 0
-671 817 818 919 920 0
-672 817 818 919 920 0
-671 -817 -919 0
-671 -817 -920 0
-671 -818 -919 0
-671 -818 -920 0
-672 -817 -919 0
-672 -817 -920 0
-672 -818 -919 0
-672 -818 -920 0
183 184 507 508 -543 0
183 184 507 508 -544 0
183 184 -507 543 544 0
183 184 -508 543 544 0
-183 507 508 543 544 0
-184 507 508 543 544 0
-183 -507 -543 0
-183 -507 -544 0
-183 -508 -543 0
-183 -508 -544 0
-184 -507 -543 0
-184 -507 -544 0
-184 -508 -543 0
-184 -508 -544 0
229 230 265 266 -319 0
229 230 265 266 -320 0
229 230 -265 319 320 0
229 230 -266 319 320 0
-229 265 266 319 320 0
-230 265 266 319 320 0
-229 -265 -319 0
-229 -265 -320 0
-229 -266 -319 0
-229 -266 -320 0
-230 -265 -319 0
-230 -265 -320 0
-230 -266 -319 0
-230 -266 -320 0
845 846 913 914 -1093 0
845 846 913 914 -1094 0
845 846 -913 1093 1094 0
845 846 -914 1093 1094 0
-845 913 914 1093 1094 0
-846 913 914 1093 1094 0
-845 -913 -1093 0
-845 -913 -1094 0
-845 -914 -1093 0
-845 -914 -1094 0
-846 -913 -1093 0
-846 -913 -1094 0
-846 -914 -1093 0
-846 -914 -1094 0
355 356 773 774 -849 0
355 356 773 774 -850 0
355 356 -773 849 850 0
355 356 -774 849 850 0
-355 773 774 849 850 0
-356 773 774 849 850 0
-355 -773 -849 0
-355 -773 -850 0
-355 -774 -849 0
-355 -774 -850 0
-356 -773 -849 0
-356 -773 -850 0
-356 -774 -849 0
-356 -774 -850 0
159 160 1155 1156 1237 1238 0
159 160 -1155 -1237 0
159 160 -1155 -1238 0
159 160 -1156 -1237 0
159 160 -1156 -1238 0
-159 1155 1156 -1237 0
-159 1155 1156 -1238 0
-160 1155 1156 -1237 0
-160 1155 1156 -1238 0
-159 -1155 1237 1238 0
-159 -1156 1237 1238 0
-160 -1155 1237 1238 0
-160 -1156 1237 1238 0
675 676 765 766 -1273 0
675 676 765 766 -1274 0
675 676 -765 1273 1274 0
675 676 -766 1273 1274 0
-675 765 766 1273 1274 0
-676 765 766 1273 1274 0
-675 -765 -1273 0
-675 -765 -1274 0
-675 -766 -1273 0
-675 -766 -1274 0
-676 -765 -1273 0
-676 -765 -1274 0
-676 -766 -1273 0
-676 -766 -1274 0
323 324 345 346 -993 0
323 324 345 346 -994 0
323 324 -345 993 994 0
323 324 -346 993 994 0
-323 345 346 993 994 0
-324 345 346 993 994 0
-323 -345 -993 0
-323 -345 -994 0
-323 -346 -993 0
-323 -346 -994 0
-324 -345 -993 0
-324 -345 -994 0
-324 -346 -993 0
-324 -346 -994 0
337 338 679 680 767 768 0
337 338 -679 -767 0
337 338 -679 -768 0
337 338 -680 -767 0
337 338 -680 -768 0
-337 679 680 -767 0
-337 679 680 -768 0
-338 679 680 -767 0
-338 679 680 -768 0
-337 -679 767 768 0
-337 -680 767 768 0
-338 -679 767 768 0
-338 -680 767 768 0
509 510 633 634 -759 0
509 510 633 634 -760 0
509 510 -633 759 760 0
509 510 -634 759 760 0
-509 633 634 759 760 0
-510 633 634 759 760 0
-509 -633 -759 0
-509 -633 -760 0
-509 -634 -759 0
-509 -634 -760 0
-510 -633 -759 0
-510 -633 -760 0
-510 -634 -759 0
-510 -634 -760 0
5 6 387 388 873 874 0
5 6 -387 -873 0
5 6 -387 -874 0
5 6 -388 -873 0
5 6 -388 -874 0
-5 387 388 -873 0
-5 387 388 -874 0
-6 387 388 -873 0
-6 387 388 -874 0
-5 -387 873 874 0
-5 -388 873 874 0
-6 -387 873 874 0
-6 -388 873 874 0
875 876 897 898 -1015 0
875 876 897 898 -1016 0
875 876 -897 1015 1016 0
875 876 -898 1015 1016 0
-875 897 898 1015 1016 0
-876 897 898 1015 1016 0
-875 -897 -1015 0
-875 -897 -1016 0
-875 -898 -1015 0
-875 -898 -1016 0
-876 -897 -1015 0
-876 -897 -1016 0
-876 -898 -1015 0
-876 -898 -1016 0
281 282 1015 1016 -1225 0
281 282 1015 1016 -1226 0
281 282 -1015 1225 1226 0
281 282 -1016 1225 1226 0
-281 1015 1016 1225 1226 0
-282 1015 1016 1225 1226 0
-281 -1015 -1225 0
-281 -1015 -1226 0
-281 -1016 -1225 0
-281 -1016 -1226 0
-282 -1015 -1225 0
-282 -1015 -1226 0
-282 -1016 -1225 0
-282 -1016 -1226 0
705 706 919 920 -1177 0
705 706 919 920 -1178 0
705 706 -919 1177 1178 0
705 706 -920 1177 1178 0
-705 919 920 1177 1178 0
-706 919 920 1177 1178 0
-705 -919 -1177 0
-705 -919 -1178 0
-705 -920 -1177 0
-705 -920 -1178 0
-706 -919 -1177 0
-706 -919 -1178 0
-706 -920 -1177 0
-706 -920 -1178 0
439 440 465 466 983 984 0
439 440 -465 -983 0
439 440 -465 -984 0
439 440 -466 -983 0
439 440 -466 -984 0
-439 465 466 -983 0
-439 465 466 -984 0
-440 465 466 -983 0
-440 465 466 -984 0
-439 -465 983 984 0
-439 -466 983 984 0
-440 -465 983 984 0
-440 -466 983 984 0
43 44 1075 1076 1099 1100 0
43 44 -1075 -1099 0
43 44 -1075 -1100 0
43 44 -1076 -1099 0
43 44 -1076 -1100 0
-43 1075 1076 -1099 0
-43 1075 1076 -1100 0
-44 1075 1076 -1099 0
-44 1075 1076 -1100 0
-43 -1075 1099 1100 0
-43 -1076 1099 1100 0
-44 -1075 1099 1100 0
-44 -1076 1099 1100 0
143 144 369 370 417 418 0
143 144 -369 -417 0
143 144 -369 -418 0
143 144 -370 -417 0
143 144 -370 -418 0
-143 369 370 -417 0
-143 369 370 -418 0
-144 369 370 -417 0
-144 369 370 -418 0
-143 -369 417 418 0
-143 -370 417 418 0
-144 -369 417 418 0
-144 -370 417 418 0
219 220 801 802 843 844 0
219 220 -801 -843 0
219 220 -801 -844 0
219 220 -802 -843 0
219 220 -802 -844 0
-219 801 802 -843 0
-219 801 802 -844 0
-220 801 802 -843 0
-220 801 802 -844 0
-219 -801 843 844 0
-219 -802 843 844 0
-220 -801 843 844 0
-220 -802 843 844 0
303 304 541 542 -923 0
303 304 541 542 -924 0
303 304 -541 923 924 0
303 304 -542 923 924 0
-303 541 542 923 924 0
-304 541 542 923 924 0
-303 -541 -923 0
-303 -541 -924 0
-303 -542 -923 0
-303 -542 -924 0
-304 -541 -923 0
-304 -541 -924 0
-304 -542 -923 0
-304 -542 -924 0
539 540 1099 1100 -1189 0
539 540 1099 1100 -1190 0
539 540 -1099 1189 1190 0
539 540 -1100 1189 1190 0
-539 1099 1100 1189 1190 0
-540 1099 1100 1189 1190 0
-539 -1099 -1189 0
-539 -1099 -1190 0
-539 -1100 -1189 0
-539 -1100 -1190 0
-540 -1099 -1189 0
-540 -1099 -1190 0
-540 -1100 -1189 0
-540 -1100 -1190 0
527 528 713 714 1245 1246 0
527 528 -713 -1245 0
527 528 -713 -1246 0
527 528 -714 -1245 0
527 528 -714 -1246 0
-527 713 714 -1245 0
-527 713 714 -1246 0
-528 713 714 -1245 0
-528 713 714 -1246 0
-527 -713 1245 1246 0
-527 -714 1245 1246 0
-528 -713 1245 1246 0
-528 -714 1245 1246 0
339 340 941 942 1237 1238 0
339 340 -941 -1237 0
339 340 -941 -1238 0
339 340 -942 -1237 0
339 340 -942 -1238 0
-339 941 942 -1237 0
-339 941 942 -1238 0
-340 941 942 -1237 0
-340 941 942 -1238 0
-339 -941 1237 1238 0
-339 -942 1237 1238 0
-340 -941 1237 1238 0
-340 -942 1237 1238 0
631 632 897 898 1065 1066 0
631 632 -897 -1065 0
631 632 -897 -1066 0
631 632 -898 -1065 0
631 632 -898 -1066 0
-631 897 898 -1065 0
-631 897 898 -1066 0
-632 897 898 -1065 0
-632 897 898 -1066 0
-631 -897 1065 1066 0
-631 -898 1065 1066 0
-632 -897 1065 1066 0
-632 -898 1065 1066 0
135 136 647 648 661 662 0
135 136 -647 -661 0
135 136 -647 -662 0
135 136 -648 -661 0
135 136 -648 -662 0
-135 647 648 -661 0
-135 647 648 -662 0
-136 647 648 -661 0
-136 647 648 -662 0
-135 -647 661 662 0
-135 -648 661 662 0
-136 -647 661 662 0
-136 -648 661 662 0
183 184 801 802 -1041 0
183 184 801 802 -1042 0
183 184 -801 1041 1042 0
183 184 -802 1041 1042 0
-183 801 802 1041 1042 0
-184 801 802 1041 1042 0
-183 -801 -1041 0
-183 -801 -1042 0
-183 -802 -1041 0
-183 -802 -1042 0
-184 -801 -1041 0
-184 -801 -1042 0
-184 -802 -1041 0
-184 -802 -1042 0
363 364 867 868 897 898 0
363 364 -867 -897 0
363 364 -867 -898 0
363 364 -868 -897 0
363 364 -868 -898 0
-363 867 868 -897 0
-363 867 868 -898 0
-364 867 868 -897 0
-364 867 868 -898 0
-363 -867 897 898 0
-363 -868 897 898 0
-364 -867 897 898 0
-364 -868 897 898 0
813 814 899 900 -1081 0
813 814 899 900 -1082 0
813 814 -899 1081 1082 0
813 814 -900 1081 1082 0
-813 899 900 1081 1082 0
-814 899 900 1081 1082 0
-813 -899 -1081 0
-813 -899 -1082 0
-813 -900 -1081 0
-813 -900 -1082 0
-814 -899 -1081 0
-814 -899 -1082 0
-814 -900 -1081 0
-814 -900 -1082 0
131 132 227 228 -931 0
131 132 227 228 -932 0
131 132 -227 931 932 0
131 132 -228 931 932 0
-131 227 228 931 932 0
-132 227 228 931 932 0
-131 -227 -931 0
-131 -227 -932 0
-131 -228 -931 0
-131 -228 -932 0
-132 -227 -931 0
-132 -227 -932 0
-132 -228 -931 0
-132 -228 -932 0
7 8 825 826 -891 0
7 8 825 826 -892 0
7 8 -825 891 892 0
7 8 -826 891 892 0
-7 825 826 891 892 0
-8 825 826 891 892 0
-7 -825 -891 0
-7 -825 -892 0
-7 -826 -891 0
-7 -826 -892 0
-8 -825 -891 0
-8 -825 -892 0
-8 -826 -891 0
-8 -826 -892 0
875 876 1079 1080 1123 1124 0
875 876 -1079 -1123 0
875 876 -1079 -1124 0
875 876 -1080 -1123 0
875 876 -1080 -1124 0
-875 1079 1080 -1123 0
-875 1079 1080 -1124 0
-876 1079 1080 -1123 0
-876 1079 1080 -1124 0
-875 -1079 1123 1124 0
-875 -1080 1123 1124 0
-876 -1079 1123 1124 0
-876 -1080 1123 1124 0
81 82 369 370 -463 0
81 82 369 370 -464 0
81 82 -369 463 464 0
81 82 -370 463 464 0
-81 369 370 463 464 0
-82 369 370 463 464 0
-81 -369 -463 0
-81 -369 -464 0
-81 -370 -463 0
-81 -370 -464 0
-82 -369 -463 0
-82 -369 -464 0
-82 -370 -463 0
-82 -370 -464 0
733 734 807 808 1149 1150 0
733 734 -807 -1149 0
733 734 -807 -1150 0
733 734 -808 -1149 0
733 734 -808 -1150 0
-733 807 808 -1149 0
-733 807 808 -1150 0
-734 807 808 -1149 0
-734 807 808 -1150 0
-733 -807 1149 1150 0
-733 -808 1149 1150 0
-734 -807 1149 1150 0
-734 -808 1149 1150 0
243 244 249 250 -965 0
243 244 249 250 -966 0
243 244 -249 965 966 0
243 244 -250 965 966 0
-243 249 250 965 966 0
-244 249 250 965 966 0
-243 -249 -965 0
-243 -249 -966 0
-243 -250 -965 0
-243 -250 -966 0
-244 -249 -965 0
-244 -249 -966 0
-244 -250 -965 0
-244 -250 -966 0
127 128 293 294 -943 0
127 128 293 294 -944 0
127 128 -293 943 944 0
127 128 -294 943 944 0
-127 293 294 943 944 0
-128 293 294 943 944 0
-127 -293 -943 0
-127 -293 -944 0
-127 -294 -943 0
-127 -294 -944 0
-128 -293 -943 0
-128 -293 -944 0
-128 -294 -943 0
-128 -294 -944 0
109 110 521 522 -529 0
109 110 521 522 -530 0
109 110 -521 529 530 0
109 110 -522 529 530 0
-109 521 522 529 530 0
-110 521 522 529 530 0
-109 -521 -529 0
-109 -521 -530 0
-109 -522 -529 0
-109 -522 -530 0
-110 -521 -529 0
-110 -521 -530 0
-110 -522 -529 0
-110 -522 -530 0
805 806 809 810 -1141 0
805 806 809 810 -1142 0
805 806 -809 1141 1142 0
805 806 -810 1141 1142 0
-805 809 810 1141 1142 0
-806 809 810 1141 1142 0
-805 -809 -1141 0
-805 -809 -1142 0
-805 -810 -1141 0
-805 -810 -1142 0
-806 -809 -1141 0
-806 -809 -1142 0
-806 -810 -1141 0
-806 -810 -1142 0
97 98 109 110 1043 1044 0
97 98 -109 -1043 0
97 98 -109 -1044 0
97 98 -110 -1043 0
97 98 -110 -1044 0
-97 109 110 -1043 0
-97 109 110 -1044 0
-98 109 110 -1043 0
-98 109 110 -1044 0
-97 -109 1043 1044 0
-97 -110 1043 1044 0
-98 -109 1043 1044 0
-98 -110 1043 1044 0
93 94 975 976 -1061 0
93 94 975 976 -1062 0
93 94 -975 1061 1062 0
93 94 -976 1061 1062 0
-93 975 976 1061 1062 0
-94 975 976 1061 1062 0
-93 -975 -1061 0
-93 -975 -1062 0
-93 -976 -1061 0
-93 -976 -1062 0
-94 -975 -1061 0
-94 -975 -1062 0
-94 -976 -1061 0
-94 -976 -1062 0
423 424 427 428 -971 0
423 424 427 428 -972 0
423 424 -427 971 972 0
423 424 -428 971 972 0
-423 427 428 971 972 0
-424 427 428 971 972 0
-423 -427 -971 0
-423 -427 -972 0
-423 -428 -971 0
-423 -428 -972 0
-424 -427 -971 0
-424 -427 -972 0
-424 -428 -971 0
-424 -428 -972 0
309 310 705 706 -971 0
309 310 705 706 -972 0
309 310 -705 971 972 0
309 310 -706 971 972 0
-309 705 706 971 972 0
-310 705 706 971 972 0
-309 -705 -971 0
-309 -705 -972 0
-309 -706 -971 0
-309 -706 -972 0
-310 -705 -971 0
-310 -705 -972 0
-310 -706 -971 0
-310 -706 -972 0
13 14 597 598 759 760 0
13 14 -597 -759 0
13 14 -597 -760 0
13 14 -598 -759 0
13 14 -598 -760 0
-13 597 598 -759 0
-13 597 598 -760 0
-14 597 598 -759 0
-14 597 598 -760 0
-13 -597 759 760 0
-13 -598 759 760 0
-14 -597 759 760 0
-14 -598 759 760 0
1 2 823 824 1005 1006 0
1 2 -823 -1005 0
1 2 -823 -1006 0
1 2 -824 -1005 0
1 2 -824 -1006 0
-1 823 824 -1005 0
-1 823 824 -1006 0
-2 823 824 -1005 0
-2 823 824 -1006 0
-1 -823 1005 1006 0
-1 -824 1005 1006 0
-2 -823 1005 1006 0
-2 -824 1005 1006 0
17 18 159 160 1199 1200 0
17 18 -159 -1199 0
17 18 -159 -1200 0
17 18 -160 -1199 0
17 18 -160 -1200 0
-17 159 160 -1199 0
-17 159 160 -1200 0
-18 159 160 -1199 0
-18 159 160 -1200 0
-17 -159 1199 1200 0
-17 -160 1199 1200 0
-18 -159 1199 1200 0
-18 -160 1199 1200 0
265 266 641 642 1135 1136 0
265 266 -641 -1135 0
265 266 -641 -1136 0
265 266 -642 -1135 0
265 266 -642 -1136 0
-265 641 642 -1135 0
-265 641 642 -1136 0
-266 641 642 -1135 0
-266 641 642 -1136 0
-265 -641 1135 1136 0
-265 -642 1135 1136 0
-266 -641 1135 1136 0
-266 -642 1135 1136 0
25 26 201 202 -1023 0
25 26 201 202 -1024 0
25 26 -201 1023 1024 0
25 26 -202 1023 1024 0
-25 201 202 1023 1024 0
-26 201 202 1023 1024 0
-25 -201 -1023 0
-25 -201 -1024 0
-25 -202 -1023 0
-25 -202 -1024 0
-26 -201 -1023 0
-26 -201 -1024 0
-26 -202 -1023 0
-26 -202 -1024 0
289 290 673 674 1111 1112 0
289 290 -673 -1111 0
289 290 -673 -1112 0
289 290 -674 -1111 0
289 290 -674 -1112 0
-289 673 674 -1111 0
-289 673 674 -1112 0
-290 673 674 -1111 0
-290 673 674 -1112 0
-289 -673 1111 1112 0
-289 -674 1111 1112 0
-290 -673 1111 1112 0
-290 -674 1111 1112 0
37 38 521 522 -887 0
37 38 521 522 -888 0
37 38 -521 887 888 0
37 38 -522 887 888 0
-37 521 522 887 888 0
-38 521 522 887 888 0
-37 -521 -887 0
-37 -521 -888 0
-37 -522 -887 0
-37 -522 -888 0
-38 -521 -887 0
-38 -521 -888 0
-38 -522 -887 0
-38 -522 -888 0
491 492 539 540 621 622 0
491 492 -539 -621 0
491 492 -539 -622 0
491 492 -540 -621 0
491 492 -540 -622 0
-491 539 540 -621 0
-491 539 540 -622 0
-492 539 540 -621 0
-492 539 540 -622 0
-491 -539 621 622 0
-491 -540 621 622 0
-492 -539 621 622 0
-492 -540 621 622 0
21 22 851 852 1097 1098 0
21 22 -851 -1097 0
21 22 -851 -1098 0
21 22 -852 -1097 0
21 22 -852 -1098 0
-21 851 852 -1097 0
-21 851 852 -1098 0
-22 851 852 -1097 0
-22 851 852 -1098 0
-21 -851 1097 1098 0
-21 -852 1097 1098 0
-22 -851 1097 1098 0
-22 -852 1097 1098 0
35 36 37 38 -805 0
35 36 37 38 -806 0
35 36 -37 805 806 0
35 36 -38 805 806 0
-35 37 38 805 806 0
-36 37 38 805 806 0
-35 -37 -805 0
-35 -37 -806 0
-35 -38 -805 0
-35 -38 -806 0
-36 -37 -805 0
-36 -37 -806 0
-36 -38 -805 0
-36 -38 -806 0
99 100 861 862 -1107 0
99 100 861 862 -1108 0
99 100 -861 1107 1108 0
99 100 -862 1107 1108 0
-99 861 862 1107 1108 0
-100 861 862 1107 1108 0
-99 -861 -1107 0
-99 -861 -1108 0
-99 -862 -1107 0
-99 -862 -1108 0
-100 -861 -1107 0
-100 -861 -1108 0
-100 -862 -1107 0
-100 -862 -1108 0
49 50 131 132 773 774 0
49 50 -131 -773 0
49 50 -131 -774 0
49 50 -132 -773 0
49 50 -132 -774 0
-49 131 132 -773 0
-49 131 132 -774 0
-50 131 132 -773 0
-50 131 132 -774 0
-49 -131 773 774 0
-49 -132 773 774 0
-50 -131 773 774 0
-50 -132 773 774 0
145 146 385 386 443 444 0
145 146 -385 -443 0
145 146 -385 -444 0
145 146 -386 -443 0
145 146 -386 -444 0
-145 385 386 -443 0
-145 385 386 -444 0
-146 385 386 -443 0
-146 385 386 -444 0
-145 -385 443 444 0
-145 -386 443 444 0
-146 -385 443 444 0
-146 -386 443 444 0
219 220 301 302 -1089 0
219 220 301 302 -1090 0
219 220 -301 1089 1090 0
219 220 -302 1089 1090 0
-219 301 302 1089 1090 0
-220 301 302 1089 1090 0
-219 -301 -1089 0
-219 -301 -1090 0
-219 -302 -1089 0
-219 -302 -1090 0
-220 -301 -1089 0
-220 -301 -1090 0
-220 -302 -1089 0
-220 -302 -1090 0
335 336 963 964 1111 1112 0
335 336 -963 -1111 0
335 336 -963 -1112 0
335 336 -964 -1111 0
335 336 -964 -1112 0
-335 963 964 -1111 0
-335 963 964 -1112 0
-336 963 964 -1111 0
-336 963 964 -1112 0
-335 -963 1111 1112 0
-335 -964 1111 1112 0
-336 -963 1111 1112 0
-336 -964 1111 1112 0
745 746 1081 1082 1279 1280 0
745 746 -1081 -1279 0
745 746 -1081 -1280 0
745 746 -1082 -1279 0
745 746 -1082 -1280 0
-745 1081 1082 -1279 0
-745 1081 1082 -1280 0
-746 1081 1082 -1279 0
-746 1081 1082 -1280 0
-745 -1081 1279 1280 0
-745 -1082 1279 1280 0
-746 -1081 1279 1280 0
-746 -1082 1279 1280 0
215 216 243 244 -779 0
215 216 243 244 -780 0
215 216 -243 779 780 0
215 216 -244 779 780 0
-215 243 244 779 780 0
-216 243 244 779 780 0
-215 -243 -779 0
-215 -243 -780 0
-215 -244 -779 0
-215 -244 -780 0
-216 -243 -779 0
-216 -243 -780 0
-216 -244 -779 0
-216 -244 -780 0
435 436 657 658 -671 0
435 436 657 658 -672 0
435 436 -657 671 672 0
435 436 -658 671 672 0
-435 657 658 671 672 0
-436 657 658 671 672 0
-435 -657 -671 0
-435 -657 -672 0
-435 -658 -671 0
-435 -658 -672 0
-436 -657 -671 0
-436 -657 -672 0
-436 -658 -671 0
-436 -658 -672 0
343 344 371 372 -1113 0
343 344 371 372 -1114 0
343 344 -371 1113 1114 0
343 344 -372 1113 1114 0
-343 371 372 1113 1114 0
-344 371 372 1113 1114 0
-343 -371 -1113 0
-343 -371 -1114 0
-343 -372 -1113 0
-343 -372 -1114 0
-344 -371 -1113 0
-344 -371 -1114 0
-344 -372 -1113 0
-344 -372 -1114 0
251 252 965 966 -1221 0
251 252 965 966 -1222 0
251 252 -965 1221 1222 0
251 252 -966 1221 1222 0
-251 965 966 1221 1222 0
-252 965 966 1221 1222 0
-251 -965 -1221 0
-251 -965 -1222 0
-251 -966 -1221 0
-251 -966 -1222 0
-252 -965 -1221 0
-252 -965 -1222 0
-252 -966 -1221 0
-252 -966 -1222 0
917 918 1125 1126 -1145 0
917 918 1125 1126 -1146 0
917 918 -1125 1145 1146 0
917 918 -1126 1145 1146 0
-917 1125 1126 1145 1146 0
-918 1125 1126 1145 1146 0
-917 -1125 -1145 0
-917 -1125 -1146 0
-917 -1126 -1145 0
-917 -1126 -1146 0
-918 -1125 -1145 0
-918 -1125 -1146 0
-918 -1126 -1145 0
-918 -1126 -1146 0
79 80 417 418 -1039 0
79 80 417 418 -1040 0
79 80 -417 1039 1040 0
79 80 -418 1039 1040 0
-79 417 418 1039 1040 0
-80 417 418 1039 1040 0
-79 -417 -1039 0
-79 -417 -1040 0
-79 -418 -1039 0
-79 -418 -1040 0
-80 -417 -1039 0
-80 -417 -1040 0
-80 -418 -1039 0
-80 -418 -1040 0
409 410 631 632 -1257 0
409 410 631 632 -1258 0
409 410 -631 1257 1258 0
409 410 -632 1257 1258 0
-409 631 632 1257 1258 0
-410 631 632 1257 1258 0
-409 -631 -1257 0
-409 -631 -1258 0
-409 -632 -1257 0
-409 -632 -1258 0
-410 -631 -1257 0
-410 -631 -1258 0
-410 -632 -1257 0
-410 -632 -1258 0
209 210 1127 1128 -1237 0
209 210 1127 1128 -1238 0
209 210 -1127 1237 1238 0
209 210 -1128 1237 1238 0
-209 1127 1128 1237 1238 0
-210 1127 1128 1237 1238 0
-209 -1127 -1237 0
-209 -1127 -1238 0
-209 -1128 -1237 0
-209 -1128 -1238 0
-210 -1127 -1237 0
-210 -1127 -1238 0
-210 -1128 -1237 0
-210 -1128 -1238 0
403 404 895 896 923 924 0
403 404 -895 -923 0
403 404 -895 -924 0
403 404 -896 -923 0
403 404 -896 -924 0
-403 895 896 -923 0
-403 895 896 -924 0
-404 895 896 -923 0
-404 895 896 -924 0
-403 -895 923 924 0
-403 -896 923 924 0
-404 -895 923 924 0
-404 -896 923 924 0
193 194 495 496 777 778 0
193 194 -495 -777 0
193 194 -495 -778 0
193 194 -496 -777 0
193 194 -496 -778 0
-193 495 496 -777 0
-193 495 496 -778 0
-194 495 496 -777 0
-194 495 496 -778 0
-193 -495 777 778 0
-193 -496 777 778 0
-194 -495 777 778 0
-194 -496 777 778 0
29 30 53 54 -591 0
29 30 53 54 -592 0
29 30 -53 591 592 0
29 30 -54 591 592 0
-29 53 54 591 592 0
-30 53 54 591 592 0
-29 -53 -591 0
-29 -53 -592 0
-29 -54 -591 0
-29 -54 -592 0
-30 -53 -591 0
-30 -53 -592 0
-30 -54 -591 0
-30 -54 -592 0
313 314 383 384 -829 0
313 314 383 384 -830 0
313 314 -383 829 830 0
313 314 -384 829 830 0
-313 383 384 829 830 0
-314 383 384 829 830 0
-313 -383 -829 0
-313 -383 -830 0
-313 -384 -829 0
-313 -384 -830 0
-314 -383 -829 0
-314 -383 -830 0
-314 -384 -829 0
-314 -384 -830 0
531 532 1163 1164 1277 1278 0
531 532 -1163 -1277 0
531 532 -1163 -1278 0
531 532 -1164 -1277 0
531 532 -1164 -1278 0
-531 1163 1164 -1277 0
-531 1163 1164 -1278 0
-532 1163 1164 -1277 0
-532 1163 1164 -1278 0
-531 -1163 1277 1278 0
-531 -1164 1277 1278 0
-532 -1163 1277 1278 0
-532 -1164 1277 1278 0
163 164 925 926 -1235 0
163 164 925 926 -1236 0
163 164 -925 1235 1236 0
163 164 -926 1235 1236 0
-163 925 926 1235 1236 0
-164 925 926 1235 1236 0
-163 -925 -1235 0
-163 -925 -1236 0
-163 -926 -1235 0
-163 -926 -1236 0
-164 -925 -1235 0
-164 -925 -1236 0
-164 -926 -1235 0
-164 -926 -1236 0
83 84 497 498 1055 1056 0
83 84 -497 -1055 0
83 84 -497 -1056 0
83 84 -498 -1055 0
83 84 -498 -1056 0
-83 497 498 -1055 0
-83 497 498 -1056 0
-84 497 498 -1055 0
-84 497 498 -1056 0
-83 -497 1055 1056 0
-83 -498 1055 1056 0
-84 -497 1055 1056 0
-84 -498 1055 1056 0
1 2 277 278 435 436 0
1 2 -277 -435 0
1 2 -277 -436 0
1 2 -278 -435 0
1 2 -278 -436 0
-1 277 278 -435 0
-1 277 278 -436 0
-2 277 278 -435 0
-2 277 278 -436 0
-1 -277 435 436 0
-1 -278 435 436 0
-2 -277 435 436 0
-2 -278 435 436 0
919 920 1021 1022 1197 1198 0
919 920 -1021 -1197 0
919 920 -1021 -1198 0
919 920 -1022 -1197 0
919 920 -1022 -1198 0
-919 1021 1022 -1197 0
-919 1021 1022 -1198 0
-920 1021 1022 -1197 0
-920 1021 1022 -1198 0
-919 -1021 1197 1198 0
-919 -1022 1197 1198 0
-920 -1021 1197 1198 0
-920 -1022 1197 1198 0
247 248 513 514 -1063 0
247 248 513 514 -1064 0
247 248 -513 1063 1064 0
247 248 -514 1063 1064 0
-247 513 514 1063 1064 0
-248 513 514 1063 1064 0
-247 -513 -1063 0
-247 -513 -1064 0
-247 -514 -1063 0
-247 -514 -1064 0
-248 -513 -1063 0
-248 -513 -1064 0
-248 -514 -1063 0
-248 -514 -1064 0
605 606 759 760 -1083 0
605 606 759 760 -1084 0
605 606 -759 1083 1084 0
605 606 -760 1083 1084 0
-605 759 760 1083 1084 0
-606 759 760 1083 1084 0
-605 -759 -1083 0
-605 -759 -1084 0
-605 -760 -1083 0
-605 -760 -1084 0
-606 -759 -1083 0
-606 -759 -1084 0
-606 -760 -1083 0
-606 -760 -1084 0
507 508 527 528 -805 0
507 508 527 528 -806 0
507 508 -527 805 806 0
507 508 -528 805 806 0
-507 527 528 805 806 0
-508 527 528 805 806 0
-507 -527 -805 0
-507 -527 -806 0
-507 -528 -805 0
-507 -528 -806 0
-508 -527 -805 0
-508 -527 -806 0
-508 -528 -805 0
-508 -528 -806 0
21 22 335 336 359 360 0
21 22 -335 -359 0
21 22 -335 -360 0
21 22 -336 -359 0
21 22 -336 -360 0
-21 335 336 -359 0
-21 335 336 -360 0
-22 335 336 -359 0
-22 335 336 -360 0
-21 -335 359 360 0
-21 -336 359 360 0
-22 -335 359 360 0
-22 -336 359 360 0
545 546 1013 1014 1127 1128 0
545 546 -1013 -1127 0
545 546 -1013 -1128 0
545 546 -1014 -1127 0
545 546 -1014 -1128 0
-545 1013 1014 -1127 0
-545 1013 1014 -1128 0
-546 1013 1014 -1127 0
-546 1013 1014 -1128 0
-545 -1013 1127 1128 0
-545 -1014 1127 1128 0
-546 -1013 1127 1128 0
-546 -1014 1127 1128 0
757 758 845 846 939 940 0
757 758 -845 -939 0
757 758 -845 -940 0
757 758 -846 -939 0
757 758 -846 -940 0
-757 845 846 -939 0
-757 845 846 -940 0
-758 845 846 -939 0
-758 845 846 -940 0
-757 -845 939 940 0
-757 -846 939 940 0
-758 -845 939 940 0
-758 -846 939 940 0
337 338 459 460 -1041 0
337 338 459 460 -1042 0
337 338 -459 1041 1042 0
337 338 -460 1041 1042 0
-337 459 460 1041 1042 0
-338 459 460 1041 1042 0
-337 -459 -1041 0
-337 -459 -1042 0
-337 -460 -1041 0
-337 -460 -1042 0
-338 -459 -1041 0
-338 -459 -1042 0
-338 -460 -1041 0
-338 -460 -1042 0
161 162 343 344 647 648 0
161 162 -343 -647 0
161 162 -343 -648 0
161 162 -344 -647 0
161 162 -344 -648 0
-161 343 344 -647 0
-161 343 344 -648 0
-162 343 344 -647 0
-162 343 344 -648 0
-161 -343 647 648 0
-161 -344 647 648 0
-162 -343 647 648 0
-162 -344 647 648 0
135 136 347 348 961 962 0
135 136 -347 -961 0
135 136 -347 -962 0
135 136 -348 -961 0
135 136 -348 -962 0
-135 347 348 -961 0
-135 347 348 -962 0
-136 347 348 -961 0
-136 347 348 -962 0
-135 -347 961 962 0
-135 -348 961 962 0
-136 -347 961 962 0
-136 -348 961 962 0
43 44 909 910 -951 0
43 44 909 910 -952 0
43 44 -909 951 952 0
43 44 -910 951 952 0
-43 909 910 951 952 0
-44 909 910 951 952 0
-43 -909 -951 0
-43 -909 -952 0
-43 -910 -951 0
-43 -910 -952 0
-44 -909 -951 0
-44 -909 -952 0
-44 -910 -951 0
-44 -910 -952 0
33 34 473 474 -683 0
33 34 473 474 -684 0
33 34 -473 683 684 0
33 34 -474 683 684 0
-33 473 474 683 684 0
-34 473 474 683 684 0
-33 -473 -683 0
-33 -473 -684 0
-33 -474 -683 0
-33 -474 -684 0
-34 -473 -683 0
-34 -473 -684 0
-34 -474 -683 0
-34 -474 -684 0
