p cnf 800 20001
-1 -226 0
-1 -170 0
-1 -36 0
-1 -41 0
-1 -4 0
-1 -38 0
-1 -84 0
-1 -125 0
-1 -219 0
-1 -137 0
-1 -13 0
-1 -241 0
-1 -119 0
-1 -47 0
-1 -331 0
-1 -367 0
-1 -48 0
-1 -64 0
-2 -236 0
-2 -103 0
-2 -251 0
-2 -154 0
-2 -102 0
-2 -316 0
-2 -23 0
-2 -6 0
-2 -130 0
-2 -271 0
-2 -252 0
-2 -395 0
-2 -364 0
-2 -241 0
-2 -296 0
-2 -139 0
-2 -287 0
-2 -275 0
-2 -22 0
-2 -245 0
-2 -88 0
-2 -339 0
-3 -240 0
-3 -209 0
-3 -191 0
-3 -398 0
-3 -39 0
-3 -40 0
-3 -187 0
-3 -177 0
-3 -72 0
-3 -66 0
-3 -48 0
-3 -317 0
-3 -154 0
-3 -181 0
-3 -380 0
-3 -69 0
-3 -64 0
-3 -339 0
-3 -241 0
-3 -363 0
-3 -234 0
-3 -216 0
-4 -355 0
-4 -273 0
-4 -271 0
-4 -267 0
-4 -112 0
-4 -28 0
-4 -374 0
-4 -265 0
-4 -385 0
-4 -89 0
-4 -380 0
-4 -393 0
-4 -356 0
-4 -225 0
-5 -199 0
-5 -240 0
-5 -276 0
-5 -260 0
-5 -216 0
-5 -59 0
-5 -282 0
-5 -96 0
-5 -78 0
-5 -58 0
-5 -342 0
-5 -180 0
-5 -28 0
-5 -3 0
-5 -111 0
-5 -363 0
-5 -388 0
-6 -207 0
-6 -249 0
-6 -260 0
-6 -222 0
-6 -109 0
-6 -130 0
-6 -228 0
-6 -70 0
-6 -28 0
-6 -7 0
-6 -174 0
-6 -66 0
-6 -179 0
-6 -137 0
-6 -294 0
-6 -380 0
-7 -308 0
-7 -156 0
-7 -102 0
-7 -400 0
-7 -134 0
-7 -248 0
-7 -32 0
-7 -210 0
-7 -220 0
-7 -187 0
-7 -25 0
-7 -268 0
-7 -176 0
-7 -183 0
-7 -213 0
-7 -324 0
-7 -5 0
-8 -262 0
-8 -342 0
-8 -168 0
-8 -179 0
-8 -103 0
-8 -293 0
-8 -93 0
-8 -90 0
-8 -55 0
-8 -119 0
-8 -253 0
-8 -339 0
-8 -219 0
-8 -382 0
-9 -355 0
-9 -303 0
-9 -293 0
-9 -136 0
-9 -194 0
-9 -39 0
-9 -125 0
-9 -63 0
-9 -19 0
-9 -363 0
-9 -348 0
-9 -354 0
-9 -305 0
-10 -385 0
-10 -312 0
-10 -204 0
-10 -185 0
-10 -392 0
-10 -78 0
-10 -88 0
-10 -24 0
-10 -4 0
-10 -284 0
-10 -101 0
-10 -270 0
-10 -85 0
-10 -250 0
-10 -330 0
-10 -322 0
-10 -325 0
-11 -346 0
-11 -290 0
-11 -103 0
-11 -369 0
-11 -120 0
-11 -33 0
-11 -385 0
-11 -292 0
-11 -143 0
-11 -81 0
-11 -77 0
-11 -25 0
-11 -69 0
-11 -300 0
-11 -83 0
-11 -66 0
-11 -124 0
-12 -314 0
-12 -255 0
-12 -196 0
-12 -393 0
-12 -114 0
-12 -32 0
-12 -5 0
-12 -57 0
-12 -231 0
-12 -180 0
-12 -135 0
-12 -141 0
-12 -395 0
-12 -335 0
-12 -121 0
-13 -335 0
-13 -317 0
-13 -203 0
-13 -152 0
-13 -137 0
-13 -128 0
-13 -196 0
-13 -144 0
-13 -374 0
-13 -64 0
-13 -308 0
-13 -134 0
-13 -275 0
-13 -102 0
-13 -98 0
-13 -85 0
-13 -20 0
-13 -57 0
-14 -252 0
-14 -340 0
-14 -271 0
-14 -76 0
-14 -306 0
-14 -120 0
-14 -269 0
-14 -143 0
-14 -367 0
-14 -394 0
-14 -147 0
-14 -104 0
-14 -390 0
-14 -7 0
-14 -119 0
-14 -21 0
-15 -246 0
-15 -255 0
-15 -243 0
-15 -182 0
-15 -97 0
-15 -339 0
-15 -318 0
-15 -7 0
-15 -83 0
-15 -161 0
-15 -27 0
-15 -63 0
-15 -84 0
-15 -334 0
-16 -325 0
-16 -259 0
-16 -285 0
-16 -377 0
-16 -239 0
-16 -78 0
-16 -318 0
-16 -6 0
-16 -300 0
-16 -75 0
-16 -67 0
-16 -372 0
-16 -108 0
-16 -41 0
-17 -352 0
-17 -243 0
-17 -150 0
-17 -133 0
-17 -246 0
-17 -28 0
-17 -276 0
-17 -72 0
-17 -398 0
-17 -140 0
-17 -90 0
-17 -227 0
-17 -29 0
-17 -331 0
-17 -387 0
-17 -346 0
-17 -11 0
-17 -332 0
-18 -357 0
-18 -376 0
-18 -306 0
-18 -199 0
-18 -43 0
-18 -23 0
-18 -59 0
-18 -88 0
-18 -2 0
-18 -337 0
-18 -11 0
-18 -13 0
-18 -390 0
-18 -388 0
-19 -379 0
-19 -293 0
-19 -88 0
-19 -35 0
-19 -4 0
-19 -174 0
-19 -36 0
-19 -312 0
-19 -399 0
-19 -139 0
-19 -83 0
-19 -329 0
-19 -373 0
-19 -98 0
-19 -222 0
-19 -100 0
-20 -347 0
-20 -348 0
-20 -351 0
-20 -314 0
-20 -134 0
-20 -220 0
-20 -101 0
-20 -374 0
-20 -71 0
-20 -386 0
-20 -47 0
-20 -138 0
-21 -246 0
-21 -327 0
-21 -128 0
-21 -170 0
-21 -82 0
-21 -330 0
-21 -40 0
-21 -233 0
-21 -217 0
-21 -226 0
-21 -337 0
-21 -11 0
-21 -22 0
-21 -220 0
-21 -259 0
-21 -92 0
-21 -302 0
-21 -74 0
-21 -99 0
-21 -35 0
-22 -352 0
-22 -124 0
-22 -139 0
-22 -336 0
-22 -288 0
-22 -40 0
-22 -194 0
-22 -252 0
-22 -238 0
-22 -274 0
-22 -210 0
-22 -205 0
-22 -85 0
-22 -51 0
-22 -6 0
-22 -319 0
-22 -64 0
-22 -13 0
-22 -154 0
-22 -350 0
-23 -233 0
-23 -236 0
-23 -216 0
-23 -139 0
-23 -369 0
-23 -204 0
-23 -330 0
-23 -392 0
-23 -117 0
-23 -191 0
-23 -34 0
-23 -95 0
-23 -357 0
-23 -44 0
-23 -268 0
-23 -365 0
-23 -107 0
-24 -306 0
-24 -374 0
-24 -204 0
-24 -106 0
-24 -152 0
-24 -286 0
-24 -372 0
-24 -97 0
-24 -265 0
-24 -23 0
-24 -279 0
-24 -241 0
-24 -40 0
-24 -45 0
-24 -93 0
-24 -21 0
-24 -320 0
-25 -232 0
-25 -43 0
-25 -178 0
-25 -187 0
-25 -241 0
-25 -374 0
-25 -231 0
-25 -299 0
-25 -66 0
-25 -251 0
-25 -309 0
-25 -85 0
-25 -161 0
-25 -248 0
-25 -191 0
-25 -120 0
-26 -254 0
-26 -155 0
-26 -279 0
-26 -64 0
-26 -71 0
-26 -23 0
-26 -141 0
-26 -78 0
-26 -270 0
-26 -197 0
-26 -72 0
-26 -55 0
-26 -22 0
-26 -281 0
-26 -194 0
-26 -142 0
-26 -364 0
-26 -294 0
-27 -324 0
-27 -167 0
-27 -142 0
-27 -33 0
-27 -353 0
-27 -340 0
-27 -217 0
-27 -31 0
-27 -192 0
-27 -363 0
-27 -16 0
-27 -29 0
-27 -333 0
-28 -159 0
-28 -330 0
-28 -156 0
-28 -200 0
-28 -218 0
-28 -82 0
-28 -172 0
-28 -287 0
-28 -132 0
-28 -135 0
-28 -241 0
-28 -90 0
-28 -262 0
-28 -36 0
-28 -19 0
-28 -390 0
-28 -324 0
-28 -362 0
-28 -108 0
-29 -368 0
-29 -356 0
-29 -145 0
-29 -39 0
-29 -35 0
-29 -377 0
-29 -214 0
-29 -297 0
-29 -87 0
-29 -150 0
-29 -232 0
-29 -125 0
-29 -386 0
-30 -78 0
-30 -5 0
-30 -308 0
-30 -235 0
-30 -223 0
-30 -204 0
-30 -193 0
-30 -201 0
-30 -294 0
-30 -210 0
-30 -353 0
-30 -156 0
-30 -324 0
-30 -329 0
-30 -347 0
-30 -131 0
-30 -21 0
-31 -312 0
-31 -240 0
-31 -131 0
-31 -184 0
-31 -301 0
-31 -206 0
-31 -76 0
-31 -38 0
-31 -235 0
-31 -352 0
-31 -46 0
-31 -85 0
-31 -233 0
-31 -345 0
-31 -128 0
-31 -44 0
-31 -153 0
-31 -309 0
-31 -380 0
-32 -216 0
-32 -209 0
-32 -246 0
-32 -279 0
-32 -93 0
-32 -76 0
-32 -169 0
-32 -123 0
-32 -40 0
-32 -35 0
-32 -204 0
-32 -1 0
-32 -190 0
-32 -189 0
-32 -392 0
-32 -197 0
-32 -198 0
-32 -69 0
-32 -95 0
-32 -24 0
-32 -354 0
-32 -79 0
-32 -359 0
-32 -187 0
-33 -236 0
-33 -284 0
-33 -86 0
-33 -39 0
-33 -223 0
-33 -3 0
-33 -206 0
-33 -397 0
-33 -198 0
-33 -372 0
-33 -107 0
-33 -272 0
-33 -202 0
-34 -312 0
-34 -246 0
-34 -195 0
-34 -228 0
-34 -14 0
-34 -353 0
-34 -122 0
-34 -194 0
-34 -364 0
-34 -184 0
-34 -325 0
-34 -1 0
-34 -25 0
-34 -145 0
-35 -179 0
-35 -233 0
-35 -23 0
-35 -6 0
-35 -165 0
-35 -172 0
-35 -190 0
-35 -74 0
-35 -151 0
-35 -235 0
-35 -247 0
-35 -347 0
-35 -158 0
-36 -162 0
-36 -49 0
-36 -6 0
-36 -206 0
-36 -157 0
-36 -116 0
-36 -202 0
-36 -309 0
-36 -344 0
-37 -208 0
-37 -342 0
-37 -295 0
-37 -167 0
-37 -31 0
-37 -34 0
-37 -59 0
-37 -106 0
-37 -397 0
-37 -190 0
-37 -150 0
-37 -87 0
-37 -152 0
-37 -38 0
-37 -254 0
-37 -161 0
-37 -67 0
-37 -33 0
-37 -325 0
-37 -383 0
-37 -235 0
-38 -276 0
-38 -102 0
-38 -215 0
-38 -185 0
-38 -90 0
-38 -28 0
-38 -396 0
-38 -19 0
-38 -311 0
-38 -85 0
-38 -381 0
-38 -367 0
-38 -353 0
-38 -225 0
-38 -357 0
-38 -346 0
-38 -322 0
-38 -393 0
-38 -104 0
-39 -137 0
-39 -78 0
-39 -43 0
-39 -52 0
-39 -177 0
-39 -193 0
-39 -281 0
-39 -263 0
-39 -36 0
-39 -151 0
-39 -213 0
-39 -235 0
-39 -331 0
-39 -101 0
-39 -57 0
-39 -267 0
-40 -112 0
-40 -376 0
-40 -209 0
-40 -61 0
-40 -372 0
-40 -63 0
-40 -231 0
-40 -324 0
-40 -145 0
-40 -28 0
-40 -247 0
-40 -11 0
-40 -365 0
-40 -309 0
-40 -272 0
-40 -312 0
-41 -225 0
-41 -321 0
-41 -369 0
-41 -299 0
-41 -215 0
-41 -49 0
-41 -235 0
-41 -393 0
-41 -304 0
-41 -81 0
-41 -333 0
-41 -335 0
-41 -317 0
-41 -229 0
-41 -48 0
-41 -274 0
-41 -324 0
-42 -348 0
-42 -357 0
-42 -242 0
-42 -377 0
-42 -126 0
-42 -117 0
-42 -257 0
-42 -263 0
-42 -231 0
-42 -57 0
-42 -79 0
-42 -76 0
-43 -182 0
-43 -301 0
-43 -144 0
-43 -82 0
-43 -78 0
-43 -55 0
-43 -2 0
-43 -224 0
-43 -19 0
-43 -35 0
-43 -369 0
-43 -212 0
-43 -67 0
-43 -178 0
-43 -206 0
-43 -367 0
-43 -61 0
-43 -394 0
-44 -387 0
-44 -365 0
-44 -351 0
-44 -192 0
-44 -286 0
-44 -127 0
-44 -163 0
-44 -64 0
-44 -242 0
-44 -2 0
-44 -17 0
-44 -137 0
-44 -320 0
-44 -123 0
-44 -193 0
-44 -19 0
-44 -54 0
-44 -297 0
-45 -366 0
-45 -376 0
-45 -169 0
-45 -246 0
-45 -347 0
-45 -139 0
-45 -94 0
-45 -221 0
-45 -375 0
-45 -70 0
-45 -327 0
-45 -137 0
-45 -180 0
-45 -1 0
-45 -66 0
-45 -251 0
-45 -196 0
-45 -381 0
-45 -386 0
-45 -361 0
-45 -116 0
-46 -254 0
-46 -344 0
-46 -196 0
-46 -273 0
-46 -124 0
-46 -353 0
-46 -96 0
-46 -39 0
-46 -10 0
-46 -241 0
-46 -227 0
-46 -234 0
-46 -89 0
-46 -42 0
-46 -190 0
-46 -222 0
-47 -351 0
-47 -313 0
-47 -294 0
-47 -324 0
-47 -254 0
-47 -215 0
-47 -123 0
-47 -226 0
-47 -17 0
-47 -28 0
-47 -101 0
-47 -279 0
-47 -150 0
-47 -190 0
-47 -69 0
-47 -71 0
-47 -375 0
-47 -332 0
-47 -168 0
-47 -359 0
-48 -316 0
-48 -199 0
-48 -46 0
-48 -26 0
-48 -38 0
-48 -238 0
-48 -95 0
-48 -256 0
-48 -125 0
-48 -133 0
-48 -389 0
-48 -113 0
-48 -23 0
-48 -180 0
-48 -96 0
-49 -131 0
-49 -145 0
-49 -133 0
-49 -397 0
-49 -111 0
-49 -58 0
-49 -151 0
-49 -378 0
-49 -19 0
-49 -335 0
-49 -197 0
-49 -18 0
-49 -157 0
-49 -350 0
-49 -302 0
-49 -154 0
-50 -389 0
-50 -254 0
-50 -112 0
-50 -378 0
-50 -142 0
-50 -15 0
-50 -67 0
-50 -8 0
-50 -311 0
-50 -4 0
-50 -324 0
-50 -320 0
-50 -131 0
-50 -222 0
-51 -251 0
-51 -230 0
-51 -173 0
-51 -130 0
-51 -398 0
-51 -43 0
-51 -302 0
-51 -244 0
-51 -157 0
-51 -292 0
-51 -229 0
-51 -220 0
-51 -60 0
-51 -29 0
-51 -370 0
-51 -272 0
-51 -106 0
-52 -242 0
-52 -248 0
-52 -369 0
-52 -155 0
-52 -176 0
-52 -115 0
-52 -392 0
-52 -182 0
-52 -295 0
-52 -350 0
-52 -129 0
-52 -5 0
-52 -149 0
-52 -54 0
-52 -167 0
-52 -71 0
-52 -237 0
-52 -208 0
-52 -64 0
-52 -150 0
-52 -382 0
-52 -72 0
-52 -363 0
-52 -358 0
-52 -69 0
-53 -354 0
-53 -367 0
-53 -306 0
-53 -26 0
-53 -95 0
-53 -336 0
-53 -214 0
-53 -231 0
-53 -44 0
-53 -72 0
-53 -20 0
-53 -63 0
-54 -310 0
-54 -226 0
-54 -277 0
-54 -148 0
-54 -160 0
-54 -258 0
-54 -316 0
-54 -142 0
-54 -382 0
-54 -246 0
-54 -224 0
-55 -245 0
-55 -189 0
-55 -303 0
-55 -178 0
-55 -112 0
-55 -150 0
-55 -39 0
-55 -24 0
-55 -64 0
-55 -329 0
-55 -116 0
-55 -25 0
-55 -346 0
-55 -22 0
-55 -280 0
-55 -378 0
-55 -357 0
-55 -260 0
-56 -236 0
-56 -163 0
-56 -263 0
-56 -330 0
-56 -352 0
-56 -128 0
-56 -346 0
-56 -65 0
-56 -154 0
-56 -215 0
-56 -301 0
-56 -391 0
-56 -117 0
-56 -144 0
-56 -193 0
-56 -55 0
-56 -320 0
-56 -133 0
-56 -181 0
-57 -259 0
-57 -163 0
-57 -160 0
-57 -218 0
-57 -342 0
-57 -67 0
-57 -290 0
-57 -318 0
-57 -375 0
-57 -72 0
-57 -110 0
-57 -122 0
-57 -51 0
-57 -227 0
-57 -62 0
-57 -75 0
-57 -387 0
-58 -385 0
-58 -152 0
-58 -68 0
-58 -184 0
-58 -126 0
-58 -14 0
-58 -136 0
-58 -123 0
-58 -89 0
-58 -399 0
-58 -125 0
-58 -6 0
-58 -27 0
-58 -361 0
-58 -188 0
-58 -284 0
-58 -388 0
-58 -354 0
-58 -285 0
-58 -324 0
-58 -201 0
-59 -239 0
-59 -342 0
-59 -302 0
-59 -124 0
-59 -65 0
-59 -190 0
-59 -360 0
-59 -153 0
-59 -74 0
-59 -51 0
-59 -313 0
-59 -244 0
-59 -120 0
-60 -360 0
-60 -290 0
-60 -185 0
-60 -175 0
-60 -237 0
-60 -152 0
-60 -199 0
-60 -248 0
-60 -142 0
-60 -93 0
-60 -33 0
-60 -343 0
-60 -54 0
-60 -182 0
-60 -116 0
-60 -201 0
-60 -11 0
-60 -65 0
-60 -81 0
-60 -395 0
-60 -399 0
-61 -303 0
-61 -269 0
-61 -121 0
-61 -78 0
-61 -345 0
-61 -130 0
-61 -236 0
-61 -6 0
-61 -69 0
-61 -70 0
-61 -84 0
-61 -13 0
-61 -20 0
-61 -360 0
-61 -74 0
-61 -363 0
-61 -29 0
-61 -47 0
-61 -379 0
-61 -51 0
-62 -332 0
-62 -264 0
-62 -159 0
-62 -267 0
-62 -364 0
-62 -41 0
-62 -26 0
-62 -28 0
-62 -145 0
-62 -309 0
-63 -264 0
-63 -203 0
-63 -56 0
-63 -121 0
-63 -309 0
-63 -222 0
-63 -226 0
-63 -350 0
-63 -85 0
-63 -360 0
-63 -45 0
-63 -389 0
-63 -239 0
-63 -353 0
-63 -51 0
-63 -130 0
-63 -75 0
-63 -89 0
-64 -234 0
-64 -284 0
-64 -144 0
-64 -96 0
-64 -49 0
-64 -40 0
-64 -286 0
-64 -35 0
-64 -327 0
-64 -65 0
-64 -17 0
-64 -319 0
-64 -193 0
-64 -25 0
-64 -27 0
-65 -207 0
-65 -112 0
-65 -209 0
-65 -239 0
-65 -394 0
-65 -61 0
-65 -354 0
-65 -265 0
-65 -144 0
-65 -390 0
-65 -353 0
-65 -98 0
-65 -57 0
-65 -142 0
-65 -343 0
-66 -225 0
-66 -336 0
-66 -134 0
-66 -40 0
-66 -349 0
-66 -337 0
-66 -85 0
-66 -22 0
-66 -26 0
-66 -172 0
-66 -27 0
-66 -163 0
-66 -91 0
-67 -163 0
-67 -169 0
-67 -46 0
-67 -179 0
-67 -276 0
-67 -303 0
-67 -70 0
-67 -275 0
-67 -360 0
-67 -273 0
-67 -104 0
-67 -255 0
-67 -348 0
-67 -350 0
-67 -322 0
-67 -384 0
-67 -272 0
-67 -366 0
-68 -290 0
-68 -148 0
-68 -303 0
-68 -283 0
-68 -85 0
-68 -180 0
-68 -89 0
-68 -83 0
-68 -53 0
-69 -309 0
-69 -269 0
-69 -289 0
-69 -62 0
-69 -399 0
-69 -238 0
-69 -219 0
-69 -46 0
-69 -138 0
-69 -63 0
-69 -86 0
-69 -82 0
-70 -59 0
-70 -2 0
-70 -387 0
-70 -90 0
-70 -190 0
-70 -220 0
-70 -66 0
-70 -219 0
-70 -135 0
-70 -264 0
-70 -347 0
-70 -121 0
-70 -211 0
-70 -27 0
-71 -147 0
-71 -36 0
-71 -17 0
-71 -14 0
-71 -157 0
-71 -172 0
-71 -222 0
-71 -113 0
-71 -317 0
-71 -378 0
-71 -226 0
-71 -374 0
-71 -189 0
-71 -136 0
-71 -174 0
-71 -90 0
-71 -228 0
-72 -352 0
-72 -378 0
-72 -170 0
-72 -121 0
-72 -71 0
-72 -55 0
-72 -135 0
-72 -36 0
-72 -85 0
-72 -95 0
-72 -173 0
-72 -119 0
-72 -77 0
-72 -22 0
-72 -18 0
-72 -177 0
-72 -384 0
-73 -369 0
-73 -240 0
-73 -330 0
-73 -121 0
-73 -141 0
-73 -194 0
-73 -71 0
-73 -233 0
-73 -96 0
-73 -326 0
-73 -183 0
-73 -373 0
-73 -382 0
-73 -104 0
-73 -18 0
-73 -351 0
-73 -158 0
-73 -300 0
-74 -237 0
-74 -168 0
-74 -184 0
-74 -68 0
-74 -279 0
-74 -202 0
-74 -171 0
-74 -313 0
-74 -280 0
-74 -298 0
-74 -284 0
-74 -110 0
-74 -54 0
-74 -83 0
-74 -48 0
-74 -196 0
-75 -298 0
-75 -321 0
-75 -62 0
-75 -215 0
-75 -126 0
-75 -96 0
-75 -35 0
-75 -153 0
-75 -91 0
-75 -186 0
-75 -259 0
-75 -198 0
-75 -81 0
-75 -214 0
-75 -143 0
-76 -321 0
-76 -349 0
-76 -191 0
-76 -99 0
-76 -84 0
-76 -75 0
-76 -334 0
-76 -21 0
-76 -33 0
-76 -206 0
-76 -351 0
-76 -315 0
-76 -342 0
-77 -376 0
-77 -379 0
-77 -240 0
-77 -344 0
-77 -137 0
-77 -245 0
-77 -73 0
-77 -313 0
-77 -353 0
-77 -83 0
-77 -175 0
-77 -178 0
-77 -110 0
-77 -350 0
-77 -337 0
-78 -308 0
-78 -207 0
-78 -377 0
-78 -65 0
-78 -42 0
-78 -133 0
-78 -338 0
-78 -157 0
-78 -197 0
-78 -92 0
-78 -304 0
-78 -6 0
-78 -376 0
-78 -120 0
-78 -77 0
-78 -246 0
-78 -163 0
-78 -12 0
-78 -309 0
-78 -180 0
-79 -240 0
-79 -167 0
-79 -200 0
-79 -154 0
-79 -397 0
-79 -230 0
-79 -111 0
-79 -288 0
-79 -64 0
-79 -129 0
-79 -361 0
-79 -140 0
-79 -197 0
-79 -135 0
-79 -293 0
-79 -356 0
-79 -27 0
-79 -20 0
-79 -162 0
-79 -333 0
-80 -248 0
-80 -219 0
-80 -137 0
-80 -166 0
-80 -52 0
-80 -64 0
-80 -59 0
-80 -375 0
-80 -43 0
-80 -205 0
-80 -81 0
-80 -28 0
-80 -249 0
-80 -295 0
-80 -61 0
-80 -49 0
-81 -312 0
-81 -351 0
-81 -248 0
-81 -109 0
-81 -221 0
-81 -400 0
-81 -94 0
-81 -244 0
-81 -300 0
-81 -31 0
-81 -214 0
-81 -49 0
-81 -85 0
-82 -151 0
-82 -340 0
-82 -289 0
-82 -137 0
-82 -267 0
-82 -397 0
-82 -86 0
-82 -252 0
-82 -84 0
-82 -66 0
-82 -120 0
-82 -72 0
-82 -180 0
-82 -368 0
-82 -400 0
-82 -3 0
-82 -285 0
-82 -48 0
-82 -219 0
-82 -276 0
-83 -173 0
-83 -126 0
-83 -300 0
-83 -281 0
-83 -113 0
-83 -32 0
-83 -191 0
-83 -17 0
-83 -51 0
-83 -287 0
-83 -18 0
-83 -122 0
-83 -371 0
-83 -104 0
-83 -55 0
-84 -126 0
-84 -378 0
-84 -86 0
-84 -73 0
-84 -78 0
-84 -242 0
-84 -328 0
-84 -101 0
-84 -351 0
-84 -255 0
-84 -343 0
-85 -312 0
-85 -53 0
-85 -121 0
-85 -60 0
-85 -359 0
-85 -48 0
-85 -77 0
-85 -274 0
-86 -237 0
-86 -263 0
-86 -90 0
-86 -74 0
-86 -54 0
-86 -213 0
-86 -307 0
-86 -387 0
-86 -30 0
-86 -348 0
-86 -12 0
-87 -385 0
-87 -255 0
-87 -333 0
-87 -62 0
-87 -259 0
-87 -239 0
-87 -117 0
-87 -350 0
-87 -168 0
-87 -54 0
-87 -346 0
-87 -285 0
-87 -277 0
-87 -306 0
-87 -238 0
-87 -322 0
-88 -128 0
-88 -109 0
-88 -393 0
-88 -147 0
-88 -318 0
-88 -338 0
-88 -187 0
-88 -296 0
-88 -214 0
-88 -110 0
-88 -199 0
-88 -232 0
-88 -66 0
-88 -289 0
-88 -281 0
-88 -250 0
-88 -325 0
-89 -199 0
-89 -385 0
-89 -333 0
-89 -276 0
-89 -203 0
-89 -105 0
-89 -26 0
-89 -194 0
-89 -11 0
-89 -28 0
-89 -265 0
-89 -81 0
-89 -381 0
-89 -292 0
-89 -24 0
-89 -61 0
-90 -318 0
-90 -195 0
-90 -246 0
-90 -378 0
-90 -68 0
-90 -55 0
-90 -235 0
-90 -132 0
-90 -144 0
-90 -231 0
-90 -66 0
-90 -163 0
-90 -19 0
-90 -153 0
-91 -199 0
-91 -219 0
-91 -148 0
-91 -141 0
-91 -114 0
-91 -80 0
-91 -168 0
-91 -395 0
-91 -274 0
-91 -296 0
-91 -217 0
-91 -18 0
-91 -106 0
-91 -136 0
-91 -363 0
-91 -104 0
-91 -290 0
-91 -360 0
-91 -326 0
-91 -276 0
-92 -207 0
-92 -379 0
-92 -203 0
-92 -291 0
-92 -279 0
-92 -121 0
-92 -58 0
-92 -256 0
-92 -107 0
-92 -71 0
-92 -83 0
-92 -2 0
-92 -129 0
-92 -88 0
-92 -289 0
-92 -389 0
-92 -77 0
-92 -370 0
-92 -390 0
-93 -189 0
-93 -355 0
-93 -397 0
-93 -133 0
-93 -96 0
-93 -82 0
-93 -350 0
-93 -206 0
-93 -337 0
-93 -273 0
-93 -79 0
-93 -210 0
-93 -154 0
-94 -281 0
-94 -103 0
-94 -97 0
-94 -210 0
-94 -71 0
-94 -34 0
-94 -242 0
-94 -109 0
-94 -325 0
-94 -383 0
-94 -180 0
-94 -69 0
-94 -107 0
-94 -286 0
-94 -49 0
-94 -165 0
-95 -348 0
-95 -276 0
-95 -312 0
-95 -259 0
-95 -207 0
-95 -330 0
-95 -127 0
-95 -171 0
-95 -141 0
-95 -103 0
-95 -197 0
-95 -337 0
-95 -122 0
-95 -51 0
-95 -42 0
-95 -185 0
-95 -379 0
-95 -287 0
-95 -153 0
-96 -375 0
-96 -68 0
-96 -202 0
-96 -117 0
-96 -301 0
-96 -201 0
-96 -360 0
-96 -34 0
-96 -361 0
-96 -121 0
-97 -373 0
-97 -268 0
-97 -369 0
-97 -208 0
-97 -174 0
-97 -196 0
-97 -372 0
-97 -127 0
-97 -279 0
-97 -1 0
-97 -156 0
-97 -67 0
-97 -54 0
-97 -343 0
-97 -29 0
-98 -252 0
-98 -327 0
-98 -109 0
-98 -279 0
-98 -167 0
-98 -232 0
-98 -136 0
-98 -238 0
-98 -261 0
-98 -116 0
-98 -70 0
-98 -101 0
-98 -389 0
-98 -92 0
-98 -95 0
-98 -12 0
-98 -69 0
-99 -372 0
-99 -174 0
-99 -175 0
-99 -232 0
-99 -296 0
-99 -337 0
-99 -138 0
-99 -136 0
-99 -39 0
-99 -29 0
-99 -206 0
-99 -60 0
-99 -244 0
-99 -339 0
-99 -229 0
-99 -367 0
-99 -308 0
-99 -259 0
-99 -119 0
-99 -220 0
-100 -368 0
-100 -298 0
-100 -218 0
-100 -219 0
-100 -303 0
-100 -297 0
-100 -262 0
-100 -191 0
-100 -130 0
-100 -80 0
-100 -4 0
-100 -137 0
-100 -189 0
-100 -254 0
-100 -116 0
-100 -396 0
-100 -79 0
-101 -339 0
-101 -307 0
-101 -166 0
-101 -190 0
-101 -215 0
-101 -153 0
-101 -110 0
-101 -254 0
-101 -366 0
-101 -132 0
-101 -107 0
-101 -341 0
-101 -193 0
-101 -54 0
-101 -157 0
-101 -237 0
-101 -120 0
-102 -162 0
-102 -191 0
-102 -88 0
-102 -80 0
-102 -39 0
-102 -120 0
-102 -331 0
-102 -83 0
-102 -287 0
-102 -276 0
-102 -345 0
-102 -157 0
-103 -280 0
-103 -336 0
-103 -137 0
-103 -118 0
-103 -100 0
-103 -295 0
-103 -166 0
-103 -61 0
-103 -10 0
-103 -91 0
-103 -285 0
-103 -358 0
-103 -129 0
-103 -16 0
-103 -161 0
-104 -199 0
-104 -295 0
-104 -344 0
-104 -315 0
-104 -114 0
-104 -396 0
-104 -223 0
-104 -231 0
-104 -174 0
-104 -116 0
-104 -128 0
-104 -9 0
-104 -207 0
-104 -198 0
-104 -197 0
-104 -10 0
-104 -225 0
-105 -306 0
-105 -209 0
-105 -30 0
-105 -3 0
-105 -8 0
-105 -40 0
-105 -219 0
-105 -250 0
-105 -193 0
-105 -346 0
-105 -138 0
-105 -148 0
-105 -75 0
-105 -166 0
-105 -357 0
-105 -359 0
-105 -385 0
-105 -4 0
-105 -211 0
-105 -124 0
-105 -321 0
-106 -360 0
-106 -310 0
-106 -159 0
-106 -168 0
-106 -273 0
-106 -229 0
-106 -204 0
-106 -394 0
-106 -30 0
-106 -195 0
-106 -80 0
-106 -368 0
-106 -199 0
-106 -285 0
-106 -69 0
-106 -74 0
-106 -15 0
-106 -294 0
-106 -165 0
-107 -348 0
-107 -222 0
-107 -103 0
-107 -224 0
-107 -395 0
-107 -8 0
-107 -266 0
-107 -244 0
-107 -42 0
-107 -227 0
-107 -167 0
-107 -370 0
-107 -259 0
-107 -161 0
-107 -110 0
-107 -315 0
-108 -339 0
-108 -322 0
-108 -265 0
-108 -156 0
-108 -152 0
-108 -127 0
-108 -175 0
-108 -44 0
-108 -392 0
-108 -329 0
-108 -48 0
-108 -311 0
-108 -43 0
-108 -143 0
-108 -110 0
-108 -197 0
-108 -83 0
-108 -75 0
-108 -14 0
-108 -51 0
-109 -167 0
-109 -289 0
-109 -44 0
-109 -198 0
-109 -58 0
-109 -242 0
-109 -129 0
-109 -86 0
-109 -287 0
-109 -177 0
-109 -41 0
-109 -8 0
-109 -397 0
-110 -359 0
-110 -294 0
-110 -323 0
-110 -200 0
-110 -162 0
-110 -344 0
-110 -17 0
-110 -243 0
-110 -361 0
-110 -146 0
-110 -307 0
-111 -289 0
-111 -303 0
-111 -267 0
-111 -126 0
-111 -150 0
-111 -136 0
-111 -344 0
-111 -369 0
-111 -35 0
-111 -400 0
-111 -180 0
-111 -99 0
-111 -71 0
-111 -383 0
-111 -201 0
-111 -113 0
-112 -387 0
-112 -368 0
-112 -309 0
-112 -151 0
-112 -260 0
-112 -156 0
-112 -94 0
-112 -137 0
-112 -84 0
-112 -266 0
-112 -73 0
-112 -236 0
-112 -238 0
-112 -187 0
-112 -149 0
-112 -41 0
-112 -132 0
-112 -227 0
-113 -167 0
-113 -378 0
-113 -100 0
-113 -239 0
-113 -327 0
-113 -160 0
-113 -90 0
-113 -55 0
-113 -299 0
-113 -235 0
-113 -106 0
-113 -135 0
-113 -376 0
-113 -76 0
-113 -98 0
-113 -215 0
-113 -322 0
-113 -60 0
-113 -278 0
-114 -239 0
-114 -242 0
-114 -344 0
-114 -178 0
-114 -147 0
-114 -102 0
-114 -117 0
-114 -21 0
-114 -2 0
-114 -84 0
-114 -334 0
-114 -25 0
-114 -20 0
-114 -319 0
-114 -362 0
-114 -313 0
-114 -226 0
-115 -362 0
-115 -272 0
-115 -199 0
-115 -375 0
-115 -333 0
-115 -378 0
-115 -360 0
-115 -137 0
-115 -103 0
-115 -131 0
-115 -44 0
-115 -50 0
-115 -284 0
-115 -214 0
-115 -150 0
-115 -146 0
-115 -314 0
-115 -206 0
-115 -283 0
-115 -202 0
-116 -277 0
-116 -46 0
-116 -78 0
-116 -143 0
-116 -292 0
-116 -258 0
-116 -231 0
-116 -343 0
-116 -187 0
-116 -386 0
-116 -31 0
-116 -227 0
-117 -232 0
-117 -173 0
-117 -133 0
-117 -60 0
-117 -136 0
-117 -161 0
-117 -342 0
-117 -109 0
-117 -352 0
-117 -306 0
-117 -370 0
-117 -307 0
-117 -261 0
-117 -311 0
-117 -399 0
-117 -180 0
-118 -373 0
-118 -336 0
-118 -134 0
-118 -112 0
-118 -50 0
-118 -109 0
-118 -221 0
-118 -400 0
-118 -121 0
-118 -38 0
-118 -193 0
-118 -287 0
-118 -281 0
-118 -278 0
-118 -67 0
-118 -175 0
-118 -284 0
-118 -83 0
-118 -43 0
-119 -362 0
-119 -151 0
-119 -191 0
-119 -144 0
-119 -397 0
-119 -93 0
-119 -61 0
-119 -237 0
-119 -80 0
-119 -34 0
-119 -90 0
-119 -379 0
-119 -283 0
-119 -161 0
-119 -18 0
-119 -180 0
-120 -308 0
-120 -286 0
-120 -327 0
-120 -111 0
-120 -93 0
-120 -91 0
-120 -250 0
-120 -253 0
-120 -173 0
-120 -206 0
-120 -105 0
-120 -326 0
-120 -58 0
-120 -366 0
-120 -296 0
-121 -142 0
-121 -139 0
-121 -100 0
-121 -293 0
-121 -93 0
-121 -33 0
-121 -49 0
-121 -286 0
-121 -394 0
-121 -149 0
-121 -127 0
-121 -108 0
-121 -344 0
-121 -386 0
-121 -264 0
-121 -199 0
-121 -340 0
-121 -201 0
-121 -220 0
-122 -209 0
-122 -163 0
-122 -168 0
-122 -314 0
-122 -182 0
-122 -252 0
-122 -271 0
-122 -392 0
-122 -146 0
-122 -222 0
-122 -35 0
-122 -323 0
-122 -368 0
-122 -226 0
-122 -13 0
-123 -316 0
-123 -349 0
-123 -279 0
-123 -378 0
-123 -140 0
-123 -122 0
-123 -27 0
-123 -332 0
-123 -111 0
-123 -95 0
-123 -29 0
-123 -275 0
-124 -380 0
-124 -354 0
-124 -251 0
-124 -376 0
-124 -311 0
-124 -94 0
-124 -99 0
-124 -166 0
-124 -293 0
-124 -332 0
-124 -276 0
-124 -8 0
-124 -305 0
-124 -345 0
-124 -257 0
-125 -324 0
-125 -290 0
-125 -358 0
-125 -170 0
-125 -141 0
-125 -374 0
-125 -341 0
-125 -227 0
-125 -266 0
-125 -138 0
-125 -119 0
-125 -120 0
-125 -327 0
-125 -257 0
-125 -394 0
-125 -149 0
-126 -168 0
-126 -349 0
-126 -127 0
-126 -103 0
-126 -47 0
-126 -236 0
-126 -232 0
-126 -228 0
-126 -158 0
-126 -91 0
-126 -114 0
-126 -332 0
-126 -229 0
-126 -48 0
-126 -215 0
-126 -361 0
-126 -329 0
-126 -354 0
-127 -145 0
-127 -53 0
-127 -363 0
-127 -113 0
-127 -45 0
-127 -281 0
-127 -375 0
-127 -112 0
-128 -361 0
-128 -313 0
-128 -249 0
-128 -148 0
-128 -145 0
-128 -115 0
-128 -386 0
-128 -46 0
-128 -355 0
-128 -194 0
-128 -282 0
-128 -242 0
-128 -6 0
-128 -326 0
-128 -153 0
-128 -111 0
-128 -190 0
-128 -146 0
-128 -98 0
-128 -75 0
-128 -20 0
-128 -74 0
-128 -22 0
-128 -396 0
-128 -273 0
-129 -339 0
-129 -302 0
-129 -168 0
-129 -222 0
-129 -160 0
-129 -293 0
-129 -203 0
-129 -181 0
-129 -141 0
-129 -126 0
-129 -102 0
-129 -14 0
-129 -55 0
-129 -356 0
-129 -77 0
-129 -22 0
-129 -183 0
-129 -151 0
-129 -66 0
-129 -5 0
-129 -25 0
-129 -316 0
-129 -332 0
-129 -381 0
-130 -179 0
-130 -333 0
-130 -188 0
-130 -375 0
-130 -73 0
-130 -1 0
-130 -374 0
-130 -16 0
-130 -143 0
-130 -35 0
-130 -92 0
-130 -48 0
-130 -69 0
-130 -253 0
-130 -310 0
-130 -88 0
-130 -311 0
-130 -297 0
-130 -259 0
-130 -42 0
-131 -361 0
-131 -298 0
-131 -375 0
-131 -206 0
-131 -164 0
-131 -36 0
-131 -327 0
-131 -215 0
-131 -11 0
-131 -288 0
-131 -364 0
-131 -44 0
-131 -367 0
-132 -144 0
-132 -2 0
-132 -63 0
-132 -33 0
-132 -237 0
-132 -143 0
-132 -378 0
-132 -242 0
-132 -346 0
-132 -193 0
-132 -321 0
-133 -202 0
-133 -396 0
-133 -226 0
-133 -23 0
-133 -43 0
-133 -55 0
-133 -31 0
-133 -130 0
-133 -334 0
-133 -122 0
-133 -373 0
-133 -76 0
-133 -338 0
-133 -235 0
-134 -383 0
-134 -326 0
-134 -233 0
-134 -237 0
-134 -199 0
-134 -378 0
-134 -14 0
-134 -9 0
-134 -387 0
-134 -341 0
-134 -345 0
-134 -183 0
-134 -42 0
-134 -198 0
-135 -332 0
-135 -322 0
-135 -312 0
-135 -249 0
-135 -234 0
-135 -68 0
-135 -123 0
-135 -320 0
-135 -41 0
-135 -287 0
-135 -48 0
-135 -244 0
-135 -299 0
-135 -238 0
-135 -371 0
-135 -69 0
-135 -38 0
-136 -245 0
-136 -175 0
-136 -164 0
-136 -56 0
-136 -105 0
-136 -100 0
-136 -146 0
-136 -73 0
-136 -308 0
-136 -373 0
-136 -27 0
-136 -322 0
-137 -290 0
-137 -159 0
-137 -127 0
-137 -131 0
-137 -37 0
-137 -96 0
-137 -58 0
-137 -172 0
-137 -193 0
-137 -49 0
-137 -143 0
-138 -357 0
-138 -259 0
-138 -246 0
-138 -392 0
-138 -347 0
-138 -179 0
-138 -30 0
-138 -132 0
-138 -116 0
-138 -170 0
-138 -388 0
-139 -346 0
-139 -322 0
-139 -210 0
-139 -209 0
-139 -94 0
-139 -68 0
-139 -293 0
-139 -284 0
-139 -298 0
-139 -43 0
-139 -38 0
-139 -91 0
-139 -143 0
-139 -10 0
-139 -29 0
-139 -319 0
-139 -51 0
-140 -367 0
-140 -192 0
-140 -185 0
-140 -355 0
-140 -347 0
-140 -173 0
-140 -99 0
-140 -90 0
-140 -398 0
-140 -372 0
-140 -292 0
-140 -327 0
-140 -11 0
-140 -60 0
-140 -183 0
-140 -288 0
-140 -196 0
-140 -18 0
-141 -200 0
-141 -147 0
-141 -344 0
-141 -123 0
-141 -31 0
-141 -400 0
-141 -156 0
-141 -51 0
-141 -373 0
-141 -272 0
-141 -11 0
-141 -326 0
-141 -192 0
-141 -285 0
-142 -208 0
-142 -192 0
-142 -303 0
-142 -169 0
-142 -156 0
-142 -388 0
-142 -347 0
-142 -96 0
-142 -58 0
-142 -111 0
-142 -379 0
-142 -317 0
-142 -68 0
-142 -304 0
-142 -266 0
-142 -45 0
-142 -40 0
-142 -92 0
-142 -85 0
-142 -119 0
-143 -196 0
-143 -189 0
-143 -94 0
-143 -65 0
-143 -286 0
-143 -276 0
-143 -78 0
-143 -7 0
-144 -168 0
-144 -257 0
-144 -375 0
-144 -207 0
-144 -176 0
-144 -297 0
-144 -67 0
-144 -253 0
-144 -180 0
-144 -122 0
-144 -155 0
-144 -82 0
-144 -373 0
-144 -332 0
-144 -302 0
-145 -209 0
-145 -291 0
-145 -282 0
-145 -188 0
-145 -86 0
-145 -4 0
-145 -230 0
-145 -146 0
-145 -259 0
-146 -360 0
-146 -164 0
-146 -160 0
-146 -351 0
-146 -62 0
-146 -170 0
-146 -328 0
-146 -36 0
-146 -8 0
-146 -261 0
-146 -217 0
-146 -252 0
-146 -70 0
-146 -48 0
-146 -39 0
-146 -205 0
-146 -175 0
-146 -42 0
-146 -370 0
-146 -206 0
-147 -248 0
-147 -210 0
-147 -189 0
-147 -65 0
-147 -297 0
-147 -175 0
-147 -126 0
-147 -96 0
-147 -158 0
-147 -396 0
-147 -184 0
-147 -196 0
-147 -100 0
-147 -337 0
-147 -380 0
-147 -275 0
-148 -389 0
-148 -384 0
-148 -390 0
-148 -346 0
-148 -323 0
-148 -249 0
-148 -352 0
-148 -139 0
-148 -108 0
-148 -354 0
-148 -103 0
-148 -398 0
-148 -82 0
-148 -275 0
-148 -70 0
-148 -71 0
-148 -220 0
-148 -75 0
-148 -193 0
-148 -178 0
-149 -360 0
-149 -254 0
-149 -264 0
-149 -291 0
-149 -50 0
-149 -322 0
-149 -214 0
-149 -283 0
-149 -81 0
-149 -103 0
-149 -66 0
-149 -308 0
-149 -96 0
-149 -2 0
-149 -216 0
-149 -373 0
-150 -212 0
-150 -255 0
-150 -344 0
-150 -100 0
-150 -295 0
-150 -238 0
-150 -337 0
-150 -227 0
-150 -42 0
-150 -204 0
-150 -145 0
-151 -205 0
-151 -122 0
-151 -210 0
-151 -276 0
-151 -370 0
-151 -167 0
-151 -327 0
-151 -349 0
-151 -179 0
-151 -204 0
-151 -183 0
-151 -103 0
-151 -286 0
-151 -136 0
-151 -170 0
-151 -10 0
-151 -48 0
-152 -199 0
-152 -159 0
-152 -163 0
-152 -273 0
-152 -200 0
-152 -178 0
-152 -189 0
-152 -156 0
-152 -169 0
-152 -176 0
-152 -282 0
-152 -233 0
-152 -4 0
-152 -119 0
-152 -3 0
-153 -314 0
-153 -369 0
-153 -123 0
-153 -32 0
-153 -315 0
-153 -159 0
-153 -1 0
-153 -266 0
-153 -151 0
-153 -161 0
-153 -345 0
-153 -270 0
-153 -102 0
-153 -363 0
-154 -167 0
-154 -179 0
-154 -50 0
-154 -284 0
-154 -173 0
-154 -398 0
-154 -105 0
-154 -61 0
-154 -90 0
-154 -32 0
-154 -157 0
-154 -29 0
-154 -227 0
-154 -290 0
-154 -264 0
-155 -190 0
-155 -153 0
-155 -332 0
-155 -185 0
-155 -176 0
-155 -192 0
-155 -169 0
-155 -143 0
-155 -310 0
-155 -400 0
-155 -175 0
-155 -396 0
-155 -344 0
-155 -76 0
-156 -382 0
-156 -276 0
-156 -196 0
-156 -277 0
-156 -160 0
-156 -335 0
-156 -191 0
-156 -61 0
-156 -33 0
-156 -239 0
-156 -219 0
-156 -20 0
-156 -345 0
-156 -289 0
-156 -269 0
-157 -357 0
-157 -255 0
-157 -213 0
-157 -320 0
-157 -62 0
-157 -137 0
-157 -174 0
-157 -173 0
-157 -162 0
-157 -17 0
-157 -247 0
-157 -300 0
-157 -177 0
-157 -153 0
-157 -81 0
-157 -229 0
-157 -15 0
-157 -321 0
-158 -155 0
-158 -340 0
-158 -179 0
-158 -164 0
-158 -189 0
-158 -46 0
-158 -170 0
-158 -154 0
-158 -275 0
-158 -191 0
-158 -13 0
-158 -89 0
-158 -249 0
-158 -251 0
-158 -192 0
-158 -143 0
-158 -175 0
-159 -165 0
-159 -386 0
-159 -87 0
-159 -209 0
-159 -296 0
-159 -185 0
-159 -148 0
-159 -175 0
-159 -211 0
-159 -105 0
-159 -154 0
-159 -161 0
-159 -181 0
-159 -64 0
-159 -399 0
-160 -290 0
-160 -372 0
-160 -277 0
-160 -340 0
-160 -234 0
-160 -46 0
-160 -44 0
-160 -209 0
-160 -150 0
-160 -96 0
-160 -80 0
-160 -296 0
-160 -235 0
-160 -110 0
-160 -389 0
-160 -181 0
-160 -310 0
-161 -321 0
-161 -151 0
-161 -139 0
-161 -131 0
-161 -397 0
-161 -182 0
-161 -9 0
-161 -167 0
-161 -242 0
-161 -16 0
-161 -287 0
-161 -351 0
-161 -220 0
-161 -149 0
-161 -42 0
-161 -85 0
-161 -367 0
-161 -373 0
-161 -106 0
-161 -51 0
-161 -254 0
-162 -257 0
-162 -178 0
-162 -256 0
-162 -190 0
-162 -88 0
-162 -111 0
-162 -122 0
-162 -173 0
-162 -20 0
-162 -384 0
-162 -365 0
-162 -280 0
-162 -52 0
-162 -386 0
-163 -283 0
-163 -157 0
-163 -83 0
-163 -132 0
-163 -291 0
-163 -342 0
-163 -108 0
-163 -340 0
-163 -315 0
-163 -279 0
-163 -396 0
-163 -100 0
-163 -65 0
-163 -134 0
-163 -381 0
-163 -195 0
-163 -326 0
-163 -2 0
-164 -348 0
-164 -281 0
-164 -236 0
-164 -321 0
-164 -115 0
-164 -126 0
-164 -123 0
-164 -253 0
-164 -261 0
-164 -113 0
-164 -395 0
-165 -254 0
-165 -321 0
-165 -137 0
-165 -3 0
-165 -37 0
-165 -172 0
-165 -66 0
-165 -107 0
-165 -261 0
-165 -18 0
-165 -34 0
-165 -281 0
-165 -243 0
-165 -379 0
-165 -363 0
-165 -304 0
-166 -289 0
-166 -100 0
-166 -301 0
-166 -308 0
-166 -91 0
-166 -61 0
-166 -51 0
-166 -184 0
-166 -188 0
-166 -89 0
-166 -128 0
-166 -340 0
-166 -87 0
-166 -280 0
-166 -387 0
-166 -198 0
-166 -253 0
-167 -278 0
-167 -343 0
-167 -57 0
-167 -104 0
-167 -326 0
-167 -371 0
-167 -174 0
-167 -163 0
-167 -200 0
-167 -160 0
-167 -196 0
-167 -319 0
-167 -398 0
-167 -372 0
-167 -61 0
-167 -171 0
-168 -382 0
-168 -370 0
-168 -44 0
-168 -68 0
-168 -37 0
-168 -50 0
-168 -305 0
-168 -24 0
-168 -142 0
-169 -343 0
-169 -331 0
-169 -108 0
-169 -209 0
-169 -13 0
-169 -150 0
-169 -395 0
-169 -168 0
-169 -200 0
-169 -145 0
-169 -184 0
-169 -386 0
-169 -203 0
-169 -9 0
-170 -295 0
-170 -118 0
-170 -127 0
-170 -293 0
-170 -232 0
-170 -114 0
-170 -284 0
-170 -35 0
-170 -350 0
-170 -144 0
-170 -18 0
-170 -326 0
-170 -325 0
-170 -101 0
-170 -358 0
-170 -267 0
-170 -87 0
-170 -117 0
-171 -180 0
-171 -216 0
-171 -382 0
-171 -356 0
-171 -329 0
-171 -155 0
-171 -175 0
-171 -159 0
-171 -127 0
-171 -142 0
-171 -42 0
-171 -281 0
-171 -9 0
-171 -35 0
-171 -19 0
-172 -221 0
-172 -198 0
-172 -276 0
-172 -162 0
-172 -216 0
-172 -2 0
-172 -36 0
-172 -231 0
-172 -193 0
-172 -180 0
-172 -232 0
-172 -274 0
-173 -316 0
-173 -234 0
-173 -139 0
-173 -91 0
-173 -193 0
-173 -4 0
-173 -87 0
-173 -29 0
-173 -366 0
-173 -204 0
-173 -82 0
-173 -134 0
-173 -329 0
-173 -172 0
-174 -247 0
-174 -45 0
-174 -348 0
-174 -336 0
-174 -199 0
-174 -246 0
-174 -192 0
-174 -92 0
-174 -326 0
-174 -136 0
-174 -289 0
-174 -46 0
-174 -54 0
-174 -332 0
-174 -397 0
-174 -150 0
-174 -41 0
-174 -212 0
-174 -198 0
-174 -195 0
-174 -355 0
-175 -235 0
-175 -246 0
-175 -316 0
-175 -91 0
-175 -178 0
-175 -62 0
-175 -107 0
-175 -34 0
-175 -70 0
-175 -30 0
-175 -284 0
-176 -259 0
-176 -385 0
-176 -277 0
-176 -163 0
-176 -218 0
-176 -213 0
-176 -94 0
-176 -90 0
-176 -2 0
-176 -189 0
-176 -84 0
-176 -292 0
-176 -287 0
-176 -166 0
-176 -45 0
-176 -113 0
-176 -161 0
-176 -40 0
-177 -359 0
-177 -336 0
-177 -230 0
-177 -137 0
-177 -221 0
-177 -136 0
-177 -130 0
-177 -209 0
-177 -82 0
-177 -78 0
-177 -198 0
-177 -156 0
-177 -205 0
-177 -274 0
-177 -172 0
-177 -235 0
-177 -95 0
-177 -61 0
-177 -301 0
-178 -368 0
-178 -164 0
-178 -53 0
-178 -267 0
-178 -273 0
-178 -154 0
-178 -47 0
-178 -69 0
-178 -247 0
-178 -26 0
-178 -309 0
-178 -27 0
-178 -369 0
-178 -253 0
-178 -8 0
-178 -115 0
-178 -42 0
-178 -249 0
-179 -324 0
-179 -156 0
-179 -108 0
-179 -182 0
-179 -265 0
-179 -331 0
-179 -230 0
-179 -294 0
-179 -87 0
-179 -226 0
-179 -77 0
-179 -187 0
-179 -177 0
-179 -17 0
-179 -270 0
-179 -247 0
-180 -208 0
-180 -269 0
-180 -219 0
-180 -47 0
-180 -118 0
-180 -359 0
-180 -223 0
-180 -60 0
-180 -56 0
-180 -83 0
-180 -159 0
-180 -383 0
-181 -295 0
-181 -23 0
-181 -76 0
-181 -224 0
-181 -33 0
-181 -235 0
-181 -263 0
-181 -29 0
-181 -71 0
-181 -282 0
-181 -27 0
-181 -280 0
-181 -346 0
-181 -309 0
-182 -294 0
-182 -375 0
-182 -360 0
-182 -216 0
-182 -166 0
-182 -23 0
-182 -36 0
-182 -235 0
-182 -352 0
-182 -391 0
-182 -170 0
-182 -227 0
-182 -73 0
-182 -148 0
-182 -135 0
-182 -270 0
-182 -106 0
-182 -215 0
-183 -233 0
-183 -374 0
-183 -160 0
-183 -97 0
-183 -65 0
-183 -266 0
-183 -62 0
-183 -252 0
-183 -249 0
-183 -120 0
-183 -131 0
-183 -122 0
-183 -63 0
-183 -45 0
-183 -354 0
-183 -189 0
-184 -317 0
-184 -286 0
-184 -176 0
-184 -145 0
-184 -267 0
-184 -221 0
-184 -131 0
-184 -377 0
-184 -28 0
-184 -177 0
-184 -371 0
-184 -25 0
-184 -173 0
-184 -228 0
-184 -311 0
-185 -337 0
-185 -231 0
-185 -125 0
-185 -51 0
-185 -319 0
-185 -239 0
-185 -246 0
-185 -191 0
-185 -210 0
-185 -66 0
-185 -303 0
-185 -322 0
-185 -29 0
-185 -395 0
-185 -164 0
-185 -9 0
-185 -204 0
-185 -12 0
-185 -323 0
-186 -336 0
-186 -291 0
-186 -200 0
-186 -366 0
-186 -267 0
-186 -228 0
-186 -311 0
-186 -69 0
-186 -30 0
-186 -266 0
-186 -338 0
-186 -241 0
-186 -36 0
-186 -74 0
-186 -121 0
-186 -219 0
-187 -62 0
-187 -24 0
-187 -19 0
-187 -284 0
-187 -292 0
-187 -9 0
-187 -54 0
-187 -81 0
-187 -307 0
-187 -365 0
-187 -260 0
-187 -36 0
-188 -199 0
-188 -277 0
-188 -103 0
-188 -271 0
-188 -267 0
-188 -44 0
-188 -173 0
-188 -186 0
-188 -287 0
-188 -115 0
-188 -257 0
-188 -319 0
-188 -286 0
-188 -110 0
-188 -307 0
-188 -112 0
-188 -191 0
-188 -357 0
-189 -386 0
-189 -310 0
-189 -164 0
-189 -64 0
-189 -291 0
-189 -287 0
-189 -304 0
-189 -155 0
-189 -214 0
-189 -227 0
-189 -232 0
-189 -18 0
-189 -11 0
-190 -347 0
-190 -315 0
-190 -216 0
-190 -164 0
-190 -275 0
-190 -67 0
-190 -64 0
-190 -14 0
-190 -150 0
-190 -39 0
-190 -195 0
-190 -296 0
-190 -269 0
-190 -231 0
-190 -364 0
-190 -153 0
-190 -146 0
-190 -29 0
-190 -20 0
-190 -172 0
-190 -69 0
-190 -180 0
-190 -78 0
-190 -384 0
-191 -314 0
-191 -44 0
-191 -166 0
-191 -392 0
-191 -151 0
-191 -343 0
-191 -352 0
-191 -60 0
-191 -183 0
-191 -181 0
-191 -127 0
-191 -160 0
-191 -357 0
-191 -14 0
-191 -169 0
-191 -383 0
-191 -129 0
-191 -275 0
-192 -214 0
-192 -217 0
-192 -16 0
-192 -15 0
-192 -382 0
-192 -294 0
-192 -259 0
-192 -78 0
-192 -204 0
-192 -209 0
-192 -119 0
-192 -19 0
-192 -379 0
-192 -109 0
-192 -53 0
-192 -96 0
-192 -370 0
-192 -149 0
-192 -393 0
-193 -213 0
-193 -200 0
-193 -215 0
-193 -154 0
-193 -354 0
-193 -76 0
-193 -268 0
-193 -4 0
-193 -348 0
-193 -129 0
-193 -95 0
-193 -92 0
-193 -79 0
-193 -107 0
-194 -103 0
-194 -184 0
-194 -332 0
-194 -13 0
-194 -75 0
-194 -202 0
-194 -342 0
-194 -71 0
-194 -170 0
-194 -81 0
-194 -273 0
-194 -146 0
-195 -283 0
-195 -238 0
-195 -259 0
-195 -22 0
-195 -17 0
-195 -9 0
-195 -124 0
-195 -364 0
-195 -28 0
-195 -43 0
-195 -390 0
-195 -226 0
-195 -184 0
-195 -5 0
-196 -374 0
-196 -252 0
-196 -222 0
-196 -160 0
-196 -106 0
-196 -265 0
-196 -284 0
-196 -76 0
-196 -7 0
-196 -27 0
-196 -310 0
-196 -145 0
-196 -149 0
-197 -346 0
-197 -339 0
-197 -209 0
-197 -260 0
-197 -392 0
-197 -23 0
-197 -80 0
-197 -93 0
-197 -172 0
-197 -16 0
-197 -118 0
-197 -107 0
-197 -155 0
-197 -60 0
-197 -383 0
-197 -193 0
-197 -82 0
-197 -81 0
-198 -240 0
-198 -196 0
-198 -176 0
-198 -202 0
-198 -91 0
-198 -7 0
-198 -223 0
-198 -186 0
-198 -308 0
-198 -189 0
-198 -76 0
-198 -25 0
-198 -66 0
-198 -152 0
-198 -362 0
-198 -354 0
-198 -262 0
-198 -274 0
-199 -296 0
-199 -149 0
-199 -116 0
-199 -21 0
-199 -316 0
-199 -125 0
-199 -371 0
-199 -19 0
-199 -269 0
-199 -130 0
-199 -12 0
-199 -143 0
-200 -332 0
-200 -325 0
-200 -246 0
-200 -156 0
-200 -105 0
-200 -30 0
-200 -67 0
-200 -6 0
-200 -3 0
-200 -88 0
-200 -320 0
-200 -296 0
-200 -182 0
-200 -350 0
-200 -308 0
-200 -149 0
-201 -351 0
-201 -379 0
-201 -179 0
-201 -137 0
-201 -50 0
-201 -145 0
-201 -393 0
-201 -216 0
-201 -174 0
-201 -223 0
-201 -193 0
-201 -352 0
-201 -35 0
-201 -116 0
-202 -243 0
-202 -56 0
-202 -100 0
-202 -215 0
-202 -224 0
-202 -191 0
-202 -123 0
-202 -62 0
-202 -207 0
-202 -99 0
-202 -143 0
-202 -16 0
-202 -93 0
-202 -103 0
-202 -245 0
-202 -113 0
-202 -172 0
-202 -384 0
-202 -125 0
-202 -72 0
-202 -388 0
-202 -352 0
-202 -377 0
-202 -356 0
-202 -65 0
-203 -300 0
-203 -247 0
-203 -343 0
-203 -95 0
-203 -85 0
-203 -77 0
-203 -367 0
-203 -370 0
-203 -346 0
-203 -383 0
-203 -315 0
-203 -254 0
-203 -98 0
-203 -224 0
-203 -189 0
-203 -162 0
-203 -330 0
-203 -155 0
-204 -382 0
-204 -245 0
-204 -375 0
-204 -159 0
-204 -349 0
-204 -230 0
-204 -216 0
-204 -128 0
-204 -137 0
-204 -134 0
-204 -90 0
-204 -231 0
-204 -91 0
-204 -63 0
-204 -187 0
-204 -89 0
-204 -297 0
-204 -87 0
-204 -379 0
-205 -318 0
-205 -156 0
-205 -224 0
-205 -166 0
-205 -130 0
-205 -136 0
-205 -12 0
-205 -209 0
-205 -287 0
-205 -190 0
-205 -74 0
-205 -223 0
-205 -173 0
-205 -231 0
-205 -128 0
-205 -107 0
-205 -29 0
-205 -45 0
-205 -390 0
-205 -16 0
-205 -339 0
-206 -222 0
-206 -194 0
-206 -63 0
-206 -311 0
-206 -181 0
-206 -25 0
-206 -369 0
-206 -400 0
-206 -140 0
-206 -236 0
-206 -390 0
-206 -310 0
-206 -301 0
-207 -253 0
-207 -197 0
-207 -217 0
-207 -390 0
-207 -259 0
-207 -209 0
-207 -330 0
-207 -379 0
-207 -199 0
-207 -3 0
-207 -5 0
-207 -84 0
-207 -359 0
-207 -251 0
-207 -45 0
-207 -35 0
-208 -266 0
-208 -22 0
-208 -251 0
-208 -85 0
-208 -329 0
-208 -207 0
-208 -245 0
-208 -118 0
-208 -102 0
-208 -269 0
-208 -330 0
-208 -293 0
-208 -114 0
-208 -184 0
-208 -73 0
-209 -283 0
-209 -238 0
-209 -187 0
-209 -397 0
-209 -22 0
-209 -396 0
-209 -348 0
-209 -7 0
-209 -276 0
-209 -268 0
-209 -51 0
-209 -47 0
-209 -308 0
-209 -386 0
-209 -94 0
-209 -62 0
-209 -204 0
-209 -206 0
-209 -76 0
-210 -190 0
-210 -157 0
-210 -57 0
-210 -119 0
-210 -83 0
-210 -12 0
-210 -381 0
-210 -263 0
-210 -363 0
-210 -15 0
-210 -195 0
-210 -284 0
-210 -237 0
-210 -68 0
-210 -325 0
-210 -17 0
-210 -207 0
-210 -10 0
-210 -9 0
-211 -246 0
-211 -168 0
-211 -68 0
-211 -284 0
-211 -228 0
-211 -398 0
-211 -43 0
-211 -4 0
-211 -371 0
-211 -244 0
-211 -107 0
-211 -158 0
-211 -136 0
-211 -149 0
-211 -280 0
-211 -366 0
-212 -337 0
-212 -190 0
-212 -165 0
-212 -79 0
-212 -119 0
-212 -258 0
-212 -259 0
-212 -299 0
-212 -196 0
-212 -302 0
-212 -386 0
-212 -101 0
-212 -28 0
-212 -371 0
-212 -268 0
-212 -103 0
-213 -383 0
-213 -365 0
-213 -360 0
-213 -332 0
-213 -329 0
-213 -320 0
-213 -248 0
-213 -340 0
-213 -263 0
-213 -109 0
-213 -276 0
-213 -170 0
-213 -186 0
-213 -242 0
-213 -91 0
-213 -15 0
-213 -178 0
-213 -31 0
-214 -321 0
-214 -291 0
-214 -106 0
-214 -399 0
-214 -136 0
-214 -187 0
-214 -201 0
-214 -220 0
-214 -241 0
-214 -197 0
-214 -300 0
-214 -10 0
-214 -164 0
-214 -359 0
-214 -107 0
-215 -316 0
-215 -200 0
-215 -288 0
-215 -154 0
-215 -199 0
-215 -34 0
-215 -348 0
-215 -283 0
-215 -226 0
-215 -205 0
-215 -237 0
-215 -285 0
-215 -194 0
-215 -272 0
-215 -10 0
-216 -390 0
-216 -263 0
-216 -152 0
-216 -115 0
-216 -103 0
-216 -100 0
-216 -186 0
-216 -286 0
-216 -169 0
-216 -248 0
-216 -56 0
-216 -120 0
-216 -36 0
-216 -270 0
-216 -83 0
-216 -18 0
-216 -344 0
-217 -317 0
-217 -242 0
-217 -352 0
-217 -372 0
-217 -279 0
-217 -295 0
-217 -382 0
-217 -270 0
-217 -337 0
-217 -182 0
-217 -165 0
-217 -93 0
-217 -356 0
-217 -227 0
-217 -116 0
-217 -183 0
-217 -371 0
-218 -380 0
-218 -299 0
-218 -230 0
-218 -189 0
-218 -112 0
-218 -293 0
-218 -136 0
-218 -88 0
-218 -4 0
-218 -323 0
-218 -354 0
-218 -84 0
-218 -304 0
-218 -345 0
-218 -375 0
-218 -102 0
-218 -99 0
-218 -238 0
-218 -97 0
-219 -386 0
-219 -314 0
-219 -199 0
-219 -128 0
-219 -279 0
-219 -224 0
-219 -36 0
-219 -313 0
-219 -149 0
-219 -146 0
-219 -11 0
-219 -345 0
-220 -385 0
-220 -399 0
-220 -398 0
-220 -336 0
-220 -263 0
-220 -138 0
-220 -37 0
-220 -217 0
-220 -125 0
-220 -132 0
-220 -152 0
-220 -69 0
-220 -39 0
-220 -85 0
-221 -233 0
-221 -179 0
-221 -212 0
-221 -17 0
-221 -74 0
-221 -138 0
-221 -202 0
-221 -371 0
-221 -323 0
-221 -140 0
-221 -389 0
-221 -318 0
-221 -90 0
-221 -269 0
-222 -380 0
-222 -378 0
-222 -167 0
-222 -195 0
-222 -148 0
-222 -106 0
-222 -76 0
-222 -31 0
-222 -334 0
-222 -150 0
-222 -104 0
-222 -62 0
-222 -161 0
-223 -209 0
-223 -342 0
-223 -142 0
-223 -297 0
-223 -221 0
-223 -147 0
-223 -141 0
-223 -162 0
-223 -52 0
-223 -21 0
-223 -43 0
-223 -372 0
-223 -329 0
-223 -186 0
-223 -318 0
-223 -187 0
-223 -70 0
-223 -102 0
-223 -185 0
-224 -151 0
-224 -330 0
-224 -263 0
-224 -38 0
-224 -65 0
-224 -2 0
-224 -295 0
-224 -194 0
-224 -335 0
-224 -52 0
-224 -373 0
-224 -249 0
-224 -357 0
-224 -257 0
-224 -50 0
-224 -125 0
-224 -253 0
-225 -350 0
-225 -284 0
-225 -166 0
-225 -305 0
-225 -245 0
-225 -212 0
-225 -211 0
-225 -268 0
-225 -291 0
-225 -219 0
-225 -188 0
-225 -320 0
-225 -40 0
-225 -398 0
-225 -105 0
-225 -133 0
-225 -88 0
-225 -210 0
-226 -317 0
-226 -289 0
-226 -224 0
-226 -257 0
-226 -286 0
-226 -7 0
-226 -148 0
-226 -190 0
-226 -250 0
-226 -205 0
-226 -359 0
-226 -347 0
-227 -324 0
-227 -280 0
-227 -245 0
-227 -243 0
-227 -251 0
-227 -88 0
-227 -348 0
-227 -212 0
-227 -119 0
-227 -157 0
-227 -396 0
-227 -146 0
-227 -12 0
-228 -352 0
-228 -176 0
-228 -105 0
-228 -5 0
-228 -33 0
-228 -93 0
-228 -180 0
-228 -183 0
-228 -143 0
-228 -138 0
-228 -22 0
-228 -74 0
-228 -229 0
-228 -363 0
-228 -213 0
-228 -280 0
-228 -327 0
-229 -345 0
-229 -66 0
-229 -15 0
-229 -354 0
-229 -270 0
-229 -248 0
-229 -47 0
-229 -377 0
-229 -35 0
-229 -50 0
-229 -150 0
-229 -215 0
-229 -255 0
-229 -327 0
-229 -141 0
-229 -93 0
-229 -5 0
-229 -200 0
-230 -384 0
-230 -356 0
-230 -294 0
-230 -318 0
-230 -269 0
-230 -160 0
-230 -44 0
-230 -297 0
-230 -173 0
-230 -396 0
-230 -61 0
-230 -88 0
-230 -130 0
-230 -124 0
-230 -389 0
-230 -171 0
-230 -338 0
-230 -398 0
-230 -15 0
-230 -93 0
-231 -346 0
-231 -374 0
-231 -176 0
-231 -212 0
-231 -211 0
-231 -305 0
-231 -396 0
-231 -14 0
-231 -358 0
-231 -95 0
-231 -365 0
-231 -367 0
-231 -228 0
-231 -81 0
-231 -69 0
-231 -46 0
-231 -196 0
-231 -241 0
-231 -101 0
-232 -148 0
-232 -221 0
-232 -160 0
-232 -396 0
-232 -114 0
-232 -217 0
-232 -371 0
-232 -356 0
-232 -226 0
-232 -20 0
-232 -55 0
-232 -228 0
-232 -31 0
-232 -320 0
-232 -188 0
-232 -51 0
-232 -276 0
-232 -324 0
-232 -248 0
-232 -19 0
-232 -133 0
-232 -257 0
-232 -149 0
-233 -256 0
-233 -149 0
-233 -76 0
-233 -16 0
-233 -207 0
-233 -333 0
-233 -272 0
-233 -164 0
-233 -100 0
-233 -227 0
-233 -239 0
-233 -84 0
-233 -192 0
-233 -115 0
-233 -80 0
-234 -192 0
-234 -361 0
-234 -269 0
-234 -289 0
-234 -252 0
-234 -164 0
-234 -131 0
-234 -120 0
-234 -70 0
-234 -36 0
-234 -12 0
-234 -309 0
-234 -281 0
-234 -69 0
-234 -98 0
-234 -92 0
-234 -149 0
-234 -181 0
-234 -325 0
-234 -151 0
-235 -216 0
-235 -262 0
-235 -84 0
-235 -33 0
-235 -334 0
-235 -305 0
-235 -104 0
-235 -153 0
-235 -18 0
-235 -89 0
-235 -261 0
-235 -25 0
-236 -20 0
-236 -290 0
-236 -314 0
-236 -318 0
-236 -40 0
-236 -361 0
-236 -167 0
-236 -303 0
-236 -210 0
-236 -12 0
-236 -327 0
-236 -232 0
-236 -142 0
-236 -271 0
-237 -362 0
-237 -233 0
-237 -321 0
-237 -252 0
-237 -109 0
-237 -114 0
-237 -374 0
-237 -258 0
-237 -249 0
-237 -95 0
-237 -77 0
-237 -151 0
-237 -234 0
-238 -299 0
-238 -230 0
-238 -186 0
-238 -243 0
-238 -188 0
-238 -70 0
-238 -303 0
-238 -38 0
-238 -261 0
-238 -241 0
-238 -184 0
-238 -85 0
-238 -367 0
-238 -123 0
-238 -386 0
-238 -302 0
-239 -45 0
-239 -168 0
-239 -247 0
-239 -251 0
-239 -199 0
-239 -109 0
-239 -334 0
-239 -53 0
-239 -393 0
-239 -30 0
-239 -5 0
-239 -262 0
-240 -163 0
-240 -260 0
-240 -164 0
-240 -59 0
-240 -124 0
-240 -239 0
-240 -143 0
-240 -123 0
-240 -121 0
-240 -88 0
-240 -85 0
-240 -132 0
-240 -183 0
-240 -261 0
-240 -214 0
-240 -355 0
-240 -22 0
-240 -234 0
-241 -280 0
-241 -286 0
-241 -271 0
-241 -64 0
-241 -96 0
-241 -82 0
-241 -367 0
-241 -304 0
-241 -296 0
-241 -283 0
-241 -77 0
-241 -180 0
-242 -110 0
-242 -77 0
-242 -72 0
-242 -88 0
-242 -330 0
-242 -280 0
-242 -111 0
-242 -66 0
-242 -332 0
-242 -130 0
-242 -173 0
-242 -391 0
-242 -39 0
-243 -388 0
-243 -339 0
-243 -207 0
-243 -50 0
-243 -139 0
-243 -335 0
-243 -393 0
-243 -141 0
-243 -331 0
-243 -174 0
-243 -41 0
-243 -158 0
-243 -292 0
-243 -45 0
-243 -348 0
-243 -25 0
-244 -315 0
-244 -175 0
-244 -155 0
-244 -204 0
-244 -134 0
-244 -206 0
-244 -213 0
-244 -396 0
-244 -148 0
-244 -111 0
-244 -32 0
-244 -341 0
-244 -278 0
-244 -183 0
-244 -347 0
-244 -238 0
-244 -138 0
-244 -38 0
-245 -138 0
-245 -22 0
-245 -380 0
-245 -320 0
-245 -302 0
-245 -314 0
-245 -377 0
-245 -347 0
-245 -87 0
-245 -46 0
-245 -134 0
-245 -37 0
-245 -92 0
-246 -143 0
-246 -262 0
-246 -236 0
-246 -331 0
-246 -271 0
-246 -360 0
-246 -68 0
-246 -129 0
-246 -37 0
-246 -399 0
-246 -14 0
-246 -240 0
-246 -223 0
-246 -225 0
-246 -50 0
-247 -134 0
-247 -102 0
-247 -395 0
-247 -154 0
-247 -16 0
-247 -5 0
-247 -42 0
-247 -295 0
-247 -70 0
-247 -214 0
-247 -206 0
-247 -370 0
-247 -193 0
-247 -399 0
-247 -362 0
-248 -217 0
-248 -63 0
-248 -368 0
-248 -307 0
-248 -317 0
-248 -382 0
-248 -146 0
-248 -108 0
-248 -298 0
-249 -302 0
-249 -290 0
-249 -378 0
-249 -269 0
-249 -234 0
-249 -179 0
-249 -254 0
-249 -301 0
-249 -188 0
-249 -184 0
-249 -296 0
-249 -192 0
-249 -342 0
-249 -167 0
-249 -119 0
-249 -212 0
-249 -30 0
-249 -143 0
-250 -189 0
-250 -47 0
-250 -301 0
-250 -342 0
-250 -152 0
-250 -24 0
-250 -73 0
-250 -90 0
-250 -358 0
-250 -251 0
-250 -331 0
-250 -304 0
-250 -318 0
-250 -133 0
-250 -278 0
-250 -201 0
-250 -302 0
-250 -373 0
-250 -81 0
-250 -379 0
-250 -29 0
-250 -52 0
-251 -241 0
-251 -177 0
-251 -109 0
-251 -107 0
-251 -359 0
-251 -393 0
-251 -117 0
-251 -233 0
-251 -311 0
-251 -203 0
-251 -320 0
-251 -388 0
-251 -375 0
-251 -142 0
-251 -34 0
-251 -385 0
-251 -58 0
-251 -71 0
-251 -32 0
-251 -255 0
-252 -351 0
-252 -254 0
-252 -295 0
-252 -213 0
-252 -181 0
-252 -188 0
-252 -292 0
-252 -58 0
-252 -350 0
-252 -217 0
-253 -246 0
-253 -317 0
-253 -372 0
-253 -56 0
-253 -116 0
-253 -153 0
-253 -16 0
-253 -60 0
-253 -101 0
-253 -69 0
-253 -310 0
-253 -169 0
-253 -100 0
-253 -71 0
-254 -250 0
-254 -329 0
-254 -305 0
-254 -311 0
-254 -324 0
-254 -268 0
-254 -251 0
-254 -168 0
-254 -138 0
-254 -106 0
-254 -194 0
-254 -269 0
-254 -93 0
-254 -376 0
-254 -228 0
-254 -83 0
-255 -333 0
-255 -163 0
-255 -44 0
-255 -214 0
-255 -136 0
-255 -187 0
-255 -195 0
-255 -37 0
-255 -281 0
-256 -185 0
-256 -155 0
-256 -269 0
-256 -265 0
-256 -152 0
-256 -44 0
-256 -46 0
-256 -215 0
-256 -293 0
-256 -61 0
-256 -337 0
-256 -10 0
-256 -241 0
-256 -238 0
-256 -312 0
-256 -264 0
-256 -28 0
-256 -147 0
-257 -380 0
-257 -281 0
-257 -336 0
-257 -373 0
-257 -234 0
-257 -222 0
-257 -109 0
-257 -293 0
-257 -181 0
-257 -43 0
-257 -14 0
-257 -31 0
-257 -203 0
-257 -338 0
-257 -227 0
-257 -378 0
-257 -57 0
-257 -175 0
-257 -33 0
-257 -355 0
-257 -352 0
-257 -204 0
-258 -322 0
-258 -298 0
-258 -259 0
-258 -254 0
-258 -168 0
-258 -249 0
-258 -200 0
-258 -156 0
-258 -202 0
-258 -64 0
-258 -350 0
-258 -343 0
-258 -102 0
-258 -13 0
-258 -184 0
-258 -358 0
-258 -87 0
-259 -274 0
-259 -270 0
-259 -345 0
-259 -119 0
-259 -246 0
-259 -125 0
-259 -249 0
-259 -269 0
-259 -30 0
-259 -234 0
-259 -293 0
-259 -40 0
-259 -295 0
-259 -396 0
-260 -361 0
-260 -344 0
-260 -207 0
-260 -312 0
-260 -295 0
-260 -252 0
-260 -213 0
-260 -264 0
-260 -211 0
-260 -399 0
-260 -142 0
-260 -324 0
-260 -145 0
-260 -75 0
-260 -349 0
-261 -348 0
-261 -351 0
-261 -131 0
-261 -326 0
-261 -174 0
-261 -141 0
-261 -377 0
-261 -244 0
-261 -83 0
-261 -366 0
-261 -387 0
-261 -293 0
-261 -308 0
-261 -389 0
-262 -220 0
-262 -231 0
-262 -172 0
-262 -307 0
-262 -280 0
-262 -82 0
-262 -318 0
-262 -118 0
-262 -148 0
-262 -191 0
-262 -89 0
-262 -2 0
-262 -127 0
-262 -383 0
-263 -335 0
-263 -251 0
-263 -316 0
-263 -234 0
-263 -311 0
-263 -208 0
-263 -68 0
-263 -344 0
-263 -59 0
-263 -326 0
-263 -80 0
-263 -92 0
-263 -179 0
-264 -266 0
-264 -95 0
-264 -72 0
-264 -24 0
-264 -385 0
-264 -281 0
-264 -162 0
-264 -290 0
-264 -200 0
-264 -221 0
-264 -82 0
-264 -65 0
-264 -46 0
-264 -339 0
-264 -396 0
-265 -164 0
-265 -128 0
-265 -121 0
-265 -36 0
-265 -97 0
-265 -244 0
-265 -113 0
-265 -365 0
-265 -298 0
-265 -376 0
-265 -75 0
-265 -27 0
-265 -255 0
-265 -295 0
-265 -249 0
-266 -272 0
-266 -344 0
-266 -263 0
-266 -100 0
-266 -297 0
-266 -163 0
-266 -97 0
-266 -348 0
-266 -334 0
-266 -333 0
-266 -98 0
-266 -299 0
-266 -394 0
-266 -270 0
-266 -31 0
-267 -166 0
-267 -136 0
-267 -32 0
-267 -98 0
-267 -102 0
-267 -63 0
-267 -143 0
-267 -197 0
-267 -181 0
-267 -339 0
-267 -107 0
-267 -5 0
-267 -119 0
-267 -358 0
-268 -197 0
-268 -358 0
-268 -307 0
-268 -374 0
-268 -191 0
-268 -316 0
-268 -372 0
-268 -95 0
-268 -29 0
-268 -264 0
-268 -332 0
-268 -399 0
-268 -49 0
-268 -381 0
-269 -209 0
-269 -286 0
-269 -222 0
-269 -67 0
-269 -170 0
-269 -40 0
-269 -191 0
-269 -179 0
-269 -347 0
-269 -96 0
-269 -318 0
-269 -103 0
-269 -250 0
-269 -244 0
-269 -323 0
-269 -393 0
-269 -292 0
-269 -268 0
-269 -300 0
-270 -255 0
-270 -137 0
-270 -262 0
-270 -298 0
-270 -55 0
-270 -102 0
-270 -37 0
-270 -161 0
-270 -63 0
-270 -92 0
-270 -71 0
-270 -100 0
-270 -73 0
-270 -284 0
-270 -222 0
-270 -30 0
-270 -325 0
-270 -44 0
-271 -349 0
-271 -212 0
-271 -255 0
-271 -164 0
-271 -181 0
-271 -52 0
-271 -221 0
-271 -112 0
-271 -189 0
-271 -282 0
-271 -214 0
-271 -237 0
-271 -133 0
-271 -27 0
-271 -233 0
-271 -194 0
-271 -361 0
-271 -315 0
-271 -346 0
-271 -309 0
-271 -302 0
-272 -341 0
-272 -292 0
-272 -300 0
-272 -128 0
-272 -305 0
-272 -251 0
-272 -333 0
-272 -382 0
-272 -24 0
-272 -207 0
-272 -299 0
-272 -47 0
-272 -97 0
-272 -112 0
-272 -89 0
-272 -219 0
-272 -37 0
-272 -10 0
-272 -68 0
-273 -291 0
-273 -176 0
-273 -65 0
-273 -138 0
-273 -71 0
-273 -24 0
-273 -107 0
-273 -263 0
-273 -398 0
-273 -60 0
-273 -50 0
-273 -160 0
-273 -135 0
-273 -272 0
-273 -77 0
-274 -137 0
-274 -147 0
-274 -261 0
-274 -350 0
-274 -292 0
-274 -270 0
-274 -193 0
-274 -69 0
-274 -334 0
-274 -133 0
-274 -365 0
-274 -25 0
-274 -322 0
-275 -252 0
-275 -243 0
-275 -395 0
-275 -70 0
-275 -86 0
-275 -31 0
-275 -61 0
-275 -283 0
-275 -113 0
-275 -157 0
-275 -133 0
-275 -347 0
-276 -345 0
-276 -266 0
-276 -247 0
-276 -101 0
-276 -176 0
-276 -280 0
-276 -221 0
-276 -284 0
-276 -224 0
-276 -184 0
-276 -52 0
-276 -111 0
-276 -136 0
-276 -70 0
-276 -334 0
-276 -271 0
-276 -53 0
-277 -367 0
-277 -315 0
-277 -354 0
-277 -249 0
-277 -186 0
-277 -94 0
-277 -171 0
-277 -30 0
-277 -205 0
-277 -373 0
-277 -332 0
-277 -193 0
-277 -28 0
-277 -276 0
-277 -17 0
-277 -139 0
-278 -320 0
-278 -273 0
-278 -226 0
-278 -303 0
-278 -67 0
-278 -82 0
-278 -253 0
-278 -227 0
-278 -170 0
-278 -157 0
-278 -11 0
-278 -20 0
-278 -284 0
-278 -158 0
-278 -3 0
-278 -23 0
-278 -89 0
-278 -334 0
-279 -199 0
-279 -375 0
-279 -166 0
-279 -181 0
-279 -96 0
-279 -130 0
-279 -173 0
-279 -343 0
-279 -200 0
-279 -15 0
-279 -282 0
-279 -331 0
-279 -368 0
-279 -239 0
-279 -268 0
-280 -256 0
-280 -177 0
-280 -42 0
-280 -29 0
-280 -77 0
-280 -281 0
-280 -76 0
-280 -85 0
-280 -248 0
-280 -54 0
-280 -380 0
-280 -118 0
-280 -194 0
-280 -267 0
-280 -23 0
-280 -184 0
-280 -383 0
-281 -15 0
-281 -389 0
-281 -144 0
-281 -272 0
-281 -245 0
-281 -169 0
-281 -222 0
-281 -308 0
-281 -87 0
-281 -310 0
-282 -297 0
-282 -124 0
-282 -191 0
-282 -99 0
-282 -84 0
-282 -221 0
-282 -130 0
-282 -261 0
-282 -87 0
-282 -335 0
-282 -348 0
-282 -361 0
-282 -235 0
-282 -24 0
-283 -281 0
-283 -354 0
-283 -260 0
-283 -118 0
-283 -221 0
-283 -64 0
-283 -393 0
-283 -385 0
-283 -256 0
-283 -238 0
-283 -167 0
-283 -161 0
-283 -183 0
-283 -48 0
-283 -81 0
-283 -13 0
-283 -7 0
-284 -289 0
-284 -182 0
-284 -215 0
-284 -395 0
-284 -116 0
-284 -341 0
-284 -256 0
-284 -392 0
-284 -184 0
-284 -365 0
-284 -173 0
-285 -92 0
-285 -386 0
-285 -360 0
-285 -385 0
-285 -11 0
-285 -310 0
-285 -201 0
-285 -260 0
-285 -160 0
-285 -173 0
-285 -379 0
-285 -184 0
-285 -219 0
-285 -17 0
-285 -4 0
-286 -285 0
-286 -239 0
-286 -376 0
-286 -46 0
-286 -302 0
-286 -96 0
-286 -26 0
-286 -3 0
-286 -14 0
-286 -138 0
-286 -31 0
-286 -16 0
-286 -344 0
-286 -371 0
-286 -265 0
-287 -346 0
-287 -347 0
-287 -262 0
-287 -336 0
-287 -273 0
-287 -330 0
-287 -134 0
-287 -114 0
-287 -90 0
-287 -153 0
-287 -220 0
-287 -217 0
-287 -10 0
-287 -66 0
-287 -98 0
-287 -125 0
-287 -256 0
-287 -151 0
-288 -121 0
-288 -43 0
-288 -293 0
-288 -275 0
-288 -282 0
-288 -222 0
-288 -301 0
-288 -88 0
-288 -123 0
-288 -18 0
-288 -87 0
-288 -286 0
-288 -154 0
-288 -193 0
-288 -187 0
-288 -345 0
-288 -75 0
-289 -362 0
-289 -251 0
-289 -210 0
-289 -102 0
-289 -400 0
-289 -43 0
-289 -161 0
-289 -64 0
-289 -5 0
-289 -298 0
-289 -208 0
-289 -162 0
-289 -302 0
-289 -58 0
-289 -385 0
-289 -177 0
-289 -173 0
-289 -377 0
-289 -169 0
-289 -101 0
-290 -296 0
-290 -165 0
-290 -62 0
-290 -100 0
-290 -75 0
-290 -198 0
-290 -73 0
-290 -88 0
-290 -67 0
-290 -63 0
-290 -31 0
-290 -116 0
-291 -364 0
-291 -367 0
-291 -295 0
-291 -277 0
-291 -156 0
-291 -178 0
-291 -124 0
-291 -68 0
-291 -47 0
-291 -117 0
-291 -26 0
-291 -328 0
-291 -161 0
-291 -99 0
-291 -255 0
-291 -136 0
-291 -353 0
-291 -220 0
-291 -45 0
-291 -153 0
-292 -348 0
-292 -320 0
-292 -19 0
-292 -10 0
-292 -157 0
-292 -367 0
-292 -241 0
-292 -16 0
-292 -82 0
-292 -27 0
-292 -268 0
-292 -267 0
-292 -386 0
-292 -216 0
-293 -167 0
-293 -156 0
-293 -65 0
-293 -237 0
-293 -188 0
-293 -83 0
-293 -382 0
-293 -247 0
-294 -328 0
-294 -241 0
-294 -334 0
-294 -122 0
-294 -310 0
-294 -206 0
-294 -160 0
-294 -198 0
-294 -184 0
-294 -8 0
-294 -9 0
-295 -280 0
-295 -314 0
-295 -155 0
-295 -273 0
-295 -249 0
-295 -182 0
-295 -162 0
-295 -26 0
-295 -297 0
-295 -111 0
-295 -302 0
-295 -87 0
-296 -357 0
-296 -204 0
-296 -156 0
-296 -297 0
-296 -398 0
-296 -239 0
-296 -322 0
-296 -84 0
-296 -152 0
-296 -22 0
-296 -165 0
-296 -187 0
-296 -57 0
-296 -119 0
-296 -132 0
-296 -149 0
-296 -366 0
-296 -223 0
-296 -87 0
-297 -91 0
-297 -86 0
-297 -5 0
-297 -39 0
-297 -279 0
-297 -59 0
-297 -381 0
-297 -146 0
-297 -392 0
-297 -53 0
-297 -173 0
-297 -236 0
-297 -343 0
-297 -396 0
-297 -169 0
-297 -284 0
-297 -187 0
-297 -97 0
-297 -240 0
-298 -302 0
-298 -87 0
-298 -84 0
-298 -380 0
-298 -305 0
-298 -371 0
-298 -125 0
-298 -398 0
-298 -208 0
-298 -195 0
-298 -151 0
-298 -222 0
-298 -106 0
-298 -286 0
-298 -124 0
-298 -247 0
-298 -355 0
-298 -133 0
-298 -313 0
-298 -73 0
-299 -383 0
-299 -360 0
-299 -185 0
-299 -139 0
-299 -127 0
-299 -397 0
-299 -187 0
-299 -5 0
-299 -38 0
-299 -159 0
-299 -99 0
-299 -251 0
-299 -180 0
-299 -186 0
-299 -389 0
-299 -171 0
-299 -245 0
-299 -79 0
-299 -20 0
-299 -176 0
-300 -55 0
-300 -99 0
-300 -12 0
-300 -71 0
-300 -338 0
-300 -296 0
-300 -223 0
-300 -104 0
-300 -301 0
-300 -166 0
-300 -382 0
-300 -158 0
-300 -44 0
-300 -63 0
-300 -259 0
-300 -400 0
-300 -85 0
-301 -295 0
-301 -378 0
-301 -151 0
-301 -44 0
-301 -275 0
-301 -154 0
-301 -67 0
-301 -64 0
-301 -82 0
-301 -231 0
-301 -107 0
-301 -165 0
-301 -114 0
-301 -122 0
-301 -119 0
-301 -270 0
-301 -385 0
-301 -36 0
-301 -243 0
-301 -246 0
-301 -259 0
-302 -335 0
-302 -319 0
-302 -311 0
-302 -277 0
-302 -90 0
-302 -194 0
-302 -9 0
-302 -191 0
-302 -124 0
-302 -70 0
-303 -248 0
-303 -379 0
-303 -151 0
-303 -164 0
-303 -301 0
-303 -282 0
-303 -6 0
-303 -20 0
-303 -240 0
-303 -249 0
-303 -272 0
-303 -51 0
-303 -43 0
-303 -87 0
-303 -339 0
-303 -65 0
-303 -375 0
-303 -288 0
-303 -213 0
-304 -348 0
-304 -336 0
-304 -308 0
-304 -357 0
-304 -213 0
-304 -210 0
-304 -275 0
-304 -126 0
-304 -395 0
-304 -343 0
-304 -331 0
-304 -50 0
-304 -8 0
-304 -388 0
-305 -343 0
-305 -296 0
-305 -326 0
-305 -209 0
-305 -45 0
-305 -357 0
-305 -322 0
-305 -302 0
-305 -285 0
-305 -342 0
-305 -264 0
-305 -388 0
-305 -108 0
-305 -392 0
-305 -27 0
-305 -152 0
-305 -67 0
-305 -224 0
-305 -273 0
-306 -252 0
-306 -308 0
-306 -371 0
-306 -250 0
-306 -303 0
-306 -80 0
-306 -48 0
-306 -113 0
-306 -256 0
-306 -16 0
-306 -317 0
-306 -132 0
-306 -22 0
-306 -274 0
-307 -328 0
-307 -165 0
-307 -135 0
-307 -364 0
-307 -89 0
-307 -320 0
-307 -147 0
-307 -291 0
-307 -271 0
-307 -382 0
-307 -59 0
-307 -74 0
-307 -232 0
-307 -52 0
-307 -94 0
-307 -138 0
-307 -61 0
-307 -123 0
-307 -2 0
-307 -349 0
-307 -141 0
-308 -383 0
-308 -373 0
-308 -360 0
-308 -378 0
-308 -248 0
-308 -182 0
-308 -226 0
-308 -42 0
-308 -228 0
-308 -294 0
-308 -205 0
-308 -377 0
-308 -157 0
-309 -329 0
-309 -320 0
-309 -272 0
-309 -49 0
-309 -246 0
-309 -185 0
-309 -262 0
-309 -150 0
-309 -149 0
-309 -54 0
-309 -24 0
-309 -114 0
-309 -305 0
-309 -58 0
-309 -10 0
-309 -51 0
-310 -383 0
-310 -335 0
-310 -339 0
-310 -308 0
-310 -249 0
-310 -59 0
-310 -225 0
-310 -150 0
-310 -188 0
-310 -44 0
-310 -244 0
-310 -41 0
-310 -266 0
-310 -26 0
-310 -27 0
-310 -397 0
-310 -270 0
-310 -330 0
-310 -291 0
-311 -129 0
-311 -307 0
-311 -285 0
-311 -264 0
-311 -372 0
-311 -318 0
-311 -320 0
-311 -288 0
-311 -24 0
-311 -147 0
-311 -83 0
-311 -224 0
-312 -379 0
-312 -371 0
-312 -349 0
-312 -210 0
-312 -245 0
-312 -287 0
-312 -346 0
-312 -362 0
-312 -193 0
-312 -42 0
-312 -112 0
-312 -321 0
-312 -41 0
-312 -369 0
-312 -220 0
-313 -226 0
-313 -324 0
-313 -280 0
-313 -316 0
-313 -156 0
-313 -112 0
-313 -385 0
-313 -369 0
-313 -293 0
-313 -166 0
-313 -398 0
-313 -268 0
-314 -368 0
-314 -294 0
-314 -369 0
-314 -271 0
-314 -342 0
-314 -329 0
-314 -267 0
-314 -112 0
-314 -2 0
-314 -336 0
-314 -221 0
-314 -263 0
-314 -42 0
-314 -13 0
-314 -63 0
-314 -77 0
-314 -310 0
-314 -62 0
-314 -289 0
-314 -43 0
-315 -341 0
-315 -238 0
-315 -214 0
-315 -48 0
-315 -89 0
-315 -168 0
-315 -365 0
-315 -227 0
-315 -309 0
-315 -290 0
-315 -346 0
-315 -272 0
-315 -8 0
-315 -26 0
-315 -208 0
-315 -181 0
-315 -318 0
-315 -348 0
-315 -173 0
-315 -398 0
-315 -206 0
-315 -142 0
-315 -337 0
-315 -27 0
-315 -4 0
-315 -145 0
-316 -349 0
-316 -352 0
-316 -207 0
-316 -65 0
-316 -91 0
-316 -158 0
-316 -140 0
-316 -203 0
-316 -191 0
-316 -355 0
-316 -214 0
-316 -315 0
-316 -174 0
-316 -217 0
-316 -92 0
-316 -256 0
-316 -239 0
-316 -85 0
-317 -333 0
-317 -295 0
-317 -243 0
-317 -323 0
-317 -147 0
-317 -349 0
-317 -327 0
-317 -336 0
-317 -101 0
-317 -360 0
-317 -208 0
-317 -146 0
-317 -28 0
-317 -270 0
-317 -1 0
-317 -245 0
-317 -269 0
-317 -298 0
-318 -363 0
-318 -302 0
-318 -272 0
-318 -239 0
-318 -115 0
-318 -349 0
-318 -275 0
-318 -4 0
-318 -268 0
-318 -133 0
-318 -123 0
-318 -153 0
-318 -165 0
-318 -231 0
-318 -248 0
-319 -329 0
-319 -175 0
-319 -309 0
-319 -2 0
-319 -182 0
-319 -204 0
-319 -222 0
-319 -137 0
-319 -151 0
-319 -305 0
-319 -298 0
-319 -70 0
-319 -36 0
-320 -244 0
-320 -13 0
-320 -202 0
-320 -264 0
-320 -370 0
-320 -212 0
-320 -263 0
-320 -155 0
-320 -189 0
-320 -240 0
-320 -267 0
-320 -154 0
-320 -330 0
-320 -168 0
-320 -392 0
-320 -385 0
-320 -54 0
-321 -249 0
-321 -245 0
-321 -218 0
-321 -118 0
-321 -203 0
-321 -101 0
-321 -84 0
-321 -241 0
-321 -330 0
-321 -52 0
-321 -333 0
-321 -140 0
-321 -325 0
-321 -287 0
-321 -265 0
-321 -91 0
-321 -235 0
-322 -13 0
-322 -385 0
-322 -81 0
-322 -251 0
-322 -349 0
-322 -313 0
-322 -79 0
-322 -222 0
-322 -93 0
-322 -252 0
-322 -59 0
-323 -251 0
-323 -318 0
-323 -312 0
-323 -163 0
-323 -68 0
-323 -301 0
-323 -397 0
-323 -67 0
-323 -391 0
-323 -353 0
-323 -207 0
-323 -296 0
-323 -107 0
-323 -54 0
-323 -135 0
-323 -322 0
-323 -84 0
-323 -127 0
-323 -52 0
-323 -157 0
-324 -274 0
-324 -177 0
-324 -122 0
-324 -347 0
-324 -322 0
-324 -184 0
-324 -290 0
-324 -280 0
-324 -209 0
-324 -207 0
-324 -222 0
-324 -169 0
-324 -265 0
-324 -24 0
-324 -308 0
-324 -318 0
-324 -286 0
-324 -66 0
-324 -6 0
-324 -80 0
-324 -336 0
-324 -4 0
-325 -258 0
-325 -17 0
-325 -129 0
-325 -302 0
-325 -290 0
-325 -324 0
-325 -108 0
-325 -184 0
-325 -50 0
-325 -134 0
-325 -260 0
-325 -102 0
-325 -398 0
-325 -181 0
-325 -151 0
-325 -256 0
-325 -31 0
-325 -84 0
-326 -343 0
-326 -185 0
-326 -89 0
-326 -274 0
-326 -313 0
-326 -309 0
-326 -316 0
-326 -211 0
-326 -194 0
-326 -188 0
-326 -232 0
-326 -2 0
-326 -138 0
-326 -3 0
-327 -246 0
-327 -361 0
-327 -369 0
-327 -82 0
-327 -79 0
-327 -161 0
-327 -78 0
-327 -50 0
-327 -116 0
-327 -220 0
-327 -117 0
-327 -342 0
-327 -206 0
-328 -280 0
-328 -160 0
-328 -124 0
-328 -327 0
-328 -228 0
-328 -123 0
-328 -28 0
-328 -282 0
-328 -262 0
-328 -96 0
-328 -161 0
-328 -150 0
-328 -143 0
-328 -77 0
-328 -169 0
-328 -26 0
-328 -54 0
-329 -266 0
-329 -253 0
-329 -247 0
-329 -205 0
-329 -11 0
-329 -125 0
-329 -357 0
-329 -369 0
-329 -332 0
-329 -311 0
-329 -121 0
-329 -84 0
-329 -278 0
-329 -391 0
-329 -64 0
-329 -400 0
-329 -32 0
-330 -383 0
-330 -255 0
-330 -234 0
-330 -221 0
-330 -101 0
-330 -80 0
-330 -263 0
-330 -232 0
-330 -349 0
-330 -369 0
-330 -367 0
-330 -230 0
-330 -81 0
-330 -143 0
-330 -27 0
-330 -205 0
-330 -136 0
-331 -118 0
-331 -56 0
-331 -53 0
-331 -68 0
-331 -6 0
-331 -4 0
-331 -5 0
-331 -81 0
-331 -32 0
-331 -244 0
-331 -84 0
-331 -2 0
-331 -86 0
-331 -116 0
-331 -355 0
-331 -252 0
-331 -389 0
-332 -22 0
-332 -361 0
-332 -239 0
-332 -175 0
-332 -310 0
-332 -189 0
-332 -49 0
-332 -57 0
-332 -4 0
-332 -12 0
-332 -34 0
-333 -229 0
-333 -195 0
-333 -298 0
-333 -219 0
-333 -299 0
-333 -344 0
-333 -9 0
-333 -144 0
-333 -141 0
-333 -22 0
-333 -116 0
-333 -149 0
-333 -357 0
-333 -74 0
-333 -28 0
-333 -307 0
-333 -207 0
-333 -383 0
-333 -101 0
-334 -264 0
-334 -273 0
-334 -347 0
-334 -142 0
-334 -282 0
-334 -398 0
-334 -58 0
-334 -150 0
-334 -352 0
-334 -144 0
-334 -35 0
-334 -107 0
-334 -28 0
-334 -242 0
-334 -332 0
-334 -207 0
-334 -54 0
-334 -79 0
-334 -185 0
-334 -367 0
-334 -373 0
-334 -146 0
-335 -331 0
-335 -253 0
-335 -381 0
-335 -315 0
-335 -22 0
-335 -121 0
-335 -137 0
-335 -206 0
-335 -260 0
-335 -365 0
-335 -393 0
-335 -117 0
-335 -228 0
-335 -286 0
-335 -116 0
-335 -33 0
-335 -159 0
-336 -367 0
-336 -160 0
-336 -65 0
-336 -139 0
-336 -225 0
-336 -228 0
-336 -331 0
-336 -42 0
-336 -321 0
-336 -79 0
-336 -170 0
-336 -146 0
-336 -176 0
-337 -348 0
-337 -171 0
-337 -50 0
-337 -312 0
-337 -5 0
-337 -9 0
-337 -133 0
-337 -335 0
-337 -367 0
-337 -331 0
-337 -173 0
-337 -155 0
-337 -16 0
-337 -138 0
-337 -202 0
-338 -194 0
-338 -96 0
-338 -41 0
-338 -123 0
-338 -281 0
-338 -219 0
-338 -341 0
-338 -274 0
-338 -256 0
-338 -33 0
-338 -334 0
-338 -201 0
-338 -104 0
-338 -190 0
-338 -236 0
-338 -129 0
-338 -11 0
-338 -71 0
-338 -313 0
-338 -220 0
-339 -382 0
-339 -387 0
-339 -272 0
-339 -167 0
-339 -55 0
-339 -24 0
-339 -305 0
-339 -84 0
-339 -284 0
-339 -90 0
-339 -357 0
-339 -117 0
-339 -62 0
-339 -89 0
-339 -40 0
-339 -76 0
-340 -212 0
-340 -308 0
-340 -381 0
-340 -115 0
-340 -159 0
-340 -385 0
-340 -321 0
-340 -154 0
-340 -260 0
-340 -342 0
-340 -337 0
-340 -349 0
-340 -89 0
-340 -338 0
-340 -138 0
-341 -354 0
-341 -210 0
-341 -349 0
-341 -289 0
-341 -94 0
-341 -314 0
-341 -397 0
-341 -58 0
-341 -144 0
-341 -31 0
-341 -140 0
-341 -365 0
-341 -90 0
-341 -256 0
-341 -95 0
-341 -296 0
-341 -169 0
-341 -156 0
-341 -53 0
-341 -42 0
-341 -89 0
-341 -18 0
-341 -16 0
-341 -158 0
-341 -180 0
-341 -250 0
-341 -174 0
-342 -347 0
-342 -246 0
-342 -212 0
-342 -240 0
-342 -118 0
-342 -47 0
-342 -156 0
-342 -188 0
-342 -391 0
-342 -99 0
-342 -136 0
-342 -338 0
-342 -116 0
-342 -227 0
-342 -42 0
-342 -132 0
-343 -385 0
-343 -171 0
-343 -179 0
-343 -199 0
-343 -303 0
-343 -198 0
-343 -78 0
-343 -8 0
-343 -345 0
-343 -337 0
-343 -350 0
-343 -281 0
-343 -230 0
-343 -31 0
-343 -194 0
-343 -339 0
-343 -7 0
-343 -48 0
-344 -280 0
-344 -185 0
-344 -322 0
-344 -303 0
-344 -97 0
-344 -189 0
-344 -218 0
-344 -6 0
-344 -1 0
-344 -19 0
-344 -384 0
-344 -221 0
-344 -365 0
-344 -240 0
-344 -299 0
-344 -143 0
-345 -360 0
-345 -237 0
-345 -115 0
-345 -170 0
-345 -350 0
-345 -112 0
-345 -8 0
-345 -193 0
-345 -17 0
-345 -301 0
-345 -386 0
-346 -258 0
-346 -238 0
-346 -125 0
-346 -199 0
-346 -294 0
-346 -195 0
-346 -390 0
-346 -158 0
-346 -106 0
-346 -164 0
-346 -115 0
-346 -71 0
-346 -68 0
-346 -397 0
-346 -28 0
-346 -353 0
-347 -231 0
-347 -390 0
-347 -285 0
-347 -147 0
-347 -271 0
-347 -181 0
-347 -400 0
-347 -78 0
-347 -46 0
-347 -40 0
-347 -3 0
-347 -286 0
-348 -153 0
-348 -129 0
-348 -113 0
-348 -27 0
-348 -143 0
-348 -333 0
-348 -352 0
-348 -340 0
-348 -298 0
-348 -286 0
-348 -176 0
-348 -90 0
-348 -303 0
-348 -386 0
-348 -335 0
-348 -70 0
-348 -181 0
-348 -49 0
-348 -218 0
-348 -288 0
-348 -12 0
-349 -354 0
-349 -358 0
-349 -326 0
-349 -344 0
-349 -175 0
-349 -164 0
-349 -265 0
-349 -91 0
-349 -252 0
-349 -345 0
-349 -170 0
-349 -59 0
-349 -278 0
-349 -156 0
-349 -78 0
-349 -45 0
-349 -391 0
-349 -235 0
-350 -290 0
-350 -369 0
-350 -208 0
-350 -212 0
-350 -176 0
-350 -127 0
-350 -399 0
-350 -184 0
-350 -250 0
-350 -130 0
-350 -389 0
-350 -140 0
-350 -321 0
-350 -240 0
-350 -99 0
-350 -244 0
-350 -122 0
-350 -388 0
-351 -345 0
-351 -292 0
-351 -45 0
-351 -300 0
-351 -141 0
-351 -364 0
-351 -182 0
-351 -26 0
-351 -159 0
-351 -311 0
-351 -289 0
-351 -216 0
-351 -293 0
-351 -297 0
-351 -324 0
-351 -80 0
-351 -12 0
-351 -10 0
-352 -213 0
-352 -310 0
-352 -93 0
-352 -173 0
-352 -61 0
-352 -392 0
-352 -243 0
-352 -235 0
-352 -95 0
-352 -354 0
-352 -63 0
-352 -222 0
-352 -234 0
-353 -340 0
-353 -56 0
-353 -59 0
-353 -281 0
-353 -398 0
-353 -12 0
-353 -224 0
-353 -246 0
-353 -343 0
-353 -269 0
-353 -261 0
-353 -253 0
-353 -44 0
-353 -312 0
-353 -138 0
-353 -289 0
-353 -393 0
-353 -370 0
-353 -220 0
-353 -75 0
-354 -75 0
-354 -77 0
-354 -365 0
-354 -340 0
-354 -20 0
-354 -168 0
-354 -388 0
-354 -79 0
-354 -62 0
-354 -394 0
-354 -102 0
-354 -206 0
-354 -35 0
-354 -329 0
-355 -330 0
-355 -167 0
-355 -221 0
-355 -86 0
-355 -327 0
-355 -201 0
-355 -376 0
-355 -104 0
-355 -153 0
-355 -391 0
-355 -217 0
-355 -20 0
-355 -103 0
-355 -68 0
-355 -28 0
-356 -397 0
-356 -365 0
-356 -358 0
-356 -281 0
-356 -262 0
-356 -392 0
-356 -286 0
-356 -237 0
-356 -156 0
-356 -239 0
-356 -394 0
-356 -99 0
-356 -279 0
-356 -150 0
-356 -144 0
-356 -126 0
-356 -30 0
-357 -101 0
-357 -107 0
-357 -220 0
-357 -362 0
-357 -356 0
-357 -167 0
-357 -1 0
-357 -197 0
-357 -35 0
-357 -59 0
-357 -286 0
-357 -306 0
-357 -111 0
-357 -348 0
-357 -280 0
-357 -37 0
-357 -198 0
-358 -110 0
-358 -193 0
-358 -138 0
-358 -173 0
-358 -367 0
-358 -306 0
-358 -48 0
-358 -111 0
-358 -226 0
-358 -18 0
-358 -142 0
-358 -5 0
-358 -391 0
-358 -93 0
-358 -17 0
-359 -135 0
-359 -331 0
-359 -339 0
-359 -171 0
-359 -387 0
-359 -265 0
-359 -396 0
-359 -227 0
-359 -358 0
-359 -28 0
-359 -186 0
-359 -263 0
-359 -400 0
-359 -392 0
-359 -114 0
-359 -86 0
-359 -36 0
-359 -289 0
-360 -227 0
-360 -265 0
-360 -87 0
-360 -388 0
-360 -319 0
-360 -3 0
-360 -355 0
-360 -171 0
-360 -321 0
-360 -26 0
-360 -275 0
-360 -144 0
-361 -270 0
-361 -146 0
-361 -381 0
-361 -285 0
-361 -27 0
-361 -244 0
-361 -115 0
-361 -366 0
-361 -117 0
-361 -3 0
-362 -278 0
-362 -95 0
-362 -369 0
-362 -290 0
-362 -185 0
-362 -250 0
-362 -42 0
-362 -386 0
-362 -78 0
-362 -143 0
-362 -84 0
-362 -150 0
-362 -336 0
-362 -325 0
-362 -32 0
-362 -18 0
-362 -361 0
-362 -395 0
-363 -380 0
-363 -358 0
-363 -356 0
-363 -298 0
-363 -352 0
-363 -300 0
-363 -377 0
-363 -362 0
-363 -103 0
-363 -39 0
-363 -394 0
-363 -23 0
-363 -211 0
-363 -242 0
-363 -332 0
-363 -8 0
-363 -6 0
-364 -172 0
-364 -370 0
-364 -354 0
-364 -347 0
-364 -22 0
-364 -42 0
-364 -346 0
-364 -107 0
-364 -18 0
-364 -118 0
-364 -219 0
-364 -271 0
-364 -59 0
-364 -121 0
-364 -368 0
-364 -206 0
-364 -308 0
-365 -227 0
-365 -291 0
-365 -367 0
-365 -245 0
-365 -192 0
-365 -63 0
-365 -286 0
-365 -179 0
-365 -122 0
-365 -127 0
-365 -130 0
-365 -25 0
-365 -224 0
-365 -60 0
-366 -283 0
-366 -293 0
-366 -384 0
-366 -233 0
-366 -327 0
-366 -243 0
-366 -124 0
-366 -388 0
-366 -176 0
-366 -290 0
-366 -223 0
-366 -348 0
-366 -64 0
-366 -2 0
-366 -130 0
-366 -358 0
-366 -37 0
-366 -74 0
-366 -36 0
-367 -27 0
-367 -197 0
-367 -390 0
-367 -382 0
-367 -326 0
-367 -325 0
-367 -379 0
-367 -229 0
-367 -179 0
-367 -311 0
-367 -364 0
-367 -194 0
-367 -366 0
-367 -222 0
-367 -316 0
-367 -20 0
-367 -69 0
-368 -341 0
-368 -172 0
-368 -74 0
-368 -140 0
-368 -132 0
-368 -89 0
-368 -220 0
-368 -294 0
-368 -281 0
-368 -15 0
-368 -380 0
-368 -71 0
-368 -8 0
-368 -399 0
-368 -383 0
-368 -263 0
-368 -169 0
-368 -83 0
-368 -223 0
-369 -285 0
-369 -375 0
-369 -321 0
-369 -394 0
-369 -289 0
-369 -84 0
-369 -5 0
-369 -113 0
-369 -101 0
-370 -258 0
-370 -27 0
-370 -17 0
-370 -380 0
-370 -268 0
-370 -207 0
-370 -68 0
-370 -202 0
-370 -323 0
-370 -232 0
-370 -209 0
-370 -114 0
-371 -374 0
-371 -108 0
-371 -36 0
-371 -78 0
-371 -1 0
-371 -392 0
-371 -224 0
-371 -218 0
-371 -38 0
-371 -328 0
-371 -16 0
-371 -294 0
-371 -132 0
-371 -336 0
-371 -274 0
-372 -307 0
-372 -342 0
-372 -108 0
-372 -127 0
-372 -400 0
-372 -4 0
-372 -212 0
-372 -337 0
-372 -247 0
-372 -18 0
-372 -11 0
-372 -35 0
-372 -20 0
-372 -168 0
-372 -348 0
-373 -111 0
-373 -206 0
-373 -390 0
-373 -313 0
-373 -290 0
-373 -375 0
-373 -312 0
-373 -287 0
-373 -271 0
-373 -68 0
-373 -26 0
-373 -140 0
-373 -182 0
-373 -370 0
-373 -358 0
-373 -31 0
-373 -317 0
-374 -330 0
-374 -312 0
-374 -114 0
-374 -225 0
-374 -331 0
-374 -232 0
-374 -23 0
-374 -108 0
-374 -22 0
-374 -85 0
-374 -68 0
-374 -275 0
-375 -360 0
-375 -155 0
-375 -323 0
-375 -372 0
-375 -317 0
-375 -134 0
-375 -106 0
-375 -224 0
-375 -278 0
-375 -110 0
-375 -18 0
-375 -42 0
-375 -104 0
-375 -15 0
-375 -175 0
-375 -277 0
-375 -264 0
-375 -36 0
-376 -302 0
-376 -379 0
-376 -175 0
-376 -312 0
-376 -181 0
-376 -308 0
-376 -84 0
-376 -4 0
-376 -180 0
-376 -52 0
-376 -392 0
-376 -82 0
-376 -202 0
-377 -389 0
-377 -166 0
-377 -154 0
-377 -36 0
-377 -119 0
-377 -272 0
-377 -193 0
-377 -269 0
-377 -79 0
-377 -256 0
-377 -71 0
-377 -397 0
-377 -216 0
-378 -368 0
-378 -354 0
-378 -322 0
-378 -207 0
-378 -203 0
-378 -321 0
-378 -375 0
-378 -356 0
-378 -59 0
-378 -284 0
-378 -326 0
-378 -38 0
-378 -343 0
-378 -341 0
-378 -32 0
-378 -69 0
-378 -63 0
-379 -317 0
-379 -286 0
-379 -106 0
-379 -128 0
-379 -395 0
-379 -34 0
-379 -141 0
-379 -81 0
-379 -74 0
-379 -371 0
-379 -123 0
-379 -386 0
-379 -277 0
-379 -191 0
-379 -93 0
-379 -310 0
-379 -170 0
-379 -52 0
-380 -338 0
-380 -183 0
-380 -388 0
-380 -271 0
-380 -185 0
-380 -355 0
-380 -317 0
-380 -78 0
-380 -79 0
-380 -158 0
-380 -219 0
-380 -99 0
-380 -244 0
-380 -18 0
-381 -337 0
-381 -74 0
-381 -138 0
-381 -125 0
-381 -290 0
-381 -292 0
-381 -122 0
-381 -376 0
-381 -282 0
-381 -167 0
-381 -287 0
-381 -59 0
-381 -31 0
-381 -84 0
-381 -211 0
-381 -17 0
-381 -279 0
-381 -345 0
-381 -372 0
-381 -398 0
-382 -238 0
-382 -390 0
-382 -383 0
-382 -362 0
-382 -361 0
-382 -255 0
-382 -329 0
-382 -386 0
-382 -33 0
-382 -395 0
-382 -144 0
-382 -270 0
-382 -191 0
-382 -211 0
-382 -354 0
-382 -322 0
-383 -250 0
-383 -129 0
-383 -45 0
-383 -370 0
-383 -208 0
-383 -246 0
-383 -249 0
-383 -112 0
-383 -378 0
-383 -23 0
-383 -325 0
-384 -110 0
-384 -201 0
-384 -298 0
-384 -265 0
-384 -313 0
-384 -208 0
-384 -355 0
-384 -340 0
-384 -307 0
-384 -68 0
-384 -211 0
-384 -99 0
-384 -399 0
-384 -85 0
-384 -271 0
-384 -98 0
-384 -21 0
-384 -120 0
-385 -309 0
-385 -306 0
-385 -245 0
-385 -213 0
-385 -145 0
-385 -162 0
-385 -6 0
-385 -292 0
-385 -103 0
-385 -229 0
-385 -27 0
-385 -119 0
-385 -383 0
-385 -77 0
-385 -282 0
-385 -311 0
-386 -234 0
-386 -326 0
-386 -329 0
-386 -112 0
-386 -280 0
-386 -225 0
-386 -108 0
-386 -270 0
-386 -284 0
-386 -64 0
-386 -269 0
-387 -253 0
-387 -48 0
-387 -336 0
-387 -1 0
-387 -248 0
-387 -328 0
-387 -50 0
-387 -388 0
-387 -153 0
-387 -314 0
-387 -27 0
-387 -189 0
-387 -389 0
-387 -365 0
-387 -46 0
-387 -400 0
-387 -324 0
-388 -19 0
-388 -390 0
-388 -386 0
-388 -313 0
-388 -206 0
-388 -255 0
-388 -260 0
-388 -310 0
-388 -298 0
-388 -170 0
-388 -65 0
-388 -174 0
-388 -165 0
-388 -145 0
-388 -281 0
-389 -354 0
-389 -161 0
-389 -129 0
-389 -385 0
-389 -57 0
-389 -333 0
-389 -24 0
-389 -312 0
-389 -33 0
-389 -179 0
-389 -109 0
-389 -390 0
-389 -264 0
-389 -177 0
-389 -117 0
-389 -3 0
-389 -399 0
-389 -252 0
-389 -319 0
-389 -325 0
-389 -20 0
-390 -338 0
-390 -132 0
-390 -169 0
-390 -268 0
-390 -44 0
-390 -355 0
-390 -88 0
-390 -60 0
-390 -319 0
-390 -68 0
-390 -166 0
-390 -394 0
-390 -107 0
-390 -198 0
-390 -126 0
-390 -35 0
-390 -142 0
-390 -299 0
-391 -362 0
-391 -326 0
-391 -306 0
-391 -377 0
-391 -234 0
-391 -124 0
-391 -162 0
-391 -111 0
-391 -34 0
-391 -84 0
-391 -183 0
-391 -178 0
-391 -225 0
-391 -292 0
-391 -50 0
-391 -159 0
-391 -328 0
-391 -209 0
-392 -233 0
-392 -225 0
-392 -160 0
-392 -277 0
-392 -202 0
-392 -228 0
-392 -400 0
-392 -147 0
-392 -40 0
-392 -344 0
-392 -97 0
-392 -194 0
-392 -282 0
-392 -266 0
-392 -328 0
-392 -180 0
-392 -102 0
-392 -309 0
-393 -175 0
-393 -226 0
-393 -176 0
-393 -148 0
-393 -188 0
-393 -391 0
-393 -90 0
-393 -48 0
-393 -228 0
-393 -200 0
-393 -275 0
-393 -309 0
-393 -44 0
-393 -28 0
-393 -261 0
-393 -50 0
-393 -288 0
-393 -63 0
-393 -153 0
-393 -177 0
-393 -51 0
-394 -208 0
-394 -377 0
-394 -392 0
-394 -216 0
-394 -388 0
-394 -273 0
-394 -291 0
-394 -128 0
-394 -236 0
-394 -36 0
-394 -237 0
-394 -235 0
-394 -319 0
-394 -122 0
-394 -132 0
-394 -15 0
-395 -319 0
-395 -225 0
-395 -234 0
-395 -352 0
-395 -196 0
-395 -230 0
-395 -271 0
-395 -301 0
-395 -400 0
-395 -7 0
-395 -82 0
-395 -70 0
-395 -340 0
-395 -300 0
-395 -46 0
-395 -387 0
-396 -384 0
-396 -309 0
-396 -294 0
-396 -257 0
-396 -169 0
-396 -167 0
-396 -355 0
-396 -186 0
-396 -293 0
-396 -126 0
-396 -30 0
-396 -312 0
-396 -273 0
-396 -141 0
-396 -116 0
-396 -195 0
-396 -79 0
-397 -348 0
-397 -239 0
-397 -228 0
-397 -136 0
-397 -396 0
-397 -391 0
-397 -120 0
-397 -34 0
-397 -384 0
-397 -320 0
-397 -130 0
-397 -81 0
-397 -223 0
-397 -248 0
-397 -369 0
-397 -328 0
-397 -104 0
-398 -363 0
-398 -203 0
-398 -121 0
-398 -65 0
-398 -130 0
-398 -35 0
-398 -133 0
-398 -369 0
-398 -84 0
-398 -382 0
-399 -311 0
-399 -163 0
-399 -155 0
-399 -316 0
-399 -70 0
-399 -171 0
-399 -279 0
-399 -237 0
-399 -343 0
-399 -79 0
-399 -122 0
-399 -107 0
-400 -366 0
-400 -373 0
-400 -306 0
-400 -210 0
-400 -263 0
-400 -393 0
-400 -91 0
-400 -311 0
-400 -3 0
-400 -108 0
-400 -97 0
-400 -11 0
-401 -1 0
-402 -2 0
-403 -3 0
-404 -4 0
-405 -5 0
-406 -6 0
-407 -7 0
-408 -8 0
-409 -9 0
-410 -10 0
-411 -11 0
-412 -12 0
-413 -13 0
-414 -14 0
-415 -15 0
-416 -16 0
-417 -17 0
-418 -18 0
-419 -19 0
-420 -20 0
-421 -21 0
-422 -22 0
-423 -23 0
-424 -24 0
-425 -25 0
-426 -26 0
-427 -27 0
-428 -28 0
-429 -29 0
-430 -30 0
-431 -31 0
-432 -32 0
-433 -33 0
-434 -34 0
-435 -35 0
-436 -36 0
-437 -37 0
-438 -38 0
-439 -39 0
-440 -40 0
-441 -41 0
-442 -42 0
-443 -43 0
-444 -44 0
-445 -45 0
-446 -46 0
-447 -47 0
-448 -48 0
-449 -49 0
-450 -50 0
-451 -51 0
-452 -52 0
-453 -53 0
-454 -54 0
-455 -55 0
-456 -56 0
-457 -57 0
-458 -58 0
-459 -59 0
-460 -60 0
-461 -61 0
-462 -62 0
-463 -63 0
-464 -64 0
-465 -65 0
-466 -66 0
-467 -67 0
-468 -68 0
-469 -69 0
-470 -70 0
-471 -71 0
-472 -72 0
-473 -73 0
-474 -74 0
-475 -75 0
-476 -76 0
-477 -77 0
-478 -78 0
-479 -79 0
-480 -80 0
-481 -81 0
-482 -82 0
-483 -83 0
-484 -84 0
-485 -85 0
-486 -86 0
-487 -87 0
-488 -88 0
-489 -89 0
-490 -90 0
-491 -91 0
-492 -92 0
-493 -93 0
-494 -94 0
-495 -95 0
-496 -96 0
-497 -97 0
-498 -98 0
-499 -99 0
-500 -100 0
-501 -101 0
-502 -102 0
-503 -103 0
-504 -104 0
-505 -105 0
-506 -106 0
-507 -107 0
-508 -108 0
-509 -109 0
-510 -110 0
-511 -111 0
-512 -112 0
-513 -113 0
-514 -114 0
-515 -115 0
-516 -116 0
-517 -117 0
-518 -118 0
-519 -119 0
-520 -120 0
-521 -121 0
-522 -122 0
-523 -123 0
-524 -124 0
-525 -125 0
-526 -126 0
-527 -127 0
-528 -128 0
-529 -129 0
-530 -130 0
-531 -131 0
-532 -132 0
-533 -133 0
-534 -134 0
-535 -135 0
-536 -136 0
-537 -137 0
-538 -138 0
-539 -139 0
-540 -140 0
-541 -141 0
-542 -142 0
-543 -143 0
-544 -144 0
-545 -145 0
-546 -146 0
-547 -147 0
-548 -148 0
-549 -149 0
-550 -150 0
-551 -151 0
-552 -152 0
-553 -153 0
-554 -154 0
-555 -155 0
-556 -156 0
-557 -157 0
-558 -158 0
-559 -159 0
-560 -160 0
-561 -161 0
-562 -162 0
-563 -163 0
-564 -164 0
-565 -165 0
-566 -166 0
-567 -167 0
-568 -168 0
-569 -169 0
-570 -170 0
-571 -171 0
-572 -172 0
-573 -173 0
-574 -174 0
-575 -175 0
-576 -176 0
-577 -177 0
-578 -178 0
-579 -179 0
-580 -180 0
-581 -181 0
-582 -182 0
-583 -183 0
-584 -184 0
-585 -185 0
-586 -186 0
-587 -187 0
-588 -188 0
-589 -189 0
-590 -190 0
-591 -191 0
-592 -192 0
-593 -193 0
-594 -194 0
-595 -195 0
-596 -196 0
-597 -197 0
-598 -198 0
-599 -199 0
-600 -200 0
-601 -201 0
-602 -202 0
-603 -203 0
-604 -204 0
-605 -205 0
-606 -206 0
-607 -207 0
-608 -208 0
-609 -209 0
-610 -210 0
-611 -211 0
-612 -212 0
-613 -213 0
-614 -214 0
-615 -215 0
-616 -216 0
-617 -217 0
-618 -218 0
-619 -219 0
-620 -220 0
-621 -221 0
-622 -222 0
-623 -223 0
-624 -224 0
-625 -225 0
-626 -226 0
-627 -227 0
-628 -228 0
-629 -229 0
-630 -230 0
-631 -231 0
-632 -232 0
-633 -233 0
-634 -234 0
-635 -235 0
-636 -236 0
-637 -237 0
-638 -238 0
-639 -239 0
-640 -240 0
-641 -241 0
-642 -242 0
-643 -243 0
-644 -244 0
-645 -245 0
-646 -246 0
-647 -247 0
-648 -248 0
-649 -249 0
-650 -250 0
-651 -251 0
-652 -252 0
-653 -253 0
-654 -254 0
-655 -255 0
-656 -256 0
-657 -257 0
-658 -258 0
-659 -259 0
-660 -260 0
-661 -261 0
-662 -262 0
-663 -263 0
-664 -264 0
-665 -265 0
-666 -266 0
-667 -267 0
-668 -268 0
-669 -269 0
-670 -270 0
-671 -271 0
-672 -272 0
-673 -273 0
-674 -274 0
-675 -275 0
-676 -276 0
-677 -277 0
-678 -278 0
-679 -279 0
-680 -280 0
-681 -281 0
-682 -282 0
-683 -283 0
-684 -284 0
-685 -285 0
-686 -286 0
-687 -287 0
-688 -288 0
-689 -289 0
-690 -290 0
-691 -291 0
-692 -292 0
-693 -293 0
-694 -294 0
-695 -295 0
-696 -296 0
-697 -297 0
-698 -298 0
-699 -299 0
-700 -300 0
-701 -301 0
-702 -302 0
-703 -303 0
-704 -304 0
-705 -305 0
-706 -306 0
-707 -307 0
-708 -308 0
-709 -309 0
-710 -310 0
-711 -311 0
-712 -312 0
-713 -313 0
-714 -314 0
-715 -315 0
-716 -316 0
-717 -317 0
-718 -318 0
-719 -319 0
-720 -320 0
-721 -321 0
-722 -322 0
-723 -323 0
-724 -324 0
-725 -325 0
-726 -326 0
-727 -327 0
-728 -328 0
-729 -329 0
-730 -330 0
-731 -331 0
-732 -332 0
-733 -333 0
-734 -334 0
-735 -335 0
-736 -336 0
-737 -337 0
-738 -338 0
-739 -339 0
-740 -340 0
-741 -341 0
-742 -342 0
-743 -343 0
-744 -344 0
-745 -345 0
-746 -346 0
-747 -347 0
-748 -348 0
-749 -349 0
-750 -350 0
-751 -351 0
-752 -352 0
-753 -353 0
-754 -354 0
-755 -355 0
-756 -356 0
-757 -357 0
-758 -358 0
-759 -359 0
-760 -360 0
-761 -361 0
-762 -362 0
-763 -363 0
-764 -364 0
-765 -365 0
-766 -366 0
-767 -367 0
-768 -368 0
-769 -369 0
-770 -370 0
-771 -371 0
-772 -372 0
-773 -373 0
-774 -374 0
-775 -375 0
-776 -376 0
-777 -377 0
-778 -378 0
-779 -379 0
-780 -380 0
-781 -381 0
-782 -382 0
-783 -383 0
-784 -384 0
-785 -385 0
-786 -386 0
-787 -387 0
-788 -388 0
-789 -389 0
-790 -390 0
-791 -391 0
-792 -392 0
-793 -393 0
-794 -394 0
-795 -395 0
-796 -396 0
-797 -397 0
-798 -398 0
-799 -399 0
-800 -400 0
401 -226 0
401 -170 0
401 -36 0
401 -41 0
401 -4 0
401 -38 0
401 -84 0
401 -125 0
401 -219 0
401 -137 0
401 -13 0
401 -241 0
401 -119 0
401 -47 0
401 -331 0
401 -367 0
401 -48 0
401 -64 0
402 -236 0
402 -103 0
402 -251 0
402 -154 0
402 -102 0
402 -316 0
402 -23 0
402 -6 0
402 -130 0
402 -271 0
402 -252 0
402 -395 0
402 -364 0
402 -241 0
402 -296 0
402 -139 0
402 -287 0
402 -275 0
402 -22 0
402 -245 0
402 -88 0
402 -339 0
403 -240 0
403 -209 0
403 -191 0
403 -398 0
403 -39 0
403 -40 0
403 -187 0
403 -177 0
403 -72 0
403 -66 0
403 -48 0
403 -317 0
403 -154 0
403 -181 0
403 -380 0
403 -69 0
403 -64 0
403 -339 0
403 -241 0
403 -363 0
403 -234 0
403 -216 0
404 -355 0
404 -273 0
404 -271 0
404 -267 0
404 -112 0
404 -28 0
404 -374 0
404 -265 0
404 -385 0
404 -89 0
404 -380 0
404 -393 0
404 -356 0
404 -225 0
405 -199 0
405 -240 0
405 -276 0
405 -260 0
405 -216 0
405 -59 0
405 -282 0
405 -96 0
405 -78 0
405 -58 0
405 -342 0
405 -180 0
405 -28 0
405 -3 0
405 -111 0
405 -363 0
405 -388 0
406 -207 0
406 -249 0
406 -260 0
406 -222 0
406 -109 0
406 -130 0
406 -228 0
406 -70 0
406 -28 0
406 -7 0
406 -174 0
406 -66 0
406 -179 0
406 -137 0
406 -294 0
406 -380 0
407 -308 0
407 -156 0
407 -102 0
407 -400 0
407 -134 0
407 -248 0
407 -32 0
407 -210 0
407 -220 0
407 -187 0
407 -25 0
407 -268 0
407 -176 0
407 -183 0
407 -213 0
407 -324 0
407 -5 0
408 -262 0
408 -342 0
408 -168 0
408 -179 0
408 -103 0
408 -293 0
408 -93 0
408 -90 0
408 -55 0
408 -119 0
408 -253 0
408 -339 0
408 -219 0
408 -382 0
409 -355 0
409 -303 0
409 -293 0
409 -136 0
409 -194 0
409 -39 0
409 -125 0
409 -63 0
409 -19 0
409 -363 0
409 -348 0
409 -354 0
409 -305 0
410 -385 0
410 -312 0
410 -204 0
410 -185 0
410 -392 0
410 -78 0
410 -88 0
410 -24 0
410 -4 0
410 -284 0
410 -101 0
410 -270 0
410 -85 0
410 -250 0
410 -330 0
410 -322 0
410 -325 0
411 -346 0
411 -290 0
411 -103 0
411 -369 0
411 -120 0
411 -33 0
411 -385 0
411 -292 0
411 -143 0
411 -81 0
411 -77 0
411 -25 0
411 -69 0
411 -300 0
411 -83 0
411 -66 0
411 -124 0
412 -314 0
412 -255 0
412 -196 0
412 -393 0
412 -114 0
412 -32 0
412 -5 0
412 -57 0
412 -231 0
412 -180 0
412 -135 0
412 -141 0
412 -395 0
412 -335 0
412 -121 0
413 -335 0
413 -317 0
413 -203 0
413 -152 0
413 -137 0
413 -128 0
413 -196 0
413 -144 0
413 -374 0
413 -64 0
413 -308 0
413 -134 0
413 -275 0
413 -102 0
413 -98 0
413 -85 0
413 -20 0
413 -57 0
414 -252 0
414 -340 0
414 -271 0
414 -76 0
414 -306 0
414 -120 0
414 -269 0
414 -143 0
414 -367 0
414 -394 0
414 -147 0
414 -104 0
414 -390 0
414 -7 0
414 -119 0
414 -21 0
415 -246 0
415 -255 0
415 -243 0
415 -182 0
415 -97 0
415 -339 0
415 -318 0
415 -7 0
415 -83 0
415 -161 0
415 -27 0
415 -63 0
415 -84 0
415 -334 0
416 -325 0
416 -259 0
416 -285 0
416 -377 0
416 -239 0
416 -78 0
416 -318 0
416 -6 0
416 -300 0
416 -75 0
416 -67 0
416 -372 0
416 -108 0
416 -41 0
417 -352 0
417 -243 0
417 -150 0
417 -133 0
417 -246 0
417 -28 0
417 -276 0
417 -72 0
417 -398 0
417 -140 0
417 -90 0
417 -227 0
417 -29 0
417 -331 0
417 -387 0
417 -346 0
417 -11 0
417 -332 0
418 -357 0
418 -376 0
418 -306 0
418 -199 0
418 -43 0
418 -23 0
418 -59 0
418 -88 0
418 -2 0
418 -337 0
418 -11 0
418 -13 0
418 -390 0
418 -388 0
419 -379 0
419 -293 0
419 -88 0
419 -35 0
419 -4 0
419 -174 0
419 -36 0
419 -312 0
419 -399 0
419 -139 0
419 -83 0
419 -329 0
419 -373 0
419 -98 0
419 -222 0
419 -100 0
420 -347 0
420 -348 0
420 -351 0
420 -314 0
420 -134 0
420 -220 0
420 -101 0
420 -374 0
420 -71 0
420 -386 0
420 -47 0
420 -138 0
421 -246 0
421 -327 0
421 -128 0
421 -170 0
421 -82 0
421 -330 0
421 -40 0
421 -233 0
421 -217 0
421 -226 0
421 -337 0
421 -11 0
421 -22 0
421 -220 0
421 -259 0
421 -92 0
421 -302 0
421 -74 0
421 -99 0
421 -35 0
422 -352 0
422 -124 0
422 -139 0
422 -336 0
422 -288 0
422 -40 0
422 -194 0
422 -252 0
422 -238 0
422 -274 0
422 -210 0
422 -205 0
422 -85 0
422 -51 0
422 -6 0
422 -319 0
422 -64 0
422 -13 0
422 -154 0
422 -350 0
423 -233 0
423 -236 0
423 -216 0
423 -139 0
423 -369 0
423 -204 0
423 -330 0
423 -392 0
423 -117 0
423 -191 0
423 -34 0
423 -95 0
423 -357 0
423 -44 0
423 -268 0
423 -365 0
423 -107 0
424 -306 0
424 -374 0
424 -204 0
424 -106 0
424 -152 0
424 -286 0
424 -372 0
424 -97 0
424 -265 0
424 -23 0
424 -279 0
424 -241 0
424 -40 0
424 -45 0
424 -93 0
424 -21 0
424 -320 0
425 -232 0
425 -43 0
425 -178 0
425 -187 0
425 -241 0
425 -374 0
425 -231 0
425 -299 0
425 -66 0
425 -251 0
425 -309 0
425 -85 0
425 -161 0
425 -248 0
425 -191 0
425 -120 0
426 -254 0
426 -155 0
426 -279 0
426 -64 0
426 -71 0
426 -23 0
426 -141 0
426 -78 0
426 -270 0
426 -197 0
426 -72 0
426 -55 0
426 -22 0
426 -281 0
426 -194 0
426 -142 0
426 -364 0
426 -294 0
427 -324 0
427 -167 0
427 -142 0
427 -33 0
427 -353 0
427 -340 0
427 -217 0
427 -31 0
427 -192 0
427 -363 0
427 -16 0
427 -29 0
427 -333 0
428 -159 0
428 -330 0
428 -156 0
428 -200 0
428 -218 0
428 -82 0
428 -172 0
428 -287 0
428 -132 0
428 -135 0
428 -241 0
428 -90 0
428 -262 0
428 -36 0
428 -19 0
428 -390 0
428 -324 0
428 -362 0
428 -108 0
429 -368 0
429 -356 0
429 -145 0
429 -39 0
429 -35 0
429 -377 0
429 -214 0
429 -297 0
429 -87 0
429 -150 0
429 -232 0
429 -125 0
429 -386 0
430 -78 0
430 -5 0
430 -308 0
430 -235 0
430 -223 0
430 -204 0
430 -193 0
430 -201 0
430 -294 0
430 -210 0
430 -353 0
430 -156 0
430 -324 0
430 -329 0
430 -347 0
430 -131 0
430 -21 0
431 -312 0
431 -240 0
431 -131 0
431 -184 0
431 -301 0
431 -206 0
431 -76 0
431 -38 0
431 -235 0
431 -352 0
431 -46 0
431 -85 0
431 -233 0
431 -345 0
431 -128 0
431 -44 0
431 -153 0
431 -309 0
431 -380 0
432 -216 0
432 -209 0
432 -246 0
432 -279 0
432 -93 0
432 -76 0
432 -169 0
432 -123 0
432 -40 0
432 -35 0
432 -204 0
432 -1 0
432 -190 0
432 -189 0
432 -392 0
432 -197 0
432 -198 0
432 -69 0
432 -95 0
432 -24 0
432 -354 0
432 -79 0
432 -359 0
432 -187 0
433 -236 0
433 -284 0
433 -86 0
433 -39 0
433 -223 0
433 -3 0
433 -206 0
433 -397 0
433 -198 0
433 -372 0
433 -107 0
433 -272 0
433 -202 0
434 -312 0
434 -246 0
434 -195 0
434 -228 0
434 -14 0
434 -353 0
434 -122 0
434 -194 0
434 -364 0
434 -184 0
434 -325 0
434 -1 0
434 -25 0
434 -145 0
435 -179 0
435 -233 0
435 -23 0
435 -6 0
435 -165 0
435 -172 0
435 -190 0
435 -74 0
435 -151 0
435 -235 0
435 -247 0
435 -347 0
435 -158 0
436 -162 0
436 -49 0
436 -6 0
436 -206 0
436 -157 0
436 -116 0
436 -202 0
436 -309 0
436 -344 0
437 -208 0
437 -342 0
437 -295 0
437 -167 0
437 -31 0
437 -34 0
437 -59 0
437 -106 0
437 -397 0
437 -190 0
437 -150 0
437 -87 0
437 -152 0
437 -38 0
437 -254 0
437 -161 0
437 -67 0
437 -33 0
437 -325 0
437 -383 0
437 -235 0
438 -276 0
438 -102 0
438 -215 0
438 -185 0
438 -90 0
438 -28 0
438 -396 0
438 -19 0
438 -311 0
438 -85 0
438 -381 0
438 -367 0
438 -353 0
438 -225 0
438 -357 0
438 -346 0
438 -322 0
438 -393 0
438 -104 0
439 -137 0
439 -78 0
439 -43 0
439 -52 0
439 -177 0
439 -193 0
439 -281 0
439 -263 0
439 -36 0
439 -151 0
439 -213 0
439 -235 0
439 -331 0
439 -101 0
439 -57 0
439 -267 0
440 -112 0
440 -376 0
440 -209 0
440 -61 0
440 -372 0
440 -63 0
440 -231 0
440 -324 0
440 -145 0
440 -28 0
440 -247 0
440 -11 0
440 -365 0
440 -309 0
440 -272 0
440 -312 0
441 -225 0
441 -321 0
441 -369 0
441 -299 0
441 -215 0
441 -49 0
441 -235 0
441 -393 0
441 -304 0
441 -81 0
441 -333 0
441 -335 0
441 -317 0
441 -229 0
441 -48 0
441 -274 0
441 -324 0
442 -348 0
442 -357 0
442 -242 0
442 -377 0
442 -126 0
442 -117 0
442 -257 0
442 -263 0
442 -231 0
442 -57 0
442 -79 0
442 -76 0
443 -182 0
443 -301 0
443 -144 0
443 -82 0
443 -78 0
443 -55 0
443 -2 0
443 -224 0
443 -19 0
443 -35 0
443 -369 0
443 -212 0
443 -67 0
443 -178 0
443 -206 0
443 -367 0
443 -61 0
443 -394 0
444 -387 0
444 -365 0
444 -351 0
444 -192 0
444 -286 0
444 -127 0
444 -163 0
444 -64 0
444 -242 0
444 -2 0
444 -17 0
444 -137 0
444 -320 0
444 -123 0
444 -193 0
444 -19 0
444 -54 0
444 -297 0
445 -366 0
445 -376 0
445 -169 0
445 -246 0
445 -347 0
445 -139 0
445 -94 0
445 -221 0
445 -375 0
445 -70 0
445 -327 0
445 -137 0
445 -180 0
445 -1 0
445 -66 0
445 -251 0
445 -196 0
445 -381 0
445 -386 0
445 -361 0
445 -116 0
446 -254 0
446 -344 0
446 -196 0
446 -273 0
446 -124 0
446 -353 0
446 -96 0
446 -39 0
446 -10 0
446 -241 0
446 -227 0
446 -234 0
446 -89 0
446 -42 0
446 -190 0
446 -222 0
447 -351 0
447 -313 0
447 -294 0
447 -324 0
447 -254 0
447 -215 0
447 -123 0
447 -226 0
447 -17 0
447 -28 0
447 -101 0
447 -279 0
447 -150 0
447 -190 0
447 -69 0
447 -71 0
447 -375 0
447 -332 0
447 -168 0
447 -359 0
448 -316 0
448 -199 0
448 -46 0
448 -26 0
448 -38 0
448 -238 0
448 -95 0
448 -256 0
448 -125 0
448 -133 0
448 -389 0
448 -113 0
448 -23 0
448 -180 0
448 -96 0
449 -131 0
449 -145 0
449 -133 0
449 -397 0
449 -111 0
449 -58 0
449 -151 0
449 -378 0
449 -19 0
449 -335 0
449 -197 0
449 -18 0
449 -157 0
449 -350 0
449 -302 0
449 -154 0
450 -389 0
450 -254 0
450 -112 0
450 -378 0
450 -142 0
450 -15 0
450 -67 0
450 -8 0
450 -311 0
450 -4 0
450 -324 0
450 -320 0
450 -131 0
450 -222 0
451 -251 0
451 -230 0
451 -173 0
451 -130 0
451 -398 0
451 -43 0
451 -302 0
451 -244 0
451 -157 0
451 -292 0
451 -229 0
451 -220 0
451 -60 0
451 -29 0
451 -370 0
451 -272 0
451 -106 0
452 -242 0
452 -248 0
452 -369 0
452 -155 0
452 -176 0
452 -115 0
452 -392 0
452 -182 0
452 -295 0
452 -350 0
452 -129 0
452 -5 0
452 -149 0
452 -54 0
452 -167 0
452 -71 0
452 -237 0
452 -208 0
452 -64 0
452 -150 0
452 -382 0
452 -72 0
452 -363 0
452 -358 0
452 -69 0
453 -354 0
453 -367 0
453 -306 0
453 -26 0
453 -95 0
453 -336 0
453 -214 0
453 -231 0
453 -44 0
453 -72 0
453 -20 0
453 -63 0
454 -310 0
454 -226 0
454 -277 0
454 -148 0
454 -160 0
454 -258 0
454 -316 0
454 -142 0
454 -382 0
454 -246 0
454 -224 0
455 -245 0
455 -189 0
455 -303 0
455 -178 0
455 -112 0
455 -150 0
455 -39 0
455 -24 0
455 -64 0
455 -329 0
455 -116 0
455 -25 0
455 -346 0
455 -22 0
455 -280 0
455 -378 0
455 -357 0
455 -260 0
456 -236 0
456 -163 0
456 -263 0
456 -330 0
456 -352 0
456 -128 0
456 -346 0
456 -65 0
456 -154 0
456 -215 0
456 -301 0
456 -391 0
456 -117 0
456 -144 0
456 -193 0
456 -55 0
456 -320 0
456 -133 0
456 -181 0
457 -259 0
457 -163 0
457 -160 0
457 -218 0
457 -342 0
457 -67 0
457 -290 0
457 -318 0
457 -375 0
457 -72 0
457 -110 0
457 -122 0
457 -51 0
457 -227 0
457 -62 0
457 -75 0
457 -387 0
458 -385 0
458 -152 0
458 -68 0
458 -184 0
458 -126 0
458 -14 0
458 -136 0
458 -123 0
458 -89 0
458 -399 0
458 -125 0
458 -6 0
458 -27 0
458 -361 0
458 -188 0
458 -284 0
458 -388 0
458 -354 0
458 -285 0
458 -324 0
458 -201 0
459 -239 0
459 -342 0
459 -302 0
459 -124 0
459 -65 0
459 -190 0
459 -360 0
459 -153 0
459 -74 0
459 -51 0
459 -313 0
459 -244 0
459 -120 0
460 -360 0
460 -290 0
460 -185 0
460 -175 0
460 -237 0
460 -152 0
460 -199 0
460 -248 0
460 -142 0
460 -93 0
460 -33 0
460 -343 0
460 -54 0
460 -182 0
460 -116 0
460 -201 0
460 -11 0
460 -65 0
460 -81 0
460 -395 0
460 -399 0
461 -303 0
461 -269 0
461 -121 0
461 -78 0
461 -345 0
461 -130 0
461 -236 0
461 -6 0
461 -69 0
461 -70 0
461 -84 0
461 -13 0
461 -20 0
461 -360 0
461 -74 0
461 -363 0
461 -29 0
461 -47 0
461 -379 0
461 -51 0
462 -332 0
462 -264 0
462 -159 0
462 -267 0
462 -364 0
462 -41 0
462 -26 0
462 -28 0
462 -145 0
462 -309 0
463 -264 0
463 -203 0
463 -56 0
463 -121 0
463 -309 0
463 -222 0
463 -226 0
463 -350 0
463 -85 0
463 -360 0
463 -45 0
463 -389 0
463 -239 0
463 -353 0
463 -51 0
463 -130 0
463 -75 0
463 -89 0
464 -234 0
464 -284 0
464 -144 0
464 -96 0
464 -49 0
464 -40 0
464 -286 0
464 -35 0
464 -327 0
464 -65 0
464 -17 0
464 -319 0
464 -193 0
464 -25 0
464 -27 0
465 -207 0
465 -112 0
465 -209 0
465 -239 0
465 -394 0
465 -61 0
465 -354 0
465 -265 0
465 -144 0
465 -390 0
465 -353 0
465 -98 0
465 -57 0
465 -142 0
465 -343 0
466 -225 0
466 -336 0
466 -134 0
466 -40 0
466 -349 0
466 -337 0
466 -85 0
466 -22 0
466 -26 0
466 -172 0
466 -27 0
466 -163 0
466 -91 0
467 -163 0
467 -169 0
467 -46 0
467 -179 0
467 -276 0
467 -303 0
467 -70 0
467 -275 0
467 -360 0
467 -273 0
467 -104 0
467 -255 0
467 -348 0
467 -350 0
467 -322 0
467 -384 0
467 -272 0
467 -366 0
468 -290 0
468 -148 0
468 -303 0
468 -283 0
468 -85 0
468 -180 0
468 -89 0
468 -83 0
468 -53 0
469 -309 0
469 -269 0
469 -289 0
469 -62 0
469 -399 0
469 -238 0
469 -219 0
469 -46 0
469 -138 0
469 -63 0
469 -86 0
469 -82 0
470 -59 0
470 -2 0
470 -387 0
470 -90 0
470 -190 0
470 -220 0
470 -66 0
470 -219 0
470 -135 0
470 -264 0
470 -347 0
470 -121 0
470 -211 0
470 -27 0
471 -147 0
471 -36 0
471 -17 0
471 -14 0
471 -157 0
471 -172 0
471 -222 0
471 -113 0
471 -317 0
471 -378 0
471 -226 0
471 -374 0
471 -189 0
471 -136 0
471 -174 0
471 -90 0
471 -228 0
472 -352 0
472 -378 0
472 -170 0
472 -121 0
472 -71 0
472 -55 0
472 -135 0
472 -36 0
472 -85 0
472 -95 0
472 -173 0
472 -119 0
472 -77 0
472 -22 0
472 -18 0
472 -177 0
472 -384 0
473 -369 0
473 -240 0
473 -330 0
473 -121 0
473 -141 0
473 -194 0
473 -71 0
473 -233 0
473 -96 0
473 -326 0
473 -183 0
473 -373 0
473 -382 0
473 -104 0
473 -18 0
473 -351 0
473 -158 0
473 -300 0
474 -237 0
474 -168 0
474 -184 0
474 -68 0
474 -279 0
474 -202 0
474 -171 0
474 -313 0
474 -280 0
474 -298 0
474 -284 0
474 -110 0
474 -54 0
474 -83 0
474 -48 0
474 -196 0
475 -298 0
475 -321 0
475 -62 0
475 -215 0
475 -126 0
475 -96 0
475 -35 0
475 -153 0
475 -91 0
475 -186 0
475 -259 0
475 -198 0
475 -81 0
475 -214 0
475 -143 0
476 -321 0
476 -349 0
476 -191 0
476 -99 0
476 -84 0
476 -75 0
476 -334 0
476 -21 0
476 -33 0
476 -206 0
476 -351 0
476 -315 0
476 -342 0
477 -376 0
477 -379 0
477 -240 0
477 -344 0
477 -137 0
477 -245 0
477 -73 0
477 -313 0
477 -353 0
477 -83 0
477 -175 0
477 -178 0
477 -110 0
477 -350 0
477 -337 0
478 -308 0
478 -207 0
478 -377 0
478 -65 0
478 -42 0
478 -133 0
478 -338 0
478 -157 0
478 -197 0
478 -92 0
478 -304 0
478 -6 0
478 -376 0
478 -120 0
478 -77 0
478 -246 0
478 -163 0
478 -12 0
478 -309 0
478 -180 0
479 -240 0
479 -167 0
479 -200 0
479 -154 0
479 -397 0
479 -230 0
479 -111 0
479 -288 0
479 -64 0
479 -129 0
479 -361 0
479 -140 0
479 -197 0
479 -135 0
479 -293 0
479 -356 0
479 -27 0
479 -20 0
479 -162 0
479 -333 0
480 -248 0
480 -219 0
480 -137 0
480 -166 0
480 -52 0
480 -64 0
480 -59 0
480 -375 0
480 -43 0
480 -205 0
480 -81 0
480 -28 0
480 -249 0
480 -295 0
480 -61 0
480 -49 0
481 -312 0
481 -351 0
481 -248 0
481 -109 0
481 -221 0
481 -400 0
481 -94 0
481 -244 0
481 -300 0
481 -31 0
481 -214 0
481 -49 0
481 -85 0
482 -151 0
482 -340 0
482 -289 0
482 -137 0
482 -267 0
482 -397 0
482 -86 0
482 -252 0
482 -84 0
482 -66 0
482 -120 0
482 -72 0
482 -180 0
482 -368 0
482 -400 0
482 -3 0
482 -285 0
482 -48 0
482 -219 0
482 -276 0
483 -173 0
483 -126 0
483 -300 0
483 -281 0
483 -113 0
483 -32 0
483 -191 0
483 -17 0
483 -51 0
483 -287 0
483 -18 0
483 -122 0
483 -371 0
483 -104 0
483 -55 0
484 -126 0
484 -378 0
484 -86 0
484 -73 0
484 -78 0
484 -242 0
484 -328 0
484 -101 0
484 -351 0
484 -255 0
484 -343 0
485 -312 0
485 -53 0
485 -121 0
485 -60 0
485 -359 0
485 -48 0
485 -77 0
485 -274 0
486 -237 0
486 -263 0
486 -90 0
486 -74 0
486 -54 0
486 -213 0
486 -307 0
486 -387 0
486 -30 0
486 -348 0
486 -12 0
487 -385 0
487 -255 0
487 -333 0
487 -62 0
487 -259 0
487 -239 0
487 -117 0
487 -350 0
487 -168 0
487 -54 0
487 -346 0
487 -285 0
487 -277 0
487 -306 0
487 -238 0
487 -322 0
488 -128 0
488 -109 0
488 -393 0
488 -147 0
488 -318 0
488 -338 0
488 -187 0
488 -296 0
488 -214 0
488 -110 0
488 -199 0
488 -232 0
488 -66 0
488 -289 0
488 -281 0
488 -250 0
488 -325 0
489 -199 0
489 -385 0
489 -333 0
489 -276 0
489 -203 0
489 -105 0
489 -26 0
489 -194 0
489 -11 0
489 -28 0
489 -265 0
489 -81 0
489 -381 0
489 -292 0
489 -24 0
489 -61 0
490 -318 0
490 -195 0
490 -246 0
490 -378 0
490 -68 0
490 -55 0
490 -235 0
490 -132 0
490 -144 0
490 -231 0
490 -66 0
490 -163 0
490 -19 0
490 -153 0
491 -199 0
491 -219 0
491 -148 0
491 -141 0
491 -114 0
491 -80 0
491 -168 0
491 -395 0
491 -274 0
491 -296 0
491 -217 0
491 -18 0
491 -106 0
491 -136 0
491 -363 0
491 -104 0
491 -290 0
491 -360 0
491 -326 0
491 -276 0
492 -207 0
492 -379 0
492 -203 0
492 -291 0
492 -279 0
492 -121 0
492 -58 0
492 -256 0
492 -107 0
492 -71 0
492 -83 0
492 -2 0
492 -129 0
492 -88 0
492 -289 0
492 -389 0
492 -77 0
492 -370 0
492 -390 0
493 -189 0
493 -355 0
493 -397 0
493 -133 0
493 -96 0
493 -82 0
493 -350 0
493 -206 0
493 -337 0
493 -273 0
493 -79 0
493 -210 0
493 -154 0
494 -281 0
494 -103 0
494 -97 0
494 -210 0
494 -71 0
494 -34 0
494 -242 0
494 -109 0
494 -325 0
494 -383 0
494 -180 0
494 -69 0
494 -107 0
494 -286 0
494 -49 0
494 -165 0
495 -348 0
495 -276 0
495 -312 0
495 -259 0
495 -207 0
495 -330 0
495 -127 0
495 -171 0
495 -141 0
495 -103 0
495 -197 0
495 -337 0
495 -122 0
495 -51 0
495 -42 0
495 -185 0
495 -379 0
495 -287 0
495 -153 0
496 -375 0
496 -68 0
496 -202 0
496 -117 0
496 -301 0
496 -201 0
496 -360 0
496 -34 0
496 -361 0
496 -121 0
497 -373 0
497 -268 0
497 -369 0
497 -208 0
497 -174 0
497 -196 0
497 -372 0
497 -127 0
497 -279 0
497 -1 0
497 -156 0
497 -67 0
497 -54 0
497 -343 0
497 -29 0
498 -252 0
498 -327 0
498 -109 0
498 -279 0
498 -167 0
498 -232 0
498 -136 0
498 -238 0
498 -261 0
498 -116 0
498 -70 0
498 -101 0
498 -389 0
498 -92 0
498 -95 0
498 -12 0
498 -69 0
499 -372 0
499 -174 0
499 -175 0
499 -232 0
499 -296 0
499 -337 0
499 -138 0
499 -136 0
499 -39 0
499 -29 0
499 -206 0
499 -60 0
499 -244 0
499 -339 0
499 -229 0
499 -367 0
499 -308 0
499 -259 0
499 -119 0
499 -220 0
500 -368 0
500 -298 0
500 -218 0
500 -219 0
500 -303 0
500 -297 0
500 -262 0
500 -191 0
500 -130 0
500 -80 0
500 -4 0
500 -137 0
500 -189 0
500 -254 0
500 -116 0
500 -396 0
500 -79 0
501 -339 0
501 -307 0
501 -166 0
501 -190 0
501 -215 0
501 -153 0
501 -110 0
501 -254 0
501 -366 0
501 -132 0
501 -107 0
501 -341 0
501 -193 0
501 -54 0
501 -157 0
501 -237 0
501 -120 0
502 -162 0
502 -191 0
502 -88 0
502 -80 0
502 -39 0
502 -120 0
502 -331 0
502 -83 0
502 -287 0
502 -276 0
502 -345 0
502 -157 0
503 -280 0
503 -336 0
503 -137 0
503 -118 0
503 -100 0
503 -295 0
503 -166 0
503 -61 0
503 -10 0
503 -91 0
503 -285 0
503 -358 0
503 -129 0
503 -16 0
503 -161 0
504 -199 0
504 -295 0
504 -344 0
504 -315 0
504 -114 0
504 -396 0
504 -223 0
504 -231 0
504 -174 0
504 -116 0
504 -128 0
504 -9 0
504 -207 0
504 -198 0
504 -197 0
504 -10 0
504 -225 0
505 -306 0
505 -209 0
505 -30 0
505 -3 0
505 -8 0
505 -40 0
505 -219 0
505 -250 0
505 -193 0
505 -346 0
505 -138 0
505 -148 0
505 -75 0
505 -166 0
505 -357 0
505 -359 0
505 -385 0
505 -4 0
505 -211 0
505 -124 0
505 -321 0
506 -360 0
506 -310 0
506 -159 0
506 -168 0
506 -273 0
506 -229 0
506 -204 0
506 -394 0
506 -30 0
506 -195 0
506 -80 0
506 -368 0
506 -199 0
506 -285 0
506 -69 0
506 -74 0
506 -15 0
506 -294 0
506 -165 0
507 -348 0
507 -222 0
507 -103 0
507 -224 0
507 -395 0
507 -8 0
507 -266 0
507 -244 0
507 -42 0
507 -227 0
507 -167 0
507 -370 0
507 -259 0
507 -161 0
507 -110 0
507 -315 0
508 -339 0
508 -322 0
508 -265 0
508 -156 0
508 -152 0
508 -127 0
508 -175 0
508 -44 0
508 -392 0
508 -329 0
508 -48 0
508 -311 0
508 -43 0
508 -143 0
508 -110 0
508 -197 0
508 -83 0
508 -75 0
508 -14 0
508 -51 0
509 -167 0
509 -289 0
509 -44 0
509 -198 0
509 -58 0
509 -242 0
509 -129 0
509 -86 0
509 -287 0
509 -177 0
509 -41 0
509 -8 0
509 -397 0
510 -359 0
510 -294 0
510 -323 0
510 -200 0
510 -162 0
510 -344 0
510 -17 0
510 -243 0
510 -361 0
510 -146 0
510 -307 0
511 -289 0
511 -303 0
511 -267 0
511 -126 0
511 -150 0
511 -136 0
511 -344 0
511 -369 0
511 -35 0
511 -400 0
511 -180 0
511 -99 0
511 -71 0
511 -383 0
511 -201 0
511 -113 0
512 -387 0
512 -368 0
512 -309 0
512 -151 0
512 -260 0
512 -156 0
512 -94 0
512 -137 0
512 -84 0
512 -266 0
512 -73 0
512 -236 0
512 -238 0
512 -187 0
512 -149 0
512 -41 0
512 -132 0
512 -227 0
513 -167 0
513 -378 0
513 -100 0
513 -239 0
513 -327 0
513 -160 0
513 -90 0
513 -55 0
513 -299 0
513 -235 0
513 -106 0
513 -135 0
513 -376 0
513 -76 0
513 -98 0
513 -215 0
513 -322 0
513 -60 0
513 -278 0
514 -239 0
514 -242 0
514 -344 0
514 -178 0
514 -147 0
514 -102 0
514 -117 0
514 -21 0
514 -2 0
514 -84 0
514 -334 0
514 -25 0
514 -20 0
514 -319 0
514 -362 0
514 -313 0
514 -226 0
515 -362 0
515 -272 0
515 -199 0
515 -375 0
515 -333 0
515 -378 0
515 -360 0
515 -137 0
515 -103 0
515 -131 0
515 -44 0
515 -50 0
515 -284 0
515 -214 0
515 -150 0
515 -146 0
515 -314 0
515 -206 0
515 -283 0
515 -202 0
516 -277 0
516 -46 0
516 -78 0
516 -143 0
516 -292 0
516 -258 0
516 -231 0
516 -343 0
516 -187 0
516 -386 0
516 -31 0
516 -227 0
517 -232 0
517 -173 0
517 -133 0
517 -60 0
517 -136 0
517 -161 0
517 -342 0
517 -109 0
517 -352 0
517 -306 0
517 -370 0
517 -307 0
517 -261 0
517 -311 0
517 -399 0
517 -180 0
518 -373 0
518 -336 0
518 -134 0
518 -112 0
518 -50 0
518 -109 0
518 -221 0
518 -400 0
518 -121 0
518 -38 0
518 -193 0
518 -287 0
518 -281 0
518 -278 0
518 -67 0
518 -175 0
518 -284 0
518 -83 0
518 -43 0
519 -362 0
519 -151 0
519 -191 0
519 -144 0
519 -397 0
519 -93 0
519 -61 0
519 -237 0
519 -80 0
519 -34 0
519 -90 0
519 -379 0
519 -283 0
519 -161 0
519 -18 0
519 -180 0
520 -308 0
520 -286 0
520 -327 0
520 -111 0
520 -93 0
520 -91 0
520 -250 0
520 -253 0
520 -173 0
520 -206 0
520 -105 0
520 -326 0
520 -58 0
520 -366 0
520 -296 0
521 -142 0
521 -139 0
521 -100 0
521 -293 0
521 -93 0
521 -33 0
521 -49 0
521 -286 0
521 -394 0
521 -149 0
521 -127 0
521 -108 0
521 -344 0
521 -386 0
521 -264 0
521 -199 0
521 -340 0
521 -201 0
521 -220 0
522 -209 0
522 -163 0
522 -168 0
522 -314 0
522 -182 0
522 -252 0
522 -271 0
522 -392 0
522 -146 0
522 -222 0
522 -35 0
522 -323 0
522 -368 0
522 -226 0
522 -13 0
523 -316 0
523 -349 0
523 -279 0
523 -378 0
523 -140 0
523 -122 0
523 -27 0
523 -332 0
523 -111 0
523 -95 0
523 -29 0
523 -275 0
524 -380 0
524 -354 0
524 -251 0
524 -376 0
524 -311 0
524 -94 0
524 -99 0
524 -166 0
524 -293 0
524 -332 0
524 -276 0
524 -8 0
524 -305 0
524 -345 0
524 -257 0
525 -324 0
525 -290 0
525 -358 0
525 -170 0
525 -141 0
525 -374 0
525 -341 0
525 -227 0
525 -266 0
525 -138 0
525 -119 0
525 -120 0
525 -327 0
525 -257 0
525 -394 0
525 -149 0
526 -168 0
526 -349 0
526 -127 0
526 -103 0
526 -47 0
526 -236 0
526 -232 0
526 -228 0
526 -158 0
526 -91 0
526 -114 0
526 -332 0
526 -229 0
526 -48 0
526 -215 0
526 -361 0
526 -329 0
526 -354 0
527 -145 0
527 -53 0
527 -363 0
527 -113 0
527 -45 0
527 -281 0
527 -375 0
527 -112 0
528 -361 0
528 -313 0
528 -249 0
528 -148 0
528 -145 0
528 -115 0
528 -386 0
528 -46 0
528 -355 0
528 -194 0
528 -282 0
528 -242 0
528 -6 0
528 -326 0
528 -153 0
528 -111 0
528 -190 0
528 -146 0
528 -98 0
528 -75 0
528 -20 0
528 -74 0
528 -22 0
528 -396 0
528 -273 0
529 -339 0
529 -302 0
529 -168 0
529 -222 0
529 -160 0
529 -293 0
529 -203 0
529 -181 0
529 -141 0
529 -126 0
529 -102 0
529 -14 0
529 -55 0
529 -356 0
529 -77 0
529 -22 0
529 -183 0
529 -151 0
529 -66 0
529 -5 0
529 -25 0
529 -316 0
529 -332 0
529 -381 0
530 -179 0
530 -333 0
530 -188 0
530 -375 0
530 -73 0
530 -1 0
530 -374 0
530 -16 0
530 -143 0
530 -35 0
530 -92 0
530 -48 0
530 -69 0
530 -253 0
530 -310 0
530 -88 0
530 -311 0
530 -297 0
530 -259 0
530 -42 0
531 -361 0
531 -298 0
531 -375 0
531 -206 0
531 -164 0
531 -36 0
531 -327 0
531 -215 0
531 -11 0
531 -288 0
531 -364 0
531 -44 0
531 -367 0
532 -144 0
532 -2 0
532 -63 0
532 -33 0
532 -237 0
532 -143 0
532 -378 0
532 -242 0
532 -346 0
532 -193 0
532 -321 0
533 -202 0
533 -396 0
533 -226 0
533 -23 0
533 -43 0
533 -55 0
533 -31 0
533 -130 0
533 -334 0
533 -122 0
533 -373 0
533 -76 0
533 -338 0
533 -235 0
534 -383 0
534 -326 0
534 -233 0
534 -237 0
534 -199 0
534 -378 0
534 -14 0
534 -9 0
534 -387 0
534 -341 0
534 -345 0
534 -183 0
534 -42 0
534 -198 0
535 -332 0
535 -322 0
535 -312 0
535 -249 0
535 -234 0
535 -68 0
535 -123 0
535 -320 0
535 -41 0
535 -287 0
535 -48 0
535 -244 0
535 -299 0
535 -238 0
535 -371 0
535 -69 0
535 -38 0
536 -245 0
536 -175 0
536 -164 0
536 -56 0
536 -105 0
536 -100 0
536 -146 0
536 -73 0
536 -308 0
536 -373 0
536 -27 0
536 -322 0
537 -290 0
537 -159 0
537 -127 0
537 -131 0
537 -37 0
537 -96 0
537 -58 0
537 -172 0
537 -193 0
537 -49 0
537 -143 0
538 -357 0
538 -259 0
538 -246 0
538 -392 0
538 -347 0
538 -179 0
538 -30 0
538 -132 0
538 -116 0
538 -170 0
538 -388 0
539 -346 0
539 -322 0
539 -210 0
539 -209 0
539 -94 0
539 -68 0
539 -293 0
539 -284 0
539 -298 0
539 -43 0
539 -38 0
539 -91 0
539 -143 0
539 -10 0
539 -29 0
539 -319 0
539 -51 0
540 -367 0
540 -192 0
540 -185 0
540 -355 0
540 -347 0
540 -173 0
540 -99 0
540 -90 0
540 -398 0
540 -372 0
540 -292 0
540 -327 0
540 -11 0
540 -60 0
540 -183 0
540 -288 0
540 -196 0
540 -18 0
541 -200 0
541 -147 0
541 -344 0
541 -123 0
541 -31 0
541 -400 0
541 -156 0
541 -51 0
541 -373 0
541 -272 0
541 -11 0
541 -326 0
541 -192 0
541 -285 0
542 -208 0
542 -192 0
542 -303 0
542 -169 0
542 -156 0
542 -388 0
542 -347 0
542 -96 0
542 -58 0
542 -111 0
542 -379 0
542 -317 0
542 -68 0
542 -304 0
542 -266 0
542 -45 0
542 -40 0
542 -92 0
542 -85 0
542 -119 0
543 -196 0
543 -189 0
543 -94 0
543 -65 0
543 -286 0
543 -276 0
543 -78 0
543 -7 0
544 -168 0
544 -257 0
544 -375 0
544 -207 0
544 -176 0
544 -297 0
544 -67 0
544 -253 0
544 -180 0
544 -122 0
544 -155 0
544 -82 0
544 -373 0
544 -332 0
544 -302 0
545 -209 0
545 -291 0
545 -282 0
545 -188 0
545 -86 0
545 -4 0
545 -230 0
545 -146 0
545 -259 0
546 -360 0
546 -164 0
546 -160 0
546 -351 0
546 -62 0
546 -170 0
546 -328 0
546 -36 0
546 -8 0
546 -261 0
546 -217 0
546 -252 0
546 -70 0
546 -48 0
546 -39 0
546 -205 0
546 -175 0
546 -42 0
546 -370 0
546 -206 0
547 -248 0
547 -210 0
547 -189 0
547 -65 0
547 -297 0
547 -175 0
547 -126 0
547 -96 0
547 -158 0
547 -396 0
547 -184 0
547 -196 0
547 -100 0
547 -337 0
547 -380 0
547 -275 0
548 -389 0
548 -384 0
548 -390 0
548 -346 0
548 -323 0
548 -249 0
548 -352 0
548 -139 0
548 -108 0
548 -354 0
548 -103 0
548 -398 0
548 -82 0
548 -275 0
548 -70 0
548 -71 0
548 -220 0
548 -75 0
548 -193 0
548 -178 0
549 -360 0
549 -254 0
549 -264 0
549 -291 0
549 -50 0
549 -322 0
549 -214 0
549 -283 0
549 -81 0
549 -103 0
549 -66 0
549 -308 0
549 -96 0
549 -2 0
549 -216 0
549 -373 0
550 -212 0
550 -255 0
550 -344 0
550 -100 0
550 -295 0
550 -238 0
550 -337 0
550 -227 0
550 -42 0
550 -204 0
550 -145 0
551 -205 0
551 -122 0
551 -210 0
551 -276 0
551 -370 0
551 -167 0
551 -327 0
551 -349 0
551 -179 0
551 -204 0
551 -183 0
551 -103 0
551 -286 0
551 -136 0
551 -170 0
551 -10 0
551 -48 0
552 -199 0
552 -159 0
552 -163 0
552 -273 0
552 -200 0
552 -178 0
552 -189 0
552 -156 0
552 -169 0
552 -176 0
552 -282 0
552 -233 0
552 -4 0
552 -119 0
552 -3 0
553 -314 0
553 -369 0
553 -123 0
553 -32 0
553 -315 0
553 -159 0
553 -1 0
553 -266 0
553 -151 0
553 -161 0
553 -345 0
553 -270 0
553 -102 0
553 -363 0
554 -167 0
554 -179 0
554 -50 0
554 -284 0
554 -173 0
554 -398 0
554 -105 0
554 -61 0
554 -90 0
554 -32 0
554 -157 0
554 -29 0
554 -227 0
554 -290 0
554 -264 0
555 -190 0
555 -153 0
555 -332 0
555 -185 0
555 -176 0
555 -192 0
555 -169 0
555 -143 0
555 -310 0
555 -400 0
555 -175 0
555 -396 0
555 -344 0
555 -76 0
556 -382 0
556 -276 0
556 -196 0
556 -277 0
556 -160 0
556 -335 0
556 -191 0
556 -61 0
556 -33 0
556 -239 0
556 -219 0
556 -20 0
556 -345 0
556 -289 0
556 -269 0
557 -357 0
557 -255 0
557 -213 0
557 -320 0
557 -62 0
557 -137 0
557 -174 0
557 -173 0
557 -162 0
557 -17 0
557 -247 0
557 -300 0
557 -177 0
557 -153 0
557 -81 0
557 -229 0
557 -15 0
557 -321 0
558 -155 0
558 -340 0
558 -179 0
558 -164 0
558 -189 0
558 -46 0
558 -170 0
558 -154 0
558 -275 0
558 -191 0
558 -13 0
558 -89 0
558 -249 0
558 -251 0
558 -192 0
558 -143 0
558 -175 0
559 -165 0
559 -386 0
559 -87 0
559 -209 0
559 -296 0
559 -185 0
559 -148 0
559 -175 0
559 -211 0
559 -105 0
559 -154 0
559 -161 0
559 -181 0
559 -64 0
559 -399 0
560 -290 0
560 -372 0
560 -277 0
560 -340 0
560 -234 0
560 -46 0
560 -44 0
560 -209 0
560 -150 0
560 -96 0
560 -80 0
560 -296 0
560 -235 0
560 -110 0
560 -389 0
560 -181 0
560 -310 0
561 -321 0
561 -151 0
561 -139 0
561 -131 0
561 -397 0
561 -182 0
561 -9 0
561 -167 0
561 -242 0
561 -16 0
561 -287 0
561 -351 0
561 -220 0
561 -149 0
561 -42 0
561 -85 0
561 -367 0
561 -373 0
561 -106 0
561 -51 0
561 -254 0
562 -257 0
562 -178 0
562 -256 0
562 -190 0
562 -88 0
562 -111 0
562 -122 0
562 -173 0
562 -20 0
562 -384 0
562 -365 0
562 -280 0
562 -52 0
562 -386 0
563 -283 0
563 -157 0
563 -83 0
563 -132 0
563 -291 0
563 -342 0
563 -108 0
563 -340 0
563 -315 0
563 -279 0
563 -396 0
563 -100 0
563 -65 0
563 -134 0
563 -381 0
563 -195 0
563 -326 0
563 -2 0
564 -348 0
564 -281 0
564 -236 0
564 -321 0
564 -115 0
564 -126 0
564 -123 0
564 -253 0
564 -261 0
564 -113 0
564 -395 0
565 -254 0
565 -321 0
565 -137 0
565 -3 0
565 -37 0
565 -172 0
565 -66 0
565 -107 0
565 -261 0
565 -18 0
565 -34 0
565 -281 0
565 -243 0
565 -379 0
565 -363 0
565 -304 0
566 -289 0
566 -100 0
566 -301 0
566 -308 0
566 -91 0
566 -61 0
566 -51 0
566 -184 0
566 -188 0
566 -89 0
566 -128 0
566 -340 0
566 -87 0
566 -280 0
566 -387 0
566 -198 0
566 -253 0
567 -278 0
567 -343 0
567 -57 0
567 -104 0
567 -326 0
567 -371 0
567 -174 0
567 -163 0
567 -200 0
567 -160 0
567 -196 0
567 -319 0
567 -398 0
567 -372 0
567 -61 0
567 -171 0
568 -382 0
568 -370 0
568 -44 0
568 -68 0
568 -37 0
568 -50 0
568 -305 0
568 -24 0
568 -142 0
569 -343 0
569 -331 0
569 -108 0
569 -209 0
569 -13 0
569 -150 0
569 -395 0
569 -168 0
569 -200 0
569 -145 0
569 -184 0
569 -386 0
569 -203 0
569 -9 0
570 -295 0
570 -118 0
570 -127 0
570 -293 0
570 -232 0
570 -114 0
570 -284 0
570 -35 0
570 -350 0
570 -144 0
570 -18 0
570 -326 0
570 -325 0
570 -101 0
570 -358 0
570 -267 0
570 -87 0
570 -117 0
571 -180 0
571 -216 0
571 -382 0
571 -356 0
571 -329 0
571 -155 0
571 -175 0
571 -159 0
571 -127 0
571 -142 0
571 -42 0
571 -281 0
571 -9 0
571 -35 0
571 -19 0
572 -221 0
572 -198 0
572 -276 0
572 -162 0
572 -216 0
572 -2 0
572 -36 0
572 -231 0
572 -193 0
572 -180 0
572 -232 0
572 -274 0
573 -316 0
573 -234 0
573 -139 0
573 -91 0
573 -193 0
573 -4 0
573 -87 0
573 -29 0
573 -366 0
573 -204 0
573 -82 0
573 -134 0
573 -329 0
573 -172 0
574 -247 0
574 -45 0
574 -348 0
574 -336 0
574 -199 0
574 -246 0
574 -192 0
574 -92 0
574 -326 0
574 -136 0
574 -289 0
574 -46 0
574 -54 0
574 -332 0
574 -397 0
574 -150 0
574 -41 0
574 -212 0
574 -198 0
574 -195 0
574 -355 0
575 -235 0
575 -246 0
575 -316 0
575 -91 0
575 -178 0
575 -62 0
575 -107 0
575 -34 0
575 -70 0
575 -30 0
575 -284 0
576 -259 0
576 -385 0
576 -277 0
576 -163 0
576 -218 0
576 -213 0
576 -94 0
576 -90 0
576 -2 0
576 -189 0
576 -84 0
576 -292 0
576 -287 0
576 -166 0
576 -45 0
576 -113 0
576 -161 0
576 -40 0
577 -359 0
577 -336 0
577 -230 0
577 -137 0
577 -221 0
577 -136 0
577 -130 0
577 -209 0
577 -82 0
577 -78 0
577 -198 0
577 -156 0
577 -205 0
577 -274 0
577 -172 0
577 -235 0
577 -95 0
577 -61 0
577 -301 0
578 -368 0
578 -164 0
578 -53 0
578 -267 0
578 -273 0
578 -154 0
578 -47 0
578 -69 0
578 -247 0
578 -26 0
578 -309 0
578 -27 0
578 -369 0
578 -253 0
578 -8 0
578 -115 0
578 -42 0
578 -249 0
579 -324 0
579 -156 0
579 -108 0
579 -182 0
579 -265 0
579 -331 0
579 -230 0
579 -294 0
579 -87 0
579 -226 0
579 -77 0
579 -187 0
579 -177 0
579 -17 0
579 -270 0
579 -247 0
580 -208 0
580 -269 0
580 -219 0
580 -47 0
580 -118 0
580 -359 0
580 -223 0
580 -60 0
580 -56 0
580 -83 0
580 -159 0
580 -383 0
581 -295 0
581 -23 0
581 -76 0
581 -224 0
581 -33 0
581 -235 0
581 -263 0
581 -29 0
581 -71 0
581 -282 0
581 -27 0
581 -280 0
581 -346 0
581 -309 0
582 -294 0
582 -375 0
582 -360 0
582 -216 0
582 -166 0
582 -23 0
582 -36 0
582 -235 0
582 -352 0
582 -391 0
582 -170 0
582 -227 0
582 -73 0
582 -148 0
582 -135 0
582 -270 0
582 -106 0
582 -215 0
583 -233 0
583 -374 0
583 -160 0
583 -97 0
583 -65 0
583 -266 0
583 -62 0
583 -252 0
583 -249 0
583 -120 0
583 -131 0
583 -122 0
583 -63 0
583 -45 0
583 -354 0
583 -189 0
584 -317 0
584 -286 0
584 -176 0
584 -145 0
584 -267 0
584 -221 0
584 -131 0
584 -377 0
584 -28 0
584 -177 0
584 -371 0
584 -25 0
584 -173 0
584 -228 0
584 -311 0
585 -337 0
585 -231 0
585 -125 0
585 -51 0
585 -319 0
585 -239 0
585 -246 0
585 -191 0
585 -210 0
585 -66 0
585 -303 0
585 -322 0
585 -29 0
585 -395 0
585 -164 0
585 -9 0
585 -204 0
585 -12 0
585 -323 0
586 -336 0
586 -291 0
586 -200 0
586 -366 0
586 -267 0
586 -228 0
586 -311 0
586 -69 0
586 -30 0
586 -266 0
586 -338 0
586 -241 0
586 -36 0
586 -74 0
586 -121 0
586 -219 0
587 -62 0
587 -24 0
587 -19 0
587 -284 0
587 -292 0
587 -9 0
587 -54 0
587 -81 0
587 -307 0
587 -365 0
587 -260 0
587 -36 0
588 -199 0
588 -277 0
588 -103 0
588 -271 0
588 -267 0
588 -44 0
588 -173 0
588 -186 0
588 -287 0
588 -115 0
588 -257 0
588 -319 0
588 -286 0
588 -110 0
588 -307 0
588 -112 0
588 -191 0
588 -357 0
589 -386 0
589 -310 0
589 -164 0
589 -64 0
589 -291 0
589 -287 0
589 -304 0
589 -155 0
589 -214 0
589 -227 0
589 -232 0
589 -18 0
589 -11 0
590 -347 0
590 -315 0
590 -216 0
590 -164 0
590 -275 0
590 -67 0
590 -64 0
590 -14 0
590 -150 0
590 -39 0
590 -195 0
590 -296 0
590 -269 0
590 -231 0
590 -364 0
590 -153 0
590 -146 0
590 -29 0
590 -20 0
590 -172 0
590 -69 0
590 -180 0
590 -78 0
590 -384 0
591 -314 0
591 -44 0
591 -166 0
591 -392 0
591 -151 0
591 -343 0
591 -352 0
591 -60 0
591 -183 0
591 -181 0
591 -127 0
591 -160 0
591 -357 0
591 -14 0
591 -169 0
591 -383 0
591 -129 0
591 -275 0
592 -214 0
592 -217 0
592 -16 0
592 -15 0
592 -382 0
592 -294 0
592 -259 0
592 -78 0
592 -204 0
592 -209 0
592 -119 0
592 -19 0
592 -379 0
592 -109 0
592 -53 0
592 -96 0
592 -370 0
592 -149 0
592 -393 0
593 -213 0
593 -200 0
593 -215 0
593 -154 0
593 -354 0
593 -76 0
593 -268 0
593 -4 0
593 -348 0
593 -129 0
593 -95 0
593 -92 0
593 -79 0
593 -107 0
594 -103 0
594 -184 0
594 -332 0
594 -13 0
594 -75 0
594 -202 0
594 -342 0
594 -71 0
594 -170 0
594 -81 0
594 -273 0
594 -146 0
595 -283 0
595 -238 0
595 -259 0
595 -22 0
595 -17 0
595 -9 0
595 -124 0
595 -364 0
595 -28 0
595 -43 0
595 -390 0
595 -226 0
595 -184 0
595 -5 0
596 -374 0
596 -252 0
596 -222 0
596 -160 0
596 -106 0
596 -265 0
596 -284 0
596 -76 0
596 -7 0
596 -27 0
596 -310 0
596 -145 0
596 -149 0
597 -346 0
597 -339 0
597 -209 0
597 -260 0
597 -392 0
597 -23 0
597 -80 0
597 -93 0
597 -172 0
597 -16 0
597 -118 0
597 -107 0
597 -155 0
597 -60 0
597 -383 0
597 -193 0
597 -82 0
597 -81 0
598 -240 0
598 -196 0
598 -176 0
598 -202 0
598 -91 0
598 -7 0
598 -223 0
598 -186 0
598 -308 0
598 -189 0
598 -76 0
598 -25 0
598 -66 0
598 -152 0
598 -362 0
598 -354 0
598 -262 0
598 -274 0
599 -296 0
599 -149 0
599 -116 0
599 -21 0
599 -316 0
599 -125 0
599 -371 0
599 -19 0
599 -269 0
599 -130 0
599 -12 0
599 -143 0
600 -332 0
600 -325 0
600 -246 0
600 -156 0
600 -105 0
600 -30 0
600 -67 0
600 -6 0
600 -3 0
600 -88 0
600 -320 0
600 -296 0
600 -182 0
600 -350 0
600 -308 0
600 -149 0
601 -351 0
601 -379 0
601 -179 0
601 -137 0
601 -50 0
601 -145 0
601 -393 0
601 -216 0
601 -174 0
601 -223 0
601 -193 0
601 -352 0
601 -35 0
601 -116 0
602 -243 0
602 -56 0
602 -100 0
602 -215 0
602 -224 0
602 -191 0
602 -123 0
602 -62 0
602 -207 0
602 -99 0
602 -143 0
602 -16 0
602 -93 0
602 -103 0
602 -245 0
602 -113 0
602 -172 0
602 -384 0
602 -125 0
602 -72 0
602 -388 0
602 -352 0
602 -377 0
602 -356 0
602 -65 0
603 -300 0
603 -247 0
603 -343 0
603 -95 0
603 -85 0
603 -77 0
603 -367 0
603 -370 0
603 -346 0
603 -383 0
603 -315 0
603 -254 0
603 -98 0
603 -224 0
603 -189 0
603 -162 0
603 -330 0
603 -155 0
604 -382 0
604 -245 0
604 -375 0
604 -159 0
604 -349 0
604 -230 0
604 -216 0
604 -128 0
604 -137 0
604 -134 0
604 -90 0
604 -231 0
604 -91 0
604 -63 0
604 -187 0
604 -89 0
604 -297 0
604 -87 0
604 -379 0
605 -318 0
605 -156 0
605 -224 0
605 -166 0
605 -130 0
605 -136 0
605 -12 0
605 -209 0
605 -287 0
605 -190 0
605 -74 0
605 -223 0
605 -173 0
605 -231 0
605 -128 0
605 -107 0
605 -29 0
605 -45 0
605 -390 0
605 -16 0
605 -339 0
606 -222 0
606 -194 0
606 -63 0
606 -311 0
606 -181 0
606 -25 0
606 -369 0
606 -400 0
606 -140 0
606 -236 0
606 -390 0
606 -310 0
606 -301 0
607 -253 0
607 -197 0
607 -217 0
607 -390 0
607 -259 0
607 -209 0
607 -330 0
607 -379 0
607 -199 0
607 -3 0
607 -5 0
607 -84 0
607 -359 0
607 -251 0
607 -45 0
607 -35 0
608 -266 0
608 -22 0
608 -251 0
608 -85 0
608 -329 0
608 -207 0
608 -245 0
608 -118 0
608 -102 0
608 -269 0
608 -330 0
608 -293 0
608 -114 0
608 -184 0
608 -73 0
609 -283 0
609 -238 0
609 -187 0
609 -397 0
609 -22 0
609 -396 0
609 -348 0
609 -7 0
609 -276 0
609 -268 0
609 -51 0
609 -47 0
609 -308 0
609 -386 0
609 -94 0
609 -62 0
609 -204 0
609 -206 0
609 -76 0
610 -190 0
610 -157 0
610 -57 0
610 -119 0
610 -83 0
610 -12 0
610 -381 0
610 -263 0
610 -363 0
610 -15 0
610 -195 0
610 -284 0
610 -237 0
610 -68 0
610 -325 0
610 -17 0
610 -207 0
610 -10 0
610 -9 0
611 -246 0
611 -168 0
611 -68 0
611 -284 0
611 -228 0
611 -398 0
611 -43 0
611 -4 0
611 -371 0
611 -244 0
611 -107 0
611 -158 0
611 -136 0
611 -149 0
611 -280 0
611 -366 0
612 -337 0
612 -190 0
612 -165 0
612 -79 0
612 -119 0
612 -258 0
612 -259 0
612 -299 0
612 -196 0
612 -302 0
612 -386 0
612 -101 0
612 -28 0
612 -371 0
612 -268 0
612 -103 0
613 -383 0
613 -365 0
613 -360 0
613 -332 0
613 -329 0
613 -320 0
613 -248 0
613 -340 0
613 -263 0
613 -109 0
613 -276 0
613 -170 0
613 -186 0
613 -242 0
613 -91 0
613 -15 0
613 -178 0
613 -31 0
614 -321 0
614 -291 0
614 -106 0
614 -399 0
614 -136 0
614 -187 0
614 -201 0
614 -220 0
614 -241 0
614 -197 0
614 -300 0
614 -10 0
614 -164 0
614 -359 0
614 -107 0
615 -316 0
615 -200 0
615 -288 0
615 -154 0
615 -199 0
615 -34 0
615 -348 0
615 -283 0
615 -226 0
615 -205 0
615 -237 0
615 -285 0
615 -194 0
615 -272 0
615 -10 0
616 -390 0
616 -263 0
616 -152 0
616 -115 0
616 -103 0
616 -100 0
616 -186 0
616 -286 0
616 -169 0
616 -248 0
616 -56 0
616 -120 0
616 -36 0
616 -270 0
616 -83 0
616 -18 0
616 -344 0
617 -317 0
617 -242 0
617 -352 0
617 -372 0
617 -279 0
617 -295 0
617 -382 0
617 -270 0
617 -337 0
617 -182 0
617 -165 0
617 -93 0
617 -356 0
617 -227 0
617 -116 0
617 -183 0
617 -371 0
618 -380 0
618 -299 0
618 -230 0
618 -189 0
618 -112 0
618 -293 0
618 -136 0
618 -88 0
618 -4 0
618 -323 0
618 -354 0
618 -84 0
618 -304 0
618 -345 0
618 -375 0
618 -102 0
618 -99 0
618 -238 0
618 -97 0
619 -386 0
619 -314 0
619 -199 0
619 -128 0
619 -279 0
619 -224 0
619 -36 0
619 -313 0
619 -149 0
619 -146 0
619 -11 0
619 -345 0
620 -385 0
620 -399 0
620 -398 0
620 -336 0
620 -263 0
620 -138 0
620 -37 0
620 -217 0
620 -125 0
620 -132 0
620 -152 0
620 -69 0
620 -39 0
620 -85 0
621 -233 0
621 -179 0
621 -212 0
621 -17 0
621 -74 0
621 -138 0
621 -202 0
621 -371 0
621 -323 0
621 -140 0
621 -389 0
621 -318 0
621 -90 0
621 -269 0
622 -380 0
622 -378 0
622 -167 0
622 -195 0
622 -148 0
622 -106 0
622 -76 0
622 -31 0
622 -334 0
622 -150 0
622 -104 0
622 -62 0
622 -161 0
623 -209 0
623 -342 0
623 -142 0
623 -297 0
623 -221 0
623 -147 0
623 -141 0
623 -162 0
623 -52 0
623 -21 0
623 -43 0
623 -372 0
623 -329 0
623 -186 0
623 -318 0
623 -187 0
623 -70 0
623 -102 0
623 -185 0
624 -151 0
624 -330 0
624 -263 0
624 -38 0
624 -65 0
624 -2 0
624 -295 0
624 -194 0
624 -335 0
624 -52 0
624 -373 0
624 -249 0
624 -357 0
624 -257 0
624 -50 0
624 -125 0
624 -253 0
625 -350 0
625 -284 0
625 -166 0
625 -305 0
625 -245 0
625 -212 0
625 -211 0
625 -268 0
625 -291 0
625 -219 0
625 -188 0
625 -320 0
625 -40 0
625 -398 0
625 -105 0
625 -133 0
625 -88 0
625 -210 0
626 -317 0
626 -289 0
626 -224 0
626 -257 0
626 -286 0
626 -7 0
626 -148 0
626 -190 0
626 -250 0
626 -205 0
626 -359 0
626 -347 0
627 -324 0
627 -280 0
627 -245 0
627 -243 0
627 -251 0
627 -88 0
627 -348 0
627 -212 0
627 -119 0
627 -157 0
627 -396 0
627 -146 0
627 -12 0
628 -352 0
628 -176 0
628 -105 0
628 -5 0
628 -33 0
628 -93 0
628 -180 0
628 -183 0
628 -143 0
628 -138 0
628 -22 0
628 -74 0
628 -229 0
628 -363 0
628 -213 0
628 -280 0
628 -327 0
629 -345 0
629 -66 0
629 -15 0
629 -354 0
629 -270 0
629 -248 0
629 -47 0
629 -377 0
629 -35 0
629 -50 0
629 -150 0
629 -215 0
629 -255 0
629 -327 0
629 -141 0
629 -93 0
629 -5 0
629 -200 0
630 -384 0
630 -356 0
630 -294 0
630 -318 0
630 -269 0
630 -160 0
630 -44 0
630 -297 0
630 -173 0
630 -396 0
630 -61 0
630 -88 0
630 -130 0
630 -124 0
630 -389 0
630 -171 0
630 -338 0
630 -398 0
630 -15 0
630 -93 0
631 -346 0
631 -374 0
631 -176 0
631 -212 0
631 -211 0
631 -305 0
631 -396 0
631 -14 0
631 -358 0
631 -95 0
631 -365 0
631 -367 0
631 -228 0
631 -81 0
631 -69 0
631 -46 0
631 -196 0
631 -241 0
631 -101 0
632 -148 0
632 -221 0
632 -160 0
632 -396 0
632 -114 0
632 -217 0
632 -371 0
632 -356 0
632 -226 0
632 -20 0
632 -55 0
632 -228 0
632 -31 0
632 -320 0
632 -188 0
632 -51 0
632 -276 0
632 -324 0
632 -248 0
632 -19 0
632 -133 0
632 -257 0
632 -149 0
633 -256 0
633 -149 0
633 -76 0
633 -16 0
633 -207 0
633 -333 0
633 -272 0
633 -164 0
633 -100 0
633 -227 0
633 -239 0
633 -84 0
633 -192 0
633 -115 0
633 -80 0
634 -192 0
634 -361 0
634 -269 0
634 -289 0
634 -252 0
634 -164 0
634 -131 0
634 -120 0
634 -70 0
634 -36 0
634 -12 0
634 -309 0
634 -281 0
634 -69 0
634 -98 0
634 -92 0
634 -149 0
634 -181 0
634 -325 0
634 -151 0
635 -216 0
635 -262 0
635 -84 0
635 -33 0
635 -334 0
635 -305 0
635 -104 0
635 -153 0
635 -18 0
635 -89 0
635 -261 0
635 -25 0
636 -20 0
636 -290 0
636 -314 0
636 -318 0
636 -40 0
636 -361 0
636 -167 0
636 -303 0
636 -210 0
636 -12 0
636 -327 0
636 -232 0
636 -142 0
636 -271 0
637 -362 0
637 -233 0
637 -321 0
637 -252 0
637 -109 0
637 -114 0
637 -374 0
637 -258 0
637 -249 0
637 -95 0
637 -77 0
637 -151 0
637 -234 0
638 -299 0
638 -230 0
638 -186 0
638 -243 0
638 -188 0
638 -70 0
638 -303 0
638 -38 0
638 -261 0
638 -241 0
638 -184 0
638 -85 0
638 -367 0
638 -123 0
638 -386 0
638 -302 0
639 -45 0
639 -168 0
639 -247 0
639 -251 0
639 -199 0
639 -109 0
639 -334 0
639 -53 0
639 -393 0
639 -30 0
639 -5 0
639 -262 0
640 -163 0
640 -260 0
640 -164 0
640 -59 0
640 -124 0
640 -239 0
640 -143 0
640 -123 0
640 -121 0
640 -88 0
640 -85 0
640 -132 0
640 -183 0
640 -261 0
640 -214 0
640 -355 0
640 -22 0
640 -234 0
641 -280 0
641 -286 0
641 -271 0
641 -64 0
641 -96 0
641 -82 0
641 -367 0
641 -304 0
641 -296 0
641 -283 0
641 -77 0
641 -180 0
642 -110 0
642 -77 0
642 -72 0
642 -88 0
642 -330 0
642 -280 0
642 -111 0
642 -66 0
642 -332 0
642 -130 0
642 -173 0
642 -391 0
642 -39 0
643 -388 0
643 -339 0
643 -207 0
643 -50 0
643 -139 0
643 -335 0
643 -393 0
643 -141 0
643 -331 0
643 -174 0
643 -41 0
643 -158 0
643 -292 0
643 -45 0
643 -348 0
643 -25 0
644 -315 0
644 -175 0
644 -155 0
644 -204 0
644 -134 0
644 -206 0
644 -213 0
644 -396 0
644 -148 0
644 -111 0
644 -32 0
644 -341 0
644 -278 0
644 -183 0
644 -347 0
644 -238 0
644 -138 0
644 -38 0
645 -138 0
645 -22 0
645 -380 0
645 -320 0
645 -302 0
645 -314 0
645 -377 0
645 -347 0
645 -87 0
645 -46 0
645 -134 0
645 -37 0
645 -92 0
646 -143 0
646 -262 0
646 -236 0
646 -331 0
646 -271 0
646 -360 0
646 -68 0
646 -129 0
646 -37 0
646 -399 0
646 -14 0
646 -240 0
646 -223 0
646 -225 0
646 -50 0
647 -134 0
647 -102 0
647 -395 0
647 -154 0
647 -16 0
647 -5 0
647 -42 0
647 -295 0
647 -70 0
647 -214 0
647 -206 0
647 -370 0
647 -193 0
647 -399 0
647 -362 0
648 -217 0
648 -63 0
648 -368 0
648 -307 0
648 -317 0
648 -382 0
648 -146 0
648 -108 0
648 -298 0
649 -302 0
649 -290 0
649 -378 0
649 -269 0
649 -234 0
649 -179 0
649 -254 0
649 -301 0
649 -188 0
649 -184 0
649 -296 0
649 -192 0
649 -342 0
649 -167 0
649 -119 0
649 -212 0
649 -30 0
649 -143 0
650 -189 0
650 -47 0
650 -301 0
650 -342 0
650 -152 0
650 -24 0
650 -73 0
650 -90 0
650 -358 0
650 -251 0
650 -331 0
650 -304 0
650 -318 0
650 -133 0
650 -278 0
650 -201 0
650 -302 0
650 -373 0
650 -81 0
650 -379 0
650 -29 0
650 -52 0
651 -241 0
651 -177 0
651 -109 0
651 -107 0
651 -359 0
651 -393 0
651 -117 0
651 -233 0
651 -311 0
651 -203 0
651 -320 0
651 -388 0
651 -375 0
651 -142 0
651 -34 0
651 -385 0
651 -58 0
651 -71 0
651 -32 0
651 -255 0
652 -351 0
652 -254 0
652 -295 0
652 -213 0
652 -181 0
652 -188 0
652 -292 0
652 -58 0
652 -350 0
652 -217 0
653 -246 0
653 -317 0
653 -372 0
653 -56 0
653 -116 0
653 -153 0
653 -16 0
653 -60 0
653 -101 0
653 -69 0
653 -310 0
653 -169 0
653 -100 0
653 -71 0
654 -250 0
654 -329 0
654 -305 0
654 -311 0
654 -324 0
654 -268 0
654 -251 0
654 -168 0
654 -138 0
654 -106 0
654 -194 0
654 -269 0
654 -93 0
654 -376 0
654 -228 0
654 -83 0
655 -333 0
655 -163 0
655 -44 0
655 -214 0
655 -136 0
655 -187 0
655 -195 0
655 -37 0
655 -281 0
656 -185 0
656 -155 0
656 -269 0
656 -265 0
656 -152 0
656 -44 0
656 -46 0
656 -215 0
656 -293 0
656 -61 0
656 -337 0
656 -10 0
656 -241 0
656 -238 0
656 -312 0
656 -264 0
656 -28 0
656 -147 0
657 -380 0
657 -281 0
657 -336 0
657 -373 0
657 -234 0
657 -222 0
657 -109 0
657 -293 0
657 -181 0
657 -43 0
657 -14 0
657 -31 0
657 -203 0
657 -338 0
657 -227 0
657 -378 0
657 -57 0
657 -175 0
657 -33 0
657 -355 0
657 -352 0
657 -204 0
658 -322 0
658 -298 0
658 -259 0
658 -254 0
658 -168 0
658 -249 0
658 -200 0
658 -156 0
658 -202 0
658 -64 0
658 -350 0
658 -343 0
658 -102 0
658 -13 0
658 -184 0
658 -358 0
658 -87 0
659 -274 0
659 -270 0
659 -345 0
659 -119 0
659 -246 0
659 -125 0
659 -249 0
659 -269 0
659 -30 0
659 -234 0
659 -293 0
659 -40 0
659 -295 0
659 -396 0
660 -361 0
660 -344 0
660 -207 0
660 -312 0
660 -295 0
660 -252 0
660 -213 0
660 -264 0
660 -211 0
660 -399 0
660 -142 0
660 -324 0
660 -145 0
660 -75 0
660 -349 0
661 -348 0
661 -351 0
661 -131 0
661 -326 0
661 -174 0
661 -141 0
661 -377 0
661 -244 0
661 -83 0
661 -366 0
661 -387 0
661 -293 0
661 -308 0
661 -389 0
662 -220 0
662 -231 0
662 -172 0
662 -307 0
662 -280 0
662 -82 0
662 -318 0
662 -118 0
662 -148 0
662 -191 0
662 -89 0
662 -2 0
662 -127 0
662 -383 0
663 -335 0
663 -251 0
663 -316 0
663 -234 0
663 -311 0
663 -208 0
663 -68 0
663 -344 0
663 -59 0
663 -326 0
663 -80 0
663 -92 0
663 -179 0
664 -266 0
664 -95 0
664 -72 0
664 -24 0
664 -385 0
664 -281 0
664 -162 0
664 -290 0
664 -200 0
664 -221 0
664 -82 0
664 -65 0
664 -46 0
664 -339 0
664 -396 0
665 -164 0
665 -128 0
665 -121 0
665 -36 0
665 -97 0
665 -244 0
665 -113 0
665 -365 0
665 -298 0
665 -376 0
665 -75 0
665 -27 0
665 -255 0
665 -295 0
665 -249 0
666 -272 0
666 -344 0
666 -263 0
666 -100 0
666 -297 0
666 -163 0
666 -97 0
666 -348 0
666 -334 0
666 -333 0
666 -98 0
666 -299 0
666 -394 0
666 -270 0
666 -31 0
667 -166 0
667 -136 0
667 -32 0
667 -98 0
667 -102 0
667 -63 0
667 -143 0
667 -197 0
667 -181 0
667 -339 0
667 -107 0
667 -5 0
667 -119 0
667 -358 0
668 -197 0
668 -358 0
668 -307 0
668 -374 0
668 -191 0
668 -316 0
668 -372 0
668 -95 0
668 -29 0
668 -264 0
668 -332 0
668 -399 0
668 -49 0
668 -381 0
669 -209 0
669 -286 0
669 -222 0
669 -67 0
669 -170 0
669 -40 0
669 -191 0
669 -179 0
669 -347 0
669 -96 0
669 -318 0
669 -103 0
669 -250 0
669 -244 0
669 -323 0
669 -393 0
669 -292 0
669 -268 0
669 -300 0
670 -255 0
670 -137 0
670 -262 0
670 -298 0
670 -55 0
670 -102 0
670 -37 0
670 -161 0
670 -63 0
670 -92 0
670 -71 0
670 -100 0
670 -73 0
670 -284 0
670 -222 0
670 -30 0
670 -325 0
670 -44 0
671 -349 0
671 -212 0
671 -255 0
671 -164 0
671 -181 0
671 -52 0
671 -221 0
671 -112 0
671 -189 0
671 -282 0
671 -214 0
671 -237 0
671 -133 0
671 -27 0
671 -233 0
671 -194 0
671 -361 0
671 -315 0
671 -346 0
671 -309 0
671 -302 0
672 -341 0
672 -292 0
672 -300 0
672 -128 0
672 -305 0
672 -251 0
672 -333 0
672 -382 0
672 -24 0
672 -207 0
672 -299 0
672 -47 0
672 -97 0
672 -112 0
672 -89 0
672 -219 0
672 -37 0
672 -10 0
672 -68 0
673 -291 0
673 -176 0
673 -65 0
673 -138 0
673 -71 0
673 -24 0
673 -107 0
673 -263 0
673 -398 0
673 -60 0
673 -50 0
673 -160 0
673 -135 0
673 -272 0
673 -77 0
674 -137 0
674 -147 0
674 -261 0
674 -350 0
674 -292 0
674 -270 0
674 -193 0
674 -69 0
674 -334 0
674 -133 0
674 -365 0
674 -25 0
674 -322 0
675 -252 0
675 -243 0
675 -395 0
675 -70 0
675 -86 0
675 -31 0
675 -61 0
675 -283 0
675 -113 0
675 -157 0
675 -133 0
675 -347 0
676 -345 0
676 -266 0
676 -247 0
676 -101 0
676 -176 0
676 -280 0
676 -221 0
676 -284 0
676 -224 0
676 -184 0
676 -52 0
676 -111 0
676 -136 0
676 -70 0
676 -334 0
676 -271 0
676 -53 0
677 -367 0
677 -315 0
677 -354 0
677 -249 0
677 -186 0
677 -94 0
677 -171 0
677 -30 0
677 -205 0
677 -373 0
677 -332 0
677 -193 0
677 -28 0
677 -276 0
677 -17 0
677 -139 0
678 -320 0
678 -273 0
678 -226 0
678 -303 0
678 -67 0
678 -82 0
678 -253 0
678 -227 0
678 -170 0
678 -157 0
678 -11 0
678 -20 0
678 -284 0
678 -158 0
678 -3 0
678 -23 0
678 -89 0
678 -334 0
679 -199 0
679 -375 0
679 -166 0
679 -181 0
679 -96 0
679 -130 0
679 -173 0
679 -343 0
679 -200 0
679 -15 0
679 -282 0
679 -331 0
679 -368 0
679 -239 0
679 -268 0
680 -256 0
680 -177 0
680 -42 0
680 -29 0
680 -77 0
680 -281 0
680 -76 0
680 -85 0
680 -248 0
680 -54 0
680 -380 0
680 -118 0
680 -194 0
680 -267 0
680 -23 0
680 -184 0
680 -383 0
681 -15 0
681 -389 0
681 -144 0
681 -272 0
681 -245 0
681 -169 0
681 -222 0
681 -308 0
681 -87 0
681 -310 0
682 -297 0
682 -124 0
682 -191 0
682 -99 0
682 -84 0
682 -221 0
682 -130 0
682 -261 0
682 -87 0
682 -335 0
682 -348 0
682 -361 0
682 -235 0
682 -24 0
683 -281 0
683 -354 0
683 -260 0
683 -118 0
683 -221 0
683 -64 0
683 -393 0
683 -385 0
683 -256 0
683 -238 0
683 -167 0
683 -161 0
683 -183 0
683 -48 0
683 -81 0
683 -13 0
683 -7 0
684 -289 0
684 -182 0
684 -215 0
684 -395 0
684 -116 0
684 -341 0
684 -256 0
684 -392 0
684 -184 0
684 -365 0
684 -173 0
685 -92 0
685 -386 0
685 -360 0
685 -385 0
685 -11 0
685 -310 0
685 -201 0
685 -260 0
685 -160 0
685 -173 0
685 -379 0
685 -184 0
685 -219 0
685 -17 0
685 -4 0
686 -285 0
686 -239 0
686 -376 0
686 -46 0
686 -302 0
686 -96 0
686 -26 0
686 -3 0
686 -14 0
686 -138 0
686 -31 0
686 -16 0
686 -344 0
686 -371 0
686 -265 0
687 -346 0
687 -347 0
687 -262 0
687 -336 0
687 -273 0
687 -330 0
687 -134 0
687 -114 0
687 -90 0
687 -153 0
687 -220 0
687 -217 0
687 -10 0
687 -66 0
687 -98 0
687 -125 0
687 -256 0
687 -151 0
688 -121 0
688 -43 0
688 -293 0
688 -275 0
688 -282 0
688 -222 0
688 -301 0
688 -88 0
688 -123 0
688 -18 0
688 -87 0
688 -286 0
688 -154 0
688 -193 0
688 -187 0
688 -345 0
688 -75 0
689 -362 0
689 -251 0
689 -210 0
689 -102 0
689 -400 0
689 -43 0
689 -161 0
689 -64 0
689 -5 0
689 -298 0
689 -208 0
689 -162 0
689 -302 0
689 -58 0
689 -385 0
689 -177 0
689 -173 0
689 -377 0
689 -169 0
689 -101 0
690 -296 0
690 -165 0
690 -62 0
690 -100 0
690 -75 0
690 -198 0
690 -73 0
690 -88 0
690 -67 0
690 -63 0
690 -31 0
690 -116 0
691 -364 0
691 -367 0
691 -295 0
691 -277 0
691 -156 0
691 -178 0
691 -124 0
691 -68 0
691 -47 0
691 -117 0
691 -26 0
691 -328 0
691 -161 0
691 -99 0
691 -255 0
691 -136 0
691 -353 0
691 -220 0
691 -45 0
691 -153 0
692 -348 0
692 -320 0
692 -19 0
692 -10 0
692 -157 0
692 -367 0
692 -241 0
692 -16 0
692 -82 0
692 -27 0
692 -268 0
692 -267 0
692 -386 0
692 -216 0
693 -167 0
693 -156 0
693 -65 0
693 -237 0
693 -188 0
693 -83 0
693 -382 0
693 -247 0
694 -328 0
694 -241 0
694 -334 0
694 -122 0
694 -310 0
694 -206 0
694 -160 0
694 -198 0
694 -184 0
694 -8 0
694 -9 0
695 -280 0
695 -314 0
695 -155 0
695 -273 0
695 -249 0
695 -182 0
695 -162 0
695 -26 0
695 -297 0
695 -111 0
695 -302 0
695 -87 0
696 -357 0
696 -204 0
696 -156 0
696 -297 0
696 -398 0
696 -239 0
696 -322 0
696 -84 0
696 -152 0
696 -22 0
696 -165 0
696 -187 0
696 -57 0
696 -119 0
696 -132 0
696 -149 0
696 -366 0
696 -223 0
696 -87 0
697 -91 0
697 -86 0
697 -5 0
697 -39 0
697 -279 0
697 -59 0
697 -381 0
697 -146 0
697 -392 0
697 -53 0
697 -173 0
697 -236 0
697 -343 0
697 -396 0
697 -169 0
697 -284 0
697 -187 0
697 -97 0
697 -240 0
698 -302 0
698 -87 0
698 -84 0
698 -380 0
698 -305 0
698 -371 0
698 -125 0
698 -398 0
698 -208 0
698 -195 0
698 -151 0
698 -222 0
698 -106 0
698 -286 0
698 -124 0
698 -247 0
698 -355 0
698 -133 0
698 -313 0
698 -73 0
699 -383 0
699 -360 0
699 -185 0
699 -139 0
699 -127 0
699 -397 0
699 -187 0
699 -5 0
699 -38 0
699 -159 0
699 -99 0
699 -251 0
699 -180 0
699 -186 0
699 -389 0
699 -171 0
699 -245 0
699 -79 0
699 -20 0
699 -176 0
700 -55 0
700 -99 0
700 -12 0
700 -71 0
700 -338 0
700 -296 0
700 -223 0
700 -104 0
700 -301 0
700 -166 0
700 -382 0
700 -158 0
700 -44 0
700 -63 0
700 -259 0
700 -400 0
700 -85 0
701 -295 0
701 -378 0
701 -151 0
701 -44 0
701 -275 0
701 -154 0
701 -67 0
701 -64 0
701 -82 0
701 -231 0
701 -107 0
701 -165 0
701 -114 0
701 -122 0
701 -119 0
701 -270 0
701 -385 0
701 -36 0
701 -243 0
701 -246 0
701 -259 0
702 -335 0
702 -319 0
702 -311 0
702 -277 0
702 -90 0
702 -194 0
702 -9 0
702 -191 0
702 -124 0
702 -70 0
703 -248 0
703 -379 0
703 -151 0
703 -164 0
703 -301 0
703 -282 0
703 -6 0
703 -20 0
703 -240 0
703 -249 0
703 -272 0
703 -51 0
703 -43 0
703 -87 0
703 -339 0
703 -65 0
703 -375 0
703 -288 0
703 -213 0
704 -348 0
704 -336 0
704 -308 0
704 -357 0
704 -213 0
704 -210 0
704 -275 0
704 -126 0
704 -395 0
704 -343 0
704 -331 0
704 -50 0
704 -8 0
704 -388 0
705 -343 0
705 -296 0
705 -326 0
705 -209 0
705 -45 0
705 -357 0
705 -322 0
705 -302 0
705 -285 0
705 -342 0
705 -264 0
705 -388 0
705 -108 0
705 -392 0
705 -27 0
705 -152 0
705 -67 0
705 -224 0
705 -273 0
706 -252 0
706 -308 0
706 -371 0
706 -250 0
706 -303 0
706 -80 0
706 -48 0
706 -113 0
706 -256 0
706 -16 0
706 -317 0
706 -132 0
706 -22 0
706 -274 0
707 -328 0
707 -165 0
707 -135 0
707 -364 0
707 -89 0
707 -320 0
707 -147 0
707 -291 0
707 -271 0
707 -382 0
707 -59 0
707 -74 0
707 -232 0
707 -52 0
707 -94 0
707 -138 0
707 -61 0
707 -123 0
707 -2 0
707 -349 0
707 -141 0
708 -383 0
708 -373 0
708 -360 0
708 -378 0
708 -248 0
708 -182 0
708 -226 0
708 -42 0
708 -228 0
708 -294 0
708 -205 0
708 -377 0
708 -157 0
709 -329 0
709 -320 0
709 -272 0
709 -49 0
709 -246 0
709 -185 0
709 -262 0
709 -150 0
709 -149 0
709 -54 0
709 -24 0
709 -114 0
709 -305 0
709 -58 0
709 -10 0
709 -51 0
710 -383 0
710 -335 0
710 -339 0
710 -308 0
710 -249 0
710 -59 0
710 -225 0
710 -150 0
710 -188 0
710 -44 0
710 -244 0
710 -41 0
710 -266 0
710 -26 0
710 -27 0
710 -397 0
710 -270 0
710 -330 0
710 -291 0
711 -129 0
711 -307 0
711 -285 0
711 -264 0
711 -372 0
711 -318 0
711 -320 0
711 -288 0
711 -24 0
711 -147 0
711 -83 0
711 -224 0
712 -379 0
712 -371 0
712 -349 0
712 -210 0
712 -245 0
712 -287 0
712 -346 0
712 -362 0
712 -193 0
712 -42 0
712 -112 0
712 -321 0
712 -41 0
712 -369 0
712 -220 0
713 -226 0
713 -324 0
713 -280 0
713 -316 0
713 -156 0
713 -112 0
713 -385 0
713 -369 0
713 -293 0
713 -166 0
713 -398 0
713 -268 0
714 -368 0
714 -294 0
714 -369 0
714 -271 0
714 -342 0
714 -329 0
714 -267 0
714 -112 0
714 -2 0
714 -336 0
714 -221 0
714 -263 0
714 -42 0
714 -13 0
714 -63 0
714 -77 0
714 -310 0
714 -62 0
714 -289 0
714 -43 0
715 -341 0
715 -238 0
715 -214 0
715 -48 0
715 -89 0
715 -168 0
715 -365 0
715 -227 0
715 -309 0
715 -290 0
715 -346 0
715 -272 0
715 -8 0
715 -26 0
715 -208 0
715 -181 0
715 -318 0
715 -348 0
715 -173 0
715 -398 0
715 -206 0
715 -142 0
715 -337 0
715 -27 0
715 -4 0
715 -145 0
716 -349 0
716 -352 0
716 -207 0
716 -65 0
716 -91 0
716 -158 0
716 -140 0
716 -203 0
716 -191 0
716 -355 0
716 -214 0
716 -315 0
716 -174 0
716 -217 0
716 -92 0
716 -256 0
716 -239 0
716 -85 0
717 -333 0
717 -295 0
717 -243 0
717 -323 0
717 -147 0
717 -349 0
717 -327 0
717 -336 0
717 -101 0
717 -360 0
717 -208 0
717 -146 0
717 -28 0
717 -270 0
717 -1 0
717 -245 0
717 -269 0
717 -298 0
718 -363 0
718 -302 0
718 -272 0
718 -239 0
718 -115 0
718 -349 0
718 -275 0
718 -4 0
718 -268 0
718 -133 0
718 -123 0
718 -153 0
718 -165 0
718 -231 0
718 -248 0
719 -329 0
719 -175 0
719 -309 0
719 -2 0
719 -182 0
719 -204 0
719 -222 0
719 -137 0
719 -151 0
719 -305 0
719 -298 0
719 -70 0
719 -36 0
720 -244 0
720 -13 0
720 -202 0
720 -264 0
720 -370 0
720 -212 0
720 -263 0
720 -155 0
720 -189 0
720 -240 0
720 -267 0
720 -154 0
720 -330 0
720 -168 0
720 -392 0
720 -385 0
720 -54 0
721 -249 0
721 -245 0
721 -218 0
721 -118 0
721 -203 0
721 -101 0
721 -84 0
721 -241 0
721 -330 0
721 -52 0
721 -333 0
721 -140 0
721 -325 0
721 -287 0
721 -265 0
721 -91 0
721 -235 0
722 -13 0
722 -385 0
722 -81 0
722 -251 0
722 -349 0
722 -313 0
722 -79 0
722 -222 0
722 -93 0
722 -252 0
722 -59 0
723 -251 0
723 -318 0
723 -312 0
723 -163 0
723 -68 0
723 -301 0
723 -397 0
723 -67 0
723 -391 0
723 -353 0
723 -207 0
723 -296 0
723 -107 0
723 -54 0
723 -135 0
723 -322 0
723 -84 0
723 -127 0
723 -52 0
723 -157 0
724 -274 0
724 -177 0
724 -122 0
724 -347 0
724 -322 0
724 -184 0
724 -290 0
724 -280 0
724 -209 0
724 -207 0
724 -222 0
724 -169 0
724 -265 0
724 -24 0
724 -308 0
724 -318 0
724 -286 0
724 -66 0
724 -6 0
724 -80 0
724 -336 0
724 -4 0
725 -258 0
725 -17 0
725 -129 0
725 -302 0
725 -290 0
725 -324 0
725 -108 0
725 -184 0
725 -50 0
725 -134 0
725 -260 0
725 -102 0
725 -398 0
725 -181 0
725 -151 0
725 -256 0
725 -31 0
725 -84 0
726 -343 0
726 -185 0
726 -89 0
726 -274 0
726 -313 0
726 -309 0
726 -316 0
726 -211 0
726 -194 0
726 -188 0
726 -232 0
726 -2 0
726 -138 0
726 -3 0
727 -246 0
727 -361 0
727 -369 0
727 -82 0
727 -79 0
727 -161 0
727 -78 0
727 -50 0
727 -116 0
727 -220 0
727 -117 0
727 -342 0
727 -206 0
728 -280 0
728 -160 0
728 -124 0
728 -327 0
728 -228 0
728 -123 0
728 -28 0
728 -282 0
728 -262 0
728 -96 0
728 -161 0
728 -150 0
728 -143 0
728 -77 0
728 -169 0
728 -26 0
728 -54 0
729 -266 0
729 -253 0
729 -247 0
729 -205 0
729 -11 0
729 -125 0
729 -357 0
729 -369 0
729 -332 0
729 -311 0
729 -121 0
729 -84 0
729 -278 0
729 -391 0
729 -64 0
729 -400 0
729 -32 0
730 -383 0
730 -255 0
730 -234 0
730 -221 0
730 -101 0
730 -80 0
730 -263 0
730 -232 0
730 -349 0
730 -369 0
730 -367 0
730 -230 0
730 -81 0
730 -143 0
730 -27 0
730 -205 0
730 -136 0
731 -118 0
731 -56 0
731 -53 0
731 -68 0
731 -6 0
731 -4 0
731 -5 0
731 -81 0
731 -32 0
731 -244 0
731 -84 0
731 -2 0
731 -86 0
731 -116 0
731 -355 0
731 -252 0
731 -389 0
732 -22 0
732 -361 0
732 -239 0
732 -175 0
732 -310 0
732 -189 0
732 -49 0
732 -57 0
732 -4 0
732 -12 0
732 -34 0
733 -229 0
733 -195 0
733 -298 0
733 -219 0
733 -299 0
733 -344 0
733 -9 0
733 -144 0
733 -141 0
733 -22 0
733 -116 0
733 -149 0
733 -357 0
733 -74 0
733 -28 0
733 -307 0
733 -207 0
733 -383 0
733 -101 0
734 -264 0
734 -273 0
734 -347 0
734 -142 0
734 -282 0
734 -398 0
734 -58 0
734 -150 0
734 -352 0
734 -144 0
734 -35 0
734 -107 0
734 -28 0
734 -242 0
734 -332 0
734 -207 0
734 -54 0
734 -79 0
734 -185 0
734 -367 0
734 -373 0
734 -146 0
735 -331 0
735 -253 0
735 -381 0
735 -315 0
735 -22 0
735 -121 0
735 -137 0
735 -206 0
735 -260 0
735 -365 0
735 -393 0
735 -117 0
735 -228 0
735 -286 0
735 -116 0
735 -33 0
735 -159 0
736 -367 0
736 -160 0
736 -65 0
736 -139 0
736 -225 0
736 -228 0
736 -331 0
736 -42 0
736 -321 0
736 -79 0
736 -170 0
736 -146 0
736 -176 0
737 -348 0
737 -171 0
737 -50 0
737 -312 0
737 -5 0
737 -9 0
737 -133 0
737 -335 0
737 -367 0
737 -331 0
737 -173 0
737 -155 0
737 -16 0
737 -138 0
737 -202 0
738 -194 0
738 -96 0
738 -41 0
738 -123 0
738 -281 0
738 -219 0
738 -341 0
738 -274 0
738 -256 0
738 -33 0
738 -334 0
738 -201 0
738 -104 0
738 -190 0
738 -236 0
738 -129 0
738 -11 0
738 -71 0
738 -313 0
738 -220 0
739 -382 0
739 -387 0
739 -272 0
739 -167 0
739 -55 0
739 -24 0
739 -305 0
739 -84 0
739 -284 0
739 -90 0
739 -357 0
739 -117 0
739 -62 0
739 -89 0
739 -40 0
739 -76 0
740 -212 0
740 -308 0
740 -381 0
740 -115 0
740 -159 0
740 -385 0
740 -321 0
740 -154 0
740 -260 0
740 -342 0
740 -337 0
740 -349 0
740 -89 0
740 -338 0
740 -138 0
741 -354 0
741 -210 0
741 -349 0
741 -289 0
741 -94 0
741 -314 0
741 -397 0
741 -58 0
741 -144 0
741 -31 0
741 -140 0
741 -365 0
741 -90 0
741 -256 0
741 -95 0
741 -296 0
741 -169 0
741 -156 0
741 -53 0
741 -42 0
741 -89 0
741 -18 0
741 -16 0
741 -158 0
741 -180 0
741 -250 0
741 -174 0
742 -347 0
742 -246 0
742 -212 0
742 -240 0
742 -118 0
742 -47 0
742 -156 0
742 -188 0
742 -391 0
742 -99 0
742 -136 0
742 -338 0
742 -116 0
742 -227 0
742 -42 0
742 -132 0
743 -385 0
743 -171 0
743 -179 0
743 -199 0
743 -303 0
743 -198 0
743 -78 0
743 -8 0
743 -345 0
743 -337 0
743 -350 0
743 -281 0
743 -230 0
743 -31 0
743 -194 0
743 -339 0
743 -7 0
743 -48 0
744 -280 0
744 -185 0
744 -322 0
744 -303 0
744 -97 0
744 -189 0
744 -218 0
744 -6 0
744 -1 0
744 -19 0
744 -384 0
744 -221 0
744 -365 0
744 -240 0
744 -299 0
744 -143 0
745 -360 0
745 -237 0
745 -115 0
745 -170 0
745 -350 0
745 -112 0
745 -8 0
745 -193 0
745 -17 0
745 -301 0
745 -386 0
746 -258 0
746 -238 0
746 -125 0
746 -199 0
746 -294 0
746 -195 0
746 -390 0
746 -158 0
746 -106 0
746 -164 0
746 -115 0
746 -71 0
746 -68 0
746 -397 0
746 -28 0
746 -353 0
747 -231 0
747 -390 0
747 -285 0
747 -147 0
747 -271 0
747 -181 0
747 -400 0
747 -78 0
747 -46 0
747 -40 0
747 -3 0
747 -286 0
748 -153 0
748 -129 0
748 -113 0
748 -27 0
748 -143 0
748 -333 0
748 -352 0
748 -340 0
748 -298 0
748 -286 0
748 -176 0
748 -90 0
748 -303 0
748 -386 0
748 -335 0
748 -70 0
748 -181 0
748 -49 0
748 -218 0
748 -288 0
748 -12 0
749 -354 0
749 -358 0
749 -326 0
749 -344 0
749 -175 0
749 -164 0
749 -265 0
749 -91 0
749 -252 0
749 -345 0
749 -170 0
749 -59 0
749 -278 0
749 -156 0
749 -78 0
749 -45 0
749 -391 0
749 -235 0
750 -290 0
750 -369 0
750 -208 0
750 -212 0
750 -176 0
750 -127 0
750 -399 0
750 -184 0
750 -250 0
750 -130 0
750 -389 0
750 -140 0
750 -321 0
750 -240 0
750 -99 0
750 -244 0
750 -122 0
750 -388 0
751 -345 0
751 -292 0
751 -45 0
751 -300 0
751 -141 0
751 -364 0
751 -182 0
751 -26 0
751 -159 0
751 -311 0
751 -289 0
751 -216 0
751 -293 0
751 -297 0
751 -324 0
751 -80 0
751 -12 0
751 -10 0
752 -213 0
752 -310 0
752 -93 0
752 -173 0
752 -61 0
752 -392 0
752 -243 0
752 -235 0
752 -95 0
752 -354 0
752 -63 0
752 -222 0
752 -234 0
753 -340 0
753 -56 0
753 -59 0
753 -281 0
753 -398 0
753 -12 0
753 -224 0
753 -246 0
753 -343 0
753 -269 0
753 -261 0
753 -253 0
753 -44 0
753 -312 0
753 -138 0
753 -289 0
753 -393 0
753 -370 0
753 -220 0
753 -75 0
754 -75 0
754 -77 0
754 -365 0
754 -340 0
754 -20 0
754 -168 0
754 -388 0
754 -79 0
754 -62 0
754 -394 0
754 -102 0
754 -206 0
754 -35 0
754 -329 0
755 -330 0
755 -167 0
755 -221 0
755 -86 0
755 -327 0
755 -201 0
755 -376 0
755 -104 0
755 -153 0
755 -391 0
755 -217 0
755 -20 0
755 -103 0
755 -68 0
755 -28 0
756 -397 0
756 -365 0
756 -358 0
756 -281 0
756 -262 0
756 -392 0
756 -286 0
756 -237 0
756 -156 0
756 -239 0
756 -394 0
756 -99 0
756 -279 0
756 -150 0
756 -144 0
756 -126 0
756 -30 0
757 -101 0
757 -107 0
757 -220 0
757 -362 0
757 -356 0
757 -167 0
757 -1 0
757 -197 0
757 -35 0
757 -59 0
757 -286 0
757 -306 0
757 -111 0
757 -348 0
757 -280 0
757 -37 0
757 -198 0
758 -110 0
758 -193 0
758 -138 0
758 -173 0
758 -367 0
758 -306 0
758 -48 0
758 -111 0
758 -226 0
758 -18 0
758 -142 0
758 -5 0
758 -391 0
758 -93 0
758 -17 0
759 -135 0
759 -331 0
759 -339 0
759 -171 0
759 -387 0
759 -265 0
759 -396 0
759 -227 0
759 -358 0
759 -28 0
759 -186 0
759 -263 0
759 -400 0
759 -392 0
759 -114 0
759 -86 0
759 -36 0
759 -289 0
760 -227 0
760 -265 0
760 -87 0
760 -388 0
760 -319 0
760 -3 0
760 -355 0
760 -171 0
760 -321 0
760 -26 0
760 -275 0
760 -144 0
761 -270 0
761 -146 0
761 -381 0
761 -285 0
761 -27 0
761 -244 0
761 -115 0
761 -366 0
761 -117 0
761 -3 0
762 -278 0
762 -95 0
762 -369 0
762 -290 0
762 -185 0
762 -250 0
762 -42 0
762 -386 0
762 -78 0
762 -143 0
762 -84 0
762 -150 0
762 -336 0
762 -325 0
762 -32 0
762 -18 0
762 -361 0
762 -395 0
763 -380 0
763 -358 0
763 -356 0
763 -298 0
763 -352 0
763 -300 0
763 -377 0
763 -362 0
763 -103 0
763 -39 0
763 -394 0
763 -23 0
763 -211 0
763 -242 0
763 -332 0
763 -8 0
763 -6 0
764 -172 0
764 -370 0
764 -354 0
764 -347 0
764 -22 0
764 -42 0
764 -346 0
764 -107 0
764 -18 0
764 -118 0
764 -219 0
764 -271 0
764 -59 0
764 -121 0
764 -368 0
764 -206 0
764 -308 0
765 -227 0
765 -291 0
765 -367 0
765 -245 0
765 -192 0
765 -63 0
765 -286 0
765 -179 0
765 -122 0
765 -127 0
765 -130 0
765 -25 0
765 -224 0
765 -60 0
766 -283 0
766 -293 0
766 -384 0
766 -233 0
766 -327 0
766 -243 0
766 -124 0
766 -388 0
766 -176 0
766 -290 0
766 -223 0
766 -348 0
766 -64 0
766 -2 0
766 -130 0
766 -358 0
766 -37 0
766 -74 0
766 -36 0
767 -27 0
767 -197 0
767 -390 0
767 -382 0
767 -326 0
767 -325 0
767 -379 0
767 -229 0
767 -179 0
767 -311 0
767 -364 0
767 -194 0
767 -366 0
767 -222 0
767 -316 0
767 -20 0
767 -69 0
768 -341 0
768 -172 0
768 -74 0
768 -140 0
768 -132 0
768 -89 0
768 -220 0
768 -294 0
768 -281 0
768 -15 0
768 -380 0
768 -71 0
768 -8 0
768 -399 0
768 -383 0
768 -263 0
768 -169 0
768 -83 0
768 -223 0
769 -285 0
769 -375 0
769 -321 0
769 -394 0
769 -289 0
769 -84 0
769 -5 0
769 -113 0
769 -101 0
770 -258 0
770 -27 0
770 -17 0
770 -380 0
770 -268 0
770 -207 0
770 -68 0
770 -202 0
770 -323 0
770 -232 0
770 -209 0
770 -114 0
771 -374 0
771 -108 0
771 -36 0
771 -78 0
771 -1 0
771 -392 0
771 -224 0
771 -218 0
771 -38 0
771 -328 0
771 -16 0
771 -294 0
771 -132 0
771 -336 0
771 -274 0
772 -307 0
772 -342 0
772 -108 0
772 -127 0
772 -400 0
772 -4 0
772 -212 0
772 -337 0
772 -247 0
772 -18 0
772 -11 0
772 -35 0
772 -20 0
772 -168 0
772 -348 0
773 -111 0
773 -206 0
773 -390 0
773 -313 0
773 -290 0
773 -375 0
773 -312 0
773 -287 0
773 -271 0
773 -68 0
773 -26 0
773 -140 0
773 -182 0
773 -370 0
773 -358 0
773 -31 0
773 -317 0
774 -330 0
774 -312 0
774 -114 0
774 -225 0
774 -331 0
774 -232 0
774 -23 0
774 -108 0
774 -22 0
774 -85 0
774 -68 0
774 -275 0
775 -360 0
775 -155 0
775 -323 0
775 -372 0
775 -317 0
775 -134 0
775 -106 0
775 -224 0
775 -278 0
775 -110 0
775 -18 0
775 -42 0
775 -104 0
775 -15 0
775 -175 0
775 -277 0
775 -264 0
775 -36 0
776 -302 0
776 -379 0
776 -175 0
776 -312 0
776 -181 0
776 -308 0
776 -84 0
776 -4 0
776 -180 0
776 -52 0
776 -392 0
776 -82 0
776 -202 0
777 -389 0
777 -166 0
777 -154 0
777 -36 0
777 -119 0
777 -272 0
777 -193 0
777 -269 0
777 -79 0
777 -256 0
777 -71 0
777 -397 0
777 -216 0
778 -368 0
778 -354 0
778 -322 0
778 -207 0
778 -203 0
778 -321 0
778 -375 0
778 -356 0
778 -59 0
778 -284 0
778 -326 0
778 -38 0
778 -343 0
778 -341 0
778 -32 0
778 -69 0
778 -63 0
779 -317 0
779 -286 0
779 -106 0
779 -128 0
779 -395 0
779 -34 0
779 -141 0
779 -81 0
779 -74 0
779 -371 0
779 -123 0
779 -386 0
779 -277 0
779 -191 0
779 -93 0
779 -310 0
779 -170 0
779 -52 0
780 -338 0
780 -183 0
780 -388 0
780 -271 0
780 -185 0
780 -355 0
780 -317 0
780 -78 0
780 -79 0
780 -158 0
780 -219 0
780 -99 0
780 -244 0
780 -18 0
781 -337 0
781 -74 0
781 -138 0
781 -125 0
781 -290 0
781 -292 0
781 -122 0
781 -376 0
781 -282 0
781 -167 0
781 -287 0
781 -59 0
781 -31 0
781 -84 0
781 -211 0
781 -17 0
781 -279 0
781 -345 0
781 -372 0
781 -398 0
782 -238 0
782 -390 0
782 -383 0
782 -362 0
782 -361 0
782 -255 0
782 -329 0
782 -386 0
782 -33 0
782 -395 0
782 -144 0
782 -270 0
782 -191 0
782 -211 0
782 -354 0
782 -322 0
783 -250 0
783 -129 0
783 -45 0
783 -370 0
783 -208 0
783 -246 0
783 -249 0
783 -112 0
783 -378 0
783 -23 0
783 -325 0
784 -110 0
784 -201 0
784 -298 0
784 -265 0
784 -313 0
784 -208 0
784 -355 0
784 -340 0
784 -307 0
784 -68 0
784 -211 0
784 -99 0
784 -399 0
784 -85 0
784 -271 0
784 -98 0
784 -21 0
784 -120 0
785 -309 0
785 -306 0
785 -245 0
785 -213 0
785 -145 0
785 -162 0
785 -6 0
785 -292 0
785 -103 0
785 -229 0
785 -27 0
785 -119 0
785 -383 0
785 -77 0
785 -282 0
785 -311 0
786 -234 0
786 -326 0
786 -329 0
786 -112 0
786 -280 0
786 -225 0
786 -108 0
786 -270 0
786 -284 0
786 -64 0
786 -269 0
787 -253 0
787 -48 0
787 -336 0
787 -1 0
787 -248 0
787 -328 0
787 -50 0
787 -388 0
787 -153 0
787 -314 0
787 -27 0
787 -189 0
787 -389 0
787 -365 0
787 -46 0
787 -400 0
787 -324 0
788 -19 0
788 -390 0
788 -386 0
788 -313 0
788 -206 0
788 -255 0
788 -260 0
788 -310 0
788 -298 0
788 -170 0
788 -65 0
788 -174 0
788 -165 0
788 -145 0
788 -281 0
789 -354 0
789 -161 0
789 -129 0
789 -385 0
789 -57 0
789 -333 0
789 -24 0
789 -312 0
789 -33 0
789 -179 0
789 -109 0
789 -390 0
789 -264 0
789 -177 0
789 -117 0
789 -3 0
789 -399 0
789 -252 0
789 -319 0
789 -325 0
789 -20 0
790 -338 0
790 -132 0
790 -169 0
790 -268 0
790 -44 0
790 -355 0
790 -88 0
790 -60 0
790 -319 0
790 -68 0
790 -166 0
790 -394 0
790 -107 0
790 -198 0
790 -126 0
790 -35 0
790 -142 0
790 -299 0
791 -362 0
791 -326 0
791 -306 0
791 -377 0
791 -234 0
791 -124 0
791 -162 0
791 -111 0
791 -34 0
791 -84 0
791 -183 0
791 -178 0
791 -225 0
791 -292 0
791 -50 0
791 -159 0
791 -328 0
791 -209 0
792 -233 0
792 -225 0
792 -160 0
792 -277 0
792 -202 0
792 -228 0
792 -400 0
792 -147 0
792 -40 0
792 -344 0
792 -97 0
792 -194 0
792 -282 0
792 -266 0
792 -328 0
792 -180 0
792 -102 0
792 -309 0
793 -175 0
793 -226 0
793 -176 0
793 -148 0
793 -188 0
793 -391 0
793 -90 0
793 -48 0
793 -228 0
793 -200 0
793 -275 0
793 -309 0
793 -44 0
793 -28 0
793 -261 0
793 -50 0
793 -288 0
793 -63 0
793 -153 0
793 -177 0
793 -51 0
794 -208 0
794 -377 0
794 -392 0
794 -216 0
794 -388 0
794 -273 0
794 -291 0
794 -128 0
794 -236 0
794 -36 0
794 -237 0
794 -235 0
794 -319 0
794 -122 0
794 -132 0
794 -15 0
795 -319 0
795 -225 0
795 -234 0
795 -352 0
795 -196 0
795 -230 0
795 -271 0
795 -301 0
795 -400 0
795 -7 0
795 -82 0
795 -70 0
795 -340 0
795 -300 0
795 -46 0
795 -387 0
796 -384 0
796 -309 0
796 -294 0
796 -257 0
796 -169 0
796 -167 0
796 -355 0
796 -186 0
796 -293 0
796 -126 0
796 -30 0
796 -312 0
796 -273 0
796 -141 0
796 -116 0
796 -195 0
796 -79 0
797 -348 0
797 -239 0
797 -228 0
797 -136 0
797 -396 0
797 -391 0
797 -120 0
797 -34 0
797 -384 0
797 -320 0
797 -130 0
797 -81 0
797 -223 0
797 -248 0
797 -369 0
797 -328 0
797 -104 0
798 -363 0
798 -203 0
798 -121 0
798 -65 0
798 -130 0
798 -35 0
798 -133 0
798 -369 0
798 -84 0
798 -382 0
799 -311 0
799 -163 0
799 -155 0
799 -316 0
799 -70 0
799 -171 0
799 -279 0
799 -237 0
799 -343 0
799 -79 0
799 -122 0
799 -107 0
800 -366 0
800 -373 0
800 -306 0
800 -210 0
800 -263 0
800 -393 0
800 -91 0
800 -311 0
800 -3 0
800 -108 0
800 -97 0
800 -11 0
226 170 36 41 4 38 84 125 219 137 13 241 119 47 331 367 48 64 -401 0
236 103 251 154 102 316 23 6 130 271 252 395 364 241 296 139 287 275 22 245 88 339 -402 0
240 209 191 398 39 40 187 177 72 66 48 317 154 181 380 69 64 339 241 363 234 216 -403 0
355 273 271 267 112 28 374 265 385 89 380 393 356 225 -404 0
199 240 276 260 216 59 282 96 78 58 342 180 28 3 111 363 388 -405 0
207 249 260 222 109 130 228 70 28 7 174 66 179 137 294 380 -406 0
308 156 102 400 134 248 32 210 220 187 25 268 176 183 213 324 5 -407 0
262 342 168 179 103 293 93 90 55 119 253 339 219 382 -408 0
355 303 293 136 194 39 125 63 19 363 348 354 305 -409 0
385 312 204 185 392 78 88 24 4 284 101 270 85 250 330 322 325 -410 0
346 290 103 369 120 33 385 292 143 81 77 25 69 300 83 66 124 -411 0
314 255 196 393 114 32 5 57 231 180 135 141 395 335 121 -412 0
335 317 203 152 137 128 196 144 374 64 308 134 275 102 98 85 20 57 -413 0
252 340 271 76 306 120 269 143 367 394 147 104 390 7 119 21 -414 0
246 255 243 182 97 339 318 7 83 161 27 63 84 334 -415 0
325 259 285 377 239 78 318 6 300 75 67 372 108 41 -416 0
352 243 150 133 246 28 276 72 398 140 90 227 29 331 387 346 11 332 -417 0
357 376 306 199 43 23 59 88 2 337 11 13 390 388 -418 0
379 293 88 35 4 174 36 312 399 139 83 329 373 98 222 100 -419 0
347 348 351 314 134 220 101 374 71 386 47 138 -420 0
246 327 128 170 82 330 40 233 217 226 337 11 22 220 259 92 302 74 99 35 -421 0
352 124 139 336 288 40 194 252 238 274 210 205 85 51 6 319 64 13 154 350 -422 0
233 236 216 139 369 204 330 392 117 191 34 95 357 44 268 365 107 -423 0
306 374 204 106 152 286 372 97 265 23 279 241 40 45 93 21 320 -424 0
232 43 178 187 241 374 231 299 66 251 309 85 161 248 191 120 -425 0
254 155 279 64 71 23 141 78 270 197 72 55 22 281 194 142 364 294 -426 0
324 167 142 33 353 340 217 31 192 363 16 29 333 -427 0
159 330 156 200 218 82 172 287 132 135 241 90 262 36 19 390 324 362 108 -428 0
368 356 145 39 35 377 214 297 87 150 232 125 386 -429 0
78 5 308 235 223 204 193 201 294 210 353 156 324 329 347 131 21 -430 0
312 240 131 184 301 206 76 38 235 352 46 85 233 345 128 44 153 309 380 -431 0
216 209 246 279 93 76 169 123 40 35 204 1 190 189 392 197 198 69 95 24 354 79 359 187 -432 0
236 284 86 39 223 3 206 397 198 372 107 272 202 -433 0
312 246 195 228 14 353 122 194 364 184 325 1 25 145 -434 0
179 233 23 6 165 172 190 74 151 235 247 347 158 -435 0
162 49 6 206 157 116 202 309 344 -436 0
208 342 295 167 31 34 59 106 397 190 150 87 152 38 254 161 67 33 325 383 235 -437 0
276 102 215 185 90 28 396 19 311 85 381 367 353 225 357 346 322 393 104 -438 0
137 78 43 52 177 193 281 263 36 151 213 235 331 101 57 267 -439 0
112 376 209 61 372 63 231 324 145 28 247 11 365 309 272 312 -440 0
225 321 369 299 215 49 235 393 304 81 333 335 317 229 48 274 324 -441 0
348 357 242 377 126 117 257 263 231 57 79 76 -442 0
182 301 144 82 78 55 2 224 19 35 369 212 67 178 206 367 61 394 -443 0
387 365 351 192 286 127 163 64 242 2 17 137 320 123 193 19 54 297 -444 0
366 376 169 246 347 139 94 221 375 70 327 137 180 1 66 251 196 381 386 361 116 -445 0
254 344 196 273 124 353 96 39 10 241 227 234 89 42 190 222 -446 0
351 313 294 324 254 215 123 226 17 28 101 279 150 190 69 71 375 332 168 359 -447 0
316 199 46 26 38 238 95 256 125 133 389 113 23 180 96 -448 0
131 145 133 397 111 58 151 378 19 335 197 18 157 350 302 154 -449 0
389 254 112 378 142 15 67 8 311 4 324 320 131 222 -450 0
251 230 173 130 398 43 302 244 157 292 229 220 60 29 370 272 106 -451 0
242 248 369 155 176 115 392 182 295 350 129 5 149 54 167 71 237 208 64 150 382 72 363 358 69 -452 0
354 367 306 26 95 336 214 231 44 72 20 63 -453 0
310 226 277 148 160 258 316 142 382 246 224 -454 0
245 189 303 178 112 150 39 24 64 329 116 25 346 22 280 378 357 260 -455 0
236 163 263 330 352 128 346 65 154 215 301 391 117 144 193 55 320 133 181 -456 0
259 163 160 218 342 67 290 318 375 72 110 122 51 227 62 75 387 -457 0
385 152 68 184 126 14 136 123 89 399 125 6 27 361 188 284 388 354 285 324 201 -458 0
239 342 302 124 65 190 360 153 74 51 313 244 120 -459 0
360 290 185 175 237 152 199 248 142 93 33 343 54 182 116 201 11 65 81 395 399 -460 0
303 269 121 78 345 130 236 6 69 70 84 13 20 360 74 363 29 47 379 51 -461 0
332 264 159 267 364 41 26 28 145 309 -462 0
264 203 56 121 309 222 226 350 85 360 45 389 239 353 51 130 75 89 -463 0
234 284 144 96 49 40 286 35 327 65 17 319 193 25 27 -464 0
207 112 209 239 394 61 354 265 144 390 353 98 57 142 343 -465 0
225 336 134 40 349 337 85 22 26 172 27 163 91 -466 0
163 169 46 179 276 303 70 275 360 273 104 255 348 350 322 384 272 366 -467 0
290 148 303 283 85 180 89 83 53 -468 0
309 269 289 62 399 238 219 46 138 63 86 82 -469 0
59 2 387 90 190 220 66 219 135 264 347 121 211 27 -470 0
147 36 17 14 157 172 222 113 317 378 226 374 189 136 174 90 228 -471 0
352 378 170 121 71 55 135 36 85 95 173 119 77 22 18 177 384 -472 0
369 240 330 121 141 194 71 233 96 326 183 373 382 104 18 351 158 300 -473 0
237 168 184 68 279 202 171 313 280 298 284 110 54 83 48 196 -474 0
298 321 62 215 126 96 35 153 91 186 259 198 81 214 143 -475 0
321 349 191 99 84 75 334 21 33 206 351 315 342 -476 0
376 379 240 344 137 245 73 313 353 83 175 178 110 350 337 -477 0
308 207 377 65 42 133 338 157 197 92 304 6 376 120 77 246 163 12 309 180 -478 0
240 167 200 154 397 230 111 288 64 129 361 140 197 135 293 356 27 20 162 333 -479 0
248 219 137 166 52 64 59 375 43 205 81 28 249 295 61 49 -480 0
312 351 248 109 221 400 94 244 300 31 214 49 85 -481 0
151 340 289 137 267 397 86 252 84 66 120 72 180 368 400 3 285 48 219 276 -482 0
173 126 300 281 113 32 191 17 51 287 18 122 371 104 55 -483 0
126 378 86 73 78 242 328 101 351 255 343 -484 0
312 53 121 60 359 48 77 274 -485 0
237 263 90 74 54 213 307 387 30 348 12 -486 0
385 255 333 62 259 239 117 350 168 54 346 285 277 306 238 322 -487 0
128 109 393 147 318 338 187 296 214 110 199 232 66 289 281 250 325 -488 0
199 385 333 276 203 105 26 194 11 28 265 81 381 292 24 61 -489 0
318 195 246 378 68 55 235 132 144 231 66 163 19 153 -490 0
199 219 148 141 114 80 168 395 274 296 217 18 106 136 363 104 290 360 326 276 -491 0
207 379 203 291 279 121 58 256 107 71 83 2 129 88 289 389 77 370 390 -492 0
189 355 397 133 96 82 350 206 337 273 79 210 154 -493 0
281 103 97 210 71 34 242 109 325 383 180 69 107 286 49 165 -494 0
348 276 312 259 207 330 127 171 141 103 197 337 122 51 42 185 379 287 153 -495 0
375 68 202 117 301 201 360 34 361 121 -496 0
373 268 369 208 174 196 372 127 279 1 156 67 54 343 29 -497 0
252 327 109 279 167 232 136 238 261 116 70 101 389 92 95 12 69 -498 0
372 174 175 232 296 337 138 136 39 29 206 60 244 339 229 367 308 259 119 220 -499 0
368 298 218 219 303 297 262 191 130 80 4 137 189 254 116 396 79 -500 0
339 307 166 190 215 153 110 254 366 132 107 341 193 54 157 237 120 -501 0
162 191 88 80 39 120 331 83 287 276 345 157 -502 0
280 336 137 118 100 295 166 61 10 91 285 358 129 16 161 -503 0
199 295 344 315 114 396 223 231 174 116 128 9 207 198 197 10 225 -504 0
306 209 30 3 8 40 219 250 193 346 138 148 75 166 357 359 385 4 211 124 321 -505 0
360 310 159 168 273 229 204 394 30 195 80 368 199 285 69 74 15 294 165 -506 0
348 222 103 224 395 8 266 244 42 227 167 370 259 161 110 315 -507 0
339 322 265 156 152 127 175 44 392 329 48 311 43 143 110 197 83 75 14 51 -508 0
167 289 44 198 58 242 129 86 287 177 41 8 397 -509 0
359 294 323 200 162 344 17 243 361 146 307 -510 0
289 303 267 126 150 136 344 369 35 400 180 99 71 383 201 113 -511 0
387 368 309 151 260 156 94 137 84 266 73 236 238 187 149 41 132 227 -512 0
167 378 100 239 327 160 90 55 299 235 106 135 376 76 98 215 322 60 278 -513 0
239 242 344 178 147 102 117 21 2 84 334 25 20 319 362 313 226 -514 0
362 272 199 375 333 378 360 137 103 131 44 50 284 214 150 146 314 206 283 202 -515 0
277 46 78 143 292 258 231 343 187 386 31 227 -516 0
232 173 133 60 136 161 342 109 352 306 370 307 261 311 399 180 -517 0
373 336 134 112 50 109 221 400 121 38 193 287 281 278 67 175 284 83 43 -518 0
362 151 191 144 397 93 61 237 80 34 90 379 283 161 18 180 -519 0
308 286 327 111 93 91 250 253 173 206 105 326 58 366 296 -520 0
142 139 100 293 93 33 49 286 394 149 127 108 344 386 264 199 340 201 220 -521 0
209 163 168 314 182 252 271 392 146 222 35 323 368 226 13 -522 0
316 349 279 378 140 122 27 332 111 95 29 275 -523 0
380 354 251 376 311 94 99 166 293 332 276 8 305 345 257 -524 0
324 290 358 170 141 374 341 227 266 138 119 120 327 257 394 149 -525 0
168 349 127 103 47 236 232 228 158 91 114 332 229 48 215 361 329 354 -526 0
145 53 363 113 45 281 375 112 -527 0
361 313 249 148 145 115 386 46 355 194 282 242 6 326 153 111 190 146 98 75 20 74 22 396 273 -528 0
339 302 168 222 160 293 203 181 141 126 102 14 55 356 77 22 183 151 66 5 25 316 332 381 -529 0
179 333 188 375 73 1 374 16 143 35 92 48 69 253 310 88 311 297 259 42 -530 0
361 298 375 206 164 36 327 215 11 288 364 44 367 -531 0
144 2 63 33 237 143 378 242 346 193 321 -532 0
202 396 226 23 43 55 31 130 334 122 373 76 338 235 -533 0
383 326 233 237 199 378 14 9 387 341 345 183 42 198 -534 0
332 322 312 249 234 68 123 320 41 287 48 244 299 238 371 69 38 -535 0
245 175 164 56 105 100 146 73 308 373 27 322 -536 0
290 159 127 131 37 96 58 172 193 49 143 -537 0
357 259 246 392 347 179 30 132 116 170 388 -538 0
346 322 210 209 94 68 293 284 298 43 38 91 143 10 29 319 51 -539 0
367 192 185 355 347 173 99 90 398 372 292 327 11 60 183 288 196 18 -540 0
200 147 344 123 31 400 156 51 373 272 11 326 192 285 -541 0
208 192 303 169 156 388 347 96 58 111 379 317 68 304 266 45 40 92 85 119 -542 0
196 189 94 65 286 276 78 7 -543 0
168 257 375 207 176 297 67 253 180 122 155 82 373 332 302 -544 0
209 291 282 188 86 4 230 146 259 -545 0
360 164 160 351 62 170 328 36 8 261 217 252 70 48 39 205 175 42 370 206 -546 0
248 210 189 65 297 175 126 96 158 396 184 196 100 337 380 275 -547 0
389 384 390 346 323 249 352 139 108 354 103 398 82 275 70 71 220 75 193 178 -548 0
360 254 264 291 50 322 214 283 81 103 66 308 96 2 216 373 -549 0
212 255 344 100 295 238 337 227 42 204 145 -550 0
205 122 210 276 370 167 327 349 179 204 183 103 286 136 170 10 48 -551 0
199 159 163 273 200 178 189 156 169 176 282 233 4 119 3 -552 0
314 369 123 32 315 159 1 266 151 161 345 270 102 363 -553 0
167 179 50 284 173 398 105 61 90 32 157 29 227 290 264 -554 0
190 153 332 185 176 192 169 143 310 400 175 396 344 76 -555 0
382 276 196 277 160 335 191 61 33 239 219 20 345 289 269 -556 0
357 255 213 320 62 137 174 173 162 17 247 300 177 153 81 229 15 321 -557 0
155 340 179 164 189 46 170 154 275 191 13 89 249 251 192 143 175 -558 0
165 386 87 209 296 185 148 175 211 105 154 161 181 64 399 -559 0
290 372 277 340 234 46 44 209 150 96 80 296 235 110 389 181 310 -560 0
321 151 139 131 397 182 9 167 242 16 287 351 220 149 42 85 367 373 106 51 254 -561 0
257 178 256 190 88 111 122 173 20 384 365 280 52 386 -562 0
283 157 83 132 291 342 108 340 315 279 396 100 65 134 381 195 326 2 -563 0
348 281 236 321 115 126 123 253 261 113 395 -564 0
254 321 137 3 37 172 66 107 261 18 34 281 243 379 363 304 -565 0
289 100 301 308 91 61 51 184 188 89 128 340 87 280 387 198 253 -566 0
278 343 57 104 326 371 174 163 200 160 196 319 398 372 61 171 -567 0
382 370 44 68 37 50 305 24 142 -568 0
343 331 108 209 13 150 395 168 200 145 184 386 203 9 -569 0
295 118 127 293 232 114 284 35 350 144 18 326 325 101 358 267 87 117 -570 0
180 216 382 356 329 155 175 159 127 142 42 281 9 35 19 -571 0
221 198 276 162 216 2 36 231 193 180 232 274 -572 0
316 234 139 91 193 4 87 29 366 204 82 134 329 172 -573 0
247 45 348 336 199 246 192 92 326 136 289 46 54 332 397 150 41 212 198 195 355 -574 0
235 246 316 91 178 62 107 34 70 30 284 -575 0
259 385 277 163 218 213 94 90 2 189 84 292 287 166 45 113 161 40 -576 0
359 336 230 137 221 136 130 209 82 78 198 156 205 274 172 235 95 61 301 -577 0
368 164 53 267 273 154 47 69 247 26 309 27 369 253 8 115 42 249 -578 0
324 156 108 182 265 331 230 294 87 226 77 187 177 17 270 247 -579 0
208 269 219 47 118 359 223 60 56 83 159 383 -580 0
295 23 76 224 33 235 263 29 71 282 27 280 346 309 -581 0
294 375 360 216 166 23 36 235 352 391 170 227 73 148 135 270 106 215 -582 0
233 374 160 97 65 266 62 252 249 120 131 122 63 45 354 189 -583 0
317 286 176 145 267 221 131 377 28 177 371 25 173 228 311 -584 0
337 231 125 51 319 239 246 191 210 66 303 322 29 395 164 9 204 12 323 -585 0
336 291 200 366 267 228 311 69 30 266 338 241 36 74 121 219 -586 0
62 24 19 284 292 9 54 81 307 365 260 36 -587 0
199 277 103 271 267 44 173 186 287 115 257 319 286 110 307 112 191 357 -588 0
386 310 164 64 291 287 304 155 214 227 232 18 11 -589 0
347 315 216 164 275 67 64 14 150 39 195 296 269 231 364 153 146 29 20 172 69 180 78 384 -590 0
314 44 166 392 151 343 352 60 183 181 127 160 357 14 169 383 129 275 -591 0
214 217 16 15 382 294 259 78 204 209 119 19 379 109 53 96 370 149 393 -592 0
213 200 215 154 354 76 268 4 348 129 95 92 79 107 -593 0
103 184 332 13 75 202 342 71 170 81 273 146 -594 0
283 238 259 22 17 9 124 364 28 43 390 226 184 5 -595 0
374 252 222 160 106 265 284 76 7 27 310 145 149 -596 0
346 339 209 260 392 23 80 93 172 16 118 107 155 60 383 193 82 81 -597 0
240 196 176 202 91 7 223 186 308 189 76 25 66 152 362 354 262 274 -598 0
296 149 116 21 316 125 371 19 269 130 12 143 -599 0
332 325 246 156 105 30 67 6 3 88 320 296 182 350 308 149 -600 0
351 379 179 137 50 145 393 216 174 223 193 352 35 116 -601 0
243 56 100 215 224 191 123 62 207 99 143 16 93 103 245 113 172 384 125 72 388 352 377 356 65 -602 0
300 247 343 95 85 77 367 370 346 383 315 254 98 224 189 162 330 155 -603 0
382 245 375 159 349 230 216 128 137 134 90 231 91 63 187 89 297 87 379 -604 0
318 156 224 166 130 136 12 209 287 190 74 223 173 231 128 107 29 45 390 16 339 -605 0
222 194 63 311 181 25 369 400 140 236 390 310 301 -606 0
253 197 217 390 259 209 330 379 199 3 5 84 359 251 45 35 -607 0
266 22 251 85 329 207 245 118 102 269 330 293 114 184 73 -608 0
283 238 187 397 22 396 348 7 276 268 51 47 308 386 94 62 204 206 76 -609 0
190 157 57 119 83 12 381 263 363 15 195 284 237 68 325 17 207 10 9 -610 0
246 168 68 284 228 398 43 4 371 244 107 158 136 149 280 366 -611 0
337 190 165 79 119 258 259 299 196 302 386 101 28 371 268 103 -612 0
383 365 360 332 329 320 248 340 263 109 276 170 186 242 91 15 178 31 -613 0
321 291 106 399 136 187 201 220 241 197 300 10 164 359 107 -614 0
316 200 288 154 199 34 348 283 226 205 237 285 194 272 10 -615 0
390 263 152 115 103 100 186 286 169 248 56 120 36 270 83 18 344 -616 0
317 242 352 372 279 295 382 270 337 182 165 93 356 227 116 183 371 -617 0
380 299 230 189 112 293 136 88 4 323 354 84 304 345 375 102 99 238 97 -618 0
386 314 199 128 279 224 36 313 149 146 11 345 -619 0
385 399 398 336 263 138 37 217 125 132 152 69 39 85 -620 0
233 179 212 17 74 138 202 371 323 140 389 318 90 269 -621 0
380 378 167 195 148 106 76 31 334 150 104 62 161 -622 0
209 342 142 297 221 147 141 162 52 21 43 372 329 186 318 187 70 102 185 -623 0
151 330 263 38 65 2 295 194 335 52 373 249 357 257 50 125 253 -624 0
350 284 166 305 245 212 211 268 291 219 188 320 40 398 105 133 88 210 -625 0
317 289 224 257 286 7 148 190 250 205 359 347 -626 0
324 280 245 243 251 88 348 212 119 157 396 146 12 -627 0
352 176 105 5 33 93 180 183 143 138 22 74 229 363 213 280 327 -628 0
345 66 15 354 270 248 47 377 35 50 150 215 255 327 141 93 5 200 -629 0
384 356 294 318 269 160 44 297 173 396 61 88 130 124 389 171 338 398 15 93 -630 0
346 374 176 212 211 305 396 14 358 95 365 367 228 81 69 46 196 241 101 -631 0
148 221 160 396 114 217 371 356 226 20 55 228 31 320 188 51 276 324 248 19 133 257 149 -632 0
256 149 76 16 207 333 272 164 100 227 239 84 192 115 80 -633 0
192 361 269 289 252 164 131 120 70 36 12 309 281 69 98 92 149 181 325 151 -634 0
216 262 84 33 334 305 104 153 18 89 261 25 -635 0
20 290 314 318 40 361 167 303 210 12 327 232 142 271 -636 0
362 233 321 252 109 114 374 258 249 95 77 151 234 -637 0
299 230 186 243 188 70 303 38 261 241 184 85 367 123 386 302 -638 0
45 168 247 251 199 109 334 53 393 30 5 262 -639 0
163 260 164 59 124 239 143 123 121 88 85 132 183 261 214 355 22 234 -640 0
280 286 271 64 96 82 367 304 296 283 77 180 -641 0
110 77 72 88 330 280 111 66 332 130 173 391 39 -642 0
388 339 207 50 139 335 393 141 331 174 41 158 292 45 348 25 -643 0
315 175 155 204 134 206 213 396 148 111 32 341 278 183 347 238 138 38 -644 0
138 22 380 320 302 314 377 347 87 46 134 37 92 -645 0
143 262 236 331 271 360 68 129 37 399 14 240 223 225 50 -646 0
134 102 395 154 16 5 42 295 70 214 206 370 193 399 362 -647 0
217 63 368 307 317 382 146 108 298 -648 0
302 290 378 269 234 179 254 301 188 184 296 192 342 167 119 212 30 143 -649 0
189 47 301 342 152 24 73 90 358 251 331 304 318 133 278 201 302 373 81 379 29 52 -650 0
241 177 109 107 359 393 117 233 311 203 320 388 375 142 34 385 58 71 32 255 -651 0
351 254 295 213 181 188 292 58 350 217 -652 0
246 317 372 56 116 153 16 60 101 69 310 169 100 71 -653 0
250 329 305 311 324 268 251 168 138 106 194 269 93 376 228 83 -654 0
333 163 44 214 136 187 195 37 281 -655 0
185 155 269 265 152 44 46 215 293 61 337 10 241 238 312 264 28 147 -656 0
380 281 336 373 234 222 109 293 181 43 14 31 203 338 227 378 57 175 33 355 352 204 -657 0
322 298 259 254 168 249 200 156 202 64 350 343 102 13 184 358 87 -658 0
274 270 345 119 246 125 249 269 30 234 293 40 295 396 -659 0
361 344 207 312 295 252 213 264 211 399 142 324 145 75 349 -660 0
348 351 131 326 174 141 377 244 83 366 387 293 308 389 -661 0
220 231 172 307 280 82 318 118 148 191 89 2 127 383 -662 0
335 251 316 234 311 208 68 344 59 326 80 92 179 -663 0
266 95 72 24 385 281 162 290 200 221 82 65 46 339 396 -664 0
164 128 121 36 97 244 113 365 298 376 75 27 255 295 249 -665 0
272 344 263 100 297 163 97 348 334 333 98 299 394 270 31 -666 0
166 136 32 98 102 63 143 197 181 339 107 5 119 358 -667 0
197 358 307 374 191 316 372 95 29 264 332 399 49 381 -668 0
209 286 222 67 170 40 191 179 347 96 318 103 250 244 323 393 292 268 300 -669 0
255 137 262 298 55 102 37 161 63 92 71 100 73 284 222 30 325 44 -670 0
349 212 255 164 181 52 221 112 189 282 214 237 133 27 233 194 361 315 346 309 302 -671 0
341 292 300 128 305 251 333 382 24 207 299 47 97 112 89 219 37 10 68 -672 0
291 176 65 138 71 24 107 263 398 60 50 160 135 272 77 -673 0
137 147 261 350 292 270 193 69 334 133 365 25 322 -674 0
252 243 395 70 86 31 61 283 113 157 133 347 -675 0
345 266 247 101 176 280 221 284 224 184 52 111 136 70 334 271 53 -676 0
367 315 354 249 186 94 171 30 205 373 332 193 28 276 17 139 -677 0
320 273 226 303 67 82 253 227 170 157 11 20 284 158 3 23 89 334 -678 0
199 375 166 181 96 130 173 343 200 15 282 331 368 239 268 -679 0
256 177 42 29 77 281 76 85 248 54 380 118 194 267 23 184 383 -680 0
15 389 144 272 245 169 222 308 87 310 -681 0
297 124 191 99 84 221 130 261 87 335 348 361 235 24 -682 0
281 354 260 118 221 64 393 385 256 238 167 161 183 48 81 13 7 -683 0
289 182 215 395 116 341 256 392 184 365 173 -684 0
92 386 360 385 11 310 201 260 160 173 379 184 219 17 4 -685 0
285 239 376 46 302 96 26 3 14 138 31 16 344 371 265 -686 0
346 347 262 336 273 330 134 114 90 153 220 217 10 66 98 125 256 151 -687 0
121 43 293 275 282 222 301 88 123 18 87 286 154 193 187 345 75 -688 0
362 251 210 102 400 43 161 64 5 298 208 162 302 58 385 177 173 377 169 101 -689 0
296 165 62 100 75 198 73 88 67 63 31 116 -690 0
364 367 295 277 156 178 124 68 47 117 26 328 161 99 255 136 353 220 45 153 -691 0
348 320 19 10 157 367 241 16 82 27 268 267 386 216 -692 0
167 156 65 237 188 83 382 247 -693 0
328 241 334 122 310 206 160 198 184 8 9 -694 0
280 314 155 273 249 182 162 26 297 111 302 87 -695 0
357 204 156 297 398 239 322 84 152 22 165 187 57 119 132 149 366 223 87 -696 0
91 86 5 39 279 59 381 146 392 53 173 236 343 396 169 284 187 97 240 -697 0
302 87 84 380 305 371 125 398 208 195 151 222 106 286 124 247 355 133 313 73 -698 0
383 360 185 139 127 397 187 5 38 159 99 251 180 186 389 171 245 79 20 176 -699 0
55 99 12 71 338 296 223 104 301 166 382 158 44 63 259 400 85 -700 0
295 378 151 44 275 154 67 64 82 231 107 165 114 122 119 270 385 36 243 246 259 -701 0
335 319 311 277 90 194 9 191 124 70 -702 0
248 379 151 164 301 282 6 20 240 249 272 51 43 87 339 65 375 288 213 -703 0
348 336 308 357 213 210 275 126 395 343 331 50 8 388 -704 0
343 296 326 209 45 357 322 302 285 342 264 388 108 392 27 152 67 224 273 -705 0
252 308 371 250 303 80 48 113 256 16 317 132 22 274 -706 0
328 165 135 364 89 320 147 291 271 382 59 74 232 52 94 138 61 123 2 349 141 -707 0
383 373 360 378 248 182 226 42 228 294 205 377 157 -708 0
329 320 272 49 246 185 262 150 149 54 24 114 305 58 10 51 -709 0
383 335 339 308 249 59 225 150 188 44 244 41 266 26 27 397 270 330 291 -710 0
129 307 285 264 372 318 320 288 24 147 83 224 -711 0
379 371 349 210 245 287 346 362 193 42 112 321 41 369 220 -712 0
226 324 280 316 156 112 385 369 293 166 398 268 -713 0
368 294 369 271 342 329 267 112 2 336 221 263 42 13 63 77 310 62 289 43 -714 0
341 238 214 48 89 168 365 227 309 290 346 272 8 26 208 181 318 348 173 398 206 142 337 27 4 145 -715 0
349 352 207 65 91 158 140 203 191 355 214 315 174 217 92 256 239 85 -716 0
333 295 243 323 147 349 327 336 101 360 208 146 28 270 1 245 269 298 -717 0
363 302 272 239 115 349 275 4 268 133 123 153 165 231 248 -718 0
329 175 309 2 182 204 222 137 151 305 298 70 36 -719 0
244 13 202 264 370 212 263 155 189 240 267 154 330 168 392 385 54 -720 0
249 245 218 118 203 101 84 241 330 52 333 140 325 287 265 91 235 -721 0
13 385 81 251 349 313 79 222 93 252 59 -722 0
251 318 312 163 68 301 397 67 391 353 207 296 107 54 135 322 84 127 52 157 -723 0
274 177 122 347 322 184 290 280 209 207 222 169 265 24 308 318 286 66 6 80 336 4 -724 0
258 17 129 302 290 324 108 184 50 134 260 102 398 181 151 256 31 84 -725 0
343 185 89 274 313 309 316 211 194 188 232 2 138 3 -726 0
246 361 369 82 79 161 78 50 116 220 117 342 206 -727 0
280 160 124 327 228 123 28 282 262 96 161 150 143 77 169 26 54 -728 0
266 253 247 205 11 125 357 369 332 311 121 84 278 391 64 400 32 -729 0
383 255 234 221 101 80 263 232 349 369 367 230 81 143 27 205 136 -730 0
118 56 53 68 6 4 5 81 32 244 84 2 86 116 355 252 389 -731 0
22 361 239 175 310 189 49 57 4 12 34 -732 0
229 195 298 219 299 344 9 144 141 22 116 149 357 74 28 307 207 383 101 -733 0
264 273 347 142 282 398 58 150 352 144 35 107 28 242 332 207 54 79 185 367 373 146 -734 0
331 253 381 315 22 121 137 206 260 365 393 117 228 286 116 33 159 -735 0
367 160 65 139 225 228 331 42 321 79 170 146 176 -736 0
348 171 50 312 5 9 133 335 367 331 173 155 16 138 202 -737 0
194 96 41 123 281 219 341 274 256 33 334 201 104 190 236 129 11 71 313 220 -738 0
382 387 272 167 55 24 305 84 284 90 357 117 62 89 40 76 -739 0
212 308 381 115 159 385 321 154 260 342 337 349 89 338 138 -740 0
354 210 349 289 94 314 397 58 144 31 140 365 90 256 95 296 169 156 53 42 89 18 16 158 180 250 174 -741 0
347 246 212 240 118 47 156 188 391 99 136 338 116 227 42 132 -742 0
385 171 179 199 303 198 78 8 345 337 350 281 230 31 194 339 7 48 -743 0
280 185 322 303 97 189 218 6 1 19 384 221 365 240 299 143 -744 0
360 237 115 170 350 112 8 193 17 301 386 -745 0
258 238 125 199 294 195 390 158 106 164 115 71 68 397 28 353 -746 0
231 390 285 147 271 181 400 78 46 40 3 286 -747 0
153 129 113 27 143 333 352 340 298 286 176 90 303 386 335 70 181 49 218 288 12 -748 0
354 358 326 344 175 164 265 91 252 345 170 59 278 156 78 45 391 235 -749 0
290 369 208 212 176 127 399 184 250 130 389 140 321 240 99 244 122 388 -750 0
345 292 45 300 141 364 182 26 159 311 289 216 293 297 324 80 12 10 -751 0
213 310 93 173 61 392 243 235 95 354 63 222 234 -752 0
340 56 59 281 398 12 224 246 343 269 261 253 44 312 138 289 393 370 220 75 -753 0
75 77 365 340 20 168 388 79 62 394 102 206 35 329 -754 0
330 167 221 86 327 201 376 104 153 391 217 20 103 68 28 -755 0
397 365 358 281 262 392 286 237 156 239 394 99 279 150 144 126 30 -756 0
101 107 220 362 356 167 1 197 35 59 286 306 111 348 280 37 198 -757 0
110 193 138 173 367 306 48 111 226 18 142 5 391 93 17 -758 0
135 331 339 171 387 265 396 227 358 28 186 263 400 392 114 86 36 289 -759 0
227 265 87 388 319 3 355 171 321 26 275 144 -760 0
270 146 381 285 27 244 115 366 117 3 -761 0
278 95 369 290 185 250 42 386 78 143 84 150 336 325 32 18 361 395 -762 0
380 358 356 298 352 300 377 362 103 39 394 23 211 242 332 8 6 -763 0
172 370 354 347 22 42 346 107 18 118 219 271 59 121 368 206 308 -764 0
227 291 367 245 192 63 286 179 122 127 130 25 224 60 -765 0
283 293 384 233 327 243 124 388 176 290 223 348 64 2 130 358 37 74 36 -766 0
27 197 390 382 326 325 379 229 179 311 364 194 366 222 316 20 69 -767 0
341 172 74 140 132 89 220 294 281 15 380 71 8 399 383 263 169 83 223 -768 0
285 375 321 394 289 84 5 113 101 -769 0
258 27 17 380 268 207 68 202 323 232 209 114 -770 0
374 108 36 78 1 392 224 218 38 328 16 294 132 336 274 -771 0
307 342 108 127 400 4 212 337 247 18 11 35 20 168 348 -772 0
111 206 390 313 290 375 312 287 271 68 26 140 182 370 358 31 317 -773 0
330 312 114 225 331 232 23 108 22 85 68 275 -774 0
360 155 323 372 317 134 106 224 278 110 18 42 104 15 175 277 264 36 -775 0
302 379 175 312 181 308 84 4 180 52 392 82 202 -776 0
389 166 154 36 119 272 193 269 79 256 71 397 216 -777 0
368 354 322 207 203 321 375 356 59 284 326 38 343 341 32 69 63 -778 0
317 286 106 128 395 34 141 81 74 371 123 386 277 191 93 310 170 52 -779 0
338 183 388 271 185 355 317 78 79 158 219 99 244 18 -780 0
337 74 138 125 290 292 122 376 282 167 287 59 31 84 211 17 279 345 372 398 -781 0
238 390 383 362 361 255 329 386 33 395 144 270 191 211 354 322 -782 0
250 129 45 370 208 246 249 112 378 23 325 -783 0
110 201 298 265 313 208 355 340 307 68 211 99 399 85 271 98 21 120 -784 0
309 306 245 213 145 162 6 292 103 229 27 119 383 77 282 311 -785 0
234 326 329 112 280 225 108 270 284 64 269 -786 0
253 48 336 1 248 328 50 388 153 314 27 189 389 365 46 400 324 -787 0
19 390 386 313 206 255 260 310 298 170 65 174 165 145 281 -788 0
354 161 129 385 57 333 24 312 33 179 109 390 264 177 117 3 399 252 319 325 20 -789 0
338 132 169 268 44 355 88 60 319 68 166 394 107 198 126 35 142 299 -790 0
362 326 306 377 234 124 162 111 34 84 183 178 225 292 50 159 328 209 -791 0
233 225 160 277 202 228 400 147 40 344 97 194 282 266 328 180 102 309 -792 0
175 226 176 148 188 391 90 48 228 200 275 309 44 28 261 50 288 63 153 177 51 -793 0
208 377 392 216 388 273 291 128 236 36 237 235 319 122 132 15 -794 0
319 225 234 352 196 230 271 301 400 7 82 70 340 300 46 387 -795 0
384 309 294 257 169 167 355 186 293 126 30 312 273 141 116 195 79 -796 0
348 239 228 136 396 391 120 34 384 320 130 81 223 248 369 328 104 -797 0
363 203 121 65 130 35 133 369 84 382 -798 0
311 163 155 316 70 171 279 237 343 79 122 107 -799 0
366 373 306 210 263 393 91 311 3 108 97 11 -800 0
-1 626 0
-1 570 0
-1 436 0
-1 441 0
-1 404 0
-1 438 0
-1 484 0
-1 525 0
-1 619 0
-1 537 0
-1 413 0
-1 641 0
-1 519 0
-1 447 0
-1 731 0
-1 767 0
-1 448 0
-1 464 0
-2 636 0
-2 503 0
-2 651 0
-2 554 0
-2 502 0
-2 716 0
-2 423 0
-2 406 0
-2 530 0
-2 671 0
-2 652 0
-2 795 0
-2 764 0
-2 641 0
-2 696 0
-2 539 0
-2 687 0
-2 675 0
-2 422 0
-2 645 0
-2 488 0
-2 739 0
-3 640 0
-3 609 0
-3 591 0
-3 798 0
-3 439 0
-3 440 0
-3 587 0
-3 577 0
-3 472 0
-3 466 0
-3 448 0
-3 717 0
-3 554 0
-3 581 0
-3 780 0
-3 469 0
-3 464 0
-3 739 0
-3 641 0
-3 763 0
-3 634 0
-3 616 0
-4 755 0
-4 673 0
-4 671 0
-4 667 0
-4 512 0
-4 428 0
-4 774 0
-4 665 0
-4 785 0
-4 489 0
-4 780 0
-4 793 0
-4 756 0
-4 625 0
-5 599 0
-5 640 0
-5 676 0
-5 660 0
-5 616 0
-5 459 0
-5 682 0
-5 496 0
-5 478 0
-5 458 0
-5 742 0
-5 580 0
-5 428 0
-5 403 0
-5 511 0
-5 763 0
-5 788 0
-6 607 0
-6 649 0
-6 660 0
-6 622 0
-6 509 0
-6 530 0
-6 628 0
-6 470 0
-6 428 0
-6 407 0
-6 574 0
-6 466 0
-6 579 0
-6 537 0
-6 694 0
-6 780 0
-7 708 0
-7 556 0
-7 502 0
-7 800 0
-7 534 0
-7 648 0
-7 432 0
-7 610 0
-7 620 0
-7 587 0
-7 425 0
-7 668 0
-7 576 0
-7 583 0
-7 613 0
-7 724 0
-7 405 0
-8 662 0
-8 742 0
-8 568 0
-8 579 0
-8 503 0
-8 693 0
-8 493 0
-8 490 0
-8 455 0
-8 519 0
-8 653 0
-8 739 0
-8 619 0
-8 782 0
-9 755 0
-9 703 0
-9 693 0
-9 536 0
-9 594 0
-9 439 0
-9 525 0
-9 463 0
-9 419 0
-9 763 0
-9 748 0
-9 754 0
-9 705 0
-10 785 0
-10 712 0
-10 604 0
-10 585 0
-10 792 0
-10 478 0
-10 488 0
-10 424 0
-10 404 0
-10 684 0
-10 501 0
-10 670 0
-10 485 0
-10 650 0
-10 730 0
-10 722 0
-10 725 0
-11 746 0
-11 690 0
-11 503 0
-11 769 0
-11 520 0
-11 433 0
-11 785 0
-11 692 0
-11 543 0
-11 481 0
-11 477 0
-11 425 0
-11 469 0
-11 700 0
-11 483 0
-11 466 0
-11 524 0
-12 714 0
-12 655 0
-12 596 0
-12 793 0
-12 514 0
-12 432 0
-12 405 0
-12 457 0
-12 631 0
-12 580 0
-12 535 0
-12 541 0
-12 795 0
-12 735 0
-12 521 0
-13 735 0
-13 717 0
-13 603 0
-13 552 0
-13 537 0
-13 528 0
-13 596 0
-13 544 0
-13 774 0
-13 464 0
-13 708 0
-13 534 0
-13 675 0
-13 502 0
-13 498 0
-13 485 0
-13 420 0
-13 457 0
-14 652 0
-14 740 0
-14 671 0
-14 476 0
-14 706 0
-14 520 0
-14 669 0
-14 543 0
-14 767 0
-14 794 0
-14 547 0
-14 504 0
-14 790 0
-14 407 0
-14 519 0
-14 421 0
-15 646 0
-15 655 0
-15 643 0
-15 582 0
-15 497 0
-15 739 0
-15 718 0
-15 407 0
-15 483 0
-15 561 0
-15 427 0
-15 463 0
-15 484 0
-15 734 0
-16 725 0
-16 659 0
-16 685 0
-16 777 0
-16 639 0
-16 478 0
-16 718 0
-16 406 0
-16 700 0
-16 475 0
-16 467 0
-16 772 0
-16 508 0
-16 441 0
-17 752 0
-17 643 0
-17 550 0
-17 533 0
-17 646 0
-17 428 0
-17 676 0
-17 472 0
-17 798 0
-17 540 0
-17 490 0
-17 627 0
-17 429 0
-17 731 0
-17 787 0
-17 746 0
-17 411 0
-17 732 0
-18 757 0
-18 776 0
-18 706 0
-18 599 0
-18 443 0
-18 423 0
-18 459 0
-18 488 0
-18 402 0
-18 737 0
-18 411 0
-18 413 0
-18 790 0
-18 788 0
-19 779 0
-19 693 0
-19 488 0
-19 435 0
-19 404 0
-19 574 0
-19 436 0
-19 712 0
-19 799 0
-19 539 0
-19 483 0
-19 729 0
-19 773 0
-19 498 0
-19 622 0
-19 500 0
-20 747 0
-20 748 0
-20 751 0
-20 714 0
-20 534 0
-20 620 0
-20 501 0
-20 774 0
-20 471 0
-20 786 0
-20 447 0
-20 538 0
-21 646 0
-21 727 0
-21 528 0
-21 570 0
-21 482 0
-21 730 0
-21 440 0
-21 633 0
-21 617 0
-21 626 0
-21 737 0
-21 411 0
-21 422 0
-21 620 0
-21 659 0
-21 492 0
-21 702 0
-21 474 0
-21 499 0
-21 435 0
-22 752 0
-22 524 0
-22 539 0
-22 736 0
-22 688 0
-22 440 0
-22 594 0
-22 652 0
-22 638 0
-22 674 0
-22 610 0
-22 605 0
-22 485 0
-22 451 0
-22 406 0
-22 719 0
-22 464 0
-22 413 0
-22 554 0
-22 750 0
-23 633 0
-23 636 0
-23 616 0
-23 539 0
-23 769 0
-23 604 0
-23 730 0
-23 792 0
-23 517 0
-23 591 0
-23 434 0
-23 495 0
-23 757 0
-23 444 0
-23 668 0
-23 765 0
-23 507 0
-24 706 0
-24 774 0
-24 604 0
-24 506 0
-24 552 0
-24 686 0
-24 772 0
-24 497 0
-24 665 0
-24 423 0
-24 679 0
-24 641 0
-24 440 0
-24 445 0
-24 493 0
-24 421 0
-24 720 0
-25 632 0
-25 443 0
-25 578 0
-25 587 0
-25 641 0
-25 774 0
-25 631 0
-25 699 0
-25 466 0
-25 651 0
-25 709 0
-25 485 0
-25 561 0
-25 648 0
-25 591 0
-25 520 0
-26 654 0
-26 555 0
-26 679 0
-26 464 0
-26 471 0
-26 423 0
-26 541 0
-26 478 0
-26 670 0
-26 597 0
-26 472 0
-26 455 0
-26 422 0
-26 681 0
-26 594 0
-26 542 0
-26 764 0
-26 694 0
-27 724 0
-27 567 0
-27 542 0
-27 433 0
-27 753 0
-27 740 0
-27 617 0
-27 431 0
-27 592 0
-27 763 0
-27 416 0
-27 429 0
-27 733 0
-28 559 0
-28 730 0
-28 556 0
-28 600 0
-28 618 0
-28 482 0
-28 572 0
-28 687 0
-28 532 0
-28 535 0
-28 641 0
-28 490 0
-28 662 0
-28 436 0
-28 419 0
-28 790 0
-28 724 0
-28 762 0
-28 508 0
-29 768 0
-29 756 0
-29 545 0
-29 439 0
-29 435 0
-29 777 0
-29 614 0
-29 697 0
-29 487 0
-29 550 0
-29 632 0
-29 525 0
-29 786 0
-30 478 0
-30 405 0
-30 708 0
-30 635 0
-30 623 0
-30 604 0
-30 593 0
-30 601 0
-30 694 0
-30 610 0
-30 753 0
-30 556 0
-30 724 0
-30 729 0
-30 747 0
-30 531 0
-30 421 0
-31 712 0
-31 640 0
-31 531 0
-31 584 0
-31 701 0
-31 606 0
-31 476 0
-31 438 0
-31 635 0
-31 752 0
-31 446 0
-31 485 0
-31 633 0
-31 745 0
-31 528 0
-31 444 0
-31 553 0
-31 709 0
-31 780 0
-32 616 0
-32 609 0
-32 646 0
-32 679 0
-32 493 0
-32 476 0
-32 569 0
-32 523 0
-32 440 0
-32 435 0
-32 604 0
-32 401 0
-32 590 0
-32 589 0
-32 792 0
-32 597 0
-32 598 0
-32 469 0
-32 495 0
-32 424 0
-32 754 0
-32 479 0
-32 759 0
-32 587 0
-33 636 0
-33 684 0
-33 486 0
-33 439 0
-33 623 0
-33 403 0
-33 606 0
-33 797 0
-33 598 0
-33 772 0
-33 507 0
-33 672 0
-33 602 0
-34 712 0
-34 646 0
-34 595 0
-34 628 0
-34 414 0
-34 753 0
-34 522 0
-34 594 0
-34 764 0
-34 584 0
-34 725 0
-34 401 0
-34 425 0
-34 545 0
-35 579 0
-35 633 0
-35 423 0
-35 406 0
-35 565 0
-35 572 0
-35 590 0
-35 474 0
-35 551 0
-35 635 0
-35 647 0
-35 747 0
-35 558 0
-36 562 0
-36 449 0
-36 406 0
-36 606 0
-36 557 0
-36 516 0
-36 602 0
-36 709 0
-36 744 0
-37 608 0
-37 742 0
-37 695 0
-37 567 0
-37 431 0
-37 434 0
-37 459 0
-37 506 0
-37 797 0
-37 590 0
-37 550 0
-37 487 0
-37 552 0
-37 438 0
-37 654 0
-37 561 0
-37 467 0
-37 433 0
-37 725 0
-37 783 0
-37 635 0
-38 676 0
-38 502 0
-38 615 0
-38 585 0
-38 490 0
-38 428 0
-38 796 0
-38 419 0
-38 711 0
-38 485 0
-38 781 0
-38 767 0
-38 753 0
-38 625 0
-38 757 0
-38 746 0
-38 722 0
-38 793 0
-38 504 0
-39 537 0
-39 478 0
-39 443 0
-39 452 0
-39 577 0
-39 593 0
-39 681 0
-39 663 0
-39 436 0
-39 551 0
-39 613 0
-39 635 0
-39 731 0
-39 501 0
-39 457 0
-39 667 0
-40 512 0
-40 776 0
-40 609 0
-40 461 0
-40 772 0
-40 463 0
-40 631 0
-40 724 0
-40 545 0
-40 428 0
-40 647 0
-40 411 0
-40 765 0
-40 709 0
-40 672 0
-40 712 0
-41 625 0
-41 721 0
-41 769 0
-41 699 0
-41 615 0
-41 449 0
-41 635 0
-41 793 0
-41 704 0
-41 481 0
-41 733 0
-41 735 0
-41 717 0
-41 629 0
-41 448 0
-41 674 0
-41 724 0
-42 748 0
-42 757 0
-42 642 0
-42 777 0
-42 526 0
-42 517 0
-42 657 0
-42 663 0
-42 631 0
-42 457 0
-42 479 0
-42 476 0
-43 582 0
-43 701 0
-43 544 0
-43 482 0
-43 478 0
-43 455 0
-43 402 0
-43 624 0
-43 419 0
-43 435 0
-43 769 0
-43 612 0
-43 467 0
-43 578 0
-43 606 0
-43 767 0
-43 461 0
-43 794 0
-44 787 0
-44 765 0
-44 751 0
-44 592 0
-44 686 0
-44 527 0
-44 563 0
-44 464 0
-44 642 0
-44 402 0
-44 417 0
-44 537 0
-44 720 0
-44 523 0
-44 593 0
-44 419 0
-44 454 0
-44 697 0
-45 766 0
-45 776 0
-45 569 0
-45 646 0
-45 747 0
-45 539 0
-45 494 0
-45 621 0
-45 775 0
-45 470 0
-45 727 0
-45 537 0
-45 580 0
-45 401 0
-45 466 0
-45 651 0
-45 596 0
-45 781 0
-45 786 0
-45 761 0
-45 516 0
-46 654 0
-46 744 0
-46 596 0
-46 673 0
-46 524 0
-46 753 0
-46 496 0
-46 439 0
-46 410 0
-46 641 0
-46 627 0
-46 634 0
-46 489 0
-46 442 0
-46 590 0
-46 622 0
-47 751 0
-47 713 0
-47 694 0
-47 724 0
-47 654 0
-47 615 0
-47 523 0
-47 626 0
-47 417 0
-47 428 0
-47 501 0
-47 679 0
-47 550 0
-47 590 0
-47 469 0
-47 471 0
-47 775 0
-47 732 0
-47 568 0
-47 759 0
-48 716 0
-48 599 0
-48 446 0
-48 426 0
-48 438 0
-48 638 0
-48 495 0
-48 656 0
-48 525 0
-48 533 0
-48 789 0
-48 513 0
-48 423 0
-48 580 0
-48 496 0
-49 531 0
-49 545 0
-49 533 0
-49 797 0
-49 511 0
-49 458 0
-49 551 0
-49 778 0
-49 419 0
-49 735 0
-49 597 0
-49 418 0
-49 557 0
-49 750 0
-49 702 0
-49 554 0
-50 789 0
-50 654 0
-50 512 0
-50 778 0
-50 542 0
-50 415 0
-50 467 0
-50 408 0
-50 711 0
-50 404 0
-50 724 0
-50 720 0
-50 531 0
-50 622 0
-51 651 0
-51 630 0
-51 573 0
-51 530 0
-51 798 0
-51 443 0
-51 702 0
-51 644 0
-51 557 0
-51 692 0
-51 629 0
-51 620 0
-51 460 0
-51 429 0
-51 770 0
-51 672 0
-51 506 0
-52 642 0
-52 648 0
-52 769 0
-52 555 0
-52 576 0
-52 515 0
-52 792 0
-52 582 0
-52 695 0
-52 750 0
-52 529 0
-52 405 0
-52 549 0
-52 454 0
-52 567 0
-52 471 0
-52 637 0
-52 608 0
-52 464 0
-52 550 0
-52 782 0
-52 472 0
-52 763 0
-52 758 0
-52 469 0
-53 754 0
-53 767 0
-53 706 0
-53 426 0
-53 495 0
-53 736 0
-53 614 0
-53 631 0
-53 444 0
-53 472 0
-53 420 0
-53 463 0
-54 710 0
-54 626 0
-54 677 0
-54 548 0
-54 560 0
-54 658 0
-54 716 0
-54 542 0
-54 782 0
-54 646 0
-54 624 0
-55 645 0
-55 589 0
-55 703 0
-55 578 0
-55 512 0
-55 550 0
-55 439 0
-55 424 0
-55 464 0
-55 729 0
-55 516 0
-55 425 0
-55 746 0
-55 422 0
-55 680 0
-55 778 0
-55 757 0
-55 660 0
-56 636 0
-56 563 0
-56 663 0
-56 730 0
-56 752 0
-56 528 0
-56 746 0
-56 465 0
-56 554 0
-56 615 0
-56 701 0
-56 791 0
-56 517 0
-56 544 0
-56 593 0
-56 455 0
-56 720 0
-56 533 0
-56 581 0
-57 659 0
-57 563 0
-57 560 0
-57 618 0
-57 742 0
-57 467 0
-57 690 0
-57 718 0
-57 775 0
-57 472 0
-57 510 0
-57 522 0
-57 451 0
-57 627 0
-57 462 0
-57 475 0
-57 787 0
-58 785 0
-58 552 0
-58 468 0
-58 584 0
-58 526 0
-58 414 0
-58 536 0
-58 523 0
-58 489 0
-58 799 0
-58 525 0
-58 406 0
-58 427 0
-58 761 0
-58 588 0
-58 684 0
-58 788 0
-58 754 0
-58 685 0
-58 724 0
-58 601 0
-59 639 0
-59 742 0
-59 702 0
-59 524 0
-59 465 0
-59 590 0
-59 760 0
-59 553 0
-59 474 0
-59 451 0
-59 713 0
-59 644 0
-59 520 0
-60 760 0
-60 690 0
-60 585 0
-60 575 0
-60 637 0
-60 552 0
-60 599 0
-60 648 0
-60 542 0
-60 493 0
-60 433 0
-60 743 0
-60 454 0
-60 582 0
-60 516 0
-60 601 0
-60 411 0
-60 465 0
-60 481 0
-60 795 0
-60 799 0
-61 703 0
-61 669 0
-61 521 0
-61 478 0
-61 745 0
-61 530 0
-61 636 0
-61 406 0
-61 469 0
-61 470 0
-61 484 0
-61 413 0
-61 420 0
-61 760 0
-61 474 0
-61 763 0
-61 429 0
-61 447 0
-61 779 0
-61 451 0
-62 732 0
-62 664 0
-62 559 0
-62 667 0
-62 764 0
-62 441 0
-62 426 0
-62 428 0
-62 545 0
-62 709 0
-63 664 0
-63 603 0
-63 456 0
-63 521 0
-63 709 0
-63 622 0
-63 626 0
-63 750 0
-63 485 0
-63 760 0
-63 445 0
-63 789 0
-63 639 0
-63 753 0
-63 451 0
-63 530 0
-63 475 0
-63 489 0
-64 634 0
-64 684 0
-64 544 0
-64 496 0
-64 449 0
-64 440 0
-64 686 0
-64 435 0
-64 727 0
-64 465 0
-64 417 0
-64 719 0
-64 593 0
-64 425 0
-64 427 0
-65 607 0
-65 512 0
-65 609 0
-65 639 0
-65 794 0
-65 461 0
-65 754 0
-65 665 0
-65 544 0
-65 790 0
-65 753 0
-65 498 0
-65 457 0
-65 542 0
-65 743 0
-66 625 0
-66 736 0
-66 534 0
-66 440 0
-66 749 0
-66 737 0
-66 485 0
-66 422 0
-66 426 0
-66 572 0
-66 427 0
-66 563 0
-66 491 0
-67 563 0
-67 569 0
-67 446 0
-67 579 0
-67 676 0
-67 703 0
-67 470 0
-67 675 0
-67 760 0
-67 673 0
-67 504 0
-67 655 0
-67 748 0
-67 750 0
-67 722 0
-67 784 0
-67 672 0
-67 766 0
-68 690 0
-68 548 0
-68 703 0
-68 683 0
-68 485 0
-68 580 0
-68 489 0
-68 483 0
-68 453 0
-69 709 0
-69 669 0
-69 689 0
-69 462 0
-69 799 0
-69 638 0
-69 619 0
-69 446 0
-69 538 0
-69 463 0
-69 486 0
-69 482 0
-70 459 0
-70 402 0
-70 787 0
-70 490 0
-70 590 0
-70 620 0
-70 466 0
-70 619 0
-70 535 0
-70 664 0
-70 747 0
-70 521 0
-70 611 0
-70 427 0
-71 547 0
-71 436 0
-71 417 0
-71 414 0
-71 557 0
-71 572 0
-71 622 0
-71 513 0
-71 717 0
-71 778 0
-71 626 0
-71 774 0
-71 589 0
-71 536 0
-71 574 0
-71 490 0
-71 628 0
-72 752 0
-72 778 0
-72 570 0
-72 521 0
-72 471 0
-72 455 0
-72 535 0
-72 436 0
-72 485 0
-72 495 0
-72 573 0
-72 519 0
-72 477 0
-72 422 0
-72 418 0
-72 577 0
-72 784 0
-73 769 0
-73 640 0
-73 730 0
-73 521 0
-73 541 0
-73 594 0
-73 471 0
-73 633 0
-73 496 0
-73 726 0
-73 583 0
-73 773 0
-73 782 0
-73 504 0
-73 418 0
-73 751 0
-73 558 0
-73 700 0
-74 637 0
-74 568 0
-74 584 0
-74 468 0
-74 679 0
-74 602 0
-74 571 0
-74 713 0
-74 680 0
-74 698 0
-74 684 0
-74 510 0
-74 454 0
-74 483 0
-74 448 0
-74 596 0
-75 698 0
-75 721 0
-75 462 0
-75 615 0
-75 526 0
-75 496 0
-75 435 0
-75 553 0
-75 491 0
-75 586 0
-75 659 0
-75 598 0
-75 481 0
-75 614 0
-75 543 0
-76 721 0
-76 749 0
-76 591 0
-76 499 0
-76 484 0
-76 475 0
-76 734 0
-76 421 0
-76 433 0
-76 606 0
-76 751 0
-76 715 0
-76 742 0
-77 776 0
-77 779 0
-77 640 0
-77 744 0
-77 537 0
-77 645 0
-77 473 0
-77 713 0
-77 753 0
-77 483 0
-77 575 0
-77 578 0
-77 510 0
-77 750 0
-77 737 0
-78 708 0
-78 607 0
-78 777 0
-78 465 0
-78 442 0
-78 533 0
-78 738 0
-78 557 0
-78 597 0
-78 492 0
-78 704 0
-78 406 0
-78 776 0
-78 520 0
-78 477 0
-78 646 0
-78 563 0
-78 412 0
-78 709 0
-78 580 0
-79 640 0
-79 567 0
-79 600 0
-79 554 0
-79 797 0
-79 630 0
-79 511 0
-79 688 0
-79 464 0
-79 529 0
-79 761 0
-79 540 0
-79 597 0
-79 535 0
-79 693 0
-79 756 0
-79 427 0
-79 420 0
-79 562 0
-79 733 0
-80 648 0
-80 619 0
-80 537 0
-80 566 0
-80 452 0
-80 464 0
-80 459 0
-80 775 0
-80 443 0
-80 605 0
-80 481 0
-80 428 0
-80 649 0
-80 695 0
-80 461 0
-80 449 0
-81 712 0
-81 751 0
-81 648 0
-81 509 0
-81 621 0
-81 800 0
-81 494 0
-81 644 0
-81 700 0
-81 431 0
-81 614 0
-81 449 0
-81 485 0
-82 551 0
-82 740 0
-82 689 0
-82 537 0
-82 667 0
-82 797 0
-82 486 0
-82 652 0
-82 484 0
-82 466 0
-82 520 0
-82 472 0
-82 580 0
-82 768 0
-82 800 0
-82 403 0
-82 685 0
-82 448 0
-82 619 0
-82 676 0
-83 573 0
-83 526 0
-83 700 0
-83 681 0
-83 513 0
-83 432 0
-83 591 0
-83 417 0
-83 451 0
-83 687 0
-83 418 0
-83 522 0
-83 771 0
-83 504 0
-83 455 0
-84 526 0
-84 778 0
-84 486 0
-84 473 0
-84 478 0
-84 642 0
-84 728 0
-84 501 0
-84 751 0
-84 655 0
-84 743 0
-85 712 0
-85 453 0
-85 521 0
-85 460 0
-85 759 0
-85 448 0
-85 477 0
-85 674 0
-86 637 0
-86 663 0
-86 490 0
-86 474 0
-86 454 0
-86 613 0
-86 707 0
-86 787 0
-86 430 0
-86 748 0
-86 412 0
-87 785 0
-87 655 0
-87 733 0
-87 462 0
-87 659 0
-87 639 0
-87 517 0
-87 750 0
-87 568 0
-87 454 0
-87 746 0
-87 685 0
-87 677 0
-87 706 0
-87 638 0
-87 722 0
-88 528 0
-88 509 0
-88 793 0
-88 547 0
-88 718 0
-88 738 0
-88 587 0
-88 696 0
-88 614 0
-88 510 0
-88 599 0
-88 632 0
-88 466 0
-88 689 0
-88 681 0
-88 650 0
-88 725 0
-89 599 0
-89 785 0
-89 733 0
-89 676 0
-89 603 0
-89 505 0
-89 426 0
-89 594 0
-89 411 0
-89 428 0
-89 665 0
-89 481 0
-89 781 0
-89 692 0
-89 424 0
-89 461 0
-90 718 0
-90 595 0
-90 646 0
-90 778 0
-90 468 0
-90 455 0
-90 635 0
-90 532 0
-90 544 0
-90 631 0
-90 466 0
-90 563 0
-90 419 0
-90 553 0
-91 599 0
-91 619 0
-91 548 0
-91 541 0
-91 514 0
-91 480 0
-91 568 0
-91 795 0
-91 674 0
-91 696 0
-91 617 0
-91 418 0
-91 506 0
-91 536 0
-91 763 0
-91 504 0
-91 690 0
-91 760 0
-91 726 0
-91 676 0
-92 607 0
-92 779 0
-92 603 0
-92 691 0
-92 679 0
-92 521 0
-92 458 0
-92 656 0
-92 507 0
-92 471 0
-92 483 0
-92 402 0
-92 529 0
-92 488 0
-92 689 0
-92 789 0
-92 477 0
-92 770 0
-92 790 0
-93 589 0
-93 755 0
-93 797 0
-93 533 0
-93 496 0
-93 482 0
-93 750 0
-93 606 0
-93 737 0
-93 673 0
-93 479 0
-93 610 0
-93 554 0
-94 681 0
-94 503 0
-94 497 0
-94 610 0
-94 471 0
-94 434 0
-94 642 0
-94 509 0
-94 725 0
-94 783 0
-94 580 0
-94 469 0
-94 507 0
-94 686 0
-94 449 0
-94 565 0
-95 748 0
-95 676 0
-95 712 0
-95 659 0
-95 607 0
-95 730 0
-95 527 0
-95 571 0
-95 541 0
-95 503 0
-95 597 0
-95 737 0
-95 522 0
-95 451 0
-95 442 0
-95 585 0
-95 779 0
-95 687 0
-95 553 0
-96 775 0
-96 468 0
-96 602 0
-96 517 0
-96 701 0
-96 601 0
-96 760 0
-96 434 0
-96 761 0
-96 521 0
-97 773 0
-97 668 0
-97 769 0
-97 608 0
-97 574 0
-97 596 0
-97 772 0
-97 527 0
-97 679 0
-97 401 0
-97 556 0
-97 467 0
-97 454 0
-97 743 0
-97 429 0
-98 652 0
-98 727 0
-98 509 0
-98 679 0
-98 567 0
-98 632 0
-98 536 0
-98 638 0
-98 661 0
-98 516 0
-98 470 0
-98 501 0
-98 789 0
-98 492 0
-98 495 0
-98 412 0
-98 469 0
-99 772 0
-99 574 0
-99 575 0
-99 632 0
-99 696 0
-99 737 0
-99 538 0
-99 536 0
-99 439 0
-99 429 0
-99 606 0
-99 460 0
-99 644 0
-99 739 0
-99 629 0
-99 767 0
-99 708 0
-99 659 0
-99 519 0
-99 620 0
-100 768 0
-100 698 0
-100 618 0
-100 619 0
-100 703 0
-100 697 0
-100 662 0
-100 591 0
-100 530 0
-100 480 0
-100 404 0
-100 537 0
-100 589 0
-100 654 0
-100 516 0
-100 796 0
-100 479 0
-101 739 0
-101 707 0
-101 566 0
-101 590 0
-101 615 0
-101 553 0
-101 510 0
-101 654 0
-101 766 0
-101 532 0
-101 507 0
-101 741 0
-101 593 0
-101 454 0
-101 557 0
-101 637 0
-101 520 0
-102 562 0
-102 591 0
-102 488 0
-102 480 0
-102 439 0
-102 520 0
-102 731 0
-102 483 0
-102 687 0
-102 676 0
-102 745 0
-102 557 0
-103 680 0
-103 736 0
-103 537 0
-103 518 0
-103 500 0
-103 695 0
-103 566 0
-103 461 0
-103 410 0
-103 491 0
-103 685 0
-103 758 0
-103 529 0
-103 416 0
-103 561 0
-104 599 0
-104 695 0
-104 744 0
-104 715 0
-104 514 0
-104 796 0
-104 623 0
-104 631 0
-104 574 0
-104 516 0
-104 528 0
-104 409 0
-104 607 0
-104 598 0
-104 597 0
-104 410 0
-104 625 0
-105 706 0
-105 609 0
-105 430 0
-105 403 0
-105 408 0
-105 440 0
-105 619 0
-105 650 0
-105 593 0
-105 746 0
-105 538 0
-105 548 0
-105 475 0
-105 566 0
-105 757 0
-105 759 0
-105 785 0
-105 404 0
-105 611 0
-105 524 0
-105 721 0
-106 760 0
-106 710 0
-106 559 0
-106 568 0
-106 673 0
-106 629 0
-106 604 0
-106 794 0
-106 430 0
-106 595 0
-106 480 0
-106 768 0
-106 599 0
-106 685 0
-106 469 0
-106 474 0
-106 415 0
-106 694 0
-106 565 0
-107 748 0
-107 622 0
-107 503 0
-107 624 0
-107 795 0
-107 408 0
-107 666 0
-107 644 0
-107 442 0
-107 627 0
-107 567 0
-107 770 0
-107 659 0
-107 561 0
-107 510 0
-107 715 0
-108 739 0
-108 722 0
-108 665 0
-108 556 0
-108 552 0
-108 527 0
-108 575 0
-108 444 0
-108 792 0
-108 729 0
-108 448 0
-108 711 0
-108 443 0
-108 543 0
-108 510 0
-108 597 0
-108 483 0
-108 475 0
-108 414 0
-108 451 0
-109 567 0
-109 689 0
-109 444 0
-109 598 0
-109 458 0
-109 642 0
-109 529 0
-109 486 0
-109 687 0
-109 577 0
-109 441 0
-109 408 0
-109 797 0
-110 759 0
-110 694 0
-110 723 0
-110 600 0
-110 562 0
-110 744 0
-110 417 0
-110 643 0
-110 761 0
-110 546 0
-110 707 0
-111 689 0
-111 703 0
-111 667 0
-111 526 0
-111 550 0
-111 536 0
-111 744 0
-111 769 0
-111 435 0
-111 800 0
-111 580 0
-111 499 0
-111 471 0
-111 783 0
-111 601 0
-111 513 0
-112 787 0
-112 768 0
-112 709 0
-112 551 0
-112 660 0
-112 556 0
-112 494 0
-112 537 0
-112 484 0
-112 666 0
-112 473 0
-112 636 0
-112 638 0
-112 587 0
-112 549 0
-112 441 0
-112 532 0
-112 627 0
-113 567 0
-113 778 0
-113 500 0
-113 639 0
-113 727 0
-113 560 0
-113 490 0
-113 455 0
-113 699 0
-113 635 0
-113 506 0
-113 535 0
-113 776 0
-113 476 0
-113 498 0
-113 615 0
-113 722 0
-113 460 0
-113 678 0
-114 639 0
-114 642 0
-114 744 0
-114 578 0
-114 547 0
-114 502 0
-114 517 0
-114 421 0
-114 402 0
-114 484 0
-114 734 0
-114 425 0
-114 420 0
-114 719 0
-114 762 0
-114 713 0
-114 626 0
-115 762 0
-115 672 0
-115 599 0
-115 775 0
-115 733 0
-115 778 0
-115 760 0
-115 537 0
-115 503 0
-115 531 0
-115 444 0
-115 450 0
-115 684 0
-115 614 0
-115 550 0
-115 546 0
-115 714 0
-115 606 0
-115 683 0
-115 602 0
-116 677 0
-116 446 0
-116 478 0
-116 543 0
-116 692 0
-116 658 0
-116 631 0
-116 743 0
-116 587 0
-116 786 0
-116 431 0
-116 627 0
-117 632 0
-117 573 0
-117 533 0
-117 460 0
-117 536 0
-117 561 0
-117 742 0
-117 509 0
-117 752 0
-117 706 0
-117 770 0
-117 707 0
-117 661 0
-117 711 0
-117 799 0
-117 580 0
-118 773 0
-118 736 0
-118 534 0
-118 512 0
-118 450 0
-118 509 0
-118 621 0
-118 800 0
-118 521 0
-118 438 0
-118 593 0
-118 687 0
-118 681 0
-118 678 0
-118 467 0
-118 575 0
-118 684 0
-118 483 0
-118 443 0
-119 762 0
-119 551 0
-119 591 0
-119 544 0
-119 797 0
-119 493 0
-119 461 0
-119 637 0
-119 480 0
-119 434 0
-119 490 0
-119 779 0
-119 683 0
-119 561 0
-119 418 0
-119 580 0
-120 708 0
-120 686 0
-120 727 0
-120 511 0
-120 493 0
-120 491 0
-120 650 0
-120 653 0
-120 573 0
-120 606 0
-120 505 0
-120 726 0
-120 458 0
-120 766 0
-120 696 0
-121 542 0
-121 539 0
-121 500 0
-121 693 0
-121 493 0
-121 433 0
-121 449 0
-121 686 0
-121 794 0
-121 549 0
-121 527 0
-121 508 0
-121 744 0
-121 786 0
-121 664 0
-121 599 0
-121 740 0
-121 601 0
-121 620 0
-122 609 0
-122 563 0
-122 568 0
-122 714 0
-122 582 0
-122 652 0
-122 671 0
-122 792 0
-122 546 0
-122 622 0
-122 435 0
-122 723 0
-122 768 0
-122 626 0
-122 413 0
-123 716 0
-123 749 0
-123 679 0
-123 778 0
-123 540 0
-123 522 0
-123 427 0
-123 732 0
-123 511 0
-123 495 0
-123 429 0
-123 675 0
-124 780 0
-124 754 0
-124 651 0
-124 776 0
-124 711 0
-124 494 0
-124 499 0
-124 566 0
-124 693 0
-124 732 0
-124 676 0
-124 408 0
-124 705 0
-124 745 0
-124 657 0
-125 724 0
-125 690 0
-125 758 0
-125 570 0
-125 541 0
-125 774 0
-125 741 0
-125 627 0
-125 666 0
-125 538 0
-125 519 0
-125 520 0
-125 727 0
-125 657 0
-125 794 0
-125 549 0
-126 568 0
-126 749 0
-126 527 0
-126 503 0
-126 447 0
-126 636 0
-126 632 0
-126 628 0
-126 558 0
-126 491 0
-126 514 0
-126 732 0
-126 629 0
-126 448 0
-126 615 0
-126 761 0
-126 729 0
-126 754 0
-127 545 0
-127 453 0
-127 763 0
-127 513 0
-127 445 0
-127 681 0
-127 775 0
-127 512 0
-128 761 0
-128 713 0
-128 649 0
-128 548 0
-128 545 0
-128 515 0
-128 786 0
-128 446 0
-128 755 0
-128 594 0
-128 682 0
-128 642 0
-128 406 0
-128 726 0
-128 553 0
-128 511 0
-128 590 0
-128 546 0
-128 498 0
-128 475 0
-128 420 0
-128 474 0
-128 422 0
-128 796 0
-128 673 0
-129 739 0
-129 702 0
-129 568 0
-129 622 0
-129 560 0
-129 693 0
-129 603 0
-129 581 0
-129 541 0
-129 526 0
-129 502 0
-129 414 0
-129 455 0
-129 756 0
-129 477 0
-129 422 0
-129 583 0
-129 551 0
-129 466 0
-129 405 0
-129 425 0
-129 716 0
-129 732 0
-129 781 0
-130 579 0
-130 733 0
-130 588 0
-130 775 0
-130 473 0
-130 401 0
-130 774 0
-130 416 0
-130 543 0
-130 435 0
-130 492 0
-130 448 0
-130 469 0
-130 653 0
-130 710 0
-130 488 0
-130 711 0
-130 697 0
-130 659 0
-130 442 0
-131 761 0
-131 698 0
-131 775 0
-131 606 0
-131 564 0
-131 436 0
-131 727 0
-131 615 0
-131 411 0
-131 688 0
-131 764 0
-131 444 0
-131 767 0
-132 544 0
-132 402 0
-132 463 0
-132 433 0
-132 637 0
-132 543 0
-132 778 0
-132 642 0
-132 746 0
-132 593 0
-132 721 0
-133 602 0
-133 796 0
-133 626 0
-133 423 0
-133 443 0
-133 455 0
-133 431 0
-133 530 0
-133 734 0
-133 522 0
-133 773 0
-133 476 0
-133 738 0
-133 635 0
-134 783 0
-134 726 0
-134 633 0
-134 637 0
-134 599 0
-134 778 0
-134 414 0
-134 409 0
-134 787 0
-134 741 0
-134 745 0
-134 583 0
-134 442 0
-134 598 0
-135 732 0
-135 722 0
-135 712 0
-135 649 0
-135 634 0
-135 468 0
-135 523 0
-135 720 0
-135 441 0
-135 687 0
-135 448 0
-135 644 0
-135 699 0
-135 638 0
-135 771 0
-135 469 0
-135 438 0
-136 645 0
-136 575 0
-136 564 0
-136 456 0
-136 505 0
-136 500 0
-136 546 0
-136 473 0
-136 708 0
-136 773 0
-136 427 0
-136 722 0
-137 690 0
-137 559 0
-137 527 0
-137 531 0
-137 437 0
-137 496 0
-137 458 0
-137 572 0
-137 593 0
-137 449 0
-137 543 0
-138 757 0
-138 659 0
-138 646 0
-138 792 0
-138 747 0
-138 579 0
-138 430 0
-138 532 0
-138 516 0
-138 570 0
-138 788 0
-139 746 0
-139 722 0
-139 610 0
-139 609 0
-139 494 0
-139 468 0
-139 693 0
-139 684 0
-139 698 0
-139 443 0
-139 438 0
-139 491 0
-139 543 0
-139 410 0
-139 429 0
-139 719 0
-139 451 0
-140 767 0
-140 592 0
-140 585 0
-140 755 0
-140 747 0
-140 573 0
-140 499 0
-140 490 0
-140 798 0
-140 772 0
-140 692 0
-140 727 0
-140 411 0
-140 460 0
-140 583 0
-140 688 0
-140 596 0
-140 418 0
-141 600 0
-141 547 0
-141 744 0
-141 523 0
-141 431 0
-141 800 0
-141 556 0
-141 451 0
-141 773 0
-141 672 0
-141 411 0
-141 726 0
-141 592 0
-141 685 0
-142 608 0
-142 592 0
-142 703 0
-142 569 0
-142 556 0
-142 788 0
-142 747 0
-142 496 0
-142 458 0
-142 511 0
-142 779 0
-142 717 0
-142 468 0
-142 704 0
-142 666 0
-142 445 0
-142 440 0
-142 492 0
-142 485 0
-142 519 0
-143 596 0
-143 589 0
-143 494 0
-143 465 0
-143 686 0
-143 676 0
-143 478 0
-143 407 0
-144 568 0
-144 657 0
-144 775 0
-144 607 0
-144 576 0
-144 697 0
-144 467 0
-144 653 0
-144 580 0
-144 522 0
-144 555 0
-144 482 0
-144 773 0
-144 732 0
-144 702 0
-145 609 0
-145 691 0
-145 682 0
-145 588 0
-145 486 0
-145 404 0
-145 630 0
-145 546 0
-145 659 0
-146 760 0
-146 564 0
-146 560 0
-146 751 0
-146 462 0
-146 570 0
-146 728 0
-146 436 0
-146 408 0
-146 661 0
-146 617 0
-146 652 0
-146 470 0
-146 448 0
-146 439 0
-146 605 0
-146 575 0
-146 442 0
-146 770 0
-146 606 0
-147 648 0
-147 610 0
-147 589 0
-147 465 0
-147 697 0
-147 575 0
-147 526 0
-147 496 0
-147 558 0
-147 796 0
-147 584 0
-147 596 0
-147 500 0
-147 737 0
-147 780 0
-147 675 0
-148 789 0
-148 784 0
-148 790 0
-148 746 0
-148 723 0
-148 649 0
-148 752 0
-148 539 0
-148 508 0
-148 754 0
-148 503 0
-148 798 0
-148 482 0
-148 675 0
-148 470 0
-148 471 0
-148 620 0
-148 475 0
-148 593 0
-148 578 0
-149 760 0
-149 654 0
-149 664 0
-149 691 0
-149 450 0
-149 722 0
-149 614 0
-149 683 0
-149 481 0
-149 503 0
-149 466 0
-149 708 0
-149 496 0
-149 402 0
-149 616 0
-149 773 0
-150 612 0
-150 655 0
-150 744 0
-150 500 0
-150 695 0
-150 638 0
-150 737 0
-150 627 0
-150 442 0
-150 604 0
-150 545 0
-151 605 0
-151 522 0
-151 610 0
-151 676 0
-151 770 0
-151 567 0
-151 727 0
-151 749 0
-151 579 0
-151 604 0
-151 583 0
-151 503 0
-151 686 0
-151 536 0
-151 570 0
-151 410 0
-151 448 0
-152 599 0
-152 559 0
-152 563 0
-152 673 0
-152 600 0
-152 578 0
-152 589 0
-152 556 0
-152 569 0
-152 576 0
-152 682 0
-152 633 0
-152 404 0
-152 519 0
-152 403 0
-153 714 0
-153 769 0
-153 523 0
-153 432 0
-153 715 0
-153 559 0
-153 401 0
-153 666 0
-153 551 0
-153 561 0
-153 745 0
-153 670 0
-153 502 0
-153 763 0
-154 567 0
-154 579 0
-154 450 0
-154 684 0
-154 573 0
-154 798 0
-154 505 0
-154 461 0
-154 490 0
-154 432 0
-154 557 0
-154 429 0
-154 627 0
-154 690 0
-154 664 0
-155 590 0
-155 553 0
-155 732 0
-155 585 0
-155 576 0
-155 592 0
-155 569 0
-155 543 0
-155 710 0
-155 800 0
-155 575 0
-155 796 0
-155 744 0
-155 476 0
-156 782 0
-156 676 0
-156 596 0
-156 677 0
-156 560 0
-156 735 0
-156 591 0
-156 461 0
-156 433 0
-156 639 0
-156 619 0
-156 420 0
-156 745 0
-156 689 0
-156 669 0
-157 757 0
-157 655 0
-157 613 0
-157 720 0
-157 462 0
-157 537 0
-157 574 0
-157 573 0
-157 562 0
-157 417 0
-157 647 0
-157 700 0
-157 577 0
-157 553 0
-157 481 0
-157 629 0
-157 415 0
-157 721 0
-158 555 0
-158 740 0
-158 579 0
-158 564 0
-158 589 0
-158 446 0
-158 570 0
-158 554 0
-158 675 0
-158 591 0
-158 413 0
-158 489 0
-158 649 0
-158 651 0
-158 592 0
-158 543 0
-158 575 0
-159 565 0
-159 786 0
-159 487 0
-159 609 0
-159 696 0
-159 585 0
-159 548 0
-159 575 0
-159 611 0
-159 505 0
-159 554 0
-159 561 0
-159 581 0
-159 464 0
-159 799 0
-160 690 0
-160 772 0
-160 677 0
-160 740 0
-160 634 0
-160 446 0
-160 444 0
-160 609 0
-160 550 0
-160 496 0
-160 480 0
-160 696 0
-160 635 0
-160 510 0
-160 789 0
-160 581 0
-160 710 0
-161 721 0
-161 551 0
-161 539 0
-161 531 0
-161 797 0
-161 582 0
-161 409 0
-161 567 0
-161 642 0
-161 416 0
-161 687 0
-161 751 0
-161 620 0
-161 549 0
-161 442 0
-161 485 0
-161 767 0
-161 773 0
-161 506 0
-161 451 0
-161 654 0
-162 657 0
-162 578 0
-162 656 0
-162 590 0
-162 488 0
-162 511 0
-162 522 0
-162 573 0
-162 420 0
-162 784 0
-162 765 0
-162 680 0
-162 452 0
-162 786 0
-163 683 0
-163 557 0
-163 483 0
-163 532 0
-163 691 0
-163 742 0
-163 508 0
-163 740 0
-163 715 0
-163 679 0
-163 796 0
-163 500 0
-163 465 0
-163 534 0
-163 781 0
-163 595 0
-163 726 0
-163 402 0
-164 748 0
-164 681 0
-164 636 0
-164 721 0
-164 515 0
-164 526 0
-164 523 0
-164 653 0
-164 661 0
-164 513 0
-164 795 0
-165 654 0
-165 721 0
-165 537 0
-165 403 0
-165 437 0
-165 572 0
-165 466 0
-165 507 0
-165 661 0
-165 418 0
-165 434 0
-165 681 0
-165 643 0
-165 779 0
-165 763 0
-165 704 0
-166 689 0
-166 500 0
-166 701 0
-166 708 0
-166 491 0
-166 461 0
-166 451 0
-166 584 0
-166 588 0
-166 489 0
-166 528 0
-166 740 0
-166 487 0
-166 680 0
-166 787 0
-166 598 0
-166 653 0
-167 678 0
-167 743 0
-167 457 0
-167 504 0
-167 726 0
-167 771 0
-167 574 0
-167 563 0
-167 600 0
-167 560 0
-167 596 0
-167 719 0
-167 798 0
-167 772 0
-167 461 0
-167 571 0
-168 782 0
-168 770 0
-168 444 0
-168 468 0
-168 437 0
-168 450 0
-168 705 0
-168 424 0
-168 542 0
-169 743 0
-169 731 0
-169 508 0
-169 609 0
-169 413 0
-169 550 0
-169 795 0
-169 568 0
-169 600 0
-169 545 0
-169 584 0
-169 786 0
-169 603 0
-169 409 0
-170 695 0
-170 518 0
-170 527 0
-170 693 0
-170 632 0
-170 514 0
-170 684 0
-170 435 0
-170 750 0
-170 544 0
-170 418 0
-170 726 0
-170 725 0
-170 501 0
-170 758 0
-170 667 0
-170 487 0
-170 517 0
-171 580 0
-171 616 0
-171 782 0
-171 756 0
-171 729 0
-171 555 0
-171 575 0
-171 559 0
-171 527 0
-171 542 0
-171 442 0
-171 681 0
-171 409 0
-171 435 0
-171 419 0
-172 621 0
-172 598 0
-172 676 0
-172 562 0
-172 616 0
-172 402 0
-172 436 0
-172 631 0
-172 593 0
-172 580 0
-172 632 0
-172 674 0
-173 716 0
-173 634 0
-173 539 0
-173 491 0
-173 593 0
-173 404 0
-173 487 0
-173 429 0
-173 766 0
-173 604 0
-173 482 0
-173 534 0
-173 729 0
-173 572 0
-174 647 0
-174 445 0
-174 748 0
-174 736 0
-174 599 0
-174 646 0
-174 592 0
-174 492 0
-174 726 0
-174 536 0
-174 689 0
-174 446 0
-174 454 0
-174 732 0
-174 797 0
-174 550 0
-174 441 0
-174 612 0
-174 598 0
-174 595 0
-174 755 0
-175 635 0
-175 646 0
-175 716 0
-175 491 0
-175 578 0
-175 462 0
-175 507 0
-175 434 0
-175 470 0
-175 430 0
-175 684 0
-176 659 0
-176 785 0
-176 677 0
-176 563 0
-176 618 0
-176 613 0
-176 494 0
-176 490 0
-176 402 0
-176 589 0
-176 484 0
-176 692 0
-176 687 0
-176 566 0
-176 445 0
-176 513 0
-176 561 0
-176 440 0
-177 759 0
-177 736 0
-177 630 0
-177 537 0
-177 621 0
-177 536 0
-177 530 0
-177 609 0
-177 482 0
-177 478 0
-177 598 0
-177 556 0
-177 605 0
-177 674 0
-177 572 0
-177 635 0
-177 495 0
-177 461 0
-177 701 0
-178 768 0
-178 564 0
-178 453 0
-178 667 0
-178 673 0
-178 554 0
-178 447 0
-178 469 0
-178 647 0
-178 426 0
-178 709 0
-178 427 0
-178 769 0
-178 653 0
-178 408 0
-178 515 0
-178 442 0
-178 649 0
-179 724 0
-179 556 0
-179 508 0
-179 582 0
-179 665 0
-179 731 0
-179 630 0
-179 694 0
-179 487 0
-179 626 0
-179 477 0
-179 587 0
-179 577 0
-179 417 0
-179 670 0
-179 647 0
-180 608 0
-180 669 0
-180 619 0
-180 447 0
-180 518 0
-180 759 0
-180 623 0
-180 460 0
-180 456 0
-180 483 0
-180 559 0
-180 783 0
-181 695 0
-181 423 0
-181 476 0
-181 624 0
-181 433 0
-181 635 0
-181 663 0
-181 429 0
-181 471 0
-181 682 0
-181 427 0
-181 680 0
-181 746 0
-181 709 0
-182 694 0
-182 775 0
-182 760 0
-182 616 0
-182 566 0
-182 423 0
-182 436 0
-182 635 0
-182 752 0
-182 791 0
-182 570 0
-182 627 0
-182 473 0
-182 548 0
-182 535 0
-182 670 0
-182 506 0
-182 615 0
-183 633 0
-183 774 0
-183 560 0
-183 497 0
-183 465 0
-183 666 0
-183 462 0
-183 652 0
-183 649 0
-183 520 0
-183 531 0
-183 522 0
-183 463 0
-183 445 0
-183 754 0
-183 589 0
-184 717 0
-184 686 0
-184 576 0
-184 545 0
-184 667 0
-184 621 0
-184 531 0
-184 777 0
-184 428 0
-184 577 0
-184 771 0
-184 425 0
-184 573 0
-184 628 0
-184 711 0
-185 737 0
-185 631 0
-185 525 0
-185 451 0
-185 719 0
-185 639 0
-185 646 0
-185 591 0
-185 610 0
-185 466 0
-185 703 0
-185 722 0
-185 429 0
-185 795 0
-185 564 0
-185 409 0
-185 604 0
-185 412 0
-185 723 0
-186 736 0
-186 691 0
-186 600 0
-186 766 0
-186 667 0
-186 628 0
-186 711 0
-186 469 0
-186 430 0
-186 666 0
-186 738 0
-186 641 0
-186 436 0
-186 474 0
-186 521 0
-186 619 0
-187 462 0
-187 424 0
-187 419 0
-187 684 0
-187 692 0
-187 409 0
-187 454 0
-187 481 0
-187 707 0
-187 765 0
-187 660 0
-187 436 0
-188 599 0
-188 677 0
-188 503 0
-188 671 0
-188 667 0
-188 444 0
-188 573 0
-188 586 0
-188 687 0
-188 515 0
-188 657 0
-188 719 0
-188 686 0
-188 510 0
-188 707 0
-188 512 0
-188 591 0
-188 757 0
-189 786 0
-189 710 0
-189 564 0
-189 464 0
-189 691 0
-189 687 0
-189 704 0
-189 555 0
-189 614 0
-189 627 0
-189 632 0
-189 418 0
-189 411 0
-190 747 0
-190 715 0
-190 616 0
-190 564 0
-190 675 0
-190 467 0
-190 464 0
-190 414 0
-190 550 0
-190 439 0
-190 595 0
-190 696 0
-190 669 0
-190 631 0
-190 764 0
-190 553 0
-190 546 0
-190 429 0
-190 420 0
-190 572 0
-190 469 0
-190 580 0
-190 478 0
-190 784 0
-191 714 0
-191 444 0
-191 566 0
-191 792 0
-191 551 0
-191 743 0
-191 752 0
-191 460 0
-191 583 0
-191 581 0
-191 527 0
-191 560 0
-191 757 0
-191 414 0
-191 569 0
-191 783 0
-191 529 0
-191 675 0
-192 614 0
-192 617 0
-192 416 0
-192 415 0
-192 782 0
-192 694 0
-192 659 0
-192 478 0
-192 604 0
-192 609 0
-192 519 0
-192 419 0
-192 779 0
-192 509 0
-192 453 0
-192 496 0
-192 770 0
-192 549 0
-192 793 0
-193 613 0
-193 600 0
-193 615 0
-193 554 0
-193 754 0
-193 476 0
-193 668 0
-193 404 0
-193 748 0
-193 529 0
-193 495 0
-193 492 0
-193 479 0
-193 507 0
-194 503 0
-194 584 0
-194 732 0
-194 413 0
-194 475 0
-194 602 0
-194 742 0
-194 471 0
-194 570 0
-194 481 0
-194 673 0
-194 546 0
-195 683 0
-195 638 0
-195 659 0
-195 422 0
-195 417 0
-195 409 0
-195 524 0
-195 764 0
-195 428 0
-195 443 0
-195 790 0
-195 626 0
-195 584 0
-195 405 0
-196 774 0
-196 652 0
-196 622 0
-196 560 0
-196 506 0
-196 665 0
-196 684 0
-196 476 0
-196 407 0
-196 427 0
-196 710 0
-196 545 0
-196 549 0
-197 746 0
-197 739 0
-197 609 0
-197 660 0
-197 792 0
-197 423 0
-197 480 0
-197 493 0
-197 572 0
-197 416 0
-197 518 0
-197 507 0
-197 555 0
-197 460 0
-197 783 0
-197 593 0
-197 482 0
-197 481 0
-198 640 0
-198 596 0
-198 576 0
-198 602 0
-198 491 0
-198 407 0
-198 623 0
-198 586 0
-198 708 0
-198 589 0
-198 476 0
-198 425 0
-198 466 0
-198 552 0
-198 762 0
-198 754 0
-198 662 0
-198 674 0
-199 696 0
-199 549 0
-199 516 0
-199 421 0
-199 716 0
-199 525 0
-199 771 0
-199 419 0
-199 669 0
-199 530 0
-199 412 0
-199 543 0
-200 732 0
-200 725 0
-200 646 0
-200 556 0
-200 505 0
-200 430 0
-200 467 0
-200 406 0
-200 403 0
-200 488 0
-200 720 0
-200 696 0
-200 582 0
-200 750 0
-200 708 0
-200 549 0
-201 751 0
-201 779 0
-201 579 0
-201 537 0
-201 450 0
-201 545 0
-201 793 0
-201 616 0
-201 574 0
-201 623 0
-201 593 0
-201 752 0
-201 435 0
-201 516 0
-202 643 0
-202 456 0
-202 500 0
-202 615 0
-202 624 0
-202 591 0
-202 523 0
-202 462 0
-202 607 0
-202 499 0
-202 543 0
-202 416 0
-202 493 0
-202 503 0
-202 645 0
-202 513 0
-202 572 0
-202 784 0
-202 525 0
-202 472 0
-202 788 0
-202 752 0
-202 777 0
-202 756 0
-202 465 0
-203 700 0
-203 647 0
-203 743 0
-203 495 0
-203 485 0
-203 477 0
-203 767 0
-203 770 0
-203 746 0
-203 783 0
-203 715 0
-203 654 0
-203 498 0
-203 624 0
-203 589 0
-203 562 0
-203 730 0
-203 555 0
-204 782 0
-204 645 0
-204 775 0
-204 559 0
-204 749 0
-204 630 0
-204 616 0
-204 528 0
-204 537 0
-204 534 0
-204 490 0
-204 631 0
-204 491 0
-204 463 0
-204 587 0
-204 489 0
-204 697 0
-204 487 0
-204 779 0
-205 718 0
-205 556 0
-205 624 0
-205 566 0
-205 530 0
-205 536 0
-205 412 0
-205 609 0
-205 687 0
-205 590 0
-205 474 0
-205 623 0
-205 573 0
-205 631 0
-205 528 0
-205 507 0
-205 429 0
-205 445 0
-205 790 0
-205 416 0
-205 739 0
-206 622 0
-206 594 0
-206 463 0
-206 711 0
-206 581 0
-206 425 0
-206 769 0
-206 800 0
-206 540 0
-206 636 0
-206 790 0
-206 710 0
-206 701 0
-207 653 0
-207 597 0
-207 617 0
-207 790 0
-207 659 0
-207 609 0
-207 730 0
-207 779 0
-207 599 0
-207 403 0
-207 405 0
-207 484 0
-207 759 0
-207 651 0
-207 445 0
-207 435 0
-208 666 0
-208 422 0
-208 651 0
-208 485 0
-208 729 0
-208 607 0
-208 645 0
-208 518 0
-208 502 0
-208 669 0
-208 730 0
-208 693 0
-208 514 0
-208 584 0
-208 473 0
-209 683 0
-209 638 0
-209 587 0
-209 797 0
-209 422 0
-209 796 0
-209 748 0
-209 407 0
-209 676 0
-209 668 0
-209 451 0
-209 447 0
-209 708 0
-209 786 0
-209 494 0
-209 462 0
-209 604 0
-209 606 0
-209 476 0
-210 590 0
-210 557 0
-210 457 0
-210 519 0
-210 483 0
-210 412 0
-210 781 0
-210 663 0
-210 763 0
-210 415 0
-210 595 0
-210 684 0
-210 637 0
-210 468 0
-210 725 0
-210 417 0
-210 607 0
-210 410 0
-210 409 0
-211 646 0
-211 568 0
-211 468 0
-211 684 0
-211 628 0
-211 798 0
-211 443 0
-211 404 0
-211 771 0
-211 644 0
-211 507 0
-211 558 0
-211 536 0
-211 549 0
-211 680 0
-211 766 0
-212 737 0
-212 590 0
-212 565 0
-212 479 0
-212 519 0
-212 658 0
-212 659 0
-212 699 0
-212 596 0
-212 702 0
-212 786 0
-212 501 0
-212 428 0
-212 771 0
-212 668 0
-212 503 0
-213 783 0
-213 765 0
-213 760 0
-213 732 0
-213 729 0
-213 720 0
-213 648 0
-213 740 0
-213 663 0
-213 509 0
-213 676 0
-213 570 0
-213 586 0
-213 642 0
-213 491 0
-213 415 0
-213 578 0
-213 431 0
-214 721 0
-214 691 0
-214 506 0
-214 799 0
-214 536 0
-214 587 0
-214 601 0
-214 620 0
-214 641 0
-214 597 0
-214 700 0
-214 410 0
-214 564 0
-214 759 0
-214 507 0
-215 716 0
-215 600 0
-215 688 0
-215 554 0
-215 599 0
-215 434 0
-215 748 0
-215 683 0
-215 626 0
-215 605 0
-215 637 0
-215 685 0
-215 594 0
-215 672 0
-215 410 0
-216 790 0
-216 663 0
-216 552 0
-216 515 0
-216 503 0
-216 500 0
-216 586 0
-216 686 0
-216 569 0
-216 648 0
-216 456 0
-216 520 0
-216 436 0
-216 670 0
-216 483 0
-216 418 0
-216 744 0
-217 717 0
-217 642 0
-217 752 0
-217 772 0
-217 679 0
-217 695 0
-217 782 0
-217 670 0
-217 737 0
-217 582 0
-217 565 0
-217 493 0
-217 756 0
-217 627 0
-217 516 0
-217 583 0
-217 771 0
-218 780 0
-218 699 0
-218 630 0
-218 589 0
-218 512 0
-218 693 0
-218 536 0
-218 488 0
-218 404 0
-218 723 0
-218 754 0
-218 484 0
-218 704 0
-218 745 0
-218 775 0
-218 502 0
-218 499 0
-218 638 0
-218 497 0
-219 786 0
-219 714 0
-219 599 0
-219 528 0
-219 679 0
-219 624 0
-219 436 0
-219 713 0
-219 549 0
-219 546 0
-219 411 0
-219 745 0
-220 785 0
-220 799 0
-220 798 0
-220 736 0
-220 663 0
-220 538 0
-220 437 0
-220 617 0
-220 525 0
-220 532 0
-220 552 0
-220 469 0
-220 439 0
-220 485 0
-221 633 0
-221 579 0
-221 612 0
-221 417 0
-221 474 0
-221 538 0
-221 602 0
-221 771 0
-221 723 0
-221 540 0
-221 789 0
-221 718 0
-221 490 0
-221 669 0
-222 780 0
-222 778 0
-222 567 0
-222 595 0
-222 548 0
-222 506 0
-222 476 0
-222 431 0
-222 734 0
-222 550 0
-222 504 0
-222 462 0
-222 561 0
-223 609 0
-223 742 0
-223 542 0
-223 697 0
-223 621 0
-223 547 0
-223 541 0
-223 562 0
-223 452 0
-223 421 0
-223 443 0
-223 772 0
-223 729 0
-223 586 0
-223 718 0
-223 587 0
-223 470 0
-223 502 0
-223 585 0
-224 551 0
-224 730 0
-224 663 0
-224 438 0
-224 465 0
-224 402 0
-224 695 0
-224 594 0
-224 735 0
-224 452 0
-224 773 0
-224 649 0
-224 757 0
-224 657 0
-224 450 0
-224 525 0
-224 653 0
-225 750 0
-225 684 0
-225 566 0
-225 705 0
-225 645 0
-225 612 0
-225 611 0
-225 668 0
-225 691 0
-225 619 0
-225 588 0
-225 720 0
-225 440 0
-225 798 0
-225 505 0
-225 533 0
-225 488 0
-225 610 0
-226 717 0
-226 689 0
-226 624 0
-226 657 0
-226 686 0
-226 407 0
-226 548 0
-226 590 0
-226 650 0
-226 605 0
-226 759 0
-226 747 0
-227 724 0
-227 680 0
-227 645 0
-227 643 0
-227 651 0
-227 488 0
-227 748 0
-227 612 0
-227 519 0
-227 557 0
-227 796 0
-227 546 0
-227 412 0
-228 752 0
-228 576 0
-228 505 0
-228 405 0
-228 433 0
-228 493 0
-228 580 0
-228 583 0
-228 543 0
-228 538 0
-228 422 0
-228 474 0
-228 629 0
-228 763 0
-228 613 0
-228 680 0
-228 727 0
-229 745 0
-229 466 0
-229 415 0
-229 754 0
-229 670 0
-229 648 0
-229 447 0
-229 777 0
-229 435 0
-229 450 0
-229 550 0
-229 615 0
-229 655 0
-229 727 0
-229 541 0
-229 493 0
-229 405 0
-229 600 0
-230 784 0
-230 756 0
-230 694 0
-230 718 0
-230 669 0
-230 560 0
-230 444 0
-230 697 0
-230 573 0
-230 796 0
-230 461 0
-230 488 0
-230 530 0
-230 524 0
-230 789 0
-230 571 0
-230 738 0
-230 798 0
-230 415 0
-230 493 0
-231 746 0
-231 774 0
-231 576 0
-231 612 0
-231 611 0
-231 705 0
-231 796 0
-231 414 0
-231 758 0
-231 495 0
-231 765 0
-231 767 0
-231 628 0
-231 481 0
-231 469 0
-231 446 0
-231 596 0
-231 641 0
-231 501 0
-232 548 0
-232 621 0
-232 560 0
-232 796 0
-232 514 0
-232 617 0
-232 771 0
-232 756 0
-232 626 0
-232 420 0
-232 455 0
-232 628 0
-232 431 0
-232 720 0
-232 588 0
-232 451 0
-232 676 0
-232 724 0
-232 648 0
-232 419 0
-232 533 0
-232 657 0
-232 549 0
-233 656 0
-233 549 0
-233 476 0
-233 416 0
-233 607 0
-233 733 0
-233 672 0
-233 564 0
-233 500 0
-233 627 0
-233 639 0
-233 484 0
-233 592 0
-233 515 0
-233 480 0
-234 592 0
-234 761 0
-234 669 0
-234 689 0
-234 652 0
-234 564 0
-234 531 0
-234 520 0
-234 470 0
-234 436 0
-234 412 0
-234 709 0
-234 681 0
-234 469 0
-234 498 0
-234 492 0
-234 549 0
-234 581 0
-234 725 0
-234 551 0
-235 616 0
-235 662 0
-235 484 0
-235 433 0
-235 734 0
-235 705 0
-235 504 0
-235 553 0
-235 418 0
-235 489 0
-235 661 0
-235 425 0
-236 420 0
-236 690 0
-236 714 0
-236 718 0
-236 440 0
-236 761 0
-236 567 0
-236 703 0
-236 610 0
-236 412 0
-236 727 0
-236 632 0
-236 542 0
-236 671 0
-237 762 0
-237 633 0
-237 721 0
-237 652 0
-237 509 0
-237 514 0
-237 774 0
-237 658 0
-237 649 0
-237 495 0
-237 477 0
-237 551 0
-237 634 0
-238 699 0
-238 630 0
-238 586 0
-238 643 0
-238 588 0
-238 470 0
-238 703 0
-238 438 0
-238 661 0
-238 641 0
-238 584 0
-238 485 0
-238 767 0
-238 523 0
-238 786 0
-238 702 0
-239 445 0
-239 568 0
-239 647 0
-239 651 0
-239 599 0
-239 509 0
-239 734 0
-239 453 0
-239 793 0
-239 430 0
-239 405 0
-239 662 0
-240 563 0
-240 660 0
-240 564 0
-240 459 0
-240 524 0
-240 639 0
-240 543 0
-240 523 0
-240 521 0
-240 488 0
-240 485 0
-240 532 0
-240 583 0
-240 661 0
-240 614 0
-240 755 0
-240 422 0
-240 634 0
-241 680 0
-241 686 0
-241 671 0
-241 464 0
-241 496 0
-241 482 0
-241 767 0
-241 704 0
-241 696 0
-241 683 0
-241 477 0
-241 580 0
-242 510 0
-242 477 0
-242 472 0
-242 488 0
-242 730 0
-242 680 0
-242 511 0
-242 466 0
-242 732 0
-242 530 0
-242 573 0
-242 791 0
-242 439 0
-243 788 0
-243 739 0
-243 607 0
-243 450 0
-243 539 0
-243 735 0
-243 793 0
-243 541 0
-243 731 0
-243 574 0
-243 441 0
-243 558 0
-243 692 0
-243 445 0
-243 748 0
-243 425 0
-244 715 0
-244 575 0
-244 555 0
-244 604 0
-244 534 0
-244 606 0
-244 613 0
-244 796 0
-244 548 0
-244 511 0
-244 432 0
-244 741 0
-244 678 0
-244 583 0
-244 747 0
-244 638 0
-244 538 0
-244 438 0
-245 538 0
-245 422 0
-245 780 0
-245 720 0
-245 702 0
-245 714 0
-245 777 0
-245 747 0
-245 487 0
-245 446 0
-245 534 0
-245 437 0
-245 492 0
-246 543 0
-246 662 0
-246 636 0
-246 731 0
-246 671 0
-246 760 0
-246 468 0
-246 529 0
-246 437 0
-246 799 0
-246 414 0
-246 640 0
-246 623 0
-246 625 0
-246 450 0
-247 534 0
-247 502 0
-247 795 0
-247 554 0
-247 416 0
-247 405 0
-247 442 0
-247 695 0
-247 470 0
-247 614 0
-247 606 0
-247 770 0
-247 593 0
-247 799 0
-247 762 0
-248 617 0
-248 463 0
-248 768 0
-248 707 0
-248 717 0
-248 782 0
-248 546 0
-248 508 0
-248 698 0
-249 702 0
-249 690 0
-249 778 0
-249 669 0
-249 634 0
-249 579 0
-249 654 0
-249 701 0
-249 588 0
-249 584 0
-249 696 0
-249 592 0
-249 742 0
-249 567 0
-249 519 0
-249 612 0
-249 430 0
-249 543 0
-250 589 0
-250 447 0
-250 701 0
-250 742 0
-250 552 0
-250 424 0
-250 473 0
-250 490 0
-250 758 0
-250 651 0
-250 731 0
-250 704 0
-250 718 0
-250 533 0
-250 678 0
-250 601 0
-250 702 0
-250 773 0
-250 481 0
-250 779 0
-250 429 0
-250 452 0
-251 641 0
-251 577 0
-251 509 0
-251 507 0
-251 759 0
-251 793 0
-251 517 0
-251 633 0
-251 711 0
-251 603 0
-251 720 0
-251 788 0
-251 775 0
-251 542 0
-251 434 0
-251 785 0
-251 458 0
-251 471 0
-251 432 0
-251 655 0
-252 751 0
-252 654 0
-252 695 0
-252 613 0
-252 581 0
-252 588 0
-252 692 0
-252 458 0
-252 750 0
-252 617 0
-253 646 0
-253 717 0
-253 772 0
-253 456 0
-253 516 0
-253 553 0
-253 416 0
-253 460 0
-253 501 0
-253 469 0
-253 710 0
-253 569 0
-253 500 0
-253 471 0
-254 650 0
-254 729 0
-254 705 0
-254 711 0
-254 724 0
-254 668 0
-254 651 0
-254 568 0
-254 538 0
-254 506 0
-254 594 0
-254 669 0
-254 493 0
-254 776 0
-254 628 0
-254 483 0
-255 733 0
-255 563 0
-255 444 0
-255 614 0
-255 536 0
-255 587 0
-255 595 0
-255 437 0
-255 681 0
-256 585 0
-256 555 0
-256 669 0
-256 665 0
-256 552 0
-256 444 0
-256 446 0
-256 615 0
-256 693 0
-256 461 0
-256 737 0
-256 410 0
-256 641 0
-256 638 0
-256 712 0
-256 664 0
-256 428 0
-256 547 0
-257 780 0
-257 681 0
-257 736 0
-257 773 0
-257 634 0
-257 622 0
-257 509 0
-257 693 0
-257 581 0
-257 443 0
-257 414 0
-257 431 0
-257 603 0
-257 738 0
-257 627 0
-257 778 0
-257 457 0
-257 575 0
-257 433 0
-257 755 0
-257 752 0
-257 604 0
-258 722 0
-258 698 0
-258 659 0
-258 654 0
-258 568 0
-258 649 0
-258 600 0
-258 556 0
-258 602 0
-258 464 0
-258 750 0
-258 743 0
-258 502 0
-258 413 0
-258 584 0
-258 758 0
-258 487 0
-259 674 0
-259 670 0
-259 745 0
-259 519 0
-259 646 0
-259 525 0
-259 649 0
-259 669 0
-259 430 0
-259 634 0
-259 693 0
-259 440 0
-259 695 0
-259 796 0
-260 761 0
-260 744 0
-260 607 0
-260 712 0
-260 695 0
-260 652 0
-260 613 0
-260 664 0
-260 611 0
-260 799 0
-260 542 0
-260 724 0
-260 545 0
-260 475 0
-260 749 0
-261 748 0
-261 751 0
-261 531 0
-261 726 0
-261 574 0
-261 541 0
-261 777 0
-261 644 0
-261 483 0
-261 766 0
-261 787 0
-261 693 0
-261 708 0
-261 789 0
-262 620 0
-262 631 0
-262 572 0
-262 707 0
-262 680 0
-262 482 0
-262 718 0
-262 518 0
-262 548 0
-262 591 0
-262 489 0
-262 402 0
-262 527 0
-262 783 0
-263 735 0
-263 651 0
-263 716 0
-263 634 0
-263 711 0
-263 608 0
-263 468 0
-263 744 0
-263 459 0
-263 726 0
-263 480 0
-263 492 0
-263 579 0
-264 666 0
-264 495 0
-264 472 0
-264 424 0
-264 785 0
-264 681 0
-264 562 0
-264 690 0
-264 600 0
-264 621 0
-264 482 0
-264 465 0
-264 446 0
-264 739 0
-264 796 0
-265 564 0
-265 528 0
-265 521 0
-265 436 0
-265 497 0
-265 644 0
-265 513 0
-265 765 0
-265 698 0
-265 776 0
-265 475 0
-265 427 0
-265 655 0
-265 695 0
-265 649 0
-266 672 0
-266 744 0
-266 663 0
-266 500 0
-266 697 0
-266 563 0
-266 497 0
-266 748 0
-266 734 0
-266 733 0
-266 498 0
-266 699 0
-266 794 0
-266 670 0
-266 431 0
-267 566 0
-267 536 0
-267 432 0
-267 498 0
-267 502 0
-267 463 0
-267 543 0
-267 597 0
-267 581 0
-267 739 0
-267 507 0
-267 405 0
-267 519 0
-267 758 0
-268 597 0
-268 758 0
-268 707 0
-268 774 0
-268 591 0
-268 716 0
-268 772 0
-268 495 0
-268 429 0
-268 664 0
-268 732 0
-268 799 0
-268 449 0
-268 781 0
-269 609 0
-269 686 0
-269 622 0
-269 467 0
-269 570 0
-269 440 0
-269 591 0
-269 579 0
-269 747 0
-269 496 0
-269 718 0
-269 503 0
-269 650 0
-269 644 0
-269 723 0
-269 793 0
-269 692 0
-269 668 0
-269 700 0
-270 655 0
-270 537 0
-270 662 0
-270 698 0
-270 455 0
-270 502 0
-270 437 0
-270 561 0
-270 463 0
-270 492 0
-270 471 0
-270 500 0
-270 473 0
-270 684 0
-270 622 0
-270 430 0
-270 725 0
-270 444 0
-271 749 0
-271 612 0
-271 655 0
-271 564 0
-271 581 0
-271 452 0
-271 621 0
-271 512 0
-271 589 0
-271 682 0
-271 614 0
-271 637 0
-271 533 0
-271 427 0
-271 633 0
-271 594 0
-271 761 0
-271 715 0
-271 746 0
-271 709 0
-271 702 0
-272 741 0
-272 692 0
-272 700 0
-272 528 0
-272 705 0
-272 651 0
-272 733 0
-272 782 0
-272 424 0
-272 607 0
-272 699 0
-272 447 0
-272 497 0
-272 512 0
-272 489 0
-272 619 0
-272 437 0
-272 410 0
-272 468 0
-273 691 0
-273 576 0
-273 465 0
-273 538 0
-273 471 0
-273 424 0
-273 507 0
-273 663 0
-273 798 0
-273 460 0
-273 450 0
-273 560 0
-273 535 0
-273 672 0
-273 477 0
-274 537 0
-274 547 0
-274 661 0
-274 750 0
-274 692 0
-274 670 0
-274 593 0
-274 469 0
-274 734 0
-274 533 0
-274 765 0
-274 425 0
-274 722 0
-275 652 0
-275 643 0
-275 795 0
-275 470 0
-275 486 0
-275 431 0
-275 461 0
-275 683 0
-275 513 0
-275 557 0
-275 533 0
-275 747 0
-276 745 0
-276 666 0
-276 647 0
-276 501 0
-276 576 0
-276 680 0
-276 621 0
-276 684 0
-276 624 0
-276 584 0
-276 452 0
-276 511 0
-276 536 0
-276 470 0
-276 734 0
-276 671 0
-276 453 0
-277 767 0
-277 715 0
-277 754 0
-277 649 0
-277 586 0
-277 494 0
-277 571 0
-277 430 0
-277 605 0
-277 773 0
-277 732 0
-277 593 0
-277 428 0
-277 676 0
-277 417 0
-277 539 0
-278 720 0
-278 673 0
-278 626 0
-278 703 0
-278 467 0
-278 482 0
-278 653 0
-278 627 0
-278 570 0
-278 557 0
-278 411 0
-278 420 0
-278 684 0
-278 558 0
-278 403 0
-278 423 0
-278 489 0
-278 734 0
-279 599 0
-279 775 0
-279 566 0
-279 581 0
-279 496 0
-279 530 0
-279 573 0
-279 743 0
-279 600 0
-279 415 0
-279 682 0
-279 731 0
-279 768 0
-279 639 0
-279 668 0
-280 656 0
-280 577 0
-280 442 0
-280 429 0
-280 477 0
-280 681 0
-280 476 0
-280 485 0
-280 648 0
-280 454 0
-280 780 0
-280 518 0
-280 594 0
-280 667 0
-280 423 0
-280 584 0
-280 783 0
-281 415 0
-281 789 0
-281 544 0
-281 672 0
-281 645 0
-281 569 0
-281 622 0
-281 708 0
-281 487 0
-281 710 0
-282 697 0
-282 524 0
-282 591 0
-282 499 0
-282 484 0
-282 621 0
-282 530 0
-282 661 0
-282 487 0
-282 735 0
-282 748 0
-282 761 0
-282 635 0
-282 424 0
-283 681 0
-283 754 0
-283 660 0
-283 518 0
-283 621 0
-283 464 0
-283 793 0
-283 785 0
-283 656 0
-283 638 0
-283 567 0
-283 561 0
-283 583 0
-283 448 0
-283 481 0
-283 413 0
-283 407 0
-284 689 0
-284 582 0
-284 615 0
-284 795 0
-284 516 0
-284 741 0
-284 656 0
-284 792 0
-284 584 0
-284 765 0
-284 573 0
-285 492 0
-285 786 0
-285 760 0
-285 785 0
-285 411 0
-285 710 0
-285 601 0
-285 660 0
-285 560 0
-285 573 0
-285 779 0
-285 584 0
-285 619 0
-285 417 0
-285 404 0
-286 685 0
-286 639 0
-286 776 0
-286 446 0
-286 702 0
-286 496 0
-286 426 0
-286 403 0
-286 414 0
-286 538 0
-286 431 0
-286 416 0
-286 744 0
-286 771 0
-286 665 0
-287 746 0
-287 747 0
-287 662 0
-287 736 0
-287 673 0
-287 730 0
-287 534 0
-287 514 0
-287 490 0
-287 553 0
-287 620 0
-287 617 0
-287 410 0
-287 466 0
-287 498 0
-287 525 0
-287 656 0
-287 551 0
-288 521 0
-288 443 0
-288 693 0
-288 675 0
-288 682 0
-288 622 0
-288 701 0
-288 488 0
-288 523 0
-288 418 0
-288 487 0
-288 686 0
-288 554 0
-288 593 0
-288 587 0
-288 745 0
-288 475 0
-289 762 0
-289 651 0
-289 610 0
-289 502 0
-289 800 0
-289 443 0
-289 561 0
-289 464 0
-289 405 0
-289 698 0
-289 608 0
-289 562 0
-289 702 0
-289 458 0
-289 785 0
-289 577 0
-289 573 0
-289 777 0
-289 569 0
-289 501 0
-290 696 0
-290 565 0
-290 462 0
-290 500 0
-290 475 0
-290 598 0
-290 473 0
-290 488 0
-290 467 0
-290 463 0
-290 431 0
-290 516 0
-291 764 0
-291 767 0
-291 695 0
-291 677 0
-291 556 0
-291 578 0
-291 524 0
-291 468 0
-291 447 0
-291 517 0
-291 426 0
-291 728 0
-291 561 0
-291 499 0
-291 655 0
-291 536 0
-291 753 0
-291 620 0
-291 445 0
-291 553 0
-292 748 0
-292 720 0
-292 419 0
-292 410 0
-292 557 0
-292 767 0
-292 641 0
-292 416 0
-292 482 0
-292 427 0
-292 668 0
-292 667 0
-292 786 0
-292 616 0
-293 567 0
-293 556 0
-293 465 0
-293 637 0
-293 588 0
-293 483 0
-293 782 0
-293 647 0
-294 728 0
-294 641 0
-294 734 0
-294 522 0
-294 710 0
-294 606 0
-294 560 0
-294 598 0
-294 584 0
-294 408 0
-294 409 0
-295 680 0
-295 714 0
-295 555 0
-295 673 0
-295 649 0
-295 582 0
-295 562 0
-295 426 0
-295 697 0
-295 511 0
-295 702 0
-295 487 0
-296 757 0
-296 604 0
-296 556 0
-296 697 0
-296 798 0
-296 639 0
-296 722 0
-296 484 0
-296 552 0
-296 422 0
-296 565 0
-296 587 0
-296 457 0
-296 519 0
-296 532 0
-296 549 0
-296 766 0
-296 623 0
-296 487 0
-297 491 0
-297 486 0
-297 405 0
-297 439 0
-297 679 0
-297 459 0
-297 781 0
-297 546 0
-297 792 0
-297 453 0
-297 573 0
-297 636 0
-297 743 0
-297 796 0
-297 569 0
-297 684 0
-297 587 0
-297 497 0
-297 640 0
-298 702 0
-298 487 0
-298 484 0
-298 780 0
-298 705 0
-298 771 0
-298 525 0
-298 798 0
-298 608 0
-298 595 0
-298 551 0
-298 622 0
-298 506 0
-298 686 0
-298 524 0
-298 647 0
-298 755 0
-298 533 0
-298 713 0
-298 473 0
-299 783 0
-299 760 0
-299 585 0
-299 539 0
-299 527 0
-299 797 0
-299 587 0
-299 405 0
-299 438 0
-299 559 0
-299 499 0
-299 651 0
-299 580 0
-299 586 0
-299 789 0
-299 571 0
-299 645 0
-299 479 0
-299 420 0
-299 576 0
-300 455 0
-300 499 0
-300 412 0
-300 471 0
-300 738 0
-300 696 0
-300 623 0
-300 504 0
-300 701 0
-300 566 0
-300 782 0
-300 558 0
-300 444 0
-300 463 0
-300 659 0
-300 800 0
-300 485 0
-301 695 0
-301 778 0
-301 551 0
-301 444 0
-301 675 0
-301 554 0
-301 467 0
-301 464 0
-301 482 0
-301 631 0
-301 507 0
-301 565 0
-301 514 0
-301 522 0
-301 519 0
-301 670 0
-301 785 0
-301 436 0
-301 643 0
-301 646 0
-301 659 0
-302 735 0
-302 719 0
-302 711 0
-302 677 0
-302 490 0
-302 594 0
-302 409 0
-302 591 0
-302 524 0
-302 470 0
-303 648 0
-303 779 0
-303 551 0
-303 564 0
-303 701 0
-303 682 0
-303 406 0
-303 420 0
-303 640 0
-303 649 0
-303 672 0
-303 451 0
-303 443 0
-303 487 0
-303 739 0
-303 465 0
-303 775 0
-303 688 0
-303 613 0
-304 748 0
-304 736 0
-304 708 0
-304 757 0
-304 613 0
-304 610 0
-304 675 0
-304 526 0
-304 795 0
-304 743 0
-304 731 0
-304 450 0
-304 408 0
-304 788 0
-305 743 0
-305 696 0
-305 726 0
-305 609 0
-305 445 0
-305 757 0
-305 722 0
-305 702 0
-305 685 0
-305 742 0
-305 664 0
-305 788 0
-305 508 0
-305 792 0
-305 427 0
-305 552 0
-305 467 0
-305 624 0
-305 673 0
-306 652 0
-306 708 0
-306 771 0
-306 650 0
-306 703 0
-306 480 0
-306 448 0
-306 513 0
-306 656 0
-306 416 0
-306 717 0
-306 532 0
-306 422 0
-306 674 0
-307 728 0
-307 565 0
-307 535 0
-307 764 0
-307 489 0
-307 720 0
-307 547 0
-307 691 0
-307 671 0
-307 782 0
-307 459 0
-307 474 0
-307 632 0
-307 452 0
-307 494 0
-307 538 0
-307 461 0
-307 523 0
-307 402 0
-307 749 0
-307 541 0
-308 783 0
-308 773 0
-308 760 0
-308 778 0
-308 648 0
-308 582 0
-308 626 0
-308 442 0
-308 628 0
-308 694 0
-308 605 0
-308 777 0
-308 557 0
-309 729 0
-309 720 0
-309 672 0
-309 449 0
-309 646 0
-309 585 0
-309 662 0
-309 550 0
-309 549 0
-309 454 0
-309 424 0
-309 514 0
-309 705 0
-309 458 0
-309 410 0
-309 451 0
-310 783 0
-310 735 0
-310 739 0
-310 708 0
-310 649 0
-310 459 0
-310 625 0
-310 550 0
-310 588 0
-310 444 0
-310 644 0
-310 441 0
-310 666 0
-310 426 0
-310 427 0
-310 797 0
-310 670 0
-310 730 0
-310 691 0
-311 529 0
-311 707 0
-311 685 0
-311 664 0
-311 772 0
-311 718 0
-311 720 0
-311 688 0
-311 424 0
-311 547 0
-311 483 0
-311 624 0
-312 779 0
-312 771 0
-312 749 0
-312 610 0
-312 645 0
-312 687 0
-312 746 0
-312 762 0
-312 593 0
-312 442 0
-312 512 0
-312 721 0
-312 441 0
-312 769 0
-312 620 0
-313 626 0
-313 724 0
-313 680 0
-313 716 0
-313 556 0
-313 512 0
-313 785 0
-313 769 0
-313 693 0
-313 566 0
-313 798 0
-313 668 0
-314 768 0
-314 694 0
-314 769 0
-314 671 0
-314 742 0
-314 729 0
-314 667 0
-314 512 0
-314 402 0
-314 736 0
-314 621 0
-314 663 0
-314 442 0
-314 413 0
-314 463 0
-314 477 0
-314 710 0
-314 462 0
-314 689 0
-314 443 0
-315 741 0
-315 638 0
-315 614 0
-315 448 0
-315 489 0
-315 568 0
-315 765 0
-315 627 0
-315 709 0
-315 690 0
-315 746 0
-315 672 0
-315 408 0
-315 426 0
-315 608 0
-315 581 0
-315 718 0
-315 748 0
-315 573 0
-315 798 0
-315 606 0
-315 542 0
-315 737 0
-315 427 0
-315 404 0
-315 545 0
-316 749 0
-316 752 0
-316 607 0
-316 465 0
-316 491 0
-316 558 0
-316 540 0
-316 603 0
-316 591 0
-316 755 0
-316 614 0
-316 715 0
-316 574 0
-316 617 0
-316 492 0
-316 656 0
-316 639 0
-316 485 0
-317 733 0
-317 695 0
-317 643 0
-317 723 0
-317 547 0
-317 749 0
-317 727 0
-317 736 0
-317 501 0
-317 760 0
-317 608 0
-317 546 0
-317 428 0
-317 670 0
-317 401 0
-317 645 0
-317 669 0
-317 698 0
-318 763 0
-318 702 0
-318 672 0
-318 639 0
-318 515 0
-318 749 0
-318 675 0
-318 404 0
-318 668 0
-318 533 0
-318 523 0
-318 553 0
-318 565 0
-318 631 0
-318 648 0
-319 729 0
-319 575 0
-319 709 0
-319 402 0
-319 582 0
-319 604 0
-319 622 0
-319 537 0
-319 551 0
-319 705 0
-319 698 0
-319 470 0
-319 436 0
-320 644 0
-320 413 0
-320 602 0
-320 664 0
-320 770 0
-320 612 0
-320 663 0
-320 555 0
-320 589 0
-320 640 0
-320 667 0
-320 554 0
-320 730 0
-320 568 0
-320 792 0
-320 785 0
-320 454 0
-321 649 0
-321 645 0
-321 618 0
-321 518 0
-321 603 0
-321 501 0
-321 484 0
-321 641 0
-321 730 0
-321 452 0
-321 733 0
-321 540 0
-321 725 0
-321 687 0
-321 665 0
-321 491 0
-321 635 0
-322 413 0
-322 785 0
-322 481 0
-322 651 0
-322 749 0
-322 713 0
-322 479 0
-322 622 0
-322 493 0
-322 652 0
-322 459 0
-323 651 0
-323 718 0
-323 712 0
-323 563 0
-323 468 0
-323 701 0
-323 797 0
-323 467 0
-323 791 0
-323 753 0
-323 607 0
-323 696 0
-323 507 0
-323 454 0
-323 535 0
-323 722 0
-323 484 0
-323 527 0
-323 452 0
-323 557 0
-324 674 0
-324 577 0
-324 522 0
-324 747 0
-324 722 0
-324 584 0
-324 690 0
-324 680 0
-324 609 0
-324 607 0
-324 622 0
-324 569 0
-324 665 0
-324 424 0
-324 708 0
-324 718 0
-324 686 0
-324 466 0
-324 406 0
-324 480 0
-324 736 0
-324 404 0
-325 658 0
-325 417 0
-325 529 0
-325 702 0
-325 690 0
-325 724 0
-325 508 0
-325 584 0
-325 450 0
-325 534 0
-325 660 0
-325 502 0
-325 798 0
-325 581 0
-325 551 0
-325 656 0
-325 431 0
-325 484 0
-326 743 0
-326 585 0
-326 489 0
-326 674 0
-326 713 0
-326 709 0
-326 716 0
-326 611 0
-326 594 0
-326 588 0
-326 632 0
-326 402 0
-326 538 0
-326 403 0
-327 646 0
-327 761 0
-327 769 0
-327 482 0
-327 479 0
-327 561 0
-327 478 0
-327 450 0
-327 516 0
-327 620 0
-327 517 0
-327 742 0
-327 606 0
-328 680 0
-328 560 0
-328 524 0
-328 727 0
-328 628 0
-328 523 0
-328 428 0
-328 682 0
-328 662 0
-328 496 0
-328 561 0
-328 550 0
-328 543 0
-328 477 0
-328 569 0
-328 426 0
-328 454 0
-329 666 0
-329 653 0
-329 647 0
-329 605 0
-329 411 0
-329 525 0
-329 757 0
-329 769 0
-329 732 0
-329 711 0
-329 521 0
-329 484 0
-329 678 0
-329 791 0
-329 464 0
-329 800 0
-329 432 0
-330 783 0
-330 655 0
-330 634 0
-330 621 0
-330 501 0
-330 480 0
-330 663 0
-330 632 0
-330 749 0
-330 769 0
-330 767 0
-330 630 0
-330 481 0
-330 543 0
-330 427 0
-330 605 0
-330 536 0
-331 518 0
-331 456 0
-331 453 0
-331 468 0
-331 406 0
-331 404 0
-331 405 0
-331 481 0
-331 432 0
-331 644 0
-331 484 0
-331 402 0
-331 486 0
-331 516 0
-331 755 0
-331 652 0
-331 789 0
-332 422 0
-332 761 0
-332 639 0
-332 575 0
-332 710 0
-332 589 0
-332 449 0
-332 457 0
-332 404 0
-332 412 0
-332 434 0
-333 629 0
-333 595 0
-333 698 0
-333 619 0
-333 699 0
-333 744 0
-333 409 0
-333 544 0
-333 541 0
-333 422 0
-333 516 0
-333 549 0
-333 757 0
-333 474 0
-333 428 0
-333 707 0
-333 607 0
-333 783 0
-333 501 0
-334 664 0
-334 673 0
-334 747 0
-334 542 0
-334 682 0
-334 798 0
-334 458 0
-334 550 0
-334 752 0
-334 544 0
-334 435 0
-334 507 0
-334 428 0
-334 642 0
-334 732 0
-334 607 0
-334 454 0
-334 479 0
-334 585 0
-334 767 0
-334 773 0
-334 546 0
-335 731 0
-335 653 0
-335 781 0
-335 715 0
-335 422 0
-335 521 0
-335 537 0
-335 606 0
-335 660 0
-335 765 0
-335 793 0
-335 517 0
-335 628 0
-335 686 0
-335 516 0
-335 433 0
-335 559 0
-336 767 0
-336 560 0
-336 465 0
-336 539 0
-336 625 0
-336 628 0
-336 731 0
-336 442 0
-336 721 0
-336 479 0
-336 570 0
-336 546 0
-336 576 0
-337 748 0
-337 571 0
-337 450 0
-337 712 0
-337 405 0
-337 409 0
-337 533 0
-337 735 0
-337 767 0
-337 731 0
-337 573 0
-337 555 0
-337 416 0
-337 538 0
-337 602 0
-338 594 0
-338 496 0
-338 441 0
-338 523 0
-338 681 0
-338 619 0
-338 741 0
-338 674 0
-338 656 0
-338 433 0
-338 734 0
-338 601 0
-338 504 0
-338 590 0
-338 636 0
-338 529 0
-338 411 0
-338 471 0
-338 713 0
-338 620 0
-339 782 0
-339 787 0
-339 672 0
-339 567 0
-339 455 0
-339 424 0
-339 705 0
-339 484 0
-339 684 0
-339 490 0
-339 757 0
-339 517 0
-339 462 0
-339 489 0
-339 440 0
-339 476 0
-340 612 0
-340 708 0
-340 781 0
-340 515 0
-340 559 0
-340 785 0
-340 721 0
-340 554 0
-340 660 0
-340 742 0
-340 737 0
-340 749 0
-340 489 0
-340 738 0
-340 538 0
-341 754 0
-341 610 0
-341 749 0
-341 689 0
-341 494 0
-341 714 0
-341 797 0
-341 458 0
-341 544 0
-341 431 0
-341 540 0
-341 765 0
-341 490 0
-341 656 0
-341 495 0
-341 696 0
-341 569 0
-341 556 0
-341 453 0
-341 442 0
-341 489 0
-341 418 0
-341 416 0
-341 558 0
-341 580 0
-341 650 0
-341 574 0
-342 747 0
-342 646 0
-342 612 0
-342 640 0
-342 518 0
-342 447 0
-342 556 0
-342 588 0
-342 791 0
-342 499 0
-342 536 0
-342 738 0
-342 516 0
-342 627 0
-342 442 0
-342 532 0
-343 785 0
-343 571 0
-343 579 0
-343 599 0
-343 703 0
-343 598 0
-343 478 0
-343 408 0
-343 745 0
-343 737 0
-343 750 0
-343 681 0
-343 630 0
-343 431 0
-343 594 0
-343 739 0
-343 407 0
-343 448 0
-344 680 0
-344 585 0
-344 722 0
-344 703 0
-344 497 0
-344 589 0
-344 618 0
-344 406 0
-344 401 0
-344 419 0
-344 784 0
-344 621 0
-344 765 0
-344 640 0
-344 699 0
-344 543 0
-345 760 0
-345 637 0
-345 515 0
-345 570 0
-345 750 0
-345 512 0
-345 408 0
-345 593 0
-345 417 0
-345 701 0
-345 786 0
-346 658 0
-346 638 0
-346 525 0
-346 599 0
-346 694 0
-346 595 0
-346 790 0
-346 558 0
-346 506 0
-346 564 0
-346 515 0
-346 471 0
-346 468 0
-346 797 0
-346 428 0
-346 753 0
-347 631 0
-347 790 0
-347 685 0
-347 547 0
-347 671 0
-347 581 0
-347 800 0
-347 478 0
-347 446 0
-347 440 0
-347 403 0
-347 686 0
-348 553 0
-348 529 0
-348 513 0
-348 427 0
-348 543 0
-348 733 0
-348 752 0
-348 740 0
-348 698 0
-348 686 0
-348 576 0
-348 490 0
-348 703 0
-348 786 0
-348 735 0
-348 470 0
-348 581 0
-348 449 0
-348 618 0
-348 688 0
-348 412 0
-349 754 0
-349 758 0
-349 726 0
-349 744 0
-349 575 0
-349 564 0
-349 665 0
-349 491 0
-349 652 0
-349 745 0
-349 570 0
-349 459 0
-349 678 0
-349 556 0
-349 478 0
-349 445 0
-349 791 0
-349 635 0
-350 690 0
-350 769 0
-350 608 0
-350 612 0
-350 576 0
-350 527 0
-350 799 0
-350 584 0
-350 650 0
-350 530 0
-350 789 0
-350 540 0
-350 721 0
-350 640 0
-350 499 0
-350 644 0
-350 522 0
-350 788 0
-351 745 0
-351 692 0
-351 445 0
-351 700 0
-351 541 0
-351 764 0
-351 582 0
-351 426 0
-351 559 0
-351 711 0
-351 689 0
-351 616 0
-351 693 0
-351 697 0
-351 724 0
-351 480 0
-351 412 0
-351 410 0
-352 613 0
-352 710 0
-352 493 0
-352 573 0
-352 461 0
-352 792 0
-352 643 0
-352 635 0
-352 495 0
-352 754 0
-352 463 0
-352 622 0
-352 634 0
-353 740 0
-353 456 0
-353 459 0
-353 681 0
-353 798 0
-353 412 0
-353 624 0
-353 646 0
-353 743 0
-353 669 0
-353 661 0
-353 653 0
-353 444 0
-353 712 0
-353 538 0
-353 689 0
-353 793 0
-353 770 0
-353 620 0
-353 475 0
-354 475 0
-354 477 0
-354 765 0
-354 740 0
-354 420 0
-354 568 0
-354 788 0
-354 479 0
-354 462 0
-354 794 0
-354 502 0
-354 606 0
-354 435 0
-354 729 0
-355 730 0
-355 567 0
-355 621 0
-355 486 0
-355 727 0
-355 601 0
-355 776 0
-355 504 0
-355 553 0
-355 791 0
-355 617 0
-355 420 0
-355 503 0
-355 468 0
-355 428 0
-356 797 0
-356 765 0
-356 758 0
-356 681 0
-356 662 0
-356 792 0
-356 686 0
-356 637 0
-356 556 0
-356 639 0
-356 794 0
-356 499 0
-356 679 0
-356 550 0
-356 544 0
-356 526 0
-356 430 0
-357 501 0
-357 507 0
-357 620 0
-357 762 0
-357 756 0
-357 567 0
-357 401 0
-357 597 0
-357 435 0
-357 459 0
-357 686 0
-357 706 0
-357 511 0
-357 748 0
-357 680 0
-357 437 0
-357 598 0
-358 510 0
-358 593 0
-358 538 0
-358 573 0
-358 767 0
-358 706 0
-358 448 0
-358 511 0
-358 626 0
-358 418 0
-358 542 0
-358 405 0
-358 791 0
-358 493 0
-358 417 0
-359 535 0
-359 731 0
-359 739 0
-359 571 0
-359 787 0
-359 665 0
-359 796 0
-359 627 0
-359 758 0
-359 428 0
-359 586 0
-359 663 0
-359 800 0
-359 792 0
-359 514 0
-359 486 0
-359 436 0
-359 689 0
-360 627 0
-360 665 0
-360 487 0
-360 788 0
-360 719 0
-360 403 0
-360 755 0
-360 571 0
-360 721 0
-360 426 0
-360 675 0
-360 544 0
-361 670 0
-361 546 0
-361 781 0
-361 685 0
-361 427 0
-361 644 0
-361 515 0
-361 766 0
-361 517 0
-361 403 0
-362 678 0
-362 495 0
-362 769 0
-362 690 0
-362 585 0
-362 650 0
-362 442 0
-362 786 0
-362 478 0
-362 543 0
-362 484 0
-362 550 0
-362 736 0
-362 725 0
-362 432 0
-362 418 0
-362 761 0
-362 795 0
-363 780 0
-363 758 0
-363 756 0
-363 698 0
-363 752 0
-363 700 0
-363 777 0
-363 762 0
-363 503 0
-363 439 0
-363 794 0
-363 423 0
-363 611 0
-363 642 0
-363 732 0
-363 408 0
-363 406 0
-364 572 0
-364 770 0
-364 754 0
-364 747 0
-364 422 0
-364 442 0
-364 746 0
-364 507 0
-364 418 0
-364 518 0
-364 619 0
-364 671 0
-364 459 0
-364 521 0
-364 768 0
-364 606 0
-364 708 0
-365 627 0
-365 691 0
-365 767 0
-365 645 0
-365 592 0
-365 463 0
-365 686 0
-365 579 0
-365 522 0
-365 527 0
-365 530 0
-365 425 0
-365 624 0
-365 460 0
-366 683 0
-366 693 0
-366 784 0
-366 633 0
-366 727 0
-366 643 0
-366 524 0
-366 788 0
-366 576 0
-366 690 0
-366 623 0
-366 748 0
-366 464 0
-366 402 0
-366 530 0
-366 758 0
-366 437 0
-366 474 0
-366 436 0
-367 427 0
-367 597 0
-367 790 0
-367 782 0
-367 726 0
-367 725 0
-367 779 0
-367 629 0
-367 579 0
-367 711 0
-367 764 0
-367 594 0
-367 766 0
-367 622 0
-367 716 0
-367 420 0
-367 469 0
-368 741 0
-368 572 0
-368 474 0
-368 540 0
-368 532 0
-368 489 0
-368 620 0
-368 694 0
-368 681 0
-368 415 0
-368 780 0
-368 471 0
-368 408 0
-368 799 0
-368 783 0
-368 663 0
-368 569 0
-368 483 0
-368 623 0
-369 685 0
-369 775 0
-369 721 0
-369 794 0
-369 689 0
-369 484 0
-369 405 0
-369 513 0
-369 501 0
-370 658 0
-370 427 0
-370 417 0
-370 780 0
-370 668 0
-370 607 0
-370 468 0
-370 602 0
-370 723 0
-370 632 0
-370 609 0
-370 514 0
-371 774 0
-371 508 0
-371 436 0
-371 478 0
-371 401 0
-371 792 0
-371 624 0
-371 618 0
-371 438 0
-371 728 0
-371 416 0
-371 694 0
-371 532 0
-371 736 0
-371 674 0
-372 707 0
-372 742 0
-372 508 0
-372 527 0
-372 800 0
-372 404 0
-372 612 0
-372 737 0
-372 647 0
-372 418 0
-372 411 0
-372 435 0
-372 420 0
-372 568 0
-372 748 0
-373 511 0
-373 606 0
-373 790 0
-373 713 0
-373 690 0
-373 775 0
-373 712 0
-373 687 0
-373 671 0
-373 468 0
-373 426 0
-373 540 0
-373 582 0
-373 770 0
-373 758 0
-373 431 0
-373 717 0
-374 730 0
-374 712 0
-374 514 0
-374 625 0
-374 731 0
-374 632 0
-374 423 0
-374 508 0
-374 422 0
-374 485 0
-374 468 0
-374 675 0
-375 760 0
-375 555 0
-375 723 0
-375 772 0
-375 717 0
-375 534 0
-375 506 0
-375 624 0
-375 678 0
-375 510 0
-375 418 0
-375 442 0
-375 504 0
-375 415 0
-375 575 0
-375 677 0
-375 664 0
-375 436 0
-376 702 0
-376 779 0
-376 575 0
-376 712 0
-376 581 0
-376 708 0
-376 484 0
-376 404 0
-376 580 0
-376 452 0
-376 792 0
-376 482 0
-376 602 0
-377 789 0
-377 566 0
-377 554 0
-377 436 0
-377 519 0
-377 672 0
-377 593 0
-377 669 0
-377 479 0
-377 656 0
-377 471 0
-377 797 0
-377 616 0
-378 768 0
-378 754 0
-378 722 0
-378 607 0
-378 603 0
-378 721 0
-378 775 0
-378 756 0
-378 459 0
-378 684 0
-378 726 0
-378 438 0
-378 743 0
-378 741 0
-378 432 0
-378 469 0
-378 463 0
-379 717 0
-379 686 0
-379 506 0
-379 528 0
-379 795 0
-379 434 0
-379 541 0
-379 481 0
-379 474 0
-379 771 0
-379 523 0
-379 786 0
-379 677 0
-379 591 0
-379 493 0
-379 710 0
-379 570 0
-379 452 0
-380 738 0
-380 583 0
-380 788 0
-380 671 0
-380 585 0
-380 755 0
-380 717 0
-380 478 0
-380 479 0
-380 558 0
-380 619 0
-380 499 0
-380 644 0
-380 418 0
-381 737 0
-381 474 0
-381 538 0
-381 525 0
-381 690 0
-381 692 0
-381 522 0
-381 776 0
-381 682 0
-381 567 0
-381 687 0
-381 459 0
-381 431 0
-381 484 0
-381 611 0
-381 417 0
-381 679 0
-381 745 0
-381 772 0
-381 798 0
-382 638 0
-382 790 0
-382 783 0
-382 762 0
-382 761 0
-382 655 0
-382 729 0
-382 786 0
-382 433 0
-382 795 0
-382 544 0
-382 670 0
-382 591 0
-382 611 0
-382 754 0
-382 722 0
-383 650 0
-383 529 0
-383 445 0
-383 770 0
-383 608 0
-383 646 0
-383 649 0
-383 512 0
-383 778 0
-383 423 0
-383 725 0
-384 510 0
-384 601 0
-384 698 0
-384 665 0
-384 713 0
-384 608 0
-384 755 0
-384 740 0
-384 707 0
-384 468 0
-384 611 0
-384 499 0
-384 799 0
-384 485 0
-384 671 0
-384 498 0
-384 421 0
-384 520 0
-385 709 0
-385 706 0
-385 645 0
-385 613 0
-385 545 0
-385 562 0
-385 406 0
-385 692 0
-385 503 0
-385 629 0
-385 427 0
-385 519 0
-385 783 0
-385 477 0
-385 682 0
-385 711 0
-386 634 0
-386 726 0
-386 729 0
-386 512 0
-386 680 0
-386 625 0
-386 508 0
-386 670 0
-386 684 0
-386 464 0
-386 669 0
-387 653 0
-387 448 0
-387 736 0
-387 401 0
-387 648 0
-387 728 0
-387 450 0
-387 788 0
-387 553 0
-387 714 0
-387 427 0
-387 589 0
-387 789 0
-387 765 0
-387 446 0
-387 800 0
-387 724 0
-388 419 0
-388 790 0
-388 786 0
-388 713 0
-388 606 0
-388 655 0
-388 660 0
-388 710 0
-388 698 0
-388 570 0
-388 465 0
-388 574 0
-388 565 0
-388 545 0
-388 681 0
-389 754 0
-389 561 0
-389 529 0
-389 785 0
-389 457 0
-389 733 0
-389 424 0
-389 712 0
-389 433 0
-389 579 0
-389 509 0
-389 790 0
-389 664 0
-389 577 0
-389 517 0
-389 403 0
-389 799 0
-389 652 0
-389 719 0
-389 725 0
-389 420 0
-390 738 0
-390 532 0
-390 569 0
-390 668 0
-390 444 0
-390 755 0
-390 488 0
-390 460 0
-390 719 0
-390 468 0
-390 566 0
-390 794 0
-390 507 0
-390 598 0
-390 526 0
-390 435 0
-390 542 0
-390 699 0
-391 762 0
-391 726 0
-391 706 0
-391 777 0
-391 634 0
-391 524 0
-391 562 0
-391 511 0
-391 434 0
-391 484 0
-391 583 0
-391 578 0
-391 625 0
-391 692 0
-391 450 0
-391 559 0
-391 728 0
-391 609 0
-392 633 0
-392 625 0
-392 560 0
-392 677 0
-392 602 0
-392 628 0
-392 800 0
-392 547 0
-392 440 0
-392 744 0
-392 497 0
-392 594 0
-392 682 0
-392 666 0
-392 728 0
-392 580 0
-392 502 0
-392 709 0
-393 575 0
-393 626 0
-393 576 0
-393 548 0
-393 588 0
-393 791 0
-393 490 0
-393 448 0
-393 628 0
-393 600 0
-393 675 0
-393 709 0
-393 444 0
-393 428 0
-393 661 0
-393 450 0
-393 688 0
-393 463 0
-393 553 0
-393 577 0
-393 451 0
-394 608 0
-394 777 0
-394 792 0
-394 616 0
-394 788 0
-394 673 0
-394 691 0
-394 528 0
-394 636 0
-394 436 0
-394 637 0
-394 635 0
-394 719 0
-394 522 0
-394 532 0
-394 415 0
-395 719 0
-395 625 0
-395 634 0
-395 752 0
-395 596 0
-395 630 0
-395 671 0
-395 701 0
-395 800 0
-395 407 0
-395 482 0
-395 470 0
-395 740 0
-395 700 0
-395 446 0
-395 787 0
-396 784 0
-396 709 0
-396 694 0
-396 657 0
-396 569 0
-396 567 0
-396 755 0
-396 586 0
-396 693 0
-396 526 0
-396 430 0
-396 712 0
-396 673 0
-396 541 0
-396 516 0
-396 595 0
-396 479 0
-397 748 0
-397 639 0
-397 628 0
-397 536 0
-397 796 0
-397 791 0
-397 520 0
-397 434 0
-397 784 0
-397 720 0
-397 530 0
-397 481 0
-397 623 0
-397 648 0
-397 769 0
-397 728 0
-397 504 0
-398 763 0
-398 603 0
-398 521 0
-398 465 0
-398 530 0
-398 435 0
-398 533 0
-398 769 0
-398 484 0
-398 782 0
-399 711 0
-399 563 0
-399 555 0
-399 716 0
-399 470 0
-399 571 0
-399 679 0
-399 637 0
-399 743 0
-399 479 0
-399 522 0
-399 507 0
-400 766 0
-400 773 0
-400 706 0
-400 610 0
-400 663 0
-400 793 0
-400 491 0
-400 711 0
-400 403 0
-400 508 0
-400 497 0
-400 411 0
62 0
