p cnf 1545 17584
235 0
236 0
-237 0
238 0
-239 0
-240 0
241 0
242 0
-243 0
244 0
245 0
246 0
-247 0
248 0
249 0
-250 0
251 0
252 0
253 0
254 0
-255 0
-256 0
-257 0
-258 0
259 0
260 0
261 0
-262 0
-263 0
264 0
265 0
-1 -6 -10 -11 -13 -15 266 0
1 6 -10 -11 -13 -15 266 0
1 -6 10 -11 -13 -15 266 0
1 -6 -10 11 -13 -15 266 0
1 -6 -10 -11 13 -15 266 0
1 -6 -10 -11 -13 15 266 0
1 -6 -10 -11 -13 -15 -266 0
-1 6 10 -11 -13 -15 266 0
-1 6 -10 11 -13 -15 266 0
-1 6 -10 -11 13 -15 266 0
-1 6 -10 -11 -13 15 266 0
-1 6 -10 -11 -13 -15 -266 0
-1 -6 10 11 -13 -15 266 0
-1 -6 10 -11 13 -15 266 0
-1 -6 10 -11 -13 15 266 0
-1 -6 10 -11 -13 -15 -266 0
-1 -6 -10 11 13 -15 266 0
-1 -6 -10 11 -13 15 266 0
-1 -6 -10 11 -13 -15 -266 0
-1 -6 -10 -11 13 15 266 0
-1 -6 -10 -11 13 -15 -266 0
-1 -6 -10 -11 -13 15 -266 0
1 6 10 11 -13 -15 266 0
1 6 10 -11 13 -15 266 0
1 6 10 -11 -13 15 266 0
1 6 10 -11 -13 -15 -266 0
1 6 -10 11 13 -15 266 0
1 6 -10 11 -13 15 266 0
1 6 -10 11 -13 -15 -266 0
1 6 -10 -11 13 15 266 0
1 6 -10 -11 13 -15 -266 0
1 6 -10 -11 -13 15 -266 0
1 -6 10 11 13 -15 266 0
1 -6 10 11 -13 15 266 0
1 -6 10 11 -13 -15 -266 0
1 -6 10 -11 13 15 266 0
1 -6 10 -11 13 -15 -266 0
1 -6 10 -11 -13 15 -266 0
1 -6 -10 11 13 15 266 0
1 -6 -10 11 13 -15 -266 0
1 -6 -10 11 -13 15 -266 0
1 -6 -10 -11 13 15 -266 0
-1 6 10 11 13 -15 266 0
-1 6 10 11 -13 15 266 0
-1 6 10 11 -13 -15 -266 0
-1 6 10 -11 13 15 266 0
-1 6 10 -11 13 -15 -266 0
-1 6 10 -11 -13 15 -266 0
-1 6 -10 11 13 15 266 0
-1 6 -10 11 13 -15 -266 0
-1 6 -10 11 -13 15 -266 0
-1 6 -10 -11 13 15 -266 0
-1 -6 10 11 13 15 266 0
-1 -6 10 11 13 -15 -266 0
-1 -6 10 11 -13 15 -266 0
-1 -6 10 -11 13 15 -266 0
-1 -6 -10 11 13 15 -266 0
1 6 10 11 13 15 266 0
1 6 10 11 13 -15 -266 0
1 6 10 11 -13 15 -266 0
1 6 10 -11 13 15 -266 0
1 6 -10 11 13 15 -266 0
1 -6 10 11 13 15 -266 0
-1 6 10 11 13 15 -266 0
266 -16 -18 -20 -25 -26 267 0
-266 16 -18 -20 -25 -26 267 0
-266 -16 18 -20 -25 -26 267 0
-266 -16 -18 20 -25 -26 267 0
-266 -16 -18 -20 25 -26 267 0
-266 -16 -18 -20 -25 26 267 0
-266 -16 -18 -20 -25 -26 -267 0
266 16 18 -20 -25 -26 267 0
266 16 -18 20 -25 -26 267 0
266 16 -18 -20 25 -26 267 0
266 16 -18 -20 -25 26 267 0
266 16 -18 -20 -25 -26 -267 0
266 -16 18 20 -25 -26 267 0
266 -16 18 -20 25 -26 267 0
266 -16 18 -20 -25 26 267 0
266 -16 18 -20 -25 -26 -267 0
266 -16 -18 20 25 -26 267 0
266 -16 -18 20 -25 26 267 0
266 -16 -18 20 -25 -26 -267 0
266 -16 -18 -20 25 26 267 0
266 -16 -18 -20 25 -26 -267 0
266 -16 -18 -20 -25 26 -267 0
-266 16 18 20 -25 -26 267 0
-266 16 18 -20 25 -26 267 0
-266 16 18 -20 -25 26 267 0
-266 16 18 -20 -25 -26 -267 0
-266 16 -18 20 25 -26 267 0
-266 16 -18 20 -25 26 267 0
-266 16 -18 20 -25 -26 -267 0
-266 16 -18 -20 25 26 267 0
-266 16 -18 -20 25 -26 -267 0
-266 16 -18 -20 -25 26 -267 0
-266 -16 18 20 25 -26 267 0
-266 -16 18 20 -25 26 267 0
-266 -16 18 20 -25 -26 -267 0
-266 -16 18 -20 25 26 267 0
-266 -16 18 -20 25 -26 -267 0
-266 -16 18 -20 -25 26 -267 0
-266 -16 -18 20 25 26 267 0
-266 -16 -18 20 25 -26 -267 0
-266 -16 -18 20 -25 26 -267 0
-266 -16 -18 -20 25 26 -267 0
266 16 18 20 25 -26 267 0
266 16 18 20 -25 26 267 0
266 16 18 20 -25 -26 -267 0
266 16 18 -20 25 26 267 0
266 16 18 -20 25 -26 -267 0
266 16 18 -20 -25 26 -267 0
266 16 -18 20 25 26 267 0
266 16 -18 20 25 -26 -267 0
266 16 -18 20 -25 26 -267 0
266 16 -18 -20 25 26 -267 0
266 -16 18 20 25 26 267 0
266 -16 18 20 25 -26 -267 0
266 -16 18 20 -25 26 -267 0
266 -16 18 -20 25 26 -267 0
266 -16 -18 20 25 26 -267 0
-266 16 18 20 25 26 267 0
-266 16 18 20 25 -26 -267 0
-266 16 18 20 -25 26 -267 0
-266 16 18 -20 25 26 -267 0
-266 16 -18 20 25 26 -267 0
-266 -16 18 20 25 26 -267 0
266 16 18 20 25 26 -267 0
267 -28 -30 -36 -40 -42 268 0
-267 28 -30 -36 -40 -42 268 0
-267 -28 30 -36 -40 -42 268 0
-267 -28 -30 36 -40 -42 268 0
-267 -28 -30 -36 40 -42 268 0
-267 -28 -30 -36 -40 42 268 0
-267 -28 -30 -36 -40 -42 -268 0
267 28 30 -36 -40 -42 268 0
267 28 -30 36 -40 -42 268 0
267 28 -30 -36 40 -42 268 0
267 28 -30 -36 -40 42 268 0
267 28 -30 -36 -40 -42 -268 0
267 -28 30 36 -40 -42 268 0
267 -28 30 -36 40 -42 268 0
267 -28 30 -36 -40 42 268 0
267 -28 30 -36 -40 -42 -268 0
267 -28 -30 36 40 -42 268 0
267 -28 -30 36 -40 42 268 0
267 -28 -30 36 -40 -42 -268 0
267 -28 -30 -36 40 42 268 0
267 -28 -30 -36 40 -42 -268 0
267 -28 -30 -36 -40 42 -268 0
-267 28 30 36 -40 -42 268 0
-267 28 30 -36 40 -42 268 0
-267 28 30 -36 -40 42 268 0
-267 28 30 -36 -40 -42 -268 0
-267 28 -30 36 40 -42 268 0
-267 28 -30 36 -40 42 268 0
-267 28 -30 36 -40 -42 -268 0
-267 28 -30 -36 40 42 268 0
-267 28 -30 -36 40 -42 -268 0
-267 28 -30 -36 -40 42 -268 0
-267 -28 30 36 40 -42 268 0
-267 -28 30 36 -40 42 268 0
-267 -28 30 36 -40 -42 -268 0
-267 -28 30 -36 40 42 268 0
-267 -28 30 -36 40 -42 -268 0
-267 -28 30 -36 -40 42 -268 0
-267 -28 -30 36 40 42 268 0
-267 -28 -30 36 40 -42 -268 0
-267 -28 -30 36 -40 42 -268 0
-267 -28 -30 -36 40 42 -268 0
267 28 30 36 40 -42 268 0
267 28 30 36 -40 42 268 0
267 28 30 36 -40 -42 -268 0
267 28 30 -36 40 42 268 0
267 28 30 -36 40 -42 -268 0
267 28 30 -36 -40 42 -268 0
267 28 -30 36 40 42 268 0
267 28 -30 36 40 -42 -268 0
267 28 -30 36 -40 42 -268 0
267 28 -30 -36 40 42 -268 0
267 -28 30 36 40 42 268 0
267 -28 30 36 40 -42 -268 0
267 -28 30 36 -40 42 -268 0
267 -28 30 -36 40 42 -268 0
267 -28 -30 36 40 42 -268 0
-267 28 30 36 40 42 268 0
-267 28 30 36 40 -42 -268 0
-267 28 30 36 -40 42 -268 0
-267 28 30 -36 40 42 -268 0
-267 28 -30 36 40 42 -268 0
-267 -28 30 36 40 42 -268 0
267 28 30 36 40 42 -268 0
-268 -43 -44 -49 0
268 43 -44 -49 0
268 -43 44 -49 0
268 -43 -44 49 0
-268 43 44 -49 0
-268 43 -44 49 0
-268 -43 44 49 0
268 43 44 49 0
-269 10 0
-269 -12 0
269 -10 12 0
-270 12 0
-270 -14 0
270 -12 14 0
-271 10 0
-271 16 0
271 -10 -16 0
-272 10 0
-272 14 0
-272 -16 0
272 -10 -14 16 0
-273 -12 0
-273 14 0
-273 16 0
273 12 -14 -16 0
269 -270 -271 -272 -273 -80 0
-269 270 -271 -272 -273 -80 0
-269 -270 271 -272 -273 -80 0
-269 -270 -271 272 -273 -80 0
-269 -270 -271 -272 273 -80 0
-269 -270 -271 -272 -273 80 0
269 270 271 -272 -273 -80 0
269 270 -271 272 -273 -80 0
269 270 -271 -272 273 -80 0
269 270 -271 -272 -273 80 0
269 -270 271 272 -273 -80 0
269 -270 271 -272 273 -80 0
269 -270 271 -272 -273 80 0
269 -270 -271 272 273 -80 0
269 -270 -271 272 -273 80 0
269 -270 -271 -272 273 80 0
-269 270 271 272 -273 -80 0
-269 270 271 -272 273 -80 0
-269 270 271 -272 -273 80 0
-269 270 -271 272 273 -80 0
-269 270 -271 272 -273 80 0
-269 270 -271 -272 273 80 0
-269 -270 271 272 273 -80 0
-269 -270 271 272 -273 80 0
-269 -270 271 -272 273 80 0
-269 -270 -271 272 273 80 0
269 270 271 272 273 -80 0
269 270 271 272 -273 80 0
269 270 271 -272 273 80 0
269 270 -271 272 273 80 0
269 -270 271 272 273 80 0
-269 270 271 272 273 80 0
-274 -18 0
-274 22 0
274 18 -22 0
-275 18 0
-275 20 0
-275 -22 0
275 -18 -20 22 0
-276 20 0
-276 24 0
276 -20 -24 0
-277 18 0
-277 -22 0
-277 24 0
277 -18 22 -24 0
-278 20 0
-278 22 0
-278 -24 0
278 -20 -22 24 0
274 -275 -276 -277 -278 -111 0
-274 275 -276 -277 -278 -111 0
-274 -275 276 -277 -278 -111 0
-274 -275 -276 277 -278 -111 0
-274 -275 -276 -277 278 -111 0
-274 -275 -276 -277 -278 111 0
274 275 276 -277 -278 -111 0
274 275 -276 277 -278 -111 0
274 275 -276 -277 278 -111 0
274 275 -276 -277 -278 111 0
274 -275 276 277 -278 -111 0
274 -275 276 -277 278 -111 0
274 -275 276 -277 -278 111 0
274 -275 -276 277 278 -111 0
274 -275 -276 277 -278 111 0
274 -275 -276 -277 278 111 0
-274 275 276 277 -278 -111 0
-274 275 276 -277 278 -111 0
-274 275 276 -277 -278 111 0
-274 275 -276 277 278 -111 0
-274 275 -276 277 -278 111 0
-274 275 -276 -277 278 111 0
-274 -275 276 277 278 -111 0
-274 -275 276 277 -278 111 0
-274 -275 276 -277 278 111 0
-274 -275 -276 277 278 111 0
274 275 276 277 278 -111 0
274 275 276 277 -278 111 0
274 275 276 -277 278 111 0
274 275 -276 277 278 111 0
274 -275 276 277 278 111 0
-274 275 276 277 278 111 0
-279 -26 0
-279 30 0
279 26 -30 0
-280 26 0
-280 28 0
-280 -30 0
280 -26 -28 30 0
-281 28 0
-281 32 0
281 -28 -32 0
-282 26 0
-282 -30 0
-282 32 0
282 -26 30 -32 0
-283 28 0
-283 30 0
-283 -32 0
283 -28 -30 32 0
279 -280 -281 -282 -283 -142 0
-279 280 -281 -282 -283 -142 0
-279 -280 281 -282 -283 -142 0
-279 -280 -281 282 -283 -142 0
-279 -280 -281 -282 283 -142 0
-279 -280 -281 -282 -283 142 0
279 280 281 -282 -283 -142 0
279 280 -281 282 -283 -142 0
279 280 -281 -282 283 -142 0
279 280 -281 -282 -283 142 0
279 -280 281 282 -283 -142 0
279 -280 281 -282 283 -142 0
279 -280 281 -282 -283 142 0
279 -280 -281 282 283 -142 0
279 -280 -281 282 -283 142 0
279 -280 -281 -282 283 142 0
-279 280 281 282 -283 -142 0
-279 280 281 -282 283 -142 0
-279 280 281 -282 -283 142 0
-279 280 -281 282 283 -142 0
-279 280 -281 282 -283 142 0
-279 280 -281 -282 283 142 0
-279 -280 281 282 283 -142 0
-279 -280 281 282 -283 142 0
-279 -280 281 -282 283 142 0
-279 -280 -281 282 283 142 0
279 280 281 282 283 -142 0
279 280 281 282 -283 142 0
279 280 281 -282 283 142 0
279 280 -281 282 283 142 0
279 -280 281 282 283 142 0
-279 280 281 282 283 142 0
-284 34 0
-284 -36 0
284 -34 36 0
-285 36 0
-285 -38 0
285 -36 38 0
-286 34 0
-286 40 0
286 -34 -40 0
-287 34 0
-287 38 0
-287 -40 0
287 -34 -38 40 0
-288 -36 0
-288 38 0
-288 40 0
288 36 -38 -40 0
284 -285 -286 -287 -288 -173 0
-284 285 -286 -287 -288 -173 0
-284 -285 286 -287 -288 -173 0
-284 -285 -286 287 -288 -173 0
-284 -285 -286 -287 288 -173 0
-284 -285 -286 -287 -288 173 0
284 285 286 -287 -288 -173 0
284 285 -286 287 -288 -173 0
284 285 -286 -287 288 -173 0
284 285 -286 -287 -288 173 0
284 -285 286 287 -288 -173 0
284 -285 286 -287 288 -173 0
284 -285 286 -287 -288 173 0
284 -285 -286 287 288 -173 0
284 -285 -286 287 -288 173 0
284 -285 -286 -287 288 173 0
-284 285 286 287 -288 -173 0
-284 285 286 -287 288 -173 0
-284 285 286 -287 -288 173 0
-284 285 -286 287 288 -173 0
-284 285 -286 287 -288 173 0
-284 285 -286 -287 288 173 0
-284 -285 286 287 288 -173 0
-284 -285 286 287 -288 173 0
-284 -285 286 -287 288 173 0
-284 -285 -286 287 288 173 0
284 285 286 287 288 -173 0
284 285 286 287 -288 173 0
284 285 286 -287 288 173 0
284 285 -286 287 288 173 0
284 -285 286 287 288 173 0
-284 285 286 287 288 173 0
-289 -42 0
-289 46 0
289 42 -46 0
-290 42 0
-290 44 0
-290 -46 0
290 -42 -44 46 0
-291 44 0
-291 48 0
291 -44 -48 0
-292 42 0
-292 -46 0
-292 48 0
292 -42 46 -48 0
-293 44 0
-293 46 0
-293 -48 0
293 -44 -46 48 0
289 -290 -291 -292 -293 -204 0
-289 290 -291 -292 -293 -204 0
-289 -290 291 -292 -293 -204 0
-289 -290 -291 292 -293 -204 0
-289 -290 -291 -292 293 -204 0
-289 -290 -291 -292 -293 204 0
289 290 291 -292 -293 -204 0
289 290 -291 292 -293 -204 0
289 290 -291 -292 293 -204 0
289 290 -291 -292 -293 204 0
289 -290 291 292 -293 -204 0
289 -290 291 -292 293 -204 0
289 -290 291 -292 -293 204 0
289 -290 -291 292 293 -204 0
289 -290 -291 292 -293 204 0
289 -290 -291 -292 293 204 0
-289 290 291 292 -293 -204 0
-289 290 291 -292 293 -204 0
-289 290 291 -292 -293 204 0
-289 290 -291 292 293 -204 0
-289 290 -291 292 -293 204 0
-289 290 -291 -292 293 204 0
-289 -290 291 292 293 -204 0
-289 -290 291 292 -293 204 0
-289 -290 291 -292 293 204 0
-289 -290 -291 292 293 204 0
289 290 291 292 293 -204 0
289 290 291 292 -293 204 0
289 290 291 -292 293 204 0
289 290 -291 292 293 204 0
289 -290 291 292 293 204 0
-289 290 291 292 293 204 0
-294 80 0
-294 -142 0
294 -80 142 0
-295 80 0
-295 -111 0
-295 173 0
295 -80 111 -173 0
-296 -80 0
-296 204 0
296 80 -204 0
-297 80 0
-297 111 0
-297 -142 0
-297 204 0
297 -80 -111 142 -204 0
-298 -80 0
-298 173 0
-298 204 0
298 80 -173 -204 0
-299 111 0
-299 173 0
-299 204 0
299 -111 -173 -204 0
-300 111 0
-300 142 0
-300 173 0
-300 -204 0
300 -111 -142 -173 204 0
294 -295 -296 -297 -298 -299 301 0
-294 295 -296 -297 -298 -299 301 0
-294 -295 296 -297 -298 -299 301 0
-294 -295 -296 297 -298 -299 301 0
-294 -295 -296 -297 298 -299 301 0
-294 -295 -296 -297 -298 299 301 0
-294 -295 -296 -297 -298 -299 -301 0
294 295 296 -297 -298 -299 301 0
294 295 -296 297 -298 -299 301 0
294 295 -296 -297 298 -299 301 0
294 295 -296 -297 -298 299 301 0
294 295 -296 -297 -298 -299 -301 0
294 -295 296 297 -298 -299 301 0
294 -295 296 -297 298 -299 301 0
294 -295 296 -297 -298 299 301 0
294 -295 296 -297 -298 -299 -301 0
294 -295 -296 297 298 -299 301 0
294 -295 -296 297 -298 299 301 0
294 -295 -296 297 -298 -299 -301 0
294 -295 -296 -297 298 299 301 0
294 -295 -296 -297 298 -299 -301 0
294 -295 -296 -297 -298 299 -301 0
-294 295 296 297 -298 -299 301 0
-294 295 296 -297 298 -299 301 0
-294 295 296 -297 -298 299 301 0
-294 295 296 -297 -298 -299 -301 0
-294 295 -296 297 298 -299 301 0
-294 295 -296 297 -298 299 301 0
-294 295 -296 297 -298 -299 -301 0
-294 295 -296 -297 298 299 301 0
-294 295 -296 -297 298 -299 -301 0
-294 295 -296 -297 -298 299 -301 0
-294 -295 296 297 298 -299 301 0
-294 -295 296 297 -298 299 301 0
-294 -295 296 297 -298 -299 -301 0
-294 -295 296 -297 298 299 301 0
-294 -295 296 -297 298 -299 -301 0
-294 -295 296 -297 -298 299 -301 0
-294 -295 -296 297 298 299 301 0
-294 -295 -296 297 298 -299 -301 0
-294 -295 -296 297 -298 299 -301 0
-294 -295 -296 -297 298 299 -301 0
294 295 296 297 298 -299 301 0
294 295 296 297 -298 299 301 0
294 295 296 297 -298 -299 -301 0
294 295 296 -297 298 299 301 0
294 295 296 -297 298 -299 -301 0
294 295 296 -297 -298 299 -301 0
294 295 -296 297 298 299 301 0
294 295 -296 297 298 -299 -301 0
294 295 -296 297 -298 299 -301 0
294 295 -296 -297 298 299 -301 0
294 -295 296 297 298 299 301 0
294 -295 296 297 298 -299 -301 0
294 -295 296 297 -298 299 -301 0
294 -295 296 -297 298 299 -301 0
294 -295 -296 297 298 299 -301 0
-294 295 296 297 298 299 301 0
-294 295 296 297 298 -299 -301 0
-294 295 296 297 -298 299 -301 0
-294 295 296 -297 298 299 -301 0
-294 295 -296 297 298 299 -301 0
-294 -295 296 297 298 299 -301 0
294 295 296 297 298 299 -301 0
-301 -300 0
301 300 0
-2 -7 -11 -12 -14 -16 302 0
2 7 -11 -12 -14 -16 302 0
2 -7 11 -12 -14 -16 302 0
2 -7 -11 12 -14 -16 302 0
2 -7 -11 -12 14 -16 302 0
2 -7 -11 -12 -14 16 302 0
2 -7 -11 -12 -14 -16 -302 0
-2 7 11 -12 -14 -16 302 0
-2 7 -11 12 -14 -16 302 0
-2 7 -11 -12 14 -16 302 0
-2 7 -11 -12 -14 16 302 0
-2 7 -11 -12 -14 -16 -302 0
-2 -7 11 12 -14 -16 302 0
-2 -7 11 -12 14 -16 302 0
-2 -7 11 -12 -14 16 302 0
-2 -7 11 -12 -14 -16 -302 0
-2 -7 -11 12 14 -16 302 0
-2 -7 -11 12 -14 16 302 0
-2 -7 -11 12 -14 -16 -302 0
-2 -7 -11 -12 14 16 302 0
-2 -7 -11 -12 14 -16 -302 0
-2 -7 -11 -12 -14 16 -302 0
2 7 11 12 -14 -16 302 0
2 7 11 -12 14 -16 302 0
2 7 11 -12 -14 16 302 0
2 7 11 -12 -14 -16 -302 0
2 7 -11 12 14 -16 302 0
2 7 -11 12 -14 16 302 0
2 7 -11 12 -14 -16 -302 0
2 7 -11 -12 14 16 302 0
2 7 -11 -12 14 -16 -302 0
2 7 -11 -12 -14 16 -302 0
2 -7 11 12 14 -16 302 0
2 -7 11 12 -14 16 302 0
2 -7 11 12 -14 -16 -302 0
2 -7 11 -12 14 16 302 0
2 -7 11 -12 14 -16 -302 0
2 -7 11 -12 -14 16 -302 0
2 -7 -11 12 14 16 302 0
2 -7 -11 12 14 -16 -302 0
2 -7 -11 12 -14 16 -302 0
2 -7 -11 -12 14 16 -302 0
-2 7 11 12 14 -16 302 0
-2 7 11 12 -14 16 302 0
-2 7 11 12 -14 -16 -302 0
-2 7 11 -12 14 16 302 0
-2 7 11 -12 14 -16 -302 0
-2 7 11 -12 -14 16 -302 0
-2 7 -11 12 14 16 302 0
-2 7 -11 12 14 -16 -302 0
-2 7 -11 12 -14 16 -302 0
-2 7 -11 -12 14 16 -302 0
-2 -7 11 12 14 16 302 0
-2 -7 11 12 14 -16 -302 0
-2 -7 11 12 -14 16 -302 0
-2 -7 11 -12 14 16 -302 0
-2 -7 -11 12 14 16 -302 0
2 7 11 12 14 16 302 0
2 7 11 12 14 -16 -302 0
2 7 11 12 -14 16 -302 0
2 7 11 -12 14 16 -302 0
2 7 -11 12 14 16 -302 0
2 -7 11 12 14 16 -302 0
-2 7 11 12 14 16 -302 0
302 -17 -19 -21 -26 -27 303 0
-302 17 -19 -21 -26 -27 303 0
-302 -17 19 -21 -26 -27 303 0
-302 -17 -19 21 -26 -27 303 0
-302 -17 -19 -21 26 -27 303 0
-302 -17 -19 -21 -26 27 303 0
-302 -17 -19 -21 -26 -27 -303 0
302 17 19 -21 -26 -27 303 0
302 17 -19 21 -26 -27 303 0
302 17 -19 -21 26 -27 303 0
302 17 -19 -21 -26 27 303 0
302 17 -19 -21 -26 -27 -303 0
302 -17 19 21 -26 -27 303 0
302 -17 19 -21 26 -27 303 0
302 -17 19 -21 -26 27 303 0
302 -17 19 -21 -26 -27 -303 0
302 -17 -19 21 26 -27 303 0
302 -17 -19 21 -26 27 303 0
302 -17 -19 21 -26 -27 -303 0
302 -17 -19 -21 26 27 303 0
302 -17 -19 -21 26 -27 -303 0
302 -17 -19 -21 -26 27 -303 0
-302 17 19 21 -26 -27 303 0
-302 17 19 -21 26 -27 303 0
-302 17 19 -21 -26 27 303 0
-302 17 19 -21 -26 -27 -303 0
-302 17 -19 21 26 -27 303 0
-302 17 -19 21 -26 27 303 0
-302 17 -19 21 -26 -27 -303 0
-302 17 -19 -21 26 27 303 0
-302 17 -19 -21 26 -27 -303 0
-302 17 -19 -21 -26 27 -303 0
-302 -17 19 21 26 -27 303 0
-302 -17 19 21 -26 27 303 0
-302 -17 19 21 -26 -27 -303 0
-302 -17 19 -21 26 27 303 0
-302 -17 19 -21 26 -27 -303 0
-302 -17 19 -21 -26 27 -303 0
-302 -17 -19 21 26 27 303 0
-302 -17 -19 21 26 -27 -303 0
-302 -17 -19 21 -26 27 -303 0
-302 -17 -19 -21 26 27 -303 0
302 17 19 21 26 -27 303 0
302 17 19 21 -26 27 303 0
302 17 19 21 -26 -27 -303 0
302 17 19 -21 26 27 303 0
302 17 19 -21 26 -27 -303 0
302 17 19 -21 -26 27 -303 0
302 17 -19 21 26 27 303 0
302 17 -19 21 26 -27 -303 0
302 17 -19 21 -26 27 -303 0
302 17 -19 -21 26 27 -303 0
302 -17 19 21 26 27 303 0
302 -17 19 21 26 -27 -303 0
302 -17 19 21 -26 27 -303 0
302 -17 19 -21 26 27 -303 0
302 -17 -19 21 26 27 -303 0
-302 17 19 21 26 27 303 0
-302 17 19 21 26 -27 -303 0
-302 17 19 21 -26 27 -303 0
-302 17 19 -21 26 27 -303 0
-302 17 -19 21 26 27 -303 0
-302 -17 19 21 26 27 -303 0
302 17 19 21 26 27 -303 0
303 -29 -31 -37 -41 -43 304 0
-303 29 -31 -37 -41 -43 304 0
-303 -29 31 -37 -41 -43 304 0
-303 -29 -31 37 -41 -43 304 0
-303 -29 -31 -37 41 -43 304 0
-303 -29 -31 -37 -41 43 304 0
-303 -29 -31 -37 -41 -43 -304 0
303 29 31 -37 -41 -43 304 0
303 29 -31 37 -41 -43 304 0
303 29 -31 -37 41 -43 304 0
303 29 -31 -37 -41 43 304 0
303 29 -31 -37 -41 -43 -304 0
303 -29 31 37 -41 -43 304 0
303 -29 31 -37 41 -43 304 0
303 -29 31 -37 -41 43 304 0
303 -29 31 -37 -41 -43 -304 0
303 -29 -31 37 41 -43 304 0
303 -29 -31 37 -41 43 304 0
303 -29 -31 37 -41 -43 -304 0
303 -29 -31 -37 41 43 304 0
303 -29 -31 -37 41 -43 -304 0
303 -29 -31 -37 -41 43 -304 0
-303 29 31 37 -41 -43 304 0
-303 29 31 -37 41 -43 304 0
-303 29 31 -37 -41 43 304 0
-303 29 31 -37 -41 -43 -304 0
-303 29 -31 37 41 -43 304 0
-303 29 -31 37 -41 43 304 0
-303 29 -31 37 -41 -43 -304 0
-303 29 -31 -37 41 43 304 0
-303 29 -31 -37 41 -43 -304 0
-303 29 -31 -37 -41 43 -304 0
-303 -29 31 37 41 -43 304 0
-303 -29 31 37 -41 43 304 0
-303 -29 31 37 -41 -43 -304 0
-303 -29 31 -37 41 43 304 0
-303 -29 31 -37 41 -43 -304 0
-303 -29 31 -37 -41 43 -304 0
-303 -29 -31 37 41 43 304 0
-303 -29 -31 37 41 -43 -304 0
-303 -29 -31 37 -41 43 -304 0
-303 -29 -31 -37 41 43 -304 0
303 29 31 37 41 -43 304 0
303 29 31 37 -41 43 304 0
303 29 31 37 -41 -43 -304 0
303 29 31 -37 41 43 304 0
303 29 31 -37 41 -43 -304 0
303 29 31 -37 -41 43 -304 0
303 29 -31 37 41 43 304 0
303 29 -31 37 41 -43 -304 0
303 29 -31 37 -41 43 -304 0
303 29 -31 -37 41 43 -304 0
303 -29 31 37 41 43 304 0
303 -29 31 37 41 -43 -304 0
303 -29 31 37 -41 43 -304 0
303 -29 31 -37 41 43 -304 0
303 -29 -31 37 41 43 -304 0
-303 29 31 37 41 43 304 0
-303 29 31 37 41 -43 -304 0
-303 29 31 37 -41 43 -304 0
-303 29 31 -37 41 43 -304 0
-303 29 -31 37 41 43 -304 0
-303 -29 31 37 41 43 -304 0
303 29 31 37 41 43 -304 0
-304 -44 -45 -50 0
304 44 -45 -50 0
304 -44 45 -50 0
304 -44 -45 50 0
-304 44 45 -50 0
-304 44 -45 50 0
-304 -44 45 50 0
304 44 45 50 0
-305 11 0
-305 -13 0
305 -11 13 0
-306 13 0
-306 -15 0
306 -13 15 0
-307 11 0
-307 17 0
307 -11 -17 0
-308 11 0
-308 15 0
-308 -17 0
308 -11 -15 17 0
-309 -13 0
-309 15 0
-309 17 0
309 13 -15 -17 0
305 -306 -307 -308 -309 -81 0
-305 306 -307 -308 -309 -81 0
-305 -306 307 -308 -309 -81 0
-305 -306 -307 308 -309 -81 0
-305 -306 -307 -308 309 -81 0
-305 -306 -307 -308 -309 81 0
305 306 307 -308 -309 -81 0
305 306 -307 308 -309 -81 0
305 306 -307 -308 309 -81 0
305 306 -307 -308 -309 81 0
305 -306 307 308 -309 -81 0
305 -306 307 -308 309 -81 0
305 -306 307 -308 -309 81 0
305 -306 -307 308 309 -81 0
305 -306 -307 308 -309 81 0
305 -306 -307 -308 309 81 0
-305 306 307 308 -309 -81 0
-305 306 307 -308 309 -81 0
-305 306 307 -308 -309 81 0
-305 306 -307 308 309 -81 0
-305 306 -307 308 -309 81 0
-305 306 -307 -308 309 81 0
-305 -306 307 308 309 -81 0
-305 -306 307 308 -309 81 0
-305 -306 307 -308 309 81 0
-305 -306 -307 308 309 81 0
305 306 307 308 309 -81 0
305 306 307 308 -309 81 0
305 306 307 -308 309 81 0
305 306 -307 308 309 81 0
305 -306 307 308 309 81 0
-305 306 307 308 309 81 0
-310 -19 0
-310 23 0
310 19 -23 0
-311 19 0
-311 21 0
-311 -23 0
311 -19 -21 23 0
-312 21 0
-312 25 0
312 -21 -25 0
-313 19 0
-313 -23 0
-313 25 0
313 -19 23 -25 0
-314 21 0
-314 23 0
-314 -25 0
314 -21 -23 25 0
310 -311 -312 -313 -314 -112 0
-310 311 -312 -313 -314 -112 0
-310 -311 312 -313 -314 -112 0
-310 -311 -312 313 -314 -112 0
-310 -311 -312 -313 314 -112 0
-310 -311 -312 -313 -314 112 0
310 311 312 -313 -314 -112 0
310 311 -312 313 -314 -112 0
310 311 -312 -313 314 -112 0
310 311 -312 -313 -314 112 0
310 -311 312 313 -314 -112 0
310 -311 312 -313 314 -112 0
310 -311 312 -313 -314 112 0
310 -311 -312 313 314 -112 0
310 -311 -312 313 -314 112 0
310 -311 -312 -313 314 112 0
-310 311 312 313 -314 -112 0
-310 311 312 -313 314 -112 0
-310 311 312 -313 -314 112 0
-310 311 -312 313 314 -112 0
-310 311 -312 313 -314 112 0
-310 311 -312 -313 314 112 0
-310 -311 312 313 314 -112 0
-310 -311 312 313 -314 112 0
-310 -311 312 -313 314 112 0
-310 -311 -312 313 314 112 0
310 311 312 313 314 -112 0
310 311 312 313 -314 112 0
310 311 312 -313 314 112 0
310 311 -312 313 314 112 0
310 -311 312 313 314 112 0
-310 311 312 313 314 112 0
-315 -27 0
-315 31 0
315 27 -31 0
-316 27 0
-316 29 0
-316 -31 0
316 -27 -29 31 0
-317 29 0
-317 33 0
317 -29 -33 0
-318 27 0
-318 -31 0
-318 33 0
318 -27 31 -33 0
-319 29 0
-319 31 0
-319 -33 0
319 -29 -31 33 0
315 -316 -317 -318 -319 -143 0
-315 316 -317 -318 -319 -143 0
-315 -316 317 -318 -319 -143 0
-315 -316 -317 318 -319 -143 0
-315 -316 -317 -318 319 -143 0
-315 -316 -317 -318 -319 143 0
315 316 317 -318 -319 -143 0
315 316 -317 318 -319 -143 0
315 316 -317 -318 319 -143 0
315 316 -317 -318 -319 143 0
315 -316 317 318 -319 -143 0
315 -316 317 -318 319 -143 0
315 -316 317 -318 -319 143 0
315 -316 -317 318 319 -143 0
315 -316 -317 318 -319 143 0
315 -316 -317 -318 319 143 0
-315 316 317 318 -319 -143 0
-315 316 317 -318 319 -143 0
-315 316 317 -318 -319 143 0
-315 316 -317 318 319 -143 0
-315 316 -317 318 -319 143 0
-315 316 -317 -318 319 143 0
-315 -316 317 318 319 -143 0
-315 -316 317 318 -319 143 0
-315 -316 317 -318 319 143 0
-315 -316 -317 318 319 143 0
315 316 317 318 319 -143 0
315 316 317 318 -319 143 0
315 316 317 -318 319 143 0
315 316 -317 318 319 143 0
315 -316 317 318 319 143 0
-315 316 317 318 319 143 0
-320 35 0
-320 -37 0
320 -35 37 0
-321 37 0
-321 -39 0
321 -37 39 0
-322 35 0
-322 41 0
322 -35 -41 0
-323 35 0
-323 39 0
-323 -41 0
323 -35 -39 41 0
-324 -37 0
-324 39 0
-324 41 0
324 37 -39 -41 0
320 -321 -322 -323 -324 -174 0
-320 321 -322 -323 -324 -174 0
-320 -321 322 -323 -324 -174 0
-320 -321 -322 323 -324 -174 0
-320 -321 -322 -323 324 -174 0
-320 -321 -322 -323 -324 174 0
320 321 322 -323 -324 -174 0
320 321 -322 323 -324 -174 0
320 321 -322 -323 324 -174 0
320 321 -322 -323 -324 174 0
320 -321 322 323 -324 -174 0
320 -321 322 -323 324 -174 0
320 -321 322 -323 -324 174 0
320 -321 -322 323 324 -174 0
320 -321 -322 323 -324 174 0
320 -321 -322 -323 324 174 0
-320 321 322 323 -324 -174 0
-320 321 322 -323 324 -174 0
-320 321 322 -323 -324 174 0
-320 321 -322 323 324 -174 0
-320 321 -322 323 -324 174 0
-320 321 -322 -323 324 174 0
-320 -321 322 323 324 -174 0
-320 -321 322 323 -324 174 0
-320 -321 322 -323 324 174 0
-320 -321 -322 323 324 174 0
320 321 322 323 324 -174 0
320 321 322 323 -324 174 0
320 321 322 -323 324 174 0
320 321 -322 323 324 174 0
320 -321 322 323 324 174 0
-320 321 322 323 324 174 0
-325 -43 0
-325 47 0
325 43 -47 0
-326 43 0
-326 45 0
-326 -47 0
326 -43 -45 47 0
-327 45 0
-327 49 0
327 -45 -49 0
-328 43 0
-328 -47 0
-328 49 0
328 -43 47 -49 0
-329 45 0
-329 47 0
-329 -49 0
329 -45 -47 49 0
325 -326 -327 -328 -329 -205 0
-325 326 -327 -328 -329 -205 0
-325 -326 327 -328 -329 -205 0
-325 -326 -327 328 -329 -205 0
-325 -326 -327 -328 329 -205 0
-325 -326 -327 -328 -329 205 0
325 326 327 -328 -329 -205 0
325 326 -327 328 -329 -205 0
325 326 -327 -328 329 -205 0
325 326 -327 -328 -329 205 0
325 -326 327 328 -329 -205 0
325 -326 327 -328 329 -205 0
325 -326 327 -328 -329 205 0
325 -326 -327 328 329 -205 0
325 -326 -327 328 -329 205 0
325 -326 -327 -328 329 205 0
-325 326 327 328 -329 -205 0
-325 326 327 -328 329 -205 0
-325 326 327 -328 -329 205 0
-325 326 -327 328 329 -205 0
-325 326 -327 328 -329 205 0
-325 326 -327 -328 329 205 0
-325 -326 327 328 329 -205 0
-325 -326 327 328 -329 205 0
-325 -326 327 -328 329 205 0
-325 -326 -327 328 329 205 0
325 326 327 328 329 -205 0
325 326 327 328 -329 205 0
325 326 327 -328 329 205 0
325 326 -327 328 329 205 0
325 -326 327 328 329 205 0
-325 326 327 328 329 205 0
-330 81 0
-330 -143 0
330 -81 143 0
-331 81 0
-331 -112 0
-331 174 0
331 -81 112 -174 0
-332 -81 0
-332 205 0
332 81 -205 0
-333 81 0
-333 112 0
-333 -143 0
-333 205 0
333 -81 -112 143 -205 0
-334 -81 0
-334 174 0
-334 205 0
334 81 -174 -205 0
-335 112 0
-335 174 0
-335 205 0
335 -112 -174 -205 0
-336 112 0
-336 143 0
-336 174 0
-336 -205 0
336 -112 -143 -174 205 0
330 -331 -332 -333 -334 -335 337 0
-330 331 -332 -333 -334 -335 337 0
-330 -331 332 -333 -334 -335 337 0
-330 -331 -332 333 -334 -335 337 0
-330 -331 -332 -333 334 -335 337 0
-330 -331 -332 -333 -334 335 337 0
-330 -331 -332 -333 -334 -335 -337 0
330 331 332 -333 -334 -335 337 0
330 331 -332 333 -334 -335 337 0
330 331 -332 -333 334 -335 337 0
330 331 -332 -333 -334 335 337 0
330 331 -332 -333 -334 -335 -337 0
330 -331 332 333 -334 -335 337 0
330 -331 332 -333 334 -335 337 0
330 -331 332 -333 -334 335 337 0
330 -331 332 -333 -334 -335 -337 0
330 -331 -332 333 334 -335 337 0
330 -331 -332 333 -334 335 337 0
330 -331 -332 333 -334 -335 -337 0
330 -331 -332 -333 334 335 337 0
330 -331 -332 -333 334 -335 -337 0
330 -331 -332 -333 -334 335 -337 0
-330 331 332 333 -334 -335 337 0
-330 331 332 -333 334 -335 337 0
-330 331 332 -333 -334 335 337 0
-330 331 332 -333 -334 -335 -337 0
-330 331 -332 333 334 -335 337 0
-330 331 -332 333 -334 335 337 0
-330 331 -332 333 -334 -335 -337 0
-330 331 -332 -333 334 335 337 0
-330 331 -332 -333 334 -335 -337 0
-330 331 -332 -333 -334 335 -337 0
-330 -331 332 333 334 -335 337 0
-330 -331 332 333 -334 335 337 0
-330 -331 332 333 -334 -335 -337 0
-330 -331 332 -333 334 335 337 0
-330 -331 332 -333 334 -335 -337 0
-330 -331 332 -333 -334 335 -337 0
-330 -331 -332 333 334 335 337 0
-330 -331 -332 333 334 -335 -337 0
-330 -331 -332 333 -334 335 -337 0
-330 -331 -332 -333 334 335 -337 0
330 331 332 333 334 -335 337 0
330 331 332 333 -334 335 337 0
330 331 332 333 -334 -335 -337 0
330 331 332 -333 334 335 337 0
330 331 332 -333 334 -335 -337 0
330 331 332 -333 -334 335 -337 0
330 331 -332 333 334 335 337 0
330 331 -332 333 334 -335 -337 0
330 331 -332 333 -334 335 -337 0
330 331 -332 -333 334 335 -337 0
330 -331 332 333 334 335 337 0
330 -331 332 333 334 -335 -337 0
330 -331 332 333 -334 335 -337 0
330 -331 332 -333 334 335 -337 0
330 -331 -332 333 334 335 -337 0
-330 331 332 333 334 335 337 0
-330 331 332 333 334 -335 -337 0
-330 331 332 333 -334 335 -337 0
-330 331 332 -333 334 335 -337 0
-330 331 -332 333 334 335 -337 0
-330 -331 332 333 334 335 -337 0
330 331 332 333 334 335 -337 0
-337 -336 0
337 336 0
-3 -8 -12 -13 -15 -17 338 0
3 8 -12 -13 -15 -17 338 0
3 -8 12 -13 -15 -17 338 0
3 -8 -12 13 -15 -17 338 0
3 -8 -12 -13 15 -17 338 0
3 -8 -12 -13 -15 17 338 0
3 -8 -12 -13 -15 -17 -338 0
-3 8 12 -13 -15 -17 338 0
-3 8 -12 13 -15 -17 338 0
-3 8 -12 -13 15 -17 338 0
-3 8 -12 -13 -15 17 338 0
-3 8 -12 -13 -15 -17 -338 0
-3 -8 12 13 -15 -17 338 0
-3 -8 12 -13 15 -17 338 0
-3 -8 12 -13 -15 17 338 0
-3 -8 12 -13 -15 -17 -338 0
-3 -8 -12 13 15 -17 338 0
-3 -8 -12 13 -15 17 338 0
-3 -8 -12 13 -15 -17 -338 0
-3 -8 -12 -13 15 17 338 0
-3 -8 -12 -13 15 -17 -338 0
-3 -8 -12 -13 -15 17 -338 0
3 8 12 13 -15 -17 338 0
3 8 12 -13 15 -17 338 0
3 8 12 -13 -15 17 338 0
3 8 12 -13 -15 -17 -338 0
3 8 -12 13 15 -17 338 0
3 8 -12 13 -15 17 338 0
3 8 -12 13 -15 -17 -338 0
3 8 -12 -13 15 17 338 0
3 8 -12 -13 15 -17 -338 0
3 8 -12 -13 -15 17 -338 0
3 -8 12 13 15 -17 338 0
3 -8 12 13 -15 17 338 0
3 -8 12 13 -15 -17 -338 0
3 -8 12 -13 15 17 338 0
3 -8 12 -13 15 -17 -338 0
3 -8 12 -13 -15 17 -338 0
3 -8 -12 13 15 17 338 0
3 -8 -12 13 15 -17 -338 0
3 -8 -12 13 -15 17 -338 0
3 -8 -12 -13 15 17 -338 0
-3 8 12 13 15 -17 338 0
-3 8 12 13 -15 17 338 0
-3 8 12 13 -15 -17 -338 0
-3 8 12 -13 15 17 338 0
-3 8 12 -13 15 -17 -338 0
-3 8 12 -13 -15 17 -338 0
-3 8 -12 13 15 17 338 0
-3 8 -12 13 15 -17 -338 0
-3 8 -12 13 -15 17 -338 0
-3 8 -12 -13 15 17 -338 0
-3 -8 12 13 15 17 338 0
-3 -8 12 13 15 -17 -338 0
-3 -8 12 13 -15 17 -338 0
-3 -8 12 -13 15 17 -338 0
-3 -8 -12 13 15 17 -338 0
3 8 12 13 15 17 338 0
3 8 12 13 15 -17 -338 0
3 8 12 13 -15 17 -338 0
3 8 12 -13 15 17 -338 0
3 8 -12 13 15 17 -338 0
3 -8 12 13 15 17 -338 0
-3 8 12 13 15 17 -338 0
338 -18 -20 -22 -27 -28 339 0
-338 18 -20 -22 -27 -28 339 0
-338 -18 20 -22 -27 -28 339 0
-338 -18 -20 22 -27 -28 339 0
-338 -18 -20 -22 27 -28 339 0
-338 -18 -20 -22 -27 28 339 0
-338 -18 -20 -22 -27 -28 -339 0
338 18 20 -22 -27 -28 339 0
338 18 -20 22 -27 -28 339 0
338 18 -20 -22 27 -28 339 0
338 18 -20 -22 -27 28 339 0
338 18 -20 -22 -27 -28 -339 0
338 -18 20 22 -27 -28 339 0
338 -18 20 -22 27 -28 339 0
338 -18 20 -22 -27 28 339 0
338 -18 20 -22 -27 -28 -339 0
338 -18 -20 22 27 -28 339 0
338 -18 -20 22 -27 28 339 0
338 -18 -20 22 -27 -28 -339 0
338 -18 -20 -22 27 28 339 0
338 -18 -20 -22 27 -28 -339 0
338 -18 -20 -22 -27 28 -339 0
-338 18 20 22 -27 -28 339 0
-338 18 20 -22 27 -28 339 0
-338 18 20 -22 -27 28 339 0
-338 18 20 -22 -27 -28 -339 0
-338 18 -20 22 27 -28 339 0
-338 18 -20 22 -27 28 339 0
-338 18 -20 22 -27 -28 -339 0
-338 18 -20 -22 27 28 339 0
-338 18 -20 -22 27 -28 -339 0
-338 18 -20 -22 -27 28 -339 0
-338 -18 20 22 27 -28 339 0
-338 -18 20 22 -27 28 339 0
-338 -18 20 22 -27 -28 -339 0
-338 -18 20 -22 27 28 339 0
-338 -18 20 -22 27 -28 -339 0
-338 -18 20 -22 -27 28 -339 0
-338 -18 -20 22 27 28 339 0
-338 -18 -20 22 27 -28 -339 0
-338 -18 -20 22 -27 28 -339 0
-338 -18 -20 -22 27 28 -339 0
338 18 20 22 27 -28 339 0
338 18 20 22 -27 28 339 0
338 18 20 22 -27 -28 -339 0
338 18 20 -22 27 28 339 0
338 18 20 -22 27 -28 -339 0
338 18 20 -22 -27 28 -339 0
338 18 -20 22 27 28 339 0
338 18 -20 22 27 -28 -339 0
338 18 -20 22 -27 28 -339 0
338 18 -20 -22 27 28 -339 0
338 -18 20 22 27 28 339 0
338 -18 20 22 27 -28 -339 0
338 -18 20 22 -27 28 -339 0
338 -18 20 -22 27 28 -339 0
338 -18 -20 22 27 28 -339 0
-338 18 20 22 27 28 339 0
-338 18 20 22 27 -28 -339 0
-338 18 20 22 -27 28 -339 0
-338 18 20 -22 27 28 -339 0
-338 18 -20 22 27 28 -339 0
-338 -18 20 22 27 28 -339 0
338 18 20 22 27 28 -339 0
339 -30 -32 -38 -42 -44 340 0
-339 30 -32 -38 -42 -44 340 0
-339 -30 32 -38 -42 -44 340 0
-339 -30 -32 38 -42 -44 340 0
-339 -30 -32 -38 42 -44 340 0
-339 -30 -32 -38 -42 44 340 0
-339 -30 -32 -38 -42 -44 -340 0
339 30 32 -38 -42 -44 340 0
339 30 -32 38 -42 -44 340 0
339 30 -32 -38 42 -44 340 0
339 30 -32 -38 -42 44 340 0
339 30 -32 -38 -42 -44 -340 0
339 -30 32 38 -42 -44 340 0
339 -30 32 -38 42 -44 340 0
339 -30 32 -38 -42 44 340 0
339 -30 32 -38 -42 -44 -340 0
339 -30 -32 38 42 -44 340 0
339 -30 -32 38 -42 44 340 0
339 -30 -32 38 -42 -44 -340 0
339 -30 -32 -38 42 44 340 0
339 -30 -32 -38 42 -44 -340 0
339 -30 -32 -38 -42 44 -340 0
-339 30 32 38 -42 -44 340 0
-339 30 32 -38 42 -44 340 0
-339 30 32 -38 -42 44 340 0
-339 30 32 -38 -42 -44 -340 0
-339 30 -32 38 42 -44 340 0
-339 30 -32 38 -42 44 340 0
-339 30 -32 38 -42 -44 -340 0
-339 30 -32 -38 42 44 340 0
-339 30 -32 -38 42 -44 -340 0
-339 30 -32 -38 -42 44 -340 0
-339 -30 32 38 42 -44 340 0
-339 -30 32 38 -42 44 340 0
-339 -30 32 38 -42 -44 -340 0
-339 -30 32 -38 42 44 340 0
-339 -30 32 -38 42 -44 -340 0
-339 -30 32 -38 -42 44 -340 0
-339 -30 -32 38 42 44 340 0
-339 -30 -32 38 42 -44 -340 0
-339 -30 -32 38 -42 44 -340 0
-339 -30 -32 -38 42 44 -340 0
339 30 32 38 42 -44 340 0
339 30 32 38 -42 44 340 0
339 30 32 38 -42 -44 -340 0
339 30 32 -38 42 44 340 0
339 30 32 -38 42 -44 -340 0
339 30 32 -38 -42 44 -340 0
339 30 -32 38 42 44 340 0
339 30 -32 38 42 -44 -340 0
339 30 -32 38 -42 44 -340 0
339 30 -32 -38 42 44 -340 0
339 -30 32 38 42 44 340 0
339 -30 32 38 42 -44 -340 0
339 -30 32 38 -42 44 -340 0
339 -30 32 -38 42 44 -340 0
339 -30 -32 38 42 44 -340 0
-339 30 32 38 42 44 340 0
-339 30 32 38 42 -44 -340 0
-339 30 32 38 -42 44 -340 0
-339 30 32 -38 42 44 -340 0
-339 30 -32 38 42 44 -340 0
-339 -30 32 38 42 44 -340 0
339 30 32 38 42 44 -340 0
-340 -45 -46 -51 0
340 45 -46 -51 0
340 -45 46 -51 0
340 -45 -46 51 0
-340 45 46 -51 0
-340 45 -46 51 0
-340 -45 46 51 0
340 45 46 51 0
-341 14 0
-341 -16 0
341 -14 16 0
-342 12 0
-342 18 0
342 -12 -18 0
-343 12 0
-343 16 0
-343 -18 0
343 -12 -16 18 0
-344 -14 0
-344 16 0
-344 18 0
344 14 -16 -18 0
270 -341 -342 -343 -344 -82 0
-270 341 -342 -343 -344 -82 0
-270 -341 342 -343 -344 -82 0
-270 -341 -342 343 -344 -82 0
-270 -341 -342 -343 344 -82 0
-270 -341 -342 -343 -344 82 0
270 341 342 -343 -344 -82 0
270 341 -342 343 -344 -82 0
270 341 -342 -343 344 -82 0
270 341 -342 -343 -344 82 0
270 -341 342 343 -344 -82 0
270 -341 342 -343 344 -82 0
270 -341 342 -343 -344 82 0
270 -341 -342 343 344 -82 0
270 -341 -342 343 -344 82 0
270 -341 -342 -343 344 82 0
-270 341 342 343 -344 -82 0
-270 341 342 -343 344 -82 0
-270 341 342 -343 -344 82 0
-270 341 -342 343 344 -82 0
-270 341 -342 343 -344 82 0
-270 341 -342 -343 344 82 0
-270 -341 342 343 344 -82 0
-270 -341 342 343 -344 82 0
-270 -341 342 -343 344 82 0
-270 -341 -342 343 344 82 0
270 341 342 343 344 -82 0
270 341 342 343 -344 82 0
270 341 342 -343 344 82 0
270 341 -342 343 344 82 0
270 -341 342 343 344 82 0
-270 341 342 343 344 82 0
-345 -20 0
-345 24 0
345 20 -24 0
-346 22 0
-346 26 0
346 -22 -26 0
-347 20 0
-347 -24 0
-347 26 0
347 -20 24 -26 0
-348 22 0
-348 24 0
-348 -26 0
348 -22 -24 26 0
345 -278 -346 -347 -348 -113 0
-345 278 -346 -347 -348 -113 0
-345 -278 346 -347 -348 -113 0
-345 -278 -346 347 -348 -113 0
-345 -278 -346 -347 348 -113 0
-345 -278 -346 -347 -348 113 0
345 278 346 -347 -348 -113 0
345 278 -346 347 -348 -113 0
345 278 -346 -347 348 -113 0
345 278 -346 -347 -348 113 0
345 -278 346 347 -348 -113 0
345 -278 346 -347 348 -113 0
345 -278 346 -347 -348 113 0
345 -278 -346 347 348 -113 0
345 -278 -346 347 -348 113 0
345 -278 -346 -347 348 113 0
-345 278 346 347 -348 -113 0
-345 278 346 -347 348 -113 0
-345 278 346 -347 -348 113 0
-345 278 -346 347 348 -113 0
-345 278 -346 347 -348 113 0
-345 278 -346 -347 348 113 0
-345 -278 346 347 348 -113 0
-345 -278 346 347 -348 113 0
-345 -278 346 -347 348 113 0
-345 -278 -346 347 348 113 0
345 278 346 347 348 -113 0
345 278 346 347 -348 113 0
345 278 346 -347 348 113 0
345 278 -346 347 348 113 0
345 -278 346 347 348 113 0
-345 278 346 347 348 113 0
-349 -28 0
-349 32 0
349 28 -32 0
-350 30 0
-350 34 0
350 -30 -34 0
-351 28 0
-351 -32 0
-351 34 0
351 -28 32 -34 0
-352 30 0
-352 32 0
-352 -34 0
352 -30 -32 34 0
349 -283 -350 -351 -352 -144 0
-349 283 -350 -351 -352 -144 0
-349 -283 350 -351 -352 -144 0
-349 -283 -350 351 -352 -144 0
-349 -283 -350 -351 352 -144 0
-349 -283 -350 -351 -352 144 0
349 283 350 -351 -352 -144 0
349 283 -350 351 -352 -144 0
349 283 -350 -351 352 -144 0
349 283 -350 -351 -352 144 0
349 -283 350 351 -352 -144 0
349 -283 350 -351 352 -144 0
349 -283 350 -351 -352 144 0
349 -283 -350 351 352 -144 0
349 -283 -350 351 -352 144 0
349 -283 -350 -351 352 144 0
-349 283 350 351 -352 -144 0
-349 283 350 -351 352 -144 0
-349 283 350 -351 -352 144 0
-349 283 -350 351 352 -144 0
-349 283 -350 351 -352 144 0
-349 283 -350 -351 352 144 0
-349 -283 350 351 352 -144 0
-349 -283 350 351 -352 144 0
-349 -283 350 -351 352 144 0
-349 -283 -350 351 352 144 0
349 283 350 351 352 -144 0
349 283 350 351 -352 144 0
349 283 350 -351 352 144 0
349 283 -350 351 352 144 0
349 -283 350 351 352 144 0
-349 283 350 351 352 144 0
-353 38 0
-353 -40 0
353 -38 40 0
-354 36 0
-354 42 0
354 -36 -42 0
-355 36 0
-355 40 0
-355 -42 0
355 -36 -40 42 0
-356 -38 0
-356 40 0
-356 42 0
356 38 -40 -42 0
285 -353 -354 -355 -356 -175 0
-285 353 -354 -355 -356 -175 0
-285 -353 354 -355 -356 -175 0
-285 -353 -354 355 -356 -175 0
-285 -353 -354 -355 356 -175 0
-285 -353 -354 -355 -356 175 0
285 353 354 -355 -356 -175 0
285 353 -354 355 -356 -175 0
285 353 -354 -355 356 -175 0
285 353 -354 -355 -356 175 0
285 -353 354 355 -356 -175 0
285 -353 354 -355 356 -175 0
285 -353 354 -355 -356 175 0
285 -353 -354 355 356 -175 0
285 -353 -354 355 -356 175 0
285 -353 -354 -355 356 175 0
-285 353 354 355 -356 -175 0
-285 353 354 -355 356 -175 0
-285 353 354 -355 -356 175 0
-285 353 -354 355 356 -175 0
-285 353 -354 355 -356 175 0
-285 353 -354 -355 356 175 0
-285 -353 354 355 356 -175 0
-285 -353 354 355 -356 175 0
-285 -353 354 -355 356 175 0
-285 -353 -354 355 356 175 0
285 353 354 355 356 -175 0
285 353 354 355 -356 175 0
285 353 354 -355 356 175 0
285 353 -354 355 356 175 0
285 -353 354 355 356 175 0
-285 353 354 355 356 175 0
-357 -44 0
-357 48 0
357 44 -48 0
-358 46 0
-358 50 0
358 -46 -50 0
-359 44 0
-359 -48 0
-359 50 0
359 -44 48 -50 0
-360 46 0
-360 48 0
-360 -50 0
360 -46 -48 50 0
357 -293 -358 -359 -360 -206 0
-357 293 -358 -359 -360 -206 0
-357 -293 358 -359 -360 -206 0
-357 -293 -358 359 -360 -206 0
-357 -293 -358 -359 360 -206 0
-357 -293 -358 -359 -360 206 0
357 293 358 -359 -360 -206 0
357 293 -358 359 -360 -206 0
357 293 -358 -359 360 -206 0
357 293 -358 -359 -360 206 0
357 -293 358 359 -360 -206 0
357 -293 358 -359 360 -206 0
357 -293 358 -359 -360 206 0
357 -293 -358 359 360 -206 0
357 -293 -358 359 -360 206 0
357 -293 -358 -359 360 206 0
-357 293 358 359 -360 -206 0
-357 293 358 -359 360 -206 0
-357 293 358 -359 -360 206 0
-357 293 -358 359 360 -206 0
-357 293 -358 359 -360 206 0
-357 293 -358 -359 360 206 0
-357 -293 358 359 360 -206 0
-357 -293 358 359 -360 206 0
-357 -293 358 -359 360 206 0
-357 -293 -358 359 360 206 0
357 293 358 359 360 -206 0
357 293 358 359 -360 206 0
357 293 358 -359 360 206 0
357 293 -358 359 360 206 0
357 -293 358 359 360 206 0
-357 293 358 359 360 206 0
-361 82 0
-361 -144 0
361 -82 144 0
-362 82 0
-362 -113 0
-362 175 0
362 -82 113 -175 0
-363 -82 0
-363 206 0
363 82 -206 0
-364 82 0
-364 113 0
-364 -144 0
-364 206 0
364 -82 -113 144 -206 0
-365 -82 0
-365 175 0
-365 206 0
365 82 -175 -206 0
-366 113 0
-366 175 0
-366 206 0
366 -113 -175 -206 0
-367 113 0
-367 144 0
-367 175 0
-367 -206 0
367 -113 -144 -175 206 0
-361 -362 -363 -364 -365 -366 368 0
361 362 -363 -364 -365 -366 368 0
361 -362 363 -364 -365 -366 368 0
361 -362 -363 364 -365 -366 368 0
361 -362 -363 -364 365 -366 368 0
361 -362 -363 -364 -365 366 368 0
361 -362 -363 -364 -365 -366 -368 0
-361 362 363 -364 -365 -366 368 0
-361 362 -363 364 -365 -366 368 0
-361 362 -363 -364 365 -366 368 0
-361 362 -363 -364 -365 366 368 0
-361 362 -363 -364 -365 -366 -368 0
-361 -362 363 364 -365 -366 368 0
-361 -362 363 -364 365 -366 368 0
-361 -362 363 -364 -365 366 368 0
-361 -362 363 -364 -365 -366 -368 0
-361 -362 -363 364 365 -366 368 0
-361 -362 -363 364 -365 366 368 0
-361 -362 -363 364 -365 -366 -368 0
-361 -362 -363 -364 365 366 368 0
-361 -362 -363 -364 365 -366 -368 0
-361 -362 -363 -364 -365 366 -368 0
361 362 363 364 -365 -366 368 0
361 362 363 -364 365 -366 368 0
361 362 363 -364 -365 366 368 0
361 362 363 -364 -365 -366 -368 0
361 362 -363 364 365 -366 368 0
361 362 -363 364 -365 366 368 0
361 362 -363 364 -365 -366 -368 0
361 362 -363 -364 365 366 368 0
361 362 -363 -364 365 -366 -368 0
361 362 -363 -364 -365 366 -368 0
361 -362 363 364 365 -366 368 0
361 -362 363 364 -365 366 368 0
361 -362 363 364 -365 -366 -368 0
361 -362 363 -364 365 366 368 0
361 -362 363 -364 365 -366 -368 0
361 -362 363 -364 -365 366 -368 0
361 -362 -363 364 365 366 368 0
361 -362 -363 364 365 -366 -368 0
361 -362 -363 364 -365 366 -368 0
361 -362 -363 -364 365 366 -368 0
-361 362 363 364 365 -366 368 0
-361 362 363 364 -365 366 368 0
-361 362 363 364 -365 -366 -368 0
-361 362 363 -364 365 366 368 0
-361 362 363 -364 365 -366 -368 0
-361 362 363 -364 -365 366 -368 0
-361 362 -363 364 365 366 368 0
-361 362 -363 364 365 -366 -368 0
-361 362 -363 364 -365 366 -368 0
-361 362 -363 -364 365 366 -368 0
-361 -362 363 364 365 366 368 0
-361 -362 363 364 365 -366 -368 0
-361 -362 363 364 -365 366 -368 0
-361 -362 363 -364 365 366 -368 0
-361 -362 -363 364 365 366 -368 0
361 362 363 364 365 366 368 0
361 362 363 364 365 -366 -368 0
361 362 363 364 -365 366 -368 0
361 362 363 -364 365 366 -368 0
361 362 -363 364 365 366 -368 0
361 -362 363 364 365 366 -368 0
-361 362 363 364 365 366 -368 0
-368 -367 0
368 367 0
-4 -9 -13 -14 -16 -18 369 0
4 9 -13 -14 -16 -18 369 0
4 -9 13 -14 -16 -18 369 0
4 -9 -13 14 -16 -18 369 0
4 -9 -13 -14 16 -18 369 0
4 -9 -13 -14 -16 18 369 0
4 -9 -13 -14 -16 -18 -369 0
-4 9 13 -14 -16 -18 369 0
-4 9 -13 14 -16 -18 369 0
-4 9 -13 -14 16 -18 369 0
-4 9 -13 -14 -16 18 369 0
-4 9 -13 -14 -16 -18 -369 0
-4 -9 13 14 -16 -18 369 0
-4 -9 13 -14 16 -18 369 0
-4 -9 13 -14 -16 18 369 0
-4 -9 13 -14 -16 -18 -369 0
-4 -9 -13 14 16 -18 369 0
-4 -9 -13 14 -16 18 369 0
-4 -9 -13 14 -16 -18 -369 0
-4 -9 -13 -14 16 18 369 0
-4 -9 -13 -14 16 -18 -369 0
-4 -9 -13 -14 -16 18 -369 0
4 9 13 14 -16 -18 369 0
4 9 13 -14 16 -18 369 0
4 9 13 -14 -16 18 369 0
4 9 13 -14 -16 -18 -369 0
4 9 -13 14 16 -18 369 0
4 9 -13 14 -16 18 369 0
4 9 -13 14 -16 -18 -369 0
4 9 -13 -14 16 18 369 0
4 9 -13 -14 16 -18 -369 0
4 9 -13 -14 -16 18 -369 0
4 -9 13 14 16 -18 369 0
4 -9 13 14 -16 18 369 0
4 -9 13 14 -16 -18 -369 0
4 -9 13 -14 16 18 369 0
4 -9 13 -14 16 -18 -369 0
4 -9 13 -14 -16 18 -369 0
4 -9 -13 14 16 18 369 0
4 -9 -13 14 16 -18 -369 0
4 -9 -13 14 -16 18 -369 0
4 -9 -13 -14 16 18 -369 0
-4 9 13 14 16 -18 369 0
-4 9 13 14 -16 18 369 0
-4 9 13 14 -16 -18 -369 0
-4 9 13 -14 16 18 369 0
-4 9 13 -14 16 -18 -369 0
-4 9 13 -14 -16 18 -369 0
-4 9 -13 14 16 18 369 0
-4 9 -13 14 16 -18 -369 0
-4 9 -13 14 -16 18 -369 0
-4 9 -13 -14 16 18 -369 0
-4 -9 13 14 16 18 369 0
-4 -9 13 14 16 -18 -369 0
-4 -9 13 14 -16 18 -369 0
-4 -9 13 -14 16 18 -369 0
-4 -9 -13 14 16 18 -369 0
4 9 13 14 16 18 369 0
4 9 13 14 16 -18 -369 0
4 9 13 14 -16 18 -369 0
4 9 13 -14 16 18 -369 0
4 9 -13 14 16 18 -369 0
4 -9 13 14 16 18 -369 0
-4 9 13 14 16 18 -369 0
369 -19 -21 -23 -28 -29 370 0
-369 19 -21 -23 -28 -29 370 0
-369 -19 21 -23 -28 -29 370 0
-369 -19 -21 23 -28 -29 370 0
-369 -19 -21 -23 28 -29 370 0
-369 -19 -21 -23 -28 29 370 0
-369 -19 -21 -23 -28 -29 -370 0
369 19 21 -23 -28 -29 370 0
369 19 -21 23 -28 -29 370 0
369 19 -21 -23 28 -29 370 0
369 19 -21 -23 -28 29 370 0
369 19 -21 -23 -28 -29 -370 0
369 -19 21 23 -28 -29 370 0
369 -19 21 -23 28 -29 370 0
369 -19 21 -23 -28 29 370 0
369 -19 21 -23 -28 -29 -370 0
369 -19 -21 23 28 -29 370 0
369 -19 -21 23 -28 29 370 0
369 -19 -21 23 -28 -29 -370 0
369 -19 -21 -23 28 29 370 0
369 -19 -21 -23 28 -29 -370 0
369 -19 -21 -23 -28 29 -370 0
-369 19 21 23 -28 -29 370 0
-369 19 21 -23 28 -29 370 0
-369 19 21 -23 -28 29 370 0
-369 19 21 -23 -28 -29 -370 0
-369 19 -21 23 28 -29 370 0
-369 19 -21 23 -28 29 370 0
-369 19 -21 23 -28 -29 -370 0
-369 19 -21 -23 28 29 370 0
-369 19 -21 -23 28 -29 -370 0
-369 19 -21 -23 -28 29 -370 0
-369 -19 21 23 28 -29 370 0
-369 -19 21 23 -28 29 370 0
-369 -19 21 23 -28 -29 -370 0
-369 -19 21 -23 28 29 370 0
-369 -19 21 -23 28 -29 -370 0
-369 -19 21 -23 -28 29 -370 0
-369 -19 -21 23 28 29 370 0
-369 -19 -21 23 28 -29 -370 0
-369 -19 -21 23 -28 29 -370 0
-369 -19 -21 -23 28 29 -370 0
369 19 21 23 28 -29 370 0
369 19 21 23 -28 29 370 0
369 19 21 23 -28 -29 -370 0
369 19 21 -23 28 29 370 0
369 19 21 -23 28 -29 -370 0
369 19 21 -23 -28 29 -370 0
369 19 -21 23 28 29 370 0
369 19 -21 23 28 -29 -370 0
369 19 -21 23 -28 29 -370 0
369 19 -21 -23 28 29 -370 0
369 -19 21 23 28 29 370 0
369 -19 21 23 28 -29 -370 0
369 -19 21 23 -28 29 -370 0
369 -19 21 -23 28 29 -370 0
369 -19 -21 23 28 29 -370 0
-369 19 21 23 28 29 370 0
-369 19 21 23 28 -29 -370 0
-369 19 21 23 -28 29 -370 0
-369 19 21 -23 28 29 -370 0
-369 19 -21 23 28 29 -370 0
-369 -19 21 23 28 29 -370 0
369 19 21 23 28 29 -370 0
370 -31 -33 -39 -43 -45 371 0
-370 31 -33 -39 -43 -45 371 0
-370 -31 33 -39 -43 -45 371 0
-370 -31 -33 39 -43 -45 371 0
-370 -31 -33 -39 43 -45 371 0
-370 -31 -33 -39 -43 45 371 0
-370 -31 -33 -39 -43 -45 -371 0
370 31 33 -39 -43 -45 371 0
370 31 -33 39 -43 -45 371 0
370 31 -33 -39 43 -45 371 0
370 31 -33 -39 -43 45 371 0
370 31 -33 -39 -43 -45 -371 0
370 -31 33 39 -43 -45 371 0
370 -31 33 -39 43 -45 371 0
370 -31 33 -39 -43 45 371 0
370 -31 33 -39 -43 -45 -371 0
370 -31 -33 39 43 -45 371 0
370 -31 -33 39 -43 45 371 0
370 -31 -33 39 -43 -45 -371 0
370 -31 -33 -39 43 45 371 0
370 -31 -33 -39 43 -45 -371 0
370 -31 -33 -39 -43 45 -371 0
-370 31 33 39 -43 -45 371 0
-370 31 33 -39 43 -45 371 0
-370 31 33 -39 -43 45 371 0
-370 31 33 -39 -43 -45 -371 0
-370 31 -33 39 43 -45 371 0
-370 31 -33 39 -43 45 371 0
-370 31 -33 39 -43 -45 -371 0
-370 31 -33 -39 43 45 371 0
-370 31 -33 -39 43 -45 -371 0
-370 31 -33 -39 -43 45 -371 0
-370 -31 33 39 43 -45 371 0
-370 -31 33 39 -43 45 371 0
-370 -31 33 39 -43 -45 -371 0
-370 -31 33 -39 43 45 371 0
-370 -31 33 -39 43 -45 -371 0
-370 -31 33 -39 -43 45 -371 0
-370 -31 -33 39 43 45 371 0
-370 -31 -33 39 43 -45 -371 0
-370 -31 -33 39 -43 45 -371 0
-370 -31 -33 -39 43 45 -371 0
370 31 33 39 43 -45 371 0
370 31 33 39 -43 45 371 0
370 31 33 39 -43 -45 -371 0
370 31 33 -39 43 45 371 0
370 31 33 -39 43 -45 -371 0
370 31 33 -39 -43 45 -371 0
370 31 -33 39 43 45 371 0
370 31 -33 39 43 -45 -371 0
370 31 -33 39 -43 45 -371 0
370 31 -33 -39 43 45 -371 0
370 -31 33 39 43 45 371 0
370 -31 33 39 43 -45 -371 0
370 -31 33 39 -43 45 -371 0
370 -31 33 -39 43 45 -371 0
370 -31 -33 39 43 45 -371 0
-370 31 33 39 43 45 371 0
-370 31 33 39 43 -45 -371 0
-370 31 33 39 -43 45 -371 0
-370 31 33 -39 43 45 -371 0
-370 31 -33 39 43 45 -371 0
-370 -31 33 39 43 45 -371 0
370 31 33 39 43 45 -371 0
-371 -46 -47 -52 0
371 46 -47 -52 0
371 -46 47 -52 0
371 -46 -47 52 0
-371 46 47 -52 0
-371 46 -47 52 0
-371 -46 47 52 0
371 46 47 52 0
-372 15 0
-372 -17 0
372 -15 17 0
-373 13 0
-373 19 0
373 -13 -19 0
-374 13 0
-374 17 0
-374 -19 0
374 -13 -17 19 0
-375 -15 0
-375 17 0
-375 19 0
375 15 -17 -19 0
306 -372 -373 -374 -375 -83 0
-306 372 -373 -374 -375 -83 0
-306 -372 373 -374 -375 -83 0
-306 -372 -373 374 -375 -83 0
-306 -372 -373 -374 375 -83 0
-306 -372 -373 -374 -375 83 0
306 372 373 -374 -375 -83 0
306 372 -373 374 -375 -83 0
306 372 -373 -374 375 -83 0
306 372 -373 -374 -375 83 0
306 -372 373 374 -375 -83 0
306 -372 373 -374 375 -83 0
306 -372 373 -374 -375 83 0
306 -372 -373 374 375 -83 0
306 -372 -373 374 -375 83 0
306 -372 -373 -374 375 83 0
-306 372 373 374 -375 -83 0
-306 372 373 -374 375 -83 0
-306 372 373 -374 -375 83 0
-306 372 -373 374 375 -83 0
-306 372 -373 374 -375 83 0
-306 372 -373 -374 375 83 0
-306 -372 373 374 375 -83 0
-306 -372 373 374 -375 83 0
-306 -372 373 -374 375 83 0
-306 -372 -373 374 375 83 0
306 372 373 374 375 -83 0
306 372 373 374 -375 83 0
306 372 373 -374 375 83 0
306 372 -373 374 375 83 0
306 -372 373 374 375 83 0
-306 372 373 374 375 83 0
-376 -21 0
-376 25 0
376 21 -25 0
-377 23 0
-377 27 0
377 -23 -27 0
-378 21 0
-378 -25 0
-378 27 0
378 -21 25 -27 0
-379 23 0
-379 25 0
-379 -27 0
379 -23 -25 27 0
376 -314 -377 -378 -379 -114 0
-376 314 -377 -378 -379 -114 0
-376 -314 377 -378 -379 -114 0
-376 -314 -377 378 -379 -114 0
-376 -314 -377 -378 379 -114 0
-376 -314 -377 -378 -379 114 0
376 314 377 -378 -379 -114 0
376 314 -377 378 -379 -114 0
376 314 -377 -378 379 -114 0
376 314 -377 -378 -379 114 0
376 -314 377 378 -379 -114 0
376 -314 377 -378 379 -114 0
376 -314 377 -378 -379 114 0
376 -314 -377 378 379 -114 0
376 -314 -377 378 -379 114 0
376 -314 -377 -378 379 114 0
-376 314 377 378 -379 -114 0
-376 314 377 -378 379 -114 0
-376 314 377 -378 -379 114 0
-376 314 -377 378 379 -114 0
-376 314 -377 378 -379 114 0
-376 314 -377 -378 379 114 0
-376 -314 377 378 379 -114 0
-376 -314 377 378 -379 114 0
-376 -314 377 -378 379 114 0
-376 -314 -377 378 379 114 0
376 314 377 378 379 -114 0
376 314 377 378 -379 114 0
376 314 377 -378 379 114 0
376 314 -377 378 379 114 0
376 -314 377 378 379 114 0
-376 314 377 378 379 114 0
-380 -29 0
-380 33 0
380 29 -33 0
-381 31 0
-381 35 0
381 -31 -35 0
-382 29 0
-382 -33 0
-382 35 0
382 -29 33 -35 0
-383 31 0
-383 33 0
-383 -35 0
383 -31 -33 35 0
380 -319 -381 -382 -383 -145 0
-380 319 -381 -382 -383 -145 0
-380 -319 381 -382 -383 -145 0
-380 -319 -381 382 -383 -145 0
-380 -319 -381 -382 383 -145 0
-380 -319 -381 -382 -383 145 0
380 319 381 -382 -383 -145 0
380 319 -381 382 -383 -145 0
380 319 -381 -382 383 -145 0
380 319 -381 -382 -383 145 0
380 -319 381 382 -383 -145 0
380 -319 381 -382 383 -145 0
380 -319 381 -382 -383 145 0
380 -319 -381 382 383 -145 0
380 -319 -381 382 -383 145 0
380 -319 -381 -382 383 145 0
-380 319 381 382 -383 -145 0
-380 319 381 -382 383 -145 0
-380 319 381 -382 -383 145 0
-380 319 -381 382 383 -145 0
-380 319 -381 382 -383 145 0
-380 319 -381 -382 383 145 0
-380 -319 381 382 383 -145 0
-380 -319 381 382 -383 145 0
-380 -319 381 -382 383 145 0
-380 -319 -381 382 383 145 0
380 319 381 382 383 -145 0
380 319 381 382 -383 145 0
380 319 381 -382 383 145 0
380 319 -381 382 383 145 0
380 -319 381 382 383 145 0
-380 319 381 382 383 145 0
-384 39 0
-384 -41 0
384 -39 41 0
-385 37 0
-385 43 0
385 -37 -43 0
-386 37 0
-386 41 0
-386 -43 0
386 -37 -41 43 0
-387 -39 0
-387 41 0
-387 43 0
387 39 -41 -43 0
321 -384 -385 -386 -387 -176 0
-321 384 -385 -386 -387 -176 0
-321 -384 385 -386 -387 -176 0
-321 -384 -385 386 -387 -176 0
-321 -384 -385 -386 387 -176 0
-321 -384 -385 -386 -387 176 0
321 384 385 -386 -387 -176 0
321 384 -385 386 -387 -176 0
321 384 -385 -386 387 -176 0
321 384 -385 -386 -387 176 0
321 -384 385 386 -387 -176 0
321 -384 385 -386 387 -176 0
321 -384 385 -386 -387 176 0
321 -384 -385 386 387 -176 0
321 -384 -385 386 -387 176 0
321 -384 -385 -386 387 176 0
-321 384 385 386 -387 -176 0
-321 384 385 -386 387 -176 0
-321 384 385 -386 -387 176 0
-321 384 -385 386 387 -176 0
-321 384 -385 386 -387 176 0
-321 384 -385 -386 387 176 0
-321 -384 385 386 387 -176 0
-321 -384 385 386 -387 176 0
-321 -384 385 -386 387 176 0
-321 -384 -385 386 387 176 0
321 384 385 386 387 -176 0
321 384 385 386 -387 176 0
321 384 385 -386 387 176 0
321 384 -385 386 387 176 0
321 -384 385 386 387 176 0
-321 384 385 386 387 176 0
-388 -45 0
-388 49 0
388 45 -49 0
-389 47 0
-389 51 0
389 -47 -51 0
-390 45 0
-390 -49 0
-390 51 0
390 -45 49 -51 0
-391 47 0
-391 49 0
-391 -51 0
391 -47 -49 51 0
388 -329 -389 -390 -391 -207 0
-388 329 -389 -390 -391 -207 0
-388 -329 389 -390 -391 -207 0
-388 -329 -389 390 -391 -207 0
-388 -329 -389 -390 391 -207 0
-388 -329 -389 -390 -391 207 0
388 329 389 -390 -391 -207 0
388 329 -389 390 -391 -207 0
388 329 -389 -390 391 -207 0
388 329 -389 -390 -391 207 0
388 -329 389 390 -391 -207 0
388 -329 389 -390 391 -207 0
388 -329 389 -390 -391 207 0
388 -329 -389 390 391 -207 0
388 -329 -389 390 -391 207 0
388 -329 -389 -390 391 207 0
-388 329 389 390 -391 -207 0
-388 329 389 -390 391 -207 0
-388 329 389 -390 -391 207 0
-388 329 -389 390 391 -207 0
-388 329 -389 390 -391 207 0
-388 329 -389 -390 391 207 0
-388 -329 389 390 391 -207 0
-388 -329 389 390 -391 207 0
-388 -329 389 -390 391 207 0
-388 -329 -389 390 391 207 0
388 329 389 390 391 -207 0
388 329 389 390 -391 207 0
388 329 389 -390 391 207 0
388 329 -389 390 391 207 0
388 -329 389 390 391 207 0
-388 329 389 390 391 207 0
-392 83 0
-392 -145 0
392 -83 145 0
-393 83 0
-393 -114 0
-393 176 0
393 -83 114 -176 0
-394 -83 0
-394 207 0
394 83 -207 0
-395 83 0
-395 114 0
-395 -145 0
-395 207 0
395 -83 -114 145 -207 0
-396 -83 0
-396 176 0
-396 207 0
396 83 -176 -207 0
-397 114 0
-397 176 0
-397 207 0
397 -114 -176 -207 0
-398 114 0
-398 145 0
-398 176 0
-398 -207 0
398 -114 -145 -176 207 0
392 -393 -394 -395 -396 -397 399 0
-392 393 -394 -395 -396 -397 399 0
-392 -393 394 -395 -396 -397 399 0
-392 -393 -394 395 -396 -397 399 0
-392 -393 -394 -395 396 -397 399 0
-392 -393 -394 -395 -396 397 399 0
-392 -393 -394 -395 -396 -397 -399 0
392 393 394 -395 -396 -397 399 0
392 393 -394 395 -396 -397 399 0
392 393 -394 -395 396 -397 399 0
392 393 -394 -395 -396 397 399 0
392 393 -394 -395 -396 -397 -399 0
392 -393 394 395 -396 -397 399 0
392 -393 394 -395 396 -397 399 0
392 -393 394 -395 -396 397 399 0
392 -393 394 -395 -396 -397 -399 0
392 -393 -394 395 396 -397 399 0
392 -393 -394 395 -396 397 399 0
392 -393 -394 395 -396 -397 -399 0
392 -393 -394 -395 396 397 399 0
392 -393 -394 -395 396 -397 -399 0
392 -393 -394 -395 -396 397 -399 0
-392 393 394 395 -396 -397 399 0
-392 393 394 -395 396 -397 399 0
-392 393 394 -395 -396 397 399 0
-392 393 394 -395 -396 -397 -399 0
-392 393 -394 395 396 -397 399 0
-392 393 -394 395 -396 397 399 0
-392 393 -394 395 -396 -397 -399 0
-392 393 -394 -395 396 397 399 0
-392 393 -394 -395 396 -397 -399 0
-392 393 -394 -395 -396 397 -399 0
-392 -393 394 395 396 -397 399 0
-392 -393 394 395 -396 397 399 0
-392 -393 394 395 -396 -397 -399 0
-392 -393 394 -395 396 397 399 0
-392 -393 394 -395 396 -397 -399 0
-392 -393 394 -395 -396 397 -399 0
-392 -393 -394 395 396 397 399 0
-392 -393 -394 395 396 -397 -399 0
-392 -393 -394 395 -396 397 -399 0
-392 -393 -394 -395 396 397 -399 0
392 393 394 395 396 -397 399 0
392 393 394 395 -396 397 399 0
392 393 394 395 -396 -397 -399 0
392 393 394 -395 396 397 399 0
392 393 394 -395 396 -397 -399 0
392 393 394 -395 -396 397 -399 0
392 393 -394 395 396 397 399 0
392 393 -394 395 396 -397 -399 0
392 393 -394 395 -396 397 -399 0
392 393 -394 -395 396 397 -399 0
392 -393 394 395 396 397 399 0
392 -393 394 395 396 -397 -399 0
392 -393 394 395 -396 397 -399 0
392 -393 394 -395 396 397 -399 0
392 -393 -394 395 396 397 -399 0
-392 393 394 395 396 397 399 0
-392 393 394 395 396 -397 -399 0
-392 393 394 395 -396 397 -399 0
-392 393 394 -395 396 397 -399 0
-392 393 -394 395 396 397 -399 0
-392 -393 394 395 396 397 -399 0
392 393 394 395 396 397 -399 0
-399 -398 0
399 398 0
-5 -10 -14 -15 -17 -19 400 0
5 10 -14 -15 -17 -19 400 0
5 -10 14 -15 -17 -19 400 0
5 -10 -14 15 -17 -19 400 0
5 -10 -14 -15 17 -19 400 0
5 -10 -14 -15 -17 19 400 0
5 -10 -14 -15 -17 -19 -400 0
-5 10 14 -15 -17 -19 400 0
-5 10 -14 15 -17 -19 400 0
-5 10 -14 -15 17 -19 400 0
-5 10 -14 -15 -17 19 400 0
-5 10 -14 -15 -17 -19 -400 0
-5 -10 14 15 -17 -19 400 0
-5 -10 14 -15 17 -19 400 0
-5 -10 14 -15 -17 19 400 0
-5 -10 14 -15 -17 -19 -400 0
-5 -10 -14 15 17 -19 400 0
-5 -10 -14 15 -17 19 400 0
-5 -10 -14 15 -17 -19 -400 0
-5 -10 -14 -15 17 19 400 0
-5 -10 -14 -15 17 -19 -400 0
-5 -10 -14 -15 -17 19 -400 0
5 10 14 15 -17 -19 400 0
5 10 14 -15 17 -19 400 0
5 10 14 -15 -17 19 400 0
5 10 14 -15 -17 -19 -400 0
5 10 -14 15 17 -19 400 0
5 10 -14 15 -17 19 400 0
5 10 -14 15 -17 -19 -400 0
5 10 -14 -15 17 19 400 0
5 10 -14 -15 17 -19 -400 0
5 10 -14 -15 -17 19 -400 0
5 -10 14 15 17 -19 400 0
5 -10 14 15 -17 19 400 0
5 -10 14 15 -17 -19 -400 0
5 -10 14 -15 17 19 400 0
5 -10 14 -15 17 -19 -400 0
5 -10 14 -15 -17 19 -400 0
5 -10 -14 15 17 19 400 0
5 -10 -14 15 17 -19 -400 0
5 -10 -14 15 -17 19 -400 0
5 -10 -14 -15 17 19 -400 0
-5 10 14 15 17 -19 400 0
-5 10 14 15 -17 19 400 0
-5 10 14 15 -17 -19 -400 0
-5 10 14 -15 17 19 400 0
-5 10 14 -15 17 -19 -400 0
-5 10 14 -15 -17 19 -400 0
-5 10 -14 15 17 19 400 0
-5 10 -14 15 17 -19 -400 0
-5 10 -14 15 -17 19 -400 0
-5 10 -14 -15 17 19 -400 0
-5 -10 14 15 17 19 400 0
-5 -10 14 15 17 -19 -400 0
-5 -10 14 15 -17 19 -400 0
-5 -10 14 -15 17 19 -400 0
-5 -10 -14 15 17 19 -400 0
5 10 14 15 17 19 400 0
5 10 14 15 17 -19 -400 0
5 10 14 15 -17 19 -400 0
5 10 14 -15 17 19 -400 0
5 10 -14 15 17 19 -400 0
5 -10 14 15 17 19 -400 0
-5 10 14 15 17 19 -400 0
400 -20 -22 -24 -29 -30 401 0
-400 20 -22 -24 -29 -30 401 0
-400 -20 22 -24 -29 -30 401 0
-400 -20 -22 24 -29 -30 401 0
-400 -20 -22 -24 29 -30 401 0
-400 -20 -22 -24 -29 30 401 0
-400 -20 -22 -24 -29 -30 -401 0
400 20 22 -24 -29 -30 401 0
400 20 -22 24 -29 -30 401 0
400 20 -22 -24 29 -30 401 0
400 20 -22 -24 -29 30 401 0
400 20 -22 -24 -29 -30 -401 0
400 -20 22 24 -29 -30 401 0
400 -20 22 -24 29 -30 401 0
400 -20 22 -24 -29 30 401 0
400 -20 22 -24 -29 -30 -401 0
400 -20 -22 24 29 -30 401 0
400 -20 -22 24 -29 30 401 0
400 -20 -22 24 -29 -30 -401 0
400 -20 -22 -24 29 30 401 0
400 -20 -22 -24 29 -30 -401 0
400 -20 -22 -24 -29 30 -401 0
-400 20 22 24 -29 -30 401 0
-400 20 22 -24 29 -30 401 0
-400 20 22 -24 -29 30 401 0
-400 20 22 -24 -29 -30 -401 0
-400 20 -22 24 29 -30 401 0
-400 20 -22 24 -29 30 401 0
-400 20 -22 24 -29 -30 -401 0
-400 20 -22 -24 29 30 401 0
-400 20 -22 -24 29 -30 -401 0
-400 20 -22 -24 -29 30 -401 0
-400 -20 22 24 29 -30 401 0
-400 -20 22 24 -29 30 401 0
-400 -20 22 24 -29 -30 -401 0
-400 -20 22 -24 29 30 401 0
-400 -20 22 -24 29 -30 -401 0
-400 -20 22 -24 -29 30 -401 0
-400 -20 -22 24 29 30 401 0
-400 -20 -22 24 29 -30 -401 0
-400 -20 -22 24 -29 30 -401 0
-400 -20 -22 -24 29 30 -401 0
400 20 22 24 29 -30 401 0
400 20 22 24 -29 30 401 0
400 20 22 24 -29 -30 -401 0
400 20 22 -24 29 30 401 0
400 20 22 -24 29 -30 -401 0
400 20 22 -24 -29 30 -401 0
400 20 -22 24 29 30 401 0
400 20 -22 24 29 -30 -401 0
400 20 -22 24 -29 30 -401 0
400 20 -22 -24 29 30 -401 0
400 -20 22 24 29 30 401 0
400 -20 22 24 29 -30 -401 0
400 -20 22 24 -29 30 -401 0
400 -20 22 -24 29 30 -401 0
400 -20 -22 24 29 30 -401 0
-400 20 22 24 29 30 401 0
-400 20 22 24 29 -30 -401 0
-400 20 22 24 -29 30 -401 0
-400 20 22 -24 29 30 -401 0
-400 20 -22 24 29 30 -401 0
-400 -20 22 24 29 30 -401 0
400 20 22 24 29 30 -401 0
401 -32 -34 -40 -44 -46 402 0
-401 32 -34 -40 -44 -46 402 0
-401 -32 34 -40 -44 -46 402 0
-401 -32 -34 40 -44 -46 402 0
-401 -32 -34 -40 44 -46 402 0
-401 -32 -34 -40 -44 46 402 0
-401 -32 -34 -40 -44 -46 -402 0
401 32 34 -40 -44 -46 402 0
401 32 -34 40 -44 -46 402 0
401 32 -34 -40 44 -46 402 0
401 32 -34 -40 -44 46 402 0
401 32 -34 -40 -44 -46 -402 0
401 -32 34 40 -44 -46 402 0
401 -32 34 -40 44 -46 402 0
401 -32 34 -40 -44 46 402 0
401 -32 34 -40 -44 -46 -402 0
401 -32 -34 40 44 -46 402 0
401 -32 -34 40 -44 46 402 0
401 -32 -34 40 -44 -46 -402 0
401 -32 -34 -40 44 46 402 0
401 -32 -34 -40 44 -46 -402 0
401 -32 -34 -40 -44 46 -402 0
-401 32 34 40 -44 -46 402 0
-401 32 34 -40 44 -46 402 0
-401 32 34 -40 -44 46 402 0
-401 32 34 -40 -44 -46 -402 0
-401 32 -34 40 44 -46 402 0
-401 32 -34 40 -44 46 402 0
-401 32 -34 40 -44 -46 -402 0
-401 32 -34 -40 44 46 402 0
-401 32 -34 -40 44 -46 -402 0
-401 32 -34 -40 -44 46 -402 0
-401 -32 34 40 44 -46 402 0
-401 -32 34 40 -44 46 402 0
-401 -32 34 40 -44 -46 -402 0
-401 -32 34 -40 44 46 402 0
-401 -32 34 -40 44 -46 -402 0
-401 -32 34 -40 -44 46 -402 0
-401 -32 -34 40 44 46 402 0
-401 -32 -34 40 44 -46 -402 0
-401 -32 -34 40 -44 46 -402 0
-401 -32 -34 -40 44 46 -402 0
401 32 34 40 44 -46 402 0
401 32 34 40 -44 46 402 0
401 32 34 40 -44 -46 -402 0
401 32 34 -40 44 46 402 0
401 32 34 -40 44 -46 -402 0
401 32 34 -40 -44 46 -402 0
401 32 -34 40 44 46 402 0
401 32 -34 40 44 -46 -402 0
401 32 -34 40 -44 46 -402 0
401 32 -34 -40 44 46 -402 0
401 -32 34 40 44 46 402 0
401 -32 34 40 44 -46 -402 0
401 -32 34 40 -44 46 -402 0
401 -32 34 -40 44 46 -402 0
401 -32 -34 40 44 46 -402 0
-401 32 34 40 44 46 402 0
-401 32 34 40 44 -46 -402 0
-401 32 34 40 -44 46 -402 0
-401 32 34 -40 44 46 -402 0
-401 32 -34 40 44 46 -402 0
-401 -32 34 40 44 46 -402 0
401 32 34 40 44 46 -402 0
-402 -47 -48 -53 0
402 47 -48 -53 0
402 -47 48 -53 0
402 -47 -48 53 0
-402 47 48 -53 0
-402 47 -48 53 0
-402 -47 48 53 0
402 47 48 53 0
-403 16 0
-403 -18 0
403 -16 18 0
-404 14 0
-404 20 0
404 -14 -20 0
-405 14 0
-405 18 0
-405 -20 0
405 -14 -18 20 0
-406 -16 0
-406 18 0
-406 20 0
406 16 -18 -20 0
341 -403 -404 -405 -406 -84 0
-341 403 -404 -405 -406 -84 0
-341 -403 404 -405 -406 -84 0
-341 -403 -404 405 -406 -84 0
-341 -403 -404 -405 406 -84 0
-341 -403 -404 -405 -406 84 0
341 403 404 -405 -406 -84 0
341 403 -404 405 -406 -84 0
341 403 -404 -405 406 -84 0
341 403 -404 -405 -406 84 0
341 -403 404 405 -406 -84 0
341 -403 404 -405 406 -84 0
341 -403 404 -405 -406 84 0
341 -403 -404 405 406 -84 0
341 -403 -404 405 -406 84 0
341 -403 -404 -405 406 84 0
-341 403 404 405 -406 -84 0
-341 403 404 -405 406 -84 0
-341 403 404 -405 -406 84 0
-341 403 -404 405 406 -84 0
-341 403 -404 405 -406 84 0
-341 403 -404 -405 406 84 0
-341 -403 404 405 406 -84 0
-341 -403 404 405 -406 84 0
-341 -403 404 -405 406 84 0
-341 -403 -404 405 406 84 0
341 403 404 405 406 -84 0
341 403 404 405 -406 84 0
341 403 404 -405 406 84 0
341 403 -404 405 406 84 0
341 -403 404 405 406 84 0
-341 403 404 405 406 84 0
-407 -22 0
-407 26 0
407 22 -26 0
-408 24 0
-408 28 0
408 -24 -28 0
-409 22 0
-409 -26 0
-409 28 0
409 -22 26 -28 0
-410 24 0
-410 26 0
-410 -28 0
410 -24 -26 28 0
407 -348 -408 -409 -410 -115 0
-407 348 -408 -409 -410 -115 0
-407 -348 408 -409 -410 -115 0
-407 -348 -408 409 -410 -115 0
-407 -348 -408 -409 410 -115 0
-407 -348 -408 -409 -410 115 0
407 348 408 -409 -410 -115 0
407 348 -408 409 -410 -115 0
407 348 -408 -409 410 -115 0
407 348 -408 -409 -410 115 0
407 -348 408 409 -410 -115 0
407 -348 408 -409 410 -115 0
407 -348 408 -409 -410 115 0
407 -348 -408 409 410 -115 0
407 -348 -408 409 -410 115 0
407 -348 -408 -409 410 115 0
-407 348 408 409 -410 -115 0
-407 348 408 -409 410 -115 0
-407 348 408 -409 -410 115 0
-407 348 -408 409 410 -115 0
-407 348 -408 409 -410 115 0
-407 348 -408 -409 410 115 0
-407 -348 408 409 410 -115 0
-407 -348 408 409 -410 115 0
-407 -348 408 -409 410 115 0
-407 -348 -408 409 410 115 0
407 348 408 409 410 -115 0
407 348 408 409 -410 115 0
407 348 408 -409 410 115 0
407 348 -408 409 410 115 0
407 -348 408 409 410 115 0
-407 348 408 409 410 115 0
-411 -30 0
-411 34 0
411 30 -34 0
-412 32 0
-412 36 0
412 -32 -36 0
-413 30 0
-413 -34 0
-413 36 0
413 -30 34 -36 0
-414 32 0
-414 34 0
-414 -36 0
414 -32 -34 36 0
411 -352 -412 -413 -414 -146 0
-411 352 -412 -413 -414 -146 0
-411 -352 412 -413 -414 -146 0
-411 -352 -412 413 -414 -146 0
-411 -352 -412 -413 414 -146 0
-411 -352 -412 -413 -414 146 0
411 352 412 -413 -414 -146 0
411 352 -412 413 -414 -146 0
411 352 -412 -413 414 -146 0
411 352 -412 -413 -414 146 0
411 -352 412 413 -414 -146 0
411 -352 412 -413 414 -146 0
411 -352 412 -413 -414 146 0
411 -352 -412 413 414 -146 0
411 -352 -412 413 -414 146 0
411 -352 -412 -413 414 146 0
-411 352 412 413 -414 -146 0
-411 352 412 -413 414 -146 0
-411 352 412 -413 -414 146 0
-411 352 -412 413 414 -146 0
-411 352 -412 413 -414 146 0
-411 352 -412 -413 414 146 0
-411 -352 412 413 414 -146 0
-411 -352 412 413 -414 146 0
-411 -352 412 -413 414 146 0
-411 -352 -412 413 414 146 0
411 352 412 413 414 -146 0
411 352 412 413 -414 146 0
411 352 412 -413 414 146 0
411 352 -412 413 414 146 0
411 -352 412 413 414 146 0
-411 352 412 413 414 146 0
-415 40 0
-415 -42 0
415 -40 42 0
-416 38 0
-416 44 0
416 -38 -44 0
-417 38 0
-417 42 0
-417 -44 0
417 -38 -42 44 0
-418 -40 0
-418 42 0
-418 44 0
418 40 -42 -44 0
353 -415 -416 -417 -418 -177 0
-353 415 -416 -417 -418 -177 0
-353 -415 416 -417 -418 -177 0
-353 -415 -416 417 -418 -177 0
-353 -415 -416 -417 418 -177 0
-353 -415 -416 -417 -418 177 0
353 415 416 -417 -418 -177 0
353 415 -416 417 -418 -177 0
353 415 -416 -417 418 -177 0
353 415 -416 -417 -418 177 0
353 -415 416 417 -418 -177 0
353 -415 416 -417 418 -177 0
353 -415 416 -417 -418 177 0
353 -415 -416 417 418 -177 0
353 -415 -416 417 -418 177 0
353 -415 -416 -417 418 177 0
-353 415 416 417 -418 -177 0
-353 415 416 -417 418 -177 0
-353 415 416 -417 -418 177 0
-353 415 -416 417 418 -177 0
-353 415 -416 417 -418 177 0
-353 415 -416 -417 418 177 0
-353 -415 416 417 418 -177 0
-353 -415 416 417 -418 177 0
-353 -415 416 -417 418 177 0
-353 -415 -416 417 418 177 0
353 415 416 417 418 -177 0
353 415 416 417 -418 177 0
353 415 416 -417 418 177 0
353 415 -416 417 418 177 0
353 -415 416 417 418 177 0
-353 415 416 417 418 177 0
-419 -46 0
-419 50 0
419 46 -50 0
-420 48 0
-420 52 0
420 -48 -52 0
-421 46 0
-421 -50 0
-421 52 0
421 -46 50 -52 0
-422 48 0
-422 50 0
-422 -52 0
422 -48 -50 52 0
419 -360 -420 -421 -422 -208 0
-419 360 -420 -421 -422 -208 0
-419 -360 420 -421 -422 -208 0
-419 -360 -420 421 -422 -208 0
-419 -360 -420 -421 422 -208 0
-419 -360 -420 -421 -422 208 0
419 360 420 -421 -422 -208 0
419 360 -420 421 -422 -208 0
419 360 -420 -421 422 -208 0
419 360 -420 -421 -422 208 0
419 -360 420 421 -422 -208 0
419 -360 420 -421 422 -208 0
419 -360 420 -421 -422 208 0
419 -360 -420 421 422 -208 0
419 -360 -420 421 -422 208 0
419 -360 -420 -421 422 208 0
-419 360 420 421 -422 -208 0
-419 360 420 -421 422 -208 0
-419 360 420 -421 -422 208 0
-419 360 -420 421 422 -208 0
-419 360 -420 421 -422 208 0
-419 360 -420 -421 422 208 0
-419 -360 420 421 422 -208 0
-419 -360 420 421 -422 208 0
-419 -360 420 -421 422 208 0
-419 -360 -420 421 422 208 0
419 360 420 421 422 -208 0
419 360 420 421 -422 208 0
419 360 420 -421 422 208 0
419 360 -420 421 422 208 0
419 -360 420 421 422 208 0
-419 360 420 421 422 208 0
-423 84 0
-423 -146 0
423 -84 146 0
-424 84 0
-424 -115 0
-424 177 0
424 -84 115 -177 0
-425 -84 0
-425 208 0
425 84 -208 0
-426 84 0
-426 115 0
-426 -146 0
-426 208 0
426 -84 -115 146 -208 0
-427 -84 0
-427 177 0
-427 208 0
427 84 -177 -208 0
-428 115 0
-428 177 0
-428 208 0
428 -115 -177 -208 0
-429 115 0
-429 146 0
-429 177 0
-429 -208 0
429 -115 -146 -177 208 0
-423 -424 -425 -426 -427 -428 430 0
423 424 -425 -426 -427 -428 430 0
423 -424 425 -426 -427 -428 430 0
423 -424 -425 426 -427 -428 430 0
423 -424 -425 -426 427 -428 430 0
423 -424 -425 -426 -427 428 430 0
423 -424 -425 -426 -427 -428 -430 0
-423 424 425 -426 -427 -428 430 0
-423 424 -425 426 -427 -428 430 0
-423 424 -425 -426 427 -428 430 0
-423 424 -425 -426 -427 428 430 0
-423 424 -425 -426 -427 -428 -430 0
-423 -424 425 426 -427 -428 430 0
-423 -424 425 -426 427 -428 430 0
-423 -424 425 -426 -427 428 430 0
-423 -424 425 -426 -427 -428 -430 0
-423 -424 -425 426 427 -428 430 0
-423 -424 -425 426 -427 428 430 0
-423 -424 -425 426 -427 -428 -430 0
-423 -424 -425 -426 427 428 430 0
-423 -424 -425 -426 427 -428 -430 0
-423 -424 -425 -426 -427 428 -430 0
423 424 425 426 -427 -428 430 0
423 424 425 -426 427 -428 430 0
423 424 425 -426 -427 428 430 0
423 424 425 -426 -427 -428 -430 0
423 424 -425 426 427 -428 430 0
423 424 -425 426 -427 428 430 0
423 424 -425 426 -427 -428 -430 0
423 424 -425 -426 427 428 430 0
423 424 -425 -426 427 -428 -430 0
423 424 -425 -426 -427 428 -430 0
423 -424 425 426 427 -428 430 0
423 -424 425 426 -427 428 430 0
423 -424 425 426 -427 -428 -430 0
423 -424 425 -426 427 428 430 0
423 -424 425 -426 427 -428 -430 0
423 -424 425 -426 -427 428 -430 0
423 -424 -425 426 427 428 430 0
423 -424 -425 426 427 -428 -430 0
423 -424 -425 426 -427 428 -430 0
423 -424 -425 -426 427 428 -430 0
-423 424 425 426 427 -428 430 0
-423 424 425 426 -427 428 430 0
-423 424 425 426 -427 -428 -430 0
-423 424 425 -426 427 428 430 0
-423 424 425 -426 427 -428 -430 0
-423 424 425 -426 -427 428 -430 0
-423 424 -425 426 427 428 430 0
-423 424 -425 426 427 -428 -430 0
-423 424 -425 426 -427 428 -430 0
-423 424 -425 -426 427 428 -430 0
-423 -424 425 426 427 428 430 0
-423 -424 425 426 427 -428 -430 0
-423 -424 425 426 -427 428 -430 0
-423 -424 425 -426 427 428 -430 0
-423 -424 -425 426 427 428 -430 0
423 424 425 426 427 428 430 0
423 424 425 426 427 -428 -430 0
423 424 425 426 -427 428 -430 0
423 424 425 -426 427 428 -430 0
423 424 -425 426 427 428 -430 0
423 -424 425 426 427 428 -430 0
-423 424 425 426 427 428 -430 0
-430 -429 0
430 429 0
-6 -11 -15 -16 -18 -20 431 0
6 11 -15 -16 -18 -20 431 0
6 -11 15 -16 -18 -20 431 0
6 -11 -15 16 -18 -20 431 0
6 -11 -15 -16 18 -20 431 0
6 -11 -15 -16 -18 20 431 0
6 -11 -15 -16 -18 -20 -431 0
-6 11 15 -16 -18 -20 431 0
-6 11 -15 16 -18 -20 431 0
-6 11 -15 -16 18 -20 431 0
-6 11 -15 -16 -18 20 431 0
-6 11 -15 -16 -18 -20 -431 0
-6 -11 15 16 -18 -20 431 0
-6 -11 15 -16 18 -20 431 0
-6 -11 15 -16 -18 20 431 0
-6 -11 15 -16 -18 -20 -431 0
-6 -11 -15 16 18 -20 431 0
-6 -11 -15 16 -18 20 431 0
-6 -11 -15 16 -18 -20 -431 0
-6 -11 -15 -16 18 20 431 0
-6 -11 -15 -16 18 -20 -431 0
-6 -11 -15 -16 -18 20 -431 0
6 11 15 16 -18 -20 431 0
6 11 15 -16 18 -20 431 0
6 11 15 -16 -18 20 431 0
6 11 15 -16 -18 -20 -431 0
6 11 -15 16 18 -20 431 0
6 11 -15 16 -18 20 431 0
6 11 -15 16 -18 -20 -431 0
6 11 -15 -16 18 20 431 0
6 11 -15 -16 18 -20 -431 0
6 11 -15 -16 -18 20 -431 0
6 -11 15 16 18 -20 431 0
6 -11 15 16 -18 20 431 0
6 -11 15 16 -18 -20 -431 0
6 -11 15 -16 18 20 431 0
6 -11 15 -16 18 -20 -431 0
6 -11 15 -16 -18 20 -431 0
6 -11 -15 16 18 20 431 0
6 -11 -15 16 18 -20 -431 0
6 -11 -15 16 -18 20 -431 0
6 -11 -15 -16 18 20 -431 0
-6 11 15 16 18 -20 431 0
-6 11 15 16 -18 20 431 0
-6 11 15 16 -18 -20 -431 0
-6 11 15 -16 18 20 431 0
-6 11 15 -16 18 -20 -431 0
-6 11 15 -16 -18 20 -431 0
-6 11 -15 16 18 20 431 0
-6 11 -15 16 18 -20 -431 0
-6 11 -15 16 -18 20 -431 0
-6 11 -15 -16 18 20 -431 0
-6 -11 15 16 18 20 431 0
-6 -11 15 16 18 -20 -431 0
-6 -11 15 16 -18 20 -431 0
-6 -11 15 -16 18 20 -431 0
-6 -11 -15 16 18 20 -431 0
6 11 15 16 18 20 431 0
6 11 15 16 18 -20 -431 0
6 11 15 16 -18 20 -431 0
6 11 15 -16 18 20 -431 0
6 11 -15 16 18 20 -431 0
6 -11 15 16 18 20 -431 0
-6 11 15 16 18 20 -431 0
431 -21 -23 -25 -30 -31 432 0
-431 21 -23 -25 -30 -31 432 0
-431 -21 23 -25 -30 -31 432 0
-431 -21 -23 25 -30 -31 432 0
-431 -21 -23 -25 30 -31 432 0
-431 -21 -23 -25 -30 31 432 0
-431 -21 -23 -25 -30 -31 -432 0
431 21 23 -25 -30 -31 432 0
431 21 -23 25 -30 -31 432 0
431 21 -23 -25 30 -31 432 0
431 21 -23 -25 -30 31 432 0
431 21 -23 -25 -30 -31 -432 0
431 -21 23 25 -30 -31 432 0
431 -21 23 -25 30 -31 432 0
431 -21 23 -25 -30 31 432 0
431 -21 23 -25 -30 -31 -432 0
431 -21 -23 25 30 -31 432 0
431 -21 -23 25 -30 31 432 0
431 -21 -23 25 -30 -31 -432 0
431 -21 -23 -25 30 31 432 0
431 -21 -23 -25 30 -31 -432 0
431 -21 -23 -25 -30 31 -432 0
-431 21 23 25 -30 -31 432 0
-431 21 23 -25 30 -31 432 0
-431 21 23 -25 -30 31 432 0
-431 21 23 -25 -30 -31 -432 0
-431 21 -23 25 30 -31 432 0
-431 21 -23 25 -30 31 432 0
-431 21 -23 25 -30 -31 -432 0
-431 21 -23 -25 30 31 432 0
-431 21 -23 -25 30 -31 -432 0
-431 21 -23 -25 -30 31 -432 0
-431 -21 23 25 30 -31 432 0
-431 -21 23 25 -30 31 432 0
-431 -21 23 25 -30 -31 -432 0
-431 -21 23 -25 30 31 432 0
-431 -21 23 -25 30 -31 -432 0
-431 -21 23 -25 -30 31 -432 0
-431 -21 -23 25 30 31 432 0
-431 -21 -23 25 30 -31 -432 0
-431 -21 -23 25 -30 31 -432 0
-431 -21 -23 -25 30 31 -432 0
431 21 23 25 30 -31 432 0
431 21 23 25 -30 31 432 0
431 21 23 25 -30 -31 -432 0
431 21 23 -25 30 31 432 0
431 21 23 -25 30 -31 -432 0
431 21 23 -25 -30 31 -432 0
431 21 -23 25 30 31 432 0
431 21 -23 25 30 -31 -432 0
431 21 -23 25 -30 31 -432 0
431 21 -23 -25 30 31 -432 0
431 -21 23 25 30 31 432 0
431 -21 23 25 30 -31 -432 0
431 -21 23 25 -30 31 -432 0
431 -21 23 -25 30 31 -432 0
431 -21 -23 25 30 31 -432 0
-431 21 23 25 30 31 432 0
-431 21 23 25 30 -31 -432 0
-431 21 23 25 -30 31 -432 0
-431 21 23 -25 30 31 -432 0
-431 21 -23 25 30 31 -432 0
-431 -21 23 25 30 31 -432 0
431 21 23 25 30 31 -432 0
432 -33 -35 -41 -45 -47 433 0
-432 33 -35 -41 -45 -47 433 0
-432 -33 35 -41 -45 -47 433 0
-432 -33 -35 41 -45 -47 433 0
-432 -33 -35 -41 45 -47 433 0
-432 -33 -35 -41 -45 47 433 0
-432 -33 -35 -41 -45 -47 -433 0
432 33 35 -41 -45 -47 433 0
432 33 -35 41 -45 -47 433 0
432 33 -35 -41 45 -47 433 0
432 33 -35 -41 -45 47 433 0
432 33 -35 -41 -45 -47 -433 0
432 -33 35 41 -45 -47 433 0
432 -33 35 -41 45 -47 433 0
432 -33 35 -41 -45 47 433 0
432 -33 35 -41 -45 -47 -433 0
432 -33 -35 41 45 -47 433 0
432 -33 -35 41 -45 47 433 0
432 -33 -35 41 -45 -47 -433 0
432 -33 -35 -41 45 47 433 0
432 -33 -35 -41 45 -47 -433 0
432 -33 -35 -41 -45 47 -433 0
-432 33 35 41 -45 -47 433 0
-432 33 35 -41 45 -47 433 0
-432 33 35 -41 -45 47 433 0
-432 33 35 -41 -45 -47 -433 0
-432 33 -35 41 45 -47 433 0
-432 33 -35 41 -45 47 433 0
-432 33 -35 41 -45 -47 -433 0
-432 33 -35 -41 45 47 433 0
-432 33 -35 -41 45 -47 -433 0
-432 33 -35 -41 -45 47 -433 0
-432 -33 35 41 45 -47 433 0
-432 -33 35 41 -45 47 433 0
-432 -33 35 41 -45 -47 -433 0
-432 -33 35 -41 45 47 433 0
-432 -33 35 -41 45 -47 -433 0
-432 -33 35 -41 -45 47 -433 0
-432 -33 -35 41 45 47 433 0
-432 -33 -35 41 45 -47 -433 0
-432 -33 -35 41 -45 47 -433 0
-432 -33 -35 -41 45 47 -433 0
432 33 35 41 45 -47 433 0
432 33 35 41 -45 47 433 0
432 33 35 41 -45 -47 -433 0
432 33 35 -41 45 47 433 0
432 33 35 -41 45 -47 -433 0
432 33 35 -41 -45 47 -433 0
432 33 -35 41 45 47 433 0
432 33 -35 41 45 -47 -433 0
432 33 -35 41 -45 47 -433 0
432 33 -35 -41 45 47 -433 0
432 -33 35 41 45 47 433 0
432 -33 35 41 45 -47 -433 0
432 -33 35 41 -45 47 -433 0
432 -33 35 -41 45 47 -433 0
432 -33 -35 41 45 47 -433 0
-432 33 35 41 45 47 433 0
-432 33 35 41 45 -47 -433 0
-432 33 35 41 -45 47 -433 0
-432 33 35 -41 45 47 -433 0
-432 33 -35 41 45 47 -433 0
-432 -33 35 41 45 47 -433 0
432 33 35 41 45 47 -433 0
-433 -48 -49 -54 0
433 48 -49 -54 0
433 -48 49 -54 0
433 -48 -49 54 0
-433 48 49 -54 0
-433 48 -49 54 0
-433 -48 49 54 0
433 48 49 54 0
-434 17 0
-434 -19 0
434 -17 19 0
-435 15 0
-435 21 0
435 -15 -21 0
-436 15 0
-436 19 0
-436 -21 0
436 -15 -19 21 0
-437 -17 0
-437 19 0
-437 21 0
437 17 -19 -21 0
372 -434 -435 -436 -437 -85 0
-372 434 -435 -436 -437 -85 0
-372 -434 435 -436 -437 -85 0
-372 -434 -435 436 -437 -85 0
-372 -434 -435 -436 437 -85 0
-372 -434 -435 -436 -437 85 0
372 434 435 -436 -437 -85 0
372 434 -435 436 -437 -85 0
372 434 -435 -436 437 -85 0
372 434 -435 -436 -437 85 0
372 -434 435 436 -437 -85 0
372 -434 435 -436 437 -85 0
372 -434 435 -436 -437 85 0
372 -434 -435 436 437 -85 0
372 -434 -435 436 -437 85 0
372 -434 -435 -436 437 85 0
-372 434 435 436 -437 -85 0
-372 434 435 -436 437 -85 0
-372 434 435 -436 -437 85 0
-372 434 -435 436 437 -85 0
-372 434 -435 436 -437 85 0
-372 434 -435 -436 437 85 0
-372 -434 435 436 437 -85 0
-372 -434 435 436 -437 85 0
-372 -434 435 -436 437 85 0
-372 -434 -435 436 437 85 0
372 434 435 436 437 -85 0
372 434 435 436 -437 85 0
372 434 435 -436 437 85 0
372 434 -435 436 437 85 0
372 -434 435 436 437 85 0
-372 434 435 436 437 85 0
-438 -23 0
-438 27 0
438 23 -27 0
-439 25 0
-439 29 0
439 -25 -29 0
-440 23 0
-440 -27 0
-440 29 0
440 -23 27 -29 0
-441 25 0
-441 27 0
-441 -29 0
441 -25 -27 29 0
438 -379 -439 -440 -441 -116 0
-438 379 -439 -440 -441 -116 0
-438 -379 439 -440 -441 -116 0
-438 -379 -439 440 -441 -116 0
-438 -379 -439 -440 441 -116 0
-438 -379 -439 -440 -441 116 0
438 379 439 -440 -441 -116 0
438 379 -439 440 -441 -116 0
438 379 -439 -440 441 -116 0
438 379 -439 -440 -441 116 0
438 -379 439 440 -441 -116 0
438 -379 439 -440 441 -116 0
438 -379 439 -440 -441 116 0
438 -379 -439 440 441 -116 0
438 -379 -439 440 -441 116 0
438 -379 -439 -440 441 116 0
-438 379 439 440 -441 -116 0
-438 379 439 -440 441 -116 0
-438 379 439 -440 -441 116 0
-438 379 -439 440 441 -116 0
-438 379 -439 440 -441 116 0
-438 379 -439 -440 441 116 0
-438 -379 439 440 441 -116 0
-438 -379 439 440 -441 116 0
-438 -379 439 -440 441 116 0
-438 -379 -439 440 441 116 0
438 379 439 440 441 -116 0
438 379 439 440 -441 116 0
438 379 439 -440 441 116 0
438 379 -439 440 441 116 0
438 -379 439 440 441 116 0
-438 379 439 440 441 116 0
-442 -31 0
-442 35 0
442 31 -35 0
-443 33 0
-443 37 0
443 -33 -37 0
-444 31 0
-444 -35 0
-444 37 0
444 -31 35 -37 0
-445 33 0
-445 35 0
-445 -37 0
445 -33 -35 37 0
442 -383 -443 -444 -445 -147 0
-442 383 -443 -444 -445 -147 0
-442 -383 443 -444 -445 -147 0
-442 -383 -443 444 -445 -147 0
-442 -383 -443 -444 445 -147 0
-442 -383 -443 -444 -445 147 0
442 383 443 -444 -445 -147 0
442 383 -443 444 -445 -147 0
442 383 -443 -444 445 -147 0
442 383 -443 -444 -445 147 0
442 -383 443 444 -445 -147 0
442 -383 443 -444 445 -147 0
442 -383 443 -444 -445 147 0
442 -383 -443 444 445 -147 0
442 -383 -443 444 -445 147 0
442 -383 -443 -444 445 147 0
-442 383 443 444 -445 -147 0
-442 383 443 -444 445 -147 0
-442 383 443 -444 -445 147 0
-442 383 -443 444 445 -147 0
-442 383 -443 444 -445 147 0
-442 383 -443 -444 445 147 0
-442 -383 443 444 445 -147 0
-442 -383 443 444 -445 147 0
-442 -383 443 -444 445 147 0
-442 -383 -443 444 445 147 0
442 383 443 444 445 -147 0
442 383 443 444 -445 147 0
442 383 443 -444 445 147 0
442 383 -443 444 445 147 0
442 -383 443 444 445 147 0
-442 383 443 444 445 147 0
-446 41 0
-446 -43 0
446 -41 43 0
-447 39 0
-447 45 0
447 -39 -45 0
-448 39 0
-448 43 0
-448 -45 0
448 -39 -43 45 0
-449 -41 0
-449 43 0
-449 45 0
449 41 -43 -45 0
384 -446 -447 -448 -449 -178 0
-384 446 -447 -448 -449 -178 0
-384 -446 447 -448 -449 -178 0
-384 -446 -447 448 -449 -178 0
-384 -446 -447 -448 449 -178 0
-384 -446 -447 -448 -449 178 0
384 446 447 -448 -449 -178 0
384 446 -447 448 -449 -178 0
384 446 -447 -448 449 -178 0
384 446 -447 -448 -449 178 0
384 -446 447 448 -449 -178 0
384 -446 447 -448 449 -178 0
384 -446 447 -448 -449 178 0
384 -446 -447 448 449 -178 0
384 -446 -447 448 -449 178 0
384 -446 -447 -448 449 178 0
-384 446 447 448 -449 -178 0
-384 446 447 -448 449 -178 0
-384 446 447 -448 -449 178 0
-384 446 -447 448 449 -178 0
-384 446 -447 448 -449 178 0
-384 446 -447 -448 449 178 0
-384 -446 447 448 449 -178 0
-384 -446 447 448 -449 178 0
-384 -446 447 -448 449 178 0
-384 -446 -447 448 449 178 0
384 446 447 448 449 -178 0
384 446 447 448 -449 178 0
384 446 447 -448 449 178 0
384 446 -447 448 449 178 0
384 -446 447 448 449 178 0
-384 446 447 448 449 178 0
-450 -47 0
-450 51 0
450 47 -51 0
-451 49 0
-451 53 0
451 -49 -53 0
-452 47 0
-452 -51 0
-452 53 0
452 -47 51 -53 0
-453 49 0
-453 51 0
-453 -53 0
453 -49 -51 53 0
450 -391 -451 -452 -453 -209 0
-450 391 -451 -452 -453 -209 0
-450 -391 451 -452 -453 -209 0
-450 -391 -451 452 -453 -209 0
-450 -391 -451 -452 453 -209 0
-450 -391 -451 -452 -453 209 0
450 391 451 -452 -453 -209 0
450 391 -451 452 -453 -209 0
450 391 -451 -452 453 -209 0
450 391 -451 -452 -453 209 0
450 -391 451 452 -453 -209 0
450 -391 451 -452 453 -209 0
450 -391 451 -452 -453 209 0
450 -391 -451 452 453 -209 0
450 -391 -451 452 -453 209 0
450 -391 -451 -452 453 209 0
-450 391 451 452 -453 -209 0
-450 391 451 -452 453 -209 0
-450 391 451 -452 -453 209 0
-450 391 -451 452 453 -209 0
-450 391 -451 452 -453 209 0
-450 391 -451 -452 453 209 0
-450 -391 451 452 453 -209 0
-450 -391 451 452 -453 209 0
-450 -391 451 -452 453 209 0
-450 -391 -451 452 453 209 0
450 391 451 452 453 -209 0
450 391 451 452 -453 209 0
450 391 451 -452 453 209 0
450 391 -451 452 453 209 0
450 -391 451 452 453 209 0
-450 391 451 452 453 209 0
-454 85 0
-454 -147 0
454 -85 147 0
-455 85 0
-455 -116 0
-455 178 0
455 -85 116 -178 0
-456 -85 0
-456 209 0
456 85 -209 0
-457 85 0
-457 116 0
-457 -147 0
-457 209 0
457 -85 -116 147 -209 0
-458 -85 0
-458 178 0
-458 209 0
458 85 -178 -209 0
-459 116 0
-459 178 0
-459 209 0
459 -116 -178 -209 0
-460 116 0
-460 147 0
-460 178 0
-460 -209 0
460 -116 -147 -178 209 0
-454 -455 -456 -457 -458 -459 461 0
454 455 -456 -457 -458 -459 461 0
454 -455 456 -457 -458 -459 461 0
454 -455 -456 457 -458 -459 461 0
454 -455 -456 -457 458 -459 461 0
454 -455 -456 -457 -458 459 461 0
454 -455 -456 -457 -458 -459 -461 0
-454 455 456 -457 -458 -459 461 0
-454 455 -456 457 -458 -459 461 0
-454 455 -456 -457 458 -459 461 0
-454 455 -456 -457 -458 459 461 0
-454 455 -456 -457 -458 -459 -461 0
-454 -455 456 457 -458 -459 461 0
-454 -455 456 -457 458 -459 461 0
-454 -455 456 -457 -458 459 461 0
-454 -455 456 -457 -458 -459 -461 0
-454 -455 -456 457 458 -459 461 0
-454 -455 -456 457 -458 459 461 0
-454 -455 -456 457 -458 -459 -461 0
-454 -455 -456 -457 458 459 461 0
-454 -455 -456 -457 458 -459 -461 0
-454 -455 -456 -457 -458 459 -461 0
454 455 456 457 -458 -459 461 0
454 455 456 -457 458 -459 461 0
454 455 456 -457 -458 459 461 0
454 455 456 -457 -458 -459 -461 0
454 455 -456 457 458 -459 461 0
454 455 -456 457 -458 459 461 0
454 455 -456 457 -458 -459 -461 0
454 455 -456 -457 458 459 461 0
454 455 -456 -457 458 -459 -461 0
454 455 -456 -457 -458 459 -461 0
454 -455 456 457 458 -459 461 0
454 -455 456 457 -458 459 461 0
454 -455 456 457 -458 -459 -461 0
454 -455 456 -457 458 459 461 0
454 -455 456 -457 458 -459 -461 0
454 -455 456 -457 -458 459 -461 0
454 -455 -456 457 458 459 461 0
454 -455 -456 457 458 -459 -461 0
454 -455 -456 457 -458 459 -461 0
454 -455 -456 -457 458 459 -461 0
-454 455 456 457 458 -459 461 0
-454 455 456 457 -458 459 461 0
-454 455 456 457 -458 -459 -461 0
-454 455 456 -457 458 459 461 0
-454 455 456 -457 458 -459 -461 0
-454 455 456 -457 -458 459 -461 0
-454 455 -456 457 458 459 461 0
-454 455 -456 457 458 -459 -461 0
-454 455 -456 457 -458 459 -461 0
-454 455 -456 -457 458 459 -461 0
-454 -455 456 457 458 459 461 0
-454 -455 456 457 458 -459 -461 0
-454 -455 456 457 -458 459 -461 0
-454 -455 456 -457 458 459 -461 0
-454 -455 -456 457 458 459 -461 0
454 455 456 457 458 459 461 0
454 455 456 457 458 -459 -461 0
454 455 456 457 -458 459 -461 0
454 455 456 -457 458 459 -461 0
454 455 -456 457 458 459 -461 0
454 -455 456 457 458 459 -461 0
-454 455 456 457 458 459 -461 0
-461 -460 0
461 460 0
-7 -12 -16 -17 -19 -21 462 0
7 12 -16 -17 -19 -21 462 0
7 -12 16 -17 -19 -21 462 0
7 -12 -16 17 -19 -21 462 0
7 -12 -16 -17 19 -21 462 0
7 -12 -16 -17 -19 21 462 0
7 -12 -16 -17 -19 -21 -462 0
-7 12 16 -17 -19 -21 462 0
-7 12 -16 17 -19 -21 462 0
-7 12 -16 -17 19 -21 462 0
-7 12 -16 -17 -19 21 462 0
-7 12 -16 -17 -19 -21 -462 0
-7 -12 16 17 -19 -21 462 0
-7 -12 16 -17 19 -21 462 0
-7 -12 16 -17 -19 21 462 0
-7 -12 16 -17 -19 -21 -462 0
-7 -12 -16 17 19 -21 462 0
-7 -12 -16 17 -19 21 462 0
-7 -12 -16 17 -19 -21 -462 0
-7 -12 -16 -17 19 21 462 0
-7 -12 -16 -17 19 -21 -462 0
-7 -12 -16 -17 -19 21 -462 0
7 12 16 17 -19 -21 462 0
7 12 16 -17 19 -21 462 0
7 12 16 -17 -19 21 462 0
7 12 16 -17 -19 -21 -462 0
7 12 -16 17 19 -21 462 0
7 12 -16 17 -19 21 462 0
7 12 -16 17 -19 -21 -462 0
7 12 -16 -17 19 21 462 0
7 12 -16 -17 19 -21 -462 0
7 12 -16 -17 -19 21 -462 0
7 -12 16 17 19 -21 462 0
7 -12 16 17 -19 21 462 0
7 -12 16 17 -19 -21 -462 0
7 -12 16 -17 19 21 462 0
7 -12 16 -17 19 -21 -462 0
7 -12 16 -17 -19 21 -462 0
7 -12 -16 17 19 21 462 0
7 -12 -16 17 19 -21 -462 0
7 -12 -16 17 -19 21 -462 0
7 -12 -16 -17 19 21 -462 0
-7 12 16 17 19 -21 462 0
-7 12 16 17 -19 21 462 0
-7 12 16 17 -19 -21 -462 0
-7 12 16 -17 19 21 462 0
-7 12 16 -17 19 -21 -462 0
-7 12 16 -17 -19 21 -462 0
-7 12 -16 17 19 21 462 0
-7 12 -16 17 19 -21 -462 0
-7 12 -16 17 -19 21 -462 0
-7 12 -16 -17 19 21 -462 0
-7 -12 16 17 19 21 462 0
-7 -12 16 17 19 -21 -462 0
-7 -12 16 17 -19 21 -462 0
-7 -12 16 -17 19 21 -462 0
-7 -12 -16 17 19 21 -462 0
7 12 16 17 19 21 462 0
7 12 16 17 19 -21 -462 0
7 12 16 17 -19 21 -462 0
7 12 16 -17 19 21 -462 0
7 12 -16 17 19 21 -462 0
7 -12 16 17 19 21 -462 0
-7 12 16 17 19 21 -462 0
462 -22 -24 -26 -31 -32 463 0
-462 22 -24 -26 -31 -32 463 0
-462 -22 24 -26 -31 -32 463 0
-462 -22 -24 26 -31 -32 463 0
-462 -22 -24 -26 31 -32 463 0
-462 -22 -24 -26 -31 32 463 0
-462 -22 -24 -26 -31 -32 -463 0
462 22 24 -26 -31 -32 463 0
462 22 -24 26 -31 -32 463 0
462 22 -24 -26 31 -32 463 0
462 22 -24 -26 -31 32 463 0
462 22 -24 -26 -31 -32 -463 0
462 -22 24 26 -31 -32 463 0
462 -22 24 -26 31 -32 463 0
462 -22 24 -26 -31 32 463 0
462 -22 24 -26 -31 -32 -463 0
462 -22 -24 26 31 -32 463 0
462 -22 -24 26 -31 32 463 0
462 -22 -24 26 -31 -32 -463 0
462 -22 -24 -26 31 32 463 0
462 -22 -24 -26 31 -32 -463 0
462 -22 -24 -26 -31 32 -463 0
-462 22 24 26 -31 -32 463 0
-462 22 24 -26 31 -32 463 0
-462 22 24 -26 -31 32 463 0
-462 22 24 -26 -31 -32 -463 0
-462 22 -24 26 31 -32 463 0
-462 22 -24 26 -31 32 463 0
-462 22 -24 26 -31 -32 -463 0
-462 22 -24 -26 31 32 463 0
-462 22 -24 -26 31 -32 -463 0
-462 22 -24 -26 -31 32 -463 0
-462 -22 24 26 31 -32 463 0
-462 -22 24 26 -31 32 463 0
-462 -22 24 26 -31 -32 -463 0
-462 -22 24 -26 31 32 463 0
-462 -22 24 -26 31 -32 -463 0
-462 -22 24 -26 -31 32 -463 0
-462 -22 -24 26 31 32 463 0
-462 -22 -24 26 31 -32 -463 0
-462 -22 -24 26 -31 32 -463 0
-462 -22 -24 -26 31 32 -463 0
462 22 24 26 31 -32 463 0
462 22 24 26 -31 32 463 0
462 22 24 26 -31 -32 -463 0
462 22 24 -26 31 32 463 0
462 22 24 -26 31 -32 -463 0
462 22 24 -26 -31 32 -463 0
462 22 -24 26 31 32 463 0
462 22 -24 26 31 -32 -463 0
462 22 -24 26 -31 32 -463 0
462 22 -24 -26 31 32 -463 0
462 -22 24 26 31 32 463 0
462 -22 24 26 31 -32 -463 0
462 -22 24 26 -31 32 -463 0
462 -22 24 -26 31 32 -463 0
462 -22 -24 26 31 32 -463 0
-462 22 24 26 31 32 463 0
-462 22 24 26 31 -32 -463 0
-462 22 24 26 -31 32 -463 0
-462 22 24 -26 31 32 -463 0
-462 22 -24 26 31 32 -463 0
-462 -22 24 26 31 32 -463 0
462 22 24 26 31 32 -463 0
463 -34 -36 -42 -46 -48 464 0
-463 34 -36 -42 -46 -48 464 0
-463 -34 36 -42 -46 -48 464 0
-463 -34 -36 42 -46 -48 464 0
-463 -34 -36 -42 46 -48 464 0
-463 -34 -36 -42 -46 48 464 0
-463 -34 -36 -42 -46 -48 -464 0
463 34 36 -42 -46 -48 464 0
463 34 -36 42 -46 -48 464 0
463 34 -36 -42 46 -48 464 0
463 34 -36 -42 -46 48 464 0
463 34 -36 -42 -46 -48 -464 0
463 -34 36 42 -46 -48 464 0
463 -34 36 -42 46 -48 464 0
463 -34 36 -42 -46 48 464 0
463 -34 36 -42 -46 -48 -464 0
463 -34 -36 42 46 -48 464 0
463 -34 -36 42 -46 48 464 0
463 -34 -36 42 -46 -48 -464 0
463 -34 -36 -42 46 48 464 0
463 -34 -36 -42 46 -48 -464 0
463 -34 -36 -42 -46 48 -464 0
-463 34 36 42 -46 -48 464 0
-463 34 36 -42 46 -48 464 0
-463 34 36 -42 -46 48 464 0
-463 34 36 -42 -46 -48 -464 0
-463 34 -36 42 46 -48 464 0
-463 34 -36 42 -46 48 464 0
-463 34 -36 42 -46 -48 -464 0
-463 34 -36 -42 46 48 464 0
-463 34 -36 -42 46 -48 -464 0
-463 34 -36 -42 -46 48 -464 0
-463 -34 36 42 46 -48 464 0
-463 -34 36 42 -46 48 464 0
-463 -34 36 42 -46 -48 -464 0
-463 -34 36 -42 46 48 464 0
-463 -34 36 -42 46 -48 -464 0
-463 -34 36 -42 -46 48 -464 0
-463 -34 -36 42 46 48 464 0
-463 -34 -36 42 46 -48 -464 0
-463 -34 -36 42 -46 48 -464 0
-463 -34 -36 -42 46 48 -464 0
463 34 36 42 46 -48 464 0
463 34 36 42 -46 48 464 0
463 34 36 42 -46 -48 -464 0
463 34 36 -42 46 48 464 0
463 34 36 -42 46 -48 -464 0
463 34 36 -42 -46 48 -464 0
463 34 -36 42 46 48 464 0
463 34 -36 42 46 -48 -464 0
463 34 -36 42 -46 48 -464 0
463 34 -36 -42 46 48 -464 0
463 -34 36 42 46 48 464 0
463 -34 36 42 46 -48 -464 0
463 -34 36 42 -46 48 -464 0
463 -34 36 -42 46 48 -464 0
463 -34 -36 42 46 48 -464 0
-463 34 36 42 46 48 464 0
-463 34 36 42 46 -48 -464 0
-463 34 36 42 -46 48 -464 0
-463 34 36 -42 46 48 -464 0
-463 34 -36 42 46 48 -464 0
-463 -34 36 42 46 48 -464 0
463 34 36 42 46 48 -464 0
-464 -49 -50 -55 0
464 49 -50 -55 0
464 -49 50 -55 0
464 -49 -50 55 0
-464 49 50 -55 0
-464 49 -50 55 0
-464 -49 50 55 0
464 49 50 55 0
-465 18 0
-465 -20 0
465 -18 20 0
-466 16 0
-466 22 0
466 -16 -22 0
-467 16 0
-467 20 0
-467 -22 0
467 -16 -20 22 0
-468 -18 0
-468 20 0
-468 22 0
468 18 -20 -22 0
403 -465 -466 -467 -468 -86 0
-403 465 -466 -467 -468 -86 0
-403 -465 466 -467 -468 -86 0
-403 -465 -466 467 -468 -86 0
-403 -465 -466 -467 468 -86 0
-403 -465 -466 -467 -468 86 0
403 465 466 -467 -468 -86 0
403 465 -466 467 -468 -86 0
403 465 -466 -467 468 -86 0
403 465 -466 -467 -468 86 0
403 -465 466 467 -468 -86 0
403 -465 466 -467 468 -86 0
403 -465 466 -467 -468 86 0
403 -465 -466 467 468 -86 0
403 -465 -466 467 -468 86 0
403 -465 -466 -467 468 86 0
-403 465 466 467 -468 -86 0
-403 465 466 -467 468 -86 0
-403 465 466 -467 -468 86 0
-403 465 -466 467 468 -86 0
-403 465 -466 467 -468 86 0
-403 465 -466 -467 468 86 0
-403 -465 466 467 468 -86 0
-403 -465 466 467 -468 86 0
-403 -465 466 -467 468 86 0
-403 -465 -466 467 468 86 0
403 465 466 467 468 -86 0
403 465 466 467 -468 86 0
403 465 466 -467 468 86 0
403 465 -466 467 468 86 0
403 -465 466 467 468 86 0
-403 465 466 467 468 86 0
-469 -24 0
-469 28 0
469 24 -28 0
-470 26 0
-470 30 0
470 -26 -30 0
-471 24 0
-471 -28 0
-471 30 0
471 -24 28 -30 0
469 -410 -470 -471 -280 -117 0
-469 410 -470 -471 -280 -117 0
-469 -410 470 -471 -280 -117 0
-469 -410 -470 471 -280 -117 0
-469 -410 -470 -471 280 -117 0
-469 -410 -470 -471 -280 117 0
469 410 470 -471 -280 -117 0
469 410 -470 471 -280 -117 0
469 410 -470 -471 280 -117 0
469 410 -470 -471 -280 117 0
469 -410 470 471 -280 -117 0
469 -410 470 -471 280 -117 0
469 -410 470 -471 -280 117 0
469 -410 -470 471 280 -117 0
469 -410 -470 471 -280 117 0
469 -410 -470 -471 280 117 0
-469 410 470 471 -280 -117 0
-469 410 470 -471 280 -117 0
-469 410 470 -471 -280 117 0
-469 410 -470 471 280 -117 0
-469 410 -470 471 -280 117 0
-469 410 -470 -471 280 117 0
-469 -410 470 471 280 -117 0
-469 -410 470 471 -280 117 0
-469 -410 470 -471 280 117 0
-469 -410 -470 471 280 117 0
469 410 470 471 280 -117 0
469 410 470 471 -280 117 0
469 410 470 -471 280 117 0
469 410 -470 471 280 117 0
469 -410 470 471 280 117 0
-469 410 470 471 280 117 0
-472 -32 0
-472 36 0
472 32 -36 0
-473 34 0
-473 38 0
473 -34 -38 0
-474 32 0
-474 -36 0
-474 38 0
474 -32 36 -38 0
-475 34 0
-475 36 0
-475 -38 0
475 -34 -36 38 0
472 -414 -473 -474 -475 -148 0
-472 414 -473 -474 -475 -148 0
-472 -414 473 -474 -475 -148 0
-472 -414 -473 474 -475 -148 0
-472 -414 -473 -474 475 -148 0
-472 -414 -473 -474 -475 148 0
472 414 473 -474 -475 -148 0
472 414 -473 474 -475 -148 0
472 414 -473 -474 475 -148 0
472 414 -473 -474 -475 148 0
472 -414 473 474 -475 -148 0
472 -414 473 -474 475 -148 0
472 -414 473 -474 -475 148 0
472 -414 -473 474 475 -148 0
472 -414 -473 474 -475 148 0
472 -414 -473 -474 475 148 0
-472 414 473 474 -475 -148 0
-472 414 473 -474 475 -148 0
-472 414 473 -474 -475 148 0
-472 414 -473 474 475 -148 0
-472 414 -473 474 -475 148 0
-472 414 -473 -474 475 148 0
-472 -414 473 474 475 -148 0
-472 -414 473 474 -475 148 0
-472 -414 473 -474 475 148 0
-472 -414 -473 474 475 148 0
472 414 473 474 475 -148 0
472 414 473 474 -475 148 0
472 414 473 -474 475 148 0
472 414 -473 474 475 148 0
472 -414 473 474 475 148 0
-472 414 473 474 475 148 0
-476 42 0
-476 -44 0
476 -42 44 0
-477 40 0
-477 46 0
477 -40 -46 0
-478 40 0
-478 44 0
-478 -46 0
478 -40 -44 46 0
-479 -42 0
-479 44 0
-479 46 0
479 42 -44 -46 0
415 -476 -477 -478 -479 -179 0
-415 476 -477 -478 -479 -179 0
-415 -476 477 -478 -479 -179 0
-415 -476 -477 478 -479 -179 0
-415 -476 -477 -478 479 -179 0
-415 -476 -477 -478 -479 179 0
415 476 477 -478 -479 -179 0
415 476 -477 478 -479 -179 0
415 476 -477 -478 479 -179 0
415 476 -477 -478 -479 179 0
415 -476 477 478 -479 -179 0
415 -476 477 -478 479 -179 0
415 -476 477 -478 -479 179 0
415 -476 -477 478 479 -179 0
415 -476 -477 478 -479 179 0
415 -476 -477 -478 479 179 0
-415 476 477 478 -479 -179 0
-415 476 477 -478 479 -179 0
-415 476 477 -478 -479 179 0
-415 476 -477 478 479 -179 0
-415 476 -477 478 -479 179 0
-415 476 -477 -478 479 179 0
-415 -476 477 478 479 -179 0
-415 -476 477 478 -479 179 0
-415 -476 477 -478 479 179 0
-415 -476 -477 478 479 179 0
415 476 477 478 479 -179 0
415 476 477 478 -479 179 0
415 476 477 -478 479 179 0
415 476 -477 478 479 179 0
415 -476 477 478 479 179 0
-415 476 477 478 479 179 0
-480 -48 0
-480 52 0
480 48 -52 0
-481 50 0
-481 54 0
481 -50 -54 0
-482 48 0
-482 -52 0
-482 54 0
482 -48 52 -54 0
-483 50 0
-483 52 0
-483 -54 0
483 -50 -52 54 0
480 -422 -481 -482 -483 -210 0
-480 422 -481 -482 -483 -210 0
-480 -422 481 -482 -483 -210 0
-480 -422 -481 482 -483 -210 0
-480 -422 -481 -482 483 -210 0
-480 -422 -481 -482 -483 210 0
480 422 481 -482 -483 -210 0
480 422 -481 482 -483 -210 0
480 422 -481 -482 483 -210 0
480 422 -481 -482 -483 210 0
480 -422 481 482 -483 -210 0
480 -422 481 -482 483 -210 0
480 -422 481 -482 -483 210 0
480 -422 -481 482 483 -210 0
480 -422 -481 482 -483 210 0
480 -422 -481 -482 483 210 0
-480 422 481 482 -483 -210 0
-480 422 481 -482 483 -210 0
-480 422 481 -482 -483 210 0
-480 422 -481 482 483 -210 0
-480 422 -481 482 -483 210 0
-480 422 -481 -482 483 210 0
-480 -422 481 482 483 -210 0
-480 -422 481 482 -483 210 0
-480 -422 481 -482 483 210 0
-480 -422 -481 482 483 210 0
480 422 481 482 483 -210 0
480 422 481 482 -483 210 0
480 422 481 -482 483 210 0
480 422 -481 482 483 210 0
480 -422 481 482 483 210 0
-480 422 481 482 483 210 0
-484 86 0
-484 -148 0
484 -86 148 0
-485 86 0
-485 -117 0
-485 179 0
485 -86 117 -179 0
-486 -86 0
-486 210 0
486 86 -210 0
-487 86 0
-487 117 0
-487 -148 0
-487 210 0
487 -86 -117 148 -210 0
-488 -86 0
-488 179 0
-488 210 0
488 86 -179 -210 0
-489 117 0
-489 179 0
-489 210 0
489 -117 -179 -210 0
-490 117 0
-490 148 0
-490 179 0
-490 -210 0
490 -117 -148 -179 210 0
484 -485 -486 -487 -488 -489 491 0
-484 485 -486 -487 -488 -489 491 0
-484 -485 486 -487 -488 -489 491 0
-484 -485 -486 487 -488 -489 491 0
-484 -485 -486 -487 488 -489 491 0
-484 -485 -486 -487 -488 489 491 0
-484 -485 -486 -487 -488 -489 -491 0
484 485 486 -487 -488 -489 491 0
484 485 -486 487 -488 -489 491 0
484 485 -486 -487 488 -489 491 0
484 485 -486 -487 -488 489 491 0
484 485 -486 -487 -488 -489 -491 0
484 -485 486 487 -488 -489 491 0
484 -485 486 -487 488 -489 491 0
484 -485 486 -487 -488 489 491 0
484 -485 486 -487 -488 -489 -491 0
484 -485 -486 487 488 -489 491 0
484 -485 -486 487 -488 489 491 0
484 -485 -486 487 -488 -489 -491 0
484 -485 -486 -487 488 489 491 0
484 -485 -486 -487 488 -489 -491 0
484 -485 -486 -487 -488 489 -491 0
-484 485 486 487 -488 -489 491 0
-484 485 486 -487 488 -489 491 0
-484 485 486 -487 -488 489 491 0
-484 485 486 -487 -488 -489 -491 0
-484 485 -486 487 488 -489 491 0
-484 485 -486 487 -488 489 491 0
-484 485 -486 487 -488 -489 -491 0
-484 485 -486 -487 488 489 491 0
-484 485 -486 -487 488 -489 -491 0
-484 485 -486 -487 -488 489 -491 0
-484 -485 486 487 488 -489 491 0
-484 -485 486 487 -488 489 491 0
-484 -485 486 487 -488 -489 -491 0
-484 -485 486 -487 488 489 491 0
-484 -485 486 -487 488 -489 -491 0
-484 -485 486 -487 -488 489 -491 0
-484 -485 -486 487 488 489 491 0
-484 -485 -486 487 488 -489 -491 0
-484 -485 -486 487 -488 489 -491 0
-484 -485 -486 -487 488 489 -491 0
484 485 486 487 488 -489 491 0
484 485 486 487 -488 489 491 0
484 485 486 487 -488 -489 -491 0
484 485 486 -487 488 489 491 0
484 485 486 -487 488 -489 -491 0
484 485 486 -487 -488 489 -491 0
484 485 -486 487 488 489 491 0
484 485 -486 487 488 -489 -491 0
484 485 -486 487 -488 489 -491 0
484 485 -486 -487 488 489 -491 0
484 -485 486 487 488 489 491 0
484 -485 486 487 488 -489 -491 0
484 -485 486 487 -488 489 -491 0
484 -485 486 -487 488 489 -491 0
484 -485 -486 487 488 489 -491 0
-484 485 486 487 488 489 491 0
-484 485 486 487 488 -489 -491 0
-484 485 486 487 -488 489 -491 0
-484 485 486 -487 488 489 -491 0
-484 485 -486 487 488 489 -491 0
-484 -485 486 487 488 489 -491 0
484 485 486 487 488 489 -491 0
-491 -490 0
491 490 0
-8 -13 -17 -18 -20 -22 492 0
8 13 -17 -18 -20 -22 492 0
8 -13 17 -18 -20 -22 492 0
8 -13 -17 18 -20 -22 492 0
8 -13 -17 -18 20 -22 492 0
8 -13 -17 -18 -20 22 492 0
8 -13 -17 -18 -20 -22 -492 0
-8 13 17 -18 -20 -22 492 0
-8 13 -17 18 -20 -22 492 0
-8 13 -17 -18 20 -22 492 0
-8 13 -17 -18 -20 22 492 0
-8 13 -17 -18 -20 -22 -492 0
-8 -13 17 18 -20 -22 492 0
-8 -13 17 -18 20 -22 492 0
-8 -13 17 -18 -20 22 492 0
-8 -13 17 -18 -20 -22 -492 0
-8 -13 -17 18 20 -22 492 0
-8 -13 -17 18 -20 22 492 0
-8 -13 -17 18 -20 -22 -492 0
-8 -13 -17 -18 20 22 492 0
-8 -13 -17 -18 20 -22 -492 0
-8 -13 -17 -18 -20 22 -492 0
8 13 17 18 -20 -22 492 0
8 13 17 -18 20 -22 492 0
8 13 17 -18 -20 22 492 0
8 13 17 -18 -20 -22 -492 0
8 13 -17 18 20 -22 492 0
8 13 -17 18 -20 22 492 0
8 13 -17 18 -20 -22 -492 0
8 13 -17 -18 20 22 492 0
8 13 -17 -18 20 -22 -492 0
8 13 -17 -18 -20 22 -492 0
8 -13 17 18 20 -22 492 0
8 -13 17 18 -20 22 492 0
8 -13 17 18 -20 -22 -492 0
8 -13 17 -18 20 22 492 0
8 -13 17 -18 20 -22 -492 0
8 -13 17 -18 -20 22 -492 0
8 -13 -17 18 20 22 492 0
8 -13 -17 18 20 -22 -492 0
8 -13 -17 18 -20 22 -492 0
8 -13 -17 -18 20 22 -492 0
-8 13 17 18 20 -22 492 0
-8 13 17 18 -20 22 492 0
-8 13 17 18 -20 -22 -492 0
-8 13 17 -18 20 22 492 0
-8 13 17 -18 20 -22 -492 0
-8 13 17 -18 -20 22 -492 0
-8 13 -17 18 20 22 492 0
-8 13 -17 18 20 -22 -492 0
-8 13 -17 18 -20 22 -492 0
-8 13 -17 -18 20 22 -492 0
-8 -13 17 18 20 22 492 0
-8 -13 17 18 20 -22 -492 0
-8 -13 17 18 -20 22 -492 0
-8 -13 17 -18 20 22 -492 0
-8 -13 -17 18 20 22 -492 0
8 13 17 18 20 22 492 0
8 13 17 18 20 -22 -492 0
8 13 17 18 -20 22 -492 0
8 13 17 -18 20 22 -492 0
8 13 -17 18 20 22 -492 0
8 -13 17 18 20 22 -492 0
-8 13 17 18 20 22 -492 0
492 -23 -25 -27 -32 -33 493 0
-492 23 -25 -27 -32 -33 493 0
-492 -23 25 -27 -32 -33 493 0
-492 -23 -25 27 -32 -33 493 0
-492 -23 -25 -27 32 -33 493 0
-492 -23 -25 -27 -32 33 493 0
-492 -23 -25 -27 -32 -33 -493 0
492 23 25 -27 -32 -33 493 0
492 23 -25 27 -32 -33 493 0
492 23 -25 -27 32 -33 493 0
492 23 -25 -27 -32 33 493 0
492 23 -25 -27 -32 -33 -493 0
492 -23 25 27 -32 -33 493 0
492 -23 25 -27 32 -33 493 0
492 -23 25 -27 -32 33 493 0
492 -23 25 -27 -32 -33 -493 0
492 -23 -25 27 32 -33 493 0
492 -23 -25 27 -32 33 493 0
492 -23 -25 27 -32 -33 -493 0
492 -23 -25 -27 32 33 493 0
492 -23 -25 -27 32 -33 -493 0
492 -23 -25 -27 -32 33 -493 0
-492 23 25 27 -32 -33 493 0
-492 23 25 -27 32 -33 493 0
-492 23 25 -27 -32 33 493 0
-492 23 25 -27 -32 -33 -493 0
-492 23 -25 27 32 -33 493 0
-492 23 -25 27 -32 33 493 0
-492 23 -25 27 -32 -33 -493 0
-492 23 -25 -27 32 33 493 0
-492 23 -25 -27 32 -33 -493 0
-492 23 -25 -27 -32 33 -493 0
-492 -23 25 27 32 -33 493 0
-492 -23 25 27 -32 33 493 0
-492 -23 25 27 -32 -33 -493 0
-492 -23 25 -27 32 33 493 0
-492 -23 25 -27 32 -33 -493 0
-492 -23 25 -27 -32 33 -493 0
-492 -23 -25 27 32 33 493 0
-492 -23 -25 27 32 -33 -493 0
-492 -23 -25 27 -32 33 -493 0
-492 -23 -25 -27 32 33 -493 0
492 23 25 27 32 -33 493 0
492 23 25 27 -32 33 493 0
492 23 25 27 -32 -33 -493 0
492 23 25 -27 32 33 493 0
492 23 25 -27 32 -33 -493 0
492 23 25 -27 -32 33 -493 0
492 23 -25 27 32 33 493 0
492 23 -25 27 32 -33 -493 0
492 23 -25 27 -32 33 -493 0
492 23 -25 -27 32 33 -493 0
492 -23 25 27 32 33 493 0
492 -23 25 27 32 -33 -493 0
492 -23 25 27 -32 33 -493 0
492 -23 25 -27 32 33 -493 0
492 -23 -25 27 32 33 -493 0
-492 23 25 27 32 33 493 0
-492 23 25 27 32 -33 -493 0
-492 23 25 27 -32 33 -493 0
-492 23 25 -27 32 33 -493 0
-492 23 -25 27 32 33 -493 0
-492 -23 25 27 32 33 -493 0
492 23 25 27 32 33 -493 0
493 -35 -37 -43 -47 -49 494 0
-493 35 -37 -43 -47 -49 494 0
-493 -35 37 -43 -47 -49 494 0
-493 -35 -37 43 -47 -49 494 0
-493 -35 -37 -43 47 -49 494 0
-493 -35 -37 -43 -47 49 494 0
-493 -35 -37 -43 -47 -49 -494 0
493 35 37 -43 -47 -49 494 0
493 35 -37 43 -47 -49 494 0
493 35 -37 -43 47 -49 494 0
493 35 -37 -43 -47 49 494 0
493 35 -37 -43 -47 -49 -494 0
493 -35 37 43 -47 -49 494 0
493 -35 37 -43 47 -49 494 0
493 -35 37 -43 -47 49 494 0
493 -35 37 -43 -47 -49 -494 0
493 -35 -37 43 47 -49 494 0
493 -35 -37 43 -47 49 494 0
493 -35 -37 43 -47 -49 -494 0
493 -35 -37 -43 47 49 494 0
493 -35 -37 -43 47 -49 -494 0
493 -35 -37 -43 -47 49 -494 0
-493 35 37 43 -47 -49 494 0
-493 35 37 -43 47 -49 494 0
-493 35 37 -43 -47 49 494 0
-493 35 37 -43 -47 -49 -494 0
-493 35 -37 43 47 -49 494 0
-493 35 -37 43 -47 49 494 0
-493 35 -37 43 -47 -49 -494 0
-493 35 -37 -43 47 49 494 0
-493 35 -37 -43 47 -49 -494 0
-493 35 -37 -43 -47 49 -494 0
-493 -35 37 43 47 -49 494 0
-493 -35 37 43 -47 49 494 0
-493 -35 37 43 -47 -49 -494 0
-493 -35 37 -43 47 49 494 0
-493 -35 37 -43 47 -49 -494 0
-493 -35 37 -43 -47 49 -494 0
-493 -35 -37 43 47 49 494 0
-493 -35 -37 43 47 -49 -494 0
-493 -35 -37 43 -47 49 -494 0
-493 -35 -37 -43 47 49 -494 0
493 35 37 43 47 -49 494 0
493 35 37 43 -47 49 494 0
493 35 37 43 -47 -49 -494 0
493 35 37 -43 47 49 494 0
493 35 37 -43 47 -49 -494 0
493 35 37 -43 -47 49 -494 0
493 35 -37 43 47 49 494 0
493 35 -37 43 47 -49 -494 0
493 35 -37 43 -47 49 -494 0
493 35 -37 -43 47 49 -494 0
493 -35 37 43 47 49 494 0
493 -35 37 43 47 -49 -494 0
493 -35 37 43 -47 49 -494 0
493 -35 37 -43 47 49 -494 0
493 -35 -37 43 47 49 -494 0
-493 35 37 43 47 49 494 0
-493 35 37 43 47 -49 -494 0
-493 35 37 43 -47 49 -494 0
-493 35 37 -43 47 49 -494 0
-493 35 -37 43 47 49 -494 0
-493 -35 37 43 47 49 -494 0
493 35 37 43 47 49 -494 0
-494 -50 -51 -56 0
494 50 -51 -56 0
494 -50 51 -56 0
494 -50 -51 56 0
-494 50 51 -56 0
-494 50 -51 56 0
-494 -50 51 56 0
494 50 51 56 0
-495 19 0
-495 -21 0
495 -19 21 0
-496 17 0
-496 23 0
496 -17 -23 0
-497 17 0
-497 21 0
-497 -23 0
497 -17 -21 23 0
-498 -19 0
-498 21 0
-498 23 0
498 19 -21 -23 0
434 -495 -496 -497 -498 -87 0
-434 495 -496 -497 -498 -87 0
-434 -495 496 -497 -498 -87 0
-434 -495 -496 497 -498 -87 0
-434 -495 -496 -497 498 -87 0
-434 -495 -496 -497 -498 87 0
434 495 496 -497 -498 -87 0
434 495 -496 497 -498 -87 0
434 495 -496 -497 498 -87 0
434 495 -496 -497 -498 87 0
434 -495 496 497 -498 -87 0
434 -495 496 -497 498 -87 0
434 -495 496 -497 -498 87 0
434 -495 -496 497 498 -87 0
434 -495 -496 497 -498 87 0
434 -495 -496 -497 498 87 0
-434 495 496 497 -498 -87 0
-434 495 496 -497 498 -87 0
-434 495 496 -497 -498 87 0
-434 495 -496 497 498 -87 0
-434 495 -496 497 -498 87 0
-434 495 -496 -497 498 87 0
-434 -495 496 497 498 -87 0
-434 -495 496 497 -498 87 0
-434 -495 496 -497 498 87 0
-434 -495 -496 497 498 87 0
434 495 496 497 498 -87 0
434 495 496 497 -498 87 0
434 495 496 -497 498 87 0
434 495 -496 497 498 87 0
434 -495 496 497 498 87 0
-434 495 496 497 498 87 0
-499 -25 0
-499 29 0
499 25 -29 0
-500 27 0
-500 31 0
500 -27 -31 0
-501 25 0
-501 -29 0
-501 31 0
501 -25 29 -31 0
499 -441 -500 -501 -316 -118 0
-499 441 -500 -501 -316 -118 0
-499 -441 500 -501 -316 -118 0
-499 -441 -500 501 -316 -118 0
-499 -441 -500 -501 316 -118 0
-499 -441 -500 -501 -316 118 0
499 441 500 -501 -316 -118 0
499 441 -500 501 -316 -118 0
499 441 -500 -501 316 -118 0
499 441 -500 -501 -316 118 0
499 -441 500 501 -316 -118 0
499 -441 500 -501 316 -118 0
499 -441 500 -501 -316 118 0
499 -441 -500 501 316 -118 0
499 -441 -500 501 -316 118 0
499 -441 -500 -501 316 118 0
-499 441 500 501 -316 -118 0
-499 441 500 -501 316 -118 0
-499 441 500 -501 -316 118 0
-499 441 -500 501 316 -118 0
-499 441 -500 501 -316 118 0
-499 441 -500 -501 316 118 0
-499 -441 500 501 316 -118 0
-499 -441 500 501 -316 118 0
-499 -441 500 -501 316 118 0
-499 -441 -500 501 316 118 0
499 441 500 501 316 -118 0
499 441 500 501 -316 118 0
499 441 500 -501 316 118 0
499 441 -500 501 316 118 0
499 -441 500 501 316 118 0
-499 441 500 501 316 118 0
-502 -33 0
-502 37 0
502 33 -37 0
-503 35 0
-503 39 0
503 -35 -39 0
-504 33 0
-504 -37 0
-504 39 0
504 -33 37 -39 0
-505 35 0
-505 37 0
-505 -39 0
505 -35 -37 39 0
502 -445 -503 -504 -505 -149 0
-502 445 -503 -504 -505 -149 0
-502 -445 503 -504 -505 -149 0
-502 -445 -503 504 -505 -149 0
-502 -445 -503 -504 505 -149 0
-502 -445 -503 -504 -505 149 0
502 445 503 -504 -505 -149 0
502 445 -503 504 -505 -149 0
502 445 -503 -504 505 -149 0
502 445 -503 -504 -505 149 0
502 -445 503 504 -505 -149 0
502 -445 503 -504 505 -149 0
502 -445 503 -504 -505 149 0
502 -445 -503 504 505 -149 0
502 -445 -503 504 -505 149 0
502 -445 -503 -504 505 149 0
-502 445 503 504 -505 -149 0
-502 445 503 -504 505 -149 0
-502 445 503 -504 -505 149 0
-502 445 -503 504 505 -149 0
-502 445 -503 504 -505 149 0
-502 445 -503 -504 505 149 0
-502 -445 503 504 505 -149 0
-502 -445 503 504 -505 149 0
-502 -445 503 -504 505 149 0
-502 -445 -503 504 505 149 0
502 445 503 504 505 -149 0
502 445 503 504 -505 149 0
502 445 503 -504 505 149 0
502 445 -503 504 505 149 0
502 -445 503 504 505 149 0
-502 445 503 504 505 149 0
-506 43 0
-506 -45 0
506 -43 45 0
-507 41 0
-507 47 0
507 -41 -47 0
-508 41 0
-508 45 0
-508 -47 0
508 -41 -45 47 0
-509 -43 0
-509 45 0
-509 47 0
509 43 -45 -47 0
446 -506 -507 -508 -509 -180 0
-446 506 -507 -508 -509 -180 0
-446 -506 507 -508 -509 -180 0
-446 -506 -507 508 -509 -180 0
-446 -506 -507 -508 509 -180 0
-446 -506 -507 -508 -509 180 0
446 506 507 -508 -509 -180 0
446 506 -507 508 -509 -180 0
446 506 -507 -508 509 -180 0
446 506 -507 -508 -509 180 0
446 -506 507 508 -509 -180 0
446 -506 507 -508 509 -180 0
446 -506 507 -508 -509 180 0
446 -506 -507 508 509 -180 0
446 -506 -507 508 -509 180 0
446 -506 -507 -508 509 180 0
-446 506 507 508 -509 -180 0
-446 506 507 -508 509 -180 0
-446 506 507 -508 -509 180 0
-446 506 -507 508 509 -180 0
-446 506 -507 508 -509 180 0
-446 506 -507 -508 509 180 0
-446 -506 507 508 509 -180 0
-446 -506 507 508 -509 180 0
-446 -506 507 -508 509 180 0
-446 -506 -507 508 509 180 0
446 506 507 508 509 -180 0
446 506 507 508 -509 180 0
446 506 507 -508 509 180 0
446 506 -507 508 509 180 0
446 -506 507 508 509 180 0
-446 506 507 508 509 180 0
-510 -49 0
-510 53 0
510 49 -53 0
-511 51 0
-511 55 0
511 -51 -55 0
-512 49 0
-512 -53 0
-512 55 0
512 -49 53 -55 0
-513 51 0
-513 53 0
-513 -55 0
513 -51 -53 55 0
510 -453 -511 -512 -513 -211 0
-510 453 -511 -512 -513 -211 0
-510 -453 511 -512 -513 -211 0
-510 -453 -511 512 -513 -211 0
-510 -453 -511 -512 513 -211 0
-510 -453 -511 -512 -513 211 0
510 453 511 -512 -513 -211 0
510 453 -511 512 -513 -211 0
510 453 -511 -512 513 -211 0
510 453 -511 -512 -513 211 0
510 -453 511 512 -513 -211 0
510 -453 511 -512 513 -211 0
510 -453 511 -512 -513 211 0
510 -453 -511 512 513 -211 0
510 -453 -511 512 -513 211 0
510 -453 -511 -512 513 211 0
-510 453 511 512 -513 -211 0
-510 453 511 -512 513 -211 0
-510 453 511 -512 -513 211 0
-510 453 -511 512 513 -211 0
-510 453 -511 512 -513 211 0
-510 453 -511 -512 513 211 0
-510 -453 511 512 513 -211 0
-510 -453 511 512 -513 211 0
-510 -453 511 -512 513 211 0
-510 -453 -511 512 513 211 0
510 453 511 512 513 -211 0
510 453 511 512 -513 211 0
510 453 511 -512 513 211 0
510 453 -511 512 513 211 0
510 -453 511 512 513 211 0
-510 453 511 512 513 211 0
-514 87 0
-514 -149 0
514 -87 149 0
-515 87 0
-515 -118 0
-515 180 0
515 -87 118 -180 0
-516 -87 0
-516 211 0
516 87 -211 0
-517 87 0
-517 118 0
-517 -149 0
-517 211 0
517 -87 -118 149 -211 0
-518 -87 0
-518 180 0
-518 211 0
518 87 -180 -211 0
-519 118 0
-519 180 0
-519 211 0
519 -118 -180 -211 0
-520 118 0
-520 149 0
-520 180 0
-520 -211 0
520 -118 -149 -180 211 0
514 -515 -516 -517 -518 -519 521 0
-514 515 -516 -517 -518 -519 521 0
-514 -515 516 -517 -518 -519 521 0
-514 -515 -516 517 -518 -519 521 0
-514 -515 -516 -517 518 -519 521 0
-514 -515 -516 -517 -518 519 521 0
-514 -515 -516 -517 -518 -519 -521 0
514 515 516 -517 -518 -519 521 0
514 515 -516 517 -518 -519 521 0
514 515 -516 -517 518 -519 521 0
514 515 -516 -517 -518 519 521 0
514 515 -516 -517 -518 -519 -521 0
514 -515 516 517 -518 -519 521 0
514 -515 516 -517 518 -519 521 0
514 -515 516 -517 -518 519 521 0
514 -515 516 -517 -518 -519 -521 0
514 -515 -516 517 518 -519 521 0
514 -515 -516 517 -518 519 521 0
514 -515 -516 517 -518 -519 -521 0
514 -515 -516 -517 518 519 521 0
514 -515 -516 -517 518 -519 -521 0
514 -515 -516 -517 -518 519 -521 0
-514 515 516 517 -518 -519 521 0
-514 515 516 -517 518 -519 521 0
-514 515 516 -517 -518 519 521 0
-514 515 516 -517 -518 -519 -521 0
-514 515 -516 517 518 -519 521 0
-514 515 -516 517 -518 519 521 0
-514 515 -516 517 -518 -519 -521 0
-514 515 -516 -517 518 519 521 0
-514 515 -516 -517 518 -519 -521 0
-514 515 -516 -517 -518 519 -521 0
-514 -515 516 517 518 -519 521 0
-514 -515 516 517 -518 519 521 0
-514 -515 516 517 -518 -519 -521 0
-514 -515 516 -517 518 519 521 0
-514 -515 516 -517 518 -519 -521 0
-514 -515 516 -517 -518 519 -521 0
-514 -515 -516 517 518 519 521 0
-514 -515 -516 517 518 -519 -521 0
-514 -515 -516 517 -518 519 -521 0
-514 -515 -516 -517 518 519 -521 0
514 515 516 517 518 -519 521 0
514 515 516 517 -518 519 521 0
514 515 516 517 -518 -519 -521 0
514 515 516 -517 518 519 521 0
514 515 516 -517 518 -519 -521 0
514 515 516 -517 -518 519 -521 0
514 515 -516 517 518 519 521 0
514 515 -516 517 518 -519 -521 0
514 515 -516 517 -518 519 -521 0
514 515 -516 -517 518 519 -521 0
514 -515 516 517 518 519 521 0
514 -515 516 517 518 -519 -521 0
514 -515 516 517 -518 519 -521 0
514 -515 516 -517 518 519 -521 0
514 -515 -516 517 518 519 -521 0
-514 515 516 517 518 519 521 0
-514 515 516 517 518 -519 -521 0
-514 515 516 517 -518 519 -521 0
-514 515 516 -517 518 519 -521 0
-514 515 -516 517 518 519 -521 0
-514 -515 516 517 518 519 -521 0
514 515 516 517 518 519 -521 0
-521 -520 0
521 520 0
-9 -14 -18 -19 -21 -23 522 0
9 14 -18 -19 -21 -23 522 0
9 -14 18 -19 -21 -23 522 0
9 -14 -18 19 -21 -23 522 0
9 -14 -18 -19 21 -23 522 0
9 -14 -18 -19 -21 23 522 0
9 -14 -18 -19 -21 -23 -522 0
-9 14 18 -19 -21 -23 522 0
-9 14 -18 19 -21 -23 522 0
-9 14 -18 -19 21 -23 522 0
-9 14 -18 -19 -21 23 522 0
-9 14 -18 -19 -21 -23 -522 0
-9 -14 18 19 -21 -23 522 0
-9 -14 18 -19 21 -23 522 0
-9 -14 18 -19 -21 23 522 0
-9 -14 18 -19 -21 -23 -522 0
-9 -14 -18 19 21 -23 522 0
-9 -14 -18 19 -21 23 522 0
-9 -14 -18 19 -21 -23 -522 0
-9 -14 -18 -19 21 23 522 0
-9 -14 -18 -19 21 -23 -522 0
-9 -14 -18 -19 -21 23 -522 0
9 14 18 19 -21 -23 522 0
9 14 18 -19 21 -23 522 0
9 14 18 -19 -21 23 522 0
9 14 18 -19 -21 -23 -522 0
9 14 -18 19 21 -23 522 0
9 14 -18 19 -21 23 522 0
9 14 -18 19 -21 -23 -522 0
9 14 -18 -19 21 23 522 0
9 14 -18 -19 21 -23 -522 0
9 14 -18 -19 -21 23 -522 0
9 -14 18 19 21 -23 522 0
9 -14 18 19 -21 23 522 0
9 -14 18 19 -21 -23 -522 0
9 -14 18 -19 21 23 522 0
9 -14 18 -19 21 -23 -522 0
9 -14 18 -19 -21 23 -522 0
9 -14 -18 19 21 23 522 0
9 -14 -18 19 21 -23 -522 0
9 -14 -18 19 -21 23 -522 0
9 -14 -18 -19 21 23 -522 0
-9 14 18 19 21 -23 522 0
-9 14 18 19 -21 23 522 0
-9 14 18 19 -21 -23 -522 0
-9 14 18 -19 21 23 522 0
-9 14 18 -19 21 -23 -522 0
-9 14 18 -19 -21 23 -522 0
-9 14 -18 19 21 23 522 0
-9 14 -18 19 21 -23 -522 0
-9 14 -18 19 -21 23 -522 0
-9 14 -18 -19 21 23 -522 0
-9 -14 18 19 21 23 522 0
-9 -14 18 19 21 -23 -522 0
-9 -14 18 19 -21 23 -522 0
-9 -14 18 -19 21 23 -522 0
-9 -14 -18 19 21 23 -522 0
9 14 18 19 21 23 522 0
9 14 18 19 21 -23 -522 0
9 14 18 19 -21 23 -522 0
9 14 18 -19 21 23 -522 0
9 14 -18 19 21 23 -522 0
9 -14 18 19 21 23 -522 0
-9 14 18 19 21 23 -522 0
522 -24 -26 -28 -33 -34 523 0
-522 24 -26 -28 -33 -34 523 0
-522 -24 26 -28 -33 -34 523 0
-522 -24 -26 28 -33 -34 523 0
-522 -24 -26 -28 33 -34 523 0
-522 -24 -26 -28 -33 34 523 0
-522 -24 -26 -28 -33 -34 -523 0
522 24 26 -28 -33 -34 523 0
522 24 -26 28 -33 -34 523 0
522 24 -26 -28 33 -34 523 0
522 24 -26 -28 -33 34 523 0
522 24 -26 -28 -33 -34 -523 0
522 -24 26 28 -33 -34 523 0
522 -24 26 -28 33 -34 523 0
522 -24 26 -28 -33 34 523 0
522 -24 26 -28 -33 -34 -523 0
522 -24 -26 28 33 -34 523 0
522 -24 -26 28 -33 34 523 0
522 -24 -26 28 -33 -34 -523 0
522 -24 -26 -28 33 34 523 0
522 -24 -26 -28 33 -34 -523 0
522 -24 -26 -28 -33 34 -523 0
-522 24 26 28 -33 -34 523 0
-522 24 26 -28 33 -34 523 0
-522 24 26 -28 -33 34 523 0
-522 24 26 -28 -33 -34 -523 0
-522 24 -26 28 33 -34 523 0
-522 24 -26 28 -33 34 523 0
-522 24 -26 28 -33 -34 -523 0
-522 24 -26 -28 33 34 523 0
-522 24 -26 -28 33 -34 -523 0
-522 24 -26 -28 -33 34 -523 0
-522 -24 26 28 33 -34 523 0
-522 -24 26 28 -33 34 523 0
-522 -24 26 28 -33 -34 -523 0
-522 -24 26 -28 33 34 523 0
-522 -24 26 -28 33 -34 -523 0
-522 -24 26 -28 -33 34 -523 0
-522 -24 -26 28 33 34 523 0
-522 -24 -26 28 33 -34 -523 0
-522 -24 -26 28 -33 34 -523 0
-522 -24 -26 -28 33 34 -523 0
522 24 26 28 33 -34 523 0
522 24 26 28 -33 34 523 0
522 24 26 28 -33 -34 -523 0
522 24 26 -28 33 34 523 0
522 24 26 -28 33 -34 -523 0
522 24 26 -28 -33 34 -523 0
522 24 -26 28 33 34 523 0
522 24 -26 28 33 -34 -523 0
522 24 -26 28 -33 34 -523 0
522 24 -26 -28 33 34 -523 0
522 -24 26 28 33 34 523 0
522 -24 26 28 33 -34 -523 0
522 -24 26 28 -33 34 -523 0
522 -24 26 -28 33 34 -523 0
522 -24 -26 28 33 34 -523 0
-522 24 26 28 33 34 523 0
-522 24 26 28 33 -34 -523 0
-522 24 26 28 -33 34 -523 0
-522 24 26 -28 33 34 -523 0
-522 24 -26 28 33 34 -523 0
-522 -24 26 28 33 34 -523 0
522 24 26 28 33 34 -523 0
523 -36 -38 -44 -48 -50 524 0
-523 36 -38 -44 -48 -50 524 0
-523 -36 38 -44 -48 -50 524 0
-523 -36 -38 44 -48 -50 524 0
-523 -36 -38 -44 48 -50 524 0
-523 -36 -38 -44 -48 50 524 0
-523 -36 -38 -44 -48 -50 -524 0
523 36 38 -44 -48 -50 524 0
523 36 -38 44 -48 -50 524 0
523 36 -38 -44 48 -50 524 0
523 36 -38 -44 -48 50 524 0
523 36 -38 -44 -48 -50 -524 0
523 -36 38 44 -48 -50 524 0
523 -36 38 -44 48 -50 524 0
523 -36 38 -44 -48 50 524 0
523 -36 38 -44 -48 -50 -524 0
523 -36 -38 44 48 -50 524 0
523 -36 -38 44 -48 50 524 0
523 -36 -38 44 -48 -50 -524 0
523 -36 -38 -44 48 50 524 0
523 -36 -38 -44 48 -50 -524 0
523 -36 -38 -44 -48 50 -524 0
-523 36 38 44 -48 -50 524 0
-523 36 38 -44 48 -50 524 0
-523 36 38 -44 -48 50 524 0
-523 36 38 -44 -48 -50 -524 0
-523 36 -38 44 48 -50 524 0
-523 36 -38 44 -48 50 524 0
-523 36 -38 44 -48 -50 -524 0
-523 36 -38 -44 48 50 524 0
-523 36 -38 -44 48 -50 -524 0
-523 36 -38 -44 -48 50 -524 0
-523 -36 38 44 48 -50 524 0
-523 -36 38 44 -48 50 524 0
-523 -36 38 44 -48 -50 -524 0
-523 -36 38 -44 48 50 524 0
-523 -36 38 -44 48 -50 -524 0
-523 -36 38 -44 -48 50 -524 0
-523 -36 -38 44 48 50 524 0
-523 -36 -38 44 48 -50 -524 0
-523 -36 -38 44 -48 50 -524 0
-523 -36 -38 -44 48 50 -524 0
523 36 38 44 48 -50 524 0
523 36 38 44 -48 50 524 0
523 36 38 44 -48 -50 -524 0
523 36 38 -44 48 50 524 0
523 36 38 -44 48 -50 -524 0
523 36 38 -44 -48 50 -524 0
523 36 -38 44 48 50 524 0
523 36 -38 44 48 -50 -524 0
523 36 -38 44 -48 50 -524 0
523 36 -38 -44 48 50 -524 0
523 -36 38 44 48 50 524 0
523 -36 38 44 48 -50 -524 0
523 -36 38 44 -48 50 -524 0
523 -36 38 -44 48 50 -524 0
523 -36 -38 44 48 50 -524 0
-523 36 38 44 48 50 524 0
-523 36 38 44 48 -50 -524 0
-523 36 38 44 -48 50 -524 0
-523 36 38 -44 48 50 -524 0
-523 36 -38 44 48 50 -524 0
-523 -36 38 44 48 50 -524 0
523 36 38 44 48 50 -524 0
-524 -51 -52 -57 0
524 51 -52 -57 0
524 -51 52 -57 0
524 -51 -52 57 0
-524 51 52 -57 0
-524 51 -52 57 0
-524 -51 52 57 0
524 51 52 57 0
-525 20 0
-525 -22 0
525 -20 22 0
-526 18 0
-526 24 0
526 -18 -24 0
-527 18 0
-527 22 0
-527 -24 0
527 -18 -22 24 0
-528 -20 0
-528 22 0
-528 24 0
528 20 -22 -24 0
465 -525 -526 -527 -528 -88 0
-465 525 -526 -527 -528 -88 0
-465 -525 526 -527 -528 -88 0
-465 -525 -526 527 -528 -88 0
-465 -525 -526 -527 528 -88 0
-465 -525 -526 -527 -528 88 0
465 525 526 -527 -528 -88 0
465 525 -526 527 -528 -88 0
465 525 -526 -527 528 -88 0
465 525 -526 -527 -528 88 0
465 -525 526 527 -528 -88 0
465 -525 526 -527 528 -88 0
465 -525 526 -527 -528 88 0
465 -525 -526 527 528 -88 0
465 -525 -526 527 -528 88 0
465 -525 -526 -527 528 88 0
-465 525 526 527 -528 -88 0
-465 525 526 -527 528 -88 0
-465 525 526 -527 -528 88 0
-465 525 -526 527 528 -88 0
-465 525 -526 527 -528 88 0
-465 525 -526 -527 528 88 0
-465 -525 526 527 528 -88 0
-465 -525 526 527 -528 88 0
-465 -525 526 -527 528 88 0
-465 -525 -526 527 528 88 0
465 525 526 527 528 -88 0
465 525 526 527 -528 88 0
465 525 526 -527 528 88 0
465 525 -526 527 528 88 0
465 -525 526 527 528 88 0
-465 525 526 527 528 88 0
279 -280 -281 -282 -283 -119 0
-279 280 -281 -282 -283 -119 0
-279 -280 281 -282 -283 -119 0
-279 -280 -281 282 -283 -119 0
-279 -280 -281 -282 283 -119 0
-279 -280 -281 -282 -283 119 0
279 280 281 -282 -283 -119 0
279 280 -281 282 -283 -119 0
279 280 -281 -282 283 -119 0
279 280 -281 -282 -283 119 0
279 -280 281 282 -283 -119 0
279 -280 281 -282 283 -119 0
279 -280 281 -282 -283 119 0
279 -280 -281 282 283 -119 0
279 -280 -281 282 -283 119 0
279 -280 -281 -282 283 119 0
-279 280 281 282 -283 -119 0
-279 280 281 -282 283 -119 0
-279 280 281 -282 -283 119 0
-279 280 -281 282 283 -119 0
-279 280 -281 282 -283 119 0
-279 280 -281 -282 283 119 0
-279 -280 281 282 283 -119 0
-279 -280 281 282 -283 119 0
-279 -280 281 -282 283 119 0
-279 -280 -281 282 283 119 0
279 280 281 282 283 -119 0
279 280 281 282 -283 119 0
279 280 281 -282 283 119 0
279 280 -281 282 283 119 0
279 -280 281 282 283 119 0
-279 280 281 282 283 119 0
-529 -34 0
-529 38 0
529 34 -38 0
-530 36 0
-530 40 0
530 -36 -40 0
-531 34 0
-531 -38 0
-531 40 0
531 -34 38 -40 0
-532 36 0
-532 38 0
-532 -40 0
532 -36 -38 40 0
529 -475 -530 -531 -532 -150 0
-529 475 -530 -531 -532 -150 0
-529 -475 530 -531 -532 -150 0
-529 -475 -530 531 -532 -150 0
-529 -475 -530 -531 532 -150 0
-529 -475 -530 -531 -532 150 0
529 475 530 -531 -532 -150 0
529 475 -530 531 -532 -150 0
529 475 -530 -531 532 -150 0
529 475 -530 -531 -532 150 0
529 -475 530 531 -532 -150 0
529 -475 530 -531 532 -150 0
529 -475 530 -531 -532 150 0
529 -475 -530 531 532 -150 0
529 -475 -530 531 -532 150 0
529 -475 -530 -531 532 150 0
-529 475 530 531 -532 -150 0
-529 475 530 -531 532 -150 0
-529 475 530 -531 -532 150 0
-529 475 -530 531 532 -150 0
-529 475 -530 531 -532 150 0
-529 475 -530 -531 532 150 0
-529 -475 530 531 532 -150 0
-529 -475 530 531 -532 150 0
-529 -475 530 -531 532 150 0
-529 -475 -530 531 532 150 0
529 475 530 531 532 -150 0
529 475 530 531 -532 150 0
529 475 530 -531 532 150 0
529 475 -530 531 532 150 0
529 -475 530 531 532 150 0
-529 475 530 531 532 150 0
-533 44 0
-533 -46 0
533 -44 46 0
-534 42 0
-534 48 0
534 -42 -48 0
-535 42 0
-535 46 0
-535 -48 0
535 -42 -46 48 0
-536 -44 0
-536 46 0
-536 48 0
536 44 -46 -48 0
476 -533 -534 -535 -536 -181 0
-476 533 -534 -535 -536 -181 0
-476 -533 534 -535 -536 -181 0
-476 -533 -534 535 -536 -181 0
-476 -533 -534 -535 536 -181 0
-476 -533 -534 -535 -536 181 0
476 533 534 -535 -536 -181 0
476 533 -534 535 -536 -181 0
476 533 -534 -535 536 -181 0
476 533 -534 -535 -536 181 0
476 -533 534 535 -536 -181 0
476 -533 534 -535 536 -181 0
476 -533 534 -535 -536 181 0
476 -533 -534 535 536 -181 0
476 -533 -534 535 -536 181 0
476 -533 -534 -535 536 181 0
-476 533 534 535 -536 -181 0
-476 533 534 -535 536 -181 0
-476 533 534 -535 -536 181 0
-476 533 -534 535 536 -181 0
-476 533 -534 535 -536 181 0
-476 533 -534 -535 536 181 0
-476 -533 534 535 536 -181 0
-476 -533 534 535 -536 181 0
-476 -533 534 -535 536 181 0
-476 -533 -534 535 536 181 0
476 533 534 535 536 -181 0
476 533 534 535 -536 181 0
476 533 534 -535 536 181 0
476 533 -534 535 536 181 0
476 -533 534 535 536 181 0
-476 533 534 535 536 181 0
-537 -50 0
-537 54 0
537 50 -54 0
-538 52 0
-538 56 0
538 -52 -56 0
-539 50 0
-539 -54 0
-539 56 0
539 -50 54 -56 0
-540 52 0
-540 54 0
-540 -56 0
540 -52 -54 56 0
537 -483 -538 -539 -540 -212 0
-537 483 -538 -539 -540 -212 0
-537 -483 538 -539 -540 -212 0
-537 -483 -538 539 -540 -212 0
-537 -483 -538 -539 540 -212 0
-537 -483 -538 -539 -540 212 0
537 483 538 -539 -540 -212 0
537 483 -538 539 -540 -212 0
537 483 -538 -539 540 -212 0
537 483 -538 -539 -540 212 0
537 -483 538 539 -540 -212 0
537 -483 538 -539 540 -212 0
537 -483 538 -539 -540 212 0
537 -483 -538 539 540 -212 0
537 -483 -538 539 -540 212 0
537 -483 -538 -539 540 212 0
-537 483 538 539 -540 -212 0
-537 483 538 -539 540 -212 0
-537 483 538 -539 -540 212 0
-537 483 -538 539 540 -212 0
-537 483 -538 539 -540 212 0
-537 483 -538 -539 540 212 0
-537 -483 538 539 540 -212 0
-537 -483 538 539 -540 212 0
-537 -483 538 -539 540 212 0
-537 -483 -538 539 540 212 0
537 483 538 539 540 -212 0
537 483 538 539 -540 212 0
537 483 538 -539 540 212 0
537 483 -538 539 540 212 0
537 -483 538 539 540 212 0
-537 483 538 539 540 212 0
-541 88 0
-541 -150 0
541 -88 150 0
-542 88 0
-542 -119 0
-542 181 0
542 -88 119 -181 0
-543 -88 0
-543 212 0
543 88 -212 0
-544 88 0
-544 119 0
-544 -150 0
-544 212 0
544 -88 -119 150 -212 0
-545 -88 0
-545 181 0
-545 212 0
545 88 -181 -212 0
-546 119 0
-546 181 0
-546 212 0
546 -119 -181 -212 0
-547 119 0
-547 150 0
-547 181 0
-547 -212 0
547 -119 -150 -181 212 0
-541 -542 -543 -544 -545 -546 548 0
541 542 -543 -544 -545 -546 548 0
541 -542 543 -544 -545 -546 548 0
541 -542 -543 544 -545 -546 548 0
541 -542 -543 -544 545 -546 548 0
541 -542 -543 -544 -545 546 548 0
541 -542 -543 -544 -545 -546 -548 0
-541 542 543 -544 -545 -546 548 0
-541 542 -543 544 -545 -546 548 0
-541 542 -543 -544 545 -546 548 0
-541 542 -543 -544 -545 546 548 0
-541 542 -543 -544 -545 -546 -548 0
-541 -542 543 544 -545 -546 548 0
-541 -542 543 -544 545 -546 548 0
-541 -542 543 -544 -545 546 548 0
-541 -542 543 -544 -545 -546 -548 0
-541 -542 -543 544 545 -546 548 0
-541 -542 -543 544 -545 546 548 0
-541 -542 -543 544 -545 -546 -548 0
-541 -542 -543 -544 545 546 548 0
-541 -542 -543 -544 545 -546 -548 0
-541 -542 -543 -544 -545 546 -548 0
541 542 543 544 -545 -546 548 0
541 542 543 -544 545 -546 548 0
541 542 543 -544 -545 546 548 0
541 542 543 -544 -545 -546 -548 0
541 542 -543 544 545 -546 548 0
541 542 -543 544 -545 546 548 0
541 542 -543 544 -545 -546 -548 0
541 542 -543 -544 545 546 548 0
541 542 -543 -544 545 -546 -548 0
541 542 -543 -544 -545 546 -548 0
541 -542 543 544 545 -546 548 0
541 -542 543 544 -545 546 548 0
541 -542 543 544 -545 -546 -548 0
541 -542 543 -544 545 546 548 0
541 -542 543 -544 545 -546 -548 0
541 -542 543 -544 -545 546 -548 0
541 -542 -543 544 545 546 548 0
541 -542 -543 544 545 -546 -548 0
541 -542 -543 544 -545 546 -548 0
541 -542 -543 -544 545 546 -548 0
-541 542 543 544 545 -546 548 0
-541 542 543 544 -545 546 548 0
-541 542 543 544 -545 -546 -548 0
-541 542 543 -544 545 546 548 0
-541 542 543 -544 545 -546 -548 0
-541 542 543 -544 -545 546 -548 0
-541 542 -543 544 545 546 548 0
-541 542 -543 544 545 -546 -548 0
-541 542 -543 544 -545 546 -548 0
-541 542 -543 -544 545 546 -548 0
-541 -542 543 544 545 546 548 0
-541 -542 543 544 545 -546 -548 0
-541 -542 543 544 -545 546 -548 0
-541 -542 543 -544 545 546 -548 0
-541 -542 -543 544 545 546 -548 0
541 542 543 544 545 546 548 0
541 542 543 544 545 -546 -548 0
541 542 543 544 -545 546 -548 0
541 542 543 -544 545 546 -548 0
541 542 -543 544 545 546 -548 0
541 -542 543 544 545 546 -548 0
-541 542 543 544 545 546 -548 0
-548 -547 0
548 547 0
-10 -15 -19 -20 -22 -24 549 0
10 15 -19 -20 -22 -24 549 0
10 -15 19 -20 -22 -24 549 0
10 -15 -19 20 -22 -24 549 0
10 -15 -19 -20 22 -24 549 0
10 -15 -19 -20 -22 24 549 0
10 -15 -19 -20 -22 -24 -549 0
-10 15 19 -20 -22 -24 549 0
-10 15 -19 20 -22 -24 549 0
-10 15 -19 -20 22 -24 549 0
-10 15 -19 -20 -22 24 549 0
-10 15 -19 -20 -22 -24 -549 0
-10 -15 19 20 -22 -24 549 0
-10 -15 19 -20 22 -24 549 0
-10 -15 19 -20 -22 24 549 0
-10 -15 19 -20 -22 -24 -549 0
-10 -15 -19 20 22 -24 549 0
-10 -15 -19 20 -22 24 549 0
-10 -15 -19 20 -22 -24 -549 0
-10 -15 -19 -20 22 24 549 0
-10 -15 -19 -20 22 -24 -549 0
-10 -15 -19 -20 -22 24 -549 0
10 15 19 20 -22 -24 549 0
10 15 19 -20 22 -24 549 0
10 15 19 -20 -22 24 549 0
10 15 19 -20 -22 -24 -549 0
10 15 -19 20 22 -24 549 0
10 15 -19 20 -22 24 549 0
10 15 -19 20 -22 -24 -549 0
10 15 -19 -20 22 24 549 0
10 15 -19 -20 22 -24 -549 0
10 15 -19 -20 -22 24 -549 0
10 -15 19 20 22 -24 549 0
10 -15 19 20 -22 24 549 0
10 -15 19 20 -22 -24 -549 0
10 -15 19 -20 22 24 549 0
10 -15 19 -20 22 -24 -549 0
10 -15 19 -20 -22 24 -549 0
10 -15 -19 20 22 24 549 0
10 -15 -19 20 22 -24 -549 0
10 -15 -19 20 -22 24 -549 0
10 -15 -19 -20 22 24 -549 0
-10 15 19 20 22 -24 549 0
-10 15 19 20 -22 24 549 0
-10 15 19 20 -22 -24 -549 0
-10 15 19 -20 22 24 549 0
-10 15 19 -20 22 -24 -549 0
-10 15 19 -20 -22 24 -549 0
-10 15 -19 20 22 24 549 0
-10 15 -19 20 22 -24 -549 0
-10 15 -19 20 -22 24 -549 0
-10 15 -19 -20 22 24 -549 0
-10 -15 19 20 22 24 549 0
-10 -15 19 20 22 -24 -549 0
-10 -15 19 20 -22 24 -549 0
-10 -15 19 -20 22 24 -549 0
-10 -15 -19 20 22 24 -549 0
10 15 19 20 22 24 549 0
10 15 19 20 22 -24 -549 0
10 15 19 20 -22 24 -549 0
10 15 19 -20 22 24 -549 0
10 15 -19 20 22 24 -549 0
10 -15 19 20 22 24 -549 0
-10 15 19 20 22 24 -549 0
549 -25 -27 -29 -34 -35 550 0
-549 25 -27 -29 -34 -35 550 0
-549 -25 27 -29 -34 -35 550 0
-549 -25 -27 29 -34 -35 550 0
-549 -25 -27 -29 34 -35 550 0
-549 -25 -27 -29 -34 35 550 0
-549 -25 -27 -29 -34 -35 -550 0
549 25 27 -29 -34 -35 550 0
549 25 -27 29 -34 -35 550 0
549 25 -27 -29 34 -35 550 0
549 25 -27 -29 -34 35 550 0
549 25 -27 -29 -34 -35 -550 0
549 -25 27 29 -34 -35 550 0
549 -25 27 -29 34 -35 550 0
549 -25 27 -29 -34 35 550 0
549 -25 27 -29 -34 -35 -550 0
549 -25 -27 29 34 -35 550 0
549 -25 -27 29 -34 35 550 0
549 -25 -27 29 -34 -35 -550 0
549 -25 -27 -29 34 35 550 0
549 -25 -27 -29 34 -35 -550 0
549 -25 -27 -29 -34 35 -550 0
-549 25 27 29 -34 -35 550 0
-549 25 27 -29 34 -35 550 0
-549 25 27 -29 -34 35 550 0
-549 25 27 -29 -34 -35 -550 0
-549 25 -27 29 34 -35 550 0
-549 25 -27 29 -34 35 550 0
-549 25 -27 29 -34 -35 -550 0
-549 25 -27 -29 34 35 550 0
-549 25 -27 -29 34 -35 -550 0
-549 25 -27 -29 -34 35 -550 0
-549 -25 27 29 34 -35 550 0
-549 -25 27 29 -34 35 550 0
-549 -25 27 29 -34 -35 -550 0
-549 -25 27 -29 34 35 550 0
-549 -25 27 -29 34 -35 -550 0
-549 -25 27 -29 -34 35 -550 0
-549 -25 -27 29 34 35 550 0
-549 -25 -27 29 34 -35 -550 0
-549 -25 -27 29 -34 35 -550 0
-549 -25 -27 -29 34 35 -550 0
549 25 27 29 34 -35 550 0
549 25 27 29 -34 35 550 0
549 25 27 29 -34 -35 -550 0
549 25 27 -29 34 35 550 0
549 25 27 -29 34 -35 -550 0
549 25 27 -29 -34 35 -550 0
549 25 -27 29 34 35 550 0
549 25 -27 29 34 -35 -550 0
549 25 -27 29 -34 35 -550 0
549 25 -27 -29 34 35 -550 0
549 -25 27 29 34 35 550 0
549 -25 27 29 34 -35 -550 0
549 -25 27 29 -34 35 -550 0
549 -25 27 -29 34 35 -550 0
549 -25 -27 29 34 35 -550 0
-549 25 27 29 34 35 550 0
-549 25 27 29 34 -35 -550 0
-549 25 27 29 -34 35 -550 0
-549 25 27 -29 34 35 -550 0
-549 25 -27 29 34 35 -550 0
-549 -25 27 29 34 35 -550 0
549 25 27 29 34 35 -550 0
550 -37 -39 -45 -49 -51 551 0
-550 37 -39 -45 -49 -51 551 0
-550 -37 39 -45 -49 -51 551 0
-550 -37 -39 45 -49 -51 551 0
-550 -37 -39 -45 49 -51 551 0
-550 -37 -39 -45 -49 51 551 0
-550 -37 -39 -45 -49 -51 -551 0
550 37 39 -45 -49 -51 551 0
550 37 -39 45 -49 -51 551 0
550 37 -39 -45 49 -51 551 0
550 37 -39 -45 -49 51 551 0
550 37 -39 -45 -49 -51 -551 0
550 -37 39 45 -49 -51 551 0
550 -37 39 -45 49 -51 551 0
550 -37 39 -45 -49 51 551 0
550 -37 39 -45 -49 -51 -551 0
550 -37 -39 45 49 -51 551 0
550 -37 -39 45 -49 51 551 0
550 -37 -39 45 -49 -51 -551 0
550 -37 -39 -45 49 51 551 0
550 -37 -39 -45 49 -51 -551 0
550 -37 -39 -45 -49 51 -551 0
-550 37 39 45 -49 -51 551 0
-550 37 39 -45 49 -51 551 0
-550 37 39 -45 -49 51 551 0
-550 37 39 -45 -49 -51 -551 0
-550 37 -39 45 49 -51 551 0
-550 37 -39 45 -49 51 551 0
-550 37 -39 45 -49 -51 -551 0
-550 37 -39 -45 49 51 551 0
-550 37 -39 -45 49 -51 -551 0
-550 37 -39 -45 -49 51 -551 0
-550 -37 39 45 49 -51 551 0
-550 -37 39 45 -49 51 551 0
-550 -37 39 45 -49 -51 -551 0
-550 -37 39 -45 49 51 551 0
-550 -37 39 -45 49 -51 -551 0
-550 -37 39 -45 -49 51 -551 0
-550 -37 -39 45 49 51 551 0
-550 -37 -39 45 49 -51 -551 0
-550 -37 -39 45 -49 51 -551 0
-550 -37 -39 -45 49 51 -551 0
550 37 39 45 49 -51 551 0
550 37 39 45 -49 51 551 0
550 37 39 45 -49 -51 -551 0
550 37 39 -45 49 51 551 0
550 37 39 -45 49 -51 -551 0
550 37 39 -45 -49 51 -551 0
550 37 -39 45 49 51 551 0
550 37 -39 45 49 -51 -551 0
550 37 -39 45 -49 51 -551 0
550 37 -39 -45 49 51 -551 0
550 -37 39 45 49 51 551 0
550 -37 39 45 49 -51 -551 0
550 -37 39 45 -49 51 -551 0
550 -37 39 -45 49 51 -551 0
550 -37 -39 45 49 51 -551 0
-550 37 39 45 49 51 551 0
-550 37 39 45 49 -51 -551 0
-550 37 39 45 -49 51 -551 0
-550 37 39 -45 49 51 -551 0
-550 37 -39 45 49 51 -551 0
-550 -37 39 45 49 51 -551 0
550 37 39 45 49 51 -551 0
-551 -52 -53 -58 0
551 52 -53 -58 0
551 -52 53 -58 0
551 -52 -53 58 0
-551 52 53 -58 0
-551 52 -53 58 0
-551 -52 53 58 0
551 52 53 58 0
-552 21 0
-552 -23 0
552 -21 23 0
-553 19 0
-553 25 0
553 -19 -25 0
-554 19 0
-554 23 0
-554 -25 0
554 -19 -23 25 0
-555 -21 0
-555 23 0
-555 25 0
555 21 -23 -25 0
495 -552 -553 -554 -555 -89 0
-495 552 -553 -554 -555 -89 0
-495 -552 553 -554 -555 -89 0
-495 -552 -553 554 -555 -89 0
-495 -552 -553 -554 555 -89 0
-495 -552 -553 -554 -555 89 0
495 552 553 -554 -555 -89 0
495 552 -553 554 -555 -89 0
495 552 -553 -554 555 -89 0
495 552 -553 -554 -555 89 0
495 -552 553 554 -555 -89 0
495 -552 553 -554 555 -89 0
495 -552 553 -554 -555 89 0
495 -552 -553 554 555 -89 0
495 -552 -553 554 -555 89 0
495 -552 -553 -554 555 89 0
-495 552 553 554 -555 -89 0
-495 552 553 -554 555 -89 0
-495 552 553 -554 -555 89 0
-495 552 -553 554 555 -89 0
-495 552 -553 554 -555 89 0
-495 552 -553 -554 555 89 0
-495 -552 553 554 555 -89 0
-495 -552 553 554 -555 89 0
-495 -552 553 -554 555 89 0
-495 -552 -553 554 555 89 0
495 552 553 554 555 -89 0
495 552 553 554 -555 89 0
495 552 553 -554 555 89 0
495 552 -553 554 555 89 0
495 -552 553 554 555 89 0
-495 552 553 554 555 89 0
315 -316 -317 -318 -319 -120 0
-315 316 -317 -318 -319 -120 0
-315 -316 317 -318 -319 -120 0
-315 -316 -317 318 -319 -120 0
-315 -316 -317 -318 319 -120 0
-315 -316 -317 -318 -319 120 0
315 316 317 -318 -319 -120 0
315 316 -317 318 -319 -120 0
315 316 -317 -318 319 -120 0
315 316 -317 -318 -319 120 0
315 -316 317 318 -319 -120 0
315 -316 317 -318 319 -120 0
315 -316 317 -318 -319 120 0
315 -316 -317 318 319 -120 0
315 -316 -317 318 -319 120 0
315 -316 -317 -318 319 120 0
-315 316 317 318 -319 -120 0
-315 316 317 -318 319 -120 0
-315 316 317 -318 -319 120 0
-315 316 -317 318 319 -120 0
-315 316 -317 318 -319 120 0
-315 316 -317 -318 319 120 0
-315 -316 317 318 319 -120 0
-315 -316 317 318 -319 120 0
-315 -316 317 -318 319 120 0
-315 -316 -317 318 319 120 0
315 316 317 318 319 -120 0
315 316 317 318 -319 120 0
315 316 317 -318 319 120 0
315 316 -317 318 319 120 0
315 -316 317 318 319 120 0
-315 316 317 318 319 120 0
-556 -35 0
-556 39 0
556 35 -39 0
-557 37 0
-557 41 0
557 -37 -41 0
-558 35 0
-558 -39 0
-558 41 0
558 -35 39 -41 0
-559 37 0
-559 39 0
-559 -41 0
559 -37 -39 41 0
556 -505 -557 -558 -559 -151 0
-556 505 -557 -558 -559 -151 0
-556 -505 557 -558 -559 -151 0
-556 -505 -557 558 -559 -151 0
-556 -505 -557 -558 559 -151 0
-556 -505 -557 -558 -559 151 0
556 505 557 -558 -559 -151 0
556 505 -557 558 -559 -151 0
556 505 -557 -558 559 -151 0
556 505 -557 -558 -559 151 0
556 -505 557 558 -559 -151 0
556 -505 557 -558 559 -151 0
556 -505 557 -558 -559 151 0
556 -505 -557 558 559 -151 0
556 -505 -557 558 -559 151 0
556 -505 -557 -558 559 151 0
-556 505 557 558 -559 -151 0
-556 505 557 -558 559 -151 0
-556 505 557 -558 -559 151 0
-556 505 -557 558 559 -151 0
-556 505 -557 558 -559 151 0
-556 505 -557 -558 559 151 0
-556 -505 557 558 559 -151 0
-556 -505 557 558 -559 151 0
-556 -505 557 -558 559 151 0
-556 -505 -557 558 559 151 0
556 505 557 558 559 -151 0
556 505 557 558 -559 151 0
556 505 557 -558 559 151 0
556 505 -557 558 559 151 0
556 -505 557 558 559 151 0
-556 505 557 558 559 151 0
-560 45 0
-560 -47 0
560 -45 47 0
-561 43 0
-561 49 0
561 -43 -49 0
-562 43 0
-562 47 0
-562 -49 0
562 -43 -47 49 0
-563 -45 0
-563 47 0
-563 49 0
563 45 -47 -49 0
506 -560 -561 -562 -563 -182 0
-506 560 -561 -562 -563 -182 0
-506 -560 561 -562 -563 -182 0
-506 -560 -561 562 -563 -182 0
-506 -560 -561 -562 563 -182 0
-506 -560 -561 -562 -563 182 0
506 560 561 -562 -563 -182 0
506 560 -561 562 -563 -182 0
506 560 -561 -562 563 -182 0
506 560 -561 -562 -563 182 0
506 -560 561 562 -563 -182 0
506 -560 561 -562 563 -182 0
506 -560 561 -562 -563 182 0
506 -560 -561 562 563 -182 0
506 -560 -561 562 -563 182 0
506 -560 -561 -562 563 182 0
-506 560 561 562 -563 -182 0
-506 560 561 -562 563 -182 0
-506 560 561 -562 -563 182 0
-506 560 -561 562 563 -182 0
-506 560 -561 562 -563 182 0
-506 560 -561 -562 563 182 0
-506 -560 561 562 563 -182 0
-506 -560 561 562 -563 182 0
-506 -560 561 -562 563 182 0
-506 -560 -561 562 563 182 0
506 560 561 562 563 -182 0
506 560 561 562 -563 182 0
506 560 561 -562 563 182 0
506 560 -561 562 563 182 0
506 -560 561 562 563 182 0
-506 560 561 562 563 182 0
-564 -51 0
-564 55 0
564 51 -55 0
-565 53 0
-565 57 0
565 -53 -57 0
-566 51 0
-566 -55 0
-566 57 0
566 -51 55 -57 0
-567 53 0
-567 55 0
-567 -57 0
567 -53 -55 57 0
564 -513 -565 -566 -567 -213 0
-564 513 -565 -566 -567 -213 0
-564 -513 565 -566 -567 -213 0
-564 -513 -565 566 -567 -213 0
-564 -513 -565 -566 567 -213 0
-564 -513 -565 -566 -567 213 0
564 513 565 -566 -567 -213 0
564 513 -565 566 -567 -213 0
564 513 -565 -566 567 -213 0
564 513 -565 -566 -567 213 0
564 -513 565 566 -567 -213 0
564 -513 565 -566 567 -213 0
564 -513 565 -566 -567 213 0
564 -513 -565 566 567 -213 0
564 -513 -565 566 -567 213 0
564 -513 -565 -566 567 213 0
-564 513 565 566 -567 -213 0
-564 513 565 -566 567 -213 0
-564 513 565 -566 -567 213 0
-564 513 -565 566 567 -213 0
-564 513 -565 566 -567 213 0
-564 513 -565 -566 567 213 0
-564 -513 565 566 567 -213 0
-564 -513 565 566 -567 213 0
-564 -513 565 -566 567 213 0
-564 -513 -565 566 567 213 0
564 513 565 566 567 -213 0
564 513 565 566 -567 213 0
564 513 565 -566 567 213 0
564 513 -565 566 567 213 0
564 -513 565 566 567 213 0
-564 513 565 566 567 213 0
-568 89 0
-568 -151 0
568 -89 151 0
-569 89 0
-569 -120 0
-569 182 0
569 -89 120 -182 0
-570 -89 0
-570 213 0
570 89 -213 0
-571 89 0
-571 120 0
-571 -151 0
-571 213 0
571 -89 -120 151 -213 0
-572 -89 0
-572 182 0
-572 213 0
572 89 -182 -213 0
-573 120 0
-573 182 0
-573 213 0
573 -120 -182 -213 0
-574 120 0
-574 151 0
-574 182 0
-574 -213 0
574 -120 -151 -182 213 0
568 -569 -570 -571 -572 -573 575 0
-568 569 -570 -571 -572 -573 575 0
-568 -569 570 -571 -572 -573 575 0
-568 -569 -570 571 -572 -573 575 0
-568 -569 -570 -571 572 -573 575 0
-568 -569 -570 -571 -572 573 575 0
-568 -569 -570 -571 -572 -573 -575 0
568 569 570 -571 -572 -573 575 0
568 569 -570 571 -572 -573 575 0
568 569 -570 -571 572 -573 575 0
568 569 -570 -571 -572 573 575 0
568 569 -570 -571 -572 -573 -575 0
568 -569 570 571 -572 -573 575 0
568 -569 570 -571 572 -573 575 0
568 -569 570 -571 -572 573 575 0
568 -569 570 -571 -572 -573 -575 0
568 -569 -570 571 572 -573 575 0
568 -569 -570 571 -572 573 575 0
568 -569 -570 571 -572 -573 -575 0
568 -569 -570 -571 572 573 575 0
568 -569 -570 -571 572 -573 -575 0
568 -569 -570 -571 -572 573 -575 0
-568 569 570 571 -572 -573 575 0
-568 569 570 -571 572 -573 575 0
-568 569 570 -571 -572 573 575 0
-568 569 570 -571 -572 -573 -575 0
-568 569 -570 571 572 -573 575 0
-568 569 -570 571 -572 573 575 0
-568 569 -570 571 -572 -573 -575 0
-568 569 -570 -571 572 573 575 0
-568 569 -570 -571 572 -573 -575 0
-568 569 -570 -571 -572 573 -575 0
-568 -569 570 571 572 -573 575 0
-568 -569 570 571 -572 573 575 0
-568 -569 570 571 -572 -573 -575 0
-568 -569 570 -571 572 573 575 0
-568 -569 570 -571 572 -573 -575 0
-568 -569 570 -571 -572 573 -575 0
-568 -569 -570 571 572 573 575 0
-568 -569 -570 571 572 -573 -575 0
-568 -569 -570 571 -572 573 -575 0
-568 -569 -570 -571 572 573 -575 0
568 569 570 571 572 -573 575 0
568 569 570 571 -572 573 575 0
568 569 570 571 -572 -573 -575 0
568 569 570 -571 572 573 575 0
568 569 570 -571 572 -573 -575 0
568 569 570 -571 -572 573 -575 0
568 569 -570 571 572 573 575 0
568 569 -570 571 572 -573 -575 0
568 569 -570 571 -572 573 -575 0
568 569 -570 -571 572 573 -575 0
568 -569 570 571 572 573 575 0
568 -569 570 571 572 -573 -575 0
568 -569 570 571 -572 573 -575 0
568 -569 570 -571 572 573 -575 0
568 -569 -570 571 572 573 -575 0
-568 569 570 571 572 573 575 0
-568 569 570 571 572 -573 -575 0
-568 569 570 571 -572 573 -575 0
-568 569 570 -571 572 573 -575 0
-568 569 -570 571 572 573 -575 0
-568 -569 570 571 572 573 -575 0
568 569 570 571 572 573 -575 0
-575 -574 0
575 574 0
-11 -16 -20 -21 -23 -25 576 0
11 16 -20 -21 -23 -25 576 0
11 -16 20 -21 -23 -25 576 0
11 -16 -20 21 -23 -25 576 0
11 -16 -20 -21 23 -25 576 0
11 -16 -20 -21 -23 25 576 0
11 -16 -20 -21 -23 -25 -576 0
-11 16 20 -21 -23 -25 576 0
-11 16 -20 21 -23 -25 576 0
-11 16 -20 -21 23 -25 576 0
-11 16 -20 -21 -23 25 576 0
-11 16 -20 -21 -23 -25 -576 0
-11 -16 20 21 -23 -25 576 0
-11 -16 20 -21 23 -25 576 0
-11 -16 20 -21 -23 25 576 0
-11 -16 20 -21 -23 -25 -576 0
-11 -16 -20 21 23 -25 576 0
-11 -16 -20 21 -23 25 576 0
-11 -16 -20 21 -23 -25 -576 0
-11 -16 -20 -21 23 25 576 0
-11 -16 -20 -21 23 -25 -576 0
-11 -16 -20 -21 -23 25 -576 0
11 16 20 21 -23 -25 576 0
11 16 20 -21 23 -25 576 0
11 16 20 -21 -23 25 576 0
11 16 20 -21 -23 -25 -576 0
11 16 -20 21 23 -25 576 0
11 16 -20 21 -23 25 576 0
11 16 -20 21 -23 -25 -576 0
11 16 -20 -21 23 25 576 0
11 16 -20 -21 23 -25 -576 0
11 16 -20 -21 -23 25 -576 0
11 -16 20 21 23 -25 576 0
11 -16 20 21 -23 25 576 0
11 -16 20 21 -23 -25 -576 0
11 -16 20 -21 23 25 576 0
11 -16 20 -21 23 -25 -576 0
11 -16 20 -21 -23 25 -576 0
11 -16 -20 21 23 25 576 0
11 -16 -20 21 23 -25 -576 0
11 -16 -20 21 -23 25 -576 0
11 -16 -20 -21 23 25 -576 0
-11 16 20 21 23 -25 576 0
-11 16 20 21 -23 25 576 0
-11 16 20 21 -23 -25 -576 0
-11 16 20 -21 23 25 576 0
-11 16 20 -21 23 -25 -576 0
-11 16 20 -21 -23 25 -576 0
-11 16 -20 21 23 25 576 0
-11 16 -20 21 23 -25 -576 0
-11 16 -20 21 -23 25 -576 0
-11 16 -20 -21 23 25 -576 0
-11 -16 20 21 23 25 576 0
-11 -16 20 21 23 -25 -576 0
-11 -16 20 21 -23 25 -576 0
-11 -16 20 -21 23 25 -576 0
-11 -16 -20 21 23 25 -576 0
11 16 20 21 23 25 576 0
11 16 20 21 23 -25 -576 0
11 16 20 21 -23 25 -576 0
11 16 20 -21 23 25 -576 0
11 16 -20 21 23 25 -576 0
11 -16 20 21 23 25 -576 0
-11 16 20 21 23 25 -576 0
576 -26 -28 -30 -35 -36 577 0
-576 26 -28 -30 -35 -36 577 0
-576 -26 28 -30 -35 -36 577 0
-576 -26 -28 30 -35 -36 577 0
-576 -26 -28 -30 35 -36 577 0
-576 -26 -28 -30 -35 36 577 0
-576 -26 -28 -30 -35 -36 -577 0
576 26 28 -30 -35 -36 577 0
576 26 -28 30 -35 -36 577 0
576 26 -28 -30 35 -36 577 0
576 26 -28 -30 -35 36 577 0
576 26 -28 -30 -35 -36 -577 0
576 -26 28 30 -35 -36 577 0
576 -26 28 -30 35 -36 577 0
576 -26 28 -30 -35 36 577 0
576 -26 28 -30 -35 -36 -577 0
576 -26 -28 30 35 -36 577 0
576 -26 -28 30 -35 36 577 0
576 -26 -28 30 -35 -36 -577 0
576 -26 -28 -30 35 36 577 0
576 -26 -28 -30 35 -36 -577 0
576 -26 -28 -30 -35 36 -577 0
-576 26 28 30 -35 -36 577 0
-576 26 28 -30 35 -36 577 0
-576 26 28 -30 -35 36 577 0
-576 26 28 -30 -35 -36 -577 0
-576 26 -28 30 35 -36 577 0
-576 26 -28 30 -35 36 577 0
-576 26 -28 30 -35 -36 -577 0
-576 26 -28 -30 35 36 577 0
-576 26 -28 -30 35 -36 -577 0
-576 26 -28 -30 -35 36 -577 0
-576 -26 28 30 35 -36 577 0
-576 -26 28 30 -35 36 577 0
-576 -26 28 30 -35 -36 -577 0
-576 -26 28 -30 35 36 577 0
-576 -26 28 -30 35 -36 -577 0
-576 -26 28 -30 -35 36 -577 0
-576 -26 -28 30 35 36 577 0
-576 -26 -28 30 35 -36 -577 0
-576 -26 -28 30 -35 36 -577 0
-576 -26 -28 -30 35 36 -577 0
576 26 28 30 35 -36 577 0
576 26 28 30 -35 36 577 0
576 26 28 30 -35 -36 -577 0
576 26 28 -30 35 36 577 0
576 26 28 -30 35 -36 -577 0
576 26 28 -30 -35 36 -577 0
576 26 -28 30 35 36 577 0
576 26 -28 30 35 -36 -577 0
576 26 -28 30 -35 36 -577 0
576 26 -28 -30 35 36 -577 0
576 -26 28 30 35 36 577 0
576 -26 28 30 35 -36 -577 0
576 -26 28 30 -35 36 -577 0
576 -26 28 -30 35 36 -577 0
576 -26 -28 30 35 36 -577 0
-576 26 28 30 35 36 577 0
-576 26 28 30 35 -36 -577 0
-576 26 28 30 -35 36 -577 0
-576 26 28 -30 35 36 -577 0
-576 26 -28 30 35 36 -577 0
-576 -26 28 30 35 36 -577 0
576 26 28 30 35 36 -577 0
577 -38 -40 -46 -50 -52 578 0
-577 38 -40 -46 -50 -52 578 0
-577 -38 40 -46 -50 -52 578 0
-577 -38 -40 46 -50 -52 578 0
-577 -38 -40 -46 50 -52 578 0
-577 -38 -40 -46 -50 52 578 0
-577 -38 -40 -46 -50 -52 -578 0
577 38 40 -46 -50 -52 578 0
577 38 -40 46 -50 -52 578 0
577 38 -40 -46 50 -52 578 0
577 38 -40 -46 -50 52 578 0
577 38 -40 -46 -50 -52 -578 0
577 -38 40 46 -50 -52 578 0
577 -38 40 -46 50 -52 578 0
577 -38 40 -46 -50 52 578 0
577 -38 40 -46 -50 -52 -578 0
577 -38 -40 46 50 -52 578 0
577 -38 -40 46 -50 52 578 0
577 -38 -40 46 -50 -52 -578 0
577 -38 -40 -46 50 52 578 0
577 -38 -40 -46 50 -52 -578 0
577 -38 -40 -46 -50 52 -578 0
-577 38 40 46 -50 -52 578 0
-577 38 40 -46 50 -52 578 0
-577 38 40 -46 -50 52 578 0
-577 38 40 -46 -50 -52 -578 0
-577 38 -40 46 50 -52 578 0
-577 38 -40 46 -50 52 578 0
-577 38 -40 46 -50 -52 -578 0
-577 38 -40 -46 50 52 578 0
-577 38 -40 -46 50 -52 -578 0
-577 38 -40 -46 -50 52 -578 0
-577 -38 40 46 50 -52 578 0
-577 -38 40 46 -50 52 578 0
-577 -38 40 46 -50 -52 -578 0
-577 -38 40 -46 50 52 578 0
-577 -38 40 -46 50 -52 -578 0
-577 -38 40 -46 -50 52 -578 0
-577 -38 -40 46 50 52 578 0
-577 -38 -40 46 50 -52 -578 0
-577 -38 -40 46 -50 52 -578 0
-577 -38 -40 -46 50 52 -578 0
577 38 40 46 50 -52 578 0
577 38 40 46 -50 52 578 0
577 38 40 46 -50 -52 -578 0
577 38 40 -46 50 52 578 0
577 38 40 -46 50 -52 -578 0
577 38 40 -46 -50 52 -578 0
577 38 -40 46 50 52 578 0
577 38 -40 46 50 -52 -578 0
577 38 -40 46 -50 52 -578 0
577 38 -40 -46 50 52 -578 0
577 -38 40 46 50 52 578 0
577 -38 40 46 50 -52 -578 0
577 -38 40 46 -50 52 -578 0
577 -38 40 -46 50 52 -578 0
577 -38 -40 46 50 52 -578 0
-577 38 40 46 50 52 578 0
-577 38 40 46 50 -52 -578 0
-577 38 40 46 -50 52 -578 0
-577 38 40 -46 50 52 -578 0
-577 38 -40 46 50 52 -578 0
-577 -38 40 46 50 52 -578 0
577 38 40 46 50 52 -578 0
-578 -53 -54 -59 0
578 53 -54 -59 0
578 -53 54 -59 0
578 -53 -54 59 0
-578 53 54 -59 0
-578 53 -54 59 0
-578 -53 54 59 0
578 53 54 59 0
-579 22 0
-579 -24 0
579 -22 24 0
-580 20 0
-580 26 0
580 -20 -26 0
-581 20 0
-581 24 0
-581 -26 0
581 -20 -24 26 0
-582 -22 0
-582 24 0
-582 26 0
582 22 -24 -26 0
525 -579 -580 -581 -582 -90 0
-525 579 -580 -581 -582 -90 0
-525 -579 580 -581 -582 -90 0
-525 -579 -580 581 -582 -90 0
-525 -579 -580 -581 582 -90 0
-525 -579 -580 -581 -582 90 0
525 579 580 -581 -582 -90 0
525 579 -580 581 -582 -90 0
525 579 -580 -581 582 -90 0
525 579 -580 -581 -582 90 0
525 -579 580 581 -582 -90 0
525 -579 580 -581 582 -90 0
525 -579 580 -581 -582 90 0
525 -579 -580 581 582 -90 0
525 -579 -580 581 -582 90 0
525 -579 -580 -581 582 90 0
-525 579 580 581 -582 -90 0
-525 579 580 -581 582 -90 0
-525 579 580 -581 -582 90 0
-525 579 -580 581 582 -90 0
-525 579 -580 581 -582 90 0
-525 579 -580 -581 582 90 0
-525 -579 580 581 582 -90 0
-525 -579 580 581 -582 90 0
-525 -579 580 -581 582 90 0
-525 -579 -580 581 582 90 0
525 579 580 581 582 -90 0
525 579 580 581 -582 90 0
525 579 580 -581 582 90 0
525 579 -580 581 582 90 0
525 -579 580 581 582 90 0
-525 579 580 581 582 90 0
349 -283 -350 -351 -352 -121 0
-349 283 -350 -351 -352 -121 0
-349 -283 350 -351 -352 -121 0
-349 -283 -350 351 -352 -121 0
-349 -283 -350 -351 352 -121 0
-349 -283 -350 -351 -352 121 0
349 283 350 -351 -352 -121 0
349 283 -350 351 -352 -121 0
349 283 -350 -351 352 -121 0
349 283 -350 -351 -352 121 0
349 -283 350 351 -352 -121 0
349 -283 350 -351 352 -121 0
349 -283 350 -351 -352 121 0
349 -283 -350 351 352 -121 0
349 -283 -350 351 -352 121 0
349 -283 -350 -351 352 121 0
-349 283 350 351 -352 -121 0
-349 283 350 -351 352 -121 0
-349 283 350 -351 -352 121 0
-349 283 -350 351 352 -121 0
-349 283 -350 351 -352 121 0
-349 283 -350 -351 352 121 0
-349 -283 350 351 352 -121 0
-349 -283 350 351 -352 121 0
-349 -283 350 -351 352 121 0
-349 -283 -350 351 352 121 0
349 283 350 351 352 -121 0
349 283 350 351 -352 121 0
349 283 350 -351 352 121 0
349 283 -350 351 352 121 0
349 -283 350 351 352 121 0
-349 283 350 351 352 121 0
-583 -36 0
-583 40 0
583 36 -40 0
-584 38 0
-584 42 0
584 -38 -42 0
-585 36 0
-585 -40 0
-585 42 0
585 -36 40 -42 0
-586 38 0
-586 40 0
-586 -42 0
586 -38 -40 42 0
583 -532 -584 -585 -586 -152 0
-583 532 -584 -585 -586 -152 0
-583 -532 584 -585 -586 -152 0
-583 -532 -584 585 -586 -152 0
-583 -532 -584 -585 586 -152 0
-583 -532 -584 -585 -586 152 0
583 532 584 -585 -586 -152 0
583 532 -584 585 -586 -152 0
583 532 -584 -585 586 -152 0
583 532 -584 -585 -586 152 0
583 -532 584 585 -586 -152 0
583 -532 584 -585 586 -152 0
583 -532 584 -585 -586 152 0
583 -532 -584 585 586 -152 0
583 -532 -584 585 -586 152 0
583 -532 -584 -585 586 152 0
-583 532 584 585 -586 -152 0
-583 532 584 -585 586 -152 0
-583 532 584 -585 -586 152 0
-583 532 -584 585 586 -152 0
-583 532 -584 585 -586 152 0
-583 532 -584 -585 586 152 0
-583 -532 584 585 586 -152 0
-583 -532 584 585 -586 152 0
-583 -532 584 -585 586 152 0
-583 -532 -584 585 586 152 0
583 532 584 585 586 -152 0
583 532 584 585 -586 152 0
583 532 584 -585 586 152 0
583 532 -584 585 586 152 0
583 -532 584 585 586 152 0
-583 532 584 585 586 152 0
-587 46 0
-587 -48 0
587 -46 48 0
-588 44 0
-588 50 0
588 -44 -50 0
-589 44 0
-589 48 0
-589 -50 0
589 -44 -48 50 0
-590 -46 0
-590 48 0
-590 50 0
590 46 -48 -50 0
533 -587 -588 -589 -590 -183 0
-533 587 -588 -589 -590 -183 0
-533 -587 588 -589 -590 -183 0
-533 -587 -588 589 -590 -183 0
-533 -587 -588 -589 590 -183 0
-533 -587 -588 -589 -590 183 0
533 587 588 -589 -590 -183 0
533 587 -588 589 -590 -183 0
533 587 -588 -589 590 -183 0
533 587 -588 -589 -590 183 0
533 -587 588 589 -590 -183 0
533 -587 588 -589 590 -183 0
533 -587 588 -589 -590 183 0
533 -587 -588 589 590 -183 0
533 -587 -588 589 -590 183 0
533 -587 -588 -589 590 183 0
-533 587 588 589 -590 -183 0
-533 587 588 -589 590 -183 0
-533 587 588 -589 -590 183 0
-533 587 -588 589 590 -183 0
-533 587 -588 589 -590 183 0
-533 587 -588 -589 590 183 0
-533 -587 588 589 590 -183 0
-533 -587 588 589 -590 183 0
-533 -587 588 -589 590 183 0
-533 -587 -588 589 590 183 0
533 587 588 589 590 -183 0
533 587 588 589 -590 183 0
533 587 588 -589 590 183 0
533 587 -588 589 590 183 0
533 -587 588 589 590 183 0
-533 587 588 589 590 183 0
-591 -52 0
-591 56 0
591 52 -56 0
-592 54 0
-592 58 0
592 -54 -58 0
-593 52 0
-593 -56 0
-593 58 0
593 -52 56 -58 0
-594 54 0
-594 56 0
-594 -58 0
594 -54 -56 58 0
591 -540 -592 -593 -594 -214 0
-591 540 -592 -593 -594 -214 0
-591 -540 592 -593 -594 -214 0
-591 -540 -592 593 -594 -214 0
-591 -540 -592 -593 594 -214 0
-591 -540 -592 -593 -594 214 0
591 540 592 -593 -594 -214 0
591 540 -592 593 -594 -214 0
591 540 -592 -593 594 -214 0
591 540 -592 -593 -594 214 0
591 -540 592 593 -594 -214 0
591 -540 592 -593 594 -214 0
591 -540 592 -593 -594 214 0
591 -540 -592 593 594 -214 0
591 -540 -592 593 -594 214 0
591 -540 -592 -593 594 214 0
-591 540 592 593 -594 -214 0
-591 540 592 -593 594 -214 0
-591 540 592 -593 -594 214 0
-591 540 -592 593 594 -214 0
-591 540 -592 593 -594 214 0
-591 540 -592 -593 594 214 0
-591 -540 592 593 594 -214 0
-591 -540 592 593 -594 214 0
-591 -540 592 -593 594 214 0
-591 -540 -592 593 594 214 0
591 540 592 593 594 -214 0
591 540 592 593 -594 214 0
591 540 592 -593 594 214 0
591 540 -592 593 594 214 0
591 -540 592 593 594 214 0
-591 540 592 593 594 214 0
-595 90 0
-595 -152 0
595 -90 152 0
-596 90 0
-596 -121 0
-596 183 0
596 -90 121 -183 0
-597 -90 0
-597 214 0
597 90 -214 0
-598 90 0
-598 121 0
-598 -152 0
-598 214 0
598 -90 -121 152 -214 0
-599 -90 0
-599 183 0
-599 214 0
599 90 -183 -214 0
-600 121 0
-600 183 0
-600 214 0
600 -121 -183 -214 0
-601 121 0
-601 152 0
-601 183 0
-601 -214 0
601 -121 -152 -183 214 0
595 -596 -597 -598 -599 -600 602 0
-595 596 -597 -598 -599 -600 602 0
-595 -596 597 -598 -599 -600 602 0
-595 -596 -597 598 -599 -600 602 0
-595 -596 -597 -598 599 -600 602 0
-595 -596 -597 -598 -599 600 602 0
-595 -596 -597 -598 -599 -600 -602 0
595 596 597 -598 -599 -600 602 0
595 596 -597 598 -599 -600 602 0
595 596 -597 -598 599 -600 602 0
595 596 -597 -598 -599 600 602 0
595 596 -597 -598 -599 -600 -602 0
595 -596 597 598 -599 -600 602 0
595 -596 597 -598 599 -600 602 0
595 -596 597 -598 -599 600 602 0
595 -596 597 -598 -599 -600 -602 0
595 -596 -597 598 599 -600 602 0
595 -596 -597 598 -599 600 602 0
595 -596 -597 598 -599 -600 -602 0
595 -596 -597 -598 599 600 602 0
595 -596 -597 -598 599 -600 -602 0
595 -596 -597 -598 -599 600 -602 0
-595 596 597 598 -599 -600 602 0
-595 596 597 -598 599 -600 602 0
-595 596 597 -598 -599 600 602 0
-595 596 597 -598 -599 -600 -602 0
-595 596 -597 598 599 -600 602 0
-595 596 -597 598 -599 600 602 0
-595 596 -597 598 -599 -600 -602 0
-595 596 -597 -598 599 600 602 0
-595 596 -597 -598 599 -600 -602 0
-595 596 -597 -598 -599 600 -602 0
-595 -596 597 598 599 -600 602 0
-595 -596 597 598 -599 600 602 0
-595 -596 597 598 -599 -600 -602 0
-595 -596 597 -598 599 600 602 0
-595 -596 597 -598 599 -600 -602 0
-595 -596 597 -598 -599 600 -602 0
-595 -596 -597 598 599 600 602 0
-595 -596 -597 598 599 -600 -602 0
-595 -596 -597 598 -599 600 -602 0
-595 -596 -597 -598 599 600 -602 0
595 596 597 598 599 -600 602 0
595 596 597 598 -599 600 602 0
595 596 597 598 -599 -600 -602 0
595 596 597 -598 599 600 602 0
595 596 597 -598 599 -600 -602 0
595 596 597 -598 -599 600 -602 0
595 596 -597 598 599 600 602 0
595 596 -597 598 599 -600 -602 0
595 596 -597 598 -599 600 -602 0
595 596 -597 -598 599 600 -602 0
595 -596 597 598 599 600 602 0
595 -596 597 598 599 -600 -602 0
595 -596 597 598 -599 600 -602 0
595 -596 597 -598 599 600 -602 0
595 -596 -597 598 599 600 -602 0
-595 596 597 598 599 600 602 0
-595 596 597 598 599 -600 -602 0
-595 596 597 598 -599 600 -602 0
-595 596 597 -598 599 600 -602 0
-595 596 -597 598 599 600 -602 0
-595 -596 597 598 599 600 -602 0
595 596 597 598 599 600 -602 0
-602 -601 0
602 601 0
-12 -17 -21 -22 -24 -26 603 0
12 17 -21 -22 -24 -26 603 0
12 -17 21 -22 -24 -26 603 0
12 -17 -21 22 -24 -26 603 0
12 -17 -21 -22 24 -26 603 0
12 -17 -21 -22 -24 26 603 0
12 -17 -21 -22 -24 -26 -603 0
-12 17 21 -22 -24 -26 603 0
-12 17 -21 22 -24 -26 603 0
-12 17 -21 -22 24 -26 603 0
-12 17 -21 -22 -24 26 603 0
-12 17 -21 -22 -24 -26 -603 0
-12 -17 21 22 -24 -26 603 0
-12 -17 21 -22 24 -26 603 0
-12 -17 21 -22 -24 26 603 0
-12 -17 21 -22 -24 -26 -603 0
-12 -17 -21 22 24 -26 603 0
-12 -17 -21 22 -24 26 603 0
-12 -17 -21 22 -24 -26 -603 0
-12 -17 -21 -22 24 26 603 0
-12 -17 -21 -22 24 -26 -603 0
-12 -17 -21 -22 -24 26 -603 0
12 17 21 22 -24 -26 603 0
12 17 21 -22 24 -26 603 0
12 17 21 -22 -24 26 603 0
12 17 21 -22 -24 -26 -603 0
12 17 -21 22 24 -26 603 0
12 17 -21 22 -24 26 603 0
12 17 -21 22 -24 -26 -603 0
12 17 -21 -22 24 26 603 0
12 17 -21 -22 24 -26 -603 0
12 17 -21 -22 -24 26 -603 0
12 -17 21 22 24 -26 603 0
12 -17 21 22 -24 26 603 0
12 -17 21 22 -24 -26 -603 0
12 -17 21 -22 24 26 603 0
12 -17 21 -22 24 -26 -603 0
12 -17 21 -22 -24 26 -603 0
12 -17 -21 22 24 26 603 0
12 -17 -21 22 24 -26 -603 0
12 -17 -21 22 -24 26 -603 0
12 -17 -21 -22 24 26 -603 0
-12 17 21 22 24 -26 603 0
-12 17 21 22 -24 26 603 0
-12 17 21 22 -24 -26 -603 0
-12 17 21 -22 24 26 603 0
-12 17 21 -22 24 -26 -603 0
-12 17 21 -22 -24 26 -603 0
-12 17 -21 22 24 26 603 0
-12 17 -21 22 24 -26 -603 0
-12 17 -21 22 -24 26 -603 0
-12 17 -21 -22 24 26 -603 0
-12 -17 21 22 24 26 603 0
-12 -17 21 22 24 -26 -603 0
-12 -17 21 22 -24 26 -603 0
-12 -17 21 -22 24 26 -603 0
-12 -17 -21 22 24 26 -603 0
12 17 21 22 24 26 603 0
12 17 21 22 24 -26 -603 0
12 17 21 22 -24 26 -603 0
12 17 21 -22 24 26 -603 0
12 17 -21 22 24 26 -603 0
12 -17 21 22 24 26 -603 0
-12 17 21 22 24 26 -603 0
603 -27 -29 -31 -36 -37 604 0
-603 27 -29 -31 -36 -37 604 0
-603 -27 29 -31 -36 -37 604 0
-603 -27 -29 31 -36 -37 604 0
-603 -27 -29 -31 36 -37 604 0
-603 -27 -29 -31 -36 37 604 0
-603 -27 -29 -31 -36 -37 -604 0
603 27 29 -31 -36 -37 604 0
603 27 -29 31 -36 -37 604 0
603 27 -29 -31 36 -37 604 0
603 27 -29 -31 -36 37 604 0
603 27 -29 -31 -36 -37 -604 0
603 -27 29 31 -36 -37 604 0
603 -27 29 -31 36 -37 604 0
603 -27 29 -31 -36 37 604 0
603 -27 29 -31 -36 -37 -604 0
603 -27 -29 31 36 -37 604 0
603 -27 -29 31 -36 37 604 0
603 -27 -29 31 -36 -37 -604 0
603 -27 -29 -31 36 37 604 0
603 -27 -29 -31 36 -37 -604 0
603 -27 -29 -31 -36 37 -604 0
-603 27 29 31 -36 -37 604 0
-603 27 29 -31 36 -37 604 0
-603 27 29 -31 -36 37 604 0
-603 27 29 -31 -36 -37 -604 0
-603 27 -29 31 36 -37 604 0
-603 27 -29 31 -36 37 604 0
-603 27 -29 31 -36 -37 -604 0
-603 27 -29 -31 36 37 604 0
-603 27 -29 -31 36 -37 -604 0
-603 27 -29 -31 -36 37 -604 0
-603 -27 29 31 36 -37 604 0
-603 -27 29 31 -36 37 604 0
-603 -27 29 31 -36 -37 -604 0
-603 -27 29 -31 36 37 604 0
-603 -27 29 -31 36 -37 -604 0
-603 -27 29 -31 -36 37 -604 0
-603 -27 -29 31 36 37 604 0
-603 -27 -29 31 36 -37 -604 0
-603 -27 -29 31 -36 37 -604 0
-603 -27 -29 -31 36 37 -604 0
603 27 29 31 36 -37 604 0
603 27 29 31 -36 37 604 0
603 27 29 31 -36 -37 -604 0
603 27 29 -31 36 37 604 0
603 27 29 -31 36 -37 -604 0
603 27 29 -31 -36 37 -604 0
603 27 -29 31 36 37 604 0
603 27 -29 31 36 -37 -604 0
603 27 -29 31 -36 37 -604 0
603 27 -29 -31 36 37 -604 0
603 -27 29 31 36 37 604 0
603 -27 29 31 36 -37 -604 0
603 -27 29 31 -36 37 -604 0
603 -27 29 -31 36 37 -604 0
603 -27 -29 31 36 37 -604 0
-603 27 29 31 36 37 604 0
-603 27 29 31 36 -37 -604 0
-603 27 29 31 -36 37 -604 0
-603 27 29 -31 36 37 -604 0
-603 27 -29 31 36 37 -604 0
-603 -27 29 31 36 37 -604 0
603 27 29 31 36 37 -604 0
604 -39 -41 -47 -51 -53 605 0
-604 39 -41 -47 -51 -53 605 0
-604 -39 41 -47 -51 -53 605 0
-604 -39 -41 47 -51 -53 605 0
-604 -39 -41 -47 51 -53 605 0
-604 -39 -41 -47 -51 53 605 0
-604 -39 -41 -47 -51 -53 -605 0
604 39 41 -47 -51 -53 605 0
604 39 -41 47 -51 -53 605 0
604 39 -41 -47 51 -53 605 0
604 39 -41 -47 -51 53 605 0
604 39 -41 -47 -51 -53 -605 0
604 -39 41 47 -51 -53 605 0
604 -39 41 -47 51 -53 605 0
604 -39 41 -47 -51 53 605 0
604 -39 41 -47 -51 -53 -605 0
604 -39 -41 47 51 -53 605 0
604 -39 -41 47 -51 53 605 0
604 -39 -41 47 -51 -53 -605 0
604 -39 -41 -47 51 53 605 0
604 -39 -41 -47 51 -53 -605 0
604 -39 -41 -47 -51 53 -605 0
-604 39 41 47 -51 -53 605 0
-604 39 41 -47 51 -53 605 0
-604 39 41 -47 -51 53 605 0
-604 39 41 -47 -51 -53 -605 0
-604 39 -41 47 51 -53 605 0
-604 39 -41 47 -51 53 605 0
-604 39 -41 47 -51 -53 -605 0
-604 39 -41 -47 51 53 605 0
-604 39 -41 -47 51 -53 -605 0
-604 39 -41 -47 -51 53 -605 0
-604 -39 41 47 51 -53 605 0
-604 -39 41 47 -51 53 605 0
-604 -39 41 47 -51 -53 -605 0
-604 -39 41 -47 51 53 605 0
-604 -39 41 -47 51 -53 -605 0
-604 -39 41 -47 -51 53 -605 0
-604 -39 -41 47 51 53 605 0
-604 -39 -41 47 51 -53 -605 0
-604 -39 -41 47 -51 53 -605 0
-604 -39 -41 -47 51 53 -605 0
604 39 41 47 51 -53 605 0
604 39 41 47 -51 53 605 0
604 39 41 47 -51 -53 -605 0
604 39 41 -47 51 53 605 0
604 39 41 -47 51 -53 -605 0
604 39 41 -47 -51 53 -605 0
604 39 -41 47 51 53 605 0
604 39 -41 47 51 -53 -605 0
604 39 -41 47 -51 53 -605 0
604 39 -41 -47 51 53 -605 0
604 -39 41 47 51 53 605 0
604 -39 41 47 51 -53 -605 0
604 -39 41 47 -51 53 -605 0
604 -39 41 -47 51 53 -605 0
604 -39 -41 47 51 53 -605 0
-604 39 41 47 51 53 605 0
-604 39 41 47 51 -53 -605 0
-604 39 41 47 -51 53 -605 0
-604 39 41 -47 51 53 -605 0
-604 39 -41 47 51 53 -605 0
-604 -39 41 47 51 53 -605 0
604 39 41 47 51 53 -605 0
-605 -54 -55 -60 0
605 54 -55 -60 0
605 -54 55 -60 0
605 -54 -55 60 0
-605 54 55 -60 0
-605 54 -55 60 0
-605 -54 55 60 0
605 54 55 60 0
-606 23 0
-606 -25 0
606 -23 25 0
-607 21 0
-607 27 0
607 -21 -27 0
-608 21 0
-608 25 0
-608 -27 0
608 -21 -25 27 0
-609 -23 0
-609 25 0
-609 27 0
609 23 -25 -27 0
552 -606 -607 -608 -609 -91 0
-552 606 -607 -608 -609 -91 0
-552 -606 607 -608 -609 -91 0
-552 -606 -607 608 -609 -91 0
-552 -606 -607 -608 609 -91 0
-552 -606 -607 -608 -609 91 0
552 606 607 -608 -609 -91 0
552 606 -607 608 -609 -91 0
552 606 -607 -608 609 -91 0
552 606 -607 -608 -609 91 0
552 -606 607 608 -609 -91 0
552 -606 607 -608 609 -91 0
552 -606 607 -608 -609 91 0
552 -606 -607 608 609 -91 0
552 -606 -607 608 -609 91 0
552 -606 -607 -608 609 91 0
-552 606 607 608 -609 -91 0
-552 606 607 -608 609 -91 0
-552 606 607 -608 -609 91 0
-552 606 -607 608 609 -91 0
-552 606 -607 608 -609 91 0
-552 606 -607 -608 609 91 0
-552 -606 607 608 609 -91 0
-552 -606 607 608 -609 91 0
-552 -606 607 -608 609 91 0
-552 -606 -607 608 609 91 0
552 606 607 608 609 -91 0
552 606 607 608 -609 91 0
552 606 607 -608 609 91 0
552 606 -607 608 609 91 0
552 -606 607 608 609 91 0
-552 606 607 608 609 91 0
380 -319 -381 -382 -383 -122 0
-380 319 -381 -382 -383 -122 0
-380 -319 381 -382 -383 -122 0
-380 -319 -381 382 -383 -122 0
-380 -319 -381 -382 383 -122 0
-380 -319 -381 -382 -383 122 0
380 319 381 -382 -383 -122 0
380 319 -381 382 -383 -122 0
380 319 -381 -382 383 -122 0
380 319 -381 -382 -383 122 0
380 -319 381 382 -383 -122 0
380 -319 381 -382 383 -122 0
380 -319 381 -382 -383 122 0
380 -319 -381 382 383 -122 0
380 -319 -381 382 -383 122 0
380 -319 -381 -382 383 122 0
-380 319 381 382 -383 -122 0
-380 319 381 -382 383 -122 0
-380 319 381 -382 -383 122 0
-380 319 -381 382 383 -122 0
-380 319 -381 382 -383 122 0
-380 319 -381 -382 383 122 0
-380 -319 381 382 383 -122 0
-380 -319 381 382 -383 122 0
-380 -319 381 -382 383 122 0
-380 -319 -381 382 383 122 0
380 319 381 382 383 -122 0
380 319 381 382 -383 122 0
380 319 381 -382 383 122 0
380 319 -381 382 383 122 0
380 -319 381 382 383 122 0
-380 319 381 382 383 122 0
-610 -37 0
-610 41 0
610 37 -41 0
-611 39 0
-611 43 0
611 -39 -43 0
-612 37 0
-612 -41 0
-612 43 0
612 -37 41 -43 0
-613 39 0
-613 41 0
-613 -43 0
613 -39 -41 43 0
610 -559 -611 -612 -613 -153 0
-610 559 -611 -612 -613 -153 0
-610 -559 611 -612 -613 -153 0
-610 -559 -611 612 -613 -153 0
-610 -559 -611 -612 613 -153 0
-610 -559 -611 -612 -613 153 0
610 559 611 -612 -613 -153 0
610 559 -611 612 -613 -153 0
610 559 -611 -612 613 -153 0
610 559 -611 -612 -613 153 0
610 -559 611 612 -613 -153 0
610 -559 611 -612 613 -153 0
610 -559 611 -612 -613 153 0
610 -559 -611 612 613 -153 0
610 -559 -611 612 -613 153 0
610 -559 -611 -612 613 153 0
-610 559 611 612 -613 -153 0
-610 559 611 -612 613 -153 0
-610 559 611 -612 -613 153 0
-610 559 -611 612 613 -153 0
-610 559 -611 612 -613 153 0
-610 559 -611 -612 613 153 0
-610 -559 611 612 613 -153 0
-610 -559 611 612 -613 153 0
-610 -559 611 -612 613 153 0
-610 -559 -611 612 613 153 0
610 559 611 612 613 -153 0
610 559 611 612 -613 153 0
610 559 611 -612 613 153 0
610 559 -611 612 613 153 0
610 -559 611 612 613 153 0
-610 559 611 612 613 153 0
-614 47 0
-614 -49 0
614 -47 49 0
-615 45 0
-615 51 0
615 -45 -51 0
-616 45 0
-616 49 0
-616 -51 0
616 -45 -49 51 0
-617 -47 0
-617 49 0
-617 51 0
617 47 -49 -51 0
560 -614 -615 -616 -617 -184 0
-560 614 -615 -616 -617 -184 0
-560 -614 615 -616 -617 -184 0
-560 -614 -615 616 -617 -184 0
-560 -614 -615 -616 617 -184 0
-560 -614 -615 -616 -617 184 0
560 614 615 -616 -617 -184 0
560 614 -615 616 -617 -184 0
560 614 -615 -616 617 -184 0
560 614 -615 -616 -617 184 0
560 -614 615 616 -617 -184 0
560 -614 615 -616 617 -184 0
560 -614 615 -616 -617 184 0
560 -614 -615 616 617 -184 0
560 -614 -615 616 -617 184 0
560 -614 -615 -616 617 184 0
-560 614 615 616 -617 -184 0
-560 614 615 -616 617 -184 0
-560 614 615 -616 -617 184 0
-560 614 -615 616 617 -184 0
-560 614 -615 616 -617 184 0
-560 614 -615 -616 617 184 0
-560 -614 615 616 617 -184 0
-560 -614 615 616 -617 184 0
-560 -614 615 -616 617 184 0
-560 -614 -615 616 617 184 0
560 614 615 616 617 -184 0
560 614 615 616 -617 184 0
560 614 615 -616 617 184 0
560 614 -615 616 617 184 0
560 -614 615 616 617 184 0
-560 614 615 616 617 184 0
-618 -53 0
-618 57 0
618 53 -57 0
-619 55 0
-619 59 0
619 -55 -59 0
-620 53 0
-620 -57 0
-620 59 0
620 -53 57 -59 0
-621 55 0
-621 57 0
-621 -59 0
621 -55 -57 59 0
618 -567 -619 -620 -621 -215 0
-618 567 -619 -620 -621 -215 0
-618 -567 619 -620 -621 -215 0
-618 -567 -619 620 -621 -215 0
-618 -567 -619 -620 621 -215 0
-618 -567 -619 -620 -621 215 0
618 567 619 -620 -621 -215 0
618 567 -619 620 -621 -215 0
618 567 -619 -620 621 -215 0
618 567 -619 -620 -621 215 0
618 -567 619 620 -621 -215 0
618 -567 619 -620 621 -215 0
618 -567 619 -620 -621 215 0
618 -567 -619 620 621 -215 0
618 -567 -619 620 -621 215 0
618 -567 -619 -620 621 215 0
-618 567 619 620 -621 -215 0
-618 567 619 -620 621 -215 0
-618 567 619 -620 -621 215 0
-618 567 -619 620 621 -215 0
-618 567 -619 620 -621 215 0
-618 567 -619 -620 621 215 0
-618 -567 619 620 621 -215 0
-618 -567 619 620 -621 215 0
-618 -567 619 -620 621 215 0
-618 -567 -619 620 621 215 0
618 567 619 620 621 -215 0
618 567 619 620 -621 215 0
618 567 619 -620 621 215 0
618 567 -619 620 621 215 0
618 -567 619 620 621 215 0
-618 567 619 620 621 215 0
-622 91 0
-622 -153 0
622 -91 153 0
-623 91 0
-623 -122 0
-623 184 0
623 -91 122 -184 0
-624 -91 0
-624 215 0
624 91 -215 0
-625 91 0
-625 122 0
-625 -153 0
-625 215 0
625 -91 -122 153 -215 0
-626 -91 0
-626 184 0
-626 215 0
626 91 -184 -215 0
-627 122 0
-627 184 0
-627 215 0
627 -122 -184 -215 0
-628 122 0
-628 153 0
-628 184 0
-628 -215 0
628 -122 -153 -184 215 0
622 -623 -624 -625 -626 -627 629 0
-622 623 -624 -625 -626 -627 629 0
-622 -623 624 -625 -626 -627 629 0
-622 -623 -624 625 -626 -627 629 0
-622 -623 -624 -625 626 -627 629 0
-622 -623 -624 -625 -626 627 629 0
-622 -623 -624 -625 -626 -627 -629 0
622 623 624 -625 -626 -627 629 0
622 623 -624 625 -626 -627 629 0
622 623 -624 -625 626 -627 629 0
622 623 -624 -625 -626 627 629 0
622 623 -624 -625 -626 -627 -629 0
622 -623 624 625 -626 -627 629 0
622 -623 624 -625 626 -627 629 0
622 -623 624 -625 -626 627 629 0
622 -623 624 -625 -626 -627 -629 0
622 -623 -624 625 626 -627 629 0
622 -623 -624 625 -626 627 629 0
622 -623 -624 625 -626 -627 -629 0
622 -623 -624 -625 626 627 629 0
622 -623 -624 -625 626 -627 -629 0
622 -623 -624 -625 -626 627 -629 0
-622 623 624 625 -626 -627 629 0
-622 623 624 -625 626 -627 629 0
-622 623 624 -625 -626 627 629 0
-622 623 624 -625 -626 -627 -629 0
-622 623 -624 625 626 -627 629 0
-622 623 -624 625 -626 627 629 0
-622 623 -624 625 -626 -627 -629 0
-622 623 -624 -625 626 627 629 0
-622 623 -624 -625 626 -627 -629 0
-622 623 -624 -625 -626 627 -629 0
-622 -623 624 625 626 -627 629 0
-622 -623 624 625 -626 627 629 0
-622 -623 624 625 -626 -627 -629 0
-622 -623 624 -625 626 627 629 0
-622 -623 624 -625 626 -627 -629 0
-622 -623 624 -625 -626 627 -629 0
-622 -623 -624 625 626 627 629 0
-622 -623 -624 625 626 -627 -629 0
-622 -623 -624 625 -626 627 -629 0
-622 -623 -624 -625 626 627 -629 0
622 623 624 625 626 -627 629 0
622 623 624 625 -626 627 629 0
622 623 624 625 -626 -627 -629 0
622 623 624 -625 626 627 629 0
622 623 624 -625 626 -627 -629 0
622 623 624 -625 -626 627 -629 0
622 623 -624 625 626 627 629 0
622 623 -624 625 626 -627 -629 0
622 623 -624 625 -626 627 -629 0
622 623 -624 -625 626 627 -629 0
622 -623 624 625 626 627 629 0
622 -623 624 625 626 -627 -629 0
622 -623 624 625 -626 627 -629 0
622 -623 624 -625 626 627 -629 0
622 -623 -624 625 626 627 -629 0
-622 623 624 625 626 627 629 0
-622 623 624 625 626 -627 -629 0
-622 623 624 625 -626 627 -629 0
-622 623 624 -625 626 627 -629 0
-622 623 -624 625 626 627 -629 0
-622 -623 624 625 626 627 -629 0
622 623 624 625 626 627 -629 0
-629 -628 0
629 628 0
-13 -18 -22 -23 -25 -27 630 0
13 18 -22 -23 -25 -27 630 0
13 -18 22 -23 -25 -27 630 0
13 -18 -22 23 -25 -27 630 0
13 -18 -22 -23 25 -27 630 0
13 -18 -22 -23 -25 27 630 0
13 -18 -22 -23 -25 -27 -630 0
-13 18 22 -23 -25 -27 630 0
-13 18 -22 23 -25 -27 630 0
-13 18 -22 -23 25 -27 630 0
-13 18 -22 -23 -25 27 630 0
-13 18 -22 -23 -25 -27 -630 0
-13 -18 22 23 -25 -27 630 0
-13 -18 22 -23 25 -27 630 0
-13 -18 22 -23 -25 27 630 0
-13 -18 22 -23 -25 -27 -630 0
-13 -18 -22 23 25 -27 630 0
-13 -18 -22 23 -25 27 630 0
-13 -18 -22 23 -25 -27 -630 0
-13 -18 -22 -23 25 27 630 0
-13 -18 -22 -23 25 -27 -630 0
-13 -18 -22 -23 -25 27 -630 0
13 18 22 23 -25 -27 630 0
13 18 22 -23 25 -27 630 0
13 18 22 -23 -25 27 630 0
13 18 22 -23 -25 -27 -630 0
13 18 -22 23 25 -27 630 0
13 18 -22 23 -25 27 630 0
13 18 -22 23 -25 -27 -630 0
13 18 -22 -23 25 27 630 0
13 18 -22 -23 25 -27 -630 0
13 18 -22 -23 -25 27 -630 0
13 -18 22 23 25 -27 630 0
13 -18 22 23 -25 27 630 0
13 -18 22 23 -25 -27 -630 0
13 -18 22 -23 25 27 630 0
13 -18 22 -23 25 -27 -630 0
13 -18 22 -23 -25 27 -630 0
13 -18 -22 23 25 27 630 0
13 -18 -22 23 25 -27 -630 0
13 -18 -22 23 -25 27 -630 0
13 -18 -22 -23 25 27 -630 0
-13 18 22 23 25 -27 630 0
-13 18 22 23 -25 27 630 0
-13 18 22 23 -25 -27 -630 0
-13 18 22 -23 25 27 630 0
-13 18 22 -23 25 -27 -630 0
-13 18 22 -23 -25 27 -630 0
-13 18 -22 23 25 27 630 0
-13 18 -22 23 25 -27 -630 0
-13 18 -22 23 -25 27 -630 0
-13 18 -22 -23 25 27 -630 0
-13 -18 22 23 25 27 630 0
-13 -18 22 23 25 -27 -630 0
-13 -18 22 23 -25 27 -630 0
-13 -18 22 -23 25 27 -630 0
-13 -18 -22 23 25 27 -630 0
13 18 22 23 25 27 630 0
13 18 22 23 25 -27 -630 0
13 18 22 23 -25 27 -630 0
13 18 22 -23 25 27 -630 0
13 18 -22 23 25 27 -630 0
13 -18 22 23 25 27 -630 0
-13 18 22 23 25 27 -630 0
630 -28 -30 -32 -37 -38 631 0
-630 28 -30 -32 -37 -38 631 0
-630 -28 30 -32 -37 -38 631 0
-630 -28 -30 32 -37 -38 631 0
-630 -28 -30 -32 37 -38 631 0
-630 -28 -30 -32 -37 38 631 0
-630 -28 -30 -32 -37 -38 -631 0
630 28 30 -32 -37 -38 631 0
630 28 -30 32 -37 -38 631 0
630 28 -30 -32 37 -38 631 0
630 28 -30 -32 -37 38 631 0
630 28 -30 -32 -37 -38 -631 0
630 -28 30 32 -37 -38 631 0
630 -28 30 -32 37 -38 631 0
630 -28 30 -32 -37 38 631 0
630 -28 30 -32 -37 -38 -631 0
630 -28 -30 32 37 -38 631 0
630 -28 -30 32 -37 38 631 0
630 -28 -30 32 -37 -38 -631 0
630 -28 -30 -32 37 38 631 0
630 -28 -30 -32 37 -38 -631 0
630 -28 -30 -32 -37 38 -631 0
-630 28 30 32 -37 -38 631 0
-630 28 30 -32 37 -38 631 0
-630 28 30 -32 -37 38 631 0
-630 28 30 -32 -37 -38 -631 0
-630 28 -30 32 37 -38 631 0
-630 28 -30 32 -37 38 631 0
-630 28 -30 32 -37 -38 -631 0
-630 28 -30 -32 37 38 631 0
-630 28 -30 -32 37 -38 -631 0
-630 28 -30 -32 -37 38 -631 0
-630 -28 30 32 37 -38 631 0
-630 -28 30 32 -37 38 631 0
-630 -28 30 32 -37 -38 -631 0
-630 -28 30 -32 37 38 631 0
-630 -28 30 -32 37 -38 -631 0
-630 -28 30 -32 -37 38 -631 0
-630 -28 -30 32 37 38 631 0
-630 -28 -30 32 37 -38 -631 0
-630 -28 -30 32 -37 38 -631 0
-630 -28 -30 -32 37 38 -631 0
630 28 30 32 37 -38 631 0
630 28 30 32 -37 38 631 0
630 28 30 32 -37 -38 -631 0
630 28 30 -32 37 38 631 0
630 28 30 -32 37 -38 -631 0
630 28 30 -32 -37 38 -631 0
630 28 -30 32 37 38 631 0
630 28 -30 32 37 -38 -631 0
630 28 -30 32 -37 38 -631 0
630 28 -30 -32 37 38 -631 0
630 -28 30 32 37 38 631 0
630 -28 30 32 37 -38 -631 0
630 -28 30 32 -37 38 -631 0
630 -28 30 -32 37 38 -631 0
630 -28 -30 32 37 38 -631 0
-630 28 30 32 37 38 631 0
-630 28 30 32 37 -38 -631 0
-630 28 30 32 -37 38 -631 0
-630 28 30 -32 37 38 -631 0
-630 28 -30 32 37 38 -631 0
-630 -28 30 32 37 38 -631 0
630 28 30 32 37 38 -631 0
631 -40 -42 -48 -52 -54 632 0
-631 40 -42 -48 -52 -54 632 0
-631 -40 42 -48 -52 -54 632 0
-631 -40 -42 48 -52 -54 632 0
-631 -40 -42 -48 52 -54 632 0
-631 -40 -42 -48 -52 54 632 0
-631 -40 -42 -48 -52 -54 -632 0
631 40 42 -48 -52 -54 632 0
631 40 -42 48 -52 -54 632 0
631 40 -42 -48 52 -54 632 0
631 40 -42 -48 -52 54 632 0
631 40 -42 -48 -52 -54 -632 0
631 -40 42 48 -52 -54 632 0
631 -40 42 -48 52 -54 632 0
631 -40 42 -48 -52 54 632 0
631 -40 42 -48 -52 -54 -632 0
631 -40 -42 48 52 -54 632 0
631 -40 -42 48 -52 54 632 0
631 -40 -42 48 -52 -54 -632 0
631 -40 -42 -48 52 54 632 0
631 -40 -42 -48 52 -54 -632 0
631 -40 -42 -48 -52 54 -632 0
-631 40 42 48 -52 -54 632 0
-631 40 42 -48 52 -54 632 0
-631 40 42 -48 -52 54 632 0
-631 40 42 -48 -52 -54 -632 0
-631 40 -42 48 52 -54 632 0
-631 40 -42 48 -52 54 632 0
-631 40 -42 48 -52 -54 -632 0
-631 40 -42 -48 52 54 632 0
-631 40 -42 -48 52 -54 -632 0
-631 40 -42 -48 -52 54 -632 0
-631 -40 42 48 52 -54 632 0
-631 -40 42 48 -52 54 632 0
-631 -40 42 48 -52 -54 -632 0
-631 -40 42 -48 52 54 632 0
-631 -40 42 -48 52 -54 -632 0
-631 -40 42 -48 -52 54 -632 0
-631 -40 -42 48 52 54 632 0
-631 -40 -42 48 52 -54 -632 0
-631 -40 -42 48 -52 54 -632 0
-631 -40 -42 -48 52 54 -632 0
631 40 42 48 52 -54 632 0
631 40 42 48 -52 54 632 0
631 40 42 48 -52 -54 -632 0
631 40 42 -48 52 54 632 0
631 40 42 -48 52 -54 -632 0
631 40 42 -48 -52 54 -632 0
631 40 -42 48 52 54 632 0
631 40 -42 48 52 -54 -632 0
631 40 -42 48 -52 54 -632 0
631 40 -42 -48 52 54 -632 0
631 -40 42 48 52 54 632 0
631 -40 42 48 52 -54 -632 0
631 -40 42 48 -52 54 -632 0
631 -40 42 -48 52 54 -632 0
631 -40 -42 48 52 54 -632 0
-631 40 42 48 52 54 632 0
-631 40 42 48 52 -54 -632 0
-631 40 42 48 -52 54 -632 0
-631 40 42 -48 52 54 -632 0
-631 40 -42 48 52 54 -632 0
-631 -40 42 48 52 54 -632 0
631 40 42 48 52 54 -632 0
-632 -55 -56 -61 0
632 55 -56 -61 0
632 -55 56 -61 0
632 -55 -56 61 0
-632 55 56 -61 0
-632 55 -56 61 0
-632 -55 56 61 0
632 55 56 61 0
-633 24 0
-633 -26 0
633 -24 26 0
-634 22 0
-634 28 0
634 -22 -28 0
-635 22 0
-635 26 0
-635 -28 0
635 -22 -26 28 0
-636 -24 0
-636 26 0
-636 28 0
636 24 -26 -28 0
579 -633 -634 -635 -636 -92 0
-579 633 -634 -635 -636 -92 0
-579 -633 634 -635 -636 -92 0
-579 -633 -634 635 -636 -92 0
-579 -633 -634 -635 636 -92 0
-579 -633 -634 -635 -636 92 0
579 633 634 -635 -636 -92 0
579 633 -634 635 -636 -92 0
579 633 -634 -635 636 -92 0
579 633 -634 -635 -636 92 0
579 -633 634 635 -636 -92 0
579 -633 634 -635 636 -92 0
579 -633 634 -635 -636 92 0
579 -633 -634 635 636 -92 0
579 -633 -634 635 -636 92 0
579 -633 -634 -635 636 92 0
-579 633 634 635 -636 -92 0
-579 633 634 -635 636 -92 0
-579 633 634 -635 -636 92 0
-579 633 -634 635 636 -92 0
-579 633 -634 635 -636 92 0
-579 633 -634 -635 636 92 0
-579 -633 634 635 636 -92 0
-579 -633 634 635 -636 92 0
-579 -633 634 -635 636 92 0
-579 -633 -634 635 636 92 0
579 633 634 635 636 -92 0
579 633 634 635 -636 92 0
579 633 634 -635 636 92 0
579 633 -634 635 636 92 0
579 -633 634 635 636 92 0
-579 633 634 635 636 92 0
411 -352 -412 -413 -414 -123 0
-411 352 -412 -413 -414 -123 0
-411 -352 412 -413 -414 -123 0
-411 -352 -412 413 -414 -123 0
-411 -352 -412 -413 414 -123 0
-411 -352 -412 -413 -414 123 0
411 352 412 -413 -414 -123 0
411 352 -412 413 -414 -123 0
411 352 -412 -413 414 -123 0
411 352 -412 -413 -414 123 0
411 -352 412 413 -414 -123 0
411 -352 412 -413 414 -123 0
411 -352 412 -413 -414 123 0
411 -352 -412 413 414 -123 0
411 -352 -412 413 -414 123 0
411 -352 -412 -413 414 123 0
-411 352 412 413 -414 -123 0
-411 352 412 -413 414 -123 0
-411 352 412 -413 -414 123 0
-411 352 -412 413 414 -123 0
-411 352 -412 413 -414 123 0
-411 352 -412 -413 414 123 0
-411 -352 412 413 414 -123 0
-411 -352 412 413 -414 123 0
-411 -352 412 -413 414 123 0
-411 -352 -412 413 414 123 0
411 352 412 413 414 -123 0
411 352 412 413 -414 123 0
411 352 412 -413 414 123 0
411 352 -412 413 414 123 0
411 -352 412 413 414 123 0
-411 352 412 413 414 123 0
-637 -38 0
-637 42 0
637 38 -42 0
-638 40 0
-638 44 0
638 -40 -44 0
-639 38 0
-639 -42 0
-639 44 0
639 -38 42 -44 0
-640 40 0
-640 42 0
-640 -44 0
640 -40 -42 44 0
637 -586 -638 -639 -640 -154 0
-637 586 -638 -639 -640 -154 0
-637 -586 638 -639 -640 -154 0
-637 -586 -638 639 -640 -154 0
-637 -586 -638 -639 640 -154 0
-637 -586 -638 -639 -640 154 0
637 586 638 -639 -640 -154 0
637 586 -638 639 -640 -154 0
637 586 -638 -639 640 -154 0
637 586 -638 -639 -640 154 0
637 -586 638 639 -640 -154 0
637 -586 638 -639 640 -154 0
637 -586 638 -639 -640 154 0
637 -586 -638 639 640 -154 0
637 -586 -638 639 -640 154 0
637 -586 -638 -639 640 154 0
-637 586 638 639 -640 -154 0
-637 586 638 -639 640 -154 0
-637 586 638 -639 -640 154 0
-637 586 -638 639 640 -154 0
-637 586 -638 639 -640 154 0
-637 586 -638 -639 640 154 0
-637 -586 638 639 640 -154 0
-637 -586 638 639 -640 154 0
-637 -586 638 -639 640 154 0
-637 -586 -638 639 640 154 0
637 586 638 639 640 -154 0
637 586 638 639 -640 154 0
637 586 638 -639 640 154 0
637 586 -638 639 640 154 0
637 -586 638 639 640 154 0
-637 586 638 639 640 154 0
-641 48 0
-641 -50 0
641 -48 50 0
-642 46 0
-642 52 0
642 -46 -52 0
-643 46 0
-643 50 0
-643 -52 0
643 -46 -50 52 0
-644 -48 0
-644 50 0
-644 52 0
644 48 -50 -52 0
587 -641 -642 -643 -644 -185 0
-587 641 -642 -643 -644 -185 0
-587 -641 642 -643 -644 -185 0
-587 -641 -642 643 -644 -185 0
-587 -641 -642 -643 644 -185 0
-587 -641 -642 -643 -644 185 0
587 641 642 -643 -644 -185 0
587 641 -642 643 -644 -185 0
587 641 -642 -643 644 -185 0
587 641 -642 -643 -644 185 0
587 -641 642 643 -644 -185 0
587 -641 642 -643 644 -185 0
587 -641 642 -643 -644 185 0
587 -641 -642 643 644 -185 0
587 -641 -642 643 -644 185 0
587 -641 -642 -643 644 185 0
-587 641 642 643 -644 -185 0
-587 641 642 -643 644 -185 0
-587 641 642 -643 -644 185 0
-587 641 -642 643 644 -185 0
-587 641 -642 643 -644 185 0
-587 641 -642 -643 644 185 0
-587 -641 642 643 644 -185 0
-587 -641 642 643 -644 185 0
-587 -641 642 -643 644 185 0
-587 -641 -642 643 644 185 0
587 641 642 643 644 -185 0
587 641 642 643 -644 185 0
587 641 642 -643 644 185 0
587 641 -642 643 644 185 0
587 -641 642 643 644 185 0
-587 641 642 643 644 185 0
-645 -54 0
-645 58 0
645 54 -58 0
-646 56 0
-646 60 0
646 -56 -60 0
-647 54 0
-647 -58 0
-647 60 0
647 -54 58 -60 0
-648 56 0
-648 58 0
-648 -60 0
648 -56 -58 60 0
645 -594 -646 -647 -648 -216 0
-645 594 -646 -647 -648 -216 0
-645 -594 646 -647 -648 -216 0
-645 -594 -646 647 -648 -216 0
-645 -594 -646 -647 648 -216 0
-645 -594 -646 -647 -648 216 0
645 594 646 -647 -648 -216 0
645 594 -646 647 -648 -216 0
645 594 -646 -647 648 -216 0
645 594 -646 -647 -648 216 0
645 -594 646 647 -648 -216 0
645 -594 646 -647 648 -216 0
645 -594 646 -647 -648 216 0
645 -594 -646 647 648 -216 0
645 -594 -646 647 -648 216 0
645 -594 -646 -647 648 216 0
-645 594 646 647 -648 -216 0
-645 594 646 -647 648 -216 0
-645 594 646 -647 -648 216 0
-645 594 -646 647 648 -216 0
-645 594 -646 647 -648 216 0
-645 594 -646 -647 648 216 0
-645 -594 646 647 648 -216 0
-645 -594 646 647 -648 216 0
-645 -594 646 -647 648 216 0
-645 -594 -646 647 648 216 0
645 594 646 647 648 -216 0
645 594 646 647 -648 216 0
645 594 646 -647 648 216 0
645 594 -646 647 648 216 0
645 -594 646 647 648 216 0
-645 594 646 647 648 216 0
-649 92 0
-649 -154 0
649 -92 154 0
-650 92 0
-650 -123 0
-650 185 0
650 -92 123 -185 0
-651 -92 0
-651 216 0
651 92 -216 0
-652 92 0
-652 123 0
-652 -154 0
-652 216 0
652 -92 -123 154 -216 0
-653 -92 0
-653 185 0
-653 216 0
653 92 -185 -216 0
-654 123 0
-654 185 0
-654 216 0
654 -123 -185 -216 0
-655 123 0
-655 154 0
-655 185 0
-655 -216 0
655 -123 -154 -185 216 0
-649 -650 -651 -652 -653 -654 656 0
649 650 -651 -652 -653 -654 656 0
649 -650 651 -652 -653 -654 656 0
649 -650 -651 652 -653 -654 656 0
649 -650 -651 -652 653 -654 656 0
649 -650 -651 -652 -653 654 656 0
649 -650 -651 -652 -653 -654 -656 0
-649 650 651 -652 -653 -654 656 0
-649 650 -651 652 -653 -654 656 0
-649 650 -651 -652 653 -654 656 0
-649 650 -651 -652 -653 654 656 0
-649 650 -651 -652 -653 -654 -656 0
-649 -650 651 652 -653 -654 656 0
-649 -650 651 -652 653 -654 656 0
-649 -650 651 -652 -653 654 656 0
-649 -650 651 -652 -653 -654 -656 0
-649 -650 -651 652 653 -654 656 0
-649 -650 -651 652 -653 654 656 0
-649 -650 -651 652 -653 -654 -656 0
-649 -650 -651 -652 653 654 656 0
-649 -650 -651 -652 653 -654 -656 0
-649 -650 -651 -652 -653 654 -656 0
649 650 651 652 -653 -654 656 0
649 650 651 -652 653 -654 656 0
649 650 651 -652 -653 654 656 0
649 650 651 -652 -653 -654 -656 0
649 650 -651 652 653 -654 656 0
649 650 -651 652 -653 654 656 0
649 650 -651 652 -653 -654 -656 0
649 650 -651 -652 653 654 656 0
649 650 -651 -652 653 -654 -656 0
649 650 -651 -652 -653 654 -656 0
649 -650 651 652 653 -654 656 0
649 -650 651 652 -653 654 656 0
649 -650 651 652 -653 -654 -656 0
649 -650 651 -652 653 654 656 0
649 -650 651 -652 653 -654 -656 0
649 -650 651 -652 -653 654 -656 0
649 -650 -651 652 653 654 656 0
649 -650 -651 652 653 -654 -656 0
649 -650 -651 652 -653 654 -656 0
649 -650 -651 -652 653 654 -656 0
-649 650 651 652 653 -654 656 0
-649 650 651 652 -653 654 656 0
-649 650 651 652 -653 -654 -656 0
-649 650 651 -652 653 654 656 0
-649 650 651 -652 653 -654 -656 0
-649 650 651 -652 -653 654 -656 0
-649 650 -651 652 653 654 656 0
-649 650 -651 652 653 -654 -656 0
-649 650 -651 652 -653 654 -656 0
-649 650 -651 -652 653 654 -656 0
-649 -650 651 652 653 654 656 0
-649 -650 651 652 653 -654 -656 0
-649 -650 651 652 -653 654 -656 0
-649 -650 651 -652 653 654 -656 0
-649 -650 -651 652 653 654 -656 0
649 650 651 652 653 654 656 0
649 650 651 652 653 -654 -656 0
649 650 651 652 -653 654 -656 0
649 650 651 -652 653 654 -656 0
649 650 -651 652 653 654 -656 0
649 -650 651 652 653 654 -656 0
-649 650 651 652 653 654 -656 0
-656 -655 0
656 655 0
-14 -19 -23 -24 -26 -28 657 0
14 19 -23 -24 -26 -28 657 0
14 -19 23 -24 -26 -28 657 0
14 -19 -23 24 -26 -28 657 0
14 -19 -23 -24 26 -28 657 0
14 -19 -23 -24 -26 28 657 0
14 -19 -23 -24 -26 -28 -657 0
-14 19 23 -24 -26 -28 657 0
-14 19 -23 24 -26 -28 657 0
-14 19 -23 -24 26 -28 657 0
-14 19 -23 -24 -26 28 657 0
-14 19 -23 -24 -26 -28 -657 0
-14 -19 23 24 -26 -28 657 0
-14 -19 23 -24 26 -28 657 0
-14 -19 23 -24 -26 28 657 0
-14 -19 23 -24 -26 -28 -657 0
-14 -19 -23 24 26 -28 657 0
-14 -19 -23 24 -26 28 657 0
-14 -19 -23 24 -26 -28 -657 0
-14 -19 -23 -24 26 28 657 0
-14 -19 -23 -24 26 -28 -657 0
-14 -19 -23 -24 -26 28 -657 0
14 19 23 24 -26 -28 657 0
14 19 23 -24 26 -28 657 0
14 19 23 -24 -26 28 657 0
14 19 23 -24 -26 -28 -657 0
14 19 -23 24 26 -28 657 0
14 19 -23 24 -26 28 657 0
14 19 -23 24 -26 -28 -657 0
14 19 -23 -24 26 28 657 0
14 19 -23 -24 26 -28 -657 0
14 19 -23 -24 -26 28 -657 0
14 -19 23 24 26 -28 657 0
14 -19 23 24 -26 28 657 0
14 -19 23 24 -26 -28 -657 0
14 -19 23 -24 26 28 657 0
14 -19 23 -24 26 -28 -657 0
14 -19 23 -24 -26 28 -657 0
14 -19 -23 24 26 28 657 0
14 -19 -23 24 26 -28 -657 0
14 -19 -23 24 -26 28 -657 0
14 -19 -23 -24 26 28 -657 0
-14 19 23 24 26 -28 657 0
-14 19 23 24 -26 28 657 0
-14 19 23 24 -26 -28 -657 0
-14 19 23 -24 26 28 657 0
-14 19 23 -24 26 -28 -657 0
-14 19 23 -24 -26 28 -657 0
-14 19 -23 24 26 28 657 0
-14 19 -23 24 26 -28 -657 0
-14 19 -23 24 -26 28 -657 0
-14 19 -23 -24 26 28 -657 0
-14 -19 23 24 26 28 657 0
-14 -19 23 24 26 -28 -657 0
-14 -19 23 24 -26 28 -657 0
-14 -19 23 -24 26 28 -657 0
-14 -19 -23 24 26 28 -657 0
14 19 23 24 26 28 657 0
14 19 23 24 26 -28 -657 0
14 19 23 24 -26 28 -657 0
14 19 23 -24 26 28 -657 0
14 19 -23 24 26 28 -657 0
14 -19 23 24 26 28 -657 0
-14 19 23 24 26 28 -657 0
657 -29 -31 -33 -38 -39 658 0
-657 29 -31 -33 -38 -39 658 0
-657 -29 31 -33 -38 -39 658 0
-657 -29 -31 33 -38 -39 658 0
-657 -29 -31 -33 38 -39 658 0
-657 -29 -31 -33 -38 39 658 0
-657 -29 -31 -33 -38 -39 -658 0
657 29 31 -33 -38 -39 658 0
657 29 -31 33 -38 -39 658 0
657 29 -31 -33 38 -39 658 0
657 29 -31 -33 -38 39 658 0
657 29 -31 -33 -38 -39 -658 0
657 -29 31 33 -38 -39 658 0
657 -29 31 -33 38 -39 658 0
657 -29 31 -33 -38 39 658 0
657 -29 31 -33 -38 -39 -658 0
657 -29 -31 33 38 -39 658 0
657 -29 -31 33 -38 39 658 0
657 -29 -31 33 -38 -39 -658 0
657 -29 -31 -33 38 39 658 0
657 -29 -31 -33 38 -39 -658 0
657 -29 -31 -33 -38 39 -658 0
-657 29 31 33 -38 -39 658 0
-657 29 31 -33 38 -39 658 0
-657 29 31 -33 -38 39 658 0
-657 29 31 -33 -38 -39 -658 0
-657 29 -31 33 38 -39 658 0
-657 29 -31 33 -38 39 658 0
-657 29 -31 33 -38 -39 -658 0
-657 29 -31 -33 38 39 658 0
-657 29 -31 -33 38 -39 -658 0
-657 29 -31 -33 -38 39 -658 0
-657 -29 31 33 38 -39 658 0
-657 -29 31 33 -38 39 658 0
-657 -29 31 33 -38 -39 -658 0
-657 -29 31 -33 38 39 658 0
-657 -29 31 -33 38 -39 -658 0
-657 -29 31 -33 -38 39 -658 0
-657 -29 -31 33 38 39 658 0
-657 -29 -31 33 38 -39 -658 0
-657 -29 -31 33 -38 39 -658 0
-657 -29 -31 -33 38 39 -658 0
657 29 31 33 38 -39 658 0
657 29 31 33 -38 39 658 0
657 29 31 33 -38 -39 -658 0
657 29 31 -33 38 39 658 0
657 29 31 -33 38 -39 -658 0
657 29 31 -33 -38 39 -658 0
657 29 -31 33 38 39 658 0
657 29 -31 33 38 -39 -658 0
657 29 -31 33 -38 39 -658 0
657 29 -31 -33 38 39 -658 0
657 -29 31 33 38 39 658 0
657 -29 31 33 38 -39 -658 0
657 -29 31 33 -38 39 -658 0
657 -29 31 -33 38 39 -658 0
657 -29 -31 33 38 39 -658 0
-657 29 31 33 38 39 658 0
-657 29 31 33 38 -39 -658 0
-657 29 31 33 -38 39 -658 0
-657 29 31 -33 38 39 -658 0
-657 29 -31 33 38 39 -658 0
-657 -29 31 33 38 39 -658 0
657 29 31 33 38 39 -658 0
658 -41 -43 -49 -53 -55 659 0
-658 41 -43 -49 -53 -55 659 0
-658 -41 43 -49 -53 -55 659 0
-658 -41 -43 49 -53 -55 659 0
-658 -41 -43 -49 53 -55 659 0
-658 -41 -43 -49 -53 55 659 0
-658 -41 -43 -49 -53 -55 -659 0
658 41 43 -49 -53 -55 659 0
658 41 -43 49 -53 -55 659 0
658 41 -43 -49 53 -55 659 0
658 41 -43 -49 -53 55 659 0
658 41 -43 -49 -53 -55 -659 0
658 -41 43 49 -53 -55 659 0
658 -41 43 -49 53 -55 659 0
658 -41 43 -49 -53 55 659 0
658 -41 43 -49 -53 -55 -659 0
658 -41 -43 49 53 -55 659 0
658 -41 -43 49 -53 55 659 0
658 -41 -43 49 -53 -55 -659 0
658 -41 -43 -49 53 55 659 0
658 -41 -43 -49 53 -55 -659 0
658 -41 -43 -49 -53 55 -659 0
-658 41 43 49 -53 -55 659 0
-658 41 43 -49 53 -55 659 0
-658 41 43 -49 -53 55 659 0
-658 41 43 -49 -53 -55 -659 0
-658 41 -43 49 53 -55 659 0
-658 41 -43 49 -53 55 659 0
-658 41 -43 49 -53 -55 -659 0
-658 41 -43 -49 53 55 659 0
-658 41 -43 -49 53 -55 -659 0
-658 41 -43 -49 -53 55 -659 0
-658 -41 43 49 53 -55 659 0
-658 -41 43 49 -53 55 659 0
-658 -41 43 49 -53 -55 -659 0
-658 -41 43 -49 53 55 659 0
-658 -41 43 -49 53 -55 -659 0
-658 -41 43 -49 -53 55 -659 0
-658 -41 -43 49 53 55 659 0
-658 -41 -43 49 53 -55 -659 0
-658 -41 -43 49 -53 55 -659 0
-658 -41 -43 -49 53 55 -659 0
658 41 43 49 53 -55 659 0
658 41 43 49 -53 55 659 0
658 41 43 49 -53 -55 -659 0
658 41 43 -49 53 55 659 0
658 41 43 -49 53 -55 -659 0
658 41 43 -49 -53 55 -659 0
658 41 -43 49 53 55 659 0
658 41 -43 49 53 -55 -659 0
658 41 -43 49 -53 55 -659 0
658 41 -43 -49 53 55 -659 0
658 -41 43 49 53 55 659 0
658 -41 43 49 53 -55 -659 0
658 -41 43 49 -53 55 -659 0
658 -41 43 -49 53 55 -659 0
658 -41 -43 49 53 55 -659 0
-658 41 43 49 53 55 659 0
-658 41 43 49 53 -55 -659 0
-658 41 43 49 -53 55 -659 0
-658 41 43 -49 53 55 -659 0
-658 41 -43 49 53 55 -659 0
-658 -41 43 49 53 55 -659 0
658 41 43 49 53 55 -659 0
-659 -56 -57 -62 0
659 56 -57 -62 0
659 -56 57 -62 0
659 -56 -57 62 0
-659 56 57 -62 0
-659 56 -57 62 0
-659 -56 57 62 0
659 56 57 62 0
-660 25 0
-660 -27 0
660 -25 27 0
-661 23 0
-661 29 0
661 -23 -29 0
-662 23 0
-662 27 0
-662 -29 0
662 -23 -27 29 0
-663 -25 0
-663 27 0
-663 29 0
663 25 -27 -29 0
606 -660 -661 -662 -663 -93 0
-606 660 -661 -662 -663 -93 0
-606 -660 661 -662 -663 -93 0
-606 -660 -661 662 -663 -93 0
-606 -660 -661 -662 663 -93 0
-606 -660 -661 -662 -663 93 0
606 660 661 -662 -663 -93 0
606 660 -661 662 -663 -93 0
606 660 -661 -662 663 -93 0
606 660 -661 -662 -663 93 0
606 -660 661 662 -663 -93 0
606 -660 661 -662 663 -93 0
606 -660 661 -662 -663 93 0
606 -660 -661 662 663 -93 0
606 -660 -661 662 -663 93 0
606 -660 -661 -662 663 93 0
-606 660 661 662 -663 -93 0
-606 660 661 -662 663 -93 0
-606 660 661 -662 -663 93 0
-606 660 -661 662 663 -93 0
-606 660 -661 662 -663 93 0
-606 660 -661 -662 663 93 0
-606 -660 661 662 663 -93 0
-606 -660 661 662 -663 93 0
-606 -660 661 -662 663 93 0
-606 -660 -661 662 663 93 0
606 660 661 662 663 -93 0
606 660 661 662 -663 93 0
606 660 661 -662 663 93 0
606 660 -661 662 663 93 0
606 -660 661 662 663 93 0
-606 660 661 662 663 93 0
442 -383 -443 -444 -445 -124 0
-442 383 -443 -444 -445 -124 0
-442 -383 443 -444 -445 -124 0
-442 -383 -443 444 -445 -124 0
-442 -383 -443 -444 445 -124 0
-442 -383 -443 -444 -445 124 0
442 383 443 -444 -445 -124 0
442 383 -443 444 -445 -124 0
442 383 -443 -444 445 -124 0
442 383 -443 -444 -445 124 0
442 -383 443 444 -445 -124 0
442 -383 443 -444 445 -124 0
442 -383 443 -444 -445 124 0
442 -383 -443 444 445 -124 0
442 -383 -443 444 -445 124 0
442 -383 -443 -444 445 124 0
-442 383 443 444 -445 -124 0
-442 383 443 -444 445 -124 0
-442 383 443 -444 -445 124 0
-442 383 -443 444 445 -124 0
-442 383 -443 444 -445 124 0
-442 383 -443 -444 445 124 0
-442 -383 443 444 445 -124 0
-442 -383 443 444 -445 124 0
-442 -383 443 -444 445 124 0
-442 -383 -443 444 445 124 0
442 383 443 444 445 -124 0
442 383 443 444 -445 124 0
442 383 443 -444 445 124 0
442 383 -443 444 445 124 0
442 -383 443 444 445 124 0
-442 383 443 444 445 124 0
-664 -39 0
-664 43 0
664 39 -43 0
-665 41 0
-665 45 0
665 -41 -45 0
-666 39 0
-666 -43 0
-666 45 0
666 -39 43 -45 0
-667 41 0
-667 43 0
-667 -45 0
667 -41 -43 45 0
664 -613 -665 -666 -667 -155 0
-664 613 -665 -666 -667 -155 0
-664 -613 665 -666 -667 -155 0
-664 -613 -665 666 -667 -155 0
-664 -613 -665 -666 667 -155 0
-664 -613 -665 -666 -667 155 0
664 613 665 -666 -667 -155 0
664 613 -665 666 -667 -155 0
664 613 -665 -666 667 -155 0
664 613 -665 -666 -667 155 0
664 -613 665 666 -667 -155 0
664 -613 665 -666 667 -155 0
664 -613 665 -666 -667 155 0
664 -613 -665 666 667 -155 0
664 -613 -665 666 -667 155 0
664 -613 -665 -666 667 155 0
-664 613 665 666 -667 -155 0
-664 613 665 -666 667 -155 0
-664 613 665 -666 -667 155 0
-664 613 -665 666 667 -155 0
-664 613 -665 666 -667 155 0
-664 613 -665 -666 667 155 0
-664 -613 665 666 667 -155 0
-664 -613 665 666 -667 155 0
-664 -613 665 -666 667 155 0
-664 -613 -665 666 667 155 0
664 613 665 666 667 -155 0
664 613 665 666 -667 155 0
664 613 665 -666 667 155 0
664 613 -665 666 667 155 0
664 -613 665 666 667 155 0
-664 613 665 666 667 155 0
-668 49 0
-668 -51 0
668 -49 51 0
-669 47 0
-669 53 0
669 -47 -53 0
-670 47 0
-670 51 0
-670 -53 0
670 -47 -51 53 0
-671 -49 0
-671 51 0
-671 53 0
671 49 -51 -53 0
614 -668 -669 -670 -671 -186 0
-614 668 -669 -670 -671 -186 0
-614 -668 669 -670 -671 -186 0
-614 -668 -669 670 -671 -186 0
-614 -668 -669 -670 671 -186 0
-614 -668 -669 -670 -671 186 0
614 668 669 -670 -671 -186 0
614 668 -669 670 -671 -186 0
614 668 -669 -670 671 -186 0
614 668 -669 -670 -671 186 0
614 -668 669 670 -671 -186 0
614 -668 669 -670 671 -186 0
614 -668 669 -670 -671 186 0
614 -668 -669 670 671 -186 0
614 -668 -669 670 -671 186 0
614 -668 -669 -670 671 186 0
-614 668 669 670 -671 -186 0
-614 668 669 -670 671 -186 0
-614 668 669 -670 -671 186 0
-614 668 -669 670 671 -186 0
-614 668 -669 670 -671 186 0
-614 668 -669 -670 671 186 0
-614 -668 669 670 671 -186 0
-614 -668 669 670 -671 186 0
-614 -668 669 -670 671 186 0
-614 -668 -669 670 671 186 0
614 668 669 670 671 -186 0
614 668 669 670 -671 186 0
614 668 669 -670 671 186 0
614 668 -669 670 671 186 0
614 -668 669 670 671 186 0
-614 668 669 670 671 186 0
-672 -55 0
-672 59 0
672 55 -59 0
-673 57 0
-673 61 0
673 -57 -61 0
-674 55 0
-674 -59 0
-674 61 0
674 -55 59 -61 0
-675 57 0
-675 59 0
-675 -61 0
675 -57 -59 61 0
672 -621 -673 -674 -675 -217 0
-672 621 -673 -674 -675 -217 0
-672 -621 673 -674 -675 -217 0
-672 -621 -673 674 -675 -217 0
-672 -621 -673 -674 675 -217 0
-672 -621 -673 -674 -675 217 0
672 621 673 -674 -675 -217 0
672 621 -673 674 -675 -217 0
672 621 -673 -674 675 -217 0
672 621 -673 -674 -675 217 0
672 -621 673 674 -675 -217 0
672 -621 673 -674 675 -217 0
672 -621 673 -674 -675 217 0
672 -621 -673 674 675 -217 0
672 -621 -673 674 -675 217 0
672 -621 -673 -674 675 217 0
-672 621 673 674 -675 -217 0
-672 621 673 -674 675 -217 0
-672 621 673 -674 -675 217 0
-672 621 -673 674 675 -217 0
-672 621 -673 674 -675 217 0
-672 621 -673 -674 675 217 0
-672 -621 673 674 675 -217 0
-672 -621 673 674 -675 217 0
-672 -621 673 -674 675 217 0
-672 -621 -673 674 675 217 0
672 621 673 674 675 -217 0
672 621 673 674 -675 217 0
672 621 673 -674 675 217 0
672 621 -673 674 675 217 0
672 -621 673 674 675 217 0
-672 621 673 674 675 217 0
-676 93 0
-676 -155 0
676 -93 155 0
-677 93 0
-677 -124 0
-677 186 0
677 -93 124 -186 0
-678 -93 0
-678 217 0
678 93 -217 0
-679 93 0
-679 124 0
-679 -155 0
-679 217 0
679 -93 -124 155 -217 0
-680 -93 0
-680 186 0
-680 217 0
680 93 -186 -217 0
-681 124 0
-681 186 0
-681 217 0
681 -124 -186 -217 0
-682 124 0
-682 155 0
-682 186 0
-682 -217 0
682 -124 -155 -186 217 0
676 -677 -678 -679 -680 -681 683 0
-676 677 -678 -679 -680 -681 683 0
-676 -677 678 -679 -680 -681 683 0
-676 -677 -678 679 -680 -681 683 0
-676 -677 -678 -679 680 -681 683 0
-676 -677 -678 -679 -680 681 683 0
-676 -677 -678 -679 -680 -681 -683 0
676 677 678 -679 -680 -681 683 0
676 677 -678 679 -680 -681 683 0
676 677 -678 -679 680 -681 683 0
676 677 -678 -679 -680 681 683 0
676 677 -678 -679 -680 -681 -683 0
676 -677 678 679 -680 -681 683 0
676 -677 678 -679 680 -681 683 0
676 -677 678 -679 -680 681 683 0
676 -677 678 -679 -680 -681 -683 0
676 -677 -678 679 680 -681 683 0
676 -677 -678 679 -680 681 683 0
676 -677 -678 679 -680 -681 -683 0
676 -677 -678 -679 680 681 683 0
676 -677 -678 -679 680 -681 -683 0
676 -677 -678 -679 -680 681 -683 0
-676 677 678 679 -680 -681 683 0
-676 677 678 -679 680 -681 683 0
-676 677 678 -679 -680 681 683 0
-676 677 678 -679 -680 -681 -683 0
-676 677 -678 679 680 -681 683 0
-676 677 -678 679 -680 681 683 0
-676 677 -678 679 -680 -681 -683 0
-676 677 -678 -679 680 681 683 0
-676 677 -678 -679 680 -681 -683 0
-676 677 -678 -679 -680 681 -683 0
-676 -677 678 679 680 -681 683 0
-676 -677 678 679 -680 681 683 0
-676 -677 678 679 -680 -681 -683 0
-676 -677 678 -679 680 681 683 0
-676 -677 678 -679 680 -681 -683 0
-676 -677 678 -679 -680 681 -683 0
-676 -677 -678 679 680 681 683 0
-676 -677 -678 679 680 -681 -683 0
-676 -677 -678 679 -680 681 -683 0
-676 -677 -678 -679 680 681 -683 0
676 677 678 679 680 -681 683 0
676 677 678 679 -680 681 683 0
676 677 678 679 -680 -681 -683 0
676 677 678 -679 680 681 683 0
676 677 678 -679 680 -681 -683 0
676 677 678 -679 -680 681 -683 0
676 677 -678 679 680 681 683 0
676 677 -678 679 680 -681 -683 0
676 677 -678 679 -680 681 -683 0
676 677 -678 -679 680 681 -683 0
676 -677 678 679 680 681 683 0
676 -677 678 679 680 -681 -683 0
676 -677 678 679 -680 681 -683 0
676 -677 678 -679 680 681 -683 0
676 -677 -678 679 680 681 -683 0
-676 677 678 679 680 681 683 0
-676 677 678 679 680 -681 -683 0
-676 677 678 679 -680 681 -683 0
-676 677 678 -679 680 681 -683 0
-676 677 -678 679 680 681 -683 0
-676 -677 678 679 680 681 -683 0
676 677 678 679 680 681 -683 0
-683 -682 0
683 682 0
-15 -20 -24 -25 -27 -29 684 0
15 20 -24 -25 -27 -29 684 0
15 -20 24 -25 -27 -29 684 0
15 -20 -24 25 -27 -29 684 0
15 -20 -24 -25 27 -29 684 0
15 -20 -24 -25 -27 29 684 0
15 -20 -24 -25 -27 -29 -684 0
-15 20 24 -25 -27 -29 684 0
-15 20 -24 25 -27 -29 684 0
-15 20 -24 -25 27 -29 684 0
-15 20 -24 -25 -27 29 684 0
-15 20 -24 -25 -27 -29 -684 0
-15 -20 24 25 -27 -29 684 0
-15 -20 24 -25 27 -29 684 0
-15 -20 24 -25 -27 29 684 0
-15 -20 24 -25 -27 -29 -684 0
-15 -20 -24 25 27 -29 684 0
-15 -20 -24 25 -27 29 684 0
-15 -20 -24 25 -27 -29 -684 0
-15 -20 -24 -25 27 29 684 0
-15 -20 -24 -25 27 -29 -684 0
-15 -20 -24 -25 -27 29 -684 0
15 20 24 25 -27 -29 684 0
15 20 24 -25 27 -29 684 0
15 20 24 -25 -27 29 684 0
15 20 24 -25 -27 -29 -684 0
15 20 -24 25 27 -29 684 0
15 20 -24 25 -27 29 684 0
15 20 -24 25 -27 -29 -684 0
15 20 -24 -25 27 29 684 0
15 20 -24 -25 27 -29 -684 0
15 20 -24 -25 -27 29 -684 0
15 -20 24 25 27 -29 684 0
15 -20 24 25 -27 29 684 0
15 -20 24 25 -27 -29 -684 0
15 -20 24 -25 27 29 684 0
15 -20 24 -25 27 -29 -684 0
15 -20 24 -25 -27 29 -684 0
15 -20 -24 25 27 29 684 0
15 -20 -24 25 27 -29 -684 0
15 -20 -24 25 -27 29 -684 0
15 -20 -24 -25 27 29 -684 0
-15 20 24 25 27 -29 684 0
-15 20 24 25 -27 29 684 0
-15 20 24 25 -27 -29 -684 0
-15 20 24 -25 27 29 684 0
-15 20 24 -25 27 -29 -684 0
-15 20 24 -25 -27 29 -684 0
-15 20 -24 25 27 29 684 0
-15 20 -24 25 27 -29 -684 0
-15 20 -24 25 -27 29 -684 0
-15 20 -24 -25 27 29 -684 0
-15 -20 24 25 27 29 684 0
-15 -20 24 25 27 -29 -684 0
-15 -20 24 25 -27 29 -684 0
-15 -20 24 -25 27 29 -684 0
-15 -20 -24 25 27 29 -684 0
15 20 24 25 27 29 684 0
15 20 24 25 27 -29 -684 0
15 20 24 25 -27 29 -684 0
15 20 24 -25 27 29 -684 0
15 20 -24 25 27 29 -684 0
15 -20 24 25 27 29 -684 0
-15 20 24 25 27 29 -684 0
684 -30 -32 -34 -39 -40 685 0
-684 30 -32 -34 -39 -40 685 0
-684 -30 32 -34 -39 -40 685 0
-684 -30 -32 34 -39 -40 685 0
-684 -30 -32 -34 39 -40 685 0
-684 -30 -32 -34 -39 40 685 0
-684 -30 -32 -34 -39 -40 -685 0
684 30 32 -34 -39 -40 685 0
684 30 -32 34 -39 -40 685 0
684 30 -32 -34 39 -40 685 0
684 30 -32 -34 -39 40 685 0
684 30 -32 -34 -39 -40 -685 0
684 -30 32 34 -39 -40 685 0
684 -30 32 -34 39 -40 685 0
684 -30 32 -34 -39 40 685 0
684 -30 32 -34 -39 -40 -685 0
684 -30 -32 34 39 -40 685 0
684 -30 -32 34 -39 40 685 0
684 -30 -32 34 -39 -40 -685 0
684 -30 -32 -34 39 40 685 0
684 -30 -32 -34 39 -40 -685 0
684 -30 -32 -34 -39 40 -685 0
-684 30 32 34 -39 -40 685 0
-684 30 32 -34 39 -40 685 0
-684 30 32 -34 -39 40 685 0
-684 30 32 -34 -39 -40 -685 0
-684 30 -32 34 39 -40 685 0
-684 30 -32 34 -39 40 685 0
-684 30 -32 34 -39 -40 -685 0
-684 30 -32 -34 39 40 685 0
-684 30 -32 -34 39 -40 -685 0
-684 30 -32 -34 -39 40 -685 0
-684 -30 32 34 39 -40 685 0
-684 -30 32 34 -39 40 685 0
-684 -30 32 34 -39 -40 -685 0
-684 -30 32 -34 39 40 685 0
-684 -30 32 -34 39 -40 -685 0
-684 -30 32 -34 -39 40 -685 0
-684 -30 -32 34 39 40 685 0
-684 -30 -32 34 39 -40 -685 0
-684 -30 -32 34 -39 40 -685 0
-684 -30 -32 -34 39 40 -685 0
684 30 32 34 39 -40 685 0
684 30 32 34 -39 40 685 0
684 30 32 34 -39 -40 -685 0
684 30 32 -34 39 40 685 0
684 30 32 -34 39 -40 -685 0
684 30 32 -34 -39 40 -685 0
684 30 -32 34 39 40 685 0
684 30 -32 34 39 -40 -685 0
684 30 -32 34 -39 40 -685 0
684 30 -32 -34 39 40 -685 0
684 -30 32 34 39 40 685 0
684 -30 32 34 39 -40 -685 0
684 -30 32 34 -39 40 -685 0
684 -30 32 -34 39 40 -685 0
684 -30 -32 34 39 40 -685 0
-684 30 32 34 39 40 685 0
-684 30 32 34 39 -40 -685 0
-684 30 32 34 -39 40 -685 0
-684 30 32 -34 39 40 -685 0
-684 30 -32 34 39 40 -685 0
-684 -30 32 34 39 40 -685 0
684 30 32 34 39 40 -685 0
685 -42 -44 -50 -54 -56 686 0
-685 42 -44 -50 -54 -56 686 0
-685 -42 44 -50 -54 -56 686 0
-685 -42 -44 50 -54 -56 686 0
-685 -42 -44 -50 54 -56 686 0
-685 -42 -44 -50 -54 56 686 0
-685 -42 -44 -50 -54 -56 -686 0
685 42 44 -50 -54 -56 686 0
685 42 -44 50 -54 -56 686 0
685 42 -44 -50 54 -56 686 0
685 42 -44 -50 -54 56 686 0
685 42 -44 -50 -54 -56 -686 0
685 -42 44 50 -54 -56 686 0
685 -42 44 -50 54 -56 686 0
685 -42 44 -50 -54 56 686 0
685 -42 44 -50 -54 -56 -686 0
685 -42 -44 50 54 -56 686 0
685 -42 -44 50 -54 56 686 0
685 -42 -44 50 -54 -56 -686 0
685 -42 -44 -50 54 56 686 0
685 -42 -44 -50 54 -56 -686 0
685 -42 -44 -50 -54 56 -686 0
-685 42 44 50 -54 -56 686 0
-685 42 44 -50 54 -56 686 0
-685 42 44 -50 -54 56 686 0
-685 42 44 -50 -54 -56 -686 0
-685 42 -44 50 54 -56 686 0
-685 42 -44 50 -54 56 686 0
-685 42 -44 50 -54 -56 -686 0
-685 42 -44 -50 54 56 686 0
-685 42 -44 -50 54 -56 -686 0
-685 42 -44 -50 -54 56 -686 0
-685 -42 44 50 54 -56 686 0
-685 -42 44 50 -54 56 686 0
-685 -42 44 50 -54 -56 -686 0
-685 -42 44 -50 54 56 686 0
-685 -42 44 -50 54 -56 -686 0
-685 -42 44 -50 -54 56 -686 0
-685 -42 -44 50 54 56 686 0
-685 -42 -44 50 54 -56 -686 0
-685 -42 -44 50 -54 56 -686 0
-685 -42 -44 -50 54 56 -686 0
685 42 44 50 54 -56 686 0
685 42 44 50 -54 56 686 0
685 42 44 50 -54 -56 -686 0
685 42 44 -50 54 56 686 0
685 42 44 -50 54 -56 -686 0
685 42 44 -50 -54 56 -686 0
685 42 -44 50 54 56 686 0
685 42 -44 50 54 -56 -686 0
685 42 -44 50 -54 56 -686 0
685 42 -44 -50 54 56 -686 0
685 -42 44 50 54 56 686 0
685 -42 44 50 54 -56 -686 0
685 -42 44 50 -54 56 -686 0
685 -42 44 -50 54 56 -686 0
685 -42 -44 50 54 56 -686 0
-685 42 44 50 54 56 686 0
-685 42 44 50 54 -56 -686 0
-685 42 44 50 -54 56 -686 0
-685 42 44 -50 54 56 -686 0
-685 42 -44 50 54 56 -686 0
-685 -42 44 50 54 56 -686 0
685 42 44 50 54 56 -686 0
-686 -57 -58 -63 0
686 57 -58 -63 0
686 -57 58 -63 0
686 -57 -58 63 0
-686 57 58 -63 0
-686 57 -58 63 0
-686 -57 58 63 0
686 57 58 63 0
-687 26 0
-687 -28 0
687 -26 28 0
-688 24 0
-688 30 0
688 -24 -30 0
-689 24 0
-689 28 0
-689 -30 0
689 -24 -28 30 0
-690 -26 0
-690 28 0
-690 30 0
690 26 -28 -30 0
633 -687 -688 -689 -690 -94 0
-633 687 -688 -689 -690 -94 0
-633 -687 688 -689 -690 -94 0
-633 -687 -688 689 -690 -94 0
-633 -687 -688 -689 690 -94 0
-633 -687 -688 -689 -690 94 0
633 687 688 -689 -690 -94 0
633 687 -688 689 -690 -94 0
633 687 -688 -689 690 -94 0
633 687 -688 -689 -690 94 0
633 -687 688 689 -690 -94 0
633 -687 688 -689 690 -94 0
633 -687 688 -689 -690 94 0
633 -687 -688 689 690 -94 0
633 -687 -688 689 -690 94 0
633 -687 -688 -689 690 94 0
-633 687 688 689 -690 -94 0
-633 687 688 -689 690 -94 0
-633 687 688 -689 -690 94 0
-633 687 -688 689 690 -94 0
-633 687 -688 689 -690 94 0
-633 687 -688 -689 690 94 0
-633 -687 688 689 690 -94 0
-633 -687 688 689 -690 94 0
-633 -687 688 -689 690 94 0
-633 -687 -688 689 690 94 0
633 687 688 689 690 -94 0
633 687 688 689 -690 94 0
633 687 688 -689 690 94 0
633 687 -688 689 690 94 0
633 -687 688 689 690 94 0
-633 687 688 689 690 94 0
472 -414 -473 -474 -475 -125 0
-472 414 -473 -474 -475 -125 0
-472 -414 473 -474 -475 -125 0
-472 -414 -473 474 -475 -125 0
-472 -414 -473 -474 475 -125 0
-472 -414 -473 -474 -475 125 0
472 414 473 -474 -475 -125 0
472 414 -473 474 -475 -125 0
472 414 -473 -474 475 -125 0
472 414 -473 -474 -475 125 0
472 -414 473 474 -475 -125 0
472 -414 473 -474 475 -125 0
472 -414 473 -474 -475 125 0
472 -414 -473 474 475 -125 0
472 -414 -473 474 -475 125 0
472 -414 -473 -474 475 125 0
-472 414 473 474 -475 -125 0
-472 414 473 -474 475 -125 0
-472 414 473 -474 -475 125 0
-472 414 -473 474 475 -125 0
-472 414 -473 474 -475 125 0
-472 414 -473 -474 475 125 0
-472 -414 473 474 475 -125 0
-472 -414 473 474 -475 125 0
-472 -414 473 -474 475 125 0
-472 -414 -473 474 475 125 0
472 414 473 474 475 -125 0
472 414 473 474 -475 125 0
472 414 473 -474 475 125 0
472 414 -473 474 475 125 0
472 -414 473 474 475 125 0
-472 414 473 474 475 125 0
-691 -40 0
-691 44 0
691 40 -44 0
-692 42 0
-692 46 0
692 -42 -46 0
-693 40 0
-693 -44 0
-693 46 0
693 -40 44 -46 0
691 -640 -692 -693 -290 -156 0
-691 640 -692 -693 -290 -156 0
-691 -640 692 -693 -290 -156 0
-691 -640 -692 693 -290 -156 0
-691 -640 -692 -693 290 -156 0
-691 -640 -692 -693 -290 156 0
691 640 692 -693 -290 -156 0
691 640 -692 693 -290 -156 0
691 640 -692 -693 290 -156 0
691 640 -692 -693 -290 156 0
691 -640 692 693 -290 -156 0
691 -640 692 -693 290 -156 0
691 -640 692 -693 -290 156 0
691 -640 -692 693 290 -156 0
691 -640 -692 693 -290 156 0
691 -640 -692 -693 290 156 0
-691 640 692 693 -290 -156 0
-691 640 692 -693 290 -156 0
-691 640 692 -693 -290 156 0
-691 640 -692 693 290 -156 0
-691 640 -692 693 -290 156 0
-691 640 -692 -693 290 156 0
-691 -640 692 693 290 -156 0
-691 -640 692 693 -290 156 0
-691 -640 692 -693 290 156 0
-691 -640 -692 693 290 156 0
691 640 692 693 290 -156 0
691 640 692 693 -290 156 0
691 640 692 -693 290 156 0
691 640 -692 693 290 156 0
691 -640 692 693 290 156 0
-691 640 692 693 290 156 0
-694 50 0
-694 -52 0
694 -50 52 0
-695 48 0
-695 54 0
695 -48 -54 0
-696 48 0
-696 52 0
-696 -54 0
696 -48 -52 54 0
-697 -50 0
-697 52 0
-697 54 0
697 50 -52 -54 0
641 -694 -695 -696 -697 -187 0
-641 694 -695 -696 -697 -187 0
-641 -694 695 -696 -697 -187 0
-641 -694 -695 696 -697 -187 0
-641 -694 -695 -696 697 -187 0
-641 -694 -695 -696 -697 187 0
641 694 695 -696 -697 -187 0
641 694 -695 696 -697 -187 0
641 694 -695 -696 697 -187 0
641 694 -695 -696 -697 187 0
641 -694 695 696 -697 -187 0
641 -694 695 -696 697 -187 0
641 -694 695 -696 -697 187 0
641 -694 -695 696 697 -187 0
641 -694 -695 696 -697 187 0
641 -694 -695 -696 697 187 0
-641 694 695 696 -697 -187 0
-641 694 695 -696 697 -187 0
-641 694 695 -696 -697 187 0
-641 694 -695 696 697 -187 0
-641 694 -695 696 -697 187 0
-641 694 -695 -696 697 187 0
-641 -694 695 696 697 -187 0
-641 -694 695 696 -697 187 0
-641 -694 695 -696 697 187 0
-641 -694 -695 696 697 187 0
641 694 695 696 697 -187 0
641 694 695 696 -697 187 0
641 694 695 -696 697 187 0
641 694 -695 696 697 187 0
641 -694 695 696 697 187 0
-641 694 695 696 697 187 0
-698 -56 0
-698 60 0
698 56 -60 0
-699 58 0
-699 62 0
699 -58 -62 0
-700 56 0
-700 -60 0
-700 62 0
700 -56 60 -62 0
-701 58 0
-701 60 0
-701 -62 0
701 -58 -60 62 0
698 -648 -699 -700 -701 -218 0
-698 648 -699 -700 -701 -218 0
-698 -648 699 -700 -701 -218 0
-698 -648 -699 700 -701 -218 0
-698 -648 -699 -700 701 -218 0
-698 -648 -699 -700 -701 218 0
698 648 699 -700 -701 -218 0
698 648 -699 700 -701 -218 0
698 648 -699 -700 701 -218 0
698 648 -699 -700 -701 218 0
698 -648 699 700 -701 -218 0
698 -648 699 -700 701 -218 0
698 -648 699 -700 -701 218 0
698 -648 -699 700 701 -218 0
698 -648 -699 700 -701 218 0
698 -648 -699 -700 701 218 0
-698 648 699 700 -701 -218 0
-698 648 699 -700 701 -218 0
-698 648 699 -700 -701 218 0
-698 648 -699 700 701 -218 0
-698 648 -699 700 -701 218 0
-698 648 -699 -700 701 218 0
-698 -648 699 700 701 -218 0
-698 -648 699 700 -701 218 0
-698 -648 699 -700 701 218 0
-698 -648 -699 700 701 218 0
698 648 699 700 701 -218 0
698 648 699 700 -701 218 0
698 648 699 -700 701 218 0
698 648 -699 700 701 218 0
698 -648 699 700 701 218 0
-698 648 699 700 701 218 0
-702 94 0
-702 -156 0
702 -94 156 0
-703 94 0
-703 -125 0
-703 187 0
703 -94 125 -187 0
-704 -94 0
-704 218 0
704 94 -218 0
-705 94 0
-705 125 0
-705 -156 0
-705 218 0
705 -94 -125 156 -218 0
-706 -94 0
-706 187 0
-706 218 0
706 94 -187 -218 0
-707 125 0
-707 187 0
-707 218 0
707 -125 -187 -218 0
-708 125 0
-708 156 0
-708 187 0
-708 -218 0
708 -125 -156 -187 218 0
702 -703 -704 -705 -706 -707 709 0
-702 703 -704 -705 -706 -707 709 0
-702 -703 704 -705 -706 -707 709 0
-702 -703 -704 705 -706 -707 709 0
-702 -703 -704 -705 706 -707 709 0
-702 -703 -704 -705 -706 707 709 0
-702 -703 -704 -705 -706 -707 -709 0
702 703 704 -705 -706 -707 709 0
702 703 -704 705 -706 -707 709 0
702 703 -704 -705 706 -707 709 0
702 703 -704 -705 -706 707 709 0
702 703 -704 -705 -706 -707 -709 0
702 -703 704 705 -706 -707 709 0
702 -703 704 -705 706 -707 709 0
702 -703 704 -705 -706 707 709 0
702 -703 704 -705 -706 -707 -709 0
702 -703 -704 705 706 -707 709 0
702 -703 -704 705 -706 707 709 0
702 -703 -704 705 -706 -707 -709 0
702 -703 -704 -705 706 707 709 0
702 -703 -704 -705 706 -707 -709 0
702 -703 -704 -705 -706 707 -709 0
-702 703 704 705 -706 -707 709 0
-702 703 704 -705 706 -707 709 0
-702 703 704 -705 -706 707 709 0
-702 703 704 -705 -706 -707 -709 0
-702 703 -704 705 706 -707 709 0
-702 703 -704 705 -706 707 709 0
-702 703 -704 705 -706 -707 -709 0
-702 703 -704 -705 706 707 709 0
-702 703 -704 -705 706 -707 -709 0
-702 703 -704 -705 -706 707 -709 0
-702 -703 704 705 706 -707 709 0
-702 -703 704 705 -706 707 709 0
-702 -703 704 705 -706 -707 -709 0
-702 -703 704 -705 706 707 709 0
-702 -703 704 -705 706 -707 -709 0
-702 -703 704 -705 -706 707 -709 0
-702 -703 -704 705 706 707 709 0
-702 -703 -704 705 706 -707 -709 0
-702 -703 -704 705 -706 707 -709 0
-702 -703 -704 -705 706 707 -709 0
702 703 704 705 706 -707 709 0
702 703 704 705 -706 707 709 0
702 703 704 705 -706 -707 -709 0
702 703 704 -705 706 707 709 0
702 703 704 -705 706 -707 -709 0
702 703 704 -705 -706 707 -709 0
702 703 -704 705 706 707 709 0
702 703 -704 705 706 -707 -709 0
702 703 -704 705 -706 707 -709 0
702 703 -704 -705 706 707 -709 0
702 -703 704 705 706 707 709 0
702 -703 704 705 706 -707 -709 0
702 -703 704 705 -706 707 -709 0
702 -703 704 -705 706 707 -709 0
702 -703 -704 705 706 707 -709 0
-702 703 704 705 706 707 709 0
-702 703 704 705 706 -707 -709 0
-702 703 704 705 -706 707 -709 0
-702 703 704 -705 706 707 -709 0
-702 703 -704 705 706 707 -709 0
-702 -703 704 705 706 707 -709 0
702 703 704 705 706 707 -709 0
-709 -708 0
709 708 0
-16 -21 -25 -26 -28 -30 710 0
16 21 -25 -26 -28 -30 710 0
16 -21 25 -26 -28 -30 710 0
16 -21 -25 26 -28 -30 710 0
16 -21 -25 -26 28 -30 710 0
16 -21 -25 -26 -28 30 710 0
16 -21 -25 -26 -28 -30 -710 0
-16 21 25 -26 -28 -30 710 0
-16 21 -25 26 -28 -30 710 0
-16 21 -25 -26 28 -30 710 0
-16 21 -25 -26 -28 30 710 0
-16 21 -25 -26 -28 -30 -710 0
-16 -21 25 26 -28 -30 710 0
-16 -21 25 -26 28 -30 710 0
-16 -21 25 -26 -28 30 710 0
-16 -21 25 -26 -28 -30 -710 0
-16 -21 -25 26 28 -30 710 0
-16 -21 -25 26 -28 30 710 0
-16 -21 -25 26 -28 -30 -710 0
-16 -21 -25 -26 28 30 710 0
-16 -21 -25 -26 28 -30 -710 0
-16 -21 -25 -26 -28 30 -710 0
16 21 25 26 -28 -30 710 0
16 21 25 -26 28 -30 710 0
16 21 25 -26 -28 30 710 0
16 21 25 -26 -28 -30 -710 0
16 21 -25 26 28 -30 710 0
16 21 -25 26 -28 30 710 0
16 21 -25 26 -28 -30 -710 0
16 21 -25 -26 28 30 710 0
16 21 -25 -26 28 -30 -710 0
16 21 -25 -26 -28 30 -710 0
16 -21 25 26 28 -30 710 0
16 -21 25 26 -28 30 710 0
16 -21 25 26 -28 -30 -710 0
16 -21 25 -26 28 30 710 0
16 -21 25 -26 28 -30 -710 0
16 -21 25 -26 -28 30 -710 0
16 -21 -25 26 28 30 710 0
16 -21 -25 26 28 -30 -710 0
16 -21 -25 26 -28 30 -710 0
16 -21 -25 -26 28 30 -710 0
-16 21 25 26 28 -30 710 0
-16 21 25 26 -28 30 710 0
-16 21 25 26 -28 -30 -710 0
-16 21 25 -26 28 30 710 0
-16 21 25 -26 28 -30 -710 0
-16 21 25 -26 -28 30 -710 0
-16 21 -25 26 28 30 710 0
-16 21 -25 26 28 -30 -710 0
-16 21 -25 26 -28 30 -710 0
-16 21 -25 -26 28 30 -710 0
-16 -21 25 26 28 30 710 0
-16 -21 25 26 28 -30 -710 0
-16 -21 25 26 -28 30 -710 0
-16 -21 25 -26 28 30 -710 0
-16 -21 -25 26 28 30 -710 0
16 21 25 26 28 30 710 0
16 21 25 26 28 -30 -710 0
16 21 25 26 -28 30 -710 0
16 21 25 -26 28 30 -710 0
16 21 -25 26 28 30 -710 0
16 -21 25 26 28 30 -710 0
-16 21 25 26 28 30 -710 0
710 -31 -33 -35 -40 -41 711 0
-710 31 -33 -35 -40 -41 711 0
-710 -31 33 -35 -40 -41 711 0
-710 -31 -33 35 -40 -41 711 0
-710 -31 -33 -35 40 -41 711 0
-710 -31 -33 -35 -40 41 711 0
-710 -31 -33 -35 -40 -41 -711 0
710 31 33 -35 -40 -41 711 0
710 31 -33 35 -40 -41 711 0
710 31 -33 -35 40 -41 711 0
710 31 -33 -35 -40 41 711 0
710 31 -33 -35 -40 -41 -711 0
710 -31 33 35 -40 -41 711 0
710 -31 33 -35 40 -41 711 0
710 -31 33 -35 -40 41 711 0
710 -31 33 -35 -40 -41 -711 0
710 -31 -33 35 40 -41 711 0
710 -31 -33 35 -40 41 711 0
710 -31 -33 35 -40 -41 -711 0
710 -31 -33 -35 40 41 711 0
710 -31 -33 -35 40 -41 -711 0
710 -31 -33 -35 -40 41 -711 0
-710 31 33 35 -40 -41 711 0
-710 31 33 -35 40 -41 711 0
-710 31 33 -35 -40 41 711 0
-710 31 33 -35 -40 -41 -711 0
-710 31 -33 35 40 -41 711 0
-710 31 -33 35 -40 41 711 0
-710 31 -33 35 -40 -41 -711 0
-710 31 -33 -35 40 41 711 0
-710 31 -33 -35 40 -41 -711 0
-710 31 -33 -35 -40 41 -711 0
-710 -31 33 35 40 -41 711 0
-710 -31 33 35 -40 41 711 0
-710 -31 33 35 -40 -41 -711 0
-710 -31 33 -35 40 41 711 0
-710 -31 33 -35 40 -41 -711 0
-710 -31 33 -35 -40 41 -711 0
-710 -31 -33 35 40 41 711 0
-710 -31 -33 35 40 -41 -711 0
-710 -31 -33 35 -40 41 -711 0
-710 -31 -33 -35 40 41 -711 0
710 31 33 35 40 -41 711 0
710 31 33 35 -40 41 711 0
710 31 33 35 -40 -41 -711 0
710 31 33 -35 40 41 711 0
710 31 33 -35 40 -41 -711 0
710 31 33 -35 -40 41 -711 0
710 31 -33 35 40 41 711 0
710 31 -33 35 40 -41 -711 0
710 31 -33 35 -40 41 -711 0
710 31 -33 -35 40 41 -711 0
710 -31 33 35 40 41 711 0
710 -31 33 35 40 -41 -711 0
710 -31 33 35 -40 41 -711 0
710 -31 33 -35 40 41 -711 0
710 -31 -33 35 40 41 -711 0
-710 31 33 35 40 41 711 0
-710 31 33 35 40 -41 -711 0
-710 31 33 35 -40 41 -711 0
-710 31 33 -35 40 41 -711 0
-710 31 -33 35 40 41 -711 0
-710 -31 33 35 40 41 -711 0
710 31 33 35 40 41 -711 0
711 -43 -45 -51 -55 -57 712 0
-711 43 -45 -51 -55 -57 712 0
-711 -43 45 -51 -55 -57 712 0
-711 -43 -45 51 -55 -57 712 0
-711 -43 -45 -51 55 -57 712 0
-711 -43 -45 -51 -55 57 712 0
-711 -43 -45 -51 -55 -57 -712 0
711 43 45 -51 -55 -57 712 0
711 43 -45 51 -55 -57 712 0
711 43 -45 -51 55 -57 712 0
711 43 -45 -51 -55 57 712 0
711 43 -45 -51 -55 -57 -712 0
711 -43 45 51 -55 -57 712 0
711 -43 45 -51 55 -57 712 0
711 -43 45 -51 -55 57 712 0
711 -43 45 -51 -55 -57 -712 0
711 -43 -45 51 55 -57 712 0
711 -43 -45 51 -55 57 712 0
711 -43 -45 51 -55 -57 -712 0
711 -43 -45 -51 55 57 712 0
711 -43 -45 -51 55 -57 -712 0
711 -43 -45 -51 -55 57 -712 0
-711 43 45 51 -55 -57 712 0
-711 43 45 -51 55 -57 712 0
-711 43 45 -51 -55 57 712 0
-711 43 45 -51 -55 -57 -712 0
-711 43 -45 51 55 -57 712 0
-711 43 -45 51 -55 57 712 0
-711 43 -45 51 -55 -57 -712 0
-711 43 -45 -51 55 57 712 0
-711 43 -45 -51 55 -57 -712 0
-711 43 -45 -51 -55 57 -712 0
-711 -43 45 51 55 -57 712 0
-711 -43 45 51 -55 57 712 0
-711 -43 45 51 -55 -57 -712 0
-711 -43 45 -51 55 57 712 0
-711 -43 45 -51 55 -57 -712 0
-711 -43 45 -51 -55 57 -712 0
-711 -43 -45 51 55 57 712 0
-711 -43 -45 51 55 -57 -712 0
-711 -43 -45 51 -55 57 -712 0
-711 -43 -45 -51 55 57 -712 0
711 43 45 51 55 -57 712 0
711 43 45 51 -55 57 712 0
711 43 45 51 -55 -57 -712 0
711 43 45 -51 55 57 712 0
711 43 45 -51 55 -57 -712 0
711 43 45 -51 -55 57 -712 0
711 43 -45 51 55 57 712 0
711 43 -45 51 55 -57 -712 0
711 43 -45 51 -55 57 -712 0
711 43 -45 -51 55 57 -712 0
711 -43 45 51 55 57 712 0
711 -43 45 51 55 -57 -712 0
711 -43 45 51 -55 57 -712 0
711 -43 45 -51 55 57 -712 0
711 -43 -45 51 55 57 -712 0
-711 43 45 51 55 57 712 0
-711 43 45 51 55 -57 -712 0
-711 43 45 51 -55 57 -712 0
-711 43 45 -51 55 57 -712 0
-711 43 -45 51 55 57 -712 0
-711 -43 45 51 55 57 -712 0
711 43 45 51 55 57 -712 0
-712 -58 -59 -64 0
712 58 -59 -64 0
712 -58 59 -64 0
712 -58 -59 64 0
-712 58 59 -64 0
-712 58 -59 64 0
-712 -58 59 64 0
712 58 59 64 0
-713 27 0
-713 -29 0
713 -27 29 0
-714 25 0
-714 31 0
714 -25 -31 0
-715 25 0
-715 29 0
-715 -31 0
715 -25 -29 31 0
-716 -27 0
-716 29 0
-716 31 0
716 27 -29 -31 0
660 -713 -714 -715 -716 -95 0
-660 713 -714 -715 -716 -95 0
-660 -713 714 -715 -716 -95 0
-660 -713 -714 715 -716 -95 0
-660 -713 -714 -715 716 -95 0
-660 -713 -714 -715 -716 95 0
660 713 714 -715 -716 -95 0
660 713 -714 715 -716 -95 0
660 713 -714 -715 716 -95 0
660 713 -714 -715 -716 95 0
660 -713 714 715 -716 -95 0
660 -713 714 -715 716 -95 0
660 -713 714 -715 -716 95 0
660 -713 -714 715 716 -95 0
660 -713 -714 715 -716 95 0
660 -713 -714 -715 716 95 0
-660 713 714 715 -716 -95 0
-660 713 714 -715 716 -95 0
-660 713 714 -715 -716 95 0
-660 713 -714 715 716 -95 0
-660 713 -714 715 -716 95 0
-660 713 -714 -715 716 95 0
-660 -713 714 715 716 -95 0
-660 -713 714 715 -716 95 0
-660 -713 714 -715 716 95 0
-660 -713 -714 715 716 95 0
660 713 714 715 716 -95 0
660 713 714 715 -716 95 0
660 713 714 -715 716 95 0
660 713 -714 715 716 95 0
660 -713 714 715 716 95 0
-660 713 714 715 716 95 0
502 -445 -503 -504 -505 -126 0
-502 445 -503 -504 -505 -126 0
-502 -445 503 -504 -505 -126 0
-502 -445 -503 504 -505 -126 0
-502 -445 -503 -504 505 -126 0
-502 -445 -503 -504 -505 126 0
502 445 503 -504 -505 -126 0
502 445 -503 504 -505 -126 0
502 445 -503 -504 505 -126 0
502 445 -503 -504 -505 126 0
502 -445 503 504 -505 -126 0
502 -445 503 -504 505 -126 0
502 -445 503 -504 -505 126 0
502 -445 -503 504 505 -126 0
502 -445 -503 504 -505 126 0
502 -445 -503 -504 505 126 0
-502 445 503 504 -505 -126 0
-502 445 503 -504 505 -126 0
-502 445 503 -504 -505 126 0
-502 445 -503 504 505 -126 0
-502 445 -503 504 -505 126 0
-502 445 -503 -504 505 126 0
-502 -445 503 504 505 -126 0
-502 -445 503 504 -505 126 0
-502 -445 503 -504 505 126 0
-502 -445 -503 504 505 126 0
502 445 503 504 505 -126 0
502 445 503 504 -505 126 0
502 445 503 -504 505 126 0
502 445 -503 504 505 126 0
502 -445 503 504 505 126 0
-502 445 503 504 505 126 0
-717 -41 0
-717 45 0
717 41 -45 0
-718 43 0
-718 47 0
718 -43 -47 0
-719 41 0
-719 -45 0
-719 47 0
719 -41 45 -47 0
717 -667 -718 -719 -326 -157 0
-717 667 -718 -719 -326 -157 0
-717 -667 718 -719 -326 -157 0
-717 -667 -718 719 -326 -157 0
-717 -667 -718 -719 326 -157 0
-717 -667 -718 -719 -326 157 0
717 667 718 -719 -326 -157 0
717 667 -718 719 -326 -157 0
717 667 -718 -719 326 -157 0
717 667 -718 -719 -326 157 0
717 -667 718 719 -326 -157 0
717 -667 718 -719 326 -157 0
717 -667 718 -719 -326 157 0
717 -667 -718 719 326 -157 0
717 -667 -718 719 -326 157 0
717 -667 -718 -719 326 157 0
-717 667 718 719 -326 -157 0
-717 667 718 -719 326 -157 0
-717 667 718 -719 -326 157 0
-717 667 -718 719 326 -157 0
-717 667 -718 719 -326 157 0
-717 667 -718 -719 326 157 0
-717 -667 718 719 326 -157 0
-717 -667 718 719 -326 157 0
-717 -667 718 -719 326 157 0
-717 -667 -718 719 326 157 0
717 667 718 719 326 -157 0
717 667 718 719 -326 157 0
717 667 718 -719 326 157 0
717 667 -718 719 326 157 0
717 -667 718 719 326 157 0
-717 667 718 719 326 157 0
-720 51 0
-720 -53 0
720 -51 53 0
-721 49 0
-721 55 0
721 -49 -55 0
-722 49 0
-722 53 0
-722 -55 0
722 -49 -53 55 0
-723 -51 0
-723 53 0
-723 55 0
723 51 -53 -55 0
668 -720 -721 -722 -723 -188 0
-668 720 -721 -722 -723 -188 0
-668 -720 721 -722 -723 -188 0
-668 -720 -721 722 -723 -188 0
-668 -720 -721 -722 723 -188 0
-668 -720 -721 -722 -723 188 0
668 720 721 -722 -723 -188 0
668 720 -721 722 -723 -188 0
668 720 -721 -722 723 -188 0
668 720 -721 -722 -723 188 0
668 -720 721 722 -723 -188 0
668 -720 721 -722 723 -188 0
668 -720 721 -722 -723 188 0
668 -720 -721 722 723 -188 0
668 -720 -721 722 -723 188 0
668 -720 -721 -722 723 188 0
-668 720 721 722 -723 -188 0
-668 720 721 -722 723 -188 0
-668 720 721 -722 -723 188 0
-668 720 -721 722 723 -188 0
-668 720 -721 722 -723 188 0
-668 720 -721 -722 723 188 0
-668 -720 721 722 723 -188 0
-668 -720 721 722 -723 188 0
-668 -720 721 -722 723 188 0
-668 -720 -721 722 723 188 0
668 720 721 722 723 -188 0
668 720 721 722 -723 188 0
668 720 721 -722 723 188 0
668 720 -721 722 723 188 0
668 -720 721 722 723 188 0
-668 720 721 722 723 188 0
-724 -57 0
-724 61 0
724 57 -61 0
-725 59 0
-725 63 0
725 -59 -63 0
-726 57 0
-726 -61 0
-726 63 0
726 -57 61 -63 0
-727 59 0
-727 61 0
-727 -63 0
727 -59 -61 63 0
724 -675 -725 -726 -727 -219 0
-724 675 -725 -726 -727 -219 0
-724 -675 725 -726 -727 -219 0
-724 -675 -725 726 -727 -219 0
-724 -675 -725 -726 727 -219 0
-724 -675 -725 -726 -727 219 0
724 675 725 -726 -727 -219 0
724 675 -725 726 -727 -219 0
724 675 -725 -726 727 -219 0
724 675 -725 -726 -727 219 0
724 -675 725 726 -727 -219 0
724 -675 725 -726 727 -219 0
724 -675 725 -726 -727 219 0
724 -675 -725 726 727 -219 0
724 -675 -725 726 -727 219 0
724 -675 -725 -726 727 219 0
-724 675 725 726 -727 -219 0
-724 675 725 -726 727 -219 0
-724 675 725 -726 -727 219 0
-724 675 -725 726 727 -219 0
-724 675 -725 726 -727 219 0
-724 675 -725 -726 727 219 0
-724 -675 725 726 727 -219 0
-724 -675 725 726 -727 219 0
-724 -675 725 -726 727 219 0
-724 -675 -725 726 727 219 0
724 675 725 726 727 -219 0
724 675 725 726 -727 219 0
724 675 725 -726 727 219 0
724 675 -725 726 727 219 0
724 -675 725 726 727 219 0
-724 675 725 726 727 219 0
-728 95 0
-728 -157 0
728 -95 157 0
-729 95 0
-729 -126 0
-729 188 0
729 -95 126 -188 0
-730 -95 0
-730 219 0
730 95 -219 0
-731 95 0
-731 126 0
-731 -157 0
-731 219 0
731 -95 -126 157 -219 0
-732 -95 0
-732 188 0
-732 219 0
732 95 -188 -219 0
-733 126 0
-733 188 0
-733 219 0
733 -126 -188 -219 0
-734 126 0
-734 157 0
-734 188 0
-734 -219 0
734 -126 -157 -188 219 0
-728 -729 -730 -731 -732 -733 735 0
728 729 -730 -731 -732 -733 735 0
728 -729 730 -731 -732 -733 735 0
728 -729 -730 731 -732 -733 735 0
728 -729 -730 -731 732 -733 735 0
728 -729 -730 -731 -732 733 735 0
728 -729 -730 -731 -732 -733 -735 0
-728 729 730 -731 -732 -733 735 0
-728 729 -730 731 -732 -733 735 0
-728 729 -730 -731 732 -733 735 0
-728 729 -730 -731 -732 733 735 0
-728 729 -730 -731 -732 -733 -735 0
-728 -729 730 731 -732 -733 735 0
-728 -729 730 -731 732 -733 735 0
-728 -729 730 -731 -732 733 735 0
-728 -729 730 -731 -732 -733 -735 0
-728 -729 -730 731 732 -733 735 0
-728 -729 -730 731 -732 733 735 0
-728 -729 -730 731 -732 -733 -735 0
-728 -729 -730 -731 732 733 735 0
-728 -729 -730 -731 732 -733 -735 0
-728 -729 -730 -731 -732 733 -735 0
728 729 730 731 -732 -733 735 0
728 729 730 -731 732 -733 735 0
728 729 730 -731 -732 733 735 0
728 729 730 -731 -732 -733 -735 0
728 729 -730 731 732 -733 735 0
728 729 -730 731 -732 733 735 0
728 729 -730 731 -732 -733 -735 0
728 729 -730 -731 732 733 735 0
728 729 -730 -731 732 -733 -735 0
728 729 -730 -731 -732 733 -735 0
728 -729 730 731 732 -733 735 0
728 -729 730 731 -732 733 735 0
728 -729 730 731 -732 -733 -735 0
728 -729 730 -731 732 733 735 0
728 -729 730 -731 732 -733 -735 0
728 -729 730 -731 -732 733 -735 0
728 -729 -730 731 732 733 735 0
728 -729 -730 731 732 -733 -735 0
728 -729 -730 731 -732 733 -735 0
728 -729 -730 -731 732 733 -735 0
-728 729 730 731 732 -733 735 0
-728 729 730 731 -732 733 735 0
-728 729 730 731 -732 -733 -735 0
-728 729 730 -731 732 733 735 0
-728 729 730 -731 732 -733 -735 0
-728 729 730 -731 -732 733 -735 0
-728 729 -730 731 732 733 735 0
-728 729 -730 731 732 -733 -735 0
-728 729 -730 731 -732 733 -735 0
-728 729 -730 -731 732 733 -735 0
-728 -729 730 731 732 733 735 0
-728 -729 730 731 732 -733 -735 0
-728 -729 730 731 -732 733 -735 0
-728 -729 730 -731 732 733 -735 0
-728 -729 -730 731 732 733 -735 0
728 729 730 731 732 733 735 0
728 729 730 731 732 -733 -735 0
728 729 730 731 -732 733 -735 0
728 729 730 -731 732 733 -735 0
728 729 -730 731 732 733 -735 0
728 -729 730 731 732 733 -735 0
-728 729 730 731 732 733 -735 0
-735 -734 0
735 734 0
-17 -22 -26 -27 -29 -31 736 0
17 22 -26 -27 -29 -31 736 0
17 -22 26 -27 -29 -31 736 0
17 -22 -26 27 -29 -31 736 0
17 -22 -26 -27 29 -31 736 0
17 -22 -26 -27 -29 31 736 0
17 -22 -26 -27 -29 -31 -736 0
-17 22 26 -27 -29 -31 736 0
-17 22 -26 27 -29 -31 736 0
-17 22 -26 -27 29 -31 736 0
-17 22 -26 -27 -29 31 736 0
-17 22 -26 -27 -29 -31 -736 0
-17 -22 26 27 -29 -31 736 0
-17 -22 26 -27 29 -31 736 0
-17 -22 26 -27 -29 31 736 0
-17 -22 26 -27 -29 -31 -736 0
-17 -22 -26 27 29 -31 736 0
-17 -22 -26 27 -29 31 736 0
-17 -22 -26 27 -29 -31 -736 0
-17 -22 -26 -27 29 31 736 0
-17 -22 -26 -27 29 -31 -736 0
-17 -22 -26 -27 -29 31 -736 0
17 22 26 27 -29 -31 736 0
17 22 26 -27 29 -31 736 0
17 22 26 -27 -29 31 736 0
17 22 26 -27 -29 -31 -736 0
17 22 -26 27 29 -31 736 0
17 22 -26 27 -29 31 736 0
17 22 -26 27 -29 -31 -736 0
17 22 -26 -27 29 31 736 0
17 22 -26 -27 29 -31 -736 0
17 22 -26 -27 -29 31 -736 0
17 -22 26 27 29 -31 736 0
17 -22 26 27 -29 31 736 0
17 -22 26 27 -29 -31 -736 0
17 -22 26 -27 29 31 736 0
17 -22 26 -27 29 -31 -736 0
17 -22 26 -27 -29 31 -736 0
17 -22 -26 27 29 31 736 0
17 -22 -26 27 29 -31 -736 0
17 -22 -26 27 -29 31 -736 0
17 -22 -26 -27 29 31 -736 0
-17 22 26 27 29 -31 736 0
-17 22 26 27 -29 31 736 0
-17 22 26 27 -29 -31 -736 0
-17 22 26 -27 29 31 736 0
-17 22 26 -27 29 -31 -736 0
-17 22 26 -27 -29 31 -736 0
-17 22 -26 27 29 31 736 0
-17 22 -26 27 29 -31 -736 0
-17 22 -26 27 -29 31 -736 0
-17 22 -26 -27 29 31 -736 0
-17 -22 26 27 29 31 736 0
-17 -22 26 27 29 -31 -736 0
-17 -22 26 27 -29 31 -736 0
-17 -22 26 -27 29 31 -736 0
-17 -22 -26 27 29 31 -736 0
17 22 26 27 29 31 736 0
17 22 26 27 29 -31 -736 0
17 22 26 27 -29 31 -736 0
17 22 26 -27 29 31 -736 0
17 22 -26 27 29 31 -736 0
17 -22 26 27 29 31 -736 0
-17 22 26 27 29 31 -736 0
736 -32 -34 -36 -41 -42 737 0
-736 32 -34 -36 -41 -42 737 0
-736 -32 34 -36 -41 -42 737 0
-736 -32 -34 36 -41 -42 737 0
-736 -32 -34 -36 41 -42 737 0
-736 -32 -34 -36 -41 42 737 0
-736 -32 -34 -36 -41 -42 -737 0
736 32 34 -36 -41 -42 737 0
736 32 -34 36 -41 -42 737 0
736 32 -34 -36 41 -42 737 0
736 32 -34 -36 -41 42 737 0
736 32 -34 -36 -41 -42 -737 0
736 -32 34 36 -41 -42 737 0
736 -32 34 -36 41 -42 737 0
736 -32 34 -36 -41 42 737 0
736 -32 34 -36 -41 -42 -737 0
736 -32 -34 36 41 -42 737 0
736 -32 -34 36 -41 42 737 0
736 -32 -34 36 -41 -42 -737 0
736 -32 -34 -36 41 42 737 0
736 -32 -34 -36 41 -42 -737 0
736 -32 -34 -36 -41 42 -737 0
-736 32 34 36 -41 -42 737 0
-736 32 34 -36 41 -42 737 0
-736 32 34 -36 -41 42 737 0
-736 32 34 -36 -41 -42 -737 0
-736 32 -34 36 41 -42 737 0
-736 32 -34 36 -41 42 737 0
-736 32 -34 36 -41 -42 -737 0
-736 32 -34 -36 41 42 737 0
-736 32 -34 -36 41 -42 -737 0
-736 32 -34 -36 -41 42 -737 0
-736 -32 34 36 41 -42 737 0
-736 -32 34 36 -41 42 737 0
-736 -32 34 36 -41 -42 -737 0
-736 -32 34 -36 41 42 737 0
-736 -32 34 -36 41 -42 -737 0
-736 -32 34 -36 -41 42 -737 0
-736 -32 -34 36 41 42 737 0
-736 -32 -34 36 41 -42 -737 0
-736 -32 -34 36 -41 42 -737 0
-736 -32 -34 -36 41 42 -737 0
736 32 34 36 41 -42 737 0
736 32 34 36 -41 42 737 0
736 32 34 36 -41 -42 -737 0
736 32 34 -36 41 42 737 0
736 32 34 -36 41 -42 -737 0
736 32 34 -36 -41 42 -737 0
736 32 -34 36 41 42 737 0
736 32 -34 36 41 -42 -737 0
736 32 -34 36 -41 42 -737 0
736 32 -34 -36 41 42 -737 0
736 -32 34 36 41 42 737 0
736 -32 34 36 41 -42 -737 0
736 -32 34 36 -41 42 -737 0
736 -32 34 -36 41 42 -737 0
736 -32 -34 36 41 42 -737 0
-736 32 34 36 41 42 737 0
-736 32 34 36 41 -42 -737 0
-736 32 34 36 -41 42 -737 0
-736 32 34 -36 41 42 -737 0
-736 32 -34 36 41 42 -737 0
-736 -32 34 36 41 42 -737 0
736 32 34 36 41 42 -737 0
737 -44 -46 -52 -56 -58 738 0
-737 44 -46 -52 -56 -58 738 0
-737 -44 46 -52 -56 -58 738 0
-737 -44 -46 52 -56 -58 738 0
-737 -44 -46 -52 56 -58 738 0
-737 -44 -46 -52 -56 58 738 0
-737 -44 -46 -52 -56 -58 -738 0
737 44 46 -52 -56 -58 738 0
737 44 -46 52 -56 -58 738 0
737 44 -46 -52 56 -58 738 0
737 44 -46 -52 -56 58 738 0
737 44 -46 -52 -56 -58 -738 0
737 -44 46 52 -56 -58 738 0
737 -44 46 -52 56 -58 738 0
737 -44 46 -52 -56 58 738 0
737 -44 46 -52 -56 -58 -738 0
737 -44 -46 52 56 -58 738 0
737 -44 -46 52 -56 58 738 0
737 -44 -46 52 -56 -58 -738 0
737 -44 -46 -52 56 58 738 0
737 -44 -46 -52 56 -58 -738 0
737 -44 -46 -52 -56 58 -738 0
-737 44 46 52 -56 -58 738 0
-737 44 46 -52 56 -58 738 0
-737 44 46 -52 -56 58 738 0
-737 44 46 -52 -56 -58 -738 0
-737 44 -46 52 56 -58 738 0
-737 44 -46 52 -56 58 738 0
-737 44 -46 52 -56 -58 -738 0
-737 44 -46 -52 56 58 738 0
-737 44 -46 -52 56 -58 -738 0
-737 44 -46 -52 -56 58 -738 0
-737 -44 46 52 56 -58 738 0
-737 -44 46 52 -56 58 738 0
-737 -44 46 52 -56 -58 -738 0
-737 -44 46 -52 56 58 738 0
-737 -44 46 -52 56 -58 -738 0
-737 -44 46 -52 -56 58 -738 0
-737 -44 -46 52 56 58 738 0
-737 -44 -46 52 56 -58 -738 0
-737 -44 -46 52 -56 58 -738 0
-737 -44 -46 -52 56 58 -738 0
737 44 46 52 56 -58 738 0
737 44 46 52 -56 58 738 0
737 44 46 52 -56 -58 -738 0
737 44 46 -52 56 58 738 0
737 44 46 -52 56 -58 -738 0
737 44 46 -52 -56 58 -738 0
737 44 -46 52 56 58 738 0
737 44 -46 52 56 -58 -738 0
737 44 -46 52 -56 58 -738 0
737 44 -46 -52 56 58 -738 0
737 -44 46 52 56 58 738 0
737 -44 46 52 56 -58 -738 0
737 -44 46 52 -56 58 -738 0
737 -44 46 -52 56 58 -738 0
737 -44 -46 52 56 58 -738 0
-737 44 46 52 56 58 738 0
-737 44 46 52 56 -58 -738 0
-737 44 46 52 -56 58 -738 0
-737 44 46 -52 56 58 -738 0
-737 44 -46 52 56 58 -738 0
-737 -44 46 52 56 58 -738 0
737 44 46 52 56 58 -738 0
-738 -59 -60 -65 0
738 59 -60 -65 0
738 -59 60 -65 0
738 -59 -60 65 0
-738 59 60 -65 0
-738 59 -60 65 0
-738 -59 60 65 0
738 59 60 65 0
-739 28 0
-739 -30 0
739 -28 30 0
-740 26 0
-740 32 0
740 -26 -32 0
-741 26 0
-741 30 0
-741 -32 0
741 -26 -30 32 0
-742 -28 0
-742 30 0
-742 32 0
742 28 -30 -32 0
687 -739 -740 -741 -742 -96 0
-687 739 -740 -741 -742 -96 0
-687 -739 740 -741 -742 -96 0
-687 -739 -740 741 -742 -96 0
-687 -739 -740 -741 742 -96 0
-687 -739 -740 -741 -742 96 0
687 739 740 -741 -742 -96 0
687 739 -740 741 -742 -96 0
687 739 -740 -741 742 -96 0
687 739 -740 -741 -742 96 0
687 -739 740 741 -742 -96 0
687 -739 740 -741 742 -96 0
687 -739 740 -741 -742 96 0
687 -739 -740 741 742 -96 0
687 -739 -740 741 -742 96 0
687 -739 -740 -741 742 96 0
-687 739 740 741 -742 -96 0
-687 739 740 -741 742 -96 0
-687 739 740 -741 -742 96 0
-687 739 -740 741 742 -96 0
-687 739 -740 741 -742 96 0
-687 739 -740 -741 742 96 0
-687 -739 740 741 742 -96 0
-687 -739 740 741 -742 96 0
-687 -739 740 -741 742 96 0
-687 -739 -740 741 742 96 0
687 739 740 741 742 -96 0
687 739 740 741 -742 96 0
687 739 740 -741 742 96 0
687 739 -740 741 742 96 0
687 -739 740 741 742 96 0
-687 739 740 741 742 96 0
529 -475 -530 -531 -532 -127 0
-529 475 -530 -531 -532 -127 0
-529 -475 530 -531 -532 -127 0
-529 -475 -530 531 -532 -127 0
-529 -475 -530 -531 532 -127 0
-529 -475 -530 -531 -532 127 0
529 475 530 -531 -532 -127 0
529 475 -530 531 -532 -127 0
529 475 -530 -531 532 -127 0
529 475 -530 -531 -532 127 0
529 -475 530 531 -532 -127 0
529 -475 530 -531 532 -127 0
529 -475 530 -531 -532 127 0
529 -475 -530 531 532 -127 0
529 -475 -530 531 -532 127 0
529 -475 -530 -531 532 127 0
-529 475 530 531 -532 -127 0
-529 475 530 -531 532 -127 0
-529 475 530 -531 -532 127 0
-529 475 -530 531 532 -127 0
-529 475 -530 531 -532 127 0
-529 475 -530 -531 532 127 0
-529 -475 530 531 532 -127 0
-529 -475 530 531 -532 127 0
-529 -475 530 -531 532 127 0
-529 -475 -530 531 532 127 0
529 475 530 531 532 -127 0
529 475 530 531 -532 127 0
529 475 530 -531 532 127 0
529 475 -530 531 532 127 0
529 -475 530 531 532 127 0
-529 475 530 531 532 127 0
289 -290 -291 -292 -293 -158 0
-289 290 -291 -292 -293 -158 0
-289 -290 291 -292 -293 -158 0
-289 -290 -291 292 -293 -158 0
-289 -290 -291 -292 293 -158 0
-289 -290 -291 -292 -293 158 0
289 290 291 -292 -293 -158 0
289 290 -291 292 -293 -158 0
289 290 -291 -292 293 -158 0
289 290 -291 -292 -293 158 0
289 -290 291 292 -293 -158 0
289 -290 291 -292 293 -158 0
289 -290 291 -292 -293 158 0
289 -290 -291 292 293 -158 0
289 -290 -291 292 -293 158 0
289 -290 -291 -292 293 158 0
-289 290 291 292 -293 -158 0
-289 290 291 -292 293 -158 0
-289 290 291 -292 -293 158 0
-289 290 -291 292 293 -158 0
-289 290 -291 292 -293 158 0
-289 290 -291 -292 293 158 0
-289 -290 291 292 293 -158 0
-289 -290 291 292 -293 158 0
-289 -290 291 -292 293 158 0
-289 -290 -291 292 293 158 0
289 290 291 292 293 -158 0
289 290 291 292 -293 158 0
289 290 291 -292 293 158 0
289 290 -291 292 293 158 0
289 -290 291 292 293 158 0
-289 290 291 292 293 158 0
-743 52 0
-743 -54 0
743 -52 54 0
-744 50 0
-744 56 0
744 -50 -56 0
-745 50 0
-745 54 0
-745 -56 0
745 -50 -54 56 0
-746 -52 0
-746 54 0
-746 56 0
746 52 -54 -56 0
694 -743 -744 -745 -746 -189 0
-694 743 -744 -745 -746 -189 0
-694 -743 744 -745 -746 -189 0
-694 -743 -744 745 -746 -189 0
-694 -743 -744 -745 746 -189 0
-694 -743 -744 -745 -746 189 0
694 743 744 -745 -746 -189 0
694 743 -744 745 -746 -189 0
694 743 -744 -745 746 -189 0
694 743 -744 -745 -746 189 0
694 -743 744 745 -746 -189 0
694 -743 744 -745 746 -189 0
694 -743 744 -745 -746 189 0
694 -743 -744 745 746 -189 0
694 -743 -744 745 -746 189 0
694 -743 -744 -745 746 189 0
-694 743 744 745 -746 -189 0
-694 743 744 -745 746 -189 0
-694 743 744 -745 -746 189 0
-694 743 -744 745 746 -189 0
-694 743 -744 745 -746 189 0
-694 743 -744 -745 746 189 0
-694 -743 744 745 746 -189 0
-694 -743 744 745 -746 189 0
-694 -743 744 -745 746 189 0
-694 -743 -744 745 746 189 0
694 743 744 745 746 -189 0
694 743 744 745 -746 189 0
694 743 744 -745 746 189 0
694 743 -744 745 746 189 0
694 -743 744 745 746 189 0
-694 743 744 745 746 189 0
-747 -58 0
-747 62 0
747 58 -62 0
-748 60 0
-748 64 0
748 -60 -64 0
-749 58 0
-749 -62 0
-749 64 0
749 -58 62 -64 0
-750 60 0
-750 62 0
-750 -64 0
750 -60 -62 64 0
747 -701 -748 -749 -750 -220 0
-747 701 -748 -749 -750 -220 0
-747 -701 748 -749 -750 -220 0
-747 -701 -748 749 -750 -220 0
-747 -701 -748 -749 750 -220 0
-747 -701 -748 -749 -750 220 0
747 701 748 -749 -750 -220 0
747 701 -748 749 -750 -220 0
747 701 -748 -749 750 -220 0
747 701 -748 -749 -750 220 0
747 -701 748 749 -750 -220 0
747 -701 748 -749 750 -220 0
747 -701 748 -749 -750 220 0
747 -701 -748 749 750 -220 0
747 -701 -748 749 -750 220 0
747 -701 -748 -749 750 220 0
-747 701 748 749 -750 -220 0
-747 701 748 -749 750 -220 0
-747 701 748 -749 -750 220 0
-747 701 -748 749 750 -220 0
-747 701 -748 749 -750 220 0
-747 701 -748 -749 750 220 0
-747 -701 748 749 750 -220 0
-747 -701 748 749 -750 220 0
-747 -701 748 -749 750 220 0
-747 -701 -748 749 750 220 0
747 701 748 749 750 -220 0
747 701 748 749 -750 220 0
747 701 748 -749 750 220 0
747 701 -748 749 750 220 0
747 -701 748 749 750 220 0
-747 701 748 749 750 220 0
-751 96 0
-751 -158 0
751 -96 158 0
-752 96 0
-752 -127 0
-752 189 0
752 -96 127 -189 0
-753 -96 0
-753 220 0
753 96 -220 0
-754 96 0
-754 127 0
-754 -158 0
-754 220 0
754 -96 -127 158 -220 0
-755 -96 0
-755 189 0
-755 220 0
755 96 -189 -220 0
-756 127 0
-756 189 0
-756 220 0
756 -127 -189 -220 0
-757 127 0
-757 158 0
-757 189 0
-757 -220 0
757 -127 -158 -189 220 0
751 -752 -753 -754 -755 -756 758 0
-751 752 -753 -754 -755 -756 758 0
-751 -752 753 -754 -755 -756 758 0
-751 -752 -753 754 -755 -756 758 0
-751 -752 -753 -754 755 -756 758 0
-751 -752 -753 -754 -755 756 758 0
-751 -752 -753 -754 -755 -756 -758 0
751 752 753 -754 -755 -756 758 0
751 752 -753 754 -755 -756 758 0
751 752 -753 -754 755 -756 758 0
751 752 -753 -754 -755 756 758 0
751 752 -753 -754 -755 -756 -758 0
751 -752 753 754 -755 -756 758 0
751 -752 753 -754 755 -756 758 0
751 -752 753 -754 -755 756 758 0
751 -752 753 -754 -755 -756 -758 0
751 -752 -753 754 755 -756 758 0
751 -752 -753 754 -755 756 758 0
751 -752 -753 754 -755 -756 -758 0
751 -752 -753 -754 755 756 758 0
751 -752 -753 -754 755 -756 -758 0
751 -752 -753 -754 -755 756 -758 0
-751 752 753 754 -755 -756 758 0
-751 752 753 -754 755 -756 758 0
-751 752 753 -754 -755 756 758 0
-751 752 753 -754 -755 -756 -758 0
-751 752 -753 754 755 -756 758 0
-751 752 -753 754 -755 756 758 0
-751 752 -753 754 -755 -756 -758 0
-751 752 -753 -754 755 756 758 0
-751 752 -753 -754 755 -756 -758 0
-751 752 -753 -754 -755 756 -758 0
-751 -752 753 754 755 -756 758 0
-751 -752 753 754 -755 756 758 0
-751 -752 753 754 -755 -756 -758 0
-751 -752 753 -754 755 756 758 0
-751 -752 753 -754 755 -756 -758 0
-751 -752 753 -754 -755 756 -758 0
-751 -752 -753 754 755 756 758 0
-751 -752 -753 754 755 -756 -758 0
-751 -752 -753 754 -755 756 -758 0
-751 -752 -753 -754 755 756 -758 0
751 752 753 754 755 -756 758 0
751 752 753 754 -755 756 758 0
751 752 753 754 -755 -756 -758 0
751 752 753 -754 755 756 758 0
751 752 753 -754 755 -756 -758 0
751 752 753 -754 -755 756 -758 0
751 752 -753 754 755 756 758 0
751 752 -753 754 755 -756 -758 0
751 752 -753 754 -755 756 -758 0
751 752 -753 -754 755 756 -758 0
751 -752 753 754 755 756 758 0
751 -752 753 754 755 -756 -758 0
751 -752 753 754 -755 756 -758 0
751 -752 753 -754 755 756 -758 0
751 -752 -753 754 755 756 -758 0
-751 752 753 754 755 756 758 0
-751 752 753 754 755 -756 -758 0
-751 752 753 754 -755 756 -758 0
-751 752 753 -754 755 756 -758 0
-751 752 -753 754 755 756 -758 0
-751 -752 753 754 755 756 -758 0
751 752 753 754 755 756 -758 0
-758 -757 0
758 757 0
-18 -23 -27 -28 -30 -32 759 0
18 23 -27 -28 -30 -32 759 0
18 -23 27 -28 -30 -32 759 0
18 -23 -27 28 -30 -32 759 0
18 -23 -27 -28 30 -32 759 0
18 -23 -27 -28 -30 32 759 0
18 -23 -27 -28 -30 -32 -759 0
-18 23 27 -28 -30 -32 759 0
-18 23 -27 28 -30 -32 759 0
-18 23 -27 -28 30 -32 759 0
-18 23 -27 -28 -30 32 759 0
-18 23 -27 -28 -30 -32 -759 0
-18 -23 27 28 -30 -32 759 0
-18 -23 27 -28 30 -32 759 0
-18 -23 27 -28 -30 32 759 0
-18 -23 27 -28 -30 -32 -759 0
-18 -23 -27 28 30 -32 759 0
-18 -23 -27 28 -30 32 759 0
-18 -23 -27 28 -30 -32 -759 0
-18 -23 -27 -28 30 32 759 0
-18 -23 -27 -28 30 -32 -759 0
-18 -23 -27 -28 -30 32 -759 0
18 23 27 28 -30 -32 759 0
18 23 27 -28 30 -32 759 0
18 23 27 -28 -30 32 759 0
18 23 27 -28 -30 -32 -759 0
18 23 -27 28 30 -32 759 0
18 23 -27 28 -30 32 759 0
18 23 -27 28 -30 -32 -759 0
18 23 -27 -28 30 32 759 0
18 23 -27 -28 30 -32 -759 0
18 23 -27 -28 -30 32 -759 0
18 -23 27 28 30 -32 759 0
18 -23 27 28 -30 32 759 0
18 -23 27 28 -30 -32 -759 0
18 -23 27 -28 30 32 759 0
18 -23 27 -28 30 -32 -759 0
18 -23 27 -28 -30 32 -759 0
18 -23 -27 28 30 32 759 0
18 -23 -27 28 30 -32 -759 0
18 -23 -27 28 -30 32 -759 0
18 -23 -27 -28 30 32 -759 0
-18 23 27 28 30 -32 759 0
-18 23 27 28 -30 32 759 0
-18 23 27 28 -30 -32 -759 0
-18 23 27 -28 30 32 759 0
-18 23 27 -28 30 -32 -759 0
-18 23 27 -28 -30 32 -759 0
-18 23 -27 28 30 32 759 0
-18 23 -27 28 30 -32 -759 0
-18 23 -27 28 -30 32 -759 0
-18 23 -27 -28 30 32 -759 0
-18 -23 27 28 30 32 759 0
-18 -23 27 28 30 -32 -759 0
-18 -23 27 28 -30 32 -759 0
-18 -23 27 -28 30 32 -759 0
-18 -23 -27 28 30 32 -759 0
18 23 27 28 30 32 759 0
18 23 27 28 30 -32 -759 0
18 23 27 28 -30 32 -759 0
18 23 27 -28 30 32 -759 0
18 23 -27 28 30 32 -759 0
18 -23 27 28 30 32 -759 0
-18 23 27 28 30 32 -759 0
759 -33 -35 -37 -42 -43 760 0
-759 33 -35 -37 -42 -43 760 0
-759 -33 35 -37 -42 -43 760 0
-759 -33 -35 37 -42 -43 760 0
-759 -33 -35 -37 42 -43 760 0
-759 -33 -35 -37 -42 43 760 0
-759 -33 -35 -37 -42 -43 -760 0
759 33 35 -37 -42 -43 760 0
759 33 -35 37 -42 -43 760 0
759 33 -35 -37 42 -43 760 0
759 33 -35 -37 -42 43 760 0
759 33 -35 -37 -42 -43 -760 0
759 -33 35 37 -42 -43 760 0
759 -33 35 -37 42 -43 760 0
759 -33 35 -37 -42 43 760 0
759 -33 35 -37 -42 -43 -760 0
759 -33 -35 37 42 -43 760 0
759 -33 -35 37 -42 43 760 0
759 -33 -35 37 -42 -43 -760 0
759 -33 -35 -37 42 43 760 0
759 -33 -35 -37 42 -43 -760 0
759 -33 -35 -37 -42 43 -760 0
-759 33 35 37 -42 -43 760 0
-759 33 35 -37 42 -43 760 0
-759 33 35 -37 -42 43 760 0
-759 33 35 -37 -42 -43 -760 0
-759 33 -35 37 42 -43 760 0
-759 33 -35 37 -42 43 760 0
-759 33 -35 37 -42 -43 -760 0
-759 33 -35 -37 42 43 760 0
-759 33 -35 -37 42 -43 -760 0
-759 33 -35 -37 -42 43 -760 0
-759 -33 35 37 42 -43 760 0
-759 -33 35 37 -42 43 760 0
-759 -33 35 37 -42 -43 -760 0
-759 -33 35 -37 42 43 760 0
-759 -33 35 -37 42 -43 -760 0
-759 -33 35 -37 -42 43 -760 0
-759 -33 -35 37 42 43 760 0
-759 -33 -35 37 42 -43 -760 0
-759 -33 -35 37 -42 43 -760 0
-759 -33 -35 -37 42 43 -760 0
759 33 35 37 42 -43 760 0
759 33 35 37 -42 43 760 0
759 33 35 37 -42 -43 -760 0
759 33 35 -37 42 43 760 0
759 33 35 -37 42 -43 -760 0
759 33 35 -37 -42 43 -760 0
759 33 -35 37 42 43 760 0
759 33 -35 37 42 -43 -760 0
759 33 -35 37 -42 43 -760 0
759 33 -35 -37 42 43 -760 0
759 -33 35 37 42 43 760 0
759 -33 35 37 42 -43 -760 0
759 -33 35 37 -42 43 -760 0
759 -33 35 -37 42 43 -760 0
759 -33 -35 37 42 43 -760 0
-759 33 35 37 42 43 760 0
-759 33 35 37 42 -43 -760 0
-759 33 35 37 -42 43 -760 0
-759 33 35 -37 42 43 -760 0
-759 33 -35 37 42 43 -760 0
-759 -33 35 37 42 43 -760 0
759 33 35 37 42 43 -760 0
760 -45 -47 -53 -57 -59 761 0
-760 45 -47 -53 -57 -59 761 0
-760 -45 47 -53 -57 -59 761 0
-760 -45 -47 53 -57 -59 761 0
-760 -45 -47 -53 57 -59 761 0
-760 -45 -47 -53 -57 59 761 0
-760 -45 -47 -53 -57 -59 -761 0
760 45 47 -53 -57 -59 761 0
760 45 -47 53 -57 -59 761 0
760 45 -47 -53 57 -59 761 0
760 45 -47 -53 -57 59 761 0
760 45 -47 -53 -57 -59 -761 0
760 -45 47 53 -57 -59 761 0
760 -45 47 -53 57 -59 761 0
760 -45 47 -53 -57 59 761 0
760 -45 47 -53 -57 -59 -761 0
760 -45 -47 53 57 -59 761 0
760 -45 -47 53 -57 59 761 0
760 -45 -47 53 -57 -59 -761 0
760 -45 -47 -53 57 59 761 0
760 -45 -47 -53 57 -59 -761 0
760 -45 -47 -53 -57 59 -761 0
-760 45 47 53 -57 -59 761 0
-760 45 47 -53 57 -59 761 0
-760 45 47 -53 -57 59 761 0
-760 45 47 -53 -57 -59 -761 0
-760 45 -47 53 57 -59 761 0
-760 45 -47 53 -57 59 761 0
-760 45 -47 53 -57 -59 -761 0
-760 45 -47 -53 57 59 761 0
-760 45 -47 -53 57 -59 -761 0
-760 45 -47 -53 -57 59 -761 0
-760 -45 47 53 57 -59 761 0
-760 -45 47 53 -57 59 761 0
-760 -45 47 53 -57 -59 -761 0
-760 -45 47 -53 57 59 761 0
-760 -45 47 -53 57 -59 -761 0
-760 -45 47 -53 -57 59 -761 0
-760 -45 -47 53 57 59 761 0
-760 -45 -47 53 57 -59 -761 0
-760 -45 -47 53 -57 59 -761 0
-760 -45 -47 -53 57 59 -761 0
760 45 47 53 57 -59 761 0
760 45 47 53 -57 59 761 0
760 45 47 53 -57 -59 -761 0
760 45 47 -53 57 59 761 0
760 45 47 -53 57 -59 -761 0
760 45 47 -53 -57 59 -761 0
760 45 -47 53 57 59 761 0
760 45 -47 53 57 -59 -761 0
760 45 -47 53 -57 59 -761 0
760 45 -47 -53 57 59 -761 0
760 -45 47 53 57 59 761 0
760 -45 47 53 57 -59 -761 0
760 -45 47 53 -57 59 -761 0
760 -45 47 -53 57 59 -761 0
760 -45 -47 53 57 59 -761 0
-760 45 47 53 57 59 761 0
-760 45 47 53 57 -59 -761 0
-760 45 47 53 -57 59 -761 0
-760 45 47 -53 57 59 -761 0
-760 45 -47 53 57 59 -761 0
-760 -45 47 53 57 59 -761 0
760 45 47 53 57 59 -761 0
-761 -60 -61 -66 0
761 60 -61 -66 0
761 -60 61 -66 0
761 -60 -61 66 0
-761 60 61 -66 0
-761 60 -61 66 0
-761 -60 61 66 0
761 60 61 66 0
-762 29 0
-762 -31 0
762 -29 31 0
-763 27 0
-763 33 0
763 -27 -33 0
-764 27 0
-764 31 0
-764 -33 0
764 -27 -31 33 0
-765 -29 0
-765 31 0
-765 33 0
765 29 -31 -33 0
713 -762 -763 -764 -765 -97 0
-713 762 -763 -764 -765 -97 0
-713 -762 763 -764 -765 -97 0
-713 -762 -763 764 -765 -97 0
-713 -762 -763 -764 765 -97 0
-713 -762 -763 -764 -765 97 0
713 762 763 -764 -765 -97 0
713 762 -763 764 -765 -97 0
713 762 -763 -764 765 -97 0
713 762 -763 -764 -765 97 0
713 -762 763 764 -765 -97 0
713 -762 763 -764 765 -97 0
713 -762 763 -764 -765 97 0
713 -762 -763 764 765 -97 0
713 -762 -763 764 -765 97 0
713 -762 -763 -764 765 97 0
-713 762 763 764 -765 -97 0
-713 762 763 -764 765 -97 0
-713 762 763 -764 -765 97 0
-713 762 -763 764 765 -97 0
-713 762 -763 764 -765 97 0
-713 762 -763 -764 765 97 0
-713 -762 763 764 765 -97 0
-713 -762 763 764 -765 97 0
-713 -762 763 -764 765 97 0
-713 -762 -763 764 765 97 0
713 762 763 764 765 -97 0
713 762 763 764 -765 97 0
713 762 763 -764 765 97 0
713 762 -763 764 765 97 0
713 -762 763 764 765 97 0
-713 762 763 764 765 97 0
556 -505 -557 -558 -559 -128 0
-556 505 -557 -558 -559 -128 0
-556 -505 557 -558 -559 -128 0
-556 -505 -557 558 -559 -128 0
-556 -505 -557 -558 559 -128 0
-556 -505 -557 -558 -559 128 0
556 505 557 -558 -559 -128 0
556 505 -557 558 -559 -128 0
556 505 -557 -558 559 -128 0
556 505 -557 -558 -559 128 0
556 -505 557 558 -559 -128 0
556 -505 557 -558 559 -128 0
556 -505 557 -558 -559 128 0
556 -505 -557 558 559 -128 0
556 -505 -557 558 -559 128 0
556 -505 -557 -558 559 128 0
-556 505 557 558 -559 -128 0
-556 505 557 -558 559 -128 0
-556 505 557 -558 -559 128 0
-556 505 -557 558 559 -128 0
-556 505 -557 558 -559 128 0
-556 505 -557 -558 559 128 0
-556 -505 557 558 559 -128 0
-556 -505 557 558 -559 128 0
-556 -505 557 -558 559 128 0
-556 -505 -557 558 559 128 0
556 505 557 558 559 -128 0
556 505 557 558 -559 128 0
556 505 557 -558 559 128 0
556 505 -557 558 559 128 0
556 -505 557 558 559 128 0
-556 505 557 558 559 128 0
325 -326 -327 -328 -329 -159 0
-325 326 -327 -328 -329 -159 0
-325 -326 327 -328 -329 -159 0
-325 -326 -327 328 -329 -159 0
-325 -326 -327 -328 329 -159 0
-325 -326 -327 -328 -329 159 0
325 326 327 -328 -329 -159 0
325 326 -327 328 -329 -159 0
325 326 -327 -328 329 -159 0
325 326 -327 -328 -329 159 0
325 -326 327 328 -329 -159 0
325 -326 327 -328 329 -159 0
325 -326 327 -328 -329 159 0
325 -326 -327 328 329 -159 0
325 -326 -327 328 -329 159 0
325 -326 -327 -328 329 159 0
-325 326 327 328 -329 -159 0
-325 326 327 -328 329 -159 0
-325 326 327 -328 -329 159 0
-325 326 -327 328 329 -159 0
-325 326 -327 328 -329 159 0
-325 326 -327 -328 329 159 0
-325 -326 327 328 329 -159 0
-325 -326 327 328 -329 159 0
-325 -326 327 -328 329 159 0
-325 -326 -327 328 329 159 0
325 326 327 328 329 -159 0
325 326 327 328 -329 159 0
325 326 327 -328 329 159 0
325 326 -327 328 329 159 0
325 -326 327 328 329 159 0
-325 326 327 328 329 159 0
-766 53 0
-766 -55 0
766 -53 55 0
-767 51 0
-767 57 0
767 -51 -57 0
-768 51 0
-768 55 0
-768 -57 0
768 -51 -55 57 0
-769 -53 0
-769 55 0
-769 57 0
769 53 -55 -57 0
720 -766 -767 -768 -769 -190 0
-720 766 -767 -768 -769 -190 0
-720 -766 767 -768 -769 -190 0
-720 -766 -767 768 -769 -190 0
-720 -766 -767 -768 769 -190 0
-720 -766 -767 -768 -769 190 0
720 766 767 -768 -769 -190 0
720 766 -767 768 -769 -190 0
720 766 -767 -768 769 -190 0
720 766 -767 -768 -769 190 0
720 -766 767 768 -769 -190 0
720 -766 767 -768 769 -190 0
720 -766 767 -768 -769 190 0
720 -766 -767 768 769 -190 0
720 -766 -767 768 -769 190 0
720 -766 -767 -768 769 190 0
-720 766 767 768 -769 -190 0
-720 766 767 -768 769 -190 0
-720 766 767 -768 -769 190 0
-720 766 -767 768 769 -190 0
-720 766 -767 768 -769 190 0
-720 766 -767 -768 769 190 0
-720 -766 767 768 769 -190 0
-720 -766 767 768 -769 190 0
-720 -766 767 -768 769 190 0
-720 -766 -767 768 769 190 0
720 766 767 768 769 -190 0
720 766 767 768 -769 190 0
720 766 767 -768 769 190 0
720 766 -767 768 769 190 0
720 -766 767 768 769 190 0
-720 766 767 768 769 190 0
-770 -59 0
-770 63 0
770 59 -63 0
-771 61 0
-771 65 0
771 -61 -65 0
-772 59 0
-772 -63 0
-772 65 0
772 -59 63 -65 0
-773 61 0
-773 63 0
-773 -65 0
773 -61 -63 65 0
770 -727 -771 -772 -773 -221 0
-770 727 -771 -772 -773 -221 0
-770 -727 771 -772 -773 -221 0
-770 -727 -771 772 -773 -221 0
-770 -727 -771 -772 773 -221 0
-770 -727 -771 -772 -773 221 0
770 727 771 -772 -773 -221 0
770 727 -771 772 -773 -221 0
770 727 -771 -772 773 -221 0
770 727 -771 -772 -773 221 0
770 -727 771 772 -773 -221 0
770 -727 771 -772 773 -221 0
770 -727 771 -772 -773 221 0
770 -727 -771 772 773 -221 0
770 -727 -771 772 -773 221 0
770 -727 -771 -772 773 221 0
-770 727 771 772 -773 -221 0
-770 727 771 -772 773 -221 0
-770 727 771 -772 -773 221 0
-770 727 -771 772 773 -221 0
-770 727 -771 772 -773 221 0
-770 727 -771 -772 773 221 0
-770 -727 771 772 773 -221 0
-770 -727 771 772 -773 221 0
-770 -727 771 -772 773 221 0
-770 -727 -771 772 773 221 0
770 727 771 772 773 -221 0
770 727 771 772 -773 221 0
770 727 771 -772 773 221 0
770 727 -771 772 773 221 0
770 -727 771 772 773 221 0
-770 727 771 772 773 221 0
-774 97 0
-774 -159 0
774 -97 159 0
-775 97 0
-775 -128 0
-775 190 0
775 -97 128 -190 0
-776 -97 0
-776 221 0
776 97 -221 0
-777 97 0
-777 128 0
-777 -159 0
-777 221 0
777 -97 -128 159 -221 0
-778 -97 0
-778 190 0
-778 221 0
778 97 -190 -221 0
-779 128 0
-779 190 0
-779 221 0
779 -128 -190 -221 0
-780 128 0
-780 159 0
-780 190 0
-780 -221 0
780 -128 -159 -190 221 0
774 -775 -776 -777 -778 -779 781 0
-774 775 -776 -777 -778 -779 781 0
-774 -775 776 -777 -778 -779 781 0
-774 -775 -776 777 -778 -779 781 0
-774 -775 -776 -777 778 -779 781 0
-774 -775 -776 -777 -778 779 781 0
-774 -775 -776 -777 -778 -779 -781 0
774 775 776 -777 -778 -779 781 0
774 775 -776 777 -778 -779 781 0
774 775 -776 -777 778 -779 781 0
774 775 -776 -777 -778 779 781 0
774 775 -776 -777 -778 -779 -781 0
774 -775 776 777 -778 -779 781 0
774 -775 776 -777 778 -779 781 0
774 -775 776 -777 -778 779 781 0
774 -775 776 -777 -778 -779 -781 0
774 -775 -776 777 778 -779 781 0
774 -775 -776 777 -778 779 781 0
774 -775 -776 777 -778 -779 -781 0
774 -775 -776 -777 778 779 781 0
774 -775 -776 -777 778 -779 -781 0
774 -775 -776 -777 -778 779 -781 0
-774 775 776 777 -778 -779 781 0
-774 775 776 -777 778 -779 781 0
-774 775 776 -777 -778 779 781 0
-774 775 776 -777 -778 -779 -781 0
-774 775 -776 777 778 -779 781 0
-774 775 -776 777 -778 779 781 0
-774 775 -776 777 -778 -779 -781 0
-774 775 -776 -777 778 779 781 0
-774 775 -776 -777 778 -779 -781 0
-774 775 -776 -777 -778 779 -781 0
-774 -775 776 777 778 -779 781 0
-774 -775 776 777 -778 779 781 0
-774 -775 776 777 -778 -779 -781 0
-774 -775 776 -777 778 779 781 0
-774 -775 776 -777 778 -779 -781 0
-774 -775 776 -777 -778 779 -781 0
-774 -775 -776 777 778 779 781 0
-774 -775 -776 777 778 -779 -781 0
-774 -775 -776 777 -778 779 -781 0
-774 -775 -776 -777 778 779 -781 0
774 775 776 777 778 -779 781 0
774 775 776 777 -778 779 781 0
774 775 776 777 -778 -779 -781 0
774 775 776 -777 778 779 781 0
774 775 776 -777 778 -779 -781 0
774 775 776 -777 -778 779 -781 0
774 775 -776 777 778 779 781 0
774 775 -776 777 778 -779 -781 0
774 775 -776 777 -778 779 -781 0
774 775 -776 -777 778 779 -781 0
774 -775 776 777 778 779 781 0
774 -775 776 777 778 -779 -781 0
774 -775 776 777 -778 779 -781 0
774 -775 776 -777 778 779 -781 0
774 -775 -776 777 778 779 -781 0
-774 775 776 777 778 779 781 0
-774 775 776 777 778 -779 -781 0
-774 775 776 777 -778 779 -781 0
-774 775 776 -777 778 779 -781 0
-774 775 -776 777 778 779 -781 0
-774 -775 776 777 778 779 -781 0
774 775 776 777 778 779 -781 0
-781 -780 0
781 780 0
-19 -24 -28 -29 -31 -33 782 0
19 24 -28 -29 -31 -33 782 0
19 -24 28 -29 -31 -33 782 0
19 -24 -28 29 -31 -33 782 0
19 -24 -28 -29 31 -33 782 0
19 -24 -28 -29 -31 33 782 0
19 -24 -28 -29 -31 -33 -782 0
-19 24 28 -29 -31 -33 782 0
-19 24 -28 29 -31 -33 782 0
-19 24 -28 -29 31 -33 782 0
-19 24 -28 -29 -31 33 782 0
-19 24 -28 -29 -31 -33 -782 0
-19 -24 28 29 -31 -33 782 0
-19 -24 28 -29 31 -33 782 0
-19 -24 28 -29 -31 33 782 0
-19 -24 28 -29 -31 -33 -782 0
-19 -24 -28 29 31 -33 782 0
-19 -24 -28 29 -31 33 782 0
-19 -24 -28 29 -31 -33 -782 0
-19 -24 -28 -29 31 33 782 0
-19 -24 -28 -29 31 -33 -782 0
-19 -24 -28 -29 -31 33 -782 0
19 24 28 29 -31 -33 782 0
19 24 28 -29 31 -33 782 0
19 24 28 -29 -31 33 782 0
19 24 28 -29 -31 -33 -782 0
19 24 -28 29 31 -33 782 0
19 24 -28 29 -31 33 782 0
19 24 -28 29 -31 -33 -782 0
19 24 -28 -29 31 33 782 0
19 24 -28 -29 31 -33 -782 0
19 24 -28 -29 -31 33 -782 0
19 -24 28 29 31 -33 782 0
19 -24 28 29 -31 33 782 0
19 -24 28 29 -31 -33 -782 0
19 -24 28 -29 31 33 782 0
19 -24 28 -29 31 -33 -782 0
19 -24 28 -29 -31 33 -782 0
19 -24 -28 29 31 33 782 0
19 -24 -28 29 31 -33 -782 0
19 -24 -28 29 -31 33 -782 0
19 -24 -28 -29 31 33 -782 0
-19 24 28 29 31 -33 782 0
-19 24 28 29 -31 33 782 0
-19 24 28 29 -31 -33 -782 0
-19 24 28 -29 31 33 782 0
-19 24 28 -29 31 -33 -782 0
-19 24 28 -29 -31 33 -782 0
-19 24 -28 29 31 33 782 0
-19 24 -28 29 31 -33 -782 0
-19 24 -28 29 -31 33 -782 0
-19 24 -28 -29 31 33 -782 0
-19 -24 28 29 31 33 782 0
-19 -24 28 29 31 -33 -782 0
-19 -24 28 29 -31 33 -782 0
-19 -24 28 -29 31 33 -782 0
-19 -24 -28 29 31 33 -782 0
19 24 28 29 31 33 782 0
19 24 28 29 31 -33 -782 0
19 24 28 29 -31 33 -782 0
19 24 28 -29 31 33 -782 0
19 24 -28 29 31 33 -782 0
19 -24 28 29 31 33 -782 0
-19 24 28 29 31 33 -782 0
782 -34 -36 -38 -43 -44 783 0
-782 34 -36 -38 -43 -44 783 0
-782 -34 36 -38 -43 -44 783 0
-782 -34 -36 38 -43 -44 783 0
-782 -34 -36 -38 43 -44 783 0
-782 -34 -36 -38 -43 44 783 0
-782 -34 -36 -38 -43 -44 -783 0
782 34 36 -38 -43 -44 783 0
782 34 -36 38 -43 -44 783 0
782 34 -36 -38 43 -44 783 0
782 34 -36 -38 -43 44 783 0
782 34 -36 -38 -43 -44 -783 0
782 -34 36 38 -43 -44 783 0
782 -34 36 -38 43 -44 783 0
782 -34 36 -38 -43 44 783 0
782 -34 36 -38 -43 -44 -783 0
782 -34 -36 38 43 -44 783 0
782 -34 -36 38 -43 44 783 0
782 -34 -36 38 -43 -44 -783 0
782 -34 -36 -38 43 44 783 0
782 -34 -36 -38 43 -44 -783 0
782 -34 -36 -38 -43 44 -783 0
-782 34 36 38 -43 -44 783 0
-782 34 36 -38 43 -44 783 0
-782 34 36 -38 -43 44 783 0
-782 34 36 -38 -43 -44 -783 0
-782 34 -36 38 43 -44 783 0
-782 34 -36 38 -43 44 783 0
-782 34 -36 38 -43 -44 -783 0
-782 34 -36 -38 43 44 783 0
-782 34 -36 -38 43 -44 -783 0
-782 34 -36 -38 -43 44 -783 0
-782 -34 36 38 43 -44 783 0
-782 -34 36 38 -43 44 783 0
-782 -34 36 38 -43 -44 -783 0
-782 -34 36 -38 43 44 783 0
-782 -34 36 -38 43 -44 -783 0
-782 -34 36 -38 -43 44 -783 0
-782 -34 -36 38 43 44 783 0
-782 -34 -36 38 43 -44 -783 0
-782 -34 -36 38 -43 44 -783 0
-782 -34 -36 -38 43 44 -783 0
782 34 36 38 43 -44 783 0
782 34 36 38 -43 44 783 0
782 34 36 38 -43 -44 -783 0
782 34 36 -38 43 44 783 0
782 34 36 -38 43 -44 -783 0
782 34 36 -38 -43 44 -783 0
782 34 -36 38 43 44 783 0
782 34 -36 38 43 -44 -783 0
782 34 -36 38 -43 44 -783 0
782 34 -36 -38 43 44 -783 0
782 -34 36 38 43 44 783 0
782 -34 36 38 43 -44 -783 0
782 -34 36 38 -43 44 -783 0
782 -34 36 -38 43 44 -783 0
782 -34 -36 38 43 44 -783 0
-782 34 36 38 43 44 783 0
-782 34 36 38 43 -44 -783 0
-782 34 36 38 -43 44 -783 0
-782 34 36 -38 43 44 -783 0
-782 34 -36 38 43 44 -783 0
-782 -34 36 38 43 44 -783 0
782 34 36 38 43 44 -783 0
783 -46 -48 -54 -58 -60 784 0
-783 46 -48 -54 -58 -60 784 0
-783 -46 48 -54 -58 -60 784 0
-783 -46 -48 54 -58 -60 784 0
-783 -46 -48 -54 58 -60 784 0
-783 -46 -48 -54 -58 60 784 0
-783 -46 -48 -54 -58 -60 -784 0
783 46 48 -54 -58 -60 784 0
783 46 -48 54 -58 -60 784 0
783 46 -48 -54 58 -60 784 0
783 46 -48 -54 -58 60 784 0
783 46 -48 -54 -58 -60 -784 0
783 -46 48 54 -58 -60 784 0
783 -46 48 -54 58 -60 784 0
783 -46 48 -54 -58 60 784 0
783 -46 48 -54 -58 -60 -784 0
783 -46 -48 54 58 -60 784 0
783 -46 -48 54 -58 60 784 0
783 -46 -48 54 -58 -60 -784 0
783 -46 -48 -54 58 60 784 0
783 -46 -48 -54 58 -60 -784 0
783 -46 -48 -54 -58 60 -784 0
-783 46 48 54 -58 -60 784 0
-783 46 48 -54 58 -60 784 0
-783 46 48 -54 -58 60 784 0
-783 46 48 -54 -58 -60 -784 0
-783 46 -48 54 58 -60 784 0
-783 46 -48 54 -58 60 784 0
-783 46 -48 54 -58 -60 -784 0
-783 46 -48 -54 58 60 784 0
-783 46 -48 -54 58 -60 -784 0
-783 46 -48 -54 -58 60 -784 0
-783 -46 48 54 58 -60 784 0
-783 -46 48 54 -58 60 784 0
-783 -46 48 54 -58 -60 -784 0
-783 -46 48 -54 58 60 784 0
-783 -46 48 -54 58 -60 -784 0
-783 -46 48 -54 -58 60 -784 0
-783 -46 -48 54 58 60 784 0
-783 -46 -48 54 58 -60 -784 0
-783 -46 -48 54 -58 60 -784 0
-783 -46 -48 -54 58 60 -784 0
783 46 48 54 58 -60 784 0
783 46 48 54 -58 60 784 0
783 46 48 54 -58 -60 -784 0
783 46 48 -54 58 60 784 0
783 46 48 -54 58 -60 -784 0
783 46 48 -54 -58 60 -784 0
783 46 -48 54 58 60 784 0
783 46 -48 54 58 -60 -784 0
783 46 -48 54 -58 60 -784 0
783 46 -48 -54 58 60 -784 0
783 -46 48 54 58 60 784 0
783 -46 48 54 58 -60 -784 0
783 -46 48 54 -58 60 -784 0
783 -46 48 -54 58 60 -784 0
783 -46 -48 54 58 60 -784 0
-783 46 48 54 58 60 784 0
-783 46 48 54 58 -60 -784 0
-783 46 48 54 -58 60 -784 0
-783 46 48 -54 58 60 -784 0
-783 46 -48 54 58 60 -784 0
-783 -46 48 54 58 60 -784 0
783 46 48 54 58 60 -784 0
-784 -61 -62 -67 0
784 61 -62 -67 0
784 -61 62 -67 0
784 -61 -62 67 0
-784 61 62 -67 0
-784 61 -62 67 0
-784 -61 62 67 0
784 61 62 67 0
-785 30 0
-785 -32 0
785 -30 32 0
-786 28 0
-786 34 0
786 -28 -34 0
-787 28 0
-787 32 0
-787 -34 0
787 -28 -32 34 0
-788 -30 0
-788 32 0
-788 34 0
788 30 -32 -34 0
739 -785 -786 -787 -788 -98 0
-739 785 -786 -787 -788 -98 0
-739 -785 786 -787 -788 -98 0
-739 -785 -786 787 -788 -98 0
-739 -785 -786 -787 788 -98 0
-739 -785 -786 -787 -788 98 0
739 785 786 -787 -788 -98 0
739 785 -786 787 -788 -98 0
739 785 -786 -787 788 -98 0
739 785 -786 -787 -788 98 0
739 -785 786 787 -788 -98 0
739 -785 786 -787 788 -98 0
739 -785 786 -787 -788 98 0
739 -785 -786 787 788 -98 0
739 -785 -786 787 -788 98 0
739 -785 -786 -787 788 98 0
-739 785 786 787 -788 -98 0
-739 785 786 -787 788 -98 0
-739 785 786 -787 -788 98 0
-739 785 -786 787 788 -98 0
-739 785 -786 787 -788 98 0
-739 785 -786 -787 788 98 0
-739 -785 786 787 788 -98 0
-739 -785 786 787 -788 98 0
-739 -785 786 -787 788 98 0
-739 -785 -786 787 788 98 0
739 785 786 787 788 -98 0
739 785 786 787 -788 98 0
739 785 786 -787 788 98 0
739 785 -786 787 788 98 0
739 -785 786 787 788 98 0
-739 785 786 787 788 98 0
583 -532 -584 -585 -586 -129 0
-583 532 -584 -585 -586 -129 0
-583 -532 584 -585 -586 -129 0
-583 -532 -584 585 -586 -129 0
-583 -532 -584 -585 586 -129 0
-583 -532 -584 -585 -586 129 0
583 532 584 -585 -586 -129 0
583 532 -584 585 -586 -129 0
583 532 -584 -585 586 -129 0
583 532 -584 -585 -586 129 0
583 -532 584 585 -586 -129 0
583 -532 584 -585 586 -129 0
583 -532 584 -585 -586 129 0
583 -532 -584 585 586 -129 0
583 -532 -584 585 -586 129 0
583 -532 -584 -585 586 129 0
-583 532 584 585 -586 -129 0
-583 532 584 -585 586 -129 0
-583 532 584 -585 -586 129 0
-583 532 -584 585 586 -129 0
-583 532 -584 585 -586 129 0
-583 532 -584 -585 586 129 0
-583 -532 584 585 586 -129 0
-583 -532 584 585 -586 129 0
-583 -532 584 -585 586 129 0
-583 -532 -584 585 586 129 0
583 532 584 585 586 -129 0
583 532 584 585 -586 129 0
583 532 584 -585 586 129 0
583 532 -584 585 586 129 0
583 -532 584 585 586 129 0
-583 532 584 585 586 129 0
357 -293 -358 -359 -360 -160 0
-357 293 -358 -359 -360 -160 0
-357 -293 358 -359 -360 -160 0
-357 -293 -358 359 -360 -160 0
-357 -293 -358 -359 360 -160 0
-357 -293 -358 -359 -360 160 0
357 293 358 -359 -360 -160 0
357 293 -358 359 -360 -160 0
357 293 -358 -359 360 -160 0
357 293 -358 -359 -360 160 0
357 -293 358 359 -360 -160 0
357 -293 358 -359 360 -160 0
357 -293 358 -359 -360 160 0
357 -293 -358 359 360 -160 0
357 -293 -358 359 -360 160 0
357 -293 -358 -359 360 160 0
-357 293 358 359 -360 -160 0
-357 293 358 -359 360 -160 0
-357 293 358 -359 -360 160 0
-357 293 -358 359 360 -160 0
-357 293 -358 359 -360 160 0
-357 293 -358 -359 360 160 0
-357 -293 358 359 360 -160 0
-357 -293 358 359 -360 160 0
-357 -293 358 -359 360 160 0
-357 -293 -358 359 360 160 0
357 293 358 359 360 -160 0
357 293 358 359 -360 160 0
357 293 358 -359 360 160 0
357 293 -358 359 360 160 0
357 -293 358 359 360 160 0
-357 293 358 359 360 160 0
-789 54 0
-789 -56 0
789 -54 56 0
-790 52 0
-790 58 0
790 -52 -58 0
-791 52 0
-791 56 0
-791 -58 0
791 -52 -56 58 0
-792 -54 0
-792 56 0
-792 58 0
792 54 -56 -58 0
743 -789 -790 -791 -792 -191 0
-743 789 -790 -791 -792 -191 0
-743 -789 790 -791 -792 -191 0
-743 -789 -790 791 -792 -191 0
-743 -789 -790 -791 792 -191 0
-743 -789 -790 -791 -792 191 0
743 789 790 -791 -792 -191 0
743 789 -790 791 -792 -191 0
743 789 -790 -791 792 -191 0
743 789 -790 -791 -792 191 0
743 -789 790 791 -792 -191 0
743 -789 790 -791 792 -191 0
743 -789 790 -791 -792 191 0
743 -789 -790 791 792 -191 0
743 -789 -790 791 -792 191 0
743 -789 -790 -791 792 191 0
-743 789 790 791 -792 -191 0
-743 789 790 -791 792 -191 0
-743 789 790 -791 -792 191 0
-743 789 -790 791 792 -191 0
-743 789 -790 791 -792 191 0
-743 789 -790 -791 792 191 0
-743 -789 790 791 792 -191 0
-743 -789 790 791 -792 191 0
-743 -789 790 -791 792 191 0
-743 -789 -790 791 792 191 0
743 789 790 791 792 -191 0
743 789 790 791 -792 191 0
743 789 790 -791 792 191 0
743 789 -790 791 792 191 0
743 -789 790 791 792 191 0
-743 789 790 791 792 191 0
-793 -60 0
-793 64 0
793 60 -64 0
-794 62 0
-794 66 0
794 -62 -66 0
-795 60 0
-795 -64 0
-795 66 0
795 -60 64 -66 0
-796 62 0
-796 64 0
-796 -66 0
796 -62 -64 66 0
793 -750 -794 -795 -796 -222 0
-793 750 -794 -795 -796 -222 0
-793 -750 794 -795 -796 -222 0
-793 -750 -794 795 -796 -222 0
-793 -750 -794 -795 796 -222 0
-793 -750 -794 -795 -796 222 0
793 750 794 -795 -796 -222 0
793 750 -794 795 -796 -222 0
793 750 -794 -795 796 -222 0
793 750 -794 -795 -796 222 0
793 -750 794 795 -796 -222 0
793 -750 794 -795 796 -222 0
793 -750 794 -795 -796 222 0
793 -750 -794 795 796 -222 0
793 -750 -794 795 -796 222 0
793 -750 -794 -795 796 222 0
-793 750 794 795 -796 -222 0
-793 750 794 -795 796 -222 0
-793 750 794 -795 -796 222 0
-793 750 -794 795 796 -222 0
-793 750 -794 795 -796 222 0
-793 750 -794 -795 796 222 0
-793 -750 794 795 796 -222 0
-793 -750 794 795 -796 222 0
-793 -750 794 -795 796 222 0
-793 -750 -794 795 796 222 0
793 750 794 795 796 -222 0
793 750 794 795 -796 222 0
793 750 794 -795 796 222 0
793 750 -794 795 796 222 0
793 -750 794 795 796 222 0
-793 750 794 795 796 222 0
-797 98 0
-797 -160 0
797 -98 160 0
-798 98 0
-798 -129 0
-798 191 0
798 -98 129 -191 0
-799 -98 0
-799 222 0
799 98 -222 0
-800 98 0
-800 129 0
-800 -160 0
-800 222 0
800 -98 -129 160 -222 0
-801 -98 0
-801 191 0
-801 222 0
801 98 -191 -222 0
-802 129 0
-802 191 0
-802 222 0
802 -129 -191 -222 0
-803 129 0
-803 160 0
-803 191 0
-803 -222 0
803 -129 -160 -191 222 0
797 -798 -799 -800 -801 -802 804 0
-797 798 -799 -800 -801 -802 804 0
-797 -798 799 -800 -801 -802 804 0
-797 -798 -799 800 -801 -802 804 0
-797 -798 -799 -800 801 -802 804 0
-797 -798 -799 -800 -801 802 804 0
-797 -798 -799 -800 -801 -802 -804 0
797 798 799 -800 -801 -802 804 0
797 798 -799 800 -801 -802 804 0
797 798 -799 -800 801 -802 804 0
797 798 -799 -800 -801 802 804 0
797 798 -799 -800 -801 -802 -804 0
797 -798 799 800 -801 -802 804 0
797 -798 799 -800 801 -802 804 0
797 -798 799 -800 -801 802 804 0
797 -798 799 -800 -801 -802 -804 0
797 -798 -799 800 801 -802 804 0
797 -798 -799 800 -801 802 804 0
797 -798 -799 800 -801 -802 -804 0
797 -798 -799 -800 801 802 804 0
797 -798 -799 -800 801 -802 -804 0
797 -798 -799 -800 -801 802 -804 0
-797 798 799 800 -801 -802 804 0
-797 798 799 -800 801 -802 804 0
-797 798 799 -800 -801 802 804 0
-797 798 799 -800 -801 -802 -804 0
-797 798 -799 800 801 -802 804 0
-797 798 -799 800 -801 802 804 0
-797 798 -799 800 -801 -802 -804 0
-797 798 -799 -800 801 802 804 0
-797 798 -799 -800 801 -802 -804 0
-797 798 -799 -800 -801 802 -804 0
-797 -798 799 800 801 -802 804 0
-797 -798 799 800 -801 802 804 0
-797 -798 799 800 -801 -802 -804 0
-797 -798 799 -800 801 802 804 0
-797 -798 799 -800 801 -802 -804 0
-797 -798 799 -800 -801 802 -804 0
-797 -798 -799 800 801 802 804 0
-797 -798 -799 800 801 -802 -804 0
-797 -798 -799 800 -801 802 -804 0
-797 -798 -799 -800 801 802 -804 0
797 798 799 800 801 -802 804 0
797 798 799 800 -801 802 804 0
797 798 799 800 -801 -802 -804 0
797 798 799 -800 801 802 804 0
797 798 799 -800 801 -802 -804 0
797 798 799 -800 -801 802 -804 0
797 798 -799 800 801 802 804 0
797 798 -799 800 801 -802 -804 0
797 798 -799 800 -801 802 -804 0
797 798 -799 -800 801 802 -804 0
797 -798 799 800 801 802 804 0
797 -798 799 800 801 -802 -804 0
797 -798 799 800 -801 802 -804 0
797 -798 799 -800 801 802 -804 0
797 -798 -799 800 801 802 -804 0
-797 798 799 800 801 802 804 0
-797 798 799 800 801 -802 -804 0
-797 798 799 800 -801 802 -804 0
-797 798 799 -800 801 802 -804 0
-797 798 -799 800 801 802 -804 0
-797 -798 799 800 801 802 -804 0
797 798 799 800 801 802 -804 0
-804 -803 0
804 803 0
-20 -25 -29 -30 -32 -34 805 0
20 25 -29 -30 -32 -34 805 0
20 -25 29 -30 -32 -34 805 0
20 -25 -29 30 -32 -34 805 0
20 -25 -29 -30 32 -34 805 0
20 -25 -29 -30 -32 34 805 0
20 -25 -29 -30 -32 -34 -805 0
-20 25 29 -30 -32 -34 805 0
-20 25 -29 30 -32 -34 805 0
-20 25 -29 -30 32 -34 805 0
-20 25 -29 -30 -32 34 805 0
-20 25 -29 -30 -32 -34 -805 0
-20 -25 29 30 -32 -34 805 0
-20 -25 29 -30 32 -34 805 0
-20 -25 29 -30 -32 34 805 0
-20 -25 29 -30 -32 -34 -805 0
-20 -25 -29 30 32 -34 805 0
-20 -25 -29 30 -32 34 805 0
-20 -25 -29 30 -32 -34 -805 0
-20 -25 -29 -30 32 34 805 0
-20 -25 -29 -30 32 -34 -805 0
-20 -25 -29 -30 -32 34 -805 0
20 25 29 30 -32 -34 805 0
20 25 29 -30 32 -34 805 0
20 25 29 -30 -32 34 805 0
20 25 29 -30 -32 -34 -805 0
20 25 -29 30 32 -34 805 0
20 25 -29 30 -32 34 805 0
20 25 -29 30 -32 -34 -805 0
20 25 -29 -30 32 34 805 0
20 25 -29 -30 32 -34 -805 0
20 25 -29 -30 -32 34 -805 0
20 -25 29 30 32 -34 805 0
20 -25 29 30 -32 34 805 0
20 -25 29 30 -32 -34 -805 0
20 -25 29 -30 32 34 805 0
20 -25 29 -30 32 -34 -805 0
20 -25 29 -30 -32 34 -805 0
20 -25 -29 30 32 34 805 0
20 -25 -29 30 32 -34 -805 0
20 -25 -29 30 -32 34 -805 0
20 -25 -29 -30 32 34 -805 0
-20 25 29 30 32 -34 805 0
-20 25 29 30 -32 34 805 0
-20 25 29 30 -32 -34 -805 0
-20 25 29 -30 32 34 805 0
-20 25 29 -30 32 -34 -805 0
-20 25 29 -30 -32 34 -805 0
-20 25 -29 30 32 34 805 0
-20 25 -29 30 32 -34 -805 0
-20 25 -29 30 -32 34 -805 0
-20 25 -29 -30 32 34 -805 0
-20 -25 29 30 32 34 805 0
-20 -25 29 30 32 -34 -805 0
-20 -25 29 30 -32 34 -805 0
-20 -25 29 -30 32 34 -805 0
-20 -25 -29 30 32 34 -805 0
20 25 29 30 32 34 805 0
20 25 29 30 32 -34 -805 0
20 25 29 30 -32 34 -805 0
20 25 29 -30 32 34 -805 0
20 25 -29 30 32 34 -805 0
20 -25 29 30 32 34 -805 0
-20 25 29 30 32 34 -805 0
805 -35 -37 -39 -44 -45 806 0
-805 35 -37 -39 -44 -45 806 0
-805 -35 37 -39 -44 -45 806 0
-805 -35 -37 39 -44 -45 806 0
-805 -35 -37 -39 44 -45 806 0
-805 -35 -37 -39 -44 45 806 0
-805 -35 -37 -39 -44 -45 -806 0
805 35 37 -39 -44 -45 806 0
805 35 -37 39 -44 -45 806 0
805 35 -37 -39 44 -45 806 0
805 35 -37 -39 -44 45 806 0
805 35 -37 -39 -44 -45 -806 0
805 -35 37 39 -44 -45 806 0
805 -35 37 -39 44 -45 806 0
805 -35 37 -39 -44 45 806 0
805 -35 37 -39 -44 -45 -806 0
805 -35 -37 39 44 -45 806 0
805 -35 -37 39 -44 45 806 0
805 -35 -37 39 -44 -45 -806 0
805 -35 -37 -39 44 45 806 0
805 -35 -37 -39 44 -45 -806 0
805 -35 -37 -39 -44 45 -806 0
-805 35 37 39 -44 -45 806 0
-805 35 37 -39 44 -45 806 0
-805 35 37 -39 -44 45 806 0
-805 35 37 -39 -44 -45 -806 0
-805 35 -37 39 44 -45 806 0
-805 35 -37 39 -44 45 806 0
-805 35 -37 39 -44 -45 -806 0
-805 35 -37 -39 44 45 806 0
-805 35 -37 -39 44 -45 -806 0
-805 35 -37 -39 -44 45 -806 0
-805 -35 37 39 44 -45 806 0
-805 -35 37 39 -44 45 806 0
-805 -35 37 39 -44 -45 -806 0
-805 -35 37 -39 44 45 806 0
-805 -35 37 -39 44 -45 -806 0
-805 -35 37 -39 -44 45 -806 0
-805 -35 -37 39 44 45 806 0
-805 -35 -37 39 44 -45 -806 0
-805 -35 -37 39 -44 45 -806 0
-805 -35 -37 -39 44 45 -806 0
805 35 37 39 44 -45 806 0
805 35 37 39 -44 45 806 0
805 35 37 39 -44 -45 -806 0
805 35 37 -39 44 45 806 0
805 35 37 -39 44 -45 -806 0
805 35 37 -39 -44 45 -806 0
805 35 -37 39 44 45 806 0
805 35 -37 39 44 -45 -806 0
805 35 -37 39 -44 45 -806 0
805 35 -37 -39 44 45 -806 0
805 -35 37 39 44 45 806 0
805 -35 37 39 44 -45 -806 0
805 -35 37 39 -44 45 -806 0
805 -35 37 -39 44 45 -806 0
805 -35 -37 39 44 45 -806 0
-805 35 37 39 44 45 806 0
-805 35 37 39 44 -45 -806 0
-805 35 37 39 -44 45 -806 0
-805 35 37 -39 44 45 -806 0
-805 35 -37 39 44 45 -806 0
-805 -35 37 39 44 45 -806 0
805 35 37 39 44 45 -806 0
806 -47 -49 -55 -59 -61 807 0
-806 47 -49 -55 -59 -61 807 0
-806 -47 49 -55 -59 -61 807 0
-806 -47 -49 55 -59 -61 807 0
-806 -47 -49 -55 59 -61 807 0
-806 -47 -49 -55 -59 61 807 0
-806 -47 -49 -55 -59 -61 -807 0
806 47 49 -55 -59 -61 807 0
806 47 -49 55 -59 -61 807 0
806 47 -49 -55 59 -61 807 0
806 47 -49 -55 -59 61 807 0
806 47 -49 -55 -59 -61 -807 0
806 -47 49 55 -59 -61 807 0
806 -47 49 -55 59 -61 807 0
806 -47 49 -55 -59 61 807 0
806 -47 49 -55 -59 -61 -807 0
806 -47 -49 55 59 -61 807 0
806 -47 -49 55 -59 61 807 0
806 -47 -49 55 -59 -61 -807 0
806 -47 -49 -55 59 61 807 0
806 -47 -49 -55 59 -61 -807 0
806 -47 -49 -55 -59 61 -807 0
-806 47 49 55 -59 -61 807 0
-806 47 49 -55 59 -61 807 0
-806 47 49 -55 -59 61 807 0
-806 47 49 -55 -59 -61 -807 0
-806 47 -49 55 59 -61 807 0
-806 47 -49 55 -59 61 807 0
-806 47 -49 55 -59 -61 -807 0
-806 47 -49 -55 59 61 807 0
-806 47 -49 -55 59 -61 -807 0
-806 47 -49 -55 -59 61 -807 0
-806 -47 49 55 59 -61 807 0
-806 -47 49 55 -59 61 807 0
-806 -47 49 55 -59 -61 -807 0
-806 -47 49 -55 59 61 807 0
-806 -47 49 -55 59 -61 -807 0
-806 -47 49 -55 -59 61 -807 0
-806 -47 -49 55 59 61 807 0
-806 -47 -49 55 59 -61 -807 0
-806 -47 -49 55 -59 61 -807 0
-806 -47 -49 -55 59 61 -807 0
806 47 49 55 59 -61 807 0
806 47 49 55 -59 61 807 0
806 47 49 55 -59 -61 -807 0
806 47 49 -55 59 61 807 0
806 47 49 -55 59 -61 -807 0
806 47 49 -55 -59 61 -807 0
806 47 -49 55 59 61 807 0
806 47 -49 55 59 -61 -807 0
806 47 -49 55 -59 61 -807 0
806 47 -49 -55 59 61 -807 0
806 -47 49 55 59 61 807 0
806 -47 49 55 59 -61 -807 0
806 -47 49 55 -59 61 -807 0
806 -47 49 -55 59 61 -807 0
806 -47 -49 55 59 61 -807 0
-806 47 49 55 59 61 807 0
-806 47 49 55 59 -61 -807 0
-806 47 49 55 -59 61 -807 0
-806 47 49 -55 59 61 -807 0
-806 47 -49 55 59 61 -807 0
-806 -47 49 55 59 61 -807 0
806 47 49 55 59 61 -807 0
-807 -62 -63 -68 0
807 62 -63 -68 0
807 -62 63 -68 0
807 -62 -63 68 0
-807 62 63 -68 0
-807 62 -63 68 0
-807 -62 63 68 0
807 62 63 68 0
-808 31 0
-808 -33 0
808 -31 33 0
-809 29 0
-809 35 0
809 -29 -35 0
-810 29 0
-810 33 0
-810 -35 0
810 -29 -33 35 0
-811 -31 0
-811 33 0
-811 35 0
811 31 -33 -35 0
762 -808 -809 -810 -811 -99 0
-762 808 -809 -810 -811 -99 0
-762 -808 809 -810 -811 -99 0
-762 -808 -809 810 -811 -99 0
-762 -808 -809 -810 811 -99 0
-762 -808 -809 -810 -811 99 0
762 808 809 -810 -811 -99 0
762 808 -809 810 -811 -99 0
762 808 -809 -810 811 -99 0
762 808 -809 -810 -811 99 0
762 -808 809 810 -811 -99 0
762 -808 809 -810 811 -99 0
762 -808 809 -810 -811 99 0
762 -808 -809 810 811 -99 0
762 -808 -809 810 -811 99 0
762 -808 -809 -810 811 99 0
-762 808 809 810 -811 -99 0
-762 808 809 -810 811 -99 0
-762 808 809 -810 -811 99 0
-762 808 -809 810 811 -99 0
-762 808 -809 810 -811 99 0
-762 808 -809 -810 811 99 0
-762 -808 809 810 811 -99 0
-762 -808 809 810 -811 99 0
-762 -808 809 -810 811 99 0
-762 -808 -809 810 811 99 0
762 808 809 810 811 -99 0
762 808 809 810 -811 99 0
762 808 809 -810 811 99 0
762 808 -809 810 811 99 0
762 -808 809 810 811 99 0
-762 808 809 810 811 99 0
610 -559 -611 -612 -613 -130 0
-610 559 -611 -612 -613 -130 0
-610 -559 611 -612 -613 -130 0
-610 -559 -611 612 -613 -130 0
-610 -559 -611 -612 613 -130 0
-610 -559 -611 -612 -613 130 0
610 559 611 -612 -613 -130 0
610 559 -611 612 -613 -130 0
610 559 -611 -612 613 -130 0
610 559 -611 -612 -613 130 0
610 -559 611 612 -613 -130 0
610 -559 611 -612 613 -130 0
610 -559 611 -612 -613 130 0
610 -559 -611 612 613 -130 0
610 -559 -611 612 -613 130 0
610 -559 -611 -612 613 130 0
-610 559 611 612 -613 -130 0
-610 559 611 -612 613 -130 0
-610 559 611 -612 -613 130 0
-610 559 -611 612 613 -130 0
-610 559 -611 612 -613 130 0
-610 559 -611 -612 613 130 0
-610 -559 611 612 613 -130 0
-610 -559 611 612 -613 130 0
-610 -559 611 -612 613 130 0
-610 -559 -611 612 613 130 0
610 559 611 612 613 -130 0
610 559 611 612 -613 130 0
610 559 611 -612 613 130 0
610 559 -611 612 613 130 0
610 -559 611 612 613 130 0
-610 559 611 612 613 130 0
388 -329 -389 -390 -391 -161 0
-388 329 -389 -390 -391 -161 0
-388 -329 389 -390 -391 -161 0
-388 -329 -389 390 -391 -161 0
-388 -329 -389 -390 391 -161 0
-388 -329 -389 -390 -391 161 0
388 329 389 -390 -391 -161 0
388 329 -389 390 -391 -161 0
388 329 -389 -390 391 -161 0
388 329 -389 -390 -391 161 0
388 -329 389 390 -391 -161 0
388 -329 389 -390 391 -161 0
388 -329 389 -390 -391 161 0
388 -329 -389 390 391 -161 0
388 -329 -389 390 -391 161 0
388 -329 -389 -390 391 161 0
-388 329 389 390 -391 -161 0
-388 329 389 -390 391 -161 0
-388 329 389 -390 -391 161 0
-388 329 -389 390 391 -161 0
-388 329 -389 390 -391 161 0
-388 329 -389 -390 391 161 0
-388 -329 389 390 391 -161 0
-388 -329 389 390 -391 161 0
-388 -329 389 -390 391 161 0
-388 -329 -389 390 391 161 0
388 329 389 390 391 -161 0
388 329 389 390 -391 161 0
388 329 389 -390 391 161 0
388 329 -389 390 391 161 0
388 -329 389 390 391 161 0
-388 329 389 390 391 161 0
-812 55 0
-812 -57 0
812 -55 57 0
-813 53 0
-813 59 0
813 -53 -59 0
-814 53 0
-814 57 0
-814 -59 0
814 -53 -57 59 0
-815 -55 0
-815 57 0
-815 59 0
815 55 -57 -59 0
766 -812 -813 -814 -815 -192 0
-766 812 -813 -814 -815 -192 0
-766 -812 813 -814 -815 -192 0
-766 -812 -813 814 -815 -192 0
-766 -812 -813 -814 815 -192 0
-766 -812 -813 -814 -815 192 0
766 812 813 -814 -815 -192 0
766 812 -813 814 -815 -192 0
766 812 -813 -814 815 -192 0
766 812 -813 -814 -815 192 0
766 -812 813 814 -815 -192 0
766 -812 813 -814 815 -192 0
766 -812 813 -814 -815 192 0
766 -812 -813 814 815 -192 0
766 -812 -813 814 -815 192 0
766 -812 -813 -814 815 192 0
-766 812 813 814 -815 -192 0
-766 812 813 -814 815 -192 0
-766 812 813 -814 -815 192 0
-766 812 -813 814 815 -192 0
-766 812 -813 814 -815 192 0
-766 812 -813 -814 815 192 0
-766 -812 813 814 815 -192 0
-766 -812 813 814 -815 192 0
-766 -812 813 -814 815 192 0
-766 -812 -813 814 815 192 0
766 812 813 814 815 -192 0
766 812 813 814 -815 192 0
766 812 813 -814 815 192 0
766 812 -813 814 815 192 0
766 -812 813 814 815 192 0
-766 812 813 814 815 192 0
-816 -61 0
-816 65 0
816 61 -65 0
-817 63 0
-817 67 0
817 -63 -67 0
-818 61 0
-818 -65 0
-818 67 0
818 -61 65 -67 0
-819 63 0
-819 65 0
-819 -67 0
819 -63 -65 67 0
816 -773 -817 -818 -819 -223 0
-816 773 -817 -818 -819 -223 0
-816 -773 817 -818 -819 -223 0
-816 -773 -817 818 -819 -223 0
-816 -773 -817 -818 819 -223 0
-816 -773 -817 -818 -819 223 0
816 773 817 -818 -819 -223 0
816 773 -817 818 -819 -223 0
816 773 -817 -818 819 -223 0
816 773 -817 -818 -819 223 0
816 -773 817 818 -819 -223 0
816 -773 817 -818 819 -223 0
816 -773 817 -818 -819 223 0
816 -773 -817 818 819 -223 0
816 -773 -817 818 -819 223 0
816 -773 -817 -818 819 223 0
-816 773 817 818 -819 -223 0
-816 773 817 -818 819 -223 0
-816 773 817 -818 -819 223 0
-816 773 -817 818 819 -223 0
-816 773 -817 818 -819 223 0
-816 773 -817 -818 819 223 0
-816 -773 817 818 819 -223 0
-816 -773 817 818 -819 223 0
-816 -773 817 -818 819 223 0
-816 -773 -817 818 819 223 0
816 773 817 818 819 -223 0
816 773 817 818 -819 223 0
816 773 817 -818 819 223 0
816 773 -817 818 819 223 0
816 -773 817 818 819 223 0
-816 773 817 818 819 223 0
-820 99 0
-820 -161 0
820 -99 161 0
-821 99 0
-821 -130 0
-821 192 0
821 -99 130 -192 0
-822 -99 0
-822 223 0
822 99 -223 0
-823 99 0
-823 130 0
-823 -161 0
-823 223 0
823 -99 -130 161 -223 0
-824 -99 0
-824 192 0
-824 223 0
824 99 -192 -223 0
-825 130 0
-825 192 0
-825 223 0
825 -130 -192 -223 0
-826 130 0
-826 161 0
-826 192 0
-826 -223 0
826 -130 -161 -192 223 0
820 -821 -822 -823 -824 -825 827 0
-820 821 -822 -823 -824 -825 827 0
-820 -821 822 -823 -824 -825 827 0
-820 -821 -822 823 -824 -825 827 0
-820 -821 -822 -823 824 -825 827 0
-820 -821 -822 -823 -824 825 827 0
-820 -821 -822 -823 -824 -825 -827 0
820 821 822 -823 -824 -825 827 0
820 821 -822 823 -824 -825 827 0
820 821 -822 -823 824 -825 827 0
820 821 -822 -823 -824 825 827 0
820 821 -822 -823 -824 -825 -827 0
820 -821 822 823 -824 -825 827 0
820 -821 822 -823 824 -825 827 0
820 -821 822 -823 -824 825 827 0
820 -821 822 -823 -824 -825 -827 0
820 -821 -822 823 824 -825 827 0
820 -821 -822 823 -824 825 827 0
820 -821 -822 823 -824 -825 -827 0
820 -821 -822 -823 824 825 827 0
820 -821 -822 -823 824 -825 -827 0
820 -821 -822 -823 -824 825 -827 0
-820 821 822 823 -824 -825 827 0
-820 821 822 -823 824 -825 827 0
-820 821 822 -823 -824 825 827 0
-820 821 822 -823 -824 -825 -827 0
-820 821 -822 823 824 -825 827 0
-820 821 -822 823 -824 825 827 0
-820 821 -822 823 -824 -825 -827 0
-820 821 -822 -823 824 825 827 0
-820 821 -822 -823 824 -825 -827 0
-820 821 -822 -823 -824 825 -827 0
-820 -821 822 823 824 -825 827 0
-820 -821 822 823 -824 825 827 0
-820 -821 822 823 -824 -825 -827 0
-820 -821 822 -823 824 825 827 0
-820 -821 822 -823 824 -825 -827 0
-820 -821 822 -823 -824 825 -827 0
-820 -821 -822 823 824 825 827 0
-820 -821 -822 823 824 -825 -827 0
-820 -821 -822 823 -824 825 -827 0
-820 -821 -822 -823 824 825 -827 0
820 821 822 823 824 -825 827 0
820 821 822 823 -824 825 827 0
820 821 822 823 -824 -825 -827 0
820 821 822 -823 824 825 827 0
820 821 822 -823 824 -825 -827 0
820 821 822 -823 -824 825 -827 0
820 821 -822 823 824 825 827 0
820 821 -822 823 824 -825 -827 0
820 821 -822 823 -824 825 -827 0
820 821 -822 -823 824 825 -827 0
820 -821 822 823 824 825 827 0
820 -821 822 823 824 -825 -827 0
820 -821 822 823 -824 825 -827 0
820 -821 822 -823 824 825 -827 0
820 -821 -822 823 824 825 -827 0
-820 821 822 823 824 825 827 0
-820 821 822 823 824 -825 -827 0
-820 821 822 823 -824 825 -827 0
-820 821 822 -823 824 825 -827 0
-820 821 -822 823 824 825 -827 0
-820 -821 822 823 824 825 -827 0
820 821 822 823 824 825 -827 0
-827 -826 0
827 826 0
-21 -26 -30 -31 -33 -35 828 0
21 26 -30 -31 -33 -35 828 0
21 -26 30 -31 -33 -35 828 0
21 -26 -30 31 -33 -35 828 0
21 -26 -30 -31 33 -35 828 0
21 -26 -30 -31 -33 35 828 0
21 -26 -30 -31 -33 -35 -828 0
-21 26 30 -31 -33 -35 828 0
-21 26 -30 31 -33 -35 828 0
-21 26 -30 -31 33 -35 828 0
-21 26 -30 -31 -33 35 828 0
-21 26 -30 -31 -33 -35 -828 0
-21 -26 30 31 -33 -35 828 0
-21 -26 30 -31 33 -35 828 0
-21 -26 30 -31 -33 35 828 0
-21 -26 30 -31 -33 -35 -828 0
-21 -26 -30 31 33 -35 828 0
-21 -26 -30 31 -33 35 828 0
-21 -26 -30 31 -33 -35 -828 0
-21 -26 -30 -31 33 35 828 0
-21 -26 -30 -31 33 -35 -828 0
-21 -26 -30 -31 -33 35 -828 0
21 26 30 31 -33 -35 828 0
21 26 30 -31 33 -35 828 0
21 26 30 -31 -33 35 828 0
21 26 30 -31 -33 -35 -828 0
21 26 -30 31 33 -35 828 0
21 26 -30 31 -33 35 828 0
21 26 -30 31 -33 -35 -828 0
21 26 -30 -31 33 35 828 0
21 26 -30 -31 33 -35 -828 0
21 26 -30 -31 -33 35 -828 0
21 -26 30 31 33 -35 828 0
21 -26 30 31 -33 35 828 0
21 -26 30 31 -33 -35 -828 0
21 -26 30 -31 33 35 828 0
21 -26 30 -31 33 -35 -828 0
21 -26 30 -31 -33 35 -828 0
21 -26 -30 31 33 35 828 0
21 -26 -30 31 33 -35 -828 0
21 -26 -30 31 -33 35 -828 0
21 -26 -30 -31 33 35 -828 0
-21 26 30 31 33 -35 828 0
-21 26 30 31 -33 35 828 0
-21 26 30 31 -33 -35 -828 0
-21 26 30 -31 33 35 828 0
-21 26 30 -31 33 -35 -828 0
-21 26 30 -31 -33 35 -828 0
-21 26 -30 31 33 35 828 0
-21 26 -30 31 33 -35 -828 0
-21 26 -30 31 -33 35 -828 0
-21 26 -30 -31 33 35 -828 0
-21 -26 30 31 33 35 828 0
-21 -26 30 31 33 -35 -828 0
-21 -26 30 31 -33 35 -828 0
-21 -26 30 -31 33 35 -828 0
-21 -26 -30 31 33 35 -828 0
21 26 30 31 33 35 828 0
21 26 30 31 33 -35 -828 0
21 26 30 31 -33 35 -828 0
21 26 30 -31 33 35 -828 0
21 26 -30 31 33 35 -828 0
21 -26 30 31 33 35 -828 0
-21 26 30 31 33 35 -828 0
828 -36 -38 -40 -45 -46 829 0
-828 36 -38 -40 -45 -46 829 0
-828 -36 38 -40 -45 -46 829 0
-828 -36 -38 40 -45 -46 829 0
-828 -36 -38 -40 45 -46 829 0
-828 -36 -38 -40 -45 46 829 0
-828 -36 -38 -40 -45 -46 -829 0
828 36 38 -40 -45 -46 829 0
828 36 -38 40 -45 -46 829 0
828 36 -38 -40 45 -46 829 0
828 36 -38 -40 -45 46 829 0
828 36 -38 -40 -45 -46 -829 0
828 -36 38 40 -45 -46 829 0
828 -36 38 -40 45 -46 829 0
828 -36 38 -40 -45 46 829 0
828 -36 38 -40 -45 -46 -829 0
828 -36 -38 40 45 -46 829 0
828 -36 -38 40 -45 46 829 0
828 -36 -38 40 -45 -46 -829 0
828 -36 -38 -40 45 46 829 0
828 -36 -38 -40 45 -46 -829 0
828 -36 -38 -40 -45 46 -829 0
-828 36 38 40 -45 -46 829 0
-828 36 38 -40 45 -46 829 0
-828 36 38 -40 -45 46 829 0
-828 36 38 -40 -45 -46 -829 0
-828 36 -38 40 45 -46 829 0
-828 36 -38 40 -45 46 829 0
-828 36 -38 40 -45 -46 -829 0
-828 36 -38 -40 45 46 829 0
-828 36 -38 -40 45 -46 -829 0
-828 36 -38 -40 -45 46 -829 0
-828 -36 38 40 45 -46 829 0
-828 -36 38 40 -45 46 829 0
-828 -36 38 40 -45 -46 -829 0
-828 -36 38 -40 45 46 829 0
-828 -36 38 -40 45 -46 -829 0
-828 -36 38 -40 -45 46 -829 0
-828 -36 -38 40 45 46 829 0
-828 -36 -38 40 45 -46 -829 0
-828 -36 -38 40 -45 46 -829 0
-828 -36 -38 -40 45 46 -829 0
828 36 38 40 45 -46 829 0
828 36 38 40 -45 46 829 0
828 36 38 40 -45 -46 -829 0
828 36 38 -40 45 46 829 0
828 36 38 -40 45 -46 -829 0
828 36 38 -40 -45 46 -829 0
828 36 -38 40 45 46 829 0
828 36 -38 40 45 -46 -829 0
828 36 -38 40 -45 46 -829 0
828 36 -38 -40 45 46 -829 0
828 -36 38 40 45 46 829 0
828 -36 38 40 45 -46 -829 0
828 -36 38 40 -45 46 -829 0
828 -36 38 -40 45 46 -829 0
828 -36 -38 40 45 46 -829 0
-828 36 38 40 45 46 829 0
-828 36 38 40 45 -46 -829 0
-828 36 38 40 -45 46 -829 0
-828 36 38 -40 45 46 -829 0
-828 36 -38 40 45 46 -829 0
-828 -36 38 40 45 46 -829 0
828 36 38 40 45 46 -829 0
829 -48 -50 -56 -60 -62 830 0
-829 48 -50 -56 -60 -62 830 0
-829 -48 50 -56 -60 -62 830 0
-829 -48 -50 56 -60 -62 830 0
-829 -48 -50 -56 60 -62 830 0
-829 -48 -50 -56 -60 62 830 0
-829 -48 -50 -56 -60 -62 -830 0
829 48 50 -56 -60 -62 830 0
829 48 -50 56 -60 -62 830 0
829 48 -50 -56 60 -62 830 0
829 48 -50 -56 -60 62 830 0
829 48 -50 -56 -60 -62 -830 0
829 -48 50 56 -60 -62 830 0
829 -48 50 -56 60 -62 830 0
829 -48 50 -56 -60 62 830 0
829 -48 50 -56 -60 -62 -830 0
829 -48 -50 56 60 -62 830 0
829 -48 -50 56 -60 62 830 0
829 -48 -50 56 -60 -62 -830 0
829 -48 -50 -56 60 62 830 0
829 -48 -50 -56 60 -62 -830 0
829 -48 -50 -56 -60 62 -830 0
-829 48 50 56 -60 -62 830 0
-829 48 50 -56 60 -62 830 0
-829 48 50 -56 -60 62 830 0
-829 48 50 -56 -60 -62 -830 0
-829 48 -50 56 60 -62 830 0
-829 48 -50 56 -60 62 830 0
-829 48 -50 56 -60 -62 -830 0
-829 48 -50 -56 60 62 830 0
-829 48 -50 -56 60 -62 -830 0
-829 48 -50 -56 -60 62 -830 0
-829 -48 50 56 60 -62 830 0
-829 -48 50 56 -60 62 830 0
-829 -48 50 56 -60 -62 -830 0
-829 -48 50 -56 60 62 830 0
-829 -48 50 -56 60 -62 -830 0
-829 -48 50 -56 -60 62 -830 0
-829 -48 -50 56 60 62 830 0
-829 -48 -50 56 60 -62 -830 0
-829 -48 -50 56 -60 62 -830 0
-829 -48 -50 -56 60 62 -830 0
829 48 50 56 60 -62 830 0
829 48 50 56 -60 62 830 0
829 48 50 56 -60 -62 -830 0
829 48 50 -56 60 62 830 0
829 48 50 -56 60 -62 -830 0
829 48 50 -56 -60 62 -830 0
829 48 -50 56 60 62 830 0
829 48 -50 56 60 -62 -830 0
829 48 -50 56 -60 62 -830 0
829 48 -50 -56 60 62 -830 0
829 -48 50 56 60 62 830 0
829 -48 50 56 60 -62 -830 0
829 -48 50 56 -60 62 -830 0
829 -48 50 -56 60 62 -830 0
829 -48 -50 56 60 62 -830 0
-829 48 50 56 60 62 830 0
-829 48 50 56 60 -62 -830 0
-829 48 50 56 -60 62 -830 0
-829 48 50 -56 60 62 -830 0
-829 48 -50 56 60 62 -830 0
-829 -48 50 56 60 62 -830 0
829 48 50 56 60 62 -830 0
-830 -63 -64 -69 0
830 63 -64 -69 0
830 -63 64 -69 0
830 -63 -64 69 0
-830 63 64 -69 0
-830 63 -64 69 0
-830 -63 64 69 0
830 63 64 69 0
-831 32 0
-831 -34 0
831 -32 34 0
-832 30 0
-832 36 0
832 -30 -36 0
-833 30 0
-833 34 0
-833 -36 0
833 -30 -34 36 0
-834 -32 0
-834 34 0
-834 36 0
834 32 -34 -36 0
785 -831 -832 -833 -834 -100 0
-785 831 -832 -833 -834 -100 0
-785 -831 832 -833 -834 -100 0
-785 -831 -832 833 -834 -100 0
-785 -831 -832 -833 834 -100 0
-785 -831 -832 -833 -834 100 0
785 831 832 -833 -834 -100 0
785 831 -832 833 -834 -100 0
785 831 -832 -833 834 -100 0
785 831 -832 -833 -834 100 0
785 -831 832 833 -834 -100 0
785 -831 832 -833 834 -100 0
785 -831 832 -833 -834 100 0
785 -831 -832 833 834 -100 0
785 -831 -832 833 -834 100 0
785 -831 -832 -833 834 100 0
-785 831 832 833 -834 -100 0
-785 831 832 -833 834 -100 0
-785 831 832 -833 -834 100 0
-785 831 -832 833 834 -100 0
-785 831 -832 833 -834 100 0
-785 831 -832 -833 834 100 0
-785 -831 832 833 834 -100 0
-785 -831 832 833 -834 100 0
-785 -831 832 -833 834 100 0
-785 -831 -832 833 834 100 0
785 831 832 833 834 -100 0
785 831 832 833 -834 100 0
785 831 832 -833 834 100 0
785 831 -832 833 834 100 0
785 -831 832 833 834 100 0
-785 831 832 833 834 100 0
637 -586 -638 -639 -640 -131 0
-637 586 -638 -639 -640 -131 0
-637 -586 638 -639 -640 -131 0
-637 -586 -638 639 -640 -131 0
-637 -586 -638 -639 640 -131 0
-637 -586 -638 -639 -640 131 0
637 586 638 -639 -640 -131 0
637 586 -638 639 -640 -131 0
637 586 -638 -639 640 -131 0
637 586 -638 -639 -640 131 0
637 -586 638 639 -640 -131 0
637 -586 638 -639 640 -131 0
637 -586 638 -639 -640 131 0
637 -586 -638 639 640 -131 0
637 -586 -638 639 -640 131 0
637 -586 -638 -639 640 131 0
-637 586 638 639 -640 -131 0
-637 586 638 -639 640 -131 0
-637 586 638 -639 -640 131 0
-637 586 -638 639 640 -131 0
-637 586 -638 639 -640 131 0
-637 586 -638 -639 640 131 0
-637 -586 638 639 640 -131 0
-637 -586 638 639 -640 131 0
-637 -586 638 -639 640 131 0
-637 -586 -638 639 640 131 0
637 586 638 639 640 -131 0
637 586 638 639 -640 131 0
637 586 638 -639 640 131 0
637 586 -638 639 640 131 0
637 -586 638 639 640 131 0
-637 586 638 639 640 131 0
419 -360 -420 -421 -422 -162 0
-419 360 -420 -421 -422 -162 0
-419 -360 420 -421 -422 -162 0
-419 -360 -420 421 -422 -162 0
-419 -360 -420 -421 422 -162 0
-419 -360 -420 -421 -422 162 0
419 360 420 -421 -422 -162 0
419 360 -420 421 -422 -162 0
419 360 -420 -421 422 -162 0
419 360 -420 -421 -422 162 0
419 -360 420 421 -422 -162 0
419 -360 420 -421 422 -162 0
419 -360 420 -421 -422 162 0
419 -360 -420 421 422 -162 0
419 -360 -420 421 -422 162 0
419 -360 -420 -421 422 162 0
-419 360 420 421 -422 -162 0
-419 360 420 -421 422 -162 0
-419 360 420 -421 -422 162 0
-419 360 -420 421 422 -162 0
-419 360 -420 421 -422 162 0
-419 360 -420 -421 422 162 0
-419 -360 420 421 422 -162 0
-419 -360 420 421 -422 162 0
-419 -360 420 -421 422 162 0
-419 -360 -420 421 422 162 0
419 360 420 421 422 -162 0
419 360 420 421 -422 162 0
419 360 420 -421 422 162 0
419 360 -420 421 422 162 0
419 -360 420 421 422 162 0
-419 360 420 421 422 162 0
-835 56 0
-835 -58 0
835 -56 58 0
-836 54 0
-836 60 0
836 -54 -60 0
-837 54 0
-837 58 0
-837 -60 0
837 -54 -58 60 0
-838 -56 0
-838 58 0
-838 60 0
838 56 -58 -60 0
789 -835 -836 -837 -838 -193 0
-789 835 -836 -837 -838 -193 0
-789 -835 836 -837 -838 -193 0
-789 -835 -836 837 -838 -193 0
-789 -835 -836 -837 838 -193 0
-789 -835 -836 -837 -838 193 0
789 835 836 -837 -838 -193 0
789 835 -836 837 -838 -193 0
789 835 -836 -837 838 -193 0
789 835 -836 -837 -838 193 0
789 -835 836 837 -838 -193 0
789 -835 836 -837 838 -193 0
789 -835 836 -837 -838 193 0
789 -835 -836 837 838 -193 0
789 -835 -836 837 -838 193 0
789 -835 -836 -837 838 193 0
-789 835 836 837 -838 -193 0
-789 835 836 -837 838 -193 0
-789 835 836 -837 -838 193 0
-789 835 -836 837 838 -193 0
-789 835 -836 837 -838 193 0
-789 835 -836 -837 838 193 0
-789 -835 836 837 838 -193 0
-789 -835 836 837 -838 193 0
-789 -835 836 -837 838 193 0
-789 -835 -836 837 838 193 0
789 835 836 837 838 -193 0
789 835 836 837 -838 193 0
789 835 836 -837 838 193 0
789 835 -836 837 838 193 0
789 -835 836 837 838 193 0
-789 835 836 837 838 193 0
-839 -62 0
-839 66 0
839 62 -66 0
-840 64 0
-840 68 0
840 -64 -68 0
-841 62 0
-841 -66 0
-841 68 0
841 -62 66 -68 0
-842 64 0
-842 66 0
-842 -68 0
842 -64 -66 68 0
839 -796 -840 -841 -842 -224 0
-839 796 -840 -841 -842 -224 0
-839 -796 840 -841 -842 -224 0
-839 -796 -840 841 -842 -224 0
-839 -796 -840 -841 842 -224 0
-839 -796 -840 -841 -842 224 0
839 796 840 -841 -842 -224 0
839 796 -840 841 -842 -224 0
839 796 -840 -841 842 -224 0
839 796 -840 -841 -842 224 0
839 -796 840 841 -842 -224 0
839 -796 840 -841 842 -224 0
839 -796 840 -841 -842 224 0
839 -796 -840 841 842 -224 0
839 -796 -840 841 -842 224 0
839 -796 -840 -841 842 224 0
-839 796 840 841 -842 -224 0
-839 796 840 -841 842 -224 0
-839 796 840 -841 -842 224 0
-839 796 -840 841 842 -224 0
-839 796 -840 841 -842 224 0
-839 796 -840 -841 842 224 0
-839 -796 840 841 842 -224 0
-839 -796 840 841 -842 224 0
-839 -796 840 -841 842 224 0
-839 -796 -840 841 842 224 0
839 796 840 841 842 -224 0
839 796 840 841 -842 224 0
839 796 840 -841 842 224 0
839 796 -840 841 842 224 0
839 -796 840 841 842 224 0
-839 796 840 841 842 224 0
-843 100 0
-843 -162 0
843 -100 162 0
-844 100 0
-844 -131 0
-844 193 0
844 -100 131 -193 0
-845 -100 0
-845 224 0
845 100 -224 0
-846 100 0
-846 131 0
-846 -162 0
-846 224 0
846 -100 -131 162 -224 0
-847 -100 0
-847 193 0
-847 224 0
847 100 -193 -224 0
-848 131 0
-848 193 0
-848 224 0
848 -131 -193 -224 0
-849 131 0
-849 162 0
-849 193 0
-849 -224 0
849 -131 -162 -193 224 0
-843 -844 -845 -846 -847 -848 850 0
843 844 -845 -846 -847 -848 850 0
843 -844 845 -846 -847 -848 850 0
843 -844 -845 846 -847 -848 850 0
843 -844 -845 -846 847 -848 850 0
843 -844 -845 -846 -847 848 850 0
843 -844 -845 -846 -847 -848 -850 0
-843 844 845 -846 -847 -848 850 0
-843 844 -845 846 -847 -848 850 0
-843 844 -845 -846 847 -848 850 0
-843 844 -845 -846 -847 848 850 0
-843 844 -845 -846 -847 -848 -850 0
-843 -844 845 846 -847 -848 850 0
-843 -844 845 -846 847 -848 850 0
-843 -844 845 -846 -847 848 850 0
-843 -844 845 -846 -847 -848 -850 0
-843 -844 -845 846 847 -848 850 0
-843 -844 -845 846 -847 848 850 0
-843 -844 -845 846 -847 -848 -850 0
-843 -844 -845 -846 847 848 850 0
-843 -844 -845 -846 847 -848 -850 0
-843 -844 -845 -846 -847 848 -850 0
843 844 845 846 -847 -848 850 0
843 844 845 -846 847 -848 850 0
843 844 845 -846 -847 848 850 0
843 844 845 -846 -847 -848 -850 0
843 844 -845 846 847 -848 850 0
843 844 -845 846 -847 848 850 0
843 844 -845 846 -847 -848 -850 0
843 844 -845 -846 847 848 850 0
843 844 -845 -846 847 -848 -850 0
843 844 -845 -846 -847 848 -850 0
843 -844 845 846 847 -848 850 0
843 -844 845 846 -847 848 850 0
843 -844 845 846 -847 -848 -850 0
843 -844 845 -846 847 848 850 0
843 -844 845 -846 847 -848 -850 0
843 -844 845 -846 -847 848 -850 0
843 -844 -845 846 847 848 850 0
843 -844 -845 846 847 -848 -850 0
843 -844 -845 846 -847 848 -850 0
843 -844 -845 -846 847 848 -850 0
-843 844 845 846 847 -848 850 0
-843 844 845 846 -847 848 850 0
-843 844 845 846 -847 -848 -850 0
-843 844 845 -846 847 848 850 0
-843 844 845 -846 847 -848 -850 0
-843 844 845 -846 -847 848 -850 0
-843 844 -845 846 847 848 850 0
-843 844 -845 846 847 -848 -850 0
-843 844 -845 846 -847 848 -850 0
-843 844 -845 -846 847 848 -850 0
-843 -844 845 846 847 848 850 0
-843 -844 845 846 847 -848 -850 0
-843 -844 845 846 -847 848 -850 0
-843 -844 845 -846 847 848 -850 0
-843 -844 -845 846 847 848 -850 0
843 844 845 846 847 848 850 0
843 844 845 846 847 -848 -850 0
843 844 845 846 -847 848 -850 0
843 844 845 -846 847 848 -850 0
843 844 -845 846 847 848 -850 0
843 -844 845 846 847 848 -850 0
-843 844 845 846 847 848 -850 0
-850 -849 0
850 849 0
-22 -27 -31 -32 -34 -36 851 0
22 27 -31 -32 -34 -36 851 0
22 -27 31 -32 -34 -36 851 0
22 -27 -31 32 -34 -36 851 0
22 -27 -31 -32 34 -36 851 0
22 -27 -31 -32 -34 36 851 0
22 -27 -31 -32 -34 -36 -851 0
-22 27 31 -32 -34 -36 851 0
-22 27 -31 32 -34 -36 851 0
-22 27 -31 -32 34 -36 851 0
-22 27 -31 -32 -34 36 851 0
-22 27 -31 -32 -34 -36 -851 0
-22 -27 31 32 -34 -36 851 0
-22 -27 31 -32 34 -36 851 0
-22 -27 31 -32 -34 36 851 0
-22 -27 31 -32 -34 -36 -851 0
-22 -27 -31 32 34 -36 851 0
-22 -27 -31 32 -34 36 851 0
-22 -27 -31 32 -34 -36 -851 0
-22 -27 -31 -32 34 36 851 0
-22 -27 -31 -32 34 -36 -851 0
-22 -27 -31 -32 -34 36 -851 0
22 27 31 32 -34 -36 851 0
22 27 31 -32 34 -36 851 0
22 27 31 -32 -34 36 851 0
22 27 31 -32 -34 -36 -851 0
22 27 -31 32 34 -36 851 0
22 27 -31 32 -34 36 851 0
22 27 -31 32 -34 -36 -851 0
22 27 -31 -32 34 36 851 0
22 27 -31 -32 34 -36 -851 0
22 27 -31 -32 -34 36 -851 0
22 -27 31 32 34 -36 851 0
22 -27 31 32 -34 36 851 0
22 -27 31 32 -34 -36 -851 0
22 -27 31 -32 34 36 851 0
22 -27 31 -32 34 -36 -851 0
22 -27 31 -32 -34 36 -851 0
22 -27 -31 32 34 36 851 0
22 -27 -31 32 34 -36 -851 0
22 -27 -31 32 -34 36 -851 0
22 -27 -31 -32 34 36 -851 0
-22 27 31 32 34 -36 851 0
-22 27 31 32 -34 36 851 0
-22 27 31 32 -34 -36 -851 0
-22 27 31 -32 34 36 851 0
-22 27 31 -32 34 -36 -851 0
-22 27 31 -32 -34 36 -851 0
-22 27 -31 32 34 36 851 0
-22 27 -31 32 34 -36 -851 0
-22 27 -31 32 -34 36 -851 0
-22 27 -31 -32 34 36 -851 0
-22 -27 31 32 34 36 851 0
-22 -27 31 32 34 -36 -851 0
-22 -27 31 32 -34 36 -851 0
-22 -27 31 -32 34 36 -851 0
-22 -27 -31 32 34 36 -851 0
22 27 31 32 34 36 851 0
22 27 31 32 34 -36 -851 0
22 27 31 32 -34 36 -851 0
22 27 31 -32 34 36 -851 0
22 27 -31 32 34 36 -851 0
22 -27 31 32 34 36 -851 0
-22 27 31 32 34 36 -851 0
851 -37 -39 -41 -46 -47 852 0
-851 37 -39 -41 -46 -47 852 0
-851 -37 39 -41 -46 -47 852 0
-851 -37 -39 41 -46 -47 852 0
-851 -37 -39 -41 46 -47 852 0
-851 -37 -39 -41 -46 47 852 0
-851 -37 -39 -41 -46 -47 -852 0
851 37 39 -41 -46 -47 852 0
851 37 -39 41 -46 -47 852 0
851 37 -39 -41 46 -47 852 0
851 37 -39 -41 -46 47 852 0
851 37 -39 -41 -46 -47 -852 0
851 -37 39 41 -46 -47 852 0
851 -37 39 -41 46 -47 852 0
851 -37 39 -41 -46 47 852 0
851 -37 39 -41 -46 -47 -852 0
851 -37 -39 41 46 -47 852 0
851 -37 -39 41 -46 47 852 0
851 -37 -39 41 -46 -47 -852 0
851 -37 -39 -41 46 47 852 0
851 -37 -39 -41 46 -47 -852 0
851 -37 -39 -41 -46 47 -852 0
-851 37 39 41 -46 -47 852 0
-851 37 39 -41 46 -47 852 0
-851 37 39 -41 -46 47 852 0
-851 37 39 -41 -46 -47 -852 0
-851 37 -39 41 46 -47 852 0
-851 37 -39 41 -46 47 852 0
-851 37 -39 41 -46 -47 -852 0
-851 37 -39 -41 46 47 852 0
-851 37 -39 -41 46 -47 -852 0
-851 37 -39 -41 -46 47 -852 0
-851 -37 39 41 46 -47 852 0
-851 -37 39 41 -46 47 852 0
-851 -37 39 41 -46 -47 -852 0
-851 -37 39 -41 46 47 852 0
-851 -37 39 -41 46 -47 -852 0
-851 -37 39 -41 -46 47 -852 0
-851 -37 -39 41 46 47 852 0
-851 -37 -39 41 46 -47 -852 0
-851 -37 -39 41 -46 47 -852 0
-851 -37 -39 -41 46 47 -852 0
851 37 39 41 46 -47 852 0
851 37 39 41 -46 47 852 0
851 37 39 41 -46 -47 -852 0
851 37 39 -41 46 47 852 0
851 37 39 -41 46 -47 -852 0
851 37 39 -41 -46 47 -852 0
851 37 -39 41 46 47 852 0
851 37 -39 41 46 -47 -852 0
851 37 -39 41 -46 47 -852 0
851 37 -39 -41 46 47 -852 0
851 -37 39 41 46 47 852 0
851 -37 39 41 46 -47 -852 0
851 -37 39 41 -46 47 -852 0
851 -37 39 -41 46 47 -852 0
851 -37 -39 41 46 47 -852 0
-851 37 39 41 46 47 852 0
-851 37 39 41 46 -47 -852 0
-851 37 39 41 -46 47 -852 0
-851 37 39 -41 46 47 -852 0
-851 37 -39 41 46 47 -852 0
-851 -37 39 41 46 47 -852 0
851 37 39 41 46 47 -852 0
852 -49 -51 -57 -61 -63 853 0
-852 49 -51 -57 -61 -63 853 0
-852 -49 51 -57 -61 -63 853 0
-852 -49 -51 57 -61 -63 853 0
-852 -49 -51 -57 61 -63 853 0
-852 -49 -51 -57 -61 63 853 0
-852 -49 -51 -57 -61 -63 -853 0
852 49 51 -57 -61 -63 853 0
852 49 -51 57 -61 -63 853 0
852 49 -51 -57 61 -63 853 0
852 49 -51 -57 -61 63 853 0
852 49 -51 -57 -61 -63 -853 0
852 -49 51 57 -61 -63 853 0
852 -49 51 -57 61 -63 853 0
852 -49 51 -57 -61 63 853 0
852 -49 51 -57 -61 -63 -853 0
852 -49 -51 57 61 -63 853 0
852 -49 -51 57 -61 63 853 0
852 -49 -51 57 -61 -63 -853 0
852 -49 -51 -57 61 63 853 0
852 -49 -51 -57 61 -63 -853 0
852 -49 -51 -57 -61 63 -853 0
-852 49 51 57 -61 -63 853 0
-852 49 51 -57 61 -63 853 0
-852 49 51 -57 -61 63 853 0
-852 49 51 -57 -61 -63 -853 0
-852 49 -51 57 61 -63 853 0
-852 49 -51 57 -61 63 853 0
-852 49 -51 57 -61 -63 -853 0
-852 49 -51 -57 61 63 853 0
-852 49 -51 -57 61 -63 -853 0
-852 49 -51 -57 -61 63 -853 0
-852 -49 51 57 61 -63 853 0
-852 -49 51 57 -61 63 853 0
-852 -49 51 57 -61 -63 -853 0
-852 -49 51 -57 61 63 853 0
-852 -49 51 -57 61 -63 -853 0
-852 -49 51 -57 -61 63 -853 0
-852 -49 -51 57 61 63 853 0
-852 -49 -51 57 61 -63 -853 0
-852 -49 -51 57 -61 63 -853 0
-852 -49 -51 -57 61 63 -853 0
852 49 51 57 61 -63 853 0
852 49 51 57 -61 63 853 0
852 49 51 57 -61 -63 -853 0
852 49 51 -57 61 63 853 0
852 49 51 -57 61 -63 -853 0
852 49 51 -57 -61 63 -853 0
852 49 -51 57 61 63 853 0
852 49 -51 57 61 -63 -853 0
852 49 -51 57 -61 63 -853 0
852 49 -51 -57 61 63 -853 0
852 -49 51 57 61 63 853 0
852 -49 51 57 61 -63 -853 0
852 -49 51 57 -61 63 -853 0
852 -49 51 -57 61 63 -853 0
852 -49 -51 57 61 63 -853 0
-852 49 51 57 61 63 853 0
-852 49 51 57 61 -63 -853 0
-852 49 51 57 -61 63 -853 0
-852 49 51 -57 61 63 -853 0
-852 49 -51 57 61 63 -853 0
-852 -49 51 57 61 63 -853 0
852 49 51 57 61 63 -853 0
-853 -64 -65 -70 0
853 64 -65 -70 0
853 -64 65 -70 0
853 -64 -65 70 0
-853 64 65 -70 0
-853 64 -65 70 0
-853 -64 65 70 0
853 64 65 70 0
-854 33 0
-854 -35 0
854 -33 35 0
-855 31 0
-855 37 0
855 -31 -37 0
-856 31 0
-856 35 0
-856 -37 0
856 -31 -35 37 0
-857 -33 0
-857 35 0
-857 37 0
857 33 -35 -37 0
808 -854 -855 -856 -857 -101 0
-808 854 -855 -856 -857 -101 0
-808 -854 855 -856 -857 -101 0
-808 -854 -855 856 -857 -101 0
-808 -854 -855 -856 857 -101 0
-808 -854 -855 -856 -857 101 0
808 854 855 -856 -857 -101 0
808 854 -855 856 -857 -101 0
808 854 -855 -856 857 -101 0
808 854 -855 -856 -857 101 0
808 -854 855 856 -857 -101 0
808 -854 855 -856 857 -101 0
808 -854 855 -856 -857 101 0
808 -854 -855 856 857 -101 0
808 -854 -855 856 -857 101 0
808 -854 -855 -856 857 101 0
-808 854 855 856 -857 -101 0
-808 854 855 -856 857 -101 0
-808 854 855 -856 -857 101 0
-808 854 -855 856 857 -101 0
-808 854 -855 856 -857 101 0
-808 854 -855 -856 857 101 0
-808 -854 855 856 857 -101 0
-808 -854 855 856 -857 101 0
-808 -854 855 -856 857 101 0
-808 -854 -855 856 857 101 0
808 854 855 856 857 -101 0
808 854 855 856 -857 101 0
808 854 855 -856 857 101 0
808 854 -855 856 857 101 0
808 -854 855 856 857 101 0
-808 854 855 856 857 101 0
664 -613 -665 -666 -667 -132 0
-664 613 -665 -666 -667 -132 0
-664 -613 665 -666 -667 -132 0
-664 -613 -665 666 -667 -132 0
-664 -613 -665 -666 667 -132 0
-664 -613 -665 -666 -667 132 0
664 613 665 -666 -667 -132 0
664 613 -665 666 -667 -132 0
664 613 -665 -666 667 -132 0
664 613 -665 -666 -667 132 0
664 -613 665 666 -667 -132 0
664 -613 665 -666 667 -132 0
664 -613 665 -666 -667 132 0
664 -613 -665 666 667 -132 0
664 -613 -665 666 -667 132 0
664 -613 -665 -666 667 132 0
-664 613 665 666 -667 -132 0
-664 613 665 -666 667 -132 0
-664 613 665 -666 -667 132 0
-664 613 -665 666 667 -132 0
-664 613 -665 666 -667 132 0
-664 613 -665 -666 667 132 0
-664 -613 665 666 667 -132 0
-664 -613 665 666 -667 132 0
-664 -613 665 -666 667 132 0
-664 -613 -665 666 667 132 0
664 613 665 666 667 -132 0
664 613 665 666 -667 132 0
664 613 665 -666 667 132 0
664 613 -665 666 667 132 0
664 -613 665 666 667 132 0
-664 613 665 666 667 132 0
450 -391 -451 -452 -453 -163 0
-450 391 -451 -452 -453 -163 0
-450 -391 451 -452 -453 -163 0
-450 -391 -451 452 -453 -163 0
-450 -391 -451 -452 453 -163 0
-450 -391 -451 -452 -453 163 0
450 391 451 -452 -453 -163 0
450 391 -451 452 -453 -163 0
450 391 -451 -452 453 -163 0
450 391 -451 -452 -453 163 0
450 -391 451 452 -453 -163 0
450 -391 451 -452 453 -163 0
450 -391 451 -452 -453 163 0
450 -391 -451 452 453 -163 0
450 -391 -451 452 -453 163 0
450 -391 -451 -452 453 163 0
-450 391 451 452 -453 -163 0
-450 391 451 -452 453 -163 0
-450 391 451 -452 -453 163 0
-450 391 -451 452 453 -163 0
-450 391 -451 452 -453 163 0
-450 391 -451 -452 453 163 0
-450 -391 451 452 453 -163 0
-450 -391 451 452 -453 163 0
-450 -391 451 -452 453 163 0
-450 -391 -451 452 453 163 0
450 391 451 452 453 -163 0
450 391 451 452 -453 163 0
450 391 451 -452 453 163 0
450 391 -451 452 453 163 0
450 -391 451 452 453 163 0
-450 391 451 452 453 163 0
-858 57 0
-858 -59 0
858 -57 59 0
-859 55 0
-859 61 0
859 -55 -61 0
-860 55 0
-860 59 0
-860 -61 0
860 -55 -59 61 0
-861 -57 0
-861 59 0
-861 61 0
861 57 -59 -61 0
812 -858 -859 -860 -861 -194 0
-812 858 -859 -860 -861 -194 0
-812 -858 859 -860 -861 -194 0
-812 -858 -859 860 -861 -194 0
-812 -858 -859 -860 861 -194 0
-812 -858 -859 -860 -861 194 0
812 858 859 -860 -861 -194 0
812 858 -859 860 -861 -194 0
812 858 -859 -860 861 -194 0
812 858 -859 -860 -861 194 0
812 -858 859 860 -861 -194 0
812 -858 859 -860 861 -194 0
812 -858 859 -860 -861 194 0
812 -858 -859 860 861 -194 0
812 -858 -859 860 -861 194 0
812 -858 -859 -860 861 194 0
-812 858 859 860 -861 -194 0
-812 858 859 -860 861 -194 0
-812 858 859 -860 -861 194 0
-812 858 -859 860 861 -194 0
-812 858 -859 860 -861 194 0
-812 858 -859 -860 861 194 0
-812 -858 859 860 861 -194 0
-812 -858 859 860 -861 194 0
-812 -858 859 -860 861 194 0
-812 -858 -859 860 861 194 0
812 858 859 860 861 -194 0
812 858 859 860 -861 194 0
812 858 859 -860 861 194 0
812 858 -859 860 861 194 0
812 -858 859 860 861 194 0
-812 858 859 860 861 194 0
-862 -63 0
-862 67 0
862 63 -67 0
-863 65 0
-863 69 0
863 -65 -69 0
-864 63 0
-864 -67 0
-864 69 0
864 -63 67 -69 0
-865 65 0
-865 67 0
-865 -69 0
865 -65 -67 69 0
862 -819 -863 -864 -865 -225 0
-862 819 -863 -864 -865 -225 0
-862 -819 863 -864 -865 -225 0
-862 -819 -863 864 -865 -225 0
-862 -819 -863 -864 865 -225 0
-862 -819 -863 -864 -865 225 0
862 819 863 -864 -865 -225 0
862 819 -863 864 -865 -225 0
862 819 -863 -864 865 -225 0
862 819 -863 -864 -865 225 0
862 -819 863 864 -865 -225 0
862 -819 863 -864 865 -225 0
862 -819 863 -864 -865 225 0
862 -819 -863 864 865 -225 0
862 -819 -863 864 -865 225 0
862 -819 -863 -864 865 225 0
-862 819 863 864 -865 -225 0
-862 819 863 -864 865 -225 0
-862 819 863 -864 -865 225 0
-862 819 -863 864 865 -225 0
-862 819 -863 864 -865 225 0
-862 819 -863 -864 865 225 0
-862 -819 863 864 865 -225 0
-862 -819 863 864 -865 225 0
-862 -819 863 -864 865 225 0
-862 -819 -863 864 865 225 0
862 819 863 864 865 -225 0
862 819 863 864 -865 225 0
862 819 863 -864 865 225 0
862 819 -863 864 865 225 0
862 -819 863 864 865 225 0
-862 819 863 864 865 225 0
-866 101 0
-866 -163 0
866 -101 163 0
-867 101 0
-867 -132 0
-867 194 0
867 -101 132 -194 0
-868 -101 0
-868 225 0
868 101 -225 0
-869 101 0
-869 132 0
-869 -163 0
-869 225 0
869 -101 -132 163 -225 0
-870 -101 0
-870 194 0
-870 225 0
870 101 -194 -225 0
-871 132 0
-871 194 0
-871 225 0
871 -132 -194 -225 0
-872 132 0
-872 163 0
-872 194 0
-872 -225 0
872 -132 -163 -194 225 0
-866 -867 -868 -869 -870 -871 873 0
866 867 -868 -869 -870 -871 873 0
866 -867 868 -869 -870 -871 873 0
866 -867 -868 869 -870 -871 873 0
866 -867 -868 -869 870 -871 873 0
866 -867 -868 -869 -870 871 873 0
866 -867 -868 -869 -870 -871 -873 0
-866 867 868 -869 -870 -871 873 0
-866 867 -868 869 -870 -871 873 0
-866 867 -868 -869 870 -871 873 0
-866 867 -868 -869 -870 871 873 0
-866 867 -868 -869 -870 -871 -873 0
-866 -867 868 869 -870 -871 873 0
-866 -867 868 -869 870 -871 873 0
-866 -867 868 -869 -870 871 873 0
-866 -867 868 -869 -870 -871 -873 0
-866 -867 -868 869 870 -871 873 0
-866 -867 -868 869 -870 871 873 0
-866 -867 -868 869 -870 -871 -873 0
-866 -867 -868 -869 870 871 873 0
-866 -867 -868 -869 870 -871 -873 0
-866 -867 -868 -869 -870 871 -873 0
866 867 868 869 -870 -871 873 0
866 867 868 -869 870 -871 873 0
866 867 868 -869 -870 871 873 0
866 867 868 -869 -870 -871 -873 0
866 867 -868 869 870 -871 873 0
866 867 -868 869 -870 871 873 0
866 867 -868 869 -870 -871 -873 0
866 867 -868 -869 870 871 873 0
866 867 -868 -869 870 -871 -873 0
866 867 -868 -869 -870 871 -873 0
866 -867 868 869 870 -871 873 0
866 -867 868 869 -870 871 873 0
866 -867 868 869 -870 -871 -873 0
866 -867 868 -869 870 871 873 0
866 -867 868 -869 870 -871 -873 0
866 -867 868 -869 -870 871 -873 0
866 -867 -868 869 870 871 873 0
866 -867 -868 869 870 -871 -873 0
866 -867 -868 869 -870 871 -873 0
866 -867 -868 -869 870 871 -873 0
-866 867 868 869 870 -871 873 0
-866 867 868 869 -870 871 873 0
-866 867 868 869 -870 -871 -873 0
-866 867 868 -869 870 871 873 0
-866 867 868 -869 870 -871 -873 0
-866 867 868 -869 -870 871 -873 0
-866 867 -868 869 870 871 873 0
-866 867 -868 869 870 -871 -873 0
-866 867 -868 869 -870 871 -873 0
-866 867 -868 -869 870 871 -873 0
-866 -867 868 869 870 871 873 0
-866 -867 868 869 870 -871 -873 0
-866 -867 868 869 -870 871 -873 0
-866 -867 868 -869 870 871 -873 0
-866 -867 -868 869 870 871 -873 0
866 867 868 869 870 871 873 0
866 867 868 869 870 -871 -873 0
866 867 868 869 -870 871 -873 0
866 867 868 -869 870 871 -873 0
866 867 -868 869 870 871 -873 0
866 -867 868 869 870 871 -873 0
-866 867 868 869 870 871 -873 0
-873 -872 0
873 872 0
-23 -28 -32 -33 -35 -37 874 0
23 28 -32 -33 -35 -37 874 0
23 -28 32 -33 -35 -37 874 0
23 -28 -32 33 -35 -37 874 0
23 -28 -32 -33 35 -37 874 0
23 -28 -32 -33 -35 37 874 0
23 -28 -32 -33 -35 -37 -874 0
-23 28 32 -33 -35 -37 874 0
-23 28 -32 33 -35 -37 874 0
-23 28 -32 -33 35 -37 874 0
-23 28 -32 -33 -35 37 874 0
-23 28 -32 -33 -35 -37 -874 0
-23 -28 32 33 -35 -37 874 0
-23 -28 32 -33 35 -37 874 0
-23 -28 32 -33 -35 37 874 0
-23 -28 32 -33 -35 -37 -874 0
-23 -28 -32 33 35 -37 874 0
-23 -28 -32 33 -35 37 874 0
-23 -28 -32 33 -35 -37 -874 0
-23 -28 -32 -33 35 37 874 0
-23 -28 -32 -33 35 -37 -874 0
-23 -28 -32 -33 -35 37 -874 0
23 28 32 33 -35 -37 874 0
23 28 32 -33 35 -37 874 0
23 28 32 -33 -35 37 874 0
23 28 32 -33 -35 -37 -874 0
23 28 -32 33 35 -37 874 0
23 28 -32 33 -35 37 874 0
23 28 -32 33 -35 -37 -874 0
23 28 -32 -33 35 37 874 0
23 28 -32 -33 35 -37 -874 0
23 28 -32 -33 -35 37 -874 0
23 -28 32 33 35 -37 874 0
23 -28 32 33 -35 37 874 0
23 -28 32 33 -35 -37 -874 0
23 -28 32 -33 35 37 874 0
23 -28 32 -33 35 -37 -874 0
23 -28 32 -33 -35 37 -874 0
23 -28 -32 33 35 37 874 0
23 -28 -32 33 35 -37 -874 0
23 -28 -32 33 -35 37 -874 0
23 -28 -32 -33 35 37 -874 0
-23 28 32 33 35 -37 874 0
-23 28 32 33 -35 37 874 0
-23 28 32 33 -35 -37 -874 0
-23 28 32 -33 35 37 874 0
-23 28 32 -33 35 -37 -874 0
-23 28 32 -33 -35 37 -874 0
-23 28 -32 33 35 37 874 0
-23 28 -32 33 35 -37 -874 0
-23 28 -32 33 -35 37 -874 0
-23 28 -32 -33 35 37 -874 0
-23 -28 32 33 35 37 874 0
-23 -28 32 33 35 -37 -874 0
-23 -28 32 33 -35 37 -874 0
-23 -28 32 -33 35 37 -874 0
-23 -28 -32 33 35 37 -874 0
23 28 32 33 35 37 874 0
23 28 32 33 35 -37 -874 0
23 28 32 33 -35 37 -874 0
23 28 32 -33 35 37 -874 0
23 28 -32 33 35 37 -874 0
23 -28 32 33 35 37 -874 0
-23 28 32 33 35 37 -874 0
874 -38 -40 -42 -47 -48 875 0
-874 38 -40 -42 -47 -48 875 0
-874 -38 40 -42 -47 -48 875 0
-874 -38 -40 42 -47 -48 875 0
-874 -38 -40 -42 47 -48 875 0
-874 -38 -40 -42 -47 48 875 0
-874 -38 -40 -42 -47 -48 -875 0
874 38 40 -42 -47 -48 875 0
874 38 -40 42 -47 -48 875 0
874 38 -40 -42 47 -48 875 0
874 38 -40 -42 -47 48 875 0
874 38 -40 -42 -47 -48 -875 0
874 -38 40 42 -47 -48 875 0
874 -38 40 -42 47 -48 875 0
874 -38 40 -42 -47 48 875 0
874 -38 40 -42 -47 -48 -875 0
874 -38 -40 42 47 -48 875 0
874 -38 -40 42 -47 48 875 0
874 -38 -40 42 -47 -48 -875 0
874 -38 -40 -42 47 48 875 0
874 -38 -40 -42 47 -48 -875 0
874 -38 -40 -42 -47 48 -875 0
-874 38 40 42 -47 -48 875 0
-874 38 40 -42 47 -48 875 0
-874 38 40 -42 -47 48 875 0
-874 38 40 -42 -47 -48 -875 0
-874 38 -40 42 47 -48 875 0
-874 38 -40 42 -47 48 875 0
-874 38 -40 42 -47 -48 -875 0
-874 38 -40 -42 47 48 875 0
-874 38 -40 -42 47 -48 -875 0
-874 38 -40 -42 -47 48 -875 0
-874 -38 40 42 47 -48 875 0
-874 -38 40 42 -47 48 875 0
-874 -38 40 42 -47 -48 -875 0
-874 -38 40 -42 47 48 875 0
-874 -38 40 -42 47 -48 -875 0
-874 -38 40 -42 -47 48 -875 0
-874 -38 -40 42 47 48 875 0
-874 -38 -40 42 47 -48 -875 0
-874 -38 -40 42 -47 48 -875 0
-874 -38 -40 -42 47 48 -875 0
874 38 40 42 47 -48 875 0
874 38 40 42 -47 48 875 0
874 38 40 42 -47 -48 -875 0
874 38 40 -42 47 48 875 0
874 38 40 -42 47 -48 -875 0
874 38 40 -42 -47 48 -875 0
874 38 -40 42 47 48 875 0
874 38 -40 42 47 -48 -875 0
874 38 -40 42 -47 48 -875 0
874 38 -40 -42 47 48 -875 0
874 -38 40 42 47 48 875 0
874 -38 40 42 47 -48 -875 0
874 -38 40 42 -47 48 -875 0
874 -38 40 -42 47 48 -875 0
874 -38 -40 42 47 48 -875 0
-874 38 40 42 47 48 875 0
-874 38 40 42 47 -48 -875 0
-874 38 40 42 -47 48 -875 0
-874 38 40 -42 47 48 -875 0
-874 38 -40 42 47 48 -875 0
-874 -38 40 42 47 48 -875 0
874 38 40 42 47 48 -875 0
875 -50 -52 -58 -62 -64 876 0
-875 50 -52 -58 -62 -64 876 0
-875 -50 52 -58 -62 -64 876 0
-875 -50 -52 58 -62 -64 876 0
-875 -50 -52 -58 62 -64 876 0
-875 -50 -52 -58 -62 64 876 0
-875 -50 -52 -58 -62 -64 -876 0
875 50 52 -58 -62 -64 876 0
875 50 -52 58 -62 -64 876 0
875 50 -52 -58 62 -64 876 0
875 50 -52 -58 -62 64 876 0
875 50 -52 -58 -62 -64 -876 0
875 -50 52 58 -62 -64 876 0
875 -50 52 -58 62 -64 876 0
875 -50 52 -58 -62 64 876 0
875 -50 52 -58 -62 -64 -876 0
875 -50 -52 58 62 -64 876 0
875 -50 -52 58 -62 64 876 0
875 -50 -52 58 -62 -64 -876 0
875 -50 -52 -58 62 64 876 0
875 -50 -52 -58 62 -64 -876 0
875 -50 -52 -58 -62 64 -876 0
-875 50 52 58 -62 -64 876 0
-875 50 52 -58 62 -64 876 0
-875 50 52 -58 -62 64 876 0
-875 50 52 -58 -62 -64 -876 0
-875 50 -52 58 62 -64 876 0
-875 50 -52 58 -62 64 876 0
-875 50 -52 58 -62 -64 -876 0
-875 50 -52 -58 62 64 876 0
-875 50 -52 -58 62 -64 -876 0
-875 50 -52 -58 -62 64 -876 0
-875 -50 52 58 62 -64 876 0
-875 -50 52 58 -62 64 876 0
-875 -50 52 58 -62 -64 -876 0
-875 -50 52 -58 62 64 876 0
-875 -50 52 -58 62 -64 -876 0
-875 -50 52 -58 -62 64 -876 0
-875 -50 -52 58 62 64 876 0
-875 -50 -52 58 62 -64 -876 0
-875 -50 -52 58 -62 64 -876 0
-875 -50 -52 -58 62 64 -876 0
875 50 52 58 62 -64 876 0
875 50 52 58 -62 64 876 0
875 50 52 58 -62 -64 -876 0
875 50 52 -58 62 64 876 0
875 50 52 -58 62 -64 -876 0
875 50 52 -58 -62 64 -876 0
875 50 -52 58 62 64 876 0
875 50 -52 58 62 -64 -876 0
875 50 -52 58 -62 64 -876 0
875 50 -52 -58 62 64 -876 0
875 -50 52 58 62 64 876 0
875 -50 52 58 62 -64 -876 0
875 -50 52 58 -62 64 -876 0
875 -50 52 -58 62 64 -876 0
875 -50 -52 58 62 64 -876 0
-875 50 52 58 62 64 876 0
-875 50 52 58 62 -64 -876 0
-875 50 52 58 -62 64 -876 0
-875 50 52 -58 62 64 -876 0
-875 50 -52 58 62 64 -876 0
-875 -50 52 58 62 64 -876 0
875 50 52 58 62 64 -876 0
-876 -65 -66 -71 0
876 65 -66 -71 0
876 -65 66 -71 0
876 -65 -66 71 0
-876 65 66 -71 0
-876 65 -66 71 0
-876 -65 66 71 0
876 65 66 71 0
-877 32 0
-877 38 0
877 -32 -38 0
-878 32 0
-878 36 0
-878 -38 0
878 -32 -36 38 0
-879 -34 0
-879 36 0
-879 38 0
879 34 -36 -38 0
831 -284 -877 -878 -879 -102 0
-831 284 -877 -878 -879 -102 0
-831 -284 877 -878 -879 -102 0
-831 -284 -877 878 -879 -102 0
-831 -284 -877 -878 879 -102 0
-831 -284 -877 -878 -879 102 0
831 284 877 -878 -879 -102 0
831 284 -877 878 -879 -102 0
831 284 -877 -878 879 -102 0
831 284 -877 -878 -879 102 0
831 -284 877 878 -879 -102 0
831 -284 877 -878 879 -102 0
831 -284 877 -878 -879 102 0
831 -284 -877 878 879 -102 0
831 -284 -877 878 -879 102 0
831 -284 -877 -878 879 102 0
-831 284 877 878 -879 -102 0
-831 284 877 -878 879 -102 0
-831 284 877 -878 -879 102 0
-831 284 -877 878 879 -102 0
-831 284 -877 878 -879 102 0
-831 284 -877 -878 879 102 0
-831 -284 877 878 879 -102 0
-831 -284 877 878 -879 102 0
-831 -284 877 -878 879 102 0
-831 -284 -877 878 879 102 0
831 284 877 878 879 -102 0
831 284 877 878 -879 102 0
831 284 877 -878 879 102 0
831 284 -877 878 879 102 0
831 -284 877 878 879 102 0
-831 284 877 878 879 102 0
691 -640 -692 -693 -290 -133 0
-691 640 -692 -693 -290 -133 0
-691 -640 692 -693 -290 -133 0
-691 -640 -692 693 -290 -133 0
-691 -640 -692 -693 290 -133 0
-691 -640 -692 -693 -290 133 0
691 640 692 -693 -290 -133 0
691 640 -692 693 -290 -133 0
691 640 -692 -693 290 -133 0
691 640 -692 -693 -290 133 0
691 -640 692 693 -290 -133 0
691 -640 692 -693 290 -133 0
691 -640 692 -693 -290 133 0
691 -640 -692 693 290 -133 0
691 -640 -692 693 -290 133 0
691 -640 -692 -693 290 133 0
-691 640 692 693 -290 -133 0
-691 640 692 -693 290 -133 0
-691 640 692 -693 -290 133 0
-691 640 -692 693 290 -133 0
-691 640 -692 693 -290 133 0
-691 640 -692 -693 290 133 0
-691 -640 692 693 290 -133 0
-691 -640 692 693 -290 133 0
-691 -640 692 -693 290 133 0
-691 -640 -692 693 290 133 0
691 640 692 693 290 -133 0
691 640 692 693 -290 133 0
691 640 692 -693 290 133 0
691 640 -692 693 290 133 0
691 -640 692 693 290 133 0
-691 640 692 693 290 133 0
480 -422 -481 -482 -483 -164 0
-480 422 -481 -482 -483 -164 0
-480 -422 481 -482 -483 -164 0
-480 -422 -481 482 -483 -164 0
-480 -422 -481 -482 483 -164 0
-480 -422 -481 -482 -483 164 0
480 422 481 -482 -483 -164 0
480 422 -481 482 -483 -164 0
480 422 -481 -482 483 -164 0
480 422 -481 -482 -483 164 0
480 -422 481 482 -483 -164 0
480 -422 481 -482 483 -164 0
480 -422 481 -482 -483 164 0
480 -422 -481 482 483 -164 0
480 -422 -481 482 -483 164 0
480 -422 -481 -482 483 164 0
-480 422 481 482 -483 -164 0
-480 422 481 -482 483 -164 0
-480 422 481 -482 -483 164 0
-480 422 -481 482 483 -164 0
-480 422 -481 482 -483 164 0
-480 422 -481 -482 483 164 0
-480 -422 481 482 483 -164 0
-480 -422 481 482 -483 164 0
-480 -422 481 -482 483 164 0
-480 -422 -481 482 483 164 0
480 422 481 482 483 -164 0
480 422 481 482 -483 164 0
480 422 481 -482 483 164 0
480 422 -481 482 483 164 0
480 -422 481 482 483 164 0
-480 422 481 482 483 164 0
-880 58 0
-880 -60 0
880 -58 60 0
-881 56 0
-881 62 0
881 -56 -62 0
-882 56 0
-882 60 0
-882 -62 0
882 -56 -60 62 0
-883 -58 0
-883 60 0
-883 62 0
883 58 -60 -62 0
835 -880 -881 -882 -883 -195 0
-835 880 -881 -882 -883 -195 0
-835 -880 881 -882 -883 -195 0
-835 -880 -881 882 -883 -195 0
-835 -880 -881 -882 883 -195 0
-835 -880 -881 -882 -883 195 0
835 880 881 -882 -883 -195 0
835 880 -881 882 -883 -195 0
835 880 -881 -882 883 -195 0
835 880 -881 -882 -883 195 0
835 -880 881 882 -883 -195 0
835 -880 881 -882 883 -195 0
835 -880 881 -882 -883 195 0
835 -880 -881 882 883 -195 0
835 -880 -881 882 -883 195 0
835 -880 -881 -882 883 195 0
-835 880 881 882 -883 -195 0
-835 880 881 -882 883 -195 0
-835 880 881 -882 -883 195 0
-835 880 -881 882 883 -195 0
-835 880 -881 882 -883 195 0
-835 880 -881 -882 883 195 0
-835 -880 881 882 883 -195 0
-835 -880 881 882 -883 195 0
-835 -880 881 -882 883 195 0
-835 -880 -881 882 883 195 0
835 880 881 882 883 -195 0
835 880 881 882 -883 195 0
835 880 881 -882 883 195 0
835 880 -881 882 883 195 0
835 -880 881 882 883 195 0
-835 880 881 882 883 195 0
-884 -64 0
-884 68 0
884 64 -68 0
-885 66 0
-885 70 0
885 -66 -70 0
-886 64 0
-886 -68 0
-886 70 0
886 -64 68 -70 0
-887 66 0
-887 68 0
-887 -70 0
887 -66 -68 70 0
884 -842 -885 -886 -887 -226 0
-884 842 -885 -886 -887 -226 0
-884 -842 885 -886 -887 -226 0
-884 -842 -885 886 -887 -226 0
-884 -842 -885 -886 887 -226 0
-884 -842 -885 -886 -887 226 0
884 842 885 -886 -887 -226 0
884 842 -885 886 -887 -226 0
884 842 -885 -886 887 -226 0
884 842 -885 -886 -887 226 0
884 -842 885 886 -887 -226 0
884 -842 885 -886 887 -226 0
884 -842 885 -886 -887 226 0
884 -842 -885 886 887 -226 0
884 -842 -885 886 -887 226 0
884 -842 -885 -886 887 226 0
-884 842 885 886 -887 -226 0
-884 842 885 -886 887 -226 0
-884 842 885 -886 -887 226 0
-884 842 -885 886 887 -226 0
-884 842 -885 886 -887 226 0
-884 842 -885 -886 887 226 0
-884 -842 885 886 887 -226 0
-884 -842 885 886 -887 226 0
-884 -842 885 -886 887 226 0
-884 -842 -885 886 887 226 0
884 842 885 886 887 -226 0
884 842 885 886 -887 226 0
884 842 885 -886 887 226 0
884 842 -885 886 887 226 0
884 -842 885 886 887 226 0
-884 842 885 886 887 226 0
-888 102 0
-888 -164 0
888 -102 164 0
-889 102 0
-889 -133 0
-889 195 0
889 -102 133 -195 0
-890 -102 0
-890 226 0
890 102 -226 0
-891 102 0
-891 133 0
-891 -164 0
-891 226 0
891 -102 -133 164 -226 0
-892 -102 0
-892 195 0
-892 226 0
892 102 -195 -226 0
-893 133 0
-893 195 0
-893 226 0
893 -133 -195 -226 0
-894 133 0
-894 164 0
-894 195 0
-894 -226 0
894 -133 -164 -195 226 0
-888 -889 -890 -891 -892 -893 895 0
888 889 -890 -891 -892 -893 895 0
888 -889 890 -891 -892 -893 895 0
888 -889 -890 891 -892 -893 895 0
888 -889 -890 -891 892 -893 895 0
888 -889 -890 -891 -892 893 895 0
888 -889 -890 -891 -892 -893 -895 0
-888 889 890 -891 -892 -893 895 0
-888 889 -890 891 -892 -893 895 0
-888 889 -890 -891 892 -893 895 0
-888 889 -890 -891 -892 893 895 0
-888 889 -890 -891 -892 -893 -895 0
-888 -889 890 891 -892 -893 895 0
-888 -889 890 -891 892 -893 895 0
-888 -889 890 -891 -892 893 895 0
-888 -889 890 -891 -892 -893 -895 0
-888 -889 -890 891 892 -893 895 0
-888 -889 -890 891 -892 893 895 0
-888 -889 -890 891 -892 -893 -895 0
-888 -889 -890 -891 892 893 895 0
-888 -889 -890 -891 892 -893 -895 0
-888 -889 -890 -891 -892 893 -895 0
888 889 890 891 -892 -893 895 0
888 889 890 -891 892 -893 895 0
888 889 890 -891 -892 893 895 0
888 889 890 -891 -892 -893 -895 0
888 889 -890 891 892 -893 895 0
888 889 -890 891 -892 893 895 0
888 889 -890 891 -892 -893 -895 0
888 889 -890 -891 892 893 895 0
888 889 -890 -891 892 -893 -895 0
888 889 -890 -891 -892 893 -895 0
888 -889 890 891 892 -893 895 0
888 -889 890 891 -892 893 895 0
888 -889 890 891 -892 -893 -895 0
888 -889 890 -891 892 893 895 0
888 -889 890 -891 892 -893 -895 0
888 -889 890 -891 -892 893 -895 0
888 -889 -890 891 892 893 895 0
888 -889 -890 891 892 -893 -895 0
888 -889 -890 891 -892 893 -895 0
888 -889 -890 -891 892 893 -895 0
-888 889 890 891 892 -893 895 0
-888 889 890 891 -892 893 895 0
-888 889 890 891 -892 -893 -895 0
-888 889 890 -891 892 893 895 0
-888 889 890 -891 892 -893 -895 0
-888 889 890 -891 -892 893 -895 0
-888 889 -890 891 892 893 895 0
-888 889 -890 891 892 -893 -895 0
-888 889 -890 891 -892 893 -895 0
-888 889 -890 -891 892 893 -895 0
-888 -889 890 891 892 893 895 0
-888 -889 890 891 892 -893 -895 0
-888 -889 890 891 -892 893 -895 0
-888 -889 890 -891 892 893 -895 0
-888 -889 -890 891 892 893 -895 0
888 889 890 891 892 893 895 0
888 889 890 891 892 -893 -895 0
888 889 890 891 -892 893 -895 0
888 889 890 -891 892 893 -895 0
888 889 -890 891 892 893 -895 0
888 -889 890 891 892 893 -895 0
-888 889 890 891 892 893 -895 0
-895 -894 0
895 894 0
-24 -29 -33 -34 -36 -38 896 0
24 29 -33 -34 -36 -38 896 0
24 -29 33 -34 -36 -38 896 0
24 -29 -33 34 -36 -38 896 0
24 -29 -33 -34 36 -38 896 0
24 -29 -33 -34 -36 38 896 0
24 -29 -33 -34 -36 -38 -896 0
-24 29 33 -34 -36 -38 896 0
-24 29 -33 34 -36 -38 896 0
-24 29 -33 -34 36 -38 896 0
-24 29 -33 -34 -36 38 896 0
-24 29 -33 -34 -36 -38 -896 0
-24 -29 33 34 -36 -38 896 0
-24 -29 33 -34 36 -38 896 0
-24 -29 33 -34 -36 38 896 0
-24 -29 33 -34 -36 -38 -896 0
-24 -29 -33 34 36 -38 896 0
-24 -29 -33 34 -36 38 896 0
-24 -29 -33 34 -36 -38 -896 0
-24 -29 -33 -34 36 38 896 0
-24 -29 -33 -34 36 -38 -896 0
-24 -29 -33 -34 -36 38 -896 0
24 29 33 34 -36 -38 896 0
24 29 33 -34 36 -38 896 0
24 29 33 -34 -36 38 896 0
24 29 33 -34 -36 -38 -896 0
24 29 -33 34 36 -38 896 0
24 29 -33 34 -36 38 896 0
24 29 -33 34 -36 -38 -896 0
24 29 -33 -34 36 38 896 0
24 29 -33 -34 36 -38 -896 0
24 29 -33 -34 -36 38 -896 0
24 -29 33 34 36 -38 896 0
24 -29 33 34 -36 38 896 0
24 -29 33 34 -36 -38 -896 0
24 -29 33 -34 36 38 896 0
24 -29 33 -34 36 -38 -896 0
24 -29 33 -34 -36 38 -896 0
24 -29 -33 34 36 38 896 0
24 -29 -33 34 36 -38 -896 0
24 -29 -33 34 -36 38 -896 0
24 -29 -33 -34 36 38 -896 0
-24 29 33 34 36 -38 896 0
-24 29 33 34 -36 38 896 0
-24 29 33 34 -36 -38 -896 0
-24 29 33 -34 36 38 896 0
-24 29 33 -34 36 -38 -896 0
-24 29 33 -34 -36 38 -896 0
-24 29 -33 34 36 38 896 0
-24 29 -33 34 36 -38 -896 0
-24 29 -33 34 -36 38 -896 0
-24 29 -33 -34 36 38 -896 0
-24 -29 33 34 36 38 896 0
-24 -29 33 34 36 -38 -896 0
-24 -29 33 34 -36 38 -896 0
-24 -29 33 -34 36 38 -896 0
-24 -29 -33 34 36 38 -896 0
24 29 33 34 36 38 896 0
24 29 33 34 36 -38 -896 0
24 29 33 34 -36 38 -896 0
24 29 33 -34 36 38 -896 0
24 29 -33 34 36 38 -896 0
24 -29 33 34 36 38 -896 0
-24 29 33 34 36 38 -896 0
896 -39 -41 -43 -48 -49 897 0
-896 39 -41 -43 -48 -49 897 0
-896 -39 41 -43 -48 -49 897 0
-896 -39 -41 43 -48 -49 897 0
-896 -39 -41 -43 48 -49 897 0
-896 -39 -41 -43 -48 49 897 0
-896 -39 -41 -43 -48 -49 -897 0
896 39 41 -43 -48 -49 897 0
896 39 -41 43 -48 -49 897 0
896 39 -41 -43 48 -49 897 0
896 39 -41 -43 -48 49 897 0
896 39 -41 -43 -48 -49 -897 0
896 -39 41 43 -48 -49 897 0
896 -39 41 -43 48 -49 897 0
896 -39 41 -43 -48 49 897 0
896 -39 41 -43 -48 -49 -897 0
896 -39 -41 43 48 -49 897 0
896 -39 -41 43 -48 49 897 0
896 -39 -41 43 -48 -49 -897 0
896 -39 -41 -43 48 49 897 0
896 -39 -41 -43 48 -49 -897 0
896 -39 -41 -43 -48 49 -897 0
-896 39 41 43 -48 -49 897 0
-896 39 41 -43 48 -49 897 0
-896 39 41 -43 -48 49 897 0
-896 39 41 -43 -48 -49 -897 0
-896 39 -41 43 48 -49 897 0
-896 39 -41 43 -48 49 897 0
-896 39 -41 43 -48 -49 -897 0
-896 39 -41 -43 48 49 897 0
-896 39 -41 -43 48 -49 -897 0
-896 39 -41 -43 -48 49 -897 0
-896 -39 41 43 48 -49 897 0
-896 -39 41 43 -48 49 897 0
-896 -39 41 43 -48 -49 -897 0
-896 -39 41 -43 48 49 897 0
-896 -39 41 -43 48 -49 -897 0
-896 -39 41 -43 -48 49 -897 0
-896 -39 -41 43 48 49 897 0
-896 -39 -41 43 48 -49 -897 0
-896 -39 -41 43 -48 49 -897 0
-896 -39 -41 -43 48 49 -897 0
896 39 41 43 48 -49 897 0
896 39 41 43 -48 49 897 0
896 39 41 43 -48 -49 -897 0
896 39 41 -43 48 49 897 0
896 39 41 -43 48 -49 -897 0
896 39 41 -43 -48 49 -897 0
896 39 -41 43 48 49 897 0
896 39 -41 43 48 -49 -897 0
896 39 -41 43 -48 49 -897 0
896 39 -41 -43 48 49 -897 0
896 -39 41 43 48 49 897 0
896 -39 41 43 48 -49 -897 0
896 -39 41 43 -48 49 -897 0
896 -39 41 -43 48 49 -897 0
896 -39 -41 43 48 49 -897 0
-896 39 41 43 48 49 897 0
-896 39 41 43 48 -49 -897 0
-896 39 41 43 -48 49 -897 0
-896 39 41 -43 48 49 -897 0
-896 39 -41 43 48 49 -897 0
-896 -39 41 43 48 49 -897 0
896 39 41 43 48 49 -897 0
897 -51 -53 -59 -63 -65 898 0
-897 51 -53 -59 -63 -65 898 0
-897 -51 53 -59 -63 -65 898 0
-897 -51 -53 59 -63 -65 898 0
-897 -51 -53 -59 63 -65 898 0
-897 -51 -53 -59 -63 65 898 0
-897 -51 -53 -59 -63 -65 -898 0
897 51 53 -59 -63 -65 898 0
897 51 -53 59 -63 -65 898 0
897 51 -53 -59 63 -65 898 0
897 51 -53 -59 -63 65 898 0
897 51 -53 -59 -63 -65 -898 0
897 -51 53 59 -63 -65 898 0
897 -51 53 -59 63 -65 898 0
897 -51 53 -59 -63 65 898 0
897 -51 53 -59 -63 -65 -898 0
897 -51 -53 59 63 -65 898 0
897 -51 -53 59 -63 65 898 0
897 -51 -53 59 -63 -65 -898 0
897 -51 -53 -59 63 65 898 0
897 -51 -53 -59 63 -65 -898 0
897 -51 -53 -59 -63 65 -898 0
-897 51 53 59 -63 -65 898 0
-897 51 53 -59 63 -65 898 0
-897 51 53 -59 -63 65 898 0
-897 51 53 -59 -63 -65 -898 0
-897 51 -53 59 63 -65 898 0
-897 51 -53 59 -63 65 898 0
-897 51 -53 59 -63 -65 -898 0
-897 51 -53 -59 63 65 898 0
-897 51 -53 -59 63 -65 -898 0
-897 51 -53 -59 -63 65 -898 0
-897 -51 53 59 63 -65 898 0
-897 -51 53 59 -63 65 898 0
-897 -51 53 59 -63 -65 -898 0
-897 -51 53 -59 63 65 898 0
-897 -51 53 -59 63 -65 -898 0
-897 -51 53 -59 -63 65 -898 0
-897 -51 -53 59 63 65 898 0
-897 -51 -53 59 63 -65 -898 0
-897 -51 -53 59 -63 65 -898 0
-897 -51 -53 -59 63 65 -898 0
897 51 53 59 63 -65 898 0
897 51 53 59 -63 65 898 0
897 51 53 59 -63 -65 -898 0
897 51 53 -59 63 65 898 0
897 51 53 -59 63 -65 -898 0
897 51 53 -59 -63 65 -898 0
897 51 -53 59 63 65 898 0
897 51 -53 59 63 -65 -898 0
897 51 -53 59 -63 65 -898 0
897 51 -53 -59 63 65 -898 0
897 -51 53 59 63 65 898 0
897 -51 53 59 63 -65 -898 0
897 -51 53 59 -63 65 -898 0
897 -51 53 -59 63 65 -898 0
897 -51 -53 59 63 65 -898 0
-897 51 53 59 63 65 898 0
-897 51 53 59 63 -65 -898 0
-897 51 53 59 -63 65 -898 0
-897 51 53 -59 63 65 -898 0
-897 51 -53 59 63 65 -898 0
-897 -51 53 59 63 65 -898 0
897 51 53 59 63 65 -898 0
-898 -66 -67 -72 0
898 66 -67 -72 0
898 -66 67 -72 0
898 -66 -67 72 0
-898 66 67 -72 0
-898 66 -67 72 0
-898 -66 67 72 0
898 66 67 72 0
-899 33 0
-899 39 0
899 -33 -39 0
-900 33 0
-900 37 0
-900 -39 0
900 -33 -37 39 0
-901 -35 0
-901 37 0
-901 39 0
901 35 -37 -39 0
854 -320 -899 -900 -901 -103 0
-854 320 -899 -900 -901 -103 0
-854 -320 899 -900 -901 -103 0
-854 -320 -899 900 -901 -103 0
-854 -320 -899 -900 901 -103 0
-854 -320 -899 -900 -901 103 0
854 320 899 -900 -901 -103 0
854 320 -899 900 -901 -103 0
854 320 -899 -900 901 -103 0
854 320 -899 -900 -901 103 0
854 -320 899 900 -901 -103 0
854 -320 899 -900 901 -103 0
854 -320 899 -900 -901 103 0
854 -320 -899 900 901 -103 0
854 -320 -899 900 -901 103 0
854 -320 -899 -900 901 103 0
-854 320 899 900 -901 -103 0
-854 320 899 -900 901 -103 0
-854 320 899 -900 -901 103 0
-854 320 -899 900 901 -103 0
-854 320 -899 900 -901 103 0
-854 320 -899 -900 901 103 0
-854 -320 899 900 901 -103 0
-854 -320 899 900 -901 103 0
-854 -320 899 -900 901 103 0
-854 -320 -899 900 901 103 0
854 320 899 900 901 -103 0
854 320 899 900 -901 103 0
854 320 899 -900 901 103 0
854 320 -899 900 901 103 0
854 -320 899 900 901 103 0
-854 320 899 900 901 103 0
717 -667 -718 -719 -326 -134 0
-717 667 -718 -719 -326 -134 0
-717 -667 718 -719 -326 -134 0
-717 -667 -718 719 -326 -134 0
-717 -667 -718 -719 326 -134 0
-717 -667 -718 -719 -326 134 0
717 667 718 -719 -326 -134 0
717 667 -718 719 -326 -134 0
717 667 -718 -719 326 -134 0
717 667 -718 -719 -326 134 0
717 -667 718 719 -326 -134 0
717 -667 718 -719 326 -134 0
717 -667 718 -719 -326 134 0
717 -667 -718 719 326 -134 0
717 -667 -718 719 -326 134 0
717 -667 -718 -719 326 134 0
-717 667 718 719 -326 -134 0
-717 667 718 -719 326 -134 0
-717 667 718 -719 -326 134 0
-717 667 -718 719 326 -134 0
-717 667 -718 719 -326 134 0
-717 667 -718 -719 326 134 0
-717 -667 718 719 326 -134 0
-717 -667 718 719 -326 134 0
-717 -667 718 -719 326 134 0
-717 -667 -718 719 326 134 0
717 667 718 719 326 -134 0
717 667 718 719 -326 134 0
717 667 718 -719 326 134 0
717 667 -718 719 326 134 0
717 -667 718 719 326 134 0
-717 667 718 719 326 134 0
510 -453 -511 -512 -513 -165 0
-510 453 -511 -512 -513 -165 0
-510 -453 511 -512 -513 -165 0
-510 -453 -511 512 -513 -165 0
-510 -453 -511 -512 513 -165 0
-510 -453 -511 -512 -513 165 0
510 453 511 -512 -513 -165 0
510 453 -511 512 -513 -165 0
510 453 -511 -512 513 -165 0
510 453 -511 -512 -513 165 0
510 -453 511 512 -513 -165 0
510 -453 511 -512 513 -165 0
510 -453 511 -512 -513 165 0
510 -453 -511 512 513 -165 0
510 -453 -511 512 -513 165 0
510 -453 -511 -512 513 165 0
-510 453 511 512 -513 -165 0
-510 453 511 -512 513 -165 0
-510 453 511 -512 -513 165 0
-510 453 -511 512 513 -165 0
-510 453 -511 512 -513 165 0
-510 453 -511 -512 513 165 0
-510 -453 511 512 513 -165 0
-510 -453 511 512 -513 165 0
-510 -453 511 -512 513 165 0
-510 -453 -511 512 513 165 0
510 453 511 512 513 -165 0
510 453 511 512 -513 165 0
510 453 511 -512 513 165 0
510 453 -511 512 513 165 0
510 -453 511 512 513 165 0
-510 453 511 512 513 165 0
-902 59 0
-902 -61 0
902 -59 61 0
-903 57 0
-903 63 0
903 -57 -63 0
-904 57 0
-904 61 0
-904 -63 0
904 -57 -61 63 0
-905 -59 0
-905 61 0
-905 63 0
905 59 -61 -63 0
858 -902 -903 -904 -905 -196 0
-858 902 -903 -904 -905 -196 0
-858 -902 903 -904 -905 -196 0
-858 -902 -903 904 -905 -196 0
-858 -902 -903 -904 905 -196 0
-858 -902 -903 -904 -905 196 0
858 902 903 -904 -905 -196 0
858 902 -903 904 -905 -196 0
858 902 -903 -904 905 -196 0
858 902 -903 -904 -905 196 0
858 -902 903 904 -905 -196 0
858 -902 903 -904 905 -196 0
858 -902 903 -904 -905 196 0
858 -902 -903 904 905 -196 0
858 -902 -903 904 -905 196 0
858 -902 -903 -904 905 196 0
-858 902 903 904 -905 -196 0
-858 902 903 -904 905 -196 0
-858 902 903 -904 -905 196 0
-858 902 -903 904 905 -196 0
-858 902 -903 904 -905 196 0
-858 902 -903 -904 905 196 0
-858 -902 903 904 905 -196 0
-858 -902 903 904 -905 196 0
-858 -902 903 -904 905 196 0
-858 -902 -903 904 905 196 0
858 902 903 904 905 -196 0
858 902 903 904 -905 196 0
858 902 903 -904 905 196 0
858 902 -903 904 905 196 0
858 -902 903 904 905 196 0
-858 902 903 904 905 196 0
-906 -65 0
-906 69 0
906 65 -69 0
-907 67 0
-907 71 0
907 -67 -71 0
-908 65 0
-908 -69 0
-908 71 0
908 -65 69 -71 0
-909 67 0
-909 69 0
-909 -71 0
909 -67 -69 71 0
906 -865 -907 -908 -909 -227 0
-906 865 -907 -908 -909 -227 0
-906 -865 907 -908 -909 -227 0
-906 -865 -907 908 -909 -227 0
-906 -865 -907 -908 909 -227 0
-906 -865 -907 -908 -909 227 0
906 865 907 -908 -909 -227 0
906 865 -907 908 -909 -227 0
906 865 -907 -908 909 -227 0
906 865 -907 -908 -909 227 0
906 -865 907 908 -909 -227 0
906 -865 907 -908 909 -227 0
906 -865 907 -908 -909 227 0
906 -865 -907 908 909 -227 0
906 -865 -907 908 -909 227 0
906 -865 -907 -908 909 227 0
-906 865 907 908 -909 -227 0
-906 865 907 -908 909 -227 0
-906 865 907 -908 -909 227 0
-906 865 -907 908 909 -227 0
-906 865 -907 908 -909 227 0
-906 865 -907 -908 909 227 0
-906 -865 907 908 909 -227 0
-906 -865 907 908 -909 227 0
-906 -865 907 -908 909 227 0
-906 -865 -907 908 909 227 0
906 865 907 908 909 -227 0
906 865 907 908 -909 227 0
906 865 907 -908 909 227 0
906 865 -907 908 909 227 0
906 -865 907 908 909 227 0
-906 865 907 908 909 227 0
-910 103 0
-910 -165 0
910 -103 165 0
-911 103 0
-911 -134 0
-911 196 0
911 -103 134 -196 0
-912 -103 0
-912 227 0
912 103 -227 0
-913 103 0
-913 134 0
-913 -165 0
-913 227 0
913 -103 -134 165 -227 0
-914 -103 0
-914 196 0
-914 227 0
914 103 -196 -227 0
-915 134 0
-915 196 0
-915 227 0
915 -134 -196 -227 0
-916 134 0
-916 165 0
-916 196 0
-916 -227 0
916 -134 -165 -196 227 0
-910 -911 -912 -913 -914 -915 917 0
910 911 -912 -913 -914 -915 917 0
910 -911 912 -913 -914 -915 917 0
910 -911 -912 913 -914 -915 917 0
910 -911 -912 -913 914 -915 917 0
910 -911 -912 -913 -914 915 917 0
910 -911 -912 -913 -914 -915 -917 0
-910 911 912 -913 -914 -915 917 0
-910 911 -912 913 -914 -915 917 0
-910 911 -912 -913 914 -915 917 0
-910 911 -912 -913 -914 915 917 0
-910 911 -912 -913 -914 -915 -917 0
-910 -911 912 913 -914 -915 917 0
-910 -911 912 -913 914 -915 917 0
-910 -911 912 -913 -914 915 917 0
-910 -911 912 -913 -914 -915 -917 0
-910 -911 -912 913 914 -915 917 0
-910 -911 -912 913 -914 915 917 0
-910 -911 -912 913 -914 -915 -917 0
-910 -911 -912 -913 914 915 917 0
-910 -911 -912 -913 914 -915 -917 0
-910 -911 -912 -913 -914 915 -917 0
910 911 912 913 -914 -915 917 0
910 911 912 -913 914 -915 917 0
910 911 912 -913 -914 915 917 0
910 911 912 -913 -914 -915 -917 0
910 911 -912 913 914 -915 917 0
910 911 -912 913 -914 915 917 0
910 911 -912 913 -914 -915 -917 0
910 911 -912 -913 914 915 917 0
910 911 -912 -913 914 -915 -917 0
910 911 -912 -913 -914 915 -917 0
910 -911 912 913 914 -915 917 0
910 -911 912 913 -914 915 917 0
910 -911 912 913 -914 -915 -917 0
910 -911 912 -913 914 915 917 0
910 -911 912 -913 914 -915 -917 0
910 -911 912 -913 -914 915 -917 0
910 -911 -912 913 914 915 917 0
910 -911 -912 913 914 -915 -917 0
910 -911 -912 913 -914 915 -917 0
910 -911 -912 -913 914 915 -917 0
-910 911 912 913 914 -915 917 0
-910 911 912 913 -914 915 917 0
-910 911 912 913 -914 -915 -917 0
-910 911 912 -913 914 915 917 0
-910 911 912 -913 914 -915 -917 0
-910 911 912 -913 -914 915 -917 0
-910 911 -912 913 914 915 917 0
-910 911 -912 913 914 -915 -917 0
-910 911 -912 913 -914 915 -917 0
-910 911 -912 -913 914 915 -917 0
-910 -911 912 913 914 915 917 0
-910 -911 912 913 914 -915 -917 0
-910 -911 912 913 -914 915 -917 0
-910 -911 912 -913 914 915 -917 0
-910 -911 -912 913 914 915 -917 0
910 911 912 913 914 915 917 0
910 911 912 913 914 -915 -917 0
910 911 912 913 -914 915 -917 0
910 911 912 -913 914 915 -917 0
910 911 -912 913 914 915 -917 0
910 -911 912 913 914 915 -917 0
-910 911 912 913 914 915 -917 0
-917 -916 0
917 916 0
-25 -30 -34 -35 -37 -39 918 0
25 30 -34 -35 -37 -39 918 0
25 -30 34 -35 -37 -39 918 0
25 -30 -34 35 -37 -39 918 0
25 -30 -34 -35 37 -39 918 0
25 -30 -34 -35 -37 39 918 0
25 -30 -34 -35 -37 -39 -918 0
-25 30 34 -35 -37 -39 918 0
-25 30 -34 35 -37 -39 918 0
-25 30 -34 -35 37 -39 918 0
-25 30 -34 -35 -37 39 918 0
-25 30 -34 -35 -37 -39 -918 0
-25 -30 34 35 -37 -39 918 0
-25 -30 34 -35 37 -39 918 0
-25 -30 34 -35 -37 39 918 0
-25 -30 34 -35 -37 -39 -918 0
-25 -30 -34 35 37 -39 918 0
-25 -30 -34 35 -37 39 918 0
-25 -30 -34 35 -37 -39 -918 0
-25 -30 -34 -35 37 39 918 0
-25 -30 -34 -35 37 -39 -918 0
-25 -30 -34 -35 -37 39 -918 0
25 30 34 35 -37 -39 918 0
25 30 34 -35 37 -39 918 0
25 30 34 -35 -37 39 918 0
25 30 34 -35 -37 -39 -918 0
25 30 -34 35 37 -39 918 0
25 30 -34 35 -37 39 918 0
25 30 -34 35 -37 -39 -918 0
25 30 -34 -35 37 39 918 0
25 30 -34 -35 37 -39 -918 0
25 30 -34 -35 -37 39 -918 0
25 -30 34 35 37 -39 918 0
25 -30 34 35 -37 39 918 0
25 -30 34 35 -37 -39 -918 0
25 -30 34 -35 37 39 918 0
25 -30 34 -35 37 -39 -918 0
25 -30 34 -35 -37 39 -918 0
25 -30 -34 35 37 39 918 0
25 -30 -34 35 37 -39 -918 0
25 -30 -34 35 -37 39 -918 0
25 -30 -34 -35 37 39 -918 0
-25 30 34 35 37 -39 918 0
-25 30 34 35 -37 39 918 0
-25 30 34 35 -37 -39 -918 0
-25 30 34 -35 37 39 918 0
-25 30 34 -35 37 -39 -918 0
-25 30 34 -35 -37 39 -918 0
-25 30 -34 35 37 39 918 0
-25 30 -34 35 37 -39 -918 0
-25 30 -34 35 -37 39 -918 0
-25 30 -34 -35 37 39 -918 0
-25 -30 34 35 37 39 918 0
-25 -30 34 35 37 -39 -918 0
-25 -30 34 35 -37 39 -918 0
-25 -30 34 -35 37 39 -918 0
-25 -30 -34 35 37 39 -918 0
25 30 34 35 37 39 918 0
25 30 34 35 37 -39 -918 0
25 30 34 35 -37 39 -918 0
25 30 34 -35 37 39 -918 0
25 30 -34 35 37 39 -918 0
25 -30 34 35 37 39 -918 0
-25 30 34 35 37 39 -918 0
918 -40 -42 -44 -49 -50 919 0
-918 40 -42 -44 -49 -50 919 0
-918 -40 42 -44 -49 -50 919 0
-918 -40 -42 44 -49 -50 919 0
-918 -40 -42 -44 49 -50 919 0
-918 -40 -42 -44 -49 50 919 0
-918 -40 -42 -44 -49 -50 -919 0
918 40 42 -44 -49 -50 919 0
918 40 -42 44 -49 -50 919 0
918 40 -42 -44 49 -50 919 0
918 40 -42 -44 -49 50 919 0
918 40 -42 -44 -49 -50 -919 0
918 -40 42 44 -49 -50 919 0
918 -40 42 -44 49 -50 919 0
918 -40 42 -44 -49 50 919 0
918 -40 42 -44 -49 -50 -919 0
918 -40 -42 44 49 -50 919 0
918 -40 -42 44 -49 50 919 0
918 -40 -42 44 -49 -50 -919 0
918 -40 -42 -44 49 50 919 0
918 -40 -42 -44 49 -50 -919 0
918 -40 -42 -44 -49 50 -919 0
-918 40 42 44 -49 -50 919 0
-918 40 42 -44 49 -50 919 0
-918 40 42 -44 -49 50 919 0
-918 40 42 -44 -49 -50 -919 0
-918 40 -42 44 49 -50 919 0
-918 40 -42 44 -49 50 919 0
-918 40 -42 44 -49 -50 -919 0
-918 40 -42 -44 49 50 919 0
-918 40 -42 -44 49 -50 -919 0
-918 40 -42 -44 -49 50 -919 0
-918 -40 42 44 49 -50 919 0
-918 -40 42 44 -49 50 919 0
-918 -40 42 44 -49 -50 -919 0
-918 -40 42 -44 49 50 919 0
-918 -40 42 -44 49 -50 -919 0
-918 -40 42 -44 -49 50 -919 0
-918 -40 -42 44 49 50 919 0
-918 -40 -42 44 49 -50 -919 0
-918 -40 -42 44 -49 50 -919 0
-918 -40 -42 -44 49 50 -919 0
918 40 42 44 49 -50 919 0
918 40 42 44 -49 50 919 0
918 40 42 44 -49 -50 -919 0
918 40 42 -44 49 50 919 0
918 40 42 -44 49 -50 -919 0
918 40 42 -44 -49 50 -919 0
918 40 -42 44 49 50 919 0
918 40 -42 44 49 -50 -919 0
918 40 -42 44 -49 50 -919 0
918 40 -42 -44 49 50 -919 0
918 -40 42 44 49 50 919 0
918 -40 42 44 49 -50 -919 0
918 -40 42 44 -49 50 -919 0
918 -40 42 -44 49 50 -919 0
918 -40 -42 44 49 50 -919 0
-918 40 42 44 49 50 919 0
-918 40 42 44 49 -50 -919 0
-918 40 42 44 -49 50 -919 0
-918 40 42 -44 49 50 -919 0
-918 40 -42 44 49 50 -919 0
-918 -40 42 44 49 50 -919 0
918 40 42 44 49 50 -919 0
919 -52 -54 -60 -64 -66 920 0
-919 52 -54 -60 -64 -66 920 0
-919 -52 54 -60 -64 -66 920 0
-919 -52 -54 60 -64 -66 920 0
-919 -52 -54 -60 64 -66 920 0
-919 -52 -54 -60 -64 66 920 0
-919 -52 -54 -60 -64 -66 -920 0
919 52 54 -60 -64 -66 920 0
919 52 -54 60 -64 -66 920 0
919 52 -54 -60 64 -66 920 0
919 52 -54 -60 -64 66 920 0
919 52 -54 -60 -64 -66 -920 0
919 -52 54 60 -64 -66 920 0
919 -52 54 -60 64 -66 920 0
919 -52 54 -60 -64 66 920 0
919 -52 54 -60 -64 -66 -920 0
919 -52 -54 60 64 -66 920 0
919 -52 -54 60 -64 66 920 0
919 -52 -54 60 -64 -66 -920 0
919 -52 -54 -60 64 66 920 0
919 -52 -54 -60 64 -66 -920 0
919 -52 -54 -60 -64 66 -920 0
-919 52 54 60 -64 -66 920 0
-919 52 54 -60 64 -66 920 0
-919 52 54 -60 -64 66 920 0
-919 52 54 -60 -64 -66 -920 0
-919 52 -54 60 64 -66 920 0
-919 52 -54 60 -64 66 920 0
-919 52 -54 60 -64 -66 -920 0
-919 52 -54 -60 64 66 920 0
-919 52 -54 -60 64 -66 -920 0
-919 52 -54 -60 -64 66 -920 0
-919 -52 54 60 64 -66 920 0
-919 -52 54 60 -64 66 920 0
-919 -52 54 60 -64 -66 -920 0
-919 -52 54 -60 64 66 920 0
-919 -52 54 -60 64 -66 -920 0
-919 -52 54 -60 -64 66 -920 0
-919 -52 -54 60 64 66 920 0
-919 -52 -54 60 64 -66 -920 0
-919 -52 -54 60 -64 66 -920 0
-919 -52 -54 -60 64 66 -920 0
919 52 54 60 64 -66 920 0
919 52 54 60 -64 66 920 0
919 52 54 60 -64 -66 -920 0
919 52 54 -60 64 66 920 0
919 52 54 -60 64 -66 -920 0
919 52 54 -60 -64 66 -920 0
919 52 -54 60 64 66 920 0
919 52 -54 60 64 -66 -920 0
919 52 -54 60 -64 66 -920 0
919 52 -54 -60 64 66 -920 0
919 -52 54 60 64 66 920 0
919 -52 54 60 64 -66 -920 0
919 -52 54 60 -64 66 -920 0
919 -52 54 -60 64 66 -920 0
919 -52 -54 60 64 66 -920 0
-919 52 54 60 64 66 920 0
-919 52 54 60 64 -66 -920 0
-919 52 54 60 -64 66 -920 0
-919 52 54 -60 64 66 -920 0
-919 52 -54 60 64 66 -920 0
-919 -52 54 60 64 66 -920 0
919 52 54 60 64 66 -920 0
-920 -67 -68 -73 0
920 67 -68 -73 0
920 -67 68 -73 0
920 -67 -68 73 0
-920 67 68 -73 0
-920 67 -68 73 0
-920 -67 68 73 0
920 67 68 73 0
284 -285 -286 -287 -288 -104 0
-284 285 -286 -287 -288 -104 0
-284 -285 286 -287 -288 -104 0
-284 -285 -286 287 -288 -104 0
-284 -285 -286 -287 288 -104 0
-284 -285 -286 -287 -288 104 0
284 285 286 -287 -288 -104 0
284 285 -286 287 -288 -104 0
284 285 -286 -287 288 -104 0
284 285 -286 -287 -288 104 0
284 -285 286 287 -288 -104 0
284 -285 286 -287 288 -104 0
284 -285 286 -287 -288 104 0
284 -285 -286 287 288 -104 0
284 -285 -286 287 -288 104 0
284 -285 -286 -287 288 104 0
-284 285 286 287 -288 -104 0
-284 285 286 -287 288 -104 0
-284 285 286 -287 -288 104 0
-284 285 -286 287 288 -104 0
-284 285 -286 287 -288 104 0
-284 285 -286 -287 288 104 0
-284 -285 286 287 288 -104 0
-284 -285 286 287 -288 104 0
-284 -285 286 -287 288 104 0
-284 -285 -286 287 288 104 0
284 285 286 287 288 -104 0
284 285 286 287 -288 104 0
284 285 286 -287 288 104 0
284 285 -286 287 288 104 0
284 -285 286 287 288 104 0
-284 285 286 287 288 104 0
289 -290 -291 -292 -293 -135 0
-289 290 -291 -292 -293 -135 0
-289 -290 291 -292 -293 -135 0
-289 -290 -291 292 -293 -135 0
-289 -290 -291 -292 293 -135 0
-289 -290 -291 -292 -293 135 0
289 290 291 -292 -293 -135 0
289 290 -291 292 -293 -135 0
289 290 -291 -292 293 -135 0
289 290 -291 -292 -293 135 0
289 -290 291 292 -293 -135 0
289 -290 291 -292 293 -135 0
289 -290 291 -292 -293 135 0
289 -290 -291 292 293 -135 0
289 -290 -291 292 -293 135 0
289 -290 -291 -292 293 135 0
-289 290 291 292 -293 -135 0
-289 290 291 -292 293 -135 0
-289 290 291 -292 -293 135 0
-289 290 -291 292 293 -135 0
-289 290 -291 292 -293 135 0
-289 290 -291 -292 293 135 0
-289 -290 291 292 293 -135 0
-289 -290 291 292 -293 135 0
-289 -290 291 -292 293 135 0
-289 -290 -291 292 293 135 0
289 290 291 292 293 -135 0
289 290 291 292 -293 135 0
289 290 291 -292 293 135 0
289 290 -291 292 293 135 0
289 -290 291 292 293 135 0
-289 290 291 292 293 135 0
537 -483 -538 -539 -540 -166 0
-537 483 -538 -539 -540 -166 0
-537 -483 538 -539 -540 -166 0
-537 -483 -538 539 -540 -166 0
-537 -483 -538 -539 540 -166 0
-537 -483 -538 -539 -540 166 0
537 483 538 -539 -540 -166 0
537 483 -538 539 -540 -166 0
537 483 -538 -539 540 -166 0
537 483 -538 -539 -540 166 0
537 -483 538 539 -540 -166 0
537 -483 538 -539 540 -166 0
537 -483 538 -539 -540 166 0
537 -483 -538 539 540 -166 0
537 -483 -538 539 -540 166 0
537 -483 -538 -539 540 166 0
-537 483 538 539 -540 -166 0
-537 483 538 -539 540 -166 0
-537 483 538 -539 -540 166 0
-537 483 -538 539 540 -166 0
-537 483 -538 539 -540 166 0
-537 483 -538 -539 540 166 0
-537 -483 538 539 540 -166 0
-537 -483 538 539 -540 166 0
-537 -483 538 -539 540 166 0
-537 -483 -538 539 540 166 0
537 483 538 539 540 -166 0
537 483 538 539 -540 166 0
537 483 538 -539 540 166 0
537 483 -538 539 540 166 0
537 -483 538 539 540 166 0
-537 483 538 539 540 166 0
-921 60 0
-921 -62 0
921 -60 62 0
-922 58 0
-922 64 0
922 -58 -64 0
-923 58 0
-923 62 0
-923 -64 0
923 -58 -62 64 0
-924 -60 0
-924 62 0
-924 64 0
924 60 -62 -64 0
880 -921 -922 -923 -924 -197 0
-880 921 -922 -923 -924 -197 0
-880 -921 922 -923 -924 -197 0
-880 -921 -922 923 -924 -197 0
-880 -921 -922 -923 924 -197 0
-880 -921 -922 -923 -924 197 0
880 921 922 -923 -924 -197 0
880 921 -922 923 -924 -197 0
880 921 -922 -923 924 -197 0
880 921 -922 -923 -924 197 0
880 -921 922 923 -924 -197 0
880 -921 922 -923 924 -197 0
880 -921 922 -923 -924 197 0
880 -921 -922 923 924 -197 0
880 -921 -922 923 -924 197 0
880 -921 -922 -923 924 197 0
-880 921 922 923 -924 -197 0
-880 921 922 -923 924 -197 0
-880 921 922 -923 -924 197 0
-880 921 -922 923 924 -197 0
-880 921 -922 923 -924 197 0
-880 921 -922 -923 924 197 0
-880 -921 922 923 924 -197 0
-880 -921 922 923 -924 197 0
-880 -921 922 -923 924 197 0
-880 -921 -922 923 924 197 0
880 921 922 923 924 -197 0
880 921 922 923 -924 197 0
880 921 922 -923 924 197 0
880 921 -922 923 924 197 0
880 -921 922 923 924 197 0
-880 921 922 923 924 197 0
-925 -66 0
-925 70 0
925 66 -70 0
-926 68 0
-926 72 0
926 -68 -72 0
-927 66 0
-927 -70 0
-927 72 0
927 -66 70 -72 0
-928 68 0
-928 70 0
-928 -72 0
928 -68 -70 72 0
925 -887 -926 -927 -928 -228 0
-925 887 -926 -927 -928 -228 0
-925 -887 926 -927 -928 -228 0
-925 -887 -926 927 -928 -228 0
-925 -887 -926 -927 928 -228 0
-925 -887 -926 -927 -928 228 0
925 887 926 -927 -928 -228 0
925 887 -926 927 -928 -228 0
925 887 -926 -927 928 -228 0
925 887 -926 -927 -928 228 0
925 -887 926 927 -928 -228 0
925 -887 926 -927 928 -228 0
925 -887 926 -927 -928 228 0
925 -887 -926 927 928 -228 0
925 -887 -926 927 -928 228 0
925 -887 -926 -927 928 228 0
-925 887 926 927 -928 -228 0
-925 887 926 -927 928 -228 0
-925 887 926 -927 -928 228 0
-925 887 -926 927 928 -228 0
-925 887 -926 927 -928 228 0
-925 887 -926 -927 928 228 0
-925 -887 926 927 928 -228 0
-925 -887 926 927 -928 228 0
-925 -887 926 -927 928 228 0
-925 -887 -926 927 928 228 0
925 887 926 927 928 -228 0
925 887 926 927 -928 228 0
925 887 926 -927 928 228 0
925 887 -926 927 928 228 0
925 -887 926 927 928 228 0
-925 887 926 927 928 228 0
-929 104 0
-929 -166 0
929 -104 166 0
-930 104 0
-930 -135 0
-930 197 0
930 -104 135 -197 0
-931 -104 0
-931 228 0
931 104 -228 0
-932 104 0
-932 135 0
-932 -166 0
-932 228 0
932 -104 -135 166 -228 0
-933 -104 0
-933 197 0
-933 228 0
933 104 -197 -228 0
-934 135 0
-934 197 0
-934 228 0
934 -135 -197 -228 0
-935 135 0
-935 166 0
-935 197 0
-935 -228 0
935 -135 -166 -197 228 0
929 -930 -931 -932 -933 -934 936 0
-929 930 -931 -932 -933 -934 936 0
-929 -930 931 -932 -933 -934 936 0
-929 -930 -931 932 -933 -934 936 0
-929 -930 -931 -932 933 -934 936 0
-929 -930 -931 -932 -933 934 936 0
-929 -930 -931 -932 -933 -934 -936 0
929 930 931 -932 -933 -934 936 0
929 930 -931 932 -933 -934 936 0
929 930 -931 -932 933 -934 936 0
929 930 -931 -932 -933 934 936 0
929 930 -931 -932 -933 -934 -936 0
929 -930 931 932 -933 -934 936 0
929 -930 931 -932 933 -934 936 0
929 -930 931 -932 -933 934 936 0
929 -930 931 -932 -933 -934 -936 0
929 -930 -931 932 933 -934 936 0
929 -930 -931 932 -933 934 936 0
929 -930 -931 932 -933 -934 -936 0
929 -930 -931 -932 933 934 936 0
929 -930 -931 -932 933 -934 -936 0
929 -930 -931 -932 -933 934 -936 0
-929 930 931 932 -933 -934 936 0
-929 930 931 -932 933 -934 936 0
-929 930 931 -932 -933 934 936 0
-929 930 931 -932 -933 -934 -936 0
-929 930 -931 932 933 -934 936 0
-929 930 -931 932 -933 934 936 0
-929 930 -931 932 -933 -934 -936 0
-929 930 -931 -932 933 934 936 0
-929 930 -931 -932 933 -934 -936 0
-929 930 -931 -932 -933 934 -936 0
-929 -930 931 932 933 -934 936 0
-929 -930 931 932 -933 934 936 0
-929 -930 931 932 -933 -934 -936 0
-929 -930 931 -932 933 934 936 0
-929 -930 931 -932 933 -934 -936 0
-929 -930 931 -932 -933 934 -936 0
-929 -930 -931 932 933 934 936 0
-929 -930 -931 932 933 -934 -936 0
-929 -930 -931 932 -933 934 -936 0
-929 -930 -931 -932 933 934 -936 0
929 930 931 932 933 -934 936 0
929 930 931 932 -933 934 936 0
929 930 931 932 -933 -934 -936 0
929 930 931 -932 933 934 936 0
929 930 931 -932 933 -934 -936 0
929 930 931 -932 -933 934 -936 0
929 930 -931 932 933 934 936 0
929 930 -931 932 933 -934 -936 0
929 930 -931 932 -933 934 -936 0
929 930 -931 -932 933 934 -936 0
929 -930 931 932 933 934 936 0
929 -930 931 932 933 -934 -936 0
929 -930 931 932 -933 934 -936 0
929 -930 931 -932 933 934 -936 0
929 -930 -931 932 933 934 -936 0
-929 930 931 932 933 934 936 0
-929 930 931 932 933 -934 -936 0
-929 930 931 932 -933 934 -936 0
-929 930 931 -932 933 934 -936 0
-929 930 -931 932 933 934 -936 0
-929 -930 931 932 933 934 -936 0
929 930 931 932 933 934 -936 0
-936 -935 0
936 935 0
-26 -31 -35 -36 -38 -40 937 0
26 31 -35 -36 -38 -40 937 0
26 -31 35 -36 -38 -40 937 0
26 -31 -35 36 -38 -40 937 0
26 -31 -35 -36 38 -40 937 0
26 -31 -35 -36 -38 40 937 0
26 -31 -35 -36 -38 -40 -937 0
-26 31 35 -36 -38 -40 937 0
-26 31 -35 36 -38 -40 937 0
-26 31 -35 -36 38 -40 937 0
-26 31 -35 -36 -38 40 937 0
-26 31 -35 -36 -38 -40 -937 0
-26 -31 35 36 -38 -40 937 0
-26 -31 35 -36 38 -40 937 0
-26 -31 35 -36 -38 40 937 0
-26 -31 35 -36 -38 -40 -937 0
-26 -31 -35 36 38 -40 937 0
-26 -31 -35 36 -38 40 937 0
-26 -31 -35 36 -38 -40 -937 0
-26 -31 -35 -36 38 40 937 0
-26 -31 -35 -36 38 -40 -937 0
-26 -31 -35 -36 -38 40 -937 0
26 31 35 36 -38 -40 937 0
26 31 35 -36 38 -40 937 0
26 31 35 -36 -38 40 937 0
26 31 35 -36 -38 -40 -937 0
26 31 -35 36 38 -40 937 0
26 31 -35 36 -38 40 937 0
26 31 -35 36 -38 -40 -937 0
26 31 -35 -36 38 40 937 0
26 31 -35 -36 38 -40 -937 0
26 31 -35 -36 -38 40 -937 0
26 -31 35 36 38 -40 937 0
26 -31 35 36 -38 40 937 0
26 -31 35 36 -38 -40 -937 0
26 -31 35 -36 38 40 937 0
26 -31 35 -36 38 -40 -937 0
26 -31 35 -36 -38 40 -937 0
26 -31 -35 36 38 40 937 0
26 -31 -35 36 38 -40 -937 0
26 -31 -35 36 -38 40 -937 0
26 -31 -35 -36 38 40 -937 0
-26 31 35 36 38 -40 937 0
-26 31 35 36 -38 40 937 0
-26 31 35 36 -38 -40 -937 0
-26 31 35 -36 38 40 937 0
-26 31 35 -36 38 -40 -937 0
-26 31 35 -36 -38 40 -937 0
-26 31 -35 36 38 40 937 0
-26 31 -35 36 38 -40 -937 0
-26 31 -35 36 -38 40 -937 0
-26 31 -35 -36 38 40 -937 0
-26 -31 35 36 38 40 937 0
-26 -31 35 36 38 -40 -937 0
-26 -31 35 36 -38 40 -937 0
-26 -31 35 -36 38 40 -937 0
-26 -31 -35 36 38 40 -937 0
26 31 35 36 38 40 937 0
26 31 35 36 38 -40 -937 0
26 31 35 36 -38 40 -937 0
26 31 35 -36 38 40 -937 0
26 31 -35 36 38 40 -937 0
26 -31 35 36 38 40 -937 0
-26 31 35 36 38 40 -937 0
937 -41 -43 -45 -50 -51 938 0
-937 41 -43 -45 -50 -51 938 0
-937 -41 43 -45 -50 -51 938 0
-937 -41 -43 45 -50 -51 938 0
-937 -41 -43 -45 50 -51 938 0
-937 -41 -43 -45 -50 51 938 0
-937 -41 -43 -45 -50 -51 -938 0
937 41 43 -45 -50 -51 938 0
937 41 -43 45 -50 -51 938 0
937 41 -43 -45 50 -51 938 0
937 41 -43 -45 -50 51 938 0
937 41 -43 -45 -50 -51 -938 0
937 -41 43 45 -50 -51 938 0
937 -41 43 -45 50 -51 938 0
937 -41 43 -45 -50 51 938 0
937 -41 43 -45 -50 -51 -938 0
937 -41 -43 45 50 -51 938 0
937 -41 -43 45 -50 51 938 0
937 -41 -43 45 -50 -51 -938 0
937 -41 -43 -45 50 51 938 0
937 -41 -43 -45 50 -51 -938 0
937 -41 -43 -45 -50 51 -938 0
-937 41 43 45 -50 -51 938 0
-937 41 43 -45 50 -51 938 0
-937 41 43 -45 -50 51 938 0
-937 41 43 -45 -50 -51 -938 0
-937 41 -43 45 50 -51 938 0
-937 41 -43 45 -50 51 938 0
-937 41 -43 45 -50 -51 -938 0
-937 41 -43 -45 50 51 938 0
-937 41 -43 -45 50 -51 -938 0
-937 41 -43 -45 -50 51 -938 0
-937 -41 43 45 50 -51 938 0
-937 -41 43 45 -50 51 938 0
-937 -41 43 45 -50 -51 -938 0
-937 -41 43 -45 50 51 938 0
-937 -41 43 -45 50 -51 -938 0
-937 -41 43 -45 -50 51 -938 0
-937 -41 -43 45 50 51 938 0
-937 -41 -43 45 50 -51 -938 0
-937 -41 -43 45 -50 51 -938 0
-937 -41 -43 -45 50 51 -938 0
937 41 43 45 50 -51 938 0
937 41 43 45 -50 51 938 0
937 41 43 45 -50 -51 -938 0
937 41 43 -45 50 51 938 0
937 41 43 -45 50 -51 -938 0
937 41 43 -45 -50 51 -938 0
937 41 -43 45 50 51 938 0
937 41 -43 45 50 -51 -938 0
937 41 -43 45 -50 51 -938 0
937 41 -43 -45 50 51 -938 0
937 -41 43 45 50 51 938 0
937 -41 43 45 50 -51 -938 0
937 -41 43 45 -50 51 -938 0
937 -41 43 -45 50 51 -938 0
937 -41 -43 45 50 51 -938 0
-937 41 43 45 50 51 938 0
-937 41 43 45 50 -51 -938 0
-937 41 43 45 -50 51 -938 0
-937 41 43 -45 50 51 -938 0
-937 41 -43 45 50 51 -938 0
-937 -41 43 45 50 51 -938 0
937 41 43 45 50 51 -938 0
938 -53 -55 -61 -65 -67 939 0
-938 53 -55 -61 -65 -67 939 0
-938 -53 55 -61 -65 -67 939 0
-938 -53 -55 61 -65 -67 939 0
-938 -53 -55 -61 65 -67 939 0
-938 -53 -55 -61 -65 67 939 0
-938 -53 -55 -61 -65 -67 -939 0
938 53 55 -61 -65 -67 939 0
938 53 -55 61 -65 -67 939 0
938 53 -55 -61 65 -67 939 0
938 53 -55 -61 -65 67 939 0
938 53 -55 -61 -65 -67 -939 0
938 -53 55 61 -65 -67 939 0
938 -53 55 -61 65 -67 939 0
938 -53 55 -61 -65 67 939 0
938 -53 55 -61 -65 -67 -939 0
938 -53 -55 61 65 -67 939 0
938 -53 -55 61 -65 67 939 0
938 -53 -55 61 -65 -67 -939 0
938 -53 -55 -61 65 67 939 0
938 -53 -55 -61 65 -67 -939 0
938 -53 -55 -61 -65 67 -939 0
-938 53 55 61 -65 -67 939 0
-938 53 55 -61 65 -67 939 0
-938 53 55 -61 -65 67 939 0
-938 53 55 -61 -65 -67 -939 0
-938 53 -55 61 65 -67 939 0
-938 53 -55 61 -65 67 939 0
-938 53 -55 61 -65 -67 -939 0
-938 53 -55 -61 65 67 939 0
-938 53 -55 -61 65 -67 -939 0
-938 53 -55 -61 -65 67 -939 0
-938 -53 55 61 65 -67 939 0
-938 -53 55 61 -65 67 939 0
-938 -53 55 61 -65 -67 -939 0
-938 -53 55 -61 65 67 939 0
-938 -53 55 -61 65 -67 -939 0
-938 -53 55 -61 -65 67 -939 0
-938 -53 -55 61 65 67 939 0
-938 -53 -55 61 65 -67 -939 0
-938 -53 -55 61 -65 67 -939 0
-938 -53 -55 -61 65 67 -939 0
938 53 55 61 65 -67 939 0
938 53 55 61 -65 67 939 0
938 53 55 61 -65 -67 -939 0
938 53 55 -61 65 67 939 0
938 53 55 -61 65 -67 -939 0
938 53 55 -61 -65 67 -939 0
938 53 -55 61 65 67 939 0
938 53 -55 61 65 -67 -939 0
938 53 -55 61 -65 67 -939 0
938 53 -55 -61 65 67 -939 0
938 -53 55 61 65 67 939 0
938 -53 55 61 65 -67 -939 0
938 -53 55 61 -65 67 -939 0
938 -53 55 -61 65 67 -939 0
938 -53 -55 61 65 67 -939 0
-938 53 55 61 65 67 939 0
-938 53 55 61 65 -67 -939 0
-938 53 55 61 -65 67 -939 0
-938 53 55 -61 65 67 -939 0
-938 53 -55 61 65 67 -939 0
-938 -53 55 61 65 67 -939 0
938 53 55 61 65 67 -939 0
-939 -68 -69 -74 0
939 68 -69 -74 0
939 -68 69 -74 0
939 -68 -69 74 0
-939 68 69 -74 0
-939 68 -69 74 0
-939 -68 69 74 0
939 68 69 74 0
320 -321 -322 -323 -324 -105 0
-320 321 -322 -323 -324 -105 0
-320 -321 322 -323 -324 -105 0
-320 -321 -322 323 -324 -105 0
-320 -321 -322 -323 324 -105 0
-320 -321 -322 -323 -324 105 0
320 321 322 -323 -324 -105 0
320 321 -322 323 -324 -105 0
320 321 -322 -323 324 -105 0
320 321 -322 -323 -324 105 0
320 -321 322 323 -324 -105 0
320 -321 322 -323 324 -105 0
320 -321 322 -323 -324 105 0
320 -321 -322 323 324 -105 0
320 -321 -322 323 -324 105 0
320 -321 -322 -323 324 105 0
-320 321 322 323 -324 -105 0
-320 321 322 -323 324 -105 0
-320 321 322 -323 -324 105 0
-320 321 -322 323 324 -105 0
-320 321 -322 323 -324 105 0
-320 321 -322 -323 324 105 0
-320 -321 322 323 324 -105 0
-320 -321 322 323 -324 105 0
-320 -321 322 -323 324 105 0
-320 -321 -322 323 324 105 0
320 321 322 323 324 -105 0
320 321 322 323 -324 105 0
320 321 322 -323 324 105 0
320 321 -322 323 324 105 0
320 -321 322 323 324 105 0
-320 321 322 323 324 105 0
325 -326 -327 -328 -329 -136 0
-325 326 -327 -328 -329 -136 0
-325 -326 327 -328 -329 -136 0
-325 -326 -327 328 -329 -136 0
-325 -326 -327 -328 329 -136 0
-325 -326 -327 -328 -329 136 0
325 326 327 -328 -329 -136 0
325 326 -327 328 -329 -136 0
325 326 -327 -328 329 -136 0
325 326 -327 -328 -329 136 0
325 -326 327 328 -329 -136 0
325 -326 327 -328 329 -136 0
325 -326 327 -328 -329 136 0
325 -326 -327 328 329 -136 0
325 -326 -327 328 -329 136 0
325 -326 -327 -328 329 136 0
-325 326 327 328 -329 -136 0
-325 326 327 -328 329 -136 0
-325 326 327 -328 -329 136 0
-325 326 -327 328 329 -136 0
-325 326 -327 328 -329 136 0
-325 326 -327 -328 329 136 0
-325 -326 327 328 329 -136 0
-325 -326 327 328 -329 136 0
-325 -326 327 -328 329 136 0
-325 -326 -327 328 329 136 0
325 326 327 328 329 -136 0
325 326 327 328 -329 136 0
325 326 327 -328 329 136 0
325 326 -327 328 329 136 0
325 -326 327 328 329 136 0
-325 326 327 328 329 136 0
564 -513 -565 -566 -567 -167 0
-564 513 -565 -566 -567 -167 0
-564 -513 565 -566 -567 -167 0
-564 -513 -565 566 -567 -167 0
-564 -513 -565 -566 567 -167 0
-564 -513 -565 -566 -567 167 0
564 513 565 -566 -567 -167 0
564 513 -565 566 -567 -167 0
564 513 -565 -566 567 -167 0
564 513 -565 -566 -567 167 0
564 -513 565 566 -567 -167 0
564 -513 565 -566 567 -167 0
564 -513 565 -566 -567 167 0
564 -513 -565 566 567 -167 0
564 -513 -565 566 -567 167 0
564 -513 -565 -566 567 167 0
-564 513 565 566 -567 -167 0
-564 513 565 -566 567 -167 0
-564 513 565 -566 -567 167 0
-564 513 -565 566 567 -167 0
-564 513 -565 566 -567 167 0
-564 513 -565 -566 567 167 0
-564 -513 565 566 567 -167 0
-564 -513 565 566 -567 167 0
-564 -513 565 -566 567 167 0
-564 -513 -565 566 567 167 0
564 513 565 566 567 -167 0
564 513 565 566 -567 167 0
564 513 565 -566 567 167 0
564 513 -565 566 567 167 0
564 -513 565 566 567 167 0
-564 513 565 566 567 167 0
-940 61 0
-940 -63 0
940 -61 63 0
-941 59 0
-941 65 0
941 -59 -65 0
-942 59 0
-942 63 0
-942 -65 0
942 -59 -63 65 0
-943 -61 0
-943 63 0
-943 65 0
943 61 -63 -65 0
902 -940 -941 -942 -943 -198 0
-902 940 -941 -942 -943 -198 0
-902 -940 941 -942 -943 -198 0
-902 -940 -941 942 -943 -198 0
-902 -940 -941 -942 943 -198 0
-902 -940 -941 -942 -943 198 0
902 940 941 -942 -943 -198 0
902 940 -941 942 -943 -198 0
902 940 -941 -942 943 -198 0
902 940 -941 -942 -943 198 0
902 -940 941 942 -943 -198 0
902 -940 941 -942 943 -198 0
902 -940 941 -942 -943 198 0
902 -940 -941 942 943 -198 0
902 -940 -941 942 -943 198 0
902 -940 -941 -942 943 198 0
-902 940 941 942 -943 -198 0
-902 940 941 -942 943 -198 0
-902 940 941 -942 -943 198 0
-902 940 -941 942 943 -198 0
-902 940 -941 942 -943 198 0
-902 940 -941 -942 943 198 0
-902 -940 941 942 943 -198 0
-902 -940 941 942 -943 198 0
-902 -940 941 -942 943 198 0
-902 -940 -941 942 943 198 0
902 940 941 942 943 -198 0
902 940 941 942 -943 198 0
902 940 941 -942 943 198 0
902 940 -941 942 943 198 0
902 -940 941 942 943 198 0
-902 940 941 942 943 198 0
-944 -67 0
-944 71 0
944 67 -71 0
-945 69 0
-945 73 0
945 -69 -73 0
-946 67 0
-946 -71 0
-946 73 0
946 -67 71 -73 0
-947 69 0
-947 71 0
-947 -73 0
947 -69 -71 73 0
944 -909 -945 -946 -947 -229 0
-944 909 -945 -946 -947 -229 0
-944 -909 945 -946 -947 -229 0
-944 -909 -945 946 -947 -229 0
-944 -909 -945 -946 947 -229 0
-944 -909 -945 -946 -947 229 0
944 909 945 -946 -947 -229 0
944 909 -945 946 -947 -229 0
944 909 -945 -946 947 -229 0
944 909 -945 -946 -947 229 0
944 -909 945 946 -947 -229 0
944 -909 945 -946 947 -229 0
944 -909 945 -946 -947 229 0
944 -909 -945 946 947 -229 0
944 -909 -945 946 -947 229 0
944 -909 -945 -946 947 229 0
-944 909 945 946 -947 -229 0
-944 909 945 -946 947 -229 0
-944 909 945 -946 -947 229 0
-944 909 -945 946 947 -229 0
-944 909 -945 946 -947 229 0
-944 909 -945 -946 947 229 0
-944 -909 945 946 947 -229 0
-944 -909 945 946 -947 229 0
-944 -909 945 -946 947 229 0
-944 -909 -945 946 947 229 0
944 909 945 946 947 -229 0
944 909 945 946 -947 229 0
944 909 945 -946 947 229 0
944 909 -945 946 947 229 0
944 -909 945 946 947 229 0
-944 909 945 946 947 229 0
-948 105 0
-948 -167 0
948 -105 167 0
-949 105 0
-949 -136 0
-949 198 0
949 -105 136 -198 0
-950 -105 0
-950 229 0
950 105 -229 0
-951 105 0
-951 136 0
-951 -167 0
-951 229 0
951 -105 -136 167 -229 0
-952 -105 0
-952 198 0
-952 229 0
952 105 -198 -229 0
-953 136 0
-953 198 0
-953 229 0
953 -136 -198 -229 0
-954 136 0
-954 167 0
-954 198 0
-954 -229 0
954 -136 -167 -198 229 0
948 -949 -950 -951 -952 -953 955 0
-948 949 -950 -951 -952 -953 955 0
-948 -949 950 -951 -952 -953 955 0
-948 -949 -950 951 -952 -953 955 0
-948 -949 -950 -951 952 -953 955 0
-948 -949 -950 -951 -952 953 955 0
-948 -949 -950 -951 -952 -953 -955 0
948 949 950 -951 -952 -953 955 0
948 949 -950 951 -952 -953 955 0
948 949 -950 -951 952 -953 955 0
948 949 -950 -951 -952 953 955 0
948 949 -950 -951 -952 -953 -955 0
948 -949 950 951 -952 -953 955 0
948 -949 950 -951 952 -953 955 0
948 -949 950 -951 -952 953 955 0
948 -949 950 -951 -952 -953 -955 0
948 -949 -950 951 952 -953 955 0
948 -949 -950 951 -952 953 955 0
948 -949 -950 951 -952 -953 -955 0
948 -949 -950 -951 952 953 955 0
948 -949 -950 -951 952 -953 -955 0
948 -949 -950 -951 -952 953 -955 0
-948 949 950 951 -952 -953 955 0
-948 949 950 -951 952 -953 955 0
-948 949 950 -951 -952 953 955 0
-948 949 950 -951 -952 -953 -955 0
-948 949 -950 951 952 -953 955 0
-948 949 -950 951 -952 953 955 0
-948 949 -950 951 -952 -953 -955 0
-948 949 -950 -951 952 953 955 0
-948 949 -950 -951 952 -953 -955 0
-948 949 -950 -951 -952 953 -955 0
-948 -949 950 951 952 -953 955 0
-948 -949 950 951 -952 953 955 0
-948 -949 950 951 -952 -953 -955 0
-948 -949 950 -951 952 953 955 0
-948 -949 950 -951 952 -953 -955 0
-948 -949 950 -951 -952 953 -955 0
-948 -949 -950 951 952 953 955 0
-948 -949 -950 951 952 -953 -955 0
-948 -949 -950 951 -952 953 -955 0
-948 -949 -950 -951 952 953 -955 0
948 949 950 951 952 -953 955 0
948 949 950 951 -952 953 955 0
948 949 950 951 -952 -953 -955 0
948 949 950 -951 952 953 955 0
948 949 950 -951 952 -953 -955 0
948 949 950 -951 -952 953 -955 0
948 949 -950 951 952 953 955 0
948 949 -950 951 952 -953 -955 0
948 949 -950 951 -952 953 -955 0
948 949 -950 -951 952 953 -955 0
948 -949 950 951 952 953 955 0
948 -949 950 951 952 -953 -955 0
948 -949 950 951 -952 953 -955 0
948 -949 950 -951 952 953 -955 0
948 -949 -950 951 952 953 -955 0
-948 949 950 951 952 953 955 0
-948 949 950 951 952 -953 -955 0
-948 949 950 951 -952 953 -955 0
-948 949 950 -951 952 953 -955 0
-948 949 -950 951 952 953 -955 0
-948 -949 950 951 952 953 -955 0
948 949 950 951 952 953 -955 0
-955 -954 0
955 954 0
-27 -32 -36 -37 -39 -41 956 0
27 32 -36 -37 -39 -41 956 0
27 -32 36 -37 -39 -41 956 0
27 -32 -36 37 -39 -41 956 0
27 -32 -36 -37 39 -41 956 0
27 -32 -36 -37 -39 41 956 0
27 -32 -36 -37 -39 -41 -956 0
-27 32 36 -37 -39 -41 956 0
-27 32 -36 37 -39 -41 956 0
-27 32 -36 -37 39 -41 956 0
-27 32 -36 -37 -39 41 956 0
-27 32 -36 -37 -39 -41 -956 0
-27 -32 36 37 -39 -41 956 0
-27 -32 36 -37 39 -41 956 0
-27 -32 36 -37 -39 41 956 0
-27 -32 36 -37 -39 -41 -956 0
-27 -32 -36 37 39 -41 956 0
-27 -32 -36 37 -39 41 956 0
-27 -32 -36 37 -39 -41 -956 0
-27 -32 -36 -37 39 41 956 0
-27 -32 -36 -37 39 -41 -956 0
-27 -32 -36 -37 -39 41 -956 0
27 32 36 37 -39 -41 956 0
27 32 36 -37 39 -41 956 0
27 32 36 -37 -39 41 956 0
27 32 36 -37 -39 -41 -956 0
27 32 -36 37 39 -41 956 0
27 32 -36 37 -39 41 956 0
27 32 -36 37 -39 -41 -956 0
27 32 -36 -37 39 41 956 0
27 32 -36 -37 39 -41 -956 0
27 32 -36 -37 -39 41 -956 0
27 -32 36 37 39 -41 956 0
27 -32 36 37 -39 41 956 0
27 -32 36 37 -39 -41 -956 0
27 -32 36 -37 39 41 956 0
27 -32 36 -37 39 -41 -956 0
27 -32 36 -37 -39 41 -956 0
27 -32 -36 37 39 41 956 0
27 -32 -36 37 39 -41 -956 0
27 -32 -36 37 -39 41 -956 0
27 -32 -36 -37 39 41 -956 0
-27 32 36 37 39 -41 956 0
-27 32 36 37 -39 41 956 0
-27 32 36 37 -39 -41 -956 0
-27 32 36 -37 39 41 956 0
-27 32 36 -37 39 -41 -956 0
-27 32 36 -37 -39 41 -956 0
-27 32 -36 37 39 41 956 0
-27 32 -36 37 39 -41 -956 0
-27 32 -36 37 -39 41 -956 0
-27 32 -36 -37 39 41 -956 0
-27 -32 36 37 39 41 956 0
-27 -32 36 37 39 -41 -956 0
-27 -32 36 37 -39 41 -956 0
-27 -32 36 -37 39 41 -956 0
-27 -32 -36 37 39 41 -956 0
27 32 36 37 39 41 956 0
27 32 36 37 39 -41 -956 0
27 32 36 37 -39 41 -956 0
27 32 36 -37 39 41 -956 0
27 32 -36 37 39 41 -956 0
27 -32 36 37 39 41 -956 0
-27 32 36 37 39 41 -956 0
956 -42 -44 -46 -51 -52 957 0
-956 42 -44 -46 -51 -52 957 0
-956 -42 44 -46 -51 -52 957 0
-956 -42 -44 46 -51 -52 957 0
-956 -42 -44 -46 51 -52 957 0
-956 -42 -44 -46 -51 52 957 0
-956 -42 -44 -46 -51 -52 -957 0
956 42 44 -46 -51 -52 957 0
956 42 -44 46 -51 -52 957 0
956 42 -44 -46 51 -52 957 0
956 42 -44 -46 -51 52 957 0
956 42 -44 -46 -51 -52 -957 0
956 -42 44 46 -51 -52 957 0
956 -42 44 -46 51 -52 957 0
956 -42 44 -46 -51 52 957 0
956 -42 44 -46 -51 -52 -957 0
956 -42 -44 46 51 -52 957 0
956 -42 -44 46 -51 52 957 0
956 -42 -44 46 -51 -52 -957 0
956 -42 -44 -46 51 52 957 0
956 -42 -44 -46 51 -52 -957 0
956 -42 -44 -46 -51 52 -957 0
-956 42 44 46 -51 -52 957 0
-956 42 44 -46 51 -52 957 0
-956 42 44 -46 -51 52 957 0
-956 42 44 -46 -51 -52 -957 0
-956 42 -44 46 51 -52 957 0
-956 42 -44 46 -51 52 957 0
-956 42 -44 46 -51 -52 -957 0
-956 42 -44 -46 51 52 957 0
-956 42 -44 -46 51 -52 -957 0
-956 42 -44 -46 -51 52 -957 0
-956 -42 44 46 51 -52 957 0
-956 -42 44 46 -51 52 957 0
-956 -42 44 46 -51 -52 -957 0
-956 -42 44 -46 51 52 957 0
-956 -42 44 -46 51 -52 -957 0
-956 -42 44 -46 -51 52 -957 0
-956 -42 -44 46 51 52 957 0
-956 -42 -44 46 51 -52 -957 0
-956 -42 -44 46 -51 52 -957 0
-956 -42 -44 -46 51 52 -957 0
956 42 44 46 51 -52 957 0
956 42 44 46 -51 52 957 0
956 42 44 46 -51 -52 -957 0
956 42 44 -46 51 52 957 0
956 42 44 -46 51 -52 -957 0
956 42 44 -46 -51 52 -957 0
956 42 -44 46 51 52 957 0
956 42 -44 46 51 -52 -957 0
956 42 -44 46 -51 52 -957 0
956 42 -44 -46 51 52 -957 0
956 -42 44 46 51 52 957 0
956 -42 44 46 51 -52 -957 0
956 -42 44 46 -51 52 -957 0
956 -42 44 -46 51 52 -957 0
956 -42 -44 46 51 52 -957 0
-956 42 44 46 51 52 957 0
-956 42 44 46 51 -52 -957 0
-956 42 44 46 -51 52 -957 0
-956 42 44 -46 51 52 -957 0
-956 42 -44 46 51 52 -957 0
-956 -42 44 46 51 52 -957 0
956 42 44 46 51 52 -957 0
957 -54 -56 -62 -66 -68 958 0
-957 54 -56 -62 -66 -68 958 0
-957 -54 56 -62 -66 -68 958 0
-957 -54 -56 62 -66 -68 958 0
-957 -54 -56 -62 66 -68 958 0
-957 -54 -56 -62 -66 68 958 0
-957 -54 -56 -62 -66 -68 -958 0
957 54 56 -62 -66 -68 958 0
957 54 -56 62 -66 -68 958 0
957 54 -56 -62 66 -68 958 0
957 54 -56 -62 -66 68 958 0
957 54 -56 -62 -66 -68 -958 0
957 -54 56 62 -66 -68 958 0
957 -54 56 -62 66 -68 958 0
957 -54 56 -62 -66 68 958 0
957 -54 56 -62 -66 -68 -958 0
957 -54 -56 62 66 -68 958 0
957 -54 -56 62 -66 68 958 0
957 -54 -56 62 -66 -68 -958 0
957 -54 -56 -62 66 68 958 0
957 -54 -56 -62 66 -68 -958 0
957 -54 -56 -62 -66 68 -958 0
-957 54 56 62 -66 -68 958 0
-957 54 56 -62 66 -68 958 0
-957 54 56 -62 -66 68 958 0
-957 54 56 -62 -66 -68 -958 0
-957 54 -56 62 66 -68 958 0
-957 54 -56 62 -66 68 958 0
-957 54 -56 62 -66 -68 -958 0
-957 54 -56 -62 66 68 958 0
-957 54 -56 -62 66 -68 -958 0
-957 54 -56 -62 -66 68 -958 0
-957 -54 56 62 66 -68 958 0
-957 -54 56 62 -66 68 958 0
-957 -54 56 62 -66 -68 -958 0
-957 -54 56 -62 66 68 958 0
-957 -54 56 -62 66 -68 -958 0
-957 -54 56 -62 -66 68 -958 0
-957 -54 -56 62 66 68 958 0
-957 -54 -56 62 66 -68 -958 0
-957 -54 -56 62 -66 68 -958 0
-957 -54 -56 -62 66 68 -958 0
957 54 56 62 66 -68 958 0
957 54 56 62 -66 68 958 0
957 54 56 62 -66 -68 -958 0
957 54 56 -62 66 68 958 0
957 54 56 -62 66 -68 -958 0
957 54 56 -62 -66 68 -958 0
957 54 -56 62 66 68 958 0
957 54 -56 62 66 -68 -958 0
957 54 -56 62 -66 68 -958 0
957 54 -56 -62 66 68 -958 0
957 -54 56 62 66 68 958 0
957 -54 56 62 66 -68 -958 0
957 -54 56 62 -66 68 -958 0
957 -54 56 -62 66 68 -958 0
957 -54 -56 62 66 68 -958 0
-957 54 56 62 66 68 958 0
-957 54 56 62 66 -68 -958 0
-957 54 56 62 -66 68 -958 0
-957 54 56 -62 66 68 -958 0
-957 54 -56 62 66 68 -958 0
-957 -54 56 62 66 68 -958 0
957 54 56 62 66 68 -958 0
-958 -69 -70 -75 0
958 69 -70 -75 0
958 -69 70 -75 0
958 -69 -70 75 0
-958 69 70 -75 0
-958 69 -70 75 0
-958 -69 70 75 0
958 69 70 75 0
285 -353 -354 -355 -356 -106 0
-285 353 -354 -355 -356 -106 0
-285 -353 354 -355 -356 -106 0
-285 -353 -354 355 -356 -106 0
-285 -353 -354 -355 356 -106 0
-285 -353 -354 -355 -356 106 0
285 353 354 -355 -356 -106 0
285 353 -354 355 -356 -106 0
285 353 -354 -355 356 -106 0
285 353 -354 -355 -356 106 0
285 -353 354 355 -356 -106 0
285 -353 354 -355 356 -106 0
285 -353 354 -355 -356 106 0
285 -353 -354 355 356 -106 0
285 -353 -354 355 -356 106 0
285 -353 -354 -355 356 106 0
-285 353 354 355 -356 -106 0
-285 353 354 -355 356 -106 0
-285 353 354 -355 -356 106 0
-285 353 -354 355 356 -106 0
-285 353 -354 355 -356 106 0
-285 353 -354 -355 356 106 0
-285 -353 354 355 356 -106 0
-285 -353 354 355 -356 106 0
-285 -353 354 -355 356 106 0
-285 -353 -354 355 356 106 0
285 353 354 355 356 -106 0
285 353 354 355 -356 106 0
285 353 354 -355 356 106 0
285 353 -354 355 356 106 0
285 -353 354 355 356 106 0
-285 353 354 355 356 106 0
357 -293 -358 -359 -360 -137 0
-357 293 -358 -359 -360 -137 0
-357 -293 358 -359 -360 -137 0
-357 -293 -358 359 -360 -137 0
-357 -293 -358 -359 360 -137 0
-357 -293 -358 -359 -360 137 0
357 293 358 -359 -360 -137 0
357 293 -358 359 -360 -137 0
357 293 -358 -359 360 -137 0
357 293 -358 -359 -360 137 0
357 -293 358 359 -360 -137 0
357 -293 358 -359 360 -137 0
357 -293 358 -359 -360 137 0
357 -293 -358 359 360 -137 0
357 -293 -358 359 -360 137 0
357 -293 -358 -359 360 137 0
-357 293 358 359 -360 -137 0
-357 293 358 -359 360 -137 0
-357 293 358 -359 -360 137 0
-357 293 -358 359 360 -137 0
-357 293 -358 359 -360 137 0
-357 293 -358 -359 360 137 0
-357 -293 358 359 360 -137 0
-357 -293 358 359 -360 137 0
-357 -293 358 -359 360 137 0
-357 -293 -358 359 360 137 0
357 293 358 359 360 -137 0
357 293 358 359 -360 137 0
357 293 358 -359 360 137 0
357 293 -358 359 360 137 0
357 -293 358 359 360 137 0
-357 293 358 359 360 137 0
591 -540 -592 -593 -594 -168 0
-591 540 -592 -593 -594 -168 0
-591 -540 592 -593 -594 -168 0
-591 -540 -592 593 -594 -168 0
-591 -540 -592 -593 594 -168 0
-591 -540 -592 -593 -594 168 0
591 540 592 -593 -594 -168 0
591 540 -592 593 -594 -168 0
591 540 -592 -593 594 -168 0
591 540 -592 -593 -594 168 0
591 -540 592 593 -594 -168 0
591 -540 592 -593 594 -168 0
591 -540 592 -593 -594 168 0
591 -540 -592 593 594 -168 0
591 -540 -592 593 -594 168 0
591 -540 -592 -593 594 168 0
-591 540 592 593 -594 -168 0
-591 540 592 -593 594 -168 0
-591 540 592 -593 -594 168 0
-591 540 -592 593 594 -168 0
-591 540 -592 593 -594 168 0
-591 540 -592 -593 594 168 0
-591 -540 592 593 594 -168 0
-591 -540 592 593 -594 168 0
-591 -540 592 -593 594 168 0
-591 -540 -592 593 594 168 0
591 540 592 593 594 -168 0
591 540 592 593 -594 168 0
591 540 592 -593 594 168 0
591 540 -592 593 594 168 0
591 -540 592 593 594 168 0
-591 540 592 593 594 168 0
-959 62 0
-959 -64 0
959 -62 64 0
-960 60 0
-960 66 0
960 -60 -66 0
-961 60 0
-961 64 0
-961 -66 0
961 -60 -64 66 0
-962 -62 0
-962 64 0
-962 66 0
962 62 -64 -66 0
921 -959 -960 -961 -962 -199 0
-921 959 -960 -961 -962 -199 0
-921 -959 960 -961 -962 -199 0
-921 -959 -960 961 -962 -199 0
-921 -959 -960 -961 962 -199 0
-921 -959 -960 -961 -962 199 0
921 959 960 -961 -962 -199 0
921 959 -960 961 -962 -199 0
921 959 -960 -961 962 -199 0
921 959 -960 -961 -962 199 0
921 -959 960 961 -962 -199 0
921 -959 960 -961 962 -199 0
921 -959 960 -961 -962 199 0
921 -959 -960 961 962 -199 0
921 -959 -960 961 -962 199 0
921 -959 -960 -961 962 199 0
-921 959 960 961 -962 -199 0
-921 959 960 -961 962 -199 0
-921 959 960 -961 -962 199 0
-921 959 -960 961 962 -199 0
-921 959 -960 961 -962 199 0
-921 959 -960 -961 962 199 0
-921 -959 960 961 962 -199 0
-921 -959 960 961 -962 199 0
-921 -959 960 -961 962 199 0
-921 -959 -960 961 962 199 0
921 959 960 961 962 -199 0
921 959 960 961 -962 199 0
921 959 960 -961 962 199 0
921 959 -960 961 962 199 0
921 -959 960 961 962 199 0
-921 959 960 961 962 199 0
-963 -68 0
-963 72 0
963 68 -72 0
-964 70 0
-964 74 0
964 -70 -74 0
-965 68 0
-965 -72 0
-965 74 0
965 -68 72 -74 0
-966 70 0
-966 72 0
-966 -74 0
966 -70 -72 74 0
963 -928 -964 -965 -966 -230 0
-963 928 -964 -965 -966 -230 0
-963 -928 964 -965 -966 -230 0
-963 -928 -964 965 -966 -230 0
-963 -928 -964 -965 966 -230 0
-963 -928 -964 -965 -966 230 0
963 928 964 -965 -966 -230 0
963 928 -964 965 -966 -230 0
963 928 -964 -965 966 -230 0
963 928 -964 -965 -966 230 0
963 -928 964 965 -966 -230 0
963 -928 964 -965 966 -230 0
963 -928 964 -965 -966 230 0
963 -928 -964 965 966 -230 0
963 -928 -964 965 -966 230 0
963 -928 -964 -965 966 230 0
-963 928 964 965 -966 -230 0
-963 928 964 -965 966 -230 0
-963 928 964 -965 -966 230 0
-963 928 -964 965 966 -230 0
-963 928 -964 965 -966 230 0
-963 928 -964 -965 966 230 0
-963 -928 964 965 966 -230 0
-963 -928 964 965 -966 230 0
-963 -928 964 -965 966 230 0
-963 -928 -964 965 966 230 0
963 928 964 965 966 -230 0
963 928 964 965 -966 230 0
963 928 964 -965 966 230 0
963 928 -964 965 966 230 0
963 -928 964 965 966 230 0
-963 928 964 965 966 230 0
-967 106 0
-967 -168 0
967 -106 168 0
-968 106 0
-968 -137 0
-968 199 0
968 -106 137 -199 0
-969 -106 0
-969 230 0
969 106 -230 0
-970 106 0
-970 137 0
-970 -168 0
-970 230 0
970 -106 -137 168 -230 0
-971 -106 0
-971 199 0
-971 230 0
971 106 -199 -230 0
-972 137 0
-972 199 0
-972 230 0
972 -137 -199 -230 0
-973 137 0
-973 168 0
-973 199 0
-973 -230 0
973 -137 -168 -199 230 0
967 -968 -969 -970 -971 -972 974 0
-967 968 -969 -970 -971 -972 974 0
-967 -968 969 -970 -971 -972 974 0
-967 -968 -969 970 -971 -972 974 0
-967 -968 -969 -970 971 -972 974 0
-967 -968 -969 -970 -971 972 974 0
-967 -968 -969 -970 -971 -972 -974 0
967 968 969 -970 -971 -972 974 0
967 968 -969 970 -971 -972 974 0
967 968 -969 -970 971 -972 974 0
967 968 -969 -970 -971 972 974 0
967 968 -969 -970 -971 -972 -974 0
967 -968 969 970 -971 -972 974 0
967 -968 969 -970 971 -972 974 0
967 -968 969 -970 -971 972 974 0
967 -968 969 -970 -971 -972 -974 0
967 -968 -969 970 971 -972 974 0
967 -968 -969 970 -971 972 974 0
967 -968 -969 970 -971 -972 -974 0
967 -968 -969 -970 971 972 974 0
967 -968 -969 -970 971 -972 -974 0
967 -968 -969 -970 -971 972 -974 0
-967 968 969 970 -971 -972 974 0
-967 968 969 -970 971 -972 974 0
-967 968 969 -970 -971 972 974 0
-967 968 969 -970 -971 -972 -974 0
-967 968 -969 970 971 -972 974 0
-967 968 -969 970 -971 972 974 0
-967 968 -969 970 -971 -972 -974 0
-967 968 -969 -970 971 972 974 0
-967 968 -969 -970 971 -972 -974 0
-967 968 -969 -970 -971 972 -974 0
-967 -968 969 970 971 -972 974 0
-967 -968 969 970 -971 972 974 0
-967 -968 969 970 -971 -972 -974 0
-967 -968 969 -970 971 972 974 0
-967 -968 969 -970 971 -972 -974 0
-967 -968 969 -970 -971 972 -974 0
-967 -968 -969 970 971 972 974 0
-967 -968 -969 970 971 -972 -974 0
-967 -968 -969 970 -971 972 -974 0
-967 -968 -969 -970 971 972 -974 0
967 968 969 970 971 -972 974 0
967 968 969 970 -971 972 974 0
967 968 969 970 -971 -972 -974 0
967 968 969 -970 971 972 974 0
967 968 969 -970 971 -972 -974 0
967 968 969 -970 -971 972 -974 0
967 968 -969 970 971 972 974 0
967 968 -969 970 971 -972 -974 0
967 968 -969 970 -971 972 -974 0
967 968 -969 -970 971 972 -974 0
967 -968 969 970 971 972 974 0
967 -968 969 970 971 -972 -974 0
967 -968 969 970 -971 972 -974 0
967 -968 969 -970 971 972 -974 0
967 -968 -969 970 971 972 -974 0
-967 968 969 970 971 972 974 0
-967 968 969 970 971 -972 -974 0
-967 968 969 970 -971 972 -974 0
-967 968 969 -970 971 972 -974 0
-967 968 -969 970 971 972 -974 0
-967 -968 969 970 971 972 -974 0
967 968 969 970 971 972 -974 0
-974 -973 0
974 973 0
-28 -33 -37 -38 -40 -42 975 0
28 33 -37 -38 -40 -42 975 0
28 -33 37 -38 -40 -42 975 0
28 -33 -37 38 -40 -42 975 0
28 -33 -37 -38 40 -42 975 0
28 -33 -37 -38 -40 42 975 0
28 -33 -37 -38 -40 -42 -975 0
-28 33 37 -38 -40 -42 975 0
-28 33 -37 38 -40 -42 975 0
-28 33 -37 -38 40 -42 975 0
-28 33 -37 -38 -40 42 975 0
-28 33 -37 -38 -40 -42 -975 0
-28 -33 37 38 -40 -42 975 0
-28 -33 37 -38 40 -42 975 0
-28 -33 37 -38 -40 42 975 0
-28 -33 37 -38 -40 -42 -975 0
-28 -33 -37 38 40 -42 975 0
-28 -33 -37 38 -40 42 975 0
-28 -33 -37 38 -40 -42 -975 0
-28 -33 -37 -38 40 42 975 0
-28 -33 -37 -38 40 -42 -975 0
-28 -33 -37 -38 -40 42 -975 0
28 33 37 38 -40 -42 975 0
28 33 37 -38 40 -42 975 0
28 33 37 -38 -40 42 975 0
28 33 37 -38 -40 -42 -975 0
28 33 -37 38 40 -42 975 0
28 33 -37 38 -40 42 975 0
28 33 -37 38 -40 -42 -975 0
28 33 -37 -38 40 42 975 0
28 33 -37 -38 40 -42 -975 0
28 33 -37 -38 -40 42 -975 0
28 -33 37 38 40 -42 975 0
28 -33 37 38 -40 42 975 0
28 -33 37 38 -40 -42 -975 0
28 -33 37 -38 40 42 975 0
28 -33 37 -38 40 -42 -975 0
28 -33 37 -38 -40 42 -975 0
28 -33 -37 38 40 42 975 0
28 -33 -37 38 40 -42 -975 0
28 -33 -37 38 -40 42 -975 0
28 -33 -37 -38 40 42 -975 0
-28 33 37 38 40 -42 975 0
-28 33 37 38 -40 42 975 0
-28 33 37 38 -40 -42 -975 0
-28 33 37 -38 40 42 975 0
-28 33 37 -38 40 -42 -975 0
-28 33 37 -38 -40 42 -975 0
-28 33 -37 38 40 42 975 0
-28 33 -37 38 40 -42 -975 0
-28 33 -37 38 -40 42 -975 0
-28 33 -37 -38 40 42 -975 0
-28 -33 37 38 40 42 975 0
-28 -33 37 38 40 -42 -975 0
-28 -33 37 38 -40 42 -975 0
-28 -33 37 -38 40 42 -975 0
-28 -33 -37 38 40 42 -975 0
28 33 37 38 40 42 975 0
28 33 37 38 40 -42 -975 0
28 33 37 38 -40 42 -975 0
28 33 37 -38 40 42 -975 0
28 33 -37 38 40 42 -975 0
28 -33 37 38 40 42 -975 0
-28 33 37 38 40 42 -975 0
975 -43 -45 -47 -52 -53 976 0
-975 43 -45 -47 -52 -53 976 0
-975 -43 45 -47 -52 -53 976 0
-975 -43 -45 47 -52 -53 976 0
-975 -43 -45 -47 52 -53 976 0
-975 -43 -45 -47 -52 53 976 0
-975 -43 -45 -47 -52 -53 -976 0
975 43 45 -47 -52 -53 976 0
975 43 -45 47 -52 -53 976 0
975 43 -45 -47 52 -53 976 0
975 43 -45 -47 -52 53 976 0
975 43 -45 -47 -52 -53 -976 0
975 -43 45 47 -52 -53 976 0
975 -43 45 -47 52 -53 976 0
975 -43 45 -47 -52 53 976 0
975 -43 45 -47 -52 -53 -976 0
975 -43 -45 47 52 -53 976 0
975 -43 -45 47 -52 53 976 0
975 -43 -45 47 -52 -53 -976 0
975 -43 -45 -47 52 53 976 0
975 -43 -45 -47 52 -53 -976 0
975 -43 -45 -47 -52 53 -976 0
-975 43 45 47 -52 -53 976 0
-975 43 45 -47 52 -53 976 0
-975 43 45 -47 -52 53 976 0
-975 43 45 -47 -52 -53 -976 0
-975 43 -45 47 52 -53 976 0
-975 43 -45 47 -52 53 976 0
-975 43 -45 47 -52 -53 -976 0
-975 43 -45 -47 52 53 976 0
-975 43 -45 -47 52 -53 -976 0
-975 43 -45 -47 -52 53 -976 0
-975 -43 45 47 52 -53 976 0
-975 -43 45 47 -52 53 976 0
-975 -43 45 47 -52 -53 -976 0
-975 -43 45 -47 52 53 976 0
-975 -43 45 -47 52 -53 -976 0
-975 -43 45 -47 -52 53 -976 0
-975 -43 -45 47 52 53 976 0
-975 -43 -45 47 52 -53 -976 0
-975 -43 -45 47 -52 53 -976 0
-975 -43 -45 -47 52 53 -976 0
975 43 45 47 52 -53 976 0
975 43 45 47 -52 53 976 0
975 43 45 47 -52 -53 -976 0
975 43 45 -47 52 53 976 0
975 43 45 -47 52 -53 -976 0
975 43 45 -47 -52 53 -976 0
975 43 -45 47 52 53 976 0
975 43 -45 47 52 -53 -976 0
975 43 -45 47 -52 53 -976 0
975 43 -45 -47 52 53 -976 0
975 -43 45 47 52 53 976 0
975 -43 45 47 52 -53 -976 0
975 -43 45 47 -52 53 -976 0
975 -43 45 -47 52 53 -976 0
975 -43 -45 47 52 53 -976 0
-975 43 45 47 52 53 976 0
-975 43 45 47 52 -53 -976 0
-975 43 45 47 -52 53 -976 0
-975 43 45 -47 52 53 -976 0
-975 43 -45 47 52 53 -976 0
-975 -43 45 47 52 53 -976 0
975 43 45 47 52 53 -976 0
976 -55 -57 -63 -67 -69 977 0
-976 55 -57 -63 -67 -69 977 0
-976 -55 57 -63 -67 -69 977 0
-976 -55 -57 63 -67 -69 977 0
-976 -55 -57 -63 67 -69 977 0
-976 -55 -57 -63 -67 69 977 0
-976 -55 -57 -63 -67 -69 -977 0
976 55 57 -63 -67 -69 977 0
976 55 -57 63 -67 -69 977 0
976 55 -57 -63 67 -69 977 0
976 55 -57 -63 -67 69 977 0
976 55 -57 -63 -67 -69 -977 0
976 -55 57 63 -67 -69 977 0
976 -55 57 -63 67 -69 977 0
976 -55 57 -63 -67 69 977 0
976 -55 57 -63 -67 -69 -977 0
976 -55 -57 63 67 -69 977 0
976 -55 -57 63 -67 69 977 0
976 -55 -57 63 -67 -69 -977 0
976 -55 -57 -63 67 69 977 0
976 -55 -57 -63 67 -69 -977 0
976 -55 -57 -63 -67 69 -977 0
-976 55 57 63 -67 -69 977 0
-976 55 57 -63 67 -69 977 0
-976 55 57 -63 -67 69 977 0
-976 55 57 -63 -67 -69 -977 0
-976 55 -57 63 67 -69 977 0
-976 55 -57 63 -67 69 977 0
-976 55 -57 63 -67 -69 -977 0
-976 55 -57 -63 67 69 977 0
-976 55 -57 -63 67 -69 -977 0
-976 55 -57 -63 -67 69 -977 0
-976 -55 57 63 67 -69 977 0
-976 -55 57 63 -67 69 977 0
-976 -55 57 63 -67 -69 -977 0
-976 -55 57 -63 67 69 977 0
-976 -55 57 -63 67 -69 -977 0
-976 -55 57 -63 -67 69 -977 0
-976 -55 -57 63 67 69 977 0
-976 -55 -57 63 67 -69 -977 0
-976 -55 -57 63 -67 69 -977 0
-976 -55 -57 -63 67 69 -977 0
976 55 57 63 67 -69 977 0
976 55 57 63 -67 69 977 0
976 55 57 63 -67 -69 -977 0
976 55 57 -63 67 69 977 0
976 55 57 -63 67 -69 -977 0
976 55 57 -63 -67 69 -977 0
976 55 -57 63 67 69 977 0
976 55 -57 63 67 -69 -977 0
976 55 -57 63 -67 69 -977 0
976 55 -57 -63 67 69 -977 0
976 -55 57 63 67 69 977 0
976 -55 57 63 67 -69 -977 0
976 -55 57 63 -67 69 -977 0
976 -55 57 -63 67 69 -977 0
976 -55 -57 63 67 69 -977 0
-976 55 57 63 67 69 977 0
-976 55 57 63 67 -69 -977 0
-976 55 57 63 -67 69 -977 0
-976 55 57 -63 67 69 -977 0
-976 55 -57 63 67 69 -977 0
-976 -55 57 63 67 69 -977 0
976 55 57 63 67 69 -977 0
-977 -70 -71 -76 0
977 70 -71 -76 0
977 -70 71 -76 0
977 -70 -71 76 0
-977 70 71 -76 0
-977 70 -71 76 0
-977 -70 71 76 0
977 70 71 76 0
321 -384 -385 -386 -387 -107 0
-321 384 -385 -386 -387 -107 0
-321 -384 385 -386 -387 -107 0
-321 -384 -385 386 -387 -107 0
-321 -384 -385 -386 387 -107 0
-321 -384 -385 -386 -387 107 0
321 384 385 -386 -387 -107 0
321 384 -385 386 -387 -107 0
321 384 -385 -386 387 -107 0
321 384 -385 -386 -387 107 0
321 -384 385 386 -387 -107 0
321 -384 385 -386 387 -107 0
321 -384 385 -386 -387 107 0
321 -384 -385 386 387 -107 0
321 -384 -385 386 -387 107 0
321 -384 -385 -386 387 107 0
-321 384 385 386 -387 -107 0
-321 384 385 -386 387 -107 0
-321 384 385 -386 -387 107 0
-321 384 -385 386 387 -107 0
-321 384 -385 386 -387 107 0
-321 384 -385 -386 387 107 0
-321 -384 385 386 387 -107 0
-321 -384 385 386 -387 107 0
-321 -384 385 -386 387 107 0
-321 -384 -385 386 387 107 0
321 384 385 386 387 -107 0
321 384 385 386 -387 107 0
321 384 385 -386 387 107 0
321 384 -385 386 387 107 0
321 -384 385 386 387 107 0
-321 384 385 386 387 107 0
388 -329 -389 -390 -391 -138 0
-388 329 -389 -390 -391 -138 0
-388 -329 389 -390 -391 -138 0
-388 -329 -389 390 -391 -138 0
-388 -329 -389 -390 391 -138 0
-388 -329 -389 -390 -391 138 0
388 329 389 -390 -391 -138 0
388 329 -389 390 -391 -138 0
388 329 -389 -390 391 -138 0
388 329 -389 -390 -391 138 0
388 -329 389 390 -391 -138 0
388 -329 389 -390 391 -138 0
388 -329 389 -390 -391 138 0
388 -329 -389 390 391 -138 0
388 -329 -389 390 -391 138 0
388 -329 -389 -390 391 138 0
-388 329 389 390 -391 -138 0
-388 329 389 -390 391 -138 0
-388 329 389 -390 -391 138 0
-388 329 -389 390 391 -138 0
-388 329 -389 390 -391 138 0
-388 329 -389 -390 391 138 0
-388 -329 389 390 391 -138 0
-388 -329 389 390 -391 138 0
-388 -329 389 -390 391 138 0
-388 -329 -389 390 391 138 0
388 329 389 390 391 -138 0
388 329 389 390 -391 138 0
388 329 389 -390 391 138 0
388 329 -389 390 391 138 0
388 -329 389 390 391 138 0
-388 329 389 390 391 138 0
618 -567 -619 -620 -621 -169 0
-618 567 -619 -620 -621 -169 0
-618 -567 619 -620 -621 -169 0
-618 -567 -619 620 -621 -169 0
-618 -567 -619 -620 621 -169 0
-618 -567 -619 -620 -621 169 0
618 567 619 -620 -621 -169 0
618 567 -619 620 -621 -169 0
618 567 -619 -620 621 -169 0
618 567 -619 -620 -621 169 0
618 -567 619 620 -621 -169 0
618 -567 619 -620 621 -169 0
618 -567 619 -620 -621 169 0
618 -567 -619 620 621 -169 0
618 -567 -619 620 -621 169 0
618 -567 -619 -620 621 169 0
-618 567 619 620 -621 -169 0
-618 567 619 -620 621 -169 0
-618 567 619 -620 -621 169 0
-618 567 -619 620 621 -169 0
-618 567 -619 620 -621 169 0
-618 567 -619 -620 621 169 0
-618 -567 619 620 621 -169 0
-618 -567 619 620 -621 169 0
-618 -567 619 -620 621 169 0
-618 -567 -619 620 621 169 0
618 567 619 620 621 -169 0
618 567 619 620 -621 169 0
618 567 619 -620 621 169 0
618 567 -619 620 621 169 0
618 -567 619 620 621 169 0
-618 567 619 620 621 169 0
-978 63 0
-978 -65 0
978 -63 65 0
-979 61 0
-979 67 0
979 -61 -67 0
-980 61 0
-980 65 0
-980 -67 0
980 -61 -65 67 0
-981 -63 0
-981 65 0
-981 67 0
981 63 -65 -67 0
940 -978 -979 -980 -981 -200 0
-940 978 -979 -980 -981 -200 0
-940 -978 979 -980 -981 -200 0
-940 -978 -979 980 -981 -200 0
-940 -978 -979 -980 981 -200 0
-940 -978 -979 -980 -981 200 0
940 978 979 -980 -981 -200 0
940 978 -979 980 -981 -200 0
940 978 -979 -980 981 -200 0
940 978 -979 -980 -981 200 0
940 -978 979 980 -981 -200 0
940 -978 979 -980 981 -200 0
940 -978 979 -980 -981 200 0
940 -978 -979 980 981 -200 0
940 -978 -979 980 -981 200 0
940 -978 -979 -980 981 200 0
-940 978 979 980 -981 -200 0
-940 978 979 -980 981 -200 0
-940 978 979 -980 -981 200 0
-940 978 -979 980 981 -200 0
-940 978 -979 980 -981 200 0
-940 978 -979 -980 981 200 0
-940 -978 979 980 981 -200 0
-940 -978 979 980 -981 200 0
-940 -978 979 -980 981 200 0
-940 -978 -979 980 981 200 0
940 978 979 980 981 -200 0
940 978 979 980 -981 200 0
940 978 979 -980 981 200 0
940 978 -979 980 981 200 0
940 -978 979 980 981 200 0
-940 978 979 980 981 200 0
-982 -69 0
-982 73 0
982 69 -73 0
-983 71 0
-983 75 0
983 -71 -75 0
-984 69 0
-984 -73 0
-984 75 0
984 -69 73 -75 0
-985 71 0
-985 73 0
-985 -75 0
985 -71 -73 75 0
982 -947 -983 -984 -985 -231 0
-982 947 -983 -984 -985 -231 0
-982 -947 983 -984 -985 -231 0
-982 -947 -983 984 -985 -231 0
-982 -947 -983 -984 985 -231 0
-982 -947 -983 -984 -985 231 0
982 947 983 -984 -985 -231 0
982 947 -983 984 -985 -231 0
982 947 -983 -984 985 -231 0
982 947 -983 -984 -985 231 0
982 -947 983 984 -985 -231 0
982 -947 983 -984 985 -231 0
982 -947 983 -984 -985 231 0
982 -947 -983 984 985 -231 0
982 -947 -983 984 -985 231 0
982 -947 -983 -984 985 231 0
-982 947 983 984 -985 -231 0
-982 947 983 -984 985 -231 0
-982 947 983 -984 -985 231 0
-982 947 -983 984 985 -231 0
-982 947 -983 984 -985 231 0
-982 947 -983 -984 985 231 0
-982 -947 983 984 985 -231 0
-982 -947 983 984 -985 231 0
-982 -947 983 -984 985 231 0
-982 -947 -983 984 985 231 0
982 947 983 984 985 -231 0
982 947 983 984 -985 231 0
982 947 983 -984 985 231 0
982 947 -983 984 985 231 0
982 -947 983 984 985 231 0
-982 947 983 984 985 231 0
-986 107 0
-986 -169 0
986 -107 169 0
-987 107 0
-987 -138 0
-987 200 0
987 -107 138 -200 0
-988 -107 0
-988 231 0
988 107 -231 0
-989 107 0
-989 138 0
-989 -169 0
-989 231 0
989 -107 -138 169 -231 0
-990 -107 0
-990 200 0
-990 231 0
990 107 -200 -231 0
-991 138 0
-991 200 0
-991 231 0
991 -138 -200 -231 0
-992 138 0
-992 169 0
-992 200 0
-992 -231 0
992 -138 -169 -200 231 0
-986 -987 -988 -989 -990 -991 993 0
986 987 -988 -989 -990 -991 993 0
986 -987 988 -989 -990 -991 993 0
986 -987 -988 989 -990 -991 993 0
986 -987 -988 -989 990 -991 993 0
986 -987 -988 -989 -990 991 993 0
986 -987 -988 -989 -990 -991 -993 0
-986 987 988 -989 -990 -991 993 0
-986 987 -988 989 -990 -991 993 0
-986 987 -988 -989 990 -991 993 0
-986 987 -988 -989 -990 991 993 0
-986 987 -988 -989 -990 -991 -993 0
-986 -987 988 989 -990 -991 993 0
-986 -987 988 -989 990 -991 993 0
-986 -987 988 -989 -990 991 993 0
-986 -987 988 -989 -990 -991 -993 0
-986 -987 -988 989 990 -991 993 0
-986 -987 -988 989 -990 991 993 0
-986 -987 -988 989 -990 -991 -993 0
-986 -987 -988 -989 990 991 993 0
-986 -987 -988 -989 990 -991 -993 0
-986 -987 -988 -989 -990 991 -993 0
986 987 988 989 -990 -991 993 0
986 987 988 -989 990 -991 993 0
986 987 988 -989 -990 991 993 0
986 987 988 -989 -990 -991 -993 0
986 987 -988 989 990 -991 993 0
986 987 -988 989 -990 991 993 0
986 987 -988 989 -990 -991 -993 0
986 987 -988 -989 990 991 993 0
986 987 -988 -989 990 -991 -993 0
986 987 -988 -989 -990 991 -993 0
986 -987 988 989 990 -991 993 0
986 -987 988 989 -990 991 993 0
986 -987 988 989 -990 -991 -993 0
986 -987 988 -989 990 991 993 0
986 -987 988 -989 990 -991 -993 0
986 -987 988 -989 -990 991 -993 0
986 -987 -988 989 990 991 993 0
986 -987 -988 989 990 -991 -993 0
986 -987 -988 989 -990 991 -993 0
986 -987 -988 -989 990 991 -993 0
-986 987 988 989 990 -991 993 0
-986 987 988 989 -990 991 993 0
-986 987 988 989 -990 -991 -993 0
-986 987 988 -989 990 991 993 0
-986 987 988 -989 990 -991 -993 0
-986 987 988 -989 -990 991 -993 0
-986 987 -988 989 990 991 993 0
-986 987 -988 989 990 -991 -993 0
-986 987 -988 989 -990 991 -993 0
-986 987 -988 -989 990 991 -993 0
-986 -987 988 989 990 991 993 0
-986 -987 988 989 990 -991 -993 0
-986 -987 988 989 -990 991 -993 0
-986 -987 988 -989 990 991 -993 0
-986 -987 -988 989 990 991 -993 0
986 987 988 989 990 991 993 0
986 987 988 989 990 -991 -993 0
986 987 988 989 -990 991 -993 0
986 987 988 -989 990 991 -993 0
986 987 -988 989 990 991 -993 0
986 -987 988 989 990 991 -993 0
-986 987 988 989 990 991 -993 0
-993 -992 0
993 992 0
-29 -34 -38 -39 -41 -43 994 0
29 34 -38 -39 -41 -43 994 0
29 -34 38 -39 -41 -43 994 0
29 -34 -38 39 -41 -43 994 0
29 -34 -38 -39 41 -43 994 0
29 -34 -38 -39 -41 43 994 0
29 -34 -38 -39 -41 -43 -994 0
-29 34 38 -39 -41 -43 994 0
-29 34 -38 39 -41 -43 994 0
-29 34 -38 -39 41 -43 994 0
-29 34 -38 -39 -41 43 994 0
-29 34 -38 -39 -41 -43 -994 0
-29 -34 38 39 -41 -43 994 0
-29 -34 38 -39 41 -43 994 0
-29 -34 38 -39 -41 43 994 0
-29 -34 38 -39 -41 -43 -994 0
-29 -34 -38 39 41 -43 994 0
-29 -34 -38 39 -41 43 994 0
-29 -34 -38 39 -41 -43 -994 0
-29 -34 -38 -39 41 43 994 0
-29 -34 -38 -39 41 -43 -994 0
-29 -34 -38 -39 -41 43 -994 0
29 34 38 39 -41 -43 994 0
29 34 38 -39 41 -43 994 0
29 34 38 -39 -41 43 994 0
29 34 38 -39 -41 -43 -994 0
29 34 -38 39 41 -43 994 0
29 34 -38 39 -41 43 994 0
29 34 -38 39 -41 -43 -994 0
29 34 -38 -39 41 43 994 0
29 34 -38 -39 41 -43 -994 0
29 34 -38 -39 -41 43 -994 0
29 -34 38 39 41 -43 994 0
29 -34 38 39 -41 43 994 0
29 -34 38 39 -41 -43 -994 0
29 -34 38 -39 41 43 994 0
29 -34 38 -39 41 -43 -994 0
29 -34 38 -39 -41 43 -994 0
29 -34 -38 39 41 43 994 0
29 -34 -38 39 41 -43 -994 0
29 -34 -38 39 -41 43 -994 0
29 -34 -38 -39 41 43 -994 0
-29 34 38 39 41 -43 994 0
-29 34 38 39 -41 43 994 0
-29 34 38 39 -41 -43 -994 0
-29 34 38 -39 41 43 994 0
-29 34 38 -39 41 -43 -994 0
-29 34 38 -39 -41 43 -994 0
-29 34 -38 39 41 43 994 0
-29 34 -38 39 41 -43 -994 0
-29 34 -38 39 -41 43 -994 0
-29 34 -38 -39 41 43 -994 0
-29 -34 38 39 41 43 994 0
-29 -34 38 39 41 -43 -994 0
-29 -34 38 39 -41 43 -994 0
-29 -34 38 -39 41 43 -994 0
-29 -34 -38 39 41 43 -994 0
29 34 38 39 41 43 994 0
29 34 38 39 41 -43 -994 0
29 34 38 39 -41 43 -994 0
29 34 38 -39 41 43 -994 0
29 34 -38 39 41 43 -994 0
29 -34 38 39 41 43 -994 0
-29 34 38 39 41 43 -994 0
994 -44 -46 -48 -53 -54 995 0
-994 44 -46 -48 -53 -54 995 0
-994 -44 46 -48 -53 -54 995 0
-994 -44 -46 48 -53 -54 995 0
-994 -44 -46 -48 53 -54 995 0
-994 -44 -46 -48 -53 54 995 0
-994 -44 -46 -48 -53 -54 -995 0
994 44 46 -48 -53 -54 995 0
994 44 -46 48 -53 -54 995 0
994 44 -46 -48 53 -54 995 0
994 44 -46 -48 -53 54 995 0
994 44 -46 -48 -53 -54 -995 0
994 -44 46 48 -53 -54 995 0
994 -44 46 -48 53 -54 995 0
994 -44 46 -48 -53 54 995 0
994 -44 46 -48 -53 -54 -995 0
994 -44 -46 48 53 -54 995 0
994 -44 -46 48 -53 54 995 0
994 -44 -46 48 -53 -54 -995 0
994 -44 -46 -48 53 54 995 0
994 -44 -46 -48 53 -54 -995 0
994 -44 -46 -48 -53 54 -995 0
-994 44 46 48 -53 -54 995 0
-994 44 46 -48 53 -54 995 0
-994 44 46 -48 -53 54 995 0
-994 44 46 -48 -53 -54 -995 0
-994 44 -46 48 53 -54 995 0
-994 44 -46 48 -53 54 995 0
-994 44 -46 48 -53 -54 -995 0
-994 44 -46 -48 53 54 995 0
-994 44 -46 -48 53 -54 -995 0
-994 44 -46 -48 -53 54 -995 0
-994 -44 46 48 53 -54 995 0
-994 -44 46 48 -53 54 995 0
-994 -44 46 48 -53 -54 -995 0
-994 -44 46 -48 53 54 995 0
-994 -44 46 -48 53 -54 -995 0
-994 -44 46 -48 -53 54 -995 0
-994 -44 -46 48 53 54 995 0
-994 -44 -46 48 53 -54 -995 0
-994 -44 -46 48 -53 54 -995 0
-994 -44 -46 -48 53 54 -995 0
994 44 46 48 53 -54 995 0
994 44 46 48 -53 54 995 0
994 44 46 48 -53 -54 -995 0
994 44 46 -48 53 54 995 0
994 44 46 -48 53 -54 -995 0
994 44 46 -48 -53 54 -995 0
994 44 -46 48 53 54 995 0
994 44 -46 48 53 -54 -995 0
994 44 -46 48 -53 54 -995 0
994 44 -46 -48 53 54 -995 0
994 -44 46 48 53 54 995 0
994 -44 46 48 53 -54 -995 0
994 -44 46 48 -53 54 -995 0
994 -44 46 -48 53 54 -995 0
994 -44 -46 48 53 54 -995 0
-994 44 46 48 53 54 995 0
-994 44 46 48 53 -54 -995 0
-994 44 46 48 -53 54 -995 0
-994 44 46 -48 53 54 -995 0
-994 44 -46 48 53 54 -995 0
-994 -44 46 48 53 54 -995 0
994 44 46 48 53 54 -995 0
995 -56 -58 -64 -68 -70 996 0
-995 56 -58 -64 -68 -70 996 0
-995 -56 58 -64 -68 -70 996 0
-995 -56 -58 64 -68 -70 996 0
-995 -56 -58 -64 68 -70 996 0
-995 -56 -58 -64 -68 70 996 0
-995 -56 -58 -64 -68 -70 -996 0
995 56 58 -64 -68 -70 996 0
995 56 -58 64 -68 -70 996 0
995 56 -58 -64 68 -70 996 0
995 56 -58 -64 -68 70 996 0
995 56 -58 -64 -68 -70 -996 0
995 -56 58 64 -68 -70 996 0
995 -56 58 -64 68 -70 996 0
995 -56 58 -64 -68 70 996 0
995 -56 58 -64 -68 -70 -996 0
995 -56 -58 64 68 -70 996 0
995 -56 -58 64 -68 70 996 0
995 -56 -58 64 -68 -70 -996 0
995 -56 -58 -64 68 70 996 0
995 -56 -58 -64 68 -70 -996 0
995 -56 -58 -64 -68 70 -996 0
-995 56 58 64 -68 -70 996 0
-995 56 58 -64 68 -70 996 0
-995 56 58 -64 -68 70 996 0
-995 56 58 -64 -68 -70 -996 0
-995 56 -58 64 68 -70 996 0
-995 56 -58 64 -68 70 996 0
-995 56 -58 64 -68 -70 -996 0
-995 56 -58 -64 68 70 996 0
-995 56 -58 -64 68 -70 -996 0
-995 56 -58 -64 -68 70 -996 0
-995 -56 58 64 68 -70 996 0
-995 -56 58 64 -68 70 996 0
-995 -56 58 64 -68 -70 -996 0
-995 -56 58 -64 68 70 996 0
-995 -56 58 -64 68 -70 -996 0
-995 -56 58 -64 -68 70 -996 0
-995 -56 -58 64 68 70 996 0
-995 -56 -58 64 68 -70 -996 0
-995 -56 -58 64 -68 70 -996 0
-995 -56 -58 -64 68 70 -996 0
995 56 58 64 68 -70 996 0
995 56 58 64 -68 70 996 0
995 56 58 64 -68 -70 -996 0
995 56 58 -64 68 70 996 0
995 56 58 -64 68 -70 -996 0
995 56 58 -64 -68 70 -996 0
995 56 -58 64 68 70 996 0
995 56 -58 64 68 -70 -996 0
995 56 -58 64 -68 70 -996 0
995 56 -58 -64 68 70 -996 0
995 -56 58 64 68 70 996 0
995 -56 58 64 68 -70 -996 0
995 -56 58 64 -68 70 -996 0
995 -56 58 -64 68 70 -996 0
995 -56 -58 64 68 70 -996 0
-995 56 58 64 68 70 996 0
-995 56 58 64 68 -70 -996 0
-995 56 58 64 -68 70 -996 0
-995 56 58 -64 68 70 -996 0
-995 56 -58 64 68 70 -996 0
-995 -56 58 64 68 70 -996 0
995 56 58 64 68 70 -996 0
-996 -71 -72 -77 0
996 71 -72 -77 0
996 -71 72 -77 0
996 -71 -72 77 0
-996 71 72 -77 0
-996 71 -72 77 0
-996 -71 72 77 0
996 71 72 77 0
353 -415 -416 -417 -418 -108 0
-353 415 -416 -417 -418 -108 0
-353 -415 416 -417 -418 -108 0
-353 -415 -416 417 -418 -108 0
-353 -415 -416 -417 418 -108 0
-353 -415 -416 -417 -418 108 0
353 415 416 -417 -418 -108 0
353 415 -416 417 -418 -108 0
353 415 -416 -417 418 -108 0
353 415 -416 -417 -418 108 0
353 -415 416 417 -418 -108 0
353 -415 416 -417 418 -108 0
353 -415 416 -417 -418 108 0
353 -415 -416 417 418 -108 0
353 -415 -416 417 -418 108 0
353 -415 -416 -417 418 108 0
-353 415 416 417 -418 -108 0
-353 415 416 -417 418 -108 0
-353 415 416 -417 -418 108 0
-353 415 -416 417 418 -108 0
-353 415 -416 417 -418 108 0
-353 415 -416 -417 418 108 0
-353 -415 416 417 418 -108 0
-353 -415 416 417 -418 108 0
-353 -415 416 -417 418 108 0
-353 -415 -416 417 418 108 0
353 415 416 417 418 -108 0
353 415 416 417 -418 108 0
353 415 416 -417 418 108 0
353 415 -416 417 418 108 0
353 -415 416 417 418 108 0
-353 415 416 417 418 108 0
419 -360 -420 -421 -422 -139 0
-419 360 -420 -421 -422 -139 0
-419 -360 420 -421 -422 -139 0
-419 -360 -420 421 -422 -139 0
-419 -360 -420 -421 422 -139 0
-419 -360 -420 -421 -422 139 0
419 360 420 -421 -422 -139 0
419 360 -420 421 -422 -139 0
419 360 -420 -421 422 -139 0
419 360 -420 -421 -422 139 0
419 -360 420 421 -422 -139 0
419 -360 420 -421 422 -139 0
419 -360 420 -421 -422 139 0
419 -360 -420 421 422 -139 0
419 -360 -420 421 -422 139 0
419 -360 -420 -421 422 139 0
-419 360 420 421 -422 -139 0
-419 360 420 -421 422 -139 0
-419 360 420 -421 -422 139 0
-419 360 -420 421 422 -139 0
-419 360 -420 421 -422 139 0
-419 360 -420 -421 422 139 0
-419 -360 420 421 422 -139 0
-419 -360 420 421 -422 139 0
-419 -360 420 -421 422 139 0
-419 -360 -420 421 422 139 0
419 360 420 421 422 -139 0
419 360 420 421 -422 139 0
419 360 420 -421 422 139 0
419 360 -420 421 422 139 0
419 -360 420 421 422 139 0
-419 360 420 421 422 139 0
645 -594 -646 -647 -648 -170 0
-645 594 -646 -647 -648 -170 0
-645 -594 646 -647 -648 -170 0
-645 -594 -646 647 -648 -170 0
-645 -594 -646 -647 648 -170 0
-645 -594 -646 -647 -648 170 0
645 594 646 -647 -648 -170 0
645 594 -646 647 -648 -170 0
645 594 -646 -647 648 -170 0
645 594 -646 -647 -648 170 0
645 -594 646 647 -648 -170 0
645 -594 646 -647 648 -170 0
645 -594 646 -647 -648 170 0
645 -594 -646 647 648 -170 0
645 -594 -646 647 -648 170 0
645 -594 -646 -647 648 170 0
-645 594 646 647 -648 -170 0
-645 594 646 -647 648 -170 0
-645 594 646 -647 -648 170 0
-645 594 -646 647 648 -170 0
-645 594 -646 647 -648 170 0
-645 594 -646 -647 648 170 0
-645 -594 646 647 648 -170 0
-645 -594 646 647 -648 170 0
-645 -594 646 -647 648 170 0
-645 -594 -646 647 648 170 0
645 594 646 647 648 -170 0
645 594 646 647 -648 170 0
645 594 646 -647 648 170 0
645 594 -646 647 648 170 0
645 -594 646 647 648 170 0
-645 594 646 647 648 170 0
-997 64 0
-997 -66 0
997 -64 66 0
-998 62 0
-998 68 0
998 -62 -68 0
-999 62 0
-999 66 0
-999 -68 0
999 -62 -66 68 0
-1000 -64 0
-1000 66 0
-1000 68 0
1000 64 -66 -68 0
959 -997 -998 -999 -1000 -201 0
-959 997 -998 -999 -1000 -201 0
-959 -997 998 -999 -1000 -201 0
-959 -997 -998 999 -1000 -201 0
-959 -997 -998 -999 1000 -201 0
-959 -997 -998 -999 -1000 201 0
959 997 998 -999 -1000 -201 0
959 997 -998 999 -1000 -201 0
959 997 -998 -999 1000 -201 0
959 997 -998 -999 -1000 201 0
959 -997 998 999 -1000 -201 0
959 -997 998 -999 1000 -201 0
959 -997 998 -999 -1000 201 0
959 -997 -998 999 1000 -201 0
959 -997 -998 999 -1000 201 0
959 -997 -998 -999 1000 201 0
-959 997 998 999 -1000 -201 0
-959 997 998 -999 1000 -201 0
-959 997 998 -999 -1000 201 0
-959 997 -998 999 1000 -201 0
-959 997 -998 999 -1000 201 0
-959 997 -998 -999 1000 201 0
-959 -997 998 999 1000 -201 0
-959 -997 998 999 -1000 201 0
-959 -997 998 -999 1000 201 0
-959 -997 -998 999 1000 201 0
959 997 998 999 1000 -201 0
959 997 998 999 -1000 201 0
959 997 998 -999 1000 201 0
959 997 -998 999 1000 201 0
959 -997 998 999 1000 201 0
-959 997 998 999 1000 201 0
-1001 -70 0
-1001 74 0
1001 70 -74 0
-1002 72 0
-1002 76 0
1002 -72 -76 0
-1003 70 0
-1003 -74 0
-1003 76 0
1003 -70 74 -76 0
-1004 72 0
-1004 74 0
-1004 -76 0
1004 -72 -74 76 0
1001 -966 -1002 -1003 -1004 -232 0
-1001 966 -1002 -1003 -1004 -232 0
-1001 -966 1002 -1003 -1004 -232 0
-1001 -966 -1002 1003 -1004 -232 0
-1001 -966 -1002 -1003 1004 -232 0
-1001 -966 -1002 -1003 -1004 232 0
1001 966 1002 -1003 -1004 -232 0
1001 966 -1002 1003 -1004 -232 0
1001 966 -1002 -1003 1004 -232 0
1001 966 -1002 -1003 -1004 232 0
1001 -966 1002 1003 -1004 -232 0
1001 -966 1002 -1003 1004 -232 0
1001 -966 1002 -1003 -1004 232 0
1001 -966 -1002 1003 1004 -232 0
1001 -966 -1002 1003 -1004 232 0
1001 -966 -1002 -1003 1004 232 0
-1001 966 1002 1003 -1004 -232 0
-1001 966 1002 -1003 1004 -232 0
-1001 966 1002 -1003 -1004 232 0
-1001 966 -1002 1003 1004 -232 0
-1001 966 -1002 1003 -1004 232 0
-1001 966 -1002 -1003 1004 232 0
-1001 -966 1002 1003 1004 -232 0
-1001 -966 1002 1003 -1004 232 0
-1001 -966 1002 -1003 1004 232 0
-1001 -966 -1002 1003 1004 232 0
1001 966 1002 1003 1004 -232 0
1001 966 1002 1003 -1004 232 0
1001 966 1002 -1003 1004 232 0
1001 966 -1002 1003 1004 232 0
1001 -966 1002 1003 1004 232 0
-1001 966 1002 1003 1004 232 0
-1005 108 0
-1005 -170 0
1005 -108 170 0
-1006 108 0
-1006 -139 0
-1006 201 0
1006 -108 139 -201 0
-1007 -108 0
-1007 232 0
1007 108 -232 0
-1008 108 0
-1008 139 0
-1008 -170 0
-1008 232 0
1008 -108 -139 170 -232 0
-1009 -108 0
-1009 201 0
-1009 232 0
1009 108 -201 -232 0
-1010 139 0
-1010 201 0
-1010 232 0
1010 -139 -201 -232 0
-1011 139 0
-1011 170 0
-1011 201 0
-1011 -232 0
1011 -139 -170 -201 232 0
-1005 -1006 -1007 -1008 -1009 -1010 1012 0
1005 1006 -1007 -1008 -1009 -1010 1012 0
1005 -1006 1007 -1008 -1009 -1010 1012 0
1005 -1006 -1007 1008 -1009 -1010 1012 0
1005 -1006 -1007 -1008 1009 -1010 1012 0
1005 -1006 -1007 -1008 -1009 1010 1012 0
1005 -1006 -1007 -1008 -1009 -1010 -1012 0
-1005 1006 1007 -1008 -1009 -1010 1012 0
-1005 1006 -1007 1008 -1009 -1010 1012 0
-1005 1006 -1007 -1008 1009 -1010 1012 0
-1005 1006 -1007 -1008 -1009 1010 1012 0
-1005 1006 -1007 -1008 -1009 -1010 -1012 0
-1005 -1006 1007 1008 -1009 -1010 1012 0
-1005 -1006 1007 -1008 1009 -1010 1012 0
-1005 -1006 1007 -1008 -1009 1010 1012 0
-1005 -1006 1007 -1008 -1009 -1010 -1012 0
-1005 -1006 -1007 1008 1009 -1010 1012 0
-1005 -1006 -1007 1008 -1009 1010 1012 0
-1005 -1006 -1007 1008 -1009 -1010 -1012 0
-1005 -1006 -1007 -1008 1009 1010 1012 0
-1005 -1006 -1007 -1008 1009 -1010 -1012 0
-1005 -1006 -1007 -1008 -1009 1010 -1012 0
1005 1006 1007 1008 -1009 -1010 1012 0
1005 1006 1007 -1008 1009 -1010 1012 0
1005 1006 1007 -1008 -1009 1010 1012 0
1005 1006 1007 -1008 -1009 -1010 -1012 0
1005 1006 -1007 1008 1009 -1010 1012 0
1005 1006 -1007 1008 -1009 1010 1012 0
1005 1006 -1007 1008 -1009 -1010 -1012 0
1005 1006 -1007 -1008 1009 1010 1012 0
1005 1006 -1007 -1008 1009 -1010 -1012 0
1005 1006 -1007 -1008 -1009 1010 -1012 0
1005 -1006 1007 1008 1009 -1010 1012 0
1005 -1006 1007 1008 -1009 1010 1012 0
1005 -1006 1007 1008 -1009 -1010 -1012 0
1005 -1006 1007 -1008 1009 1010 1012 0
1005 -1006 1007 -1008 1009 -1010 -1012 0
1005 -1006 1007 -1008 -1009 1010 -1012 0
1005 -1006 -1007 1008 1009 1010 1012 0
1005 -1006 -1007 1008 1009 -1010 -1012 0
1005 -1006 -1007 1008 -1009 1010 -1012 0
1005 -1006 -1007 -1008 1009 1010 -1012 0
-1005 1006 1007 1008 1009 -1010 1012 0
-1005 1006 1007 1008 -1009 1010 1012 0
-1005 1006 1007 1008 -1009 -1010 -1012 0
-1005 1006 1007 -1008 1009 1010 1012 0
-1005 1006 1007 -1008 1009 -1010 -1012 0
-1005 1006 1007 -1008 -1009 1010 -1012 0
-1005 1006 -1007 1008 1009 1010 1012 0
-1005 1006 -1007 1008 1009 -1010 -1012 0
-1005 1006 -1007 1008 -1009 1010 -1012 0
-1005 1006 -1007 -1008 1009 1010 -1012 0
-1005 -1006 1007 1008 1009 1010 1012 0
-1005 -1006 1007 1008 1009 -1010 -1012 0
-1005 -1006 1007 1008 -1009 1010 -1012 0
-1005 -1006 1007 -1008 1009 1010 -1012 0
-1005 -1006 -1007 1008 1009 1010 -1012 0
1005 1006 1007 1008 1009 1010 1012 0
1005 1006 1007 1008 1009 -1010 -1012 0
1005 1006 1007 1008 -1009 1010 -1012 0
1005 1006 1007 -1008 1009 1010 -1012 0
1005 1006 -1007 1008 1009 1010 -1012 0
1005 -1006 1007 1008 1009 1010 -1012 0
-1005 1006 1007 1008 1009 1010 -1012 0
-1012 -1011 0
1012 1011 0
-30 -35 -39 -40 -42 -44 1013 0
30 35 -39 -40 -42 -44 1013 0
30 -35 39 -40 -42 -44 1013 0
30 -35 -39 40 -42 -44 1013 0
30 -35 -39 -40 42 -44 1013 0
30 -35 -39 -40 -42 44 1013 0
30 -35 -39 -40 -42 -44 -1013 0
-30 35 39 -40 -42 -44 1013 0
-30 35 -39 40 -42 -44 1013 0
-30 35 -39 -40 42 -44 1013 0
-30 35 -39 -40 -42 44 1013 0
-30 35 -39 -40 -42 -44 -1013 0
-30 -35 39 40 -42 -44 1013 0
-30 -35 39 -40 42 -44 1013 0
-30 -35 39 -40 -42 44 1013 0
-30 -35 39 -40 -42 -44 -1013 0
-30 -35 -39 40 42 -44 1013 0
-30 -35 -39 40 -42 44 1013 0
-30 -35 -39 40 -42 -44 -1013 0
-30 -35 -39 -40 42 44 1013 0
-30 -35 -39 -40 42 -44 -1013 0
-30 -35 -39 -40 -42 44 -1013 0
30 35 39 40 -42 -44 1013 0
30 35 39 -40 42 -44 1013 0
30 35 39 -40 -42 44 1013 0
30 35 39 -40 -42 -44 -1013 0
30 35 -39 40 42 -44 1013 0
30 35 -39 40 -42 44 1013 0
30 35 -39 40 -42 -44 -1013 0
30 35 -39 -40 42 44 1013 0
30 35 -39 -40 42 -44 -1013 0
30 35 -39 -40 -42 44 -1013 0
30 -35 39 40 42 -44 1013 0
30 -35 39 40 -42 44 1013 0
30 -35 39 40 -42 -44 -1013 0
30 -35 39 -40 42 44 1013 0
30 -35 39 -40 42 -44 -1013 0
30 -35 39 -40 -42 44 -1013 0
30 -35 -39 40 42 44 1013 0
30 -35 -39 40 42 -44 -1013 0
30 -35 -39 40 -42 44 -1013 0
30 -35 -39 -40 42 44 -1013 0
-30 35 39 40 42 -44 1013 0
-30 35 39 40 -42 44 1013 0
-30 35 39 40 -42 -44 -1013 0
-30 35 39 -40 42 44 1013 0
-30 35 39 -40 42 -44 -1013 0
-30 35 39 -40 -42 44 -1013 0
-30 35 -39 40 42 44 1013 0
-30 35 -39 40 42 -44 -1013 0
-30 35 -39 40 -42 44 -1013 0
-30 35 -39 -40 42 44 -1013 0
-30 -35 39 40 42 44 1013 0
-30 -35 39 40 42 -44 -1013 0
-30 -35 39 40 -42 44 -1013 0
-30 -35 39 -40 42 44 -1013 0
-30 -35 -39 40 42 44 -1013 0
30 35 39 40 42 44 1013 0
30 35 39 40 42 -44 -1013 0
30 35 39 40 -42 44 -1013 0
30 35 39 -40 42 44 -1013 0
30 35 -39 40 42 44 -1013 0
30 -35 39 40 42 44 -1013 0
-30 35 39 40 42 44 -1013 0
1013 -45 -47 -49 -54 -55 1014 0
-1013 45 -47 -49 -54 -55 1014 0
-1013 -45 47 -49 -54 -55 1014 0
-1013 -45 -47 49 -54 -55 1014 0
-1013 -45 -47 -49 54 -55 1014 0
-1013 -45 -47 -49 -54 55 1014 0
-1013 -45 -47 -49 -54 -55 -1014 0
1013 45 47 -49 -54 -55 1014 0
1013 45 -47 49 -54 -55 1014 0
1013 45 -47 -49 54 -55 1014 0
1013 45 -47 -49 -54 55 1014 0
1013 45 -47 -49 -54 -55 -1014 0
1013 -45 47 49 -54 -55 1014 0
1013 -45 47 -49 54 -55 1014 0
1013 -45 47 -49 -54 55 1014 0
1013 -45 47 -49 -54 -55 -1014 0
1013 -45 -47 49 54 -55 1014 0
1013 -45 -47 49 -54 55 1014 0
1013 -45 -47 49 -54 -55 -1014 0
1013 -45 -47 -49 54 55 1014 0
1013 -45 -47 -49 54 -55 -1014 0
1013 -45 -47 -49 -54 55 -1014 0
-1013 45 47 49 -54 -55 1014 0
-1013 45 47 -49 54 -55 1014 0
-1013 45 47 -49 -54 55 1014 0
-1013 45 47 -49 -54 -55 -1014 0
-1013 45 -47 49 54 -55 1014 0
-1013 45 -47 49 -54 55 1014 0
-1013 45 -47 49 -54 -55 -1014 0
-1013 45 -47 -49 54 55 1014 0
-1013 45 -47 -49 54 -55 -1014 0
-1013 45 -47 -49 -54 55 -1014 0
-1013 -45 47 49 54 -55 1014 0
-1013 -45 47 49 -54 55 1014 0
-1013 -45 47 49 -54 -55 -1014 0
-1013 -45 47 -49 54 55 1014 0
-1013 -45 47 -49 54 -55 -1014 0
-1013 -45 47 -49 -54 55 -1014 0
-1013 -45 -47 49 54 55 1014 0
-1013 -45 -47 49 54 -55 -1014 0
-1013 -45 -47 49 -54 55 -1014 0
-1013 -45 -47 -49 54 55 -1014 0
1013 45 47 49 54 -55 1014 0
1013 45 47 49 -54 55 1014 0
1013 45 47 49 -54 -55 -1014 0
1013 45 47 -49 54 55 1014 0
1013 45 47 -49 54 -55 -1014 0
1013 45 47 -49 -54 55 -1014 0
1013 45 -47 49 54 55 1014 0
1013 45 -47 49 54 -55 -1014 0
1013 45 -47 49 -54 55 -1014 0
1013 45 -47 -49 54 55 -1014 0
1013 -45 47 49 54 55 1014 0
1013 -45 47 49 54 -55 -1014 0
1013 -45 47 49 -54 55 -1014 0
1013 -45 47 -49 54 55 -1014 0
1013 -45 -47 49 54 55 -1014 0
-1013 45 47 49 54 55 1014 0
-1013 45 47 49 54 -55 -1014 0
-1013 45 47 49 -54 55 -1014 0
-1013 45 47 -49 54 55 -1014 0
-1013 45 -47 49 54 55 -1014 0
-1013 -45 47 49 54 55 -1014 0
1013 45 47 49 54 55 -1014 0
1014 -57 -59 -65 -69 -71 1015 0
-1014 57 -59 -65 -69 -71 1015 0
-1014 -57 59 -65 -69 -71 1015 0
-1014 -57 -59 65 -69 -71 1015 0
-1014 -57 -59 -65 69 -71 1015 0
-1014 -57 -59 -65 -69 71 1015 0
-1014 -57 -59 -65 -69 -71 -1015 0
1014 57 59 -65 -69 -71 1015 0
1014 57 -59 65 -69 -71 1015 0
1014 57 -59 -65 69 -71 1015 0
1014 57 -59 -65 -69 71 1015 0
1014 57 -59 -65 -69 -71 -1015 0
1014 -57 59 65 -69 -71 1015 0
1014 -57 59 -65 69 -71 1015 0
1014 -57 59 -65 -69 71 1015 0
1014 -57 59 -65 -69 -71 -1015 0
1014 -57 -59 65 69 -71 1015 0
1014 -57 -59 65 -69 71 1015 0
1014 -57 -59 65 -69 -71 -1015 0
1014 -57 -59 -65 69 71 1015 0
1014 -57 -59 -65 69 -71 -1015 0
1014 -57 -59 -65 -69 71 -1015 0
-1014 57 59 65 -69 -71 1015 0
-1014 57 59 -65 69 -71 1015 0
-1014 57 59 -65 -69 71 1015 0
-1014 57 59 -65 -69 -71 -1015 0
-1014 57 -59 65 69 -71 1015 0
-1014 57 -59 65 -69 71 1015 0
-1014 57 -59 65 -69 -71 -1015 0
-1014 57 -59 -65 69 71 1015 0
-1014 57 -59 -65 69 -71 -1015 0
-1014 57 -59 -65 -69 71 -1015 0
-1014 -57 59 65 69 -71 1015 0
-1014 -57 59 65 -69 71 1015 0
-1014 -57 59 65 -69 -71 -1015 0
-1014 -57 59 -65 69 71 1015 0
-1014 -57 59 -65 69 -71 -1015 0
-1014 -57 59 -65 -69 71 -1015 0
-1014 -57 -59 65 69 71 1015 0
-1014 -57 -59 65 69 -71 -1015 0
-1014 -57 -59 65 -69 71 -1015 0
-1014 -57 -59 -65 69 71 -1015 0
1014 57 59 65 69 -71 1015 0
1014 57 59 65 -69 71 1015 0
1014 57 59 65 -69 -71 -1015 0
1014 57 59 -65 69 71 1015 0
1014 57 59 -65 69 -71 -1015 0
1014 57 59 -65 -69 71 -1015 0
1014 57 -59 65 69 71 1015 0
1014 57 -59 65 69 -71 -1015 0
1014 57 -59 65 -69 71 -1015 0
1014 57 -59 -65 69 71 -1015 0
1014 -57 59 65 69 71 1015 0
1014 -57 59 65 69 -71 -1015 0
1014 -57 59 65 -69 71 -1015 0
1014 -57 59 -65 69 71 -1015 0
1014 -57 -59 65 69 71 -1015 0
-1014 57 59 65 69 71 1015 0
-1014 57 59 65 69 -71 -1015 0
-1014 57 59 65 -69 71 -1015 0
-1014 57 59 -65 69 71 -1015 0
-1014 57 -59 65 69 71 -1015 0
-1014 -57 59 65 69 71 -1015 0
1014 57 59 65 69 71 -1015 0
-1015 -72 -73 -78 0
1015 72 -73 -78 0
1015 -72 73 -78 0
1015 -72 -73 78 0
-1015 72 73 -78 0
-1015 72 -73 78 0
-1015 -72 73 78 0
1015 72 73 78 0
384 -446 -447 -448 -449 -109 0
-384 446 -447 -448 -449 -109 0
-384 -446 447 -448 -449 -109 0
-384 -446 -447 448 -449 -109 0
-384 -446 -447 -448 449 -109 0
-384 -446 -447 -448 -449 109 0
384 446 447 -448 -449 -109 0
384 446 -447 448 -449 -109 0
384 446 -447 -448 449 -109 0
384 446 -447 -448 -449 109 0
384 -446 447 448 -449 -109 0
384 -446 447 -448 449 -109 0
384 -446 447 -448 -449 109 0
384 -446 -447 448 449 -109 0
384 -446 -447 448 -449 109 0
384 -446 -447 -448 449 109 0
-384 446 447 448 -449 -109 0
-384 446 447 -448 449 -109 0
-384 446 447 -448 -449 109 0
-384 446 -447 448 449 -109 0
-384 446 -447 448 -449 109 0
-384 446 -447 -448 449 109 0
-384 -446 447 448 449 -109 0
-384 -446 447 448 -449 109 0
-384 -446 447 -448 449 109 0
-384 -446 -447 448 449 109 0
384 446 447 448 449 -109 0
384 446 447 448 -449 109 0
384 446 447 -448 449 109 0
384 446 -447 448 449 109 0
384 -446 447 448 449 109 0
-384 446 447 448 449 109 0
450 -391 -451 -452 -453 -140 0
-450 391 -451 -452 -453 -140 0
-450 -391 451 -452 -453 -140 0
-450 -391 -451 452 -453 -140 0
-450 -391 -451 -452 453 -140 0
-450 -391 -451 -452 -453 140 0
450 391 451 -452 -453 -140 0
450 391 -451 452 -453 -140 0
450 391 -451 -452 453 -140 0
450 391 -451 -452 -453 140 0
450 -391 451 452 -453 -140 0
450 -391 451 -452 453 -140 0
450 -391 451 -452 -453 140 0
450 -391 -451 452 453 -140 0
450 -391 -451 452 -453 140 0
450 -391 -451 -452 453 140 0
-450 391 451 452 -453 -140 0
-450 391 451 -452 453 -140 0
-450 391 451 -452 -453 140 0
-450 391 -451 452 453 -140 0
-450 391 -451 452 -453 140 0
-450 391 -451 -452 453 140 0
-450 -391 451 452 453 -140 0
-450 -391 451 452 -453 140 0
-450 -391 451 -452 453 140 0
-450 -391 -451 452 453 140 0
450 391 451 452 453 -140 0
450 391 451 452 -453 140 0
450 391 451 -452 453 140 0
450 391 -451 452 453 140 0
450 -391 451 452 453 140 0
-450 391 451 452 453 140 0
672 -621 -673 -674 -675 -171 0
-672 621 -673 -674 -675 -171 0
-672 -621 673 -674 -675 -171 0
-672 -621 -673 674 -675 -171 0
-672 -621 -673 -674 675 -171 0
-672 -621 -673 -674 -675 171 0
672 621 673 -674 -675 -171 0
672 621 -673 674 -675 -171 0
672 621 -673 -674 675 -171 0
672 621 -673 -674 -675 171 0
672 -621 673 674 -675 -171 0
672 -621 673 -674 675 -171 0
672 -621 673 -674 -675 171 0
672 -621 -673 674 675 -171 0
672 -621 -673 674 -675 171 0
672 -621 -673 -674 675 171 0
-672 621 673 674 -675 -171 0
-672 621 673 -674 675 -171 0
-672 621 673 -674 -675 171 0
-672 621 -673 674 675 -171 0
-672 621 -673 674 -675 171 0
-672 621 -673 -674 675 171 0
-672 -621 673 674 675 -171 0
-672 -621 673 674 -675 171 0
-672 -621 673 -674 675 171 0
-672 -621 -673 674 675 171 0
672 621 673 674 675 -171 0
672 621 673 674 -675 171 0
672 621 673 -674 675 171 0
672 621 -673 674 675 171 0
672 -621 673 674 675 171 0
-672 621 673 674 675 171 0
-1016 65 0
-1016 -67 0
1016 -65 67 0
-1017 63 0
-1017 69 0
1017 -63 -69 0
-1018 63 0
-1018 67 0
-1018 -69 0
1018 -63 -67 69 0
-1019 -65 0
-1019 67 0
-1019 69 0
1019 65 -67 -69 0
978 -1016 -1017 -1018 -1019 -202 0
-978 1016 -1017 -1018 -1019 -202 0
-978 -1016 1017 -1018 -1019 -202 0
-978 -1016 -1017 1018 -1019 -202 0
-978 -1016 -1017 -1018 1019 -202 0
-978 -1016 -1017 -1018 -1019 202 0
978 1016 1017 -1018 -1019 -202 0
978 1016 -1017 1018 -1019 -202 0
978 1016 -1017 -1018 1019 -202 0
978 1016 -1017 -1018 -1019 202 0
978 -1016 1017 1018 -1019 -202 0
978 -1016 1017 -1018 1019 -202 0
978 -1016 1017 -1018 -1019 202 0
978 -1016 -1017 1018 1019 -202 0
978 -1016 -1017 1018 -1019 202 0
978 -1016 -1017 -1018 1019 202 0
-978 1016 1017 1018 -1019 -202 0
-978 1016 1017 -1018 1019 -202 0
-978 1016 1017 -1018 -1019 202 0
-978 1016 -1017 1018 1019 -202 0
-978 1016 -1017 1018 -1019 202 0
-978 1016 -1017 -1018 1019 202 0
-978 -1016 1017 1018 1019 -202 0
-978 -1016 1017 1018 -1019 202 0
-978 -1016 1017 -1018 1019 202 0
-978 -1016 -1017 1018 1019 202 0
978 1016 1017 1018 1019 -202 0
978 1016 1017 1018 -1019 202 0
978 1016 1017 -1018 1019 202 0
978 1016 -1017 1018 1019 202 0
978 -1016 1017 1018 1019 202 0
-978 1016 1017 1018 1019 202 0
-1020 -71 0
-1020 75 0
1020 71 -75 0
-1021 73 0
-1021 77 0
1021 -73 -77 0
-1022 71 0
-1022 -75 0
-1022 77 0
1022 -71 75 -77 0
-1023 73 0
-1023 75 0
-1023 -77 0
1023 -73 -75 77 0
1020 -985 -1021 -1022 -1023 -233 0
-1020 985 -1021 -1022 -1023 -233 0
-1020 -985 1021 -1022 -1023 -233 0
-1020 -985 -1021 1022 -1023 -233 0
-1020 -985 -1021 -1022 1023 -233 0
-1020 -985 -1021 -1022 -1023 233 0
1020 985 1021 -1022 -1023 -233 0
1020 985 -1021 1022 -1023 -233 0
1020 985 -1021 -1022 1023 -233 0
1020 985 -1021 -1022 -1023 233 0
1020 -985 1021 1022 -1023 -233 0
1020 -985 1021 -1022 1023 -233 0
1020 -985 1021 -1022 -1023 233 0
1020 -985 -1021 1022 1023 -233 0
1020 -985 -1021 1022 -1023 233 0
1020 -985 -1021 -1022 1023 233 0
-1020 985 1021 1022 -1023 -233 0
-1020 985 1021 -1022 1023 -233 0
-1020 985 1021 -1022 -1023 233 0
-1020 985 -1021 1022 1023 -233 0
-1020 985 -1021 1022 -1023 233 0
-1020 985 -1021 -1022 1023 233 0
-1020 -985 1021 1022 1023 -233 0
-1020 -985 1021 1022 -1023 233 0
-1020 -985 1021 -1022 1023 233 0
-1020 -985 -1021 1022 1023 233 0
1020 985 1021 1022 1023 -233 0
1020 985 1021 1022 -1023 233 0
1020 985 1021 -1022 1023 233 0
1020 985 -1021 1022 1023 233 0
1020 -985 1021 1022 1023 233 0
-1020 985 1021 1022 1023 233 0
-1024 109 0
-1024 -171 0
1024 -109 171 0
-1025 109 0
-1025 -140 0
-1025 202 0
1025 -109 140 -202 0
-1026 -109 0
-1026 233 0
1026 109 -233 0
-1027 109 0
-1027 140 0
-1027 -171 0
-1027 233 0
1027 -109 -140 171 -233 0
-1028 -109 0
-1028 202 0
-1028 233 0
1028 109 -202 -233 0
-1029 140 0
-1029 202 0
-1029 233 0
1029 -140 -202 -233 0
-1030 140 0
-1030 171 0
-1030 202 0
-1030 -233 0
1030 -140 -171 -202 233 0
1024 -1025 -1026 -1027 -1028 -1029 1031 0
-1024 1025 -1026 -1027 -1028 -1029 1031 0
-1024 -1025 1026 -1027 -1028 -1029 1031 0
-1024 -1025 -1026 1027 -1028 -1029 1031 0
-1024 -1025 -1026 -1027 1028 -1029 1031 0
-1024 -1025 -1026 -1027 -1028 1029 1031 0
-1024 -1025 -1026 -1027 -1028 -1029 -1031 0
1024 1025 1026 -1027 -1028 -1029 1031 0
1024 1025 -1026 1027 -1028 -1029 1031 0
1024 1025 -1026 -1027 1028 -1029 1031 0
1024 1025 -1026 -1027 -1028 1029 1031 0
1024 1025 -1026 -1027 -1028 -1029 -1031 0
1024 -1025 1026 1027 -1028 -1029 1031 0
1024 -1025 1026 -1027 1028 -1029 1031 0
1024 -1025 1026 -1027 -1028 1029 1031 0
1024 -1025 1026 -1027 -1028 -1029 -1031 0
1024 -1025 -1026 1027 1028 -1029 1031 0
1024 -1025 -1026 1027 -1028 1029 1031 0
1024 -1025 -1026 1027 -1028 -1029 -1031 0
1024 -1025 -1026 -1027 1028 1029 1031 0
1024 -1025 -1026 -1027 1028 -1029 -1031 0
1024 -1025 -1026 -1027 -1028 1029 -1031 0
-1024 1025 1026 1027 -1028 -1029 1031 0
-1024 1025 1026 -1027 1028 -1029 1031 0
-1024 1025 1026 -1027 -1028 1029 1031 0
-1024 1025 1026 -1027 -1028 -1029 -1031 0
-1024 1025 -1026 1027 1028 -1029 1031 0
-1024 1025 -1026 1027 -1028 1029 1031 0
-1024 1025 -1026 1027 -1028 -1029 -1031 0
-1024 1025 -1026 -1027 1028 1029 1031 0
-1024 1025 -1026 -1027 1028 -1029 -1031 0
-1024 1025 -1026 -1027 -1028 1029 -1031 0
-1024 -1025 1026 1027 1028 -1029 1031 0
-1024 -1025 1026 1027 -1028 1029 1031 0
-1024 -1025 1026 1027 -1028 -1029 -1031 0
-1024 -1025 1026 -1027 1028 1029 1031 0
-1024 -1025 1026 -1027 1028 -1029 -1031 0
-1024 -1025 1026 -1027 -1028 1029 -1031 0
-1024 -1025 -1026 1027 1028 1029 1031 0
-1024 -1025 -1026 1027 1028 -1029 -1031 0
-1024 -1025 -1026 1027 -1028 1029 -1031 0
-1024 -1025 -1026 -1027 1028 1029 -1031 0
1024 1025 1026 1027 1028 -1029 1031 0
1024 1025 1026 1027 -1028 1029 1031 0
1024 1025 1026 1027 -1028 -1029 -1031 0
1024 1025 1026 -1027 1028 1029 1031 0
1024 1025 1026 -1027 1028 -1029 -1031 0
1024 1025 1026 -1027 -1028 1029 -1031 0
1024 1025 -1026 1027 1028 1029 1031 0
1024 1025 -1026 1027 1028 -1029 -1031 0
1024 1025 -1026 1027 -1028 1029 -1031 0
1024 1025 -1026 -1027 1028 1029 -1031 0
1024 -1025 1026 1027 1028 1029 1031 0
1024 -1025 1026 1027 1028 -1029 -1031 0
1024 -1025 1026 1027 -1028 1029 -1031 0
1024 -1025 1026 -1027 1028 1029 -1031 0
1024 -1025 -1026 1027 1028 1029 -1031 0
-1024 1025 1026 1027 1028 1029 1031 0
-1024 1025 1026 1027 1028 -1029 -1031 0
-1024 1025 1026 1027 -1028 1029 -1031 0
-1024 1025 1026 -1027 1028 1029 -1031 0
-1024 1025 -1026 1027 1028 1029 -1031 0
-1024 -1025 1026 1027 1028 1029 -1031 0
1024 1025 1026 1027 1028 1029 -1031 0
-1031 -1030 0
1031 1030 0
415 -476 -477 -478 -479 -110 0
-415 476 -477 -478 -479 -110 0
-415 -476 477 -478 -479 -110 0
-415 -476 -477 478 -479 -110 0
-415 -476 -477 -478 479 -110 0
-415 -476 -477 -478 -479 110 0
415 476 477 -478 -479 -110 0
415 476 -477 478 -479 -110 0
415 476 -477 -478 479 -110 0
415 476 -477 -478 -479 110 0
415 -476 477 478 -479 -110 0
415 -476 477 -478 479 -110 0
415 -476 477 -478 -479 110 0
415 -476 -477 478 479 -110 0
415 -476 -477 478 -479 110 0
415 -476 -477 -478 479 110 0
-415 476 477 478 -479 -110 0
-415 476 477 -478 479 -110 0
-415 476 477 -478 -479 110 0
-415 476 -477 478 479 -110 0
-415 476 -477 478 -479 110 0
-415 476 -477 -478 479 110 0
-415 -476 477 478 479 -110 0
-415 -476 477 478 -479 110 0
-415 -476 477 -478 479 110 0
-415 -476 -477 478 479 110 0
415 476 477 478 479 -110 0
415 476 477 478 -479 110 0
415 476 477 -478 479 110 0
415 476 -477 478 479 110 0
415 -476 477 478 479 110 0
-415 476 477 478 479 110 0
480 -422 -481 -482 -483 -141 0
-480 422 -481 -482 -483 -141 0
-480 -422 481 -482 -483 -141 0
-480 -422 -481 482 -483 -141 0
-480 -422 -481 -482 483 -141 0
-480 -422 -481 -482 -483 141 0
480 422 481 -482 -483 -141 0
480 422 -481 482 -483 -141 0
480 422 -481 -482 483 -141 0
480 422 -481 -482 -483 141 0
480 -422 481 482 -483 -141 0
480 -422 481 -482 483 -141 0
480 -422 481 -482 -483 141 0
480 -422 -481 482 483 -141 0
480 -422 -481 482 -483 141 0
480 -422 -481 -482 483 141 0
-480 422 481 482 -483 -141 0
-480 422 481 -482 483 -141 0
-480 422 481 -482 -483 141 0
-480 422 -481 482 483 -141 0
-480 422 -481 482 -483 141 0
-480 422 -481 -482 483 141 0
-480 -422 481 482 483 -141 0
-480 -422 481 482 -483 141 0
-480 -422 481 -482 483 141 0
-480 -422 -481 482 483 141 0
480 422 481 482 483 -141 0
480 422 481 482 -483 141 0
480 422 481 -482 483 141 0
480 422 -481 482 483 141 0
480 -422 481 482 483 141 0
-480 422 481 482 483 141 0
698 -648 -699 -700 -701 -172 0
-698 648 -699 -700 -701 -172 0
-698 -648 699 -700 -701 -172 0
-698 -648 -699 700 -701 -172 0
-698 -648 -699 -700 701 -172 0
-698 -648 -699 -700 -701 172 0
698 648 699 -700 -701 -172 0
698 648 -699 700 -701 -172 0
698 648 -699 -700 701 -172 0
698 648 -699 -700 -701 172 0
698 -648 699 700 -701 -172 0
698 -648 699 -700 701 -172 0
698 -648 699 -700 -701 172 0
698 -648 -699 700 701 -172 0
698 -648 -699 700 -701 172 0
698 -648 -699 -700 701 172 0
-698 648 699 700 -701 -172 0
-698 648 699 -700 701 -172 0
-698 648 699 -700 -701 172 0
-698 648 -699 700 701 -172 0
-698 648 -699 700 -701 172 0
-698 648 -699 -700 701 172 0
-698 -648 699 700 701 -172 0
-698 -648 699 700 -701 172 0
-698 -648 699 -700 701 172 0
-698 -648 -699 700 701 172 0
698 648 699 700 701 -172 0
698 648 699 700 -701 172 0
698 648 699 -700 701 172 0
698 648 -699 700 701 172 0
698 -648 699 700 701 172 0
-698 648 699 700 701 172 0
-1032 66 0
-1032 -68 0
1032 -66 68 0
-1033 64 0
-1033 70 0
1033 -64 -70 0
-1034 64 0
-1034 68 0
-1034 -70 0
1034 -64 -68 70 0
-1035 -66 0
-1035 68 0
-1035 70 0
1035 66 -68 -70 0
997 -1032 -1033 -1034 -1035 -203 0
-997 1032 -1033 -1034 -1035 -203 0
-997 -1032 1033 -1034 -1035 -203 0
-997 -1032 -1033 1034 -1035 -203 0
-997 -1032 -1033 -1034 1035 -203 0
-997 -1032 -1033 -1034 -1035 203 0
997 1032 1033 -1034 -1035 -203 0
997 1032 -1033 1034 -1035 -203 0
997 1032 -1033 -1034 1035 -203 0
997 1032 -1033 -1034 -1035 203 0
997 -1032 1033 1034 -1035 -203 0
997 -1032 1033 -1034 1035 -203 0
997 -1032 1033 -1034 -1035 203 0
997 -1032 -1033 1034 1035 -203 0
997 -1032 -1033 1034 -1035 203 0
997 -1032 -1033 -1034 1035 203 0
-997 1032 1033 1034 -1035 -203 0
-997 1032 1033 -1034 1035 -203 0
-997 1032 1033 -1034 -1035 203 0
-997 1032 -1033 1034 1035 -203 0
-997 1032 -1033 1034 -1035 203 0
-997 1032 -1033 -1034 1035 203 0
-997 -1032 1033 1034 1035 -203 0
-997 -1032 1033 1034 -1035 203 0
-997 -1032 1033 -1034 1035 203 0
-997 -1032 -1033 1034 1035 203 0
997 1032 1033 1034 1035 -203 0
997 1032 1033 1034 -1035 203 0
997 1032 1033 -1034 1035 203 0
997 1032 -1033 1034 1035 203 0
997 -1032 1033 1034 1035 203 0
-997 1032 1033 1034 1035 203 0
-1036 -72 0
-1036 76 0
1036 72 -76 0
-1037 74 0
-1037 78 0
1037 -74 -78 0
-1038 72 0
-1038 -76 0
-1038 78 0
1038 -72 76 -78 0
-1039 74 0
-1039 76 0
-1039 -78 0
1039 -74 -76 78 0
1036 -1004 -1037 -1038 -1039 -234 0
-1036 1004 -1037 -1038 -1039 -234 0
-1036 -1004 1037 -1038 -1039 -234 0
-1036 -1004 -1037 1038 -1039 -234 0
-1036 -1004 -1037 -1038 1039 -234 0
-1036 -1004 -1037 -1038 -1039 234 0
1036 1004 1037 -1038 -1039 -234 0
1036 1004 -1037 1038 -1039 -234 0
1036 1004 -1037 -1038 1039 -234 0
1036 1004 -1037 -1038 -1039 234 0
1036 -1004 1037 1038 -1039 -234 0
1036 -1004 1037 -1038 1039 -234 0
1036 -1004 1037 -1038 -1039 234 0
1036 -1004 -1037 1038 1039 -234 0
1036 -1004 -1037 1038 -1039 234 0
1036 -1004 -1037 -1038 1039 234 0
-1036 1004 1037 1038 -1039 -234 0
-1036 1004 1037 -1038 1039 -234 0
-1036 1004 1037 -1038 -1039 234 0
-1036 1004 -1037 1038 1039 -234 0
-1036 1004 -1037 1038 -1039 234 0
-1036 1004 -1037 -1038 1039 234 0
-1036 -1004 1037 1038 1039 -234 0
-1036 -1004 1037 1038 -1039 234 0
-1036 -1004 1037 -1038 1039 234 0
-1036 -1004 -1037 1038 1039 234 0
1036 1004 1037 1038 1039 -234 0
1036 1004 1037 1038 -1039 234 0
1036 1004 1037 -1038 1039 234 0
1036 1004 -1037 1038 1039 234 0
1036 -1004 1037 1038 1039 234 0
-1036 1004 1037 1038 1039 234 0
-1040 110 0
-1040 -172 0
1040 -110 172 0
-1041 110 0
-1041 -141 0
-1041 203 0
1041 -110 141 -203 0
-1042 -110 0
-1042 234 0
1042 110 -234 0
-1043 110 0
-1043 141 0
-1043 -172 0
-1043 234 0
1043 -110 -141 172 -234 0
-1044 -110 0
-1044 203 0
-1044 234 0
1044 110 -203 -234 0
-1045 141 0
-1045 203 0
-1045 234 0
1045 -141 -203 -234 0
-1046 141 0
-1046 172 0
-1046 203 0
-1046 -234 0
1046 -141 -172 -203 234 0
1040 -1041 -1042 -1043 -1044 -1045 1047 0
-1040 1041 -1042 -1043 -1044 -1045 1047 0
-1040 -1041 1042 -1043 -1044 -1045 1047 0
-1040 -1041 -1042 1043 -1044 -1045 1047 0
-1040 -1041 -1042 -1043 1044 -1045 1047 0
-1040 -1041 -1042 -1043 -1044 1045 1047 0
-1040 -1041 -1042 -1043 -1044 -1045 -1047 0
1040 1041 1042 -1043 -1044 -1045 1047 0
1040 1041 -1042 1043 -1044 -1045 1047 0
1040 1041 -1042 -1043 1044 -1045 1047 0
1040 1041 -1042 -1043 -1044 1045 1047 0
1040 1041 -1042 -1043 -1044 -1045 -1047 0
1040 -1041 1042 1043 -1044 -1045 1047 0
1040 -1041 1042 -1043 1044 -1045 1047 0
1040 -1041 1042 -1043 -1044 1045 1047 0
1040 -1041 1042 -1043 -1044 -1045 -1047 0
1040 -1041 -1042 1043 1044 -1045 1047 0
1040 -1041 -1042 1043 -1044 1045 1047 0
1040 -1041 -1042 1043 -1044 -1045 -1047 0
1040 -1041 -1042 -1043 1044 1045 1047 0
1040 -1041 -1042 -1043 1044 -1045 -1047 0
1040 -1041 -1042 -1043 -1044 1045 -1047 0
-1040 1041 1042 1043 -1044 -1045 1047 0
-1040 1041 1042 -1043 1044 -1045 1047 0
-1040 1041 1042 -1043 -1044 1045 1047 0
-1040 1041 1042 -1043 -1044 -1045 -1047 0
-1040 1041 -1042 1043 1044 -1045 1047 0
-1040 1041 -1042 1043 -1044 1045 1047 0
-1040 1041 -1042 1043 -1044 -1045 -1047 0
-1040 1041 -1042 -1043 1044 1045 1047 0
-1040 1041 -1042 -1043 1044 -1045 -1047 0
-1040 1041 -1042 -1043 -1044 1045 -1047 0
-1040 -1041 1042 1043 1044 -1045 1047 0
-1040 -1041 1042 1043 -1044 1045 1047 0
-1040 -1041 1042 1043 -1044 -1045 -1047 0
-1040 -1041 1042 -1043 1044 1045 1047 0
-1040 -1041 1042 -1043 1044 -1045 -1047 0
-1040 -1041 1042 -1043 -1044 1045 -1047 0
-1040 -1041 -1042 1043 1044 1045 1047 0
-1040 -1041 -1042 1043 1044 -1045 -1047 0
-1040 -1041 -1042 1043 -1044 1045 -1047 0
-1040 -1041 -1042 -1043 1044 1045 -1047 0
1040 1041 1042 1043 1044 -1045 1047 0
1040 1041 1042 1043 -1044 1045 1047 0
1040 1041 1042 1043 -1044 -1045 -1047 0
1040 1041 1042 -1043 1044 1045 1047 0
1040 1041 1042 -1043 1044 -1045 -1047 0
1040 1041 1042 -1043 -1044 1045 -1047 0
1040 1041 -1042 1043 1044 1045 1047 0
1040 1041 -1042 1043 1044 -1045 -1047 0
1040 1041 -1042 1043 -1044 1045 -1047 0
1040 1041 -1042 -1043 1044 1045 -1047 0
1040 -1041 1042 1043 1044 1045 1047 0
1040 -1041 1042 1043 1044 -1045 -1047 0
1040 -1041 1042 1043 -1044 1045 -1047 0
1040 -1041 1042 -1043 1044 1045 -1047 0
1040 -1041 -1042 1043 1044 1045 -1047 0
-1040 1041 1042 1043 1044 1045 1047 0
-1040 1041 1042 1043 1044 -1045 -1047 0
-1040 1041 1042 1043 -1044 1045 -1047 0
-1040 1041 1042 -1043 1044 1045 -1047 0
-1040 1041 -1042 1043 1044 1045 -1047 0
-1040 -1041 1042 1043 1044 1045 -1047 0
1040 1041 1042 1043 1044 1045 -1047 0
-1047 -1046 0
1047 1046 0
1512 -1425 1447 0
1258 1406 -1466 0
1529 1345 1232 0
1136 -1334 -1085 0
-1089 1229 1255 0
-1277 1191 -1056 0
1258 1380 -1286 0
-1252 1137 -1362 0
-1439 -1492 -1199 0
-1172 1127 -1182 0
-1512 1048 -1357 0
-1254 -1392 1314 0
-1362 1435 1514 0
1543 1221 1316 0
1150 1484 1287 0
-1452 1490 -1057 0
1198 1526 -1389 0
1343 -1494 -1460 0
-1339 -1476 -1270 0
-1269 1231 1520 0
-1373 -1230 1090 0
1381 1452 -1194 0
1454 1521 -1275 0
-1269 1283 -1138 0
1381 -1422 -1405 0
-1308 1066 1219 0
-1521 -1444 1379 0
1302 1234 1385 0
-1545 1484 -1271 0
1163 1470 1152 0
1364 -1245 -1217 0
-1316 1231 1178 0
1364 1314 -1499 0
-1191 -1150 1504 0
-1146 1063 1369 0
1404 -1062 -1358 0
-1309 -1527 -1253 0
1206 -1153 1534 0
-1531 1159 -1096 0
1240 1481 1365 0
-1527 -1398 1432 0
1361 1191 1125 0
1140 1450 -1373 0
-1073 -1104 -1455 0
1277 -1445 -1226 0
1115 -1296 -1072 0
-1451 1257 -1302 0
1103 -1225 -1451 0
-1077 1539 -1083 0
-1231 1052 1188 0
1437 -1524 1059 0
1222 -1089 -1517 0
1480 -1187 1134 0
-1216 1454 -1445 0
1497 1080 -1225 0
-1402 -1188 1260 0
-1176 1485 -1293 0
1408 1204 1518 0
-1255 1270 1155 0
-1327 -1133 -1242 0
1243 1435 1487 0
1514 -1139 1338 0
-1092 1307 1073 0
-1265 -1171 -1351 0
-1537 -1060 -1223 0
1533 1071 1498 0
-1327 -1303 1406 0
-1487 1416 1065 0
1095 -1505 -1106 0
-1343 1528 -1206 0
-1435 -1407 1058 0
1154 -1468 -1456 0
1272 1187 -1502 0
-1431 -1057 -1053 0
1489 -1413 -1379 0
1137 -1332 1114 0
1303 1485 1530 0
-1152 1384 -1519 0
-1157 1219 -1343 0
1515 1461 1132 0
-1408 -1507 1316 0
-1391 1220 1439 0
-1059 -1197 1537 0
-1319 1223 -1350 0
-1188 -1311 1089 0
1110 1180 1273 0
-1335 -1160 1216 0
1233 -1503 1413 0
-1207 1467 -1156 0
1288 -1531 -1420 0
1096 -1176 1327 0
1319 -1152 1211 0
1057 1374 -1464 0
1209 -1418 -1181 0
-1076 1478 -1362 0
-1449 1518 1411 0
1133 1421 -1187 0
-1259 -1227 1508 0
1244 -1120 1092 0
1062 -1128 1215 0
-1113 1288 -1108 0
-1513 -1412 -1437 0
1288 1229 1141 0
-1276 -1410 1331 0
1410 -1112 -1431 0
1217 1 -1084 0
-1468 -1191 -1491 0
1170 -1344 -1352 0
-1161 1375 1495 0
1357 1343 -1250 0
1219 1118 -1360 0
-1164 -1348 -1136 0
1172 -1059 1253 0
1495 -1207 1398 0
1434 1113 -1279 0
-1101 -1335 1456 0
-1212 -1221 1489 0
1211 -1263 -1539 0
-1441 -1348 -1098 0
-1229 -1339 -1273 0
-1300 1339 1531 0
-1500 -1226 -1263 0
-1275 -1351 -1423 0
1307 -1323 1431 0
1519 1458 -1129 0
-1443 -1481 -1161 0
-1471 -1304 -1208 0
1348 -1283 1358 0
1160 -1119 1517 0
-1335 -1258 1306 0
1240 -1208 -1275 0
1190 1367 1337 0
-1359 -1516 1081 0
-1366 -1514 1114 0
-1537 1506 1064 0
1443 -1425 1343 0
-1057 1083 1061 0
-1146 -1055 -1200 0
1381 1501 -1226 0
-1107 1135 1505 0
-1113 -1487 -1420 0
-1105 -1476 1350 0
1156 1231 -1407 0
-1374 -1406 1349 0
-1053 1074 -1388 0
-1359 -1426 1374 0
-1205 -1054 -1076 0
-1214 -1442 1345 0
1423 1238 -1082 0
1479 -1457 -1226 0
-1207 -1441 1418 0
-1487 1140 -1375 0
-1131 1124 1410 0
1459 -1382 1319 0
1147 1347 -1135 0
-1172 -1136 -1112 0
1366 1270 1493 0
-1163 -1179 -1186 0
1109 1329 1334 0
-1060 1085 1504 0
-1173 1344 1375 0
-1240 -1515 -1235 0
1249 1486 1063 0
1490 -1531 -1421 0
1287 1086 1397 0
1485 -1521 -1368 0
1130 1408 -1338 0
-1056 -1457 -1101 0
1517 -1097 1212 0
-1204 1423 -1129 0
-1432 -1266 -1452 0
1226 1174 -1334 0
1485 -1162 -1453 0
-1221 -1364 -1463 0
1079 1073 1327 0
1094 -1321 -1180 0
-1427 -1061 -1353 0
1211 1325 1075 0
1336 -1347 -1241 0
-1158 1074 -1136 0
-1354 1442 -1300 0
1519 1130 1503 0
1239 -1169 -1475 0
-1496 1384 1254 0
1255 1055 -1129 0
-1325 -1461 1226 0
-1373 1080 -1365 0
-1480 1257 -1446 0
-1168 -1282 -1183 0
1284 -1488 1294 0
-1152 1067 1316 0
1068 -1132 1264 0
-1516 -1203 1346 0
-1216 -1393 1220 0
1092 1167 1248 0
-1196 1151 1363 0
1503 -1311 1207 0
-1310 1327 -1088 0
-1049 1220 1160 0
1334 1426 -1516 0
1332 -1223 1268 0
-1225 -1453 -1129 0
-1123 1393 1073 0
1432 -1313 1251 0
1395 1131 1465 0
1482 -1260 -1169 0
1522 1394 -1527 0
-1351 -1164 1162 0
-1410 -1521 -1 0
-1506 1223 1131 0
1223 1183 -1273 0
-1273 -1169 1291 0
1523 1385 -1302 0
-1223 1286 1366 0
-1224 1168 -1074 0
1174 -1077 -1060 0
-1150 1457 -1183 0
1385 1346 1409 0
-1486 1321 -1525 0
-1157 -1380 1512 0
1415 1124 1101 0
-1442 1288 3 0
-1103 1328 1172 0
-1057 1067 -1396 0
-1380 -1142 -1239 0
1371 1503 1268 0
1165 -1135 -1148 0
-1344 -1281 -1225 0
1398 -1416 1327 0
-1459 -1445 1408 0
1296 1275 1306 0
-1230 -1126 1440 0
1377 -1249 1502 0
1316 1082 -1232 0
-1363 1402 -1048 0
1529 -1111 1180 0
1094 -1472 1221 0
-1209 1090 1182 0
1480 1075 -1402 0
1269 1296 -1052 0
1176 1163 -1285 0
-1258 -1307 -1453 0
-1218 -1265 1063 0
-1526 -1170 -1351 0
1384 1366 1535 0
-1212 -1072 -1287 0
1284 1253 1113 0
-1312 1516 -1388 0
1105 -1360 -1055 0
-1149 -1387 1324 0
-1262 1250 1099 0
1161 -1246 -1153 0
1204 1511 1274 0
1431 -1058 -1071 0
1250 1378 1266 0
-1054 1391 1361 0
-1507 -1167 -1375 0
-1372 -1211 -1539 0
-1514 1301 -1503 0
1271 -1251 1417 0
-1454 -1445 1243 0
-1398 -1172 -1222 0
1107 -1271 -1395 0
-1398 1145 -1168 0
1246 1068 1078 0
-1469 1125 -1368 0
1221 1052 -1512 0
-1080 1147 1488 0
-1296 -1258 1422 0
-1245 1471 1093 0
1052 -1521 1344 0
-1066 -1168 1505 0
1101 -1406 1499 0
1320 1392 1071 0
1074 -1520 1122 0
-1110 -1102 -1139 0
1163 1524 -1052 0
-1409 1413 1356 0
-1385 -1207 1194 0
-1417 1103 1177 0
1140 1429 -1165 0
1132 1495 1351 0
-1495 1167 -1374 0
-1281 -1071 -1498 0
-1533 -1137 -1343 0
1227 -1382 1545 0
-1322 1155 1474 0
-1439 -1401 -1205 0
1410 -1248 1416 0
1102 -1323 -1079 0
1515 -1327 -1157 0
-1345 1256 1494 0
1163 -1434 -1403 0
-1167 -1372 -1276 0
-1332 1449 1196 0
1493 -1475 -1077 0
-1092 -1094 1073 0
1394 1143 -1456 0
-1279 1393 1097 0
1383 -1375 -1347 0
1135 -1495 -1236 0
-1131 1452 -1533 0
-1180 -1147 -1109 0
-1315 -1290 1534 0
1264 -1295 1258 0
1326 -1224 -1061 0
-1455 -1282 1327 0
1261 -1381 -1532 0
1465 -1399 -1287 0
1188 1438 -1448 0
-1467 1442 1418 0
-1357 -1174 1305 0
-1523 1490 1192 0
1507 -1392 1130 0
-1253 1146 3 0
1201 -1274 -1061 0
1449 -1225 1408 0
1371 -1146 1081 0
-1248 1275 1206 0
-1442 1536 1263 0
1063 -1505 1150 0
1164 -1288 -1197 0
-1470 1479 -1421 0
-1172 -1506 1419 0
-1449 1541 1545 0
-1543 1161 -1159 0
-1472 1164 1444 0
1398 1274 1486 0
-1269 1064 1407 0
1502 1105 1353 0
1508 -1428 1066 0
1426 -1160 1537 0
1183 -1443 1420 0
1524 -1449 -1182 0
1198 -1354 -1250 0
1262 -1123 1368 0
1507 1283 1171 0
-1496 -1050 -1464 0
1489 -1310 -1196 0
-1270 1154 1208 0
-1415 -1533 1105 0
1100 -1434 -1199 0
-1246 -1189 -1423 0
1264 -1309 1324 0
-1268 1318 1240 0
-1264 1467 -1498 0
-1239 1065 1314 0
-1116 1148 1354 0
1508 -1337 1289 0
1373 -1280 1109 0
-1385 1087 -1435 0
-1069 1409 -1271 0
1503 -1529 1127 0
1291 -1143 1492 0
1325 -1414 1091 0
-1504 -1127 -1307 0
-1451 1294 -1192 0
-1155 -1395 -1236 0
1391 1257 1468 0
1148 1525 -1378 0
-1413 1177 -1201 0
-1457 1133 1526 0
-1162 -1224 1119 0
-1530 1464 -1148 0
1417 -1211 -1530 0
-1176 -1430 1187 0
1063 -1174 1457 0
1267 1200 1057 0
1231 -1195 1197 0
-1339 1177 -1276 0
1333 -1363 1529 0
1151 -1370 -1225 0
1395 -1441 1269 0
1139 -1125 -1435 0
-1356 1409 -1179 0
-1537 1178 -1535 0
-1072 1416 -1166 0
-1172 -1134 1086 0
1135 -1441 1059 0
-1527 -1199 -1345 0
-1333 -1435 1322 0
1470 1140 1458 0
-1088 1176 -1286 0
-1266 -1467 -1130 0
1215 1131 1127 0
1158 1236 1415 0
-1328 1141 -1077 0
-1392 -1432 -1062 0
-1174 -1291 -1315 0
1538 -1545 1504 0
1451 -1477 -1098 0
-1109 1500 1216 0
-1527 1246 -1298 0
1391 1164 1068 0
-1533 -1073 1398 0
1353 1405 -1501 0
-1332 1095 1479 0
1517 -1374 -1385 0
1398 1069 1494 0
1125 1375 1408 0
-1500 -1480 1073 0
1434 1329 -1459 0
-1359 -1108 -1135 0
1527 -1388 -1189 0
1458 1194 -1360 0
-1489 -1431 1273 0
1232 1433 -1405 0
-1259 1272 -1411 0
-1468 -1258 -1244 0
1300 -1304 1313 0
1408 1374 -1333 0
-1416 -1234 1220 0
-1078 1251 1064 0
-1151 -1180 -1358 0
-1320 -1203 -1110 0
1489 1337 1175 0
-1415 -1501 -1217 0
1381 1467 1267 0
1147 -1322 1465 0
-1118 1456 -1377 0
1483 -1145 1450 0
1243 1098 -1342 0
1430 1180 -1152 0
-1437 1487 -1303 0
1383 -1325 -1498 0
-1328 -1250 -1105 0
1074 -1365 -1544 0
1055 -1174 -1478 0
1494 1375 -1258 0
1145 1376 -1096 0
-1057 -1179 -1419 0
-1211 -1245 -1212 0
1506 -1431 -1232 0
1210 1199 1499 0
-1194 -1505 -1174 0
1414 -1272 1510 0
-1135 1360 -1233 0
-1211 1335 -1494 0
1373 -1096 1205 0
-1477 1472 1227 0
-1288 -1243 1316 0
1443 -1425 1131 0
1193 -1050 1249 0
-1499 -1433 -1185 0
-1381 -1349 1242 0
1106 -1206 -1416 0
1499 1514 1438 0
-1498 -1098 -1282 0
1143 -1351 1377 0
-1405 1151 1101 0
1080 1484 1497 0
1068 1523 -1255 0
1411 1479 1222 0
1368 -1137 1202 0
1316 -1512 -1117 0
1453 -1519 -1334 0
1221 1462 -1172 0
-1222 -1091 -1339 0
-1223 1139 -1215 0
1239 -1525 -1394 0
1512 -1462 1307 0
-1097 1199 -1469 0
-1083 -1464 -1343 0
-1306 1346 -1059 0
-1358 -1225 1246 0
1495 -1309 1171 0
-1264 1467 -1155 0
1143 -1385 -1315 0
1361 1328 -1090 0
1095 -1274 -1256 0
-1505 -1384 -1167 0
-1087 1517 1458 0
-1399 1460 1100 0
-1264 -1522 -1107 0
-1339 1103 1400 0
1056 1517 -1480 0
1168 1199 1056 0
-1295 -1407 -1138 0
-1128 1100 -1127 0
1167 1508 1193 0
-1469 1374 1527 0
1294 1332 -1292 0
-1334 -1319 -1309 0
1180 1409 -1402 0
-1351 -1526 -1386 0
1361 1277 -1384 0
-1288 -1234 1333 0
1436 -1132 1279 0
-1354 1500 -1423 0
1088 1521 -1262 0
1438 -1493 -1301 0
1277 1383 -1281 0
-1377 1466 -1166 0
1328 -1280 1439 0
-1293 1338 -1437 0
-1238 1464 1368 0
-1541 -1130 -1505 0
-1162 -1536 -1103 0
-1074 -1087 -1467 0
-1383 1198 1510 0
1353 1058 1159 0
-1296 -1354 -1448 0
-1244 1405 -1245 0
-1341 1374 1544 0
-1435 -1484 -1101 0
-1446 1223 1433 0
-1526 -1307 1406 0
-1489 -1419 -1508 0
1497 1322 1284 0
1251 1280 -1176 0
1533 -1238 1076 0
-1472 -1084 1348 0
-1435 -1113 1395 0
1160 -1059 -1505 0
-1091 -1066 1437 0
1074 1165 1273 0
1350 1170 1222 0
-1480 -1198 1414 0
1512 -1516 1489 0
-1480 -1266 1176 0
-1258 1174 1279 0
1123 1389 -1100 0
1453 1282 1367 0
1103 -1236 1397 0
-1508 -1300 -1145 0
-1252 1189 -1374 0
1268 1058 1109 0
-1491 1423 -1498 0
-1193 -1460 -1413 0
1424 -1127 -1487 0
-1223 1130 1413 0
-1270 -1143 -1211 0
-1050 1069 1058 0
1383 1187 -1329 0
1289 -1416 1528 0
-1306 -1275 -1490 0
1326 1356 -1463 0
1479 1352 -1064 0
1361 -1497 1348 0
-1545 1148 1063 0
-1240 1444 -1492 0
1355 1408 -1240 0
-1119 1139 -1348 0
-1150 -1400 -1118 0
-1451 1350 1080 0
1185 -1230 -1469 0
-1367 -1381 1061 0
-1410 1385 -1166 0
-1333 -1434 1412 0
-1190 1449 -1521 0
-1249 1362 -1048 0
1178 -1472 -1056 0
1072 -1056 1162 0
1204 -1362 -1185 0
1094 -1070 1087 0
-1238 -1304 1081 0
1414 1267 1113 0
1053 1144 -1269 0
-1420 1301 -1466 0
1198 1226 1222 0
-1458 -1145 1534 0
1487 1206 1344 0
-1268 -1295 -1162 0
-1095 -1293 -1514 0
1167 1311 1530 0
-1426 1121 1536 0
1344 -1362 -1340 0
-1513 1296 -1184 0
1194 -1495 1155 0
-1466 1290 -1385 0
-1193 1320 -1123 0
-1169 -1338 1166 0
-1352 -1402 -1093 0
-1352 1338 -1442 0
-1388 -1431 -1458 0
-1230 1187 -1478 0
-1463 -1300 -1265 0
1231 1227 1214 0
-1225 1182 1501 0
1141 1144 1351 0
-1063 -1214 -1485 0
1274 -1244 -1074 0
1305 -1319 -1131 0
-1488 -1435 -1244 0
1216 1310 -1099 0
1171 -1187 1252 0
1385 1217 1084 0
1316 1127 1296 0
-1316 -1348 -1395 0
1321 -1120 1328 0
-1263 1073 1446 0
1161 1181 1060 0
-1176 -1522 1463 0
1387 -1500 -1329 0
1106 1447 1308 0
1147 1049 1237 0
-1242 1439 -1520 0
1444 1427 -1202 0
-1490 1501 -1192 0
-1313 1455 1072 0
-1240 1102 -1361 0
1122 1503 -1385 0
1128 -1463 -1516 0
-1181 -1426 1085 0
-1452 -1273 -1048 0
-1439 -1349 -1059 0
-1199 1514 -1278 0
1480 1350 1067 0
-1535 -1428 -1384 0
-1167 1468 1424 0
-1125 1146 -1337 0
-1118 1359 -1346 0
-1306 1490 -1373 0
1286 -1087 -1354 0
-1275 -1441 -1291 0
-1492 1347 1098 0
1467 1216 1424 0
1141 -1485 1230 0
-1246 -1211 1324 0
-1378 1222 1493 0
-1428 1128 1515 0
-1193 -1138 -1135 0
1311 -1307 1105 0
1231 -1134 1343 0
-1061 1326 -1467 0
1381 1138 1536 0
-1122 1071 1300 0
1331 1213 -1079 0
1374 1200 -1054 0
1268 1531 1283 0
-1097 1532 1437 0
-1102 1265 -1341 0
1276 1420 1263 0
-1082 1445 -1238 0
-1048 -1144 1544 0
1084 -1543 -1386 0
-1246 1493 -1100 0
-1443 -1386 1211 0
-1199 1537 -1532 0
1256 -1435 1359 0
1461 -1065 1154 0
1137 -1048 -1344 0
1482 1292 -1145 0
-1087 1264 1296 0
1288 -1523 1426 0
1213 -1351 1425 0
1172 -1050 1227 0
-1229 1484 -1322 0
-1088 -1478 1105 0
-1477 1100 1201 0
1069 -1527 -1249 0
-1481 -1280 1166 0
-1545 1092 1106 0
-1514 1269 -1282 0
1251 -1344 1148 0
-1304 -1383 -1092 0
-1476 1425 1287 0
1071 -1393 -1196 0
1434 -1340 1452 0
-1070 -1424 -1470 0
-1090 -1247 1120 0
-1143 -1344 -1092 0
1489 1124 -1140 0
1174 -1301 -1261 0
-1205 -1302 -1517 0
-1367 1325 1161 0
-1460 1365 1327 0
-1104 -1499 -1310 0
-1471 -1424 -1284 0
-1426 -1322 -1125 0
1163 -1430 -1140 0
-1262 -1092 -1329 0
-1229 -1314 1145 0
-1476 -1096 -1274 0
1537 1468 -1167 0
1430 1141 1263 0
1340 1442 1293 0
1122 -1326 -1475 0
1071 1407 -1150 0
-1145 -1271 -1467 0
-1450 -1077 1540 0
-1368 1202 1117 0
1128 1060 1495 0
1112 -1261 -1140 0
1363 1466 -1099 0
1535 1443 -1278 0
1205 1091 1500 0
1445 -1447 -1453 0
-1276 1377 1063 0
-1199 -1218 -1157 0
1305 -1298 -1398 0
1335 1293 1166 0
-1534 1423 -1237 0
1243 -1206 -1482 0
1451 -1535 1360 0
-1517 -1205 1375 0
-1297 1541 1210 0
1207 1125 1268 0
1355 1422 -1506 0
1434 1246 1184 0
1177 -1085 -1095 0
-1275 -1512 -1296 0
-1137 1397 -1318 0
1512 1411 -1225 0
-1121 1249 -1220 0
-1150 -1435 1180 0
-1307 1329 -1066 0
1251 1369 1458 0
1178 1501 1232 0
1184 1207 1250 0
1453 -1229 1100 0
-1140 -1349 1289 0
1222 1418 -1345 0
1455 1083 1289 0
1142 -1236 1535 0
1511 -1160 1298 0
-1174 1499 -1142 0
1392 -1494 -1533 0
-1479 -1343 1475 0
-1051 1386 1218 0
1461 1504 1539 0
1358 -1504 -1204 0
-1422 -1425 1424 0
1302 1356 1462 0
-1066 1390 1048 0
-1118 -1503 1349 0
-1316 -1335 -1341 0
1256 1324 -1254 0
1104 -1149 1441 0
1181 -1207 -1476 0
1527 1323 -1476 0
-1168 -1363 -1094 0
-1440 1205 -1126 0
1085 -1055 1076 0
-1067 -1517 -1378 0
1323 1486 1361 0
1364 -1246 1225 0
1066 1262 -1185 0
1426 1256 1497 0
1479 1213 -1304 0
-1200 -1146 1204 0
-1229 1376 1333 0
1388 -1467 -1520 0
1469 -1152 -1401 0
1208 -1199 -1418 0
-1184 -1322 -1193 0
1430 1531 -1386 0
1327 -1440 -1356 0
1298 -1049 1188 0
-1358 -1291 -1209 0
-1277 -1202 -1459 0
1083 -1235 -1395 0
1164 -1391 1341 0
-1362 -1102 1277 0
1366 -1078 -1252 0
1166 1346 -1279 0
-1295 1114 -1125 0
1397 -1462 1387 0
-1420 1411 -1100 0
1465 1542 -1352 0
1100 -1350 -1222 0
-1223 1337 -1321 0
-1149 -1139 1534 0
-1340 1513 1448 0
1168 1389 1471 0
1202 -1421 -1311 0
1437 1089 1144 0
1284 -1504 1480 0
1162 1447 1391 0
1493 -1269 -1159 0
-1380 -1057 -1059 0
-1304 1132 -1468 0
1095 1389 -1282 0
-1259 -1436 -1438 0
1227 1253 1114 0
1479 1312 1481 0
1372 -1521 1263 0
-1072 1279 -1210 0
-1151 -1327 -1522 0
-1240 1419 1342 0
-1083 1147 -1541 0
1149 -1271 -1086 0
-1187 -1398 1151 0
1142 1117 1352 0
-1207 -1512 -1418 0
1084 1163 1391 0
1143 1091 1516 0
1407 1404 1194 0
-1389 1511 -1231 0
-1048 -1097 1321 0
-1164 -1445 -1371 0
1106 -1279 -1358 0
-1373 -1130 -1285 0
1488 -1496 -1119 0
-1335 1499 1412 0
-1170 -1048 -1524 0
1114 1423 -1394 0
1159 -1485 1405 0
1359 -1108 -1111 0
1099 1229 1221 0
1545 1123 1253 0
1342 -1493 -1298 0
-1465 -1191 -1350 0
1291 -1209 -1531 0
1077 1500 1109 0
-1458 1122 1286 0
-1393 -1100 1464 0
1510 1367 1492 0
1237 -1242 1505 0
1102 1436 1212 0
1329 1259 1366 0
-1392 1077 1178 0
-1464 1493 -1401 0
1059 -1304 -1049 0
-1231 1538 1502 0
1493 1292 1163 0
-1244 -1366 1231 0
-1411 1253 -1161 0
1426 1482 1487 0
-1347 1492 1266 0
-1060 1495 1476 0
1183 -1313 1123 0
-1389 -1214 -1119 0
-1539 1519 1479 0
1209 1260 -1186 0
-1113 -1383 -1136 0
1300 1208 1325 0
1243 -1079 1295 0
-1313 -1383 1361 0
1292 -1333 -1136 0
1073 1136 1149 0
-1527 1240 -1336 0
-1240 -1473 -1059 0
-1480 -1363 1092 0
-1523 -1161 1503 0
1231 -1426 -1116 0
1166 1230 1102 0
-1288 1536 -1260 0
1510 1266 -1479 0
-1079 1197 -1315 0
-1369 -1153 -1252 0
-1301 1265 1139 0
-1496 -1122 -1130 0
1326 -1 -1136 0
-1413 -1443 1460 0
1508 -1109 1342 0
1475 1109 1513 0
1162 1222 1072 0
1468 -1370 -1256 0
1173 -1450 1369 0
-1129 1252 -1524 0
-1173 1202 -1395 0
1442 1545 1502 0
-1382 -1371 -1445 0
-1214 1165 -1194 0
1543 1468 -1087 0
1254 1055 -1426 0
-1098 -1437 1161 0
-1209 1165 1339 0
-1285 -1375 -1524 0
-1348 1139 1162 0
1420 -1428 -1524 0
-1311 -1488 1308 0
1395 -1181 -1074 0
1048 -1334 -1416 0
-1220 1375 1456 0
-1157 -1296 1217 0
1506 -1168 1401 0
1178 1102 1509 0
-1099 1097 -1199 0
1139 1103 1408 0
-1338 1208 1535 0
1422 1110 1217 0
-1104 -1169 -1128 0
1284 -1087 -1082 0
-1321 1456 1523 0
-1274 -1455 1089 0
1164 -1146 -1257 0
-1214 -1288 1520 0
1281 1251 1050 0
-1089 -1122 1129 0
1298 -1339 1156 0
-1488 1379 1333 0
1051 -1189 1258 0
-1340 -1380 1431 0
-1517 1398 1308 0
1152 -1375 -1519 0
-1301 -1465 1270 0
1058 -1124 -1241 0
1303 1101 1525 0
-1226 -1074 -1539 0
-1520 1291 1297 0
-1384 -1114 -1192 0
1160 1169 -1195 0
1353 -1355 1364 0
1473 -1382 -1450 0
1389 1150 -1482 0
-1219 -1140 -1216 0
1085 1521 -1153 0
-1498 -1342 1162 0
1192 -1260 -1154 0
1492 -1228 -1241 0
1529 1347 1090 0
1184 1411 -1075 0
-1451 -1256 -1212 0
1191 -1525 -1360 0
-1390 -1226 1381 0
-1387 1443 -1163 0
1337 -1291 -1501 0
-1088 1145 1469 0
1207 1164 1133 0
1527 -1466 1048 0
1530 1198 -1210 0
1441 1080 1062 0
-1462 1147 -1504 0
1494 -1220 -1448 0
-1254 1233 -1444 0
-1522 1385 1259 0
-1310 1086 1536 0
1537 -1205 1048 0
-1279 -1345 1087 0
1363 -1440 -1128 0
-1322 1329 -1175 0
-1492 -1086 -1360 0
-1382 -1210 1262 0
-1103 -1097 -1265 0
-1540 -1254 1198 0
1412 1098 1141 0
-1168 -1238 -1309 0
1391 1215 1498 0
-1379 -1314 -1515 0
1209 -1406 -1115 0
1525 -1201 -1295 0
1344 1171 -1086 0
-1396 -1304 -1088 0
-1118 -1403 1419 0
-1300 1323 1350 0
-1066 -1322 -1146 0
-1515 -3 1275 0
1429 -1164 1447 0
1428 -1390 -1181 0
1244 -1185 1073 0
-1493 1232 -1350 0
-1198 -1175 1408 0
-1070 -1068 1294 0
1249 1227 -1410 0
1486 1533 1139 0
-1541 1483 1492 0
-1353 -1183 -1281 0
-1345 1441 1295 0
1465 -1126 1276 0
1431 -1257 -1052 0
1283 1071 -1330 0
-1187 -1178 -1304 0
1150 1351 -1422 0
-1448 1170 1527 0
-1050 1190 1509 0
1403 1258 -1064 0
1309 -1435 1225 0
1401 -1268 1535 0
-1530 -1376 1364 0
-1116 -1217 -1268 0
-1425 -1436 -1306 0
1490 -1 -1295 0
-1354 -1275 1135 0
-1389 1342 1244 0
1137 -1377 -1434 0
1259 1494 -1210 0
1232 1540 1446 0
-1200 1323 1401 0
1509 -1316 -1361 0
1277 1273 1158 0
1439 -1503 1175 0
1504 -1367 -1219 0
-1531 1160 1318 0
-1258 1423 -1367 0
-1354 -1520 -1230 0
1500 1386 -1432 0
-1309 -1401 -1241 0
1476 -1245 1316 0
1151 -1149 -1106 0
-1282 1337 1324 0
-1099 -1065 -1110 0
-1359 1264 -1215 0
1209 -1334 -1480 0
1515 -1346 1179 0
1379 1214 1306 0
1233 1392 1241 0
1112 -1349 1266 0
-1369 -1224 1413 0
-1333 -1479 1260 0
-1435 -1193 -1508 0
-1372 -1344 -1499 0
-1070 1514 -1292 0
1369 1424 -1338 0
1502 -1321 1087 0
-1362 -1484 1049 0
1283 1311 -1309 0
1180 1209 -1179 0
1392 -1480 -1465 0
1292 -1330 -1081 0
-1541 -1521 -1419 0
1361 -1389 -1476 0
1290 1067 1130 0
1317 1146 -1324 0
1348 -1383 1289 0
1170 -1518 1424 0
-1209 1183 -1077 0
-1061 -1359 -1485 0
1489 -1360 -1543 0
1079 -1056 -1472 0
1077 -1222 -1421 0
1143 -1087 1232 0
1092 1048 -1114 0
1428 -1294 -1323 0
-1514 1401 -1394 0
1343 -1209 -1121 0
1119 -1419 1540 0
1061 1446 -1380 0
1092 -1166 1434 0
-1206 -1366 -1112 0
-1158 1410 1111 0
-1539 -1360 -1260 0
1218 1487 -1513 0
1544 1468 1223 0
1495 -1156 -1395 0
-1315 -1128 1179 0
1073 1513 -1234 0
1206 1377 1454 0
-1231 1086 1105 0
-1289 -1274 -1313 0
-1407 1262 -1070 0
1414 -1327 1511 0
1421 1284 1500 0
-1467 -1301 -1083 0
-1183 -1110 1294 0
-1244 -1416 1309 0
-1118 -1482 1196 0
-1206 -1118 1512 0
-1509 1175 -1190 0
-1066 1145 1076 0
1361 1099 1307 0
-1141 1245 1459 0
1519 1147 -1228 0
1375 -1429 1065 0
1485 1154 1125 0
1259 1238 1386 0
1350 1264 -1065 0
-1226 1187 1107 0
-1150 -1308 1410 0
-1353 1425 -1107 0
-1220 -1313 -1380 0
-1380 1444 1074 0
-1212 -1194 1383 0
-1254 1364 -1283 0
1071 -1499 -1103 0
1274 1060 1275 0
1270 -1113 1268 0
1346 1337 1237 0
-1306 -1476 -1270 0
-1073 1425 -1220 0
1093 -1443 1278 0
1146 -1434 -1078 0
1262 -1338 -1346 0
1211 1088 1146 0
1508 1465 1232 0
1401 1449 1151 0
-1099 1177 -1203 0
1140 1068 -1487 0
1314 1492 1162 0
-1220 1196 1326 0
-1114 -1540 -1437 0
-1340 -1385 -1100 0
-1498 -1416 -1279 0
1513 1282 -1507 0
-1490 1529 1197 0
1462 1309 1182 0
1128 -1480 1308 0
-1245 -1235 1455 0
-1346 1300 1160 0
-1160 -1532 1452 0
1453 1377 1263 0
1365 1471 -1338 0
-1166 -1510 1265 0
-1158 1447 1157 0
-1048 1527 1334 0
-1055 1404 1080 0
1129 1471 -1496 0
-1451 -1525 1078 0
1527 -1371 -1081 0
1292 -1451 1281 0
1135 1220 1443 0
-1048 1381 -1327 0
-1417 1366 1517 0
-1083 -1175 -1056 0
1224 -1367 -1218 0
-1350 -1343 -1409 0
-1102 -1320 1496 0
1227 -1496 -1231 0
-1236 1140 -1157 0
1365 -1094 1404 0
-1078 -1516 1409 0
-1056 1125 1456 0
-1224 1348 1337 0
1243 -1395 -1489 0
-1391 1119 -1260 0
-1316 -1346 -1396 0
1167 1251 1350 0
-1418 1093 1126 0
-1410 1506 -1135 0
-1370 1363 1314 0
1464 1189 -1382 0
-1187 -1147 1134 0
-1269 1403 -1051 0
1441 1283 -1274 0
-1225 -1118 -1211 0
1381 -1427 -1080 0
1100 -1189 1162 0
-1497 -1063 -1505 0
-1122 1113 -1467 0
1050 1480 1139 0
1107 -1114 -1132 0
1508 1191 1129 0
-1430 -1285 -1440 0
-1425 -1170 -1532 0
1219 -1331 -1222 0
-1369 -1414 -1376 0
-1395 -1324 1113 0
-1208 -1491 1454 0
-1066 -1367 1210 0
-1392 -1432 -1480 0
1483 1107 1071 0
1446 -1053 1060 0
1097 1411 1064 0
-1535 -1073 1230 0
-1458 -1444 -1422 0
1439 1199 1529 0
-1264 1501 1117 0
-1350 1089 1402 0
1083 1390 -1140 0
1257 1160 -1442 0
-1054 -1251 -1459 0
1101 1240 -1470 0
-1515 1129 1358 0
1439 1341 1261 0
1179 1125 -1225 0
-1188 1073 1094 0
1422 -1324 1265 0
1116 -1272 -1127 0
-1299 -1343 -1531 0
-1431 1315 -1331 0
-1305 -1338 -1229 0
1379 1122 -1377 0
-1300 1197 -1212 0
1072 -1185 1265 0
1263 -1391 -1318 0
-1205 -1419 -1261 0
-1145 1264 -1241 0
1269 1423 -1474 0
-1357 1489 -1352 0
-1431 -1422 1509 0
-1329 1436 1349 0
1163 1229 -1101 0
1136 -1235 1305 0
-1231 1287 1165 0
-1155 -1054 1200 0
-3 1347 1321 0
-1187 1167 -1440 0
1124 -1422 1300 0
-1060 1477 -1472 0
1310 -1429 -1456 0
-1349 1356 -1127 0
1335 1154 1251 0
1294 1133 -1265 0
1086 1338 1443 0
1266 -1088 -1101 0
1457 -1161 -1219 0
1326 1380 -1295 0
1375 -1368 -1391 0
1061 -1263 -1313 0
1482 1154 -1485 0
1105 3 -1412 0
1271 -1524 1143 0
-1482 1544 1186 0
1303 1312 -1432 0
1467 -1365 1428 0
1509 1120 -1373 0
1286 -1283 1401 0
-1053 1398 -1068 0
-1363 -1289 1233 0
-1376 1438 -1434 0
-1083 1261 1376 0
-1287 1534 -1476 0
-1166 1230 1096 0
-1461 -3 -1177 0
1070 -1286 1540 0
-1066 -1387 -1211 0
1089 1196 1095 0
-1218 1265 -1456 0
-1508 1175 -1495 0
1445 -1505 -1293 0
1389 1142 -1290 0
1319 -1387 1201 0
-1446 -1237 1370 0
-1155 -1125 -1065 0
1111 -1321 1460 0
1261 -1132 -1357 0
-1394 -1271 -1517 0
-1320 1482 -1447 0
1092 1531 -1208 0
1068 -1535 -1077 0
-1152 -1123 1505 0
1280 -1399 1466 0
1181 1196 1500 0
1078 -1384 -1243 0
-1357 -1215 -1447 0
1261 -1361 -1238 0
1415 1365 -1097 0
-1501 -1262 -1475 0
-1167 1183 1253 0
-1276 1189 -1217 0
-1144 -1451 -1093 0
-1534 1347 1497 0
1364 1296 -1295 0
-1515 -1531 -1389 0
1076 -1433 -1216 0
1331 1219 -1162 0
-1510 1202 1099 0
1347 1412 1292 0
-1303 -1481 1142 0
1173 1539 1537 0
-1407 -1230 -1285 0
1275 1231 -1257 0
-1324 -1152 1524 0
-1385 1164 1426 0
-1086 1244 1235 0
1495 -1106 1318 0
-1289 -1517 -1225 0
-1112 -1430 1489 0
-1387 1147 1468 0
1462 1326 1088 0
-1091 -1159 -1052 0
1209 -1295 1414 0
1225 1169 1404 0
-1324 1406 1471 0
-1442 -1248 1140 0
1079 1251 1269 0
1334 -1084 -1525 0
1380 1458 1056 0
-1210 -1062 -1140 0
1301 -1362 -1128 0
-1357 1538 -1344 0
1162 1218 -1110 0
1528 1412 -1107 0
-1273 1473 1213 0
-1247 -1169 1449 0
1423 1533 -1401 0
-1395 1388 -1309 0
-1108 1169 1059 0
-1468 1445 -1249 0
-1074 1320 1241 0
-1192 1333 -1257 0
1287 -1209 1325 0
1198 -1184 -1089 0
1488 1433 -1161 0
1114 1402 1509 0
1533 1184 1058 0
1181 -1428 1184 0
1232 1437 -1103 0
-1343 -1397 -1456 0
-1147 -1315 -1493 0
1335 1417 -1123 0
1174 -1102 1498 0
-1230 -1054 -1480 0
1310 -1433 -1093 0
-1310 1300 -1063 0
1196 1506 1319 0
1344 -1287 1149 0
1191 -1442 1184 0
-1321 1299 1365 0
-1469 1090 -1272 0
-1387 -1304 1254 0
-1059 -1182 -1313 0
1291 -1281 -1421 0
1509 1340 1516 0
-1301 -1438 -1191 0
-1275 -1071 -1057 0
-1510 1403 -1383 0
-1256 1116 -1060 0
1348 1315 -1372 0
-1271 -1205 -1085 0
-1170 -1120 -1147 0
-1382 1226 1052 0
1498 1372 1151 0
1248 -1463 -1227 0
1074 1165 1291 0
1189 1512 1209 0
-1439 1187 1457 0
1480 1516 1399 0
-1497 -1536 -1432 0
1116 1298 1296 0
-1450 1361 -1104 0
1345 1055 -1050 0
-1284 -1241 1538 0
1105 1085 1169 0
1475 1139 1144 0
1318 -1063 -1484 0
-1092 1134 -1257 0
-1119 -1435 -1066 0
-1244 -1290 1544 0
-1065 -1368 -1365 0
-1286 1524 -1495 0
-1426 1252 -1372 0
1314 -1080 1265 0
1146 -1195 1342 0
1370 1240 -1410 0
1122 1450 1094 0
1309 1361 -1313 0
-1317 1278 -1456 0
1441 1370 1409 0
1278 -1497 -1277 0
-1064 -1421 -1346 0
-1321 -1413 1448 0
1316 -1126 1144 0
-1291 1364 -1193 0
-1192 1492 -1123 0
1171 -1459 1298 0
-1058 -1152 -1270 0
1530 1168 1512 0
-1451 1298 -1106 0
-1224 -1404 1265 0
-1530 1259 -1277 0
-1140 1400 1067 0
1398 1503 1542 0
-1457 1342 -1152 0
-1291 -1276 1075 0
-1180 -1220 1228 0
1178 -1051 -1424 0
-1424 1074 -1206 0
-1275 1507 1394 0
-1052 -1428 -1529 0
1051 1231 -1245 0
-1258 1432 1514 0
1192 1464 1070 0
-1403 -1271 -1434 0
1356 1113 -1453 0
1216 -1507 1188 0
1378 1259 1181 0
-1343 1348 1368 0
1364 1213 -1534 0
1083 1545 1114 0
-1398 -1462 1066 0
-1452 -1176 -1451 0
-1403 1339 1275 0
1177 1470 -1087 0
1179 -1235 1519 0
1126 1122 -1390 0
1120 -1102 -1141 0
1161 -1371 -1426 0
1264 1385 -1456 0
-1279 1139 -1148 0
1532 -1125 -1300 0
-1341 -1503 1358 0
1523 1301 1503 0
1389 1068 -1051 0
1065 1265 1455 0
1345 -1310 1533 0
-1355 -1288 1226 0
-1152 -1509 1122 0
-1127 1414 -1300 0
-1449 -1538 -1505 0
-1267 -1311 -3 0
1477 1378 1441 0
1331 1311 -1242 0
-1139 -1308 1282 0
-1133 1150 -1100 0
1330 -1535 1184 0
-1337 1527 1539 0
-1318 -1276 -1463 0
-1234 1435 1258 0
-1385 -1222 -1063 0
1164 1406 1173 0
1315 -1540 1057 0
1312 -1351 -1437 0
1531 -1359 -1270 0
1157 1179 1388 0
-1313 1395 1175 0
1470 1476 -1372 0
-1493 1209 1062 0
1219 -1082 1352 0
1461 1095 -1280 0
-1221 -1343 1212 0
1534 -1366 -1303 0
1071 -1452 -1363 0
1080 1316 -1449 0
-1488 1482 1437 0
1540 -1118 -1117 0
-1386 1263 -1185 0
1445 -1307 1050 0
-1482 -1087 1418 0
-1079 1074 1226 0
1243 1449 1344 0
-1133 -1153 -1495 0
1370 1502 1492 0
1328 1507 1541 0
1093 1083 1156 0
-1203 1057 -1320 0
1233 1117 -1195 0
-1367 1520 -1060 0
1267 1335 1250 0
1196 -1389 -1292 0
-1177 -1478 1469 0
1492 -1473 1171 0
1051 1431 1147 0
-1309 -1273 1443 0
-1075 1491 -1082 0
-1233 -1234 -1141 0
-1063 1438 1308 0
1167 1243 1462 0
-1376 1230 -1 0
1319 -1431 1139 0
-1371 -1246 -1237 0
1301 1078 -1427 0
-1094 -1194 1167 0
-1283 -1099 1125 0
-1432 1452 1367 0
-1380 -1439 1080 0
-1061 -1114 1127 0
-1366 -1384 1154 0
1382 -1437 -1429 0
1249 -1413 -1321 0
1256 1079 -1283 0
-1192 -1324 -1517 0
1085 1393 -1145 0
1376 -1375 -1190 0
-1480 1198 1539 0
1098 -1136 1124 0
1238 -1230 -1314 0
-1174 -1201 1539 0
-1378 1531 1362 0
1352 -1530 -1167 0
-1390 -1144 1137 0
-1310 -1477 1212 0
-1076 1472 -1335 0
1056 1383 -1475 0
1341 1370 1362 0
-1315 1367 -1154 0
-1388 -1053 1177 0
1392 1468 -1402 0
1126 -1206 -1097 0
-1387 1532 1291 0
-1066 -1070 -1089 0
-1373 -1477 1192 0
-1138 1535 1357 0
-1207 -1102 -1316 0
-1531 -1157 1345 0
-1351 -1187 1477 0
-1532 -1199 1349 0
1068 -1101 1333 0
1341 -1415 1218 0
-1424 1169 -1099 0
-1482 1409 -1214 0
1285 -1447 -1341 0
-1386 1306 -1212 0
-1288 -1138 -1460 0
-1285 -1197 -1456 0
-1251 1118 -1299 0
-1209 -1434 -1236 0
1443 -1284 1513 0
1516 -1174 -1129 0
-1287 -1423 -1160 0
-1134 -1249 1441 0
-1135 -1188 1168 0
1479 -1494 1385 0
-1138 -1341 1050 0
-1184 -1171 -1269 0
-1121 -1115 1471 0
1102 1251 1093 0
1178 1168 -1241 0
-1393 -1364 -1065 0
-1243 -1530 -1074 0
1188 -1210 -1273 0
1371 -1441 -1093 0
-1517 -1456 1404 0
-1437 -1479 -1449 0
-1359 1379 -1279 0
-1397 -1146 -1533 0
-1318 1391 1471 0
1102 1087 1160 0
1397 1497 -1179 0
-1401 -1424 1500 0
-1309 -1468 1206 0
-1326 -1375 -1423 0
-1308 -1455 1237 0
1475 1426 1100 0
1378 -1240 1543 0
-1244 -1296 -1389 0
1288 1383 1423 0
-1168 1203 1185 0
-1111 1361 -1094 0
-1137 -1107 1274 0
-1055 -1296 -1512 0
1299 -1101 1054 0
1258 1048 -1459 0
1065 -1425 -1512 0
1148 -1340 1303 0
-1444 -1290 1254 0
-1433 1248 -1122 0
-1049 -1294 -1502 0
-1114 -1165 -3 0
1277 -1186 1249 0
1492 1119 -1080 0
1073 -1074 1083 0
-1309 -1177 1367 0
-1240 -1514 -1437 0
-1152 1132 -1468 0
1146 -1419 -1216 0
-1515 -1156 1533 0
-1329 1226 -1292 0
1274 1492 -1512 0
1448 -1500 1306 0
1468 -1410 -1458 0
1450 1217 -1299 0
1052 -1210 -1397 0
-1296 -1246 -1448 0
-1289 -1120 1249 0
1089 -1071 1229 0
1497 -1419 -1102 0
1125 1169 -1147 0
-1432 1376 1320 0
1436 -1188 -1419 0
1459 -1439 1048 0
1528 1197 -1390 0
-1522 -1185 -1130 0
1049 1355 1541 0
-1121 1237 -1083 0
1470 1096 -1326 0
-1442 1526 1530 0
-1247 1541 1229 0
-1348 1325 1165 0
1237 1530 -1158 0
-1513 -1403 1197 0
-1126 -1076 1176 0
1506 1369 -1542 0
1499 1309 1450 0
1391 1149 -1342 0
-1456 -1401 1336 0
-1256 1081 1149 0
1387 1309 -1095 0
1360 -1110 -1523 0
-1428 1379 1390 0
-1158 -1098 -1134 0
1372 -1222 1476 0
1053 1108 -1542 0
1168 -1463 -1068 0
-1386 -1416 -1242 0
1315 1059 1289 0
-1298 -1287 1283 0
-1313 -1076 1417 0
1267 1106 1438 0
-1153 1249 1148 0
1392 1406 -1062 0
1197 1367 1218 0
1243 1168 1271 0
1442 -1357 1473 0
1418 -1412 -1539 0
-1523 1266 1491 0
-1322 1359 1382 0
1190 -1500 1212 0
-1135 -1317 -1465 0
-1205 1182 -1442 0
1136 1486 -1535 0
-1448 -1108 1362 0
-1181 -1054 -1222 0
-1455 1069 -1221 0
1052 1450 1121 0
1218 -1397 -1525 0
-1211 -1187 1225 0
1101 -1413 -1449 0
-1532 1124 1406 0
-1498 1311 1055 0
1464 -1237 1167 0
1412 -1268 -1 0
-1487 1156 -1145 0
1227 1078 -1244 0
1192 1544 -1119 0
-1471 -1194 -1330 0
1304 1162 -1257 0
-1537 1353 -1127 0
-1108 1230 1057 0
-1467 1418 -1452 0
-1133 1203 -1183 0
1259 -1360 1401 0
1442 -1461 1427 0
1502 1318 1115 0
-1422 -1352 -1066 0
-1169 1286 -1455 0
1545 1075 -1177 0
1474 1100 -1517 0
1093 -1386 1352 0
-1162 1082 -1395 0
-1286 -1339 -1139 0
-1513 1302 -1485 0
-1200 1289 -1198 0
-1057 -1350 1274 0
1406 1435 1470 0
1109 -1163 -1138 0
1112 -1279 -1152 0
1148 1384 -1211 0
-1540 1226 -1421 0
1509 1256 -1435 0
-1233 1380 1429 0
1175 1455 1281 0
1055 1266 -1155 0
-1291 1219 -1356 0
1518 -1406 -1267 0
1173 1185 1373 0
1409 1298 -1477 0
-1415 -1395 -1316 0
-1507 -1167 1168 0
1328 1111 -1129 0
-1395 -1451 -1220 0
-1245 -1528 -1242 0
-1226 -1200 -1284 0
-1445 -1344 1281 0
1290 -1102 -1291 0
1260 -1307 1326 0
-1231 1534 -1427 0
1316 1197 1367 0
-1168 1398 -1503 0
-1083 1368 1480 0
-1203 1114 -1153 0
-1234 1539 -1283 0
1134 -1543 -1405 0
1113 -1525 -1210 0
-1449 -1419 1462 0
-1082 1210 1383 0
-1438 1187 1185 0
-1384 -3 -1409 0
-1408 1525 -1245 0
-1519 -1304 -1306 0
-1204 1382 -1329 0
-1392 -1122 -1275 0
-1250 1294 1192 0
-1186 -1207 -1435 0
1125 -1411 1049 0
-1357 1310 -1185 0
1229 1356 1444 0
1454 1398 -1251 0
1363 -1309 -1414 0
1496 -1432 -1171 0
1154 1286 1542 0
1116 1416 -1169 0
1471 -1441 1521 0
1383 1165 1260 0
-1364 1525 -1305 0
1221 1291 1475 0
1382 -1461 -1384 0
-1128 1058 1265 0
-1053 -1230 1538 0
-1140 1106 1048 0
-1440 1078 -1281 0
1189 -1289 -1393 0
-1203 1330 1141 0
1296 1099 1172 0
1310 1267 1326 0
1301 1218 -1067 0
1469 1388 1218 0
-1400 -1379 1409 0
-1289 -1358 -1155 0
1135 1218 -1355 0
1405 1443 -1306 0
-1206 1061 -1200 0
-1105 1538 -1208 0
-1376 -1083 1338 0
1246 1514 -1235 0
1327 1257 1434 0
-1220 1512 1400 0
-1315 1143 1096 0
1420 -1327 1061 0
-1092 1138 1326 0
1409 -1194 1499 0
-1350 -1234 1121 0
-1443 1362 1175 0
-1120 1131 1052 0
-1447 -1195 1388 0
-1174 1498 1052 0
-1236 -1258 1254 0
1195 -1517 1468 0
-1050 1243 -1265 0
-1306 1438 -1370 0
-1358 -1452 1263 0
1236 1429 -1383 0
-1050 1196 -1428 0
-1459 1479 -1248 0
1205 -1101 -1279 0
-1295 1367 1463 0
-1137 -1227 -1187 0
1237 1334 -1189 0
-1477 1378 1255 0
-1372 1522 1457 0
1468 -1311 -1288 0
1496 -1072 1313 0
-1482 1543 -1533 0
-1254 -1251 -1284 0
1320 -1415 -1428 0
-1153 -1453 1209 0
1481 1447 1318 0
-1300 -1531 1473 0
1545 1171 1305 0
-1541 -1216 -1070 0
1174 1361 1110 0
1084 -1498 -1463 0
-1287 1159 1497 0
1269 1103 1243 0
-1331 1187 1161 0
-1512 1398 1184 0
1296 -1432 -1504 0
1532 -1189 1476 0
-1055 1433 -1239 0
1049 -1052 1231 0
-1339 -1179 1158 0
-1132 1164 1541 0
1260 1170 -1085 0
-1327 1320 -1340 0
1416 -1234 -1068 0
-1361 1498 -1221 0
-1434 1368 -1060 0
1178 1330 1527 0
-1125 1108 1067 0
-1287 -1156 1292 0
1352 1231 -1256 0
-1275 1251 -1314 0
1145 1471 -1521 0
-1373 1425 -1364 0
-1452 1392 -1067 0
1456 1166 1121 0
-1464 -1081 -1144 0
1422 -1275 1214 0
1153 -1535 -1246 0
1382 1141 -1049 0
-1441 -1407 -1484 0
1261 -1297 -1177 0
-1102 -1064 1389 0
-1239 -1227 1540 0
1096 1488 1324 0
1269 -1093 -1137 0
-1304 -1483 1074 0
-1049 -1205 1233 0
-1249 -1475 -1136 0
1426 1270 1389 0
1138 -1399 1087 0
1505 1523 -1099 0
1055 -1121 1213 0
-1503 -1375 -1378 0
-1494 1305 1480 0
-1183 1259 -1315 0
-1192 -1254 1511 0
-1253 -1454 1510 0
1324 1460 1464 0
1367 -1160 -1102 0
-1218 1292 -1141 0
-1327 -1470 1449 0
1533 -1229 1109 0
1087 1234 1333 0
1302 1223 1465 0
1240 -1503 1320 0
-1530 -1429 1374 0
-1237 1367 -1532 0
-1173 -1359 1483 0
-1413 1427 -1163 0
-1212 1286 -1257 0
-1390 1411 -1094 0
1522 1342 1249 0
1257 -1428 -1539 0
-1486 -1061 1545 0
-1210 1365 -1183 0
-1439 1502 -1282 0
1222 1354 -1536 0
-1104 -1232 1525 0
-1215 1172 -1188 0
1112 1451 -1512 0
1120 -1424 -1079 0
1402 1394 -1220 0
1489 -1184 -1529 0
1447 1257 1 0
-1088 -1344 1339 0
-1483 1475 1203 0
1235 -1345 -1224 0
-1207 -1486 1145 0
-1416 1513 -1250 0
1304 -1450 1280 0
-1228 -1248 -1416 0
-1067 -1260 -1159 0
1058 1488 1449 0
1151 -1355 -1483 0
1143 -1187 -1102 0
-1170 1126 1068 0
1354 -1190 -1159 0
1429 -1458 -1531 0
-1154 1527 -1483 0
1242 1285 1156 0
-1471 -1445 1133 0
-1393 1099 -1253 0
-1401 1256 1213 0
1163 -1150 1422 0
-1421 1096 1155 0
1391 -1125 1328 0
1541 -1272 1275 0
-1356 -1292 1164 0
1418 1102 -1469 0
1164 -1237 -1372 0
-1156 -1271 -1458 0
1467 1051 1415 0
1456 1416 -1052 0
-1541 -1469 1399 0
1240 1539 1258 0
1400 1229 1364 0
1456 1247 1231 0
-1437 1512 1514 0
-1092 1239 -1489 0
-1467 1204 1358 0
-1123 1283 1466 0
1121 -1311 1095 0
-1257 -1186 -1468 0
1245 1334 1508 0
1360 1359 -1482 0
-1409 -1070 -1102 0
1529 1245 1075 0
1387 -1421 1464 0
1430 -1152 1199 0
-1171 1461 -1053 0
-1278 -1155 -1227 0
-1097 -1274 1402 0
1256 1351 -1441 0
-1539 -1351 -1453 0
-1238 -1527 -1321 0
-1254 -1172 1528 0
1093 1216 -1352 0
-1321 1211 1474 0
-1517 -1537 1053 0
1137 1228 1539 0
-1286 -1339 -1264 0
1346 1480 1052 0
-1128 -1510 -1172 0
-1258 -1504 -1161 0
1276 1178 1333 0
-1361 1137 -1064 0
-1415 -1512 -1238 0
1087 1053 -1244 0
-1189 -1127 -1392 0
1262 -1429 -1066 0
-1126 1171 1509 0
-1401 1278 1492 0
1327 1399 1128 0
-1413 1431 1260 0
-1091 -1319 1519 0
-1527 1107 -1206 0
-1184 -1349 1133 0
1217 -1514 1439 0
1119 1105 -1128 0
1139 1480 -1143 0
1309 -1066 -1140 0
-1110 1488 -1219 0
-1507 -1401 -1155 0
-1449 -1180 -1111 0
1208 -1413 1286 0
1339 -1095 1346 0
-1302 1082 -1444 0
-1116 1048 -1483 0
-1082 1509 -1530 0
-1453 1509 -1171 0
1326 1414 -1358 0
1434 1410 -1367 0
1266 1261 -1407 0
1405 1181 -1078 0
-1500 1542 -1 0
1241 1174 1490 0
1337 1347 1462 0
1519 -1058 -1175 0
1301 -1131 -1408 0
-1370 -1281 1493 0
1447 -1408 1469 0
-1295 1059 1534 0
-1125 1496 1190 0
-1333 1290 -1148 0
-1147 -1254 1165 0
-1389 -1480 1048 0
-1499 1427 -1429 0
-1120 -1228 1209 0
-1133 -1075 -1443 0
1323 -1326 -1387 0
-1081 1217 1207 0
-1304 1141 1425 0
-1253 1361 1358 0
-1421 1370 1481 0
-1303 -1542 -1293 0
1223 -1325 -1497 0
-1382 -1472 1234 0
-1391 1173 -1290 0
1461 -1122 1203 0
-1364 1355 1270 0
-1243 1483 1146 0
1288 -1511 -1443 0
1405 -1424 1194 0
1482 1201 -1120 0
-1219 -1074 -1482 0
-1264 -1541 1532 0
-1187 1284 1477 0
1254 -1425 1388 0
1253 1316 -1134 0
1306 -1287 1224 0
-1143 -1106 1517 0
-1448 1270 -1103 0
-1195 1369 1150 0
-1471 -1433 -1458 0
1210 -1327 1118 0
-1216 -1178 -1521 0
1506 1515 -1328 0
-1140 1202 -1266 0
-1386 -1471 1186 0
1130 -1352 -1341 0
1265 -1217 1507 0
-1151 1523 -1396 0
-1182 -1487 -1060 0
-1507 -1230 -1337 0
-1161 1271 1286 0
-1286 -1499 -1310 0
1128 -1151 1453 0
-1188 1378 1241 0
1420 1400 1474 0
-1145 -1469 1340 0
-1478 1324 -1526 0
1524 -1460 -1483 0
-1537 -1239 -1363 0
1476 1474 -1462 0
-1473 1239 1545 0
-1294 -1214 1509 0
-1107 1240 1397 0
1116 -1203 -1200 0
-1437 1538 -1530 0
-1222 1177 1105 0
1543 1229 -1106 0
-1186 -1492 -1314 0
1225 -1494 1084 0
-1299 1198 -1139 0
-1343 -1123 -1208 0
-1352 1221 -1110 0
-1120 -1292 -1308 0
1121 1166 -1485 0
-1112 -1105 -1398 0
-1089 1344 1228 0
-1133 -1359 1434 0
-1366 1152 -1286 0
1119 -1069 -1495 0
-1111 -1453 1065 0
1069 -1508 1364 0
-1316 1154 1537 0
1198 1330 -1527 0
-1267 1337 -1203 0
1528 1120 -1451 0
-1067 1265 -1332 0
-1416 1446 -1313 0
1135 -1109 1061 0
-1250 1075 -1422 0
-1406 1432 -1505 0
1487 -1159 -1068 0
1432 1221 -1450 0
1282 1376 1423 0
-1382 -1503 -1260 0
1144 1429 1050 0
-1258 -1487 1256 0
-1136 1453 -1089 0
-1207 1399 -1160 0
1269 -1339 1221 0
-1453 1354 1275 0
-1406 1327 -1216 0
-1484 -1356 -1496 0
-1163 -1363 1465 0
-1495 1329 -1067 0
-1369 -1526 1085 0
1328 -1151 -1435 0
-1394 1511 -1464 0
1262 1461 -1290 0
1058 1494 1134 0
1162 1294 1187 0
1161 1482 -1389 0
-1510 1487 1382 0
-1356 -1353 1448 0
1257 1205 -1246 0
1358 -1058 1272 0
-1089 -1180 1361 0
-1303 1501 1247 0
1125 -1398 -1350 0
1132 -1219 -1157 0
-1310 1534 1066 0
-1415 1235 1072 0
-1343 1083 1221 0
1541 1459 -1115 0
-1297 -1379 1251 0
-1415 -1281 1268 0
-1327 -1345 1456 0
-1073 -1531 1421 0
-1466 1230 -1168 0
-1420 1484 -1100 0
-1359 -1068 -1307 0
1450 1442 1536 0
-1050 1129 1209 0
1486 1104 -1082 0
-1330 -1172 1356 0
1411 -1417 1382 0
1215 -1210 1246 0
-1383 -1233 -1237 0
-1399 -1257 -1285 0
1158 1456 1368 0
1283 -1512 1150 0
1275 -1512 -1425 0
-1232 1361 1295 0
-1456 1419 -1128 0
1391 1125 -1369 0
-1094 1488 1289 0
-1266 -1495 1052 0
-1207 -1463 1198 0
1180 1102 -1092 0
-1175 -1301 1489 0
1274 -1370 1137 0
1409 -1446 -1159 0
1252 -1059 -1456 0
1077 1308 1363 0
-1487 1357 1528 0
-1080 -1390 -1128 0
1335 1077 -1061 0
1292 -1505 1426 0
1315 -1247 -1316 0
-1211 -1117 1458 0
-1303 -1240 1270 0
-1352 -1507 1172 0
-1234 -1507 1385 0
-1123 -1137 1108 0
-1346 1240 1161 0
-1139 1349 -1516 0
1458 1198 -1501 0
-1464 1059 1530 0
-1516 1057 1295 0
-1122 1057 1518 0
1366 -1067 1336 0
1148 1217 1434 0
-1458 1204 -1441 0
1242 1149 -1348 0
1203 -1223 -1450 0
-1419 -1320 -1492 0
-1142 1464 -1330 0
1294 -1222 1338 0
-1094 1143 1386 0
1180 -1233 1081 0
1209 -1159 -1312 0
-1120 -1123 1 0
-1390 1060 -1486 0
-1271 1103 1485 0
-1469 1291 -1202 0
1496 -1196 -1407 0
-1344 1232 -1465 0
-1461 1140 -1245 0
-1243 1353 -1311 0
-1504 -1545 1519 0
1409 1305 1156 0
-1465 -1319 1455 0
-1069 1385 -1150 0
-1476 1142 1244 0
-1321 -1089 1320 0
-1106 1420 -1389 0
-1439 -1268 -1490 0
1210 1481 -1457 0
1058 1485 1100 0
1531 -1511 -1080 0
1390 -1171 1317 0
-1256 1086 -1342 0
1421 1257 -1189 0
1143 -1094 1489 0
-1540 -1142 -1144 0
1323 1450 -1186 0
1520 -1200 -1374 0
-1376 1434 1483 0
-1523 -1170 1067 0
-1303 1519 -1274 0
1416 -1177 1238 0
-1196 -1052 -1187 0
1250 1505 -1089 0
-1513 1308 1241 0
-1167 -1190 1 0
-1535 1120 1383 0
1214 -1485 1274 0
1510 1519 -1214 0
1124 1481 1114 0
-1197 -1443 1497 0
1403 -1485 1128 0
-1462 1186 -1356 0
1399 1313 1450 0
1373 -1250 -1353 0
-1100 1379 -1378 0
1059 1240 1119 0
-1364 1203 -1231 0
-1457 -1405 -1301 0
1234 -1459 -1132 0
1328 -1113 1498 0
1294 -1336 1381 0
-1412 -1102 1483 0
1437 -1346 -1349 0
1074 -1202 -1199 0
1279 -1183 1131 0
1225 -1249 1346 0
-1340 1288 -1493 0
-1221 -1435 -1182 0
-1116 1314 -1159 0
-1140 -1217 1504 0
1235 -1286 1163 0
1278 1298 -1134 0
1265 1057 -1226 0
1210 -1309 -1234 0
1293 1479 1343 0
1517 -1199 -1145 0
1481 1477 1356 0
-1360 -1079 -1203 0
1460 -1451 -1512 0
1126 1328 1137 0
