p cnf 1584 17254
-1 -608 0
-1 -528 0
-1 -164 0
-1 -589 0
-1 -581 0
-1 -61 0
-1 -774 0
-1 -281 0
-2 -166 0
-2 -66 0
-2 -300 0
-2 -714 0
-3 -468 0
-3 -540 0
-3 -454 0
-3 -113 0
-3 -449 0
-4 -751 0
-4 -108 0
-4 -650 0
-4 -45 0
-4 -665 0
-4 -763 0
-4 -397 0
-5 -618 0
-5 -483 0
-5 -661 0
-5 -392 0
-5 -462 0
-5 -426 0
-6 -397 0
-6 -691 0
-6 -561 0
-6 -710 0
-6 -380 0
-6 -173 0
-6 -782 0
-6 -351 0
-7 -153 0
-7 -188 0
-7 -381 0
-7 -364 0
-7 -446 0
-7 -627 0
-8 -273 0
-8 -636 0
-8 -90 0
-8 -500 0
-8 -14 0
-8 -556 0
-9 -508 0
-9 -133 0
-9 -629 0
-9 -260 0
-9 -590 0
-9 -402 0
-9 -674 0
-10 -499 0
-10 -275 0
-10 -27 0
-10 -494 0
-10 -488 0
-10 -455 0
-11 -247 0
-11 -699 0
-11 -733 0
-11 -770 0
-11 -256 0
-12 -162 0
-12 -99 0
-12 -174 0
-12 -302 0
-12 -163 0
-12 -475 0
-13 -232 0
-13 -702 0
-13 -130 0
-13 -300 0
-13 -338 0
-13 -60 0
-14 -652 0
-14 -289 0
-14 -493 0
-14 -440 0
-14 -585 0
-14 -347 0
-14 -313 0
-14 -517 0
-14 -298 0
-15 -394 0
-15 -655 0
-15 -775 0
-15 -606 0
-15 -657 0
-15 -275 0
-16 -133 0
-16 -354 0
-16 -100 0
-16 -705 0
-17 -153 0
-17 -364 0
-18 -315 0
-18 -787 0
-18 -581 0
-18 -101 0
-18 -447 0
-18 -100 0
-19 -605 0
-19 -166 0
-19 -98 0
-19 -271 0
-19 -414 0
-19 -520 0
-19 -204 0
-20 -89 0
-20 -484 0
-20 -111 0
-20 -386 0
-20 -748 0
-21 -159 0
-21 -309 0
-21 -426 0
-21 -535 0
-21 -459 0
-21 -71 0
-22 -580 0
-22 -116 0
-22 -618 0
-22 -753 0
-22 -5 0
-22 -550 0
-22 -412 0
-22 -407 0
-22 -614 0
-23 -218 0
-23 -196 0
-23 -447 0
-23 -603 0
-23 -381 0
-23 -316 0
-23 -622 0
-23 -311 0
-24 -75 0
-24 -331 0
-24 -22 0
-24 -463 0
-24 -295 0
-24 -441 0
-24 -736 0
-24 -743 0
-25 -445 0
-25 -331 0
-25 -781 0
-25 -17 0
-25 -68 0
-25 -649 0
-25 -27 0
-26 -76 0
-26 -753 0
-27 -643 0
-27 -218 0
-27 -691 0
-27 -132 0
-27 -236 0
-27 -364 0
-27 -402 0
-28 -613 0
-28 -445 0
-28 -63 0
-28 -261 0
-28 -718 0
-28 -781 0
-28 -409 0
-29 -143 0
-29 -504 0
-29 -636 0
-29 -44 0
-29 -381 0
-29 -9 0
-29 -526 0
-29 -665 0
-30 -55 0
-30 -56 0
-30 -453 0
-30 -490 0
-31 -178 0
-31 -508 0
-31 -234 0
-31 -110 0
-31 -326 0
-31 -338 0
-31 -92 0
-31 -318 0
-32 -501 0
-32 -429 0
-32 -658 0
-32 -635 0
-32 -496 0
-32 -328 0
-33 -301 0
-33 -84 0
-33 -304 0
-33 -111 0
-33 -240 0
-33 -253 0
-33 -410 0
-34 -617 0
-34 -357 0
-34 -533 0
-34 -204 0
-34 -525 0
-34 -594 0
-34 -114 0
-34 -463 0
-35 -227 0
-35 -472 0
-35 -633 0
-35 -66 0
-35 -379 0
-35 -57 0
-35 -26 0
-35 -671 0
-36 -215 0
-36 -648 0
-36 -164 0
-36 -676 0
-36 -292 0
-36 -489 0
-36 -260 0
-37 -689 0
-37 -352 0
-37 -420 0
-37 -84 0
-37 -633 0
-37 -766 0
-37 -548 0
-37 -209 0
-37 -312 0
-38 -749 0
-38 -165 0
-38 -286 0
-38 -236 0
-38 -97 0
-38 -42 0
-38 -691 0
-38 -174 0
-39 -12 0
-39 -712 0
-39 -554 0
-39 -561 0
-39 -43 0
-39 -329 0
-40 -167 0
-40 -122 0
-40 -441 0
-41 -62 0
-41 -264 0
-41 -594 0
-41 -465 0
-41 -470 0
-41 -379 0
-41 -275 0
-42 -622 0
-42 -69 0
-43 -288 0
-43 -32 0
-43 -383 0
-44 -136 0
-44 -671 0
-44 -619 0
-44 -441 0
-44 -65 0
-45 -395 0
-45 -679 0
-45 -171 0
-45 -18 0
-45 -434 0
-46 -628 0
-46 -577 0
-46 -425 0
-46 -663 0
-46 -552 0
-46 -157 0
-46 -651 0
-46 -427 0
-46 -484 0
-46 -617 0
-47 -382 0
-47 -16 0
-47 -26 0
-47 -30 0
-47 -723 0
-48 -286 0
-48 -558 0
-48 -383 0
-48 -236 0
-48 -9 0
-48 -749 0
-49 -702 0
-49 -524 0
-49 -723 0
-49 -384 0
-49 -624 0
-49 -277 0
-49 -462 0
-50 -664 0
-50 -587 0
-50 -675 0
-50 -698 0
-50 -138 0
-50 -488 0
-50 -19 0
-51 -155 0
-51 -122 0
-51 -154 0
-51 -603 0
-51 -381 0
-51 -265 0
-51 -703 0
-51 -769 0
-51 -622 0
-52 -155 0
-52 -574 0
-52 -538 0
-52 -209 0
-52 -48 0
-52 -261 0
-52 -767 0
-52 -194 0
-52 -414 0
-53 -602 0
-53 -35 0
-53 -48 0
-53 -634 0
-53 -457 0
-54 -395 0
-54 -393 0
-54 -612 0
-54 -742 0
-54 -644 0
-54 -272 0
-54 -427 0
-55 -162 0
-55 -789 0
-55 -362 0
-55 -494 0
-55 -617 0
-55 -315 0
-55 -527 0
-56 -134 0
-56 -136 0
-56 -790 0
-56 -776 0
-56 -487 0
-56 -750 0
-56 -257 0
-57 -66 0
-57 -385 0
-57 -372 0
-57 -90 0
-57 -439 0
-57 -599 0
-57 -457 0
-58 -179 0
-58 -481 0
-58 -488 0
-58 -562 0
-58 -758 0
-58 -777 0
-58 -446 0
-59 -154 0
-59 -123 0
-59 -260 0
-59 -288 0
-60 -368 0
-60 -672 0
-60 -9 0
-60 -245 0
-61 -214 0
-61 -554 0
-61 -32 0
-61 -387 0
-61 -274 0
-61 -267 0
-62 -459 0
-62 -423 0
-62 -683 0
-62 -172 0
-63 -395 0
-63 -597 0
-63 -287 0
-63 -770 0
-63 -527 0
-64 -497 0
-64 -28 0
-64 -480 0
-64 -701 0
-64 -429 0
-65 -694 0
-65 -169 0
-65 -550 0
-65 -191 0
-66 -690 0
-66 -288 0
-66 -2 0
-66 -270 0
-66 -302 0
-66 -649 0
-66 -136 0
-67 -624 0
-67 -8 0
-67 -488 0
-67 -73 0
-67 -522 0
-67 -72 0
-68 -8 0
-68 -272 0
-68 -646 0
-68 -40 0
-68 -632 0
-69 -706 0
-69 -660 0
-69 -186 0
-69 -238 0
-69 -382 0
-69 -226 0
-69 -327 0
-69 -490 0
-70 -632 0
-70 -326 0
-70 -236 0
-70 -742 0
-70 -473 0
-70 -84 0
-71 -582 0
-71 -640 0
-71 -670 0
-71 -454 0
-71 -221 0
-71 -438 0
-71 -603 0
-71 -480 0
-72 -449 0
-72 -608 0
-72 -536 0
-72 -579 0
-73 -664 0
-73 -386 0
-73 -361 0
-73 -496 0
-73 -245 0
-73 -517 0
-73 -780 0
-73 -715 0
-73 -542 0
-74 -708 0
-74 -214 0
-74 -60 0
-74 -523 0
-74 -202 0
-74 -455 0
-75 -721 0
-75 -419 0
-75 -294 0
-75 -282 0
-75 -709 0
-75 -761 0
-75 -184 0
-76 -425 0
-76 -622 0
-76 -361 0
-76 -492 0
-76 -101 0
-76 -782 0
-76 -548 0
-77 -195 0
-77 -157 0
-77 -288 0
-77 -226 0
-77 -667 0
-77 -94 0
-77 -290 0
-77 -347 0
-78 -720 0
-78 -34 0
-78 -437 0
-78 -582 0
-78 -560 0
-78 -249 0
-78 -67 0
-78 -514 0
-78 -440 0
-78 -303 0
-78 -261 0
-78 -782 0
-79 -453 0
-79 -429 0
-79 -579 0
-79 -140 0
-79 -323 0
-79 -232 0
-80 -726 0
-80 -61 0
-80 -156 0
-80 -440 0
-80 -500 0
-81 -690 0
-81 -751 0
-81 -635 0
-81 -495 0
-81 -52 0
-81 -17 0
-81 -128 0
-81 -765 0
-81 -161 0
-82 -686 0
-82 -585 0
-82 -342 0
-82 -782 0
-82 -614 0
-82 -228 0
-82 -414 0
-82 -771 0
-83 -656 0
-83 -396 0
-83 -188 0
-83 -85 0
-83 -792 0
-83 -345 0
-83 -44 0
-84 -320 0
-84 -647 0
-84 -89 0
-85 -480 0
-85 -653 0
-85 -407 0
-85 -439 0
-85 -717 0
-85 -273 0
-85 -639 0
-85 -96 0
-86 -403 0
-86 -205 0
-86 -224 0
-86 -588 0
-86 -547 0
-87 -398 0
-87 -392 0
-87 -456 0
-87 -203 0
-87 -173 0
-87 -493 0
-87 -69 0
-87 -547 0
-88 -446 0
-88 -529 0
-88 -452 0
-88 -624 0
-88 -26 0
-88 -787 0
-89 -730 0
-89 -123 0
-89 -113 0
-89 -593 0
-90 -180 0
-90 -513 0
-90 -338 0
-90 -487 0
-90 -537 0
-90 -745 0
-91 -413 0
-91 -402 0
-91 -514 0
-91 -521 0
-91 -164 0
-92 -637 0
-92 -512 0
-92 -590 0
-92 -543 0
-92 -539 0
-92 -461 0
-92 -646 0
-93 -514 0
-93 -21 0
-93 -192 0
-93 -149 0
-93 -139 0
-93 -415 0
-93 -665 0
-94 -300 0
-94 -325 0
-94 -184 0
-94 -468 0
-94 -353 0
-94 -759 0
-94 -39 0
-95 -396 0
-95 -72 0
-95 -557 0
-95 -644 0
-95 -383 0
-95 -779 0
-95 -219 0
-96 -691 0
-96 -482 0
-96 -723 0
-96 -731 0
-96 -243 0
-96 -163 0
-97 -557 0
-97 -507 0
-98 -192 0
-98 -528 0
-98 -382 0
-98 -178 0
-98 -475 0
-98 -718 0
-99 -659 0
-99 -599 0
-99 -181 0
-99 -374 0
-99 -349 0
-99 -369 0
-100 -118 0
-100 -630 0
-100 -540 0
-100 -516 0
-100 -502 0
-100 -689 0
-100 -154 0
-101 -478 0
-101 -699 0
-101 -416 0
-101 -186 0
-101 -261 0
-102 -222 0
-102 -106 0
-102 -42 0
-102 -12 0
-103 -442 0
-103 -545 0
-103 -205 0
-103 -692 0
-103 -65 0
-103 -493 0
-104 -618 0
-104 -382 0
-104 -504 0
-104 -73 0
-104 -60 0
-104 -716 0
-104 -415 0
-104 -402 0
-104 -546 0
-105 -539 0
-105 -521 0
-105 -702 0
-105 -204 0
-105 -223 0
-105 -759 0
-105 -133 0
-105 -429 0
-105 -560 0
-105 -24 0
-106 -185 0
-106 -751 0
-106 -266 0
-106 -549 0
-106 -16 0
-107 -367 0
-107 -476 0
-107 -306 0
-107 -330 0
-107 -108 0
-107 -456 0
-107 -563 0
-107 -182 0
-107 -646 0
-107 -496 0
-108 -287 0
-108 -178 0
-108 -89 0
-108 -513 0
-108 -199 0
-109 -339 0
-109 -498 0
-109 -283 0
-109 -621 0
-109 -413 0
-109 -237 0
-109 -123 0
-109 -228 0
-110 -244 0
-110 -398 0
-110 -420 0
-110 -646 0
-110 -352 0
-110 -316 0
-111 -47 0
-111 -548 0
-111 -483 0
-111 -357 0
-111 -12 0
-112 -127 0
-112 -764 0
-112 -772 0
-112 -711 0
-112 -726 0
-112 -557 0
-112 -282 0
-112 -210 0
-113 -752 0
-113 -701 0
-113 -583 0
-114 -236 0
-114 -198 0
-114 -164 0
-114 -308 0
-114 -749 0
-114 -158 0
-114 -509 0
-115 -457 0
-115 -451 0
-115 -747 0
-115 -356 0
-115 -509 0
-115 -58 0
-115 -293 0
-116 -672 0
-116 -553 0
-116 -141 0
-116 -16 0
-116 -382 0
-116 -336 0
-116 -106 0
-117 -165 0
-117 -665 0
-117 -622 0
-117 -114 0
-117 -494 0
-117 -421 0
-118 -30 0
-118 -514 0
-118 -61 0
-118 -710 0
-118 -236 0
-118 -210 0
-118 -608 0
-119 -29 0
-119 -533 0
-119 -458 0
-119 -771 0
-119 -573 0
-119 -27 0
-119 -152 0
-119 -623 0
-120 -756 0
-120 -464 0
-120 -33 0
-121 -128 0
-121 -154 0
-121 -89 0
-121 -480 0
-121 -536 0
-121 -773 0
-121 -32 0
-122 -545 0
-122 -455 0
-122 -421 0
-122 -558 0
-122 -767 0
-122 -436 0
-123 -274 0
-123 -45 0
-123 -93 0
-123 -593 0
-123 -583 0
-123 -783 0
-124 -94 0
-124 -736 0
-124 -699 0
-124 -215 0
-124 -413 0
-124 -24 0
-125 -427 0
-125 -759 0
-125 -576 0
-125 -36 0
-125 -192 0
-125 -240 0
-125 -748 0
-125 -414 0
-126 -517 0
-126 -108 0
-126 -777 0
-126 -355 0
-126 -592 0
-126 -174 0
-126 -253 0
-126 -38 0
-127 -624 0
-127 -70 0
-127 -89 0
-127 -243 0
-127 -307 0
-127 -570 0
-128 -24 0
-128 -243 0
-128 -494 0
-128 -415 0
-128 -164 0
-128 -102 0
-129 -550 0
-129 -632 0
-129 -518 0
-129 -99 0
-129 -767 0
-129 -773 0
-129 -62 0
-129 -552 0
-130 -507 0
-130 -151 0
-130 -702 0
-130 -197 0
-130 -366 0
-130 -609 0
-131 -292 0
-131 -19 0
-131 -383 0
-131 -227 0
-131 -358 0
-131 -395 0
-132 -634 0
-132 -399 0
-132 -390 0
-132 -323 0
-132 -433 0
-132 -305 0
-132 -468 0
-132 -347 0
-132 -349 0
-133 -700 0
-133 -137 0
-133 -456 0
-133 -34 0
-133 -299 0
-134 -313 0
-134 -597 0
-134 -133 0
-134 -396 0
-135 -760 0
-135 -721 0
-135 -334 0
-135 -204 0
-135 -592 0
-135 -47 0
-136 -230 0
-136 -493 0
-136 -614 0
-136 -405 0
-136 -35 0
-136 -466 0
-137 -5 0
-137 -565 0
-137 -651 0
-137 -49 0
-137 -201 0
-137 -771 0
-137 -297 0
-137 -580 0
-138 -286 0
-138 -713 0
-138 -301 0
-138 -315 0
-138 -524 0
-138 -445 0
-139 -531 0
-139 -311 0
-139 -230 0
-139 -733 0
-140 -243 0
-140 -411 0
-141 -604 0
-141 -653 0
-141 -252 0
-141 -506 0
-141 -59 0
-142 -512 0
-142 -683 0
-142 -586 0
-142 -673 0
-142 -240 0
-142 -417 0
-142 -648 0
-143 -231 0
-143 -445 0
-143 -327 0
-143 -264 0
-143 -276 0
-143 -765 0
-144 -683 0
-144 -368 0
-144 -535 0
-144 -353 0
-144 -740 0
-144 -26 0
-145 -428 0
-145 -540 0
-145 -378 0
-145 -379 0
-145 -338 0
-146 -575 0
-146 -102 0
-146 -766 0
-146 -663 0
-146 -148 0
-146 -493 0
-146 -453 0
-146 -241 0
-147 -257 0
-147 -288 0
-147 -500 0
-147 -790 0
-147 -403 0
-148 -183 0
-148 -93 0
-148 -497 0
-148 -7 0
-148 -440 0
-148 -607 0
-148 -334 0
-148 -422 0
-148 -621 0
-149 -594 0
-149 -227 0
-149 -705 0
-149 -477 0
-149 -776 0
-150 -652 0
-150 -493 0
-150 -301 0
-150 -703 0
-150 -456 0
-150 -485 0
-150 -429 0
-150 -422 0
-151 -253 0
-151 -288 0
-151 -377 0
-151 -145 0
-151 -510 0
-152 -237 0
-152 -410 0
-152 -559 0
-152 -617 0
-152 -327 0
-152 -13 0
-153 -84 0
-153 -28 0
-153 -411 0
-153 -258 0
-154 -681 0
-154 -85 0
-154 -344 0
-155 -774 0
-155 -541 0
-155 -453 0
-155 -219 0
-155 -71 0
-155 -503 0
-156 -723 0
-156 -536 0
-156 -416 0
-156 -256 0
-156 -115 0
-156 -42 0
-156 -153 0
-156 -743 0
-156 -381 0
-157 -748 0
-157 -292 0
-157 -29 0
-157 -419 0
-157 -527 0
-158 -792 0
-158 -739 0
-158 -86 0
-158 -110 0
-158 -564 0
-159 -28 0
-159 -494 0
-159 -539 0
-159 -237 0
-159 -11 0
-159 -44 0
-159 -327 0
-159 -40 0
-159 -135 0
-159 -524 0
-160 -770 0
-160 -86 0
-160 -236 0
-160 -630 0
-161 -10 0
-161 -600 0
-161 -646 0
-161 -608 0
-161 -172 0
-161 -586 0
-161 -327 0
-161 -789 0
-162 -294 0
-162 -492 0
-162 -662 0
-162 -230 0
-162 -669 0
-162 -790 0
-163 -321 0
-163 -68 0
-163 -591 0
-163 -356 0
-163 -120 0
-163 -552 0
-164 -454 0
-164 -395 0
-164 -720 0
-165 -547 0
-165 -590 0
-165 -395 0
-165 -120 0
-165 -457 0
-165 -422 0
-166 -707 0
-166 -11 0
-166 -517 0
-167 -9 0
-167 -187 0
-167 -108 0
-167 -620 0
-167 -507 0
-168 -178 0
-168 -580 0
-168 -686 0
-168 -278 0
-168 -437 0
-168 -136 0
-168 -785 0
-168 -247 0
-169 -290 0
-169 -259 0
-169 -175 0
-169 -361 0
-169 -389 0
-170 -307 0
-170 -424 0
-170 -257 0
-170 -583 0
-170 -774 0
-170 -13 0
-171 -411 0
-171 -372 0
-171 -687 0
-171 -590 0
-172 -145 0
-172 -450 0
-172 -739 0
-172 -288 0
-173 -659 0
-173 -661 0
-173 -253 0
-173 -699 0
-173 -381 0
-173 -13 0
-174 -338 0
-174 -412 0
-174 -760 0
-175 -468 0
-175 -755 0
-175 -106 0
-175 -696 0
-175 -598 0
-176 -691 0
-176 -264 0
-176 -513 0
-176 -534 0
-176 -498 0
-177 -247 0
-177 -546 0
-177 -226 0
-177 -221 0
-177 -137 0
-177 -65 0
-177 -328 0
-177 -45 0
-177 -558 0
-178 -373 0
-178 -174 0
-178 -320 0
-178 -452 0
-178 -95 0
-178 -222 0
-179 -501 0
-179 -459 0
-179 -63 0
-179 -142 0
-179 -164 0
-179 -390 0
-179 -84 0
-180 -450 0
-180 -267 0
-180 -602 0
-180 -697 0
-180 -200 0
-180 -693 0
-180 -788 0
-181 -569 0
-181 -77 0
-181 -346 0
-181 -368 0
-181 -257 0
-181 -7 0
-181 -465 0
-182 -360 0
-182 -80 0
-182 -300 0
-182 -204 0
-182 -788 0
-182 -47 0
-182 -203 0
-182 -216 0
-182 -619 0
-182 -338 0
-182 -573 0
-183 -239 0
-183 -178 0
-183 -488 0
-183 -443 0
-183 -691 0
-183 -343 0
-184 -720 0
-184 -561 0
-184 -161 0
-184 -85 0
-184 -176 0
-184 -441 0
-185 -406 0
-185 -597 0
-185 -49 0
-185 -489 0
-186 -458 0
-186 -97 0
-186 -253 0
-186 -293 0
-186 -560 0
-186 -131 0
-187 -487 0
-187 -657 0
-187 -315 0
-187 -93 0
-187 -228 0
-188 -400 0
-188 -652 0
-188 -628 0
-188 -625 0
-188 -561 0
-188 -498 0
-188 -534 0
-189 -28 0
-189 -37 0
-189 -155 0
-189 -463 0
-189 -392 0
-190 -546 0
-190 -37 0
-190 -531 0
-190 -157 0
-190 -176 0
-190 -348 0
-190 -150 0
-190 -302 0
-190 -166 0
-191 -198 0
-191 -72 0
-191 -689 0
-191 -97 0
-191 -522 0
-192 -174 0
-192 -55 0
-192 -423 0
-192 -262 0
-192 -145 0
-192 -256 0
-193 -746 0
-193 -363 0
-193 -502 0
-193 -436 0
-193 -515 0
-193 -60 0
-194 -135 0
-194 -306 0
-194 -417 0
-194 -80 0
-195 -520 0
-195 -550 0
-195 -416 0
-195 -6 0
-195 -597 0
-195 -518 0
-195 -555 0
-195 -299 0
-196 -3 0
-196 -487 0
-196 -621 0
-196 -407 0
-196 -740 0
-196 -504 0
-196 -582 0
-196 -169 0
-196 -788 0
-197 -631 0
-197 -90 0
-197 -538 0
-197 -481 0
-197 -330 0
-197 -592 0
-197 -54 0
-197 -498 0
-197 -499 0
-198 -542 0
-198 -166 0
-198 -762 0
-198 -615 0
-198 -442 0
-198 -154 0
-198 -618 0
-199 -480 0
-199 -131 0
-199 -663 0
-199 -467 0
-199 -85 0
-199 -301 0
-200 -87 0
-200 -564 0
-200 -445 0
-200 -650 0
-200 -140 0
-200 -13 0
-201 -478 0
-201 -452 0
-201 -554 0
-201 -161 0
-201 -564 0
-201 -590 0
-201 -473 0
-201 -379 0
-201 -737 0
-201 -522 0
-202 -522 0
-202 -257 0
-202 -447 0
-202 -558 0
-202 -529 0
-203 -654 0
-203 -426 0
-203 -213 0
-203 -704 0
-203 -30 0
-203 -145 0
-203 -158 0
-204 -396 0
-204 -554 0
-204 -429 0
-204 -86 0
-205 -464 0
-205 -210 0
-205 -629 0
-206 -741 0
-206 -281 0
-206 -624 0
-206 -392 0
-206 -667 0
-206 -333 0
-206 -555 0
-206 -166 0
-206 -120 0
-206 -31 0
-207 -667 0
-207 -70 0
-207 -397 0
-207 -345 0
-207 -20 0
-208 -392 0
-208 -335 0
-208 -755 0
-208 -770 0
-208 -560 0
-208 -313 0
-208 -532 0
-209 -674 0
-209 -156 0
-209 -730 0
-209 -622 0
-209 -724 0
-210 -315 0
-210 -717 0
-210 -165 0
-210 -329 0
-210 -117 0
-211 -311 0
-211 -44 0
-211 -250 0
-211 -611 0
-211 -232 0
-211 -45 0
-212 -547 0
-212 -136 0
-212 -184 0
-212 -684 0
-212 -454 0
-212 -34 0
-212 -408 0
-213 -769 0
-213 -779 0
-213 -752 0
-213 -175 0
-213 -275 0
-213 -303 0
-213 -631 0
-213 -714 0
-214 -178 0
-214 -205 0
-214 -249 0
-214 -58 0
-214 -441 0
-214 -361 0
-214 -747 0
-215 -88 0
-215 -132 0
-215 -267 0
-215 -169 0
-215 -183 0
-215 -748 0
-215 -135 0
-216 -468 0
-216 -357 0
-216 -726 0
-216 -123 0
-216 -601 0
-216 -111 0
-216 -584 0
-216 -344 0
-217 -445 0
-217 -48 0
-217 -542 0
-217 -296 0
-217 -90 0
-217 -213 0
-217 -386 0
-217 -354 0
-217 -332 0
-217 -135 0
-217 -613 0
-218 -443 0
-218 -622 0
-218 -55 0
-218 -243 0
-219 -124 0
-219 -438 0
-219 -425 0
-219 -688 0
-219 -628 0
-219 -505 0
-219 -39 0
-219 -9 0
-220 -662 0
-220 -689 0
-220 -43 0
-220 -255 0
-220 -58 0
-220 -639 0
-220 -723 0
-220 -740 0
-221 -669 0
-221 -508 0
-221 -373 0
-221 -316 0
-221 -761 0
-221 -104 0
-222 -677 0
-222 -569 0
-222 -335 0
-222 -241 0
-222 -162 0
-223 -718 0
-223 -420 0
-223 0
-223 -404 0
-223 -396 0
-223 -629 0
-223 -390 0
-224 -707 0
-224 -667 0
-224 -133 0
-224 -382 0
-224 -608 0
-224 -146 0
-225 -486 0
-225 -277 0
-225 -504 0
-225 -565 0
-225 -576 0
-225 -159 0
-225 -97 0
-225 -707 0
-226 -716 0
-226 -342 0
-226 -106 0
-226 -381 0
-227 -12 0
-227 -58 0
-227 -35 0
-227 -167 0
-227 -226 0
-227 -120 0
-227 -792 0
-228 -660 0
-228 -702 0
-228 -472 0
-228 -635 0
-228 -21 0
-228 -247 0
-229 -371 0
-229 -268 0
-229 -170 0
-229 -447 0
-230 -312 0
-230 -653 0
-230 -243 0
-230 -572 0
-230 -512 0
-231 -433 0
-231 -295 0
-231 -520 0
-231 -644 0
-231 -154 0
-231 -667 0
-231 -15 0
-232 -352 0
-232 -348 0
-232 -246 0
-232 -242 0
-232 -587 0
-232 -690 0
-232 -169 0
-232 -589 0
-232 -38 0
-233 -350 0
-233 -253 0
-233 -327 0
-233 -157 0
-233 -596 0
-233 -434 0
-233 -147 0
-233 -230 0
-234 -464 0
-234 -544 0
-234 -696 0
-234 -64 0
-234 -369 0
-234 -688 0
-234 -2 0
-234 -590 0
-234 -24 0
-235 -102 0
-235 -56 0
-235 -459 0
-235 -204 0
-235 -735 0
-235 -198 0
-235 -557 0
-236 -472 0
-236 -229 0
-236 -698 0
-236 -373 0
-237 -377 0
-237 -313 0
-237 -568 0
-237 -277 0
-237 -177 0
-237 -348 0
-237 -329 0
-237 -759 0
-237 -680 0
-238 -420 0
-238 -555 0
-238 -99 0
-238 -586 0
-238 -181 0
-238 -179 0
-238 -53 0
-239 -352 0
-239 -283 0
-239 -315 0
-239 -38 0
-239 -731 0
-239 -3 0
-239 -83 0
-239 -43 0
-240 -531 0
-240 -51 0
-240 -622 0
-240 -93 0
-240 -495 0
-240 -116 0
-240 -334 0
-241 -79 0
-241 -573 0
-241 -461 0
-241 -35 0
-241 -247 0
-241 -396 0
-241 -20 0
-241 -413 0
-242 -255 0
-242 -43 0
-242 -513 0
-242 -486 0
-242 -151 0
-244 -311 0
-244 -17 0
-244 -260 0
-244 -13 0
-244 -30 0
-244 -189 0
-244 -528 0
-244 -619 0
-245 -465 0
-245 -581 0
-245 -447 0
-245 -275 0
-245 -733 0
-245 -460 0
-245 -286 0
-246 -311 0
-246 -783 0
-246 -738 0
-246 -698 0
-246 -421 0
-246 -210 0
-246 -145 0
-247 -560 0
-247 -146 0
-247 -92 0
-247 -242 0
-247 -436 0
-248 -495 0
-248 -494 0
-248 -13 0
-248 -300 0
-248 -480 0
-248 -376 0
-248 -514 0
-248 -150 0
-249 -166 0
-249 -384 0
-249 -262 0
-249 -59 0
-249 -321 0
-249 -485 0
-249 -640 0
-250 -369 0
-250 -101 0
-250 -490 0
-250 -198 0
-250 -414 0
-250 -93 0
-250 -765 0
-251 -665 0
-251 -499 0
-251 -37 0
-251 -96 0
-251 -212 0
-251 -476 0
-251 -232 0
-251 -641 0
-251 -354 0
-252 -70 0
-252 -316 0
-252 -125 0
-253 -328 0
-253 -661 0
-253 -370 0
-253 -678 0
-253 -586 0
-253 -155 0
-254 -311 0
-254 -136 0
-254 -249 0
-254 -428 0
-254 -257 0
-254 -272 0
-254 -297 0
-254 -384 0
-255 -538 0
-255 -449 0
-255 -128 0
-255 -330 0
-255 -122 0
-255 -522 0
-256 -465 0
-256 -10 0
-256 -453 0
-256 -636 0
-256 -521 0
-256 -639 0
-256 -531 0
-257 -790 0
-257 -41 0
-257 -143 0
-258 -790 0
-258 -727 0
-258 -312 0
-258 -183 0
-258 -413 0
-258 -289 0
-258 -605 0
-259 -166 0
-259 -579 0
-259 -460 0
-259 -754 0
-259 -539 0
-259 -90 0
-259 -255 0
-260 -345 0
-260 -325 0
-260 -727 0
-260 -475 0
-260 -84 0
-261 -172 0
-261 -716 0
-261 -207 0
-261 -122 0
-261 -363 0
-261 -516 0
-262 -164 0
-262 -495 0
-262 -535 0
-262 -77 0
-262 -213 0
-262 -389 0
-262 -563 0
-263 -761 0
-263 -32 0
-263 -748 0
-263 -66 0
-263 -416 0
-264 -223 0
-264 -120 0
-264 -166 0
-264 -45 0
-264 -502 0
-264 -205 0
-264 -43 0
-264 -441 0
-265 -670 0
-265 -380 0
-265 -532 0
-265 -733 0
-265 -3 0
-266 -102 0
-266 -484 0
-266 -537 0
-266 -465 0
-266 -234 0
-266 -151 0
-266 -575 0
-266 -70 0
-266 -407 0
-267 -265 0
-267 -54 0
-267 -43 0
-267 -29 0
-268 -590 0
-269 -763 0
-269 -679 0
-269 -759 0
-269 -202 0
-269 -334 0
-269 -381 0
-269 -521 0
-270 -553 0
-270 -507 0
-270 -556 0
-270 -566 0
-270 -277 0
-270 -80 0
-270 -522 0
-270 -75 0
-271 -113 0
-271 -102 0
-271 -302 0
-271 -701 0
-271 -409 0
-272 -493 0
-272 -295 0
-272 -783 0
-272 -22 0
-272 -643 0
-272 -637 0
-273 -584 0
-273 -772 0
-273 -581 0
-273 -656 0
-273 -670 0
-273 -359 0
-273 -323 0
-273 -55 0
-274 -783 0
-274 -413 0
-274 -337 0
-274 -392 0
-274 -268 0
-274 -396 0
-275 -372 0
-275 -15 0
-275 -41 0
-275 -6 0
-276 -581 0
-276 -555 0
-276 -721 0
-276 -509 0
-276 -786 0
-277 -221 0
-277 -165 0
-277 -572 0
-277 -153 0
-278 -390 0
-278 -586 0
-278 -372 0
-278 -507 0
-278 -590 0
-278 -223 0
-278 -394 0
-278 -420 0
-278 -618 0
-278 -351 0
-279 -468 0
-279 -704 0
-279 -724 0
-279 -682 0
-279 -726 0
-279 -174 0
-279 -344 0
-279 -530 0
-280 -278 0
-280 -376 0
-280 -30 0
-280 -247 0
-280 -189 0
-280 -228 0
-280 -512 0
-281 -131 0
-281 -638 0
-281 -260 0
-281 -730 0
-281 -195 0
-281 -504 0
-281 -3 0
-282 -464 0
-282 -370 0
-282 -499 0
-282 -594 0
-282 -402 0
-282 -567 0
-283 -434 0
-283 -757 0
-283 -442 0
-283 -292 0
-283 -487 0
-283 -36 0
-283 -422 0
-284 -712 0
-284 -503 0
-284 -752 0
-284 -602 0
-284 -72 0
-284 -639 0
-284 -115 0
-284 -84 0
-285 -493 0
-285 -297 0
-285 -428 0
-285 -564 0
-285 -236 0
-285 -690 0
-286 -416 0
-286 -163 0
-286 -404 0
-286 -50 0
-286 -788 0
-286 -579 0
-287 -266 0
-287 -727 0
-287 -431 0
-287 -334 0
-287 -264 0
-287 -490 0
-288 -464 0
-288 -483 0
-288 -202 0
-288 -111 0
-288 -525 0
-289 -319 0
-289 -72 0
-289 -685 0
-289 -259 0
-289 -709 0
-290 -736 0
-290 -739 0
-290 -38 0
-290 -5 0
-290 -395 0
-290 -226 0
-291 -12 0
-291 -668 0
-291 -332 0
-291 -356 0
-291 -435 0
-291 -176 0
-291 -511 0
-291 -141 0
-291 -284 0
-291 -451 0
-291 -713 0
-292 -166 0
-292 -174 0
-292 -40 0
-292 -16 0
-293 -636 0
-293 -378 0
-293 -191 0
-293 -576 0
-293 -679 0
-293 -462 0
-294 -359 0
-294 -517 0
-294 -438 0
-294 -198 0
-294 -405 0
-294 -624 0
-295 -457 0
-295 -99 0
-295 -251 0
-295 -179 0
-295 -463 0
-295 -639 0
-296 -433 0
-296 -517 0
-296 -734 0
-296 -456 0
-296 -591 0
-296 -382 0
-296 -532 0
-297 -552 0
-297 -372 0
-297 -502 0
-297 -171 0
-297 -290 0
-297 -732 0
-297 -222 0
-298 -436 0
-298 -682 0
-298 -786 0
-298 -263 0
-298 -286 0
-298 -126 0
-299 -506 0
-299 -100 0
-299 -653 0
-299 -257 0
-299 -235 0
-299 -165 0
-299 -301 0
-300 -76 0
-300 -349 0
-300 -326 0
-300 -672 0
-300 -679 0
-300 -205 0
-301 -766 0
-301 -705 0
-301 -166 0
-301 -211 0
-301 -562 0
-301 -226 0
-301 -202 0
-301 -11 0
-302 -596 0
-302 -248 0
-302 -27 0
-302 -287 0
-302 -138 0
-303 -777 0
-303 -520 0
-303 -737 0
-303 -470 0
-303 -42 0
-303 -393 0
-303 -595 0
-303 -83 0
-303 -152 0
-304 -367 0
-304 -89 0
-304 -225 0
-304 -283 0
-304 -201 0
-304 -446 0
-304 -726 0
-305 -536 0
-305 -545 0
-305 -332 0
-305 -115 0
-305 -50 0
-305 -597 0
-305 -789 0
-305 -583 0
-305 -38 0
-306 -68 0
-306 -340 0
-306 -335 0
-306 -571 0
-306 -544 0
-306 -407 0
-306 -330 0
-306 -688 0
-307 -276 0
-307 -133 0
-307 -503 0
-307 -70 0
-307 -622 0
-307 -521 0
-307 -116 0
-307 -186 0
-308 -420 0
-308 -455 0
-308 -349 0
-308 -557 0
-309 -465 0
-309 -275 0
-309 -761 0
-309 -273 0
-309 -639 0
-309 -157 0
-309 -110 0
-309 -538 0
-310 -445 0
-310 -722 0
-310 -420 0
-310 -462 0
-310 -91 0
-310 -283 0
-310 -716 0
-310 -39 0
-311 -638 0
-311 -185 0
-311 -330 0
-311 -643 0
-312 -447 0
-312 -649 0
-312 -277 0
-312 -647 0
-312 -208 0
-312 -683 0
-312 -49 0
-312 -398 0
-313 -250 0
-313 -8 0
-313 -536 0
-313 -456 0
-313 -507 0
-314 -65 0
-314 -301 0
-314 -713 0
-314 -641 0
-314 -688 0
-314 -669 0
-314 -600 0
-315 -496 0
-315 -322 0
-315 -425 0
-316 -338 0
-316 -687 0
-316 -372 0
-316 -268 0
-316 -629 0
-316 -507 0
-317 -247 0
-317 -200 0
-317 -68 0
-317 -379 0
-317 -624 0
-318 -608 0
-318 -256 0
-318 -418 0
-318 -267 0
-318 -602 0
-318 -204 0
-318 -461 0
-318 -166 0
-318 -582 0
-319 -184 0
-319 -287 0
-319 -778 0
-319 -20 0
-319 -594 0
-319 -582 0
-319 -640 0
-319 -289 0
-319 -333 0
-320 -289 0
-320 -579 0
-320 -350 0
-320 -229 0
-320 -368 0
-320 -706 0
-320 -405 0
-320 -502 0
-321 -775 0
-321 -219 0
-321 -496 0
-321 -394 0
-322 -603 0
-322 -432 0
-322 -320 0
-322 -405 0
-322 -487 0
-322 -688 0
-323 -573 0
-323 -579 0
-323 -337 0
-323 -638 0
-323 -748 0
-323 -584 0
-323 -699 0
-323 -276 0
-324 -709 0
-324 -204 0
-324 -298 0
-324 -770 0
-324 -403 0
-324 -232 0
-325 -390 0
-325 -495 0
-325 -545 0
-325 -469 0
-325 -118 0
-325 -428 0
-325 -349 0
-325 -776 0
-326 -443 0
-326 -620 0
-326 -599 0
-326 -108 0
-326 -354 0
-326 -47 0
-326 -163 0
-326 -383 0
-327 -501 0
-327 -110 0
-327 -729 0
-327 -40 0
-327 -179 0
-328 -135 0
-328 -606 0
-328 -163 0
-328 -169 0
-328 -749 0
-329 -519 0
-329 -431 0
-329 -54 0
-329 -409 0
-329 -451 0
-329 -400 0
-329 -386 0
-329 -742 0
-330 -439 0
-330 -331 0
-330 -589 0
-330 -574 0
-331 -765 0
-331 -533 0
-331 -723 0
-331 -529 0
-331 -790 0
-331 -317 0
-331 -756 0
-331 -682 0
-332 -486 0
-332 -320 0
-332 -232 0
-332 -159 0
-332 -787 0
-332 -601 0
-333 -536 0
-333 -760 0
-333 -532 0
-333 -573 0
-333 -155 0
-333 -715 0
-333 -752 0
-334 -131 0
-334 -434 0
-334 -298 0
-334 -676 0
-334 -232 0
-334 -12 0
-335 -488 0
-335 -255 0
-335 -448 0
-335 -434 0
-336 -570 0
-336 -123 0
-336 -321 0
-336 -476 0
-336 -500 0
-337 -64 0
-337 -80 0
-337 -453 0
-337 -134 0
-337 -201 0
-337 -397 0
-337 -162 0
-338 -667 0
-338 -223 0
-339 -133 0
-339 -550 0
-339 -492 0
-339 -665 0
-340 -141 0
-340 -347 0
-340 -690 0
-340 -744 0
-340 -205 0
-340 -7 0
-340 -217 0
-340 -195 0
-341 -89 0
-341 -61 0
-341 -253 0
-341 -679 0
-341 -320 0
-341 -646 0
-341 -728 0
-341 -749 0
-341 -546 0
-342 -611 0
-342 -353 0
-342 -324 0
-342 -650 0
-342 -12 0
-342 -443 0
-342 -311 0
-342 -203 0
-342 -225 0
-342 -560 0
-343 -560 0
-343 -379 0
-343 -471 0
-343 -445 0
-343 -420 0
-343 -488 0
-343 -112 0
-343 -733 0
-343 -709 0
-344 -92 0
-344 -251 0
-344 -544 0
-344 -722 0
-344 -414 0
-344 -702 0
-344 -650 0
-344 -577 0
-345 -774 0
-345 -42 0
-345 -755 0
-345 -654 0
-345 -287 0
-345 -485 0
-345 -509 0
-346 -74 0
-346 -6 0
-346 -310 0
-346 -752 0
-346 -742 0
-347 -499 0
-347 -252 0
-347 -13 0
-347 -480 0
-347 -334 0
-347 -486 0
-347 -143 0
-347 -761 0
-349 -705 0
-349 -187 0
-349 -166 0
-349 -208 0
-349 -547 0
-349 -523 0
-349 -691 0
-350 -564 0
-350 -382 0
-350 -590 0
-350 -302 0
-350 -645 0
-350 -607 0
-350 -218 0
-350 -204 0
-351 -475 0
-351 -687 0
-351 -718 0
-351 -666 0
-351 -372 0
-352 -529 0
-352 -323 0
-352 -252 0
-352 -613 0
-352 -2 0
-352 -424 0
-352 -567 0
-352 -120 0
-353 -686 0
-353 -139 0
-353 -264 0
-353 -529 0
-353 -31 0
-354 -140 0
-354 -600 0
-354 -588 0
-354 -434 0
-354 -521 0
-354 -408 0
-354 -428 0
-355 -551 0
-355 -351 0
-355 -372 0
-355 -687 0
-355 -778 0
-355 -404 0
-356 -44 0
-356 -684 0
-356 -444 0
-356 -289 0
-356 -395 0
-356 -641 0
-357 -772 0
-357 -599 0
-357 -658 0
-357 -299 0
-357 -681 0
-358 -439 0
-358 -697 0
-358 -484 0
-358 -134 0
-358 -162 0
-358 -621 0
-358 -207 0
-358 -292 0
-359 -323 0
-359 -709 0
-359 -483 0
-359 -451 0
-359 -281 0
-359 -18 0
-360 -686 0
-360 -562 0
-360 -485 0
-360 -407 0
-360 -397 0
-360 -324 0
-360 -536 0
-360 -559 0
-361 -72 0
-361 -562 0
-361 -73 0
-361 -544 0
-361 -659 0
-361 -694 0
-361 -487 0
-362 -265 0
-362 -293 0
-362 -77 0
-362 -411 0
-362 -619 0
-363 -139 0
-363 -532 0
-363 -524 0
-363 -472 0
-363 -164 0
-363 -467 0
-363 -138 0
-364 -790 0
-364 -659 0
-364 -272 0
-364 -231 0
-364 -120 0
-364 -10 0
-364 -312 0
-365 -782 0
-365 -333 0
-365 -483 0
-365 -344 0
-365 -16 0
-365 -560 0
-366 -15 0
-366 -480 0
-366 -442 0
-366 -571 0
-366 -189 0
-366 -202 0
-366 -730 0
-366 -292 0
-367 -373 0
-367 -67 0
-367 -655 0
-367 -246 0
-367 -721 0
-367 -331 0
-367 -469 0
-368 -149 0
-368 -193 0
-368 -318 0
-368 -252 0
-368 -134 0
-368 -54 0
-368 -698 0
-369 -144 0
-369 -3 0
-369 -211 0
-369 -649 0
-369 -267 0
-370 -65 0
-370 -374 0
-370 -51 0
-370 -496 0
-370 -714 0
-370 -40 0
-370 -166 0
-370 -181 0
-370 -227 0
-371 -768 0
-371 -430 0
-371 -116 0
-371 -205 0
-371 -503 0
-372 -338 0
-372 -629 0
-373 -364 0
-373 -31 0
-373 -563 0
-373 -44 0
-373 -612 0
-373 -224 0
-374 -83 0
-374 -243 0
-374 -465 0
-374 -407 0
-374 -59 0
-375 -77 0
-375 -347 0
-375 -109 0
-375 -53 0
-375 -709 0
-375 -428 0
-375 -185 0
-375 -680 0
-376 -311 0
-376 -436 0
-376 -694 0
-376 -627 0
-377 -598 0
-377 -526 0
-377 -593 0
-377 -2 0
-377 -170 0
-378 -2 0
-378 -204 0
-378 -736 0
-378 -544 0
-378 -789 0
-378 -277 0
-379 -538 0
-379 -348 0
-379 -672 0
-379 -29 0
-379 -677 0
-380 -149 0
-380 -271 0
-380 -224 0
-380 -526 0
-380 -625 0
-381 -62 0
-381 -516 0
-381 -63 0
-381 -121 0
-381 -302 0
-382 -313 0
-382 -15 0
-382 -541 0
-382 -588 0
-382 -514 0
-382 -651 0
-382 -649 0
-383 -346 0
-383 -121 0
-383 -753 0
-383 -464 0
-383 -631 0
-383 -428 0
-383 -771 0
-384 -41 0
-384 -480 0
-384 -397 0
-384 -639 0
-385 -786 0
-385 -774 0
-385 -13 0
-385 -5 0
-385 -224 0
-385 -4 0
-385 -148 0
-385 -189 0
-386 -537 0
-386 -442 0
-386 -170 0
-386 -315 0
-387 -120 0
-387 -150 0
-387 -771 0
-387 -768 0
-387 -614 0
-387 -242 0
-388 -386 0
-388 -499 0
-388 -486 0
-388 -346 0
-388 -69 0
-388 -727 0
-388 -349 0
-388 -704 0
-388 -656 0
-389 -458 0
-389 -752 0
-389 -108 0
-389 -362 0
-389 -554 0
-389 -698 0
-390 -667 0
-390 -590 0
-391 -487 0
-391 -765 0
-391 -3 0
-391 -364 0
-391 -80 0
-391 -118 0
-392 -81 0
-392 -90 0
-392 -478 0
-392 -567 0
-392 -494 0
-392 -194 0
-392 -15 0
-392 -455 0
-393 -164 0
-393 -32 0
-393 -378 0
-393 -270 0
-393 -622 0
-393 -47 0
-393 -751 0
-393 -551 0
-393 -791 0
-394 -667 0
-395 -145 0
-395 -93 0
-395 -502 0
-395 -690 0
-396 -590 0
-396 -268 0
-396 -316 0
-396 -351 0
-396 -243 0
-396 -223 0
-397 -639 0
-397 -595 0
-397 -83 0
-397 -312 0
-398 -688 0
-398 -308 0
-398 -532 0
-398 -4 0
-398 -719 0
-399 -658 0
-399 -669 0
-399 -119 0
-399 -325 0
-399 -254 0
-399 -458 0
-399 -223 0
-399 -428 0
-399 -231 0
-400 -395 0
-400 -230 0
-400 -643 0
-400 -308 0
-400 -514 0
-400 -503 0
-400 -27 0
-400 -588 0
-400 -625 0
-401 -689 0
-401 -737 0
-401 -716 0
-401 -546 0
-401 -498 0
-401 -396 0
-401 -711 0
-402 -787 0
-402 -20 0
-402 -11 0
-402 -172 0
-403 -273 0
-403 -21 0
-403 -29 0
-403 -356 0
-403 -757 0
-403 -378 0
-405 -75 0
-405 -378 0
-405 -788 0
-405 -260 0
-405 -506 0
-406 -208 0
-406 -436 0
-406 -791 0
-406 -709 0
-406 -43 0
-406 -272 0
-406 -559 0
-407 -103 0
-407 -508 0
-407 -504 0
-407 -782 0
-407 -732 0
-407 -440 0
-407 -249 0
-407 -3 0
-408 -719 0
-408 -157 0
-408 -13 0
-408 -193 0
-408 -612 0
-409 -65 0
-409 -86 0
-409 -704 0
-409 -440 0
-409 -14 0
-409 -260 0
-409 -415 0
-410 -277 0
-410 -60 0
-410 -460 0
-410 -422 0
-411 -687 0
-411 -590 0
-412 -279 0
-412 -40 0
-412 -442 0
-412 -71 0
-412 -189 0
-413 -591 0
-413 -336 0
-413 -141 0
-413 -362 0
-413 -8 0
-413 -410 0
-413 -142 0
-414 -289 0
-414 -299 0
-414 -410 0
-414 -735 0
-415 -126 0
-415 -388 0
-415 -328 0
-415 -288 0
-415 -458 0
-416 -644 0
-416 -48 0
-416 -183 0
-416 -302 0
-416 -601 0
-416 -220 0
-416 -535 0
-416 -428 0
-417 -43 0
-417 -183 0
-417 -299 0
-417 -489 0
-417 -483 0
-417 -331 0
-417 -309 0
-418 -648 0
-418 -428 0
-418 -217 0
-418 -434 0
-418 -135 0
-419 -669 0
-419 -526 0
-419 -435 0
-419 -755 0
-419 -517 0
-419 -600 0
-419 -53 0
-419 -674 0
-421 -61 0
-421 -127 0
-421 -382 0
-421 -458 0
-421 -605 0
-421 -554 0
-422 -270 0
-422 -62 0
-422 -181 0
-422 -458 0
-422 -357 0
-422 -274 0
-423 -605 0
-423 -561 0
-423 -583 0
-423 -448 0
-423 -591 0
-423 -305 0
-423 -99 0
-424 -75 0
-424 -613 0
-424 -691 0
-424 -132 0
-424 -714 0
-424 -324 0
-424 -167 0
-424 -225 0
-425 -560 0
-425 -165 0
-425 -510 0
-425 -326 0
-425 -48 0
-425 -225 0
-426 -168 0
-426 -758 0
-426 -165 0
-426 -97 0
-426 -133 0
-427 -184 0
-427 -531 0
-427 -743 0
-428 -145 0
-428 -686 0
-428 -322 0
-428 -246 0
-429 -554 0
-429 -465 0
-429 -648 0
-429 -769 0
-429 -17 0
-429 -405 0
-429 -430 0
-429 -45 0
-430 -120 0
-430 -784 0
-430 -690 0
-430 -785 0
-430 -778 0
-430 -391 0
-430 -197 0
-431 -426 0
-431 -512 0
-431 -192 0
-431 -92 0
-431 -738 0
-431 -17 0
-431 -672 0
-431 -442 0
-432 -457 0
-432 -455 0
-432 -752 0
-432 -186 0
-432 -353 0
-432 -276 0
-432 -473 0
-432 -102 0
-432 -533 0
-432 -758 0
-433 -258 0
-433 -160 0
-433 -417 0
-433 -441 0
-433 -776 0
-433 -68 0
-433 -174 0
-434 -97 0
-434 -324 0
-434 -497 0
-434 -178 0
-434 -112 0
-434 -242 0
-434 -235 0
-435 -326 0
-435 -407 0
-435 -207 0
-435 -705 0
-435 -265 0
-435 -533 0
-435 -492 0
-436 -277 0
-436 -776 0
-436 -390 0
-436 -282 0
-436 -712 0
-437 -296 0
-437 -417 0
-437 -434 0
-437 -142 0
-437 -136 0
-437 -403 0
-437 -93 0
-437 -375 0
-437 -645 0
-438 -368 0
-438 -336 0
-438 -55 0
-438 -768 0
-438 -371 0
-438 -649 0
-438 -735 0
-439 -408 0
-439 -156 0
-439 -632 0
-439 -507 0
-439 -149 0
-439 -8 0
-440 -592 0
-440 -634 0
-440 -774 0
-440 -781 0
-440 -758 0
-440 -616 0
-440 -691 0
-441 -321 0
-441 -216 0
-441 -405 0
-441 -238 0
-441 -157 0
-441 -675 0
-442 -240 0
-442 -388 0
-442 -387 0
-442 -471 0
-442 -464 0
-442 -130 0
-442 -783 0
-443 -158 0
-443 -580 0
-443 -226 0
-443 -139 0
-443 -315 0
-443 -583 0
-443 -207 0
-443 -162 0
-444 -518 0
-444 -127 0
-444 -699 0
-444 -321 0
-444 -517 0
-444 -631 0
-444 -646 0
-444 -312 0
-445 -757 0
-445 -161 0
-445 -716 0
-445 -726 0
-445 -497 0
-445 -705 0
-445 -27 0
-445 -587 0
-446 -585 0
-446 -758 0
-446 -239 0
-446 -381 0
-446 -209 0
-447 -205 0
-447 -681 0
-447 -240 0
-447 -789 0
-448 -129 0
-448 -320 0
-448 -74 0
-448 -295 0
-448 -436 0
-448 -600 0
-448 -687 0
-449 -7 0
-449 -539 0
-449 -284 0
-449 -447 0
-449 -722 0
-450 -286 0
-450 -622 0
-450 -590 0
-450 -448 0
-450 -350 0
-450 -756 0
-450 -703 0
-450 -173 0
-450 -674 0
-451 -632 0
-451 -659 0
-451 -592 0
-451 -607 0
-451 -475 0
-451 -155 0
-451 -50 0
-451 -781 0
-452 -186 0
-452 -124 0
-452 -252 0
-452 -527 0
-452 -214 0
-452 -436 0
-452 -556 0
-452 -707 0
-452 -89 0
-453 -608 0
-453 -571 0
-453 -655 0
-453 -164 0
-453 -6 0
-453 -141 0
-454 -497 0
-454 -649 0
-454 -453 0
-454 -673 0
-454 -402 0
-454 -459 0
-454 -390 0
-454 -651 0
-455 -173 0
-455 -5 0
-455 -428 0
-455 -84 0
-455 -211 0
-455 -384 0
-455 -729 0
-456 -560 0
-456 -511 0
-456 -614 0
-457 -132 0
-457 -496 0
-457 -770 0
-457 -407 0
-457 -748 0
-458 -164 0
-458 -343 0
-458 -14 0
-458 -179 0
-458 -317 0
-459 -173 0
-459 -362 0
-459 -728 0
-460 -541 0
-460 -458 0
-460 -744 0
-460 -398 0
-460 -464 0
-461 -246 0
-461 -202 0
-461 -611 0
-461 -271 0
-461 -243 0
-461 -490 0
-462 -23 0
-462 -544 0
-462 -19 0
-463 -446 0
-463 -285 0
-463 -746 0
-463 -574 0
-463 -42 0
-463 -2 0
-464 -113 0
-464 -172 0
-464 -565 0
-464 -328 0
-464 -769 0
-465 -455 0
-465 -87 0
-465 -184 0
-465 -430 0
-465 -771 0
-465 -711 0
-466 -328 0
-466 -263 0
-466 -559 0
-466 -324 0
-466 -738 0
-466 -469 0
-466 -20 0
-466 -788 0
-467 -455 0
-467 -752 0
-467 -108 0
-467 -513 0
-467 -789 0
-467 -555 0
-467 -265 0
-467 -330 0
-468 -194 0
-468 -580 0
-468 -550 0
-468 -442 0
-468 -488 0
-469 -418 0
-469 -621 0
-469 -133 0
-469 -1 0
-469 -502 0
-469 -294 0
-469 -785 0
-470 -214 0
-470 -182 0
-470 -620 0
-470 -482 0
-470 -624 0
-470 -617 0
-471 -604 0
-471 -578 0
-471 -788 0
-471 -292 0
-471 -388 0
-471 -133 0
-472 -612 0
-472 -218 0
-472 -99 0
-472 -343 0
-472 -578 0
-472 -153 0
-472 -264 0
-473 -212 0
-473 -174 0
-473 -17 0
-473 -553 0
-474 -161 0
-474 -378 0
-474 -735 0
-474 -758 0
-474 -490 0
-474 -483 0
-474 -620 0
-474 -8 0
-474 -790 0
-475 -338 0
-476 -134 0
-476 -540 0
-476 -336 0
-476 -745 0
-476 -598 0
-476 -338 0
-477 -418 0
-477 -122 0
-477 -786 0
-477 -161 0
-477 -683 0
-477 -783 0
-477 -764 0
-478 -186 0
-478 -791 0
-478 -790 0
-478 -647 0
-478 -460 0
-478 -162 0
-478 -202 0
-478 -453 0
-478 -435 0
-479 -757 0
-479 -710 0
-479 -145 0
-479 -53 0
-479 -640 0
-479 -228 0
-480 -199 0
-480 -496 0
-480 -503 0
-481 -285 0
-481 -233 0
-481 -574 0
-481 -525 0
-481 -77 0
-481 -625 0
-481 -59 0
-482 -449 0
-482 -508 0
-482 -558 0
-482 -142 0
-482 -606 0
-482 -792 0
-482 -699 0
-482 -506 0
-483 -250 0
-483 -626 0
-483 -645 0
-483 -526 0
-484 -578 0
-484 -386 0
-484 -337 0
-484 -26 0
-484 -313 0
-485 -634 0
-485 -636 0
-485 -124 0
-485 -598 0
-485 -705 0
-485 -246 0
-485 -398 0
-485 -115 0
-486 -425 0
-486 -86 0
-486 -423 0
-486 -377 0
-487 -197 0
-487 -65 0
-487 -541 0
-487 -72 0
-487 -26 0
-487 -730 0
-488 -286 0
-488 -371 0
-488 -552 0
-488 -568 0
-488 -294 0
-488 -5 0
-488 -526 0
-489 -155 0
-489 -710 0
-489 -370 0
-489 -476 0
-489 -638 0
-489 -293 0
-489 -84 0
-490 -414 0
-490 -661 0
-490 -407 0
-490 -163 0
-490 -396 0
-491 -609 0
-491 -746 0
-491 -125 0
-491 -236 0
-491 -505 0
-491 -710 0
-491 -68 0
-491 -266 0
-491 -383 0
-491 -464 0
-491 -543 0
-491 -113 0
-492 -175 0
-492 -686 0
-492 -626 0
-492 -620 0
-492 -667 0
-492 -209 0
-492 -313 0
-492 -79 0
-493 -386 0
-493 -2 0
-493 -766 0
-493 -718 0
-494 -184 0
-494 -166 0
-494 -414 0
-494 -409 0
-494 -399 0
-495 -434 0
-495 -285 0
-495 -124 0
-495 -335 0
-495 -262 0
-495 -30 0
-495 -16 0
-496 -629 0
-497 -624 0
-497 -387 0
-497 -323 0
-497 -738 0
-497 -764 0
-498 -635 0
-498 -560 0
-498 -248 0
-498 -226 0
-498 -112 0
-498 -524 0
-499 -459 0
-499 -582 0
-499 -671 0
-499 -438 0
-499 -99 0
-499 -42 0
-500 -236 0
-500 -753 0
-500 -4 0
-500 -212 0
-500 -484 0
-500 -463 0
-500 -459 0
-501 -602 0
-501 -516 0
-501 -331 0
-501 -546 0
-501 -649 0
-501 -287 0
-501 -246 0
-501 -786 0
-501 -475 0
-502 -630 0
-502 -544 0
-502 -543 0
-502 -756 0
-502 -248 0
-502 -50 0
-503 -767 0
-503 -755 0
-503 -504 0
-503 -139 0
-503 -571 0
-503 -344 0
-504 -421 0
-504 -423 0
-504 -413 0
-504 -749 0
-504 -63 0
-504 -91 0
-505 -444 0
-505 -321 0
-505 -406 0
-505 -498 0
-505 -186 0
-505 -315 0
-505 -636 0
-505 -478 0
-506 -75 0
-506 -532 0
-506 -786 0
-506 -258 0
-506 -693 0
-506 -74 0
-506 -527 0
-507 -718 0
-507 -411 0
-507 -667 0
-507 -394 0
-508 -771 0
-508 -249 0
-508 -700 0
-508 -169 0
-509 -464 0
-509 -598 0
-509 -415 0
-509 -562 0
-509 -481 0
-510 -326 0
-510 -415 0
-510 -129 0
-510 -396 0
-510 -506 0
-510 -52 0
-510 -343 0
-510 -8 0
-511 -578 0
-511 -337 0
-511 -338 0
-511 -33 0
-511 -400 0
-511 -83 0
-511 -643 0
-512 -769 0
-512 -451 0
-512 -409 0
-512 -738 0
-513 -256 0
-513 -455 0
-513 -509 0
-513 -157 0
-513 -65 0
-513 -124 0
-514 -170 0
-514 -188 0
-514 -280 0
-514 -42 0
-514 -402 0
-514 -210 0
-515 -517 0
-515 -749 0
-515 -753 0
-515 -220 0
-515 -292 0
-515 -640 0
-515 -633 0
-515 -76 0
-515 -389 0
-516 -451 0
-516 -167 0
-516 -139 0
-516 -542 0
-516 -378 0
-517 -113 0
-517 -111 0
-517 -635 0
-517 -496 0
-517 -306 0
-518 -496 0
-518 -260 0
-518 -257 0
-518 -406 0
-518 -212 0
-518 -520 0
-518 -691 0
-519 -421 0
-519 -195 0
-519 -392 0
-519 -396 0
-519 -621 0
-519 -102 0
-519 -306 0
-519 -576 0
-519 -20 0
-519 -18 0
-519 -174 0
-520 -10 0
-520 -12 0
-520 -332 0
-520 -204 0
-520 -759 0
-520 -675 0
-521 -647 0
-521 -101 0
-521 -778 0
-521 -456 0
-521 -448 0
-522 -591 0
-522 -46 0
-522 -511 0
-522 -300 0
-522 -462 0
-523 -428 0
-523 -400 0
-523 -238 0
-523 -638 0
-523 -82 0
-523 -765 0
-523 -747 0
-523 -252 0
-524 -346 0
-524 -15 0
-524 -693 0
-524 -761 0
-524 -47 0
-524 -334 0
-524 -659 0
-524 -551 0
-525 -59 0
-525 -763 0
-525 -450 0
-525 -510 0
-525 -188 0
-525 -619 0
-525 -186 0
-525 -386 0
-525 -348 0
-526 -610 0
-526 -452 0
-526 -184 0
-526 -274 0
-527 -783 0
-527 -42 0
-527 -488 0
-527 -544 0
-527 -468 0
-527 -489 0
-527 -702 0
-528 -659 0
-528 -258 0
-528 -602 0
-528 -323 0
-528 -101 0
-529 -154 0
-529 -564 0
-529 -571 0
-529 -766 0
-530 -624 0
-530 -158 0
-530 -380 0
-530 -784 0
-530 -261 0
-530 -322 0
-530 -459 0
-531 -193 0
-531 -17 0
-531 -662 0
-531 -651 0
-532 -467 0
-532 -264 0
-532 -707 0
-532 -572 0
-532 -788 0
-532 -596 0
-532 -320 0
-532 -498 0
-533 -211 0
-534 -167 0
-534 -637 0
-534 -508 0
-534 -29 0
-534 -386 0
-534 -740 0
-534 -242 0
-534 -68 0
-534 -391 0
-535 -423 0
-535 -642 0
-535 -219 0
-535 -762 0
-535 -571 0
-535 -358 0
-536 -458 0
-536 -117 0
-536 -791 0
-536 -54 0
-536 -671 0
-536 -653 0
-536 -30 0
-537 -677 0
-537 -586 0
-537 -744 0
-537 -437 0
-537 -531 0
-537 -227 0
-537 -107 0
-538 -246 0
-538 -759 0
-538 -282 0
-538 -596 0
-538 -787 0
-538 -94 0
-538 -718 0
-539 -72 0
-539 -381 0
-539 -60 0
-539 -766 0
-539 -187 0
-540 -209 0
-540 -272 0
-540 -621 0
-540 -624 0
-540 -308 0
-540 -355 0
-540 -787 0
-540 -39 0
-541 -75 0
-541 -120 0
-541 -33 0
-541 -288 0
-541 -784 0
-541 -12 0
-541 -211 0
-542 -365 0
-542 -13 0
-542 -686 0
-542 -136 0
-542 -310 0
-543 -641 0
-543 -509 0
-543 -653 0
-543 -303 0
-543 -105 0
-543 -403 0
-544 -18 0
-544 -357 0
-544 -144 0
-545 -326 0
-545 -658 0
-545 -608 0
-545 -207 0
-545 -89 0
-545 -791 0
-545 -141 0
-545 -572 0
-545 -766 0
-546 -671 0
-546 -656 0
-546 -691 0
-547 -419 0
-547 -599 0
-547 -189 0
-547 -660 0
-547 -463 0
-547 -430 0
-547 -146 0
-548 -205 0
-548 -248 0
-548 -414 0
-548 -372 0
-549 -395 0
-549 -177 0
-549 -436 0
-549 -304 0
-549 -729 0
-549 -639 0
-549 -464 0
-550 -248 0
-550 -162 0
-550 -522 0
-550 -713 0
-550 -256 0
-551 -420 0
-551 -390 0
-551 -687 0
-551 -590 0
-552 -754 0
-552 -572 0
-552 -383 0
-552 -87 0
-552 -33 0
-553 -80 0
-553 -458 0
-553 -215 0
-553 -345 0
-553 -127 0
-554 -156 0
-554 -728 0
-554 -621 0
-554 -272 0
-554 -579 0
-554 -64 0
-554 -130 0
-554 -790 0
-555 -657 0
-555 -398 0
-555 -713 0
-555 -385 0
-555 -378 0
-555 -477 0
-556 -242 0
-556 -471 0
-556 -101 0
-556 -562 0
-556 -487 0
-556 -8 0
-557 -274 0
-557 -2 0
-557 -730 0
-557 -713 0
-557 -166 0
-557 -435 0
-558 -240 0
-558 -528 0
-558 -608 0
-558 -447 0
-558 -63 0
-558 -770 0
-558 -147 0
-558 -141 0
-559 -771 0
-559 -17 0
-559 -349 0
-559 -683 0
-559 -286 0
-559 -376 0
-559 -99 0
-560 -430 0
-560 -761 0
-560 -508 0
-561 -423 0
-561 -239 0
-561 -206 0
-561 -81 0
-561 -160 0
-561 -227 0
-561 -773 0
-562 -223 0
-562 -243 0
-563 -474 0
-563 -213 0
-563 -728 0
-563 -570 0
-563 -375 0
-563 -759 0
-563 -335 0
-563 -267 0
-564 -507 0
-564 -267 0
-564 -781 0
-564 -147 0
-564 -493 0
-565 -53 0
-565 -586 0
-565 -163 0
-565 -184 0
-565 -87 0
-565 -27 0
-565 -329 0
-565 -99 0
-565 -36 0
-566 -744 0
-566 -151 0
-566 -37 0
-566 -101 0
-566 -727 0
-567 -33 0
-567 -442 0
-567 -248 0
-567 -611 0
-567 -161 0
-567 -240 0
-567 -437 0
-568 -619 0
-568 -50 0
-568 -63 0
-568 -527 0
-568 -693 0
-568 -24 0
-569 -67 0
-569 -151 0
-569 -194 0
-570 -277 0
-570 -119 0
-570 -529 0
-570 -12 0
-570 -7 0
-570 -133 0
-570 -17 0
-571 -590 0
-571 -664 0
-571 -84 0
-571 -50 0
-571 -591 0
-572 -477 0
-572 -42 0
-572 -367 0
-572 -692 0
-572 -411 0
-572 -213 0
-572 -403 0
-573 -591 0
-573 -311 0
-573 -268 0
-573 -60 0
-573 -66 0
-574 -783 0
-574 -58 0
-574 -727 0
-574 -209 0
-574 -155 0
-574 -189 0
-575 -421 0
-575 -162 0
-575 -79 0
-575 -51 0
-575 -2 0
-575 -448 0
-575 -362 0
-576 -338 0
-576 -370 0
-576 -387 0
-576 -675 0
-576 -59 0
-576 -314 0
-576 -523 0
-577 -6 0
-577 -647 0
-577 -500 0
-577 -391 0
-577 -553 0
-577 -103 0
-577 -549 0
-577 -381 0
-578 -723 0
-578 -402 0
-578 -425 0
-578 -292 0
-578 -113 0
-578 -742 0
-579 -130 0
-579 -440 0
-579 -521 0
-579 -277 0
-579 -596 0
-579 -749 0
-580 -537 0
-580 -29 0
-580 -620 0
-580 -195 0
-580 -64 0
-580 -591 0
-580 -176 0
-580 -136 0
-581 -229 0
-581 -282 0
-581 -606 0
-581 -103 0
-581 -240 0
-581 -267 0
-581 -50 0
-581 -106 0
-582 -74 0
-582 -753 0
-582 -257 0
-582 -115 0
-582 -428 0
-582 -68 0
-582 -336 0
-583 -383 0
-583 -378 0
-583 -721 0
-583 -541 0
-583 -362 0
-584 -42 0
-584 -255 0
-584 -300 0
-584 -476 0
-584 -619 0
-584 -680 0
-584 -301 0
-585 -108 0
-585 -371 0
-585 -123 0
-585 -12 0
-585 -97 0
-586 -667 0
-587 -259 0
-587 -204 0
-587 -763 0
-587 -437 0
-587 -493 0
-588 -447 0
-588 -313 0
-588 -102 0
-588 -95 0
-588 -739 0
-589 -420 0
-589 -412 0
-589 -330 0
-589 -169 0
-589 -612 0
-589 -224 0
-589 -465 0
-589 -291 0
-591 -173 0
-591 -79 0
-591 -638 0
-591 -471 0
-591 -382 0
-592 -237 0
-592 -591 0
-592 -624 0
-592 -529 0
-592 -243 0
-592 -49 0
-592 -724 0
-593 -44 0
-593 -127 0
-593 -772 0
-593 -415 0
-593 -309 0
-593 -59 0
-593 -70 0
-593 -21 0
-593 -173 0
-594 -242 0
-594 -513 0
-594 -228 0
-594 -788 0
-594 -249 0
-594 -514 0
-595 -20 0
-595 -14 0
-595 -762 0
-595 -454 0
-595 -732 0
-595 -240 0
-595 -181 0
-595 -126 0
-595 -579 0
-595 -362 0
-596 -115 0
-596 -161 0
-596 -477 0
-596 -197 0
-596 -16 0
-596 -358 0
-597 -480 0
-597 -418 0
-597 -589 0
-597 -593 0
-597 -272 0
-597 -641 0
-597 -540 0
-598 -737 0
-598 -194 0
-598 -546 0
-598 -134 0
-598 -141 0
-598 -160 0
-599 -506 0
-599 -97 0
-599 -772 0
-599 -609 0
-599 -230 0
-599 -339 0
-599 -603 0
-600 -378 0
-600 -311 0
-600 -241 0
-600 -743 0
-600 -744 0
-600 -658 0
-600 -758 0
-601 -87 0
-601 -79 0
-601 -408 0
-601 -748 0
-601 -207 0
-601 -161 0
-601 -59 0
-602 -424 0
-602 -258 0
-602 -215 0
-602 -719 0
-603 -62 0
-603 -619 0
-603 -665 0
-603 -124 0
-603 -377 0
-603 -679 0
-603 -386 0
-603 -366 0
-604 -480 0
-604 -454 0
-604 -5 0
-604 -728 0
-604 -415 0
-604 -292 0
-605 -27 0
-605 -408 0
-605 -301 0
-605 -689 0
-605 -103 0
-605 -326 0
-606 -715 0
-606 -573 0
-606 -678 0
-606 -647 0
-607 -339 0
-607 -724 0
-607 -328 0
-607 -458 0
-607 -212 0
-607 -600 0
-608 -287 0
-608 -221 0
-608 -118 0
-608 -172 0
-608 -90 0
-608 -549 0
-609 -562 0
-609 -138 0
-609 -387 0
-609 -740 0
-609 -9 0
-609 -397 0
-609 -700 0
-609 -583 0
-609 -368 0
-609 -116 0
-610 -742 0
-610 -278 0
-610 -428 0
-610 -163 0
-610 -559 0
-610 -125 0
-610 -214 0
-610 -183 0
-611 -513 0
-611 -433 0
-611 -101 0
-611 -131 0
-611 -243 0
-611 -52 0
-611 -478 0
-611 -546 0
-611 -50 0
-612 -58 0
-612 -533 0
-612 -260 0
-612 -155 0
-612 -228 0
-612 -92 0
-612 -689 0
-612 -179 0
-613 -410 0
-613 -253 0
-613 -761 0
-613 -192 0
-613 -622 0
-613 -113 0
-613 -291 0
-613 -299 0
-613 -184 0
-613 -8 0
-614 -371 0
-614 -546 0
-614 -294 0
-614 -385 0
-614 -236 0
-614 -45 0
-615 -766 0
-615 -531 0
-615 -472 0
-615 -460 0
-615 -726 0
-615 -582 0
-615 -214 0
-615 -260 0
-615 -145 0
-615 -318 0
-616 -454 0
-616 -33 0
-616 -140 0
-616 -449 0
-616 -539 0
-616 -788 0
-616 -557 0
-616 -79 0
-616 -124 0
-616 -444 0
-617 -678 0
-617 -456 0
-617 -754 0
-617 -264 0
-617 -282 0
-617 -748 0
-617 -62 0
-617 -145 0
-618 -268 0
-618 -420 0
-618 -718 0
-619 -761 0
-619 -637 0
-619 -55 0
-619 -541 0
-619 -362 0
-620 -67 0
-620 -73 0
-620 -239 0
-620 -712 0
-620 -464 0
-620 -223 0
-621 -415 0
-621 -157 0
-621 -403 0
-621 -308 0
-621 -384 0
-622 -677 0
-622 -377 0
-622 -446 0
-622 -738 0
-623 -412 0
-623 -420 0
-623 -9 0
-623 -564 0
-623 -583 0
-623 -316 0
-623 -146 0
-624 -591 0
-624 -157 0
-624 -549 0
-624 -62 0
-624 -738 0
-624 -520 0
-624 -727 0
-625 -306 0
-625 -448 0
-625 -496 0
-625 -670 0
-625 -207 0
-625 -367 0
-625 -425 0
-625 -397 0
-626 -455 0
-626 -746 0
-626 -250 0
-626 -743 0
-626 -338 0
-626 -662 0
-626 -729 0
-626 -508 0
-626 -742 0
-627 -47 0
-627 -770 0
-627 -786 0
-627 -781 0
-627 -58 0
-627 -690 0
-627 -389 0
-628 -476 0
-628 -460 0
-628 -108 0
-628 -729 0
-628 -288 0
-628 -726 0
-628 -473 0
-630 -258 0
-630 -639 0
-630 -602 0
-630 -168 0
-630 -221 0
-630 -150 0
-631 -3 0
-631 -526 0
-632 -783 0
-632 -414 0
-632 -77 0
-632 -170 0
-632 -420 0
-633 -317 0
-633 -235 0
-633 -232 0
-633 -396 0
-633 -549 0
-633 -64 0
-633 -27 0
-633 -285 0
-633 -9 0
-633 -659 0
-634 -599 0
-634 -448 0
-634 -218 0
-634 -41 0
-634 -638 0
-634 -580 0
-634 -529 0
-634 -337 0
-635 -738 0
-635 -782 0
-635 -691 0
-635 -364 0
-635 -397 0
-635 -311 0
-636 -204 0
-636 -761 0
-636 -551 0
-636 -556 0
-636 -18 0
-636 -712 0
-636 -483 0
-636 -123 0
-636 -645 0
-637 -397 0
-637 -648 0
-637 -231 0
-637 -645 0
-637 -441 0
-637 -604 0
-637 -608 0
-637 -471 0
-638 -457 0
-638 -540 0
-638 -445 0
-638 -29 0
-638 -724 0
-638 -582 0
-639 -115 0
-639 -221 0
-639 -105 0
-639 -399 0
-639 -562 0
-640 -223 0
-640 -218 0
-640 -629 0
-640 -84 0
-640 -766 0
-641 -500 0
-641 -323 0
-641 -236 0
-641 -476 0
-641 -620 0
-641 -688 0
-641 -447 0
-642 -253 0
-642 -418 0
-642 -444 0
-642 -697 0
-642 -157 0
-642 -761 0
-642 -579 0
-642 -42 0
-642 -772 0
-642 -654 0
-643 -268 0
-643 -475 0
-643 -718 0
-643 -278 0
-643 -171 0
-643 -316 0
-643 -667 0
-644 -792 0
-644 -719 0
-644 -57 0
-644 -713 0
-644 -314 0
-644 -137 0
-644 -172 0
-644 -566 0
-645 -301 0
-645 -776 0
-645 -661 0
-645 -396 0
-645 -145 0
-645 -512 0
-646 -727 0
-646 -315 0
-646 -258 0
-646 -1 0
-646 -753 0
-646 -504 0
-646 -468 0
-646 -90 0
-647 -435 0
-647 -293 0
-647 -21 0
-647 -738 0
-647 -718 0
-647 -255 0
-648 -786 0
-648 -511 0
-648 -219 0
-648 -505 0
-648 -291 0
-648 -516 0
-648 -97 0
-648 -378 0
-649 -200 0
-649 -174 0
-649 -282 0
-649 -377 0
-649 -391 0
-649 -225 0
-649 -66 0
-650 -219 0
-650 -201 0
-650 -521 0
-650 -40 0
-650 -65 0
-651 -336 0
-651 -660 0
-651 -357 0
-651 -676 0
-651 -698 0
-651 -515 0
-651 -298 0
-652 -7 0
-652 -456 0
-652 -422 0
-652 -710 0
-652 -205 0
-652 -614 0
-652 -492 0
-653 -124 0
-653 -432 0
-653 -84 0
-653 -332 0
-653 -103 0
-653 -533 0
-653 -648 0
-654 -117 0
-654 -366 0
-654 -540 0
-654 -738 0
-654 -412 0
-655 -345 0
-655 -294 0
-655 -676 0
-655 -555 0
-655 -279 0
-655 -66 0
-655 -154 0
-656 -758 0
-656 -428 0
-656 -576 0
-656 -695 0
-656 -63 0
-656 -73 0
-656 -421 0
-657 -385 0
-657 -489 0
-657 -736 0
-657 -496 0
-657 -108 0
-657 -83 0
-657 -627 0
-658 -455 0
-658 -260 0
-658 -108 0
-658 -389 0
-658 -648 0
-658 -764 0
-658 -77 0
-658 -113 0
-659 -25 0
-659 -417 0
-659 -1 0
-659 -654 0
-660 -417 0
-660 -135 0
-660 -607 0
-660 -575 0
-660 -535 0
-660 -493 0
-661 -111 0
-661 -73 0
-661 -651 0
-661 -188 0
-661 -514 0
-661 -382 0
-662 -420 0
-662 -277 0
-662 -161 0
-662 -48 0
-662 -219 0
-662 -482 0
-663 -719 0
-663 -664 0
-663 -499 0
-663 -579 0
-663 -783 0
-663 -704 0
-664 -704 0
-664 -225 0
-664 -512 0
-664 -774 0
-664 -757 0
-664 -745 0
-664 -613 0
-665 -458 0
-665 -564 0
-665 -26 0
-665 -535 0
-665 -357 0
-665 -62 0
-666 -420 0
-666 -404 0
-666 -667 0
-666 -590 0
-666 -268 0
-667 -223 0
-667 -590 0
-668 -636 0
-668 -89 0
-668 -82 0
-668 -533 0
-668 -5 0
-668 -711 0
-668 -327 0
-668 -642 0
-668 -675 0
-669 -517 0
-669 -462 0
-669 -185 0
-669 -158 0
-669 -708 0
-669 -688 0
-669 -664 0
-669 -558 0
-670 -231 0
-670 -145 0
-670 -210 0
-670 -529 0
-670 -420 0
-670 -374 0
-670 -777 0
-670 -598 0
-671 -669 0
-671 -267 0
-671 -686 0
-671 -134 0
-671 -381 0
-672 -552 0
-672 -268 0
-672 -234 0
-672 -610 0
-672 -699 0
-672 -203 0
-672 -716 0
-673 -96 0
-673 -463 0
-673 -681 0
-673 -755 0
-673 -202 0
-673 -205 0
-673 -152 0
-673 -170 0
-673 -149 0
-674 -26 0
-674 -753 0
-674 -135 0
-674 -559 0
-674 -221 0
-674 -175 0
-674 -62 0
-674 -517 0
-674 -93 0
-675 -315 0
-675 -238 0
-675 -456 0
-675 -259 0
-675 -448 0
-676 -101 0
-676 -16 0
-676 -581 0
-676 -472 0
-676 -70 0
-677 -502 0
-677 -782 0
-677 -758 0
-677 -548 0
-677 -176 0
-678 -252 0
-678 -476 0
-678 -418 0
-678 -395 0
-678 -17 0
-678 -545 0
-678 -237 0
-678 -727 0
-678 -689 0
-679 -498 0
-679 -229 0
-679 -248 0
-679 -399 0
-679 -461 0
-679 -157 0
-679 -552 0
-679 -318 0
-680 -383 0
-680 -588 0
-680 -368 0
-680 -764 0
-680 -571 0
-680 -718 0
-680 -220 0
-680 -245 0
-681 -513 0
-681 -533 0
-681 -647 0
-681 -623 0
-681 -286 0
-681 -765 0
-681 -28 0
-681 -552 0
-682 -60 0
-682 -296 0
-682 -288 0
-682 -752 0
-682 -744 0
-682 -507 0
-682 -70 0
-682 -521 0
-683 -529 0
-683 -369 0
-683 -253 0
-683 -337 0
-683 -316 0
-683 -42 0
-684 -371 0
-684 -484 0
-684 -178 0
-684 -141 0
-684 -555 0
-685 -26 0
-685 -714 0
-685 -729 0
-685 -649 0
-685 -547 0
-685 -632 0
-685 -179 0
-685 -348 0
-685 -130 0
-686 -147 0
-686 -380 0
-686 -582 0
-686 -520 0
-688 -29 0
-688 -162 0
-688 -789 0
-688 -106 0
-688 -91 0
-688 -727 0
-688 -438 0
-689 -602 0
-689 -368 0
-689 -61 0
-689 -262 0
-689 -787 0
-690 -573 0
-690 -2 0
-690 -498 0
-690 -447 0
-690 -391 0
-691 -737 0
-691 -333 0
-691 -552 0
-691 -102 0
-691 -91 0
-692 -398 0
-692 -639 0
-692 -756 0
-692 -375 0
-692 -463 0
-692 -351 0
-692 -782 0
-692 -25 0
-693 -363 0
-693 -104 0
-693 -296 0
-693 -264 0
-693 -365 0
-693 -383 0
-693 -222 0
-694 -517 0
-694 -428 0
-694 -759 0
-694 -60 0
-694 -713 0
-694 -507 0
-694 -89 0
-694 -118 0
-694 -297 0
-694 -142 0
-695 -29 0
-695 -476 0
-695 -357 0
-695 -124 0
-695 -508 0
-695 -173 0
-696 -664 0
-696 -567 0
-696 -728 0
-696 -85 0
-696 -652 0
-696 -407 0
-696 -43 0
-696 -713 0
-696 -483 0
-696 -117 0
-697 -721 0
-697 -317 0
-697 -647 0
-697 -601 0
-697 -394 0
-697 -200 0
-697 -164 0
-697 -40 0
-698 -20 0
-698 -364 0
-698 -100 0
-698 -129 0
-698 -43 0
-698 -638 0
-698 -350 0
-699 -25 0
-699 -728 0
-699 -597 0
-699 -535 0
-699 -362 0
-699 -120 0
-700 -760 0
-700 -786 0
-700 -118 0
-700 -590 0
-700 -587 0
-700 -593 0
-700 -630 0
-701 -271 0
-701 -690 0
-701 -600 0
-701 -553 0
-701 -545 0
-701 -102 0
-702 -13 0
-702 -486 0
-702 -431 0
-702 -510 0
-702 -390 0
-702 -102 0
-703 -513 0
-703 -174 0
-703 -317 0
-703 -183 0
-703 -682 0
-703 -357 0
-703 -184 0
-704 -127 0
-704 -571 0
-704 -537 0
-704 -602 0
-704 -124 0
-705 -369 0
-705 -410 0
-705 -289 0
-706 -586 0
-706 -161 0
-706 -564 0
-706 -40 0
-706 -548 0
-707 -129 0
-707 -492 0
-707 -178 0
-707 -183 0
-707 -51 0
-707 -663 0
-708 -19 0
-708 -328 0
-708 -417 0
-708 -473 0
-708 -12 0
-708 -83 0
-708 -639 0
-708 -471 0
-708 -518 0
-709 -386 0
-709 -339 0
-709 -418 0
-709 -661 0
-709 -92 0
-710 -88 0
-710 -704 0
-710 -335 0
-710 -578 0
-710 -66 0
-710 -174 0
-711 -566 0
-711 -131 0
-711 -775 0
-711 -57 0
-711 -477 0
-711 -643 0
-711 -635 0
-711 -685 0
-711 -73 0
-712 -765 0
-712 -747 0
-712 -770 0
-712 -346 0
-712 -682 0
-712 -183 0
-712 -108 0
-712 -535 0
-713 -480 0
-713 -175 0
-713 -674 0
-713 -625 0
-713 -216 0
-713 -386 0
-713 -556 0
-713 -80 0
-714 -517 0
-714 -22 0
-714 -684 0
-714 -748 0
-714 -508 0
-714 -688 0
-714 -227 0
-715 -659 0
-715 -719 0
-715 -149 0
-715 -671 0
-715 -710 0
-715 -147 0
-715 -339 0
-715 -371 0
-716 -536 0
-716 -82 0
-716 -739 0
-716 -17 0
-716 -6 0
-716 -642 0
-716 -143 0
-717 -747 0
-717 -680 0
-717 -684 0
-717 -113 0
-717 -36 0
-717 -65 0
-717 -571 0
-718 -268 0
-718 -338 0
-719 -726 0
-719 -569 0
-719 -704 0
-719 -368 0
-720 -24 0
-720 -514 0
-720 -531 0
-720 -746 0
-720 -777 0
-720 -450 0
-720 -605 0
-720 -118 0
-720 -374 0
-720 -367 0
-721 -42 0
-721 -704 0
-721 -209 0
-721 -257 0
-721 -514 0
-722 -33 0
-722 -276 0
-722 -714 0
-722 -358 0
-722 -659 0
-722 -225 0
-722 -516 0
-722 -66 0
-722 -758 0
-723 -500 0
-723 -420 0
-723 -710 0
-723 -716 0
-723 -550 0
-723 -570 0
-724 -585 0
-724 -296 0
-724 -633 0
-724 -279 0
-724 -587 0
-724 -448 0
-725 -345 0
-725 -484 0
-725 -705 0
-725 -282 0
-725 -508 0
-725 -400 0
-725 -3 0
-725 -351 0
-725 -138 0
-726 -739 0
-726 -727 0
-726 -271 0
-726 -536 0
-726 -724 0
-727 -471 0
-727 -27 0
-727 -52 0
-727 -464 0
-727 -781 0
-727 -133 0
-728 -714 0
-728 -178 0
-728 -394 0
-728 -737 0
-728 -131 0
-728 -520 0
-729 -389 0
-729 -583 0
-729 -131 0
-729 -533 0
-729 -228 0
-730 -235 0
-730 -133 0
-730 -569 0
-730 -36 0
-730 -665 0
-730 -104 0
-730 -138 0
-731 -377 0
-731 -779 0
-731 -188 0
-731 -253 0
-731 -229 0
-731 -632 0
-731 -671 0
-731 -175 0
-732 -756 0
-732 -425 0
-732 -397 0
-732 -677 0
-732 -399 0
-732 -570 0
-732 -360 0
-732 -555 0
-732 -138 0
-733 -459 0
-733 -93 0
-733 -162 0
-733 -555 0
-733 -514 0
-733 -675 0
-733 -625 0
-733 -446 0
-734 -121 0
-734 -176 0
-734 -331 0
-734 -84 0
-734 -758 0
-734 -744 0
-734 -531 0
-735 -786 0
-735 -783 0
-735 -218 0
-735 -524 0
-735 -145 0
-735 -480 0
-736 -592 0
-736 -88 0
-736 -328 0
-736 -298 0
-736 -492 0
-736 -476 0
-736 -603 0
-737 -39 0
-737 -699 0
-737 -684 0
-737 -139 0
-737 -689 0
-737 -447 0
-738 -421 0
-738 -287 0
-738 -129 0
-739 -539 0
-739 -212 0
-739 -625 0
-739 -430 0
-739 -498 0
-740 -418 0
-740 -503 0
-740 -480 0
-740 -680 0
-740 -665 0
-741 -493 0
-741 -447 0
-741 -274 0
-741 -578 0
-741 -646 0
-741 -641 0
-741 -208 0
-741 -743 0
-741 -141 0
-742 -278 0
-742 -649 0
-742 -634 0
-742 -680 0
-742 -665 0
-743 -640 0
-743 -382 0
-743 -542 0
-743 -47 0
-743 -358 0
-743 -395 0
-744 -457 0
-744 -180 0
-744 -590 0
-744 -65 0
-744 -502 0
-744 -325 0
-744 -779 0
-745 -132 0
-745 -782 0
-745 -446 0
-745 -614 0
-745 -729 0
-745 -222 0
-746 -411 0
-746 -534 0
-746 -684 0
-746 -443 0
-746 -140 0
-746 -387 0
-747 -571 0
-747 -490 0
-747 -704 0
-747 -153 0
-747 -122 0
-747 -225 0
-747 -188 0
-748 -88 0
-748 -734 0
-748 -285 0
-748 -611 0
-748 -338 0
-749 -787 0
-749 -358 0
-749 -315 0
-749 -612 0
-750 -44 0
-750 -496 0
-750 -289 0
-750 -608 0
-750 -81 0
-751 -537 0
-751 -135 0
-751 -689 0
-751 -254 0
-752 -459 0
-752 -449 0
-752 -185 0
-752 -339 0
-752 -298 0
-752 -682 0
-752 -489 0
-753 -111 0
-753 -339 0
-753 -113 0
-753 -421 0
-753 -196 0
-754 -25 0
-754 -128 0
-754 -424 0
-754 -143 0
-754 -634 0
-754 -477 0
-754 -295 0
-755 -579 0
-755 -47 0
-755 -743 0
-755 -658 0
-755 -186 0
-755 -517 0
-756 -361 0
-756 -533 0
-756 -428 0
-756 -706 0
-756 -736 0
-756 -237 0
-756 -257 0
-756 -469 0
-757 -362 0
-757 -409 0
-757 -186 0
-757 -194 0
-757 -755 0
-757 -786 0
-757 -308 0
-757 -433 0
-757 -263 0
-758 -504 0
-758 -527 0
-758 -456 0
-758 -552 0
-758 -594 0
-759 -784 0
-759 -160 0
-759 -126 0
-759 -81 0
-759 -87 0
-760 -551 0
-760 -54 0
-760 -785 0
-760 -704 0
-760 -235 0
-760 -287 0
-760 -68 0
-761 -496 0
-761 -459 0
-761 -417 0
-761 -200 0
-761 -396 0
-761 -233 0
-761 -44 0
-762 -45 0
-762 -187 0
-762 -606 0
-763 -790 0
-763 -138 0
-763 -771 0
-763 -124 0
-763 -646 0
-763 -367 0
-763 -292 0
-763 -560 0
-763 -153 0
-764 -268 0
-764 -295 0
-764 -709 0
-764 -116 0
-764 -103 0
-765 -290 0
-765 -434 0
-765 -744 0
-765 -720 0
-765 -495 0
-765 -445 0
-765 -218 0
-766 -558 0
-766 -294 0
-766 -421 0
-766 -426 0
-766 -68 0
-766 -260 0
-767 -386 0
-767 -586 0
-767 -30 0
-767 -428 0
-767 -364 0
-767 -89 0
-767 -628 0
-767 -418 0
-768 -640 0
-768 -590 0
-768 -342 0
-768 -422 0
-768 -91 0
-768 -261 0
-768 -171 0
-768 -689 0
-769 -80 0
-769 -756 0
-769 -475 0
-769 -397 0
-769 -635 0
-769 -162 0
-769 -120 0
-769 -780 0
-770 -533 0
-770 -269 0
-770 -720 0
-770 -508 0
-770 -507 0
-771 -235 0
-771 -178 0
-771 -164 0
-771 -641 0
-771 -92 0
-771 -334 0
-772 -539 0
-772 -754 0
-772 -611 0
-772 -610 0
-772 -72 0
-772 -77 0
-772 -746 0
-773 -640 0
-773 -511 0
-773 -752 0
-773 -538 0
-773 -556 0
-773 -664 0
-774 -544 0
-774 -715 0
-774 -210 0
-774 -15 0
-774 -589 0
-774 -87 0
-775 -26 0
-775 -661 0
-775 -9 0
-775 -410 0
-775 -648 0
-775 -487 0
-775 -598 0
-775 -596 0
-775 -450 0
-775 -741 0
-776 -560 0
-776 -359 0
-776 -361 0
-776 -80 0
-776 -531 0
-776 -428 0
-776 -490 0
-776 -650 0
-777 -378 0
-777 -735 0
-777 -20 0
-777 -487 0
-777 -163 0
-777 -766 0
-777 -112 0
-777 -700 0
-778 -411 0
-778 -316 0
-778 -629 0
-778 -507 0
-778 -590 0
-779 -745 0
-779 -522 0
-779 -740 0
-779 -430 0
-779 -51 0
-779 -483 0
-780 -484 0
-780 -621 0
-780 -207 0
-780 -474 0
-781 -320 0
-781 -140 0
-781 -20 0
-781 -275 0
-781 -109 0
-781 -702 0
-781 -85 0
-782 -384 0
-782 -353 0
-782 -151 0
-782 -521 0
-783 -48 0
-783 -735 0
-783 -109 0
-783 -614 0
-783 -151 0
-784 -102 0
-784 -468 0
-784 -300 0
-784 -577 0
-784 -317 0
-785 -371 0
-785 -738 0
-785 -607 0
-785 -753 0
-785 -684 0
-785 -480 0
-786 -738 0
-786 -648 0
-786 -656 0
-787 -506 0
-787 -136 0
-787 -180 0
-788 -3 0
-788 -707 0
-788 -264 0
-788 -152 0
-788 -224 0
-788 -64 0
-789 -783 0
-789 -508 0
-789 -791 0
-789 -413 0
-789 -755 0
-789 -652 0
-789 -709 0
-790 -583 0
-790 -704 0
-790 -522 0
-790 -713 0
-790 -554 0
-790 -205 0
-791 -363 0
-791 -599 0
-791 -42 0
-791 -583 0
-791 -650 0
-791 -508 0
-791 -515 0
-791 -689 0
-792 -784 0
-792 -762 0
-792 -490 0
-792 -76 0
-792 -714 0
-792 -426 0
-792 -321 0
-793 -1 0
-794 -2 0
-795 -3 0
-796 -4 0
-797 -5 0
-798 -6 0
-799 -7 0
-800 -8 0
-801 -9 0
-802 -10 0
-803 -11 0
-804 -12 0
-805 -13 0
-806 -14 0
-807 -15 0
-808 -16 0
-809 -17 0
-810 -18 0
-811 -19 0
-812 -20 0
-813 -21 0
-814 -22 0
-815 -23 0
-816 -24 0
-817 -25 0
-818 -26 0
-819 -27 0
-820 -28 0
-821 -29 0
-822 -30 0
-823 -31 0
-824 -32 0
-825 -33 0
-826 -34 0
-827 -35 0
-828 -36 0
-829 -37 0
-830 -38 0
-831 -39 0
-832 -40 0
-833 -41 0
-834 -42 0
-835 -43 0
-836 -44 0
-837 -45 0
-838 -46 0
-839 -47 0
-840 -48 0
-841 -49 0
-842 -50 0
-843 -51 0
-844 -52 0
-845 -53 0
-846 -54 0
-847 -55 0
-848 -56 0
-849 -57 0
-850 -58 0
-851 -59 0
-852 -60 0
-853 -61 0
-854 -62 0
-855 -63 0
-856 -64 0
-857 -65 0
-858 -66 0
-859 -67 0
-860 -68 0
-861 -69 0
-862 -70 0
-863 -71 0
-864 -72 0
-865 -73 0
-866 -74 0
-867 -75 0
-868 -76 0
-869 -77 0
-870 -78 0
-871 -79 0
-872 -80 0
-873 -81 0
-874 -82 0
-875 -83 0
-876 -84 0
-877 -85 0
-878 -86 0
-879 -87 0
-880 -88 0
-881 -89 0
-882 -90 0
-883 -91 0
-884 -92 0
-885 -93 0
-886 -94 0
-887 -95 0
-888 -96 0
-889 -97 0
-890 -98 0
-891 -99 0
-892 -100 0
-893 -101 0
-894 -102 0
-895 -103 0
-896 -104 0
-897 -105 0
-898 -106 0
-899 -107 0
-900 -108 0
-901 -109 0
-902 -110 0
-903 -111 0
-904 -112 0
-905 -113 0
-906 -114 0
-907 -115 0
-908 -116 0
-909 -117 0
-910 -118 0
-911 -119 0
-912 -120 0
-913 -121 0
-914 -122 0
-915 -123 0
-916 -124 0
-917 -125 0
-918 -126 0
-919 -127 0
-920 -128 0
-921 -129 0
-922 -130 0
-923 -131 0
-924 -132 0
-925 -133 0
-926 -134 0
-927 -135 0
-928 -136 0
-929 -137 0
-930 -138 0
-931 -139 0
-932 -140 0
-933 -141 0
-934 -142 0
-935 -143 0
-936 -144 0
-937 -145 0
-938 -146 0
-939 -147 0
-940 -148 0
-941 -149 0
-942 -150 0
-943 -151 0
-944 -152 0
-945 -153 0
-946 -154 0
-947 -155 0
-948 -156 0
-949 -157 0
-950 -158 0
-951 -159 0
-952 -160 0
-953 -161 0
-954 -162 0
-955 -163 0
-956 -164 0
-957 -165 0
-958 -166 0
-959 -167 0
-960 -168 0
-961 -169 0
-962 -170 0
-963 -171 0
-964 -172 0
-965 -173 0
-966 -174 0
-967 -175 0
-968 -176 0
-969 -177 0
-970 -178 0
-971 -179 0
-972 -180 0
-973 -181 0
-974 -182 0
-975 -183 0
-976 -184 0
-977 -185 0
-978 -186 0
-979 -187 0
-980 -188 0
-981 -189 0
-982 -190 0
-983 -191 0
-984 -192 0
-985 -193 0
-986 -194 0
-987 -195 0
-988 -196 0
-989 -197 0
-990 -198 0
-991 -199 0
-992 -200 0
-993 -201 0
-994 -202 0
-995 -203 0
-996 -204 0
-997 -205 0
-998 -206 0
-999 -207 0
-1000 -208 0
-1001 -209 0
-1002 -210 0
-1003 -211 0
-1004 -212 0
-1005 -213 0
-1006 -214 0
-1007 -215 0
-1008 -216 0
-1009 -217 0
-1010 -218 0
-1011 -219 0
-1012 -220 0
-1013 -221 0
-1014 -222 0
-1015 -223 0
-1016 -224 0
-1017 -225 0
-1018 -226 0
-1019 -227 0
-1020 -228 0
-1021 -229 0
-1022 -230 0
-1023 -231 0
-1024 -232 0
-1025 -233 0
-1026 -234 0
-1027 -235 0
-1028 -236 0
-1029 -237 0
-1030 -238 0
-1031 -239 0
-1032 -240 0
-1033 -241 0
-1034 -242 0
-1035 -243 0
-1036 -244 0
-1037 -245 0
-1038 -246 0
-1039 -247 0
-1040 -248 0
-1041 -249 0
-1042 -250 0
-1043 -251 0
-1044 -252 0
-1045 -253 0
-1046 -254 0
-1047 -255 0
-1048 -256 0
-1049 -257 0
-1050 -258 0
-1051 -259 0
-1052 -260 0
-1053 -261 0
-1054 -262 0
-1055 -263 0
-1056 -264 0
-1057 -265 0
-1058 -266 0
-1059 -267 0
-1060 -268 0
-1061 -269 0
-1062 -270 0
-1063 -271 0
-1064 -272 0
-1065 -273 0
-1066 -274 0
-1067 -275 0
-1068 -276 0
-1069 -277 0
-1070 -278 0
-1071 -279 0
-1072 -280 0
-1073 -281 0
-1074 -282 0
-1075 -283 0
-1076 -284 0
-1077 -285 0
-1078 -286 0
-1079 -287 0
-1080 -288 0
-1081 -289 0
-1082 -290 0
-1083 -291 0
-1084 -292 0
-1085 -293 0
-1086 -294 0
-1087 -295 0
-1088 -296 0
-1089 -297 0
-1090 -298 0
-1091 -299 0
-1092 -300 0
-1093 -301 0
-1094 -302 0
-1095 -303 0
-1096 -304 0
-1097 -305 0
-1098 -306 0
-1099 -307 0
-1100 -308 0
-1101 -309 0
-1102 -310 0
-1103 -311 0
-1104 -312 0
-1105 -313 0
-1106 -314 0
-1107 -315 0
-1108 -316 0
-1109 -317 0
-1110 -318 0
-1111 -319 0
-1112 -320 0
-1113 -321 0
-1114 -322 0
-1115 -323 0
-1116 -324 0
-1117 -325 0
-1118 -326 0
-1119 -327 0
-1120 -328 0
-1121 -329 0
-1122 -330 0
-1123 -331 0
-1124 -332 0
-1125 -333 0
-1126 -334 0
-1127 -335 0
-1128 -336 0
-1129 -337 0
-1130 -338 0
-1131 -339 0
-1132 -340 0
-1133 -341 0
-1134 -342 0
-1135 -343 0
-1136 -344 0
-1137 -345 0
-1138 -346 0
-1139 -347 0
-1140 -348 0
-1141 -349 0
-1142 -350 0
-1143 -351 0
-1144 -352 0
-1145 -353 0
-1146 -354 0
-1147 -355 0
-1148 -356 0
-1149 -357 0
-1150 -358 0
-1151 -359 0
-1152 -360 0
-1153 -361 0
-1154 -362 0
-1155 -363 0
-1156 -364 0
-1157 -365 0
-1158 -366 0
-1159 -367 0
-1160 -368 0
-1161 -369 0
-1162 -370 0
-1163 -371 0
-1164 -372 0
-1165 -373 0
-1166 -374 0
-1167 -375 0
-1168 -376 0
-1169 -377 0
-1170 -378 0
-1171 -379 0
-1172 -380 0
-1173 -381 0
-1174 -382 0
-1175 -383 0
-1176 -384 0
-1177 -385 0
-1178 -386 0
-1179 -387 0
-1180 -388 0
-1181 -389 0
-1182 -390 0
-1183 -391 0
-1184 -392 0
-1185 -393 0
-1186 -394 0
-1187 -395 0
-1188 -396 0
-1189 -397 0
-1190 -398 0
-1191 -399 0
-1192 -400 0
-1193 -401 0
-1194 -402 0
-1195 -403 0
-1196 -404 0
-1197 -405 0
-1198 -406 0
-1199 -407 0
-1200 -408 0
-1201 -409 0
-1202 -410 0
-1203 -411 0
-1204 -412 0
-1205 -413 0
-1206 -414 0
-1207 -415 0
-1208 -416 0
-1209 -417 0
-1210 -418 0
-1211 -419 0
-1212 -420 0
-1213 -421 0
-1214 -422 0
-1215 -423 0
-1216 -424 0
-1217 -425 0
-1218 -426 0
-1219 -427 0
-1220 -428 0
-1221 -429 0
-1222 -430 0
-1223 -431 0
-1224 -432 0
-1225 -433 0
-1226 -434 0
-1227 -435 0
-1228 -436 0
-1229 -437 0
-1230 -438 0
-1231 -439 0
-1232 -440 0
-1233 -441 0
-1234 -442 0
-1235 -443 0
-1236 -444 0
-1237 -445 0
-1238 -446 0
-1239 -447 0
-1240 -448 0
-1241 -449 0
-1242 -450 0
-1243 -451 0
-1244 -452 0
-1245 -453 0
-1246 -454 0
-1247 -455 0
-1248 -456 0
-1249 -457 0
-1250 -458 0
-1251 -459 0
-1252 -460 0
-1253 -461 0
-1254 -462 0
-1255 -463 0
-1256 -464 0
-1257 -465 0
-1258 -466 0
-1259 -467 0
-1260 -468 0
-1261 -469 0
-1262 -470 0
-1263 -471 0
-1264 -472 0
-1265 -473 0
-1266 -474 0
-1267 -475 0
-1268 -476 0
-1269 -477 0
-1270 -478 0
-1271 -479 0
-1272 -480 0
-1273 -481 0
-1274 -482 0
-1275 -483 0
-1276 -484 0
-1277 -485 0
-1278 -486 0
-1279 -487 0
-1280 -488 0
-1281 -489 0
-1282 -490 0
-1283 -491 0
-1284 -492 0
-1285 -493 0
-1286 -494 0
-1287 -495 0
-1288 -496 0
-1289 -497 0
-1290 -498 0
-1291 -499 0
-1292 -500 0
-1293 -501 0
-1294 -502 0
-1295 -503 0
-1296 -504 0
-1297 -505 0
-1298 -506 0
-1299 -507 0
-1300 -508 0
-1301 -509 0
-1302 -510 0
-1303 -511 0
-1304 -512 0
-1305 -513 0
-1306 -514 0
-1307 -515 0
-1308 -516 0
-1309 -517 0
-1310 -518 0
-1311 -519 0
-1312 -520 0
-1313 -521 0
-1314 -522 0
-1315 -523 0
-1316 -524 0
-1317 -525 0
-1318 -526 0
-1319 -527 0
-1320 -528 0
-1321 -529 0
-1322 -530 0
-1323 -531 0
-1324 -532 0
-1325 -533 0
-1326 -534 0
-1327 -535 0
-1328 -536 0
-1329 -537 0
-1330 -538 0
-1331 -539 0
-1332 -540 0
-1333 -541 0
-1334 -542 0
-1335 -543 0
-1336 -544 0
-1337 -545 0
-1338 -546 0
-1339 -547 0
-1340 -548 0
-1341 -549 0
-1342 -550 0
-1343 -551 0
-1344 -552 0
-1345 -553 0
-1346 -554 0
-1347 -555 0
-1348 -556 0
-1349 -557 0
-1350 -558 0
-1351 -559 0
-1352 -560 0
-1353 -561 0
-1354 -562 0
-1355 -563 0
-1356 -564 0
-1357 -565 0
-1358 -566 0
-1359 -567 0
-1360 -568 0
-1361 -569 0
-1362 -570 0
-1363 -571 0
-1364 -572 0
-1365 -573 0
-1366 -574 0
-1367 -575 0
-1368 -576 0
-1369 -577 0
-1370 -578 0
-1371 -579 0
-1372 -580 0
-1373 -581 0
-1374 -582 0
-1375 -583 0
-1376 -584 0
-1377 -585 0
-1378 -586 0
-1379 -587 0
-1380 -588 0
-1381 -589 0
-1382 -590 0
-1383 -591 0
-1384 -592 0
-1385 -593 0
-1386 -594 0
-1387 -595 0
-1388 -596 0
-1389 -597 0
-1390 -598 0
-1391 -599 0
-1392 -600 0
-1393 -601 0
-1394 -602 0
-1395 -603 0
-1396 -604 0
-1397 -605 0
-1398 -606 0
-1399 -607 0
-1400 -608 0
-1401 -609 0
-1402 -610 0
-1403 -611 0
-1404 -612 0
-1405 -613 0
-1406 -614 0
-1407 -615 0
-1408 -616 0
-1409 -617 0
-1410 -618 0
-1411 -619 0
-1412 -620 0
-1413 -621 0
-1414 -622 0
-1415 -623 0
-1416 -624 0
-1417 -625 0
-1418 -626 0
-1419 -627 0
-1420 -628 0
-1421 -629 0
-1422 -630 0
-1423 -631 0
-1424 -632 0
-1425 -633 0
-1426 -634 0
-1427 -635 0
-1428 -636 0
-1429 -637 0
-1430 -638 0
-1431 -639 0
-1432 -640 0
-1433 -641 0
-1434 -642 0
-1435 -643 0
-1436 -644 0
-1437 -645 0
-1438 -646 0
-1439 -647 0
-1440 -648 0
-1441 -649 0
-1442 -650 0
-1443 -651 0
-1444 -652 0
-1445 -653 0
-1446 -654 0
-1447 -655 0
-1448 -656 0
-1449 -657 0
-1450 -658 0
-1451 -659 0
-1452 -660 0
-1453 -661 0
-1454 -662 0
-1455 -663 0
-1456 -664 0
-1457 -665 0
-1458 -666 0
-1459 -667 0
-1460 -668 0
-1461 -669 0
-1462 -670 0
-1463 -671 0
-1464 -672 0
-1465 -673 0
-1466 -674 0
-1467 -675 0
-1468 -676 0
-1469 -677 0
-1470 -678 0
-1471 -679 0
-1472 -680 0
-1473 -681 0
-1474 -682 0
-1475 -683 0
-1476 -684 0
-1477 -685 0
-1478 -686 0
-1479 -687 0
-1480 -688 0
-1481 -689 0
-1482 -690 0
-1483 -691 0
-1484 -692 0
-1485 -693 0
-1486 -694 0
-1487 -695 0
-1488 -696 0
-1489 -697 0
-1490 -698 0
-1491 -699 0
-1492 -700 0
-1493 -701 0
-1494 -702 0
-1495 -703 0
-1496 -704 0
-1497 -705 0
-1498 -706 0
-1499 -707 0
-1500 -708 0
-1501 -709 0
-1502 -710 0
-1503 -711 0
-1504 -712 0
-1505 -713 0
-1506 -714 0
-1507 -715 0
-1508 -716 0
-1509 -717 0
-1510 -718 0
-1511 -719 0
-1512 -720 0
-1513 -721 0
-1514 -722 0
-1515 -723 0
-1516 -724 0
-1517 -725 0
-1518 -726 0
-1519 -727 0
-1520 -728 0
-1521 -729 0
-1522 -730 0
-1523 -731 0
-1524 -732 0
-1525 -733 0
-1526 -734 0
-1527 -735 0
-1528 -736 0
-1529 -737 0
-1530 -738 0
-1531 -739 0
-1532 -740 0
-1533 -741 0
-1534 -742 0
-1535 -743 0
-1536 -744 0
-1537 -745 0
-1538 -746 0
-1539 -747 0
-1540 -748 0
-1541 -749 0
-1542 -750 0
-1543 -751 0
-1544 -752 0
-1545 -753 0
-1546 -754 0
-1547 -755 0
-1548 -756 0
-1549 -757 0
-1550 -758 0
-1551 -759 0
-1552 -760 0
-1553 -761 0
-1554 -762 0
-1555 -763 0
-1556 -764 0
-1557 -765 0
-1558 -766 0
-1559 -767 0
-1560 -768 0
-1561 -769 0
-1562 -770 0
-1563 -771 0
-1564 -772 0
-1565 -773 0
-1566 -774 0
-1567 -775 0
-1568 -776 0
-1569 -777 0
-1570 -778 0
-1571 -779 0
-1572 -780 0
-1573 -781 0
-1574 -782 0
-1575 -783 0
-1576 -784 0
-1577 -785 0
-1578 -786 0
-1579 -787 0
-1580 -788 0
-1581 -789 0
-1582 -790 0
-1583 -791 0
-1584 -792 0
793 -608 0
793 -528 0
793 -164 0
793 -589 0
793 -581 0
793 -61 0
793 -774 0
793 -281 0
794 -166 0
794 -66 0
794 -300 0
794 -714 0
795 -468 0
795 -540 0
795 -454 0
795 -113 0
795 -449 0
796 -751 0
796 -108 0
796 -650 0
796 -45 0
796 -665 0
796 -763 0
796 -397 0
797 -618 0
797 -483 0
797 -661 0
797 -392 0
797 -462 0
797 -426 0
798 -397 0
798 -691 0
798 -561 0
798 -710 0
798 -380 0
798 -173 0
798 -782 0
798 -351 0
799 -153 0
799 -188 0
799 -381 0
799 -364 0
799 -446 0
799 -627 0
800 -273 0
800 -636 0
800 -90 0
800 -500 0
800 -14 0
800 -556 0
801 -508 0
801 -133 0
801 -629 0
801 -260 0
801 -590 0
801 -402 0
801 -674 0
802 -499 0
802 -275 0
802 -27 0
802 -494 0
802 -488 0
802 -455 0
803 -247 0
803 -699 0
803 -733 0
803 -770 0
803 -256 0
804 -162 0
804 -99 0
804 -174 0
804 -302 0
804 -163 0
804 -475 0
805 -232 0
805 -702 0
805 -130 0
805 -300 0
805 -338 0
805 -60 0
806 -652 0
806 -289 0
806 -493 0
806 -440 0
806 -585 0
806 -347 0
806 -313 0
806 -517 0
806 -298 0
807 -394 0
807 -655 0
807 -775 0
807 -606 0
807 -657 0
807 -275 0
808 -133 0
808 -354 0
808 -100 0
808 -705 0
809 -153 0
809 -364 0
810 -315 0
810 -787 0
810 -581 0
810 -101 0
810 -447 0
810 -100 0
811 -605 0
811 -166 0
811 -98 0
811 -271 0
811 -414 0
811 -520 0
811 -204 0
812 -89 0
812 -484 0
812 -111 0
812 -386 0
812 -748 0
813 -159 0
813 -309 0
813 -426 0
813 -535 0
813 -459 0
813 -71 0
814 -580 0
814 -116 0
814 -618 0
814 -753 0
814 -5 0
814 -550 0
814 -412 0
814 -407 0
814 -614 0
815 -218 0
815 -196 0
815 -447 0
815 -603 0
815 -381 0
815 -316 0
815 -622 0
815 -311 0
816 -75 0
816 -331 0
816 -22 0
816 -463 0
816 -295 0
816 -441 0
816 -736 0
816 -743 0
817 -445 0
817 -331 0
817 -781 0
817 -17 0
817 -68 0
817 -649 0
817 -27 0
818 -76 0
818 -753 0
819 -643 0
819 -218 0
819 -691 0
819 -132 0
819 -236 0
819 -364 0
819 -402 0
820 -613 0
820 -445 0
820 -63 0
820 -261 0
820 -718 0
820 -781 0
820 -409 0
821 -143 0
821 -504 0
821 -636 0
821 -44 0
821 -381 0
821 -9 0
821 -526 0
821 -665 0
822 -55 0
822 -56 0
822 -453 0
822 -490 0
823 -178 0
823 -508 0
823 -234 0
823 -110 0
823 -326 0
823 -338 0
823 -92 0
823 -318 0
824 -501 0
824 -429 0
824 -658 0
824 -635 0
824 -496 0
824 -328 0
825 -301 0
825 -84 0
825 -304 0
825 -111 0
825 -240 0
825 -253 0
825 -410 0
826 -617 0
826 -357 0
826 -533 0
826 -204 0
826 -525 0
826 -594 0
826 -114 0
826 -463 0
827 -227 0
827 -472 0
827 -633 0
827 -66 0
827 -379 0
827 -57 0
827 -26 0
827 -671 0
828 -215 0
828 -648 0
828 -164 0
828 -676 0
828 -292 0
828 -489 0
828 -260 0
829 -689 0
829 -352 0
829 -420 0
829 -84 0
829 -633 0
829 -766 0
829 -548 0
829 -209 0
829 -312 0
830 -749 0
830 -165 0
830 -286 0
830 -236 0
830 -97 0
830 -42 0
830 -691 0
830 -174 0
831 -12 0
831 -712 0
831 -554 0
831 -561 0
831 -43 0
831 -329 0
832 -167 0
832 -122 0
832 -441 0
833 -62 0
833 -264 0
833 -594 0
833 -465 0
833 -470 0
833 -379 0
833 -275 0
834 -622 0
834 -69 0
835 -288 0
835 -32 0
835 -383 0
836 -136 0
836 -671 0
836 -619 0
836 -441 0
836 -65 0
837 -395 0
837 -679 0
837 -171 0
837 -18 0
837 -434 0
838 -628 0
838 -577 0
838 -425 0
838 -663 0
838 -552 0
838 -157 0
838 -651 0
838 -427 0
838 -484 0
838 -617 0
839 -382 0
839 -16 0
839 -26 0
839 -30 0
839 -723 0
840 -286 0
840 -558 0
840 -383 0
840 -236 0
840 -9 0
840 -749 0
841 -702 0
841 -524 0
841 -723 0
841 -384 0
841 -624 0
841 -277 0
841 -462 0
842 -664 0
842 -587 0
842 -675 0
842 -698 0
842 -138 0
842 -488 0
842 -19 0
843 -155 0
843 -122 0
843 -154 0
843 -603 0
843 -381 0
843 -265 0
843 -703 0
843 -769 0
843 -622 0
844 -155 0
844 -574 0
844 -538 0
844 -209 0
844 -48 0
844 -261 0
844 -767 0
844 -194 0
844 -414 0
845 -602 0
845 -35 0
845 -48 0
845 -634 0
845 -457 0
846 -395 0
846 -393 0
846 -612 0
846 -742 0
846 -644 0
846 -272 0
846 -427 0
847 -162 0
847 -789 0
847 -362 0
847 -494 0
847 -617 0
847 -315 0
847 -527 0
848 -134 0
848 -136 0
848 -790 0
848 -776 0
848 -487 0
848 -750 0
848 -257 0
849 -66 0
849 -385 0
849 -372 0
849 -90 0
849 -439 0
849 -599 0
849 -457 0
850 -179 0
850 -481 0
850 -488 0
850 -562 0
850 -758 0
850 -777 0
850 -446 0
851 -154 0
851 -123 0
851 -260 0
851 -288 0
852 -368 0
852 -672 0
852 -9 0
852 -245 0
853 -214 0
853 -554 0
853 -32 0
853 -387 0
853 -274 0
853 -267 0
854 -459 0
854 -423 0
854 -683 0
854 -172 0
855 -395 0
855 -597 0
855 -287 0
855 -770 0
855 -527 0
856 -497 0
856 -28 0
856 -480 0
856 -701 0
856 -429 0
857 -694 0
857 -169 0
857 -550 0
857 -191 0
858 -690 0
858 -288 0
858 -2 0
858 -270 0
858 -302 0
858 -649 0
858 -136 0
859 -624 0
859 -8 0
859 -488 0
859 -73 0
859 -522 0
859 -72 0
860 -8 0
860 -272 0
860 -646 0
860 -40 0
860 -632 0
861 -706 0
861 -660 0
861 -186 0
861 -238 0
861 -382 0
861 -226 0
861 -327 0
861 -490 0
862 -632 0
862 -326 0
862 -236 0
862 -742 0
862 -473 0
862 -84 0
863 -582 0
863 -640 0
863 -670 0
863 -454 0
863 -221 0
863 -438 0
863 -603 0
863 -480 0
864 -449 0
864 -608 0
864 -536 0
864 -579 0
865 -664 0
865 -386 0
865 -361 0
865 -496 0
865 -245 0
865 -517 0
865 -780 0
865 -715 0
865 -542 0
866 -708 0
866 -214 0
866 -60 0
866 -523 0
866 -202 0
866 -455 0
867 -721 0
867 -419 0
867 -294 0
867 -282 0
867 -709 0
867 -761 0
867 -184 0
868 -425 0
868 -622 0
868 -361 0
868 -492 0
868 -101 0
868 -782 0
868 -548 0
869 -195 0
869 -157 0
869 -288 0
869 -226 0
869 -667 0
869 -94 0
869 -290 0
869 -347 0
870 -720 0
870 -34 0
870 -437 0
870 -582 0
870 -560 0
870 -249 0
870 -67 0
870 -514 0
870 -440 0
870 -303 0
870 -261 0
870 -782 0
871 -453 0
871 -429 0
871 -579 0
871 -140 0
871 -323 0
871 -232 0
872 -726 0
872 -61 0
872 -156 0
872 -440 0
872 -500 0
873 -690 0
873 -751 0
873 -635 0
873 -495 0
873 -52 0
873 -17 0
873 -128 0
873 -765 0
873 -161 0
874 -686 0
874 -585 0
874 -342 0
874 -782 0
874 -614 0
874 -228 0
874 -414 0
874 -771 0
875 -656 0
875 -396 0
875 -188 0
875 -85 0
875 -792 0
875 -345 0
875 -44 0
876 -320 0
876 -647 0
876 -89 0
877 -480 0
877 -653 0
877 -407 0
877 -439 0
877 -717 0
877 -273 0
877 -639 0
877 -96 0
878 -403 0
878 -205 0
878 -224 0
878 -588 0
878 -547 0
879 -398 0
879 -392 0
879 -456 0
879 -203 0
879 -173 0
879 -493 0
879 -69 0
879 -547 0
880 -446 0
880 -529 0
880 -452 0
880 -624 0
880 -26 0
880 -787 0
881 -730 0
881 -123 0
881 -113 0
881 -593 0
882 -180 0
882 -513 0
882 -338 0
882 -487 0
882 -537 0
882 -745 0
883 -413 0
883 -402 0
883 -514 0
883 -521 0
883 -164 0
884 -637 0
884 -512 0
884 -590 0
884 -543 0
884 -539 0
884 -461 0
884 -646 0
885 -514 0
885 -21 0
885 -192 0
885 -149 0
885 -139 0
885 -415 0
885 -665 0
886 -300 0
886 -325 0
886 -184 0
886 -468 0
886 -353 0
886 -759 0
886 -39 0
887 -396 0
887 -72 0
887 -557 0
887 -644 0
887 -383 0
887 -779 0
887 -219 0
888 -691 0
888 -482 0
888 -723 0
888 -731 0
888 -243 0
888 -163 0
889 -557 0
889 -507 0
890 -192 0
890 -528 0
890 -382 0
890 -178 0
890 -475 0
890 -718 0
891 -659 0
891 -599 0
891 -181 0
891 -374 0
891 -349 0
891 -369 0
892 -118 0
892 -630 0
892 -540 0
892 -516 0
892 -502 0
892 -689 0
892 -154 0
893 -478 0
893 -699 0
893 -416 0
893 -186 0
893 -261 0
894 -222 0
894 -106 0
894 -42 0
894 -12 0
895 -442 0
895 -545 0
895 -205 0
895 -692 0
895 -65 0
895 -493 0
896 -618 0
896 -382 0
896 -504 0
896 -73 0
896 -60 0
896 -716 0
896 -415 0
896 -402 0
896 -546 0
897 -539 0
897 -521 0
897 -702 0
897 -204 0
897 -223 0
897 -759 0
897 -133 0
897 -429 0
897 -560 0
897 -24 0
898 -185 0
898 -751 0
898 -266 0
898 -549 0
898 -16 0
899 -367 0
899 -476 0
899 -306 0
899 -330 0
899 -108 0
899 -456 0
899 -563 0
899 -182 0
899 -646 0
899 -496 0
900 -287 0
900 -178 0
900 -89 0
900 -513 0
900 -199 0
901 -339 0
901 -498 0
901 -283 0
901 -621 0
901 -413 0
901 -237 0
901 -123 0
901 -228 0
902 -244 0
902 -398 0
902 -420 0
902 -646 0
902 -352 0
902 -316 0
903 -47 0
903 -548 0
903 -483 0
903 -357 0
903 -12 0
904 -127 0
904 -764 0
904 -772 0
904 -711 0
904 -726 0
904 -557 0
904 -282 0
904 -210 0
905 -752 0
905 -701 0
905 -583 0
906 -236 0
906 -198 0
906 -164 0
906 -308 0
906 -749 0
906 -158 0
906 -509 0
907 -457 0
907 -451 0
907 -747 0
907 -356 0
907 -509 0
907 -58 0
907 -293 0
908 -672 0
908 -553 0
908 -141 0
908 -16 0
908 -382 0
908 -336 0
908 -106 0
909 -165 0
909 -665 0
909 -622 0
909 -114 0
909 -494 0
909 -421 0
910 -30 0
910 -514 0
910 -61 0
910 -710 0
910 -236 0
910 -210 0
910 -608 0
911 -29 0
911 -533 0
911 -458 0
911 -771 0
911 -573 0
911 -27 0
911 -152 0
911 -623 0
912 -756 0
912 -464 0
912 -33 0
913 -128 0
913 -154 0
913 -89 0
913 -480 0
913 -536 0
913 -773 0
913 -32 0
914 -545 0
914 -455 0
914 -421 0
914 -558 0
914 -767 0
914 -436 0
915 -274 0
915 -45 0
915 -93 0
915 -593 0
915 -583 0
915 -783 0
916 -94 0
916 -736 0
916 -699 0
916 -215 0
916 -413 0
916 -24 0
917 -427 0
917 -759 0
917 -576 0
917 -36 0
917 -192 0
917 -240 0
917 -748 0
917 -414 0
918 -517 0
918 -108 0
918 -777 0
918 -355 0
918 -592 0
918 -174 0
918 -253 0
918 -38 0
919 -624 0
919 -70 0
919 -89 0
919 -243 0
919 -307 0
919 -570 0
920 -24 0
920 -243 0
920 -494 0
920 -415 0
920 -164 0
920 -102 0
921 -550 0
921 -632 0
921 -518 0
921 -99 0
921 -767 0
921 -773 0
921 -62 0
921 -552 0
922 -507 0
922 -151 0
922 -702 0
922 -197 0
922 -366 0
922 -609 0
923 -292 0
923 -19 0
923 -383 0
923 -227 0
923 -358 0
923 -395 0
924 -634 0
924 -399 0
924 -390 0
924 -323 0
924 -433 0
924 -305 0
924 -468 0
924 -347 0
924 -349 0
925 -700 0
925 -137 0
925 -456 0
925 -34 0
925 -299 0
926 -313 0
926 -597 0
926 -133 0
926 -396 0
927 -760 0
927 -721 0
927 -334 0
927 -204 0
927 -592 0
927 -47 0
928 -230 0
928 -493 0
928 -614 0
928 -405 0
928 -35 0
928 -466 0
929 -5 0
929 -565 0
929 -651 0
929 -49 0
929 -201 0
929 -771 0
929 -297 0
929 -580 0
930 -286 0
930 -713 0
930 -301 0
930 -315 0
930 -524 0
930 -445 0
931 -531 0
931 -311 0
931 -230 0
931 -733 0
932 -243 0
932 -411 0
933 -604 0
933 -653 0
933 -252 0
933 -506 0
933 -59 0
934 -512 0
934 -683 0
934 -586 0
934 -673 0
934 -240 0
934 -417 0
934 -648 0
935 -231 0
935 -445 0
935 -327 0
935 -264 0
935 -276 0
935 -765 0
936 -683 0
936 -368 0
936 -535 0
936 -353 0
936 -740 0
936 -26 0
937 -428 0
937 -540 0
937 -378 0
937 -379 0
937 -338 0
938 -575 0
938 -102 0
938 -766 0
938 -663 0
938 -148 0
938 -493 0
938 -453 0
938 -241 0
939 -257 0
939 -288 0
939 -500 0
939 -790 0
939 -403 0
940 -183 0
940 -93 0
940 -497 0
940 -7 0
940 -440 0
940 -607 0
940 -334 0
940 -422 0
940 -621 0
941 -594 0
941 -227 0
941 -705 0
941 -477 0
941 -776 0
942 -652 0
942 -493 0
942 -301 0
942 -703 0
942 -456 0
942 -485 0
942 -429 0
942 -422 0
943 -253 0
943 -288 0
943 -377 0
943 -145 0
943 -510 0
944 -237 0
944 -410 0
944 -559 0
944 -617 0
944 -327 0
944 -13 0
945 -84 0
945 -28 0
945 -411 0
945 -258 0
946 -681 0
946 -85 0
946 -344 0
947 -774 0
947 -541 0
947 -453 0
947 -219 0
947 -71 0
947 -503 0
948 -723 0
948 -536 0
948 -416 0
948 -256 0
948 -115 0
948 -42 0
948 -153 0
948 -743 0
948 -381 0
949 -748 0
949 -292 0
949 -29 0
949 -419 0
949 -527 0
950 -792 0
950 -739 0
950 -86 0
950 -110 0
950 -564 0
951 -28 0
951 -494 0
951 -539 0
951 -237 0
951 -11 0
951 -44 0
951 -327 0
951 -40 0
951 -135 0
951 -524 0
952 -770 0
952 -86 0
952 -236 0
952 -630 0
953 -10 0
953 -600 0
953 -646 0
953 -608 0
953 -172 0
953 -586 0
953 -327 0
953 -789 0
954 -294 0
954 -492 0
954 -662 0
954 -230 0
954 -669 0
954 -790 0
955 -321 0
955 -68 0
955 -591 0
955 -356 0
955 -120 0
955 -552 0
956 -454 0
956 -395 0
956 -720 0
957 -547 0
957 -590 0
957 -395 0
957 -120 0
957 -457 0
957 -422 0
958 -707 0
958 -11 0
958 -517 0
959 -9 0
959 -187 0
959 -108 0
959 -620 0
959 -507 0
960 -178 0
960 -580 0
960 -686 0
960 -278 0
960 -437 0
960 -136 0
960 -785 0
960 -247 0
961 -290 0
961 -259 0
961 -175 0
961 -361 0
961 -389 0
962 -307 0
962 -424 0
962 -257 0
962 -583 0
962 -774 0
962 -13 0
963 -411 0
963 -372 0
963 -687 0
963 -590 0
964 -145 0
964 -450 0
964 -739 0
964 -288 0
965 -659 0
965 -661 0
965 -253 0
965 -699 0
965 -381 0
965 -13 0
966 -338 0
966 -412 0
966 -760 0
967 -468 0
967 -755 0
967 -106 0
967 -696 0
967 -598 0
968 -691 0
968 -264 0
968 -513 0
968 -534 0
968 -498 0
969 -247 0
969 -546 0
969 -226 0
969 -221 0
969 -137 0
969 -65 0
969 -328 0
969 -45 0
969 -558 0
970 -373 0
970 -174 0
970 -320 0
970 -452 0
970 -95 0
970 -222 0
971 -501 0
971 -459 0
971 -63 0
971 -142 0
971 -164 0
971 -390 0
971 -84 0
972 -450 0
972 -267 0
972 -602 0
972 -697 0
972 -200 0
972 -693 0
972 -788 0
973 -569 0
973 -77 0
973 -346 0
973 -368 0
973 -257 0
973 -7 0
973 -465 0
974 -360 0
974 -80 0
974 -300 0
974 -204 0
974 -788 0
974 -47 0
974 -203 0
974 -216 0
974 -619 0
974 -338 0
974 -573 0
975 -239 0
975 -178 0
975 -488 0
975 -443 0
975 -691 0
975 -343 0
976 -720 0
976 -561 0
976 -161 0
976 -85 0
976 -176 0
976 -441 0
977 -406 0
977 -597 0
977 -49 0
977 -489 0
978 -458 0
978 -97 0
978 -253 0
978 -293 0
978 -560 0
978 -131 0
979 -487 0
979 -657 0
979 -315 0
979 -93 0
979 -228 0
980 -400 0
980 -652 0
980 -628 0
980 -625 0
980 -561 0
980 -498 0
980 -534 0
981 -28 0
981 -37 0
981 -155 0
981 -463 0
981 -392 0
982 -546 0
982 -37 0
982 -531 0
982 -157 0
982 -176 0
982 -348 0
982 -150 0
982 -302 0
982 -166 0
983 -198 0
983 -72 0
983 -689 0
983 -97 0
983 -522 0
984 -174 0
984 -55 0
984 -423 0
984 -262 0
984 -145 0
984 -256 0
985 -746 0
985 -363 0
985 -502 0
985 -436 0
985 -515 0
985 -60 0
986 -135 0
986 -306 0
986 -417 0
986 -80 0
987 -520 0
987 -550 0
987 -416 0
987 -6 0
987 -597 0
987 -518 0
987 -555 0
987 -299 0
988 -3 0
988 -487 0
988 -621 0
988 -407 0
988 -740 0
988 -504 0
988 -582 0
988 -169 0
988 -788 0
989 -631 0
989 -90 0
989 -538 0
989 -481 0
989 -330 0
989 -592 0
989 -54 0
989 -498 0
989 -499 0
990 -542 0
990 -166 0
990 -762 0
990 -615 0
990 -442 0
990 -154 0
990 -618 0
991 -480 0
991 -131 0
991 -663 0
991 -467 0
991 -85 0
991 -301 0
992 -87 0
992 -564 0
992 -445 0
992 -650 0
992 -140 0
992 -13 0
993 -478 0
993 -452 0
993 -554 0
993 -161 0
993 -564 0
993 -590 0
993 -473 0
993 -379 0
993 -737 0
993 -522 0
994 -522 0
994 -257 0
994 -447 0
994 -558 0
994 -529 0
995 -654 0
995 -426 0
995 -213 0
995 -704 0
995 -30 0
995 -145 0
995 -158 0
996 -396 0
996 -554 0
996 -429 0
996 -86 0
997 -464 0
997 -210 0
997 -629 0
998 -741 0
998 -281 0
998 -624 0
998 -392 0
998 -667 0
998 -333 0
998 -555 0
998 -166 0
998 -120 0
998 -31 0
999 -667 0
999 -70 0
999 -397 0
999 -345 0
999 -20 0
1000 -392 0
1000 -335 0
1000 -755 0
1000 -770 0
1000 -560 0
1000 -313 0
1000 -532 0
1001 -674 0
1001 -156 0
1001 -730 0
1001 -622 0
1001 -724 0
1002 -315 0
1002 -717 0
1002 -165 0
1002 -329 0
1002 -117 0
1003 -311 0
1003 -44 0
1003 -250 0
1003 -611 0
1003 -232 0
1003 -45 0
1004 -547 0
1004 -136 0
1004 -184 0
1004 -684 0
1004 -454 0
1004 -34 0
1004 -408 0
1005 -769 0
1005 -779 0
1005 -752 0
1005 -175 0
1005 -275 0
1005 -303 0
1005 -631 0
1005 -714 0
1006 -178 0
1006 -205 0
1006 -249 0
1006 -58 0
1006 -441 0
1006 -361 0
1006 -747 0
1007 -88 0
1007 -132 0
1007 -267 0
1007 -169 0
1007 -183 0
1007 -748 0
1007 -135 0
1008 -468 0
1008 -357 0
1008 -726 0
1008 -123 0
1008 -601 0
1008 -111 0
1008 -584 0
1008 -344 0
1009 -445 0
1009 -48 0
1009 -542 0
1009 -296 0
1009 -90 0
1009 -213 0
1009 -386 0
1009 -354 0
1009 -332 0
1009 -135 0
1009 -613 0
1010 -443 0
1010 -622 0
1010 -55 0
1010 -243 0
1011 -124 0
1011 -438 0
1011 -425 0
1011 -688 0
1011 -628 0
1011 -505 0
1011 -39 0
1011 -9 0
1012 -662 0
1012 -689 0
1012 -43 0
1012 -255 0
1012 -58 0
1012 -639 0
1012 -723 0
1012 -740 0
1013 -669 0
1013 -508 0
1013 -373 0
1013 -316 0
1013 -761 0
1013 -104 0
1014 -677 0
1014 -569 0
1014 -335 0
1014 -241 0
1014 -162 0
1015 -718 0
1015 -420 0
1015 -223 0
1015 -404 0
1015 -396 0
1015 -629 0
1015 -390 0
1016 -707 0
1016 -667 0
1016 -133 0
1016 -382 0
1016 -608 0
1016 -146 0
1017 -486 0
1017 -277 0
1017 -504 0
1017 -565 0
1017 -576 0
1017 -159 0
1017 -97 0
1017 -707 0
1018 -716 0
1018 -342 0
1018 -106 0
1018 -381 0
1019 -12 0
1019 -58 0
1019 -35 0
1019 -167 0
1019 -226 0
1019 -120 0
1019 -792 0
1020 -660 0
1020 -702 0
1020 -472 0
1020 -635 0
1020 -21 0
1020 -247 0
1021 -371 0
1021 -268 0
1021 -170 0
1021 -447 0
1022 -312 0
1022 -653 0
1022 -243 0
1022 -572 0
1022 -512 0
1023 -433 0
1023 -295 0
1023 -520 0
1023 -644 0
1023 -154 0
1023 -667 0
1023 -15 0
1024 -352 0
1024 -348 0
1024 -246 0
1024 -242 0
1024 -587 0
1024 -690 0
1024 -169 0
1024 -589 0
1024 -38 0
1025 -350 0
1025 -253 0
1025 -327 0
1025 -157 0
1025 -596 0
1025 -434 0
1025 -147 0
1025 -230 0
1026 -464 0
1026 -544 0
1026 -696 0
1026 -64 0
1026 -369 0
1026 -688 0
1026 -2 0
1026 -590 0
1026 -24 0
1027 -102 0
1027 -56 0
1027 -459 0
1027 -204 0
1027 -735 0
1027 -198 0
1027 -557 0
1028 -472 0
1028 -229 0
1028 -698 0
1028 -373 0
1029 -377 0
1029 -313 0
1029 -568 0
1029 -277 0
1029 -177 0
1029 -348 0
1029 -329 0
1029 -759 0
1029 -680 0
1030 -420 0
1030 -555 0
1030 -99 0
1030 -586 0
1030 -181 0
1030 -179 0
1030 -53 0
1031 -352 0
1031 -283 0
1031 -315 0
1031 -38 0
1031 -731 0
1031 -3 0
1031 -83 0
1031 -43 0
1032 -531 0
1032 -51 0
1032 -622 0
1032 -93 0
1032 -495 0
1032 -116 0
1032 -334 0
1033 -79 0
1033 -573 0
1033 -461 0
1033 -35 0
1033 -247 0
1033 -396 0
1033 -20 0
1033 -413 0
1034 -255 0
1034 -43 0
1034 -513 0
1034 -486 0
1034 -151 0
1036 -311 0
1036 -17 0
1036 -260 0
1036 -13 0
1036 -30 0
1036 -189 0
1036 -528 0
1036 -619 0
1037 -465 0
1037 -581 0
1037 -447 0
1037 -275 0
1037 -733 0
1037 -460 0
1037 -286 0
1038 -311 0
1038 -783 0
1038 -738 0
1038 -698 0
1038 -421 0
1038 -210 0
1038 -145 0
1039 -560 0
1039 -146 0
1039 -92 0
1039 -242 0
1039 -436 0
1040 -495 0
1040 -494 0
1040 -13 0
1040 -300 0
1040 -480 0
1040 -376 0
1040 -514 0
1040 -150 0
1041 -166 0
1041 -384 0
1041 -262 0
1041 -59 0
1041 -321 0
1041 -485 0
1041 -640 0
1042 -369 0
1042 -101 0
1042 -490 0
1042 -198 0
1042 -414 0
1042 -93 0
1042 -765 0
1043 -665 0
1043 -499 0
1043 -37 0
1043 -96 0
1043 -212 0
1043 -476 0
1043 -232 0
1043 -641 0
1043 -354 0
1044 -70 0
1044 -316 0
1044 -125 0
1045 -328 0
1045 -661 0
1045 -370 0
1045 -678 0
1045 -586 0
1045 -155 0
1046 -311 0
1046 -136 0
1046 -249 0
1046 -428 0
1046 -257 0
1046 -272 0
1046 -297 0
1046 -384 0
1047 -538 0
1047 -449 0
1047 -128 0
1047 -330 0
1047 -122 0
1047 -522 0
1048 -465 0
1048 -10 0
1048 -453 0
1048 -636 0
1048 -521 0
1048 -639 0
1048 -531 0
1049 -790 0
1049 -41 0
1049 -143 0
1050 -790 0
1050 -727 0
1050 -312 0
1050 -183 0
1050 -413 0
1050 -289 0
1050 -605 0
1051 -166 0
1051 -579 0
1051 -460 0
1051 -754 0
1051 -539 0
1051 -90 0
1051 -255 0
1052 -345 0
1052 -325 0
1052 -727 0
1052 -475 0
1052 -84 0
1053 -172 0
1053 -716 0
1053 -207 0
1053 -122 0
1053 -363 0
1053 -516 0
1054 -164 0
1054 -495 0
1054 -535 0
1054 -77 0
1054 -213 0
1054 -389 0
1054 -563 0
1055 -761 0
1055 -32 0
1055 -748 0
1055 -66 0
1055 -416 0
1056 -223 0
1056 -120 0
1056 -166 0
1056 -45 0
1056 -502 0
1056 -205 0
1056 -43 0
1056 -441 0
1057 -670 0
1057 -380 0
1057 -532 0
1057 -733 0
1057 -3 0
1058 -102 0
1058 -484 0
1058 -537 0
1058 -465 0
1058 -234 0
1058 -151 0
1058 -575 0
1058 -70 0
1058 -407 0
1059 -265 0
1059 -54 0
1059 -43 0
1059 -29 0
1060 -590 0
1061 -763 0
1061 -679 0
1061 -759 0
1061 -202 0
1061 -334 0
1061 -381 0
1061 -521 0
1062 -553 0
1062 -507 0
1062 -556 0
1062 -566 0
1062 -277 0
1062 -80 0
1062 -522 0
1062 -75 0
1063 -113 0
1063 -102 0
1063 -302 0
1063 -701 0
1063 -409 0
1064 -493 0
1064 -295 0
1064 -783 0
1064 -22 0
1064 -643 0
1064 -637 0
1065 -584 0
1065 -772 0
1065 -581 0
1065 -656 0
1065 -670 0
1065 -359 0
1065 -323 0
1065 -55 0
1066 -783 0
1066 -413 0
1066 -337 0
1066 -392 0
1066 -268 0
1066 -396 0
1067 -372 0
1067 -15 0
1067 -41 0
1067 -6 0
1068 -581 0
1068 -555 0
1068 -721 0
1068 -509 0
1068 -786 0
1069 -221 0
1069 -165 0
1069 -572 0
1069 -153 0
1070 -390 0
1070 -586 0
1070 -372 0
1070 -507 0
1070 -590 0
1070 -223 0
1070 -394 0
1070 -420 0
1070 -618 0
1070 -351 0
1071 -468 0
1071 -704 0
1071 -724 0
1071 -682 0
1071 -726 0
1071 -174 0
1071 -344 0
1071 -530 0
1072 -278 0
1072 -376 0
1072 -30 0
1072 -247 0
1072 -189 0
1072 -228 0
1072 -512 0
1073 -131 0
1073 -638 0
1073 -260 0
1073 -730 0
1073 -195 0
1073 -504 0
1073 -3 0
1074 -464 0
1074 -370 0
1074 -499 0
1074 -594 0
1074 -402 0
1074 -567 0
1075 -434 0
1075 -757 0
1075 -442 0
1075 -292 0
1075 -487 0
1075 -36 0
1075 -422 0
1076 -712 0
1076 -503 0
1076 -752 0
1076 -602 0
1076 -72 0
1076 -639 0
1076 -115 0
1076 -84 0
1077 -493 0
1077 -297 0
1077 -428 0
1077 -564 0
1077 -236 0
1077 -690 0
1078 -416 0
1078 -163 0
1078 -404 0
1078 -50 0
1078 -788 0
1078 -579 0
1079 -266 0
1079 -727 0
1079 -431 0
1079 -334 0
1079 -264 0
1079 -490 0
1080 -464 0
1080 -483 0
1080 -202 0
1080 -111 0
1080 -525 0
1081 -319 0
1081 -72 0
1081 -685 0
1081 -259 0
1081 -709 0
1082 -736 0
1082 -739 0
1082 -38 0
1082 -5 0
1082 -395 0
1082 -226 0
1083 -12 0
1083 -668 0
1083 -332 0
1083 -356 0
1083 -435 0
1083 -176 0
1083 -511 0
1083 -141 0
1083 -284 0
1083 -451 0
1083 -713 0
1084 -166 0
1084 -174 0
1084 -40 0
1084 -16 0
1085 -636 0
1085 -378 0
1085 -191 0
1085 -576 0
1085 -679 0
1085 -462 0
1086 -359 0
1086 -517 0
1086 -438 0
1086 -198 0
1086 -405 0
1086 -624 0
1087 -457 0
1087 -99 0
1087 -251 0
1087 -179 0
1087 -463 0
1087 -639 0
1088 -433 0
1088 -517 0
1088 -734 0
1088 -456 0
1088 -591 0
1088 -382 0
1088 -532 0
1089 -552 0
1089 -372 0
1089 -502 0
1089 -171 0
1089 -290 0
1089 -732 0
1089 -222 0
1090 -436 0
1090 -682 0
1090 -786 0
1090 -263 0
1090 -286 0
1090 -126 0
1091 -506 0
1091 -100 0
1091 -653 0
1091 -257 0
1091 -235 0
1091 -165 0
1091 -301 0
1092 -76 0
1092 -349 0
1092 -326 0
1092 -672 0
1092 -679 0
1092 -205 0
1093 -766 0
1093 -705 0
1093 -166 0
1093 -211 0
1093 -562 0
1093 -226 0
1093 -202 0
1093 -11 0
1094 -596 0
1094 -248 0
1094 -27 0
1094 -287 0
1094 -138 0
1095 -777 0
1095 -520 0
1095 -737 0
1095 -470 0
1095 -42 0
1095 -393 0
1095 -595 0
1095 -83 0
1095 -152 0
1096 -367 0
1096 -89 0
1096 -225 0
1096 -283 0
1096 -201 0
1096 -446 0
1096 -726 0
1097 -536 0
1097 -545 0
1097 -332 0
1097 -115 0
1097 -50 0
1097 -597 0
1097 -789 0
1097 -583 0
1097 -38 0
1098 -68 0
1098 -340 0
1098 -335 0
1098 -571 0
1098 -544 0
1098 -407 0
1098 -330 0
1098 -688 0
1099 -276 0
1099 -133 0
1099 -503 0
1099 -70 0
1099 -622 0
1099 -521 0
1099 -116 0
1099 -186 0
1100 -420 0
1100 -455 0
1100 -349 0
1100 -557 0
1101 -465 0
1101 -275 0
1101 -761 0
1101 -273 0
1101 -639 0
1101 -157 0
1101 -110 0
1101 -538 0
1102 -445 0
1102 -722 0
1102 -420 0
1102 -462 0
1102 -91 0
1102 -283 0
1102 -716 0
1102 -39 0
1103 -638 0
1103 -185 0
1103 -330 0
1103 -643 0
1104 -447 0
1104 -649 0
1104 -277 0
1104 -647 0
1104 -208 0
1104 -683 0
1104 -49 0
1104 -398 0
1105 -250 0
1105 -8 0
1105 -536 0
1105 -456 0
1105 -507 0
1106 -65 0
1106 -301 0
1106 -713 0
1106 -641 0
1106 -688 0
1106 -669 0
1106 -600 0
1107 -496 0
1107 -322 0
1107 -425 0
1108 -338 0
1108 -687 0
1108 -372 0
1108 -268 0
1108 -629 0
1108 -507 0
1109 -247 0
1109 -200 0
1109 -68 0
1109 -379 0
1109 -624 0
1110 -608 0
1110 -256 0
1110 -418 0
1110 -267 0
1110 -602 0
1110 -204 0
1110 -461 0
1110 -166 0
1110 -582 0
1111 -184 0
1111 -287 0
1111 -778 0
1111 -20 0
1111 -594 0
1111 -582 0
1111 -640 0
1111 -289 0
1111 -333 0
1112 -289 0
1112 -579 0
1112 -350 0
1112 -229 0
1112 -368 0
1112 -706 0
1112 -405 0
1112 -502 0
1113 -775 0
1113 -219 0
1113 -496 0
1113 -394 0
1114 -603 0
1114 -432 0
1114 -320 0
1114 -405 0
1114 -487 0
1114 -688 0
1115 -573 0
1115 -579 0
1115 -337 0
1115 -638 0
1115 -748 0
1115 -584 0
1115 -699 0
1115 -276 0
1116 -709 0
1116 -204 0
1116 -298 0
1116 -770 0
1116 -403 0
1116 -232 0
1117 -390 0
1117 -495 0
1117 -545 0
1117 -469 0
1117 -118 0
1117 -428 0
1117 -349 0
1117 -776 0
1118 -443 0
1118 -620 0
1118 -599 0
1118 -108 0
1118 -354 0
1118 -47 0
1118 -163 0
1118 -383 0
1119 -501 0
1119 -110 0
1119 -729 0
1119 -40 0
1119 -179 0
1120 -135 0
1120 -606 0
1120 -163 0
1120 -169 0
1120 -749 0
1121 -519 0
1121 -431 0
1121 -54 0
1121 -409 0
1121 -451 0
1121 -400 0
1121 -386 0
1121 -742 0
1122 -439 0
1122 -331 0
1122 -589 0
1122 -574 0
1123 -765 0
1123 -533 0
1123 -723 0
1123 -529 0
1123 -790 0
1123 -317 0
1123 -756 0
1123 -682 0
1124 -486 0
1124 -320 0
1124 -232 0
1124 -159 0
1124 -787 0
1124 -601 0
1125 -536 0
1125 -760 0
1125 -532 0
1125 -573 0
1125 -155 0
1125 -715 0
1125 -752 0
1126 -131 0
1126 -434 0
1126 -298 0
1126 -676 0
1126 -232 0
1126 -12 0
1127 -488 0
1127 -255 0
1127 -448 0
1127 -434 0
1128 -570 0
1128 -123 0
1128 -321 0
1128 -476 0
1128 -500 0
1129 -64 0
1129 -80 0
1129 -453 0
1129 -134 0
1129 -201 0
1129 -397 0
1129 -162 0
1130 -667 0
1130 -223 0
1131 -133 0
1131 -550 0
1131 -492 0
1131 -665 0
1132 -141 0
1132 -347 0
1132 -690 0
1132 -744 0
1132 -205 0
1132 -7 0
1132 -217 0
1132 -195 0
1133 -89 0
1133 -61 0
1133 -253 0
1133 -679 0
1133 -320 0
1133 -646 0
1133 -728 0
1133 -749 0
1133 -546 0
1134 -611 0
1134 -353 0
1134 -324 0
1134 -650 0
1134 -12 0
1134 -443 0
1134 -311 0
1134 -203 0
1134 -225 0
1134 -560 0
1135 -560 0
1135 -379 0
1135 -471 0
1135 -445 0
1135 -420 0
1135 -488 0
1135 -112 0
1135 -733 0
1135 -709 0
1136 -92 0
1136 -251 0
1136 -544 0
1136 -722 0
1136 -414 0
1136 -702 0
1136 -650 0
1136 -577 0
1137 -774 0
1137 -42 0
1137 -755 0
1137 -654 0
1137 -287 0
1137 -485 0
1137 -509 0
1138 -74 0
1138 -6 0
1138 -310 0
1138 -752 0
1138 -742 0
1139 -499 0
1139 -252 0
1139 -13 0
1139 -480 0
1139 -334 0
1139 -486 0
1139 -143 0
1139 -761 0
1141 -705 0
1141 -187 0
1141 -166 0
1141 -208 0
1141 -547 0
1141 -523 0
1141 -691 0
1142 -564 0
1142 -382 0
1142 -590 0
1142 -302 0
1142 -645 0
1142 -607 0
1142 -218 0
1142 -204 0
1143 -475 0
1143 -687 0
1143 -718 0
1143 -666 0
1143 -372 0
1144 -529 0
1144 -323 0
1144 -252 0
1144 -613 0
1144 -2 0
1144 -424 0
1144 -567 0
1144 -120 0
1145 -686 0
1145 -139 0
1145 -264 0
1145 -529 0
1145 -31 0
1146 -140 0
1146 -600 0
1146 -588 0
1146 -434 0
1146 -521 0
1146 -408 0
1146 -428 0
1147 -551 0
1147 -351 0
1147 -372 0
1147 -687 0
1147 -778 0
1147 -404 0
1148 -44 0
1148 -684 0
1148 -444 0
1148 -289 0
1148 -395 0
1148 -641 0
1149 -772 0
1149 -599 0
1149 -658 0
1149 -299 0
1149 -681 0
1150 -439 0
1150 -697 0
1150 -484 0
1150 -134 0
1150 -162 0
1150 -621 0
1150 -207 0
1150 -292 0
1151 -323 0
1151 -709 0
1151 -483 0
1151 -451 0
1151 -281 0
1151 -18 0
1152 -686 0
1152 -562 0
1152 -485 0
1152 -407 0
1152 -397 0
1152 -324 0
1152 -536 0
1152 -559 0
1153 -72 0
1153 -562 0
1153 -73 0
1153 -544 0
1153 -659 0
1153 -694 0
1153 -487 0
1154 -265 0
1154 -293 0
1154 -77 0
1154 -411 0
1154 -619 0
1155 -139 0
1155 -532 0
1155 -524 0
1155 -472 0
1155 -164 0
1155 -467 0
1155 -138 0
1156 -790 0
1156 -659 0
1156 -272 0
1156 -231 0
1156 -120 0
1156 -10 0
1156 -312 0
1157 -782 0
1157 -333 0
1157 -483 0
1157 -344 0
1157 -16 0
1157 -560 0
1158 -15 0
1158 -480 0
1158 -442 0
1158 -571 0
1158 -189 0
1158 -202 0
1158 -730 0
1158 -292 0
1159 -373 0
1159 -67 0
1159 -655 0
1159 -246 0
1159 -721 0
1159 -331 0
1159 -469 0
1160 -149 0
1160 -193 0
1160 -318 0
1160 -252 0
1160 -134 0
1160 -54 0
1160 -698 0
1161 -144 0
1161 -3 0
1161 -211 0
1161 -649 0
1161 -267 0
1162 -65 0
1162 -374 0
1162 -51 0
1162 -496 0
1162 -714 0
1162 -40 0
1162 -166 0
1162 -181 0
1162 -227 0
1163 -768 0
1163 -430 0
1163 -116 0
1163 -205 0
1163 -503 0
1164 -338 0
1164 -629 0
1165 -364 0
1165 -31 0
1165 -563 0
1165 -44 0
1165 -612 0
1165 -224 0
1166 -83 0
1166 -243 0
1166 -465 0
1166 -407 0
1166 -59 0
1167 -77 0
1167 -347 0
1167 -109 0
1167 -53 0
1167 -709 0
1167 -428 0
1167 -185 0
1167 -680 0
1168 -311 0
1168 -436 0
1168 -694 0
1168 -627 0
1169 -598 0
1169 -526 0
1169 -593 0
1169 -2 0
1169 -170 0
1170 -2 0
1170 -204 0
1170 -736 0
1170 -544 0
1170 -789 0
1170 -277 0
1171 -538 0
1171 -348 0
1171 -672 0
1171 -29 0
1171 -677 0
1172 -149 0
1172 -271 0
1172 -224 0
1172 -526 0
1172 -625 0
1173 -62 0
1173 -516 0
1173 -63 0
1173 -121 0
1173 -302 0
1174 -313 0
1174 -15 0
1174 -541 0
1174 -588 0
1174 -514 0
1174 -651 0
1174 -649 0
1175 -346 0
1175 -121 0
1175 -753 0
1175 -464 0
1175 -631 0
1175 -428 0
1175 -771 0
1176 -41 0
1176 -480 0
1176 -397 0
1176 -639 0
1177 -786 0
1177 -774 0
1177 -13 0
1177 -5 0
1177 -224 0
1177 -4 0
1177 -148 0
1177 -189 0
1178 -537 0
1178 -442 0
1178 -170 0
1178 -315 0
1179 -120 0
1179 -150 0
1179 -771 0
1179 -768 0
1179 -614 0
1179 -242 0
1180 -386 0
1180 -499 0
1180 -486 0
1180 -346 0
1180 -69 0
1180 -727 0
1180 -349 0
1180 -704 0
1180 -656 0
1181 -458 0
1181 -752 0
1181 -108 0
1181 -362 0
1181 -554 0
1181 -698 0
1182 -667 0
1182 -590 0
1183 -487 0
1183 -765 0
1183 -3 0
1183 -364 0
1183 -80 0
1183 -118 0
1184 -81 0
1184 -90 0
1184 -478 0
1184 -567 0
1184 -494 0
1184 -194 0
1184 -15 0
1184 -455 0
1185 -164 0
1185 -32 0
1185 -378 0
1185 -270 0
1185 -622 0
1185 -47 0
1185 -751 0
1185 -551 0
1185 -791 0
1186 -667 0
1187 -145 0
1187 -93 0
1187 -502 0
1187 -690 0
1188 -590 0
1188 -268 0
1188 -316 0
1188 -351 0
1188 -243 0
1188 -223 0
1189 -639 0
1189 -595 0
1189 -83 0
1189 -312 0
1190 -688 0
1190 -308 0
1190 -532 0
1190 -4 0
1190 -719 0
1191 -658 0
1191 -669 0
1191 -119 0
1191 -325 0
1191 -254 0
1191 -458 0
1191 -223 0
1191 -428 0
1191 -231 0
1192 -395 0
1192 -230 0
1192 -643 0
1192 -308 0
1192 -514 0
1192 -503 0
1192 -27 0
1192 -588 0
1192 -625 0
1193 -689 0
1193 -737 0
1193 -716 0
1193 -546 0
1193 -498 0
1193 -396 0
1193 -711 0
1194 -787 0
1194 -20 0
1194 -11 0
1194 -172 0
1195 -273 0
1195 -21 0
1195 -29 0
1195 -356 0
1195 -757 0
1195 -378 0
1197 -75 0
1197 -378 0
1197 -788 0
1197 -260 0
1197 -506 0
1198 -208 0
1198 -436 0
1198 -791 0
1198 -709 0
1198 -43 0
1198 -272 0
1198 -559 0
1199 -103 0
1199 -508 0
1199 -504 0
1199 -782 0
1199 -732 0
1199 -440 0
1199 -249 0
1199 -3 0
1200 -719 0
1200 -157 0
1200 -13 0
1200 -193 0
1200 -612 0
1201 -65 0
1201 -86 0
1201 -704 0
1201 -440 0
1201 -14 0
1201 -260 0
1201 -415 0
1202 -277 0
1202 -60 0
1202 -460 0
1202 -422 0
1203 -687 0
1203 -590 0
1204 -279 0
1204 -40 0
1204 -442 0
1204 -71 0
1204 -189 0
1205 -591 0
1205 -336 0
1205 -141 0
1205 -362 0
1205 -8 0
1205 -410 0
1205 -142 0
1206 -289 0
1206 -299 0
1206 -410 0
1206 -735 0
1207 -126 0
1207 -388 0
1207 -328 0
1207 -288 0
1207 -458 0
1208 -644 0
1208 -48 0
1208 -183 0
1208 -302 0
1208 -601 0
1208 -220 0
1208 -535 0
1208 -428 0
1209 -43 0
1209 -183 0
1209 -299 0
1209 -489 0
1209 -483 0
1209 -331 0
1209 -309 0
1210 -648 0
1210 -428 0
1210 -217 0
1210 -434 0
1210 -135 0
1211 -669 0
1211 -526 0
1211 -435 0
1211 -755 0
1211 -517 0
1211 -600 0
1211 -53 0
1211 -674 0
1213 -61 0
1213 -127 0
1213 -382 0
1213 -458 0
1213 -605 0
1213 -554 0
1214 -270 0
1214 -62 0
1214 -181 0
1214 -458 0
1214 -357 0
1214 -274 0
1215 -605 0
1215 -561 0
1215 -583 0
1215 -448 0
1215 -591 0
1215 -305 0
1215 -99 0
1216 -75 0
1216 -613 0
1216 -691 0
1216 -132 0
1216 -714 0
1216 -324 0
1216 -167 0
1216 -225 0
1217 -560 0
1217 -165 0
1217 -510 0
1217 -326 0
1217 -48 0
1217 -225 0
1218 -168 0
1218 -758 0
1218 -165 0
1218 -97 0
1218 -133 0
1219 -184 0
1219 -531 0
1219 -743 0
1220 -145 0
1220 -686 0
1220 -322 0
1220 -246 0
1221 -554 0
1221 -465 0
1221 -648 0
1221 -769 0
1221 -17 0
1221 -405 0
1221 -430 0
1221 -45 0
1222 -120 0
1222 -784 0
1222 -690 0
1222 -785 0
1222 -778 0
1222 -391 0
1222 -197 0
1223 -426 0
1223 -512 0
1223 -192 0
1223 -92 0
1223 -738 0
1223 -17 0
1223 -672 0
1223 -442 0
1224 -457 0
1224 -455 0
1224 -752 0
1224 -186 0
1224 -353 0
1224 -276 0
1224 -473 0
1224 -102 0
1224 -533 0
1224 -758 0
1225 -258 0
1225 -160 0
1225 -417 0
1225 -441 0
1225 -776 0
1225 -68 0
1225 -174 0
1226 -97 0
1226 -324 0
1226 -497 0
1226 -178 0
1226 -112 0
1226 -242 0
1226 -235 0
1227 -326 0
1227 -407 0
1227 -207 0
1227 -705 0
1227 -265 0
1227 -533 0
1227 -492 0
1228 -277 0
1228 -776 0
1228 -390 0
1228 -282 0
1228 -712 0
1229 -296 0
1229 -417 0
1229 -434 0
1229 -142 0
1229 -136 0
1229 -403 0
1229 -93 0
1229 -375 0
1229 -645 0
1230 -368 0
1230 -336 0
1230 -55 0
1230 -768 0
1230 -371 0
1230 -649 0
1230 -735 0
1231 -408 0
1231 -156 0
1231 -632 0
1231 -507 0
1231 -149 0
1231 -8 0
1232 -592 0
1232 -634 0
1232 -774 0
1232 -781 0
1232 -758 0
1232 -616 0
1232 -691 0
1233 -321 0
1233 -216 0
1233 -405 0
1233 -238 0
1233 -157 0
1233 -675 0
1234 -240 0
1234 -388 0
1234 -387 0
1234 -471 0
1234 -464 0
1234 -130 0
1234 -783 0
1235 -158 0
1235 -580 0
1235 -226 0
1235 -139 0
1235 -315 0
1235 -583 0
1235 -207 0
1235 -162 0
1236 -518 0
1236 -127 0
1236 -699 0
1236 -321 0
1236 -517 0
1236 -631 0
1236 -646 0
1236 -312 0
1237 -757 0
1237 -161 0
1237 -716 0
1237 -726 0
1237 -497 0
1237 -705 0
1237 -27 0
1237 -587 0
1238 -585 0
1238 -758 0
1238 -239 0
1238 -381 0
1238 -209 0
1239 -205 0
1239 -681 0
1239 -240 0
1239 -789 0
1240 -129 0
1240 -320 0
1240 -74 0
1240 -295 0
1240 -436 0
1240 -600 0
1240 -687 0
1241 -7 0
1241 -539 0
1241 -284 0
1241 -447 0
1241 -722 0
1242 -286 0
1242 -622 0
1242 -590 0
1242 -448 0
1242 -350 0
1242 -756 0
1242 -703 0
1242 -173 0
1242 -674 0
1243 -632 0
1243 -659 0
1243 -592 0
1243 -607 0
1243 -475 0
1243 -155 0
1243 -50 0
1243 -781 0
1244 -186 0
1244 -124 0
1244 -252 0
1244 -527 0
1244 -214 0
1244 -436 0
1244 -556 0
1244 -707 0
1244 -89 0
1245 -608 0
1245 -571 0
1245 -655 0
1245 -164 0
1245 -6 0
1245 -141 0
1246 -497 0
1246 -649 0
1246 -453 0
1246 -673 0
1246 -402 0
1246 -459 0
1246 -390 0
1246 -651 0
1247 -173 0
1247 -5 0
1247 -428 0
1247 -84 0
1247 -211 0
1247 -384 0
1247 -729 0
1248 -560 0
1248 -511 0
1248 -614 0
1249 -132 0
1249 -496 0
1249 -770 0
1249 -407 0
1249 -748 0
1250 -164 0
1250 -343 0
1250 -14 0
1250 -179 0
1250 -317 0
1251 -173 0
1251 -362 0
1251 -728 0
1252 -541 0
1252 -458 0
1252 -744 0
1252 -398 0
1252 -464 0
1253 -246 0
1253 -202 0
1253 -611 0
1253 -271 0
1253 -243 0
1253 -490 0
1254 -23 0
1254 -544 0
1254 -19 0
1255 -446 0
1255 -285 0
1255 -746 0
1255 -574 0
1255 -42 0
1255 -2 0
1256 -113 0
1256 -172 0
1256 -565 0
1256 -328 0
1256 -769 0
1257 -455 0
1257 -87 0
1257 -184 0
1257 -430 0
1257 -771 0
1257 -711 0
1258 -328 0
1258 -263 0
1258 -559 0
1258 -324 0
1258 -738 0
1258 -469 0
1258 -20 0
1258 -788 0
1259 -455 0
1259 -752 0
1259 -108 0
1259 -513 0
1259 -789 0
1259 -555 0
1259 -265 0
1259 -330 0
1260 -194 0
1260 -580 0
1260 -550 0
1260 -442 0
1260 -488 0
1261 -418 0
1261 -621 0
1261 -133 0
1261 -1 0
1261 -502 0
1261 -294 0
1261 -785 0
1262 -214 0
1262 -182 0
1262 -620 0
1262 -482 0
1262 -624 0
1262 -617 0
1263 -604 0
1263 -578 0
1263 -788 0
1263 -292 0
1263 -388 0
1263 -133 0
1264 -612 0
1264 -218 0
1264 -99 0
1264 -343 0
1264 -578 0
1264 -153 0
1264 -264 0
1265 -212 0
1265 -174 0
1265 -17 0
1265 -553 0
1266 -161 0
1266 -378 0
1266 -735 0
1266 -758 0
1266 -490 0
1266 -483 0
1266 -620 0
1266 -8 0
1266 -790 0
1267 -338 0
1268 -134 0
1268 -540 0
1268 -336 0
1268 -745 0
1268 -598 0
1268 -338 0
1269 -418 0
1269 -122 0
1269 -786 0
1269 -161 0
1269 -683 0
1269 -783 0
1269 -764 0
1270 -186 0
1270 -791 0
1270 -790 0
1270 -647 0
1270 -460 0
1270 -162 0
1270 -202 0
1270 -453 0
1270 -435 0
1271 -757 0
1271 -710 0
1271 -145 0
1271 -53 0
1271 -640 0
1271 -228 0
1272 -199 0
1272 -496 0
1272 -503 0
1273 -285 0
1273 -233 0
1273 -574 0
1273 -525 0
1273 -77 0
1273 -625 0
1273 -59 0
1274 -449 0
1274 -508 0
1274 -558 0
1274 -142 0
1274 -606 0
1274 -792 0
1274 -699 0
1274 -506 0
1275 -250 0
1275 -626 0
1275 -645 0
1275 -526 0
1276 -578 0
1276 -386 0
1276 -337 0
1276 -26 0
1276 -313 0
1277 -634 0
1277 -636 0
1277 -124 0
1277 -598 0
1277 -705 0
1277 -246 0
1277 -398 0
1277 -115 0
1278 -425 0
1278 -86 0
1278 -423 0
1278 -377 0
1279 -197 0
1279 -65 0
1279 -541 0
1279 -72 0
1279 -26 0
1279 -730 0
1280 -286 0
1280 -371 0
1280 -552 0
1280 -568 0
1280 -294 0
1280 -5 0
1280 -526 0
1281 -155 0
1281 -710 0
1281 -370 0
1281 -476 0
1281 -638 0
1281 -293 0
1281 -84 0
1282 -414 0
1282 -661 0
1282 -407 0
1282 -163 0
1282 -396 0
1283 -609 0
1283 -746 0
1283 -125 0
1283 -236 0
1283 -505 0
1283 -710 0
1283 -68 0
1283 -266 0
1283 -383 0
1283 -464 0
1283 -543 0
1283 -113 0
1284 -175 0
1284 -686 0
1284 -626 0
1284 -620 0
1284 -667 0
1284 -209 0
1284 -313 0
1284 -79 0
1285 -386 0
1285 -2 0
1285 -766 0
1285 -718 0
1286 -184 0
1286 -166 0
1286 -414 0
1286 -409 0
1286 -399 0
1287 -434 0
1287 -285 0
1287 -124 0
1287 -335 0
1287 -262 0
1287 -30 0
1287 -16 0
1288 -629 0
1289 -624 0
1289 -387 0
1289 -323 0
1289 -738 0
1289 -764 0
1290 -635 0
1290 -560 0
1290 -248 0
1290 -226 0
1290 -112 0
1290 -524 0
1291 -459 0
1291 -582 0
1291 -671 0
1291 -438 0
1291 -99 0
1291 -42 0
1292 -236 0
1292 -753 0
1292 -4 0
1292 -212 0
1292 -484 0
1292 -463 0
1292 -459 0
1293 -602 0
1293 -516 0
1293 -331 0
1293 -546 0
1293 -649 0
1293 -287 0
1293 -246 0
1293 -786 0
1293 -475 0
1294 -630 0
1294 -544 0
1294 -543 0
1294 -756 0
1294 -248 0
1294 -50 0
1295 -767 0
1295 -755 0
1295 -504 0
1295 -139 0
1295 -571 0
1295 -344 0
1296 -421 0
1296 -423 0
1296 -413 0
1296 -749 0
1296 -63 0
1296 -91 0
1297 -444 0
1297 -321 0
1297 -406 0
1297 -498 0
1297 -186 0
1297 -315 0
1297 -636 0
1297 -478 0
1298 -75 0
1298 -532 0
1298 -786 0
1298 -258 0
1298 -693 0
1298 -74 0
1298 -527 0
1299 -718 0
1299 -411 0
1299 -667 0
1299 -394 0
1300 -771 0
1300 -249 0
1300 -700 0
1300 -169 0
1301 -464 0
1301 -598 0
1301 -415 0
1301 -562 0
1301 -481 0
1302 -326 0
1302 -415 0
1302 -129 0
1302 -396 0
1302 -506 0
1302 -52 0
1302 -343 0
1302 -8 0
1303 -578 0
1303 -337 0
1303 -338 0
1303 -33 0
1303 -400 0
1303 -83 0
1303 -643 0
1304 -769 0
1304 -451 0
1304 -409 0
1304 -738 0
1305 -256 0
1305 -455 0
1305 -509 0
1305 -157 0
1305 -65 0
1305 -124 0
1306 -170 0
1306 -188 0
1306 -280 0
1306 -42 0
1306 -402 0
1306 -210 0
1307 -517 0
1307 -749 0
1307 -753 0
1307 -220 0
1307 -292 0
1307 -640 0
1307 -633 0
1307 -76 0
1307 -389 0
1308 -451 0
1308 -167 0
1308 -139 0
1308 -542 0
1308 -378 0
1309 -113 0
1309 -111 0
1309 -635 0
1309 -496 0
1309 -306 0
1310 -496 0
1310 -260 0
1310 -257 0
1310 -406 0
1310 -212 0
1310 -520 0
1310 -691 0
1311 -421 0
1311 -195 0
1311 -392 0
1311 -396 0
1311 -621 0
1311 -102 0
1311 -306 0
1311 -576 0
1311 -20 0
1311 -18 0
1311 -174 0
1312 -10 0
1312 -12 0
1312 -332 0
1312 -204 0
1312 -759 0
1312 -675 0
1313 -647 0
1313 -101 0
1313 -778 0
1313 -456 0
1313 -448 0
1314 -591 0
1314 -46 0
1314 -511 0
1314 -300 0
1314 -462 0
1315 -428 0
1315 -400 0
1315 -238 0
1315 -638 0
1315 -82 0
1315 -765 0
1315 -747 0
1315 -252 0
1316 -346 0
1316 -15 0
1316 -693 0
1316 -761 0
1316 -47 0
1316 -334 0
1316 -659 0
1316 -551 0
1317 -59 0
1317 -763 0
1317 -450 0
1317 -510 0
1317 -188 0
1317 -619 0
1317 -186 0
1317 -386 0
1317 -348 0
1318 -610 0
1318 -452 0
1318 -184 0
1318 -274 0
1319 -783 0
1319 -42 0
1319 -488 0
1319 -544 0
1319 -468 0
1319 -489 0
1319 -702 0
1320 -659 0
1320 -258 0
1320 -602 0
1320 -323 0
1320 -101 0
1321 -154 0
1321 -564 0
1321 -571 0
1321 -766 0
1322 -624 0
1322 -158 0
1322 -380 0
1322 -784 0
1322 -261 0
1322 -322 0
1322 -459 0
1323 -193 0
1323 -17 0
1323 -662 0
1323 -651 0
1324 -467 0
1324 -264 0
1324 -707 0
1324 -572 0
1324 -788 0
1324 -596 0
1324 -320 0
1324 -498 0
1325 -211 0
1326 -167 0
1326 -637 0
1326 -508 0
1326 -29 0
1326 -386 0
1326 -740 0
1326 -242 0
1326 -68 0
1326 -391 0
1327 -423 0
1327 -642 0
1327 -219 0
1327 -762 0
1327 -571 0
1327 -358 0
1328 -458 0
1328 -117 0
1328 -791 0
1328 -54 0
1328 -671 0
1328 -653 0
1328 -30 0
1329 -677 0
1329 -586 0
1329 -744 0
1329 -437 0
1329 -531 0
1329 -227 0
1329 -107 0
1330 -246 0
1330 -759 0
1330 -282 0
1330 -596 0
1330 -787 0
1330 -94 0
1330 -718 0
1331 -72 0
1331 -381 0
1331 -60 0
1331 -766 0
1331 -187 0
1332 -209 0
1332 -272 0
1332 -621 0
1332 -624 0
1332 -308 0
1332 -355 0
1332 -787 0
1332 -39 0
1333 -75 0
1333 -120 0
1333 -33 0
1333 -288 0
1333 -784 0
1333 -12 0
1333 -211 0
1334 -365 0
1334 -13 0
1334 -686 0
1334 -136 0
1334 -310 0
1335 -641 0
1335 -509 0
1335 -653 0
1335 -303 0
1335 -105 0
1335 -403 0
1336 -18 0
1336 -357 0
1336 -144 0
1337 -326 0
1337 -658 0
1337 -608 0
1337 -207 0
1337 -89 0
1337 -791 0
1337 -141 0
1337 -572 0
1337 -766 0
1338 -671 0
1338 -656 0
1338 -691 0
1339 -419 0
1339 -599 0
1339 -189 0
1339 -660 0
1339 -463 0
1339 -430 0
1339 -146 0
1340 -205 0
1340 -248 0
1340 -414 0
1340 -372 0
1341 -395 0
1341 -177 0
1341 -436 0
1341 -304 0
1341 -729 0
1341 -639 0
1341 -464 0
1342 -248 0
1342 -162 0
1342 -522 0
1342 -713 0
1342 -256 0
1343 -420 0
1343 -390 0
1343 -687 0
1343 -590 0
1344 -754 0
1344 -572 0
1344 -383 0
1344 -87 0
1344 -33 0
1345 -80 0
1345 -458 0
1345 -215 0
1345 -345 0
1345 -127 0
1346 -156 0
1346 -728 0
1346 -621 0
1346 -272 0
1346 -579 0
1346 -64 0
1346 -130 0
1346 -790 0
1347 -657 0
1347 -398 0
1347 -713 0
1347 -385 0
1347 -378 0
1347 -477 0
1348 -242 0
1348 -471 0
1348 -101 0
1348 -562 0
1348 -487 0
1348 -8 0
1349 -274 0
1349 -2 0
1349 -730 0
1349 -713 0
1349 -166 0
1349 -435 0
1350 -240 0
1350 -528 0
1350 -608 0
1350 -447 0
1350 -63 0
1350 -770 0
1350 -147 0
1350 -141 0
1351 -771 0
1351 -17 0
1351 -349 0
1351 -683 0
1351 -286 0
1351 -376 0
1351 -99 0
1352 -430 0
1352 -761 0
1352 -508 0
1353 -423 0
1353 -239 0
1353 -206 0
1353 -81 0
1353 -160 0
1353 -227 0
1353 -773 0
1354 -223 0
1354 -243 0
1355 -474 0
1355 -213 0
1355 -728 0
1355 -570 0
1355 -375 0
1355 -759 0
1355 -335 0
1355 -267 0
1356 -507 0
1356 -267 0
1356 -781 0
1356 -147 0
1356 -493 0
1357 -53 0
1357 -586 0
1357 -163 0
1357 -184 0
1357 -87 0
1357 -27 0
1357 -329 0
1357 -99 0
1357 -36 0
1358 -744 0
1358 -151 0
1358 -37 0
1358 -101 0
1358 -727 0
1359 -33 0
1359 -442 0
1359 -248 0
1359 -611 0
1359 -161 0
1359 -240 0
1359 -437 0
1360 -619 0
1360 -50 0
1360 -63 0
1360 -527 0
1360 -693 0
1360 -24 0
1361 -67 0
1361 -151 0
1361 -194 0
1362 -277 0
1362 -119 0
1362 -529 0
1362 -12 0
1362 -7 0
1362 -133 0
1362 -17 0
1363 -590 0
1363 -664 0
1363 -84 0
1363 -50 0
1363 -591 0
1364 -477 0
1364 -42 0
1364 -367 0
1364 -692 0
1364 -411 0
1364 -213 0
1364 -403 0
1365 -591 0
1365 -311 0
1365 -268 0
1365 -60 0
1365 -66 0
1366 -783 0
1366 -58 0
1366 -727 0
1366 -209 0
1366 -155 0
1366 -189 0
1367 -421 0
1367 -162 0
1367 -79 0
1367 -51 0
1367 -2 0
1367 -448 0
1367 -362 0
1368 -338 0
1368 -370 0
1368 -387 0
1368 -675 0
1368 -59 0
1368 -314 0
1368 -523 0
1369 -6 0
1369 -647 0
1369 -500 0
1369 -391 0
1369 -553 0
1369 -103 0
1369 -549 0
1369 -381 0
1370 -723 0
1370 -402 0
1370 -425 0
1370 -292 0
1370 -113 0
1370 -742 0
1371 -130 0
1371 -440 0
1371 -521 0
1371 -277 0
1371 -596 0
1371 -749 0
1372 -537 0
1372 -29 0
1372 -620 0
1372 -195 0
1372 -64 0
1372 -591 0
1372 -176 0
1372 -136 0
1373 -229 0
1373 -282 0
1373 -606 0
1373 -103 0
1373 -240 0
1373 -267 0
1373 -50 0
1373 -106 0
1374 -74 0
1374 -753 0
1374 -257 0
1374 -115 0
1374 -428 0
1374 -68 0
1374 -336 0
1375 -383 0
1375 -378 0
1375 -721 0
1375 -541 0
1375 -362 0
1376 -42 0
1376 -255 0
1376 -300 0
1376 -476 0
1376 -619 0
1376 -680 0
1376 -301 0
1377 -108 0
1377 -371 0
1377 -123 0
1377 -12 0
1377 -97 0
1378 -667 0
1379 -259 0
1379 -204 0
1379 -763 0
1379 -437 0
1379 -493 0
1380 -447 0
1380 -313 0
1380 -102 0
1380 -95 0
1380 -739 0
1381 -420 0
1381 -412 0
1381 -330 0
1381 -169 0
1381 -612 0
1381 -224 0
1381 -465 0
1381 -291 0
1383 -173 0
1383 -79 0
1383 -638 0
1383 -471 0
1383 -382 0
1384 -237 0
1384 -591 0
1384 -624 0
1384 -529 0
1384 -243 0
1384 -49 0
1384 -724 0
1385 -44 0
1385 -127 0
1385 -772 0
1385 -415 0
1385 -309 0
1385 -59 0
1385 -70 0
1385 -21 0
1385 -173 0
1386 -242 0
1386 -513 0
1386 -228 0
1386 -788 0
1386 -249 0
1386 -514 0
1387 -20 0
1387 -14 0
1387 -762 0
1387 -454 0
1387 -732 0
1387 -240 0
1387 -181 0
1387 -126 0
1387 -579 0
1387 -362 0
1388 -115 0
1388 -161 0
1388 -477 0
1388 -197 0
1388 -16 0
1388 -358 0
1389 -480 0
1389 -418 0
1389 -589 0
1389 -593 0
1389 -272 0
1389 -641 0
1389 -540 0
1390 -737 0
1390 -194 0
1390 -546 0
1390 -134 0
1390 -141 0
1390 -160 0
1391 -506 0
1391 -97 0
1391 -772 0
1391 -609 0
1391 -230 0
1391 -339 0
1391 -603 0
1392 -378 0
1392 -311 0
1392 -241 0
1392 -743 0
1392 -744 0
1392 -658 0
1392 -758 0
1393 -87 0
1393 -79 0
1393 -408 0
1393 -748 0
1393 -207 0
1393 -161 0
1393 -59 0
1394 -424 0
1394 -258 0
1394 -215 0
1394 -719 0
1395 -62 0
1395 -619 0
1395 -665 0
1395 -124 0
1395 -377 0
1395 -679 0
1395 -386 0
1395 -366 0
1396 -480 0
1396 -454 0
1396 -5 0
1396 -728 0
1396 -415 0
1396 -292 0
1397 -27 0
1397 -408 0
1397 -301 0
1397 -689 0
1397 -103 0
1397 -326 0
1398 -715 0
1398 -573 0
1398 -678 0
1398 -647 0
1399 -339 0
1399 -724 0
1399 -328 0
1399 -458 0
1399 -212 0
1399 -600 0
1400 -287 0
1400 -221 0
1400 -118 0
1400 -172 0
1400 -90 0
1400 -549 0
1401 -562 0
1401 -138 0
1401 -387 0
1401 -740 0
1401 -9 0
1401 -397 0
1401 -700 0
1401 -583 0
1401 -368 0
1401 -116 0
1402 -742 0
1402 -278 0
1402 -428 0
1402 -163 0
1402 -559 0
1402 -125 0
1402 -214 0
1402 -183 0
1403 -513 0
1403 -433 0
1403 -101 0
1403 -131 0
1403 -243 0
1403 -52 0
1403 -478 0
1403 -546 0
1403 -50 0
1404 -58 0
1404 -533 0
1404 -260 0
1404 -155 0
1404 -228 0
1404 -92 0
1404 -689 0
1404 -179 0
1405 -410 0
1405 -253 0
1405 -761 0
1405 -192 0
1405 -622 0
1405 -113 0
1405 -291 0
1405 -299 0
1405 -184 0
1405 -8 0
1406 -371 0
1406 -546 0
1406 -294 0
1406 -385 0
1406 -236 0
1406 -45 0
1407 -766 0
1407 -531 0
1407 -472 0
1407 -460 0
1407 -726 0
1407 -582 0
1407 -214 0
1407 -260 0
1407 -145 0
1407 -318 0
1408 -454 0
1408 -33 0
1408 -140 0
1408 -449 0
1408 -539 0
1408 -788 0
1408 -557 0
1408 -79 0
1408 -124 0
1408 -444 0
1409 -678 0
1409 -456 0
1409 -754 0
1409 -264 0
1409 -282 0
1409 -748 0
1409 -62 0
1409 -145 0
1410 -268 0
1410 -420 0
1410 -718 0
1411 -761 0
1411 -637 0
1411 -55 0
1411 -541 0
1411 -362 0
1412 -67 0
1412 -73 0
1412 -239 0
1412 -712 0
1412 -464 0
1412 -223 0
1413 -415 0
1413 -157 0
1413 -403 0
1413 -308 0
1413 -384 0
1414 -677 0
1414 -377 0
1414 -446 0
1414 -738 0
1415 -412 0
1415 -420 0
1415 -9 0
1415 -564 0
1415 -583 0
1415 -316 0
1415 -146 0
1416 -591 0
1416 -157 0
1416 -549 0
1416 -62 0
1416 -738 0
1416 -520 0
1416 -727 0
1417 -306 0
1417 -448 0
1417 -496 0
1417 -670 0
1417 -207 0
1417 -367 0
1417 -425 0
1417 -397 0
1418 -455 0
1418 -746 0
1418 -250 0
1418 -743 0
1418 -338 0
1418 -662 0
1418 -729 0
1418 -508 0
1418 -742 0
1419 -47 0
1419 -770 0
1419 -786 0
1419 -781 0
1419 -58 0
1419 -690 0
1419 -389 0
1420 -476 0
1420 -460 0
1420 -108 0
1420 -729 0
1420 -288 0
1420 -726 0
1420 -473 0
1422 -258 0
1422 -639 0
1422 -602 0
1422 -168 0
1422 -221 0
1422 -150 0
1423 -3 0
1423 -526 0
1424 -783 0
1424 -414 0
1424 -77 0
1424 -170 0
1424 -420 0
1425 -317 0
1425 -235 0
1425 -232 0
1425 -396 0
1425 -549 0
1425 -64 0
1425 -27 0
1425 -285 0
1425 -9 0
1425 -659 0
1426 -599 0
1426 -448 0
1426 -218 0
1426 -41 0
1426 -638 0
1426 -580 0
1426 -529 0
1426 -337 0
1427 -738 0
1427 -782 0
1427 -691 0
1427 -364 0
1427 -397 0
1427 -311 0
1428 -204 0
1428 -761 0
1428 -551 0
1428 -556 0
1428 -18 0
1428 -712 0
1428 -483 0
1428 -123 0
1428 -645 0
1429 -397 0
1429 -648 0
1429 -231 0
1429 -645 0
1429 -441 0
1429 -604 0
1429 -608 0
1429 -471 0
1430 -457 0
1430 -540 0
1430 -445 0
1430 -29 0
1430 -724 0
1430 -582 0
1431 -115 0
1431 -221 0
1431 -105 0
1431 -399 0
1431 -562 0
1432 -223 0
1432 -218 0
1432 -629 0
1432 -84 0
1432 -766 0
1433 -500 0
1433 -323 0
1433 -236 0
1433 -476 0
1433 -620 0
1433 -688 0
1433 -447 0
1434 -253 0
1434 -418 0
1434 -444 0
1434 -697 0
1434 -157 0
1434 -761 0
1434 -579 0
1434 -42 0
1434 -772 0
1434 -654 0
1435 -268 0
1435 -475 0
1435 -718 0
1435 -278 0
1435 -171 0
1435 -316 0
1435 -667 0
1436 -792 0
1436 -719 0
1436 -57 0
1436 -713 0
1436 -314 0
1436 -137 0
1436 -172 0
1436 -566 0
1437 -301 0
1437 -776 0
1437 -661 0
1437 -396 0
1437 -145 0
1437 -512 0
1438 -727 0
1438 -315 0
1438 -258 0
1438 -1 0
1438 -753 0
1438 -504 0
1438 -468 0
1438 -90 0
1439 -435 0
1439 -293 0
1439 -21 0
1439 -738 0
1439 -718 0
1439 -255 0
1440 -786 0
1440 -511 0
1440 -219 0
1440 -505 0
1440 -291 0
1440 -516 0
1440 -97 0
1440 -378 0
1441 -200 0
1441 -174 0
1441 -282 0
1441 -377 0
1441 -391 0
1441 -225 0
1441 -66 0
1442 -219 0
1442 -201 0
1442 -521 0
1442 -40 0
1442 -65 0
1443 -336 0
1443 -660 0
1443 -357 0
1443 -676 0
1443 -698 0
1443 -515 0
1443 -298 0
1444 -7 0
1444 -456 0
1444 -422 0
1444 -710 0
1444 -205 0
1444 -614 0
1444 -492 0
1445 -124 0
1445 -432 0
1445 -84 0
1445 -332 0
1445 -103 0
1445 -533 0
1445 -648 0
1446 -117 0
1446 -366 0
1446 -540 0
1446 -738 0
1446 -412 0
1447 -345 0
1447 -294 0
1447 -676 0
1447 -555 0
1447 -279 0
1447 -66 0
1447 -154 0
1448 -758 0
1448 -428 0
1448 -576 0
1448 -695 0
1448 -63 0
1448 -73 0
1448 -421 0
1449 -385 0
1449 -489 0
1449 -736 0
1449 -496 0
1449 -108 0
1449 -83 0
1449 -627 0
1450 -455 0
1450 -260 0
1450 -108 0
1450 -389 0
1450 -648 0
1450 -764 0
1450 -77 0
1450 -113 0
1451 -25 0
1451 -417 0
1451 -1 0
1451 -654 0
1452 -417 0
1452 -135 0
1452 -607 0
1452 -575 0
1452 -535 0
1452 -493 0
1453 -111 0
1453 -73 0
1453 -651 0
1453 -188 0
1453 -514 0
1453 -382 0
1454 -420 0
1454 -277 0
1454 -161 0
1454 -48 0
1454 -219 0
1454 -482 0
1455 -719 0
1455 -664 0
1455 -499 0
1455 -579 0
1455 -783 0
1455 -704 0
1456 -704 0
1456 -225 0
1456 -512 0
1456 -774 0
1456 -757 0
1456 -745 0
1456 -613 0
1457 -458 0
1457 -564 0
1457 -26 0
1457 -535 0
1457 -357 0
1457 -62 0
1458 -420 0
1458 -404 0
1458 -667 0
1458 -590 0
1458 -268 0
1459 -223 0
1459 -590 0
1460 -636 0
1460 -89 0
1460 -82 0
1460 -533 0
1460 -5 0
1460 -711 0
1460 -327 0
1460 -642 0
1460 -675 0
1461 -517 0
1461 -462 0
1461 -185 0
1461 -158 0
1461 -708 0
1461 -688 0
1461 -664 0
1461 -558 0
1462 -231 0
1462 -145 0
1462 -210 0
1462 -529 0
1462 -420 0
1462 -374 0
1462 -777 0
1462 -598 0
1463 -669 0
1463 -267 0
1463 -686 0
1463 -134 0
1463 -381 0
1464 -552 0
1464 -268 0
1464 -234 0
1464 -610 0
1464 -699 0
1464 -203 0
1464 -716 0
1465 -96 0
1465 -463 0
1465 -681 0
1465 -755 0
1465 -202 0
1465 -205 0
1465 -152 0
1465 -170 0
1465 -149 0
1466 -26 0
1466 -753 0
1466 -135 0
1466 -559 0
1466 -221 0
1466 -175 0
1466 -62 0
1466 -517 0
1466 -93 0
1467 -315 0
1467 -238 0
1467 -456 0
1467 -259 0
1467 -448 0
1468 -101 0
1468 -16 0
1468 -581 0
1468 -472 0
1468 -70 0
1469 -502 0
1469 -782 0
1469 -758 0
1469 -548 0
1469 -176 0
1470 -252 0
1470 -476 0
1470 -418 0
1470 -395 0
1470 -17 0
1470 -545 0
1470 -237 0
1470 -727 0
1470 -689 0
1471 -498 0
1471 -229 0
1471 -248 0
1471 -399 0
1471 -461 0
1471 -157 0
1471 -552 0
1471 -318 0
1472 -383 0
1472 -588 0
1472 -368 0
1472 -764 0
1472 -571 0
1472 -718 0
1472 -220 0
1472 -245 0
1473 -513 0
1473 -533 0
1473 -647 0
1473 -623 0
1473 -286 0
1473 -765 0
1473 -28 0
1473 -552 0
1474 -60 0
1474 -296 0
1474 -288 0
1474 -752 0
1474 -744 0
1474 -507 0
1474 -70 0
1474 -521 0
1475 -529 0
1475 -369 0
1475 -253 0
1475 -337 0
1475 -316 0
1475 -42 0
1476 -371 0
1476 -484 0
1476 -178 0
1476 -141 0
1476 -555 0
1477 -26 0
1477 -714 0
1477 -729 0
1477 -649 0
1477 -547 0
1477 -632 0
1477 -179 0
1477 -348 0
1477 -130 0
1478 -147 0
1478 -380 0
1478 -582 0
1478 -520 0
1480 -29 0
1480 -162 0
1480 -789 0
1480 -106 0
1480 -91 0
1480 -727 0
1480 -438 0
1481 -602 0
1481 -368 0
1481 -61 0
1481 -262 0
1481 -787 0
1482 -573 0
1482 -2 0
1482 -498 0
1482 -447 0
1482 -391 0
1483 -737 0
1483 -333 0
1483 -552 0
1483 -102 0
1483 -91 0
1484 -398 0
1484 -639 0
1484 -756 0
1484 -375 0
1484 -463 0
1484 -351 0
1484 -782 0
1484 -25 0
1485 -363 0
1485 -104 0
1485 -296 0
1485 -264 0
1485 -365 0
1485 -383 0
1485 -222 0
1486 -517 0
1486 -428 0
1486 -759 0
1486 -60 0
1486 -713 0
1486 -507 0
1486 -89 0
1486 -118 0
1486 -297 0
1486 -142 0
1487 -29 0
1487 -476 0
1487 -357 0
1487 -124 0
1487 -508 0
1487 -173 0
1488 -664 0
1488 -567 0
1488 -728 0
1488 -85 0
1488 -652 0
1488 -407 0
1488 -43 0
1488 -713 0
1488 -483 0
1488 -117 0
1489 -721 0
1489 -317 0
1489 -647 0
1489 -601 0
1489 -394 0
1489 -200 0
1489 -164 0
1489 -40 0
1490 -20 0
1490 -364 0
1490 -100 0
1490 -129 0
1490 -43 0
1490 -638 0
1490 -350 0
1491 -25 0
1491 -728 0
1491 -597 0
1491 -535 0
1491 -362 0
1491 -120 0
1492 -760 0
1492 -786 0
1492 -118 0
1492 -590 0
1492 -587 0
1492 -593 0
1492 -630 0
1493 -271 0
1493 -690 0
1493 -600 0
1493 -553 0
1493 -545 0
1493 -102 0
1494 -13 0
1494 -486 0
1494 -431 0
1494 -510 0
1494 -390 0
1494 -102 0
1495 -513 0
1495 -174 0
1495 -317 0
1495 -183 0
1495 -682 0
1495 -357 0
1495 -184 0
1496 -127 0
1496 -571 0
1496 -537 0
1496 -602 0
1496 -124 0
1497 -369 0
1497 -410 0
1497 -289 0
1498 -586 0
1498 -161 0
1498 -564 0
1498 -40 0
1498 -548 0
1499 -129 0
1499 -492 0
1499 -178 0
1499 -183 0
1499 -51 0
1499 -663 0
1500 -19 0
1500 -328 0
1500 -417 0
1500 -473 0
1500 -12 0
1500 -83 0
1500 -639 0
1500 -471 0
1500 -518 0
1501 -386 0
1501 -339 0
1501 -418 0
1501 -661 0
1501 -92 0
1502 -88 0
1502 -704 0
1502 -335 0
1502 -578 0
1502 -66 0
1502 -174 0
1503 -566 0
1503 -131 0
1503 -775 0
1503 -57 0
1503 -477 0
1503 -643 0
1503 -635 0
1503 -685 0
1503 -73 0
1504 -765 0
1504 -747 0
1504 -770 0
1504 -346 0
1504 -682 0
1504 -183 0
1504 -108 0
1504 -535 0
1505 -480 0
1505 -175 0
1505 -674 0
1505 -625 0
1505 -216 0
1505 -386 0
1505 -556 0
1505 -80 0
1506 -517 0
1506 -22 0
1506 -684 0
1506 -748 0
1506 -508 0
1506 -688 0
1506 -227 0
1507 -659 0
1507 -719 0
1507 -149 0
1507 -671 0
1507 -710 0
1507 -147 0
1507 -339 0
1507 -371 0
1508 -536 0
1508 -82 0
1508 -739 0
1508 -17 0
1508 -6 0
1508 -642 0
1508 -143 0
1509 -747 0
1509 -680 0
1509 -684 0
1509 -113 0
1509 -36 0
1509 -65 0
1509 -571 0
1510 -268 0
1510 -338 0
1511 -726 0
1511 -569 0
1511 -704 0
1511 -368 0
1512 -24 0
1512 -514 0
1512 -531 0
1512 -746 0
1512 -777 0
1512 -450 0
1512 -605 0
1512 -118 0
1512 -374 0
1512 -367 0
1513 -42 0
1513 -704 0
1513 -209 0
1513 -257 0
1513 -514 0
1514 -33 0
1514 -276 0
1514 -714 0
1514 -358 0
1514 -659 0
1514 -225 0
1514 -516 0
1514 -66 0
1514 -758 0
1515 -500 0
1515 -420 0
1515 -710 0
1515 -716 0
1515 -550 0
1515 -570 0
1516 -585 0
1516 -296 0
1516 -633 0
1516 -279 0
1516 -587 0
1516 -448 0
1517 -345 0
1517 -484 0
1517 -705 0
1517 -282 0
1517 -508 0
1517 -400 0
1517 -3 0
1517 -351 0
1517 -138 0
1518 -739 0
1518 -727 0
1518 -271 0
1518 -536 0
1518 -724 0
1519 -471 0
1519 -27 0
1519 -52 0
1519 -464 0
1519 -781 0
1519 -133 0
1520 -714 0
1520 -178 0
1520 -394 0
1520 -737 0
1520 -131 0
1520 -520 0
1521 -389 0
1521 -583 0
1521 -131 0
1521 -533 0
1521 -228 0
1522 -235 0
1522 -133 0
1522 -569 0
1522 -36 0
1522 -665 0
1522 -104 0
1522 -138 0
1523 -377 0
1523 -779 0
1523 -188 0
1523 -253 0
1523 -229 0
1523 -632 0
1523 -671 0
1523 -175 0
1524 -756 0
1524 -425 0
1524 -397 0
1524 -677 0
1524 -399 0
1524 -570 0
1524 -360 0
1524 -555 0
1524 -138 0
1525 -459 0
1525 -93 0
1525 -162 0
1525 -555 0
1525 -514 0
1525 -675 0
1525 -625 0
1525 -446 0
1526 -121 0
1526 -176 0
1526 -331 0
1526 -84 0
1526 -758 0
1526 -744 0
1526 -531 0
1527 -786 0
1527 -783 0
1527 -218 0
1527 -524 0
1527 -145 0
1527 -480 0
1528 -592 0
1528 -88 0
1528 -328 0
1528 -298 0
1528 -492 0
1528 -476 0
1528 -603 0
1529 -39 0
1529 -699 0
1529 -684 0
1529 -139 0
1529 -689 0
1529 -447 0
1530 -421 0
1530 -287 0
1530 -129 0
1531 -539 0
1531 -212 0
1531 -625 0
1531 -430 0
1531 -498 0
1532 -418 0
1532 -503 0
1532 -480 0
1532 -680 0
1532 -665 0
1533 -493 0
1533 -447 0
1533 -274 0
1533 -578 0
1533 -646 0
1533 -641 0
1533 -208 0
1533 -743 0
1533 -141 0
1534 -278 0
1534 -649 0
1534 -634 0
1534 -680 0
1534 -665 0
1535 -640 0
1535 -382 0
1535 -542 0
1535 -47 0
1535 -358 0
1535 -395 0
1536 -457 0
1536 -180 0
1536 -590 0
1536 -65 0
1536 -502 0
1536 -325 0
1536 -779 0
1537 -132 0
1537 -782 0
1537 -446 0
1537 -614 0
1537 -729 0
1537 -222 0
1538 -411 0
1538 -534 0
1538 -684 0
1538 -443 0
1538 -140 0
1538 -387 0
1539 -571 0
1539 -490 0
1539 -704 0
1539 -153 0
1539 -122 0
1539 -225 0
1539 -188 0
1540 -88 0
1540 -734 0
1540 -285 0
1540 -611 0
1540 -338 0
1541 -787 0
1541 -358 0
1541 -315 0
1541 -612 0
1542 -44 0
1542 -496 0
1542 -289 0
1542 -608 0
1542 -81 0
1543 -537 0
1543 -135 0
1543 -689 0
1543 -254 0
1544 -459 0
1544 -449 0
1544 -185 0
1544 -339 0
1544 -298 0
1544 -682 0
1544 -489 0
1545 -111 0
1545 -339 0
1545 -113 0
1545 -421 0
1545 -196 0
1546 -25 0
1546 -128 0
1546 -424 0
1546 -143 0
1546 -634 0
1546 -477 0
1546 -295 0
1547 -579 0
1547 -47 0
1547 -743 0
1547 -658 0
1547 -186 0
1547 -517 0
1548 -361 0
1548 -533 0
1548 -428 0
1548 -706 0
1548 -736 0
1548 -237 0
1548 -257 0
1548 -469 0
1549 -362 0
1549 -409 0
1549 -186 0
1549 -194 0
1549 -755 0
1549 -786 0
1549 -308 0
1549 -433 0
1549 -263 0
1550 -504 0
1550 -527 0
1550 -456 0
1550 -552 0
1550 -594 0
1551 -784 0
1551 -160 0
1551 -126 0
1551 -81 0
1551 -87 0
1552 -551 0
1552 -54 0
1552 -785 0
1552 -704 0
1552 -235 0
1552 -287 0
1552 -68 0
1553 -496 0
1553 -459 0
1553 -417 0
1553 -200 0
1553 -396 0
1553 -233 0
1553 -44 0
1554 -45 0
1554 -187 0
1554 -606 0
1555 -790 0
1555 -138 0
1555 -771 0
1555 -124 0
1555 -646 0
1555 -367 0
1555 -292 0
1555 -560 0
1555 -153 0
1556 -268 0
1556 -295 0
1556 -709 0
1556 -116 0
1556 -103 0
1557 -290 0
1557 -434 0
1557 -744 0
1557 -720 0
1557 -495 0
1557 -445 0
1557 -218 0
1558 -558 0
1558 -294 0
1558 -421 0
1558 -426 0
1558 -68 0
1558 -260 0
1559 -386 0
1559 -586 0
1559 -30 0
1559 -428 0
1559 -364 0
1559 -89 0
1559 -628 0
1559 -418 0
1560 -640 0
1560 -590 0
1560 -342 0
1560 -422 0
1560 -91 0
1560 -261 0
1560 -171 0
1560 -689 0
1561 -80 0
1561 -756 0
1561 -475 0
1561 -397 0
1561 -635 0
1561 -162 0
1561 -120 0
1561 -780 0
1562 -533 0
1562 -269 0
1562 -720 0
1562 -508 0
1562 -507 0
1563 -235 0
1563 -178 0
1563 -164 0
1563 -641 0
1563 -92 0
1563 -334 0
1564 -539 0
1564 -754 0
1564 -611 0
1564 -610 0
1564 -72 0
1564 -77 0
1564 -746 0
1565 -640 0
1565 -511 0
1565 -752 0
1565 -538 0
1565 -556 0
1565 -664 0
1566 -544 0
1566 -715 0
1566 -210 0
1566 -15 0
1566 -589 0
1566 -87 0
1567 -26 0
1567 -661 0
1567 -9 0
1567 -410 0
1567 -648 0
1567 -487 0
1567 -598 0
1567 -596 0
1567 -450 0
1567 -741 0
1568 -560 0
1568 -359 0
1568 -361 0
1568 -80 0
1568 -531 0
1568 -428 0
1568 -490 0
1568 -650 0
1569 -378 0
1569 -735 0
1569 -20 0
1569 -487 0
1569 -163 0
1569 -766 0
1569 -112 0
1569 -700 0
1570 -411 0
1570 -316 0
1570 -629 0
1570 -507 0
1570 -590 0
1571 -745 0
1571 -522 0
1571 -740 0
1571 -430 0
1571 -51 0
1571 -483 0
1572 -484 0
1572 -621 0
1572 -207 0
1572 -474 0
1573 -320 0
1573 -140 0
1573 -20 0
1573 -275 0
1573 -109 0
1573 -702 0
1573 -85 0
1574 -384 0
1574 -353 0
1574 -151 0
1574 -521 0
1575 -48 0
1575 -735 0
1575 -109 0
1575 -614 0
1575 -151 0
1576 -102 0
1576 -468 0
1576 -300 0
1576 -577 0
1576 -317 0
1577 -371 0
1577 -738 0
1577 -607 0
1577 -753 0
1577 -684 0
1577 -480 0
1578 -738 0
1578 -648 0
1578 -656 0
1579 -506 0
1579 -136 0
1579 -180 0
1580 -3 0
1580 -707 0
1580 -264 0
1580 -152 0
1580 -224 0
1580 -64 0
1581 -783 0
1581 -508 0
1581 -791 0
1581 -413 0
1581 -755 0
1581 -652 0
1581 -709 0
1582 -583 0
1582 -704 0
1582 -522 0
1582 -713 0
1582 -554 0
1582 -205 0
1583 -363 0
1583 -599 0
1583 -42 0
1583 -583 0
1583 -650 0
1583 -508 0
1583 -515 0
1583 -689 0
1584 -784 0
1584 -762 0
1584 -490 0
1584 -76 0
1584 -714 0
1584 -426 0
1584 -321 0
608 528 164 589 581 61 774 281 -793 0
166 66 300 714 -794 0
468 540 454 113 449 -795 0
751 108 650 45 665 763 397 -796 0
618 483 661 392 462 426 -797 0
397 691 561 710 380 173 782 351 -798 0
153 188 381 364 446 627 -799 0
273 636 90 500 14 556 -800 0
508 133 629 260 590 402 674 -801 0
499 275 27 494 488 455 -802 0
247 699 733 770 256 -803 0
162 99 174 302 163 475 -804 0
232 702 130 300 338 60 -805 0
652 289 493 440 585 347 313 517 298 -806 0
394 655 775 606 657 275 -807 0
133 354 100 705 -808 0
153 364 -809 0
315 787 581 101 447 100 -810 0
605 166 98 271 414 520 204 -811 0
89 484 111 386 748 -812 0
159 309 426 535 459 71 -813 0
580 116 618 753 5 550 412 407 614 -814 0
218 196 447 603 381 316 622 311 -815 0
75 331 22 463 295 441 736 743 -816 0
445 331 781 17 68 649 27 -817 0
76 753 -818 0
643 218 691 132 236 364 402 -819 0
613 445 63 261 718 781 409 -820 0
143 504 636 44 381 9 526 665 -821 0
55 56 453 490 -822 0
178 508 234 110 326 338 92 318 -823 0
501 429 658 635 496 328 -824 0
301 84 304 111 240 253 410 -825 0
617 357 533 204 525 594 114 463 -826 0
227 472 633 66 379 57 26 671 -827 0
215 648 164 676 292 489 260 -828 0
689 352 420 84 633 766 548 209 312 -829 0
749 165 286 236 97 42 691 174 -830 0
12 712 554 561 43 329 -831 0
167 122 441 -832 0
62 264 594 465 470 379 275 -833 0
622 69 -834 0
288 32 383 -835 0
136 671 619 441 65 -836 0
395 679 171 18 434 -837 0
628 577 425 663 552 157 651 427 484 617 -838 0
382 16 26 30 723 -839 0
286 558 383 236 9 749 -840 0
702 524 723 384 624 277 462 -841 0
664 587 675 698 138 488 19 -842 0
155 122 154 603 381 265 703 769 622 -843 0
155 574 538 209 48 261 767 194 414 -844 0
602 35 48 634 457 -845 0
395 393 612 742 644 272 427 -846 0
162 789 362 494 617 315 527 -847 0
134 136 790 776 487 750 257 -848 0
66 385 372 90 439 599 457 -849 0
179 481 488 562 758 777 446 -850 0
154 123 260 288 -851 0
368 672 9 245 -852 0
214 554 32 387 274 267 -853 0
459 423 683 172 -854 0
395 597 287 770 527 -855 0
497 28 480 701 429 -856 0
694 169 550 191 -857 0
690 288 2 270 302 649 136 -858 0
624 8 488 73 522 72 -859 0
8 272 646 40 632 -860 0
706 660 186 238 382 226 327 490 -861 0
632 326 236 742 473 84 -862 0
582 640 670 454 221 438 603 480 -863 0
449 608 536 579 -864 0
664 386 361 496 245 517 780 715 542 -865 0
708 214 60 523 202 455 -866 0
721 419 294 282 709 761 184 -867 0
425 622 361 492 101 782 548 -868 0
195 157 288 226 667 94 290 347 -869 0
720 34 437 582 560 249 67 514 440 303 261 782 -870 0
453 429 579 140 323 232 -871 0
726 61 156 440 500 -872 0
690 751 635 495 52 17 128 765 161 -873 0
686 585 342 782 614 228 414 771 -874 0
656 396 188 85 792 345 44 -875 0
320 647 89 -876 0
480 653 407 439 717 273 639 96 -877 0
403 205 224 588 547 -878 0
398 392 456 203 173 493 69 547 -879 0
446 529 452 624 26 787 -880 0
730 123 113 593 -881 0
180 513 338 487 537 745 -882 0
413 402 514 521 164 -883 0
637 512 590 543 539 461 646 -884 0
514 21 192 149 139 415 665 -885 0
300 325 184 468 353 759 39 -886 0
396 72 557 644 383 779 219 -887 0
691 482 723 731 243 163 -888 0
557 507 -889 0
192 528 382 178 475 718 -890 0
659 599 181 374 349 369 -891 0
118 630 540 516 502 689 154 -892 0
478 699 416 186 261 -893 0
222 106 42 12 -894 0
442 545 205 692 65 493 -895 0
618 382 504 73 60 716 415 402 546 -896 0
539 521 702 204 223 759 133 429 560 24 -897 0
185 751 266 549 16 -898 0
367 476 306 330 108 456 563 182 646 496 -899 0
287 178 89 513 199 -900 0
339 498 283 621 413 237 123 228 -901 0
244 398 420 646 352 316 -902 0
47 548 483 357 12 -903 0
127 764 772 711 726 557 282 210 -904 0
752 701 583 -905 0
236 198 164 308 749 158 509 -906 0
457 451 747 356 509 58 293 -907 0
672 553 141 16 382 336 106 -908 0
165 665 622 114 494 421 -909 0
30 514 61 710 236 210 608 -910 0
29 533 458 771 573 27 152 623 -911 0
756 464 33 -912 0
128 154 89 480 536 773 32 -913 0
545 455 421 558 767 436 -914 0
274 45 93 593 583 783 -915 0
94 736 699 215 413 24 -916 0
427 759 576 36 192 240 748 414 -917 0
517 108 777 355 592 174 253 38 -918 0
624 70 89 243 307 570 -919 0
24 243 494 415 164 102 -920 0
550 632 518 99 767 773 62 552 -921 0
507 151 702 197 366 609 -922 0
292 19 383 227 358 395 -923 0
634 399 390 323 433 305 468 347 349 -924 0
700 137 456 34 299 -925 0
313 597 133 396 -926 0
760 721 334 204 592 47 -927 0
230 493 614 405 35 466 -928 0
5 565 651 49 201 771 297 580 -929 0
286 713 301 315 524 445 -930 0
531 311 230 733 -931 0
243 411 -932 0
604 653 252 506 59 -933 0
512 683 586 673 240 417 648 -934 0
231 445 327 264 276 765 -935 0
683 368 535 353 740 26 -936 0
428 540 378 379 338 -937 0
575 102 766 663 148 493 453 241 -938 0
257 288 500 790 403 -939 0
183 93 497 7 440 607 334 422 621 -940 0
594 227 705 477 776 -941 0
652 493 301 703 456 485 429 422 -942 0
253 288 377 145 510 -943 0
237 410 559 617 327 13 -944 0
84 28 411 258 -945 0
681 85 344 -946 0
774 541 453 219 71 503 -947 0
723 536 416 256 115 42 153 743 381 -948 0
748 292 29 419 527 -949 0
792 739 86 110 564 -950 0
28 494 539 237 11 44 327 40 135 524 -951 0
770 86 236 630 -952 0
10 600 646 608 172 586 327 789 -953 0
294 492 662 230 669 790 -954 0
321 68 591 356 120 552 -955 0
454 395 720 -956 0
547 590 395 120 457 422 -957 0
707 11 517 -958 0
9 187 108 620 507 -959 0
178 580 686 278 437 136 785 247 -960 0
290 259 175 361 389 -961 0
307 424 257 583 774 13 -962 0
411 372 687 590 -963 0
145 450 739 288 -964 0
659 661 253 699 381 13 -965 0
338 412 760 -966 0
468 755 106 696 598 -967 0
691 264 513 534 498 -968 0
247 546 226 221 137 65 328 45 558 -969 0
373 174 320 452 95 222 -970 0
501 459 63 142 164 390 84 -971 0
450 267 602 697 200 693 788 -972 0
569 77 346 368 257 7 465 -973 0
360 80 300 204 788 47 203 216 619 338 573 -974 0
239 178 488 443 691 343 -975 0
720 561 161 85 176 441 -976 0
406 597 49 489 -977 0
458 97 253 293 560 131 -978 0
487 657 315 93 228 -979 0
400 652 628 625 561 498 534 -980 0
28 37 155 463 392 -981 0
546 37 531 157 176 348 150 302 166 -982 0
198 72 689 97 522 -983 0
174 55 423 262 145 256 -984 0
746 363 502 436 515 60 -985 0
135 306 417 80 -986 0
520 550 416 6 597 518 555 299 -987 0
3 487 621 407 740 504 582 169 788 -988 0
631 90 538 481 330 592 54 498 499 -989 0
542 166 762 615 442 154 618 -990 0
480 131 663 467 85 301 -991 0
87 564 445 650 140 13 -992 0
478 452 554 161 564 590 473 379 737 522 -993 0
522 257 447 558 529 -994 0
654 426 213 704 30 145 158 -995 0
396 554 429 86 -996 0
464 210 629 -997 0
741 281 624 392 667 333 555 166 120 31 -998 0
667 70 397 345 20 -999 0
392 335 755 770 560 313 532 -1000 0
674 156 730 622 724 -1001 0
315 717 165 329 117 -1002 0
311 44 250 611 232 45 -1003 0
547 136 184 684 454 34 408 -1004 0
769 779 752 175 275 303 631 714 -1005 0
178 205 249 58 441 361 747 -1006 0
88 132 267 169 183 748 135 -1007 0
468 357 726 123 601 111 584 344 -1008 0
445 48 542 296 90 213 386 354 332 135 613 -1009 0
443 622 55 243 -1010 0
124 438 425 688 628 505 39 9 -1011 0
662 689 43 255 58 639 723 740 -1012 0
669 508 373 316 761 104 -1013 0
677 569 335 241 162 -1014 0
718 420 223 404 396 629 390 -1015 0
707 667 133 382 608 146 -1016 0
486 277 504 565 576 159 97 707 -1017 0
716 342 106 381 -1018 0
12 58 35 167 226 120 792 -1019 0
660 702 472 635 21 247 -1020 0
371 268 170 447 -1021 0
312 653 243 572 512 -1022 0
433 295 520 644 154 667 15 -1023 0
352 348 246 242 587 690 169 589 38 -1024 0
350 253 327 157 596 434 147 230 -1025 0
464 544 696 64 369 688 2 590 24 -1026 0
102 56 459 204 735 198 557 -1027 0
472 229 698 373 -1028 0
377 313 568 277 177 348 329 759 680 -1029 0
420 555 99 586 181 179 53 -1030 0
352 283 315 38 731 3 83 43 -1031 0
531 51 622 93 495 116 334 -1032 0
79 573 461 35 247 396 20 413 -1033 0
255 43 513 486 151 -1034 0
-1035 0
311 17 260 13 30 189 528 619 -1036 0
465 581 447 275 733 460 286 -1037 0
311 783 738 698 421 210 145 -1038 0
560 146 92 242 436 -1039 0
495 494 13 300 480 376 514 150 -1040 0
166 384 262 59 321 485 640 -1041 0
369 101 490 198 414 93 765 -1042 0
665 499 37 96 212 476 232 641 354 -1043 0
70 316 125 -1044 0
328 661 370 678 586 155 -1045 0
311 136 249 428 257 272 297 384 -1046 0
538 449 128 330 122 522 -1047 0
465 10 453 636 521 639 531 -1048 0
790 41 143 -1049 0
790 727 312 183 413 289 605 -1050 0
166 579 460 754 539 90 255 -1051 0
345 325 727 475 84 -1052 0
172 716 207 122 363 516 -1053 0
164 495 535 77 213 389 563 -1054 0
761 32 748 66 416 -1055 0
223 120 166 45 502 205 43 441 -1056 0
670 380 532 733 3 -1057 0
102 484 537 465 234 151 575 70 407 -1058 0
265 54 43 29 -1059 0
590 -1060 0
763 679 759 202 334 381 521 -1061 0
553 507 556 566 277 80 522 75 -1062 0
113 102 302 701 409 -1063 0
493 295 783 22 643 637 -1064 0
584 772 581 656 670 359 323 55 -1065 0
783 413 337 392 268 396 -1066 0
372 15 41 6 -1067 0
581 555 721 509 786 -1068 0
221 165 572 153 -1069 0
390 586 372 507 590 223 394 420 618 351 -1070 0
468 704 724 682 726 174 344 530 -1071 0
278 376 30 247 189 228 512 -1072 0
131 638 260 730 195 504 3 -1073 0
464 370 499 594 402 567 -1074 0
434 757 442 292 487 36 422 -1075 0
712 503 752 602 72 639 115 84 -1076 0
493 297 428 564 236 690 -1077 0
416 163 404 50 788 579 -1078 0
266 727 431 334 264 490 -1079 0
464 483 202 111 525 -1080 0
319 72 685 259 709 -1081 0
736 739 38 5 395 226 -1082 0
12 668 332 356 435 176 511 141 284 451 713 -1083 0
166 174 40 16 -1084 0
636 378 191 576 679 462 -1085 0
359 517 438 198 405 624 -1086 0
457 99 251 179 463 639 -1087 0
433 517 734 456 591 382 532 -1088 0
552 372 502 171 290 732 222 -1089 0
436 682 786 263 286 126 -1090 0
506 100 653 257 235 165 301 -1091 0
76 349 326 672 679 205 -1092 0
766 705 166 211 562 226 202 11 -1093 0
596 248 27 287 138 -1094 0
777 520 737 470 42 393 595 83 152 -1095 0
367 89 225 283 201 446 726 -1096 0
536 545 332 115 50 597 789 583 38 -1097 0
68 340 335 571 544 407 330 688 -1098 0
276 133 503 70 622 521 116 186 -1099 0
420 455 349 557 -1100 0
465 275 761 273 639 157 110 538 -1101 0
445 722 420 462 91 283 716 39 -1102 0
638 185 330 643 -1103 0
447 649 277 647 208 683 49 398 -1104 0
250 8 536 456 507 -1105 0
65 301 713 641 688 669 600 -1106 0
496 322 425 -1107 0
338 687 372 268 629 507 -1108 0
247 200 68 379 624 -1109 0
608 256 418 267 602 204 461 166 582 -1110 0
184 287 778 20 594 582 640 289 333 -1111 0
289 579 350 229 368 706 405 502 -1112 0
775 219 496 394 -1113 0
603 432 320 405 487 688 -1114 0
573 579 337 638 748 584 699 276 -1115 0
709 204 298 770 403 232 -1116 0
390 495 545 469 118 428 349 776 -1117 0
443 620 599 108 354 47 163 383 -1118 0
501 110 729 40 179 -1119 0
135 606 163 169 749 -1120 0
519 431 54 409 451 400 386 742 -1121 0
439 331 589 574 -1122 0
765 533 723 529 790 317 756 682 -1123 0
486 320 232 159 787 601 -1124 0
536 760 532 573 155 715 752 -1125 0
131 434 298 676 232 12 -1126 0
488 255 448 434 -1127 0
570 123 321 476 500 -1128 0
64 80 453 134 201 397 162 -1129 0
667 223 -1130 0
133 550 492 665 -1131 0
141 347 690 744 205 7 217 195 -1132 0
89 61 253 679 320 646 728 749 546 -1133 0
611 353 324 650 12 443 311 203 225 560 -1134 0
560 379 471 445 420 488 112 733 709 -1135 0
92 251 544 722 414 702 650 577 -1136 0
774 42 755 654 287 485 509 -1137 0
74 6 310 752 742 -1138 0
499 252 13 480 334 486 143 761 -1139 0
-1140 0
705 187 166 208 547 523 691 -1141 0
564 382 590 302 645 607 218 204 -1142 0
475 687 718 666 372 -1143 0
529 323 252 613 2 424 567 120 -1144 0
686 139 264 529 31 -1145 0
140 600 588 434 521 408 428 -1146 0
551 351 372 687 778 404 -1147 0
44 684 444 289 395 641 -1148 0
772 599 658 299 681 -1149 0
439 697 484 134 162 621 207 292 -1150 0
323 709 483 451 281 18 -1151 0
686 562 485 407 397 324 536 559 -1152 0
72 562 73 544 659 694 487 -1153 0
265 293 77 411 619 -1154 0
139 532 524 472 164 467 138 -1155 0
790 659 272 231 120 10 312 -1156 0
782 333 483 344 16 560 -1157 0
15 480 442 571 189 202 730 292 -1158 0
373 67 655 246 721 331 469 -1159 0
149 193 318 252 134 54 698 -1160 0
144 3 211 649 267 -1161 0
65 374 51 496 714 40 166 181 227 -1162 0
768 430 116 205 503 -1163 0
338 629 -1164 0
364 31 563 44 612 224 -1165 0
83 243 465 407 59 -1166 0
77 347 109 53 709 428 185 680 -1167 0
311 436 694 627 -1168 0
598 526 593 2 170 -1169 0
2 204 736 544 789 277 -1170 0
538 348 672 29 677 -1171 0
149 271 224 526 625 -1172 0
62 516 63 121 302 -1173 0
313 15 541 588 514 651 649 -1174 0
346 121 753 464 631 428 771 -1175 0
41 480 397 639 -1176 0
786 774 13 5 224 4 148 189 -1177 0
537 442 170 315 -1178 0
120 150 771 768 614 242 -1179 0
386 499 486 346 69 727 349 704 656 -1180 0
458 752 108 362 554 698 -1181 0
667 590 -1182 0
487 765 3 364 80 118 -1183 0
81 90 478 567 494 194 15 455 -1184 0
164 32 378 270 622 47 751 551 791 -1185 0
667 -1186 0
145 93 502 690 -1187 0
590 268 316 351 243 223 -1188 0
639 595 83 312 -1189 0
688 308 532 4 719 -1190 0
658 669 119 325 254 458 223 428 231 -1191 0
395 230 643 308 514 503 27 588 625 -1192 0
689 737 716 546 498 396 711 -1193 0
787 20 11 172 -1194 0
273 21 29 356 757 378 -1195 0
-1196 0
75 378 788 260 506 -1197 0
208 436 791 709 43 272 559 -1198 0
103 508 504 782 732 440 249 3 -1199 0
719 157 13 193 612 -1200 0
65 86 704 440 14 260 415 -1201 0
277 60 460 422 -1202 0
687 590 -1203 0
279 40 442 71 189 -1204 0
591 336 141 362 8 410 142 -1205 0
289 299 410 735 -1206 0
126 388 328 288 458 -1207 0
644 48 183 302 601 220 535 428 -1208 0
43 183 299 489 483 331 309 -1209 0
648 428 217 434 135 -1210 0
669 526 435 755 517 600 53 674 -1211 0
-1212 0
61 127 382 458 605 554 -1213 0
270 62 181 458 357 274 -1214 0
605 561 583 448 591 305 99 -1215 0
75 613 691 132 714 324 167 225 -1216 0
560 165 510 326 48 225 -1217 0
168 758 165 97 133 -1218 0
184 531 743 -1219 0
145 686 322 246 -1220 0
554 465 648 769 17 405 430 45 -1221 0
120 784 690 785 778 391 197 -1222 0
426 512 192 92 738 17 672 442 -1223 0
457 455 752 186 353 276 473 102 533 758 -1224 0
258 160 417 441 776 68 174 -1225 0
97 324 497 178 112 242 235 -1226 0
326 407 207 705 265 533 492 -1227 0
277 776 390 282 712 -1228 0
296 417 434 142 136 403 93 375 645 -1229 0
368 336 55 768 371 649 735 -1230 0
408 156 632 507 149 8 -1231 0
592 634 774 781 758 616 691 -1232 0
321 216 405 238 157 675 -1233 0
240 388 387 471 464 130 783 -1234 0
158 580 226 139 315 583 207 162 -1235 0
518 127 699 321 517 631 646 312 -1236 0
757 161 716 726 497 705 27 587 -1237 0
585 758 239 381 209 -1238 0
205 681 240 789 -1239 0
129 320 74 295 436 600 687 -1240 0
7 539 284 447 722 -1241 0
286 622 590 448 350 756 703 173 674 -1242 0
632 659 592 607 475 155 50 781 -1243 0
186 124 252 527 214 436 556 707 89 -1244 0
608 571 655 164 6 141 -1245 0
497 649 453 673 402 459 390 651 -1246 0
173 5 428 84 211 384 729 -1247 0
560 511 614 -1248 0
132 496 770 407 748 -1249 0
164 343 14 179 317 -1250 0
173 362 728 -1251 0
541 458 744 398 464 -1252 0
246 202 611 271 243 490 -1253 0
23 544 19 -1254 0
446 285 746 574 42 2 -1255 0
113 172 565 328 769 -1256 0
455 87 184 430 771 711 -1257 0
328 263 559 324 738 469 20 788 -1258 0
455 752 108 513 789 555 265 330 -1259 0
194 580 550 442 488 -1260 0
418 621 133 1 502 294 785 -1261 0
214 182 620 482 624 617 -1262 0
604 578 788 292 388 133 -1263 0
612 218 99 343 578 153 264 -1264 0
212 174 17 553 -1265 0
161 378 735 758 490 483 620 8 790 -1266 0
338 -1267 0
134 540 336 745 598 338 -1268 0
418 122 786 161 683 783 764 -1269 0
186 791 790 647 460 162 202 453 435 -1270 0
757 710 145 53 640 228 -1271 0
199 496 503 -1272 0
285 233 574 525 77 625 59 -1273 0
449 508 558 142 606 792 699 506 -1274 0
250 626 645 526 -1275 0
578 386 337 26 313 -1276 0
634 636 124 598 705 246 398 115 -1277 0
425 86 423 377 -1278 0
197 65 541 72 26 730 -1279 0
286 371 552 568 294 5 526 -1280 0
155 710 370 476 638 293 84 -1281 0
414 661 407 163 396 -1282 0
609 746 125 236 505 710 68 266 383 464 543 113 -1283 0
175 686 626 620 667 209 313 79 -1284 0
386 2 766 718 -1285 0
184 166 414 409 399 -1286 0
434 285 124 335 262 30 16 -1287 0
629 -1288 0
624 387 323 738 764 -1289 0
635 560 248 226 112 524 -1290 0
459 582 671 438 99 42 -1291 0
236 753 4 212 484 463 459 -1292 0
602 516 331 546 649 287 246 786 475 -1293 0
630 544 543 756 248 50 -1294 0
767 755 504 139 571 344 -1295 0
421 423 413 749 63 91 -1296 0
444 321 406 498 186 315 636 478 -1297 0
75 532 786 258 693 74 527 -1298 0
718 411 667 394 -1299 0
771 249 700 169 -1300 0
464 598 415 562 481 -1301 0
326 415 129 396 506 52 343 8 -1302 0
578 337 338 33 400 83 643 -1303 0
769 451 409 738 -1304 0
256 455 509 157 65 124 -1305 0
170 188 280 42 402 210 -1306 0
517 749 753 220 292 640 633 76 389 -1307 0
451 167 139 542 378 -1308 0
113 111 635 496 306 -1309 0
496 260 257 406 212 520 691 -1310 0
421 195 392 396 621 102 306 576 20 18 174 -1311 0
10 12 332 204 759 675 -1312 0
647 101 778 456 448 -1313 0
591 46 511 300 462 -1314 0
428 400 238 638 82 765 747 252 -1315 0
346 15 693 761 47 334 659 551 -1316 0
59 763 450 510 188 619 186 386 348 -1317 0
610 452 184 274 -1318 0
783 42 488 544 468 489 702 -1319 0
659 258 602 323 101 -1320 0
154 564 571 766 -1321 0
624 158 380 784 261 322 459 -1322 0
193 17 662 651 -1323 0
467 264 707 572 788 596 320 498 -1324 0
211 -1325 0
167 637 508 29 386 740 242 68 391 -1326 0
423 642 219 762 571 358 -1327 0
458 117 791 54 671 653 30 -1328 0
677 586 744 437 531 227 107 -1329 0
246 759 282 596 787 94 718 -1330 0
72 381 60 766 187 -1331 0
209 272 621 624 308 355 787 39 -1332 0
75 120 33 288 784 12 211 -1333 0
365 13 686 136 310 -1334 0
641 509 653 303 105 403 -1335 0
18 357 144 -1336 0
326 658 608 207 89 791 141 572 766 -1337 0
671 656 691 -1338 0
419 599 189 660 463 430 146 -1339 0
205 248 414 372 -1340 0
395 177 436 304 729 639 464 -1341 0
248 162 522 713 256 -1342 0
420 390 687 590 -1343 0
754 572 383 87 33 -1344 0
80 458 215 345 127 -1345 0
156 728 621 272 579 64 130 790 -1346 0
657 398 713 385 378 477 -1347 0
242 471 101 562 487 8 -1348 0
274 2 730 713 166 435 -1349 0
240 528 608 447 63 770 147 141 -1350 0
771 17 349 683 286 376 99 -1351 0
430 761 508 -1352 0
423 239 206 81 160 227 773 -1353 0
223 243 -1354 0
474 213 728 570 375 759 335 267 -1355 0
507 267 781 147 493 -1356 0
53 586 163 184 87 27 329 99 36 -1357 0
744 151 37 101 727 -1358 0
33 442 248 611 161 240 437 -1359 0
619 50 63 527 693 24 -1360 0
67 151 194 -1361 0
277 119 529 12 7 133 17 -1362 0
590 664 84 50 591 -1363 0
477 42 367 692 411 213 403 -1364 0
591 311 268 60 66 -1365 0
783 58 727 209 155 189 -1366 0
421 162 79 51 2 448 362 -1367 0
338 370 387 675 59 314 523 -1368 0
6 647 500 391 553 103 549 381 -1369 0
723 402 425 292 113 742 -1370 0
130 440 521 277 596 749 -1371 0
537 29 620 195 64 591 176 136 -1372 0
229 282 606 103 240 267 50 106 -1373 0
74 753 257 115 428 68 336 -1374 0
383 378 721 541 362 -1375 0
42 255 300 476 619 680 301 -1376 0
108 371 123 12 97 -1377 0
667 -1378 0
259 204 763 437 493 -1379 0
447 313 102 95 739 -1380 0
420 412 330 169 612 224 465 291 -1381 0
-1382 0
173 79 638 471 382 -1383 0
237 591 624 529 243 49 724 -1384 0
44 127 772 415 309 59 70 21 173 -1385 0
242 513 228 788 249 514 -1386 0
20 14 762 454 732 240 181 126 579 362 -1387 0
115 161 477 197 16 358 -1388 0
480 418 589 593 272 641 540 -1389 0
737 194 546 134 141 160 -1390 0
506 97 772 609 230 339 603 -1391 0
378 311 241 743 744 658 758 -1392 0
87 79 408 748 207 161 59 -1393 0
424 258 215 719 -1394 0
62 619 665 124 377 679 386 366 -1395 0
480 454 5 728 415 292 -1396 0
27 408 301 689 103 326 -1397 0
715 573 678 647 -1398 0
339 724 328 458 212 600 -1399 0
287 221 118 172 90 549 -1400 0
562 138 387 740 9 397 700 583 368 116 -1401 0
742 278 428 163 559 125 214 183 -1402 0
513 433 101 131 243 52 478 546 50 -1403 0
58 533 260 155 228 92 689 179 -1404 0
410 253 761 192 622 113 291 299 184 8 -1405 0
371 546 294 385 236 45 -1406 0
766 531 472 460 726 582 214 260 145 318 -1407 0
454 33 140 449 539 788 557 79 124 444 -1408 0
678 456 754 264 282 748 62 145 -1409 0
268 420 718 -1410 0
761 637 55 541 362 -1411 0
67 73 239 712 464 223 -1412 0
415 157 403 308 384 -1413 0
677 377 446 738 -1414 0
412 420 9 564 583 316 146 -1415 0
591 157 549 62 738 520 727 -1416 0
306 448 496 670 207 367 425 397 -1417 0
455 746 250 743 338 662 729 508 742 -1418 0
47 770 786 781 58 690 389 -1419 0
476 460 108 729 288 726 473 -1420 0
-1421 0
258 639 602 168 221 150 -1422 0
3 526 -1423 0
783 414 77 170 420 -1424 0
317 235 232 396 549 64 27 285 9 659 -1425 0
599 448 218 41 638 580 529 337 -1426 0
738 782 691 364 397 311 -1427 0
204 761 551 556 18 712 483 123 645 -1428 0
397 648 231 645 441 604 608 471 -1429 0
457 540 445 29 724 582 -1430 0
115 221 105 399 562 -1431 0
223 218 629 84 766 -1432 0
500 323 236 476 620 688 447 -1433 0
253 418 444 697 157 761 579 42 772 654 -1434 0
268 475 718 278 171 316 667 -1435 0
792 719 57 713 314 137 172 566 -1436 0
301 776 661 396 145 512 -1437 0
727 315 258 1 753 504 468 90 -1438 0
435 293 21 738 718 255 -1439 0
786 511 219 505 291 516 97 378 -1440 0
200 174 282 377 391 225 66 -1441 0
219 201 521 40 65 -1442 0
336 660 357 676 698 515 298 -1443 0
7 456 422 710 205 614 492 -1444 0
124 432 84 332 103 533 648 -1445 0
117 366 540 738 412 -1446 0
345 294 676 555 279 66 154 -1447 0
758 428 576 695 63 73 421 -1448 0
385 489 736 496 108 83 627 -1449 0
455 260 108 389 648 764 77 113 -1450 0
25 417 1 654 -1451 0
417 135 607 575 535 493 -1452 0
111 73 651 188 514 382 -1453 0
420 277 161 48 219 482 -1454 0
719 664 499 579 783 704 -1455 0
704 225 512 774 757 745 613 -1456 0
458 564 26 535 357 62 -1457 0
420 404 667 590 268 -1458 0
223 590 -1459 0
636 89 82 533 5 711 327 642 675 -1460 0
517 462 185 158 708 688 664 558 -1461 0
231 145 210 529 420 374 777 598 -1462 0
669 267 686 134 381 -1463 0
552 268 234 610 699 203 716 -1464 0
96 463 681 755 202 205 152 170 149 -1465 0
26 753 135 559 221 175 62 517 93 -1466 0
315 238 456 259 448 -1467 0
101 16 581 472 70 -1468 0
502 782 758 548 176 -1469 0
252 476 418 395 17 545 237 727 689 -1470 0
498 229 248 399 461 157 552 318 -1471 0
383 588 368 764 571 718 220 245 -1472 0
513 533 647 623 286 765 28 552 -1473 0
60 296 288 752 744 507 70 521 -1474 0
529 369 253 337 316 42 -1475 0
371 484 178 141 555 -1476 0
26 714 729 649 547 632 179 348 130 -1477 0
147 380 582 520 -1478 0
-1479 0
29 162 789 106 91 727 438 -1480 0
602 368 61 262 787 -1481 0
573 2 498 447 391 -1482 0
737 333 552 102 91 -1483 0
398 639 756 375 463 351 782 25 -1484 0
363 104 296 264 365 383 222 -1485 0
517 428 759 60 713 507 89 118 297 142 -1486 0
29 476 357 124 508 173 -1487 0
664 567 728 85 652 407 43 713 483 117 -1488 0
721 317 647 601 394 200 164 40 -1489 0
20 364 100 129 43 638 350 -1490 0
25 728 597 535 362 120 -1491 0
760 786 118 590 587 593 630 -1492 0
271 690 600 553 545 102 -1493 0
13 486 431 510 390 102 -1494 0
513 174 317 183 682 357 184 -1495 0
127 571 537 602 124 -1496 0
369 410 289 -1497 0
586 161 564 40 548 -1498 0
129 492 178 183 51 663 -1499 0
19 328 417 473 12 83 639 471 518 -1500 0
386 339 418 661 92 -1501 0
88 704 335 578 66 174 -1502 0
566 131 775 57 477 643 635 685 73 -1503 0
765 747 770 346 682 183 108 535 -1504 0
480 175 674 625 216 386 556 80 -1505 0
517 22 684 748 508 688 227 -1506 0
659 719 149 671 710 147 339 371 -1507 0
536 82 739 17 6 642 143 -1508 0
747 680 684 113 36 65 571 -1509 0
268 338 -1510 0
726 569 704 368 -1511 0
24 514 531 746 777 450 605 118 374 367 -1512 0
42 704 209 257 514 -1513 0
33 276 714 358 659 225 516 66 758 -1514 0
500 420 710 716 550 570 -1515 0
585 296 633 279 587 448 -1516 0
345 484 705 282 508 400 3 351 138 -1517 0
739 727 271 536 724 -1518 0
471 27 52 464 781 133 -1519 0
714 178 394 737 131 520 -1520 0
389 583 131 533 228 -1521 0
235 133 569 36 665 104 138 -1522 0
377 779 188 253 229 632 671 175 -1523 0
756 425 397 677 399 570 360 555 138 -1524 0
459 93 162 555 514 675 625 446 -1525 0
121 176 331 84 758 744 531 -1526 0
786 783 218 524 145 480 -1527 0
592 88 328 298 492 476 603 -1528 0
39 699 684 139 689 447 -1529 0
421 287 129 -1530 0
539 212 625 430 498 -1531 0
418 503 480 680 665 -1532 0
493 447 274 578 646 641 208 743 141 -1533 0
278 649 634 680 665 -1534 0
640 382 542 47 358 395 -1535 0
457 180 590 65 502 325 779 -1536 0
132 782 446 614 729 222 -1537 0
411 534 684 443 140 387 -1538 0
571 490 704 153 122 225 188 -1539 0
88 734 285 611 338 -1540 0
787 358 315 612 -1541 0
44 496 289 608 81 -1542 0
537 135 689 254 -1543 0
459 449 185 339 298 682 489 -1544 0
111 339 113 421 196 -1545 0
25 128 424 143 634 477 295 -1546 0
579 47 743 658 186 517 -1547 0
361 533 428 706 736 237 257 469 -1548 0
362 409 186 194 755 786 308 433 263 -1549 0
504 527 456 552 594 -1550 0
784 160 126 81 87 -1551 0
551 54 785 704 235 287 68 -1552 0
496 459 417 200 396 233 44 -1553 0
45 187 606 -1554 0
790 138 771 124 646 367 292 560 153 -1555 0
268 295 709 116 103 -1556 0
290 434 744 720 495 445 218 -1557 0
558 294 421 426 68 260 -1558 0
386 586 30 428 364 89 628 418 -1559 0
640 590 342 422 91 261 171 689 -1560 0
80 756 475 397 635 162 120 780 -1561 0
533 269 720 508 507 -1562 0
235 178 164 641 92 334 -1563 0
539 754 611 610 72 77 746 -1564 0
640 511 752 538 556 664 -1565 0
544 715 210 15 589 87 -1566 0
26 661 9 410 648 487 598 596 450 741 -1567 0
560 359 361 80 531 428 490 650 -1568 0
378 735 20 487 163 766 112 700 -1569 0
411 316 629 507 590 -1570 0
745 522 740 430 51 483 -1571 0
484 621 207 474 -1572 0
320 140 20 275 109 702 85 -1573 0
384 353 151 521 -1574 0
48 735 109 614 151 -1575 0
102 468 300 577 317 -1576 0
371 738 607 753 684 480 -1577 0
738 648 656 -1578 0
506 136 180 -1579 0
3 707 264 152 224 64 -1580 0
783 508 791 413 755 652 709 -1581 0
583 704 522 713 554 205 -1582 0
363 599 42 583 650 508 515 689 -1583 0
784 762 490 76 714 426 321 -1584 0
-1 1400 0
-1 1320 0
-1 956 0
-1 1381 0
-1 1373 0
-1 853 0
-1 1566 0
-1 1073 0
-2 958 0
-2 1092 0
-2 1506 0
-3 1260 0
-3 1332 0
-3 1246 0
-3 905 0
-3 1241 0
-4 1543 0
-4 900 0
-4 1442 0
-4 837 0
-4 1457 0
-4 1555 0
-4 1189 0
-5 1410 0
-5 1275 0
-5 1453 0
-5 1184 0
-5 1254 0
-5 1218 0
-6 1189 0
-6 1483 0
-6 1353 0
-6 1502 0
-6 1172 0
-6 965 0
-6 1574 0
-6 1143 0
-7 945 0
-7 980 0
-7 1173 0
-7 1156 0
-7 1238 0
-7 1419 0
-8 1065 0
-8 1428 0
-8 882 0
-8 1292 0
-8 806 0
-9 1300 0
-9 925 0
-9 1421 0
-9 1052 0
-9 1382 0
-9 1194 0
-9 1466 0
-10 1291 0
-10 1067 0
-10 819 0
-10 1286 0
-10 1280 0
-10 1247 0
-11 1039 0
-11 1491 0
-11 1525 0
-11 1562 0
-11 1048 0
-12 954 0
-12 891 0
-12 966 0
-12 1094 0
-12 955 0
-12 1267 0
-13 1024 0
-13 922 0
-13 1092 0
-13 1130 0
-13 852 0
-14 1444 0
-14 1081 0
-14 1285 0
-14 1232 0
-14 1377 0
-14 1139 0
-14 1105 0
-14 1309 0
-14 1090 0
-15 1186 0
-15 1447 0
-15 1567 0
-15 1398 0
-15 1449 0
-16 925 0
-16 1146 0
-16 892 0
-16 1497 0
-17 945 0
-17 1156 0
-18 1107 0
-18 1579 0
-18 1373 0
-18 893 0
-18 1239 0
-18 892 0
-19 1397 0
-19 958 0
-19 890 0
-19 1063 0
-19 1206 0
-19 1312 0
-19 996 0
-20 881 0
-20 1276 0
-20 903 0
-20 1178 0
-20 1540 0
-21 951 0
-21 1101 0
-21 1218 0
-21 1327 0
-21 1251 0
-21 863 0
-22 1372 0
-22 908 0
-22 1410 0
-22 1545 0
-22 797 0
-22 1342 0
-22 1204 0
-22 1199 0
-22 1406 0
-23 1010 0
-23 988 0
-23 1239 0
-23 1395 0
-23 1173 0
-23 1108 0
-23 1414 0
-23 1103 0
-24 867 0
-24 1123 0
-24 814 0
-24 1255 0
-24 1087 0
-24 1233 0
-24 1528 0
-24 1535 0
-25 1237 0
-25 1123 0
-25 1573 0
-25 809 0
-25 860 0
-25 1441 0
-25 819 0
-26 868 0
-26 1545 0
-27 1435 0
-27 1010 0
-27 1483 0
-27 924 0
-27 1028 0
-27 1156 0
-27 1194 0
-28 1405 0
-28 1237 0
-28 855 0
-28 1053 0
-28 1510 0
-28 1573 0
-28 1201 0
-29 935 0
-29 1296 0
-29 1428 0
-29 836 0
-29 1173 0
-29 801 0
-29 1318 0
-29 1457 0
-30 847 0
-30 848 0
-30 1245 0
-30 1282 0
-31 970 0
-31 1300 0
-31 1026 0
-31 902 0
-31 1118 0
-31 1130 0
-31 884 0
-31 1110 0
-32 1293 0
-32 1221 0
-32 1450 0
-32 1427 0
-32 1288 0
-32 1120 0
-33 1093 0
-33 876 0
-33 1096 0
-33 903 0
-33 1032 0
-33 1045 0
-33 1202 0
-34 1409 0
-34 1149 0
-34 1325 0
-34 996 0
-34 1317 0
-34 1386 0
-34 906 0
-34 1255 0
-35 1264 0
-35 1425 0
-35 858 0
-35 1171 0
-35 849 0
-35 818 0
-35 1463 0
-36 1007 0
-36 1440 0
-36 956 0
-36 1468 0
-36 1084 0
-36 1281 0
-36 1052 0
-37 1481 0
-37 1144 0
-37 1212 0
-37 876 0
-37 1425 0
-37 1558 0
-37 1340 0
-37 1001 0
-37 1104 0
-38 1541 0
-38 957 0
-38 1078 0
-38 1028 0
-38 889 0
-38 834 0
-38 1483 0
-38 966 0
-39 804 0
-39 1504 0
-39 1346 0
-39 1353 0
-39 835 0
-39 1121 0
-40 959 0
-40 914 0
-40 1233 0
-41 854 0
-41 1056 0
-41 1386 0
-41 1257 0
-41 1262 0
-41 1171 0
-42 1414 0
-42 861 0
-43 1080 0
-43 824 0
-43 1175 0
-44 928 0
-44 1463 0
-44 1411 0
-44 1233 0
-44 857 0
-45 1187 0
-45 1471 0
-45 963 0
-45 810 0
-45 1226 0
-46 1420 0
-46 1369 0
-46 1217 0
-46 1455 0
-46 1344 0
-46 949 0
-46 1443 0
-46 1219 0
-46 1276 0
-46 1409 0
-47 1174 0
-47 808 0
-47 818 0
-47 822 0
-47 1515 0
-48 1078 0
-48 1350 0
-48 1175 0
-48 1028 0
-48 801 0
-48 1541 0
-49 1494 0
-49 1316 0
-49 1515 0
-49 1176 0
-49 1416 0
-49 1069 0
-49 1254 0
-50 1456 0
-50 1379 0
-50 1467 0
-50 1490 0
-50 930 0
-50 1280 0
-50 811 0
-51 947 0
-51 914 0
-51 946 0
-51 1395 0
-51 1173 0
-51 1057 0
-51 1495 0
-51 1561 0
-51 1414 0
-52 947 0
-52 1366 0
-52 1330 0
-52 1001 0
-52 840 0
-52 1053 0
-52 1559 0
-52 986 0
-52 1206 0
-53 1394 0
-53 827 0
-53 840 0
-53 1426 0
-53 1249 0
-54 1187 0
-54 1185 0
-54 1404 0
-54 1534 0
-54 1436 0
-54 1064 0
-54 1219 0
-55 954 0
-55 1581 0
-55 1154 0
-55 1286 0
-55 1409 0
-55 1107 0
-55 1319 0
-56 926 0
-56 928 0
-56 1582 0
-56 1568 0
-56 1279 0
-56 1542 0
-56 1049 0
-57 858 0
-57 1177 0
-57 1164 0
-57 882 0
-57 1231 0
-57 1391 0
-57 1249 0
-58 971 0
-58 1273 0
-58 1280 0
-58 1354 0
-58 1550 0
-58 1569 0
-58 1238 0
-59 946 0
-59 915 0
-59 1052 0
-59 1080 0
-60 1160 0
-60 1464 0
-60 801 0
-60 1037 0
-61 1006 0
-61 1346 0
-61 824 0
-61 1179 0
-61 1066 0
-61 1059 0
-62 1251 0
-62 1215 0
-62 1475 0
-62 964 0
-63 1187 0
-63 1389 0
-63 1079 0
-63 1562 0
-63 1319 0
-64 1289 0
-64 820 0
-64 1272 0
-64 1493 0
-64 1221 0
-65 1486 0
-65 961 0
-65 1342 0
-65 983 0
-66 1482 0
-66 1080 0
-66 1062 0
-66 1094 0
-66 928 0
-67 1416 0
-67 800 0
-67 1280 0
-67 865 0
-67 1314 0
-67 864 0
-68 800 0
-68 1064 0
-68 1438 0
-68 832 0
-68 1424 0
-69 1498 0
-69 1452 0
-69 978 0
-69 1030 0
-69 1174 0
-69 1018 0
-69 1119 0
-69 1282 0
-70 1424 0
-70 1118 0
-70 1028 0
-70 1534 0
-70 1265 0
-70 876 0
-71 1374 0
-71 1432 0
-71 1462 0
-71 1246 0
-71 1013 0
-71 1230 0
-71 1395 0
-71 1272 0
-72 1241 0
-72 1400 0
-72 1328 0
-72 1371 0
-73 1456 0
-73 1178 0
-73 1288 0
-73 1037 0
-73 1309 0
-73 1572 0
-73 1507 0
-73 1334 0
-74 1500 0
-74 1006 0
-74 852 0
-74 1315 0
-74 994 0
-74 1247 0
-75 1513 0
-75 1211 0
-75 1086 0
-75 1074 0
-75 1501 0
-75 1553 0
-75 976 0
-76 1217 0
-76 1414 0
-76 1153 0
-76 1284 0
-76 893 0
-76 1574 0
-76 1340 0
-77 987 0
-77 949 0
-77 1080 0
-77 1018 0
-77 1459 0
-77 886 0
-77 1082 0
-77 1139 0
-78 1512 0
-78 826 0
-78 1229 0
-78 1374 0
-78 1352 0
-78 1041 0
-78 859 0
-78 1306 0
-78 1232 0
-78 1095 0
-78 1053 0
-78 1574 0
-79 1245 0
-79 1221 0
-79 1371 0
-79 932 0
-79 1115 0
-79 1024 0
-80 1518 0
-80 853 0
-80 948 0
-80 1232 0
-80 1292 0
-81 1482 0
-81 1543 0
-81 1427 0
-81 1287 0
-81 844 0
-81 809 0
-81 920 0
-81 1557 0
-81 953 0
-82 1478 0
-82 1377 0
-82 1134 0
-82 1574 0
-82 1406 0
-82 1020 0
-82 1206 0
-82 1563 0
-83 1448 0
-83 1188 0
-83 980 0
-83 877 0
-83 1584 0
-83 1137 0
-83 836 0
-84 1112 0
-84 1439 0
-84 881 0
-85 1272 0
-85 1445 0
-85 1199 0
-85 1231 0
-85 1509 0
-85 1065 0
-85 1431 0
-85 888 0
-86 1195 0
-86 997 0
-86 1016 0
-86 1380 0
-86 1339 0
-87 1190 0
-87 1184 0
-87 1248 0
-87 995 0
-87 965 0
-87 1285 0
-87 861 0
-87 1339 0
-88 1238 0
-88 1321 0
-88 1244 0
-88 1416 0
-88 818 0
-88 1579 0
-89 1522 0
-89 915 0
-89 905 0
-89 1385 0
-90 972 0
-90 1305 0
-90 1130 0
-90 1279 0
-90 1329 0
-90 1537 0
-91 1205 0
-91 1194 0
-91 1306 0
-91 1313 0
-91 956 0
-92 1429 0
-92 1304 0
-92 1382 0
-92 1335 0
-92 1331 0
-92 1253 0
-92 1438 0
-93 1306 0
-93 813 0
-93 984 0
-93 941 0
-93 931 0
-93 1207 0
-93 1457 0
-94 1092 0
-94 1117 0
-94 976 0
-94 1260 0
-94 1145 0
-94 1551 0
-94 831 0
-95 1188 0
-95 864 0
-95 1349 0
-95 1436 0
-95 1175 0
-95 1571 0
-95 1011 0
-96 1483 0
-96 1274 0
-96 1515 0
-96 1523 0
-96 1035 0
-96 955 0
-97 1349 0
-97 1299 0
-98 984 0
-98 1320 0
-98 1174 0
-98 970 0
-98 1267 0
-98 1510 0
-99 1451 0
-99 1391 0
-99 973 0
-99 1166 0
-99 1141 0
-99 1161 0
-100 910 0
-100 1422 0
-100 1332 0
-100 1308 0
-100 1294 0
-100 1481 0
-100 946 0
-101 1270 0
-101 1491 0
-101 1208 0
-101 978 0
-101 1053 0
-102 1014 0
-102 898 0
-102 834 0
-102 804 0
-103 1234 0
-103 1337 0
-103 997 0
-103 1484 0
-103 857 0
-103 1285 0
-104 1410 0
-104 1174 0
-104 1296 0
-104 865 0
-104 852 0
-104 1508 0
-104 1207 0
-104 1194 0
-104 1338 0
-105 1331 0
-105 1313 0
-105 1494 0
-105 996 0
-105 1015 0
-105 1551 0
-105 925 0
-105 1221 0
-105 1352 0
-105 816 0
-106 977 0
-106 1543 0
-106 1058 0
-106 1341 0
-106 808 0
-107 1159 0
-107 1268 0
-107 1098 0
-107 1122 0
-107 900 0
-107 1248 0
-107 1355 0
-107 974 0
-107 1438 0
-107 1288 0
-108 1079 0
-108 970 0
-108 881 0
-108 1305 0
-108 991 0
-109 1131 0
-109 1290 0
-109 1075 0
-109 1413 0
-109 1205 0
-109 1029 0
-109 915 0
-109 1020 0
-110 1036 0
-110 1190 0
-110 1212 0
-110 1438 0
-110 1144 0
-110 1108 0
-111 839 0
-111 1340 0
-111 1275 0
-111 1149 0
-111 804 0
-112 919 0
-112 1556 0
-112 1564 0
-112 1503 0
-112 1518 0
-112 1349 0
-112 1074 0
-112 1002 0
-113 1544 0
-113 1493 0
-113 1375 0
-114 1028 0
-114 990 0
-114 956 0
-114 1100 0
-114 1541 0
-114 950 0
-114 1301 0
-115 1249 0
-115 1243 0
-115 1539 0
-115 1148 0
-115 1301 0
-115 850 0
-115 1085 0
-116 1464 0
-116 1345 0
-116 933 0
-116 808 0
-116 1174 0
-116 1128 0
-116 898 0
-117 957 0
-117 1457 0
-117 1414 0
-117 906 0
-117 1286 0
-117 1213 0
-118 822 0
-118 1306 0
-118 853 0
-118 1502 0
-118 1028 0
-118 1002 0
-119 821 0
-119 1325 0
-119 1250 0
-119 1563 0
-119 1365 0
-119 819 0
-119 944 0
-119 1415 0
-120 1548 0
-120 1256 0
-120 825 0
-121 920 0
-121 946 0
-121 881 0
-121 1272 0
-121 1328 0
-121 1565 0
-121 824 0
-122 1337 0
-122 1247 0
-122 1213 0
-122 1350 0
-122 1559 0
-122 1228 0
-123 1066 0
-123 837 0
-123 885 0
-123 1385 0
-123 1375 0
-123 1575 0
-124 886 0
-124 1528 0
-124 1491 0
-124 1007 0
-124 1205 0
-124 816 0
-125 1219 0
-125 1551 0
-125 1368 0
-125 828 0
-125 984 0
-125 1032 0
-125 1540 0
-125 1206 0
-126 1309 0
-126 900 0
-126 1569 0
-126 1147 0
-126 1384 0
-126 966 0
-126 1045 0
-126 830 0
-127 1416 0
-127 862 0
-127 881 0
-127 1035 0
-127 1099 0
-127 1362 0
-128 816 0
-128 1035 0
-128 1286 0
-128 1207 0
-128 956 0
-128 894 0
-129 1342 0
-129 1424 0
-129 1310 0
-129 891 0
-129 1559 0
-129 1565 0
-129 854 0
-129 1344 0
-130 1299 0
-130 943 0
-130 1494 0
-130 989 0
-130 1158 0
-130 1401 0
-131 1084 0
-131 811 0
-131 1175 0
-131 1019 0
-131 1150 0
-131 1187 0
-132 1426 0
-132 1191 0
-132 1182 0
-132 1115 0
-132 1225 0
-132 1097 0
-132 1260 0
-132 1139 0
-132 1141 0
-133 1492 0
-133 929 0
-133 1248 0
-133 826 0
-133 1091 0
-134 1105 0
-134 1389 0
-134 925 0
-134 1188 0
-135 1552 0
-135 1513 0
-135 1126 0
-135 996 0
-135 1384 0
-135 839 0
-136 1022 0
-136 1285 0
-136 1406 0
-136 1197 0
-136 827 0
-136 1258 0
-137 797 0
-137 1357 0
-137 1443 0
-137 841 0
-137 993 0
-137 1563 0
-137 1089 0
-137 1372 0
-138 1078 0
-138 1505 0
-138 1093 0
-138 1107 0
-138 1316 0
-138 1237 0
-139 1323 0
-139 1103 0
-139 1022 0
-139 1525 0
-140 1035 0
-140 1203 0
-141 1396 0
-141 1445 0
-141 1044 0
-141 1298 0
-141 851 0
-142 1304 0
-142 1475 0
-142 1378 0
-142 1465 0
-142 1032 0
-142 1209 0
-142 1440 0
-143 1023 0
-143 1237 0
-143 1119 0
-143 1056 0
-143 1068 0
-143 1557 0
-144 1475 0
-144 1160 0
-144 1327 0
-144 1145 0
-144 1532 0
-144 818 0
-145 1332 0
-145 1170 0
-145 1171 0
-145 1130 0
-146 1367 0
-146 894 0
-146 1558 0
-146 1455 0
-146 940 0
-146 1285 0
-146 1245 0
-146 1033 0
-147 1049 0
-147 1080 0
-147 1292 0
-147 1582 0
-147 1195 0
-148 975 0
-148 885 0
-148 1289 0
-148 799 0
-148 1232 0
-148 1399 0
-148 1126 0
-148 1214 0
-148 1413 0
-149 1386 0
-149 1019 0
-149 1497 0
-149 1269 0
-149 1568 0
-150 1444 0
-150 1285 0
-150 1093 0
-150 1495 0
-150 1248 0
-150 1277 0
-150 1221 0
-150 1214 0
-151 1045 0
-151 1080 0
-151 1169 0
-151 937 0
-151 1302 0
-152 1029 0
-152 1202 0
-152 1351 0
-152 1409 0
-152 1119 0
-152 805 0
-153 876 0
-153 820 0
-153 1203 0
-153 1050 0
-154 1473 0
-154 877 0
-154 1136 0
-155 1566 0
-155 1333 0
-155 1245 0
-155 1011 0
-155 863 0
-155 1295 0
-156 1515 0
-156 1328 0
-156 1208 0
-156 1048 0
-156 907 0
-156 834 0
-156 945 0
-156 1535 0
-156 1173 0
-157 1540 0
-157 1084 0
-157 821 0
-157 1211 0
-157 1319 0
-158 1584 0
-158 1531 0
-158 878 0
-158 902 0
-158 1356 0
-159 820 0
-159 1286 0
-159 1331 0
-159 1029 0
-159 803 0
-159 836 0
-159 1119 0
-159 832 0
-159 927 0
-159 1316 0
-160 1562 0
-160 878 0
-160 1028 0
-160 1422 0
-161 802 0
-161 1392 0
-161 1438 0
-161 1400 0
-161 964 0
-161 1378 0
-161 1119 0
-161 1581 0
-162 1086 0
-162 1284 0
-162 1454 0
-162 1022 0
-162 1461 0
-162 1582 0
-163 1113 0
-163 860 0
-163 1383 0
-163 1148 0
-163 912 0
-163 1344 0
-164 1246 0
-164 1187 0
-164 1512 0
-165 1339 0
-165 1382 0
-165 1187 0
-165 912 0
-165 1249 0
-165 1214 0
-166 1499 0
-166 803 0
-166 1309 0
-167 801 0
-167 979 0
-167 900 0
-167 1412 0
-167 1299 0
-168 970 0
-168 1372 0
-168 1478 0
-168 1070 0
-168 1229 0
-168 928 0
-168 1577 0
-168 1039 0
-169 1082 0
-169 1051 0
-169 967 0
-169 1153 0
-169 1181 0
-170 1099 0
-170 1216 0
-170 1049 0
-170 1375 0
-170 1566 0
-170 805 0
-171 1203 0
-171 1164 0
-171 1479 0
-171 1382 0
-172 937 0
-172 1242 0
-172 1531 0
-172 1080 0
-173 1451 0
-173 1453 0
-173 1045 0
-173 1491 0
-173 1173 0
-173 805 0
-174 1130 0
-174 1204 0
-174 1552 0
-175 1260 0
-175 1547 0
-175 898 0
-175 1488 0
-175 1390 0
-176 1483 0
-176 1056 0
-176 1305 0
-176 1326 0
-176 1290 0
-177 1039 0
-177 1338 0
-177 1018 0
-177 1013 0
-177 929 0
-177 857 0
-177 1120 0
-177 837 0
-177 1350 0
-178 1165 0
-178 966 0
-178 1112 0
-178 1244 0
-178 887 0
-178 1014 0
-179 1293 0
-179 1251 0
-179 855 0
-179 934 0
-179 956 0
-179 1182 0
-179 876 0
-180 1242 0
-180 1059 0
-180 1394 0
-180 1489 0
-180 992 0
-180 1485 0
-180 1580 0
-181 1361 0
-181 869 0
-181 1138 0
-181 1160 0
-181 1049 0
-181 799 0
-181 1257 0
-182 1152 0
-182 872 0
-182 1092 0
-182 996 0
-182 1580 0
-182 839 0
-182 995 0
-182 1008 0
-182 1411 0
-182 1130 0
-182 1365 0
-183 1031 0
-183 970 0
-183 1280 0
-183 1235 0
-183 1483 0
-183 1135 0
-184 1512 0
-184 1353 0
-184 953 0
-184 877 0
-184 968 0
-184 1233 0
-185 1198 0
-185 1389 0
-185 841 0
-185 1281 0
-186 1250 0
-186 889 0
-186 1045 0
-186 1085 0
-186 1352 0
-186 923 0
-187 1279 0
-187 1449 0
-187 1107 0
-187 885 0
-187 1020 0
-188 1192 0
-188 1444 0
-188 1420 0
-188 1417 0
-188 1353 0
-188 1290 0
-188 1326 0
-189 820 0
-189 829 0
-189 947 0
-189 1255 0
-189 1184 0
-190 1338 0
-190 829 0
-190 1323 0
-190 949 0
-190 968 0
-190 1140 0
-190 942 0
-190 1094 0
-190 958 0
-191 990 0
-191 864 0
-191 1481 0
-191 889 0
-191 1314 0
-192 966 0
-192 847 0
-192 1215 0
-192 1054 0
-192 937 0
-192 1048 0
-193 1538 0
-193 1155 0
-193 1294 0
-193 1228 0
-193 1307 0
-193 852 0
-194 927 0
-194 1098 0
-194 1209 0
-194 872 0
-195 1312 0
-195 1342 0
-195 1208 0
-195 798 0
-195 1389 0
-195 1310 0
-195 1347 0
-195 1091 0
-196 795 0
-196 1279 0
-196 1413 0
-196 1199 0
-196 1532 0
-196 1296 0
-196 1374 0
-196 961 0
-196 1580 0
-197 1423 0
-197 882 0
-197 1330 0
-197 1273 0
-197 1122 0
-197 1384 0
-197 846 0
-197 1290 0
-197 1291 0
-198 1334 0
-198 958 0
-198 1554 0
-198 1407 0
-198 1234 0
-198 946 0
-198 1410 0
-199 923 0
-199 1455 0
-199 1259 0
-199 877 0
-199 1093 0
-200 879 0
-200 1356 0
-200 1237 0
-200 1442 0
-200 932 0
-200 805 0
-201 1270 0
-201 1244 0
-201 1346 0
-201 953 0
-201 1356 0
-201 1382 0
-201 1265 0
-201 1171 0
-201 1529 0
-201 1314 0
-202 1314 0
-202 1049 0
-202 1239 0
-202 1350 0
-202 1321 0
-203 1446 0
-203 1218 0
-203 1005 0
-203 1496 0
-203 822 0
-203 937 0
-203 950 0
-204 1188 0
-204 1346 0
-204 1221 0
-204 878 0
-205 1256 0
-205 1002 0
-205 1421 0
-206 1533 0
-206 1073 0
-206 1416 0
-206 1184 0
-206 1459 0
-206 1125 0
-206 1347 0
-206 958 0
-206 912 0
-206 823 0
-207 1459 0
-207 862 0
-207 1189 0
-207 1137 0
-207 812 0
-208 1184 0
-208 1127 0
-208 1547 0
-208 1562 0
-208 1352 0
-208 1105 0
-208 1324 0
-209 1466 0
-209 948 0
-209 1522 0
-209 1414 0
-209 1516 0
-210 1107 0
-210 1509 0
-210 957 0
-210 1121 0
-210 909 0
-211 1103 0
-211 836 0
-211 1042 0
-211 1403 0
-211 1024 0
-211 837 0
-212 1339 0
-212 928 0
-212 976 0
-212 1476 0
-212 1246 0
-212 826 0
-212 1200 0
-213 1561 0
-213 1571 0
-213 1544 0
-213 967 0
-213 1067 0
-213 1095 0
-213 1423 0
-213 1506 0
-214 970 0
-214 997 0
-214 1041 0
-214 850 0
-214 1233 0
-214 1153 0
-214 1539 0
-215 880 0
-215 924 0
-215 1059 0
-215 961 0
-215 975 0
-215 1540 0
-215 927 0
-216 1260 0
-216 1149 0
-216 1518 0
-216 915 0
-216 1393 0
-216 903 0
-216 1376 0
-216 1136 0
-217 1237 0
-217 840 0
-217 1334 0
-217 1088 0
-217 882 0
-217 1005 0
-217 1178 0
-217 1146 0
-217 1124 0
-217 927 0
-217 1405 0
-218 1235 0
-218 1414 0
-218 847 0
-218 1035 0
-219 916 0
-219 1230 0
-219 1217 0
-219 1480 0
-219 1420 0
-219 1297 0
-219 831 0
-219 801 0
-220 1454 0
-220 1481 0
-220 835 0
-220 1047 0
-220 850 0
-220 1431 0
-220 1515 0
-220 1532 0
-221 1461 0
-221 1300 0
-221 1165 0
-221 1108 0
-221 1553 0
-221 896 0
-222 1469 0
-222 1361 0
-222 1127 0
-222 1033 0
-222 954 0
-224 1499 0
-224 1459 0
-224 925 0
-224 1174 0
-224 1400 0
-224 938 0
-225 1278 0
-225 1069 0
-225 1296 0
-225 1357 0
-225 1368 0
-225 951 0
-225 889 0
-225 1499 0
-226 1508 0
-226 1134 0
-226 898 0
-226 1173 0
-227 804 0
-227 850 0
-227 959 0
-227 1018 0
-227 912 0
-227 1584 0
-228 1452 0
-228 1494 0
-228 1264 0
-228 1427 0
-228 813 0
-228 1039 0
-229 1163 0
-229 1060 0
-229 962 0
-229 1239 0
-230 1104 0
-230 1445 0
-230 1035 0
-230 1364 0
-230 1304 0
-231 1225 0
-231 1087 0
-231 1312 0
-231 1436 0
-231 946 0
-231 1459 0
-231 807 0
-232 1144 0
-232 1140 0
-232 1038 0
-232 1034 0
-232 1379 0
-232 1482 0
-232 961 0
-232 1381 0
-232 830 0
-233 1142 0
-233 1045 0
-233 1119 0
-233 949 0
-233 1388 0
-233 1226 0
-233 939 0
-233 1022 0
-234 1256 0
-234 1336 0
-234 1488 0
-234 856 0
-234 1161 0
-234 1480 0
-234 794 0
-234 1382 0
-234 816 0
-235 894 0
-235 848 0
-235 1251 0
-235 996 0
-235 1527 0
-235 990 0
-235 1349 0
-236 1264 0
-236 1021 0
-236 1490 0
-236 1165 0
-237 1169 0
-237 1105 0
-237 1360 0
-237 1069 0
-237 969 0
-237 1140 0
-237 1121 0
-237 1551 0
-237 1472 0
-238 1212 0
-238 1347 0
-238 891 0
-238 1378 0
-238 973 0
-238 971 0
-238 845 0
-239 1144 0
-239 1075 0
-239 1107 0
-239 830 0
-239 1523 0
-239 795 0
-239 875 0
-239 835 0
-240 1323 0
-240 843 0
-240 1414 0
-240 885 0
-240 1287 0
-240 908 0
-240 1126 0
-241 871 0
-241 1365 0
-241 1253 0
-241 827 0
-241 1039 0
-241 1188 0
-241 812 0
-241 1205 0
-242 1047 0
-242 835 0
-242 1305 0
-242 1278 0
-242 943 0
-244 1103 0
-244 809 0
-244 1052 0
-244 805 0
-244 822 0
-244 981 0
-244 1320 0
-244 1411 0
-245 1257 0
-245 1373 0
-245 1239 0
-245 1067 0
-245 1525 0
-245 1252 0
-245 1078 0
-246 1103 0
-246 1575 0
-246 1530 0
-246 1490 0
-246 1213 0
-246 1002 0
-246 937 0
-247 1352 0
-247 938 0
-247 884 0
-247 1034 0
-247 1228 0
-248 1287 0
-248 1286 0
-248 805 0
-248 1092 0
-248 1272 0
-248 1168 0
-248 1306 0
-248 942 0
-249 958 0
-249 1176 0
-249 1054 0
-249 851 0
-249 1113 0
-249 1277 0
-249 1432 0
-250 1161 0
-250 893 0
-250 1282 0
-250 990 0
-250 1206 0
-250 885 0
-250 1557 0
-251 1457 0
-251 1291 0
-251 829 0
-251 888 0
-251 1004 0
-251 1268 0
-251 1024 0
-251 1433 0
-251 1146 0
-252 862 0
-252 1108 0
-252 917 0
-253 1120 0
-253 1453 0
-253 1162 0
-253 1470 0
-253 1378 0
-253 947 0
-254 1103 0
-254 928 0
-254 1041 0
-254 1220 0
-254 1049 0
-254 1064 0
-254 1089 0
-254 1176 0
-255 1330 0
-255 1241 0
-255 920 0
-255 1122 0
-255 914 0
-255 1314 0
-256 1257 0
-256 802 0
-256 1245 0
-256 1428 0
-256 1313 0
-256 1431 0
-256 1323 0
-257 1582 0
-257 833 0
-257 935 0
-258 1582 0
-258 1519 0
-258 1104 0
-258 975 0
-258 1205 0
-258 1081 0
-258 1397 0
-259 958 0
-259 1371 0
-259 1252 0
-259 1546 0
-259 1331 0
-259 882 0
-259 1047 0
-260 1137 0
-260 1117 0
-260 1519 0
-260 1267 0
-260 876 0
-261 964 0
-261 1508 0
-261 999 0
-261 914 0
-261 1155 0
-261 1308 0
-262 956 0
-262 1327 0
-262 869 0
-262 1005 0
-262 1181 0
-262 1355 0
-263 1553 0
-263 824 0
-263 1540 0
-263 858 0
-263 1208 0
-264 1015 0
-264 912 0
-264 958 0
-264 837 0
-264 1294 0
-264 997 0
-264 835 0
-264 1233 0
-265 1462 0
-265 1172 0
-265 1324 0
-265 1525 0
-265 795 0
-266 894 0
-266 1276 0
-266 1329 0
-266 1257 0
-266 1026 0
-266 943 0
-266 1367 0
-266 862 0
-266 1199 0
-267 1057 0
-267 846 0
-267 835 0
-267 821 0
-268 1382 0
-269 1555 0
-269 1471 0
-269 1551 0
-269 994 0
-269 1126 0
-269 1173 0
-269 1313 0
-270 1345 0
-270 1299 0
-270 1348 0
-270 1358 0
-270 1069 0
-270 872 0
-270 1314 0
-270 867 0
-271 905 0
-271 894 0
-271 1094 0
-271 1201 0
-272 1285 0
-272 1087 0
-272 1575 0
-272 814 0
-272 1435 0
-272 1429 0
-273 1376 0
-273 1564 0
-273 1373 0
-273 1448 0
-273 1462 0
-273 1151 0
-273 1115 0
-273 847 0
-274 1575 0
-274 1205 0
-274 1129 0
-274 1184 0
-274 1060 0
-274 1188 0
-275 1164 0
-275 798 0
-276 1373 0
-276 1347 0
-276 1513 0
-276 1301 0
-276 1578 0
-277 1013 0
-277 957 0
-277 1364 0
-277 945 0
-278 1182 0
-278 1378 0
-278 1164 0
-278 1299 0
-278 1382 0
-278 1015 0
-278 1186 0
-278 1212 0
-278 1410 0
-278 1143 0
-279 1260 0
-279 1496 0
-279 1474 0
-279 1518 0
-279 966 0
-279 1136 0
-279 1322 0
-280 1070 0
-280 1168 0
-280 822 0
-280 1039 0
-280 981 0
-280 1020 0
-280 1304 0
-281 923 0
-281 1430 0
-281 1052 0
-281 1522 0
-281 987 0
-281 1296 0
-281 795 0
-282 1256 0
-282 1162 0
-282 1291 0
-282 1386 0
-282 1194 0
-282 1359 0
-283 1226 0
-283 1549 0
-283 1234 0
-283 1084 0
-283 1279 0
-283 828 0
-283 1214 0
-284 1504 0
-284 1295 0
-284 1544 0
-284 1394 0
-284 864 0
-284 1431 0
-284 907 0
-284 876 0
-285 1285 0
-285 1089 0
-285 1220 0
-285 1356 0
-285 1028 0
-285 1482 0
-286 1208 0
-286 955 0
-286 1196 0
-286 842 0
-286 1580 0
-286 1371 0
-287 1058 0
-287 1519 0
-287 1223 0
-287 1126 0
-287 1056 0
-287 1282 0
-288 1256 0
-288 1275 0
-288 994 0
-288 903 0
-288 1317 0
-289 864 0
-289 1477 0
-289 1051 0
-289 1501 0
-290 1528 0
-290 1531 0
-290 830 0
-290 797 0
-290 1187 0
-290 1018 0
-291 804 0
-291 1460 0
-291 1124 0
-291 1148 0
-291 1227 0
-291 968 0
-291 1303 0
-291 933 0
-291 1076 0
-291 1243 0
-291 1505 0
-292 958 0
-292 966 0
-292 832 0
-292 808 0
-293 1428 0
-293 1170 0
-293 983 0
-293 1368 0
-293 1471 0
-293 1254 0
-294 1151 0
-294 1309 0
-294 1230 0
-294 990 0
-294 1197 0
-294 1416 0
-295 1249 0
-295 891 0
-295 1043 0
-295 971 0
-295 1255 0
-295 1431 0
-296 1225 0
-296 1309 0
-296 1526 0
-296 1248 0
-296 1383 0
-296 1174 0
-296 1324 0
-297 1344 0
-297 1164 0
-297 1294 0
-297 963 0
-297 1082 0
-297 1524 0
-297 1014 0
-298 1228 0
-298 1474 0
-298 1578 0
-298 1055 0
-298 1078 0
-298 918 0
-299 1298 0
-299 892 0
-299 1445 0
-299 1049 0
-299 1027 0
-299 957 0
-299 1093 0
-300 868 0
-300 1141 0
-300 1118 0
-300 1464 0
-300 1471 0
-300 997 0
-301 1558 0
-301 1497 0
-301 958 0
-301 1003 0
-301 1354 0
-301 1018 0
-301 994 0
-301 803 0
-302 1388 0
-302 1040 0
-302 819 0
-302 1079 0
-302 930 0
-303 1569 0
-303 1312 0
-303 1529 0
-303 1262 0
-303 834 0
-303 1185 0
-303 1387 0
-303 875 0
-303 944 0
-304 1159 0
-304 881 0
-304 1017 0
-304 1075 0
-304 993 0
-304 1238 0
-304 1518 0
-305 1328 0
-305 1337 0
-305 1124 0
-305 907 0
-305 842 0
-305 1389 0
-305 1581 0
-305 1375 0
-305 830 0
-306 860 0
-306 1132 0
-306 1127 0
-306 1363 0
-306 1336 0
-306 1199 0
-306 1122 0
-306 1480 0
-307 1068 0
-307 925 0
-307 1295 0
-307 862 0
-307 1414 0
-307 1313 0
-307 908 0
-307 978 0
-308 1212 0
-308 1247 0
-308 1141 0
-308 1349 0
-309 1257 0
-309 1067 0
-309 1553 0
-309 1065 0
-309 1431 0
-309 949 0
-309 902 0
-309 1330 0
-310 1237 0
-310 1514 0
-310 1212 0
-310 1254 0
-310 883 0
-310 1075 0
-310 1508 0
-310 831 0
-311 1430 0
-311 977 0
-311 1122 0
-311 1435 0
-312 1239 0
-312 1441 0
-312 1069 0
-312 1439 0
-312 1000 0
-312 1475 0
-312 841 0
-312 1190 0
-313 1042 0
-313 800 0
-313 1328 0
-313 1248 0
-313 1299 0
-314 857 0
-314 1093 0
-314 1505 0
-314 1433 0
-314 1480 0
-314 1461 0
-314 1392 0
-315 1288 0
-315 1114 0
-315 1217 0
-316 1130 0
-316 1479 0
-316 1164 0
-316 1060 0
-316 1421 0
-316 1299 0
-317 1039 0
-317 992 0
-317 860 0
-317 1171 0
-317 1416 0
-318 1400 0
-318 1048 0
-318 1210 0
-318 1059 0
-318 1394 0
-318 996 0
-318 1253 0
-318 958 0
-318 1374 0
-319 976 0
-319 1079 0
-319 1570 0
-319 812 0
-319 1386 0
-319 1374 0
-319 1432 0
-319 1125 0
-320 1081 0
-320 1371 0
-320 1142 0
-320 1021 0
-320 1160 0
-320 1498 0
-320 1197 0
-320 1294 0
-321 1567 0
-321 1011 0
-321 1288 0
-321 1186 0
-322 1395 0
-322 1224 0
-322 1112 0
-322 1197 0
-322 1279 0
-322 1480 0
-323 1365 0
-323 1371 0
-323 1129 0
-323 1430 0
-323 1540 0
-323 1376 0
-323 1491 0
-323 1068 0
-324 1501 0
-324 996 0
-324 1090 0
-324 1562 0
-324 1195 0
-324 1024 0
-325 1182 0
-325 1287 0
-325 1337 0
-325 1261 0
-325 910 0
-325 1220 0
-325 1141 0
-325 1568 0
-326 1235 0
-326 1412 0
-326 1391 0
-326 900 0
-326 1146 0
-326 839 0
-326 955 0
-326 1175 0
-327 1293 0
-327 902 0
-327 1521 0
-327 832 0
-327 971 0
-328 927 0
-328 1398 0
-328 955 0
-328 961 0
-328 1541 0
-329 1311 0
-329 1223 0
-329 846 0
-329 1201 0
-329 1243 0
-329 1192 0
-329 1178 0
-329 1534 0
-330 1231 0
-330 1123 0
-330 1366 0
-331 1557 0
-331 1325 0
-331 1515 0
-331 1321 0
-331 1582 0
-331 1109 0
-331 1548 0
-331 1474 0
-332 1278 0
-332 1112 0
-332 1024 0
-332 951 0
-332 1579 0
-332 1393 0
-333 1328 0
-333 1552 0
-333 1324 0
-333 1365 0
-333 947 0
-333 1507 0
-333 1544 0
-334 923 0
-334 1226 0
-334 1090 0
-334 1468 0
-334 1024 0
-334 804 0
-335 1280 0
-335 1047 0
-335 1240 0
-335 1226 0
-336 1362 0
-336 915 0
-336 1113 0
-336 1292 0
-337 856 0
-337 872 0
-337 1245 0
-337 926 0
-337 993 0
-337 1189 0
-337 954 0
-338 1459 0
-338 1015 0
-339 925 0
-339 1342 0
-339 1284 0
-339 1457 0
-340 933 0
-340 1139 0
-340 1482 0
-340 1536 0
-340 997 0
-340 799 0
-340 1009 0
-340 987 0
-341 881 0
-341 853 0
-341 1045 0
-341 1471 0
-341 1112 0
-341 1438 0
-341 1520 0
-341 1541 0
-341 1338 0
-342 1403 0
-342 1145 0
-342 1116 0
-342 1442 0
-342 804 0
-342 1235 0
-342 1103 0
-342 995 0
-342 1017 0
-342 1352 0
-343 1352 0
-343 1171 0
-343 1263 0
-343 1237 0
-343 1212 0
-343 1280 0
-343 904 0
-343 1525 0
-343 1501 0
-344 884 0
-344 1043 0
-344 1336 0
-344 1514 0
-344 1206 0
-344 1494 0
-344 1442 0
-344 1369 0
-345 1566 0
-345 834 0
-345 1547 0
-345 1446 0
-345 1079 0
-345 1277 0
-345 1301 0
-346 866 0
-346 798 0
-346 1102 0
-346 1544 0
-346 1534 0
-347 1291 0
-347 1044 0
-347 805 0
-347 1272 0
-347 1126 0
-347 1278 0
-347 935 0
-347 1553 0
-349 1497 0
-349 979 0
-349 958 0
-349 1000 0
-349 1339 0
-349 1315 0
-349 1483 0
-350 1356 0
-350 1174 0
-350 1382 0
-350 1094 0
-350 1437 0
-350 1399 0
-350 1010 0
-350 996 0
-351 1267 0
-351 1479 0
-351 1510 0
-351 1458 0
-351 1164 0
-352 1321 0
-352 1115 0
-352 1044 0
-352 1405 0
-352 794 0
-352 1216 0
-352 1359 0
-352 912 0
-353 1478 0
-353 931 0
-353 1056 0
-353 1321 0
-353 823 0
-354 932 0
-354 1392 0
-354 1380 0
-354 1226 0
-354 1313 0
-354 1200 0
-354 1220 0
-355 1343 0
-355 1143 0
-355 1164 0
-355 1479 0
-355 1570 0
-355 1196 0
-356 836 0
-356 1476 0
-356 1236 0
-356 1081 0
-356 1187 0
-356 1433 0
-357 1564 0
-357 1391 0
-357 1450 0
-357 1091 0
-357 1473 0
-358 1231 0
-358 1489 0
-358 1276 0
-358 926 0
-358 954 0
-358 1413 0
-358 999 0
-358 1084 0
-359 1115 0
-359 1501 0
-359 1275 0
-359 1243 0
-359 1073 0
-359 810 0
-360 1478 0
-360 1354 0
-360 1277 0
-360 1199 0
-360 1189 0
-360 1116 0
-360 1328 0
-360 1351 0
-361 864 0
-361 1354 0
-361 1336 0
-361 1451 0
-361 1486 0
-361 1279 0
-362 1057 0
-362 1085 0
-362 869 0
-362 1203 0
-363 931 0
-363 1324 0
-363 1316 0
-363 1264 0
-363 956 0
-363 1259 0
-363 930 0
-364 1582 0
-364 1451 0
-364 1064 0
-364 1023 0
-364 912 0
-364 802 0
-364 1104 0
-365 1574 0
-365 1125 0
-365 1275 0
-365 1136 0
-365 808 0
-365 1352 0
-366 807 0
-366 1272 0
-366 1234 0
-366 1363 0
-366 981 0
-366 994 0
-366 1522 0
-366 1084 0
-367 1165 0
-367 859 0
-367 1447 0
-367 1038 0
-367 1513 0
-367 1123 0
-367 1261 0
-368 941 0
-368 985 0
-368 1110 0
-368 1044 0
-368 926 0
-368 846 0
-368 1490 0
-369 936 0
-369 795 0
-369 1003 0
-369 1441 0
-369 1059 0
-370 857 0
-370 1166 0
-370 843 0
-370 1288 0
-370 1506 0
-370 832 0
-370 958 0
-370 973 0
-370 1019 0
-371 1560 0
-371 1222 0
-371 908 0
-371 997 0
-371 1295 0
-372 1130 0
-372 1421 0
-373 1156 0
-373 823 0
-373 1355 0
-373 836 0
-373 1404 0
-373 1016 0
-374 875 0
-374 1035 0
-374 1257 0
-374 1199 0
-374 851 0
-375 869 0
-375 1139 0
-375 901 0
-375 845 0
-375 1501 0
-375 1220 0
-375 977 0
-375 1472 0
-376 1103 0
-376 1228 0
-376 1486 0
-376 1419 0
-377 1390 0
-377 1318 0
-377 1385 0
-377 794 0
-377 962 0
-378 794 0
-378 996 0
-378 1528 0
-378 1336 0
-378 1581 0
-378 1069 0
-379 1330 0
-379 1140 0
-379 1464 0
-379 821 0
-379 1469 0
-380 941 0
-380 1063 0
-380 1016 0
-380 1318 0
-380 1417 0
-381 854 0
-381 1308 0
-381 855 0
-381 913 0
-381 1094 0
-382 1105 0
-382 807 0
-382 1333 0
-382 1380 0
-382 1306 0
-382 1443 0
-382 1441 0
-383 1138 0
-383 913 0
-383 1545 0
-383 1256 0
-383 1423 0
-383 1220 0
-383 1563 0
-384 833 0
-384 1272 0
-384 1189 0
-384 1431 0
-385 1578 0
-385 1566 0
-385 805 0
-385 797 0
-385 1016 0
-385 796 0
-385 940 0
-385 981 0
-386 1329 0
-386 1234 0
-386 962 0
-386 1107 0
-387 912 0
-387 942 0
-387 1563 0
-387 1560 0
-387 1406 0
-387 1034 0
-388 1178 0
-388 1291 0
-388 1278 0
-388 1138 0
-388 861 0
-388 1519 0
-388 1141 0
-388 1496 0
-388 1448 0
-389 1250 0
-389 1544 0
-389 900 0
-389 1154 0
-389 1346 0
-389 1490 0
-390 1459 0
-390 1382 0
-391 1279 0
-391 1557 0
-391 795 0
-391 1156 0
-391 872 0
-391 910 0
-392 873 0
-392 882 0
-392 1270 0
-392 1359 0
-392 1286 0
-392 986 0
-392 807 0
-392 1247 0
-393 956 0
-393 824 0
-393 1170 0
-393 1062 0
-393 1414 0
-393 839 0
-393 1543 0
-393 1343 0
-393 1583 0
-394 1459 0
-395 937 0
-395 885 0
-395 1294 0
-395 1482 0
-396 1382 0
-396 1060 0
-396 1108 0
-396 1143 0
-396 1035 0
-397 1431 0
-397 1387 0
-397 875 0
-397 1104 0
-398 1480 0
-398 1100 0
-398 1324 0
-398 796 0
-398 1511 0
-399 1450 0
-399 1461 0
-399 911 0
-399 1117 0
-399 1046 0
-399 1250 0
-399 1015 0
-399 1220 0
-399 1023 0
-400 1187 0
-400 1022 0
-400 1435 0
-400 1100 0
-400 1306 0
-400 1295 0
-400 819 0
-400 1380 0
-400 1417 0
-401 1481 0
-401 1529 0
-401 1508 0
-401 1338 0
-401 1290 0
-401 1188 0
-401 1503 0
-402 1579 0
-402 812 0
-402 803 0
-402 964 0
-403 1065 0
-403 813 0
-403 821 0
-403 1148 0
-403 1549 0
-403 1170 0
-405 867 0
-405 1170 0
-405 1580 0
-405 1052 0
-405 1298 0
-406 1000 0
-406 1228 0
-406 1583 0
-406 1501 0
-406 835 0
-406 1064 0
-406 1351 0
-407 895 0
-407 1300 0
-407 1296 0
-407 1574 0
-407 1524 0
-407 1232 0
-407 1041 0
-407 795 0
-408 1511 0
-408 949 0
-408 805 0
-408 985 0
-408 1404 0
-409 857 0
-409 878 0
-409 1496 0
-409 1232 0
-409 806 0
-409 1052 0
-409 1207 0
-410 1069 0
-410 852 0
-410 1252 0
-410 1214 0
-411 1479 0
-411 1382 0
-412 1071 0
-412 832 0
-412 1234 0
-412 863 0
-412 981 0
-413 1383 0
-413 1128 0
-413 933 0
-413 1154 0
-413 800 0
-413 1202 0
-413 934 0
-414 1081 0
-414 1091 0
-414 1202 0
-414 1527 0
-415 918 0
-415 1180 0
-415 1120 0
-415 1080 0
-415 1250 0
-416 1436 0
-416 840 0
-416 975 0
-416 1094 0
-416 1393 0
-416 1012 0
-416 1327 0
-416 1220 0
-417 835 0
-417 975 0
-417 1091 0
-417 1281 0
-417 1275 0
-417 1123 0
-417 1101 0
-418 1440 0
-418 1220 0
-418 1009 0
-418 1226 0
-418 927 0
-419 1461 0
-419 1318 0
-419 1227 0
-419 1547 0
-419 1309 0
-419 1392 0
-419 845 0
-419 1466 0
-421 853 0
-421 919 0
-421 1174 0
-421 1250 0
-421 1397 0
-421 1346 0
-422 1062 0
-422 854 0
-422 973 0
-422 1250 0
-422 1149 0
-422 1066 0
-423 1397 0
-423 1375 0
-423 1240 0
-423 1383 0
-423 1097 0
-423 891 0
-424 867 0
-424 1405 0
-424 1483 0
-424 924 0
-424 1506 0
-424 1116 0
-424 959 0
-424 1017 0
-425 1352 0
-425 957 0
-425 1302 0
-425 1118 0
-425 840 0
-425 1017 0
-426 960 0
-426 1550 0
-426 957 0
-426 889 0
-426 925 0
-427 976 0
-427 1323 0
-427 1535 0
-428 1478 0
-428 1114 0
-428 1038 0
-429 1346 0
-429 1257 0
-429 1440 0
-429 1561 0
-429 809 0
-429 1197 0
-429 1222 0
-429 837 0
-430 912 0
-430 1576 0
-430 1482 0
-430 1577 0
-430 1570 0
-430 1183 0
-430 989 0
-431 1218 0
-431 1304 0
-431 984 0
-431 884 0
-431 1530 0
-431 809 0
-431 1464 0
-431 1234 0
-432 1249 0
-432 1247 0
-432 1544 0
-432 978 0
-432 1145 0
-432 1068 0
-432 1265 0
-432 894 0
-432 1325 0
-432 1550 0
-433 1050 0
-433 952 0
-433 1209 0
-433 1233 0
-433 1568 0
-433 860 0
-433 966 0
-434 889 0
-434 1116 0
-434 1289 0
-434 970 0
-434 904 0
-434 1034 0
-434 1027 0
-435 1118 0
-435 1199 0
-435 999 0
-435 1497 0
-435 1057 0
-435 1325 0
-435 1284 0
-436 1069 0
-436 1568 0
-436 1182 0
-436 1074 0
-436 1504 0
-437 1088 0
-437 1209 0
-437 1226 0
-437 934 0
-437 928 0
-437 1195 0
-437 885 0
-437 1167 0
-437 1437 0
-438 1160 0
-438 1128 0
-438 847 0
-438 1560 0
-438 1163 0
-438 1441 0
-438 1527 0
-439 1200 0
-439 948 0
-439 1424 0
-439 1299 0
-439 941 0
-439 800 0
-440 1384 0
-440 1426 0
-440 1566 0
-440 1573 0
-440 1550 0
-440 1408 0
-440 1483 0
-441 1113 0
-441 1008 0
-441 1197 0
-441 1030 0
-441 949 0
-441 1467 0
-442 1032 0
-442 1180 0
-442 1179 0
-442 1263 0
-442 1256 0
-442 922 0
-442 1575 0
-443 950 0
-443 1372 0
-443 1018 0
-443 931 0
-443 1107 0
-443 1375 0
-443 999 0
-443 954 0
-444 1310 0
-444 919 0
-444 1491 0
-444 1113 0
-444 1309 0
-444 1423 0
-444 1438 0
-444 1104 0
-445 1549 0
-445 953 0
-445 1508 0
-445 1518 0
-445 1289 0
-445 1497 0
-445 819 0
-445 1379 0
-446 1377 0
-446 1550 0
-446 1031 0
-446 1173 0
-446 1001 0
-447 997 0
-447 1473 0
-447 1032 0
-447 1581 0
-448 921 0
-448 1112 0
-448 866 0
-448 1087 0
-448 1228 0
-448 1392 0
-448 1479 0
-449 799 0
-449 1331 0
-449 1076 0
-449 1239 0
-449 1514 0
-450 1078 0
-450 1414 0
-450 1382 0
-450 1240 0
-450 1142 0
-450 1548 0
-450 1495 0
-450 965 0
-450 1466 0
-451 1424 0
-451 1451 0
-451 1384 0
-451 1399 0
-451 1267 0
-451 947 0
-451 842 0
-451 1573 0
-452 978 0
-452 916 0
-452 1044 0
-452 1319 0
-452 1006 0
-452 1228 0
-452 1348 0
-452 1499 0
-452 881 0
-453 1400 0
-453 1363 0
-453 1447 0
-453 956 0
-453 798 0
-453 933 0
-454 1289 0
-454 1441 0
-454 1245 0
-454 1465 0
-454 1194 0
-454 1251 0
-454 1182 0
-454 1443 0
-455 965 0
-455 797 0
-455 1220 0
-455 876 0
-455 1003 0
-455 1176 0
-455 1521 0
-456 1352 0
-456 1303 0
-456 1406 0
-457 924 0
-457 1288 0
-457 1562 0
-457 1199 0
-457 1540 0
-458 956 0
-458 1135 0
-458 806 0
-458 971 0
-458 1109 0
-459 965 0
-459 1154 0
-459 1520 0
-460 1333 0
-460 1250 0
-460 1536 0
-460 1190 0
-460 1256 0
-461 1038 0
-461 994 0
-461 1403 0
-461 1063 0
-461 1035 0
-461 1282 0
-462 815 0
-462 1336 0
-462 811 0
-463 1238 0
-463 1077 0
-463 1538 0
-463 1366 0
-463 834 0
-463 794 0
-464 905 0
-464 964 0
-464 1357 0
-464 1120 0
-464 1561 0
-465 1247 0
-465 879 0
-465 976 0
-465 1222 0
-465 1563 0
-465 1503 0
-466 1120 0
-466 1055 0
-466 1351 0
-466 1116 0
-466 1530 0
-466 1261 0
-466 812 0
-466 1580 0
-467 1247 0
-467 1544 0
-467 900 0
-467 1305 0
-467 1581 0
-467 1347 0
-467 1057 0
-467 1122 0
-468 986 0
-468 1372 0
-468 1342 0
-468 1234 0
-468 1280 0
-469 1210 0
-469 1413 0
-469 925 0
-469 793 0
-469 1294 0
-469 1086 0
-469 1577 0
-470 1006 0
-470 974 0
-470 1412 0
-470 1274 0
-470 1416 0
-470 1409 0
-471 1396 0
-471 1370 0
-471 1580 0
-471 1084 0
-471 1180 0
-471 925 0
-472 1404 0
-472 1010 0
-472 891 0
-472 1135 0
-472 1370 0
-472 945 0
-472 1056 0
-473 1004 0
-473 966 0
-473 809 0
-473 1345 0
-474 953 0
-474 1170 0
-474 1527 0
-474 1550 0
-474 1282 0
-474 1275 0
-474 1412 0
-474 800 0
-474 1582 0
-475 1130 0
-476 926 0
-476 1332 0
-476 1537 0
-476 1390 0
-476 1130 0
-477 1210 0
-477 914 0
-477 1578 0
-477 953 0
-477 1475 0
-477 1575 0
-477 1556 0
-478 978 0
-478 1583 0
-478 1582 0
-478 1439 0
-478 1252 0
-478 954 0
-478 994 0
-478 1245 0
-478 1227 0
-479 1549 0
-479 1502 0
-479 937 0
-479 845 0
-479 1432 0
-479 1020 0
-480 1288 0
-480 1295 0
-481 1077 0
-481 1025 0
-481 1366 0
-481 1317 0
-481 869 0
-481 1417 0
-481 851 0
-482 1241 0
-482 1300 0
-482 1350 0
-482 934 0
-482 1398 0
-482 1584 0
-482 1491 0
-482 1298 0
-483 1042 0
-483 1418 0
-483 1437 0
-483 1318 0
-484 1370 0
-484 1178 0
-484 1129 0
-484 818 0
-484 1105 0
-485 1426 0
-485 1428 0
-485 916 0
-485 1390 0
-485 1497 0
-485 1038 0
-485 1190 0
-485 907 0
-486 1217 0
-486 878 0
-486 1215 0
-486 1169 0
-487 989 0
-487 857 0
-487 1333 0
-487 864 0
-487 818 0
-487 1522 0
-488 1078 0
-488 1163 0
-488 1344 0
-488 1360 0
-488 1086 0
-488 797 0
-488 1318 0
-489 947 0
-489 1502 0
-489 1162 0
-489 1268 0
-489 1430 0
-489 1085 0
-489 876 0
-490 1206 0
-490 1453 0
-490 1199 0
-490 955 0
-490 1188 0
-491 1401 0
-491 1538 0
-491 917 0
-491 1028 0
-491 1297 0
-491 1502 0
-491 860 0
-491 1058 0
-491 1175 0
-491 1256 0
-491 1335 0
-491 905 0
-492 967 0
-492 1478 0
-492 1418 0
-492 1412 0
-492 1459 0
-492 1001 0
-492 1105 0
-492 871 0
-493 1178 0
-493 794 0
-493 1558 0
-493 1510 0
-494 976 0
-494 958 0
-494 1206 0
-494 1201 0
-494 1191 0
-495 1226 0
-495 1077 0
-495 916 0
-495 1127 0
-495 822 0
-495 808 0
-496 1421 0
-497 1416 0
-497 1179 0
-497 1115 0
-497 1530 0
-497 1556 0
-498 1427 0
-498 1352 0
-498 1040 0
-498 1018 0
-498 904 0
-498 1316 0
-499 1251 0
-499 1374 0
-499 1463 0
-499 1230 0
-499 891 0
-499 834 0
-500 1028 0
-500 1545 0
-500 796 0
-500 1004 0
-500 1276 0
-500 1255 0
-500 1251 0
-501 1394 0
-501 1308 0
-501 1123 0
-501 1338 0
-501 1441 0
-501 1079 0
-501 1038 0
-501 1578 0
-501 1267 0
-502 1422 0
-502 1336 0
-502 1335 0
-502 1548 0
-502 1040 0
-502 842 0
-503 1559 0
-503 1547 0
-503 1296 0
-503 931 0
-503 1363 0
-503 1136 0
-504 1213 0
-504 1215 0
-504 1205 0
-504 1541 0
-504 855 0
-504 883 0
-505 1236 0
-505 1113 0
-505 1198 0
-505 1290 0
-505 978 0
-505 1107 0
-505 1428 0
-505 1270 0
-506 867 0
-506 1324 0
-506 1578 0
-506 1050 0
-506 1485 0
-506 866 0
-506 1319 0
-507 1510 0
-507 1203 0
-507 1459 0
-507 1186 0
-508 1563 0
-508 1041 0
-508 1492 0
-508 961 0
-509 1256 0
-509 1390 0
-509 1207 0
-509 1354 0
-509 1273 0
-510 1118 0
-510 1207 0
-510 921 0
-510 1188 0
-510 1298 0
-510 844 0
-510 1135 0
-510 800 0
-511 1370 0
-511 1129 0
-511 1130 0
-511 825 0
-511 1192 0
-511 875 0
-511 1435 0
-512 1561 0
-512 1243 0
-512 1201 0
-512 1530 0
-513 1048 0
-513 1247 0
-513 1301 0
-513 949 0
-513 857 0
-513 916 0
-514 962 0
-514 980 0
-514 1072 0
-514 834 0
-514 1194 0
-514 1002 0
-515 1309 0
-515 1541 0
-515 1545 0
-515 1012 0
-515 1084 0
-515 1432 0
-515 1425 0
-515 868 0
-515 1181 0
-516 1243 0
-516 959 0
-516 931 0
-516 1334 0
-516 1170 0
-517 905 0
-517 903 0
-517 1427 0
-517 1288 0
-517 1098 0
-518 1288 0
-518 1052 0
-518 1049 0
-518 1198 0
-518 1004 0
-518 1312 0
-518 1483 0
-519 1213 0
-519 987 0
-519 1184 0
-519 1188 0
-519 1413 0
-519 894 0
-519 1098 0
-519 1368 0
-519 812 0
-519 810 0
-519 966 0
-520 802 0
-520 804 0
-520 1124 0
-520 996 0
-520 1551 0
-520 1467 0
-521 1439 0
-521 893 0
-521 1570 0
-521 1248 0
-521 1240 0
-522 1383 0
-522 838 0
-522 1303 0
-522 1092 0
-522 1254 0
-523 1220 0
-523 1192 0
-523 1030 0
-523 1430 0
-523 874 0
-523 1557 0
-523 1539 0
-523 1044 0
-524 1138 0
-524 807 0
-524 1485 0
-524 1553 0
-524 839 0
-524 1126 0
-524 1451 0
-524 1343 0
-525 851 0
-525 1555 0
-525 1242 0
-525 1302 0
-525 980 0
-525 1411 0
-525 978 0
-525 1178 0
-525 1140 0
-526 1402 0
-526 1244 0
-526 976 0
-526 1066 0
-527 1575 0
-527 834 0
-527 1280 0
-527 1336 0
-527 1260 0
-527 1281 0
-527 1494 0
-528 1451 0
-528 1050 0
-528 1394 0
-528 1115 0
-528 893 0
-529 946 0
-529 1356 0
-529 1363 0
-529 1558 0
-530 1416 0
-530 950 0
-530 1172 0
-530 1576 0
-530 1053 0
-530 1114 0
-530 1251 0
-531 985 0
-531 809 0
-531 1454 0
-531 1443 0
-532 1259 0
-532 1056 0
-532 1499 0
-532 1364 0
-532 1580 0
-532 1388 0
-532 1112 0
-532 1290 0
-533 1003 0
-534 959 0
-534 1429 0
-534 1300 0
-534 821 0
-534 1178 0
-534 1532 0
-534 1034 0
-534 860 0
-534 1183 0
-535 1215 0
-535 1434 0
-535 1011 0
-535 1554 0
-535 1363 0
-535 1150 0
-536 1250 0
-536 909 0
-536 1583 0
-536 846 0
-536 1463 0
-536 1445 0
-536 822 0
-537 1469 0
-537 1378 0
-537 1536 0
-537 1229 0
-537 1323 0
-537 1019 0
-537 899 0
-538 1038 0
-538 1551 0
-538 1074 0
-538 1388 0
-538 1579 0
-538 886 0
-538 1510 0
-539 864 0
-539 1173 0
-539 852 0
-539 1558 0
-539 979 0
-540 1001 0
-540 1064 0
-540 1413 0
-540 1416 0
-540 1100 0
-540 1147 0
-540 1579 0
-540 831 0
-541 867 0
-541 912 0
-541 825 0
-541 1080 0
-541 1576 0
-541 804 0
-541 1003 0
-542 1157 0
-542 805 0
-542 1478 0
-542 928 0
-542 1102 0
-543 1433 0
-543 1301 0
-543 1445 0
-543 1095 0
-543 897 0
-543 1195 0
-544 810 0
-544 1149 0
-544 936 0
-545 1118 0
-545 1450 0
-545 1400 0
-545 999 0
-545 881 0
-545 1583 0
-545 933 0
-545 1364 0
-545 1558 0
-546 1463 0
-546 1448 0
-546 1483 0
-547 1211 0
-547 1391 0
-547 981 0
-547 1452 0
-547 1255 0
-547 1222 0
-547 938 0
-548 997 0
-548 1040 0
-548 1206 0
-548 1164 0
-549 1187 0
-549 969 0
-549 1228 0
-549 1096 0
-549 1521 0
-549 1431 0
-549 1256 0
-550 1040 0
-550 954 0
-550 1314 0
-550 1505 0
-550 1048 0
-551 1212 0
-551 1182 0
-551 1479 0
-551 1382 0
-552 1546 0
-552 1364 0
-552 1175 0
-552 879 0
-552 825 0
-553 872 0
-553 1250 0
-553 1007 0
-553 1137 0
-553 919 0
-554 948 0
-554 1520 0
-554 1413 0
-554 1064 0
-554 1371 0
-554 856 0
-554 922 0
-555 1449 0
-555 1190 0
-555 1505 0
-555 1177 0
-555 1170 0
-555 1269 0
-556 1034 0
-556 1263 0
-556 893 0
-556 1354 0
-556 1279 0
-557 1066 0
-557 794 0
-557 1522 0
-557 1505 0
-557 958 0
-557 1227 0
-558 1032 0
-558 1320 0
-558 1400 0
-558 1239 0
-558 855 0
-558 1562 0
-558 939 0
-558 933 0
-559 1563 0
-559 809 0
-559 1141 0
-559 1475 0
-559 1078 0
-559 1168 0
-559 891 0
-560 1222 0
-560 1553 0
-560 1300 0
-561 1031 0
-561 998 0
-561 873 0
-561 952 0
-561 1019 0
-561 1565 0
-562 1015 0
-562 1035 0
-563 1266 0
-563 1005 0
-563 1520 0
-563 1362 0
-563 1167 0
-563 1551 0
-563 1127 0
-563 1059 0
-564 1299 0
-564 1059 0
-564 1573 0
-564 939 0
-564 1285 0
-565 845 0
-565 1378 0
-565 955 0
-565 976 0
-565 879 0
-565 819 0
-565 1121 0
-565 891 0
-565 828 0
-566 1536 0
-566 943 0
-566 829 0
-566 893 0
-566 1519 0
-567 825 0
-567 1234 0
-567 1040 0
-567 1403 0
-567 953 0
-567 1032 0
-567 1229 0
-568 1411 0
-568 842 0
-568 855 0
-568 1319 0
-568 1485 0
-568 816 0
-569 859 0
-569 943 0
-569 986 0
-570 1069 0
-570 911 0
-570 1321 0
-570 804 0
-570 799 0
-570 925 0
-570 809 0
-571 1382 0
-571 1456 0
-571 876 0
-571 842 0
-571 1383 0
-572 1269 0
-572 834 0
-572 1159 0
-572 1484 0
-572 1203 0
-572 1005 0
-572 1195 0
-573 1383 0
-573 1103 0
-573 1060 0
-573 852 0
-573 858 0
-574 1575 0
-574 850 0
-574 1519 0
-574 1001 0
-574 947 0
-574 981 0
-575 1213 0
-575 954 0
-575 871 0
-575 843 0
-575 794 0
-575 1240 0
-575 1154 0
-576 1130 0
-576 1162 0
-576 1179 0
-576 1467 0
-576 851 0
-576 1106 0
-576 1315 0
-577 798 0
-577 1439 0
-577 1292 0
-577 1183 0
-577 1345 0
-577 895 0
-577 1341 0
-577 1173 0
-578 1515 0
-578 1194 0
-578 1217 0
-578 1084 0
-578 905 0
-578 1534 0
-579 922 0
-579 1232 0
-579 1313 0
-579 1069 0
-579 1388 0
-579 1541 0
-580 1329 0
-580 821 0
-580 1412 0
-580 987 0
-580 856 0
-580 1383 0
-580 968 0
-580 928 0
-581 1021 0
-581 1074 0
-581 1398 0
-581 895 0
-581 1032 0
-581 1059 0
-581 842 0
-581 898 0
-582 866 0
-582 1545 0
-582 1049 0
-582 907 0
-582 1220 0
-582 860 0
-582 1128 0
-583 1175 0
-583 1170 0
-583 1513 0
-583 1333 0
-583 1154 0
-584 834 0
-584 1047 0
-584 1092 0
-584 1268 0
-584 1411 0
-584 1472 0
-584 1093 0
-585 900 0
-585 1163 0
-585 915 0
-585 804 0
-585 889 0
-586 1459 0
-587 1051 0
-587 996 0
-587 1555 0
-587 1229 0
-587 1285 0
-588 1239 0
-588 1105 0
-588 894 0
-588 887 0
-588 1531 0
-589 1212 0
-589 1204 0
-589 961 0
-589 1404 0
-589 1016 0
-589 1257 0
-589 1083 0
-591 965 0
-591 871 0
-591 1430 0
-591 1263 0
-591 1174 0
-592 1029 0
-592 1383 0
-592 1416 0
-592 1321 0
-592 1035 0
-592 841 0
-592 1516 0
-593 836 0
-593 919 0
-593 1564 0
-593 1207 0
-593 1101 0
-593 851 0
-593 862 0
-593 813 0
-593 965 0
-594 1034 0
-594 1305 0
-594 1020 0
-594 1580 0
-594 1041 0
-594 1306 0
-595 812 0
-595 806 0
-595 1554 0
-595 1246 0
-595 1524 0
-595 1032 0
-595 973 0
-595 918 0
-595 1371 0
-595 1154 0
-596 907 0
-596 953 0
-596 1269 0
-596 989 0
-596 808 0
-596 1150 0
-597 1272 0
-597 1210 0
-597 1381 0
-597 1385 0
-597 1064 0
-597 1433 0
-597 1332 0
-598 1529 0
-598 986 0
-598 1338 0
-598 926 0
-598 933 0
-598 952 0
-599 1298 0
-599 889 0
-599 1564 0
-599 1401 0
-599 1022 0
-599 1131 0
-599 1395 0
-600 1170 0
-600 1103 0
-600 1033 0
-600 1535 0
-600 1536 0
-600 1450 0
-600 1550 0
-601 879 0
-601 871 0
-601 1200 0
-601 1540 0
-601 999 0
-601 953 0
-601 851 0
-602 1216 0
-602 1050 0
-602 1007 0
-602 1511 0
-603 854 0
-603 1411 0
-603 1457 0
-603 916 0
-603 1169 0
-603 1471 0
-603 1178 0
-603 1158 0
-604 1272 0
-604 1246 0
-604 797 0
-604 1520 0
-604 1207 0
-604 1084 0
-605 819 0
-605 1200 0
-605 1093 0
-605 1481 0
-605 895 0
-605 1118 0
-606 1507 0
-606 1365 0
-606 1470 0
-606 1439 0
-607 1131 0
-607 1516 0
-607 1120 0
-607 1250 0
-607 1004 0
-607 1392 0
-608 1079 0
-608 1013 0
-608 964 0
-608 882 0
-608 1341 0
-609 1354 0
-609 930 0
-609 1179 0
-609 1532 0
-609 801 0
-609 1189 0
-609 1492 0
-609 1375 0
-609 1160 0
-609 908 0
-610 1534 0
-610 1070 0
-610 1220 0
-610 955 0
-610 1351 0
-610 917 0
-610 1006 0
-610 975 0
-611 1305 0
-611 1225 0
-611 893 0
-611 923 0
-611 1035 0
-611 844 0
-611 1270 0
-611 1338 0
-611 842 0
-612 850 0
-612 1325 0
-612 1052 0
-612 947 0
-612 1020 0
-612 884 0
-612 1481 0
-612 971 0
-613 1202 0
-613 1045 0
-613 1553 0
-613 984 0
-613 1414 0
-613 905 0
-613 1083 0
-613 1091 0
-613 976 0
-613 800 0
-614 1163 0
-614 1338 0
-614 1086 0
-614 1177 0
-614 1028 0
-614 837 0
-615 1558 0
-615 1323 0
-615 1264 0
-615 1252 0
-615 1518 0
-615 1374 0
-615 1006 0
-615 1052 0
-615 937 0
-615 1110 0
-616 1246 0
-616 825 0
-616 932 0
-616 1241 0
-616 1331 0
-616 1580 0
-616 1349 0
-616 871 0
-616 916 0
-616 1236 0
-617 1470 0
-617 1248 0
-617 1546 0
-617 1056 0
-617 1074 0
-617 1540 0
-617 854 0
-617 937 0
-618 1060 0
-618 1212 0
-618 1510 0
-619 1553 0
-619 1429 0
-619 847 0
-619 1333 0
-620 859 0
-620 865 0
-620 1031 0
-620 1504 0
-620 1256 0
-620 1015 0
-621 1207 0
-621 949 0
-621 1195 0
-621 1100 0
-621 1176 0
-622 1469 0
-622 1169 0
-622 1238 0
-622 1530 0
-623 1204 0
-623 1212 0
-623 801 0
-623 1356 0
-623 1375 0
-623 1108 0
-623 938 0
-624 1383 0
-624 949 0
-624 1341 0
-624 854 0
-624 1530 0
-624 1312 0
-624 1519 0
-625 1098 0
-625 1240 0
-625 1288 0
-625 1462 0
-625 999 0
-625 1159 0
-625 1217 0
-625 1189 0
-626 1247 0
-626 1538 0
-626 1042 0
-626 1535 0
-626 1130 0
-626 1454 0
-626 1521 0
-626 1300 0
-626 1534 0
-627 839 0
-627 1562 0
-627 1578 0
-627 1573 0
-627 850 0
-627 1482 0
-627 1181 0
-628 1268 0
-628 1252 0
-628 900 0
-628 1521 0
-628 1080 0
-628 1518 0
-628 1265 0
-630 1050 0
-630 1431 0
-630 1394 0
-630 960 0
-630 1013 0
-630 942 0
-631 795 0
-631 1318 0
-632 1575 0
-632 1206 0
-632 869 0
-632 962 0
-632 1212 0
-633 1109 0
-633 1027 0
-633 1024 0
-633 1188 0
-633 1341 0
-633 856 0
-633 819 0
-633 1077 0
-633 801 0
-633 1451 0
-634 1391 0
-634 1240 0
-634 1010 0
-634 833 0
-634 1430 0
-634 1372 0
-634 1321 0
-634 1129 0
-635 1530 0
-635 1574 0
-635 1483 0
-635 1156 0
-635 1189 0
-635 1103 0
-636 996 0
-636 1553 0
-636 1343 0
-636 1348 0
-636 810 0
-636 1504 0
-636 1275 0
-636 915 0
-636 1437 0
-637 1189 0
-637 1440 0
-637 1023 0
-637 1437 0
-637 1233 0
-637 1396 0
-637 1400 0
-637 1263 0
-638 1249 0
-638 1332 0
-638 1237 0
-638 821 0
-638 1516 0
-638 1374 0
-639 907 0
-639 1013 0
-639 897 0
-639 1191 0
-639 1354 0
-640 1015 0
-640 1010 0
-640 1421 0
-640 876 0
-640 1558 0
-641 1292 0
-641 1115 0
-641 1028 0
-641 1268 0
-641 1412 0
-641 1480 0
-641 1239 0
-642 1045 0
-642 1210 0
-642 1236 0
-642 1489 0
-642 949 0
-642 1553 0
-642 1371 0
-642 834 0
-642 1564 0
-642 1446 0
-643 1060 0
-643 1267 0
-643 1510 0
-643 1070 0
-643 963 0
-643 1108 0
-643 1459 0
-644 1584 0
-644 1511 0
-644 849 0
-644 1505 0
-644 1106 0
-644 929 0
-644 964 0
-644 1358 0
-645 1093 0
-645 1568 0
-645 1453 0
-645 1188 0
-645 937 0
-645 1304 0
-646 1519 0
-646 1107 0
-646 1050 0
-646 793 0
-646 1545 0
-646 1296 0
-646 1260 0
-646 882 0
-647 1227 0
-647 1085 0
-647 813 0
-647 1530 0
-647 1510 0
-647 1047 0
-648 1303 0
-648 1011 0
-648 1297 0
-648 1083 0
-648 1308 0
-648 889 0
-648 1170 0
-649 992 0
-649 966 0
-649 1074 0
-649 1169 0
-649 1183 0
-649 1017 0
-650 1011 0
-650 993 0
-650 1313 0
-650 832 0
-650 857 0
-651 1128 0
-651 1452 0
-651 1149 0
-651 1468 0
-651 1490 0
-651 1307 0
-651 1090 0
-652 799 0
-652 1248 0
-652 1214 0
-652 1502 0
-652 997 0
-652 1406 0
-652 1284 0
-653 916 0
-653 1224 0
-653 876 0
-653 1124 0
-653 895 0
-653 1325 0
-653 1440 0
-654 909 0
-654 1158 0
-654 1332 0
-654 1530 0
-654 1204 0
-655 1137 0
-655 1086 0
-655 1468 0
-655 1347 0
-655 1071 0
-655 858 0
-655 946 0
-656 1550 0
-656 1220 0
-656 1368 0
-656 1487 0
-656 855 0
-656 865 0
-656 1213 0
-657 1177 0
-657 1281 0
-657 1528 0
-657 1288 0
-657 900 0
-657 875 0
-657 1419 0
-658 1247 0
-658 1052 0
-658 900 0
-658 1181 0
-658 1440 0
-658 1556 0
-658 869 0
-658 905 0
-659 817 0
-659 1209 0
-659 793 0
-659 1446 0
-660 1209 0
-660 927 0
-660 1399 0
-660 1367 0
-660 1327 0
-660 1285 0
-661 903 0
-661 865 0
-661 1443 0
-661 980 0
-661 1306 0
-661 1174 0
-662 1212 0
-662 1069 0
-662 953 0
-662 840 0
-662 1011 0
-662 1274 0
-663 1511 0
-663 1456 0
-663 1291 0
-663 1371 0
-663 1575 0
-663 1496 0
-664 1496 0
-664 1017 0
-664 1304 0
-664 1566 0
-664 1549 0
-664 1537 0
-664 1405 0
-665 1250 0
-665 1356 0
-665 818 0
-665 1327 0
-665 1149 0
-665 854 0
-666 1212 0
-666 1196 0
-666 1459 0
-666 1382 0
-666 1060 0
-667 1015 0
-667 1382 0
-668 1428 0
-668 881 0
-668 874 0
-668 1325 0
-668 797 0
-668 1503 0
-668 1119 0
-668 1434 0
-668 1467 0
-669 1309 0
-669 1254 0
-669 977 0
-669 950 0
-669 1500 0
-669 1480 0
-669 1456 0
-669 1350 0
-670 1023 0
-670 937 0
-670 1002 0
-670 1321 0
-670 1212 0
-670 1166 0
-670 1569 0
-670 1390 0
-671 1461 0
-671 1059 0
-671 1478 0
-671 926 0
-671 1173 0
-672 1344 0
-672 1060 0
-672 1026 0
-672 1402 0
-672 1491 0
-672 995 0
-672 1508 0
-673 888 0
-673 1255 0
-673 1473 0
-673 1547 0
-673 994 0
-673 997 0
-673 944 0
-673 962 0
-673 941 0
-674 818 0
-674 1545 0
-674 927 0
-674 1351 0
-674 1013 0
-674 967 0
-674 854 0
-674 1309 0
-674 885 0
-675 1107 0
-675 1030 0
-675 1248 0
-675 1051 0
-675 1240 0
-676 893 0
-676 808 0
-676 1373 0
-676 1264 0
-676 862 0
-677 1294 0
-677 1574 0
-677 1550 0
-677 1340 0
-677 968 0
-678 1044 0
-678 1268 0
-678 1210 0
-678 1187 0
-678 809 0
-678 1337 0
-678 1029 0
-678 1519 0
-678 1481 0
-679 1290 0
-679 1021 0
-679 1040 0
-679 1191 0
-679 1253 0
-679 949 0
-679 1344 0
-679 1110 0
-680 1175 0
-680 1380 0
-680 1160 0
-680 1556 0
-680 1363 0
-680 1510 0
-680 1012 0
-680 1037 0
-681 1305 0
-681 1325 0
-681 1439 0
-681 1415 0
-681 1078 0
-681 1557 0
-681 820 0
-681 1344 0
-682 852 0
-682 1088 0
-682 1080 0
-682 1536 0
-682 1299 0
-682 862 0
-682 1313 0
-683 1321 0
-683 1161 0
-683 1045 0
-683 1129 0
-683 1108 0
-683 834 0
-684 1163 0
-684 1276 0
-684 970 0
-684 933 0
-684 1347 0
-685 818 0
-685 1506 0
-685 1521 0
-685 1441 0
-685 1339 0
-685 1424 0
-685 971 0
-685 1140 0
-685 922 0
-686 939 0
-686 1172 0
-686 1374 0
-686 1312 0
-688 821 0
-688 954 0
-688 1581 0
-688 898 0
-688 883 0
-688 1519 0
-688 1230 0
-689 1394 0
-689 1160 0
-689 853 0
-689 1054 0
-689 1579 0
-690 1365 0
-690 794 0
-690 1290 0
-690 1239 0
-690 1183 0
-691 1529 0
-691 1125 0
-691 1344 0
-691 894 0
-691 883 0
-692 1190 0
-692 1431 0
-692 1548 0
-692 1167 0
-692 1255 0
-692 1143 0
-692 1574 0
-692 817 0
-693 1155 0
-693 896 0
-693 1088 0
-693 1056 0
-693 1157 0
-693 1175 0
-693 1014 0
-694 1309 0
-694 1220 0
-694 1551 0
-694 852 0
-694 1505 0
-694 1299 0
-694 881 0
-694 910 0
-694 1089 0
-694 934 0
-695 821 0
-695 1268 0
-695 1149 0
-695 916 0
-695 1300 0
-695 965 0
-696 1456 0
-696 1359 0
-696 1520 0
-696 877 0
-696 1444 0
-696 1199 0
-696 835 0
-696 1505 0
-696 1275 0
-696 909 0
-697 1513 0
-697 1109 0
-697 1439 0
-697 1393 0
-697 1186 0
-697 992 0
-697 956 0
-697 832 0
-698 812 0
-698 1156 0
-698 892 0
-698 921 0
-698 835 0
-698 1430 0
-698 1142 0
-699 817 0
-699 1520 0
-699 1389 0
-699 1327 0
-699 1154 0
-699 912 0
-700 1552 0
-700 1578 0
-700 910 0
-700 1382 0
-700 1379 0
-700 1385 0
-700 1422 0
-701 1482 0
-701 1392 0
-701 1345 0
-701 1337 0
-701 894 0
-702 1278 0
-702 1223 0
-702 1302 0
-702 1182 0
-702 894 0
-703 1305 0
-703 966 0
-703 1109 0
-703 975 0
-703 1474 0
-703 1149 0
-703 976 0
-704 919 0
-704 1363 0
-704 1329 0
-704 1394 0
-704 916 0
-705 1161 0
-705 1202 0
-705 1081 0
-706 1378 0
-706 953 0
-706 1356 0
-706 832 0
-706 1340 0
-707 921 0
-707 1284 0
-707 970 0
-707 975 0
-707 843 0
-707 1455 0
-708 811 0
-708 1120 0
-708 1209 0
-708 1265 0
-708 804 0
-708 875 0
-708 1431 0
-708 1263 0
-708 1310 0
-709 1178 0
-709 1131 0
-709 1210 0
-709 1453 0
-709 884 0
-710 880 0
-710 1496 0
-710 1127 0
-710 1370 0
-710 858 0
-710 966 0
-711 1358 0
-711 923 0
-711 1567 0
-711 849 0
-711 1269 0
-711 1435 0
-711 1427 0
-711 1477 0
-711 865 0
-712 1557 0
-712 1539 0
-712 1562 0
-712 1138 0
-712 1474 0
-712 975 0
-712 900 0
-712 1327 0
-713 1272 0
-713 967 0
-713 1466 0
-713 1417 0
-713 1008 0
-713 1178 0
-713 1348 0
-713 872 0
-714 1309 0
-714 814 0
-714 1476 0
-714 1540 0
-714 1300 0
-714 1480 0
-714 1019 0
-715 1451 0
-715 1511 0
-715 941 0
-715 1463 0
-715 1502 0
-715 939 0
-715 1131 0
-715 1163 0
-716 1328 0
-716 874 0
-716 1531 0
-716 809 0
-716 798 0
-716 1434 0
-716 935 0
-717 1539 0
-717 1472 0
-717 1476 0
-717 905 0
-717 828 0
-717 857 0
-717 1363 0
-718 1060 0
-718 1130 0
-719 1518 0
-719 1361 0
-719 1496 0
-719 1160 0
-720 816 0
-720 1306 0
-720 1323 0
-720 1538 0
-720 1569 0
-720 1242 0
-720 1397 0
-720 910 0
-720 1166 0
-720 1159 0
-721 834 0
-721 1496 0
-721 1001 0
-721 1049 0
-721 1306 0
-722 825 0
-722 1068 0
-722 1506 0
-722 1150 0
-722 1451 0
-722 1017 0
-722 1308 0
-722 858 0
-722 1550 0
-723 1292 0
-723 1212 0
-723 1502 0
-723 1508 0
-723 1342 0
-723 1362 0
-724 1377 0
-724 1088 0
-724 1425 0
-724 1379 0
-724 1240 0
-725 1137 0
-725 1276 0
-725 1497 0
-725 1074 0
-725 1300 0
-725 1192 0
-725 795 0
-725 1143 0
-725 930 0
-726 1531 0
-726 1519 0
-726 1063 0
-726 1328 0
-726 1516 0
-727 1263 0
-727 819 0
-727 844 0
-727 1256 0
-727 1573 0
-727 925 0
-728 1506 0
-728 970 0
-728 1186 0
-728 1529 0
-728 923 0
-728 1312 0
-729 1181 0
-729 1375 0
-729 923 0
-729 1325 0
-729 1020 0
-730 1027 0
-730 925 0
-730 1361 0
-730 828 0
-730 1457 0
-730 896 0
-730 930 0
-731 1169 0
-731 1571 0
-731 980 0
-731 1045 0
-731 1021 0
-731 1424 0
-731 1463 0
-731 967 0
-732 1548 0
-732 1217 0
-732 1189 0
-732 1469 0
-732 1191 0
-732 1362 0
-732 1152 0
-732 1347 0
-732 930 0
-733 1251 0
-733 885 0
-733 954 0
-733 1347 0
-733 1306 0
-733 1467 0
-733 1417 0
-733 1238 0
-734 913 0
-734 968 0
-734 1123 0
-734 876 0
-734 1550 0
-734 1536 0
-734 1323 0
-735 1578 0
-735 1010 0
-735 1316 0
-735 937 0
-735 1272 0
-736 1384 0
-736 880 0
-736 1120 0
-736 1090 0
-736 1284 0
-736 1268 0
-736 1395 0
-737 831 0
-737 1491 0
-737 1476 0
-737 931 0
-737 1481 0
-737 1239 0
-738 1213 0
-738 1079 0
-738 921 0
-739 1331 0
-739 1004 0
-739 1417 0
-739 1222 0
-739 1290 0
-740 1210 0
-740 1295 0
-740 1272 0
-740 1472 0
-740 1457 0
-741 1285 0
-741 1239 0
-741 1066 0
-741 1370 0
-741 1438 0
-741 1433 0
-741 1000 0
-741 1535 0
-741 933 0
-742 1070 0
-742 1441 0
-742 1426 0
-742 1472 0
-742 1457 0
-743 1432 0
-743 1174 0
-743 1334 0
-743 839 0
-743 1150 0
-743 1187 0
-744 1249 0
-744 972 0
-744 1382 0
-744 857 0
-744 1294 0
-744 1117 0
-744 1571 0
-745 924 0
-745 1574 0
-745 1238 0
-745 1406 0
-745 1521 0
-745 1014 0
-746 1203 0
-746 1326 0
-746 1476 0
-746 1235 0
-746 932 0
-746 1179 0
-747 1363 0
-747 1282 0
-747 1496 0
-747 945 0
-747 914 0
-747 1017 0
-747 980 0
-748 880 0
-748 1526 0
-748 1077 0
-748 1403 0
-748 1130 0
-749 1579 0
-749 1150 0
-749 1107 0
-749 1404 0
-750 836 0
-750 1288 0
-750 1081 0
-750 1400 0
-750 873 0
-751 1329 0
-751 927 0
-751 1481 0
-751 1046 0
-752 1251 0
-752 1241 0
-752 977 0
-752 1131 0
-752 1090 0
-752 1281 0
-753 903 0
-753 1131 0
-753 905 0
-753 1213 0
-753 988 0
-754 817 0
-754 920 0
-754 1216 0
-754 935 0
-754 1426 0
-754 1269 0
-754 1087 0
-755 1371 0
-755 839 0
-755 1535 0
-755 1450 0
-755 978 0
-755 1309 0
-756 1153 0
-756 1325 0
-756 1220 0
-756 1498 0
-756 1528 0
-756 1029 0
-756 1049 0
-756 1261 0
-757 1154 0
-757 1201 0
-757 978 0
-757 986 0
-757 1547 0
-757 1578 0
-757 1100 0
-757 1225 0
-757 1055 0
-758 1296 0
-758 1319 0
-758 1248 0
-758 1344 0
-758 1386 0
-759 1576 0
-759 952 0
-759 918 0
-759 873 0
-759 879 0
-760 1343 0
-760 846 0
-760 1577 0
-760 1496 0
-760 1027 0
-760 1079 0
-760 860 0
-761 1288 0
-761 1251 0
-761 1209 0
-761 992 0
-761 1188 0
-761 1025 0
-761 836 0
-762 837 0
-762 979 0
-762 1398 0
-763 1582 0
-763 930 0
-763 1563 0
-763 916 0
-763 1438 0
-763 1159 0
-763 1084 0
-763 1352 0
-763 945 0
-764 1060 0
-764 1087 0
-764 1501 0
-764 908 0
-764 895 0
-765 1082 0
-765 1226 0
-765 1536 0
-765 1512 0
-765 1287 0
-765 1237 0
-765 1010 0
-766 1350 0
-766 1086 0
-766 1213 0
-766 1218 0
-766 860 0
-766 1052 0
-767 1178 0
-767 1378 0
-767 822 0
-767 1220 0
-767 1156 0
-767 881 0
-767 1420 0
-767 1210 0
-768 1432 0
-768 1382 0
-768 1134 0
-768 1214 0
-768 883 0
-768 1053 0
-768 963 0
-768 1481 0
-769 872 0
-769 1548 0
-769 1267 0
-769 1189 0
-769 1427 0
-769 954 0
-769 912 0
-769 1572 0
-770 1325 0
-770 1061 0
-770 1512 0
-770 1300 0
-770 1299 0
-771 1027 0
-771 970 0
-771 956 0
-771 1433 0
-771 884 0
-771 1126 0
-772 1331 0
-772 1546 0
-772 1403 0
-772 1402 0
-772 864 0
-772 869 0
-772 1538 0
-773 1432 0
-773 1303 0
-773 1544 0
-773 1330 0
-773 1348 0
-773 1456 0
-774 1336 0
-774 1507 0
-774 1002 0
-774 807 0
-774 1381 0
-774 879 0
-775 818 0
-775 1453 0
-775 801 0
-775 1202 0
-775 1440 0
-775 1279 0
-775 1390 0
-775 1388 0
-775 1242 0
-775 1533 0
-776 1352 0
-776 1151 0
-776 1153 0
-776 872 0
-776 1323 0
-776 1220 0
-776 1282 0
-776 1442 0
-777 1170 0
-777 1527 0
-777 812 0
-777 1279 0
-777 955 0
-777 1558 0
-777 904 0
-777 1492 0
-778 1203 0
-778 1108 0
-778 1421 0
-778 1299 0
-778 1382 0
-779 1537 0
-779 1314 0
-779 1532 0
-779 1222 0
-779 843 0
-779 1275 0
-780 1276 0
-780 1413 0
-780 999 0
-780 1266 0
-781 1112 0
-781 932 0
-781 812 0
-781 1067 0
-781 901 0
-781 1494 0
-781 877 0
-782 1176 0
-782 1145 0
-782 943 0
-782 1313 0
-783 840 0
-783 901 0
-783 1406 0
-783 943 0
-784 894 0
-784 1260 0
-784 1092 0
-784 1369 0
-784 1109 0
-785 1163 0
-785 1530 0
-785 1399 0
-785 1545 0
-785 1476 0
-785 1272 0
-786 1530 0
-786 1448 0
-787 1298 0
-787 928 0
-787 972 0
-788 795 0
-788 1499 0
-788 1056 0
-788 944 0
-788 1016 0
-788 856 0
-789 1575 0
-789 1300 0
-789 1583 0
-789 1205 0
-789 1547 0
-789 1444 0
-789 1501 0
-790 1375 0
-790 1496 0
-790 1314 0
-790 1505 0
-790 997 0
-791 1155 0
-791 1391 0
-791 834 0
-791 1375 0
-791 1442 0
-791 1300 0
-791 1307 0
-791 1481 0
-792 1576 0
-792 1554 0
-792 1282 0
-792 868 0
-792 1506 0
-792 1218 0
-792 1113 0
1 793 0
2 794 0
3 795 0
4 796 0
5 797 0
6 798 0
7 799 0
8 800 0
9 801 0
10 802 0
11 803 0
12 804 0
13 805 0
14 806 0
15 807 0
16 808 0
17 809 0
18 810 0
19 811 0
20 812 0
21 813 0
22 814 0
23 815 0
24 816 0
25 817 0
26 818 0
27 819 0
28 820 0
29 821 0
30 822 0
31 823 0
32 824 0
33 825 0
34 826 0
35 827 0
36 828 0
37 829 0
38 830 0
39 831 0
40 832 0
41 833 0
42 834 0
43 835 0
44 836 0
45 837 0
46 838 0
47 839 0
48 840 0
49 841 0
50 842 0
51 843 0
52 844 0
53 845 0
54 846 0
55 847 0
56 848 0
57 849 0
58 850 0
59 851 0
60 852 0
61 853 0
62 854 0
63 855 0
64 856 0
65 857 0
66 858 0
67 859 0
68 860 0
69 861 0
70 862 0
71 863 0
72 864 0
73 865 0
74 866 0
75 867 0
76 868 0
77 869 0
78 870 0
79 871 0
80 872 0
81 873 0
82 874 0
83 875 0
84 876 0
85 877 0
86 878 0
87 879 0
88 880 0
89 881 0
90 882 0
91 883 0
92 884 0
93 885 0
94 886 0
95 887 0
96 888 0
97 889 0
98 890 0
99 891 0
100 892 0
101 893 0
102 894 0
103 895 0
104 896 0
105 897 0
106 898 0
107 899 0
108 900 0
109 901 0
110 902 0
111 903 0
112 904 0
113 905 0
114 906 0
115 907 0
116 908 0
117 909 0
118 910 0
119 911 0
120 912 0
121 913 0
122 914 0
123 915 0
124 916 0
125 917 0
126 918 0
127 919 0
128 920 0
129 921 0
130 922 0
131 923 0
132 924 0
133 925 0
134 926 0
135 927 0
136 928 0
137 929 0
138 930 0
139 931 0
140 932 0
141 933 0
142 934 0
143 935 0
144 936 0
145 937 0
146 938 0
147 939 0
148 940 0
149 941 0
150 942 0
151 943 0
152 944 0
153 945 0
154 946 0
155 947 0
156 948 0
157 949 0
158 950 0
159 951 0
160 952 0
161 953 0
162 954 0
163 955 0
164 956 0
165 957 0
166 958 0
167 959 0
168 960 0
169 961 0
170 962 0
171 963 0
172 964 0
173 965 0
174 966 0
175 967 0
176 968 0
177 969 0
178 970 0
179 971 0
180 972 0
181 973 0
182 974 0
183 975 0
184 976 0
185 977 0
186 978 0
187 979 0
188 980 0
189 981 0
190 982 0
191 983 0
192 984 0
193 985 0
194 986 0
195 987 0
196 988 0
197 989 0
198 990 0
199 991 0
200 992 0
201 993 0
202 994 0
203 995 0
204 996 0
205 997 0
206 998 0
207 999 0
208 1000 0
209 1001 0
210 1002 0
211 1003 0
212 1004 0
213 1005 0
214 1006 0
215 1007 0
216 1008 0
217 1009 0
218 1010 0
219 1011 0
220 1012 0
221 1013 0
222 1014 0
223 1015 0
224 1016 0
225 1017 0
226 1018 0
227 1019 0
228 1020 0
229 1021 0
230 1022 0
231 1023 0
232 1024 0
233 1025 0
234 1026 0
235 1027 0
236 1028 0
237 1029 0
238 1030 0
239 1031 0
240 1032 0
241 1033 0
242 1034 0
243 1035 0
244 1036 0
245 1037 0
246 1038 0
247 1039 0
248 1040 0
249 1041 0
250 1042 0
251 1043 0
252 1044 0
253 1045 0
254 1046 0
255 1047 0
256 1048 0
257 1049 0
258 1050 0
259 1051 0
260 1052 0
261 1053 0
262 1054 0
263 1055 0
264 1056 0
265 1057 0
266 1058 0
267 1059 0
268 1060 0
269 1061 0
270 1062 0
271 1063 0
272 1064 0
273 1065 0
274 1066 0
275 1067 0
276 1068 0
277 1069 0
278 1070 0
279 1071 0
280 1072 0
281 1073 0
282 1074 0
283 1075 0
284 1076 0
285 1077 0
286 1078 0
287 1079 0
288 1080 0
289 1081 0
290 1082 0
291 1083 0
292 1084 0
293 1085 0
294 1086 0
295 1087 0
296 1088 0
297 1089 0
298 1090 0
299 1091 0
300 1092 0
301 1093 0
302 1094 0
303 1095 0
304 1096 0
305 1097 0
306 1098 0
307 1099 0
308 1100 0
309 1101 0
310 1102 0
311 1103 0
312 1104 0
313 1105 0
314 1106 0
315 1107 0
316 1108 0
317 1109 0
318 1110 0
319 1111 0
320 1112 0
321 1113 0
322 1114 0
323 1115 0
324 1116 0
325 1117 0
326 1118 0
327 1119 0
328 1120 0
329 1121 0
330 1122 0
331 1123 0
332 1124 0
333 1125 0
334 1126 0
335 1127 0
336 1128 0
337 1129 0
338 1130 0
339 1131 0
340 1132 0
341 1133 0
342 1134 0
343 1135 0
344 1136 0
345 1137 0
346 1138 0
347 1139 0
348 1140 0
349 1141 0
350 1142 0
351 1143 0
352 1144 0
353 1145 0
354 1146 0
355 1147 0
356 1148 0
357 1149 0
358 1150 0
359 1151 0
360 1152 0
361 1153 0
362 1154 0
363 1155 0
364 1156 0
365 1157 0
366 1158 0
367 1159 0
368 1160 0
369 1161 0
370 1162 0
371 1163 0
372 1164 0
373 1165 0
374 1166 0
375 1167 0
376 1168 0
377 1169 0
378 1170 0
379 1171 0
380 1172 0
381 1173 0
382 1174 0
383 1175 0
384 1176 0
385 1177 0
386 1178 0
387 1179 0
388 1180 0
389 1181 0
390 1182 0
391 1183 0
392 1184 0
393 1185 0
394 1186 0
395 1187 0
396 1188 0
397 1189 0
398 1190 0
399 1191 0
400 1192 0
401 1193 0
402 1194 0
403 1195 0
404 1196 0
405 1197 0
406 1198 0
407 1199 0
408 1200 0
409 1201 0
410 1202 0
411 1203 0
412 1204 0
413 1205 0
414 1206 0
415 1207 0
416 1208 0
417 1209 0
418 1210 0
419 1211 0
420 1212 0
421 1213 0
422 1214 0
423 1215 0
424 1216 0
425 1217 0
426 1218 0
427 1219 0
428 1220 0
429 1221 0
430 1222 0
431 1223 0
432 1224 0
433 1225 0
434 1226 0
435 1227 0
436 1228 0
437 1229 0
438 1230 0
439 1231 0
440 1232 0
441 1233 0
442 1234 0
443 1235 0
444 1236 0
445 1237 0
446 1238 0
447 1239 0
448 1240 0
449 1241 0
450 1242 0
451 1243 0
452 1244 0
453 1245 0
454 1246 0
455 1247 0
456 1248 0
457 1249 0
458 1250 0
459 1251 0
460 1252 0
461 1253 0
462 1254 0
463 1255 0
464 1256 0
465 1257 0
466 1258 0
467 1259 0
468 1260 0
469 1261 0
470 1262 0
471 1263 0
472 1264 0
473 1265 0
474 1266 0
475 1267 0
476 1268 0
477 1269 0
478 1270 0
479 1271 0
480 1272 0
481 1273 0
482 1274 0
483 1275 0
484 1276 0
485 1277 0
486 1278 0
487 1279 0
488 1280 0
489 1281 0
490 1282 0
491 1283 0
492 1284 0
493 1285 0
494 1286 0
495 1287 0
496 1288 0
497 1289 0
498 1290 0
499 1291 0
500 1292 0
501 1293 0
502 1294 0
503 1295 0
504 1296 0
505 1297 0
506 1298 0
507 1299 0
508 1300 0
509 1301 0
510 1302 0
511 1303 0
512 1304 0
513 1305 0
514 1306 0
515 1307 0
516 1308 0
517 1309 0
518 1310 0
519 1311 0
520 1312 0
521 1313 0
522 1314 0
523 1315 0
524 1316 0
525 1317 0
526 1318 0
527 1319 0
528 1320 0
529 1321 0
530 1322 0
531 1323 0
532 1324 0
533 1325 0
534 1326 0
535 1327 0
536 1328 0
537 1329 0
538 1330 0
539 1331 0
540 1332 0
541 1333 0
542 1334 0
543 1335 0
544 1336 0
545 1337 0
546 1338 0
547 1339 0
548 1340 0
549 1341 0
550 1342 0
551 1343 0
552 1344 0
553 1345 0
554 1346 0
555 1347 0
556 1348 0
557 1349 0
558 1350 0
559 1351 0
560 1352 0
561 1353 0
562 1354 0
563 1355 0
564 1356 0
565 1357 0
566 1358 0
567 1359 0
568 1360 0
569 1361 0
570 1362 0
571 1363 0
572 1364 0
573 1365 0
574 1366 0
575 1367 0
576 1368 0
577 1369 0
578 1370 0
579 1371 0
580 1372 0
581 1373 0
582 1374 0
583 1375 0
584 1376 0
585 1377 0
586 1378 0
587 1379 0
588 1380 0
589 1381 0
590 1382 0
591 1383 0
592 1384 0
593 1385 0
594 1386 0
595 1387 0
596 1388 0
597 1389 0
598 1390 0
599 1391 0
600 1392 0
601 1393 0
602 1394 0
603 1395 0
604 1396 0
605 1397 0
606 1398 0
607 1399 0
608 1400 0
609 1401 0
610 1402 0
611 1403 0
612 1404 0
613 1405 0
614 1406 0
615 1407 0
616 1408 0
617 1409 0
618 1410 0
619 1411 0
620 1412 0
621 1413 0
622 1414 0
623 1415 0
624 1416 0
625 1417 0
626 1418 0
627 1419 0
628 1420 0
629 1421 0
630 1422 0
631 1423 0
632 1424 0
633 1425 0
634 1426 0
635 1427 0
636 1428 0
637 1429 0
638 1430 0
639 1431 0
640 1432 0
641 1433 0
642 1434 0
643 1435 0
644 1436 0
645 1437 0
646 1438 0
647 1439 0
648 1440 0
649 1441 0
650 1442 0
651 1443 0
652 1444 0
653 1445 0
654 1446 0
655 1447 0
656 1448 0
657 1449 0
658 1450 0
659 1451 0
660 1452 0
661 1453 0
662 1454 0
663 1455 0
664 1456 0
665 1457 0
666 1458 0
667 1459 0
668 1460 0
669 1461 0
670 1462 0
671 1463 0
672 1464 0
673 1465 0
674 1466 0
675 1467 0
676 1468 0
677 1469 0
678 1470 0
679 1471 0
680 1472 0
681 1473 0
682 1474 0
683 1475 0
684 1476 0
685 1477 0
686 1478 0
687 1479 0
688 1480 0
689 1481 0
690 1482 0
691 1483 0
692 1484 0
693 1485 0
694 1486 0
695 1487 0
696 1488 0
697 1489 0
698 1490 0
699 1491 0
700 1492 0
701 1493 0
702 1494 0
703 1495 0
704 1496 0
705 1497 0
706 1498 0
707 1499 0
708 1500 0
709 1501 0
710 1502 0
711 1503 0
712 1504 0
713 1505 0
714 1506 0
715 1507 0
716 1508 0
717 1509 0
718 1510 0
719 1511 0
720 1512 0
721 1513 0
722 1514 0
723 1515 0
724 1516 0
725 1517 0
726 1518 0
727 1519 0
728 1520 0
729 1521 0
730 1522 0
731 1523 0
732 1524 0
733 1525 0
734 1526 0
735 1527 0
736 1528 0
737 1529 0
738 1530 0
739 1531 0
740 1532 0
741 1533 0
742 1534 0
743 1535 0
744 1536 0
745 1537 0
746 1538 0
747 1539 0
748 1540 0
749 1541 0
750 1542 0
751 1543 0
752 1544 0
753 1545 0
754 1546 0
755 1547 0
756 1548 0
757 1549 0
758 1550 0
759 1551 0
760 1552 0
761 1553 0
762 1554 0
763 1555 0
764 1556 0
765 1557 0
766 1558 0
767 1559 0
768 1560 0
769 1561 0
770 1562 0
771 1563 0
772 1564 0
773 1565 0
774 1566 0
775 1567 0
776 1568 0
777 1569 0
778 1570 0
779 1571 0
780 1572 0
781 1573 0
782 1574 0
783 1575 0
784 1576 0
785 1577 0
786 1578 0
787 1579 0
788 1580 0
789 1581 0
790 1582 0
791 1583 0
792 1584 0
-614 0
