p cnf 526 5477
1 2 3 4 5 6 7 8 9 10 11 12 13 14 15 16 17 18 0
19 20 21 22 23 24 25 26 27 28 29 30 31 32 33 34 35 36 0
37 38 39 40 41 42 43 44 45 46 47 48 49 50 51 52 53 54 0
55 56 57 58 59 60 61 62 63 64 65 66 67 68 69 70 71 72 0
73 74 75 76 77 78 79 80 81 82 83 84 85 86 87 88 89 90 0
91 92 93 94 95 96 97 98 99 100 101 102 103 104 105 106 107 108 0
109 110 111 112 113 114 115 116 117 118 119 120 121 122 123 124 125 126 0
127 128 129 130 131 132 133 134 135 136 137 138 139 140 141 142 143 144 0
145 146 147 148 149 150 151 152 153 154 155 156 157 158 159 160 161 162 0
163 164 165 166 167 168 169 170 171 172 173 174 175 176 177 178 179 180 0
181 182 183 184 185 186 187 188 189 190 191 192 193 194 195 196 197 198 0
199 200 201 202 203 204 205 206 207 208 209 210 211 212 213 214 215 216 0
217 218 219 220 221 222 223 224 225 226 227 228 229 230 231 232 233 234 0
235 236 237 238 239 240 241 242 243 244 245 246 247 248 249 250 251 252 0
253 254 255 256 257 258 259 260 261 262 263 264 265 266 267 268 269 270 0
271 272 273 274 275 276 277 278 279 280 281 282 283 284 285 286 287 288 0
289 290 291 292 293 294 295 296 297 298 299 300 301 302 303 304 305 306 0
307 308 309 310 311 312 313 314 315 316 317 318 319 320 321 322 323 324 0
325 326 327 328 329 330 331 332 333 334 335 336 337 338 339 340 341 342 0
-1 -19 0
-1 -37 0
-1 -55 0
-1 -73 0
-1 -91 0
-1 -109 0
-1 -127 0
-1 -145 0
-1 -163 0
-1 -181 0
-1 -199 0
-1 -217 0
-1 -235 0
-1 -253 0
-1 -271 0
-1 -289 0
-1 -307 0
-1 -325 0
-19 -37 0
-19 -55 0
-19 -73 0
-19 -91 0
-19 -109 0
-19 -127 0
-19 -145 0
-19 -163 0
-19 -181 0
-19 -199 0
-19 -217 0
-19 -235 0
-19 -253 0
-19 -271 0
-19 -289 0
-19 -307 0
-19 -325 0
-37 -55 0
-37 -73 0
-37 -91 0
-37 -109 0
-37 -127 0
-37 -145 0
-37 -163 0
-37 -181 0
-37 -199 0
-37 -217 0
-37 -235 0
-37 -253 0
-37 -271 0
-37 -289 0
-37 -307 0
-37 -325 0
-55 -73 0
-55 -91 0
-55 -109 0
-55 -127 0
-55 -145 0
-55 -163 0
-55 -181 0
-55 -199 0
-55 -217 0
-55 -235 0
-55 -253 0
-55 -271 0
-55 -289 0
-55 -307 0
-55 -325 0
-73 -91 0
-73 -109 0
-73 -127 0
-73 -145 0
-73 -163 0
-73 -181 0
-73 -199 0
-73 -217 0
-73 -235 0
-73 -253 0
-73 -271 0
-73 -289 0
-73 -307 0
-73 -325 0
-91 -109 0
-91 -127 0
-91 -145 0
-91 -163 0
-91 -181 0
-91 -199 0
-91 -217 0
-91 -235 0
-91 -253 0
-91 -271 0
-91 -289 0
-91 -307 0
-91 -325 0
-109 -127 0
-109 -145 0
-109 -163 0
-109 -181 0
-109 -199 0
-109 -217 0
-109 -235 0
-109 -253 0
-109 -271 0
-109 -289 0
-109 -307 0
-109 -325 0
-127 -145 0
-127 -163 0
-127 -181 0
-127 -199 0
-127 -217 0
-127 -235 0
-127 -253 0
-127 -271 0
-127 -289 0
-127 -307 0
-127 -325 0
-145 -163 0
-145 -181 0
-145 -199 0
-145 -217 0
-145 -235 0
-145 -253 0
-145 -271 0
-145 -289 0
-145 -307 0
-145 -325 0
-163 -181 0
-163 -199 0
-163 -217 0
-163 -235 0
-163 -253 0
-163 -271 0
-163 -289 0
-163 -307 0
-163 -325 0
-181 -199 0
-181 -217 0
-181 -235 0
-181 -253 0
-181 -271 0
-181 -289 0
-181 -307 0
-181 -325 0
-199 -217 0
-199 -235 0
-199 -253 0
-199 -271 0
-199 -289 0
-199 -307 0
-199 -325 0
-217 -235 0
-217 -253 0
-217 -271 0
-217 -289 0
-217 -307 0
-217 -325 0
-235 -253 0
-235 -271 0
-235 -289 0
-235 -307 0
-235 -325 0
-253 -271 0
-253 -289 0
-253 -307 0
-253 -325 0
-271 -289 0
-271 -307 0
-271 -325 0
-289 -307 0
-289 -325 0
-307 -325 0
-2 -20 0
-2 -38 0
-2 -56 0
-2 -74 0
-2 -92 0
-2 -110 0
-2 -128 0
-2 -146 0
-2 -164 0
-2 -182 0
-2 -200 0
-2 -218 0
-2 -236 0
-2 -254 0
-2 -272 0
-2 -290 0
-2 -308 0
-2 -326 0
-20 -38 0
-20 -56 0
-20 -74 0
-20 -92 0
-20 -110 0
-20 -128 0
-20 -146 0
-20 -164 0
-20 -182 0
-20 -200 0
-20 -218 0
-20 -236 0
-20 -254 0
-20 -272 0
-20 -290 0
-20 -308 0
-20 -326 0
-38 -56 0
-38 -74 0
-38 -92 0
-38 -110 0
-38 -128 0
-38 -146 0
-38 -164 0
-38 -182 0
-38 -200 0
-38 -218 0
-38 -236 0
-38 -254 0
-38 -272 0
-38 -290 0
-38 -308 0
-38 -326 0
-56 -74 0
-56 -92 0
-56 -110 0
-56 -128 0
-56 -146 0
-56 -164 0
-56 -182 0
-56 -200 0
-56 -218 0
-56 -236 0
-56 -254 0
-56 -272 0
-56 -290 0
-56 -308 0
-56 -326 0
-74 -92 0
-74 -110 0
-74 -128 0
-74 -146 0
-74 -164 0
-74 -182 0
-74 -200 0
-74 -218 0
-74 -236 0
-74 -254 0
-74 -272 0
-74 -290 0
-74 -308 0
-74 -326 0
-92 -110 0
-92 -128 0
-92 -146 0
-92 -164 0
-92 -182 0
-92 -200 0
-92 -218 0
-92 -236 0
-92 -254 0
-92 -272 0
-92 -290 0
-92 -308 0
-92 -326 0
-110 -128 0
-110 -146 0
-110 -164 0
-110 -182 0
-110 -200 0
-110 -218 0
-110 -236 0
-110 -254 0
-110 -272 0
-110 -290 0
-110 -308 0
-110 -326 0
-128 -146 0
-128 -164 0
-128 -182 0
-128 -200 0
-128 -218 0
-128 -236 0
-128 -254 0
-128 -272 0
-128 -290 0
-128 -308 0
-128 -326 0
-146 -164 0
-146 -182 0
-146 -200 0
-146 -218 0
-146 -236 0
-146 -254 0
-146 -272 0
-146 -290 0
-146 -308 0
-146 -326 0
-164 -182 0
-164 -200 0
-164 -218 0
-164 -236 0
-164 -254 0
-164 -272 0
-164 -290 0
-164 -308 0
-164 -326 0
-182 -200 0
-182 -218 0
-182 -236 0
-182 -254 0
-182 -272 0
-182 -290 0
-182 -308 0
-182 -326 0
-200 -218 0
-200 -236 0
-200 -254 0
-200 -272 0
-200 -290 0
-200 -308 0
-200 -326 0
-218 -236 0
-218 -254 0
-218 -272 0
-218 -290 0
-218 -308 0
-218 -326 0
-236 -254 0
-236 -272 0
-236 -290 0
-236 -308 0
-236 -326 0
-254 -272 0
-254 -290 0
-254 -308 0
-254 -326 0
-272 -290 0
-272 -308 0
-272 -326 0
-290 -308 0
-290 -326 0
-308 -326 0
-3 -21 0
-3 -39 0
-3 -343 0
-21 -39 0
-21 -343 0
-39 -343 0
343 -57 0
343 -75 0
343 -344 0
-57 -75 0
-57 -344 0
-75 -344 0
344 -93 0
344 -111 0
344 -345 0
-93 -111 0
-93 -345 0
-111 -345 0
345 -129 0
345 -147 0
345 -346 0
-129 -147 0
-129 -346 0
-147 -346 0
346 -165 0
346 -183 0
346 -347 0
-165 -183 0
-165 -347 0
-183 -347 0
347 -201 0
347 -219 0
347 -348 0
-201 -219 0
-201 -348 0
-219 -348 0
348 -237 0
348 -255 0
348 -349 0
-237 -255 0
-237 -349 0
-255 -349 0
349 -273 0
349 -291 0
349 -350 0
-273 -291 0
-273 -350 0
-291 -350 0
350 -309 0
350 -327 0
-309 -327 0
-4 351 0
-22 352 0
-22 -351 0
-351 352 0
-40 353 0
-40 -352 0
-352 353 0
-58 354 0
-58 -353 0
-353 354 0
-76 355 0
-76 -354 0
-354 355 0
-94 356 0
-94 -355 0
-355 356 0
-112 357 0
-112 -356 0
-356 357 0
-130 358 0
-130 -357 0
-357 358 0
-148 359 0
-148 -358 0
-358 359 0
-166 360 0
-166 -359 0
-359 360 0
-184 361 0
-184 -360 0
-360 361 0
-202 362 0
-202 -361 0
-361 362 0
-220 363 0
-220 -362 0
-362 363 0
-238 364 0
-238 -363 0
-363 364 0
-256 365 0
-256 -364 0
-364 365 0
-274 366 0
-274 -365 0
-365 366 0
-292 367 0
-292 -366 0
-366 367 0
-310 368 0
-310 -367 0
-367 368 0
-328 -368 0
-5 369 0
-23 370 0
-23 -369 0
-369 370 0
-41 371 0
-41 -370 0
-370 371 0
-59 372 0
-59 -371 0
-371 372 0
-77 373 0
-77 -372 0
-372 373 0
-95 374 0
-95 -373 0
-373 374 0
-113 375 0
-113 -374 0
-374 375 0
-131 376 0
-131 -375 0
-375 376 0
-149 377 0
-149 -376 0
-376 377 0
-167 378 0
-167 -377 0
-377 378 0
-185 379 0
-185 -378 0
-378 379 0
-203 380 0
-203 -379 0
-379 380 0
-221 381 0
-221 -380 0
-380 381 0
-239 382 0
-239 -381 0
-381 382 0
-257 383 0
-257 -382 0
-382 383 0
-275 384 0
-275 -383 0
-383 384 0
-293 385 0
-293 -384 0
-384 385 0
-311 386 0
-311 -385 0
-385 386 0
-329 -386 0
-6 -24 0
-6 -42 0
-6 -60 0
-6 -78 0
-6 -96 0
-6 -114 0
-6 -132 0
-6 -150 0
-6 -168 0
-6 -186 0
-6 -204 0
-6 -222 0
-6 -240 0
-6 -258 0
-6 -276 0
-6 -294 0
-6 -312 0
-6 -330 0
-24 -42 0
-24 -60 0
-24 -78 0
-24 -96 0
-24 -114 0
-24 -132 0
-24 -150 0
-24 -168 0
-24 -186 0
-24 -204 0
-24 -222 0
-24 -240 0
-24 -258 0
-24 -276 0
-24 -294 0
-24 -312 0
-24 -330 0
-42 -60 0
-42 -78 0
-42 -96 0
-42 -114 0
-42 -132 0
-42 -150 0
-42 -168 0
-42 -186 0
-42 -204 0
-42 -222 0
-42 -240 0
-42 -258 0
-42 -276 0
-42 -294 0
-42 -312 0
-42 -330 0
-60 -78 0
-60 -96 0
-60 -114 0
-60 -132 0
-60 -150 0
-60 -168 0
-60 -186 0
-60 -204 0
-60 -222 0
-60 -240 0
-60 -258 0
-60 -276 0
-60 -294 0
-60 -312 0
-60 -330 0
-78 -96 0
-78 -114 0
-78 -132 0
-78 -150 0
-78 -168 0
-78 -186 0
-78 -204 0
-78 -222 0
-78 -240 0
-78 -258 0
-78 -276 0
-78 -294 0
-78 -312 0
-78 -330 0
-96 -114 0
-96 -132 0
-96 -150 0
-96 -168 0
-96 -186 0
-96 -204 0
-96 -222 0
-96 -240 0
-96 -258 0
-96 -276 0
-96 -294 0
-96 -312 0
-96 -330 0
-114 -132 0
-114 -150 0
-114 -168 0
-114 -186 0
-114 -204 0
-114 -222 0
-114 -240 0
-114 -258 0
-114 -276 0
-114 -294 0
-114 -312 0
-114 -330 0
-132 -150 0
-132 -168 0
-132 -186 0
-132 -204 0
-132 -222 0
-132 -240 0
-132 -258 0
-132 -276 0
-132 -294 0
-132 -312 0
-132 -330 0
-150 -168 0
-150 -186 0
-150 -204 0
-150 -222 0
-150 -240 0
-150 -258 0
-150 -276 0
-150 -294 0
-150 -312 0
-150 -330 0
-168 -186 0
-168 -204 0
-168 -222 0
-168 -240 0
-168 -258 0
-168 -276 0
-168 -294 0
-168 -312 0
-168 -330 0
-186 -204 0
-186 -222 0
-186 -240 0
-186 -258 0
-186 -276 0
-186 -294 0
-186 -312 0
-186 -330 0
-204 -222 0
-204 -240 0
-204 -258 0
-204 -276 0
-204 -294 0
-204 -312 0
-204 -330 0
-222 -240 0
-222 -258 0
-222 -276 0
-222 -294 0
-222 -312 0
-222 -330 0
-240 -258 0
-240 -276 0
-240 -294 0
-240 -312 0
-240 -330 0
-258 -276 0
-258 -294 0
-258 -312 0
-258 -330 0
-276 -294 0
-276 -312 0
-276 -330 0
-294 -312 0
-294 -330 0
-312 -330 0
-7 387 0
-25 388 0
-25 -387 0
-387 388 0
-43 389 0
-43 -388 0
-388 389 0
-61 390 0
-61 -389 0
-389 390 0
-79 391 0
-79 -390 0
-390 391 0
-97 392 0
-97 -391 0
-391 392 0
-115 393 0
-115 -392 0
-392 393 0
-133 394 0
-133 -393 0
-393 394 0
-151 395 0
-151 -394 0
-394 395 0
-169 396 0
-169 -395 0
-395 396 0
-187 397 0
-187 -396 0
-396 397 0
-205 398 0
-205 -397 0
-397 398 0
-223 399 0
-223 -398 0
-398 399 0
-241 400 0
-241 -399 0
-399 400 0
-259 401 0
-259 -400 0
-400 401 0
-277 402 0
-277 -401 0
-401 402 0
-295 403 0
-295 -402 0
-402 403 0
-313 404 0
-313 -403 0
-403 404 0
-331 -404 0
-8 405 0
-26 406 0
-26 -405 0
-405 406 0
-44 407 0
-44 -406 0
-406 407 0
-62 408 0
-62 -407 0
-407 408 0
-80 409 0
-80 -408 0
-408 409 0
-98 410 0
-98 -409 0
-409 410 0
-116 411 0
-116 -410 0
-410 411 0
-134 412 0
-134 -411 0
-411 412 0
-152 413 0
-152 -412 0
-412 413 0
-170 414 0
-170 -413 0
-413 414 0
-188 415 0
-188 -414 0
-414 415 0
-206 416 0
-206 -415 0
-415 416 0
-224 417 0
-224 -416 0
-416 417 0
-242 418 0
-242 -417 0
-417 418 0
-260 419 0
-260 -418 0
-418 419 0
-278 420 0
-278 -419 0
-419 420 0
-296 421 0
-296 -420 0
-420 421 0
-314 422 0
-314 -421 0
-421 422 0
-332 -422 0
-9 -27 0
-9 -45 0
-9 -423 0
-27 -45 0
-27 -423 0
-45 -423 0
423 -63 0
423 -81 0
423 -424 0
-63 -81 0
-63 -424 0
-81 -424 0
424 -99 0
424 -117 0
424 -425 0
-99 -117 0
-99 -425 0
-117 -425 0
425 -135 0
425 -153 0
425 -426 0
-135 -153 0
-135 -426 0
-153 -426 0
426 -171 0
426 -189 0
426 -427 0
-171 -189 0
-171 -427 0
-189 -427 0
427 -207 0
427 -225 0
427 -428 0
-207 -225 0
-207 -428 0
-225 -428 0
428 -243 0
428 -261 0
428 -429 0
-243 -261 0
-243 -429 0
-261 -429 0
429 -279 0
429 -297 0
429 -430 0
-279 -297 0
-279 -430 0
-297 -430 0
430 -315 0
430 -333 0
-315 -333 0
-10 431 0
-28 432 0
-28 -431 0
-431 432 0
-46 433 0
-46 -432 0
-432 433 0
-64 434 0
-64 -433 0
-433 434 0
-82 435 0
-82 -434 0
-434 435 0
-100 436 0
-100 -435 0
-435 436 0
-118 437 0
-118 -436 0
-436 437 0
-136 438 0
-136 -437 0
-437 438 0
-154 439 0
-154 -438 0
-438 439 0
-172 440 0
-172 -439 0
-439 440 0
-190 441 0
-190 -440 0
-440 441 0
-208 442 0
-208 -441 0
-441 442 0
-226 443 0
-226 -442 0
-442 443 0
-244 444 0
-244 -443 0
-443 444 0
-262 445 0
-262 -444 0
-444 445 0
-280 446 0
-280 -445 0
-445 446 0
-298 447 0
-298 -446 0
-446 447 0
-316 448 0
-316 -447 0
-447 448 0
-334 -448 0
-11 449 0
-29 450 0
-29 -449 0
-449 450 0
-47 451 0
-47 -450 0
-450 451 0
-65 452 0
-65 -451 0
-451 452 0
-83 453 0
-83 -452 0
-452 453 0
-101 454 0
-101 -453 0
-453 454 0
-119 455 0
-119 -454 0
-454 455 0
-137 456 0
-137 -455 0
-455 456 0
-155 457 0
-155 -456 0
-456 457 0
-173 458 0
-173 -457 0
-457 458 0
-191 459 0
-191 -458 0
-458 459 0
-209 460 0
-209 -459 0
-459 460 0
-227 461 0
-227 -460 0
-460 461 0
-245 462 0
-245 -461 0
-461 462 0
-263 463 0
-263 -462 0
-462 463 0
-281 464 0
-281 -463 0
-463 464 0
-299 465 0
-299 -464 0
-464 465 0
-317 466 0
-317 -465 0
-465 466 0
-335 -466 0
-12 -30 0
-12 -48 0
-12 -467 0
-30 -48 0
-30 -467 0
-48 -467 0
467 -66 0
467 -84 0
467 -468 0
-66 -84 0
-66 -468 0
-84 -468 0
468 -102 0
468 -120 0
468 -469 0
-102 -120 0
-102 -469 0
-120 -469 0
469 -138 0
469 -156 0
469 -470 0
-138 -156 0
-138 -470 0
-156 -470 0
470 -174 0
470 -192 0
470 -471 0
-174 -192 0
-174 -471 0
-192 -471 0
471 -210 0
471 -228 0
471 -472 0
-210 -228 0
-210 -472 0
-228 -472 0
472 -246 0
472 -264 0
472 -473 0
-246 -264 0
-246 -473 0
-264 -473 0
473 -282 0
473 -300 0
473 -474 0
-282 -300 0
-282 -474 0
-300 -474 0
474 -318 0
474 -336 0
-318 -336 0
-13 -31 0
-13 -49 0
-13 -475 0
-31 -49 0
-31 -475 0
-49 -475 0
475 -67 0
475 -85 0
475 -476 0
-67 -85 0
-67 -476 0
-85 -476 0
476 -103 0
476 -121 0
476 -477 0
-103 -121 0
-103 -477 0
-121 -477 0
477 -139 0
477 -157 0
477 -478 0
-139 -157 0
-139 -478 0
-157 -478 0
478 -175 0
478 -193 0
478 -479 0
-175 -193 0
-175 -479 0
-193 -479 0
479 -211 0
479 -229 0
479 -480 0
-211 -229 0
-211 -480 0
-229 -480 0
480 -247 0
480 -265 0
480 -481 0
-247 -265 0
-247 -481 0
-265 -481 0
481 -283 0
481 -301 0
481 -482 0
-283 -301 0
-283 -482 0
-301 -482 0
482 -319 0
482 -337 0
-319 -337 0
-14 -32 0
-14 -50 0
-14 -68 0
-14 -86 0
-14 -104 0
-14 -122 0
-14 -140 0
-14 -158 0
-14 -176 0
-14 -194 0
-14 -212 0
-14 -230 0
-14 -248 0
-14 -266 0
-14 -284 0
-14 -302 0
-14 -320 0
-14 -338 0
-32 -50 0
-32 -68 0
-32 -86 0
-32 -104 0
-32 -122 0
-32 -140 0
-32 -158 0
-32 -176 0
-32 -194 0
-32 -212 0
-32 -230 0
-32 -248 0
-32 -266 0
-32 -284 0
-32 -302 0
-32 -320 0
-32 -338 0
-50 -68 0
-50 -86 0
-50 -104 0
-50 -122 0
-50 -140 0
-50 -158 0
-50 -176 0
-50 -194 0
-50 -212 0
-50 -230 0
-50 -248 0
-50 -266 0
-50 -284 0
-50 -302 0
-50 -320 0
-50 -338 0
-68 -86 0
-68 -104 0
-68 -122 0
-68 -140 0
-68 -158 0
-68 -176 0
-68 -194 0
-68 -212 0
-68 -230 0
-68 -248 0
-68 -266 0
-68 -284 0
-68 -302 0
-68 -320 0
-68 -338 0
-86 -104 0
-86 -122 0
-86 -140 0
-86 -158 0
-86 -176 0
-86 -194 0
-86 -212 0
-86 -230 0
-86 -248 0
-86 -266 0
-86 -284 0
-86 -302 0
-86 -320 0
-86 -338 0
-104 -122 0
-104 -140 0
-104 -158 0
-104 -176 0
-104 -194 0
-104 -212 0
-104 -230 0
-104 -248 0
-104 -266 0
-104 -284 0
-104 -302 0
-104 -320 0
-104 -338 0
-122 -140 0
-122 -158 0
-122 -176 0
-122 -194 0
-122 -212 0
-122 -230 0
-122 -248 0
-122 -266 0
-122 -284 0
-122 -302 0
-122 -320 0
-122 -338 0
-140 -158 0
-140 -176 0
-140 -194 0
-140 -212 0
-140 -230 0
-140 -248 0
-140 -266 0
-140 -284 0
-140 -302 0
-140 -320 0
-140 -338 0
-158 -176 0
-158 -194 0
-158 -212 0
-158 -230 0
-158 -248 0
-158 -266 0
-158 -284 0
-158 -302 0
-158 -320 0
-158 -338 0
-176 -194 0
-176 -212 0
-176 -230 0
-176 -248 0
-176 -266 0
-176 -284 0
-176 -302 0
-176 -320 0
-176 -338 0
-194 -212 0
-194 -230 0
-194 -248 0
-194 -266 0
-194 -284 0
-194 -302 0
-194 -320 0
-194 -338 0
-212 -230 0
-212 -248 0
-212 -266 0
-212 -284 0
-212 -302 0
-212 -320 0
-212 -338 0
-230 -248 0
-230 -266 0
-230 -284 0
-230 -302 0
-230 -320 0
-230 -338 0
-248 -266 0
-248 -284 0
-248 -302 0
-248 -320 0
-248 -338 0
-266 -284 0
-266 -302 0
-266 -320 0
-266 -338 0
-284 -302 0
-284 -320 0
-284 -338 0
-302 -320 0
-302 -338 0
-320 -338 0
-15 -33 0
-15 -51 0
-15 -69 0
-15 -87 0
-15 -105 0
-15 -123 0
-15 -141 0
-15 -159 0
-15 -177 0
-15 -195 0
-15 -213 0
-15 -231 0
-15 -249 0
-15 -267 0
-15 -285 0
-15 -303 0
-15 -321 0
-15 -339 0
-33 -51 0
-33 -69 0
-33 -87 0
-33 -105 0
-33 -123 0
-33 -141 0
-33 -159 0
-33 -177 0
-33 -195 0
-33 -213 0
-33 -231 0
-33 -249 0
-33 -267 0
-33 -285 0
-33 -303 0
-33 -321 0
-33 -339 0
-51 -69 0
-51 -87 0
-51 -105 0
-51 -123 0
-51 -141 0
-51 -159 0
-51 -177 0
-51 -195 0
-51 -213 0
-51 -231 0
-51 -249 0
-51 -267 0
-51 -285 0
-51 -303 0
-51 -321 0
-51 -339 0
-69 -87 0
-69 -105 0
-69 -123 0
-69 -141 0
-69 -159 0
-69 -177 0
-69 -195 0
-69 -213 0
-69 -231 0
-69 -249 0
-69 -267 0
-69 -285 0
-69 -303 0
-69 -321 0
-69 -339 0
-87 -105 0
-87 -123 0
-87 -141 0
-87 -159 0
-87 -177 0
-87 -195 0
-87 -213 0
-87 -231 0
-87 -249 0
-87 -267 0
-87 -285 0
-87 -303 0
-87 -321 0
-87 -339 0
-105 -123 0
-105 -141 0
-105 -159 0
-105 -177 0
-105 -195 0
-105 -213 0
-105 -231 0
-105 -249 0
-105 -267 0
-105 -285 0
-105 -303 0
-105 -321 0
-105 -339 0
-123 -141 0
-123 -159 0
-123 -177 0
-123 -195 0
-123 -213 0
-123 -231 0
-123 -249 0
-123 -267 0
-123 -285 0
-123 -303 0
-123 -321 0
-123 -339 0
-141 -159 0
-141 -177 0
-141 -195 0
-141 -213 0
-141 -231 0
-141 -249 0
-141 -267 0
-141 -285 0
-141 -303 0
-141 -321 0
-141 -339 0
-159 -177 0
-159 -195 0
-159 -213 0
-159 -231 0
-159 -249 0
-159 -267 0
-159 -285 0
-159 -303 0
-159 -321 0
-159 -339 0
-177 -195 0
-177 -213 0
-177 -231 0
-177 -249 0
-177 -267 0
-177 -285 0
-177 -303 0
-177 -321 0
-177 -339 0
-195 -213 0
-195 -231 0
-195 -249 0
-195 -267 0
-195 -285 0
-195 -303 0
-195 -321 0
-195 -339 0
-213 -231 0
-213 -249 0
-213 -267 0
-213 -285 0
-213 -303 0
-213 -321 0
-213 -339 0
-231 -249 0
-231 -267 0
-231 -285 0
-231 -303 0
-231 -321 0
-231 -339 0
-249 -267 0
-249 -285 0
-249 -303 0
-249 -321 0
-249 -339 0
-267 -285 0
-267 -303 0
-267 -321 0
-267 -339 0
-285 -303 0
-285 -321 0
-285 -339 0
-303 -321 0
-303 -339 0
-321 -339 0
-16 483 0
-34 484 0
-34 -483 0
-483 484 0
-52 485 0
-52 -484 0
-484 485 0
-70 486 0
-70 -485 0
-485 486 0
-88 487 0
-88 -486 0
-486 487 0
-106 488 0
-106 -487 0
-487 488 0
-124 489 0
-124 -488 0
-488 489 0
-142 490 0
-142 -489 0
-489 490 0
-160 491 0
-160 -490 0
-490 491 0
-178 492 0
-178 -491 0
-491 492 0
-196 493 0
-196 -492 0
-492 493 0
-214 494 0
-214 -493 0
-493 494 0
-232 495 0
-232 -494 0
-494 495 0
-250 496 0
-250 -495 0
-495 496 0
-268 497 0
-268 -496 0
-496 497 0
-286 498 0
-286 -497 0
-497 498 0
-304 499 0
-304 -498 0
-498 499 0
-322 500 0
-322 -499 0
-499 500 0
-340 -500 0
-17 -35 0
-17 -53 0
-17 -501 0
-35 -53 0
-35 -501 0
-53 -501 0
501 -71 0
501 -89 0
501 -502 0
-71 -89 0
-71 -502 0
-89 -502 0
502 -107 0
502 -125 0
502 -503 0
-107 -125 0
-107 -503 0
-125 -503 0
503 -143 0
503 -161 0
503 -504 0
-143 -161 0
-143 -504 0
-161 -504 0
504 -179 0
504 -197 0
504 -505 0
-179 -197 0
-179 -505 0
-197 -505 0
505 -215 0
505 -233 0
505 -506 0
-215 -233 0
-215 -506 0
-233 -506 0
506 -251 0
506 -269 0
506 -507 0
-251 -269 0
-251 -507 0
-269 -507 0
507 -287 0
507 -305 0
507 -508 0
-287 -305 0
-287 -508 0
-305 -508 0
508 -323 0
508 -341 0
-323 -341 0
-18 509 0
-36 510 0
-36 -509 0
-509 510 0
-54 511 0
-54 -510 0
-510 511 0
-72 512 0
-72 -511 0
-511 512 0
-90 513 0
-90 -512 0
-512 513 0
-108 514 0
-108 -513 0
-513 514 0
-126 515 0
-126 -514 0
-514 515 0
-144 516 0
-144 -515 0
-515 516 0
-162 517 0
-162 -516 0
-516 517 0
-180 518 0
-180 -517 0
-517 518 0
-198 519 0
-198 -518 0
-518 519 0
-216 520 0
-216 -519 0
-519 520 0
-234 521 0
-234 -520 0
-520 521 0
-252 522 0
-252 -521 0
-521 522 0
-270 523 0
-270 -522 0
-522 523 0
-288 524 0
-288 -523 0
-523 524 0
-306 525 0
-306 -524 0
-524 525 0
-324 526 0
-324 -525 0
-525 526 0
-342 -526 0
-246 -315 0
-21 -164 0
-119 -222 0
-27 -330 0
-194 -272 0
-268 -289 0
-54 -96 0
-35 -160 0
-190 -235 0
-81 -237 0
-53 -103 0
-138 -243 0
-263 -274 0
-282 -326 0
-116 -275 0
-240 -256 0
-85 -188 0
-252 -296 0
-269 -303 0
-152 -275 0
-78 -310 0
-230 -240 0
-248 -296 0
-264 -316 0
-84 -164 0
-238 -307 0
-51 -94 0
-154 -187 0
-68 -290 0
-101 -208 0
-200 -325 0
-189 -241 0
-42 -221 0
-63 -134 0
-34 -152 0
-36 -325 0
-287 -297 0
-148 -163 0
-47 -256 0
-35 -132 0
-194 -311 0
-70 -127 0
-123 -331 0
-72 -275 0
-67 -206 0
-36 -158 0
-98 -331 0
-18 -316 0
-50 -137 0
-302 -309 0
-136 -218 0
-118 -326 0
-249 -316 0
-196 -291 0
-12 -259 0
-159 -208 0
-175 -222 0
-230 -325 0
-299 -331 0
-221 -326 0
-136 -292 0
-174 -261 0
-306 -338 0
-88 -239 0
-180 -332 0
-263 -289 0
-87 -99 0
-268 -294 0
-245 -259 0
-15 -112 0
-7 -168 0
-26 -220 0
-45 -91 0
-96 -183 0
-118 -131 0
-23 -236 0
-301 -311 0
-203 -290 0
-16 -260 0
-24 -257 0
-12 -59 0
-95 -328 0
-69 -333 0
-198 -218 0
-156 -185 0
-97 -308 0
-100 -130 0
-45 -310 0
-65 -259 0
-51 -154 0
-195 -330 0
-306 -313 0
-176 -217 0
-13 -59 0
-230 -307 0
-285 -295 0
-10 -205 0
-60 -310 0
-104 -318 0
-283 -315 0
-139 -261 0
-45 -188 0
-303 -312 0
-17 -75 0
-27 -294 0
-90 -135 0
-180 -223 0
-12 -327 0
-26 -110 0
-18 -204 0
-51 -82 0
-126 -261 0
-52 -120 0
-120 -154 0
-178 -184 0
-50 -99 0
-52 -230 0
-33 -41 0
-30 -317 0
-53 -102 0
-162 -257 0
-136 -181 0
-5 -202 0
-17 -42 0
-115 -131 0
-147 -199 0
-160 -221 0
-110 -307 0
-34 -204 0
-123 -259 0
-40 -308 0
-108 -187 0
-215 -242 0
-204 -310 0
-6 -202 0
-232 -280 0
-89 -293 0
-48 -129 0
-41 -253 0
-115 -271 0
-67 -262 0
-141 -226 0
-160 -315 0
-283 -295 0
-52 -218 0
-69 -278 0
-251 -282 0
-160 -314 0
-27 -73 0
-107 -236 0
-48 -147 0
-12 -172 0
-79 -201 0
-136 -242 0
-11 -308 0
-86 -223 0
-30 -101 0
-66 -155 0
-71 -290 0
-121 -166 0
-262 -311 0
-246 -281 0
-238 -273 0
-45 -294 0
-72 -119 0
-14 -31 0
-16 -60 0
-54 -189 0
-77 -220 0
-11 -200 0
-281 -296 0
-42 -74 0
-198 -259 0
-11 -133 0
-46 -153 0
-160 -331 0
-42 -56 0
-88 -334 0
-56 -91 0
-66 -166 0
-215 -236 0
-153 -293 0
-49 -57 0
-13 -156 0
-282 -292 0
-174 -281 0
-212 -227 0
-53 -73 0
-140 -253 0
-70 -209 0
-48 -203 0
-161 -220 0
-60 -167 0
-196 -260 0
-208 -275 0
-106 -265 0
-9 -62 0
-13 -205 0
-15 -265 0
-44 -79 0
-211 -328 0
-13 -241 0
-123 -200 0
-299 -311 0
-187 -308 0
-121 -134 0
-168 -235 0
-213 -307 0
-95 -274 0
-234 -262 0
-57 -182 0
-256 -309 0
-123 -171 0
-39 -200 0
-14 -193 0
-9 -58 0
-152 -254 0
-170 -326 0
-189 -236 0
-106 -171 0
-122 -236 0
-72 -281 0
-16 -98 0
-88 -221 0
-54 -65 0
-286 -338 0
-85 -244 0
-36 -256 0
-59 -292 0
-82 -256 0
-290 -307 0
-68 -163 0
-15 -202 0
-266 -276 0
-177 -277 0
-54 -63 0
-98 -113 0
-196 -257 0
-144 -199 0
-215 -335 0
-87 -150 0
-6 -237 0
-49 -64 0
-177 -203 0
-114 -147 0
-49 -101 0
-162 -337 0
-84 -155 0
-167 -201 0
-249 -295 0
-159 -170 0
-112 -325 0
-28 -169 0
-151 -273 0
-320 -334 0
-126 -220 0
-144 -276 0
-82 -112 0
-104 -244 0
-120 -148 0
-206 -275 0
-258 -273 0
-52 -114 0
-106 -206 0
-166 -309 0
-16 -313 0
-159 -188 0
-8 -78 0
-72 -238 0
-35 -195 0
-34 -301 0
-100 -109 0
-106 -176 0
-11 -312 0
-175 -224 0
-42 -57 0
-154 -202 0
-251 -303 0
-263 -331 0
-269 -275 0
-106 -318 0
-133 -220 0
-160 -282 0
-179 -222 0
-30 -241 0
-102 -332 0
-95 -218 0
-82 -240 0
-71 -203 0
-18 -212 0
-319 -327 0
-66 -169 0
-90 -170 0
-198 -212 0
-50 -174 0
-126 -142 0
-160 -201 0
-324 -339 0
-213 -248 0
-30 -217 0
-139 -174 0
-107 -241 0
-133 -257 0
-63 -312 0
-220 -236 0
-62 -326 0
-178 -219 0
-83 -277 0
-143 -146 0
-24 -310 0
-135 -240 0
-90 -314 0
-211 -272 0
-320 -337 0
-170 -218 0
-44 -95 0
-40 -236 0
-216 -308 0
-61 -114 0
-233 -313 0
-280 -326 0
-208 -296 0
-15 -165 0
-93 -163 0
-10 -75 0
-52 -239 0
-123 -146 0
-72 -249 0
-32 -170 0
-67 -92 0
-83 -149 0
-32 -240 0
-26 -241 0
-158 -192 0
-53 -202 0
-159 -258 0
-195 -284 0
-144 -301 0
-179 -182 0
-204 -219 0
-36 -62 0
-246 -257 0
-53 -190 0
-12 -279 0
-103 -120 0
-72 -200 0
-128 -217 0
-138 -332 0
-67 -204 0
-210 -331 0
-196 -230 0
-214 -267 0
-67 -79 0
-108 -214 0
-15 -138 0
-50 -275 0
-46 -133 0
-80 -272 0
-134 -312 0
-15 -149 0
-59 -112 0
-190 -327 0
-97 -329 0
-212 -253 0
-275 -327 0
-191 -244 0
-90 -251 0
-115 -311 0
-86 -190 0
-143 -239 0
-29 -60 0
-160 -189 0
-45 -312 0
-31 -83 0
-9 -113 0
-49 -254 0
-43 -91 0
-216 -297 0
-54 -64 0
-233 -321 0
-118 -188 0
-71 -186 0
-56 -145 0
-84 -202 0
-40 -201 0
-246 -335 0
-112 -218 0
-157 -314 0
-155 -280 0
-59 -328 0
-58 -146 0
-157 -292 0
-123 -295 0
-15 -152 0
-64 -73 0
-132 -274 0
-140 -203 0
-79 -203 0
-204 -239 0
-6 -183 0
-236 -325 0
-189 -325 0
-14 -253 0
-71 -204 0
-48 -77 0
-156 -293 0
-67 -91 0
-69 -157 0
-54 -341 0
-265 -273 0
-101 -225 0
-194 -219 0
-173 -276 0
-18 -123 0
-123 -338 0
-49 -298 0
-90 -335 0
-53 -325 0
-47 -298 0
-159 -297 0
-81 -310 0
-115 -132 0
-11 -80 0
-142 -302 0
-71 -174 0
-138 -290 0
-111 -199 0
-119 -274 0
-157 -282 0
-3 -73 0
-133 -312 0
-161 -330 0
-58 -199 0
-225 -238 0
-179 -236 0
-194 -223 0
-126 -230 0
-70 -220 0
-70 -262 0
-175 -255 0
-242 -327 0
-277 -325 0
-169 -236 0
-27 -127 0
-83 -295 0
-169 -274 0
-266 -332 0
-33 -121 0
-50 -66 0
-59 -163 0
-69 -152 0
-49 -292 0
-103 -200 0
-46 -59 0
-104 -221 0
-124 -243 0
-304 -328 0
-87 -109 0
-209 -237 0
-29 -328 0
-228 -299 0
-226 -315 0
-143 -298 0
-48 -99 0
-103 -154 0
-69 -292 0
-68 -145 0
-106 -302 0
-51 -212 0
-226 -271 0
-126 -291 0
-215 -254 0
-112 -164 0
-159 -244 0
-121 -331 0
-266 -308 0
-124 -293 0
-30 -205 0
-77 -200 0
-147 -308 0
-9 -330 0
-139 -333 0
-71 -257 0
-169 -254 0
-51 -302 0
-32 -77 0
-171 -326 0
-31 -310 0
-147 -290 0
-154 -253 0
-41 -217 0
-246 -260 0
-198 -267 0
-46 -253 0
-190 -260 0
-206 -221 0
-50 -135 0
-151 -256 0
-137 -274 0
-90 -292 0
-123 -172 0
-85 -145 0
-122 -208 0
-155 -200 0
-277 -294 0
-135 -311 0
-120 -227 0
-299 -315 0
-36 -217 0
-3 -326 0
-133 -274 0
-124 -332 0
-17 -253 0
-29 -329 0
-9 -202 0
-79 -222 0
-225 -278 0
-160 -176 0
-281 -293 0
-139 -153 0
-41 -256 0
-209 -259 0
-207 -307 0
-120 -225 0
-102 -152 0
-135 -222 0
-81 -272 0
-42 -127 0
-67 -253 0
-230 -281 0
-10 -296 0
-28 -309 0
-232 -256 0
-88 -237 0
-43 -55 0
-140 -186 0
-71 -93 0
-126 -183 0
-105 -299 0
-13 -223 0
-48 -80 0
-148 -253 0
-60 -254 0
-233 -332 0
-216 -265 0
-45 -109 0
-143 -201 0
-231 -336 0
-105 -211 0
-286 -337 0
-306 -322 0
-180 -276 0
-142 -147 0
-247 -261 0
-71 -248 0
-180 -238 0
-8 -254 0
-97 -167 0
-249 -320 0
-198 -338 0
-17 -258 0
-118 -147 0
-108 -314 0
-71 -263 0
-14 -95 0
-32 -205 0
-239 -254 0
-195 -299 0
-26 -203 0
-28 -152 0
-51 -294 0
-144 -340 0
-141 -237 0
-52 -222 0
-242 -272 0
-53 -132 0
-23 -290 0
-162 -248 0
-28 -134 0
-47 -92 0
-6 -164 0
-15 -292 0
-69 -98 0
-43 -327 0
-194 -307 0
-13 -257 0
-97 -112 0
-8 -202 0
-113 -202 0
-133 -168 0
-53 -332 0
-154 -204 0
-52 -339 0
-44 -277 0
-51 -328 0
-213 -336 0
-18 -151 0
-63 -293 0
-195 -327 0
-18 -147 0
-66 -148 0
-58 -218 0
-36 -188 0
-214 -248 0
-252 -312 0
-61 -328 0
-9 -170 0
-36 -205 0
-118 -170 0
-216 -228 0
-136 -187 0
-8 -163 0
-213 -310 0
-180 -206 0
-196 -236 0
-174 -220 0
-136 -222 0
-44 -149 0
-5 -289 0
-86 -332 0
-49 -207 0
-234 -318 0
-17 -202 0
-33 -334 0
-90 -336 0
-299 -330 0
-105 -318 0
-15 -129 0
-106 -339 0
-160 -275 0
-178 -207 0
-244 -273 0
-126 -333 0
-54 -81 0
-263 -280 0
-249 -315 0
-50 -95 0
-121 -258 0
-209 -329 0
-122 -235 0
-17 -22 0
-143 -207 0
-52 -266 0
-41 -326 0
-229 -273 0
-142 -211 0
-320 -331 0
-104 -210 0
-103 -168 0
-84 -101 0
-134 -199 0
-156 -307 0
-87 -281 0
-197 -246 0
-122 -221 0
-195 -255 0
-175 -228 0
-119 -255 0
-46 -116 0
-180 -330 0
-18 -224 0
-8 -331 0
-52 -206 0
-216 -335 0
-26 -272 0
-257 -291 0
-85 -310 0
-72 -188 0
-33 -66 0
-108 -166 0
-108 -339 0
-266 -296 0
-160 -272 0
-67 -116 0
-50 -273 0
-194 -293 0
-208 -255 0
-119 -153 0
-265 -326 0
-51 -245 0
-195 -205 0
-89 -210 0
-25 -163 0
-47 -75 0
-53 -212 0
-16 -110 0
-16 -163 0
-215 -310 0
-95 -200 0
-214 -318 0
-225 -260 0
-53 -312 0
-58 -74 0
-101 -117 0
-40 -254 0
-275 -328 0
-12 -257 0
-126 -265 0
-70 -279 0
-232 -311 0
-241 -325 0
-18 -34 0
-232 -285 0
-121 -217 0
-90 -199 0
-84 -150 0
-221 -310 0
-9 -20 0
-300 -310 0
-45 -330 0
-85 -328 0
-104 -280 0
-64 -98 0
-263 -329 0
-65 -236 0
-36 -174 0
-2 -37 0
-25 -132 0
-133 -327 0
-44 -78 0
-189 -240 0
-59 -217 0
-14 -130 0
-44 -259 0
-6 -77 0
-67 -81 0
-108 -281 0
-265 -330 0
-111 -127 0
-67 -336 0
-112 -128 0
-233 -257 0
-233 -276 0
-101 -112 0
-122 -227 0
-102 -137 0
-45 -256 0
-82 -332 0
-34 -249 0
-118 -186 0
-262 -314 0
-151 -235 0
-172 -243 0
-32 -153 0
-124 -316 0
-178 -218 0
-106 -284 0
-139 -149 0
-143 -292 0
-124 -154 0
-12 -317 0
-170 -290 0
-47 -163 0
-168 -257 0
-85 -155 0
-179 -285 0
-194 -255 0
-48 -238 0
-71 -188 0
-104 -281 0
-18 -112 0
-143 -325 0
-50 -276 0
-230 -292 0
-184 -327 0
-29 -316 0
-180 -274 0
-31 -66 0
-122 -243 0
-70 -135 0
-72 -98 0
-303 -314 0
-123 -184 0
-196 -298 0
-15 -183 0
-70 -312 0
-43 -165 0
-30 -149 0
-8 -22 0
-190 -256 0
-15 -102 0
-122 -189 0
-103 -133 0
-85 -246 0
-31 -200 0
-35 -339 0
-105 -244 0
-15 -81 0
-88 -337 0
-10 -38 0
-221 -290 0
-67 -138 0
-118 -258 0
-194 -291 0
-259 -311 0
-30 -296 0
-88 -166 0
-14 -191 0
-69 -77 0
-32 -191 0
-229 -296 0
-189 -223 0
-89 -214 0
-123 -157 0
-120 -335 0
-216 -226 0
-175 -336 0
-70 -203 0
-178 -231 0
-34 -177 0
-90 -151 0
-45 -127 0
-53 -220 0
-100 -149 0
-116 -129 0
-137 -165 0
-53 -331 0
-38 -271 0
-90 -327 0
-120 -168 0
-49 -289 0
-58 -273 0
-35 -254 0
-105 -191 0
-90 -325 0
-212 -271 0
-72 -241 0
-49 -208 0
-137 -311 0
-53 -97 0
-144 -213 0
-299 -314 0
-41 -183 0
-58 -129 0
-18 -156 0
-174 -254 0
-16 -333 0
-63 -326 0
-150 -165 0
-16 -103 0
-178 -309 0
-154 -309 0
-6 -328 0
-248 -332 0
-245 -334 0
-140 -169 0
-86 -229 0
-118 -129 0
-66 -128 0
-97 -182 0
-131 -183 0
-215 -256 0
-64 -95 0
-137 -327 0
-30 -218 0
-98 -114 0
-134 -236 0
-108 -173 0
-210 -296 0
-193 -299 0
-24 -271 0
-90 -221 0
-247 -282 0
-105 -236 0
-122 -205 0
-33 -43 0
-153 -258 0
-177 -314 0
-211 -275 0
-70 -122 0
-143 -331 0
-151 -329 0
-176 -278 0
-263 -291 0
-7 -291 0
-63 -109 0
-305 -316 0
-87 -167 0
-251 -333 0
-90 -304 0
-256 -290 0
-7 -76 0
-105 -301 0
-177 -289 0
-107 -111 0
-17 -40 0
-52 -59 0
-144 -221 0
-124 -200 0
-293 -310 0
-282 -297 0
-84 -183 0
-49 -115 0
-306 -341 0
-6 -146 0
-198 -225 0
-211 -228 0
-287 -340 0
-44 -253 0
-35 -62 0
-117 -217 0
-27 -221 0
-179 -227 0
-121 -263 0
-150 -200 0
-33 -218 0
-120 -171 0
-213 -266 0
-188 -313 0
-9 -169 0
-82 -200 0
-161 -248 0
-197 -220 0
-123 -280 0
-126 -327 0
-156 -238 0
-120 -327 0
-179 -275 0
-190 -240 0
-7 -254 0
-108 -154 0
-85 -156 0
-47 -181 0
-77 -130 0
-11 -236 0
-131 -220 0
-54 -286 0
-66 -152 0
-118 -128 0
-108 -232 0
-61 -218 0
-247 -335 0
-7 -127 0
-83 -294 0
-140 -207 0
-34 -297 0
-104 -245 0
-105 -116 0
-182 -289 0
-269 -273 0
-160 -231 0
-17 -132 0
-178 -334 0
-64 -78 0
-64 -309 0
-197 -313 0
-138 -335 0
-125 -164 0
-300 -317 0
-71 -80 0
-170 -294 0
-89 -169 0
-119 -272 0
-87 -302 0
-36 -276 0
-194 -298 0
-87 -200 0
-40 -75 0
-23 -146 0
-48 -219 0
-83 -333 0
-6 -145 0
-34 -333 0
-195 -294 0
-33 -243 0
-13 -182 0
-80 -256 0
-102 -235 0
-50 -79 0
-29 -261 0
-126 -135 0
-50 -297 0
-101 -167 0
-11 -313 0
-64 -147 0
-48 -281 0
-245 -257 0
-201 -236 0
-178 -292 0
-262 -332 0
-16 -19 0
-3 -37 0
-108 -164 0
-227 -254 0
-71 -110 0
-120 -333 0
-31 -77 0
-122 -301 0
-246 -333 0
-116 -182 0
-26 -38 0
-89 -134 0
-288 -339 0
-7 -60 0
-48 -334 0
-119 -129 0
-240 -275 0
-65 -203 0
-288 -332 0
-16 -87 0
-62 -312 0
-99 -205 0
-139 -253 0
-179 -264 0
-269 -310 0
-205 -238 0
-29 -190 0
-84 -333 0
-194 -294 0
-216 -286 0
-49 -241 0
-123 -183 0
-34 -237 0
-245 -276 0
-72 -287 0
-64 -240 0
-250 -293 0
-52 -68 0
-107 -261 0
-118 -294 0
-206 -291 0
-138 -145 0
-185 -308 0
-48 -313 0
-26 -258 0
-51 -192 0
-16 -302 0
-159 -194 0
-65 -80 0
-103 -221 0
-45 -325 0
-43 -59 0
-89 -189 0
-140 -219 0
-42 -326 0
-196 -274 0
-87 -131 0
-104 -145 0
-276 -289 0
-60 -93 0
-69 -247 0
-84 -258 0
-71 -76 0
-14 -299 0
-155 -327 0
-34 -272 0
-68 -337 0
-35 -315 0
-65 -168 0
-86 -154 0
-77 -147 0
-162 -196 0
-150 -163 0
-161 -229 0
-119 -224 0
-103 -167 0
-283 -299 0
-34 -60 0
-34 -155 0
-178 -310 0
-133 -167 0
-103 -217 0
-247 -294 0
-53 -175 0
-161 -274 0
-141 -248 0
-155 -291 0
-110 -181 0
-89 -218 0
-133 -309 0
-90 -274 0
-90 -156 0
-193 -309 0
-194 -244 0
-281 -292 0
-99 -222 0
-48 -262 0
-99 -273 0
-144 -338 0
-104 -149 0
-189 -253 0
-227 -238 0
-50 -205 0
-140 -259 0
-14 -66 0
-172 -220 0
-35 -203 0
-29 -239 0
-138 -201 0
-35 -255 0
-126 -171 0
-103 -155 0
-63 -148 0
-280 -311 0
-149 -166 0
-124 -159 0
-211 -293 0
-252 -277 0
-33 -238 0
-63 -272 0
-214 -245 0
-129 -325 0
-99 -129 0
-170 -255 0
-160 -239 0
-107 -281 0
-203 -325 0
-33 -281 0
-304 -336 0
-162 -200 0
-79 -275 0
-83 -170 0
-164 -325 0
-216 -289 0
-10 -93 0
-141 -203 0
-80 -311 0
-9 -205 0
-142 -329 0
-7 -257 0
-198 -208 0
-174 -206 0
-252 -263 0
-27 -314 0
-179 -311 0
-72 -301 0
-54 -336 0
-35 -301 0
-174 -243 0
-212 -225 0
-101 -295 0
-233 -242 0
-115 -163 0
-72 -97 0
-178 -182 0
-51 -239 0
-13 -73 0
-31 -132 0
-162 -167 0
-229 -274 0
-306 -340 0
-49 -201 0
-126 -140 0
-36 -317 0
-209 -218 0
-197 -205 0
-66 -330 0
-283 -334 0
-178 -263 0
-282 -289 0
-108 -235 0
-229 -331 0
-25 -37 0
-16 -246 0
-212 -217 0
-266 -313 0
-126 -226 0
-140 -257 0
-68 -99 0
-144 -264 0
-136 -290 0
-138 -309 0
-115 -181 0
-174 -191 0
-98 -223 0
-13 -41 0
-15 -181 0
-196 -217 0
-28 -132 0
-87 -266 0
-35 -316 0
-144 -292 0
-62 -169 0
-142 -207 0
-197 -262 0
-211 -273 0
-68 -331 0
-175 -243 0
-162 -287 0
-176 -205 0
-28 -204 0
-32 -39 0
-12 -312 0
-138 -292 0
-32 -129 0
-139 -218 0
-125 -299 0
-56 -289 0
-173 -275 0
-36 -116 0
-12 -226 0
-144 -298 0
-54 -143 0
-65 -74 0
-228 -310 0
-213 -331 0
-97 -293 0
-123 -181 0
-76 -308 0
-28 -182 0
-3 -109 0
-179 -189 0
-288 -293 0
-107 -134 0
-78 -202 0
-144 -229 0
-122 -217 0
-220 -255 0
-229 -235 0
-35 -94 0
-208 -239 0
-185 -326 0
-71 -235 0
-206 -273 0
-192 -202 0
-71 -133 0
-10 -217 0
-191 -271 0
-66 -239 0
-230 -333 0
-43 -307 0
-247 -330 0
-25 -60 0
-63 -183 0
-150 -217 0
-209 -296 0
-306 -315 0
-148 -218 0
-32 -296 0
-68 -296 0
-13 -221 0
-144 -283 0
-44 -55 0
-156 -181 0
-284 -298 0
-142 -258 0
-66 -225 0
-278 -290 0
-25 -40 0
-11 -307 0
-53 -242 0
-287 -292 0
-62 -184 0
-142 -174 0
-51 -277 0
-151 -221 0
-88 -308 0
-283 -332 0
-103 -189 0
-67 -224 0
-162 -228 0
-196 -255 0
-268 -314 0
-86 -148 0
-121 -169 0
-83 -206 0
-89 -258 0
-196 -222 0
-229 -334 0
-141 -169 0
-236 -271 0
-169 -221 0
-221 -309 0
-139 -260 0
-89 -110 0
-231 -309 0
-90 -132 0
-176 -300 0
-85 -173 0
-180 -207 0
-124 -272 0
-78 -325 0
-230 -295 0
-16 -122 0
-116 -271 0
-126 -181 0
-54 -107 0
-103 -184 0
-172 -308 0
-97 -254 0
-156 -187 0
-115 -293 0
-81 -326 0
-12 -238 0
-177 -274 0
-100 -145 0
-18 -307 0
-124 -230 0
-178 -183 0
-54 -181 0
-179 -242 0
-22 -37 0
-284 -329 0
-160 -186 0
-232 -310 0
-10 -79 0
-100 -117 0
-16 -190 0
-34 -85 0
-160 -205 0
-107 -284 0
-246 -277 0
-177 -309 0
-26 -217 0
-15 -212 0
-123 -261 0
-36 -117 0
-243 -328 0
-160 -260 0
-175 -201 0
-90 -205 0
-31 -225 0
-10 -309 0
-31 -291 0
-178 -275 0
-79 -325 0
-122 -132 0
-245 -316 0
-50 -163 0
-18 -148 0
-87 -248 0
-208 -315 0
-108 -196 0
-124 -187 0
-140 -193 0
-130 -326 0
-42 -328 0
-295 -327 0
-231 -254 0
-87 -313 0
-248 -330 0
-209 -244 0
-169 -292 0
-125 -290 0
-7 -274 0
-152 -277 0
-96 -131 0
-27 -79 0
-106 -158 0
-122 -289 0
-108 -257 0
-67 -310 0
-4 -163 0
-48 -223 0
-143 -321 0
-144 -196 0
-17 -115 0
-84 -189 0
-242 -253 0
-46 -76 0
-80 -111 0
-117 -310 0
-4 -110 0
-151 -254 0
-66 -188 0
-115 -310 0
-18 -329 0
-123 -258 0
-268 -297 0
-198 -318 0
-107 -296 0
-77 -310 0
-89 -298 0
-119 -169 0
-160 -185 0
-177 -281 0
-88 -154 0
-42 -202 0
-72 -279 0
-105 -309 0
-303 -334 0
-54 -213 0
-34 -205 0
-160 -235 0
-51 -203 0
-14 -64 0
-159 -174 0
-231 -291 0
-35 -169 0
-71 -207 0
-36 -169 0
-104 -110 0
-216 -330 0
-117 -148 0
-160 -229 0
-113 -220 0
-132 -256 0
-15 -98 0
-13 -307 0
-173 -187 0
-41 -166 0
-212 -301 0
-25 -129 0
-12 -23 0
-187 -290 0
-123 -225 0
-28 -153 0
-261 -330 0
-157 -224 0
-292 -327 0
-52 -220 0
-119 -308 0
-105 -307 0
-7 -75 0
-249 -311 0
-176 -294 0
-82 -97 0
-103 -278 0
-251 -330 0
-120 -183 0
-225 -292 0
-125 -222 0
-67 -245 0
-10 -91 0
-49 -202 0
-18 -193 0
-70 -134 0
-249 -271 0
-155 -237 0
-10 -127 0
-51 -331 0
-171 -331 0
-66 -83 0
-25 -92 0
-33 -165 0
-144 -145 0
-126 -228 0
-101 -275 0
-266 -275 0
-124 -315 0
-3 -253 0
-15 -271 0
-158 -325 0
-61 -112 0
-99 -199 0
-322 -325 0
-31 -239 0
-138 -314 0
-161 -290 0
-9 -186 0
-142 -289 0
-30 -295 0
-47 -218 0
-31 -316 0
-96 -273 0
-123 -130 0
-169 -220 0
-81 -258 0
-81 -221 0
-33 -184 0
-60 -110 0
-108 -240 0
-142 -283 0
-64 -331 0
-52 -169 0
-233 -301 0
-107 -311 0
-41 -310 0
-18 -74 0
-118 -330 0
-232 -267 0
-249 -334 0
-162 -179 0
-69 -116 0
-222 -254 0
-18 -244 0
-9 -94 0
-52 -240 0
-33 -38 0
-126 -187 0
-121 -222 0
-144 -177 0
-78 -253 0
-7 -239 0
-13 -132 0
-137 -262 0
-196 -225 0
-172 -207 0
-70 -175 0
-7 -327 0
-106 -211 0
-215 -246 0
-95 -147 0
-212 -331 0
-34 -151 0
-82 -277 0
-216 -338 0
-53 -111 0
-239 -291 0
-213 -256 0
-179 -218 0
-48 -217 0
-122 -238 0
-64 -219 0
-112 -289 0
-7 -271 0
-49 -333 0
-66 -224 0
-44 -329 0
-72 -187 0
-95 -148 0
-123 -282 0
-27 -241 0
-157 -260 0
-33 -104 0
-46 -255 0
-75 -92 0
-66 -206 0
-54 -316 0
-17 -62 0
-70 -123 0
-191 -257 0
-202 -289 0
-177 -185 0
-212 -307 0
-47 -76 0
-171 -242 0
-206 -274 0
-25 -182 0
-186 -293 0
-215 -296 0
-233 -315 0
-6 -310 0
-11 -73 0
-141 -297 0
-171 -237 0
-212 -282 0
-83 -255 0
-156 -239 0
-17 -322 0
-214 -339 0
-155 -278 0
-46 -275 0
-273 -325 0
-88 -146 0
-135 -309 0
-230 -261 0
-156 -334 0
-27 -167 0
-36 -58 0
-133 -235 0
-89 -292 0
-251 -253 0
-207 -237 0
-32 -99 0
-72 -337 0
-8 -182 0
-153 -239 0
-74 -325 0
-32 -224 0
-34 -309 0
-198 -251 0
-32 -92 0
-25 -74 0
-98 -202 0
-76 -325 0
-11 -118 0
-160 -168 0
-14 -99 0
-66 -146 0
-233 -339 0
-54 -77 0
-72 -165 0
-134 -166 0
-82 -135 0
-65 -95 0
-21 -181 0
-11 -261 0
-270 -303 0
-220 -271 0
-268 -302 0
-198 -233 0
-36 -280 0
-198 -258 0
-101 -330 0
-184 -307 0
-248 -262 0
-24 -202 0
-212 -259 0
-90 -303 0
-297 -313 0
-107 -335 0
-64 -296 0
-144 -322 0
-54 -136 0
-33 -46 0
-142 -308 0
-88 -279 0
-28 -167 0
-230 -254 0
-250 -299 0
-65 -332 0
-13 -311 0
-142 -332 0
-13 -244 0
-187 -200 0
-171 -240 0
-214 -244 0
-89 -296 0
-33 -297 0
-215 -320 0
-72 -271 0
-81 -289 0
-131 -146 0
-30 -328 0
-60 -181 0
-7 -39 0
-169 -312 0
-135 -220 0
-143 -299 0
-189 -235 0
-32 -116 0
-250 -291 0
-15 -326 0
-168 -182 0
-47 -172 0
-35 -267 0
-197 -296 0
-176 -297 0
-300 -314 0
-16 -289 0
-68 -139 0
-288 -334 0
-264 -278 0
-31 -289 0
-99 -127 0
-141 -207 0
-69 -187 0
-159 -226 0
-47 -326 0
-126 -208 0
-213 -223 0
-206 -293 0
-123 -337 0
-198 -280 0
-41 -91 0
-13 -181 0
-69 -136 0
-43 -273 0
-162 -165 0
-72 -74 0
-63 -259 0
-140 -278 0
-126 -323 0
-60 -182 0
-83 -225 0
-144 -238 0
-63 -74 0
-17 -145 0
-26 -330 0
-233 -255 0
-18 -95 0
-178 -181 0
-256 -308 0
-177 -291 0
-28 -41 0
-140 -274 0
-121 -168 0
-105 -122 0
-229 -258 0
-248 -318 0
-162 -246 0
-178 -200 0
-104 -326 0
-296 -310 0
-49 -245 0
-136 -205 0
-9 -114 0
-69 -193 0
-17 -129 0
-129 -218 0
-11 -62 0
-48 -307 0
-215 -322 0
-279 -310 0
-142 -243 0
-43 -73 0
-172 -328 0
-207 -222 0
-26 -184 0
-124 -134 0
-52 -87 0
-80 -132 0
-215 -334 0
-69 -299 0
-67 -246 0
-105 -205 0
-142 -231 0
-11 -135 0
-106 -213 0
-234 -338 0
-214 -321 0
-126 -169 0
-132 -164 0
-46 -94 0
-214 -297 0
-23 -147 0
-136 -237 0
-53 -81 0
-82 -171 0
-213 -238 0
-13 -148 0
-23 -37 0
-71 -109 0
-204 -326 0
-81 -276 0
-51 -262 0
-120 -296 0
-96 -221 0
-90 -189 0
-123 -241 0
-123 -220 0
-61 -292 0
-232 -334 0
-6 -37 0
-12 -132 0
-234 -254 0
-79 -255 0
-252 -276 0
-83 -240 0
-142 -256 0
-84 -290 0
-301 -326 0
-63 -187 0
-213 -255 0
-171 -199 0
-53 -303 0
-156 -242 0
-175 -316 0
-27 -312 0
-17 -124 0
-304 -330 0
-86 -325 0
-98 -256 0
-196 -289 0
-14 -152 0
-84 -277 0
-44 -237 0
-26 -169 0
-86 -199 0
-13 -331 0
-96 -202 0
-161 -231 0
-156 -191 0
-68 -307 0
-121 -295 0
-70 -321 0
-97 -132 0
-46 -91 0
-96 -329 0
-84 -281 0
-247 -257 0
-33 -164 0
-15 -295 0
-126 -281 0
-159 -325 0
-138 -278 0
-135 -294 0
-175 -278 0
-105 -263 0
-132 -235 0
-66 -294 0
-158 -219 0
-59 -235 0
-87 -271 0
-61 -186 0
-70 -221 0
-31 -171 0
-179 -191 0
-120 -203 0
-161 -332 0
-13 -154 0
-34 -209 0
-193 -335 0
-36 -229 0
-212 -264 0
-179 -340 0
-69 -127 0
-113 -308 0
-223 -236 0
-90 -117 0
-134 -205 0
-158 -241 0
-153 -165 0
-260 -271 0
-87 -168 0
-248 -337 0
-100 -165 0
-71 -74 0
-66 -111 0
-76 -237 0
-86 -319 0
-86 -331 0
-62 -290 0
-302 -330 0
-178 -190 0
-252 -301 0
-52 -283 0
-18 -310 0
-39 -289 0
-18 -138 0
-9 -74 0
-29 -256 0
-15 -32 0
-103 -334 0
-269 -327 0
-34 -115 0
-75 -271 0
-9 -257 0
-30 -59 0
-14 -209 0
-215 -238 0
-24 -236 0
-144 -327 0
-25 -327 0
-22 -183 0
-134 -326 0
-178 -249 0
-67 -137 0
-284 -326 0
-117 -294 0
-14 -207 0
-134 -307 0
-211 -295 0
-15 -176 0
-198 -200 0
-65 -150 0
-106 -235 0
-78 -327 0
-162 -171 0
-191 -220 0
-122 -228 0
-63 -311 0
-31 -219 0
-100 -152 0
-198 -206 0
-297 -308 0
-34 -61 0
-29 -275 0
-117 -130 0
-70 -117 0
-81 -256 0
-214 -292 0
-17 -248 0
-49 -78 0
-141 -224 0
-68 -184 0
-116 -200 0
-28 -189 0
-193 -259 0
-239 -328 0
-212 -263 0
-31 -76 0
-122 -264 0
-246 -261 0
-53 -328 0
-215 -293 0
-296 -330 0
-24 -254 0
-196 -264 0
-228 -243 0
-36 -88 0
-53 -205 0
-18 -312 0
-133 -236 0
-36 -73 0
-29 -236 0
-154 -183 0
-123 -218 0
-101 -131 0
-142 -326 0
-35 -85 0
-50 -228 0
-227 -241 0
-209 -272 0
-49 -91 0
-149 -236 0
-219 -236 0
-89 -224 0
-35 -336 0
-53 -218 0
-108 -321 0
-224 -292 0
-82 -147 0
-26 -223 0
-6 -185 0
-32 -301 0
-43 -58 0
-27 -310 0
-208 -254 0
-122 -240 0
-140 -309 0
-45 -80 0
-34 -165 0
-250 -337 0
-11 -150 0
-25 -326 0
-18 -184 0
-14 -25 0
-124 -204 0
-87 -282 0
-42 -311 0
-87 -154 0
-3 -272 0
-46 -110 0
-107 -148 0
-35 -250 0
-108 -171 0
-136 -235 0
-270 -278 0
-115 -330 0
-43 -183 0
-30 -133 0
-126 -176 0
-33 -154 0
-106 -238 0
-17 -122 0
-11 -60 0
-17 -29 0
-208 -238 0
-67 -95 0
-88 -120 0
-183 -217 0
-233 -261 0
-83 -307 0
-320 -328 0
-133 -258 0
-105 -242 0
-62 -183 0
-96 -309 0
-53 -160 0
-209 -257 0
-161 -219 0
-103 -110 0
-304 -325 0
-18 -237 0
-63 -327 0
-118 -242 0
-159 -227 0
-122 -329 0
-214 -253 0
-317 -325 0
-13 -279 0
-281 -333 0
-139 -203 0
-89 -318 0
-123 -207 0
-125 -248 0
-115 -127 0
-61 -128 0
-248 -259 0
-211 -239 0
-159 -238 0
-209 -316 0
-244 -258 0
-36 -262 0
-141 -199 0
-198 -210 0
-12 -206 0
-159 -184 0
-33 -156 0
-179 -186 0
-30 -152 0
-17 -28 0
-82 -314 0
-65 -295 0
-30 -209 0
-82 -98 0
-63 -203 0
-126 -337 0
-81 -150 0
-61 -75 0
-162 -295 0
-106 -174 0
-53 -246 0
-26 -131 0
-192 -262 0
-136 -236 0
-83 -167 0
-72 -247 0
-177 -292 0
-64 -238 0
-16 -293 0
-102 -200 0
-159 -217 0
-12 -24 0
-135 -202 0
-36 -253 0
-138 -168 0
-48 -136 0
-158 -184 0
-11 -244 0
-52 -210 0
-13 -236 0
-70 -302 0
-159 -206 0
-28 -274 0
-187 -217 0
-84 -221 0
-11 -297 0
-175 -236 0
-154 -219 0
-64 -314 0
-70 -85 0
-72 -203 0
-161 -327 0
-198 -249 0
-154 -236 0
-14 -239 0
-62 -127 0
-142 -239 0
-86 -139 0
-69 -112 0
-61 -92 0
-234 -302 0
-72 -215 0
-213 -298 0
-18 -104 0
-53 -122 0
-15 -41 0
-18 -308 0
-263 -295 0
-139 -293 0
-53 -60 0
-247 -256 0
-66 -167 0
-72 -322 0
-43 -328 0
-104 -275 0
-246 -332 0
-29 -113 0
-9 -203 0
-44 -77 0
-125 -166 0
-62 -203 0
-159 -193 0
-86 -170 0
-25 -145 0
-44 -129 0
-284 -331 0
-134 -241 0
-125 -145 0
-88 -259 0
-240 -310 0
-9 -277 0
-197 -304 0
-17 -335 0
-65 -326 0
-34 -328 0
-142 -272 0
-90 -259 0
-169 -257 0
-123 -223 0
-210 -274 0
-74 -289 0
-105 -192 0
-79 -165 0
-28 -257 0
-120 -182 0
-35 -292 0
-204 -290 0
-122 -202 0
-157 -295 0
-49 -199 0
-198 -215 0
-119 -184 0
-104 -208 0
-5 -58 0
-27 -258 0
-53 -258 0
-17 -92 0
-229 -259 0
-85 -110 0
-117 -128 0
-30 -200 0
-151 -201 0
-203 -328 0
-60 -113 0
-18 -73 0
-72 -178 0
-10 -310 0
-30 -276 0
-9 -25 0
-16 -166 0
-116 -295 0
-15 -171 0
-124 -191 0
-215 -244 0
-175 -311 0
-70 -206 0
-52 -221 0
-98 -308 0
-48 -209 0
-124 -153 0
-90 -243 0
-90 -308 0
-52 -217 0
-26 -168 0
-68 -167 0
-14 -168 0
-228 -278 0
-173 -309 0
-36 -110 0
-213 -236 0
-160 -317 0
-35 -249 0
-267 -293 0
-5 -56 0
-157 -311 0
-68 -98 0
-107 -191 0
-58 -200 0
-202 -273 0
-96 -275 0
-77 -92 0
-245 -293 0
-65 -167 0
-31 -312 0
-154 -165 0
-69 -282 0
-168 -256 0
-59 -74 0
-87 -118 0
-7 -237 0
-219 -308 0
-175 -271 0
-11 -331 0
-176 -314 0
-123 -174 0
-119 -331 0
-180 -253 0
-87 -328 0
-33 -295 0
-208 -330 0
-171 -257 0
-105 -128 0
-281 -326 0
-89 -229 0
-147 -272 0
-51 -169 0
-12 -217 0
-32 -109 0
-198 -337 0
-144 -219 0
-89 -245 0
-69 -148 0
-248 -282 0
-64 -185 0
-33 -245 0
-121 -150 0
-46 -93 0
-176 -299 0
-132 -272 0
-80 -254 0
-124 -255 0
-58 -272 0
-16 -151 0
-98 -313 0
-47 -224 0
-159 -241 0
-105 -311 0
-108 -176 0
-150 -203 0
-90 -112 0
-140 -171 0
-30 -224 0
-64 -272 0
-126 -146 0
-113 -181 0
-144 -186 0
-125 -178 0
-160 -318 0
-83 -151 0
-123 -222 0
-43 -110 0
-216 -225 0
-209 -297 0
-66 -335 0
-50 -308 0
-263 -315 0
-69 -191 0
-63 -92 0
-89 -209 0
-48 -183 0
-133 -204 0
-101 -118 0
-270 -302 0
-228 -329 0
-157 -168 0
-63 -220 0
-81 -206 0
-140 -167 0
-215 -337 0
-36 -208 0
-101 -132 0
-71 -147 0
-52 -243 0
-174 -209 0
-53 -211 0
-78 -129 0
-95 -255 0
-228 -238 0
-201 -290 0
-14 -206 0
-180 -260 0
-117 -218 0
-101 -171 0
-54 -278 0
-5 -129 0
-49 -336 0
-28 -314 0
-12 -74 0
-102 -334 0
-288 -307 0
-175 -300 0
-120 -131 0
-61 -310 0
-48 -293 0
-101 -148 0
-8 -257 0
-130 -201 0
-238 -291 0
-85 -257 0
-113 -290 0
-287 -294 0
-80 -221 0
-120 -204 0
-45 -257 0
-10 -202 0
-179 -300 0
-212 -319 0
-124 -331 0
-185 -289 0
-105 -137 0
-195 -311 0
-192 -199 0
-69 -85 0
-247 -260 0
-72 -273 0
-144 -204 0
-15 -19 0
-66 -113 0
-90 -176 0
-222 -310 0
-215 -271 0
-97 -168 0
-8 -74 0
-304 -309 0
-46 -150 0
-193 -204 0
-138 -256 0
-71 -218 0
-206 -222 0
-68 -185 0
-107 -199 0
-12 -97 0
-89 -164 0
-171 -290 0
-182 -235 0
-137 -239 0
-112 -129 0
-270 -307 0
-195 -277 0
-45 -145 0
-234 -279 0
-90 -295 0
-244 -261 0
-22 -165 0
-18 -194 0
-134 -276 0
-10 -254 0
-60 -293 0
-72 -284 0
-34 -82 0
-124 -281 0
-162 -317 0
-45 -271 0
-49 -182 0
-158 -319 0
-53 -337 0
-194 -313 0
-36 -285 0
-265 -329 0
-20 -109 0
-26 -240 0
-67 -93 0
-86 -110 0
-80 -328 0
-104 -207 0
-65 -241 0
-98 -257 0
-46 -272 0
-13 -333 0
-36 -56 0
-197 -209 0
-136 -327 0
-6 -325 0
-108 -220 0
-26 -218 0
-275 -289 0
-178 -245 0
-252 -340 0
-159 -332 0
-171 -224 0
-283 -294 0
-157 -294 0
-72 -127 0
-51 -163 0
-61 -294 0
-88 -303 0
-122 -297 0
-230 -271 0
-64 -257 0
-36 -125 0
-175 -181 0
-300 -332 0
-48 -221 0
-119 -278 0
-67 -311 0
-280 -293 0
-66 -153 0
-71 -329 0
-61 -93 0
-14 -60 0
-59 -111 0
-23 -76 0
-71 -325 0
-10 -26 0
-134 -168 0
-172 -311 0
-67 -291 0
-102 -206 0
-8 -148 0
-106 -319 0
-27 -37 0
-72 -330 0
-67 -170 0
-208 -278 0
-44 -219 0
-15 -37 0
-154 -260 0
-139 -332 0
-13 -26 0
-194 -335 0
-78 -221 0
-133 -255 0
-239 -292 0
-262 -315 0
-11 -242 0
-42 -182 0
-16 -263 0
-32 -300 0
-320 -329 0
-157 -203 0
-48 -289 0
-58 -255 0
-180 -284 0
-106 -203 0
-51 -132 0
-122 -218 0
-7 -272 0
-144 -168 0
-44 -132 0
-46 -189 0
-106 -167 0
-116 -311 0
-208 -294 0
-171 -203 0
-141 -328 0
-227 -316 0
-31 -57 0
-143 -340 0
-48 -59 0
-9 -241 0
-104 -328 0
-53 -290 0
-186 -254 0
-191 -315 0
-34 -243 0
-266 -293 0
-25 -275 0
-17 -303 0
-106 -109 0
-13 -23 0
-259 -289 0
-22 -291 0
-207 -260 0
-64 -167 0
-68 -229 0
-100 -294 0
-283 -300 0
-124 -257 0
-190 -307 0
-49 -253 0
-18 -165 0
-270 -315 0
-87 -291 0
-100 -329 0
-62 -217 0
-51 -136 0
-114 -239 0
-169 -309 0
-64 -297 0
-180 -201 0
-18 -70 0
-103 -239 0
-74 -235 0
-70 -240 0
-160 -276 0
-40 -183 0
-83 -95 0
-8 -201 0
-159 -209 0
-283 -336 0
-88 -201 0
-36 -114 0
-83 -132 0
-119 -145 0
-118 -315 0
-103 -109 0
-65 -114 0
-124 -253 0
-45 -57 0
-180 -319 0
-51 -311 0
-18 -85 0
-257 -273 0
-17 -60 0
-175 -331 0
-246 -279 0
-103 -264 0
-48 -150 0
-105 -217 0
-46 -135 0
-30 -119 0
-81 -204 0
-47 -184 0
-140 -300 0
-104 -298 0
-198 -257 0
-28 -255 0
-153 -325 0
-169 -202 0
-197 -280 0
-286 -300 0
-198 -307 0
-76 -165 0
-126 -253 0
-18 -265 0
-124 -223 0
-35 -86 0
-161 -223 0
-211 -317 0
-28 -331 0
-124 -249 0
-104 -271 0
-140 -184 0
-115 -237 0
-107 -299 0
-300 -334 0
-35 -137 0
-82 -129 0
-192 -207 0
-105 -246 0
-46 -117 0
-45 -116 0
-156 -189 0
-106 -311 0
-195 -245 0
-117 -254 0
-119 -205 0
-50 -130 0
-85 -236 0
-25 -128 0
-36 -94 0
-249 -272 0
-119 -279 0
-54 -254 0
-90 -294 0
-306 -337 0
-64 -221 0
-88 -299 0
-230 -299 0
-81 -294 0
-205 -258 0
-155 -187 0
-25 -41 0
-197 -337 0
-78 -93 0
-122 -207 0
-153 -203 0
-107 -119 0
-158 -311 0
-171 -181 0
-54 -332 0
-72 -282 0
-118 -132 0
-14 -264 0
-247 -279 0
-30 -132 0
-63 -200 0
-26 -236 0
-70 -264 0
-68 -111 0
-184 -309 0
-16 -223 0
-8 -115 0
-144 -237 0
-117 -330 0
-173 -329 0
-167 -273 0
-72 -103 0
-143 -176 0
-190 -309 0
-278 -327 0
-157 -271 0
-54 -105 0
-29 -295 0
-48 -222 0
-79 -168 0
-86 -256 0
-52 -103 0
-8 -76 0
-124 -276 0
-17 -133 0
-7 -330 0
-140 -168 0
-6 -255 0
-69 -168 0
-35 -51 0
-52 -199 0
-189 -242 0
-121 -151 0
-216 -235 0
-71 -338 0
-155 -253 0
-304 -319 0
-53 -284 0
-156 -277 0
-54 -317 0
-143 -256 0
-126 -127 0
-7 -74 0
-205 -276 0
-72 -77 0
-45 -217 0
-15 -25 0
-144 -315 0
-153 -183 0
-64 -310 0
-183 -272 0
-34 -134 0
-123 -329 0
-144 -173 0
-102 -149 0
-18 -27 0
-285 -329 0
-48 -166 0
-113 -309 0
-107 -209 0
-14 -190 0
-98 -168 0
-159 -224 0
-159 -326 0
-108 -190 0
-89 -175 0
-63 -80 0
-247 -278 0
-137 -279 0
-105 -277 0
-158 -297 0
-132 -291 0
-18 -59 0
-25 -111 0
-103 -191 0
-90 -164 0
-245 -329 0
-113 -182 0
-144 -205 0
-31 -183 0
-161 -257 0
-51 -113 0
-34 -186 0
-209 -325 0
-59 -272 0
-68 -97 0
-78 -326 0
-304 -318 0
-147 -217 0
-136 -260 0
-120 -258 0
-89 -285 0
-119 -148 0
-191 -260 0
-103 -149 0
-14 -277 0
-7 -276 0
-43 -147 0
-154 -240 0
-125 -165 0
-126 -159 0
-123 -182 0
-104 -277 0
-89 -328 0
-25 -239 0
-153 -186 0
-284 -318 0
-71 -157 0
-96 -255 0
-171 -311 0
-34 -298 0
-232 -247 0
-120 -235 0
-175 -308 0
-11 -79 0
-18 -302 0
-94 -219 0
-98 -218 0
-79 -92 0
-16 -297 0
-144 -289 0
-53 -61 0
-101 -226 0
-149 -184 0
-13 -298 0
-121 -326 0
-175 -318 0
-207 -328 0
-65 -237 0
-176 -247 0
-137 -168 0
-189 -291 0
-108 -283 0
-180 -257 0
-102 -188 0
-208 -256 0
-117 -170 0
-49 -75 0
-84 -187 0
-20 -199 0
-195 -272 0
-36 -308 0
-178 -237 0
-103 -236 0
-15 -166 0
-248 -258 0
-50 -75 0
-52 -193 0
-140 -262 0
-49 -300 0
-228 -289 0
-60 -73 0
-3 -20 0
-162 -260 0
-178 -278 0
-52 -98 0
-107 -155 0
-154 -182 0
-88 -331 0
-35 -283 0
-118 -205 0
-227 -312 0
-54 -296 0
-144 -159 0
-287 -317 0
-198 -317 0
-54 -248 0
-36 -290 0
-71 -332 0
-190 -311 0
-52 -295 0
-142 -262 0
-77 -307 0
-27 -42 0
-94 -127 0
-175 -280 0
-34 -299 0
-117 -222 0
-119 -297 0
-42 -167 0
-54 -114 0
-63 -330 0
-231 -240 0
-160 -262 0
-72 -89 0
-237 -272 0
-65 -325 0
-66 -255 0
-29 -188 0
-177 -335 0
-125 -129 0
-103 -118 0
-46 -254 0
-125 -208 0
-179 -224 0
-197 -295 0
-154 -276 0
-8 -19 0
-107 -205 0
-162 -193 0
-28 -327 0
-107 -256 0
-32 -74 0
-227 -255 0
-105 -247 0
-211 -217 0
-32 -171 0
-5 -199 0
-101 -164 0
-33 -325 0
-193 -206 0
-31 -295 0
-69 -314 0
-138 -272 0
-108 -167 0
-122 -163 0
-178 -273 0
-90 -195 0
-141 -148 0
-122 -203 0
-105 -186 0
-214 -319 0
-94 -255 0
-88 -253 0
-125 -291 0
-17 -207 0
-196 -311 0
-86 -263 0
-50 -313 0
-52 -258 0
-167 -255 0
-234 -271 0
-160 -309 0
-61 -220 0
-116 -289 0
-197 -275 0
-140 -256 0
-129 -164 0
-248 -293 0
-36 -295 0
-170 -277 0
-116 -168 0
-251 -299 0
-67 -131 0
-36 -43 0
-249 -263 0
-104 -200 0
-153 -204 0
-248 -280 0
-249 -319 0
-106 -253 0
-117 -309 0
-34 -254 0
-30 -127 0
-16 -77 0
-94 -146 0
-49 -152 0
-12 -271 0
-53 -317 0
-115 -129 0
-174 -309 0
-192 -313 0
-31 -261 0
-34 -123 0
-154 -258 0
-27 -206 0
-106 -326 0
-89 -222 0
-196 -220 0
-196 -211 0
-18 -317 0
-179 -302 0
-70 -172 0
-142 -190 0
-211 -225 0
-83 -260 0
-108 -129 0
-119 -291 0
-196 -338 0
-29 -145 0
-124 -205 0
-179 -313 0
-43 -182 0
-6 -326 0
-144 -207 0
-252 -326 0
-126 -269 0
-68 -119 0
-246 -263 0
-90 -332 0
-231 -313 0
-158 -294 0
-26 -91 0
-142 -189 0
-97 -148 0
-80 -92 0
-159 -186 0
-29 -330 0
-144 -251 0
-248 -294 0
-33 -328 0
-45 -200 0
-34 -67 0
-97 -199 0
-36 -296 0
-72 -85 0
-132 -308 0
-139 -225 0
-6 -41 0
-193 -326 0
-99 -200 0
-142 -149 0
-214 -264 0
-35 -49 0
-191 -243 0
-268 -293 0
-121 -228 0
-52 -92 0
-70 -132 0
-185 -237 0
-108 -230 0
-46 -207 0
-75 -110 0
-53 -177 0
-104 -152 0
-154 -315 0
-28 -296 0
-54 -307 0
-69 -158 0
-158 -185 0
-36 -194 0
-105 -325 0
-161 -230 0
-18 -246 0
-191 -276 0
-28 -171 0
-191 -202 0
-29 -61 0
-89 -226 0
-160 -311 0
-71 -302 0
-28 -289 0
-305 -308 0
-34 -289 0
-72 -195 0
-192 -281 0
-24 -93 0
-90 -228 0
-121 -163 0
-155 -294 0
-32 -48 0
-85 -318 0
-206 -312 0
-156 -208 0
-85 -227 0
-4 -181 0
-139 -228 0
-88 -99 0
-16 -152 0
-248 -329 0
-177 -230 0
-100 -205 0
-120 -155 0
-142 -265 0
-86 -282 0
-132 -311 0
-143 -159 0
-14 -131 0
-94 -290 0
-31 -203 0
-161 -262 0
-86 -238 0
-141 -174 0
-27 -114 0
-150 -183 0
-68 -313 0
-259 -309 0
-153 -296 0
-34 -240 0
-243 -292 0
-63 -253 0
-51 -264 0
-115 -308 0
-49 -184 0
-274 -326 0
-234 -259 0
-43 -237 0
-31 -221 0
-194 -211 0
-41 -181 0
-49 -294 0
-79 -129 0
-147 -182 0
-248 -275 0
-207 -235 0
-168 -273 0
-159 -203 0
-85 -272 0
-177 -206 0
-36 -304 0
-14 -202 0
-143 -182 0
-287 -291 0
-143 -223 0
-13 -209 0
-162 -227 0
-178 -299 0
-16 -245 0
-18 -210 0
-111 -218 0
-152 -163 0
-105 -115 0
-169 -325 0
-90 -103 0
-50 -236 0
-170 -273 0
-155 -219 0
-60 -218 0
-51 -110 0
-139 -171 0
-15 -79 0
-51 -111 0
-149 -254 0
-32 -157 0
-265 -278 0
-268 -336 0
-125 -214 0
-108 -261 0
-194 -236 0
-164 -271 0
-16 -168 0
-242 -254 0
-27 -201 0
-155 -218 0
-17 -170 0
-108 -233 0
-24 -59 0
-212 -291 0
-53 -137 0
-80 -237 0
-68 -327 0
-90 -315 0
-33 -83 0
-213 -297 0
-214 -283 0
-28 -181 0
-252 -311 0
-68 -135 0
-192 -240 0
-296 -308 0
-47 -272 0
-213 -274 0
-85 -326 0
-132 -236 0
-14 -204 0
-88 -319 0
-157 -169 0
-49 -147 0
-279 -293 0
-11 -94 0
-113 -328 0
-12 -46 0
-69 -225 0
-63 -278 0
-9 -44 0
-23 -145 0
-82 -276 0
-18 -142 0
-12 -222 0
-81 -240 0
-15 -110 0
-17 -282 0
-119 -330 0
-197 -291 0
-53 -209 0
-87 -333 0
-140 -164 0
-287 -339 0
-178 -272 0
-9 -312 0
-178 -224 0
-50 -115 0
-72 -209 0
-97 -310 0
-144 -274 0
-121 -273 0
-150 -256 0
-42 -149 0
-70 -154 0
-12 -171 0
-113 -219 0
-40 -56 0
-143 -319 0
-179 -319 0
-84 -204 0
-63 -163 0
-140 -188 0
-104 -118 0
-159 -189 0
-170 -309 0
-40 -129 0
-18 -58 0
-107 -279 0
-303 -332 0
-43 -253 0
-98 -150 0
-105 -203 0
-144 -325 0
-30 -146 0
-93 -164 0
-90 -220 0
-118 -182 0
-183 -200 0
-204 -292 0
-144 -203 0
-53 -300 0
-33 -246 0
-41 -274 0
-34 -149 0
-105 -170 0
-306 -319 0
-5 -326 0
-287 -325 0
-154 -220 0
-180 -298 0
-118 -275 0
-107 -130 0
-72 -269 0
-144 -317 0
-180 -300 0
-89 -207 0
-30 -82 0
-28 -313 0
-233 -299 0
-180 -317 0
-33 -336 0
-51 -292 0
-87 -259 0
-53 -263 0
-211 -312 0
-44 -290 0
-17 -83 0
-81 -278 0
-25 -236 0
-216 -333 0
-135 -218 0
-33 -55 0
-71 -313 0
-43 -75 0
-86 -219 0
-87 -278 0
-214 -338 0
-148 -182 0
-156 -335 0
-30 -263 0
-117 -223 0
-4 -183 0
-8 -274 0
-247 -254 0
-194 -301 0
-248 -312 0
-103 -227 0
-221 -325 0
-141 -314 0
-65 -187 0
-5 -220 0
-84 -293 0
-61 -204 0
-223 -307 0
-51 -308 0
-18 -183 0
-156 -237 0
-89 -336 0
-140 -238 0
-71 -282 0
-53 -92 0
-41 -147 0
-242 -289 0
-211 -327 0
-106 -328 0
-122 -187 0
-194 -256 0
-302 -313 0
-88 -140 0
-17 -169 0
-30 -327 0
-168 -292 0
-29 -135 0
-23 -163 0
-125 -254 0
-138 -277 0
-64 -114 0
-54 -240 0
-121 -253 0
-179 -325 0
-267 -289 0
-173 -261 0
-157 -238 0
-116 -294 0
-59 -325 0
-143 -268 0
-58 -183 0
-208 -217 0
-96 -164 0
-123 -332 0
-82 -132 0
-161 -326 0
-195 -259 0
-81 -151 0
-97 -274 0
-107 -253 0
-9 -76 0
-196 -331 0
-85 -97 0
-103 -115 0
-231 -247 0
-211 -334 0
-222 -326 0
-119 -132 0
-189 -200 0
-17 -68 0
-260 -277 0
-195 -296 0
-299 -326 0
-88 -222 0
-88 -134 0
-9 -187 0
-33 -333 0
-67 -296 0
-123 -290 0
-230 -330 0
-87 -277 0
-124 -130 0
-18 -116 0
-80 -185 0
-177 -263 0
-196 -271 0
-119 -316 0
-50 -170 0
-157 -280 0
-189 -205 0
-185 -327 0
-69 -289 0
-32 -120 0
-22 -163 0
-213 -280 0
-173 -182 0
-113 -148 0
-24 -237 0
-50 -239 0
-211 -261 0
-156 -164 0
-135 -236 0
-256 -272 0
-13 -75 0
-86 -314 0
-85 -292 0
-250 -339 0
-105 -111 0
-110 -217 0
-50 -121 0
-304 -317 0
-33 -61 0
-89 -152 0
-222 -325 0
-66 -199 0
-29 -76 0
-53 -146 0
-16 -312 0
-64 -150 0
-265 -308 0
-67 -257 0
-32 -100 0
-14 -46 0
-115 -257 0
-86 -172 0
-28 -39 0
-101 -205 0
-126 -328 0
-230 -243 0
-197 -329 0
-63 -98 0
-190 -330 0
-90 -115 0
-64 -278 0
-186 -325 0
-172 -201 0
-50 -97 0
-195 -338 0
-160 -245 0
-287 -309 0
-71 -239 0
-159 -164 0
-53 -333 0
-234 -340 0
-121 -279 0
-60 -292 0
-209 -253 0
-49 -174 0
-198 -247 0
-108 -151 0
-86 -113 0
-31 -165 0
-143 -222 0
-34 -172 0
-16 -212 0
-135 -312 0
-246 -297 0
-52 -299 0
-34 -266 0
-18 -281 0
-48 -317 0
-59 -109 0
-318 -326 0
-10 -223 0
-250 -338 0
-89 -149 0
-232 -254 0
-35 -257 0
-90 -128 0
-18 -60 0
-226 -292 0
-18 -67 0
-69 -271 0
-18 -111 0
-209 -254 0
-155 -242 0
-79 -130 0
-157 -299 0
-103 -173 0
-103 -309 0
-16 -262 0
-214 -249 0
-193 -336 0
-118 -167 0
-138 -172 0
-12 -147 0
-34 -293 0
-266 -337 0
-191 -255 0
-169 -310 0
-77 -253 0
-124 -210 0
-52 -246 0
-90 -202 0
-50 -293 0
-122 -152 0
-231 -317 0
-117 -314 0
-86 -311 0
-125 -192 0
-234 -307 0
-178 -276 0
-83 -109 0
-225 -314 0
-104 -192 0
-104 -327 0
-49 -278 0
-173 -293 0
-224 -273 0
-15 -20 0
-124 -258 0
-50 -278 0
-68 -210 0
-139 -245 0
-3 -289 0
-160 -291 0
-89 -247 0
-230 -263 0
-137 -217 0
-161 -164 0
-190 -217 0
-89 -227 0
-10 -40 0
-18 -21 0
-100 -220 0
-284 -300 0
-29 -315 0
-31 -181 0
-121 -129 0
-104 -211 0
-118 -163 0
-98 -111 0
-102 -148 0
-81 -115 0
-158 -235 0
-117 -257 0
-246 -312 0
-28 -44 0
-170 -203 0
-239 -255 0
-213 -262 0
-243 -308 0
-71 -308 0
-7 -92 0
-225 -289 0
-179 -318 0
-86 -181 0
-228 -333 0
-192 -308 0
-282 -335 0
-121 -127 0
-31 -118 0
-161 -337 0
-136 -153 0
-112 -307 0
-204 -274 0
-107 -260 0
-101 -254 0
-268 -329 0
-50 -328 0
-17 -151 0
-35 -39 0
-80 -259 0
-17 -285 0
-216 -303 0
-302 -334 0
-158 -201 0
-68 -265 0
-167 -272 0
-186 -291 0
-7 -235 0
-114 -130 0
-171 -204 0
-83 -220 0
-93 -128 0
-89 -339 0
-23 -184 0
-189 -330 0
-99 -110 0
-46 -199 0
-83 -276 0
-104 -332 0
-312 -328 0
-158 -326 0
-84 -190 0
-158 -282 0
-81 -114 0
-162 -323 0
-59 -130 0
-88 -295 0
-111 -181 0
-100 -181 0
-216 -332 0
-35 -318 0
-111 -217 0
-71 -253 0
-15 -255 0
-135 -146 0
-162 -330 0
-216 -285 0
-247 -255 0
-104 -117 0
-52 -309 0
-26 -97 0
-122 -155 0
-52 -138 0
-126 -129 0
-59 -256 0
-80 -181 0
-216 -339 0
-64 -276 0
-108 -243 0
-135 -290 0
-12 -186 0
-171 -205 0
-167 -292 0
-50 -259 0
-46 -77 0
-44 -204 0
-36 -333 0
-156 -206 0
-107 -153 0
-53 -254 0
-175 -325 0
-61 -253 0
-29 -277 0
-141 -193 0
-15 -217 0
-5 -237 0
-52 -272 0
-123 -135 0
-214 -303 0
-103 -130 0
-192 -334 0
-155 -171 0
-137 -261 0
-67 -130 0
-16 -147 0
-192 -255 0
-102 -119 0
-67 -74 0
-162 -190 0
-21 -110 0
-68 -182 0
-27 -236 0
-248 -313 0
-17 -160 0
-102 -261 0
-172 -291 0
-97 -203 0
-70 -80 0
-7 -20 0
-136 -311 0
-125 -139 0
-113 -217 0
-86 -220 0
-118 -150 0
-16 -294 0
-215 -315 0
-31 -293 0
-133 -293 0
-177 -227 0
-83 -168 0
-66 -127 0
-48 -290 0
-36 -113 0
-51 -59 0
-122 -226 0
-71 -274 0
-49 -129 0
-137 -242 0
-88 -327 0
-152 -164 0
-21 -253 0
-67 -293 0
-153 -255 0
-11 -147 0
-54 -274 0
-120 -201 0
-115 -326 0
-180 -242 0
-71 -284 0
-322 -330 0
-299 -312 0
-67 -237 0
-69 -316 0
-232 -317 0
-18 -42 0
-143 -276 0
-216 -245 0
-11 -255 0
-261 -312 0
-29 -271 0
-100 -257 0
-107 -327 0
-53 -264 0
-180 -273 0
-226 -261 0
-35 -61 0
-10 -325 0
-98 -127 0
-28 -78 0
-139 -311 0
-160 -183 0
-44 -313 0
-184 -290 0
-54 -168 0
-138 -204 0
-276 -308 0
-14 -47 0
-190 -237 0
-11 -168 0
-210 -225 0
-12 -94 0
-286 -299 0
-64 -149 0
-193 -238 0
-123 -227 0
-257 -271 0
-190 -277 0
-212 -314 0
-61 -163 0
-95 -291 0
-263 -297 0
-54 -102 0
-33 -279 0
-141 -149 0
-107 -308 0
-148 -273 0
-70 -94 0
-162 -255 0
-139 -318 0
-77 -292 0
-197 -219 0
-252 -335 0
-94 -327 0
-155 -236 0
-87 -91 0
-13 -137 0
-277 -328 0
-32 -202 0
-122 -239 0
-67 -150 0
-267 -281 0
-288 -310 0
-15 -329 0
-17 -173 0
-75 -127 0
-72 -319 0
-124 -217 0
-22 -199 0
-15 -325 0
-267 -334 0
-105 -328 0
-122 -290 0
-13 -19 0
-50 -118 0
-89 -119 0
-11 -273 0
-140 -228 0
-215 -237 0
-267 -278 0
-141 -327 0
-70 -83 0
-17 -329 0
-126 -275 0
-296 -326 0
-291 -325 0
-140 -258 0
-31 -133 0
-198 -261 0
-11 -39 0
-144 -296 0
-8 -39 0
-45 -293 0
-32 -262 0
-192 -317 0
-104 -317 0
-162 -176 0
-44 -110 0
-278 -330 0
-192 -244 0
-160 -246 0
-158 -292 0
-44 -309 0
-246 -253 0
-268 -313 0
-30 -307 0
-178 -212 0
-33 -310 0
-143 -303 0
-26 -182 0
-72 -172 0
-53 -150 0
-157 -201 0
-18 -268 0
-117 -204 0
-138 -245 0
-123 -311 0
-174 -204 0
-152 -219 0
-89 -174 0
-313 -330 0
-196 -229 0
-212 -242 0
-211 -226 0
-34 -307 0
-10 -132 0
-178 -282 0
-61 -110 0
-300 -307 0
-85 -152 0
-95 -256 0
-49 -239 0
-99 -293 0
-155 -257 0
-85 -218 0
-17 -101 0
-143 -196 0
-85 -166 0
-264 -335 0
-16 -222 0
-35 -187 0
-94 -253 0
-131 -327 0
-123 -260 0
-14 -333 0
-53 -80 0
-103 -174 0
-66 -171 0
-88 -325 0
-107 -312 0
-143 -330 0
-89 -145 0
-75 -181 0
-105 -156 0
-123 -317 0
-116 -204 0
-137 -325 0
-125 -224 0
-70 -77 0
-159 -172 0
-322 -334 0
-193 -256 0
-5 -292 0
-53 -207 0
-8 -42 0
-102 -191 0
-229 -300 0
-11 -184 0
-252 -274 0
-126 -286 0
-88 -175 0
-158 -332 0
-193 -237 0
-90 -206 0
-280 -294 0
-206 -289 0
-227 -279 0
-124 -189 0
-152 -236 0
-9 -332 0
-35 -304 0
-59 -184 0
-173 -188 0
-171 -295 0
-72 -114 0
-35 -242 0
-82 -114 0
-33 -147 0
-138 -189 0
-104 -193 0
-48 -181 0
-320 -325 0
-18 -187 0
-46 -78 0
-39 -181 0
-130 -165 0
-139 -294 0
-82 -243 0
-36 -241 0
-143 -206 0
-17 -39 0
-14 -297 0
-45 -236 0
-72 -274 0
-193 -210 0
-65 -116 0
-216 -337 0
-102 -145 0
-69 -320 0
-18 -168 0
-251 -292 0
-150 -275 0
-142 -330 0
-40 -181 0
-210 -325 0
-114 -325 0
-36 -118 0
-13 -62 0
-306 -332 0
-122 -328 0
-270 -341 0
-23 -271 0
-30 -154 0
-266 -280 0
-158 -273 0
-125 -327 0
-180 -259 0
-174 -279 0
-60 -146 0
-180 -331 0
-193 -298 0
-105 -338 0
-278 -294 0
-16 -123 0
-175 -312 0
-79 -237 0
-198 -229 0
-99 -253 0
-173 -326 0
-186 -274 0
-168 -309 0
-52 -153 0
-30 -325 0
-48 -335 0
-240 -307 0
-290 -325 0
-115 -182 0
-32 -330 0
-173 -292 0
-173 -189 0
-195 -235 0
-39 -128 0
-198 -315 0
-282 -315 0
-213 -291 0
-160 -164 0
-285 -337 0
-44 -330 0
-54 -212 0
-190 -199 0
-119 -315 0
-14 -40 0
-228 -315 0
-46 -238 0
-7 -329 0
-190 -207 0
-52 -83 0
-45 -94 0
-213 -279 0
-148 -217 0
-71 -171 0
-46 -223 0
-211 -291 0
-143 -165 0
-210 -280 0
-90 -130 0
-141 -210 0
-102 -163 0
-306 -335 0
-54 -153 0
-9 -307 0
-156 -168 0
-70 -254 0
-49 -316 0
-123 -193 0
-98 -277 0
-100 -293 0
-125 -295 0
-66 -202 0
-268 -278 0
-179 -238 0
-17 -246 0
-59 -291 0
-178 -307 0
-166 -255 0
-105 -147 0
-240 -326 0
-251 -339 0
-18 -107 0
-21 -290 0
-243 -325 0
-215 -327 0
-30 -221 0
-177 -220 0
-177 -276 0
-105 -166 0
-106 -255 0
-96 -218 0
-95 -325 0
-125 -316 0
-15 -209 0
-125 -147 0
-54 -289 0
-23 -130 0
-12 -190 0
-177 -310 0
-100 -330 0
-49 -326 0
-84 -329 0
-180 -295 0
-208 -313 0
-160 -210 0
-124 -156 0
-194 -226 0
-105 -229 0
-120 -185 0
-232 -290 0
-126 -139 0
-30 -203 0
-12 -296 0
-63 -218 0
-18 -88 0
-12 -294 0
-190 -201 0
-171 -289 0
-187 -294 0
-142 -219 0
-84 -172 0
-47 -99 0
-136 -207 0
-122 -171 0
-29 -262 0
-120 -256 0
-59 -220 0
-115 -276 0
-269 -282 0
-288 -289 0
-69 -336 0
-174 -327 0
-31 -135 0
-115 -202 0
-160 -220 0
-268 -284 0
-14 -218 0
-132 -199 0
-193 -331 0
-215 -283 0
-227 -294 0
-87 -127 0
-141 -265 0
-116 -199 0
-140 -334 0
-72 -137 0
-320 -333 0
-241 -275 0
-71 -301 0
-135 -223 0
-140 -246 0
-125 -256 0
-24 -290 0
-151 -165 0
-66 -181 0
-34 -45 0
-160 -300 0
-26 -253 0
-176 -239 0
-232 -298 0
-66 -168 0
-57 -254 0
-86 -169 0
-52 -255 0
-88 -157 0
-51 -261 0
-66 -241 0
-172 -237 0
-16 -279 0
-137 -153 0
-192 -330 0
-143 -312 0
-69 -86 0
-227 -274 0
-108 -274 0
-247 -318 0
-124 -220 0
-36 -68 0
-94 -200 0
-141 -291 0
-94 -147 0
-318 -325 0
-174 -262 0
-172 -294 0
-106 -122 0
-65 -82 0
-153 -308 0
-87 -206 0
-54 -202 0
-105 -291 0
-18 -261 0
-228 -330 0
-88 -246 0
-11 -130 0
-232 -241 0
-35 -159 0
-18 -301 0
-99 -276 0
-83 -331 0
-30 -91 0
-175 -208 0
-66 -218 0
-31 -315 0
-138 -237 0
-223 -293 0
-50 -222 0
-16 -145 0
-118 -164 0
-80 -184 0
-101 -262 0
-100 -237 0
-90 -178 0
-33 -153 0
-160 -320 0
-87 -148 0
-13 -278 0
-33 -110 0
-197 -221 0
-49 -238 0
-210 -308 0
-118 -181 0
-9 -295 0
-30 -201 0
-12 -96 0
-34 -246 0
-64 -200 0
-72 -295 0
-72 -226 0
-245 -308 0
-132 -218 0
-13 -155 0
-175 -317 0
-92 -163 0
-63 -290 0
-27 -132 0
-142 -209 0
-142 -206 0
-30 -98 0
-296 -313 0
-26 -309 0
-197 -264 0
-190 -239 0
-194 -262 0
-161 -246 0
-97 -326 0
-54 -137 0
-26 -148 0
-176 -336 0
-53 -330 0
-121 -255 0
-24 -164 0
-65 -145 0
-124 -231 0
-153 -328 0
-196 -292 0
-87 -237 0
-32 -263 0
-100 -171 0
-67 -295 0
-63 -199 0
-162 -232 0
-83 -207 0
-34 -317 0
-66 -209 0
-68 -157 0
-40 -219 0
-153 -326 0
-65 -244 0
-197 -203 0
-120 -314 0
-225 -311 0
-135 -310 0
-46 -219 0
-88 -176 0
