p cnf 1000 13501
-1 -298 0
-1 -164 0
-1 -324 0
-1 -240 0
-1 -172 0
-1 -281 0
-1 -35 0
-2 -48 0
-2 -138 0
-2 -335 0
-2 -36 0
-2 -426 0
-2 -6 0
-2 -493 0
-3 -428 0
-3 -239 0
-3 -62 0
-3 -66 0
-3 -67 0
-3 -475 0
-3 -278 0
-3 -214 0
-3 -5 0
-3 -1 0
-3 -197 0
-4 -37 0
-4 -69 0
-4 -27 0
-4 -3 0
-4 -458 0
-4 -216 0
-4 -376 0
-4 -489 0
-4 -1 0
-4 -297 0
-5 -112 0
-5 -108 0
-5 -388 0
-5 -295 0
-5 -453 0
-5 -40 0
-5 -382 0
-5 -206 0
-5 -459 0
-5 -288 0
-6 -185 0
-6 -401 0
-6 -397 0
-6 -306 0
-6 -200 0
-6 -285 0
-6 -490 0
-6 -3 0
-6 -38 0
-7 -341 0
-7 -131 0
-7 -448 0
-7 -178 0
-7 -10 0
-7 -235 0
-7 -308 0
-7 -380 0
-7 -397 0
-8 -438 0
-8 -143 0
-8 -375 0
-8 -144 0
-8 -141 0
-8 -87 0
-8 -3 0
-8 -255 0
-8 -28 0
-8 -442 0
-8 -286 0
-8 -394 0
-8 -196 0
-9 -331 0
-9 -376 0
-9 -481 0
-9 -467 0
-10 -119 0
-10 -274 0
-10 -132 0
-10 -449 0
-11 -399 0
-11 -180 0
-11 -246 0
-11 -85 0
-11 -24 0
-11 -159 0
-11 -71 0
-12 -76 0
-12 -375 0
-12 -37 0
-12 -488 0
-12 -413 0
-12 -330 0
-12 -139 0
-13 -292 0
-13 -316 0
-13 -109 0
-13 -492 0
-13 -141 0
-13 -129 0
-13 -413 0
-13 -83 0
-13 -420 0
-14 -270 0
-14 -104 0
-14 -344 0
-14 -85 0
-14 -7 0
-14 -25 0
-14 -360 0
-14 -289 0
-15 -479 0
-15 -475 0
-15 -297 0
-15 -176 0
-15 -230 0
-15 -87 0
-15 -46 0
-15 -188 0
-15 -172 0
-15 -307 0
-16 -332 0
-16 -35 0
-16 -365 0
-16 -454 0
-16 -181 0
-16 -408 0
-17 -223 0
-17 -120 0
-17 -480 0
-17 -15 0
-18 -259 0
-18 -493 0
-18 -68 0
-18 -55 0
-18 -80 0
-18 -232 0
-18 -484 0
-19 -373 0
-19 -325 0
-19 -320 0
-19 -100 0
-19 -234 0
-19 -36 0
-19 -464 0
-19 -371 0
-20 -382 0
-20 -24 0
-20 -162 0
-20 -27 0
-21 -167 0
-21 -260 0
-21 -379 0
-21 -76 0
-22 -246 0
-22 -31 0
-22 -483 0
-22 -58 0
-22 -157 0
-22 -10 0
-22 -466 0
-22 -411 0
-23 -212 0
-23 -453 0
-23 -252 0
-23 -33 0
-23 -1 0
-23 -86 0
-23 -469 0
-23 -452 0
-23 -25 0
-23 -396 0
-24 -345 0
-24 -146 0
-24 -121 0
-24 -234 0
-24 -204 0
-24 -458 0
-25 -428 0
-25 -146 0
-25 -199 0
-25 -471 0
-26 -273 0
-26 -251 0
-26 -101 0
-26 -294 0
-26 -211 0
-26 -69 0
-26 -36 0
-26 -19 0
-26 -195 0
-26 -407 0
-27 -249 0
-27 -357 0
-27 -497 0
-27 -228 0
-27 -439 0
-28 -331 0
-28 -496 0
-28 -91 0
-28 -458 0
-28 -424 0
-28 -402 0
-28 -101 0
-28 -228 0
-29 -258 0
-29 -357 0
-29 -309 0
-29 -437 0
-29 -434 0
-29 -144 0
-29 -19 0
-29 -54 0
-30 -369 0
-30 -236 0
-30 -153 0
-30 -21 0
-30 -444 0
-30 -381 0
-30 -354 0
-31 -164 0
-31 -91 0
-31 -32 0
-31 -4 0
-31 -335 0
-31 -372 0
-31 -109 0
-32 -117 0
-32 -169 0
-32 -401 0
-32 -34 0
-32 -19 0
-32 -456 0
-32 -200 0
-33 -182 0
-33 -141 0
-33 -138 0
-33 -114 0
-33 -327 0
-33 -58 0
-33 -30 0
-33 -352 0
-33 -188 0
-33 -430 0
-34 -17 0
-34 -472 0
-34 -154 0
-34 -11 0
-34 -397 0
-34 -265 0
-34 -28 0
-34 -21 0
-34 -487 0
-34 -289 0
-34 -358 0
-35 -262 0
-35 -244 0
-35 -465 0
-35 -121 0
-35 -178 0
-35 -86 0
-35 -36 0
-35 -245 0
-36 -193 0
-36 -167 0
-36 -37 0
-36 -300 0
-36 -401 0
-36 -360 0
-36 -16 0
-36 -40 0
-36 -131 0
-37 -245 0
-37 -208 0
-37 -237 0
-37 -39 0
-37 -275 0
-37 -30 0
-37 -192 0
-37 -168 0
-37 -118 0
-37 -492 0
-37 -173 0
-37 -369 0
-38 -279 0
-38 -104 0
-38 -208 0
-38 -196 0
-38 -356 0
-38 -496 0
-38 -440 0
-38 -400 0
-38 -342 0
-39 -168 0
-39 -44 0
-39 -69 0
-39 -132 0
-39 -3 0
-39 -12 0
-39 -7 0
-39 -21 0
-40 -232 0
-40 -55 0
-40 -122 0
-40 -139 0
-40 -300 0
-41 -403 0
-41 -298 0
-41 -283 0
-41 -184 0
-41 -216 0
-41 -315 0
-41 -23 0
-42 -448 0
-42 -370 0
-42 -364 0
-42 -141 0
-42 -142 0
-42 -363 0
-42 -391 0
-43 -423 0
-43 -412 0
-43 -158 0
-43 -126 0
-43 -494 0
-43 -441 0
-43 -342 0
-43 -243 0
-44 -358 0
-44 -206 0
-44 -95 0
-44 -13 0
-44 -147 0
-44 -151 0
-44 -41 0
-44 -393 0
-44 -343 0
-45 -457 0
-45 -269 0
-45 -254 0
-45 -313 0
-45 -236 0
-45 -374 0
-45 -47 0
-45 -10 0
-46 -427 0
-46 -166 0
-46 -200 0
-46 -4 0
-46 -180 0
-46 -52 0
-46 -489 0
-47 -351 0
-47 -323 0
-47 -252 0
-47 -89 0
-47 -51 0
-47 -143 0
-47 -177 0
-47 -240 0
-47 -154 0
-47 -37 0
-47 -145 0
-48 -426 0
-48 -408 0
-48 -301 0
-48 -258 0
-48 -356 0
-48 -110 0
-48 -229 0
-49 -82 0
-49 -450 0
-49 -334 0
-49 -491 0
-49 -239 0
-50 -326 0
-50 -248 0
-50 -42 0
-50 -436 0
-50 -463 0
-51 -323 0
-51 -33 0
-51 -277 0
-51 -124 0
-51 -52 0
-51 -13 0
-51 -69 0
-51 -278 0
-51 -201 0
-52 -350 0
-52 -119 0
-52 -283 0
-52 -186 0
-52 -439 0
-52 -147 0
-52 -196 0
-52 -111 0
-53 -293 0
-53 -307 0
-53 -381 0
-53 -89 0
-53 -101 0
-53 -13 0
-53 -442 0
-53 -122 0
-54 -414 0
-54 -474 0
-54 -190 0
-54 -158 0
-54 -181 0
-54 -42 0
-54 -12 0
-54 -128 0
-54 -403 0
-54 -196 0
-55 -337 0
-55 -208 0
-55 -482 0
-55 -457 0
-55 -494 0
-55 -190 0
-55 -452 0
-55 -106 0
-55 -60 0
-55 -462 0
-55 -301 0
-55 -120 0
-56 -170 0
-56 -267 0
-56 -387 0
-56 -404 0
-56 -446 0
-56 -133 0
-56 -24 0
-56 -53 0
-56 -34 0
-56 -3 0
-57 -336 0
-57 -296 0
-57 -301 0
-57 -249 0
-57 -265 0
-57 -434 0
-57 -280 0
-57 -225 0
-57 -62 0
-57 -17 0
-57 -372 0
-57 -2 0
-57 -480 0
-58 -272 0
-58 -166 0
-58 -179 0
-58 -54 0
-58 -326 0
-58 -46 0
-58 -15 0
-58 -90 0
-59 -92 0
-59 -38 0
-60 -127 0
-60 -390 0
-60 -435 0
-60 -49 0
-60 -236 0
-60 -58 0
-60 -467 0
-61 -401 0
-61 -351 0
-61 -102 0
-61 -169 0
-61 -83 0
-61 -30 0
-61 -168 0
-61 -455 0
-61 -390 0
-62 -479 0
-62 -303 0
-62 -436 0
-62 -314 0
-62 -400 0
-62 -309 0
-62 -469 0
-62 -42 0
-62 -352 0
-62 -91 0
-62 -132 0
-62 -149 0
-62 -17 0
-62 -242 0
-62 -490 0
-63 -229 0
-63 -244 0
-63 -199 0
-63 -129 0
-63 -46 0
-63 -71 0
-63 -317 0
-63 -66 0
-63 -52 0
-63 -183 0
-63 -42 0
-64 -266 0
-64 -224 0
-64 -495 0
-64 -202 0
-64 -317 0
-64 -115 0
-64 -70 0
-64 -465 0
-64 -423 0
-64 -20 0
-65 -485 0
-65 -273 0
-65 -360 0
-65 -299 0
-65 -1 0
-65 -357 0
-65 -192 0
-65 -487 0
-65 -10 0
-66 -339 0
-66 -136 0
-66 -102 0
-66 -91 0
-66 -381 0
-66 -467 0
-66 -446 0
-66 -220 0
-66 -73 0
-67 -358 0
-67 -147 0
-67 -75 0
-67 -24 0
-67 -20 0
-67 -441 0
-68 -459 0
-68 -53 0
-68 -465 0
-68 -189 0
-68 -327 0
-68 -361 0
-68 -24 0
-68 -149 0
-68 -172 0
-68 -51 0
-68 -23 0
-68 -116 0
-68 -42 0
-69 -216 0
-69 -85 0
-69 -90 0
-69 -461 0
-69 -63 0
-69 -373 0
-70 -117 0
-70 -106 0
-70 -174 0
-70 -264 0
-70 -128 0
-70 -475 0
-70 -67 0
-71 -353 0
-71 -309 0
-71 -412 0
-71 -278 0
-71 -214 0
-71 -59 0
-71 -131 0
-71 -157 0
-71 -460 0
-71 -151 0
-71 -149 0
-72 -59 0
-72 -90 0
-72 -35 0
-72 -303 0
-72 -64 0
-72 -75 0
-72 -67 0
-72 -339 0
-72 -410 0
-72 -351 0
-73 -386 0
-73 -400 0
-73 -384 0
-73 -64 0
-74 -391 0
-74 -97 0
-74 -236 0
-74 -244 0
-74 -67 0
-74 -37 0
-74 -58 0
-74 -38 0
-74 -181 0
-74 -489 0
-74 -82 0
-74 -323 0
-75 -115 0
-75 -131 0
-75 -46 0
-75 -413 0
-75 -307 0
-75 -423 0
-76 -144 0
-76 -78 0
-76 -81 0
-76 -99 0
-76 -113 0
-76 -70 0
-77 -320 0
-77 -117 0
-77 -88 0
-77 -160 0
-77 -345 0
-77 -145 0
-78 -297 0
-78 -375 0
-78 -110 0
-78 -89 0
-78 -20 0
-78 -102 0
-78 -482 0
-78 -301 0
-78 -31 0
-79 -338 0
-79 -129 0
-79 -67 0
-79 -39 0
-79 -221 0
-79 -291 0
-79 -318 0
-80 -398 0
-80 -78 0
-80 -96 0
-80 -285 0
-80 -25 0
-80 -389 0
-81 -391 0
-81 -112 0
-81 -188 0
-81 -40 0
-81 -288 0
-81 -426 0
-81 -50 0
-81 -208 0
-82 -266 0
-82 -365 0
-82 -453 0
-82 -459 0
-82 -182 0
-82 -426 0
-82 -160 0
-82 -466 0
-83 -59 0
-83 -32 0
-83 -488 0
-83 -442 0
-84 -353 0
-84 -49 0
-84 -69 0
-84 -233 0
-84 -304 0
-84 -381 0
-84 -90 0
-84 -351 0
-84 -296 0
-84 -386 0
-85 -265 0
-85 -334 0
-85 -386 0
-85 -490 0
-85 -486 0
-85 -190 0
-85 -380 0
-85 -41 0
-85 -80 0
-86 -341 0
-86 -383 0
-86 -120 0
-86 -320 0
-86 -308 0
-86 -314 0
-86 -107 0
-87 -366 0
-87 -224 0
-87 -80 0
-87 -294 0
-87 -82 0
-87 -153 0
-87 -476 0
-87 -460 0
-87 -227 0
-88 -387 0
-88 -153 0
-88 -14 0
-88 -185 0
-88 -234 0
-88 -480 0
-88 -126 0
-89 -305 0
-89 -229 0
-89 -434 0
-89 -324 0
-89 -154 0
-89 -484 0
-89 -161 0
-89 -480 0
-89 -446 0
-89 -227 0
-90 -306 0
-90 -351 0
-90 -117 0
-90 -317 0
-90 -74 0
-90 -36 0
-90 -225 0
-90 -414 0
-90 -402 0
-90 -46 0
-90 -290 0
-91 -445 0
-91 -489 0
-91 -86 0
-91 -466 0
-91 -410 0
-91 -420 0
-91 -197 0
-91 -100 0
-92 -392 0
-92 -368 0
-92 -68 0
-92 -464 0
-92 -432 0
-92 -89 0
-93 -155 0
-93 -351 0
-93 -25 0
-93 -423 0
-93 -261 0
-93 -291 0
-93 -258 0
-93 -259 0
-94 -471 0
-94 -124 0
-94 -375 0
-94 -116 0
-94 -103 0
-94 -27 0
-94 -204 0
-94 -49 0
-94 -180 0
-94 -339 0
-95 -431 0
-95 -316 0
-95 -418 0
-95 -129 0
-95 -36 0
-95 -67 0
-95 -199 0
-96 -205 0
-96 -173 0
-96 -160 0
-96 -284 0
-96 -372 0
-96 -404 0
-96 -186 0
-97 -487 0
-97 -57 0
-97 -190 0
-97 -140 0
-97 -113 0
-97 -202 0
-97 -209 0
-97 -61 0
-97 -233 0
-97 -16 0
-98 -336 0
-98 -299 0
-98 -255 0
-98 -368 0
-98 -113 0
-98 -73 0
-98 -272 0
-98 -33 0
-98 -305 0
-99 -5 0
-99 -4 0
-99 -432 0
-99 -306 0
-99 -396 0
-99 -48 0
-99 -437 0
-99 -413 0
-100 -166 0
-101 -422 0
-101 -385 0
-101 -191 0
-101 -127 0
-101 -136 0
-101 -141 0
-101 -216 0
-101 -369 0
-101 -417 0
-101 -239 0
-102 -347 0
-102 -167 0
-102 -123 0
-102 -116 0
-102 -18 0
-102 -121 0
-102 -460 0
-102 -294 0
-102 -260 0
-102 -379 0
-102 -11 0
-103 -243 0
-103 -277 0
-103 -57 0
-103 -132 0
-103 -500 0
-103 -169 0
-103 -478 0
-103 -473 0
-103 -91 0
-103 -423 0
-103 -228 0
-103 -422 0
-104 -363 0
-104 -479 0
-105 -424 0
-105 -189 0
-105 -8 0
-105 -380 0
-105 -170 0
-105 -92 0
-105 -281 0
-105 -126 0
-105 -318 0
-105 -134 0
-106 -319 0
-106 -373 0
-106 -108 0
-106 -134 0
-106 -121 0
-106 -75 0
-106 -179 0
-106 -275 0
-107 -45 0
-107 -203 0
-107 -236 0
-107 -118 0
-107 -103 0
-107 -116 0
-107 -73 0
-107 -468 0
-107 -355 0
-107 -433 0
-108 -245 0
-108 -229 0
-108 -467 0
-108 -261 0
-108 -493 0
-108 -120 0
-108 -388 0
-108 -127 0
-108 -20 0
-108 -489 0
-109 -460 0
-109 -270 0
-109 -133 0
-109 -240 0
-109 -321 0
-109 -478 0
-109 -154 0
-109 -5 0
-109 -14 0
-109 -142 0
-109 -35 0
-109 -34 0
-109 -159 0
-110 -249 0
-110 -389 0
-110 -318 0
-110 -263 0
-110 -260 0
-110 -465 0
-110 -497 0
-111 -463 0
-111 -393 0
-111 -473 0
-111 -335 0
-111 -226 0
-111 -305 0
-111 -258 0
-112 -32 0
-112 -465 0
-112 -394 0
-112 -431 0
-112 -223 0
-112 -100 0
-112 -366 0
-112 -387 0
-112 -468 0
-113 -493 0
-113 -239 0
-113 -140 0
-113 -94 0
-113 -499 0
-113 -496 0
-113 -180 0
-113 -58 0
-113 -32 0
-114 -207 0
-114 -476 0
-114 -72 0
-114 -348 0
-115 -403 0
-115 -247 0
-115 -279 0
-115 -322 0
-115 -11 0
-115 -307 0
-115 -303 0
-116 -355 0
-116 -183 0
-116 -233 0
-116 -492 0
-116 -270 0
-116 -188 0
-116 -131 0
-116 -383 0
-116 -30 0
-116 -38 0
-116 -134 0
-116 -31 0
-116 -86 0
-117 -189 0
-117 -51 0
-117 -371 0
-117 -465 0
-117 -231 0
-117 -303 0
-117 -87 0
-117 -480 0
-117 -213 0
-117 -423 0
-117 -458 0
-117 -481 0
-118 -225 0
-118 -204 0
-118 -361 0
-118 -142 0
-118 -122 0
-118 -42 0
-118 -241 0
-119 -484 0
-119 -490 0
-119 -409 0
-119 -220 0
-119 -424 0
-119 -164 0
-119 -393 0
-119 -221 0
-120 -268 0
-120 -266 0
-120 -153 0
-121 -311 0
-121 -129 0
-121 -330 0
-121 -122 0
-121 -320 0
-121 -10 0
-122 -403 0
-122 -181 0
-122 -30 0
-122 -41 0
-122 -37 0
-122 -463 0
-122 -490 0
-122 -305 0
-122 -36 0
-122 -196 0
-123 -36 0
-123 -33 0
-123 -356 0
-123 -100 0
-123 -176 0
-123 -194 0
-124 -419 0
-124 -402 0
-124 -363 0
-124 -225 0
-124 -204 0
-124 -137 0
-124 -140 0
-124 -166 0
-124 -44 0
-124 -59 0
-124 -109 0
-125 -403 0
-125 -344 0
-125 -443 0
-125 -25 0
-125 -153 0
-125 -141 0
-125 -88 0
-125 -166 0
-125 -293 0
-126 -365 0
-126 -276 0
-126 -72 0
-126 -222 0
-126 -36 0
-126 -367 0
-126 -188 0
-126 -179 0
-126 -6 0
-127 -2 0
-127 -465 0
-127 -376 0
-127 -182 0
-127 -19 0
-127 -264 0
-127 -375 0
-127 -259 0
-127 -30 0
-127 -233 0
-127 -79 0
-128 -434 0
-128 -96 0
-128 -161 0
-128 -496 0
-128 -8 0
-128 -168 0
-128 -40 0
-129 -282 0
-129 -279 0
-129 -22 0
-129 -3 0
-129 -192 0
-129 -354 0
-129 -227 0
-129 -299 0
-129 -375 0
-130 -186 0
-130 -145 0
-130 -492 0
-130 -52 0
-130 -138 0
-130 -407 0
-130 -17 0
-130 -499 0
-130 -356 0
-130 -388 0
-130 -4 0
-131 -172 0
-131 -46 0
-131 -173 0
-131 -477 0
-131 -337 0
-131 -297 0
-131 -323 0
-131 -412 0
-131 -302 0
-131 -264 0
-131 -340 0
-132 -258 0
-132 -120 0
-132 -159 0
-132 -7 0
-132 -307 0
-132 -290 0
-132 -488 0
-132 -64 0
-132 -473 0
-133 -137 0
-133 -68 0
-133 -47 0
-133 -316 0
-133 -96 0
-133 -9 0
-133 -34 0
-133 -491 0
-133 -418 0
-134 -416 0
-134 -291 0
-134 -478 0
-134 -179 0
-134 -272 0
-134 -378 0
-134 -230 0
-135 -292 0
-135 -51 0
-135 -119 0
-135 -448 0
-135 -34 0
-135 -7 0
-135 -41 0
-136 -351 0
-136 -339 0
-136 -316 0
-136 -243 0
-136 -103 0
-136 -498 0
-136 -148 0
-137 -359 0
-137 -295 0
-137 -443 0
-137 -81 0
-137 -11 0
-137 -59 0
-137 -118 0
-138 -233 0
-138 -161 0
-138 -213 0
-138 -168 0
-138 -111 0
-138 -329 0
-139 -109 0
-139 -429 0
-139 -205 0
-139 -6 0
-140 -474 0
-140 -199 0
-140 -72 0
-140 -14 0
-140 -174 0
-140 -484 0
-141 -296 0
-141 -216 0
-141 -292 0
-141 -166 0
-141 -456 0
-141 -88 0
-141 -467 0
-141 -35 0
-142 -266 0
-142 -65 0
-142 -138 0
-142 -77 0
-142 -44 0
-143 -468 0
-143 -323 0
-143 -406 0
-143 -265 0
-143 -259 0
-143 -363 0
-143 -135 0
-143 -376 0
-144 -444 0
-144 -210 0
-144 -190 0
-144 -177 0
-144 -95 0
-144 -84 0
-144 -135 0
-144 -162 0
-145 -365 0
-145 -320 0
-145 -227 0
-145 -51 0
-145 -156 0
-145 -219 0
-145 -204 0
-145 -426 0
-145 -311 0
-146 -245 0
-146 -246 0
-146 -223 0
-146 -184 0
-146 -134 0
-146 -328 0
-146 -28 0
-146 -120 0
-147 -194 0
-147 -121 0
-147 -118 0
-147 -81 0
-147 -292 0
-147 -114 0
-147 -426 0
-148 -365 0
-148 -348 0
-148 -485 0
-148 -289 0
-148 -306 0
-148 -145 0
-148 -139 0
-148 -297 0
-148 -59 0
-148 -436 0
-148 -33 0
-149 -100 0
-149 -171 0
-149 -4 0
-149 -306 0
-149 -128 0
-149 -92 0
-149 -84 0
-149 -148 0
-149 -122 0
-150 -113 0
-150 -235 0
-150 -130 0
-150 -153 0
-150 -147 0
-150 -382 0
-150 -294 0
-150 -345 0
-150 -29 0
-151 -353 0
-151 -145 0
-151 -334 0
-151 -237 0
-151 -359 0
-151 -261 0
-152 -405 0
-152 -217 0
-152 -443 0
-152 -7 0
-153 -351 0
-153 -58 0
-153 -304 0
-153 -184 0
-153 -258 0
-154 -297 0
-154 -177 0
-154 -84 0
-154 -481 0
-154 -286 0
-154 -436 0
-154 -23 0
-154 -50 0
-154 -442 0
-155 -419 0
-155 -468 0
-155 -152 0
-155 -110 0
-155 -181 0
-155 -484 0
-155 -5 0
-155 -443 0
-156 -270 0
-156 -485 0
-156 -29 0
-156 -135 0
-156 -240 0
-156 -407 0
-156 -67 0
-156 -143 0
-157 -175 0
-157 -187 0
-157 -68 0
-157 -173 0
-157 -253 0
-157 -446 0
-157 -1 0
-157 -61 0
-158 -323 0
-158 -253 0
-158 -292 0
-158 -211 0
-158 -224 0
-158 -218 0
-158 -16 0
-158 -20 0
-158 -184 0
-159 -279 0
-159 -58 0
-159 -158 0
-159 -135 0
-159 -150 0
-159 -19 0
-160 -159 0
-160 -89 0
-160 -118 0
-160 -21 0
-160 -393 0
-160 -472 0
-160 -39 0
-161 -42 0
-161 -195 0
-161 -117 0
-161 -438 0
-161 -156 0
-161 -359 0
-162 -108 0
-162 -375 0
-162 -304 0
-162 -302 0
-162 -89 0
-162 -187 0
-162 -239 0
-162 -468 0
-162 -163 0
-162 -415 0
-162 -28 0
-162 -346 0
-162 -15 0
-162 -160 0
-163 -406 0
-163 -336 0
-163 -210 0
-163 -251 0
-163 -213 0
-163 -442 0
-163 -332 0
-163 -431 0
-163 -186 0
-163 -234 0
-163 -38 0
-163 -167 0
-164 -355 0
-164 -116 0
-164 -318 0
-164 -196 0
-164 -295 0
-164 -72 0
-164 -298 0
-165 -36 0
-165 -178 0
-165 -192 0
-165 -56 0
-165 -128 0
-165 -354 0
-165 -145 0
-165 -86 0
-165 -84 0
-165 -477 0
-165 -268 0
-166 -381 0
-166 -276 0
-166 -189 0
-166 -306 0
-166 -248 0
-166 -480 0
-167 -457 0
-167 -437 0
-167 -241 0
-167 -136 0
-167 -274 0
-167 -255 0
-167 -134 0
-168 -296 0
-168 -400 0
-168 -191 0
-168 -161 0
-168 -141 0
-168 -470 0
-168 -19 0
-168 -482 0
-168 -364 0
-168 -340 0
-169 -250 0
-169 -139 0
-169 -351 0
-169 -17 0
-169 -165 0
-169 -174 0
-169 -380 0
-170 -265 0
-170 -283 0
-170 -72 0
-170 -20 0
-170 -19 0
-171 -461 0
-171 -448 0
-171 -389 0
-171 -226 0
-171 -260 0
-171 -130 0
-171 -168 0
-171 -479 0
-171 -193 0
-171 -225 0
-171 -251 0
-171 -63 0
-171 -151 0
-172 -441 0
-172 -109 0
-172 -202 0
-172 -492 0
-172 -405 0
-172 -139 0
-172 -364 0
-173 -292 0
-173 -208 0
-173 -268 0
-173 -376 0
-173 -162 0
-173 -192 0
-173 -119 0
-173 -170 0
-174 -146 0
-174 -422 0
-174 -192 0
-174 -59 0
-174 -79 0
-174 -188 0
-174 -444 0
-174 -100 0
-174 -291 0
-174 -436 0
-175 -409 0
-175 -378 0
-175 -264 0
-175 -79 0
-175 -406 0
-175 -179 0
-175 -182 0
-176 -193 0
-176 -283 0
-176 -108 0
-176 -152 0
-176 -382 0
-176 -228 0
-176 -88 0
-176 -424 0
-177 -253 0
-177 -479 0
-177 -392 0
-177 -431 0
-177 -108 0
-177 -115 0
-177 -69 0
-177 -15 0
-177 -74 0
-177 -9 0
-178 -347 0
-178 -434 0
-178 -234 0
-178 -304 0
-178 -404 0
-178 -319 0
-178 -470 0
-178 -3 0
-178 -274 0
-179 -449 0
-179 -436 0
-179 -176 0
-179 -494 0
-179 -159 0
-179 -145 0
-179 -399 0
-180 -212 0
-180 -392 0
-180 -134 0
-180 -239 0
-180 -307 0
-180 -490 0
-180 -17 0
-180 -151 0
-180 -9 0
-181 -97 0
-181 -275 0
-181 -172 0
-181 -256 0
-181 -228 0
-181 -413 0
-181 -382 0
-181 -187 0
-182 -408 0
-182 -403 0
-182 -324 0
-182 -293 0
-182 -249 0
-182 -114 0
-182 -135 0
-182 -162 0
-182 -26 0
-183 -303 0
-183 -291 0
-183 -367 0
-183 -17 0
-183 -169 0
-183 -41 0
-183 -58 0
-183 -107 0
-184 -282 0
-184 -428 0
-184 -110 0
-184 -175 0
-184 -277 0
-184 -287 0
-184 -281 0
-184 -135 0
-184 -157 0
-184 -286 0
-185 -336 0
-185 -310 0
-185 -374 0
-185 -473 0
-185 -74 0
-185 -85 0
-185 -117 0
-186 -402 0
-186 -51 0
-186 -112 0
-186 -235 0
-186 -238 0
-186 -325 0
-186 -59 0
-187 -325 0
-187 -150 0
-187 -284 0
-187 -199 0
-187 -88 0
-187 -298 0
-188 -119 0
-188 -22 0
-188 -307 0
-188 -469 0
-188 -348 0
-188 -199 0
-189 -337 0
-189 -233 0
-189 -220 0
-189 -359 0
-189 -54 0
-189 -202 0
-189 -164 0
-190 -246 0
-190 -180 0
-190 -140 0
-190 -66 0
-190 -104 0
-190 -275 0
-190 -489 0
-191 -113 0
-191 -181 0
-191 -56 0
-191 -148 0
-191 -72 0
-192 -277 0
-192 -290 0
-192 -309 0
-192 -320 0
-192 -61 0
-192 -242 0
-192 -169 0
-192 -470 0
-192 -257 0
-192 -424 0
-193 -390 0
-193 -410 0
-193 -165 0
-193 -116 0
-193 -293 0
-193 -119 0
-193 -271 0
-193 -463 0
-193 -431 0
-194 -359 0
-194 -197 0
-194 -247 0
-194 -453 0
-194 -266 0
-194 -499 0
-194 -3 0
-194 -221 0
-195 -298 0
-195 -156 0
-195 -158 0
-195 -411 0
-195 -1 0
-195 -311 0
-195 -2 0
-196 -356 0
-196 -224 0
-196 -311 0
-196 -496 0
-196 -285 0
-196 -260 0
-196 -212 0
-196 -351 0
-196 -286 0
-197 -345 0
-197 -105 0
-197 -387 0
-197 -247 0
-197 -341 0
-197 -378 0
-197 -27 0
-197 -271 0
-197 -456 0
-198 -377 0
-198 -176 0
-198 -331 0
-198 -249 0
-198 -9 0
-198 -55 0
-198 -157 0
-198 -146 0
-198 -60 0
-199 -406 0
-199 -320 0
-199 -270 0
-199 -109 0
-199 -164 0
-199 -321 0
-199 -165 0
-199 -100 0
-200 -304 0
-200 -92 0
-200 -417 0
-200 -490 0
-200 -363 0
-201 -441 0
-201 -338 0
-201 -263 0
-201 -111 0
-201 -30 0
-201 -417 0
-202 -187 0
-202 -63 0
-202 -177 0
-202 -435 0
-202 -227 0
-202 -381 0
-203 -272 0
-203 -335 0
-203 -105 0
-203 -427 0
-203 -126 0
-203 -16 0
-203 -254 0
-203 -227 0
-203 -355 0
-203 -409 0
-204 -411 0
-204 -445 0
-204 -143 0
-204 -215 0
-204 -18 0
-205 -171 0
-205 -172 0
-205 -209 0
-205 -113 0
-205 -9 0
-205 -72 0
-205 -462 0
-205 -480 0
-205 -448 0
-206 -293 0
-206 -94 0
-206 -300 0
-206 -336 0
-206 -201 0
-206 -498 0
-206 -130 0
-206 -489 0
-206 -481 0
-206 -155 0
-206 -398 0
-206 -490 0
-206 -353 0
-206 -476 0
-206 -497 0
-207 -56 0
-207 -303 0
-207 -431 0
-207 -108 0
-207 -9 0
-207 -273 0
-207 -440 0
-207 -104 0
-207 -242 0
-207 -110 0
-208 -413 0
-208 -319 0
-208 -101 0
-208 -176 0
-208 -122 0
-208 -35 0
-208 -321 0
-208 -103 0
-209 -327 0
-209 -397 0
-209 -158 0
-209 -54 0
-209 -125 0
-209 -195 0
-209 -239 0
-210 -193 0
-210 -304 0
-210 -471 0
-210 -240 0
-210 -49 0
-210 -67 0
-210 -370 0
-210 -256 0
-210 -489 0
-210 -432 0
-210 -310 0
-210 -158 0
-211 -40 0
-211 -419 0
-211 -484 0
-211 -329 0
-211 -237 0
-211 -166 0
-211 -486 0
-211 -417 0
-212 -216 0
-212 -189 0
-212 -222 0
-212 -489 0
-212 -318 0
-213 -432 0
-213 -435 0
-213 -224 0
-213 -178 0
-213 -82 0
-213 -29 0
-214 -395 0
-214 -314 0
-214 -100 0
-214 -311 0
-214 -324 0
-214 -161 0
-214 -399 0
-214 -418 0
-214 -262 0
-214 -142 0
-215 -309 0
-215 -231 0
-215 -179 0
-215 -228 0
-215 -112 0
-215 -201 0
-215 -68 0
-215 -206 0
-215 -23 0
-215 -203 0
-215 -441 0
-215 -416 0
-215 -41 0
-216 -462 0
-216 -111 0
-216 -282 0
-216 -471 0
-216 -233 0
-216 -234 0
-216 -206 0
-216 -187 0
-216 -253 0
-216 -493 0
-216 -255 0
-217 -372 0
-217 -343 0
-217 -404 0
-217 -221 0
-217 -137 0
-217 -175 0
-217 -12 0
-217 -293 0
-217 -465 0
-218 -291 0
-218 -301 0
-218 -222 0
-218 -319 0
-218 -157 0
-218 -226 0
-218 -164 0
-218 -194 0
-218 -388 0
-218 -405 0
-218 -451 0
-218 -406 0
-219 -228 0
-219 -154 0
-219 -287 0
-219 -452 0
-219 -127 0
-220 -341 0
-220 -104 0
-220 -325 0
-220 -15 0
-220 -201 0
-220 -105 0
-220 -207 0
-220 -96 0
-220 -338 0
-220 -237 0
-220 -447 0
-221 -381 0
-221 -476 0
-221 -355 0
-221 -391 0
-221 -215 0
-221 -330 0
-221 -115 0
-221 -306 0
-221 -322 0
-222 -331 0
-222 -379 0
-222 -49 0
-222 -317 0
-223 -363 0
-223 -149 0
-223 -327 0
-224 -451 0
-224 -349 0
-224 -97 0
-224 -180 0
-224 -284 0
-224 -163 0
-224 -167 0
-224 -43 0
-224 -73 0
-225 -47 0
-225 -100 0
-225 -494 0
-225 -11 0
-225 -77 0
-225 -61 0
-225 -153 0
-225 -228 0
-225 -223 0
-226 -296 0
-226 -365 0
-226 -278 0
-226 -208 0
-226 -488 0
-226 -125 0
-227 -302 0
-227 -400 0
-227 -46 0
-227 -114 0
-227 -297 0
-227 -465 0
-227 -6 0
-228 -255 0
-228 -317 0
-228 -109 0
-228 -2 0
-228 -318 0
-229 -402 0
-229 -454 0
-229 -313 0
-229 -212 0
-229 -76 0
-229 -247 0
-229 -104 0
-229 -384 0
-229 -362 0
-230 -336 0
-230 -416 0
-230 -69 0
-230 -226 0
-230 -77 0
-230 -33 0
-230 -120 0
-230 -107 0
-231 -110 0
-231 -331 0
-231 -271 0
-231 -93 0
-231 -205 0
-231 -460 0
-232 -185 0
-232 -109 0
-232 -139 0
-232 -77 0
-232 -14 0
-232 -201 0
-232 -230 0
-232 -362 0
-232 -474 0
-232 -467 0
-233 -171 0
-233 -225 0
-233 -238 0
-233 -24 0
-233 -214 0
-233 -236 0
-233 -125 0
-234 -407 0
-234 -244 0
-234 -162 0
-235 -414 0
-235 -469 0
-235 -355 0
-235 -299 0
-235 -202 0
-235 -490 0
-235 -23 0
-235 -441 0
-235 -205 0
-235 -354 0
-235 -372 0
-236 -97 0
-236 -183 0
-236 -382 0
-236 -232 0
-236 -18 0
-236 -103 0
-236 -345 0
-236 -360 0
-236 -343 0
-237 -391 0
-237 -80 0
-237 -121 0
-237 -481 0
-237 -107 0
-237 -188 0
-238 -457 0
-238 -351 0
-238 -430 0
-238 -90 0
-238 -250 0
-238 -227 0
-238 -483 0
-238 -94 0
-238 -88 0
-239 -427 0
-239 -449 0
-239 -231 0
-239 -492 0
-239 -4 0
-239 -2 0
-239 -420 0
-239 -161 0
-239 -77 0
-239 -129 0
-240 -272 0
-240 -120 0
-240 -77 0
-240 -230 0
-240 -319 0
-240 -243 0
-240 -79 0
-240 -39 0
-240 -469 0
-240 -352 0
-240 -417 0
-240 -452 0
-240 -485 0
-241 -37 0
-241 -237 0
-241 -253 0
-241 -251 0
-241 -453 0
-241 -168 0
-241 -18 0
-242 -20 0
-242 -329 0
-242 -294 0
-242 -170 0
-242 -11 0
-242 -327 0
-243 -119 0
-243 -21 0
-243 -299 0
-244 -301 0
-244 -189 0
-244 -146 0
-244 -235 0
-244 -312 0
-244 -188 0
-244 -409 0
-244 -381 0
-244 -213 0
-245 -481 0
-245 -77 0
-245 -207 0
-245 -400 0
-245 -156 0
-245 -500 0
-245 -461 0
-246 -409 0
-246 -203 0
-246 -194 0
-247 -243 0
-247 -167 0
-247 -177 0
-247 -191 0
-247 -212 0
-247 -397 0
-247 -431 0
-248 -241 0
-248 -202 0
-248 -109 0
-248 -369 0
-248 -306 0
-248 -331 0
-248 -91 0
-248 -364 0
-248 -78 0
-248 -18 0
-249 -160 0
-249 -458 0
-249 -446 0
-249 -435 0
-249 -223 0
-249 -496 0
-249 -119 0
-249 -189 0
-249 -101 0
-249 -317 0
-249 -218 0
-250 -442 0
-250 -266 0
-250 -309 0
-250 -422 0
-250 -125 0
-250 -388 0
-250 -141 0
-250 -160 0
-250 -96 0
-250 -499 0
-250 -142 0
-251 -385 0
-251 -354 0
-251 -421 0
-251 -446 0
-251 -233 0
-251 -383 0
-251 -361 0
-251 -325 0
-251 -38 0
-251 -41 0
-251 -42 0
-251 -154 0
-252 -371 0
-252 -238 0
-252 -327 0
-252 -93 0
-252 -200 0
-252 -45 0
-252 -340 0
-252 -78 0
-253 -470 0
-253 -261 0
-253 -116 0
-253 -130 0
-253 -459 0
-254 -286 0
-254 -485 0
-254 -312 0
-254 -48 0
-254 -290 0
-254 -270 0
-254 -219 0
-254 -202 0
-254 -86 0
-254 -481 0
-254 -229 0
-254 -266 0
-254 -145 0
-255 -197 0
-255 -35 0
-255 -277 0
-255 -285 0
-255 -31 0
-255 -356 0
-256 -383 0
-256 -382 0
-256 -17 0
-256 -384 0
-256 -149 0
-256 -205 0
-256 -129 0
-256 -487 0
-256 -14 0
-256 -459 0
-256 -318 0
-256 -331 0
-257 -475 0
-257 -389 0
-257 -254 0
-257 -116 0
-257 -429 0
-257 -121 0
-258 -259 0
-258 -398 0
-258 -94 0
-258 -343 0
-258 -158 0
-258 -371 0
-258 -184 0
-258 -496 0
-258 -421 0
-259 -133 0
-259 -462 0
-259 -199 0
-259 -269 0
-259 -453 0
-259 -234 0
-259 -115 0
-260 -348 0
-260 -287 0
-260 -404 0
-260 -468 0
-260 -398 0
-260 -487 0
-261 -486 0
-261 -354 0
-261 -211 0
-261 -412 0
-261 -374 0
-261 -310 0
-261 -267 0
-261 -6 0
-261 -78 0
-261 -118 0
-262 -117 0
-262 -336 0
-262 -74 0
-262 -332 0
-262 -43 0
-262 -462 0
-263 -421 0
-263 -106 0
-263 -384 0
-263 -60 0
-263 -285 0
-263 -41 0
-263 -416 0
-263 -260 0
-264 -302 0
-264 -257 0
-264 -275 0
-264 -250 0
-264 -344 0
-264 -198 0
-264 -376 0
-264 -165 0
-265 -296 0
-265 -55 0
-265 -223 0
-265 -249 0
-265 -373 0
-265 -104 0
-265 -158 0
-265 -66 0
-265 -75 0
-266 -119 0
-266 -356 0
-266 -40 0
-266 -405 0
-266 -92 0
-266 -148 0
-266 -12 0
-266 -253 0
-267 -249 0
-267 -222 0
-267 -251 0
-267 -399 0
-267 -111 0
-267 -16 0
-267 -75 0
-267 -8 0
-268 -92 0
-268 -479 0
-268 -215 0
-268 -76 0
-268 -169 0
-268 -149 0
-269 -465 0
-269 -416 0
-269 -338 0
-269 -99 0
-269 -432 0
-269 -58 0
-269 -289 0
-269 -200 0
-269 -374 0
-269 -270 0
-269 -149 0
-270 -315 0
-270 -4 0
-270 -341 0
-270 -125 0
-270 -278 0
-270 -494 0
-270 -159 0
-270 -483 0
-270 -75 0
-271 -268 0
-271 -251 0
-271 -260 0
-271 -491 0
-271 -114 0
-271 -41 0
-271 -117 0
-271 -466 0
-272 -402 0
-272 -277 0
-272 -493 0
-272 -299 0
-272 -386 0
-272 -113 0
-272 -158 0
-272 -166 0
-273 -362 0
-273 -280 0
-273 -277 0
-273 -497 0
-273 -102 0
-273 -63 0
-273 -52 0
-273 -219 0
-273 -159 0
-273 -50 0
-273 -274 0
-274 -241 0
-274 -450 0
-274 -101 0
-274 -409 0
-274 -247 0
-274 -388 0
-274 -487 0
-274 -186 0
-274 -358 0
-274 -345 0
-275 -157 0
-275 -7 0
-275 -301 0
-275 -296 0
-275 -257 0
-275 -373 0
-275 -318 0
-275 -197 0
-275 -445 0
-275 -356 0
-275 -11 0
-276 -350 0
-276 -211 0
-276 -491 0
-276 -332 0
-276 -331 0
-276 -57 0
-276 -224 0
-277 -370 0
-277 -53 0
-277 -222 0
-277 -63 0
-277 -423 0
-277 -169 0
-277 -216 0
-278 -323 0
-278 -455 0
-278 -102 0
-278 -260 0
-278 -2 0
-278 -244 0
-278 -293 0
-278 -76 0
-279 -483 0
-279 -319 0
-279 -377 0
-279 -163 0
-279 -209 0
-279 -147 0
-279 -269 0
-280 -414 0
-280 -423 0
-280 -207 0
-280 -6 0
-280 -81 0
-280 -464 0
-281 -445 0
-281 -220 0
-281 -271 0
-281 -252 0
-281 -315 0
-281 -351 0
-281 -215 0
-281 -491 0
-282 -390 0
-282 -324 0
-282 -120 0
-282 -415 0
-282 -80 0
-282 -440 0
-282 -266 0
-283 -476 0
-283 -207 0
-283 -183 0
-283 -368 0
-283 -194 0
-283 -70 0
-283 -500 0
-284 -346 0
-284 -450 0
-284 -15 0
-284 -114 0
-284 -306 0
-284 -399 0
-284 -195 0
-284 -494 0
-284 -48 0
-284 -436 0
-285 -256 0
-285 -304 0
-285 -174 0
-285 -65 0
-285 -488 0
-285 -49 0
-285 -407 0
-286 -61 0
-286 -106 0
-286 -292 0
-286 -140 0
-286 -242 0
-286 -203 0
-286 -54 0
-286 -354 0
-286 -361 0
-286 -261 0
-287 -332 0
-287 -283 0
-287 -86 0
-287 -155 0
-287 -143 0
-287 -194 0
-287 -131 0
-288 -422 0
-288 -437 0
-288 -330 0
-288 -235 0
-288 -358 0
-288 -227 0
-288 -221 0
-288 -132 0
-288 -328 0
-288 -490 0
-288 -36 0
-289 -317 0
-289 -495 0
-289 -246 0
-290 -404 0
-290 -74 0
-290 -136 0
-290 -36 0
-290 -41 0
-290 -294 0
-290 -253 0
-290 -184 0
-290 -188 0
-290 -204 0
-290 -118 0
-291 -362 0
-291 -228 0
-291 -284 0
-291 -163 0
-291 -492 0
-292 -316 0
-292 -168 0
-292 -315 0
-292 -283 0
-292 -368 0
-293 -476 0
-293 -386 0
-293 -494 0
-293 -277 0
-293 -417 0
-293 -54 0
-294 -45 0
-294 -133 0
-294 -354 0
-294 -381 0
-294 -325 0
-295 -289 0
-295 -95 0
-295 -214 0
-295 -25 0
-295 -212 0
-295 -8 0
-295 -110 0
-295 -86 0
-295 -421 0
-296 -93 0
-296 -154 0
-296 -145 0
-296 -19 0
-296 -22 0
-296 -282 0
-297 -360 0
-297 -2 0
-297 -267 0
-297 -200 0
-297 -292 0
-297 -61 0
-297 -333 0
-297 -416 0
-298 -331 0
-298 -317 0
-298 -274 0
-298 -2 0
-298 -145 0
-298 -223 0
-298 -475 0
-298 -294 0
-298 -95 0
-298 -91 0
-298 -315 0
-299 -301 0
-299 -217 0
-299 -260 0
-299 -278 0
-299 -191 0
-299 -497 0
-299 -364 0
-299 -86 0
-300 -269 0
-300 -235 0
-300 -92 0
-300 -152 0
-300 -279 0
-300 -415 0
-300 -76 0
-300 -307 0
-301 -432 0
-301 -99 0
-301 -452 0
-301 -349 0
-301 -297 0
-301 -184 0
-301 -433 0
-301 -169 0
-301 -317 0
-301 -290 0
-301 -52 0
-301 -336 0
-302 -473 0
-302 -247 0
-302 -354 0
-302 -333 0
-302 -231 0
-302 -189 0
-302 -177 0
-302 -332 0
-302 -376 0
-303 -331 0
-303 -369 0
-303 -377 0
-303 -261 0
-303 -298 0
-303 -104 0
-303 -143 0
-303 -202 0
-303 -140 0
-304 -316 0
-304 -138 0
-304 -366 0
-304 -33 0
-304 -12 0
-304 -276 0
-304 -336 0
-305 -448 0
-305 -283 0
-305 -342 0
-305 -57 0
-305 -173 0
-305 -62 0
-305 -164 0
-305 -215 0
-306 -342 0
-306 -272 0
-306 -117 0
-306 -118 0
-306 -334 0
-306 -88 0
-306 -332 0
-306 -415 0
-306 -192 0
-307 -112 0
-307 -322 0
-307 -232 0
-307 -154 0
-307 -258 0
-307 -348 0
-307 -354 0
-307 -466 0
-307 -176 0
-307 -395 0
-307 -79 0
-308 -461 0
-308 -259 0
-308 -498 0
-308 -156 0
-308 -464 0
-308 -178 0
-308 -71 0
-309 -448 0
-309 -170 0
-309 -203 0
-309 -154 0
-309 -477 0
-309 -132 0
-309 -133 0
-310 -454 0
-310 -429 0
-310 -267 0
-310 -234 0
-310 -126 0
-310 -108 0
-310 -184 0
-310 -293 0
-310 -245 0
-310 -381 0
-310 -102 0
-310 -112 0
-311 -245 0
-311 -441 0
-311 -127 0
-311 -367 0
-311 -263 0
-311 -265 0
-311 -452 0
-312 -212 0
-312 -316 0
-312 -287 0
-312 -405 0
-312 -218 0
-312 -230 0
-312 -195 0
-312 -335 0
-312 -74 0
-312 -64 0
-313 -458 0
-313 -377 0
-313 -243 0
-313 -48 0
-313 -226 0
-313 -256 0
-313 -390 0
-313 -107 0
-313 -97 0
-313 -26 0
-314 -409 0
-314 -455 0
-314 -370 0
-314 -283 0
-314 -245 0
-314 -152 0
-314 -284 0
-315 -32 0
-315 -471 0
-315 -296 0
-315 -428 0
-315 -293 0
-315 -105 0
-315 -128 0
-315 -18 0
-315 -316 0
-316 -269 0
-316 -166 0
-316 -262 0
-316 -230 0
-316 -186 0
-316 -347 0
-316 -294 0
-316 -485 0
-316 -129 0
-316 -88 0
-317 -127 0
-317 -454 0
-318 -194 0
-318 -22 0
-318 -304 0
-318 -61 0
-318 -401 0
-318 -104 0
-318 -125 0
-319 -198 0
-319 -159 0
-319 -242 0
-319 -96 0
-319 -139 0
-319 -79 0
-320 -287 0
-320 -321 0
-320 -94 0
-320 -500 0
-320 -173 0
-320 -285 0
-320 -113 0
-320 -486 0
-320 -484 0
-320 -243 0
-320 -466 0
-320 -473 0
-321 -410 0
-321 -195 0
-321 -36 0
-321 -473 0
-322 -262 0
-322 -317 0
-322 -371 0
-322 -332 0
-322 -212 0
-322 -344 0
-322 -72 0
-322 -245 0
-322 -498 0
-323 -260 0
-323 -328 0
-323 -302 0
-323 -471 0
-323 -488 0
-323 -129 0
-323 -103 0
-323 -285 0
-324 -382 0
-324 -369 0
-324 -101 0
-324 -191 0
-325 -423 0
-325 -123 0
-325 -121 0
-325 -428 0
-325 -311 0
-326 -307 0
-326 -115 0
-326 -248 0
-326 -289 0
-326 -88 0
-326 -320 0
-326 -269 0
-326 -312 0
-326 -327 0
-326 -376 0
-326 -497 0
-327 -120 0
-327 -494 0
-327 -384 0
-327 -13 0
-327 -307 0
-327 -17 0
-328 -67 0
-328 -77 0
-328 -439 0
-328 -392 0
-328 -123 0
-328 -336 0
-328 -98 0
-328 -344 0
-328 -491 0
-328 -340 0
-329 -336 0
-329 -189 0
-329 -437 0
-329 -287 0
-329 -292 0
-329 -317 0
-329 -29 0
-329 -49 0
-329 -67 0
-329 -139 0
-329 -303 0
-330 -367 0
-330 -46 0
-330 -16 0
-330 -255 0
-330 -210 0
-330 -148 0
-331 -345 0
-331 -299 0
-331 -313 0
-331 -363 0
-331 -359 0
-332 -45 0
-332 -494 0
-332 -327 0
-332 -69 0
-332 -229 0
-332 -17 0
-332 -396 0
-333 -56 0
-333 -81 0
-333 -422 0
-333 -435 0
-333 -395 0
-333 -340 0
-333 -136 0
-333 -289 0
-333 -247 0
-333 -308 0
-334 -483 0
-334 -424 0
-334 -253 0
-334 -309 0
-334 -431 0
-334 -387 0
-334 -155 0
-334 -161 0
-334 -430 0
-334 -21 0
-334 -192 0
-335 -350 0
-335 -113 0
-335 -242 0
-335 -467 0
-335 -100 0
-336 -50 0
-336 -405 0
-336 -104 0
-336 -120 0
-336 -331 0
-336 -271 0
-336 -266 0
-337 -361 0
-337 -453 0
-337 -110 0
-337 -135 0
-337 -489 0
-337 -145 0
-337 -208 0
-338 -469 0
-338 -242 0
-338 -430 0
-338 -179 0
-338 -327 0
-338 -321 0
-338 -22 0
-338 -122 0
-338 -3 0
-338 -61 0
-338 -167 0
-338 -178 0
-338 -494 0
-339 -395 0
-339 -362 0
-339 -201 0
-339 -216 0
-339 -450 0
-339 -147 0
-339 -445 0
-339 -495 0
-339 -439 0
-340 -428 0
-340 -66 0
-340 -325 0
-340 -161 0
-340 -120 0
-340 -30 0
-340 -378 0
-340 -319 0
-340 -142 0
-341 -429 0
-341 -448 0
-341 -443 0
-341 -102 0
-341 -324 0
-341 -77 0
-341 -23 0
-342 -84 0
-342 -333 0
-342 -266 0
-342 -144 0
-342 -347 0
-343 -3 0
-343 -363 0
-343 -293 0
-343 -201 0
-343 -150 0
-343 -308 0
-343 -23 0
-343 -86 0
-343 -191 0
-344 -363 0
-344 -434 0
-344 -250 0
-344 -396 0
-344 -425 0
-344 -500 0
-344 -66 0
-344 -111 0
-344 -235 0
-344 -358 0
-344 -229 0
-345 -194 0
-345 -362 0
-345 -328 0
-345 -249 0
-345 -370 0
-345 -294 0
-345 -396 0
-345 -135 0
-345 -179 0
-346 -59 0
-346 -241 0
-346 -319 0
-346 -98 0
-346 -167 0
-346 -13 0
-346 -187 0
-347 -425 0
-347 -445 0
-347 -383 0
-347 -223 0
-347 -441 0
-347 -147 0
-347 -61 0
-347 -151 0
-347 -350 0
-348 -376 0
-348 -138 0
-348 -443 0
-348 -219 0
-348 -392 0
-348 -339 0
-348 -420 0
-348 -285 0
-348 -370 0
-348 -80 0
-348 -89 0
-349 -334 0
-349 -119 0
-349 -213 0
-349 -121 0
-349 -494 0
-349 -169 0
-350 -392 0
-350 -237 0
-350 -387 0
-350 -55 0
-350 -111 0
-350 -91 0
-350 -164 0
-350 -463 0
-351 -13 0
-351 -109 0
-351 -124 0
-351 -176 0
-351 -284 0
-351 -200 0
-352 -9 0
-352 -480 0
-352 -418 0
-352 -168 0
-352 -331 0
-352 -347 0
-352 -495 0
-352 -219 0
-352 -213 0
-352 -157 0
-353 -396 0
-353 -350 0
-353 -356 0
-353 -246 0
-353 -244 0
-353 -178 0
-353 -303 0
-353 -109 0
-353 -139 0
-353 -260 0
-354 -142 0
-354 -148 0
-354 -342 0
-354 -308 0
-354 -80 0
-354 -114 0
-354 -482 0
-354 -112 0
-355 -340 0
-355 -271 0
-355 -32 0
-355 -332 0
-355 -76 0
-356 -328 0
-356 -386 0
-356 -263 0
-356 -260 0
-356 -497 0
-356 -78 0
-356 -402 0
-356 -310 0
-357 -458 0
-357 -360 0
-357 -275 0
-357 -278 0
-357 -427 0
-357 -368 0
-357 -81 0
-358 -453 0
-358 -89 0
-358 -385 0
-358 -361 0
-358 -219 0
-358 -348 0
-358 -109 0
-358 -173 0
-359 -486 0
-359 -368 0
-359 -430 0
-359 -341 0
-359 -89 0
-360 -447 0
-360 -312 0
-360 -299 0
-360 -69 0
-360 -174 0
-360 -337 0
-360 -200 0
-361 -449 0
-361 -63 0
-361 -462 0
-361 -8 0
-362 -131 0
-362 -27 0
-362 -354 0
-362 -413 0
-362 -246 0
-362 -94 0
-362 -262 0
-362 -28 0
-362 -322 0
-362 -159 0
-362 -75 0
-363 -459 0
-363 -381 0
-363 -167 0
-363 -352 0
-363 -300 0
-364 -446 0
-364 -336 0
-364 -3 0
-364 -343 0
-364 -453 0
-364 -279 0
-364 -204 0
-364 -181 0
-365 -466 0
-365 -266 0
-365 -356 0
-365 -270 0
-365 -256 0
-365 -495 0
-365 -187 0
-366 -365 0
-366 -313 0
-366 -24 0
-366 -347 0
-366 -98 0
-366 -310 0
-366 -396 0
-366 -6 0
-366 -280 0
-367 -303 0
-367 -242 0
-367 -161 0
-367 -26 0
-367 -283 0
-367 -6 0
-368 -32 0
-368 -350 0
-368 -75 0
-368 -134 0
-368 -166 0
-368 -406 0
-368 -299 0
-368 -146 0
-369 -411 0
-369 -346 0
-369 -417 0
-369 -373 0
-369 -155 0
-369 -363 0
-369 -349 0
-369 -243 0
-369 -305 0
-369 -187 0
-369 -43 0
-369 -19 0
-369 -28 0
-370 -343 0
-370 -434 0
-370 -220 0
-370 -195 0
-370 -102 0
-370 -21 0
-370 -51 0
-370 -96 0
-371 -404 0
-371 -367 0
-371 -122 0
-371 -102 0
-371 -46 0
-371 -274 0
-371 -467 0
-372 -390 0
-372 -308 0
-372 -292 0
-372 -392 0
-372 -246 0
-372 -10 0
-372 -380 0
-372 -156 0
-372 -245 0
-372 -130 0
-373 -88 0
-373 -125 0
-373 -42 0
-373 -137 0
-373 -475 0
-373 -361 0
-373 -296 0
-373 -456 0
-374 -419 0
-374 -485 0
-374 -410 0
-374 -387 0
-374 -176 0
-374 -407 0
-374 -146 0
-374 -224 0
-374 -236 0
-375 -275 0
-375 -85 0
-375 -126 0
-375 -205 0
-375 -397 0
-375 -342 0
-376 -420 0
-376 -477 0
-376 -290 0
-376 -18 0
-376 -428 0
-376 -467 0
-376 -491 0
-376 -350 0
-376 -379 0
-376 -17 0
-376 -237 0
-377 -482 0
-377 -454 0
-377 -99 0
-377 -386 0
-377 -21 0
-377 -154 0
-378 -189 0
-378 -401 0
-378 -59 0
-378 -284 0
-378 -203 0
-378 -82 0
-378 -71 0
-378 -169 0
-378 -291 0
-378 -222 0
-379 -337 0
-379 -211 0
-379 -375 0
-379 -143 0
-379 -358 0
-379 -30 0
-379 -172 0
-379 -495 0
-380 -300 0
-380 -407 0
-380 -36 0
-380 -30 0
-380 -327 0
-380 -465 0
-380 -232 0
-381 -1 0
-381 -286 0
-381 -393 0
-381 -227 0
-381 -52 0
-382 -355 0
-382 -443 0
-382 -175 0
-382 -199 0
-382 -374 0
-382 -342 0
-382 -152 0
-382 -388 0
-383 -454 0
-383 -296 0
-383 -360 0
-383 -475 0
-383 -290 0
-383 -374 0
-383 -76 0
-383 -93 0
-383 -131 0
-383 -446 0
-384 -286 0
-384 -243 0
-384 -68 0
-384 -295 0
-384 -38 0
-384 -458 0
-384 -18 0
-384 -439 0
-385 -139 0
-385 -30 0
-385 -40 0
-385 -207 0
-385 -140 0
-385 -161 0
-385 -46 0
-385 -188 0
-386 -415 0
-386 -242 0
-386 -79 0
-386 -273 0
-386 -227 0
-386 -21 0
-387 -207 0
-387 -119 0
-387 -103 0
-387 -151 0
-387 -181 0
-388 -308 0
-388 -276 0
-388 -244 0
-388 -135 0
-388 -105 0
-389 -369 0
-389 -340 0
-389 -395 0
-389 -47 0
-389 -162 0
-389 -151 0
-389 -93 0
-389 -195 0
-390 -364 0
-390 -343 0
-390 -340 0
-391 -357 0
-391 -399 0
-391 -279 0
-391 -123 0
-391 -347 0
-391 -427 0
-391 -460 0
-391 -284 0
-391 -252 0
-391 -468 0
-391 -52 0
-391 -334 0
-391 -96 0
-392 -345 0
-392 -211 0
-392 -266 0
-392 -325 0
-392 -486 0
-393 -440 0
-393 -319 0
-393 -450 0
-393 -270 0
-393 -35 0
-393 -305 0
-393 -89 0
-393 -425 0
-394 -9 0
-394 -486 0
-394 -426 0
-394 -460 0
-394 -444 0
-394 -440 0
-394 -136 0
-394 -416 0
-394 -302 0
-395 -439 0
-395 -377 0
-395 -324 0
-395 -276 0
-395 -277 0
-395 -204 0
-395 -152 0
-395 -400 0
-396 -423 0
-396 -355 0
-396 -278 0
-396 -162 0
-396 -267 0
-396 -485 0
-396 -208 0
-397 -168 0
-397 -137 0
-397 -67 0
-397 -487 0
-397 -346 0
-397 -10 0
-397 -112 0
-398 -84 0
-398 -483 0
-398 -462 0
-398 -487 0
-398 -27 0
-398 -378 0
-398 -82 0
-398 -200 0
-398 -132 0
-399 -467 0
-399 -329 0
-399 -366 0
-399 -367 0
-399 -187 0
-399 -471 0
-400 -414 0
-400 -363 0
-400 -246 0
-400 -378 0
-400 -143 0
-400 -27 0
-400 -137 0
-400 -49 0
-400 -180 0
-400 -206 0
-400 -17 0
-400 -236 0
-400 -239 0
-401 -395 0
-401 -377 0
-401 -197 0
-401 -379 0
-401 -371 0
-401 -326 0
-401 -2 0
-401 -238 0
-401 -78 0
-401 -130 0
-402 -424 0
-402 -27 0
-402 -429 0
-402 -466 0
-402 -365 0
-402 -93 0
-402 -140 0
-402 -412 0
-402 -357 0
-402 -106 0
-402 -192 0
-403 -375 0
-403 -224 0
-403 -81 0
-403 -96 0
-403 -202 0
-403 -374 0
-403 -11 0
-404 -7 0
-404 -32 0
-404 -230 0
-405 -461 0
-405 -419 0
-405 -184 0
-405 -410 0
-405 -29 0
-406 -286 0
-406 -447 0
-406 -283 0
-406 -152 0
-406 -287 0
-407 -139 0
-407 -426 0
-407 -420 0
-407 -444 0
-407 -275 0
-407 -389 0
-407 -394 0
-407 -43 0
-407 -390 0
-407 -464 0
-408 -394 0
-408 -455 0
-408 -254 0
-408 -120 0
-408 -347 0
-408 -443 0
-408 -167 0
-408 -238 0
-408 -195 0
-408 -158 0
-408 -431 0
-408 -286 0
-408 -451 0
-409 -115 0
-409 -402 0
-409 -487 0
-409 -231 0
-409 -316 0
-409 -127 0
-409 -101 0
-410 -184 0
-410 -455 0
-410 -128 0
-410 -21 0
-411 -465 0
-411 -282 0
-411 -395 0
-411 -416 0
-411 -63 0
-411 -103 0
-412 -419 0
-412 -418 0
-412 -184 0
-412 -10 0
-412 -306 0
-412 -27 0
-412 -304 0
-412 -56 0
-412 -190 0
-412 -39 0
-413 -363 0
-413 -425 0
-413 -389 0
-413 -104 0
-413 -450 0
-413 -20 0
-413 -68 0
-414 -424 0
-414 -449 0
-414 -418 0
-414 -289 0
-414 -297 0
-414 -209 0
-414 -37 0
-415 -407 0
-415 -400 0
-415 -426 0
-415 -332 0
-415 -9 0
-415 -43 0
-415 -419 0
-415 -273 0
-416 -466 0
-416 -430 0
-416 -414 0
-416 -410 0
-416 -212 0
-416 -123 0
-416 -10 0
-416 -16 0
-416 -149 0
-416 -401 0
-416 -74 0
-416 -316 0
-416 -264 0
-417 -411 0
-417 -410 0
-417 -436 0
-417 -20 0
-417 -413 0
-417 -377 0
-417 -142 0
-418 -341 0
-418 -408 0
-418 -472 0
-418 -190 0
-418 -124 0
-418 -230 0
-418 -114 0
-418 -14 0
-418 -73 0
-418 -74 0
-419 -19 0
-419 -484 0
-419 -337 0
-419 -418 0
-419 -93 0
-419 -231 0
-419 -352 0
-419 -213 0
-420 -148 0
-420 -39 0
-420 -204 0
-420 -400 0
-420 -210 0
-420 -8 0
-421 -442 0
-421 -261 0
-421 -414 0
-421 -95 0
-421 -48 0
-421 -51 0
-421 -183 0
-421 -410 0
-421 -371 0
-421 -174 0
-422 -16 0
-422 -486 0
-422 -170 0
-422 -399 0
-422 -258 0
-422 -95 0
-422 -57 0
-422 -247 0
-423 -415 0
-423 -412 0
-423 -45 0
-423 -162 0
-424 -420 0
-424 -308 0
-424 -197 0
-424 -429 0
-424 -109 0
-424 -486 0
-424 -386 0
-424 -435 0
-424 -76 0
-425 -40 0
-425 -420 0
-425 -412 0
-425 -403 0
-425 -1 0
-425 -443 0
-425 -140 0
-425 -153 0
-425 -329 0
-426 -258 0
-426 -425 0
-426 -42 0
-426 -347 0
-427 -3 0
-427 -442 0
-427 -410 0
-427 -471 0
-427 -200 0
-427 -197 0
-427 -128 0
-427 -262 0
-427 -47 0
-428 -422 0
-428 -50 0
-428 -247 0
-428 -322 0
-428 -388 0
-428 -16 0
-429 -25 0
-429 -460 0
-429 -422 0
-429 -364 0
-429 -342 0
-429 -70 0
-429 -355 0
-429 -108 0
-429 -387 0
-429 -453 0
-429 -404 0
-430 -439 0
-430 -108 0
-430 -109 0
-430 -199 0
-430 -158 0
-430 -7 0
-430 -75 0
-430 -94 0
-430 -414 0
-430 -140 0
-430 -103 0
-431 -47 0
-431 -126 0
-431 -356 0
-431 -338 0
-431 -317 0
-431 -321 0
-431 -239 0
-431 -147 0
-431 -424 0
-431 -32 0
-431 -443 0
-432 -276 0
-432 -227 0
-432 -195 0
-432 -59 0
-432 -361 0
-432 -201 0
-433 -459 0
-433 -449 0
-433 -370 0
-433 -242 0
-433 -384 0
-433 -189 0
-433 -91 0
-433 -94 0
-434 -447 0
-434 -328 0
-434 -349 0
-434 -431 0
-434 -213 0
-434 -177 0
-434 -252 0
-434 -55 0
-434 -199 0
-435 -289 0
-435 -396 0
-435 -99 0
-435 -234 0
-435 -66 0
-435 -95 0
-435 -165 0
-436 -7 0
-436 -276 0
-436 -303 0
-436 -228 0
-436 -257 0
-436 -223 0
-437 -447 0
-437 -81 0
-437 -261 0
-437 -136 0
-437 -254 0
-437 -361 0
-437 -186 0
-437 -85 0
-437 -30 0
-438 -457 0
-438 -426 0
-438 -398 0
-438 -409 0
-438 -390 0
-438 -179 0
-438 -434 0
-438 -335 0
-438 -334 0
-438 -404 0
-438 -455 0
-438 -83 0
-438 -3 0
-439 -487 0
-439 -451 0
-439 -380 0
-439 -464 0
-439 -319 0
-439 -470 0
-439 -266 0
-439 -404 0
-439 -302 0
-440 -363 0
-440 -374 0
-440 -209 0
-440 -298 0
-440 -170 0
-440 -484 0
-440 -160 0
-440 -76 0
-440 -88 0
-440 -90 0
-440 -278 0
-440 -234 0
-440 -75 0
-441 -478 0
-441 -359 0
-441 -392 0
-441 -109 0
-441 -198 0
-441 -457 0
-441 -263 0
-441 -341 0
-442 -500 0
-442 -327 0
-442 -346 0
-442 -138 0
-442 -361 0
-442 -353 0
-442 -237 0
-442 -312 0
-443 -441 0
-443 -358 0
-443 -227 0
-443 -65 0
-443 -16 0
-443 -110 0
-443 -329 0
-444 -442 0
-444 -33 0
-444 -307 0
-444 -494 0
-444 -74 0
-444 -84 0
-445 -392 0
-445 -361 0
-445 -431 0
-445 -402 0
-445 -200 0
-445 -341 0
-445 -161 0
-445 -71 0
-446 -64 0
-446 -81 0
-446 -275 0
-446 -38 0
-446 -391 0
-446 -170 0
-446 -123 0
-446 -358 0
-446 -330 0
-446 -161 0
-446 -435 0
-446 -133 0
-447 -56 0
-447 -124 0
-447 -171 0
-447 -222 0
-447 -498 0
-447 -340 0
-447 -118 0
-448 -131 0
-448 -336 0
-448 -417 0
-448 -48 0
-448 -496 0
-448 -189 0
-448 -288 0
-449 -291 0
-449 -436 0
-449 -416 0
-449 -340 0
-449 -190 0
-449 -432 0
-449 -483 0
-449 -418 0
-450 -458 0
-450 -428 0
-450 -22 0
-450 -128 0
-450 -202 0
-450 -43 0
-450 -414 0
-450 -195 0
-450 -301 0
-450 -488 0
-450 -437 0
-450 -25 0
-451 -466 0
-451 -428 0
-451 -474 0
-451 -186 0
-451 -239 0
-451 -404 0
-451 -69 0
-452 -416 0
-452 -417 0
-452 -406 0
-452 -423 0
-452 -100 0
-452 -267 0
-452 -56 0
-453 -436 0
-453 -141 0
-453 -55 0
-453 -56 0
-453 -30 0
-453 -157 0
-454 -464 0
-454 -432 0
-454 -336 0
-454 -340 0
-454 -355 0
-454 -447 0
-454 -170 0
-454 -40 0
-454 -448 0
-454 -326 0
-454 -342 0
-454 -15 0
-455 -474 0
-455 -442 0
-455 -247 0
-455 -423 0
-455 -242 0
-455 -125 0
-455 -45 0
-455 -72 0
-455 -312 0
-456 -201 0
-456 -46 0
-456 -94 0
-456 -500 0
-457 -8 0
-457 -455 0
-457 -399 0
-457 -220 0
-457 -396 0
-457 -358 0
-457 -153 0
-457 -467 0
-458 -463 0
-458 -432 0
-458 -371 0
-458 -233 0
-458 -293 0
-458 -415 0
-458 -392 0
-458 -15 0
-459 -269 0
-459 -229 0
-459 -334 0
-459 -273 0
-459 -223 0
-459 -349 0
-459 -456 0
-459 -191 0
-460 -495 0
-460 -327 0
-460 -127 0
-460 -367 0
-460 -393 0
-460 -496 0
-460 -200 0
-461 -39 0
-461 -487 0
-461 -451 0
-461 -24 0
-461 -455 0
-461 -250 0
-461 -25 0
-461 -200 0
-461 -394 0
-461 -236 0
-462 -422 0
-462 -287 0
-462 -202 0
-462 -319 0
-463 -301 0
-463 -370 0
-463 -358 0
-463 -150 0
-463 -318 0
-464 -472 0
-464 -181 0
-464 -138 0
-464 -20 0
-464 -183 0
-465 -458 0
-465 -463 0
-465 -325 0
-465 -238 0
-465 -232 0
-465 -49 0
-466 -483 0
-466 -482 0
-466 -463 0
-466 -351 0
-466 -417 0
-466 -414 0
-466 -62 0
-467 -83 0
-467 -279 0
-467 -386 0
-467 -282 0
-467 -267 0
-467 -55 0
-467 -294 0
-467 -292 0
-467 -142 0
-468 -328 0
-468 -231 0
-468 -64 0
-468 -205 0
-468 -246 0
-468 -185 0
-468 -441 0
-469 -420 0
-469 -485 0
-469 -229 0
-469 -283 0
-469 -181 0
-469 -122 0
-469 -493 0
-470 -437 0
-470 -384 0
-470 -194 0
-470 -473 0
-470 -335 0
-470 -161 0
-470 -356 0
-470 -286 0
-470 -8 0
-471 -10 0
-471 -459 0
-471 -439 0
-471 -497 0
-471 -155 0
-471 -89 0
-471 -469 0
-472 -486 0
-472 -343 0
-472 -204 0
-472 -136 0
-472 -13 0
-472 -199 0
-472 -73 0
-472 -491 0
-472 -139 0
-472 -148 0
-472 -433 0
-472 -251 0
-473 -7 0
-473 -482 0
-473 -386 0
-473 -275 0
-473 -346 0
-473 -494 0
-473 -306 0
-474 -477 0
-474 -406 0
-474 -309 0
-474 -216 0
-474 -163 0
-474 -291 0
-474 -476 0
-474 -56 0
-474 -132 0
-474 -231 0
-474 -445 0
-474 -397 0
-475 -468 0
-475 -425 0
-475 -485 0
-475 -31 0
-475 -68 0
-475 -497 0
-475 -11 0
-475 -215 0
-475 -355 0
-475 -165 0
-475 -112 0
-475 -21 0
-476 -396 0
-476 -69 0
-476 -91 0
-476 -468 0
-476 -30 0
-477 -464 0
-477 -403 0
-477 -375 0
-477 -200 0
-477 -209 0
-477 -330 0
-478 -373 0
-478 -182 0
-478 -297 0
-478 -288 0
-478 -444 0
-478 -90 0
-478 -379 0
-478 -89 0
-479 -456 0
-479 -291 0
-479 -143 0
-479 -394 0
-479 -375 0
-479 -193 0
-479 -51 0
-480 -38 0
-480 -487 0
-480 -162 0
-480 -93 0
-480 -377 0
-480 -335 0
-481 -28 0
-481 -484 0
-481 -421 0
-481 -246 0
-481 -179 0
-481 -349 0
-481 -124 0
-482 -4 0
-482 -349 0
-482 -119 0
-482 -278 0
-482 -400 0
-482 -471 0
-482 -27 0
-482 -265 0
-482 -262 0
-483 -190 0
-483 -220 0
-483 -399 0
-483 -235 0
-483 -347 0
-483 -484 0
-483 -311 0
-483 -231 0
-483 -129 0
-483 -49 0
-484 -101 0
-484 -177 0
-484 -76 0
-484 -134 0
-484 -127 0
-485 -451 0
-485 -151 0
-485 -189 0
-485 -303 0
-485 -191 0
-485 -201 0
-485 -26 0
-486 -25 0
-486 -430 0
-486 -266 0
-486 -330 0
-486 -140 0
-487 -70 0
-487 -71 0
-487 -403 0
-487 -60 0
-487 -11 0
-488 -365 0
-488 -344 0
-488 -109 0
-488 -331 0
-488 -270 0
-488 -150 0
-488 -493 0
-488 -78 0
-488 -134 0
-489 -272 0
-490 -5 0
-490 -333 0
-490 -147 0
-491 -300 0
-491 -32 0
-491 -9 0
-491 -363 0
-491 -338 0
-491 -19 0
-491 -248 0
-492 -232 0
-492 -58 0
-492 -300 0
-492 -9 0
-492 -253 0
-492 -269 0
-492 -436 0
-492 -266 0
-492 -170 0
-492 -397 0
-493 -193 0
-493 -372 0
-493 -381 0
-493 -185 0
-493 -194 0
-493 -135 0
-493 -210 0
-494 -139 0
-494 -83 0
-495 -78 0
-495 -38 0
-495 -413 0
-495 -115 0
-495 -83 0
-495 -226 0
-495 -397 0
-496 -133 0
-496 -69 0
-496 -429 0
-496 -95 0
-496 -2 0
-496 -472 0
-496 -384 0
-496 -163 0
-497 -164 0
-497 -202 0
-497 -252 0
-497 -448 0
-497 -268 0
-497 -251 0
-497 -393 0
-497 -496 0
-497 -210 0
-498 -60 0
-498 -139 0
-498 -281 0
-498 -40 0
-498 -402 0
-498 -354 0
-498 -260 0
-498 -241 0
-498 -361 0
-498 -324 0
-498 -274 0
-499 -95 0
-499 -498 0
-499 -304 0
-499 -200 0
-499 -19 0
-499 -81 0
-499 -35 0
-499 -34 0
-499 -423 0
-499 -109 0
-499 -315 0
-499 -263 0
-499 -182 0
-500 -18 0
-500 -192 0
-500 -148 0
-500 -360 0
-500 -100 0
-500 -10 0
-500 -395 0
-500 -294 0
-500 -25 0
-500 -291 0
-501 -1 0
-502 -2 0
-503 -3 0
-504 -4 0
-505 -5 0
-506 -6 0
-507 -7 0
-508 -8 0
-509 -9 0
-510 -10 0
-511 -11 0
-512 -12 0
-513 -13 0
-514 -14 0
-515 -15 0
-516 -16 0
-517 -17 0
-518 -18 0
-519 -19 0
-520 -20 0
-521 -21 0
-522 -22 0
-523 -23 0
-524 -24 0
-525 -25 0
-526 -26 0
-527 -27 0
-528 -28 0
-529 -29 0
-530 -30 0
-531 -31 0
-532 -32 0
-533 -33 0
-534 -34 0
-535 -35 0
-536 -36 0
-537 -37 0
-538 -38 0
-539 -39 0
-540 -40 0
-541 -41 0
-542 -42 0
-543 -43 0
-544 -44 0
-545 -45 0
-546 -46 0
-547 -47 0
-548 -48 0
-549 -49 0
-550 -50 0
-551 -51 0
-552 -52 0
-553 -53 0
-554 -54 0
-555 -55 0
-556 -56 0
-557 -57 0
-558 -58 0
-559 -59 0
-560 -60 0
-561 -61 0
-562 -62 0
-563 -63 0
-564 -64 0
-565 -65 0
-566 -66 0
-567 -67 0
-568 -68 0
-569 -69 0
-570 -70 0
-571 -71 0
-572 -72 0
-573 -73 0
-574 -74 0
-575 -75 0
-576 -76 0
-577 -77 0
-578 -78 0
-579 -79 0
-580 -80 0
-581 -81 0
-582 -82 0
-583 -83 0
-584 -84 0
-585 -85 0
-586 -86 0
-587 -87 0
-588 -88 0
-589 -89 0
-590 -90 0
-591 -91 0
-592 -92 0
-593 -93 0
-594 -94 0
-595 -95 0
-596 -96 0
-597 -97 0
-598 -98 0
-599 -99 0
-600 -100 0
-601 -101 0
-602 -102 0
-603 -103 0
-604 -104 0
-605 -105 0
-606 -106 0
-607 -107 0
-608 -108 0
-609 -109 0
-610 -110 0
-611 -111 0
-612 -112 0
-613 -113 0
-614 -114 0
-615 -115 0
-616 -116 0
-617 -117 0
-618 -118 0
-619 -119 0
-620 -120 0
-621 -121 0
-622 -122 0
-623 -123 0
-624 -124 0
-625 -125 0
-626 -126 0
-627 -127 0
-628 -128 0
-629 -129 0
-630 -130 0
-631 -131 0
-632 -132 0
-633 -133 0
-634 -134 0
-635 -135 0
-636 -136 0
-637 -137 0
-638 -138 0
-639 -139 0
-640 -140 0
-641 -141 0
-642 -142 0
-643 -143 0
-644 -144 0
-645 -145 0
-646 -146 0
-647 -147 0
-648 -148 0
-649 -149 0
-650 -150 0
-651 -151 0
-652 -152 0
-653 -153 0
-654 -154 0
-655 -155 0
-656 -156 0
-657 -157 0
-658 -158 0
-659 -159 0
-660 -160 0
-661 -161 0
-662 -162 0
-663 -163 0
-664 -164 0
-665 -165 0
-666 -166 0
-667 -167 0
-668 -168 0
-669 -169 0
-670 -170 0
-671 -171 0
-672 -172 0
-673 -173 0
-674 -174 0
-675 -175 0
-676 -176 0
-677 -177 0
-678 -178 0
-679 -179 0
-680 -180 0
-681 -181 0
-682 -182 0
-683 -183 0
-684 -184 0
-685 -185 0
-686 -186 0
-687 -187 0
-688 -188 0
-689 -189 0
-690 -190 0
-691 -191 0
-692 -192 0
-693 -193 0
-694 -194 0
-695 -195 0
-696 -196 0
-697 -197 0
-698 -198 0
-699 -199 0
-700 -200 0
-701 -201 0
-702 -202 0
-703 -203 0
-704 -204 0
-705 -205 0
-706 -206 0
-707 -207 0
-708 -208 0
-709 -209 0
-710 -210 0
-711 -211 0
-712 -212 0
-713 -213 0
-714 -214 0
-715 -215 0
-716 -216 0
-717 -217 0
-718 -218 0
-719 -219 0
-720 -220 0
-721 -221 0
-722 -222 0
-723 -223 0
-724 -224 0
-725 -225 0
-726 -226 0
-727 -227 0
-728 -228 0
-729 -229 0
-730 -230 0
-731 -231 0
-732 -232 0
-733 -233 0
-734 -234 0
-735 -235 0
-736 -236 0
-737 -237 0
-738 -238 0
-739 -239 0
-740 -240 0
-741 -241 0
-742 -242 0
-743 -243 0
-744 -244 0
-745 -245 0
-746 -246 0
-747 -247 0
-748 -248 0
-749 -249 0
-750 -250 0
-751 -251 0
-752 -252 0
-753 -253 0
-754 -254 0
-755 -255 0
-756 -256 0
-757 -257 0
-758 -258 0
-759 -259 0
-760 -260 0
-761 -261 0
-762 -262 0
-763 -263 0
-764 -264 0
-765 -265 0
-766 -266 0
-767 -267 0
-768 -268 0
-769 -269 0
-770 -270 0
-771 -271 0
-772 -272 0
-773 -273 0
-774 -274 0
-775 -275 0
-776 -276 0
-777 -277 0
-778 -278 0
-779 -279 0
-780 -280 0
-781 -281 0
-782 -282 0
-783 -283 0
-784 -284 0
-785 -285 0
-786 -286 0
-787 -287 0
-788 -288 0
-789 -289 0
-790 -290 0
-791 -291 0
-792 -292 0
-793 -293 0
-794 -294 0
-795 -295 0
-796 -296 0
-797 -297 0
-798 -298 0
-799 -299 0
-800 -300 0
-801 -301 0
-802 -302 0
-803 -303 0
-804 -304 0
-805 -305 0
-806 -306 0
-807 -307 0
-808 -308 0
-809 -309 0
-810 -310 0
-811 -311 0
-812 -312 0
-813 -313 0
-814 -314 0
-815 -315 0
-816 -316 0
-817 -317 0
-818 -318 0
-819 -319 0
-820 -320 0
-821 -321 0
-822 -322 0
-823 -323 0
-824 -324 0
-825 -325 0
-826 -326 0
-827 -327 0
-828 -328 0
-829 -329 0
-830 -330 0
-831 -331 0
-832 -332 0
-833 -333 0
-834 -334 0
-835 -335 0
-836 -336 0
-837 -337 0
-838 -338 0
-839 -339 0
-840 -340 0
-841 -341 0
-842 -342 0
-843 -343 0
-844 -344 0
-845 -345 0
-846 -346 0
-847 -347 0
-848 -348 0
-849 -349 0
-850 -350 0
-851 -351 0
-852 -352 0
-853 -353 0
-854 -354 0
-855 -355 0
-856 -356 0
-857 -357 0
-858 -358 0
-859 -359 0
-860 -360 0
-861 -361 0
-862 -362 0
-863 -363 0
-864 -364 0
-865 -365 0
-866 -366 0
-867 -367 0
-868 -368 0
-869 -369 0
-870 -370 0
-871 -371 0
-872 -372 0
-873 -373 0
-874 -374 0
-875 -375 0
-876 -376 0
-877 -377 0
-878 -378 0
-879 -379 0
-880 -380 0
-881 -381 0
-882 -382 0
-883 -383 0
-884 -384 0
-885 -385 0
-886 -386 0
-887 -387 0
-888 -388 0
-889 -389 0
-890 -390 0
-891 -391 0
-892 -392 0
-893 -393 0
-894 -394 0
-895 -395 0
-896 -396 0
-897 -397 0
-898 -398 0
-899 -399 0
-900 -400 0
-901 -401 0
-902 -402 0
-903 -403 0
-904 -404 0
-905 -405 0
-906 -406 0
-907 -407 0
-908 -408 0
-909 -409 0
-910 -410 0
-911 -411 0
-912 -412 0
-913 -413 0
-914 -414 0
-915 -415 0
-916 -416 0
-917 -417 0
-918 -418 0
-919 -419 0
-920 -420 0
-921 -421 0
-922 -422 0
-923 -423 0
-924 -424 0
-925 -425 0
-926 -426 0
-927 -427 0
-928 -428 0
-929 -429 0
-930 -430 0
-931 -431 0
-932 -432 0
-933 -433 0
-934 -434 0
-935 -435 0
-936 -436 0
-937 -437 0
-938 -438 0
-939 -439 0
-940 -440 0
-941 -441 0
-942 -442 0
-943 -443 0
-944 -444 0
-945 -445 0
-946 -446 0
-947 -447 0
-948 -448 0
-949 -449 0
-950 -450 0
-951 -451 0
-952 -452 0
-953 -453 0
-954 -454 0
-955 -455 0
-956 -456 0
-957 -457 0
-958 -458 0
-959 -459 0
-960 -460 0
-961 -461 0
-962 -462 0
-963 -463 0
-964 -464 0
-965 -465 0
-966 -466 0
-967 -467 0
-968 -468 0
-969 -469 0
-970 -470 0
-971 -471 0
-972 -472 0
-973 -473 0
-974 -474 0
-975 -475 0
-976 -476 0
-977 -477 0
-978 -478 0
-979 -479 0
-980 -480 0
-981 -481 0
-982 -482 0
-983 -483 0
-984 -484 0
-985 -485 0
-986 -486 0
-987 -487 0
-988 -488 0
-989 -489 0
-990 -490 0
-991 -491 0
-992 -492 0
-993 -493 0
-994 -494 0
-995 -495 0
-996 -496 0
-997 -497 0
-998 -498 0
-999 -499 0
-1000 -500 0
501 -298 0
501 -164 0
501 -324 0
501 -240 0
501 -172 0
501 -281 0
501 -35 0
502 -48 0
502 -138 0
502 -335 0
502 -36 0
502 -426 0
502 -6 0
502 -493 0
503 -428 0
503 -239 0
503 -62 0
503 -66 0
503 -67 0
503 -475 0
503 -278 0
503 -214 0
503 -5 0
503 -1 0
503 -197 0
504 -37 0
504 -69 0
504 -27 0
504 -3 0
504 -458 0
504 -216 0
504 -376 0
504 -489 0
504 -1 0
504 -297 0
505 -112 0
505 -108 0
505 -388 0
505 -295 0
505 -453 0
505 -40 0
505 -382 0
505 -206 0
505 -459 0
505 -288 0
506 -185 0
506 -401 0
506 -397 0
506 -306 0
506 -200 0
506 -285 0
506 -490 0
506 -3 0
506 -38 0
507 -341 0
507 -131 0
507 -448 0
507 -178 0
507 -10 0
507 -235 0
507 -308 0
507 -380 0
507 -397 0
508 -438 0
508 -143 0
508 -375 0
508 -144 0
508 -141 0
508 -87 0
508 -3 0
508 -255 0
508 -28 0
508 -442 0
508 -286 0
508 -394 0
508 -196 0
509 -331 0
509 -376 0
509 -481 0
509 -467 0
510 -119 0
510 -274 0
510 -132 0
510 -449 0
511 -399 0
511 -180 0
511 -246 0
511 -85 0
511 -24 0
511 -159 0
511 -71 0
512 -76 0
512 -375 0
512 -37 0
512 -488 0
512 -413 0
512 -330 0
512 -139 0
513 -292 0
513 -316 0
513 -109 0
513 -492 0
513 -141 0
513 -129 0
513 -413 0
513 -83 0
513 -420 0
514 -270 0
514 -104 0
514 -344 0
514 -85 0
514 -7 0
514 -25 0
514 -360 0
514 -289 0
515 -479 0
515 -475 0
515 -297 0
515 -176 0
515 -230 0
515 -87 0
515 -46 0
515 -188 0
515 -172 0
515 -307 0
516 -332 0
516 -35 0
516 -365 0
516 -454 0
516 -181 0
516 -408 0
517 -223 0
517 -120 0
517 -480 0
517 -15 0
518 -259 0
518 -493 0
518 -68 0
518 -55 0
518 -80 0
518 -232 0
518 -484 0
519 -373 0
519 -325 0
519 -320 0
519 -100 0
519 -234 0
519 -36 0
519 -464 0
519 -371 0
520 -382 0
520 -24 0
520 -162 0
520 -27 0
521 -167 0
521 -260 0
521 -379 0
521 -76 0
522 -246 0
522 -31 0
522 -483 0
522 -58 0
522 -157 0
522 -10 0
522 -466 0
522 -411 0
523 -212 0
523 -453 0
523 -252 0
523 -33 0
523 -1 0
523 -86 0
523 -469 0
523 -452 0
523 -25 0
523 -396 0
524 -345 0
524 -146 0
524 -121 0
524 -234 0
524 -204 0
524 -458 0
525 -428 0
525 -146 0
525 -199 0
525 -471 0
526 -273 0
526 -251 0
526 -101 0
526 -294 0
526 -211 0
526 -69 0
526 -36 0
526 -19 0
526 -195 0
526 -407 0
527 -249 0
527 -357 0
527 -497 0
527 -228 0
527 -439 0
528 -331 0
528 -496 0
528 -91 0
528 -458 0
528 -424 0
528 -402 0
528 -101 0
528 -228 0
529 -258 0
529 -357 0
529 -309 0
529 -437 0
529 -434 0
529 -144 0
529 -19 0
529 -54 0
530 -369 0
530 -236 0
530 -153 0
530 -21 0
530 -444 0
530 -381 0
530 -354 0
531 -164 0
531 -91 0
531 -32 0
531 -4 0
531 -335 0
531 -372 0
531 -109 0
532 -117 0
532 -169 0
532 -401 0
532 -34 0
532 -19 0
532 -456 0
532 -200 0
533 -182 0
533 -141 0
533 -138 0
533 -114 0
533 -327 0
533 -58 0
533 -30 0
533 -352 0
533 -188 0
533 -430 0
534 -17 0
534 -472 0
534 -154 0
534 -11 0
534 -397 0
534 -265 0
534 -28 0
534 -21 0
534 -487 0
534 -289 0
534 -358 0
535 -262 0
535 -244 0
535 -465 0
535 -121 0
535 -178 0
535 -86 0
535 -36 0
535 -245 0
536 -193 0
536 -167 0
536 -37 0
536 -300 0
536 -401 0
536 -360 0
536 -16 0
536 -40 0
536 -131 0
537 -245 0
537 -208 0
537 -237 0
537 -39 0
537 -275 0
537 -30 0
537 -192 0
537 -168 0
537 -118 0
537 -492 0
537 -173 0
537 -369 0
538 -279 0
538 -104 0
538 -208 0
538 -196 0
538 -356 0
538 -496 0
538 -440 0
538 -400 0
538 -342 0
539 -168 0
539 -44 0
539 -69 0
539 -132 0
539 -3 0
539 -12 0
539 -7 0
539 -21 0
540 -232 0
540 -55 0
540 -122 0
540 -139 0
540 -300 0
541 -403 0
541 -298 0
541 -283 0
541 -184 0
541 -216 0
541 -315 0
541 -23 0
542 -448 0
542 -370 0
542 -364 0
542 -141 0
542 -142 0
542 -363 0
542 -391 0
543 -423 0
543 -412 0
543 -158 0
543 -126 0
543 -494 0
543 -441 0
543 -342 0
543 -243 0
544 -358 0
544 -206 0
544 -95 0
544 -13 0
544 -147 0
544 -151 0
544 -41 0
544 -393 0
544 -343 0
545 -457 0
545 -269 0
545 -254 0
545 -313 0
545 -236 0
545 -374 0
545 -47 0
545 -10 0
546 -427 0
546 -166 0
546 -200 0
546 -4 0
546 -180 0
546 -52 0
546 -489 0
547 -351 0
547 -323 0
547 -252 0
547 -89 0
547 -51 0
547 -143 0
547 -177 0
547 -240 0
547 -154 0
547 -37 0
547 -145 0
548 -426 0
548 -408 0
548 -301 0
548 -258 0
548 -356 0
548 -110 0
548 -229 0
549 -82 0
549 -450 0
549 -334 0
549 -491 0
549 -239 0
550 -326 0
550 -248 0
550 -42 0
550 -436 0
550 -463 0
551 -323 0
551 -33 0
551 -277 0
551 -124 0
551 -52 0
551 -13 0
551 -69 0
551 -278 0
551 -201 0
552 -350 0
552 -119 0
552 -283 0
552 -186 0
552 -439 0
552 -147 0
552 -196 0
552 -111 0
553 -293 0
553 -307 0
553 -381 0
553 -89 0
553 -101 0
553 -13 0
553 -442 0
553 -122 0
554 -414 0
554 -474 0
554 -190 0
554 -158 0
554 -181 0
554 -42 0
554 -12 0
554 -128 0
554 -403 0
554 -196 0
555 -337 0
555 -208 0
555 -482 0
555 -457 0
555 -494 0
555 -190 0
555 -452 0
555 -106 0
555 -60 0
555 -462 0
555 -301 0
555 -120 0
556 -170 0
556 -267 0
556 -387 0
556 -404 0
556 -446 0
556 -133 0
556 -24 0
556 -53 0
556 -34 0
556 -3 0
557 -336 0
557 -296 0
557 -301 0
557 -249 0
557 -265 0
557 -434 0
557 -280 0
557 -225 0
557 -62 0
557 -17 0
557 -372 0
557 -2 0
557 -480 0
558 -272 0
558 -166 0
558 -179 0
558 -54 0
558 -326 0
558 -46 0
558 -15 0
558 -90 0
559 -92 0
559 -38 0
560 -127 0
560 -390 0
560 -435 0
560 -49 0
560 -236 0
560 -58 0
560 -467 0
561 -401 0
561 -351 0
561 -102 0
561 -169 0
561 -83 0
561 -30 0
561 -168 0
561 -455 0
561 -390 0
562 -479 0
562 -303 0
562 -436 0
562 -314 0
562 -400 0
562 -309 0
562 -469 0
562 -42 0
562 -352 0
562 -91 0
562 -132 0
562 -149 0
562 -17 0
562 -242 0
562 -490 0
563 -229 0
563 -244 0
563 -199 0
563 -129 0
563 -46 0
563 -71 0
563 -317 0
563 -66 0
563 -52 0
563 -183 0
563 -42 0
564 -266 0
564 -224 0
564 -495 0
564 -202 0
564 -317 0
564 -115 0
564 -70 0
564 -465 0
564 -423 0
564 -20 0
565 -485 0
565 -273 0
565 -360 0
565 -299 0
565 -1 0
565 -357 0
565 -192 0
565 -487 0
565 -10 0
566 -339 0
566 -136 0
566 -102 0
566 -91 0
566 -381 0
566 -467 0
566 -446 0
566 -220 0
566 -73 0
567 -358 0
567 -147 0
567 -75 0
567 -24 0
567 -20 0
567 -441 0
568 -459 0
568 -53 0
568 -465 0
568 -189 0
568 -327 0
568 -361 0
568 -24 0
568 -149 0
568 -172 0
568 -51 0
568 -23 0
568 -116 0
568 -42 0
569 -216 0
569 -85 0
569 -90 0
569 -461 0
569 -63 0
569 -373 0
570 -117 0
570 -106 0
570 -174 0
570 -264 0
570 -128 0
570 -475 0
570 -67 0
571 -353 0
571 -309 0
571 -412 0
571 -278 0
571 -214 0
571 -59 0
571 -131 0
571 -157 0
571 -460 0
571 -151 0
571 -149 0
572 -59 0
572 -90 0
572 -35 0
572 -303 0
572 -64 0
572 -75 0
572 -67 0
572 -339 0
572 -410 0
572 -351 0
573 -386 0
573 -400 0
573 -384 0
573 -64 0
574 -391 0
574 -97 0
574 -236 0
574 -244 0
574 -67 0
574 -37 0
574 -58 0
574 -38 0
574 -181 0
574 -489 0
574 -82 0
574 -323 0
575 -115 0
575 -131 0
575 -46 0
575 -413 0
575 -307 0
575 -423 0
576 -144 0
576 -78 0
576 -81 0
576 -99 0
576 -113 0
576 -70 0
577 -320 0
577 -117 0
577 -88 0
577 -160 0
577 -345 0
577 -145 0
578 -297 0
578 -375 0
578 -110 0
578 -89 0
578 -20 0
578 -102 0
578 -482 0
578 -301 0
578 -31 0
579 -338 0
579 -129 0
579 -67 0
579 -39 0
579 -221 0
579 -291 0
579 -318 0
580 -398 0
580 -78 0
580 -96 0
580 -285 0
580 -25 0
580 -389 0
581 -391 0
581 -112 0
581 -188 0
581 -40 0
581 -288 0
581 -426 0
581 -50 0
581 -208 0
582 -266 0
582 -365 0
582 -453 0
582 -459 0
582 -182 0
582 -426 0
582 -160 0
582 -466 0
583 -59 0
583 -32 0
583 -488 0
583 -442 0
584 -353 0
584 -49 0
584 -69 0
584 -233 0
584 -304 0
584 -381 0
584 -90 0
584 -351 0
584 -296 0
584 -386 0
585 -265 0
585 -334 0
585 -386 0
585 -490 0
585 -486 0
585 -190 0
585 -380 0
585 -41 0
585 -80 0
586 -341 0
586 -383 0
586 -120 0
586 -320 0
586 -308 0
586 -314 0
586 -107 0
587 -366 0
587 -224 0
587 -80 0
587 -294 0
587 -82 0
587 -153 0
587 -476 0
587 -460 0
587 -227 0
588 -387 0
588 -153 0
588 -14 0
588 -185 0
588 -234 0
588 -480 0
588 -126 0
589 -305 0
589 -229 0
589 -434 0
589 -324 0
589 -154 0
589 -484 0
589 -161 0
589 -480 0
589 -446 0
589 -227 0
590 -306 0
590 -351 0
590 -117 0
590 -317 0
590 -74 0
590 -36 0
590 -225 0
590 -414 0
590 -402 0
590 -46 0
590 -290 0
591 -445 0
591 -489 0
591 -86 0
591 -466 0
591 -410 0
591 -420 0
591 -197 0
591 -100 0
592 -392 0
592 -368 0
592 -68 0
592 -464 0
592 -432 0
592 -89 0
593 -155 0
593 -351 0
593 -25 0
593 -423 0
593 -261 0
593 -291 0
593 -258 0
593 -259 0
594 -471 0
594 -124 0
594 -375 0
594 -116 0
594 -103 0
594 -27 0
594 -204 0
594 -49 0
594 -180 0
594 -339 0
595 -431 0
595 -316 0
595 -418 0
595 -129 0
595 -36 0
595 -67 0
595 -199 0
596 -205 0
596 -173 0
596 -160 0
596 -284 0
596 -372 0
596 -404 0
596 -186 0
597 -487 0
597 -57 0
597 -190 0
597 -140 0
597 -113 0
597 -202 0
597 -209 0
597 -61 0
597 -233 0
597 -16 0
598 -336 0
598 -299 0
598 -255 0
598 -368 0
598 -113 0
598 -73 0
598 -272 0
598 -33 0
598 -305 0
599 -5 0
599 -4 0
599 -432 0
599 -306 0
599 -396 0
599 -48 0
599 -437 0
599 -413 0
600 -166 0
601 -422 0
601 -385 0
601 -191 0
601 -127 0
601 -136 0
601 -141 0
601 -216 0
601 -369 0
601 -417 0
601 -239 0
602 -347 0
602 -167 0
602 -123 0
602 -116 0
602 -18 0
602 -121 0
602 -460 0
602 -294 0
602 -260 0
602 -379 0
602 -11 0
603 -243 0
603 -277 0
603 -57 0
603 -132 0
603 -500 0
603 -169 0
603 -478 0
603 -473 0
603 -91 0
603 -423 0
603 -228 0
603 -422 0
604 -363 0
604 -479 0
605 -424 0
605 -189 0
605 -8 0
605 -380 0
605 -170 0
605 -92 0
605 -281 0
605 -126 0
605 -318 0
605 -134 0
606 -319 0
606 -373 0
606 -108 0
606 -134 0
606 -121 0
606 -75 0
606 -179 0
606 -275 0
607 -45 0
607 -203 0
607 -236 0
607 -118 0
607 -103 0
607 -116 0
607 -73 0
607 -468 0
607 -355 0
607 -433 0
608 -245 0
608 -229 0
608 -467 0
608 -261 0
608 -493 0
608 -120 0
608 -388 0
608 -127 0
608 -20 0
608 -489 0
609 -460 0
609 -270 0
609 -133 0
609 -240 0
609 -321 0
609 -478 0
609 -154 0
609 -5 0
609 -14 0
609 -142 0
609 -35 0
609 -34 0
609 -159 0
610 -249 0
610 -389 0
610 -318 0
610 -263 0
610 -260 0
610 -465 0
610 -497 0
611 -463 0
611 -393 0
611 -473 0
611 -335 0
611 -226 0
611 -305 0
611 -258 0
612 -32 0
612 -465 0
612 -394 0
612 -431 0
612 -223 0
612 -100 0
612 -366 0
612 -387 0
612 -468 0
613 -493 0
613 -239 0
613 -140 0
613 -94 0
613 -499 0
613 -496 0
613 -180 0
613 -58 0
613 -32 0
614 -207 0
614 -476 0
614 -72 0
614 -348 0
615 -403 0
615 -247 0
615 -279 0
615 -322 0
615 -11 0
615 -307 0
615 -303 0
616 -355 0
616 -183 0
616 -233 0
616 -492 0
616 -270 0
616 -188 0
616 -131 0
616 -383 0
616 -30 0
616 -38 0
616 -134 0
616 -31 0
616 -86 0
617 -189 0
617 -51 0
617 -371 0
617 -465 0
617 -231 0
617 -303 0
617 -87 0
617 -480 0
617 -213 0
617 -423 0
617 -458 0
617 -481 0
618 -225 0
618 -204 0
618 -361 0
618 -142 0
618 -122 0
618 -42 0
618 -241 0
619 -484 0
619 -490 0
619 -409 0
619 -220 0
619 -424 0
619 -164 0
619 -393 0
619 -221 0
620 -268 0
620 -266 0
620 -153 0
621 -311 0
621 -129 0
621 -330 0
621 -122 0
621 -320 0
621 -10 0
622 -403 0
622 -181 0
622 -30 0
622 -41 0
622 -37 0
622 -463 0
622 -490 0
622 -305 0
622 -36 0
622 -196 0
623 -36 0
623 -33 0
623 -356 0
623 -100 0
623 -176 0
623 -194 0
624 -419 0
624 -402 0
624 -363 0
624 -225 0
624 -204 0
624 -137 0
624 -140 0
624 -166 0
624 -44 0
624 -59 0
624 -109 0
625 -403 0
625 -344 0
625 -443 0
625 -25 0
625 -153 0
625 -141 0
625 -88 0
625 -166 0
625 -293 0
626 -365 0
626 -276 0
626 -72 0
626 -222 0
626 -36 0
626 -367 0
626 -188 0
626 -179 0
626 -6 0
627 -2 0
627 -465 0
627 -376 0
627 -182 0
627 -19 0
627 -264 0
627 -375 0
627 -259 0
627 -30 0
627 -233 0
627 -79 0
628 -434 0
628 -96 0
628 -161 0
628 -496 0
628 -8 0
628 -168 0
628 -40 0
629 -282 0
629 -279 0
629 -22 0
629 -3 0
629 -192 0
629 -354 0
629 -227 0
629 -299 0
629 -375 0
630 -186 0
630 -145 0
630 -492 0
630 -52 0
630 -138 0
630 -407 0
630 -17 0
630 -499 0
630 -356 0
630 -388 0
630 -4 0
631 -172 0
631 -46 0
631 -173 0
631 -477 0
631 -337 0
631 -297 0
631 -323 0
631 -412 0
631 -302 0
631 -264 0
631 -340 0
632 -258 0
632 -120 0
632 -159 0
632 -7 0
632 -307 0
632 -290 0
632 -488 0
632 -64 0
632 -473 0
633 -137 0
633 -68 0
633 -47 0
633 -316 0
633 -96 0
633 -9 0
633 -34 0
633 -491 0
633 -418 0
634 -416 0
634 -291 0
634 -478 0
634 -179 0
634 -272 0
634 -378 0
634 -230 0
635 -292 0
635 -51 0
635 -119 0
635 -448 0
635 -34 0
635 -7 0
635 -41 0
636 -351 0
636 -339 0
636 -316 0
636 -243 0
636 -103 0
636 -498 0
636 -148 0
637 -359 0
637 -295 0
637 -443 0
637 -81 0
637 -11 0
637 -59 0
637 -118 0
638 -233 0
638 -161 0
638 -213 0
638 -168 0
638 -111 0
638 -329 0
639 -109 0
639 -429 0
639 -205 0
639 -6 0
640 -474 0
640 -199 0
640 -72 0
640 -14 0
640 -174 0
640 -484 0
641 -296 0
641 -216 0
641 -292 0
641 -166 0
641 -456 0
641 -88 0
641 -467 0
641 -35 0
642 -266 0
642 -65 0
642 -138 0
642 -77 0
642 -44 0
643 -468 0
643 -323 0
643 -406 0
643 -265 0
643 -259 0
643 -363 0
643 -135 0
643 -376 0
644 -444 0
644 -210 0
644 -190 0
644 -177 0
644 -95 0
644 -84 0
644 -135 0
644 -162 0
645 -365 0
645 -320 0
645 -227 0
645 -51 0
645 -156 0
645 -219 0
645 -204 0
645 -426 0
645 -311 0
646 -245 0
646 -246 0
646 -223 0
646 -184 0
646 -134 0
646 -328 0
646 -28 0
646 -120 0
647 -194 0
647 -121 0
647 -118 0
647 -81 0
647 -292 0
647 -114 0
647 -426 0
648 -365 0
648 -348 0
648 -485 0
648 -289 0
648 -306 0
648 -145 0
648 -139 0
648 -297 0
648 -59 0
648 -436 0
648 -33 0
649 -100 0
649 -171 0
649 -4 0
649 -306 0
649 -128 0
649 -92 0
649 -84 0
649 -148 0
649 -122 0
650 -113 0
650 -235 0
650 -130 0
650 -153 0
650 -147 0
650 -382 0
650 -294 0
650 -345 0
650 -29 0
651 -353 0
651 -145 0
651 -334 0
651 -237 0
651 -359 0
651 -261 0
652 -405 0
652 -217 0
652 -443 0
652 -7 0
653 -351 0
653 -58 0
653 -304 0
653 -184 0
653 -258 0
654 -297 0
654 -177 0
654 -84 0
654 -481 0
654 -286 0
654 -436 0
654 -23 0
654 -50 0
654 -442 0
655 -419 0
655 -468 0
655 -152 0
655 -110 0
655 -181 0
655 -484 0
655 -5 0
655 -443 0
656 -270 0
656 -485 0
656 -29 0
656 -135 0
656 -240 0
656 -407 0
656 -67 0
656 -143 0
657 -175 0
657 -187 0
657 -68 0
657 -173 0
657 -253 0
657 -446 0
657 -1 0
657 -61 0
658 -323 0
658 -253 0
658 -292 0
658 -211 0
658 -224 0
658 -218 0
658 -16 0
658 -20 0
658 -184 0
659 -279 0
659 -58 0
659 -158 0
659 -135 0
659 -150 0
659 -19 0
660 -159 0
660 -89 0
660 -118 0
660 -21 0
660 -393 0
660 -472 0
660 -39 0
661 -42 0
661 -195 0
661 -117 0
661 -438 0
661 -156 0
661 -359 0
662 -108 0
662 -375 0
662 -304 0
662 -302 0
662 -89 0
662 -187 0
662 -239 0
662 -468 0
662 -163 0
662 -415 0
662 -28 0
662 -346 0
662 -15 0
662 -160 0
663 -406 0
663 -336 0
663 -210 0
663 -251 0
663 -213 0
663 -442 0
663 -332 0
663 -431 0
663 -186 0
663 -234 0
663 -38 0
663 -167 0
664 -355 0
664 -116 0
664 -318 0
664 -196 0
664 -295 0
664 -72 0
664 -298 0
665 -36 0
665 -178 0
665 -192 0
665 -56 0
665 -128 0
665 -354 0
665 -145 0
665 -86 0
665 -84 0
665 -477 0
665 -268 0
666 -381 0
666 -276 0
666 -189 0
666 -306 0
666 -248 0
666 -480 0
667 -457 0
667 -437 0
667 -241 0
667 -136 0
667 -274 0
667 -255 0
667 -134 0
668 -296 0
668 -400 0
668 -191 0
668 -161 0
668 -141 0
668 -470 0
668 -19 0
668 -482 0
668 -364 0
668 -340 0
669 -250 0
669 -139 0
669 -351 0
669 -17 0
669 -165 0
669 -174 0
669 -380 0
670 -265 0
670 -283 0
670 -72 0
670 -20 0
670 -19 0
671 -461 0
671 -448 0
671 -389 0
671 -226 0
671 -260 0
671 -130 0
671 -168 0
671 -479 0
671 -193 0
671 -225 0
671 -251 0
671 -63 0
671 -151 0
672 -441 0
672 -109 0
672 -202 0
672 -492 0
672 -405 0
672 -139 0
672 -364 0
673 -292 0
673 -208 0
673 -268 0
673 -376 0
673 -162 0
673 -192 0
673 -119 0
673 -170 0
674 -146 0
674 -422 0
674 -192 0
674 -59 0
674 -79 0
674 -188 0
674 -444 0
674 -100 0
674 -291 0
674 -436 0
675 -409 0
675 -378 0
675 -264 0
675 -79 0
675 -406 0
675 -179 0
675 -182 0
676 -193 0
676 -283 0
676 -108 0
676 -152 0
676 -382 0
676 -228 0
676 -88 0
676 -424 0
677 -253 0
677 -479 0
677 -392 0
677 -431 0
677 -108 0
677 -115 0
677 -69 0
677 -15 0
677 -74 0
677 -9 0
678 -347 0
678 -434 0
678 -234 0
678 -304 0
678 -404 0
678 -319 0
678 -470 0
678 -3 0
678 -274 0
679 -449 0
679 -436 0
679 -176 0
679 -494 0
679 -159 0
679 -145 0
679 -399 0
680 -212 0
680 -392 0
680 -134 0
680 -239 0
680 -307 0
680 -490 0
680 -17 0
680 -151 0
680 -9 0
681 -97 0
681 -275 0
681 -172 0
681 -256 0
681 -228 0
681 -413 0
681 -382 0
681 -187 0
682 -408 0
682 -403 0
682 -324 0
682 -293 0
682 -249 0
682 -114 0
682 -135 0
682 -162 0
682 -26 0
683 -303 0
683 -291 0
683 -367 0
683 -17 0
683 -169 0
683 -41 0
683 -58 0
683 -107 0
684 -282 0
684 -428 0
684 -110 0
684 -175 0
684 -277 0
684 -287 0
684 -281 0
684 -135 0
684 -157 0
684 -286 0
685 -336 0
685 -310 0
685 -374 0
685 -473 0
685 -74 0
685 -85 0
685 -117 0
686 -402 0
686 -51 0
686 -112 0
686 -235 0
686 -238 0
686 -325 0
686 -59 0
687 -325 0
687 -150 0
687 -284 0
687 -199 0
687 -88 0
687 -298 0
688 -119 0
688 -22 0
688 -307 0
688 -469 0
688 -348 0
688 -199 0
689 -337 0
689 -233 0
689 -220 0
689 -359 0
689 -54 0
689 -202 0
689 -164 0
690 -246 0
690 -180 0
690 -140 0
690 -66 0
690 -104 0
690 -275 0
690 -489 0
691 -113 0
691 -181 0
691 -56 0
691 -148 0
691 -72 0
692 -277 0
692 -290 0
692 -309 0
692 -320 0
692 -61 0
692 -242 0
692 -169 0
692 -470 0
692 -257 0
692 -424 0
693 -390 0
693 -410 0
693 -165 0
693 -116 0
693 -293 0
693 -119 0
693 -271 0
693 -463 0
693 -431 0
694 -359 0
694 -197 0
694 -247 0
694 -453 0
694 -266 0
694 -499 0
694 -3 0
694 -221 0
695 -298 0
695 -156 0
695 -158 0
695 -411 0
695 -1 0
695 -311 0
695 -2 0
696 -356 0
696 -224 0
696 -311 0
696 -496 0
696 -285 0
696 -260 0
696 -212 0
696 -351 0
696 -286 0
697 -345 0
697 -105 0
697 -387 0
697 -247 0
697 -341 0
697 -378 0
697 -27 0
697 -271 0
697 -456 0
698 -377 0
698 -176 0
698 -331 0
698 -249 0
698 -9 0
698 -55 0
698 -157 0
698 -146 0
698 -60 0
699 -406 0
699 -320 0
699 -270 0
699 -109 0
699 -164 0
699 -321 0
699 -165 0
699 -100 0
700 -304 0
700 -92 0
700 -417 0
700 -490 0
700 -363 0
701 -441 0
701 -338 0
701 -263 0
701 -111 0
701 -30 0
701 -417 0
702 -187 0
702 -63 0
702 -177 0
702 -435 0
702 -227 0
702 -381 0
703 -272 0
703 -335 0
703 -105 0
703 -427 0
703 -126 0
703 -16 0
703 -254 0
703 -227 0
703 -355 0
703 -409 0
704 -411 0
704 -445 0
704 -143 0
704 -215 0
704 -18 0
705 -171 0
705 -172 0
705 -209 0
705 -113 0
705 -9 0
705 -72 0
705 -462 0
705 -480 0
705 -448 0
706 -293 0
706 -94 0
706 -300 0
706 -336 0
706 -201 0
706 -498 0
706 -130 0
706 -489 0
706 -481 0
706 -155 0
706 -398 0
706 -490 0
706 -353 0
706 -476 0
706 -497 0
707 -56 0
707 -303 0
707 -431 0
707 -108 0
707 -9 0
707 -273 0
707 -440 0
707 -104 0
707 -242 0
707 -110 0
708 -413 0
708 -319 0
708 -101 0
708 -176 0
708 -122 0
708 -35 0
708 -321 0
708 -103 0
709 -327 0
709 -397 0
709 -158 0
709 -54 0
709 -125 0
709 -195 0
709 -239 0
710 -193 0
710 -304 0
710 -471 0
710 -240 0
710 -49 0
710 -67 0
710 -370 0
710 -256 0
710 -489 0
710 -432 0
710 -310 0
710 -158 0
711 -40 0
711 -419 0
711 -484 0
711 -329 0
711 -237 0
711 -166 0
711 -486 0
711 -417 0
712 -216 0
712 -189 0
712 -222 0
712 -489 0
712 -318 0
713 -432 0
713 -435 0
713 -224 0
713 -178 0
713 -82 0
713 -29 0
714 -395 0
714 -314 0
714 -100 0
714 -311 0
714 -324 0
714 -161 0
714 -399 0
714 -418 0
714 -262 0
714 -142 0
715 -309 0
715 -231 0
715 -179 0
715 -228 0
715 -112 0
715 -201 0
715 -68 0
715 -206 0
715 -23 0
715 -203 0
715 -441 0
715 -416 0
715 -41 0
716 -462 0
716 -111 0
716 -282 0
716 -471 0
716 -233 0
716 -234 0
716 -206 0
716 -187 0
716 -253 0
716 -493 0
716 -255 0
717 -372 0
717 -343 0
717 -404 0
717 -221 0
717 -137 0
717 -175 0
717 -12 0
717 -293 0
717 -465 0
718 -291 0
718 -301 0
718 -222 0
718 -319 0
718 -157 0
718 -226 0
718 -164 0
718 -194 0
718 -388 0
718 -405 0
718 -451 0
718 -406 0
719 -228 0
719 -154 0
719 -287 0
719 -452 0
719 -127 0
720 -341 0
720 -104 0
720 -325 0
720 -15 0
720 -201 0
720 -105 0
720 -207 0
720 -96 0
720 -338 0
720 -237 0
720 -447 0
721 -381 0
721 -476 0
721 -355 0
721 -391 0
721 -215 0
721 -330 0
721 -115 0
721 -306 0
721 -322 0
722 -331 0
722 -379 0
722 -49 0
722 -317 0
723 -363 0
723 -149 0
723 -327 0
724 -451 0
724 -349 0
724 -97 0
724 -180 0
724 -284 0
724 -163 0
724 -167 0
724 -43 0
724 -73 0
725 -47 0
725 -100 0
725 -494 0
725 -11 0
725 -77 0
725 -61 0
725 -153 0
725 -228 0
725 -223 0
726 -296 0
726 -365 0
726 -278 0
726 -208 0
726 -488 0
726 -125 0
727 -302 0
727 -400 0
727 -46 0
727 -114 0
727 -297 0
727 -465 0
727 -6 0
728 -255 0
728 -317 0
728 -109 0
728 -2 0
728 -318 0
729 -402 0
729 -454 0
729 -313 0
729 -212 0
729 -76 0
729 -247 0
729 -104 0
729 -384 0
729 -362 0
730 -336 0
730 -416 0
730 -69 0
730 -226 0
730 -77 0
730 -33 0
730 -120 0
730 -107 0
731 -110 0
731 -331 0
731 -271 0
731 -93 0
731 -205 0
731 -460 0
732 -185 0
732 -109 0
732 -139 0
732 -77 0
732 -14 0
732 -201 0
732 -230 0
732 -362 0
732 -474 0
732 -467 0
733 -171 0
733 -225 0
733 -238 0
733 -24 0
733 -214 0
733 -236 0
733 -125 0
734 -407 0
734 -244 0
734 -162 0
735 -414 0
735 -469 0
735 -355 0
735 -299 0
735 -202 0
735 -490 0
735 -23 0
735 -441 0
735 -205 0
735 -354 0
735 -372 0
736 -97 0
736 -183 0
736 -382 0
736 -232 0
736 -18 0
736 -103 0
736 -345 0
736 -360 0
736 -343 0
737 -391 0
737 -80 0
737 -121 0
737 -481 0
737 -107 0
737 -188 0
738 -457 0
738 -351 0
738 -430 0
738 -90 0
738 -250 0
738 -227 0
738 -483 0
738 -94 0
738 -88 0
739 -427 0
739 -449 0
739 -231 0
739 -492 0
739 -4 0
739 -2 0
739 -420 0
739 -161 0
739 -77 0
739 -129 0
740 -272 0
740 -120 0
740 -77 0
740 -230 0
740 -319 0
740 -243 0
740 -79 0
740 -39 0
740 -469 0
740 -352 0
740 -417 0
740 -452 0
740 -485 0
741 -37 0
741 -237 0
741 -253 0
741 -251 0
741 -453 0
741 -168 0
741 -18 0
742 -20 0
742 -329 0
742 -294 0
742 -170 0
742 -11 0
742 -327 0
743 -119 0
743 -21 0
743 -299 0
744 -301 0
744 -189 0
744 -146 0
744 -235 0
744 -312 0
744 -188 0
744 -409 0
744 -381 0
744 -213 0
745 -481 0
745 -77 0
745 -207 0
745 -400 0
745 -156 0
745 -500 0
745 -461 0
746 -409 0
746 -203 0
746 -194 0
747 -243 0
747 -167 0
747 -177 0
747 -191 0
747 -212 0
747 -397 0
747 -431 0
748 -241 0
748 -202 0
748 -109 0
748 -369 0
748 -306 0
748 -331 0
748 -91 0
748 -364 0
748 -78 0
748 -18 0
749 -160 0
749 -458 0
749 -446 0
749 -435 0
749 -223 0
749 -496 0
749 -119 0
749 -189 0
749 -101 0
749 -317 0
749 -218 0
750 -442 0
750 -266 0
750 -309 0
750 -422 0
750 -125 0
750 -388 0
750 -141 0
750 -160 0
750 -96 0
750 -499 0
750 -142 0
751 -385 0
751 -354 0
751 -421 0
751 -446 0
751 -233 0
751 -383 0
751 -361 0
751 -325 0
751 -38 0
751 -41 0
751 -42 0
751 -154 0
752 -371 0
752 -238 0
752 -327 0
752 -93 0
752 -200 0
752 -45 0
752 -340 0
752 -78 0
753 -470 0
753 -261 0
753 -116 0
753 -130 0
753 -459 0
754 -286 0
754 -485 0
754 -312 0
754 -48 0
754 -290 0
754 -270 0
754 -219 0
754 -202 0
754 -86 0
754 -481 0
754 -229 0
754 -266 0
754 -145 0
755 -197 0
755 -35 0
755 -277 0
755 -285 0
755 -31 0
755 -356 0
756 -383 0
756 -382 0
756 -17 0
756 -384 0
756 -149 0
756 -205 0
756 -129 0
756 -487 0
756 -14 0
756 -459 0
756 -318 0
756 -331 0
757 -475 0
757 -389 0
757 -254 0
757 -116 0
757 -429 0
757 -121 0
758 -259 0
758 -398 0
758 -94 0
758 -343 0
758 -158 0
758 -371 0
758 -184 0
758 -496 0
758 -421 0
759 -133 0
759 -462 0
759 -199 0
759 -269 0
759 -453 0
759 -234 0
759 -115 0
760 -348 0
760 -287 0
760 -404 0
760 -468 0
760 -398 0
760 -487 0
761 -486 0
761 -354 0
761 -211 0
761 -412 0
761 -374 0
761 -310 0
761 -267 0
761 -6 0
761 -78 0
761 -118 0
762 -117 0
762 -336 0
762 -74 0
762 -332 0
762 -43 0
762 -462 0
763 -421 0
763 -106 0
763 -384 0
763 -60 0
763 -285 0
763 -41 0
763 -416 0
763 -260 0
764 -302 0
764 -257 0
764 -275 0
764 -250 0
764 -344 0
764 -198 0
764 -376 0
764 -165 0
765 -296 0
765 -55 0
765 -223 0
765 -249 0
765 -373 0
765 -104 0
765 -158 0
765 -66 0
765 -75 0
766 -119 0
766 -356 0
766 -40 0
766 -405 0
766 -92 0
766 -148 0
766 -12 0
766 -253 0
767 -249 0
767 -222 0
767 -251 0
767 -399 0
767 -111 0
767 -16 0
767 -75 0
767 -8 0
768 -92 0
768 -479 0
768 -215 0
768 -76 0
768 -169 0
768 -149 0
769 -465 0
769 -416 0
769 -338 0
769 -99 0
769 -432 0
769 -58 0
769 -289 0
769 -200 0
769 -374 0
769 -270 0
769 -149 0
770 -315 0
770 -4 0
770 -341 0
770 -125 0
770 -278 0
770 -494 0
770 -159 0
770 -483 0
770 -75 0
771 -268 0
771 -251 0
771 -260 0
771 -491 0
771 -114 0
771 -41 0
771 -117 0
771 -466 0
772 -402 0
772 -277 0
772 -493 0
772 -299 0
772 -386 0
772 -113 0
772 -158 0
772 -166 0
773 -362 0
773 -280 0
773 -277 0
773 -497 0
773 -102 0
773 -63 0
773 -52 0
773 -219 0
773 -159 0
773 -50 0
773 -274 0
774 -241 0
774 -450 0
774 -101 0
774 -409 0
774 -247 0
774 -388 0
774 -487 0
774 -186 0
774 -358 0
774 -345 0
775 -157 0
775 -7 0
775 -301 0
775 -296 0
775 -257 0
775 -373 0
775 -318 0
775 -197 0
775 -445 0
775 -356 0
775 -11 0
776 -350 0
776 -211 0
776 -491 0
776 -332 0
776 -331 0
776 -57 0
776 -224 0
777 -370 0
777 -53 0
777 -222 0
777 -63 0
777 -423 0
777 -169 0
777 -216 0
778 -323 0
778 -455 0
778 -102 0
778 -260 0
778 -2 0
778 -244 0
778 -293 0
778 -76 0
779 -483 0
779 -319 0
779 -377 0
779 -163 0
779 -209 0
779 -147 0
779 -269 0
780 -414 0
780 -423 0
780 -207 0
780 -6 0
780 -81 0
780 -464 0
781 -445 0
781 -220 0
781 -271 0
781 -252 0
781 -315 0
781 -351 0
781 -215 0
781 -491 0
782 -390 0
782 -324 0
782 -120 0
782 -415 0
782 -80 0
782 -440 0
782 -266 0
783 -476 0
783 -207 0
783 -183 0
783 -368 0
783 -194 0
783 -70 0
783 -500 0
784 -346 0
784 -450 0
784 -15 0
784 -114 0
784 -306 0
784 -399 0
784 -195 0
784 -494 0
784 -48 0
784 -436 0
785 -256 0
785 -304 0
785 -174 0
785 -65 0
785 -488 0
785 -49 0
785 -407 0
786 -61 0
786 -106 0
786 -292 0
786 -140 0
786 -242 0
786 -203 0
786 -54 0
786 -354 0
786 -361 0
786 -261 0
787 -332 0
787 -283 0
787 -86 0
787 -155 0
787 -143 0
787 -194 0
787 -131 0
788 -422 0
788 -437 0
788 -330 0
788 -235 0
788 -358 0
788 -227 0
788 -221 0
788 -132 0
788 -328 0
788 -490 0
788 -36 0
789 -317 0
789 -495 0
789 -246 0
790 -404 0
790 -74 0
790 -136 0
790 -36 0
790 -41 0
790 -294 0
790 -253 0
790 -184 0
790 -188 0
790 -204 0
790 -118 0
791 -362 0
791 -228 0
791 -284 0
791 -163 0
791 -492 0
792 -316 0
792 -168 0
792 -315 0
792 -283 0
792 -368 0
793 -476 0
793 -386 0
793 -494 0
793 -277 0
793 -417 0
793 -54 0
794 -45 0
794 -133 0
794 -354 0
794 -381 0
794 -325 0
795 -289 0
795 -95 0
795 -214 0
795 -25 0
795 -212 0
795 -8 0
795 -110 0
795 -86 0
795 -421 0
796 -93 0
796 -154 0
796 -145 0
796 -19 0
796 -22 0
796 -282 0
797 -360 0
797 -2 0
797 -267 0
797 -200 0
797 -292 0
797 -61 0
797 -333 0
797 -416 0
798 -331 0
798 -317 0
798 -274 0
798 -2 0
798 -145 0
798 -223 0
798 -475 0
798 -294 0
798 -95 0
798 -91 0
798 -315 0
799 -301 0
799 -217 0
799 -260 0
799 -278 0
799 -191 0
799 -497 0
799 -364 0
799 -86 0
800 -269 0
800 -235 0
800 -92 0
800 -152 0
800 -279 0
800 -415 0
800 -76 0
800 -307 0
801 -432 0
801 -99 0
801 -452 0
801 -349 0
801 -297 0
801 -184 0
801 -433 0
801 -169 0
801 -317 0
801 -290 0
801 -52 0
801 -336 0
802 -473 0
802 -247 0
802 -354 0
802 -333 0
802 -231 0
802 -189 0
802 -177 0
802 -332 0
802 -376 0
803 -331 0
803 -369 0
803 -377 0
803 -261 0
803 -298 0
803 -104 0
803 -143 0
803 -202 0
803 -140 0
804 -316 0
804 -138 0
804 -366 0
804 -33 0
804 -12 0
804 -276 0
804 -336 0
805 -448 0
805 -283 0
805 -342 0
805 -57 0
805 -173 0
805 -62 0
805 -164 0
805 -215 0
806 -342 0
806 -272 0
806 -117 0
806 -118 0
806 -334 0
806 -88 0
806 -332 0
806 -415 0
806 -192 0
807 -112 0
807 -322 0
807 -232 0
807 -154 0
807 -258 0
807 -348 0
807 -354 0
807 -466 0
807 -176 0
807 -395 0
807 -79 0
808 -461 0
808 -259 0
808 -498 0
808 -156 0
808 -464 0
808 -178 0
808 -71 0
809 -448 0
809 -170 0
809 -203 0
809 -154 0
809 -477 0
809 -132 0
809 -133 0
810 -454 0
810 -429 0
810 -267 0
810 -234 0
810 -126 0
810 -108 0
810 -184 0
810 -293 0
810 -245 0
810 -381 0
810 -102 0
810 -112 0
811 -245 0
811 -441 0
811 -127 0
811 -367 0
811 -263 0
811 -265 0
811 -452 0
812 -212 0
812 -316 0
812 -287 0
812 -405 0
812 -218 0
812 -230 0
812 -195 0
812 -335 0
812 -74 0
812 -64 0
813 -458 0
813 -377 0
813 -243 0
813 -48 0
813 -226 0
813 -256 0
813 -390 0
813 -107 0
813 -97 0
813 -26 0
814 -409 0
814 -455 0
814 -370 0
814 -283 0
814 -245 0
814 -152 0
814 -284 0
815 -32 0
815 -471 0
815 -296 0
815 -428 0
815 -293 0
815 -105 0
815 -128 0
815 -18 0
815 -316 0
816 -269 0
816 -166 0
816 -262 0
816 -230 0
816 -186 0
816 -347 0
816 -294 0
816 -485 0
816 -129 0
816 -88 0
817 -127 0
817 -454 0
818 -194 0
818 -22 0
818 -304 0
818 -61 0
818 -401 0
818 -104 0
818 -125 0
819 -198 0
819 -159 0
819 -242 0
819 -96 0
819 -139 0
819 -79 0
820 -287 0
820 -321 0
820 -94 0
820 -500 0
820 -173 0
820 -285 0
820 -113 0
820 -486 0
820 -484 0
820 -243 0
820 -466 0
820 -473 0
821 -410 0
821 -195 0
821 -36 0
821 -473 0
822 -262 0
822 -317 0
822 -371 0
822 -332 0
822 -212 0
822 -344 0
822 -72 0
822 -245 0
822 -498 0
823 -260 0
823 -328 0
823 -302 0
823 -471 0
823 -488 0
823 -129 0
823 -103 0
823 -285 0
824 -382 0
824 -369 0
824 -101 0
824 -191 0
825 -423 0
825 -123 0
825 -121 0
825 -428 0
825 -311 0
826 -307 0
826 -115 0
826 -248 0
826 -289 0
826 -88 0
826 -320 0
826 -269 0
826 -312 0
826 -327 0
826 -376 0
826 -497 0
827 -120 0
827 -494 0
827 -384 0
827 -13 0
827 -307 0
827 -17 0
828 -67 0
828 -77 0
828 -439 0
828 -392 0
828 -123 0
828 -336 0
828 -98 0
828 -344 0
828 -491 0
828 -340 0
829 -336 0
829 -189 0
829 -437 0
829 -287 0
829 -292 0
829 -317 0
829 -29 0
829 -49 0
829 -67 0
829 -139 0
829 -303 0
830 -367 0
830 -46 0
830 -16 0
830 -255 0
830 -210 0
830 -148 0
831 -345 0
831 -299 0
831 -313 0
831 -363 0
831 -359 0
832 -45 0
832 -494 0
832 -327 0
832 -69 0
832 -229 0
832 -17 0
832 -396 0
833 -56 0
833 -81 0
833 -422 0
833 -435 0
833 -395 0
833 -340 0
833 -136 0
833 -289 0
833 -247 0
833 -308 0
834 -483 0
834 -424 0
834 -253 0
834 -309 0
834 -431 0
834 -387 0
834 -155 0
834 -161 0
834 -430 0
834 -21 0
834 -192 0
835 -350 0
835 -113 0
835 -242 0
835 -467 0
835 -100 0
836 -50 0
836 -405 0
836 -104 0
836 -120 0
836 -331 0
836 -271 0
836 -266 0
837 -361 0
837 -453 0
837 -110 0
837 -135 0
837 -489 0
837 -145 0
837 -208 0
838 -469 0
838 -242 0
838 -430 0
838 -179 0
838 -327 0
838 -321 0
838 -22 0
838 -122 0
838 -3 0
838 -61 0
838 -167 0
838 -178 0
838 -494 0
839 -395 0
839 -362 0
839 -201 0
839 -216 0
839 -450 0
839 -147 0
839 -445 0
839 -495 0
839 -439 0
840 -428 0
840 -66 0
840 -325 0
840 -161 0
840 -120 0
840 -30 0
840 -378 0
840 -319 0
840 -142 0
841 -429 0
841 -448 0
841 -443 0
841 -102 0
841 -324 0
841 -77 0
841 -23 0
842 -84 0
842 -333 0
842 -266 0
842 -144 0
842 -347 0
843 -3 0
843 -363 0
843 -293 0
843 -201 0
843 -150 0
843 -308 0
843 -23 0
843 -86 0
843 -191 0
844 -363 0
844 -434 0
844 -250 0
844 -396 0
844 -425 0
844 -500 0
844 -66 0
844 -111 0
844 -235 0
844 -358 0
844 -229 0
845 -194 0
845 -362 0
845 -328 0
845 -249 0
845 -370 0
845 -294 0
845 -396 0
845 -135 0
845 -179 0
846 -59 0
846 -241 0
846 -319 0
846 -98 0
846 -167 0
846 -13 0
846 -187 0
847 -425 0
847 -445 0
847 -383 0
847 -223 0
847 -441 0
847 -147 0
847 -61 0
847 -151 0
847 -350 0
848 -376 0
848 -138 0
848 -443 0
848 -219 0
848 -392 0
848 -339 0
848 -420 0
848 -285 0
848 -370 0
848 -80 0
848 -89 0
849 -334 0
849 -119 0
849 -213 0
849 -121 0
849 -494 0
849 -169 0
850 -392 0
850 -237 0
850 -387 0
850 -55 0
850 -111 0
850 -91 0
850 -164 0
850 -463 0
851 -13 0
851 -109 0
851 -124 0
851 -176 0
851 -284 0
851 -200 0
852 -9 0
852 -480 0
852 -418 0
852 -168 0
852 -331 0
852 -347 0
852 -495 0
852 -219 0
852 -213 0
852 -157 0
853 -396 0
853 -350 0
853 -356 0
853 -246 0
853 -244 0
853 -178 0
853 -303 0
853 -109 0
853 -139 0
853 -260 0
854 -142 0
854 -148 0
854 -342 0
854 -308 0
854 -80 0
854 -114 0
854 -482 0
854 -112 0
855 -340 0
855 -271 0
855 -32 0
855 -332 0
855 -76 0
856 -328 0
856 -386 0
856 -263 0
856 -260 0
856 -497 0
856 -78 0
856 -402 0
856 -310 0
857 -458 0
857 -360 0
857 -275 0
857 -278 0
857 -427 0
857 -368 0
857 -81 0
858 -453 0
858 -89 0
858 -385 0
858 -361 0
858 -219 0
858 -348 0
858 -109 0
858 -173 0
859 -486 0
859 -368 0
859 -430 0
859 -341 0
859 -89 0
860 -447 0
860 -312 0
860 -299 0
860 -69 0
860 -174 0
860 -337 0
860 -200 0
861 -449 0
861 -63 0
861 -462 0
861 -8 0
862 -131 0
862 -27 0
862 -354 0
862 -413 0
862 -246 0
862 -94 0
862 -262 0
862 -28 0
862 -322 0
862 -159 0
862 -75 0
863 -459 0
863 -381 0
863 -167 0
863 -352 0
863 -300 0
864 -446 0
864 -336 0
864 -3 0
864 -343 0
864 -453 0
864 -279 0
864 -204 0
864 -181 0
865 -466 0
865 -266 0
865 -356 0
865 -270 0
865 -256 0
865 -495 0
865 -187 0
866 -365 0
866 -313 0
866 -24 0
866 -347 0
866 -98 0
866 -310 0
866 -396 0
866 -6 0
866 -280 0
867 -303 0
867 -242 0
867 -161 0
867 -26 0
867 -283 0
867 -6 0
868 -32 0
868 -350 0
868 -75 0
868 -134 0
868 -166 0
868 -406 0
868 -299 0
868 -146 0
869 -411 0
869 -346 0
869 -417 0
869 -373 0
869 -155 0
869 -363 0
869 -349 0
869 -243 0
869 -305 0
869 -187 0
869 -43 0
869 -19 0
869 -28 0
870 -343 0
870 -434 0
870 -220 0
870 -195 0
870 -102 0
870 -21 0
870 -51 0
870 -96 0
871 -404 0
871 -367 0
871 -122 0
871 -102 0
871 -46 0
871 -274 0
871 -467 0
872 -390 0
872 -308 0
872 -292 0
872 -392 0
872 -246 0
872 -10 0
872 -380 0
872 -156 0
872 -245 0
872 -130 0
873 -88 0
873 -125 0
873 -42 0
873 -137 0
873 -475 0
873 -361 0
873 -296 0
873 -456 0
874 -419 0
874 -485 0
874 -410 0
874 -387 0
874 -176 0
874 -407 0
874 -146 0
874 -224 0
874 -236 0
875 -275 0
875 -85 0
875 -126 0
875 -205 0
875 -397 0
875 -342 0
876 -420 0
876 -477 0
876 -290 0
876 -18 0
876 -428 0
876 -467 0
876 -491 0
876 -350 0
876 -379 0
876 -17 0
876 -237 0
877 -482 0
877 -454 0
877 -99 0
877 -386 0
877 -21 0
877 -154 0
878 -189 0
878 -401 0
878 -59 0
878 -284 0
878 -203 0
878 -82 0
878 -71 0
878 -169 0
878 -291 0
878 -222 0
879 -337 0
879 -211 0
879 -375 0
879 -143 0
879 -358 0
879 -30 0
879 -172 0
879 -495 0
880 -300 0
880 -407 0
880 -36 0
880 -30 0
880 -327 0
880 -465 0
880 -232 0
881 -1 0
881 -286 0
881 -393 0
881 -227 0
881 -52 0
882 -355 0
882 -443 0
882 -175 0
882 -199 0
882 -374 0
882 -342 0
882 -152 0
882 -388 0
883 -454 0
883 -296 0
883 -360 0
883 -475 0
883 -290 0
883 -374 0
883 -76 0
883 -93 0
883 -131 0
883 -446 0
884 -286 0
884 -243 0
884 -68 0
884 -295 0
884 -38 0
884 -458 0
884 -18 0
884 -439 0
885 -139 0
885 -30 0
885 -40 0
885 -207 0
885 -140 0
885 -161 0
885 -46 0
885 -188 0
886 -415 0
886 -242 0
886 -79 0
886 -273 0
886 -227 0
886 -21 0
887 -207 0
887 -119 0
887 -103 0
887 -151 0
887 -181 0
888 -308 0
888 -276 0
888 -244 0
888 -135 0
888 -105 0
889 -369 0
889 -340 0
889 -395 0
889 -47 0
889 -162 0
889 -151 0
889 -93 0
889 -195 0
890 -364 0
890 -343 0
890 -340 0
891 -357 0
891 -399 0
891 -279 0
891 -123 0
891 -347 0
891 -427 0
891 -460 0
891 -284 0
891 -252 0
891 -468 0
891 -52 0
891 -334 0
891 -96 0
892 -345 0
892 -211 0
892 -266 0
892 -325 0
892 -486 0
893 -440 0
893 -319 0
893 -450 0
893 -270 0
893 -35 0
893 -305 0
893 -89 0
893 -425 0
894 -9 0
894 -486 0
894 -426 0
894 -460 0
894 -444 0
894 -440 0
894 -136 0
894 -416 0
894 -302 0
895 -439 0
895 -377 0
895 -324 0
895 -276 0
895 -277 0
895 -204 0
895 -152 0
895 -400 0
896 -423 0
896 -355 0
896 -278 0
896 -162 0
896 -267 0
896 -485 0
896 -208 0
897 -168 0
897 -137 0
897 -67 0
897 -487 0
897 -346 0
897 -10 0
897 -112 0
898 -84 0
898 -483 0
898 -462 0
898 -487 0
898 -27 0
898 -378 0
898 -82 0
898 -200 0
898 -132 0
899 -467 0
899 -329 0
899 -366 0
899 -367 0
899 -187 0
899 -471 0
900 -414 0
900 -363 0
900 -246 0
900 -378 0
900 -143 0
900 -27 0
900 -137 0
900 -49 0
900 -180 0
900 -206 0
900 -17 0
900 -236 0
900 -239 0
901 -395 0
901 -377 0
901 -197 0
901 -379 0
901 -371 0
901 -326 0
901 -2 0
901 -238 0
901 -78 0
901 -130 0
902 -424 0
902 -27 0
902 -429 0
902 -466 0
902 -365 0
902 -93 0
902 -140 0
902 -412 0
902 -357 0
902 -106 0
902 -192 0
903 -375 0
903 -224 0
903 -81 0
903 -96 0
903 -202 0
903 -374 0
903 -11 0
904 -7 0
904 -32 0
904 -230 0
905 -461 0
905 -419 0
905 -184 0
905 -410 0
905 -29 0
906 -286 0
906 -447 0
906 -283 0
906 -152 0
906 -287 0
907 -139 0
907 -426 0
907 -420 0
907 -444 0
907 -275 0
907 -389 0
907 -394 0
907 -43 0
907 -390 0
907 -464 0
908 -394 0
908 -455 0
908 -254 0
908 -120 0
908 -347 0
908 -443 0
908 -167 0
908 -238 0
908 -195 0
908 -158 0
908 -431 0
908 -286 0
908 -451 0
909 -115 0
909 -402 0
909 -487 0
909 -231 0
909 -316 0
909 -127 0
909 -101 0
910 -184 0
910 -455 0
910 -128 0
910 -21 0
911 -465 0
911 -282 0
911 -395 0
911 -416 0
911 -63 0
911 -103 0
912 -419 0
912 -418 0
912 -184 0
912 -10 0
912 -306 0
912 -27 0
912 -304 0
912 -56 0
912 -190 0
912 -39 0
913 -363 0
913 -425 0
913 -389 0
913 -104 0
913 -450 0
913 -20 0
913 -68 0
914 -424 0
914 -449 0
914 -418 0
914 -289 0
914 -297 0
914 -209 0
914 -37 0
915 -407 0
915 -400 0
915 -426 0
915 -332 0
915 -9 0
915 -43 0
915 -419 0
915 -273 0
916 -466 0
916 -430 0
916 -414 0
916 -410 0
916 -212 0
916 -123 0
916 -10 0
916 -16 0
916 -149 0
916 -401 0
916 -74 0
916 -316 0
916 -264 0
917 -411 0
917 -410 0
917 -436 0
917 -20 0
917 -413 0
917 -377 0
917 -142 0
918 -341 0
918 -408 0
918 -472 0
918 -190 0
918 -124 0
918 -230 0
918 -114 0
918 -14 0
918 -73 0
918 -74 0
919 -19 0
919 -484 0
919 -337 0
919 -418 0
919 -93 0
919 -231 0
919 -352 0
919 -213 0
920 -148 0
920 -39 0
920 -204 0
920 -400 0
920 -210 0
920 -8 0
921 -442 0
921 -261 0
921 -414 0
921 -95 0
921 -48 0
921 -51 0
921 -183 0
921 -410 0
921 -371 0
921 -174 0
922 -16 0
922 -486 0
922 -170 0
922 -399 0
922 -258 0
922 -95 0
922 -57 0
922 -247 0
923 -415 0
923 -412 0
923 -45 0
923 -162 0
924 -420 0
924 -308 0
924 -197 0
924 -429 0
924 -109 0
924 -486 0
924 -386 0
924 -435 0
924 -76 0
925 -40 0
925 -420 0
925 -412 0
925 -403 0
925 -1 0
925 -443 0
925 -140 0
925 -153 0
925 -329 0
926 -258 0
926 -425 0
926 -42 0
926 -347 0
927 -3 0
927 -442 0
927 -410 0
927 -471 0
927 -200 0
927 -197 0
927 -128 0
927 -262 0
927 -47 0
928 -422 0
928 -50 0
928 -247 0
928 -322 0
928 -388 0
928 -16 0
929 -25 0
929 -460 0
929 -422 0
929 -364 0
929 -342 0
929 -70 0
929 -355 0
929 -108 0
929 -387 0
929 -453 0
929 -404 0
930 -439 0
930 -108 0
930 -109 0
930 -199 0
930 -158 0
930 -7 0
930 -75 0
930 -94 0
930 -414 0
930 -140 0
930 -103 0
931 -47 0
931 -126 0
931 -356 0
931 -338 0
931 -317 0
931 -321 0
931 -239 0
931 -147 0
931 -424 0
931 -32 0
931 -443 0
932 -276 0
932 -227 0
932 -195 0
932 -59 0
932 -361 0
932 -201 0
933 -459 0
933 -449 0
933 -370 0
933 -242 0
933 -384 0
933 -189 0
933 -91 0
933 -94 0
934 -447 0
934 -328 0
934 -349 0
934 -431 0
934 -213 0
934 -177 0
934 -252 0
934 -55 0
934 -199 0
935 -289 0
935 -396 0
935 -99 0
935 -234 0
935 -66 0
935 -95 0
935 -165 0
936 -7 0
936 -276 0
936 -303 0
936 -228 0
936 -257 0
936 -223 0
937 -447 0
937 -81 0
937 -261 0
937 -136 0
937 -254 0
937 -361 0
937 -186 0
937 -85 0
937 -30 0
938 -457 0
938 -426 0
938 -398 0
938 -409 0
938 -390 0
938 -179 0
938 -434 0
938 -335 0
938 -334 0
938 -404 0
938 -455 0
938 -83 0
938 -3 0
939 -487 0
939 -451 0
939 -380 0
939 -464 0
939 -319 0
939 -470 0
939 -266 0
939 -404 0
939 -302 0
940 -363 0
940 -374 0
940 -209 0
940 -298 0
940 -170 0
940 -484 0
940 -160 0
940 -76 0
940 -88 0
940 -90 0
940 -278 0
940 -234 0
940 -75 0
941 -478 0
941 -359 0
941 -392 0
941 -109 0
941 -198 0
941 -457 0
941 -263 0
941 -341 0
942 -500 0
942 -327 0
942 -346 0
942 -138 0
942 -361 0
942 -353 0
942 -237 0
942 -312 0
943 -441 0
943 -358 0
943 -227 0
943 -65 0
943 -16 0
943 -110 0
943 -329 0
944 -442 0
944 -33 0
944 -307 0
944 -494 0
944 -74 0
944 -84 0
945 -392 0
945 -361 0
945 -431 0
945 -402 0
945 -200 0
945 -341 0
945 -161 0
945 -71 0
946 -64 0
946 -81 0
946 -275 0
946 -38 0
946 -391 0
946 -170 0
946 -123 0
946 -358 0
946 -330 0
946 -161 0
946 -435 0
946 -133 0
947 -56 0
947 -124 0
947 -171 0
947 -222 0
947 -498 0
947 -340 0
947 -118 0
948 -131 0
948 -336 0
948 -417 0
948 -48 0
948 -496 0
948 -189 0
948 -288 0
949 -291 0
949 -436 0
949 -416 0
949 -340 0
949 -190 0
949 -432 0
949 -483 0
949 -418 0
950 -458 0
950 -428 0
950 -22 0
950 -128 0
950 -202 0
950 -43 0
950 -414 0
950 -195 0
950 -301 0
950 -488 0
950 -437 0
950 -25 0
951 -466 0
951 -428 0
951 -474 0
951 -186 0
951 -239 0
951 -404 0
951 -69 0
952 -416 0
952 -417 0
952 -406 0
952 -423 0
952 -100 0
952 -267 0
952 -56 0
953 -436 0
953 -141 0
953 -55 0
953 -56 0
953 -30 0
953 -157 0
954 -464 0
954 -432 0
954 -336 0
954 -340 0
954 -355 0
954 -447 0
954 -170 0
954 -40 0
954 -448 0
954 -326 0
954 -342 0
954 -15 0
955 -474 0
955 -442 0
955 -247 0
955 -423 0
955 -242 0
955 -125 0
955 -45 0
955 -72 0
955 -312 0
956 -201 0
956 -46 0
956 -94 0
956 -500 0
957 -8 0
957 -455 0
957 -399 0
957 -220 0
957 -396 0
957 -358 0
957 -153 0
957 -467 0
958 -463 0
958 -432 0
958 -371 0
958 -233 0
958 -293 0
958 -415 0
958 -392 0
958 -15 0
959 -269 0
959 -229 0
959 -334 0
959 -273 0
959 -223 0
959 -349 0
959 -456 0
959 -191 0
960 -495 0
960 -327 0
960 -127 0
960 -367 0
960 -393 0
960 -496 0
960 -200 0
961 -39 0
961 -487 0
961 -451 0
961 -24 0
961 -455 0
961 -250 0
961 -25 0
961 -200 0
961 -394 0
961 -236 0
962 -422 0
962 -287 0
962 -202 0
962 -319 0
963 -301 0
963 -370 0
963 -358 0
963 -150 0
963 -318 0
964 -472 0
964 -181 0
964 -138 0
964 -20 0
964 -183 0
965 -458 0
965 -463 0
965 -325 0
965 -238 0
965 -232 0
965 -49 0
966 -483 0
966 -482 0
966 -463 0
966 -351 0
966 -417 0
966 -414 0
966 -62 0
967 -83 0
967 -279 0
967 -386 0
967 -282 0
967 -267 0
967 -55 0
967 -294 0
967 -292 0
967 -142 0
968 -328 0
968 -231 0
968 -64 0
968 -205 0
968 -246 0
968 -185 0
968 -441 0
969 -420 0
969 -485 0
969 -229 0
969 -283 0
969 -181 0
969 -122 0
969 -493 0
970 -437 0
970 -384 0
970 -194 0
970 -473 0
970 -335 0
970 -161 0
970 -356 0
970 -286 0
970 -8 0
971 -10 0
971 -459 0
971 -439 0
971 -497 0
971 -155 0
971 -89 0
971 -469 0
972 -486 0
972 -343 0
972 -204 0
972 -136 0
972 -13 0
972 -199 0
972 -73 0
972 -491 0
972 -139 0
972 -148 0
972 -433 0
972 -251 0
973 -7 0
973 -482 0
973 -386 0
973 -275 0
973 -346 0
973 -494 0
973 -306 0
974 -477 0
974 -406 0
974 -309 0
974 -216 0
974 -163 0
974 -291 0
974 -476 0
974 -56 0
974 -132 0
974 -231 0
974 -445 0
974 -397 0
975 -468 0
975 -425 0
975 -485 0
975 -31 0
975 -68 0
975 -497 0
975 -11 0
975 -215 0
975 -355 0
975 -165 0
975 -112 0
975 -21 0
976 -396 0
976 -69 0
976 -91 0
976 -468 0
976 -30 0
977 -464 0
977 -403 0
977 -375 0
977 -200 0
977 -209 0
977 -330 0
978 -373 0
978 -182 0
978 -297 0
978 -288 0
978 -444 0
978 -90 0
978 -379 0
978 -89 0
979 -456 0
979 -291 0
979 -143 0
979 -394 0
979 -375 0
979 -193 0
979 -51 0
980 -38 0
980 -487 0
980 -162 0
980 -93 0
980 -377 0
980 -335 0
981 -28 0
981 -484 0
981 -421 0
981 -246 0
981 -179 0
981 -349 0
981 -124 0
982 -4 0
982 -349 0
982 -119 0
982 -278 0
982 -400 0
982 -471 0
982 -27 0
982 -265 0
982 -262 0
983 -190 0
983 -220 0
983 -399 0
983 -235 0
983 -347 0
983 -484 0
983 -311 0
983 -231 0
983 -129 0
983 -49 0
984 -101 0
984 -177 0
984 -76 0
984 -134 0
984 -127 0
985 -451 0
985 -151 0
985 -189 0
985 -303 0
985 -191 0
985 -201 0
985 -26 0
986 -25 0
986 -430 0
986 -266 0
986 -330 0
986 -140 0
987 -70 0
987 -71 0
987 -403 0
987 -60 0
987 -11 0
988 -365 0
988 -344 0
988 -109 0
988 -331 0
988 -270 0
988 -150 0
988 -493 0
988 -78 0
988 -134 0
989 -272 0
990 -5 0
990 -333 0
990 -147 0
991 -300 0
991 -32 0
991 -9 0
991 -363 0
991 -338 0
991 -19 0
991 -248 0
992 -232 0
992 -58 0
992 -300 0
992 -9 0
992 -253 0
992 -269 0
992 -436 0
992 -266 0
992 -170 0
992 -397 0
993 -193 0
993 -372 0
993 -381 0
993 -185 0
993 -194 0
993 -135 0
993 -210 0
994 -139 0
994 -83 0
995 -78 0
995 -38 0
995 -413 0
995 -115 0
995 -83 0
995 -226 0
995 -397 0
996 -133 0
996 -69 0
996 -429 0
996 -95 0
996 -2 0
996 -472 0
996 -384 0
996 -163 0
997 -164 0
997 -202 0
997 -252 0
997 -448 0
997 -268 0
997 -251 0
997 -393 0
997 -496 0
997 -210 0
998 -60 0
998 -139 0
998 -281 0
998 -40 0
998 -402 0
998 -354 0
998 -260 0
998 -241 0
998 -361 0
998 -324 0
998 -274 0
999 -95 0
999 -498 0
999 -304 0
999 -200 0
999 -19 0
999 -81 0
999 -35 0
999 -34 0
999 -423 0
999 -109 0
999 -315 0
999 -263 0
999 -182 0
1000 -18 0
1000 -192 0
1000 -148 0
1000 -360 0
1000 -100 0
1000 -10 0
1000 -395 0
1000 -294 0
1000 -25 0
1000 -291 0
298 164 324 240 172 281 35 -501 0
48 138 335 36 426 6 493 -502 0
428 239 62 66 67 475 278 214 5 1 197 -503 0
37 69 27 3 458 216 376 489 1 297 -504 0
112 108 388 295 453 40 382 206 459 288 -505 0
185 401 397 306 200 285 490 3 38 -506 0
341 131 448 178 10 235 308 380 397 -507 0
438 143 375 144 141 87 3 255 28 442 286 394 196 -508 0
331 376 481 467 -509 0
119 274 132 449 -510 0
399 180 246 85 24 159 71 -511 0
76 375 37 488 413 330 139 -512 0
292 316 109 492 141 129 413 83 420 -513 0
270 104 344 85 7 25 360 289 -514 0
479 475 297 176 230 87 46 188 172 307 -515 0
332 35 365 454 181 408 -516 0
223 120 480 15 -517 0
259 493 68 55 80 232 484 -518 0
373 325 320 100 234 36 464 371 -519 0
382 24 162 27 -520 0
167 260 379 76 -521 0
246 31 483 58 157 10 466 411 -522 0
212 453 252 33 1 86 469 452 25 396 -523 0
345 146 121 234 204 458 -524 0
428 146 199 471 -525 0
273 251 101 294 211 69 36 19 195 407 -526 0
249 357 497 228 439 -527 0
331 496 91 458 424 402 101 228 -528 0
258 357 309 437 434 144 19 54 -529 0
369 236 153 21 444 381 354 -530 0
164 91 32 4 335 372 109 -531 0
117 169 401 34 19 456 200 -532 0
182 141 138 114 327 58 30 352 188 430 -533 0
17 472 154 11 397 265 28 21 487 289 358 -534 0
262 244 465 121 178 86 36 245 -535 0
193 167 37 300 401 360 16 40 131 -536 0
245 208 237 39 275 30 192 168 118 492 173 369 -537 0
279 104 208 196 356 496 440 400 342 -538 0
168 44 69 132 3 12 7 21 -539 0
232 55 122 139 300 -540 0
403 298 283 184 216 315 23 -541 0
448 370 364 141 142 363 391 -542 0
423 412 158 126 494 441 342 243 -543 0
358 206 95 13 147 151 41 393 343 -544 0
457 269 254 313 236 374 47 10 -545 0
427 166 200 4 180 52 489 -546 0
351 323 252 89 51 143 177 240 154 37 145 -547 0
426 408 301 258 356 110 229 -548 0
82 450 334 491 239 -549 0
326 248 42 436 463 -550 0
323 33 277 124 52 13 69 278 201 -551 0
350 119 283 186 439 147 196 111 -552 0
293 307 381 89 101 13 442 122 -553 0
414 474 190 158 181 42 12 128 403 196 -554 0
337 208 482 457 494 190 452 106 60 462 301 120 -555 0
170 267 387 404 446 133 24 53 34 3 -556 0
336 296 301 249 265 434 280 225 62 17 372 2 480 -557 0
272 166 179 54 326 46 15 90 -558 0
92 38 -559 0
127 390 435 49 236 58 467 -560 0
401 351 102 169 83 30 168 455 390 -561 0
479 303 436 314 400 309 469 42 352 91 132 149 17 242 490 -562 0
229 244 199 129 46 71 317 66 52 183 42 -563 0
266 224 495 202 317 115 70 465 423 20 -564 0
485 273 360 299 1 357 192 487 10 -565 0
339 136 102 91 381 467 446 220 73 -566 0
358 147 75 24 20 441 -567 0
459 53 465 189 327 361 24 149 172 51 23 116 42 -568 0
216 85 90 461 63 373 -569 0
117 106 174 264 128 475 67 -570 0
353 309 412 278 214 59 131 157 460 151 149 -571 0
59 90 35 303 64 75 67 339 410 351 -572 0
386 400 384 64 -573 0
391 97 236 244 67 37 58 38 181 489 82 323 -574 0
115 131 46 413 307 423 -575 0
144 78 81 99 113 70 -576 0
320 117 88 160 345 145 -577 0
297 375 110 89 20 102 482 301 31 -578 0
338 129 67 39 221 291 318 -579 0
398 78 96 285 25 389 -580 0
391 112 188 40 288 426 50 208 -581 0
266 365 453 459 182 426 160 466 -582 0
59 32 488 442 -583 0
353 49 69 233 304 381 90 351 296 386 -584 0
265 334 386 490 486 190 380 41 80 -585 0
341 383 120 320 308 314 107 -586 0
366 224 80 294 82 153 476 460 227 -587 0
387 153 14 185 234 480 126 -588 0
305 229 434 324 154 484 161 480 446 227 -589 0
306 351 117 317 74 36 225 414 402 46 290 -590 0
445 489 86 466 410 420 197 100 -591 0
392 368 68 464 432 89 -592 0
155 351 25 423 261 291 258 259 -593 0
471 124 375 116 103 27 204 49 180 339 -594 0
431 316 418 129 36 67 199 -595 0
205 173 160 284 372 404 186 -596 0
487 57 190 140 113 202 209 61 233 16 -597 0
336 299 255 368 113 73 272 33 305 -598 0
5 4 432 306 396 48 437 413 -599 0
166 -600 0
422 385 191 127 136 141 216 369 417 239 -601 0
347 167 123 116 18 121 460 294 260 379 11 -602 0
243 277 57 132 500 169 478 473 91 423 228 422 -603 0
363 479 -604 0
424 189 8 380 170 92 281 126 318 134 -605 0
319 373 108 134 121 75 179 275 -606 0
45 203 236 118 103 116 73 468 355 433 -607 0
245 229 467 261 493 120 388 127 20 489 -608 0
460 270 133 240 321 478 154 5 14 142 35 34 159 -609 0
249 389 318 263 260 465 497 -610 0
463 393 473 335 226 305 258 -611 0
32 465 394 431 223 100 366 387 468 -612 0
493 239 140 94 499 496 180 58 32 -613 0
207 476 72 348 -614 0
403 247 279 322 11 307 303 -615 0
355 183 233 492 270 188 131 383 30 38 134 31 86 -616 0
189 51 371 465 231 303 87 480 213 423 458 481 -617 0
225 204 361 142 122 42 241 -618 0
484 490 409 220 424 164 393 221 -619 0
268 266 153 -620 0
311 129 330 122 320 10 -621 0
403 181 30 41 37 463 490 305 36 196 -622 0
36 33 356 100 176 194 -623 0
419 402 363 225 204 137 140 166 44 59 109 -624 0
403 344 443 25 153 141 88 166 293 -625 0
365 276 72 222 36 367 188 179 6 -626 0
2 465 376 182 19 264 375 259 30 233 79 -627 0
434 96 161 496 8 168 40 -628 0
282 279 22 3 192 354 227 299 375 -629 0
186 145 492 52 138 407 17 499 356 388 4 -630 0
172 46 173 477 337 297 323 412 302 264 340 -631 0
258 120 159 7 307 290 488 64 473 -632 0
137 68 47 316 96 9 34 491 418 -633 0
416 291 478 179 272 378 230 -634 0
292 51 119 448 34 7 41 -635 0
351 339 316 243 103 498 148 -636 0
359 295 443 81 11 59 118 -637 0
233 161 213 168 111 329 -638 0
109 429 205 6 -639 0
474 199 72 14 174 484 -640 0
296 216 292 166 456 88 467 35 -641 0
266 65 138 77 44 -642 0
468 323 406 265 259 363 135 376 -643 0
444 210 190 177 95 84 135 162 -644 0
365 320 227 51 156 219 204 426 311 -645 0
245 246 223 184 134 328 28 120 -646 0
194 121 118 81 292 114 426 -647 0
365 348 485 289 306 145 139 297 59 436 33 -648 0
100 171 4 306 128 92 84 148 122 -649 0
113 235 130 153 147 382 294 345 29 -650 0
353 145 334 237 359 261 -651 0
405 217 443 7 -652 0
351 58 304 184 258 -653 0
297 177 84 481 286 436 23 50 442 -654 0
419 468 152 110 181 484 5 443 -655 0
270 485 29 135 240 407 67 143 -656 0
175 187 68 173 253 446 1 61 -657 0
323 253 292 211 224 218 16 20 184 -658 0
279 58 158 135 150 19 -659 0
159 89 118 21 393 472 39 -660 0
42 195 117 438 156 359 -661 0
108 375 304 302 89 187 239 468 163 415 28 346 15 160 -662 0
406 336 210 251 213 442 332 431 186 234 38 167 -663 0
355 116 318 196 295 72 298 -664 0
36 178 192 56 128 354 145 86 84 477 268 -665 0
381 276 189 306 248 480 -666 0
457 437 241 136 274 255 134 -667 0
296 400 191 161 141 470 19 482 364 340 -668 0
250 139 351 17 165 174 380 -669 0
265 283 72 20 19 -670 0
461 448 389 226 260 130 168 479 193 225 251 63 151 -671 0
441 109 202 492 405 139 364 -672 0
292 208 268 376 162 192 119 170 -673 0
146 422 192 59 79 188 444 100 291 436 -674 0
409 378 264 79 406 179 182 -675 0
193 283 108 152 382 228 88 424 -676 0
253 479 392 431 108 115 69 15 74 9 -677 0
347 434 234 304 404 319 470 3 274 -678 0
449 436 176 494 159 145 399 -679 0
212 392 134 239 307 490 17 151 9 -680 0
97 275 172 256 228 413 382 187 -681 0
408 403 324 293 249 114 135 162 26 -682 0
303 291 367 17 169 41 58 107 -683 0
282 428 110 175 277 287 281 135 157 286 -684 0
336 310 374 473 74 85 117 -685 0
402 51 112 235 238 325 59 -686 0
325 150 284 199 88 298 -687 0
119 22 307 469 348 199 -688 0
337 233 220 359 54 202 164 -689 0
246 180 140 66 104 275 489 -690 0
113 181 56 148 72 -691 0
277 290 309 320 61 242 169 470 257 424 -692 0
390 410 165 116 293 119 271 463 431 -693 0
359 197 247 453 266 499 3 221 -694 0
298 156 158 411 1 311 2 -695 0
356 224 311 496 285 260 212 351 286 -696 0
345 105 387 247 341 378 27 271 456 -697 0
377 176 331 249 9 55 157 146 60 -698 0
406 320 270 109 164 321 165 100 -699 0
304 92 417 490 363 -700 0
441 338 263 111 30 417 -701 0
187 63 177 435 227 381 -702 0
272 335 105 427 126 16 254 227 355 409 -703 0
411 445 143 215 18 -704 0
171 172 209 113 9 72 462 480 448 -705 0
293 94 300 336 201 498 130 489 481 155 398 490 353 476 497 -706 0
56 303 431 108 9 273 440 104 242 110 -707 0
413 319 101 176 122 35 321 103 -708 0
327 397 158 54 125 195 239 -709 0
193 304 471 240 49 67 370 256 489 432 310 158 -710 0
40 419 484 329 237 166 486 417 -711 0
216 189 222 489 318 -712 0
432 435 224 178 82 29 -713 0
395 314 100 311 324 161 399 418 262 142 -714 0
309 231 179 228 112 201 68 206 23 203 441 416 41 -715 0
462 111 282 471 233 234 206 187 253 493 255 -716 0
372 343 404 221 137 175 12 293 465 -717 0
291 301 222 319 157 226 164 194 388 405 451 406 -718 0
228 154 287 452 127 -719 0
341 104 325 15 201 105 207 96 338 237 447 -720 0
381 476 355 391 215 330 115 306 322 -721 0
331 379 49 317 -722 0
363 149 327 -723 0
451 349 97 180 284 163 167 43 73 -724 0
47 100 494 11 77 61 153 228 223 -725 0
296 365 278 208 488 125 -726 0
302 400 46 114 297 465 6 -727 0
255 317 109 2 318 -728 0
402 454 313 212 76 247 104 384 362 -729 0
336 416 69 226 77 33 120 107 -730 0
110 331 271 93 205 460 -731 0
185 109 139 77 14 201 230 362 474 467 -732 0
171 225 238 24 214 236 125 -733 0
407 244 162 -734 0
414 469 355 299 202 490 23 441 205 354 372 -735 0
97 183 382 232 18 103 345 360 343 -736 0
391 80 121 481 107 188 -737 0
457 351 430 90 250 227 483 94 88 -738 0
427 449 231 492 4 2 420 161 77 129 -739 0
272 120 77 230 319 243 79 39 469 352 417 452 485 -740 0
37 237 253 251 453 168 18 -741 0
20 329 294 170 11 327 -742 0
119 21 299 -743 0
301 189 146 235 312 188 409 381 213 -744 0
481 77 207 400 156 500 461 -745 0
409 203 194 -746 0
243 167 177 191 212 397 431 -747 0
241 202 109 369 306 331 91 364 78 18 -748 0
160 458 446 435 223 496 119 189 101 317 218 -749 0
442 266 309 422 125 388 141 160 96 499 142 -750 0
385 354 421 446 233 383 361 325 38 41 42 154 -751 0
371 238 327 93 200 45 340 78 -752 0
470 261 116 130 459 -753 0
286 485 312 48 290 270 219 202 86 481 229 266 145 -754 0
197 35 277 285 31 356 -755 0
383 382 17 384 149 205 129 487 14 459 318 331 -756 0
475 389 254 116 429 121 -757 0
259 398 94 343 158 371 184 496 421 -758 0
133 462 199 269 453 234 115 -759 0
348 287 404 468 398 487 -760 0
486 354 211 412 374 310 267 6 78 118 -761 0
117 336 74 332 43 462 -762 0
421 106 384 60 285 41 416 260 -763 0
302 257 275 250 344 198 376 165 -764 0
296 55 223 249 373 104 158 66 75 -765 0
119 356 40 405 92 148 12 253 -766 0
249 222 251 399 111 16 75 8 -767 0
92 479 215 76 169 149 -768 0
465 416 338 99 432 58 289 200 374 270 149 -769 0
315 4 341 125 278 494 159 483 75 -770 0
268 251 260 491 114 41 117 466 -771 0
402 277 493 299 386 113 158 166 -772 0
362 280 277 497 102 63 52 219 159 50 274 -773 0
241 450 101 409 247 388 487 186 358 345 -774 0
157 7 301 296 257 373 318 197 445 356 11 -775 0
350 211 491 332 331 57 224 -776 0
370 53 222 63 423 169 216 -777 0
323 455 102 260 2 244 293 76 -778 0
483 319 377 163 209 147 269 -779 0
414 423 207 6 81 464 -780 0
445 220 271 252 315 351 215 491 -781 0
390 324 120 415 80 440 266 -782 0
476 207 183 368 194 70 500 -783 0
346 450 15 114 306 399 195 494 48 436 -784 0
256 304 174 65 488 49 407 -785 0
61 106 292 140 242 203 54 354 361 261 -786 0
332 283 86 155 143 194 131 -787 0
422 437 330 235 358 227 221 132 328 490 36 -788 0
317 495 246 -789 0
404 74 136 36 41 294 253 184 188 204 118 -790 0
362 228 284 163 492 -791 0
316 168 315 283 368 -792 0
476 386 494 277 417 54 -793 0
45 133 354 381 325 -794 0
289 95 214 25 212 8 110 86 421 -795 0
93 154 145 19 22 282 -796 0
360 2 267 200 292 61 333 416 -797 0
331 317 274 2 145 223 475 294 95 91 315 -798 0
301 217 260 278 191 497 364 86 -799 0
269 235 92 152 279 415 76 307 -800 0
432 99 452 349 297 184 433 169 317 290 52 336 -801 0
473 247 354 333 231 189 177 332 376 -802 0
331 369 377 261 298 104 143 202 140 -803 0
316 138 366 33 12 276 336 -804 0
448 283 342 57 173 62 164 215 -805 0
342 272 117 118 334 88 332 415 192 -806 0
112 322 232 154 258 348 354 466 176 395 79 -807 0
461 259 498 156 464 178 71 -808 0
448 170 203 154 477 132 133 -809 0
454 429 267 234 126 108 184 293 245 381 102 112 -810 0
245 441 127 367 263 265 452 -811 0
212 316 287 405 218 230 195 335 74 64 -812 0
458 377 243 48 226 256 390 107 97 26 -813 0
409 455 370 283 245 152 284 -814 0
32 471 296 428 293 105 128 18 316 -815 0
269 166 262 230 186 347 294 485 129 88 -816 0
127 454 -817 0
194 22 304 61 401 104 125 -818 0
198 159 242 96 139 79 -819 0
287 321 94 500 173 285 113 486 484 243 466 473 -820 0
410 195 36 473 -821 0
262 317 371 332 212 344 72 245 498 -822 0
260 328 302 471 488 129 103 285 -823 0
382 369 101 191 -824 0
423 123 121 428 311 -825 0
307 115 248 289 88 320 269 312 327 376 497 -826 0
120 494 384 13 307 17 -827 0
67 77 439 392 123 336 98 344 491 340 -828 0
336 189 437 287 292 317 29 49 67 139 303 -829 0
367 46 16 255 210 148 -830 0
345 299 313 363 359 -831 0
45 494 327 69 229 17 396 -832 0
56 81 422 435 395 340 136 289 247 308 -833 0
483 424 253 309 431 387 155 161 430 21 192 -834 0
350 113 242 467 100 -835 0
50 405 104 120 331 271 266 -836 0
361 453 110 135 489 145 208 -837 0
469 242 430 179 327 321 22 122 3 61 167 178 494 -838 0
395 362 201 216 450 147 445 495 439 -839 0
428 66 325 161 120 30 378 319 142 -840 0
429 448 443 102 324 77 23 -841 0
84 333 266 144 347 -842 0
3 363 293 201 150 308 23 86 191 -843 0
363 434 250 396 425 500 66 111 235 358 229 -844 0
194 362 328 249 370 294 396 135 179 -845 0
59 241 319 98 167 13 187 -846 0
425 445 383 223 441 147 61 151 350 -847 0
376 138 443 219 392 339 420 285 370 80 89 -848 0
334 119 213 121 494 169 -849 0
392 237 387 55 111 91 164 463 -850 0
13 109 124 176 284 200 -851 0
9 480 418 168 331 347 495 219 213 157 -852 0
396 350 356 246 244 178 303 109 139 260 -853 0
142 148 342 308 80 114 482 112 -854 0
340 271 32 332 76 -855 0
328 386 263 260 497 78 402 310 -856 0
458 360 275 278 427 368 81 -857 0
453 89 385 361 219 348 109 173 -858 0
486 368 430 341 89 -859 0
447 312 299 69 174 337 200 -860 0
449 63 462 8 -861 0
131 27 354 413 246 94 262 28 322 159 75 -862 0
459 381 167 352 300 -863 0
446 336 3 343 453 279 204 181 -864 0
466 266 356 270 256 495 187 -865 0
365 313 24 347 98 310 396 6 280 -866 0
303 242 161 26 283 6 -867 0
32 350 75 134 166 406 299 146 -868 0
411 346 417 373 155 363 349 243 305 187 43 19 28 -869 0
343 434 220 195 102 21 51 96 -870 0
404 367 122 102 46 274 467 -871 0
390 308 292 392 246 10 380 156 245 130 -872 0
88 125 42 137 475 361 296 456 -873 0
419 485 410 387 176 407 146 224 236 -874 0
275 85 126 205 397 342 -875 0
420 477 290 18 428 467 491 350 379 17 237 -876 0
482 454 99 386 21 154 -877 0
189 401 59 284 203 82 71 169 291 222 -878 0
337 211 375 143 358 30 172 495 -879 0
300 407 36 30 327 465 232 -880 0
1 286 393 227 52 -881 0
355 443 175 199 374 342 152 388 -882 0
454 296 360 475 290 374 76 93 131 446 -883 0
286 243 68 295 38 458 18 439 -884 0
139 30 40 207 140 161 46 188 -885 0
415 242 79 273 227 21 -886 0
207 119 103 151 181 -887 0
308 276 244 135 105 -888 0
369 340 395 47 162 151 93 195 -889 0
364 343 340 -890 0
357 399 279 123 347 427 460 284 252 468 52 334 96 -891 0
345 211 266 325 486 -892 0
440 319 450 270 35 305 89 425 -893 0
9 486 426 460 444 440 136 416 302 -894 0
439 377 324 276 277 204 152 400 -895 0
423 355 278 162 267 485 208 -896 0
168 137 67 487 346 10 112 -897 0
84 483 462 487 27 378 82 200 132 -898 0
467 329 366 367 187 471 -899 0
414 363 246 378 143 27 137 49 180 206 17 236 239 -900 0
395 377 197 379 371 326 2 238 78 130 -901 0
424 27 429 466 365 93 140 412 357 106 192 -902 0
375 224 81 96 202 374 11 -903 0
7 32 230 -904 0
461 419 184 410 29 -905 0
286 447 283 152 287 -906 0
139 426 420 444 275 389 394 43 390 464 -907 0
394 455 254 120 347 443 167 238 195 158 431 286 451 -908 0
115 402 487 231 316 127 101 -909 0
184 455 128 21 -910 0
465 282 395 416 63 103 -911 0
419 418 184 10 306 27 304 56 190 39 -912 0
363 425 389 104 450 20 68 -913 0
424 449 418 289 297 209 37 -914 0
407 400 426 332 9 43 419 273 -915 0
466 430 414 410 212 123 10 16 149 401 74 316 264 -916 0
411 410 436 20 413 377 142 -917 0
341 408 472 190 124 230 114 14 73 74 -918 0
19 484 337 418 93 231 352 213 -919 0
148 39 204 400 210 8 -920 0
442 261 414 95 48 51 183 410 371 174 -921 0
16 486 170 399 258 95 57 247 -922 0
415 412 45 162 -923 0
420 308 197 429 109 486 386 435 76 -924 0
40 420 412 403 1 443 140 153 329 -925 0
258 425 42 347 -926 0
3 442 410 471 200 197 128 262 47 -927 0
422 50 247 322 388 16 -928 0
25 460 422 364 342 70 355 108 387 453 404 -929 0
439 108 109 199 158 7 75 94 414 140 103 -930 0
47 126 356 338 317 321 239 147 424 32 443 -931 0
276 227 195 59 361 201 -932 0
459 449 370 242 384 189 91 94 -933 0
447 328 349 431 213 177 252 55 199 -934 0
289 396 99 234 66 95 165 -935 0
7 276 303 228 257 223 -936 0
447 81 261 136 254 361 186 85 30 -937 0
457 426 398 409 390 179 434 335 334 404 455 83 3 -938 0
487 451 380 464 319 470 266 404 302 -939 0
363 374 209 298 170 484 160 76 88 90 278 234 75 -940 0
478 359 392 109 198 457 263 341 -941 0
500 327 346 138 361 353 237 312 -942 0
441 358 227 65 16 110 329 -943 0
442 33 307 494 74 84 -944 0
392 361 431 402 200 341 161 71 -945 0
64 81 275 38 391 170 123 358 330 161 435 133 -946 0
56 124 171 222 498 340 118 -947 0
131 336 417 48 496 189 288 -948 0
291 436 416 340 190 432 483 418 -949 0
458 428 22 128 202 43 414 195 301 488 437 25 -950 0
466 428 474 186 239 404 69 -951 0
416 417 406 423 100 267 56 -952 0
436 141 55 56 30 157 -953 0
464 432 336 340 355 447 170 40 448 326 342 15 -954 0
474 442 247 423 242 125 45 72 312 -955 0
201 46 94 500 -956 0
8 455 399 220 396 358 153 467 -957 0
463 432 371 233 293 415 392 15 -958 0
269 229 334 273 223 349 456 191 -959 0
495 327 127 367 393 496 200 -960 0
39 487 451 24 455 250 25 200 394 236 -961 0
422 287 202 319 -962 0
301 370 358 150 318 -963 0
472 181 138 20 183 -964 0
458 463 325 238 232 49 -965 0
483 482 463 351 417 414 62 -966 0
83 279 386 282 267 55 294 292 142 -967 0
328 231 64 205 246 185 441 -968 0
420 485 229 283 181 122 493 -969 0
437 384 194 473 335 161 356 286 8 -970 0
10 459 439 497 155 89 469 -971 0
486 343 204 136 13 199 73 491 139 148 433 251 -972 0
7 482 386 275 346 494 306 -973 0
477 406 309 216 163 291 476 56 132 231 445 397 -974 0
468 425 485 31 68 497 11 215 355 165 112 21 -975 0
396 69 91 468 30 -976 0
464 403 375 200 209 330 -977 0
373 182 297 288 444 90 379 89 -978 0
456 291 143 394 375 193 51 -979 0
38 487 162 93 377 335 -980 0
28 484 421 246 179 349 124 -981 0
4 349 119 278 400 471 27 265 262 -982 0
190 220 399 235 347 484 311 231 129 49 -983 0
101 177 76 134 127 -984 0
451 151 189 303 191 201 26 -985 0
25 430 266 330 140 -986 0
70 71 403 60 11 -987 0
365 344 109 331 270 150 493 78 134 -988 0
272 -989 0
5 333 147 -990 0
300 32 9 363 338 19 248 -991 0
232 58 300 9 253 269 436 266 170 397 -992 0
193 372 381 185 194 135 210 -993 0
139 83 -994 0
78 38 413 115 83 226 397 -995 0
133 69 429 95 2 472 384 163 -996 0
164 202 252 448 268 251 393 496 210 -997 0
60 139 281 40 402 354 260 241 361 324 274 -998 0
95 498 304 200 19 81 35 34 423 109 315 263 182 -999 0
18 192 148 360 100 10 395 294 25 291 -1000 0
-1 798 0
-1 664 0
-1 824 0
-1 740 0
-1 672 0
-1 781 0
-1 535 0
-2 548 0
-2 638 0
-2 835 0
-2 536 0
-2 926 0
-2 506 0
-2 993 0
-3 928 0
-3 739 0
-3 562 0
-3 566 0
-3 567 0
-3 975 0
-3 778 0
-3 714 0
-3 505 0
-3 501 0
-3 697 0
-4 537 0
-4 569 0
-4 527 0
-4 503 0
-4 958 0
-4 716 0
-4 876 0
-4 989 0
-4 501 0
-4 797 0
-5 612 0
-5 608 0
-5 888 0
-5 795 0
-5 953 0
-5 540 0
-5 882 0
-5 706 0
-5 959 0
-5 788 0
-6 685 0
-6 901 0
-6 897 0
-6 806 0
-6 700 0
-6 785 0
-6 990 0
-6 503 0
-6 538 0
-7 841 0
-7 631 0
-7 948 0
-7 678 0
-7 510 0
-7 735 0
-7 808 0
-7 880 0
-7 897 0
-8 938 0
-8 643 0
-8 875 0
-8 644 0
-8 641 0
-8 587 0
-8 503 0
-8 755 0
-8 528 0
-8 942 0
-8 786 0
-8 894 0
-8 696 0
-9 831 0
-9 876 0
-9 981 0
-9 967 0
-10 619 0
-10 774 0
-10 632 0
-10 949 0
-11 899 0
-11 680 0
-11 746 0
-11 585 0
-11 524 0
-11 659 0
-11 571 0
-12 576 0
-12 875 0
-12 537 0
-12 988 0
-12 913 0
-12 830 0
-12 639 0
-13 792 0
-13 816 0
-13 609 0
-13 992 0
-13 641 0
-13 629 0
-13 913 0
-13 583 0
-13 920 0
-14 770 0
-14 604 0
-14 844 0
-14 585 0
-14 507 0
-14 525 0
-14 860 0
-14 789 0
-15 979 0
-15 975 0
-15 797 0
-15 676 0
-15 730 0
-15 587 0
-15 546 0
-15 688 0
-15 672 0
-15 807 0
-16 832 0
-16 535 0
-16 865 0
-16 954 0
-16 681 0
-16 908 0
-17 723 0
-17 620 0
-17 980 0
-17 515 0
-18 759 0
-18 993 0
-18 568 0
-18 555 0
-18 580 0
-18 732 0
-18 984 0
-19 873 0
-19 825 0
-19 820 0
-19 600 0
-19 734 0
-19 536 0
-19 964 0
-19 871 0
-20 882 0
-20 524 0
-20 662 0
-20 527 0
-21 667 0
-21 760 0
-21 879 0
-21 576 0
-22 746 0
-22 531 0
-22 983 0
-22 558 0
-22 657 0
-22 510 0
-22 966 0
-22 911 0
-23 712 0
-23 953 0
-23 752 0
-23 533 0
-23 501 0
-23 586 0
-23 969 0
-23 952 0
-23 525 0
-23 896 0
-24 845 0
-24 646 0
-24 621 0
-24 734 0
-24 704 0
-24 958 0
-25 928 0
-25 646 0
-25 699 0
-25 971 0
-26 773 0
-26 751 0
-26 601 0
-26 794 0
-26 711 0
-26 569 0
-26 536 0
-26 519 0
-26 695 0
-26 907 0
-27 749 0
-27 857 0
-27 997 0
-27 728 0
-27 939 0
-28 831 0
-28 996 0
-28 591 0
-28 958 0
-28 924 0
-28 902 0
-28 601 0
-28 728 0
-29 758 0
-29 857 0
-29 809 0
-29 937 0
-29 934 0
-29 644 0
-29 519 0
-29 554 0
-30 869 0
-30 736 0
-30 653 0
-30 521 0
-30 944 0
-30 881 0
-30 854 0
-31 664 0
-31 591 0
-31 532 0
-31 504 0
-31 835 0
-31 872 0
-31 609 0
-32 617 0
-32 669 0
-32 901 0
-32 534 0
-32 519 0
-32 956 0
-32 700 0
-33 682 0
-33 641 0
-33 638 0
-33 614 0
-33 827 0
-33 558 0
-33 530 0
-33 852 0
-33 688 0
-33 930 0
-34 517 0
-34 972 0
-34 654 0
-34 511 0
-34 897 0
-34 765 0
-34 528 0
-34 521 0
-34 987 0
-34 789 0
-34 858 0
-35 762 0
-35 744 0
-35 965 0
-35 621 0
-35 678 0
-35 586 0
-35 536 0
-35 745 0
-36 693 0
-36 667 0
-36 537 0
-36 800 0
-36 901 0
-36 860 0
-36 516 0
-36 540 0
-36 631 0
-37 745 0
-37 708 0
-37 737 0
-37 539 0
-37 775 0
-37 530 0
-37 692 0
-37 668 0
-37 618 0
-37 992 0
-37 673 0
-37 869 0
-38 779 0
-38 604 0
-38 708 0
-38 696 0
-38 856 0
-38 996 0
-38 940 0
-38 900 0
-38 842 0
-39 668 0
-39 544 0
-39 569 0
-39 632 0
-39 503 0
-39 512 0
-39 507 0
-39 521 0
-40 732 0
-40 555 0
-40 622 0
-40 639 0
-40 800 0
-41 903 0
-41 798 0
-41 783 0
-41 684 0
-41 716 0
-41 815 0
-41 523 0
-42 948 0
-42 870 0
-42 864 0
-42 641 0
-42 642 0
-42 863 0
-42 891 0
-43 923 0
-43 912 0
-43 658 0
-43 626 0
-43 994 0
-43 941 0
-43 842 0
-43 743 0
-44 858 0
-44 706 0
-44 595 0
-44 513 0
-44 647 0
-44 651 0
-44 541 0
-44 893 0
-44 843 0
-45 957 0
-45 769 0
-45 754 0
-45 813 0
-45 736 0
-45 874 0
-45 547 0
-45 510 0
-46 927 0
-46 666 0
-46 700 0
-46 504 0
-46 680 0
-46 552 0
-46 989 0
-47 851 0
-47 823 0
-47 752 0
-47 589 0
-47 551 0
-47 643 0
-47 677 0
-47 740 0
-47 654 0
-47 537 0
-47 645 0
-48 926 0
-48 908 0
-48 801 0
-48 758 0
-48 856 0
-48 610 0
-48 729 0
-49 582 0
-49 950 0
-49 834 0
-49 991 0
-49 739 0
-50 826 0
-50 748 0
-50 542 0
-50 936 0
-50 963 0
-51 823 0
-51 533 0
-51 777 0
-51 624 0
-51 552 0
-51 513 0
-51 569 0
-51 778 0
-51 701 0
-52 850 0
-52 619 0
-52 783 0
-52 686 0
-52 939 0
-52 647 0
-52 696 0
-52 611 0
-53 793 0
-53 807 0
-53 881 0
-53 589 0
-53 601 0
-53 513 0
-53 942 0
-53 622 0
-54 914 0
-54 974 0
-54 690 0
-54 658 0
-54 681 0
-54 542 0
-54 512 0
-54 628 0
-54 903 0
-54 696 0
-55 837 0
-55 708 0
-55 982 0
-55 957 0
-55 994 0
-55 690 0
-55 952 0
-55 606 0
-55 560 0
-55 962 0
-55 801 0
-55 620 0
-56 670 0
-56 767 0
-56 887 0
-56 904 0
-56 946 0
-56 633 0
-56 524 0
-56 553 0
-56 534 0
-56 503 0
-57 836 0
-57 796 0
-57 801 0
-57 749 0
-57 765 0
-57 934 0
-57 780 0
-57 725 0
-57 562 0
-57 517 0
-57 872 0
-57 502 0
-57 980 0
-58 772 0
-58 666 0
-58 679 0
-58 554 0
-58 826 0
-58 546 0
-58 515 0
-58 590 0
-59 592 0
-59 538 0
-60 627 0
-60 890 0
-60 935 0
-60 549 0
-60 736 0
-60 558 0
-60 967 0
-61 901 0
-61 851 0
-61 602 0
-61 669 0
-61 583 0
-61 530 0
-61 668 0
-61 955 0
-61 890 0
-62 979 0
-62 803 0
-62 936 0
-62 814 0
-62 900 0
-62 809 0
-62 969 0
-62 542 0
-62 852 0
-62 591 0
-62 632 0
-62 649 0
-62 517 0
-62 742 0
-62 990 0
-63 729 0
-63 744 0
-63 699 0
-63 629 0
-63 546 0
-63 571 0
-63 817 0
-63 566 0
-63 552 0
-63 683 0
-63 542 0
-64 766 0
-64 724 0
-64 995 0
-64 702 0
-64 817 0
-64 615 0
-64 570 0
-64 965 0
-64 923 0
-64 520 0
-65 985 0
-65 773 0
-65 860 0
-65 799 0
-65 501 0
-65 857 0
-65 692 0
-65 987 0
-65 510 0
-66 839 0
-66 636 0
-66 602 0
-66 591 0
-66 881 0
-66 967 0
-66 946 0
-66 720 0
-66 573 0
-67 858 0
-67 647 0
-67 575 0
-67 524 0
-67 520 0
-67 941 0
-68 959 0
-68 553 0
-68 965 0
-68 689 0
-68 827 0
-68 861 0
-68 524 0
-68 649 0
-68 672 0
-68 551 0
-68 523 0
-68 616 0
-68 542 0
-69 716 0
-69 585 0
-69 590 0
-69 961 0
-69 563 0
-69 873 0
-70 617 0
-70 606 0
-70 674 0
-70 764 0
-70 628 0
-70 975 0
-70 567 0
-71 853 0
-71 809 0
-71 912 0
-71 778 0
-71 714 0
-71 559 0
-71 631 0
-71 657 0
-71 960 0
-71 651 0
-71 649 0
-72 559 0
-72 590 0
-72 535 0
-72 803 0
-72 564 0
-72 575 0
-72 567 0
-72 839 0
-72 910 0
-72 851 0
-73 886 0
-73 900 0
-73 884 0
-73 564 0
-74 891 0
-74 597 0
-74 736 0
-74 744 0
-74 567 0
-74 537 0
-74 558 0
-74 538 0
-74 681 0
-74 989 0
-74 582 0
-74 823 0
-75 615 0
-75 631 0
-75 546 0
-75 913 0
-75 807 0
-75 923 0
-76 644 0
-76 578 0
-76 581 0
-76 599 0
-76 613 0
-76 570 0
-77 820 0
-77 617 0
-77 588 0
-77 660 0
-77 845 0
-77 645 0
-78 797 0
-78 875 0
-78 610 0
-78 589 0
-78 520 0
-78 602 0
-78 982 0
-78 801 0
-78 531 0
-79 838 0
-79 629 0
-79 567 0
-79 539 0
-79 721 0
-79 791 0
-79 818 0
-80 898 0
-80 578 0
-80 596 0
-80 785 0
-80 525 0
-80 889 0
-81 891 0
-81 612 0
-81 688 0
-81 540 0
-81 788 0
-81 926 0
-81 550 0
-81 708 0
-82 766 0
-82 865 0
-82 953 0
-82 959 0
-82 682 0
-82 926 0
-82 660 0
-82 966 0
-83 559 0
-83 532 0
-83 988 0
-83 942 0
-84 853 0
-84 549 0
-84 569 0
-84 733 0
-84 804 0
-84 881 0
-84 590 0
-84 851 0
-84 796 0
-84 886 0
-85 765 0
-85 834 0
-85 886 0
-85 990 0
-85 986 0
-85 690 0
-85 880 0
-85 541 0
-85 580 0
-86 841 0
-86 883 0
-86 620 0
-86 820 0
-86 808 0
-86 814 0
-86 607 0
-87 866 0
-87 724 0
-87 580 0
-87 794 0
-87 582 0
-87 653 0
-87 976 0
-87 960 0
-87 727 0
-88 887 0
-88 653 0
-88 514 0
-88 685 0
-88 734 0
-88 980 0
-88 626 0
-89 805 0
-89 729 0
-89 934 0
-89 824 0
-89 654 0
-89 984 0
-89 661 0
-89 980 0
-89 946 0
-89 727 0
-90 806 0
-90 851 0
-90 617 0
-90 817 0
-90 574 0
-90 536 0
-90 725 0
-90 914 0
-90 902 0
-90 546 0
-90 790 0
-91 945 0
-91 989 0
-91 586 0
-91 966 0
-91 910 0
-91 920 0
-91 697 0
-91 600 0
-92 892 0
-92 868 0
-92 568 0
-92 964 0
-92 932 0
-92 589 0
-93 655 0
-93 851 0
-93 525 0
-93 923 0
-93 761 0
-93 791 0
-93 758 0
-93 759 0
-94 971 0
-94 624 0
-94 875 0
-94 616 0
-94 603 0
-94 527 0
-94 704 0
-94 549 0
-94 680 0
-94 839 0
-95 931 0
-95 816 0
-95 918 0
-95 629 0
-95 536 0
-95 567 0
-95 699 0
-96 705 0
-96 673 0
-96 660 0
-96 784 0
-96 872 0
-96 904 0
-96 686 0
-97 987 0
-97 557 0
-97 690 0
-97 640 0
-97 613 0
-97 702 0
-97 709 0
-97 561 0
-97 733 0
-97 516 0
-98 836 0
-98 799 0
-98 755 0
-98 868 0
-98 613 0
-98 573 0
-98 772 0
-98 533 0
-98 805 0
-99 505 0
-99 504 0
-99 932 0
-99 806 0
-99 896 0
-99 548 0
-99 937 0
-99 913 0
-100 666 0
-101 922 0
-101 885 0
-101 691 0
-101 627 0
-101 636 0
-101 641 0
-101 716 0
-101 869 0
-101 917 0
-101 739 0
-102 847 0
-102 667 0
-102 623 0
-102 616 0
-102 518 0
-102 621 0
-102 960 0
-102 794 0
-102 760 0
-102 879 0
-102 511 0
-103 743 0
-103 777 0
-103 557 0
-103 632 0
-103 1000 0
-103 669 0
-103 978 0
-103 973 0
-103 591 0
-103 923 0
-103 728 0
-103 922 0
-104 863 0
-104 979 0
-105 924 0
-105 689 0
-105 508 0
-105 880 0
-105 670 0
-105 592 0
-105 781 0
-105 626 0
-105 818 0
-105 634 0
-106 819 0
-106 873 0
-106 608 0
-106 634 0
-106 621 0
-106 575 0
-106 679 0
-106 775 0
-107 545 0
-107 703 0
-107 736 0
-107 618 0
-107 603 0
-107 616 0
-107 573 0
-107 968 0
-107 855 0
-107 933 0
-108 745 0
-108 729 0
-108 967 0
-108 761 0
-108 993 0
-108 620 0
-108 888 0
-108 627 0
-108 520 0
-108 989 0
-109 960 0
-109 770 0
-109 633 0
-109 740 0
-109 821 0
-109 978 0
-109 654 0
-109 505 0
-109 514 0
-109 642 0
-109 535 0
-109 534 0
-109 659 0
-110 749 0
-110 889 0
-110 818 0
-110 763 0
-110 760 0
-110 965 0
-110 997 0
-111 963 0
-111 893 0
-111 973 0
-111 835 0
-111 726 0
-111 805 0
-111 758 0
-112 532 0
-112 965 0
-112 894 0
-112 931 0
-112 723 0
-112 600 0
-112 866 0
-112 887 0
-112 968 0
-113 993 0
-113 739 0
-113 640 0
-113 594 0
-113 999 0
-113 996 0
-113 680 0
-113 558 0
-113 532 0
-114 707 0
-114 976 0
-114 572 0
-114 848 0
-115 903 0
-115 747 0
-115 779 0
-115 822 0
-115 511 0
-115 807 0
-115 803 0
-116 855 0
-116 683 0
-116 733 0
-116 992 0
-116 770 0
-116 688 0
-116 631 0
-116 883 0
-116 530 0
-116 538 0
-116 634 0
-116 531 0
-116 586 0
-117 689 0
-117 551 0
-117 871 0
-117 965 0
-117 731 0
-117 803 0
-117 587 0
-117 980 0
-117 713 0
-117 923 0
-117 958 0
-117 981 0
-118 725 0
-118 704 0
-118 861 0
-118 642 0
-118 622 0
-118 542 0
-118 741 0
-119 984 0
-119 990 0
-119 909 0
-119 720 0
-119 924 0
-119 664 0
-119 893 0
-119 721 0
-120 768 0
-120 766 0
-120 653 0
-121 811 0
-121 629 0
-121 830 0
-121 622 0
-121 820 0
-121 510 0
-122 903 0
-122 681 0
-122 530 0
-122 541 0
-122 537 0
-122 963 0
-122 990 0
-122 805 0
-122 536 0
-122 696 0
-123 536 0
-123 533 0
-123 856 0
-123 600 0
-123 676 0
-123 694 0
-124 919 0
-124 902 0
-124 863 0
-124 725 0
-124 704 0
-124 637 0
-124 640 0
-124 666 0
-124 544 0
-124 559 0
-124 609 0
-125 903 0
-125 844 0
-125 943 0
-125 525 0
-125 653 0
-125 641 0
-125 588 0
-125 666 0
-125 793 0
-126 865 0
-126 776 0
-126 572 0
-126 722 0
-126 536 0
-126 867 0
-126 688 0
-126 679 0
-126 506 0
-127 502 0
-127 965 0
-127 876 0
-127 682 0
-127 519 0
-127 764 0
-127 875 0
-127 759 0
-127 530 0
-127 733 0
-127 579 0
-128 934 0
-128 596 0
-128 661 0
-128 996 0
-128 508 0
-128 668 0
-128 540 0
-129 782 0
-129 779 0
-129 522 0
-129 503 0
-129 692 0
-129 854 0
-129 727 0
-129 799 0
-129 875 0
-130 686 0
-130 645 0
-130 992 0
-130 552 0
-130 638 0
-130 907 0
-130 517 0
-130 999 0
-130 856 0
-130 888 0
-130 504 0
-131 672 0
-131 546 0
-131 673 0
-131 977 0
-131 837 0
-131 797 0
-131 823 0
-131 912 0
-131 802 0
-131 764 0
-131 840 0
-132 758 0
-132 620 0
-132 659 0
-132 507 0
-132 807 0
-132 790 0
-132 988 0
-132 564 0
-132 973 0
-133 637 0
-133 568 0
-133 547 0
-133 816 0
-133 596 0
-133 509 0
-133 534 0
-133 991 0
-133 918 0
-134 916 0
-134 791 0
-134 978 0
-134 679 0
-134 772 0
-134 878 0
-134 730 0
-135 792 0
-135 551 0
-135 619 0
-135 948 0
-135 534 0
-135 507 0
-135 541 0
-136 851 0
-136 839 0
-136 816 0
-136 743 0
-136 603 0
-136 998 0
-136 648 0
-137 859 0
-137 795 0
-137 943 0
-137 581 0
-137 511 0
-137 559 0
-137 618 0
-138 733 0
-138 661 0
-138 713 0
-138 668 0
-138 611 0
-138 829 0
-139 609 0
-139 929 0
-139 705 0
-139 506 0
-140 974 0
-140 699 0
-140 572 0
-140 514 0
-140 674 0
-140 984 0
-141 796 0
-141 716 0
-141 792 0
-141 666 0
-141 956 0
-141 588 0
-141 967 0
-141 535 0
-142 766 0
-142 565 0
-142 638 0
-142 577 0
-142 544 0
-143 968 0
-143 823 0
-143 906 0
-143 765 0
-143 759 0
-143 863 0
-143 635 0
-143 876 0
-144 944 0
-144 710 0
-144 690 0
-144 677 0
-144 595 0
-144 584 0
-144 635 0
-144 662 0
-145 865 0
-145 820 0
-145 727 0
-145 551 0
-145 656 0
-145 719 0
-145 704 0
-145 926 0
-145 811 0
-146 745 0
-146 746 0
-146 723 0
-146 684 0
-146 634 0
-146 828 0
-146 528 0
-146 620 0
-147 694 0
-147 621 0
-147 618 0
-147 581 0
-147 792 0
-147 614 0
-147 926 0
-148 865 0
-148 848 0
-148 985 0
-148 789 0
-148 806 0
-148 645 0
-148 639 0
-148 797 0
-148 559 0
-148 936 0
-148 533 0
-149 600 0
-149 671 0
-149 504 0
-149 806 0
-149 628 0
-149 592 0
-149 584 0
-149 648 0
-149 622 0
-150 613 0
-150 735 0
-150 630 0
-150 653 0
-150 647 0
-150 882 0
-150 794 0
-150 845 0
-150 529 0
-151 853 0
-151 645 0
-151 834 0
-151 737 0
-151 859 0
-151 761 0
-152 905 0
-152 717 0
-152 943 0
-152 507 0
-153 851 0
-153 558 0
-153 804 0
-153 684 0
-153 758 0
-154 797 0
-154 677 0
-154 584 0
-154 981 0
-154 786 0
-154 936 0
-154 523 0
-154 550 0
-154 942 0
-155 919 0
-155 968 0
-155 652 0
-155 610 0
-155 681 0
-155 984 0
-155 505 0
-155 943 0
-156 770 0
-156 985 0
-156 529 0
-156 635 0
-156 740 0
-156 907 0
-156 567 0
-156 643 0
-157 675 0
-157 687 0
-157 568 0
-157 673 0
-157 753 0
-157 946 0
-157 501 0
-157 561 0
-158 823 0
-158 753 0
-158 792 0
-158 711 0
-158 724 0
-158 718 0
-158 516 0
-158 520 0
-158 684 0
-159 779 0
-159 558 0
-159 658 0
-159 635 0
-159 650 0
-159 519 0
-160 659 0
-160 589 0
-160 618 0
-160 521 0
-160 893 0
-160 972 0
-160 539 0
-161 542 0
-161 695 0
-161 617 0
-161 938 0
-161 656 0
-161 859 0
-162 608 0
-162 875 0
-162 804 0
-162 802 0
-162 589 0
-162 687 0
-162 739 0
-162 968 0
-162 663 0
-162 915 0
-162 528 0
-162 846 0
-162 515 0
-162 660 0
-163 906 0
-163 836 0
-163 710 0
-163 751 0
-163 713 0
-163 942 0
-163 832 0
-163 931 0
-163 686 0
-163 734 0
-163 538 0
-163 667 0
-164 855 0
-164 616 0
-164 818 0
-164 696 0
-164 795 0
-164 572 0
-164 798 0
-165 536 0
-165 678 0
-165 692 0
-165 556 0
-165 628 0
-165 854 0
-165 645 0
-165 586 0
-165 584 0
-165 977 0
-165 768 0
-166 881 0
-166 776 0
-166 689 0
-166 806 0
-166 748 0
-166 980 0
-167 957 0
-167 937 0
-167 741 0
-167 636 0
-167 774 0
-167 755 0
-167 634 0
-168 796 0
-168 900 0
-168 691 0
-168 661 0
-168 641 0
-168 970 0
-168 519 0
-168 982 0
-168 864 0
-168 840 0
-169 750 0
-169 639 0
-169 851 0
-169 517 0
-169 665 0
-169 674 0
-169 880 0
-170 765 0
-170 783 0
-170 572 0
-170 520 0
-170 519 0
-171 961 0
-171 948 0
-171 889 0
-171 726 0
-171 760 0
-171 630 0
-171 668 0
-171 979 0
-171 693 0
-171 725 0
-171 751 0
-171 563 0
-171 651 0
-172 941 0
-172 609 0
-172 702 0
-172 992 0
-172 905 0
-172 639 0
-172 864 0
-173 792 0
-173 708 0
-173 768 0
-173 876 0
-173 662 0
-173 692 0
-173 619 0
-173 670 0
-174 646 0
-174 922 0
-174 692 0
-174 559 0
-174 579 0
-174 688 0
-174 944 0
-174 600 0
-174 791 0
-174 936 0
-175 909 0
-175 878 0
-175 764 0
-175 579 0
-175 906 0
-175 679 0
-175 682 0
-176 693 0
-176 783 0
-176 608 0
-176 652 0
-176 882 0
-176 728 0
-176 588 0
-176 924 0
-177 753 0
-177 979 0
-177 892 0
-177 931 0
-177 608 0
-177 615 0
-177 569 0
-177 515 0
-177 574 0
-177 509 0
-178 847 0
-178 934 0
-178 734 0
-178 804 0
-178 904 0
-178 819 0
-178 970 0
-178 503 0
-178 774 0
-179 949 0
-179 936 0
-179 676 0
-179 994 0
-179 659 0
-179 645 0
-179 899 0
-180 712 0
-180 892 0
-180 634 0
-180 739 0
-180 807 0
-180 990 0
-180 517 0
-180 651 0
-180 509 0
-181 597 0
-181 775 0
-181 672 0
-181 756 0
-181 728 0
-181 913 0
-181 882 0
-181 687 0
-182 908 0
-182 903 0
-182 824 0
-182 793 0
-182 749 0
-182 614 0
-182 635 0
-182 662 0
-182 526 0
-183 803 0
-183 791 0
-183 867 0
-183 517 0
-183 669 0
-183 541 0
-183 558 0
-183 607 0
-184 782 0
-184 928 0
-184 610 0
-184 675 0
-184 777 0
-184 787 0
-184 781 0
-184 635 0
-184 657 0
-184 786 0
-185 836 0
-185 810 0
-185 874 0
-185 973 0
-185 574 0
-185 585 0
-185 617 0
-186 902 0
-186 551 0
-186 612 0
-186 735 0
-186 738 0
-186 825 0
-186 559 0
-187 825 0
-187 650 0
-187 784 0
-187 699 0
-187 588 0
-187 798 0
-188 619 0
-188 522 0
-188 807 0
-188 969 0
-188 848 0
-188 699 0
-189 837 0
-189 733 0
-189 720 0
-189 859 0
-189 554 0
-189 702 0
-189 664 0
-190 746 0
-190 680 0
-190 640 0
-190 566 0
-190 604 0
-190 775 0
-190 989 0
-191 613 0
-191 681 0
-191 556 0
-191 648 0
-191 572 0
-192 777 0
-192 790 0
-192 809 0
-192 820 0
-192 561 0
-192 742 0
-192 669 0
-192 970 0
-192 757 0
-192 924 0
-193 890 0
-193 910 0
-193 665 0
-193 616 0
-193 793 0
-193 619 0
-193 771 0
-193 963 0
-193 931 0
-194 859 0
-194 697 0
-194 747 0
-194 953 0
-194 766 0
-194 999 0
-194 503 0
-194 721 0
-195 798 0
-195 656 0
-195 658 0
-195 911 0
-195 501 0
-195 811 0
-195 502 0
-196 856 0
-196 724 0
-196 811 0
-196 996 0
-196 785 0
-196 760 0
-196 712 0
-196 851 0
-196 786 0
-197 845 0
-197 605 0
-197 887 0
-197 747 0
-197 841 0
-197 878 0
-197 527 0
-197 771 0
-197 956 0
-198 877 0
-198 676 0
-198 831 0
-198 749 0
-198 509 0
-198 555 0
-198 657 0
-198 646 0
-198 560 0
-199 906 0
-199 820 0
-199 770 0
-199 609 0
-199 664 0
-199 821 0
-199 665 0
-199 600 0
-200 804 0
-200 592 0
-200 917 0
-200 990 0
-200 863 0
-201 941 0
-201 838 0
-201 763 0
-201 611 0
-201 530 0
-201 917 0
-202 687 0
-202 563 0
-202 677 0
-202 935 0
-202 727 0
-202 881 0
-203 772 0
-203 835 0
-203 605 0
-203 927 0
-203 626 0
-203 516 0
-203 754 0
-203 727 0
-203 855 0
-203 909 0
-204 911 0
-204 945 0
-204 643 0
-204 715 0
-204 518 0
-205 671 0
-205 672 0
-205 709 0
-205 613 0
-205 509 0
-205 572 0
-205 962 0
-205 980 0
-205 948 0
-206 793 0
-206 594 0
-206 800 0
-206 836 0
-206 701 0
-206 998 0
-206 630 0
-206 989 0
-206 981 0
-206 655 0
-206 898 0
-206 990 0
-206 853 0
-206 976 0
-206 997 0
-207 556 0
-207 803 0
-207 931 0
-207 608 0
-207 509 0
-207 773 0
-207 940 0
-207 604 0
-207 742 0
-207 610 0
-208 913 0
-208 819 0
-208 601 0
-208 676 0
-208 622 0
-208 535 0
-208 821 0
-208 603 0
-209 827 0
-209 897 0
-209 658 0
-209 554 0
-209 625 0
-209 695 0
-209 739 0
-210 693 0
-210 804 0
-210 971 0
-210 740 0
-210 549 0
-210 567 0
-210 870 0
-210 756 0
-210 989 0
-210 932 0
-210 810 0
-210 658 0
-211 540 0
-211 919 0
-211 984 0
-211 829 0
-211 737 0
-211 666 0
-211 986 0
-211 917 0
-212 716 0
-212 689 0
-212 722 0
-212 989 0
-212 818 0
-213 932 0
-213 935 0
-213 724 0
-213 678 0
-213 582 0
-213 529 0
-214 895 0
-214 814 0
-214 600 0
-214 811 0
-214 824 0
-214 661 0
-214 899 0
-214 918 0
-214 762 0
-214 642 0
-215 809 0
-215 731 0
-215 679 0
-215 728 0
-215 612 0
-215 701 0
-215 568 0
-215 706 0
-215 523 0
-215 703 0
-215 941 0
-215 916 0
-215 541 0
-216 962 0
-216 611 0
-216 782 0
-216 971 0
-216 733 0
-216 734 0
-216 706 0
-216 687 0
-216 753 0
-216 993 0
-216 755 0
-217 872 0
-217 843 0
-217 904 0
-217 721 0
-217 637 0
-217 675 0
-217 512 0
-217 793 0
-217 965 0
-218 791 0
-218 801 0
-218 722 0
-218 819 0
-218 657 0
-218 726 0
-218 664 0
-218 694 0
-218 888 0
-218 905 0
-218 951 0
-218 906 0
-219 728 0
-219 654 0
-219 787 0
-219 952 0
-219 627 0
-220 841 0
-220 604 0
-220 825 0
-220 515 0
-220 701 0
-220 605 0
-220 707 0
-220 596 0
-220 838 0
-220 737 0
-220 947 0
-221 881 0
-221 976 0
-221 855 0
-221 891 0
-221 715 0
-221 830 0
-221 615 0
-221 806 0
-221 822 0
-222 831 0
-222 879 0
-222 549 0
-222 817 0
-223 863 0
-223 649 0
-223 827 0
-224 951 0
-224 849 0
-224 597 0
-224 680 0
-224 784 0
-224 663 0
-224 667 0
-224 543 0
-224 573 0
-225 547 0
-225 600 0
-225 994 0
-225 511 0
-225 577 0
-225 561 0
-225 653 0
-225 728 0
-225 723 0
-226 796 0
-226 865 0
-226 778 0
-226 708 0
-226 988 0
-226 625 0
-227 802 0
-227 900 0
-227 546 0
-227 614 0
-227 797 0
-227 965 0
-227 506 0
-228 755 0
-228 817 0
-228 609 0
-228 502 0
-228 818 0
-229 902 0
-229 954 0
-229 813 0
-229 712 0
-229 576 0
-229 747 0
-229 604 0
-229 884 0
-229 862 0
-230 836 0
-230 916 0
-230 569 0
-230 726 0
-230 577 0
-230 533 0
-230 620 0
-230 607 0
-231 610 0
-231 831 0
-231 771 0
-231 593 0
-231 705 0
-231 960 0
-232 685 0
-232 609 0
-232 639 0
-232 577 0
-232 514 0
-232 701 0
-232 730 0
-232 862 0
-232 974 0
-232 967 0
-233 671 0
-233 725 0
-233 738 0
-233 524 0
-233 714 0
-233 736 0
-233 625 0
-234 907 0
-234 744 0
-234 662 0
-235 914 0
-235 969 0
-235 855 0
-235 799 0
-235 702 0
-235 990 0
-235 523 0
-235 941 0
-235 705 0
-235 854 0
-235 872 0
-236 597 0
-236 683 0
-236 882 0
-236 732 0
-236 518 0
-236 603 0
-236 845 0
-236 860 0
-236 843 0
-237 891 0
-237 580 0
-237 621 0
-237 981 0
-237 607 0
-237 688 0
-238 957 0
-238 851 0
-238 930 0
-238 590 0
-238 750 0
-238 727 0
-238 983 0
-238 594 0
-238 588 0
-239 927 0
-239 949 0
-239 731 0
-239 992 0
-239 504 0
-239 502 0
-239 920 0
-239 661 0
-239 577 0
-239 629 0
-240 772 0
-240 620 0
-240 577 0
-240 730 0
-240 819 0
-240 743 0
-240 579 0
-240 539 0
-240 969 0
-240 852 0
-240 917 0
-240 952 0
-240 985 0
-241 537 0
-241 737 0
-241 753 0
-241 751 0
-241 953 0
-241 668 0
-241 518 0
-242 520 0
-242 829 0
-242 794 0
-242 670 0
-242 511 0
-242 827 0
-243 619 0
-243 521 0
-243 799 0
-244 801 0
-244 689 0
-244 646 0
-244 735 0
-244 812 0
-244 688 0
-244 909 0
-244 881 0
-244 713 0
-245 981 0
-245 577 0
-245 707 0
-245 900 0
-245 656 0
-245 1000 0
-245 961 0
-246 909 0
-246 703 0
-246 694 0
-247 743 0
-247 667 0
-247 677 0
-247 691 0
-247 712 0
-247 897 0
-247 931 0
-248 741 0
-248 702 0
-248 609 0
-248 869 0
-248 806 0
-248 831 0
-248 591 0
-248 864 0
-248 578 0
-248 518 0
-249 660 0
-249 958 0
-249 946 0
-249 935 0
-249 723 0
-249 996 0
-249 619 0
-249 689 0
-249 601 0
-249 817 0
-249 718 0
-250 942 0
-250 766 0
-250 809 0
-250 922 0
-250 625 0
-250 888 0
-250 641 0
-250 660 0
-250 596 0
-250 999 0
-250 642 0
-251 885 0
-251 854 0
-251 921 0
-251 946 0
-251 733 0
-251 883 0
-251 861 0
-251 825 0
-251 538 0
-251 541 0
-251 542 0
-251 654 0
-252 871 0
-252 738 0
-252 827 0
-252 593 0
-252 700 0
-252 545 0
-252 840 0
-252 578 0
-253 970 0
-253 761 0
-253 616 0
-253 630 0
-253 959 0
-254 786 0
-254 985 0
-254 812 0
-254 548 0
-254 790 0
-254 770 0
-254 719 0
-254 702 0
-254 586 0
-254 981 0
-254 729 0
-254 766 0
-254 645 0
-255 697 0
-255 535 0
-255 777 0
-255 785 0
-255 531 0
-255 856 0
-256 883 0
-256 882 0
-256 517 0
-256 884 0
-256 649 0
-256 705 0
-256 629 0
-256 987 0
-256 514 0
-256 959 0
-256 818 0
-256 831 0
-257 975 0
-257 889 0
-257 754 0
-257 616 0
-257 929 0
-257 621 0
-258 759 0
-258 898 0
-258 594 0
-258 843 0
-258 658 0
-258 871 0
-258 684 0
-258 996 0
-258 921 0
-259 633 0
-259 962 0
-259 699 0
-259 769 0
-259 953 0
-259 734 0
-259 615 0
-260 848 0
-260 787 0
-260 904 0
-260 968 0
-260 898 0
-260 987 0
-261 986 0
-261 854 0
-261 711 0
-261 912 0
-261 874 0
-261 810 0
-261 767 0
-261 506 0
-261 578 0
-261 618 0
-262 617 0
-262 836 0
-262 574 0
-262 832 0
-262 543 0
-262 962 0
-263 921 0
-263 606 0
-263 884 0
-263 560 0
-263 785 0
-263 541 0
-263 916 0
-263 760 0
-264 802 0
-264 757 0
-264 775 0
-264 750 0
-264 844 0
-264 698 0
-264 876 0
-264 665 0
-265 796 0
-265 555 0
-265 723 0
-265 749 0
-265 873 0
-265 604 0
-265 658 0
-265 566 0
-265 575 0
-266 619 0
-266 856 0
-266 540 0
-266 905 0
-266 592 0
-266 648 0
-266 512 0
-266 753 0
-267 749 0
-267 722 0
-267 751 0
-267 899 0
-267 611 0
-267 516 0
-267 575 0
-267 508 0
-268 592 0
-268 979 0
-268 715 0
-268 576 0
-268 669 0
-268 649 0
-269 965 0
-269 916 0
-269 838 0
-269 599 0
-269 932 0
-269 558 0
-269 789 0
-269 700 0
-269 874 0
-269 770 0
-269 649 0
-270 815 0
-270 504 0
-270 841 0
-270 625 0
-270 778 0
-270 994 0
-270 659 0
-270 983 0
-270 575 0
-271 768 0
-271 751 0
-271 760 0
-271 991 0
-271 614 0
-271 541 0
-271 617 0
-271 966 0
-272 902 0
-272 777 0
-272 993 0
-272 799 0
-272 886 0
-272 613 0
-272 658 0
-272 666 0
-273 862 0
-273 780 0
-273 777 0
-273 997 0
-273 602 0
-273 563 0
-273 552 0
-273 719 0
-273 659 0
-273 550 0
-273 774 0
-274 741 0
-274 950 0
-274 601 0
-274 909 0
-274 747 0
-274 888 0
-274 987 0
-274 686 0
-274 858 0
-274 845 0
-275 657 0
-275 507 0
-275 801 0
-275 796 0
-275 757 0
-275 873 0
-275 818 0
-275 697 0
-275 945 0
-275 856 0
-275 511 0
-276 850 0
-276 711 0
-276 991 0
-276 832 0
-276 831 0
-276 557 0
-276 724 0
-277 870 0
-277 553 0
-277 722 0
-277 563 0
-277 923 0
-277 669 0
-277 716 0
-278 823 0
-278 955 0
-278 602 0
-278 760 0
-278 502 0
-278 744 0
-278 793 0
-278 576 0
-279 983 0
-279 819 0
-279 877 0
-279 663 0
-279 709 0
-279 647 0
-279 769 0
-280 914 0
-280 923 0
-280 707 0
-280 506 0
-280 581 0
-280 964 0
-281 945 0
-281 720 0
-281 771 0
-281 752 0
-281 815 0
-281 851 0
-281 715 0
-281 991 0
-282 890 0
-282 824 0
-282 620 0
-282 915 0
-282 580 0
-282 940 0
-282 766 0
-283 976 0
-283 707 0
-283 683 0
-283 868 0
-283 694 0
-283 570 0
-283 1000 0
-284 846 0
-284 950 0
-284 515 0
-284 614 0
-284 806 0
-284 899 0
-284 695 0
-284 994 0
-284 548 0
-284 936 0
-285 756 0
-285 804 0
-285 674 0
-285 565 0
-285 988 0
-285 549 0
-285 907 0
-286 561 0
-286 606 0
-286 792 0
-286 640 0
-286 742 0
-286 703 0
-286 554 0
-286 854 0
-286 861 0
-286 761 0
-287 832 0
-287 783 0
-287 586 0
-287 655 0
-287 643 0
-287 694 0
-287 631 0
-288 922 0
-288 937 0
-288 830 0
-288 735 0
-288 858 0
-288 727 0
-288 721 0
-288 632 0
-288 828 0
-288 990 0
-288 536 0
-289 817 0
-289 995 0
-289 746 0
-290 904 0
-290 574 0
-290 636 0
-290 536 0
-290 541 0
-290 794 0
-290 753 0
-290 684 0
-290 688 0
-290 704 0
-290 618 0
-291 862 0
-291 728 0
-291 784 0
-291 663 0
-291 992 0
-292 816 0
-292 668 0
-292 815 0
-292 783 0
-292 868 0
-293 976 0
-293 886 0
-293 994 0
-293 777 0
-293 917 0
-293 554 0
-294 545 0
-294 633 0
-294 854 0
-294 881 0
-294 825 0
-295 789 0
-295 595 0
-295 714 0
-295 525 0
-295 712 0
-295 508 0
-295 610 0
-295 586 0
-295 921 0
-296 593 0
-296 654 0
-296 645 0
-296 519 0
-296 522 0
-296 782 0
-297 860 0
-297 502 0
-297 767 0
-297 700 0
-297 792 0
-297 561 0
-297 833 0
-297 916 0
-298 831 0
-298 817 0
-298 774 0
-298 502 0
-298 645 0
-298 723 0
-298 975 0
-298 794 0
-298 595 0
-298 591 0
-298 815 0
-299 801 0
-299 717 0
-299 760 0
-299 778 0
-299 691 0
-299 997 0
-299 864 0
-299 586 0
-300 769 0
-300 735 0
-300 592 0
-300 652 0
-300 779 0
-300 915 0
-300 576 0
-300 807 0
-301 932 0
-301 599 0
-301 952 0
-301 849 0
-301 797 0
-301 684 0
-301 933 0
-301 669 0
-301 817 0
-301 790 0
-301 552 0
-301 836 0
-302 973 0
-302 747 0
-302 854 0
-302 833 0
-302 731 0
-302 689 0
-302 677 0
-302 832 0
-302 876 0
-303 831 0
-303 869 0
-303 877 0
-303 761 0
-303 798 0
-303 604 0
-303 643 0
-303 702 0
-303 640 0
-304 816 0
-304 638 0
-304 866 0
-304 533 0
-304 512 0
-304 776 0
-304 836 0
-305 948 0
-305 783 0
-305 842 0
-305 557 0
-305 673 0
-305 562 0
-305 664 0
-305 715 0
-306 842 0
-306 772 0
-306 617 0
-306 618 0
-306 834 0
-306 588 0
-306 832 0
-306 915 0
-306 692 0
-307 612 0
-307 822 0
-307 732 0
-307 654 0
-307 758 0
-307 848 0
-307 854 0
-307 966 0
-307 676 0
-307 895 0
-307 579 0
-308 961 0
-308 759 0
-308 998 0
-308 656 0
-308 964 0
-308 678 0
-308 571 0
-309 948 0
-309 670 0
-309 703 0
-309 654 0
-309 977 0
-309 632 0
-309 633 0
-310 954 0
-310 929 0
-310 767 0
-310 734 0
-310 626 0
-310 608 0
-310 684 0
-310 793 0
-310 745 0
-310 881 0
-310 602 0
-310 612 0
-311 745 0
-311 941 0
-311 627 0
-311 867 0
-311 763 0
-311 765 0
-311 952 0
-312 712 0
-312 816 0
-312 787 0
-312 905 0
-312 718 0
-312 730 0
-312 695 0
-312 835 0
-312 574 0
-312 564 0
-313 958 0
-313 877 0
-313 743 0
-313 548 0
-313 726 0
-313 756 0
-313 890 0
-313 607 0
-313 597 0
-313 526 0
-314 909 0
-314 955 0
-314 870 0
-314 783 0
-314 745 0
-314 652 0
-314 784 0
-315 532 0
-315 971 0
-315 796 0
-315 928 0
-315 793 0
-315 605 0
-315 628 0
-315 518 0
-315 816 0
-316 769 0
-316 666 0
-316 762 0
-316 730 0
-316 686 0
-316 847 0
-316 794 0
-316 985 0
-316 629 0
-316 588 0
-317 627 0
-317 954 0
-318 694 0
-318 522 0
-318 804 0
-318 561 0
-318 901 0
-318 604 0
-318 625 0
-319 698 0
-319 659 0
-319 742 0
-319 596 0
-319 639 0
-319 579 0
-320 787 0
-320 821 0
-320 594 0
-320 1000 0
-320 673 0
-320 785 0
-320 613 0
-320 986 0
-320 984 0
-320 743 0
-320 966 0
-320 973 0
-321 910 0
-321 695 0
-321 536 0
-321 973 0
-322 762 0
-322 817 0
-322 871 0
-322 832 0
-322 712 0
-322 844 0
-322 572 0
-322 745 0
-322 998 0
-323 760 0
-323 828 0
-323 802 0
-323 971 0
-323 988 0
-323 629 0
-323 603 0
-323 785 0
-324 882 0
-324 869 0
-324 601 0
-324 691 0
-325 923 0
-325 623 0
-325 621 0
-325 928 0
-325 811 0
-326 807 0
-326 615 0
-326 748 0
-326 789 0
-326 588 0
-326 820 0
-326 769 0
-326 812 0
-326 827 0
-326 876 0
-326 997 0
-327 620 0
-327 994 0
-327 884 0
-327 513 0
-327 807 0
-327 517 0
-328 567 0
-328 577 0
-328 939 0
-328 892 0
-328 623 0
-328 836 0
-328 598 0
-328 844 0
-328 991 0
-328 840 0
-329 836 0
-329 689 0
-329 937 0
-329 787 0
-329 792 0
-329 817 0
-329 529 0
-329 549 0
-329 567 0
-329 639 0
-329 803 0
-330 867 0
-330 546 0
-330 516 0
-330 755 0
-330 710 0
-330 648 0
-331 845 0
-331 799 0
-331 813 0
-331 863 0
-331 859 0
-332 545 0
-332 994 0
-332 827 0
-332 569 0
-332 729 0
-332 517 0
-332 896 0
-333 556 0
-333 581 0
-333 922 0
-333 935 0
-333 895 0
-333 840 0
-333 636 0
-333 789 0
-333 747 0
-333 808 0
-334 983 0
-334 924 0
-334 753 0
-334 809 0
-334 931 0
-334 887 0
-334 655 0
-334 661 0
-334 930 0
-334 521 0
-334 692 0
-335 850 0
-335 613 0
-335 742 0
-335 967 0
-335 600 0
-336 550 0
-336 905 0
-336 604 0
-336 620 0
-336 831 0
-336 771 0
-336 766 0
-337 861 0
-337 953 0
-337 610 0
-337 635 0
-337 989 0
-337 645 0
-337 708 0
-338 969 0
-338 742 0
-338 930 0
-338 679 0
-338 827 0
-338 821 0
-338 522 0
-338 622 0
-338 503 0
-338 561 0
-338 667 0
-338 678 0
-338 994 0
-339 895 0
-339 862 0
-339 701 0
-339 716 0
-339 950 0
-339 647 0
-339 945 0
-339 995 0
-339 939 0
-340 928 0
-340 566 0
-340 825 0
-340 661 0
-340 620 0
-340 530 0
-340 878 0
-340 819 0
-340 642 0
-341 929 0
-341 948 0
-341 943 0
-341 602 0
-341 824 0
-341 577 0
-341 523 0
-342 584 0
-342 833 0
-342 766 0
-342 644 0
-342 847 0
-343 503 0
-343 863 0
-343 793 0
-343 701 0
-343 650 0
-343 808 0
-343 523 0
-343 586 0
-343 691 0
-344 863 0
-344 934 0
-344 750 0
-344 896 0
-344 925 0
-344 1000 0
-344 566 0
-344 611 0
-344 735 0
-344 858 0
-344 729 0
-345 694 0
-345 862 0
-345 828 0
-345 749 0
-345 870 0
-345 794 0
-345 896 0
-345 635 0
-345 679 0
-346 559 0
-346 741 0
-346 819 0
-346 598 0
-346 667 0
-346 513 0
-346 687 0
-347 925 0
-347 945 0
-347 883 0
-347 723 0
-347 941 0
-347 647 0
-347 561 0
-347 651 0
-347 850 0
-348 876 0
-348 638 0
-348 943 0
-348 719 0
-348 892 0
-348 839 0
-348 920 0
-348 785 0
-348 870 0
-348 580 0
-348 589 0
-349 834 0
-349 619 0
-349 713 0
-349 621 0
-349 994 0
-349 669 0
-350 892 0
-350 737 0
-350 887 0
-350 555 0
-350 611 0
-350 591 0
-350 664 0
-350 963 0
-351 513 0
-351 609 0
-351 624 0
-351 676 0
-351 784 0
-351 700 0
-352 509 0
-352 980 0
-352 918 0
-352 668 0
-352 831 0
-352 847 0
-352 995 0
-352 719 0
-352 713 0
-352 657 0
-353 896 0
-353 850 0
-353 856 0
-353 746 0
-353 744 0
-353 678 0
-353 803 0
-353 609 0
-353 639 0
-353 760 0
-354 642 0
-354 648 0
-354 842 0
-354 808 0
-354 580 0
-354 614 0
-354 982 0
-354 612 0
-355 840 0
-355 771 0
-355 532 0
-355 832 0
-355 576 0
-356 828 0
-356 886 0
-356 763 0
-356 760 0
-356 997 0
-356 578 0
-356 902 0
-356 810 0
-357 958 0
-357 860 0
-357 775 0
-357 778 0
-357 927 0
-357 868 0
-357 581 0
-358 953 0
-358 589 0
-358 885 0
-358 861 0
-358 719 0
-358 848 0
-358 609 0
-358 673 0
-359 986 0
-359 868 0
-359 930 0
-359 841 0
-359 589 0
-360 947 0
-360 812 0
-360 799 0
-360 569 0
-360 674 0
-360 837 0
-360 700 0
-361 949 0
-361 563 0
-361 962 0
-361 508 0
-362 631 0
-362 527 0
-362 854 0
-362 913 0
-362 746 0
-362 594 0
-362 762 0
-362 528 0
-362 822 0
-362 659 0
-362 575 0
-363 959 0
-363 881 0
-363 667 0
-363 852 0
-363 800 0
-364 946 0
-364 836 0
-364 503 0
-364 843 0
-364 953 0
-364 779 0
-364 704 0
-364 681 0
-365 966 0
-365 766 0
-365 856 0
-365 770 0
-365 756 0
-365 995 0
-365 687 0
-366 865 0
-366 813 0
-366 524 0
-366 847 0
-366 598 0
-366 810 0
-366 896 0
-366 506 0
-366 780 0
-367 803 0
-367 742 0
-367 661 0
-367 526 0
-367 783 0
-367 506 0
-368 532 0
-368 850 0
-368 575 0
-368 634 0
-368 666 0
-368 906 0
-368 799 0
-368 646 0
-369 911 0
-369 846 0
-369 917 0
-369 873 0
-369 655 0
-369 863 0
-369 849 0
-369 743 0
-369 805 0
-369 687 0
-369 543 0
-369 519 0
-369 528 0
-370 843 0
-370 934 0
-370 720 0
-370 695 0
-370 602 0
-370 521 0
-370 551 0
-370 596 0
-371 904 0
-371 867 0
-371 622 0
-371 602 0
-371 546 0
-371 774 0
-371 967 0
-372 890 0
-372 808 0
-372 792 0
-372 892 0
-372 746 0
-372 510 0
-372 880 0
-372 656 0
-372 745 0
-372 630 0
-373 588 0
-373 625 0
-373 542 0
-373 637 0
-373 975 0
-373 861 0
-373 796 0
-373 956 0
-374 919 0
-374 985 0
-374 910 0
-374 887 0
-374 676 0
-374 907 0
-374 646 0
-374 724 0
-374 736 0
-375 775 0
-375 585 0
-375 626 0
-375 705 0
-375 897 0
-375 842 0
-376 920 0
-376 977 0
-376 790 0
-376 518 0
-376 928 0
-376 967 0
-376 991 0
-376 850 0
-376 879 0
-376 517 0
-376 737 0
-377 982 0
-377 954 0
-377 599 0
-377 886 0
-377 521 0
-377 654 0
-378 689 0
-378 901 0
-378 559 0
-378 784 0
-378 703 0
-378 582 0
-378 571 0
-378 669 0
-378 791 0
-378 722 0
-379 837 0
-379 711 0
-379 875 0
-379 643 0
-379 858 0
-379 530 0
-379 672 0
-379 995 0
-380 800 0
-380 907 0
-380 536 0
-380 530 0
-380 827 0
-380 965 0
-380 732 0
-381 501 0
-381 786 0
-381 893 0
-381 727 0
-381 552 0
-382 855 0
-382 943 0
-382 675 0
-382 699 0
-382 874 0
-382 842 0
-382 652 0
-382 888 0
-383 954 0
-383 796 0
-383 860 0
-383 975 0
-383 790 0
-383 874 0
-383 576 0
-383 593 0
-383 631 0
-383 946 0
-384 786 0
-384 743 0
-384 568 0
-384 795 0
-384 538 0
-384 958 0
-384 518 0
-384 939 0
-385 639 0
-385 530 0
-385 540 0
-385 707 0
-385 640 0
-385 661 0
-385 546 0
-385 688 0
-386 915 0
-386 742 0
-386 579 0
-386 773 0
-386 727 0
-386 521 0
-387 707 0
-387 619 0
-387 603 0
-387 651 0
-387 681 0
-388 808 0
-388 776 0
-388 744 0
-388 635 0
-388 605 0
-389 869 0
-389 840 0
-389 895 0
-389 547 0
-389 662 0
-389 651 0
-389 593 0
-389 695 0
-390 864 0
-390 843 0
-390 840 0
-391 857 0
-391 899 0
-391 779 0
-391 623 0
-391 847 0
-391 927 0
-391 960 0
-391 784 0
-391 752 0
-391 968 0
-391 552 0
-391 834 0
-391 596 0
-392 845 0
-392 711 0
-392 766 0
-392 825 0
-392 986 0
-393 940 0
-393 819 0
-393 950 0
-393 770 0
-393 535 0
-393 805 0
-393 589 0
-393 925 0
-394 509 0
-394 986 0
-394 926 0
-394 960 0
-394 944 0
-394 940 0
-394 636 0
-394 916 0
-394 802 0
-395 939 0
-395 877 0
-395 824 0
-395 776 0
-395 777 0
-395 704 0
-395 652 0
-395 900 0
-396 923 0
-396 855 0
-396 778 0
-396 662 0
-396 767 0
-396 985 0
-396 708 0
-397 668 0
-397 637 0
-397 567 0
-397 987 0
-397 846 0
-397 510 0
-397 612 0
-398 584 0
-398 983 0
-398 962 0
-398 987 0
-398 527 0
-398 878 0
-398 582 0
-398 700 0
-398 632 0
-399 967 0
-399 829 0
-399 866 0
-399 867 0
-399 687 0
-399 971 0
-400 914 0
-400 863 0
-400 746 0
-400 878 0
-400 643 0
-400 527 0
-400 637 0
-400 549 0
-400 680 0
-400 706 0
-400 517 0
-400 736 0
-400 739 0
-401 895 0
-401 877 0
-401 697 0
-401 879 0
-401 871 0
-401 826 0
-401 502 0
-401 738 0
-401 578 0
-401 630 0
-402 924 0
-402 527 0
-402 929 0
-402 966 0
-402 865 0
-402 593 0
-402 640 0
-402 912 0
-402 857 0
-402 606 0
-402 692 0
-403 875 0
-403 724 0
-403 581 0
-403 596 0
-403 702 0
-403 874 0
-403 511 0
-404 507 0
-404 532 0
-404 730 0
-405 961 0
-405 919 0
-405 684 0
-405 910 0
-405 529 0
-406 786 0
-406 947 0
-406 783 0
-406 652 0
-406 787 0
-407 639 0
-407 926 0
-407 920 0
-407 944 0
-407 775 0
-407 889 0
-407 894 0
-407 543 0
-407 890 0
-407 964 0
-408 894 0
-408 955 0
-408 754 0
-408 620 0
-408 847 0
-408 943 0
-408 667 0
-408 738 0
-408 695 0
-408 658 0
-408 931 0
-408 786 0
-408 951 0
-409 615 0
-409 902 0
-409 987 0
-409 731 0
-409 816 0
-409 627 0
-409 601 0
-410 684 0
-410 955 0
-410 628 0
-410 521 0
-411 965 0
-411 782 0
-411 895 0
-411 916 0
-411 563 0
-411 603 0
-412 919 0
-412 918 0
-412 684 0
-412 510 0
-412 806 0
-412 527 0
-412 804 0
-412 556 0
-412 690 0
-412 539 0
-413 863 0
-413 925 0
-413 889 0
-413 604 0
-413 950 0
-413 520 0
-413 568 0
-414 924 0
-414 949 0
-414 918 0
-414 789 0
-414 797 0
-414 709 0
-414 537 0
-415 907 0
-415 900 0
-415 926 0
-415 832 0
-415 509 0
-415 543 0
-415 919 0
-415 773 0
-416 966 0
-416 930 0
-416 914 0
-416 910 0
-416 712 0
-416 623 0
-416 510 0
-416 516 0
-416 649 0
-416 901 0
-416 574 0
-416 816 0
-416 764 0
-417 911 0
-417 910 0
-417 936 0
-417 520 0
-417 913 0
-417 877 0
-417 642 0
-418 841 0
-418 908 0
-418 972 0
-418 690 0
-418 624 0
-418 730 0
-418 614 0
-418 514 0
-418 573 0
-418 574 0
-419 519 0
-419 984 0
-419 837 0
-419 918 0
-419 593 0
-419 731 0
-419 852 0
-419 713 0
-420 648 0
-420 539 0
-420 704 0
-420 900 0
-420 710 0
-420 508 0
-421 942 0
-421 761 0
-421 914 0
-421 595 0
-421 548 0
-421 551 0
-421 683 0
-421 910 0
-421 871 0
-421 674 0
-422 516 0
-422 986 0
-422 670 0
-422 899 0
-422 758 0
-422 595 0
-422 557 0
-422 747 0
-423 915 0
-423 912 0
-423 545 0
-423 662 0
-424 920 0
-424 808 0
-424 697 0
-424 929 0
-424 609 0
-424 986 0
-424 886 0
-424 935 0
-424 576 0
-425 540 0
-425 920 0
-425 912 0
-425 903 0
-425 501 0
-425 943 0
-425 640 0
-425 653 0
-425 829 0
-426 758 0
-426 925 0
-426 542 0
-426 847 0
-427 503 0
-427 942 0
-427 910 0
-427 971 0
-427 700 0
-427 697 0
-427 628 0
-427 762 0
-427 547 0
-428 922 0
-428 550 0
-428 747 0
-428 822 0
-428 888 0
-428 516 0
-429 525 0
-429 960 0
-429 922 0
-429 864 0
-429 842 0
-429 570 0
-429 855 0
-429 608 0
-429 887 0
-429 953 0
-429 904 0
-430 939 0
-430 608 0
-430 609 0
-430 699 0
-430 658 0
-430 507 0
-430 575 0
-430 594 0
-430 914 0
-430 640 0
-430 603 0
-431 547 0
-431 626 0
-431 856 0
-431 838 0
-431 817 0
-431 821 0
-431 739 0
-431 647 0
-431 924 0
-431 532 0
-431 943 0
-432 776 0
-432 727 0
-432 695 0
-432 559 0
-432 861 0
-432 701 0
-433 959 0
-433 949 0
-433 870 0
-433 742 0
-433 884 0
-433 689 0
-433 591 0
-433 594 0
-434 947 0
-434 828 0
-434 849 0
-434 931 0
-434 713 0
-434 677 0
-434 752 0
-434 555 0
-434 699 0
-435 789 0
-435 896 0
-435 599 0
-435 734 0
-435 566 0
-435 595 0
-435 665 0
-436 507 0
-436 776 0
-436 803 0
-436 728 0
-436 757 0
-436 723 0
-437 947 0
-437 581 0
-437 761 0
-437 636 0
-437 754 0
-437 861 0
-437 686 0
-437 585 0
-437 530 0
-438 957 0
-438 926 0
-438 898 0
-438 909 0
-438 890 0
-438 679 0
-438 934 0
-438 835 0
-438 834 0
-438 904 0
-438 955 0
-438 583 0
-438 503 0
-439 987 0
-439 951 0
-439 880 0
-439 964 0
-439 819 0
-439 970 0
-439 766 0
-439 904 0
-439 802 0
-440 863 0
-440 874 0
-440 709 0
-440 798 0
-440 670 0
-440 984 0
-440 660 0
-440 576 0
-440 588 0
-440 590 0
-440 778 0
-440 734 0
-440 575 0
-441 978 0
-441 859 0
-441 892 0
-441 609 0
-441 698 0
-441 957 0
-441 763 0
-441 841 0
-442 1000 0
-442 827 0
-442 846 0
-442 638 0
-442 861 0
-442 853 0
-442 737 0
-442 812 0
-443 941 0
-443 858 0
-443 727 0
-443 565 0
-443 516 0
-443 610 0
-443 829 0
-444 942 0
-444 533 0
-444 807 0
-444 994 0
-444 574 0
-444 584 0
-445 892 0
-445 861 0
-445 931 0
-445 902 0
-445 700 0
-445 841 0
-445 661 0
-445 571 0
-446 564 0
-446 581 0
-446 775 0
-446 538 0
-446 891 0
-446 670 0
-446 623 0
-446 858 0
-446 830 0
-446 661 0
-446 935 0
-446 633 0
-447 556 0
-447 624 0
-447 671 0
-447 722 0
-447 998 0
-447 840 0
-447 618 0
-448 631 0
-448 836 0
-448 917 0
-448 548 0
-448 996 0
-448 689 0
-448 788 0
-449 791 0
-449 936 0
-449 916 0
-449 840 0
-449 690 0
-449 932 0
-449 983 0
-449 918 0
-450 958 0
-450 928 0
-450 522 0
-450 628 0
-450 702 0
-450 543 0
-450 914 0
-450 695 0
-450 801 0
-450 988 0
-450 937 0
-450 525 0
-451 966 0
-451 928 0
-451 974 0
-451 686 0
-451 739 0
-451 904 0
-451 569 0
-452 916 0
-452 917 0
-452 906 0
-452 923 0
-452 600 0
-452 767 0
-452 556 0
-453 936 0
-453 641 0
-453 555 0
-453 556 0
-453 530 0
-453 657 0
-454 964 0
-454 932 0
-454 836 0
-454 840 0
-454 855 0
-454 947 0
-454 670 0
-454 540 0
-454 948 0
-454 826 0
-454 842 0
-454 515 0
-455 974 0
-455 942 0
-455 747 0
-455 923 0
-455 742 0
-455 625 0
-455 545 0
-455 572 0
-455 812 0
-456 701 0
-456 546 0
-456 594 0
-456 1000 0
-457 508 0
-457 955 0
-457 899 0
-457 720 0
-457 896 0
-457 858 0
-457 653 0
-457 967 0
-458 963 0
-458 932 0
-458 871 0
-458 733 0
-458 793 0
-458 915 0
-458 892 0
-458 515 0
-459 769 0
-459 729 0
-459 834 0
-459 773 0
-459 723 0
-459 849 0
-459 956 0
-459 691 0
-460 995 0
-460 827 0
-460 627 0
-460 867 0
-460 893 0
-460 996 0
-460 700 0
-461 539 0
-461 987 0
-461 951 0
-461 524 0
-461 955 0
-461 750 0
-461 525 0
-461 700 0
-461 894 0
-461 736 0
-462 922 0
-462 787 0
-462 702 0
-462 819 0
-463 801 0
-463 870 0
-463 858 0
-463 650 0
-463 818 0
-464 972 0
-464 681 0
-464 638 0
-464 520 0
-464 683 0
-465 958 0
-465 963 0
-465 825 0
-465 738 0
-465 732 0
-465 549 0
-466 983 0
-466 982 0
-466 963 0
-466 851 0
-466 917 0
-466 914 0
-466 562 0
-467 583 0
-467 779 0
-467 886 0
-467 782 0
-467 767 0
-467 555 0
-467 794 0
-467 792 0
-467 642 0
-468 828 0
-468 731 0
-468 564 0
-468 705 0
-468 746 0
-468 685 0
-468 941 0
-469 920 0
-469 985 0
-469 729 0
-469 783 0
-469 681 0
-469 622 0
-469 993 0
-470 937 0
-470 884 0
-470 694 0
-470 973 0
-470 835 0
-470 661 0
-470 856 0
-470 786 0
-470 508 0
-471 510 0
-471 959 0
-471 939 0
-471 997 0
-471 655 0
-471 589 0
-471 969 0
-472 986 0
-472 843 0
-472 704 0
-472 636 0
-472 513 0
-472 699 0
-472 573 0
-472 991 0
-472 639 0
-472 648 0
-472 933 0
-472 751 0
-473 507 0
-473 982 0
-473 886 0
-473 775 0
-473 846 0
-473 994 0
-473 806 0
-474 977 0
-474 906 0
-474 809 0
-474 716 0
-474 663 0
-474 791 0
-474 976 0
-474 556 0
-474 632 0
-474 731 0
-474 945 0
-474 897 0
-475 968 0
-475 925 0
-475 985 0
-475 531 0
-475 568 0
-475 997 0
-475 511 0
-475 715 0
-475 855 0
-475 665 0
-475 612 0
-475 521 0
-476 896 0
-476 569 0
-476 591 0
-476 968 0
-476 530 0
-477 964 0
-477 903 0
-477 875 0
-477 700 0
-477 709 0
-477 830 0
-478 873 0
-478 682 0
-478 797 0
-478 788 0
-478 944 0
-478 590 0
-478 879 0
-478 589 0
-479 956 0
-479 791 0
-479 643 0
-479 894 0
-479 875 0
-479 693 0
-479 551 0
-480 538 0
-480 987 0
-480 662 0
-480 593 0
-480 877 0
-480 835 0
-481 528 0
-481 984 0
-481 921 0
-481 746 0
-481 679 0
-481 849 0
-481 624 0
-482 504 0
-482 849 0
-482 619 0
-482 778 0
-482 900 0
-482 971 0
-482 527 0
-482 765 0
-482 762 0
-483 690 0
-483 720 0
-483 899 0
-483 735 0
-483 847 0
-483 984 0
-483 811 0
-483 731 0
-483 629 0
-483 549 0
-484 601 0
-484 677 0
-484 576 0
-484 634 0
-484 627 0
-485 951 0
-485 651 0
-485 689 0
-485 803 0
-485 691 0
-485 701 0
-485 526 0
-486 525 0
-486 930 0
-486 766 0
-486 830 0
-486 640 0
-487 570 0
-487 571 0
-487 903 0
-487 560 0
-487 511 0
-488 865 0
-488 844 0
-488 609 0
-488 831 0
-488 770 0
-488 650 0
-488 993 0
-488 578 0
-488 634 0
-489 772 0
-490 505 0
-490 833 0
-490 647 0
-491 800 0
-491 532 0
-491 509 0
-491 863 0
-491 838 0
-491 519 0
-491 748 0
-492 732 0
-492 558 0
-492 800 0
-492 509 0
-492 753 0
-492 769 0
-492 936 0
-492 766 0
-492 670 0
-492 897 0
-493 693 0
-493 872 0
-493 881 0
-493 685 0
-493 694 0
-493 635 0
-493 710 0
-494 639 0
-494 583 0
-495 578 0
-495 538 0
-495 913 0
-495 615 0
-495 583 0
-495 726 0
-495 897 0
-496 633 0
-496 569 0
-496 929 0
-496 595 0
-496 502 0
-496 972 0
-496 884 0
-496 663 0
-497 664 0
-497 702 0
-497 752 0
-497 948 0
-497 768 0
-497 751 0
-497 893 0
-497 996 0
-497 710 0
-498 560 0
-498 639 0
-498 781 0
-498 540 0
-498 902 0
-498 854 0
-498 760 0
-498 741 0
-498 861 0
-498 824 0
-498 774 0
-499 595 0
-499 998 0
-499 804 0
-499 700 0
-499 519 0
-499 581 0
-499 535 0
-499 534 0
-499 923 0
-499 609 0
-499 815 0
-499 763 0
-499 682 0
-500 518 0
-500 692 0
-500 648 0
-500 860 0
-500 600 0
-500 510 0
-500 895 0
-500 794 0
-500 525 0
-500 791 0
1 501 0
2 502 0
3 503 0
4 504 0
5 505 0
6 506 0
7 507 0
8 508 0
9 509 0
10 510 0
11 511 0
12 512 0
13 513 0
14 514 0
15 515 0
16 516 0
17 517 0
18 518 0
19 519 0
20 520 0
21 521 0
22 522 0
23 523 0
24 524 0
25 525 0
26 526 0
27 527 0
28 528 0
29 529 0
30 530 0
31 531 0
32 532 0
33 533 0
34 534 0
35 535 0
36 536 0
37 537 0
38 538 0
39 539 0
40 540 0
41 541 0
42 542 0
43 543 0
44 544 0
45 545 0
46 546 0
47 547 0
48 548 0
49 549 0
50 550 0
51 551 0
52 552 0
53 553 0
54 554 0
55 555 0
56 556 0
57 557 0
58 558 0
59 559 0
60 560 0
61 561 0
62 562 0
63 563 0
64 564 0
65 565 0
66 566 0
67 567 0
68 568 0
69 569 0
70 570 0
71 571 0
72 572 0
73 573 0
74 574 0
75 575 0
76 576 0
77 577 0
78 578 0
79 579 0
80 580 0
81 581 0
82 582 0
83 583 0
84 584 0
85 585 0
86 586 0
87 587 0
88 588 0
89 589 0
90 590 0
91 591 0
92 592 0
93 593 0
94 594 0
95 595 0
96 596 0
97 597 0
98 598 0
99 599 0
100 600 0
101 601 0
102 602 0
103 603 0
104 604 0
105 605 0
106 606 0
107 607 0
108 608 0
109 609 0
110 610 0
111 611 0
112 612 0
113 613 0
114 614 0
115 615 0
116 616 0
117 617 0
118 618 0
119 619 0
120 620 0
121 621 0
122 622 0
123 623 0
124 624 0
125 625 0
126 626 0
127 627 0
128 628 0
129 629 0
130 630 0
131 631 0
132 632 0
133 633 0
134 634 0
135 635 0
136 636 0
137 637 0
138 638 0
139 639 0
140 640 0
141 641 0
142 642 0
143 643 0
144 644 0
145 645 0
146 646 0
147 647 0
148 648 0
149 649 0
150 650 0
151 651 0
152 652 0
153 653 0
154 654 0
155 655 0
156 656 0
157 657 0
158 658 0
159 659 0
160 660 0
161 661 0
162 662 0
163 663 0
164 664 0
165 665 0
166 666 0
167 667 0
168 668 0
169 669 0
170 670 0
171 671 0
172 672 0
173 673 0
174 674 0
175 675 0
176 676 0
177 677 0
178 678 0
179 679 0
180 680 0
181 681 0
182 682 0
183 683 0
184 684 0
185 685 0
186 686 0
187 687 0
188 688 0
189 689 0
190 690 0
191 691 0
192 692 0
193 693 0
194 694 0
195 695 0
196 696 0
197 697 0
198 698 0
199 699 0
200 700 0
201 701 0
202 702 0
203 703 0
204 704 0
205 705 0
206 706 0
207 707 0
208 708 0
209 709 0
210 710 0
211 711 0
212 712 0
213 713 0
214 714 0
215 715 0
216 716 0
217 717 0
218 718 0
219 719 0
220 720 0
221 721 0
222 722 0
223 723 0
224 724 0
225 725 0
226 726 0
227 727 0
228 728 0
229 729 0
230 730 0
231 731 0
232 732 0
233 733 0
234 734 0
235 735 0
236 736 0
237 737 0
238 738 0
239 739 0
240 740 0
241 741 0
242 742 0
243 743 0
244 744 0
245 745 0
246 746 0
247 747 0
248 748 0
249 749 0
250 750 0
251 751 0
252 752 0
253 753 0
254 754 0
255 755 0
256 756 0
257 757 0
258 758 0
259 759 0
260 760 0
261 761 0
262 762 0
263 763 0
264 764 0
265 765 0
266 766 0
267 767 0
268 768 0
269 769 0
270 770 0
271 771 0
272 772 0
273 773 0
274 774 0
275 775 0
276 776 0
277 777 0
278 778 0
279 779 0
280 780 0
281 781 0
282 782 0
283 783 0
284 784 0
285 785 0
286 786 0
287 787 0
288 788 0
289 789 0
290 790 0
291 791 0
292 792 0
293 793 0
294 794 0
295 795 0
296 796 0
297 797 0
298 798 0
299 799 0
300 800 0
301 801 0
302 802 0
303 803 0
304 804 0
305 805 0
306 806 0
307 807 0
308 808 0
309 809 0
310 810 0
311 811 0
312 812 0
313 813 0
314 814 0
315 815 0
316 816 0
317 817 0
318 818 0
319 819 0
320 820 0
321 821 0
322 822 0
323 823 0
324 824 0
325 825 0
326 826 0
327 827 0
328 828 0
329 829 0
330 830 0
331 831 0
332 832 0
333 833 0
334 834 0
335 835 0
336 836 0
337 837 0
338 838 0
339 839 0
340 840 0
341 841 0
342 842 0
343 843 0
344 844 0
345 845 0
346 846 0
347 847 0
348 848 0
349 849 0
350 850 0
351 851 0
352 852 0
353 853 0
354 854 0
355 855 0
356 856 0
357 857 0
358 858 0
359 859 0
360 860 0
361 861 0
362 862 0
363 863 0
364 864 0
365 865 0
366 866 0
367 867 0
368 868 0
369 869 0
370 870 0
371 871 0
372 872 0
373 873 0
374 874 0
375 875 0
376 876 0
377 877 0
378 878 0
379 879 0
380 880 0
381 881 0
382 882 0
383 883 0
384 884 0
385 885 0
386 886 0
387 887 0
388 888 0
389 889 0
390 890 0
391 891 0
392 892 0
393 893 0
394 894 0
395 895 0
396 896 0
397 897 0
398 898 0
399 899 0
400 900 0
401 901 0
402 902 0
403 903 0
404 904 0
405 905 0
406 906 0
407 907 0
408 908 0
409 909 0
410 910 0
411 911 0
412 912 0
413 913 0
414 914 0
415 915 0
416 916 0
417 917 0
418 918 0
419 919 0
420 920 0
421 921 0
422 922 0
423 923 0
424 924 0
425 925 0
426 926 0
427 927 0
428 928 0
429 929 0
430 930 0
431 931 0
432 932 0
433 933 0
434 934 0
435 935 0
436 936 0
437 937 0
438 938 0
439 939 0
440 940 0
441 941 0
442 942 0
443 943 0
444 944 0
445 945 0
446 946 0
447 947 0
448 948 0
449 949 0
450 950 0
451 951 0
452 952 0
453 953 0
454 954 0
455 955 0
456 956 0
457 957 0
458 958 0
459 959 0
460 960 0
461 961 0
462 962 0
463 963 0
464 964 0
465 965 0
466 966 0
467 967 0
468 968 0
469 969 0
470 970 0
471 971 0
472 972 0
473 973 0
474 974 0
475 975 0
476 976 0
477 977 0
478 978 0
479 979 0
480 980 0
481 981 0
482 982 0
483 983 0
484 984 0
485 985 0
486 986 0
487 987 0
488 988 0
489 989 0
490 990 0
491 991 0
492 992 0
493 993 0
494 994 0
495 995 0
496 996 0
497 997 0
498 998 0
499 999 0
500 1000 0
397 0
