p cnf 460 4494
1 2 3 4 5 6 7 8 9 10 11 12 13 14 15 16 17 0
18 19 20 21 22 23 24 25 26 27 28 29 30 31 32 33 34 0
35 36 37 38 39 40 41 42 43 44 45 46 47 48 49 50 51 0
52 53 54 55 56 57 58 59 60 61 62 63 64 65 66 67 68 0
69 70 71 72 73 74 75 76 77 78 79 80 81 82 83 84 85 0
86 87 88 89 90 91 92 93 94 95 96 97 98 99 100 101 102 0
103 104 105 106 107 108 109 110 111 112 113 114 115 116 117 118 119 0
120 121 122 123 124 125 126 127 128 129 130 131 132 133 134 135 136 0
137 138 139 140 141 142 143 144 145 146 147 148 149 150 151 152 153 0
154 155 156 157 158 159 160 161 162 163 164 165 166 167 168 169 170 0
171 172 173 174 175 176 177 178 179 180 181 182 183 184 185 186 187 0
188 189 190 191 192 193 194 195 196 197 198 199 200 201 202 203 204 0
205 206 207 208 209 210 211 212 213 214 215 216 217 218 219 220 221 0
222 223 224 225 226 227 228 229 230 231 232 233 234 235 236 237 238 0
239 240 241 242 243 244 245 246 247 248 249 250 251 252 253 254 255 0
256 257 258 259 260 261 262 263 264 265 266 267 268 269 270 271 272 0
273 274 275 276 277 278 279 280 281 282 283 284 285 286 287 288 289 0
290 291 292 293 294 295 296 297 298 299 300 301 302 303 304 305 306 0
-1 -18 0
-1 -35 0
-1 -52 0
-1 -69 0
-1 -86 0
-1 -103 0
-1 -120 0
-1 -137 0
-1 -154 0
-1 -171 0
-1 -188 0
-1 -205 0
-1 -222 0
-1 -239 0
-1 -256 0
-1 -273 0
-1 -290 0
-18 -35 0
-18 -52 0
-18 -69 0
-18 -86 0
-18 -103 0
-18 -120 0
-18 -137 0
-18 -154 0
-18 -171 0
-18 -188 0
-18 -205 0
-18 -222 0
-18 -239 0
-18 -256 0
-18 -273 0
-18 -290 0
-35 -52 0
-35 -69 0
-35 -86 0
-35 -103 0
-35 -120 0
-35 -137 0
-35 -154 0
-35 -171 0
-35 -188 0
-35 -205 0
-35 -222 0
-35 -239 0
-35 -256 0
-35 -273 0
-35 -290 0
-52 -69 0
-52 -86 0
-52 -103 0
-52 -120 0
-52 -137 0
-52 -154 0
-52 -171 0
-52 -188 0
-52 -205 0
-52 -222 0
-52 -239 0
-52 -256 0
-52 -273 0
-52 -290 0
-69 -86 0
-69 -103 0
-69 -120 0
-69 -137 0
-69 -154 0
-69 -171 0
-69 -188 0
-69 -205 0
-69 -222 0
-69 -239 0
-69 -256 0
-69 -273 0
-69 -290 0
-86 -103 0
-86 -120 0
-86 -137 0
-86 -154 0
-86 -171 0
-86 -188 0
-86 -205 0
-86 -222 0
-86 -239 0
-86 -256 0
-86 -273 0
-86 -290 0
-103 -120 0
-103 -137 0
-103 -154 0
-103 -171 0
-103 -188 0
-103 -205 0
-103 -222 0
-103 -239 0
-103 -256 0
-103 -273 0
-103 -290 0
-120 -137 0
-120 -154 0
-120 -171 0
-120 -188 0
-120 -205 0
-120 -222 0
-120 -239 0
-120 -256 0
-120 -273 0
-120 -290 0
-137 -154 0
-137 -171 0
-137 -188 0
-137 -205 0
-137 -222 0
-137 -239 0
-137 -256 0
-137 -273 0
-137 -290 0
-154 -171 0
-154 -188 0
-154 -205 0
-154 -222 0
-154 -239 0
-154 -256 0
-154 -273 0
-154 -290 0
-171 -188 0
-171 -205 0
-171 -222 0
-171 -239 0
-171 -256 0
-171 -273 0
-171 -290 0
-188 -205 0
-188 -222 0
-188 -239 0
-188 -256 0
-188 -273 0
-188 -290 0
-205 -222 0
-205 -239 0
-205 -256 0
-205 -273 0
-205 -290 0
-222 -239 0
-222 -256 0
-222 -273 0
-222 -290 0
-239 -256 0
-239 -273 0
-239 -290 0
-256 -273 0
-256 -290 0
-273 -290 0
-2 -19 0
-2 -36 0
-2 -53 0
-2 -70 0
-2 -87 0
-2 -104 0
-2 -121 0
-2 -138 0
-2 -155 0
-2 -172 0
-2 -189 0
-2 -206 0
-2 -223 0
-2 -240 0
-2 -257 0
-2 -274 0
-2 -291 0
-19 -36 0
-19 -53 0
-19 -70 0
-19 -87 0
-19 -104 0
-19 -121 0
-19 -138 0
-19 -155 0
-19 -172 0
-19 -189 0
-19 -206 0
-19 -223 0
-19 -240 0
-19 -257 0
-19 -274 0
-19 -291 0
-36 -53 0
-36 -70 0
-36 -87 0
-36 -104 0
-36 -121 0
-36 -138 0
-36 -155 0
-36 -172 0
-36 -189 0
-36 -206 0
-36 -223 0
-36 -240 0
-36 -257 0
-36 -274 0
-36 -291 0
-53 -70 0
-53 -87 0
-53 -104 0
-53 -121 0
-53 -138 0
-53 -155 0
-53 -172 0
-53 -189 0
-53 -206 0
-53 -223 0
-53 -240 0
-53 -257 0
-53 -274 0
-53 -291 0
-70 -87 0
-70 -104 0
-70 -121 0
-70 -138 0
-70 -155 0
-70 -172 0
-70 -189 0
-70 -206 0
-70 -223 0
-70 -240 0
-70 -257 0
-70 -274 0
-70 -291 0
-87 -104 0
-87 -121 0
-87 -138 0
-87 -155 0
-87 -172 0
-87 -189 0
-87 -206 0
-87 -223 0
-87 -240 0
-87 -257 0
-87 -274 0
-87 -291 0
-104 -121 0
-104 -138 0
-104 -155 0
-104 -172 0
-104 -189 0
-104 -206 0
-104 -223 0
-104 -240 0
-104 -257 0
-104 -274 0
-104 -291 0
-121 -138 0
-121 -155 0
-121 -172 0
-121 -189 0
-121 -206 0
-121 -223 0
-121 -240 0
-121 -257 0
-121 -274 0
-121 -291 0
-138 -155 0
-138 -172 0
-138 -189 0
-138 -206 0
-138 -223 0
-138 -240 0
-138 -257 0
-138 -274 0
-138 -291 0
-155 -172 0
-155 -189 0
-155 -206 0
-155 -223 0
-155 -240 0
-155 -257 0
-155 -274 0
-155 -291 0
-172 -189 0
-172 -206 0
-172 -223 0
-172 -240 0
-172 -257 0
-172 -274 0
-172 -291 0
-189 -206 0
-189 -223 0
-189 -240 0
-189 -257 0
-189 -274 0
-189 -291 0
-206 -223 0
-206 -240 0
-206 -257 0
-206 -274 0
-206 -291 0
-223 -240 0
-223 -257 0
-223 -274 0
-223 -291 0
-240 -257 0
-240 -274 0
-240 -291 0
-257 -274 0
-257 -291 0
-274 -291 0
-3 -20 0
-3 -37 0
-3 -307 0
-20 -37 0
-20 -307 0
-37 -307 0
307 -54 0
307 -71 0
307 -308 0
-54 -71 0
-54 -308 0
-71 -308 0
308 -88 0
308 -105 0
308 -309 0
-88 -105 0
-88 -309 0
-105 -309 0
309 -122 0
309 -139 0
309 -310 0
-122 -139 0
-122 -310 0
-139 -310 0
310 -156 0
310 -173 0
310 -311 0
-156 -173 0
-156 -311 0
-173 -311 0
311 -190 0
311 -207 0
311 -312 0
-190 -207 0
-190 -312 0
-207 -312 0
312 -224 0
312 -241 0
312 -313 0
-224 -241 0
-224 -313 0
-241 -313 0
313 -258 0
313 -275 0
313 -292 0
-258 -275 0
-258 -292 0
-275 -292 0
-4 314 0
-21 315 0
-21 -314 0
-314 315 0
-38 316 0
-38 -315 0
-315 316 0
-55 317 0
-55 -316 0
-316 317 0
-72 318 0
-72 -317 0
-317 318 0
-89 319 0
-89 -318 0
-318 319 0
-106 320 0
-106 -319 0
-319 320 0
-123 321 0
-123 -320 0
-320 321 0
-140 322 0
-140 -321 0
-321 322 0
-157 323 0
-157 -322 0
-322 323 0
-174 324 0
-174 -323 0
-323 324 0
-191 325 0
-191 -324 0
-324 325 0
-208 326 0
-208 -325 0
-325 326 0
-225 327 0
-225 -326 0
-326 327 0
-242 328 0
-242 -327 0
-327 328 0
-259 329 0
-259 -328 0
-328 329 0
-276 330 0
-276 -329 0
-329 330 0
-293 -330 0
-5 331 0
-22 332 0
-22 -331 0
-331 332 0
-39 333 0
-39 -332 0
-332 333 0
-56 334 0
-56 -333 0
-333 334 0
-73 335 0
-73 -334 0
-334 335 0
-90 336 0
-90 -335 0
-335 336 0
-107 337 0
-107 -336 0
-336 337 0
-124 338 0
-124 -337 0
-337 338 0
-141 339 0
-141 -338 0
-338 339 0
-158 340 0
-158 -339 0
-339 340 0
-175 341 0
-175 -340 0
-340 341 0
-192 342 0
-192 -341 0
-341 342 0
-209 343 0
-209 -342 0
-342 343 0
-226 344 0
-226 -343 0
-343 344 0
-243 345 0
-243 -344 0
-344 345 0
-260 346 0
-260 -345 0
-345 346 0
-277 347 0
-277 -346 0
-346 347 0
-294 -347 0
-6 -23 0
-6 -40 0
-6 -57 0
-6 -74 0
-6 -91 0
-6 -108 0
-6 -125 0
-6 -142 0
-6 -159 0
-6 -176 0
-6 -193 0
-6 -210 0
-6 -227 0
-6 -244 0
-6 -261 0
-6 -278 0
-6 -295 0
-23 -40 0
-23 -57 0
-23 -74 0
-23 -91 0
-23 -108 0
-23 -125 0
-23 -142 0
-23 -159 0
-23 -176 0
-23 -193 0
-23 -210 0
-23 -227 0
-23 -244 0
-23 -261 0
-23 -278 0
-23 -295 0
-40 -57 0
-40 -74 0
-40 -91 0
-40 -108 0
-40 -125 0
-40 -142 0
-40 -159 0
-40 -176 0
-40 -193 0
-40 -210 0
-40 -227 0
-40 -244 0
-40 -261 0
-40 -278 0
-40 -295 0
-57 -74 0
-57 -91 0
-57 -108 0
-57 -125 0
-57 -142 0
-57 -159 0
-57 -176 0
-57 -193 0
-57 -210 0
-57 -227 0
-57 -244 0
-57 -261 0
-57 -278 0
-57 -295 0
-74 -91 0
-74 -108 0
-74 -125 0
-74 -142 0
-74 -159 0
-74 -176 0
-74 -193 0
-74 -210 0
-74 -227 0
-74 -244 0
-74 -261 0
-74 -278 0
-74 -295 0
-91 -108 0
-91 -125 0
-91 -142 0
-91 -159 0
-91 -176 0
-91 -193 0
-91 -210 0
-91 -227 0
-91 -244 0
-91 -261 0
-91 -278 0
-91 -295 0
-108 -125 0
-108 -142 0
-108 -159 0
-108 -176 0
-108 -193 0
-108 -210 0
-108 -227 0
-108 -244 0
-108 -261 0
-108 -278 0
-108 -295 0
-125 -142 0
-125 -159 0
-125 -176 0
-125 -193 0
-125 -210 0
-125 -227 0
-125 -244 0
-125 -261 0
-125 -278 0
-125 -295 0
-142 -159 0
-142 -176 0
-142 -193 0
-142 -210 0
-142 -227 0
-142 -244 0
-142 -261 0
-142 -278 0
-142 -295 0
-159 -176 0
-159 -193 0
-159 -210 0
-159 -227 0
-159 -244 0
-159 -261 0
-159 -278 0
-159 -295 0
-176 -193 0
-176 -210 0
-176 -227 0
-176 -244 0
-176 -261 0
-176 -278 0
-176 -295 0
-193 -210 0
-193 -227 0
-193 -244 0
-193 -261 0
-193 -278 0
-193 -295 0
-210 -227 0
-210 -244 0
-210 -261 0
-210 -278 0
-210 -295 0
-227 -244 0
-227 -261 0
-227 -278 0
-227 -295 0
-244 -261 0
-244 -278 0
-244 -295 0
-261 -278 0
-261 -295 0
-278 -295 0
-7 348 0
-24 349 0
-24 -348 0
-348 349 0
-41 350 0
-41 -349 0
-349 350 0
-58 351 0
-58 -350 0
-350 351 0
-75 352 0
-75 -351 0
-351 352 0
-92 353 0
-92 -352 0
-352 353 0
-109 354 0
-109 -353 0
-353 354 0
-126 355 0
-126 -354 0
-354 355 0
-143 356 0
-143 -355 0
-355 356 0
-160 357 0
-160 -356 0
-356 357 0
-177 358 0
-177 -357 0
-357 358 0
-194 359 0
-194 -358 0
-358 359 0
-211 360 0
-211 -359 0
-359 360 0
-228 361 0
-228 -360 0
-360 361 0
-245 362 0
-245 -361 0
-361 362 0
-262 363 0
-262 -362 0
-362 363 0
-279 364 0
-279 -363 0
-363 364 0
-296 -364 0
-8 365 0
-25 366 0
-25 -365 0
-365 366 0
-42 367 0
-42 -366 0
-366 367 0
-59 368 0
-59 -367 0
-367 368 0
-76 369 0
-76 -368 0
-368 369 0
-93 370 0
-93 -369 0
-369 370 0
-110 371 0
-110 -370 0
-370 371 0
-127 372 0
-127 -371 0
-371 372 0
-144 373 0
-144 -372 0
-372 373 0
-161 374 0
-161 -373 0
-373 374 0
-178 375 0
-178 -374 0
-374 375 0
-195 376 0
-195 -375 0
-375 376 0
-212 377 0
-212 -376 0
-376 377 0
-229 378 0
-229 -377 0
-377 378 0
-246 379 0
-246 -378 0
-378 379 0
-263 380 0
-263 -379 0
-379 380 0
-280 381 0
-280 -380 0
-380 381 0
-297 -381 0
-9 -26 0
-9 -43 0
-9 -382 0
-26 -43 0
-26 -382 0
-43 -382 0
382 -60 0
382 -77 0
382 -383 0
-60 -77 0
-60 -383 0
-77 -383 0
383 -94 0
383 -111 0
383 -384 0
-94 -111 0
-94 -384 0
-111 -384 0
384 -128 0
384 -145 0
384 -385 0
-128 -145 0
-128 -385 0
-145 -385 0
385 -162 0
385 -179 0
385 -386 0
-162 -179 0
-162 -386 0
-179 -386 0
386 -196 0
386 -213 0
386 -387 0
-196 -213 0
-196 -387 0
-213 -387 0
387 -230 0
387 -247 0
387 -388 0
-230 -247 0
-230 -388 0
-247 -388 0
388 -264 0
388 -281 0
388 -298 0
-264 -281 0
-264 -298 0
-281 -298 0
-10 389 0
-27 390 0
-27 -389 0
-389 390 0
-44 391 0
-44 -390 0
-390 391 0
-61 392 0
-61 -391 0
-391 392 0
-78 393 0
-78 -392 0
-392 393 0
-95 394 0
-95 -393 0
-393 394 0
-112 395 0
-112 -394 0
-394 395 0
-129 396 0
-129 -395 0
-395 396 0
-146 397 0
-146 -396 0
-396 397 0
-163 398 0
-163 -397 0
-397 398 0
-180 399 0
-180 -398 0
-398 399 0
-197 400 0
-197 -399 0
-399 400 0
-214 401 0
-214 -400 0
-400 401 0
-231 402 0
-231 -401 0
-401 402 0
-248 403 0
-248 -402 0
-402 403 0
-265 404 0
-265 -403 0
-403 404 0
-282 405 0
-282 -404 0
-404 405 0
-299 -405 0
-11 406 0
-28 407 0
-28 -406 0
-406 407 0
-45 408 0
-45 -407 0
-407 408 0
-62 409 0
-62 -408 0
-408 409 0
-79 410 0
-79 -409 0
-409 410 0
-96 411 0
-96 -410 0
-410 411 0
-113 412 0
-113 -411 0
-411 412 0
-130 413 0
-130 -412 0
-412 413 0
-147 414 0
-147 -413 0
-413 414 0
-164 415 0
-164 -414 0
-414 415 0
-181 416 0
-181 -415 0
-415 416 0
-198 417 0
-198 -416 0
-416 417 0
-215 418 0
-215 -417 0
-417 418 0
-232 419 0
-232 -418 0
-418 419 0
-249 420 0
-249 -419 0
-419 420 0
-266 421 0
-266 -420 0
-420 421 0
-283 422 0
-283 -421 0
-421 422 0
-300 -422 0
-12 -29 0
-12 -46 0
-12 -423 0
-29 -46 0
-29 -423 0
-46 -423 0
423 -63 0
423 -80 0
423 -424 0
-63 -80 0
-63 -424 0
-80 -424 0
424 -97 0
424 -114 0
424 -425 0
-97 -114 0
-97 -425 0
-114 -425 0
425 -131 0
425 -148 0
425 -426 0
-131 -148 0
-131 -426 0
-148 -426 0
426 -165 0
426 -182 0
426 -427 0
-165 -182 0
-165 -427 0
-182 -427 0
427 -199 0
427 -216 0
427 -428 0
-199 -216 0
-199 -428 0
-216 -428 0
428 -233 0
428 -250 0
428 -429 0
-233 -250 0
-233 -429 0
-250 -429 0
429 -267 0
429 -284 0
429 -301 0
-267 -284 0
-267 -301 0
-284 -301 0
-13 -30 0
-13 -47 0
-13 -430 0
-30 -47 0
-30 -430 0
-47 -430 0
430 -64 0
430 -81 0
430 -431 0
-64 -81 0
-64 -431 0
-81 -431 0
431 -98 0
431 -115 0
431 -432 0
-98 -115 0
-98 -432 0
-115 -432 0
432 -132 0
432 -149 0
432 -433 0
-132 -149 0
-132 -433 0
-149 -433 0
433 -166 0
433 -183 0
433 -434 0
-166 -183 0
-166 -434 0
-183 -434 0
434 -200 0
434 -217 0
434 -435 0
-200 -217 0
-200 -435 0
-217 -435 0
435 -234 0
435 -251 0
435 -436 0
-234 -251 0
-234 -436 0
-251 -436 0
436 -268 0
436 -285 0
436 -302 0
-268 -285 0
-268 -302 0
-285 -302 0
-14 -31 0
-14 -48 0
-14 -65 0
-14 -82 0
-14 -99 0
-14 -116 0
-14 -133 0
-14 -150 0
-14 -167 0
-14 -184 0
-14 -201 0
-14 -218 0
-14 -235 0
-14 -252 0
-14 -269 0
-14 -286 0
-14 -303 0
-31 -48 0
-31 -65 0
-31 -82 0
-31 -99 0
-31 -116 0
-31 -133 0
-31 -150 0
-31 -167 0
-31 -184 0
-31 -201 0
-31 -218 0
-31 -235 0
-31 -252 0
-31 -269 0
-31 -286 0
-31 -303 0
-48 -65 0
-48 -82 0
-48 -99 0
-48 -116 0
-48 -133 0
-48 -150 0
-48 -167 0
-48 -184 0
-48 -201 0
-48 -218 0
-48 -235 0
-48 -252 0
-48 -269 0
-48 -286 0
-48 -303 0
-65 -82 0
-65 -99 0
-65 -116 0
-65 -133 0
-65 -150 0
-65 -167 0
-65 -184 0
-65 -201 0
-65 -218 0
-65 -235 0
-65 -252 0
-65 -269 0
-65 -286 0
-65 -303 0
-82 -99 0
-82 -116 0
-82 -133 0
-82 -150 0
-82 -167 0
-82 -184 0
-82 -201 0
-82 -218 0
-82 -235 0
-82 -252 0
-82 -269 0
-82 -286 0
-82 -303 0
-99 -116 0
-99 -133 0
-99 -150 0
-99 -167 0
-99 -184 0
-99 -201 0
-99 -218 0
-99 -235 0
-99 -252 0
-99 -269 0
-99 -286 0
-99 -303 0
-116 -133 0
-116 -150 0
-116 -167 0
-116 -184 0
-116 -201 0
-116 -218 0
-116 -235 0
-116 -252 0
-116 -269 0
-116 -286 0
-116 -303 0
-133 -150 0
-133 -167 0
-133 -184 0
-133 -201 0
-133 -218 0
-133 -235 0
-133 -252 0
-133 -269 0
-133 -286 0
-133 -303 0
-150 -167 0
-150 -184 0
-150 -201 0
-150 -218 0
-150 -235 0
-150 -252 0
-150 -269 0
-150 -286 0
-150 -303 0
-167 -184 0
-167 -201 0
-167 -218 0
-167 -235 0
-167 -252 0
-167 -269 0
-167 -286 0
-167 -303 0
-184 -201 0
-184 -218 0
-184 -235 0
-184 -252 0
-184 -269 0
-184 -286 0
-184 -303 0
-201 -218 0
-201 -235 0
-201 -252 0
-201 -269 0
-201 -286 0
-201 -303 0
-218 -235 0
-218 -252 0
-218 -269 0
-218 -286 0
-218 -303 0
-235 -252 0
-235 -269 0
-235 -286 0
-235 -303 0
-252 -269 0
-252 -286 0
-252 -303 0
-269 -286 0
-269 -303 0
-286 -303 0
-15 -32 0
-15 -49 0
-15 -66 0
-15 -83 0
-15 -100 0
-15 -117 0
-15 -134 0
-15 -151 0
-15 -168 0
-15 -185 0
-15 -202 0
-15 -219 0
-15 -236 0
-15 -253 0
-15 -270 0
-15 -287 0
-15 -304 0
-32 -49 0
-32 -66 0
-32 -83 0
-32 -100 0
-32 -117 0
-32 -134 0
-32 -151 0
-32 -168 0
-32 -185 0
-32 -202 0
-32 -219 0
-32 -236 0
-32 -253 0
-32 -270 0
-32 -287 0
-32 -304 0
-49 -66 0
-49 -83 0
-49 -100 0
-49 -117 0
-49 -134 0
-49 -151 0
-49 -168 0
-49 -185 0
-49 -202 0
-49 -219 0
-49 -236 0
-49 -253 0
-49 -270 0
-49 -287 0
-49 -304 0
-66 -83 0
-66 -100 0
-66 -117 0
-66 -134 0
-66 -151 0
-66 -168 0
-66 -185 0
-66 -202 0
-66 -219 0
-66 -236 0
-66 -253 0
-66 -270 0
-66 -287 0
-66 -304 0
-83 -100 0
-83 -117 0
-83 -134 0
-83 -151 0
-83 -168 0
-83 -185 0
-83 -202 0
-83 -219 0
-83 -236 0
-83 -253 0
-83 -270 0
-83 -287 0
-83 -304 0
-100 -117 0
-100 -134 0
-100 -151 0
-100 -168 0
-100 -185 0
-100 -202 0
-100 -219 0
-100 -236 0
-100 -253 0
-100 -270 0
-100 -287 0
-100 -304 0
-117 -134 0
-117 -151 0
-117 -168 0
-117 -185 0
-117 -202 0
-117 -219 0
-117 -236 0
-117 -253 0
-117 -270 0
-117 -287 0
-117 -304 0
-134 -151 0
-134 -168 0
-134 -185 0
-134 -202 0
-134 -219 0
-134 -236 0
-134 -253 0
-134 -270 0
-134 -287 0
-134 -304 0
-151 -168 0
-151 -185 0
-151 -202 0
-151 -219 0
-151 -236 0
-151 -253 0
-151 -270 0
-151 -287 0
-151 -304 0
-168 -185 0
-168 -202 0
-168 -219 0
-168 -236 0
-168 -253 0
-168 -270 0
-168 -287 0
-168 -304 0
-185 -202 0
-185 -219 0
-185 -236 0
-185 -253 0
-185 -270 0
-185 -287 0
-185 -304 0
-202 -219 0
-202 -236 0
-202 -253 0
-202 -270 0
-202 -287 0
-202 -304 0
-219 -236 0
-219 -253 0
-219 -270 0
-219 -287 0
-219 -304 0
-236 -253 0
-236 -270 0
-236 -287 0
-236 -304 0
-253 -270 0
-253 -287 0
-253 -304 0
-270 -287 0
-270 -304 0
-287 -304 0
-16 437 0
-33 438 0
-33 -437 0
-437 438 0
-50 439 0
-50 -438 0
-438 439 0
-67 440 0
-67 -439 0
-439 440 0
-84 441 0
-84 -440 0
-440 441 0
-101 442 0
-101 -441 0
-441 442 0
-118 443 0
-118 -442 0
-442 443 0
-135 444 0
-135 -443 0
-443 444 0
-152 445 0
-152 -444 0
-444 445 0
-169 446 0
-169 -445 0
-445 446 0
-186 447 0
-186 -446 0
-446 447 0
-203 448 0
-203 -447 0
-447 448 0
-220 449 0
-220 -448 0
-448 449 0
-237 450 0
-237 -449 0
-449 450 0
-254 451 0
-254 -450 0
-450 451 0
-271 452 0
-271 -451 0
-451 452 0
-288 453 0
-288 -452 0
-452 453 0
-305 -453 0
-17 -34 0
-17 -51 0
-17 -454 0
-34 -51 0
-34 -454 0
-51 -454 0
454 -68 0
454 -85 0
454 -455 0
-68 -85 0
-68 -455 0
-85 -455 0
455 -102 0
455 -119 0
455 -456 0
-102 -119 0
-102 -456 0
-119 -456 0
456 -136 0
456 -153 0
456 -457 0
-136 -153 0
-136 -457 0
-153 -457 0
457 -170 0
457 -187 0
457 -458 0
-170 -187 0
-170 -458 0
-187 -458 0
458 -204 0
458 -221 0
458 -459 0
-204 -221 0
-204 -459 0
-221 -459 0
459 -238 0
459 -255 0
459 -460 0
-238 -255 0
-238 -460 0
-255 -460 0
460 -272 0
460 -289 0
460 -306 0
-272 -289 0
-272 -306 0
-289 -306 0
-30 -205 0
-62 -195 0
-127 -137 0
-202 -251 0
-59 -210 0
-11 -193 0
-100 -178 0
-92 -208 0
-164 -230 0
-82 -294 0
-151 -259 0
-111 -209 0
-133 -244 0
-135 -294 0
-28 -273 0
-118 -193 0
-99 -295 0
-128 -242 0
-197 -228 0
-160 -227 0
-94 -293 0
-22 -189 0
-147 -195 0
-108 -189 0
-128 -137 0
-119 -199 0
-114 -241 0
-94 -262 0
-201 -300 0
-58 -206 0
-92 -275 0
-79 -298 0
-166 -267 0
-203 -233 0
-15 -213 0
-108 -190 0
-199 -222 0
-11 -104 0
-150 -299 0
-10 -128 0
-101 -284 0
-95 -155 0
-84 -213 0
-100 -240 0
-48 -222 0
-140 -292 0
-66 -131 0
-30 -131 0
-152 -259 0
-81 -244 0
-31 -114 0
-80 -241 0
-12 -164 0
-255 -277 0
-118 -218 0
-116 -276 0
-67 -137 0
-22 -190 0
-59 -158 0
-79 -110 0
-91 -191 0
-34 -128 0
-47 -110 0
-65 -122 0
-84 -222 0
-4 -273 0
-183 -278 0
-25 -291 0
-59 -256 0
-142 -256 0
-204 -297 0
-26 -244 0
-51 -217 0
-113 -191 0
-110 -276 0
-109 -227 0
-148 -228 0
-168 -267 0
-80 -246 0
-12 -90 0
-32 -104 0
-146 -242 0
-61 -293 0
-30 -258 0
-67 -224 0
-27 -107 0
-237 -242 0
-105 -155 0
-85 -108 0
-102 -189 0
-9 -259 0
-151 -217 0
-131 -273 0
-136 -176 0
-136 -227 0
-79 -247 0
-198 -223 0
-31 -92 0
-167 -267 0
-228 -293 0
-85 -106 0
-152 -301 0
-115 -131 0
-85 -211 0
-110 -121 0
-164 -205 0
-47 -223 0
-187 -273 0
-12 -171 0
-196 -292 0
-116 -242 0
-84 -245 0
-27 -297 0
-39 -189 0
-187 -257 0
-79 -256 0
-43 -108 0
-47 -280 0
-134 -173 0
-79 -231 0
-153 -164 0
-25 -154 0
-14 -172 0
-168 -252 0
-119 -157 0
-158 -171 0
-49 -127 0
-60 -89 0
-182 -228 0
-118 -287 0
-78 -291 0
-202 -229 0
-34 -202 0
-6 -37 0
-24 -107 0
-34 -138 0
-221 -254 0
-234 -248 0
-234 -259 0
-196 -274 0
-29 -224 0
-40 -73 0
-101 -252 0
-118 -157 0
-237 -252 0
-14 -260 0
-20 -120 0
-95 -273 0
-24 -56 0
-102 -108 0
-169 -260 0
-133 -181 0
-193 -291 0
-32 -303 0
-93 -210 0
-4 -205 0
-102 -177 0
-119 -156 0
-179 -225 0
-270 -274 0
-58 -173 0
-39 -224 0
-96 -195 0
-27 -262 0
-80 -139 0
-51 -276 0
-17 -195 0
-44 -242 0
-51 -253 0
-13 -206 0
-25 -224 0
-55 -156 0
-9 -57 0
-16 -195 0
-144 -240 0
-23 -123 0
-136 -278 0
-31 -223 0
-146 -157 0
-117 -229 0
-105 -137 0
-79 -145 0
-136 -155 0
-84 -176 0
-85 -184 0
-96 -247 0
-26 -89 0
-75 -121 0
-167 -174 0
-199 -266 0
-101 -267 0
-30 -171 0
-34 -206 0
-220 -240 0
-17 -63 0
-208 -241 0
-99 -273 0
-13 -79 0
-14 -154 0
-33 -108 0
-153 -190 0
-57 -175 0
-7 -242 0
-131 -229 0
-210 -291 0
-209 -276 0
-58 -261 0
-210 -242 0
-185 -266 0
-108 -208 0
-20 -256 0
-16 -160 0
-127 -209 0
-80 -194 0
-10 -173 0
-57 -103 0
-181 -188 0
-71 -206 0
-84 -275 0
-43 -279 0
-128 -143 0
-63 -274 0
-24 -103 0
-282 -290 0
-8 -73 0
-58 -155 0
-99 -124 0
-63 -278 0
-11 -138 0
-57 -122 0
-136 -148 0
-167 -275 0
-68 -115 0
-73 -121 0
-94 -242 0
-124 -188 0
-233 -283 0
-150 -275 0
-11 -21 0
-170 -208 0
-15 -104 0
-220 -300 0
-26 -245 0
-114 -205 0
-41 -277 0
-117 -210 0
-60 -290 0
-87 -120 0
-238 -253 0
-12 -96 0
-212 -292 0
-81 -273 0
-272 -279 0
-60 -92 0
-67 -270 0
-45 -52 0
-85 -173 0
-166 -246 0
-219 -301 0
-50 -266 0
-15 -94 0
-168 -275 0
-186 -295 0
-203 -235 0
-34 -283 0
-117 -123 0
-111 -225 0
-7 -190 0
-29 -195 0
-200 -264 0
-182 -210 0
-65 -91 0
-33 -191 0
-9 -157 0
-44 -52 0
-76 -142 0
-287 -290 0
-218 -245 0
-165 -211 0
-28 -162 0
-136 -195 0
-50 -244 0
-110 -275 0
-7 -141 0
-39 -104 0
-119 -142 0
-33 -134 0
-50 -195 0
-177 -274 0
-48 -63 0
-161 -244 0
-228 -260 0
-58 -209 0
-46 -211 0
-118 -134 0
-214 -278 0
-11 -78 0
-248 -257 0
-165 -176 0
-130 -163 0
-7 -138 0
-92 -256 0
-152 -286 0
-238 -299 0
-67 -125 0
-230 -261 0
-63 -262 0
-66 -266 0
-116 -206 0
-218 -261 0
-73 -191 0
-124 -190 0
-248 -273 0
-169 -199 0
-32 -292 0
-66 -142 0
-17 -191 0
-117 -264 0
-32 -240 0
-76 -87 0
-202 -206 0
-13 -154 0
-215 -239 0
-127 -294 0
-150 -234 0
-101 -191 0
-252 -275 0
-49 -60 0
-33 -252 0
-75 -278 0
-17 -154 0
-22 -104 0
-4 -189 0
-15 -279 0
-10 -264 0
-133 -247 0
-165 -262 0
-67 -269 0
-32 -132 0
-50 -76 0
-7 -125 0
-152 -205 0
-121 -188 0
-152 -196 0
-132 -247 0
-170 -298 0
-25 -143 0
-108 -290 0
-119 -196 0
-68 -120 0
-48 -234 0
-27 -88 0
-65 -275 0
-138 -222 0
-168 -171 0
-167 -173 0
-134 -201 0
-14 -22 0
-34 -115 0
-111 -192 0
-157 -223 0
-34 -149 0
-45 -260 0
-31 -183 0
-31 -215 0
-93 -189 0
-150 -200 0
-33 -263 0
-117 -246 0
-16 -231 0
-110 -211 0
-48 -161 0
-34 -217 0
-203 -257 0
-200 -246 0
-7 -154 0
-60 -276 0
-48 -55 0
-98 -260 0
-39 -105 0
-47 -194 0
-30 -262 0
-30 -129 0
-119 -194 0
-208 -291 0
-97 -281 0
-186 -274 0
-208 -275 0
-49 -90 0
-184 -282 0
-236 -285 0
-202 -300 0
-244 -256 0
-23 -292 0
-7 -189 0
-107 -208 0
-116 -125 0
-140 -189 0
-26 -57 0
-66 -78 0
-119 -126 0
-160 -176 0
-160 -290 0
-164 -229 0
-248 -291 0
-175 -258 0
-220 -265 0
-195 -258 0
-96 -265 0
-177 -276 0
-48 -239 0
-49 -234 0
-161 -274 0
-51 -54 0
-65 -212 0
-50 -158 0
-17 -155 0
-113 -231 0
-48 -302 0
-220 -276 0
-51 -211 0
-34 -73 0
-288 -292 0
-92 -171 0
-60 -259 0
-144 -278 0
-9 -91 0
-244 -277 0
-33 -194 0
-93 -191 0
-32 -155 0
-43 -103 0
-262 -277 0
-5 -258 0
-13 -120 0
-95 -124 0
-271 -274 0
-221 -223 0
-84 -217 0
-138 -188 0
-220 -259 0
-48 -200 0
-82 -295 0
-17 -288 0
-235 -294 0
-63 -76 0
-136 -229 0
-41 -159 0
-32 -148 0
-255 -292 0
-211 -242 0
-41 -192 0
-75 -172 0
-115 -130 0
-24 -159 0
-64 -242 0
-151 -229 0
-81 -105 0
-68 -97 0
-50 -228 0
-203 -277 0
-216 -296 0
-203 -248 0
-79 -176 0
-184 -194 0
-85 -195 0
-168 -242 0
-187 -237 0
-55 -189 0
-22 -191 0
-54 -291 0
-166 -274 0
-23 -192 0
-169 -184 0
-65 -105 0
-113 -138 0
-31 -259 0
-10 -224 0
-114 -294 0
-152 -253 0
-113 -226 0
-82 -149 0
-44 -142 0
-8 -208 0
-184 -279 0
-206 -273 0
-191 -205 0
-175 -208 0
-80 -113 0
-45 -192 0
-27 -192 0
-164 -244 0
-144 -295 0
-109 -159 0
-32 -35 0
-33 -167 0
-68 -243 0
-64 -130 0
-116 -293 0
-99 -157 0
-74 -173 0
-61 -106 0
-114 -212 0
-27 -210 0
-34 -37 0
-84 -141 0
-265 -275 0
-22 -122 0
-101 -144 0
-178 -276 0
-46 -53 0
-31 -166 0
-147 -244 0
-180 -280 0
-12 -227 0
-33 -83 0
-214 -280 0
-135 -182 0
-101 -156 0
-217 -241 0
-133 -163 0
-260 -273 0
-216 -226 0
-117 -225 0
-34 -140 0
-33 -63 0
-15 -192 0
-99 -258 0
-27 -242 0
-181 -258 0
-24 -256 0
-178 -279 0
-185 -242 0
-186 -268 0
-135 -292 0
-204 -258 0
-28 -70 0
-31 -226 0
-110 -193 0
-130 -293 0
-139 -206 0
-135 -163 0
-251 -284 0
-31 -96 0
-59 -292 0
-67 -279 0
-215 -278 0
-228 -273 0
-149 -181 0
-218 -292 0
-241 -256 0
-63 -147 0
-119 -144 0
-46 -194 0
-250 -291 0
-200 -263 0
-183 -208 0
-131 -189 0
-100 -250 0
-93 -223 0
-136 -183 0
-46 -96 0
-6 -206 0
-83 -222 0
-96 -144 0
-68 -293 0
-148 -239 0
-221 -243 0
-48 -227 0
-201 -230 0
-33 -181 0
-58 -291 0
-132 -246 0
-32 -90 0
-47 -262 0
-85 -274 0
-215 -282 0
-68 -269 0
-116 -233 0
-115 -181 0
-98 -295 0
-134 -290 0
-193 -293 0
-49 -249 0
-33 -36 0
-33 -261 0
-114 -123 0
-79 -273 0
-49 -198 0
-96 -162 0
-96 -140 0
-16 -76 0
-219 -226 0
-206 -222 0
-248 -274 0
-243 -291 0
-129 -138 0
-20 -86 0
-203 -249 0
-136 -147 0
-8 -206 0
-49 -245 0
-152 -199 0
-13 -260 0
-49 -65 0
-112 -138 0
-202 -264 0
-34 -122 0
-75 -276 0
-33 -40 0
-64 -293 0
-68 -181 0
-33 -276 0
-99 -121 0
-175 -276 0
-251 -278 0
-152 -163 0
-63 -105 0
-126 -188 0
-49 -105 0
-130 -261 0
-135 -253 0
-210 -293 0
-59 -262 0
-50 -260 0
-75 -192 0
-51 -121 0
-81 -199 0
-26 -189 0
-115 -156 0
-13 -103 0
-160 -239 0
-139 -290 0
-11 -20 0
-48 -267 0
-234 -279 0
-101 -294 0
-97 -145 0
-197 -222 0
-98 -267 0
-285 -292 0
-98 -250 0
-47 -294 0
-34 -49 0
-150 -260 0
-131 -144 0
-22 -139 0
-235 -239 0
-238 -277 0
-185 -227 0
-167 -234 0
-10 -125 0
-115 -175 0
-61 -162 0
-245 -274 0
-117 -155 0
-178 -290 0
-46 -89 0
-26 -173 0
-125 -274 0
-219 -281 0
-44 -143 0
-43 -227 0
-101 -229 0
-145 -226 0
-85 -243 0
-145 -191 0
-16 -303 0
-146 -207 0
-34 -301 0
-281 -297 0
-180 -257 0
-118 -122 0
-130 -214 0
-67 -196 0
-95 -142 0
-34 -284 0
-149 -267 0
-180 -278 0
-65 -279 0
-114 -189 0
-33 -250 0
-65 -138 0
-101 -256 0
-167 -258 0
-14 -244 0
-153 -292 0
-84 -138 0
-135 -257 0
-42 -124 0
-48 -70 0
-85 -236 0
-186 -191 0
-68 -226 0
-39 -72 0
-145 -209 0
-116 -285 0
-32 -150 0
-97 -300 0
-85 -292 0
-56 -241 0
-8 -156 0
-136 -205 0
-181 -214 0
-131 -223 0
-122 -154 0
-47 -111 0
-142 -173 0
-42 -291 0
-247 -290 0
-46 -72 0
-44 -106 0
-56 -172 0
-72 -138 0
-36 -120 0
-115 -229 0
-68 -133 0
-95 -174 0
-77 -261 0
-180 -195 0
-76 -256 0
-204 -304 0
-81 -243 0
-133 -229 0
-28 -155 0
-118 -233 0
-68 -138 0
-264 -278 0
-31 -292 0
-99 -246 0
-76 -121 0
-66 -82 0
-84 -98 0
-2 -171 0
-78 -111 0
-95 -194 0
-26 -209 0
-26 -120 0
-183 -292 0
-150 -265 0
-85 -139 0
-17 -72 0
-133 -243 0
-128 -246 0
-198 -260 0
-186 -297 0
-92 -274 0
-40 -258 0
-31 -44 0
-28 -243 0
-111 -257 0
-88 -154 0
-112 -211 0
-31 -78 0
-185 -293 0
-131 -297 0
-180 -292 0
-272 -299 0
-33 -42 0
-162 -222 0
-203 -285 0
-47 -80 0
-233 -273 0
-152 -240 0
-4 -156 0
-186 -264 0
-151 -240 0
-13 -138 0
-101 -232 0
-100 -245 0
-55 -223 0
-42 -228 0
-64 -240 0
-67 -121 0
-178 -194 0
-65 -177 0
-238 -257 0
-96 -298 0
-128 -193 0
-175 -241 0
-132 -156 0
-199 -228 0
-77 -293 0
-13 -23 0
-33 -249 0
-64 -262 0
-84 -269 0
-176 -274 0
-84 -291 0
-127 -159 0
-119 -218 0
-17 -209 0
-51 -220 0
-95 -260 0
-178 -188 0
-30 -164 0
-8 -89 0
-47 -142 0
-14 -141 0
-74 -291 0
-266 -294 0
-135 -249 0
-31 -76 0
-161 -256 0
-80 -240 0
-94 -295 0
-49 -242 0
-44 -194 0
-16 -127 0
-134 -195 0
-46 -296 0
-85 -296 0
-50 -256 0
-164 -226 0
-13 -44 0
-62 -228 0
-51 -104 0
-210 -223 0
-106 -292 0
-148 -188 0
-189 -239 0
-26 -123 0
-92 -227 0
-47 -261 0
-84 -218 0
-32 -285 0
-73 -222 0
-33 -298 0
-9 -42 0
-114 -161 0
-22 -292 0
-132 -293 0
-99 -177 0
-233 -281 0
-45 -73 0
-34 -99 0
-119 -301 0
-67 -184 0
-252 -264 0
-152 -228 0
-38 -69 0
-235 -256 0
-149 -276 0
-136 -154 0
-44 -89 0
-170 -273 0
-158 -292 0
-118 -257 0
-102 -236 0
-8 -173 0
-67 -91 0
-200 -224 0
-45 -295 0
-201 -239 0
-17 -275 0
-28 -104 0
-168 -181 0
-126 -273 0
-204 -211 0
-96 -273 0
-247 -293 0
-17 -219 0
-135 -223 0
-157 -256 0
-26 -191 0
-180 -209 0
-170 -210 0
-95 -141 0
-235 -280 0
-131 -265 0
-149 -227 0
-91 -258 0
-129 -208 0
-232 -295 0
-161 -261 0
-175 -291 0
-65 -231 0
-56 -242 0
-220 -233 0
-268 -278 0
-14 -280 0
-11 -264 0
-165 -257 0
-30 -45 0
-8 -106 0
-96 -192 0
-106 -206 0
-57 -292 0
-102 -157 0
-99 -161 0
-10 -69 0
-60 -124 0
-221 -245 0
-27 -257 0
-252 -295 0
-59 -241 0
-252 -283 0
-246 -290 0
-215 -247 0
-134 -183 0
-43 -191 0
-34 -225 0
-102 -268 0
-64 -122 0
-62 -70 0
-133 -230 0
-78 -140 0
-57 -257 0
-202 -244 0
-50 -212 0
-17 -253 0
-162 -242 0
-99 -158 0
-170 -305 0
-88 -171 0
-45 -259 0
-100 -122 0
-110 -258 0
-117 -178 0
-17 -271 0
-9 -206 0
-130 -195 0
-133 -226 0
-48 -190 0
-45 -276 0
-15 -303 0
-15 -280 0
-230 -280 0
-40 -276 0
-251 -277 0
-23 -226 0
-197 -290 0
-164 -290 0
-47 -157 0
-82 -125 0
-65 -294 0
-76 -105 0
-25 -188 0
-63 -88 0
-58 -120 0
-68 -69 0
-200 -291 0
-12 -139 0
-221 -227 0
-133 -161 0
-32 -294 0
-167 -273 0
-197 -224 0
-166 -190 0
-219 -240 0
-232 -263 0
-65 -97 0
-31 -285 0
-17 -22 0
-180 -223 0
-29 -86 0
-184 -205 0
-10 -273 0
-15 -123 0
-80 -125 0
-221 -293 0
-148 -263 0
-152 -225 0
-65 -175 0
-75 -223 0
-238 -239 0
-201 -259 0
-27 -277 0
-200 -210 0
-25 -275 0
-152 -189 0
-14 -213 0
-195 -296 0
-81 -266 0
-98 -277 0
-63 -106 0
-216 -264 0
-32 -149 0
-215 -244 0
-78 -230 0
-196 -277 0
-135 -168 0
-80 -89 0
-175 -273 0
-83 -227 0
-164 -245 0
-100 -120 0
-216 -259 0
-56 -120 0
-107 -207 0
-217 -278 0
-285 -290 0
-90 -240 0
-173 -256 0
-153 -302 0
-34 -275 0
-43 -140 0
-101 -183 0
-48 -87 0
-128 -225 0
-113 -209 0
-124 -241 0
-30 -228 0
-111 -123 0
-94 -239 0
-148 -196 0
-180 -243 0
-48 -112 0
-41 -243 0
-85 -302 0
-105 -138 0
-116 -225 0
-113 -247 0
-42 -57 0
-233 -248 0
-32 -115 0
-97 -172 0
-45 -273 0
-17 -185 0
-34 -174 0
-136 -239 0
-83 -285 0
-116 -146 0
-170 -284 0
-181 -213 0
-102 -132 0
-135 -206 0
-83 -145 0
-98 -298 0
-75 -156 0
-54 -87 0
-13 -178 0
-160 -276 0
-83 -157 0
-16 -290 0
-13 -69 0
-33 -66 0
-75 -294 0
-16 -121 0
-12 -122 0
-130 -154 0
-118 -174 0
-118 -138 0
-244 -290 0
-80 -88 0
-49 -225 0
-251 -295 0
-203 -291 0
-191 -206 0
-10 -54 0
-68 -193 0
-100 -218 0
-15 -302 0
-262 -290 0
-51 -138 0
-183 -264 0
-153 -178 0
-28 -209 0
-7 -276 0
-150 -181 0
-31 -179 0
-63 -282 0
-130 -229 0
-12 -89 0
-161 -207 0
-34 -77 0
-108 -205 0
-169 -195 0
-111 -245 0
-168 -208 0
-142 -188 0
-29 -162 0
-164 -194 0
-230 -295 0
-21 -70 0
-41 -291 0
-109 -176 0
-216 -299 0
-16 -108 0
-96 -154 0
-6 -104 0
-232 -276 0
-85 -168 0
-58 -240 0
-8 -210 0
-101 -165 0
-63 -212 0
-119 -219 0
-64 -95 0
-114 -260 0
-170 -175 0
-186 -303 0
-146 -274 0
-164 -174 0
-112 -297 0
-65 -114 0
-117 -275 0
-33 -253 0
-208 -224 0
-132 -278 0
-71 -154 0
-73 -173 0
-34 -113 0
-146 -196 0
-74 -155 0
-234 -280 0
-99 -103 0
-145 -177 0
-16 -116 0
-236 -292 0
-83 -303 0
-7 -105 0
-220 -245 0
-3 -104 0
-107 -120 0
-61 -140 0
-95 -157 0
-16 -297 0
-45 -264 0
-68 -147 0
-62 -258 0
-32 -108 0
-99 -155 0
-152 -257 0
-163 -190 0
-34 -110 0
-97 -155 0
-22 -290 0
-98 -196 0
-48 -226 0
-117 -258 0
-105 -206 0
-46 -164 0
-48 -230 0
-30 -249 0
-14 -261 0
-76 -259 0
-98 -106 0
-32 -144 0
-67 -76 0
-48 -291 0
-117 -298 0
-16 -28 0
-169 -188 0
-10 -257 0
-67 -278 0
-94 -161 0
-12 -75 0
-250 -259 0
-95 -277 0
-60 -91 0
-251 -292 0
-227 -290 0
-99 -106 0
-114 -162 0
-65 -69 0
-251 -299 0
-76 -109 0
-40 -69 0
-202 -275 0
-31 -64 0
-165 -249 0
-100 -258 0
-78 -239 0
-57 -120 0
-49 -177 0
-212 -257 0
-236 -298 0
-232 -242 0
-98 -197 0
-114 -144 0
-179 -207 0
-15 -297 0
-43 -54 0
-30 -89 0
-89 -139 0
-27 -73 0
-72 -104 0
-16 -184 0
-48 -89 0
-33 -214 0
-251 -275 0
-30 -199 0
-45 -161 0
-29 -264 0
-203 -246 0
-88 -155 0
-24 -223 0
-133 -212 0
-28 -294 0
-100 -190 0
-24 -142 0
-31 -180 0
-13 -88 0
-111 -223 0
-7 -290 0
-123 -190 0
-193 -258 0
-26 -137 0
-98 -291 0
-102 -208 0
-117 -195 0
-185 -222 0
-61 -141 0
-115 -295 0
-110 -291 0
-169 -177 0
-59 -87 0
-67 -98 0
-9 -19 0
-51 -94 0
-17 -109 0
-33 -76 0
-50 -206 0
-110 -159 0
-46 -120 0
-54 -188 0
-102 -133 0
-82 -283 0
-31 -302 0
-51 -182 0
-73 -223 0
-151 -227 0
-164 -225 0
-93 -156 0
-10 -75 0
-24 -72 0
-125 -273 0
-20 -240 0
-34 -201 0
-163 -293 0
-165 -264 0
-224 -274 0
-88 -239 0
-267 -299 0
-14 -106 0
-80 -223 0
-204 -233 0
-10 -111 0
-96 -248 0
-113 -278 0
-49 -120 0
-161 -295 0
-15 -227 0
-101 -268 0
-187 -290 0
-28 -141 0
-14 -47 0
-216 -273 0
-128 -277 0
-83 -206 0
-101 -143 0
-83 -281 0
-80 -86 0
-13 -297 0
-96 -259 0
-79 -124 0
-168 -261 0
-13 -93 0
-95 -110 0
-178 -227 0
-144 -242 0
-7 -74 0
-5 -154 0
-4 -207 0
-106 -156 0
-14 -258 0
-201 -276 0
-219 -275 0
-34 -112 0
-168 -286 0
-60 -210 0
-183 -222 0
-16 -99 0
-215 -297 0
-270 -282 0
-94 -225 0
-51 -241 0
-166 -195 0
-50 -290 0
-109 -226 0
-152 -217 0
-237 -274 0
-97 -232 0
-113 -262 0
-204 -271 0
-56 -89 0
-110 -239 0
-253 -302 0
-93 -274 0
-12 -72 0
-112 -275 0
-195 -224 0
-31 -296 0
-118 -302 0
-81 -193 0
-16 -249 0
-260 -276 0
-135 -243 0
-49 -122 0
-127 -174 0
-51 -186 0
-56 -239 0
-230 -297 0
-43 -123 0
-81 -165 0
-31 -54 0
-68 -228 0
-8 -142 0
-204 -207 0
-32 -82 0
-119 -185 0
-235 -302 0
-27 -211 0
-204 -287 0
-5 -223 0
-42 -296 0
-135 -181 0
-28 -189 0
-133 -194 0
-11 -141 0
-153 -223 0
-85 -198 0
-68 -186 0
-144 -225 0
-115 -147 0
-163 -209 0
-264 -273 0
-50 -98 0
-126 -208 0
-47 -242 0
-42 -290 0
-83 -123 0
-60 -245 0
-135 -154 0
-100 -196 0
-50 -133 0
-97 -226 0
-11 -70 0
-3 -19 0
-13 -292 0
-65 -225 0
-197 -244 0
-145 -208 0
-134 -160 0
-29 -121 0
-32 -55 0
-98 -191 0
-84 -301 0
-47 -225 0
-82 -131 0
-10 -207 0
-45 -77 0
-41 -123 0
-201 -248 0
-165 -291 0
-233 -275 0
-111 -246 0
-248 -278 0
-204 -302 0
-82 -215 0
-136 -188 0
-142 -209 0
-85 -133 0
-43 -291 0
-82 -159 0
-43 -89 0
-197 -279 0
-65 -278 0
-29 -194 0
-32 -171 0
-99 -156 0
-131 -164 0
-100 -279 0
-101 -246 0
-60 -137 0
-197 -277 0
-238 -240 0
-33 -189 0
-33 -106 0
-68 -92 0
-236 -260 0
-11 -262 0
-253 -258 0
-203 -275 0
-6 -89 0
-83 -224 0
-141 -276 0
-202 -257 0
-128 -139 0
-119 -249 0
-10 -105 0
-149 -281 0
-48 -298 0
-229 -261 0
-30 -128 0
-61 -273 0
-272 -278 0
-72 -87 0
-198 -227 0
-50 -96 0
-63 -257 0
-30 -120 0
-159 -172 0
-152 -280 0
-216 -280 0
-7 -107 0
-130 -177 0
-55 -120 0
-28 -37 0
-146 -226 0
-225 -240 0
-33 -60 0
-68 -260 0
-26 -297 0
-82 -89 0
-203 -256 0
-130 -222 0
-30 -92 0
-46 -297 0
-254 -299 0
-286 -290 0
-83 -262 0
-134 -274 0
-169 -256 0
-111 -121 0
-67 -107 0
-187 -200 0
-183 -191 0
-131 -240 0
-32 -263 0
-73 -292 0
-49 -283 0
-114 -256 0
-33 -144 0
-66 -209 0
-62 -189 0
-264 -292 0
-85 -190 0
-62 -156 0
-64 -291 0
-115 -296 0
-112 -261 0
-234 -250 0
-85 -234 0
-29 -78 0
-213 -263 0
-28 -95 0
-22 -123 0
-173 -189 0
-5 -259 0
-160 -226 0
-82 -279 0
-119 -132 0
-83 -217 0
-54 -189 0
-119 -242 0
-128 -227 0
-76 -244 0
-33 -285 0
-45 -282 0
-136 -231 0
-20 -290 0
-77 -139 0
-185 -268 0
-64 -194 0
-101 -104 0
-102 -212 0
-113 -242 0
-161 -260 0
-27 -74 0
-24 -87 0
-10 -140 0
-16 -284 0
-85 -148 0
-50 -304 0
-118 -189 0
-68 -101 0
-11 -179 0
-28 -161 0
-49 -281 0
-235 -297 0
-149 -226 0
-110 -189 0
-64 -139 0
-214 -290 0
-102 -131 0
-32 -75 0
-255 -264 0
-118 -300 0
-47 -148 0
-246 -259 0
-64 -69 0
-37 -104 0
-110 -260 0
-101 -295 0
-7 -176 0
-80 -189 0
-8 -19 0
-135 -233 0
-218 -264 0
-100 -217 0
-162 -256 0
-23 -224 0
-115 -244 0
-16 -86 0
-146 -257 0
-252 -281 0
-204 -210 0
-135 -174 0
-91 -209 0
-72 -103 0
-152 -278 0
-3 -257 0
-34 -259 0
-83 -298 0
-144 -211 0
-26 -105 0
-113 -290 0
-32 -199 0
-184 -241 0
-252 -267 0
-182 -190 0
-64 -70 0
-287 -299 0
-83 -137 0
-59 -211 0
-117 -161 0
-89 -239 0
-74 -175 0
-24 -294 0
-271 -285 0
-186 -213 0
-200 -230 0
-64 -107 0
-117 -291 0
-85 -258 0
-13 -43 0
-77 -280 0
-255 -259 0
-147 -209 0
-5 -188 0
-63 -130 0
-119 -167 0
-54 -205 0
-55 -188 0
-127 -210 0
-15 -139 0
-75 -123 0
-70 -171 0
-15 -18 0
-13 -282 0
-221 -279 0
-212 -277 0
-179 -244 0
-201 -250 0
-179 -195 0
-64 -275 0
-85 -254 0
-151 -166 0
-113 -297 0
-64 -224 0
-187 -252 0
-148 -291 0
-33 -235 0
-183 -259 0
-164 -265 0
-44 -77 0
-118 -226 0
-185 -208 0
-100 -252 0
-182 -229 0
-114 -226 0
-83 -166 0
-167 -293 0
-34 -254 0
-151 -157 0
-91 -243 0
-198 -243 0
-221 -222 0
-147 -257 0
-135 -250 0
-33 -47 0
-45 -242 0
-27 -206 0
-142 -190 0
-63 -198 0
-261 -274 0
-37 -257 0
-33 -184 0
-114 -214 0
-115 -299 0
-43 -226 0
-111 -126 0
-50 -78 0
-187 -224 0
-159 -276 0
-79 -210 0
-65 -79 0
-60 -226 0
-79 -158 0
-187 -256 0
-67 -273 0
-68 -290 0
-28 -138 0
-30 -298 0
-34 -104 0
-31 -294 0
-131 -263 0
-170 -206 0
-204 -276 0
-246 -261 0
-200 -282 0
-29 -171 0
-176 -290 0
-97 -154 0
-67 -190 0
-194 -292 0
-12 -206 0
-50 -91 0
-128 -205 0
-100 -227 0
-147 -229 0
-15 -196 0
-85 -97 0
-33 -120 0
-56 -156 0
-140 -172 0
-17 -228 0
-16 -260 0
-44 -297 0
-167 -279 0
-146 -243 0
-28 -211 0
-162 -291 0
-141 -222 0
-152 -190 0
-46 -241 0
-66 -99 0
-78 -126 0
-187 -209 0
-74 -86 0
-173 -205 0
-91 -174 0
-97 -249 0
-200 -300 0
-145 -239 0
-133 -280 0
-29 -274 0
-15 -261 0
-109 -273 0
-104 -239 0
-130 -179 0
-21 -37 0
-180 -245 0
-166 -211 0
-11 -274 0
-22 -87 0
-102 -145 0
-49 -199 0
-255 -286 0
-231 -243 0
-203 -268 0
-252 -292 0
-57 -223 0
-266 -295 0
-15 -274 0
-197 -207 0
-25 -58 0
-5 -20 0
-84 -212 0
-15 -125 0
-138 -290 0
-68 -200 0
-12 -208 0
-99 -278 0
-63 -175 0
-210 -224 0
-96 -212 0
-160 -193 0
-100 -197 0
-182 -191 0
-9 -263 0
-118 -160 0
-97 -225 0
-101 -242 0
-145 -171 0
-143 -208 0
-53 -205 0
-17 -91 0
-7 -207 0
-254 -273 0
-129 -213 0
-190 -257 0
-124 -275 0
-45 -207 0
-128 -177 0
-99 -214 0
-134 -286 0
-152 -210 0
-27 -261 0
-229 -239 0
-32 -265 0
-122 -223 0
-136 -296 0
-84 -235 0
-85 -196 0
-163 -292 0
-58 -158 0
-176 -223 0
-102 -234 0
-83 -140 0
-108 -256 0
-136 -234 0
-83 -116 0
-27 -143 0
-15 -55 0
-77 -110 0
-23 -154 0
-81 -175 0
-68 -196 0
-232 -257 0
-28 -280 0
-48 -131 0
-244 -258 0
-39 -274 0
-98 -297 0
-119 -295 0
-49 -302 0
-29 -137 0
-85 -226 0
-270 -290 0
-31 -229 0
-147 -175 0
-230 -293 0
-3 -18 0
-197 -296 0
-28 -193 0
-17 -188 0
-68 -259 0
-136 -287 0
-64 -265 0
-27 -225 0
-179 -274 0
-198 -282 0
-168 -189 0
-29 -291 0
-64 -72 0
-45 -87 0
-59 -70 0
-85 -115 0
-85 -141 0
-56 -121 0
-186 -301 0
-79 -291 0
-41 -256 0
-237 -262 0
-135 -146 0
-98 -178 0
-117 -172 0
-84 -156 0
-119 -163 0
-253 -290 0
-67 -239 0
-49 -190 0
-219 -242 0
-128 -291 0
-78 -264 0
-101 -112 0
-7 -174 0
-32 -97 0
-65 -244 0
-159 -222 0
-164 -180 0
-64 -179 0
-44 -123 0
-133 -160 0
-62 -213 0
-187 -190 0
-144 -256 0
-130 -244 0
-262 -295 0
-97 -176 0
-101 -243 0
-135 -218 0
-146 -188 0
-14 -92 0
-58 -239 0
-14 -60 0
-45 -106 0
-56 -71 0
-63 -228 0
-43 -275 0
-108 -156 0
-39 -55 0
-84 -226 0
-68 -299 0
-215 -275 0
-34 -214 0
-5 -240 0
-9 -142 0
-195 -241 0
-94 -240 0
-58 -294 0
-47 -94 0
-150 -228 0
-30 -300 0
-134 -266 0
-167 -192 0
-111 -143 0
-16 -225 0
-167 -212 0
-164 -256 0
-272 -274 0
-11 -207 0
-202 -278 0
-150 -166 0
-165 -228 0
-51 -143 0
-81 -131 0
-199 -245 0
-169 -251 0
-46 -138 0
-209 -293 0
-17 -300 0
-64 -180 0
-142 -240 0
-110 -227 0
-148 -299 0
-123 -223 0
-136 -186 0
-180 -240 0
-150 -241 0
-63 -71 0
-65 -179 0
-30 -292 0
-148 -154 0
-102 -182 0
-30 -163 0
-67 -216 0
-19 -137 0
-56 -207 0
-85 -259 0
-42 -259 0
-12 -293 0
-202 -290 0
-64 -124 0
-14 -72 0
-85 -215 0
-166 -191 0
-84 -180 0
-187 -269 0
-77 -120 0
-182 -198 0
-150 -267 0
-202 -284 0
-99 -216 0
-129 -205 0
-221 -232 0
-14 -73 0
-10 -188 0
-17 -41 0
-113 -193 0
-90 -207 0
-44 -259 0
-6 -256 0
-61 -159 0
-220 -304 0
-108 -191 0
-78 -278 0
-148 -230 0
-63 -110 0
-67 -96 0
-129 -206 0
-49 -145 0
-204 -275 0
-220 -295 0
-193 -273 0
-16 -228 0
-151 -194 0
-16 -256 0
-84 -215 0
-136 -197 0
-50 -60 0
-38 -224 0
-15 -133 0
-170 -196 0
-108 -192 0
-93 -205 0
-131 -283 0
-197 -260 0
-13 -94 0
-99 -240 0
-29 -261 0
-30 -123 0
-127 -290 0
-61 -290 0
-127 -156 0
-63 -174 0
-48 -160 0
-43 -229 0
-44 -73 0
-66 -175 0
-82 -179 0
-22 -71 0
-161 -291 0
-139 -155 0
-198 -210 0
-13 -27 0
-17 -295 0
-115 -232 0
-99 -128 0
-26 -193 0
-96 -107 0
-68 -219 0
-58 -222 0
-152 -303 0
-29 -159 0
-28 -71 0
-165 -177 0
-55 -292 0
-127 -241 0
-8 -143 0
-30 -193 0
-84 -303 0
-99 -231 0
-33 -241 0
-34 -235 0
-76 -141 0
-228 -242 0
-61 -205 0
-15 -28 0
-199 -280 0
-85 -212 0
-114 -126 0
-95 -127 0
-152 -206 0
-192 -222 0
-32 -279 0
-34 -158 0
-27 -245 0
-45 -129 0
-26 -141 0
-82 -209 0
-17 -231 0
-116 -121 0
-25 -55 0
-50 -201 0
-237 -264 0
-82 -180 0
-148 -245 0
-151 -262 0
-187 -271 0
-234 -241 0
-233 -295 0
-50 -71 0
-45 -176 0
-31 -177 0
-228 -294 0
-12 -213 0
-82 -213 0
-182 -290 0
-56 -69 0
-99 -298 0
-132 -158 0
-244 -291 0
-129 -137 0
-127 -175 0
-62 -281 0
-248 -298 0
-211 -274 0
-151 -201 0
-152 -293 0
-9 -156 0
-132 -291 0
-136 -210 0
-132 -216 0
-6 -223 0
-29 -109 0
-119 -280 0
-84 -279 0
-272 -304 0
-67 -280 0
-45 -189 0
-186 -211 0
-66 -212 0
-67 -144 0
-201 -262 0
-117 -268 0
-68 -114 0
-45 -190 0
-198 -248 0
-14 -89 0
-30 -277 0
-148 -294 0
-77 -171 0
-48 -95 0
-101 -131 0
-100 -182 0
-30 -58 0
-95 -298 0
-245 -275 0
-17 -149 0
-232 -297 0
-17 -98 0
-230 -278 0
-165 -212 0
-84 -258 0
-64 -160 0
-98 -301 0
-16 -107 0
-115 -123 0
-41 -224 0
-33 -117 0
-100 -298 0
-151 -292 0
-11 -196 0
-47 -61 0
-68 -191 0
-56 -87 0
-255 -256 0
-214 -242 0
-50 -54 0
-238 -275 0
-115 -281 0
-133 -293 0
-11 -260 0
-58 -108 0
-165 -172 0
-131 -192 0
-22 -89 0
-13 -283 0
-149 -198 0
-83 -258 0
-17 -67 0
-65 -222 0
-91 -291 0
-62 -225 0
-68 -275 0
-11 -239 0
-58 -122 0
-108 -120 0
-231 -273 0
-100 -174 0
-184 -276 0
-269 -276 0
-130 -211 0
-51 -283 0
-163 -173 0
-175 -206 0
-107 -190 0
-31 -36 0
-143 -276 0
-146 -298 0
-58 -192 0
-238 -300 0
-11 -226 0
-25 -209 0
-179 -192 0
-16 -74 0
-142 -155 0
-30 -156 0
-16 -120 0
-51 -227 0
-149 -275 0
-32 -107 0
-17 -129 0
-45 -178 0
-13 -181 0
-33 -183 0
-127 -275 0
-7 -257 0
-110 -125 0
-83 -155 0
-85 -275 0
-180 -247 0
-84 -127 0
-33 -127 0
-149 -246 0
-115 -291 0
-192 -291 0
-84 -159 0
-81 -245 0
-134 -275 0
-77 -137 0
-50 -123 0
-133 -197 0
-182 -247 0
-108 -174 0
-82 -121 0
-7 -223 0
-82 -244 0
-150 -208 0
-107 -259 0
-263 -277 0
-119 -212 0
-116 -279 0
-59 -142 0
-63 -111 0
-93 -160 0
-13 -193 0
-152 -222 0
-13 -223 0
-217 -276 0
-170 -266 0
-169 -269 0
-12 -109 0
-182 -240 0
-113 -162 0
-249 -275 0
-98 -179 0
-146 -193 0
-17 -292 0
-63 -256 0
-62 -138 0
-269 -278 0
-66 -116 0
-250 -275 0
-130 -245 0
-42 -225 0
-165 -209 0
-131 -140 0
-66 -200 0
-247 -295 0
-90 -189 0
-13 -256 0
-17 -126 0
-61 -175 0
-131 -256 0
-68 -297 0
-195 -262 0
-129 -263 0
-24 -227 0
-74 -105 0
-185 -211 0
-109 -240 0
-170 -293 0
-249 -291 0
-115 -210 0
-43 -239 0
-68 -287 0
-37 -137 0
-17 -294 0
-130 -161 0
-196 -263 0
-174 -256 0
-84 -250 0
-44 -159 0
-57 -121 0
-100 -201 0
-132 -300 0
-107 -206 0
-14 -156 0
-134 -294 0
-74 -257 0
-237 -276 0
-28 -160 0
-185 -232 0
-67 -90 0
-31 -211 0
-83 -265 0
-115 -160 0
-152 -177 0
-74 -239 0
-218 -293 0
-221 -258 0
-135 -185 0
-82 -113 0
-63 -280 0
-82 -262 0
-56 -273 0
-185 -246 0
-153 -161 0
-27 -35 0
-65 -103 0
-12 -161 0
-85 -155 0
-170 -197 0
-114 -207 0
-151 -189 0
-169 -210 0
-141 -156 0
-114 -122 0
-167 -175 0
-82 -208 0
-184 -284 0
-8 -258 0
-143 -189 0
-183 -274 0
-78 -105 0
-209 -290 0
-152 -154 0
-12 -256 0
-49 -150 0
-31 -59 0
-5 -208 0
-80 -298 0
-20 -291 0
-132 -224 0
-82 -165 0
-27 -275 0
-46 -178 0
-170 -254 0
-12 -60 0
-31 -137 0
-164 -191 0
-148 -264 0
-32 -225 0
-68 -256 0
-125 -290 0
-14 -75 0
-81 -143 0
-133 -290 0
-185 -301 0
-28 -229 0
-97 -213 0
-62 -141 0
-233 -294 0
-136 -241 0
-16 -275 0
-184 -200 0
-225 -292 0
-4 -18 0
-24 -239 0
-11 -240 0
-117 -277 0
-45 -162 0
-236 -242 0
-133 -281 0
-119 -270 0
-27 -193 0
-271 -284 0
-151 -264 0
-84 -290 0
-34 -198 0
-215 -280 0
-232 -278 0
-75 -104 0
-85 -142 0
-91 -205 0
-174 -240 0
-65 -123 0
-263 -278 0
-60 -140 0
-42 -223 0
-11 -214 0
-29 -215 0
-117 -263 0
-77 -109 0
-187 -281 0
-44 -88 0
-68 -214 0
-7 -140 0
-282 -295 0
-31 -225 0
-100 -273 0
-140 -290 0
-168 -262 0
-5 -293 0
-41 -225 0
-51 -258 0
-24 -258 0
-109 -261 0
-203 -280 0
-14 -268 0
-48 -59 0
-82 -140 0
-41 -173 0
-146 -295 0
-50 -61 0
-134 -223 0
-119 -207 0
-7 -86 0
-130 -231 0
-200 -245 0
-62 -104 0
-79 -206 0
-185 -218 0
-168 -292 0
-67 -127 0
-68 -174 0
-168 -196 0
-146 -245 0
-168 -232 0
-13 -114 0
-161 -242 0
-42 -260 0
-136 -248 0
-185 -280 0
-129 -225 0
-186 -233 0
-173 -290 0
-64 -274 0
-16 -274 0
-129 -177 0
-79 -242 0
-192 -240 0
-66 -130 0
-3 -120 0
-59 -125 0
-95 -195 0
-93 -211 0
-218 -276 0
-82 -257 0
-75 -138 0
-177 -205 0
-112 -160 0
-25 -206 0
-45 -296 0
-194 -242 0
-132 -297 0
-97 -244 0
-76 -193 0
-102 -139 0
-80 -173 0
-32 -188 0
-94 -155 0
-200 -284 0
-65 -207 0
-204 -285 0
-48 -262 0
-66 -279 0
-38 -223 0
-16 -77 0
-136 -149 0
-30 -295 0
-16 -165 0
-7 -38 0
-64 -243 0
-184 -213 0
-12 -198 0
-64 -176 0
-46 -242 0
-162 -171 0
-9 -143 0
-288 -298 0
-183 -250 0
-101 -151 0
-102 -290 0
-136 -303 0
-131 -177 0
-13 -250 0
-141 -239 0
-49 -112 0
-11 -90 0
-81 -191 0
-11 -106 0
-15 -258 0
-114 -157 0
-54 -138 0
-126 -292 0
-117 -300 0
-68 -270 0
-82 -144 0
-218 -301 0
-43 -241 0
-85 -186 0
-177 -224 0
-95 -262 0
-102 -161 0
-48 -121 0
-33 -268 0
-47 -120 0
-81 -108 0
-133 -282 0
-98 -246 0
-3 -273 0
-134 -159 0
-16 -163 0
-101 -209 0
-167 -290 0
-118 -149 0
-77 -256 0
-97 -108 0
-148 -179 0
-168 -283 0
-84 -240 0
-13 -210 0
-84 -234 0
-66 -290 0
-28 -239 0
-106 -122 0
-9 -55 0
-106 -207 0
-76 -125 0
-23 -242 0
-152 -213 0
-31 -121 0
-84 -202 0
-108 -239 0
-49 -149 0
-32 -36 0
-25 -177 0
-17 -264 0
-78 -190 0
-230 -244 0
-49 -256 0
-79 -180 0
-17 -208 0
-41 -278 0
-221 -230 0
-77 -242 0
-84 -175 0
-202 -291 0
-152 -296 0
-129 -273 0
-65 -144 0
-238 -305 0
-148 -164 0
-84 -142 0
-47 -164 0
-153 -264 0
-135 -137 0
-135 -195 0
-131 -198 0
-48 -283 0
-46 -282 0
-176 -208 0
-113 -140 0
-84 -302 0
-130 -191 0
-111 -155 0
-101 -260 0
-113 -163 0
-65 -176 0
-50 -88 0
-70 -188 0
-60 -195 0
-107 -137 0
-48 -92 0
-14 -128 0
-37 -120 0
-41 -175 0
-50 -79 0
-84 -113 0
-174 -290 0
-164 -227 0
-234 -277 0
-7 -193 0
-30 -140 0
-266 -277 0
-47 -198 0
-27 -103 0
-101 -214 0
-37 -171 0
-283 -297 0
-9 -23 0
-62 -210 0
-234 -295 0
-184 -299 0
-229 -295 0
-94 -259 0
-17 -96 0
-143 -223 0
-29 -226 0
-50 -86 0
-32 -231 0
-75 -173 0
-96 -292 0
-200 -301 0
-46 -177 0
-114 -282 0
-210 -222 0
-55 -224 0
-15 -251 0
-97 -178 0
-33 -110 0
-94 -110 0
-79 -248 0
-60 -295 0
-110 -224 0
-30 -173 0
-116 -267 0
-5 -121 0
-187 -210 0
-203 -266 0
-127 -206 0
-269 -283 0
-101 -142 0
-51 -290 0
-243 -292 0
-133 -284 0
-33 -44 0
-153 -279 0
-63 -94 0
-96 -108 0
-102 -160 0
-131 -280 0
-145 -240 0
-65 -78 0
-152 -227 0
-67 -157 0
-95 -126 0
-81 -139 0
-30 -172 0
-221 -291 0
-6 -18 0
-92 -273 0
-29 -232 0
-63 -248 0
-170 -216 0
-129 -144 0
-49 -73 0
-49 -142 0
-26 -222 0
-130 -190 0
-23 -37 0
-83 -178 0
-132 -244 0
-119 -303 0
-232 -248 0
-58 -69 0
-107 -189 0
-95 -241 0
-25 -293 0
-170 -180 0
-152 -193 0
-32 -206 0
-40 -275 0
-167 -249 0
-160 -241 0
-268 -291 0
-64 -113 0
-235 -274 0
-179 -241 0
-178 -295 0
-90 -222 0
-135 -148 0
-68 -112 0
-33 -155 0
-11 -195 0
-110 -223 0
-29 -69 0
-148 -244 0
-212 -245 0
-115 -301 0
-34 -181 0
-155 -273 0
-29 -41 0
-141 -171 0
-32 -145 0
-48 -159 0
-16 -212 0
-55 -69 0
-167 -295 0
-47 -131 0
-184 -230 0
-254 -296 0
-116 -232 0
-51 -198 0
-238 -294 0
-15 -130 0
-97 -227 0
-37 -138 0
-67 -97 0
-184 -278 0
-27 -229 0
-56 -208 0
-109 -222 0
-75 -155 0
-51 -275 0
-143 -174 0
-32 -37 0
-4 -190 0
-116 -138 0
-32 -245 0
-153 -271 0
-115 -292 0
-255 -270 0
-29 -140 0
-30 -76 0
-66 -198 0
-67 -241 0
-13 -205 0
-109 -123 0
-66 -146 0
-152 -160 0
-13 -35 0
-132 -250 0
-13 -25 0
-59 -291 0
-83 -112 0
-220 -302 0
-16 -18 0
-203 -284 0
-134 -148 0
-255 -299 0
-92 -159 0
-136 -196 0
-233 -259 0
-112 -260 0
-83 -124 0
-126 -290 0
-218 -244 0
-22 -257 0
-269 -279 0
-34 -253 0
-253 -263 0
-59 -141 0
-102 -116 0
-164 -212 0
-187 -198 0
-99 -297 0
-127 -171 0
-149 -194 0
-97 -266 0
-144 -243 0
-163 -245 0
-44 -274 0
-23 -222 0
-47 -290 0
-170 -248 0
-13 -147 0
-98 -123 0
-25 -175 0
-220 -260 0
-71 -188 0
-44 -279 0
-63 -171 0
-144 -228 0
-102 -122 0
-115 -230 0
-31 -275 0
-11 -296 0
-118 -195 0
-37 -154 0
-168 -178 0
-181 -264 0
-161 -193 0
-181 -295 0
-142 -277 0
-261 -276 0
-119 -171 0
-107 -188 0
-221 -273 0
-203 -297 0
-268 -283 0
-13 -92 0
-41 -227 0
-81 -278 0
-64 -155 0
-7 -205 0
-50 -263 0
-197 -276 0
-33 -185 0
-167 -250 0
-54 -86 0
-16 -242 0
-101 -117 0
-21 -53 0
-181 -226 0
-286 -291 0
-118 -224 0
-100 -113 0
-15 -99 0
-84 -172 0
-123 -188 0
-84 -173 0
-85 -124 0
-108 -241 0
-83 -195 0
-11 -155 0
-182 -242 0
-40 -226 0
-220 -282 0
-152 -218 0
-149 -231 0
-88 -103 0
-31 -147 0
-199 -282 0
-31 -199 0
-198 -229 0
-98 -210 0
-94 -158 0
-95 -159 0
-16 -241 0
-24 -277 0
-62 -190 0
-50 -83 0
-117 -167 0
-23 -106 0
-63 -291 0
-25 -54 0
-12 -194 0
-26 -192 0
-70 -290 0
-249 -277 0
-79 -224 0
-114 -154 0
-34 -262 0
-118 -213 0
-250 -265 0
-6 -90 0
-232 -247 0
-17 -60 0
-150 -210 0
-135 -281 0
-9 -244 0
-31 -52 0
-118 -200 0
-253 -291 0
-151 -294 0
-77 -188 0
-208 -239 0
-254 -298 0
-91 -208 0
-115 -293 0
-67 -302 0
-85 -291 0
-67 -150 0
-82 -197 0
-255 -274 0
-112 -273 0
-159 -223 0
-48 -174 0
-47 -277 0
-179 -258 0
-245 -278 0
-10 -189 0
-211 -257 0
-153 -258 0
-62 -109 0
-67 -233 0
-83 -230 0
-12 -207 0
-81 -95 0
-263 -274 0
-30 -179 0
-93 -141 0
-48 -233 0
-41 -90 0
-111 -261 0
-116 -129 0
-183 -212 0
-13 -108 0
-198 -293 0
-85 -162 0
-13 -299 0
-101 -147 0
-11 -129 0
-65 -181 0
-216 -231 0
-24 -157 0
-68 -274 0
-6 -88 0
-65 -196 0
-57 -259 0
-29 -181 0
-33 -243 0
-179 -228 0
-238 -250 0
-184 -207 0
-65 -264 0
-101 -276 0
-184 -277 0
-177 -222 0
-113 -243 0
-136 -193 0
-101 -227 0
-67 -252 0
-53 -222 0
-49 -228 0
-91 -172 0
-14 -78 0
-191 -239 0
-83 -267 0
-23 -137 0
-64 -173 0
-14 -54 0
-119 -148 0
-109 -295 0
-149 -225 0
-11 -227 0
-130 -158 0
-102 -135 0
-187 -218 0
-14 -209 0
-50 -224 0
-66 -133 0
-133 -251 0
-102 -169 0
-48 -217 0
-27 -59 0
-65 -199 0
-220 -246 0
-187 -249 0
-238 -268 0
-10 -206 0
-29 -281 0
-82 -181 0
-107 -139 0
-237 -290 0
-31 -245 0
-21 -139 0
-61 -195 0
-46 -105 0
-12 -126 0
-182 -227 0
-17 -247 0
-182 -188 0
-94 -244 0
-179 -276 0
-219 -278 0
-245 -292 0
-84 -165 0
-51 -156 0
-3 -53 0
-75 -189 0
-61 -256 0
-268 -290 0
-134 -283 0
-4 -87 0
-42 -190 0
-133 -225 0
-42 -243 0
-136 -297 0
-125 -156 0
-146 -161 0
-182 -241 0
-15 -229 0
-237 -292 0
-118 -209 0
-152 -192 0
-95 -161 0
-236 -301 0
-186 -202 0
-48 -181 0
-12 -156 0
-83 -88 0
-26 -72 0
-68 -222 0
-93 -174 0
-14 -111 0
-136 -254 0
-67 -259 0
-82 -194 0
-223 -273 0
-136 -208 0
-30 -62 0
-164 -214 0
-48 -147 0
-12 -57 0
-74 -274 0
-212 -295 0
-26 -257 0
-159 -224 0
-30 -159 0
-133 -239 0
-224 -239 0
-68 -261 0
-71 -257 0
-186 -246 0
-129 -280 0
-102 -287 0
-17 -297 0
-37 -223 0
-161 -262 0
-176 -275 0
-115 -215 0
-99 -241 0
-5 -191 0
-30 -124 0
-264 -296 0
-148 -225 0
-39 -208 0
-77 -173 0
-140 -223 0
-102 -163 0
-28 -175 0
-39 -188 0
-31 -267 0
-144 -191 0
-114 -127 0
-76 -224 0
-236 -263 0
-110 -279 0
-269 -292 0
-116 -300 0
-63 -276 0
-16 -294 0
-169 -291 0
-62 -95 0
-51 -148 0
-170 -186 0
-19 -205 0
-148 -259 0
-42 -70 0
-91 -207 0
-68 -71 0
-115 -248 0
-16 -176 0
-198 -278 0
-76 -243 0
-44 -223 0
-17 -48 0
-111 -227 0
-66 -103 0
-32 -273 0
-32 -281 0
-51 -176 0
-67 -147 0
-130 -212 0
-168 -205 0
-169 -214 0
-144 -296 0
-48 -177 0
-46 -93 0
-47 -278 0
-32 -183 0
-127 -274 0
-7 -278 0
-14 -181 0
-62 -105 0
-47 -298 0
-99 -138 0
-34 -52 0
-200 -259 0
-67 -215 0
-21 -241 0
-218 -224 0
-170 -234 0
-128 -273 0
-99 -104 0
-119 -192 0
-150 -197 0
-49 -213 0
-266 -293 0
-169 -206 0
-79 -299 0
-64 -104 0
-8 -155 0
-30 -191 0
-105 -121 0
-149 -196 0
-28 -54 0
-133 -297 0
-203 -234 0
-13 -62 0
-33 -302 0
-163 -171 0
-43 -246 0
-27 -128 0
-29 -74 0
-104 -154 0
-51 -66 0
-147 -197 0
-148 -158 0
-64 -248 0
-135 -247 0
-96 -173 0
-180 -275 0
-14 -105 0
-48 -72 0
-9 -294 0
-41 -72 0
-114 -180 0
-199 -275 0
-44 -108 0
-221 -266 0
-252 -302 0
-102 -247 0
-47 -214 0
-32 -258 0
-49 -282 0
-101 -177 0
-7 -292 0
-49 -229 0
-73 -105 0
-13 -174 0
-66 -199 0
-77 -123 0
-204 -232 0
-34 -111 0
-61 -121 0
-187 -205 0
-112 -224 0
-75 -256 0
-15 -207 0
-55 -275 0
-250 -273 0
-33 -257 0
-178 -258 0
-126 -190 0
-113 -205 0
-77 -93 0
-32 -57 0
-40 -72 0
-99 -282 0
-8 -159 0
-77 -174 0
-132 -259 0
-166 -301 0
-153 -180 0
-65 -113 0
-126 -277 0
-84 -253 0
-80 -242 0
-199 -214 0
-170 -259 0
-14 -122 0
-125 -277 0
-65 -139 0
-112 -209 0
-221 -264 0
-73 -206 0
-15 -127 0
-24 -38 0
-25 -240 0
-162 -257 0
-34 -59 0
-49 -98 0
-79 -157 0
-235 -295 0
-17 -254 0
-102 -115 0
-66 -177 0
-118 -246 0
-111 -138 0
-135 -140 0
-116 -247 0
-169 -268 0
-51 -100 0
-152 -180 0
-129 -155 0
-134 -217 0
-74 -207 0
-234 -298 0
-85 -86 0
-13 -77 0
-99 -261 0
-15 -114 0
-151 -301 0
-27 -36 0
-48 -61 0
-114 -228 0
-237 -245 0
-201 -245 0
-233 -242 0
-165 -174 0
-147 -160 0
-80 -192 0
-150 -222 0
-26 -223 0
-148 -181 0
-135 -208 0
-97 -140 0
-220 -223 0
-184 -265 0
-101 -127 0
-194 -208 0
-161 -227 0
-250 -266 0
-272 -291 0
-150 -291 0
-46 -144 0
-170 -291 0
-113 -229 0
-75 -241 0
-63 -293 0
-5 -120 0
-143 -290 0
-217 -222 0
-11 -161 0
-31 -291 0
-51 -93 0
-125 -275 0
-49 -280 0
-194 -225 0
-214 -224 0
-131 -161 0
-213 -277 0
-136 -162 0
-17 -276 0
-61 -242 0
-99 -125 0
-201 -226 0
-50 -233 0
-235 -259 0
-57 -73 0
-68 -257 0
-151 -267 0
-31 -146 0
-29 -77 0
-49 -107 0
-47 -178 0
-204 -262 0
-68 -253 0
-68 -296 0
-237 -243 0
-195 -240 0
-12 -240 0
-63 -249 0
-97 -264 0
-152 -200 0
-17 -265 0
-29 -297 0
-93 -296 0
-134 -240 0
-224 -257 0
-50 -242 0
-17 -115 0
-152 -184 0
-202 -214 0
-100 -139 0
-160 -294 0
-11 -190 0
-167 -190 0
-187 -264 0
-151 -286 0
-156 -223 0
-204 -268 0
-236 -293 0
-81 -298 0
-264 -275 0
-82 -105 0
-84 -177 0
-233 -265 0
-51 -210 0
-221 -283 0
-147 -290 0
-97 -262 0
