p cnf 1062 19814
-1 -247 0
-1 -245 0
-1 -308 0
-1 -129 0
-1 -9 0
-1 -134 0
-1 -171 0
-1 -156 0
-1 -475 0
-1 -461 0
-1 -279 0
-1 -447 0
-1 -441 0
-2 -414 0
-2 -248 0
-2 -76 0
-2 -138 0
-2 -73 0
-2 -115 0
-2 -442 0
-2 -385 0
-2 -510 0
-2 -112 0
-2 -169 0
-3 -242 0
-3 -264 0
-3 -154 0
-3 -207 0
-3 -174 0
-3 -185 0
-3 -385 0
-3 -46 0
-3 -368 0
-3 -443 0
-3 -156 0
-3 -502 0
-4 -146 0
-4 -286 0
-4 -301 0
-4 -124 0
-4 -520 0
-4 -430 0
-4 -20 0
-4 -372 0
-4 -280 0
-4 -197 0
-4 -445 0
-4 -385 0
-4 -348 0
-4 -380 0
-5 -154 0
-5 -287 0
-5 -193 0
-5 -268 0
-5 -530 0
-5 -44 0
-5 -51 0
-5 -143 0
-5 -456 0
-5 -234 0
-5 -399 0
-5 -390 0
-5 -290 0
-5 -481 0
-5 -384 0
-6 -251 0
-6 -337 0
-6 -249 0
-6 -402 0
-6 -80 0
-6 -424 0
-6 -18 0
-6 -110 0
-6 -269 0
-6 -377 0
-6 -423 0
-6 -371 0
-6 -188 0
-7 -268 0
-7 -493 0
-7 -81 0
-7 -70 0
-7 -43 0
-7 -458 0
-8 -362 0
-8 -1 0
-8 -242 0
-8 -525 0
-8 -304 0
-8 -136 0
-8 -331 0
-8 -142 0
-8 -18 0
-8 -527 0
-8 -72 0
-8 -302 0
-8 -402 0
-8 -93 0
-9 -150 0
-9 -137 0
-9 -239 0
-9 -79 0
-9 -182 0
-9 -60 0
-9 -453 0
-9 -457 0
-9 -203 0
-9 -393 0
-9 -206 0
-9 -4 0
-9 -290 0
-9 -361 0
-10 -242 0
-10 -107 0
-10 -203 0
-10 -21 0
-10 -123 0
-10 -11 0
-10 -190 0
-10 -42 0
-10 -426 0
-10 -216 0
-10 -328 0
-11 -270 0
-11 -389 0
-11 -95 0
-11 -493 0
-11 -440 0
-11 -70 0
-12 -526 0
-12 -169 0
-12 -32 0
-12 -347 0
-12 -225 0
-12 -486 0
-12 -451 0
-12 -387 0
-12 -429 0
-12 -520 0
-12 -331 0
-13 -291 0
-13 -36 0
-13 -19 0
-13 -201 0
-13 -503 0
-13 -240 0
-13 -521 0
-13 -485 0
-13 -119 0
-13 -376 0
-13 -313 0
-13 -215 0
-13 -110 0
-13 -229 0
-13 -429 0
-13 -77 0
-14 -330 0
-14 -111 0
-14 -410 0
-14 -363 0
-14 -271 0
-14 -109 0
-14 -182 0
-14 -49 0
-14 -451 0
-14 -336 0
-14 -397 0
-14 -512 0
-15 -525 0
-15 -89 0
-15 -6 0
-15 -170 0
-15 -487 0
-15 -433 0
-15 -237 0
-15 -164 0
-15 -449 0
-15 -29 0
-16 -254 0
-16 -378 0
-16 -414 0
-16 -309 0
-16 -65 0
-16 -283 0
-16 -117 0
-16 -176 0
-16 -14 0
-16 -225 0
-16 -493 0
-16 -305 0
-16 -499 0
-16 -384 0
-16 -333 0
-17 -337 0
-17 -35 0
-17 -255 0
-17 -157 0
-17 -356 0
-17 -322 0
-17 -321 0
-17 -323 0
-18 -530 0
-18 -283 0
-18 -287 0
-18 -265 0
-18 -154 0
-18 -99 0
-18 -235 0
-18 -85 0
-18 -442 0
-18 -494 0
-18 -149 0
-18 -401 0
-19 -352 0
-19 -54 0
-19 -105 0
-19 -49 0
-19 -207 0
-19 -299 0
-19 -380 0
-19 -201 0
-20 -163 0
-20 -361 0
-20 -188 0
-20 -223 0
-20 -103 0
-20 -104 0
-20 -280 0
-20 -286 0
-20 -366 0
-20 -429 0
-20 -501 0
-20 -89 0
-20 -388 0
-20 -317 0
-21 -167 0
-21 -70 0
-21 -184 0
-21 -239 0
-21 -408 0
-22 -362 0
-22 -137 0
-22 -23 0
-22 -21 0
-22 -76 0
-22 -395 0
-22 -165 0
-22 -263 0
-22 -182 0
-22 -96 0
-22 -289 0
-22 -438 0
-22 -237 0
-22 -409 0
-23 -131 0
-23 -415 0
-23 -258 0
-23 -406 0
-23 -484 0
-23 -301 0
-23 -215 0
-23 -204 0
-23 -164 0
-23 -277 0
-23 -497 0
-23 -449 0
-23 -227 0
-24 -348 0
-24 -233 0
-24 -6 0
-24 -192 0
-24 -217 0
-24 -92 0
-24 -61 0
-24 -44 0
-24 -155 0
-24 -31 0
-24 -295 0
-25 -203 0
-25 -116 0
-25 -100 0
-25 -351 0
-25 -183 0
-25 -387 0
-25 -338 0
-25 -84 0
-25 -267 0
-25 -119 0
-25 -333 0
-25 -452 0
-25 -499 0
-25 -195 0
-26 -242 0
-26 -251 0
-26 -325 0
-26 -344 0
-26 -129 0
-26 -200 0
-26 -62 0
-26 -511 0
-26 -430 0
-26 -327 0
-27 -264 0
-27 -424 0
-27 -152 0
-27 -120 0
-27 -202 0
-27 -97 0
-27 -127 0
-27 -318 0
-27 -485 0
-27 -359 0
-27 -425 0
-27 -273 0
-27 -142 0
-27 -169 0
-27 -406 0
-27 -473 0
-28 -348 0
-28 -57 0
-28 -15 0
-28 -10 0
-28 -521 0
-28 -64 0
-28 -513 0
-28 -112 0
-28 -360 0
-28 -350 0
-28 -328 0
-29 -400 0
-29 -224 0
-29 -208 0
-29 -59 0
-29 -57 0
-29 -289 0
-29 -306 0
-29 -180 0
-29 -468 0
-29 -281 0
-30 -337 0
-30 -268 0
-30 -481 0
-30 -384 0
-30 -222 0
-30 -351 0
-30 -109 0
-30 -271 0
-30 -259 0
-30 -421 0
-30 -428 0
-30 -357 0
-31 -4 0
-31 -127 0
-31 -378 0
-31 -66 0
-31 -457 0
-31 -498 0
-31 -124 0
-31 -453 0
-31 -403 0
-31 -439 0
-31 -197 0
-31 -303 0
-31 -143 0
-31 -518 0
-32 -302 0
-32 -43 0
-32 -258 0
-32 -84 0
-32 -65 0
-32 -25 0
-32 -44 0
-32 -120 0
-32 -373 0
-33 -57 0
-33 -462 0
-33 -376 0
-33 -464 0
-33 -56 0
-33 -160 0
-33 -453 0
-33 -208 0
-33 -284 0
-34 -37 0
-34 -6 0
-34 -521 0
-34 -246 0
-34 -360 0
-34 -373 0
-34 -377 0
-34 -517 0
-34 -265 0
-34 -229 0
-35 -525 0
-35 -372 0
-35 -88 0
-35 -320 0
-35 -316 0
-35 -244 0
-35 -331 0
-35 -416 0
-35 -502 0
-35 -412 0
-35 -307 0
-36 -69 0
-36 -37 0
-36 -266 0
-36 -474 0
-36 -387 0
-36 -103 0
-36 -390 0
-36 -48 0
-36 -132 0
-36 -451 0
-36 -397 0
-36 -399 0
-37 -137 0
-37 -102 0
-37 -141 0
-37 -468 0
-37 -282 0
-37 -136 0
-37 -235 0
-37 -496 0
-37 -487 0
-37 -263 0
-37 -25 0
-37 -355 0
-37 -464 0
-38 -114 0
-38 -107 0
-38 -464 0
-38 -26 0
-38 -75 0
-38 -429 0
-38 -351 0
-38 -396 0
-38 -297 0
-38 -78 0
-39 -209 0
-39 -121 0
-39 -359 0
-39 -26 0
-39 -370 0
-39 -321 0
-39 -353 0
-39 -295 0
-40 -48 0
-40 -286 0
-40 -165 0
-40 -396 0
-40 -433 0
-40 -223 0
-40 -174 0
-40 -12 0
-40 -284 0
-40 -24 0
-40 -412 0
-41 -154 0
-41 -245 0
-41 -325 0
-41 -104 0
-41 -256 0
-41 -270 0
-41 -263 0
-41 -95 0
-41 -267 0
-41 -170 0
-41 -497 0
-41 -318 0
-41 -456 0
-41 -205 0
-41 -444 0
-42 -362 0
-42 -328 0
-42 -375 0
-42 -57 0
-42 -192 0
-42 -405 0
-42 -453 0
-42 -334 0
-42 -394 0
-42 -247 0
-43 -81 0
-44 -156 0
-44 -96 0
-44 -246 0
-44 -19 0
-44 -241 0
-44 -117 0
-44 -210 0
-44 -72 0
-44 -470 0
-44 -508 0
-44 -502 0
-44 -524 0
-44 -38 0
-44 -426 0
-45 -526 0
-45 -109 0
-45 -308 0
-45 -487 0
-45 -335 0
-45 -164 0
-45 -127 0
-45 -173 0
-45 -13 0
-46 -130 0
-46 -128 0
-46 -315 0
-46 -236 0
-46 -409 0
-46 -412 0
-46 -213 0
-46 -442 0
-46 -385 0
-46 -237 0
-47 -422 0
-47 -355 0
-47 -154 0
-47 -230 0
-47 -348 0
-47 -279 0
-47 -505 0
-47 -40 0
-47 -330 0
-47 -492 0
-47 -319 0
-47 -241 0
-47 -127 0
-47 -191 0
-48 -379 0
-48 -464 0
-48 -88 0
-48 -72 0
-48 -98 0
-48 -241 0
-48 -285 0
-48 -467 0
-49 -181 0
-49 -270 0
-49 -38 0
-49 -143 0
-49 -217 0
-49 -125 0
-49 -331 0
-49 -353 0
-49 -124 0
-49 -182 0
-49 -518 0
-49 -142 0
-49 -252 0
-49 -280 0
-49 -502 0
-49 -137 0
-49 -201 0
-49 -14 0
-50 -404 0
-50 -434 0
-50 -508 0
-50 -209 0
-50 -391 0
-50 -364 0
-50 -319 0
-50 -520 0
-51 -216 0
-51 -50 0
-51 -2 0
-51 -63 0
-51 -38 0
-51 -520 0
-51 -92 0
-51 -394 0
-51 -214 0
-51 -317 0
-51 -507 0
-51 -67 0
-51 -493 0
-52 -403 0
-52 -373 0
-52 -266 0
-52 -242 0
-52 -86 0
-52 -285 0
-52 -429 0
-52 -62 0
-52 -121 0
-52 -197 0
-52 -304 0
-52 -29 0
-53 -215 0
-53 -435 0
-53 -81 0
-53 -439 0
-53 -293 0
-53 -222 0
-53 -90 0
-53 -352 0
-53 -20 0
-53 -429 0
-53 -306 0
-53 -344 0
-53 -380 0
-53 -302 0
-54 -336 0
-54 -426 0
-54 -260 0
-54 -4 0
-54 -519 0
-54 -378 0
-54 -320 0
-54 -423 0
-54 -126 0
-54 -355 0
-54 -199 0
-54 -478 0
-54 -255 0
-54 -331 0
-54 -271 0
-55 -357 0
-55 -187 0
-55 -172 0
-55 -523 0
-55 -176 0
-55 -105 0
-55 -188 0
-55 -226 0
-55 -154 0
-55 -364 0
-55 -229 0
-55 -377 0
-55 -77 0
-55 -443 0
-55 -151 0
-55 -445 0
-55 -471 0
-56 -402 0
-56 -89 0
-56 -8 0
-56 -374 0
-56 -170 0
-56 -28 0
-56 -485 0
-56 -453 0
-56 -507 0
-56 -32 0
-56 -199 0
-56 -61 0
-57 -355 0
-57 -268 0
-57 -527 0
-57 -245 0
-57 -398 0
-57 -116 0
-57 -105 0
-57 -2 0
-57 -78 0
-57 -76 0
-57 -205 0
-57 -159 0
-57 -71 0
-58 -299 0
-58 -139 0
-58 -413 0
-58 -525 0
-58 -77 0
-58 -43 0
-58 -75 0
-58 -124 0
-58 -164 0
-58 -187 0
-58 -241 0
-58 -46 0
-58 -298 0
-58 -13 0
-58 -337 0
-58 -29 0
-59 -473 0
-59 -475 0
-59 -137 0
-59 -357 0
-59 -43 0
-59 -17 0
-59 -3 0
-59 -524 0
-59 -319 0
-59 -389 0
-59 -16 0
-59 -255 0
-59 -372 0
-59 -308 0
-59 -286 0
-59 -139 0
-59 -429 0
-59 -170 0
-59 -23 0
-59 -151 0
-60 -277 0
-60 -406 0
-60 -330 0
-60 -40 0
-60 -488 0
-60 -317 0
-60 -334 0
-60 -478 0
-60 -456 0
-60 -489 0
-60 -358 0
-60 -179 0
-61 -120 0
-61 -9 0
-61 -308 0
-61 -427 0
-61 -82 0
-61 -326 0
-61 -212 0
-61 -355 0
-61 -288 0
-61 -498 0
-61 -153 0
-62 -469 0
-62 -147 0
-62 -138 0
-62 -100 0
-62 -223 0
-62 -284 0
-62 -76 0
-62 -210 0
-62 -47 0
-63 -307 0
-63 -175 0
-63 -24 0
-63 -239 0
-63 -226 0
-63 -160 0
-63 -415 0
-63 -20 0
-63 -491 0
-63 -470 0
-63 -436 0
-63 -232 0
-64 -158 0
-64 -226 0
-64 -398 0
-64 -381 0
-64 -205 0
-64 -186 0
-64 -194 0
-64 -475 0
-64 -175 0
-65 -493 0
-66 -238 0
-66 -233 0
-66 -109 0
-66 -266 0
-66 -282 0
-66 -205 0
-66 -116 0
-66 -363 0
-66 -476 0
-66 -360 0
-66 -65 0
-66 -507 0
-66 -499 0
-67 -203 0
-67 -362 0
-67 -524 0
-67 -166 0
-67 -120 0
-67 -496 0
-67 -491 0
-67 -70 0
-67 -380 0
-67 -111 0
-67 -520 0
-67 -126 0
-67 -175 0
-68 -277 0
-68 -242 0
-68 -113 0
-68 -226 0
-68 -300 0
-68 -375 0
-68 -196 0
-68 -511 0
-68 -482 0
-68 -373 0
-68 -284 0
-68 -514 0
-68 -331 0
-68 -73 0
-68 -125 0
-68 -527 0
-69 -330 0
-69 -323 0
-69 -50 0
-69 -179 0
-69 -338 0
-69 -385 0
-69 -420 0
-69 -147 0
-69 -3 0
-71 -345 0
-71 -294 0
-71 -252 0
-71 -188 0
-71 -460 0
-71 -191 0
-71 -316 0
-71 -219 0
-71 -12 0
-71 -125 0
-71 -518 0
-71 -456 0
-71 -158 0
-72 -305 0
-72 -328 0
-72 -6 0
-72 -462 0
-72 -326 0
-72 -481 0
-72 -395 0
-72 -143 0
-72 -5 0
-73 -437 0
-73 -268 0
-73 -253 0
-73 -362 0
-73 -38 0
-73 -129 0
-73 -168 0
-73 -488 0
-73 -498 0
-73 -78 0
-73 -70 0
-73 -227 0
-73 -251 0
-74 -295 0
-74 -323 0
-74 -405 0
-74 -198 0
-74 -58 0
-74 -259 0
-74 -250 0
-74 -482 0
-74 -331 0
-74 -303 0
-74 -375 0
-74 -56 0
-74 -211 0
-74 -240 0
-74 -395 0
-75 -345 0
-75 -215 0
-75 -358 0
-75 -204 0
-75 -119 0
-75 -172 0
-75 -61 0
-75 -331 0
-75 -32 0
-75 -433 0
-75 -291 0
-75 -89 0
-76 -365 0
-76 -307 0
-76 -166 0
-76 -113 0
-76 -500 0
-76 -277 0
-76 -99 0
-76 -96 0
-76 -358 0
-76 -308 0
-77 -379 0
-77 -150 0
-77 -143 0
-77 -287 0
-77 -175 0
-77 -24 0
-77 -134 0
-77 -96 0
-77 -93 0
-77 -218 0
-77 -463 0
-77 -216 0
-78 -493 0
-78 -296 0
-78 -400 0
-78 -426 0
-78 -320 0
-78 -332 0
-78 -54 0
-78 -264 0
-78 -302 0
-78 -254 0
-78 -255 0
-78 -333 0
-78 -257 0
-78 -468 0
-78 -25 0
-78 -229 0
-79 -242 0
-79 -43 0
-79 -366 0
-79 -308 0
-79 -40 0
-79 -512 0
-79 -316 0
-79 -450 0
-79 -493 0
-79 -179 0
-79 -183 0
-79 -188 0
-79 -31 0
-79 -379 0
-80 -458 0
-80 -81 0
-80 -84 0
-80 -43 0
-80 -515 0
-80 -322 0
-81 -408 0
-82 -477 0
-82 -507 0
-82 -391 0
-82 -420 0
-82 -415 0
-82 -195 0
-82 -530 0
-82 -528 0
-82 -13 0
-82 -180 0
-82 -237 0
-82 -392 0
-82 -188 0
-82 -21 0
-82 -98 0
-82 -318 0
-82 -43 0
-83 -461 0
-83 -406 0
-83 -337 0
-83 -166 0
-83 -527 0
-83 -50 0
-83 -7 0
-83 -351 0
-83 -263 0
-83 -433 0
-83 -331 0
-83 -301 0
-83 -246 0
-83 -446 0
-83 -42 0
-84 -197 0
-84 -43 0
-84 -365 0
-84 -458 0
-85 -305 0
-85 -249 0
-85 -187 0
-85 -181 0
-85 -307 0
-85 -433 0
-85 -265 0
-85 -174 0
-85 -327 0
-85 -173 0
-85 -14 0
-85 -363 0
-85 -456 0
-85 -466 0
-85 -64 0
-86 -146 0
-86 -236 0
-86 -35 0
-86 -259 0
-86 -132 0
-86 -205 0
-86 -421 0
-86 -72 0
-86 -90 0
-86 -387 0
-86 -423 0
-87 -86 0
-87 -158 0
-87 -25 0
-87 -468 0
-87 -168 0
-87 -170 0
-87 -492 0
-87 -75 0
-87 -81 0
-87 -451 0
-87 -352 0
-87 -294 0
-87 -510 0
-88 -451 0
-88 -383 0
-88 -111 0
-88 -232 0
-88 -125 0
-88 -109 0
-88 -338 0
-89 -386 0
-89 -268 0
-89 -328 0
-89 -270 0
-89 -465 0
-89 -319 0
-89 -37 0
-89 -255 0
-89 -178 0
-89 -223 0
-89 -142 0
-89 -100 0
-90 -355 0
-90 -163 0
-90 -82 0
-90 -219 0
-90 -113 0
-90 -457 0
-90 -168 0
-90 -321 0
-90 -101 0
-90 -494 0
-91 -452 0
-91 -527 0
-91 -447 0
-91 -17 0
-91 -197 0
-91 -214 0
-91 -136 0
-91 -28 0
-91 -24 0
-91 -173 0
-91 -461 0
-91 -29 0
-91 -231 0
-91 -322 0
-91 -442 0
-92 -133 0
-92 -254 0
-92 -423 0
-92 -252 0
-92 -16 0
-92 -35 0
-92 -464 0
-92 -106 0
-92 -326 0
-92 -444 0
-92 -391 0
-92 -413 0
-93 -478 0
-93 -412 0
-93 -411 0
-93 -306 0
-93 -288 0
-93 -297 0
-93 -68 0
-93 -311 0
-93 -371 0
-93 -179 0
-93 -344 0
-93 -252 0
-93 -517 0
-94 -343 0
-94 -128 0
-94 -352 0
-94 -145 0
-94 -48 0
-94 -41 0
-94 -10 0
-94 -39 0
-94 -451 0
-94 -88 0
-94 -171 0
-94 -204 0
-94 -271 0
-94 -267 0
-94 -259 0
-94 -44 0
-94 -390 0
-95 -493 0
-95 -440 0
-96 -421 0
-96 -443 0
-96 -247 0
-96 -258 0
-96 -154 0
-96 -342 0
-96 -169 0
-96 -160 0
-96 -59 0
-96 -217 0
-96 -55 0
-96 -347 0
-96 -512 0
-96 -53 0
-97 -486 0
-97 -524 0
-97 -2 0
-97 -180 0
-97 -227 0
-97 -185 0
-97 -429 0
-97 -48 0
-97 -393 0
-97 -496 0
-97 -30 0
-98 -426 0
-98 -109 0
-98 -197 0
-98 -320 0
-98 -174 0
-98 -405 0
-98 -33 0
-98 -34 0
-98 -399 0
-98 -239 0
-98 -395 0
-98 -295 0
-98 -371 0
-99 -510 0
-99 -333 0
-99 -80 0
-99 -69 0
-99 -183 0
-99 -292 0
-99 -485 0
-99 -241 0
-99 -227 0
-99 -67 0
-99 -307 0
-100 -385 0
-100 -208 0
-100 -152 0
-100 -113 0
-100 -36 0
-100 -418 0
-100 -80 0
-100 -314 0
-100 -217 0
-100 -93 0
-100 -200 0
-100 -149 0
-100 -318 0
-100 -97 0
-100 -440 0
-100 -408 0
-100 -519 0
-100 -468 0
-101 -432 0
-101 -118 0
-101 -102 0
-101 -430 0
-101 -311 0
-101 -331 0
-101 -119 0
-101 -186 0
-101 -179 0
-101 -84 0
-101 -427 0
-101 -508 0
-101 -322 0
-101 -383 0
-101 -253 0
-102 -289 0
-102 -530 0
-102 -2 0
-102 -329 0
-102 -429 0
-102 -472 0
-102 -240 0
-102 -274 0
-102 -489 0
-103 -207 0
-103 -204 0
-103 -126 0
-103 -338 0
-103 -469 0
-103 -71 0
-103 -14 0
-103 -460 0
-103 -9 0
-103 -182 0
-103 -529 0
-103 -295 0
-103 -288 0
-104 -379 0
-104 -354 0
-104 -475 0
-104 -21 0
-104 -420 0
-104 -289 0
-104 -136 0
-104 -223 0
-104 -455 0
-104 -328 0
-104 -501 0
-104 -266 0
-104 -469 0
-105 -107 0
-105 -57 0
-105 -526 0
-105 -172 0
-105 -293 0
-105 -386 0
-105 -225 0
-105 -516 0
-105 -481 0
-105 -452 0
-105 -227 0
-105 -296 0
-106 -54 0
-106 -323 0
-106 -411 0
-106 -274 0
-106 -509 0
-106 -259 0
-106 -429 0
-106 -24 0
-106 -22 0
-106 -150 0
-106 -53 0
-106 -457 0
-106 -394 0
-106 -124 0
-106 -436 0
-106 -62 0
-107 -430 0
-107 -348 0
-107 -251 0
-107 -331 0
-107 -209 0
-107 -432 0
-107 -475 0
-107 -505 0
-107 -512 0
-107 -335 0
-107 -22 0
-107 -123 0
-108 -156 0
-108 -197 0
-108 -223 0
-108 -423 0
-108 -317 0
-108 -71 0
-108 -383 0
-108 -114 0
-108 -443 0
-108 -25 0
-108 -112 0
-109 -299 0
-109 -348 0
-109 -2 0
-109 -221 0
-109 -351 0
-109 -410 0
-109 -177 0
-109 -148 0
-109 -319 0
-109 -298 0
-109 -436 0
-110 -233 0
-110 -52 0
-110 -36 0
-110 -378 0
-110 -329 0
-110 -267 0
-110 -144 0
-110 -93 0
-110 -56 0
-110 -373 0
-110 -67 0
-110 -90 0
-110 -447 0
-110 -333 0
-110 -399 0
-111 -475 0
-111 -143 0
-111 -181 0
-111 -175 0
-111 -126 0
-111 -325 0
-111 -42 0
-111 -453 0
-111 -510 0
-111 -119 0
-111 -136 0
-111 -521 0
-111 -433 0
-112 -531 0
-112 -178 0
-112 -372 0
-112 -298 0
-112 -110 0
-112 -12 0
-112 -75 0
-112 -312 0
-112 -497 0
-112 -387 0
-112 -20 0
-112 -53 0
-112 -237 0
-112 -292 0
-113 -299 0
-113 -256 0
-113 -279 0
-113 -226 0
-113 -262 0
-113 -10 0
-113 -39 0
-113 -38 0
-113 -414 0
-113 -269 0
-113 -326 0
-113 -431 0
-113 -331 0
-113 -108 0
-113 -31 0
-113 -381 0
-114 -116 0
-114 -69 0
-114 -392 0
-114 -95 0
-114 -452 0
-114 -32 0
-114 -103 0
-114 -72 0
-114 -296 0
-114 -483 0
-114 -126 0
-115 -434 0
-115 -276 0
-115 -108 0
-115 -31 0
-115 -170 0
-115 -153 0
-115 -487 0
-115 -443 0
-115 -414 0
-115 -233 0
-115 -390 0
-115 -221 0
-115 -24 0
-115 -516 0
-115 -168 0
-116 -376 0
-116 -323 0
-116 -235 0
-116 -52 0
-116 -401 0
-116 -501 0
-116 -66 0
-117 -273 0
-117 -215 0
-117 -128 0
-117 -527 0
-117 -235 0
-117 -263 0
-117 -159 0
-117 -161 0
-117 -337 0
-117 -27 0
-117 -71 0
-117 -42 0
-117 -148 0
-118 -443 0
-118 -281 0
-118 -360 0
-118 -120 0
-118 -481 0
-118 -389 0
-118 -99 0
-118 -274 0
-118 -339 0
-118 -20 0
-118 -492 0
-118 -160 0
-118 -64 0
-119 -434 0
-119 -328 0
-119 -195 0
-119 -397 0
-119 -183 0
-119 -110 0
-119 -513 0
-119 -488 0
-119 -77 0
-119 -288 0
-120 -195 0
-120 -89 0
-120 -238 0
-120 -40 0
-120 -308 0
-120 -257 0
-120 -426 0
-120 -296 0
-120 -76 0
-120 -63 0
-121 -139 0
-121 -130 0
-121 -212 0
-121 -423 0
-121 -257 0
-121 -99 0
-121 -464 0
-121 -62 0
-121 -369 0
-121 -507 0
-121 -299 0
-121 -302 0
-121 -92 0
-122 -360 0
-122 -48 0
-122 -378 0
-122 -459 0
-122 -76 0
-122 -73 0
-122 -335 0
-122 -203 0
-122 -490 0
-122 -362 0
-122 -248 0
-122 -306 0
-122 -95 0
-122 -397 0
-123 -197 0
-123 -458 0
-123 -184 0
-123 -43 0
-123 -269 0
-123 -440 0
-123 -317 0
-124 -91 0
-124 -5 0
-124 -314 0
-124 -168 0
-124 -177 0
-124 -274 0
-124 -263 0
-124 -10 0
-125 -489 0
-125 -374 0
-125 -283 0
-125 -372 0
-125 -158 0
-125 -43 0
-125 -153 0
-125 -182 0
-125 -209 0
-125 -371 0
-125 -458 0
-125 -279 0
-125 -159 0
-126 -297 0
-126 -402 0
-126 -109 0
-126 -326 0
-126 -317 0
-126 -517 0
-126 -164 0
-126 -205 0
-126 -233 0
-126 -129 0
-126 -527 0
-126 -262 0
-126 -504 0
-126 -411 0
-126 -478 0
-127 -226 0
-127 -91 0
-127 -169 0
-127 -142 0
-127 -450 0
-127 -262 0
-127 -87 0
-127 -501 0
-127 -491 0
-127 -170 0
-127 -335 0
-127 -167 0
-128 -68 0
-128 -292 0
-128 -458 0
-128 -345 0
-128 -428 0
-128 -77 0
-128 -98 0
-128 -275 0
-128 -234 0
-128 -381 0
-128 -207 0
-128 -392 0
-128 -164 0
-128 -411 0
-129 -400 0
-129 -440 0
-129 -406 0
-129 -522 0
-129 -281 0
-129 -271 0
-129 -311 0
-129 -395 0
-129 -132 0
-129 -391 0
-129 -70 0
-129 -310 0
-129 -26 0
-129 -264 0
-130 -216 0
-130 -355 0
-130 -424 0
-130 -321 0
-130 -392 0
-130 -33 0
-130 -153 0
-130 -448 0
-130 -6 0
-130 -127 0
-130 -476 0
-131 -497 0
-131 -501 0
-131 -433 0
-131 -346 0
-131 -206 0
-131 -189 0
-131 -194 0
-131 -184 0
-131 -65 0
-131 -61 0
-131 -98 0
-131 -296 0
-132 -438 0
-132 -283 0
-132 -410 0
-132 -528 0
-132 -286 0
-132 -125 0
-132 -290 0
-132 -368 0
-132 -167 0
-132 -327 0
-132 -511 0
-133 -377 0
-133 -273 0
-133 -197 0
-133 -287 0
-133 -525 0
-133 -262 0
-133 -52 0
-133 -527 0
-133 -19 0
-133 -164 0
-133 -494 0
-134 -118 0
-134 -9 0
-134 -349 0
-134 -204 0
-134 -138 0
-134 -363 0
-134 -16 0
-134 -144 0
-134 -334 0
-134 -445 0
-135 -437 0
-135 -307 0
-135 -325 0
-135 -309 0
-135 -100 0
-135 -473 0
-135 -311 0
-135 -132 0
-135 -49 0
-135 -407 0
-135 -254 0
-135 -124 0
-135 -384 0
-135 -28 0
-136 -385 0
-136 -288 0
-136 -400 0
-136 -192 0
-136 -337 0
-136 -384 0
-136 -126 0
-136 -368 0
-136 -518 0
-136 -82 0
-136 -353 0
-137 -146 0
-137 -308 0
-137 -239 0
-137 -99 0
-137 -246 0
-137 -500 0
-137 -504 0
-137 -514 0
-137 -317 0
-137 -521 0
-137 -14 0
-138 -294 0
-138 -348 0
-138 -236 0
-138 -86 0
-138 -329 0
-138 -353 0
-138 -55 0
-138 -263 0
-138 -414 0
-138 -300 0
-138 -267 0
-138 -171 0
-138 -14 0
-139 -513 0
-139 -362 0
-139 -522 0
-139 -410 0
-139 -74 0
-139 -376 0
-139 -465 0
-139 -312 0
-139 -258 0
-139 -250 0
-139 -205 0
-139 -48 0
-139 -394 0
-140 -441 0
-140 -440 0
-140 -33 0
-140 -312 0
-140 -369 0
-140 -395 0
-140 -364 0
-140 -88 0
-140 -28 0
-140 -22 0
-140 -513 0
-140 -73 0
-140 -520 0
-141 -343 0
-141 -135 0
-141 -270 0
-141 -39 0
-141 -282 0
-141 -494 0
-141 -17 0
-141 -200 0
-141 -498 0
-141 -271 0
-141 -519 0
-141 -444 0
-142 -307 0
-142 -279 0
-142 -175 0
-142 -269 0
-142 -311 0
-142 -239 0
-142 -110 0
-142 -241 0
-142 -88 0
-142 -11 0
-142 -510 0
-142 -339 0
-142 -204 0
-143 -509 0
-143 -296 0
-143 -292 0
-143 -426 0
-143 -283 0
-143 -206 0
-143 -54 0
-143 -19 0
-143 -239 0
-143 -461 0
-143 -458 0
-143 -58 0
-144 -154 0
-144 -178 0
-144 -524 0
-144 -253 0
-144 -384 0
-144 -304 0
-144 -525 0
-144 -325 0
-144 -478 0
-144 -217 0
-144 -205 0
-144 -169 0
-144 -68 0
-145 -303 0
-145 -262 0
-145 -77 0
-145 -50 0
-145 -260 0
-145 -459 0
-145 -73 0
-145 -234 0
-145 -500 0
-145 -182 0
-145 -149 0
-145 -63 0
-145 -98 0
-145 -84 0
-145 -513 0
-145 -395 0
-145 -514 0
-146 -438 0
-146 -368 0
-146 -50 0
-146 -422 0
-146 -351 0
-146 -225 0
-146 -189 0
-146 -83 0
-146 -506 0
-146 -138 0
-146 -121 0
-147 -434 0
-147 -300 0
-147 -59 0
-147 -388 0
-147 -389 0
-147 -405 0
-147 -505 0
-147 -188 0
-147 -99 0
-147 -326 0
-147 -250 0
-147 -176 0
-148 -434 0
-148 -260 0
-148 -294 0
-148 -120 0
-148 -405 0
-148 -180 0
-148 -315 0
-148 -147 0
-148 -117 0
-148 -377 0
-148 -185 0
-148 -85 0
-148 -259 0
-148 -421 0
-148 -206 0
-149 -304 0
-149 -142 0
-149 -432 0
-149 -468 0
-149 -103 0
-149 -20 0
-149 -65 0
-149 -517 0
-149 -87 0
-149 -315 0
-149 -383 0
-149 -359 0
-149 -445 0
-149 -502 0
-149 -440 0
-150 -494 0
-150 -483 0
-150 -325 0
-150 -137 0
-150 -437 0
-150 -472 0
-150 -284 0
-150 -148 0
-150 -428 0
-150 -207 0
-151 -437 0
-151 -131 0
-151 -266 0
-151 -32 0
-151 -7 0
-151 -117 0
-151 -269 0
-151 -186 0
-151 -96 0
-151 -447 0
-151 -322 0
-151 -471 0
-151 -353 0
-152 -303 0
-152 -34 0
-152 -236 0
-152 -117 0
-152 -36 0
-152 -200 0
-152 -142 0
-152 -512 0
-152 -70 0
-152 -239 0
-152 -441 0
-152 -130 0
-153 -279 0
-153 -86 0
-153 -278 0
-153 -311 0
-153 -366 0
-153 -358 0
-153 -237 0
-153 -191 0
-153 -106 0
-153 -456 0
-153 -488 0
-153 -134 0
-153 -380 0
-153 -257 0
-153 -18 0
-153 -526 0
-154 -299 0
-154 -530 0
-154 -77 0
-154 -160 0
-154 -41 0
-154 -38 0
-154 -35 0
-154 -36 0
-154 -357 0
-154 -413 0
-154 -309 0
-154 -518 0
-154 -184 0
-154 -42 0
-155 -493 0
-155 -442 0
-155 -464 0
-155 -404 0
-155 -158 0
-155 -306 0
-155 -432 0
-155 -399 0
-155 -178 0
-155 -459 0
-155 -482 0
-155 -18 0
-155 -263 0
-156 -268 0
-156 -245 0
-156 -169 0
-156 -289 0
-156 -278 0
-156 -108 0
-156 -56 0
-156 -330 0
-156 -117 0
-156 -236 0
-156 -92 0
-156 -444 0
-157 -192 0
-157 -166 0
-157 -352 0
-157 -372 0
-157 -67 0
-157 -117 0
-157 -49 0
-157 -513 0
-157 -467 0
-157 -109 0
-158 -29 0
-158 -281 0
-158 -447 0
-158 -330 0
-158 -100 0
-158 -426 0
-158 -253 0
-158 -294 0
-158 -293 0
-158 -269 0
-158 -482 0
-158 -325 0
-158 -366 0
-158 -301 0
-158 -101 0
-159 -166 0
-159 -298 0
-159 -244 0
-159 -110 0
-159 -24 0
-159 -278 0
-159 -30 0
-160 -343 0
-160 -294 0
-160 -402 0
-160 -31 0
-160 -202 0
-160 -50 0
-160 -299 0
-160 -525 0
-160 -71 0
-160 -134 0
-160 -197 0
-161 -345 0
-161 -7 0
-161 -194 0
-161 -78 0
-161 -464 0
-161 -324 0
-161 -62 0
-161 -287 0
-161 -32 0
-161 -453 0
-161 -519 0
-162 -45 0
-162 -8 0
-162 -316 0
-162 -481 0
-162 -151 0
-162 -318 0
-162 -93 0
-162 -182 0
-162 -468 0
-162 -364 0
-162 -29 0
-162 -376 0
-163 -516 0
-163 -337 0
-163 -327 0
-163 -209 0
-163 -474 0
-163 -251 0
-163 -200 0
-163 -117 0
-163 -367 0
-163 -205 0
-163 -308 0
-163 -325 0
-163 -25 0
-163 -373 0
-164 -184 0
-164 -133 0
-164 -89 0
-164 -28 0
-164 -40 0
-164 -88 0
-164 -270 0
-164 -310 0
-164 -223 0
-164 -115 0
-164 -105 0
-164 -213 0
-164 -313 0
-165 -488 0
-165 -456 0
-165 -226 0
-165 -123 0
-165 -1 0
-165 -39 0
-165 -171 0
-165 -140 0
-165 -188 0
-165 -22 0
-165 -176 0
-165 -225 0
-165 -293 0
-165 -514 0
-166 -266 0
-166 -175 0
-166 -88 0
-166 -144 0
-166 -281 0
-166 -448 0
-166 -185 0
-167 -458 0
-168 -216 0
-168 -284 0
-168 -525 0
-168 -109 0
-168 -77 0
-168 -128 0
-168 -206 0
-168 -143 0
-168 -174 0
-168 -351 0
-168 -170 0
-168 -11 0
-168 -521 0
-168 -506 0
-169 -467 0
-169 -465 0
-169 -397 0
-169 -109 0
-169 -250 0
-169 -223 0
-169 -240 0
-169 -144 0
-170 -76 0
-170 -366 0
-170 -29 0
-170 -88 0
-170 -511 0
-170 -463 0
-170 -252 0
-170 -322 0
-170 -501 0
-170 -506 0
-170 -203 0
-170 -459 0
-171 -439 0
-171 -475 0
-171 -210 0
-171 -101 0
-171 -459 0
-171 -159 0
-171 -170 0
-171 -219 0
-171 -156 0
-171 -84 0
-171 -365 0
-171 -324 0
-171 -483 0
-171 -267 0
-172 -251 0
-172 -116 0
-172 -107 0
-172 -52 0
-172 -123 0
-172 -485 0
-172 -254 0
-172 -362 0
-172 -117 0
-172 -149 0
-172 -446 0
-173 -362 0
-173 -31 0
-173 -33 0
-173 -217 0
-173 -416 0
-173 -293 0
-173 -454 0
-173 -373 0
-173 -440 0
-173 -478 0
-173 -295 0
-174 -494 0
-174 -421 0
-174 -303 0
-174 -299 0
-174 -139 0
-174 -325 0
-174 -118 0
-174 -233 0
-174 -26 0
-174 -482 0
-174 -378 0
-174 -329 0
-174 -528 0
-174 -69 0
-174 -10 0
-174 -186 0
-175 -270 0
-175 -65 0
-175 -84 0
-175 -408 0
-176 -417 0
-176 -352 0
-176 -242 0
-176 -32 0
-176 -423 0
-176 -413 0
-176 -147 0
-176 -165 0
-176 -188 0
-176 -377 0
-176 -370 0
-176 -66 0
-176 -420 0
-176 -199 0
-176 -456 0
-177 -396 0
-177 -509 0
-177 -158 0
-177 -302 0
-177 -531 0
-177 -137 0
-177 -97 0
-177 -268 0
-177 -188 0
-177 -317 0
-177 -96 0
-177 -429 0
-177 -41 0
-177 -18 0
-177 -78 0
-177 -511 0
-178 -376 0
-178 -340 0
-178 -461 0
-178 -291 0
-178 -325 0
-178 -508 0
-178 -88 0
-178 -378 0
-178 -501 0
-178 -208 0
-178 -458 0
-178 -438 0
-179 -310 0
-179 -410 0
-179 -50 0
-179 -183 0
-179 -375 0
-179 -363 0
-179 -200 0
-179 -44 0
-179 -456 0
-179 -389 0
-179 -379 0
-179 -66 0
-179 -445 0
-179 -65 0
-180 -285 0
-180 -126 0
-180 -387 0
-180 -481 0
-180 -124 0
-180 -347 0
-180 -244 0
-180 -336 0
-180 -179 0
-180 -191 0
-181 -251 0
-181 -214 0
-181 -205 0
-181 -246 0
-181 -86 0
-181 -329 0
-181 -361 0
-181 -143 0
-182 -281 0
-182 -187 0
-182 -39 0
-182 -427 0
-182 -459 0
-182 -396 0
-182 -40 0
-182 -66 0
-182 -499 0
-182 -488 0
-182 -63 0
-183 -433 0
-183 -333 0
-183 -296 0
-183 -523 0
-183 -290 0
-183 -278 0
-183 -204 0
-183 -459 0
-183 -177 0
-183 -260 0
-183 -173 0
-183 -286 0
-183 -342 0
-183 -514 0
-184 -270 0
-185 -218 0
-185 -39 0
-185 -242 0
-185 -329 0
-185 -381 0
-185 -188 0
-185 -235 0
-185 -362 0
-185 -368 0
-185 -138 0
-185 -438 0
-185 -507 0
-185 -501 0
-185 -386 0
-186 -417 0
-186 -332 0
-186 -52 0
-186 -270 0
-186 -28 0
-186 -508 0
-186 -462 0
-186 -311 0
-186 -72 0
-186 -159 0
-186 -530 0
-186 -355 0
-186 -26 0
-186 -81 0
-186 -225 0
-187 -386 0
-187 -303 0
-187 -312 0
-187 -415 0
-187 -240 0
-187 -145 0
-187 -21 0
-187 -484 0
-187 -358 0
-187 -462 0
-187 -378 0
-187 -316 0
-187 -133 0
-187 -448 0
-188 -408 0
-188 -251 0
-188 -432 0
-188 -38 0
-188 -225 0
-188 -246 0
-188 -395 0
-188 -370 0
-188 -180 0
-189 -442 0
-189 -443 0
-189 -38 0
-189 -203 0
-189 -293 0
-189 -217 0
-189 -305 0
-189 -381 0
-189 -313 0
-190 -284 0
-190 -334 0
-190 -348 0
-190 -373 0
-190 -242 0
-190 -38 0
-190 -511 0
-190 -409 0
-190 -311 0
-190 -60 0
-190 -313 0
-190 -189 0
-190 -235 0
-190 -300 0
-190 -188 0
-191 -240 0
-191 -208 0
-191 -118 0
-191 -28 0
-191 -19 0
-191 -378 0
-191 -344 0
-191 -185 0
-191 -514 0
-191 -97 0
-191 -445 0
-191 -456 0
-191 -473 0
-191 -373 0
-192 -454 0
-192 -415 0
-192 -312 0
-192 -143 0
-192 -153 0
-192 -209 0
-192 -370 0
-192 -17 0
-192 -422 0
-192 -387 0
-192 -8 0
-192 -382 0
-192 -223 0
-192 -511 0
-192 -392 0
-193 -240 0
-193 -253 0
-193 -369 0
-193 -462 0
-193 -364 0
-193 -185 0
-193 -95 0
-193 -33 0
-193 -133 0
-193 -231 0
-193 -64 0
-194 -284 0
-194 -226 0
-194 -264 0
-194 -102 0
-194 -384 0
-194 -387 0
-194 -462 0
-194 -287 0
-194 -414 0
-194 -179 0
-194 -192 0
-194 -135 0
-195 -139 0
-195 -143 0
-195 -434 0
-195 -282 0
-195 -182 0
-195 -521 0
-195 -227 0
-195 -477 0
-195 -63 0
-195 -68 0
-195 -159 0
-196 -41 0
-196 -419 0
-196 -239 0
-196 -87 0
-196 -380 0
-196 -63 0
-196 -65 0
-196 -319 0
-196 -445 0
-196 -361 0
-196 -38 0
-196 -457 0
-196 -30 0
-196 -441 0
-196 -528 0
-196 -386 0
-197 -440 0
-197 -365 0
-197 -268 0
-197 -43 0
-197 -493 0
-197 -408 0
-197 -81 0
-198 -453 0
-198 -507 0
-198 -489 0
-198 -400 0
-198 -243 0
-198 -306 0
-198 -266 0
-198 -50 0
-198 -356 0
-198 -459 0
-198 -82 0
-198 -78 0
-198 -11 0
-198 -302 0
-198 -483 0
-199 -210 0
-199 -526 0
-199 -275 0
-199 -305 0
-199 -222 0
-199 -400 0
-199 -189 0
-199 -96 0
-199 -178 0
-199 -215 0
-199 -338 0
-199 -446 0
-199 -329 0
-199 -67 0
-199 -63 0
-199 -17 0
-199 -171 0
-200 -325 0
-200 -431 0
-200 -186 0
-200 -33 0
-200 -231 0
-200 -442 0
-200 -119 0
-200 -367 0
-200 -60 0
-200 -353 0
-200 -509 0
-200 -138 0
-201 -412 0
-201 -391 0
-201 -260 0
-201 -415 0
-201 -189 0
-201 -372 0
-201 -382 0
-201 -172 0
-201 -335 0
-201 -150 0
-201 -409 0
-201 -58 0
-201 -74 0
-202 -475 0
-202 -480 0
-202 -379 0
-202 -273 0
-202 -120 0
-202 -113 0
-202 -102 0
-202 -488 0
-202 -347 0
-202 -215 0
-202 -260 0
-202 -383 0
-203 -145 0
-203 -38 0
-203 -347 0
-203 -173 0
-203 -179 0
-203 -20 0
-203 -355 0
-203 -62 0
-203 -516 0
-203 -353 0
-203 -327 0
-203 -393 0
-204 -135 0
-204 -279 0
-204 -270 0
-204 -9 0
-204 -304 0
-204 -24 0
-204 -257 0
-204 -103 0
-204 -325 0
-204 -203 0
-205 -355 0
-205 -525 0
-205 -154 0
-205 -124 0
-205 -71 0
-205 -60 0
-205 -433 0
-205 -382 0
-205 -512 0
-205 -72 0
-205 -20 0
-205 -507 0
-205 -109 0
-206 -487 0
-206 -254 0
-206 -330 0
-206 -226 0
-206 -33 0
-206 -106 0
-206 -394 0
-206 -396 0
-206 -244 0
-206 -378 0
-206 -411 0
-207 -451 0
-207 -434 0
-207 -253 0
-207 -218 0
-207 -381 0
-207 -379 0
-207 -491 0
-207 -35 0
-207 -189 0
-207 -353 0
-207 -133 0
-207 -519 0
-208 -289 0
-208 -352 0
-208 -99 0
-208 -318 0
-208 -197 0
-208 -90 0
-208 -460 0
-208 -117 0
-208 -456 0
-209 -104 0
-209 -360 0
-209 -263 0
-209 -75 0
-209 -157 0
-209 -84 0
-209 -142 0
-209 -512 0
-209 -385 0
-209 -46 0
-209 -314 0
-209 -439 0
-209 -327 0
-209 -61 0
-209 -10 0
-209 -361 0
-209 -165 0
-210 -67 0
-210 -495 0
-210 -266 0
-210 -54 0
-210 -6 0
-210 -415 0
-210 -401 0
-210 -220 0
-210 -369 0
-210 -252 0
-210 -187 0
-210 -75 0
-210 -164 0
-211 -407 0
-211 -374 0
-211 -201 0
-211 -402 0
-211 -362 0
-211 -109 0
-211 -391 0
-211 -37 0
-211 -286 0
-211 -194 0
-211 -263 0
-211 -275 0
-211 -222 0
-211 -62 0
-211 -521 0
-212 -500 0
-212 -486 0
-212 -483 0
-212 -418 0
-212 -325 0
-212 -175 0
-212 -316 0
-212 -33 0
-212 -326 0
-212 -26 0
-212 -478 0
-212 -501 0
-212 -412 0
-212 -490 0
-212 -44 0
-213 -63 0
-213 -393 0
-213 -181 0
-213 -38 0
-213 -35 0
-213 -304 0
-213 -77 0
-213 -146 0
-213 -353 0
-213 -466 0
-213 -366 0
-213 -51 0
-214 -426 0
-214 -470 0
-214 -415 0
-214 -385 0
-214 -178 0
-214 -384 0
-214 -361 0
-214 -140 0
-214 -500 0
-214 -204 0
-214 -335 0
-214 -508 0
-214 -422 0
-214 -283 0
-214 -496 0
-214 -439 0
-214 -24 0
-215 -63 0
-215 -416 0
-215 -333 0
-215 -289 0
-215 -210 0
-215 -530 0
-215 -15 0
-215 -372 0
-215 -435 0
-215 -241 0
-215 -64 0
-216 -518 0
-216 -454 0
-216 -62 0
-216 -352 0
-216 -203 0
-216 -7 0
-216 -34 0
-216 -376 0
-216 -466 0
-216 -423 0
-216 -23 0
-217 -411 0
-217 -359 0
-217 -503 0
-217 -184 0
-217 -156 0
-217 -94 0
-217 -225 0
-217 -331 0
-217 -358 0
-217 -50 0
-217 -121 0
-217 -448 0
-217 -498 0
-217 -329 0
-218 -464 0
-218 -215 0
-218 -169 0
-218 -13 0
-218 -528 0
-218 -390 0
-218 -17 0
-218 -99 0
-218 -76 0
-218 -193 0
-218 -105 0
-218 -460 0
-218 -167 0
-218 -188 0
-218 -130 0
-219 -297 0
-219 -345 0
-219 -54 0
-219 -236 0
-219 -235 0
-219 -147 0
-219 -400 0
-219 -204 0
-219 -511 0
-219 -72 0
-219 -276 0
-219 -200 0
-219 -257 0
-219 -339 0
-219 -430 0
-219 -390 0
-220 -519 0
-220 -422 0
-220 -448 0
-220 -343 0
-220 -272 0
-220 -18 0
-220 -194 0
-220 -147 0
-220 -363 0
-220 -382 0
-220 -326 0
-220 -201 0
-221 -507 0
-221 -388 0
-221 -343 0
-221 -154 0
-221 -166 0
-221 -35 0
-221 -499 0
-221 -462 0
-221 -378 0
-221 -43 0
-221 -358 0
-221 -80 0
-221 -74 0
-221 -2 0
-221 -16 0
-221 -450 0
-222 -510 0
-222 -228 0
-222 -172 0
-222 -82 0
-222 -147 0
-222 -380 0
-222 -175 0
-222 -513 0
-222 -399 0
-223 -139 0
-223 -218 0
-223 -360 0
-223 -17 0
-223 -472 0
-223 -311 0
-223 -181 0
-223 -157 0
-223 -103 0
-223 -504 0
-223 -282 0
-224 -461 0
-224 -150 0
-224 -279 0
-224 -8 0
-224 -283 0
-224 -476 0
-224 -328 0
-224 -209 0
-224 -351 0
-224 -315 0
-224 -281 0
-224 -107 0
-224 -487 0
-225 -419 0
-225 -258 0
-225 -77 0
-225 -191 0
-225 -132 0
-225 -119 0
-225 -170 0
-225 -162 0
-226 -379 0
-226 -509 0
-226 -404 0
-226 -476 0
-226 -356 0
-226 -363 0
-226 -488 0
-226 -51 0
-226 -132 0
-226 -403 0
-226 -528 0
-227 -208 0
-227 -137 0
-227 -2 0
-227 -6 0
-227 -467 0
-227 -149 0
-227 -204 0
-227 -482 0
-227 -362 0
-227 -455 0
-227 -390 0
-227 -273 0
-227 -364 0
-227 -30 0
-228 -482 0
-228 -292 0
-228 -63 0
-228 -350 0
-228 -310 0
-228 -371 0
-228 -452 0
-228 -316 0
-228 -231 0
-228 -497 0
-228 -432 0
-228 -182 0
-228 -105 0
-229 -197 0
-229 -253 0
-229 -408 0
-229 -515 0
-230 -336 0
-230 -380 0
-230 -302 0
-230 -208 0
-230 -226 0
-230 -366 0
-230 -28 0
-230 -202 0
-230 -474 0
-230 -204 0
-230 -122 0
-230 -359 0
-230 -444 0
-230 -153 0
-230 -129 0
-230 -374 0
-231 -166 0
-231 -57 0
-231 -109 0
-231 -409 0
-231 -93 0
-231 -19 0
-231 -147 0
-231 -335 0
-231 -329 0
-231 -320 0
-231 -495 0
-231 -72 0
-231 -436 0
-231 -512 0
-232 -215 0
-232 -154 0
-232 -156 0
-232 -424 0
-232 -253 0
-232 -261 0
-232 -95 0
-232 -203 0
-232 -513 0
-232 -113 0
-232 -470 0
-232 -166 0
-232 -507 0
-232 -322 0
-232 -413 0
-232 -443 0
-233 -483 0
-233 -506 0
-233 -143 0
-233 -106 0
-233 -181 0
-233 -110 0
-233 -323 0
-233 -191 0
-233 -462 0
-233 -11 0
-233 -461 0
-233 -47 0
-233 -33 0
-233 -501 0
-233 -498 0
-234 -422 0
-234 -208 0
-234 -120 0
-234 -111 0
-234 -166 0
-234 -313 0
-234 -239 0
-234 -26 0
-234 -230 0
-234 -137 0
-234 -370 0
-234 -347 0
-234 -292 0
-234 -7 0
-234 -73 0
-234 -70 0
-235 -425 0
-235 -333 0
-235 -197 0
-235 -419 0
-235 -360 0
-235 -251 0
-235 -399 0
-235 -34 0
-236 -386 0
-236 -318 0
-236 -426 0
-236 -273 0
-236 -293 0
-236 -351 0
-236 -519 0
-236 -29 0
-236 -69 0
-236 -5 0
-236 -129 0
-236 -51 0
-236 -397 0
-237 -352 0
-237 -137 0
-237 -375 0
-237 -134 0
-237 -138 0
-237 -112 0
-237 -18 0
-237 -493 0
-237 -193 0
-237 -283 0
-237 -36 0
-237 -333 0
-237 -480 0
-237 -368 0
-238 -336 0
-238 -406 0
-238 -104 0
-238 -69 0
-238 -31 0
-238 -366 0
-238 -362 0
-238 -252 0
-238 -315 0
-238 -324 0
-238 -458 0
-238 -331 0
-238 -437 0
-239 -365 0
-239 -408 0
-239 -440 0
-240 -386 0
-240 -483 0
-240 -203 0
-240 -43 0
-240 -376 0
-240 -378 0
-240 -220 0
-240 -361 0
-240 -8 0
-240 -278 0
-240 -61 0
-240 -274 0
-241 -318 0
-241 -273 0
-241 -89 0
-241 -128 0
-241 -338 0
-241 -303 0
-241 -142 0
-241 -132 0
-241 -117 0
-241 -339 0
-241 -235 0
-241 -371 0
-242 -71 0
-242 -66 0
-242 -466 0
-242 -497 0
-242 -292 0
-242 -381 0
-242 -276 0
-242 -338 0
-242 -392 0
-242 -34 0
-242 -56 0
-243 -494 0
-243 -492 0
-243 -456 0
-243 -446 0
-243 -441 0
-243 -306 0
-243 -502 0
-243 -201 0
-243 -16 0
-243 -101 0
-243 -250 0
-243 -299 0
-243 -33 0
-244 -313 0
-244 -426 0
-244 -318 0
-244 -433 0
-244 -277 0
-244 -270 0
-244 -266 0
-244 -104 0
-244 -7 0
-244 -165 0
-244 -310 0
-244 -14 0
-244 -226 0
-244 -162 0
-244 -241 0
-245 -445 0
-245 -312 0
-245 -476 0
-245 -105 0
-245 -174 0
-245 -279 0
-245 -243 0
-245 -133 0
-245 -510 0
-245 -295 0
-245 -444 0
-245 -412 0
-245 -20 0
-245 -502 0
-246 -299 0
-246 -318 0
-246 -404 0
-246 -392 0
-246 -73 0
-246 -171 0
-246 -272 0
-246 -495 0
-246 -430 0
-246 -377 0
-246 -471 0
-247 -403 0
-247 -448 0
-247 -276 0
-247 -386 0
-247 -396 0
-247 -297 0
-247 -52 0
-247 -373 0
-247 -477 0
-247 -7 0
-247 -502 0
-247 -121 0
-247 -165 0
-247 -335 0
-247 -23 0
-247 -82 0
-248 -433 0
-248 -510 0
-248 -394 0
-248 -277 0
-248 -251 0
-248 -287 0
-248 -5 0
-248 -36 0
-248 -328 0
-248 -281 0
-248 -314 0
-248 -140 0
-248 -326 0
-248 -475 0
-248 -231 0
-248 -455 0
-248 -275 0
-248 -291 0
-249 -201 0
-249 -279 0
-249 -175 0
-249 -216 0
-249 -10 0
-249 -508 0
-249 -229 0
-249 -157 0
-249 -93 0
-249 -4 0
-249 -498 0
-249 -194 0
-249 -421 0
-249 -283 0
-250 -52 0
-250 -324 0
-250 -171 0
-250 -78 0
-250 -88 0
-250 -405 0
-250 -332 0
-250 -174 0
-250 -382 0
-250 -26 0
-250 -292 0
-250 -121 0
-251 -490 0
-251 -491 0
-251 -333 0
-251 -466 0
-251 -3 0
-251 -464 0
-251 -25 0
-251 -45 0
-251 -329 0
-251 -309 0
-251 -226 0
-251 -431 0
-251 -105 0
-252 -505 0
-252 -289 0
-252 -201 0
-252 -357 0
-252 -74 0
-252 -342 0
-252 -104 0
-252 -179 0
-252 -101 0
-252 -119 0
-252 -207 0
-252 -463 0
-253 -293 0
-253 -95 0
-253 -365 0
-254 -515 0
-254 -452 0
-254 -192 0
-254 -86 0
-254 -253 0
-254 -39 0
-254 -328 0
-254 -360 0
-254 -239 0
-254 -278 0
-254 -358 0
-254 -518 0
-255 -445 0
-255 -355 0
-255 -266 0
-255 -50 0
-255 -210 0
-255 -228 0
-255 -520 0
-255 -159 0
-255 -173 0
-255 -476 0
-255 -246 0
-255 -26 0
-255 -208 0
-255 -514 0
-256 -334 0
-256 -61 0
-256 -420 0
-256 -325 0
-256 -203 0
-256 -59 0
-256 -282 0
-256 -308 0
-256 -136 0
-256 -300 0
-256 -97 0
-256 -88 0
-256 -176 0
-256 -355 0
-256 -463 0
-256 -328 0
-257 -158 0
-257 -243 0
-257 -291 0
-257 -83 0
-257 -528 0
-257 -495 0
-257 -132 0
-257 -502 0
-257 -368 0
-257 -185 0
-257 -124 0
-257 -488 0
-257 -182 0
-258 -443 0
-258 -275 0
-258 -525 0
-258 -419 0
-258 -268 0
-258 -369 0
-258 -366 0
-258 -236 0
-258 -94 0
-258 -136 0
-258 -33 0
-258 -15 0
-258 -71 0
-258 -173 0
-258 -7 0
-259 -277 0
-259 -285 0
-259 -48 0
-259 -357 0
-259 -13 0
-259 -428 0
-259 -10 0
-259 -459 0
-259 -142 0
-259 -304 0
-259 -273 0
-259 -515 0
-259 -443 0
-260 -493 0
-260 -365 0
-260 -408 0
-260 -270 0
-260 -239 0
-260 -167 0
-260 -377 0
-260 -84 0
-260 -322 0
-260 -269 0
-261 -497 0
-261 -420 0
-261 -307 0
-261 -169 0
-261 -476 0
-261 -82 0
-261 -312 0
-261 -447 0
-261 -38 0
-261 -127 0
-261 -122 0
-261 -274 0
-261 -107 0
-262 -140 0
-262 -337 0
-262 -84 0
-262 -257 0
-262 -29 0
-262 -271 0
-262 -102 0
-262 -117 0
-262 -521 0
-262 -20 0
-262 -389 0
-262 -21 0
-262 -419 0
-263 -5 0
-263 -35 0
-263 -411 0
-263 -129 0
-263 -95 0
-263 -463 0
-263 -456 0
-263 -196 0
-263 -317 0
-263 -339 0
-263 -65 0
-264 -70 0
-264 -333 0
-264 -327 0
-264 -417 0
-264 -100 0
-264 -99 0
-264 -428 0
-264 -244 0
-264 -469 0
-264 -136 0
-264 -24 0
-264 -111 0
-264 -463 0
-265 -497 0
-265 -197 0
-265 -501 0
-265 -359 0
-265 -96 0
-265 -304 0
-265 -221 0
-265 -241 0
-265 -38 0
-265 -22 0
-265 -98 0
-265 -121 0
-265 -132 0
-266 -506 0
-266 -464 0
-266 -483 0
-266 -400 0
-266 -293 0
-266 -124 0
-266 -153 0
-266 -112 0
-266 -395 0
-266 -449 0
-267 -224 0
-267 -287 0
-267 -113 0
-267 -27 0
-267 -183 0
-267 -296 0
-267 -453 0
-267 -447 0
-267 -505 0
-268 -458 0
-269 -7 0
-270 -408 0
-270 -458 0
-271 -303 0
-271 -526 0
-271 -190 0
-271 -387 0
-271 -159 0
-271 -235 0
-271 -203 0
-271 -248 0
-271 -366 0
-271 -56 0
-271 -53 0
-271 -448 0
-271 -441 0
-272 -248 0
-272 -155 0
-272 -167 0
-272 -338 0
-272 -19 0
-272 -485 0
-272 -456 0
-272 -508 0
-272 -202 0
-272 -260 0
-272 -339 0
-272 -218 0
-272 -45 0
-272 -156 0
-272 -455 0
-272 -240 0
-272 -24 0
-273 -354 0
-273 -109 0
-273 -181 0
-273 -315 0
-273 -282 0
-273 -337 0
-273 -474 0
-273 -235 0
-273 -475 0
-273 -157 0
-273 -393 0
-273 -213 0
-274 -365 0
-274 -381 0
-274 -423 0
-274 -378 0
-274 -278 0
-274 -78 0
-274 -251 0
-274 -114 0
-274 -147 0
-274 -108 0
-274 -155 0
-274 -139 0
-274 -164 0
-275 -184 0
-275 -324 0
-275 -34 0
-275 -125 0
-275 -341 0
-275 -250 0
-275 -481 0
-275 -469 0
-275 -11 0
-275 -409 0
-275 -495 0
-275 -95 0
-275 -67 0
-276 -278 0
-276 -117 0
-276 -167 0
-276 -125 0
-276 -464 0
-276 -266 0
-276 -528 0
-276 -206 0
-276 -118 0
-276 -106 0
-276 -282 0
-276 -399 0
-276 -11 0
-276 -41 0
-276 -495 0
-277 -373 0
-277 -370 0
-277 -483 0
-277 -23 0
-277 -154 0
-277 -37 0
-277 -505 0
-277 -99 0
-277 -35 0
-277 -143 0
-277 -4 0
-278 -456 0
-278 -275 0
-278 -118 0
-278 -242 0
-278 -32 0
-278 -174 0
-278 -398 0
-278 -217 0
-278 -489 0
-278 -495 0
-278 -12 0
-278 -119 0
-278 -171 0
-279 -38 0
-279 -69 0
-279 -431 0
-279 -331 0
-279 -235 0
-279 -295 0
-279 -24 0
-279 -421 0
-279 -54 0
-279 -48 0
-280 -31 0
-280 -338 0
-280 -353 0
-280 -92 0
-280 -98 0
-280 -87 0
-280 -181 0
-280 -431 0
-280 -528 0
-280 -182 0
-280 -279 0
-280 -111 0
-281 -440 0
-281 -385 0
-281 -393 0
-281 -434 0
-281 -264 0
-281 -369 0
-281 -216 0
-281 -312 0
-281 -259 0
-281 -205 0
-281 -502 0
-281 -227 0
-282 -325 0
-282 -96 0
-282 -263 0
-282 -140 0
-282 -222 0
-282 -449 0
-282 -95 0
-282 -135 0
-283 -296 0
-283 -254 0
-283 -337 0
-283 -236 0
-283 -8 0
-283 -118 0
-283 -418 0
-283 -115 0
-283 -130 0
-283 -284 0
-283 -527 0
-283 -66 0
-284 -32 0
-284 -321 0
-284 -370 0
-284 -491 0
-284 -112 0
-284 -382 0
-284 -202 0
-284 -24 0
-284 -420 0
-284 -247 0
-284 -160 0
-285 -518 0
-285 -404 0
-285 -434 0
-285 -360 0
-285 -424 0
-285 -279 0
-285 -17 0
-285 -249 0
-285 -427 0
-285 -437 0
-285 -408 0
-285 -80 0
-286 -150 0
-286 -175 0
-286 -361 0
-286 -85 0
-286 -194 0
-286 -462 0
-286 -324 0
-286 -366 0
-286 -195 0
-286 -531 0
-286 -391 0
-287 -345 0
-287 -428 0
-287 -471 0
-287 -254 0
-287 -276 0
-287 -401 0
-287 -351 0
-287 -194 0
-287 -108 0
-288 -476 0
-288 -159 0
-288 -136 0
-288 -223 0
-288 -191 0
-288 -518 0
-288 -253 0
-288 -131 0
-288 -201 0
-288 -224 0
-288 -454 0
-288 -104 0
-288 -477 0
-288 -80 0
-288 -175 0
-288 -130 0
-289 -17 0
-289 -250 0
-289 -409 0
-289 -260 0
-289 -379 0
-289 -400 0
-289 -241 0
-289 -453 0
-289 -220 0
-289 -65 0
-289 -474 0
-289 -189 0
-290 -99 0
-290 -487 0
-290 -448 0
-290 -297 0
-290 -485 0
-290 -103 0
-290 -106 0
-290 -315 0
-290 -100 0
-290 -33 0
-290 -41 0
-290 -109 0
-290 -496 0
-291 -332 0
-291 -355 0
-291 -260 0
-291 -77 0
-291 -135 0
-291 -36 0
-291 -319 0
-291 -189 0
-291 -290 0
-291 -242 0
-291 -29 0
-291 -238 0
-291 -44 0
-292 -414 0
-292 -301 0
-292 -42 0
-292 -99 0
-292 -430 0
-292 -12 0
-292 -285 0
-292 -367 0
-292 -481 0
-292 -218 0
-292 -258 0
-292 -242 0
-292 -182 0
-293 -65 0
-293 -408 0
-294 -364 0
-294 -333 0
-294 -150 0
-294 -97 0
-294 -258 0
-294 -327 0
-294 -76 0
-294 -73 0
-294 -42 0
-294 -523 0
-294 -259 0
-294 -192 0
-294 -479 0
-294 -504 0
-294 -222 0
-294 -61 0
-295 -19 0
-295 -211 0
-295 -101 0
-295 -119 0
-295 -443 0
-295 -502 0
-295 -139 0
-295 -156 0
-295 -525 0
-295 -262 0
-295 -322 0
-295 -173 0
-296 -409 0
-296 -392 0
-296 -98 0
-296 -84 0
-296 -91 0
-296 -58 0
-296 -258 0
-296 -76 0
-296 -262 0
-296 -528 0
-296 -376 0
-296 -120 0
-297 -261 0
-297 -38 0
-297 -436 0
-297 -267 0
-297 -483 0
-297 -272 0
-297 -504 0
-297 -36 0
-297 -250 0
-298 -421 0
-298 -181 0
-298 -31 0
-298 -40 0
-298 -129 0
-298 -99 0
-298 -132 0
-298 -161 0
-298 -98 0
-298 -153 0
-298 -134 0
-299 -513 0
-299 -487 0
-299 -277 0
-299 -502 0
-299 -407 0
-299 -401 0
-299 -114 0
-299 -12 0
-299 -63 0
-299 -426 0
-299 -339 0
-299 -161 0
-300 -507 0
-300 -422 0
-300 -386 0
-300 -133 0
-300 -408 0
-300 -466 0
-300 -395 0
-300 -274 0
-300 -260 0
-300 -123 0
-300 -321 0
-300 -223 0
-300 -115 0
-300 -117 0
-300 -487 0
-301 -440 0
-301 -428 0
-301 -17 0
-301 -366 0
-301 -311 0
-301 -452 0
-301 -507 0
-301 -376 0
-301 -61 0
-301 -42 0
-301 -22 0
-302 -480 0
-302 -449 0
-302 -402 0
-302 -320 0
-302 -50 0
-302 -474 0
-302 -38 0
-302 -465 0
-302 -388 0
-302 -92 0
-302 -531 0
-302 -519 0
-303 -65 0
-303 -428 0
-303 -83 0
-303 -268 0
-303 -265 0
-303 -412 0
-303 -333 0
-303 -500 0
-303 -328 0
-303 -457 0
-303 -196 0
-303 -449 0
-303 -16 0
-303 -213 0
-304 -306 0
-304 -333 0
-304 -394 0
-304 -213 0
-304 -395 0
-304 -86 0
-304 -33 0
-304 -92 0
-304 -472 0
-304 -427 0
-304 -233 0
-304 -284 0
-304 -134 0
-305 -264 0
-305 -315 0
-305 -476 0
-305 -29 0
-305 -193 0
-305 -434 0
-305 -46 0
-305 -350 0
-306 -409 0
-306 -99 0
-306 -478 0
-306 -420 0
-306 -258 0
-306 -350 0
-306 -286 0
-306 -345 0
-306 -184 0
-306 -154 0
-306 -442 0
-306 -160 0
-306 -48 0
-306 -173 0
-307 -63 0
-307 -139 0
-307 -251 0
-307 -266 0
-307 -222 0
-307 -61 0
-307 -438 0
-307 -57 0
-307 -344 0
-307 -171 0
-307 -134 0
-308 -359 0
-308 -426 0
-308 -253 0
-308 -116 0
-308 -25 0
-308 -286 0
-308 -99 0
-308 -41 0
-308 -138 0
-308 -61 0
-308 -176 0
-308 -163 0
-308 -297 0
-309 -461 0
-309 -422 0
-309 -345 0
-309 -285 0
-309 -69 0
-309 -78 0
-309 -276 0
-309 -331 0
-309 -223 0
-309 -498 0
-309 -490 0
-309 -187 0
-309 -29 0
-309 -407 0
-309 -362 0
-310 -26 0
-310 -522 0
-310 -126 0
-310 -40 0
-310 -263 0
-310 -282 0
-310 -28 0
-310 -116 0
-310 -294 0
-310 -253 0
-310 -427 0
-310 -475 0
-310 -385 0
-310 -178 0
-310 -516 0
-310 -189 0
-311 -486 0
-311 -393 0
-311 -187 0
-311 -106 0
-311 -206 0
-311 -414 0
-311 -144 0
-311 -120 0
-311 -189 0
-311 -418 0
-311 -390 0
-311 -338 0
-311 -480 0
-311 -36 0
-311 -55 0
-312 -510 0
-312 -476 0
-312 -526 0
-312 -423 0
-312 -180 0
-312 -232 0
-312 -207 0
-312 -60 0
-312 -16 0
-312 -344 0
-312 -487 0
-312 -350 0
-312 -91 0
-312 -456 0
-313 -38 0
-313 -164 0
-313 -396 0
-313 -43 0
-313 -391 0
-313 -344 0
-313 -364 0
-313 -410 0
-313 -493 0
-313 -384 0
-313 -298 0
-313 -48 0
-314 -490 0
-314 -240 0
-314 -524 0
-314 -43 0
-314 -109 0
-314 -145 0
-314 -431 0
-314 -392 0
-314 -125 0
-314 -511 0
-314 -76 0
-315 -437 0
-315 -426 0
-315 -54 0
-315 -35 0
-315 -312 0
-315 -226 0
-315 -450 0
-315 -305 0
-315 -489 0
-315 -413 0
-315 -386 0
-315 -528 0
-316 -303 0
-316 -268 0
-316 -206 0
-316 -350 0
-316 -477 0
-316 -64 0
-316 -502 0
-316 -394 0
-316 -156 0
-317 -7 0
-317 -293 0
-317 -322 0
-317 -197 0
-317 -365 0
-317 -80 0
-317 -500 0
-318 -440 0
-318 -345 0
-318 -496 0
-318 -420 0
-318 -46 0
-318 -406 0
-318 -28 0
-318 -349 0
-318 -153 0
-318 -240 0
-319 -429 0
-319 -354 0
-319 -448 0
-319 -254 0
-319 -426 0
-319 -152 0
-319 -362 0
-319 -125 0
-319 -96 0
-319 -501 0
-319 -432 0
-319 -104 0
-319 -504 0
-319 -199 0
-319 -189 0
-320 -382 0
-320 -264 0
-320 -432 0
-320 -337 0
-320 -522 0
-320 -443 0
-320 -152 0
-320 -9 0
-320 -366 0
-320 -174 0
-320 -259 0
-320 -17 0
-320 -117 0
-320 -463 0
-320 -108 0
-321 -23 0
-321 -25 0
-321 -318 0
-321 -196 0
-321 -75 0
-321 -53 0
-321 -390 0
-321 -50 0
-321 -452 0
-321 -380 0
-323 -11 0
-323 -436 0
-323 -288 0
-323 -175 0
-323 -34 0
-323 -9 0
-323 -140 0
-323 -99 0
-323 -166 0
-323 -449 0
-323 -198 0
-323 -501 0
-323 -118 0
-323 -291 0
-324 -379 0
-324 -126 0
-324 -20 0
-324 -513 0
-324 -194 0
-324 -311 0
-324 -472 0
-324 -232 0
-324 -358 0
-324 -226 0
-324 -448 0
-325 -6 0
-325 -45 0
-325 -223 0
-325 -151 0
-325 -105 0
-325 -119 0
-325 -25 0
-326 -52 0
-326 -318 0
-326 -253 0
-326 -299 0
-326 -457 0
-326 -278 0
-326 -454 0
-326 -151 0
-326 -301 0
-326 -406 0
-326 -353 0
-327 -207 0
-327 -88 0
-327 -149 0
-327 -162 0
-327 -316 0
-327 -372 0
-327 -377 0
-327 -108 0
-327 -296 0
-327 -513 0
-327 -315 0
-327 -199 0
-327 -507 0
-327 -236 0
-327 -410 0
-327 -462 0
-328 -332 0
-328 -11 0
-328 -254 0
-328 -346 0
-328 -400 0
-328 -385 0
-328 -53 0
-328 -503 0
-328 -60 0
-329 -281 0
-329 -253 0
-329 -86 0
-329 -31 0
-329 -351 0
-329 -390 0
-329 -202 0
-329 -225 0
-329 -91 0
-329 -325 0
-329 -63 0
-329 -294 0
-330 -380 0
-330 -325 0
-330 -275 0
-330 -141 0
-330 -405 0
-330 -44 0
-330 -107 0
-330 -168 0
-330 -147 0
-330 -104 0
-330 -35 0
-330 -517 0
-330 -81 0
-330 -492 0
-331 -109 0
-331 -124 0
-331 -507 0
-331 -316 0
-331 -113 0
-331 -72 0
-332 -481 0
-332 -136 0
-332 -189 0
-332 -64 0
-332 -408 0
-332 -441 0
-332 -334 0
-332 -40 0
-332 -501 0
-332 -492 0
-332 -278 0
-332 -433 0
-332 -325 0
-332 -147 0
-332 -184 0
-332 -108 0
-332 -422 0
-333 -58 0
-333 -249 0
-333 -63 0
-333 -450 0
-333 -16 0
-333 -422 0
-333 -478 0
-333 -419 0
-333 -347 0
-333 -529 0
-333 -413 0
-333 -83 0
-333 -107 0
-333 -264 0
-334 -221 0
-334 -87 0
-334 -482 0
-334 -46 0
-334 -337 0
-334 -117 0
-334 -356 0
-334 -253 0
-334 -487 0
-334 -524 0
-334 -107 0
-334 -490 0
-335 -325 0
-335 -406 0
-335 -222 0
-335 -175 0
-335 -79 0
-335 -348 0
-335 -223 0
-335 -233 0
-335 -383 0
-335 -457 0
-335 -382 0
-335 -502 0
-336 -372 0
-336 -140 0
-336 -250 0
-336 -36 0
-336 -162 0
-336 -362 0
-336 -459 0
-336 -79 0
-336 -378 0
-336 -512 0
-336 -339 0
-336 -238 0
-336 -29 0
-336 -415 0
-336 -245 0
-336 -376 0
-337 -264 0
-337 -360 0
-337 -142 0
-337 -241 0
-337 -90 0
-337 -110 0
-337 -440 0
-337 -490 0
-337 -465 0
-338 -120 0
-338 -413 0
-338 -524 0
-338 -384 0
-338 -134 0
-338 -119 0
-338 -103 0
-338 -29 0
-338 -513 0
-338 -250 0
-338 -63 0
-338 -305 0
-338 -158 0
-339 -69 0
-339 -301 0
-339 -265 0
-339 -392 0
-339 -505 0
-339 -76 0
-339 -300 0
-339 -213 0
-339 -240 0
-339 -66 0
-339 -113 0
-340 -501 0
-340 -339 0
-340 -158 0
-340 -156 0
-340 -41 0
-340 -421 0
-340 -387 0
-340 -4 0
-340 -384 0
-340 -431 0
-340 -479 0
-340 -29 0
-340 -349 0
-340 -92 0
-340 -269 0
-340 -149 0
-341 -322 0
-341 -130 0
-341 -406 0
-341 -432 0
-341 -320 0
-341 -38 0
-341 -349 0
-341 -378 0
-341 -474 0
-341 -329 0
-341 -235 0
-341 -506 0
-341 -250 0
-341 -92 0
-341 -260 0
-341 -121 0
-341 -517 0
-341 -145 0
-342 -452 0
-342 -154 0
-342 -357 0
-342 -275 0
-342 -302 0
-342 -121 0
-342 -194 0
-342 -479 0
-342 -489 0
-342 -463 0
-343 -456 0
-343 -407 0
-343 -242 0
-343 -222 0
-343 -526 0
-343 -33 0
-343 -371 0
-343 -228 0
-343 -397 0
-343 -316 0
-343 -237 0
-343 -525 0
-343 -176 0
-343 -338 0
-344 -354 0
-344 -449 0
-344 -391 0
-344 -154 0
-344 -133 0
-344 -97 0
-344 -102 0
-344 -358 0
-344 -374 0
-344 -246 0
-344 -250 0
-344 -298 0
-345 -141 0
-345 -89 0
-345 -349 0
-345 -325 0
-345 -376 0
-345 -411 0
-345 -87 0
-345 -506 0
-345 -497 0
-346 -447 0
-346 -441 0
-346 -505 0
-346 -448 0
-346 -247 0
-346 -146 0
-346 -402 0
-346 -253 0
-346 -120 0
-346 -319 0
-346 -220 0
-346 -37 0
-346 -286 0
-346 -405 0
-347 -253 0
-347 -500 0
-347 -389 0
-347 -175 0
-347 -239 0
-347 -229 0
-347 -95 0
-347 -269 0
-348 -480 0
-348 -37 0
-348 -215 0
-348 -345 0
-348 -507 0
-348 -225 0
-348 -272 0
-348 -482 0
-348 -108 0
-348 -53 0
-348 -249 0
-348 -479 0
-349 -128 0
-349 -195 0
-349 -100 0
-349 -23 0
-349 -488 0
-349 -168 0
-349 -297 0
-349 -103 0
-349 -274 0
-349 -63 0
-349 -42 0
-349 -443 0
-350 -296 0
-350 -295 0
-350 -260 0
-350 -505 0
-350 -434 0
-350 -422 0
-350 -241 0
-350 -488 0
-350 -24 0
-351 -146 0
-351 -528 0
-351 -32 0
-351 -201 0
-351 -265 0
-351 -509 0
-351 -356 0
-351 -47 0
-351 -26 0
-351 -324 0
-351 -56 0
-352 -530 0
-352 -279 0
-352 -141 0
-352 -30 0
-352 -40 0
-352 -405 0
-352 -248 0
-352 -504 0
-352 -228 0
-352 -464 0
-352 -411 0
-352 -337 0
-352 -73 0
-353 -318 0
-353 -418 0
-353 -274 0
-353 -221 0
-353 -121 0
-353 -145 0
-353 -459 0
-353 -170 0
-353 -85 0
-353 -101 0
-353 -306 0
-353 -66 0
-354 -324 0
-354 -519 0
-354 -165 0
-354 -64 0
-354 -370 0
-354 -475 0
-354 -502 0
-354 -296 0
-354 -409 0
-354 -424 0
-354 -352 0
-354 -86 0
-354 -449 0
-355 -437 0
-355 -509 0
-355 -289 0
-355 -208 0
-355 -166 0
-355 -31 0
-355 -528 0
-355 -524 0
-355 -144 0
-355 -307 0
-355 -358 0
-355 -510 0
-356 -394 0
-356 -283 0
-356 -302 0
-356 -467 0
-356 -388 0
-356 -381 0
-356 -492 0
-356 -204 0
-356 -514 0
-356 -182 0
-356 -105 0
-356 -63 0
-356 -61 0
-356 -494 0
-357 -439 0
-357 -243 0
-357 -123 0
-357 -8 0
-357 -384 0
-357 -47 0
-357 -278 0
-357 -169 0
-357 -209 0
-357 -157 0
-357 -523 0
-357 -290 0
-358 -357 0
-358 -348 0
-358 -319 0
-358 -235 0
-358 -268 0
-358 -132 0
-358 -92 0
-358 -209 0
-358 -55 0
-358 -287 0
-358 -87 0
-358 -295 0
-358 -437 0
-358 -116 0
-359 -27 0
-359 -263 0
-359 -127 0
-359 -68 0
-359 -110 0
-359 -400 0
-359 -321 0
-359 -189 0
-359 -408 0
-359 -337 0
-359 -339 0
-359 -347 0
-359 -379 0
-360 -334 0
-360 -461 0
-360 -391 0
-360 -10 0
-360 -314 0
-360 -270 0
-360 -372 0
-361 -444 0
-361 -337 0
-361 -120 0
-361 -21 0
-361 -140 0
-361 -271 0
-361 -321 0
-361 -231 0
-361 -166 0
-361 -345 0
-361 -204 0
-362 -268 0
-362 -302 0
-362 -39 0
-362 -33 0
-362 -31 0
-362 -481 0
-362 -347 0
-362 -271 0
-362 -461 0
-362 -242 0
-362 -182 0
-363 -299 0
-363 -297 0
-363 -52 0
-363 -111 0
-363 -305 0
-363 -27 0
-363 -15 0
-363 -180 0
-363 -488 0
-363 -355 0
-363 -249 0
-363 -290 0
-363 -295 0
-363 -408 0
-364 -8 0
-364 -423 0
-364 -503 0
-364 -124 0
-364 -185 0
-364 -341 0
-364 -86 0
-364 -268 0
-364 -33 0
-364 -317 0
-364 -530 0
-364 -374 0
-364 -178 0
-364 -330 0
-364 -427 0
-365 -70 0
-366 -370 0
-366 -334 0
-366 -50 0
-366 -293 0
-366 -347 0
-366 -112 0
-366 -134 0
-366 -360 0
-366 -162 0
-367 -23 0
-367 -125 0
-367 -259 0
-367 -407 0
-367 -500 0
-367 -255 0
-367 -430 0
-367 -264 0
-367 -111 0
-367 -225 0
-367 -172 0
-368 -306 0
-368 -437 0
-368 -422 0
-368 -502 0
-368 -302 0
-368 -175 0
-368 -1 0
-368 -484 0
-368 -291 0
-368 -49 0
-368 -57 0
-368 -322 0
-368 -244 0
-368 -78 0
-368 -483 0
-369 -464 0
-369 -526 0
-369 -40 0
-369 -7 0
-369 -484 0
-369 -4 0
-369 -409 0
-369 -280 0
-369 -205 0
-369 -14 0
-369 -296 0
-369 -297 0
-370 -15 0
-370 -26 0
-370 -456 0
-370 -464 0
-370 -14 0
-370 -426 0
-370 -312 0
-370 -265 0
-370 -169 0
-370 -48 0
-370 -531 0
-370 -238 0
-371 -20 0
-371 -527 0
-371 -493 0
-371 -409 0
-371 -308 0
-371 -247 0
-371 -188 0
-371 -205 0
-371 -423 0
-371 -282 0
-371 -42 0
-372 -453 0
-372 -160 0
-372 -15 0
-372 -10 0
-372 -169 0
-372 -384 0
-372 -382 0
-372 -14 0
-373 -34 0
-373 -418 0
-373 -379 0
-373 -500 0
-373 -273 0
-373 -139 0
-373 -426 0
-373 -16 0
-373 -241 0
-374 -106 0
-374 -166 0
-374 -15 0
-374 -500 0
-374 -459 0
-374 -9 0
-374 -384 0
-374 -207 0
-374 -286 0
-374 -349 0
-374 -405 0
-374 -165 0
-374 -37 0
-374 -441 0
-374 -271 0
-374 -66 0
-375 -482 0
-375 -290 0
-375 -276 0
-375 -213 0
-375 -262 0
-375 -315 0
-375 -125 0
-375 -278 0
-375 -202 0
-375 -56 0
-375 -349 0
-375 -70 0
-375 -416 0
-376 -324 0
-376 -235 0
-376 -293 0
-376 -55 0
-376 -114 0
-376 -485 0
-376 -180 0
-376 -42 0
-376 -487 0
-376 -212 0
-376 -192 0
-376 -477 0
-377 -7 0
-377 -84 0
-377 -515 0
-377 -184 0
-377 -81 0
-377 -11 0
-377 -95 0
-377 -43 0
-377 -268 0
-377 -458 0
-378 -508 0
-378 -323 0
-378 -318 0
-378 -350 0
-378 -131 0
-378 -527 0
-378 -233 0
-378 -464 0
-378 -19 0
-378 -108 0
-379 -40 0
-379 -418 0
-379 -182 0
-379 -19 0
-379 -76 0
-379 -41 0
-379 -166 0
-379 -481 0
-380 -479 0
-380 -317 0
-380 -432 0
-380 -33 0
-380 -420 0
-380 -418 0
-380 -116 0
-380 -304 0
-380 -198 0
-380 -235 0
-380 -96 0
-380 -216 0
-381 -407 0
-381 -475 0
-381 -243 0
-381 -152 0
-381 -313 0
-381 -186 0
-381 -85 0
-381 -164 0
-381 -495 0
-381 -51 0
-381 -121 0
-381 -517 0
-381 -366 0
-382 -6 0
-382 -329 0
-382 -326 0
-382 -204 0
-382 -378 0
-382 -146 0
-382 -346 0
-382 -62 0
-382 -266 0
-382 -81 0
-382 -163 0
-382 -429 0
-383 -18 0
-383 -390 0
-383 -33 0
-383 -431 0
-383 -359 0
-383 -8 0
-383 -207 0
-383 -195 0
-383 -316 0
-383 -465 0
-383 -60 0
-383 -46 0
-383 -393 0
-384 -433 0
-384 -390 0
-384 -459 0
-384 -147 0
-384 -90 0
-384 -237 0
-384 -185 0
-384 -200 0
-384 -116 0
-384 -343 0
-385 -21 0
-385 -409 0
-385 -62 0
-385 -516 0
-385 -266 0
-385 -153 0
-385 -109 0
-385 -478 0
-385 -325 0
-385 -342 0
-386 -407 0
-386 -525 0
-386 -116 0
-386 -425 0
-386 -388 0
-386 -159 0
-386 -94 0
-386 -217 0
-386 -117 0
-386 -61 0
-386 -235 0
-387 -477 0
-387 -359 0
-387 -336 0
-387 -380 0
-387 -355 0
-387 -404 0
-387 -305 0
-387 -102 0
-387 -446 0
-387 -445 0
-387 -245 0
-387 -497 0
-387 -36 0
-388 -496 0
-388 -429 0
-388 -37 0
-388 -387 0
-388 -132 0
-388 -289 0
-388 -66 0
-388 -72 0
-388 -170 0
-388 -24 0
-389 -408 0
-389 -70 0
-390 -180 0
-390 -185 0
-390 -186 0
-390 -458 0
-390 -501 0
-390 -279 0
-390 -378 0
-390 -287 0
-390 -195 0
-390 -234 0
-391 -70 0
-391 -458 0
-391 -270 0
-391 -184 0
-391 -81 0
-392 -502 0
-392 -362 0
-392 -484 0
-392 -224 0
-392 -125 0
-392 -353 0
-392 -12 0
-392 -175 0
-392 -109 0
-392 -525 0
-392 -514 0
-393 -10 0
-393 -409 0
-393 -414 0
-393 -25 0
-393 -42 0
-393 -297 0
-393 -512 0
-393 -14 0
-393 -486 0
-393 -45 0
-393 -213 0
-393 -135 0
-393 -295 0
-393 -58 0
-393 -437 0
-394 -507 0
-394 -215 0
-394 -30 0
-394 -6 0
-394 -449 0
-394 -509 0
-394 -261 0
-394 -335 0
-394 -193 0
-394 -411 0
-394 -104 0
-394 -117 0
-394 -301 0
-395 -171 0
-395 -191 0
-395 -354 0
-395 -464 0
-395 -420 0
-395 -242 0
-395 -260 0
-395 -77 0
-395 -129 0
-395 -414 0
-395 -66 0
-396 -436 0
-396 -426 0
-396 -310 0
-396 -416 0
-396 -35 0
-396 -11 0
-396 -2 0
-396 -409 0
-396 -176 0
-396 -360 0
-396 -324 0
-396 -269 0
-396 -224 0
-397 -507 0
-397 -65 0
-397 -422 0
-397 -368 0
-397 -515 0
-397 -262 0
-397 -300 0
-397 -505 0
-397 -124 0
-397 -504 0
-398 -268 0
-398 -192 0
-398 -17 0
-398 -37 0
-398 -358 0
-398 -270 0
-398 -101 0
-398 -407 0
-398 -257 0
-398 -308 0
-399 -2 0
-399 -6 0
-399 -11 0
-399 -340 0
-399 -504 0
-399 -371 0
-399 -412 0
-399 -185 0
-399 -390 0
-399 -335 0
-399 -89 0
-399 -179 0
-399 -384 0
-400 -523 0
-400 -156 0
-400 -245 0
-400 -253 0
-400 -3 0
-400 -49 0
-400 -263 0
-400 -147 0
-400 -34 0
-400 -110 0
-401 -292 0
-401 -216 0
-401 -480 0
-401 -454 0
-401 -502 0
-401 -106 0
-401 -293 0
-401 -93 0
-401 -386 0
-401 -321 0
-401 -453 0
-401 -468 0
-401 -174 0
-401 -62 0
-401 -494 0
-402 -524 0
-402 -329 0
-402 -147 0
-402 -507 0
-402 -326 0
-402 -108 0
-402 -298 0
-402 -419 0
-402 -334 0
-402 -47 0
-402 -252 0
-403 -209 0
-403 -142 0
-403 -252 0
-403 -498 0
-403 -416 0
-403 -407 0
-403 -359 0
-403 -519 0
-403 -511 0
-403 -426 0
-403 -121 0
-403 -415 0
-403 -305 0
-403 -122 0
-403 -163 0
-403 -467 0
-403 -203 0
-404 -66 0
-404 -332 0
-404 -430 0
-404 -380 0
-404 -360 0
-404 -406 0
-404 -379 0
-404 -220 0
-404 -42 0
-404 -247 0
-404 -9 0
-404 -211 0
-404 -73 0
-404 -127 0
-404 -351 0
-405 -449 0
-405 -365 0
-405 -391 0
-405 -328 0
-405 -415 0
-405 -240 0
-405 -59 0
-405 -410 0
-405 -317 0
-405 -171 0
-405 -286 0
-405 -115 0
-405 -119 0
-405 -495 0
-406 -322 0
-406 -184 0
-406 -84 0
-406 -80 0
-406 -95 0
-406 -493 0
-407 -76 0
-407 -219 0
-407 -237 0
-407 -39 0
-407 -14 0
-407 -506 0
-407 -293 0
-407 -380 0
-407 -335 0
-407 -97 0
-407 -206 0
-407 -345 0
-407 -195 0
-407 -42 0
-407 -337 0
-407 -305 0
-407 -77 0
-408 -70 0
-409 -412 0
-409 -434 0
-409 -303 0
-409 -302 0
-409 -88 0
-409 -170 0
-409 -295 0
-409 -345 0
-409 -131 0
-410 -287 0
-410 -270 0
-410 -40 0
-410 -226 0
-410 -507 0
-410 -72 0
-410 -470 0
-410 -231 0
-410 -68 0
-410 -105 0
-410 -129 0
-411 -225 0
-411 -200 0
-411 -481 0
-411 -256 0
-411 -321 0
-411 -362 0
-411 -276 0
-411 -168 0
-412 -32 0
-412 -225 0
-412 -171 0
-412 -10 0
-412 -455 0
-412 -354 0
-412 -89 0
-412 -172 0
-412 -86 0
-412 -111 0
-412 -94 0
-412 -385 0
-412 -141 0
-412 -19 0
-413 -291 0
-413 -126 0
-413 -359 0
-413 -191 0
-413 -271 0
-413 -327 0
-413 -521 0
-413 -470 0
-413 -460 0
-413 -374 0
-413 -446 0
-414 -289 0
-414 -328 0
-414 -230 0
-414 -48 0
-414 -425 0
-414 -266 0
-414 -293 0
-414 -211 0
-414 -156 0
-414 -432 0
-414 -263 0
-414 -501 0
-414 -338 0
-414 -147 0
-415 -307 0
-415 -31 0
-415 -203 0
-415 -109 0
-415 -32 0
-415 -88 0
-415 -418 0
-415 -298 0
-415 -162 0
-415 -496 0
-415 -455 0
-415 -136 0
-416 -173 0
-416 -60 0
-416 -395 0
-416 -391 0
-416 -488 0
-416 -497 0
-416 -473 0
-416 -150 0
-416 -243 0
-416 -273 0
-416 -432 0
-416 -304 0
-416 -199 0
-416 -342 0
-416 -66 0
-416 -309 0
-417 -482 0
-417 -383 0
-417 -297 0
-417 -130 0
-417 -8 0
-417 -311 0
-417 -159 0
-417 -131 0
-417 -489 0
-417 -271 0
-418 -456 0
-418 -457 0
-418 -334 0
-418 -292 0
-418 -251 0
-418 -139 0
-418 -261 0
-418 -448 0
-418 -90 0
-418 -62 0
-418 -207 0
-418 -399 0
-418 -498 0
-419 -447 0
-419 -357 0
-419 -156 0
-419 -48 0
-419 -3 0
-419 -212 0
-419 -178 0
-419 -241 0
-419 -77 0
-419 -502 0
-419 -482 0
-419 -326 0
-420 -416 0
-420 -480 0
-420 -295 0
-420 -228 0
-420 -69 0
-420 -469 0
-420 -291 0
-420 -75 0
-420 -204 0
-420 -164 0
-420 -87 0
-420 -396 0
-421 -392 0
-421 -96 0
-421 -174 0
-421 -183 0
-421 -331 0
-421 -314 0
-421 -108 0
-421 -242 0
-421 -268 0
-421 -324 0
-421 -362 0
-421 -156 0
-421 -236 0
-421 -199 0
-421 -258 0
-422 -371 0
-422 -285 0
-422 -208 0
-422 -169 0
-422 -186 0
-422 -389 0
-422 -211 0
-422 -504 0
-422 -500 0
-422 -2 0
-422 -72 0
-422 -321 0
-422 -354 0
-423 -483 0
-423 -128 0
-423 -28 0
-423 -32 0
-423 -23 0
-423 -474 0
-423 -79 0
-423 -321 0
-423 -292 0
-423 -492 0
-424 -531 0
-424 -156 0
-424 -137 0
-424 -239 0
-424 -277 0
-424 -310 0
-424 -10 0
-424 -440 0
-424 -492 0
-424 -375 0
-424 -330 0
-424 -469 0
-424 -390 0
-424 -476 0
-425 -366 0
-425 -202 0
-425 -78 0
-425 -138 0
-425 -162 0
-425 -448 0
-425 -496 0
-425 -143 0
-425 -264 0
-425 -337 0
-425 -116 0
-425 -123 0
-425 -278 0
-425 -254 0
-425 -401 0
-425 -50 0
-426 -339 0
-426 -456 0
-426 -409 0
-426 -524 0
-426 -265 0
-426 -189 0
-426 -21 0
-426 -10 0
-427 -25 0
-427 -239 0
-427 -144 0
-427 -238 0
-427 -167 0
-427 -14 0
-427 -98 0
-427 -15 0
-427 -378 0
-427 -520 0
-428 -284 0
-428 -318 0
-428 -337 0
-428 -256 0
-428 -30 0
-428 -138 0
-428 -335 0
-428 -239 0
-428 -402 0
-428 -246 0
-428 -440 0
-428 -496 0
-428 -421 0
-428 -352 0
-428 -215 0
-429 -39 0
-429 -204 0
-429 -108 0
-429 -402 0
-429 -357 0
-429 -44 0
-429 -373 0
-429 -390 0
-429 -434 0
-429 -404 0
-429 -386 0
-429 -32 0
-429 -493 0
-429 -164 0
-429 -117 0
-429 -388 0
-430 -22 0
-430 -201 0
-430 -256 0
-430 -251 0
-430 -163 0
-430 -468 0
-430 -359 0
-430 -324 0
-430 -37 0
-430 -14 0
-430 -286 0
-431 -450 0
-431 -52 0
-431 -36 0
-431 -268 0
-431 -293 0
-431 -159 0
-431 -278 0
-431 -193 0
-431 -109 0
-431 -16 0
-431 -100 0
-431 -173 0
-431 -250 0
-432 -334 0
-432 -126 0
-432 -294 0
-432 -17 0
-432 -184 0
-432 -165 0
-432 -125 0
-432 -107 0
-432 -79 0
-432 -369 0
-432 -11 0
-432 -504 0
-433 -110 0
-433 -44 0
-433 -421 0
-433 -467 0
-433 -288 0
-433 -370 0
-433 -123 0
-434 -12 0
-434 -420 0
-434 -305 0
-434 -120 0
-434 -36 0
-434 -4 0
-434 -384 0
-434 -159 0
-434 -399 0
-434 -257 0
-434 -49 0
-434 -42 0
-435 -334 0
-435 -277 0
-435 -380 0
-435 -379 0
-435 -451 0
-435 -372 0
-435 -143 0
-435 -75 0
-435 -278 0
-435 -62 0
-435 -238 0
-435 -308 0
-435 -314 0
-435 -93 0
-435 -331 0
-435 -180 0
-436 -122 0
-436 -491 0
-436 -478 0
-436 -466 0
-436 -444 0
-436 -154 0
-436 -523 0
-436 -103 0
-436 -315 0
-436 -275 0
-436 -23 0
-436 -363 0
-436 -240 0
-436 -148 0
-436 -360 0
-437 -516 0
-437 -339 0
-437 -139 0
-437 -330 0
-437 -352 0
-437 -293 0
-437 -407 0
-437 -316 0
-437 -157 0
-438 -378 0
-438 -324 0
-438 -200 0
-438 -477 0
-438 -377 0
-438 -452 0
-438 -380 0
-438 -356 0
-438 -150 0
-438 -315 0
-438 -178 0
-438 -54 0
-438 -245 0
-438 -152 0
-438 -285 0
-438 -172 0
-438 -201 0
-438 -497 0
-438 -21 0
-439 -224 0
-439 -348 0
-439 -315 0
-439 -15 0
-439 -225 0
-439 -105 0
-439 -232 0
-439 -5 0
-439 -351 0
-439 -261 0
-439 -191 0
-439 -440 0
-439 -253 0
-440 -70 0
-440 -270 0
-440 -269 0
-441 -451 0
-441 -505 0
-441 -437 0
-441 -506 0
-441 -245 0
-441 -309 0
-441 -462 0
-441 -324 0
-441 -76 0
-441 -487 0
-441 -305 0
-441 -476 0
-441 -358 0
-441 -68 0
-442 -338 0
-442 -188 0
-442 -393 0
-442 -391 0
-442 -372 0
-442 -215 0
-442 -270 0
-442 -360 0
-442 -522 0
-442 -26 0
-442 -425 0
-442 -496 0
-442 -258 0
-442 -145 0
-443 -488 0
-443 -208 0
-443 -166 0
-443 -107 0
-443 -30 0
-443 -178 0
-443 -435 0
-443 -378 0
-443 -328 0
-443 -300 0
-443 -366 0
-443 -433 0
-443 -121 0
-444 -62 0
-444 -504 0
-444 -31 0
-444 -295 0
-444 -447 0
-444 -454 0
-444 -238 0
-444 -373 0
-444 -347 0
-444 -175 0
-444 -193 0
-444 -89 0
-444 -54 0
-445 -439 0
-445 -238 0
-445 -419 0
-445 -233 0
-445 -160 0
-445 -372 0
-445 -295 0
-445 -174 0
-445 -71 0
-445 -264 0
-445 -423 0
-445 -39 0
-445 -82 0
-445 -61 0
-446 -33 0
-446 -144 0
-446 -138 0
-446 -103 0
-446 -394 0
-446 -200 0
-446 -294 0
-446 -156 0
-446 -440 0
-446 -183 0
-446 -142 0
-447 -487 0
-447 -516 0
-447 -428 0
-447 -527 0
-447 -266 0
-447 -104 0
-447 -308 0
-447 -347 0
-447 -508 0
-447 -259 0
-448 -407 0
-448 -260 0
-448 -410 0
-448 -8 0
-448 -330 0
-448 -354 0
-448 -418 0
-448 -117 0
-448 -318 0
-448 -107 0
-448 -66 0
-448 -281 0
-449 -18 0
-449 -440 0
-449 -443 0
-449 -342 0
-449 -17 0
-449 -403 0
-449 -120 0
-449 -136 0
-449 -335 0
-449 -389 0
-449 -159 0
-449 -450 0
-450 -17 0
-450 -409 0
-450 -73 0
-450 -478 0
-450 -502 0
-450 -430 0
-450 -420 0
-450 -215 0
-450 -453 0
-450 -513 0
-450 -155 0
-450 -184 0
-451 -286 0
-451 -121 0
-451 -142 0
-451 -460 0
-451 -393 0
-451 -19 0
-451 -419 0
-451 -243 0
-451 -426 0
-451 -115 0
-451 -279 0
-451 -141 0
-451 -290 0
-451 -43 0
-452 -312 0
-452 -348 0
-452 -141 0
-452 -106 0
-452 -473 0
-452 -3 0
-452 -392 0
-452 -221 0
-452 -306 0
-452 -188 0
-452 -196 0
-453 -34 0
-453 -159 0
-453 -269 0
-453 -61 0
-453 -521 0
-453 -515 0
-453 -322 0
-453 -181 0
-453 -144 0
-453 -505 0
-453 -527 0
-454 -310 0
-454 -394 0
-454 -348 0
-454 -97 0
-454 -150 0
-454 -173 0
-454 -286 0
-454 -93 0
-454 -110 0
-454 -298 0
-454 -84 0
-454 -285 0
-454 -334 0
-454 -108 0
-455 -308 0
-455 -183 0
-455 -157 0
-455 -485 0
-455 -403 0
-455 -507 0
-455 -306 0
-455 -393 0
-455 -13 0
-455 -294 0
-455 -389 0
-455 -348 0
-455 -400 0
-456 -347 0
-456 -391 0
-456 -359 0
-456 -380 0
-456 -210 0
-456 -213 0
-456 -481 0
-456 -283 0
-456 -84 0
-457 -69 0
-457 -15 0
-457 -8 0
-457 -366 0
-457 -252 0
-457 -84 0
-457 -14 0
-457 -254 0
-457 -18 0
-457 -467 0
-457 -112 0
-457 -453 0
-457 -199 0
-457 -240 0
-459 -447 0
-459 -439 0
-459 -152 0
-459 -367 0
-459 -278 0
-459 -245 0
-459 -204 0
-459 -227 0
-459 -51 0
-459 -234 0
-460 -248 0
-460 -349 0
-460 -162 0
-460 -176 0
-460 -285 0
-460 -410 0
-460 -337 0
-460 -149 0
-460 -397 0
-460 -29 0
-460 -144 0
-461 -292 0
-461 -404 0
-461 -299 0
-461 -123 0
-461 -172 0
-461 -321 0
-461 -10 0
-461 -233 0
-461 -28 0
-461 -272 0
-461 -39 0
-461 -265 0
-461 -75 0
-461 -223 0
-461 -403 0
-461 -65 0
-461 -30 0
-462 -382 0
-462 -290 0
-462 -123 0
-462 -102 0
-462 -440 0
-462 -176 0
-462 -93 0
-462 -237 0
-462 -92 0
-462 -11 0
-462 -57 0
-462 -380 0
-462 -234 0
-462 -42 0
-463 -28 0
-463 -122 0
-463 -164 0
-463 -492 0
-463 -516 0
-463 -446 0
-463 -117 0
-463 -243 0
-463 -374 0
-463 -302 0
-463 -52 0
-463 -502 0
-463 -149 0
-464 -345 0
-464 -254 0
-464 -472 0
-464 -189 0
-464 -463 0
-464 -16 0
-464 -374 0
-464 -68 0
-465 -446 0
-465 -139 0
-465 -243 0
-465 -19 0
-465 -196 0
-465 -481 0
-465 -366 0
-465 -440 0
-465 -138 0
-465 -99 0
-465 -126 0
-465 -81 0
-465 -48 0
-465 -170 0
-465 -362 0
-466 -219 0
-466 -321 0
-466 -326 0
-466 -250 0
-466 -165 0
-466 -457 0
-466 -198 0
-466 -77 0
-466 -313 0
-466 -417 0
-466 -406 0
-466 -232 0
-466 -283 0
-466 -392 0
-466 -254 0
-466 -499 0
-467 -443 0
-467 -383 0
-467 -224 0
-467 -480 0
-467 -74 0
-467 -159 0
-467 -87 0
-467 -105 0
-467 -103 0
-468 -342 0
-468 -450 0
-468 -83 0
-468 -52 0
-468 -19 0
-468 -378 0
-468 -20 0
-468 -108 0
-468 -498 0
-468 -248 0
-469 -158 0
-469 -264 0
-469 -195 0
-469 -458 0
-469 -107 0
-469 -5 0
-469 -337 0
-469 -356 0
-469 -239 0
-469 -88 0
-469 -256 0
-469 -432 0
-469 -64 0
-469 -191 0
-469 -164 0
-469 -15 0
-469 -171 0
-469 -492 0
-470 -144 0
-470 -167 0
-470 -87 0
-470 -501 0
-470 -497 0
-470 -259 0
-470 -471 0
-470 -127 0
-470 -203 0
-470 -398 0
-470 -195 0
-470 -291 0
-470 -113 0
-470 -284 0
-470 -169 0
-471 -348 0
-471 -530 0
-471 -86 0
-471 -34 0
-471 -497 0
-471 -363 0
-471 -229 0
-471 -129 0
-471 -210 0
-471 -353 0
-471 -63 0
-471 -15 0
-471 -278 0
-472 -238 0
-472 -242 0
-472 -48 0
-472 -339 0
-472 -38 0
-472 -78 0
-472 -132 0
-472 -278 0
-472 -468 0
-472 -302 0
-472 -105 0
-472 -67 0
-472 -426 0
-473 -317 0
-473 -197 0
-473 -260 0
-473 -525 0
-473 -167 0
-473 -7 0
-473 -493 0
-474 -419 0
-474 -208 0
-474 -500 0
-474 -427 0
-474 -301 0
-474 -172 0
-474 -14 0
-474 -46 0
-474 -324 0
-474 -493 0
-475 -11 0
-475 -505 0
-475 -277 0
-475 -47 0
-475 -250 0
-475 -426 0
-475 -452 0
-475 -355 0
-475 -159 0
-475 -459 0
-475 -238 0
-475 -138 0
-475 -191 0
-475 -325 0
-475 -282 0
-476 -379 0
-476 -473 0
-476 -283 0
-476 -17 0
-476 -291 0
-476 -369 0
-476 -460 0
-476 -22 0
-476 -39 0
-476 -525 0
-476 -504 0
-477 -96 0
-477 -165 0
-477 -196 0
-477 -121 0
-477 -162 0
-477 -403 0
-477 -298 0
-477 -53 0
-477 -526 0
-477 -97 0
-477 -93 0
-477 -47 0
-477 -410 0
-477 -45 0
-478 -144 0
-478 -93 0
-478 -170 0
-478 -188 0
-478 -16 0
-478 -504 0
-478 -390 0
-478 -201 0
-478 -419 0
-478 -410 0
-478 -235 0
-478 -225 0
-478 -14 0
-479 -414 0
-479 -369 0
-479 -499 0
-479 -402 0
-479 -370 0
-479 -449 0
-479 -430 0
-479 -319 0
-479 -510 0
-479 -254 0
-479 -366 0
-479 -243 0
-479 -374 0
-479 -519 0
-479 -166 0
-480 -505 0
-480 -199 0
-480 -287 0
-480 -245 0
-480 -305 0
-480 -21 0
-480 -7 0
-480 -396 0
-480 -274 0
-480 -175 0
-480 -130 0
-480 -479 0
-480 -44 0
-480 -179 0
-481 -334 0
-481 -306 0
-481 -330 0
-481 -40 0
-481 -347 0
-481 -180 0
-481 -372 0
-481 -13 0
-481 -92 0
-481 -400 0
-482 -286 0
-482 -149 0
-482 -437 0
-482 -463 0
-482 -267 0
-482 -309 0
-482 -233 0
-482 -12 0
-482 -125 0
-482 -74 0
-482 -56 0
-482 -397 0
-483 -448 0
-483 -305 0
-483 -522 0
-483 -172 0
-483 -219 0
-483 -389 0
-483 -236 0
-483 -176 0
-483 -271 0
-483 -404 0
-483 -263 0
-484 -382 0
-484 -483 0
-484 -184 0
-484 -323 0
-484 -500 0
-484 -261 0
-484 -177 0
-484 -136 0
-484 -371 0
-484 -358 0
-484 -191 0
-484 -151 0
-484 -70 0
-484 -64 0
-484 -42 0
-484 -416 0
-484 -17 0
-484 -118 0
-485 -194 0
-485 -261 0
-485 -103 0
-485 -121 0
-485 -184 0
-485 -170 0
-485 -84 0
-485 -290 0
-485 -241 0
-485 -192 0
-485 -291 0
-485 -429 0
-485 -314 0
-485 -57 0
-486 -412 0
-486 -197 0
-486 -222 0
-486 -501 0
-486 -10 0
-486 -140 0
-486 -290 0
-486 -314 0
-486 -461 0
-486 -368 0
-486 -208 0
-486 -331 0
-486 -353 0
-486 -134 0
-486 -261 0
-486 -251 0
-486 -315 0
-487 -4 0
-487 -9 0
-487 -435 0
-487 -338 0
-487 -331 0
-487 -510 0
-487 -228 0
-487 -323 0
-487 -184 0
-487 -234 0
-487 -414 0
-487 -160 0
-488 -39 0
-488 -231 0
-488 -81 0
-488 -63 0
-488 -60 0
-488 -321 0
-488 -162 0
-488 -227 0
-488 -337 0
-488 -325 0
-488 -141 0
-488 -58 0
-488 -216 0
-488 -41 0
-488 -296 0
-489 -517 0
-489 -507 0
-489 -308 0
-489 -273 0
-489 -279 0
-489 -215 0
-489 -320 0
-489 -351 0
-489 -243 0
-489 -490 0
-489 -374 0
-489 -484 0
-489 -361 0
-490 -462 0
-490 -171 0
-490 -521 0
-490 -12 0
-490 -387 0
-490 -318 0
-490 -242 0
-490 -371 0
-490 -485 0
-490 -28 0
-490 -225 0
-490 -329 0
-490 -245 0
-490 -397 0
-490 -259 0
-491 -159 0
-491 -101 0
-491 -105 0
-491 -70 0
-491 -516 0
-491 -210 0
-491 -226 0
-491 -183 0
-491 -268 0
-491 -169 0
-491 -276 0
-491 -403 0
-492 -105 0
-492 -56 0
-492 -16 0
-492 -411 0
-492 -403 0
-492 -509 0
-492 -503 0
-492 -514 0
-492 -328 0
-492 -393 0
-492 -50 0
-492 -398 0
-493 -365 0
-494 -155 0
-494 -326 0
-494 -289 0
-494 -277 0
-494 -135 0
-494 -283 0
-494 -108 0
-494 -495 0
-494 -524 0
-494 -353 0
-494 -505 0
-494 -190 0
-494 -41 0
-495 -28 0
-495 -99 0
-495 -369 0
-495 -136 0
-495 -198 0
-495 -216 0
-495 -416 0
-495 -218 0
-495 -526 0
-495 -156 0
-495 -521 0
-495 -1 0
-495 -491 0
-496 -151 0
-496 -231 0
-496 -124 0
-496 -495 0
-496 -444 0
-496 -395 0
-496 -508 0
-496 -502 0
-496 -468 0
-496 -175 0
-496 -131 0
-496 -172 0
-496 -180 0
-496 -79 0
-497 -5 0
-497 -314 0
-497 -261 0
-497 -183 0
-497 -453 0
-497 -370 0
-497 -327 0
-497 -357 0
-497 -454 0
-497 -230 0
-497 -212 0
-497 -528 0
-497 -65 0
-497 -504 0
-497 -24 0
-498 -491 0
-498 -425 0
-498 -447 0
-498 -306 0
-498 -510 0
-498 -259 0
-498 -394 0
-498 -430 0
-498 -38 0
-498 -299 0
-499 -392 0
-499 -125 0
-499 -241 0
-499 -171 0
-499 -75 0
-499 -287 0
-499 -193 0
-499 -443 0
-499 -254 0
-499 -212 0
-499 -116 0
-500 -389 0
-500 -65 0
-500 -175 0
-501 -304 0
-501 -2 0
-501 -164 0
-501 -46 0
-501 -508 0
-501 -379 0
-501 -100 0
-501 -252 0
-502 -107 0
-502 -48 0
-502 -8 0
-502 -301 0
-502 -382 0
-502 -175 0
-502 -164 0
-502 -239 0
-502 -167 0
-502 -117 0
-503 -519 0
-503 -514 0
-503 -498 0
-503 -411 0
-503 -213 0
-503 -372 0
-503 -111 0
-503 -269 0
-503 -136 0
-503 -3 0
-503 -346 0
-503 -462 0
-503 -103 0
-503 -5 0
-503 -129 0
-504 -72 0
-504 -185 0
-504 -514 0
-504 -488 0
-504 -482 0
-504 -364 0
-504 -478 0
-504 -201 0
-504 -205 0
-504 -387 0
-504 -453 0
-504 -102 0
-505 -295 0
-505 -360 0
-505 -218 0
-505 -330 0
-505 -154 0
-505 -90 0
-505 -191 0
-505 -272 0
-505 -523 0
-506 -515 0
-506 -458 0
-506 -272 0
-506 -303 0
-506 -398 0
-506 -26 0
-506 -437 0
-506 -193 0
-506 -110 0
-506 -217 0
-506 -8 0
-506 -162 0
-506 -116 0
-506 -298 0
-507 -373 0
-507 -526 0
-507 -155 0
-507 -195 0
-507 -90 0
-507 -26 0
-508 -411 0
-508 -373 0
-508 -277 0
-508 -158 0
-508 -432 0
-508 -497 0
-508 -83 0
-508 -278 0
-508 -311 0
-508 -356 0
-508 -39 0
-508 -133 0
-508 -489 0
-509 -284 0
-509 -430 0
-509 -52 0
-509 -69 0
-509 -325 0
-509 -381 0
-509 -320 0
-509 -490 0
-509 -124 0
-509 -117 0
-509 -182 0
-509 -375 0
-509 -121 0
-510 -371 0
-510 -203 0
-510 -23 0
-510 -359 0
-510 -217 0
-510 -361 0
-510 -63 0
-510 -508 0
-510 -285 0
-510 -14 0
-510 -121 0
-511 -409 0
-511 -341 0
-511 -151 0
-511 -180 0
-511 -321 0
-511 -147 0
-511 -226 0
-511 -89 0
-511 -212 0
-511 -270 0
-512 -2 0
-512 -344 0
-512 -46 0
-512 -515 0
-512 -510 0
-512 -187 0
-512 -294 0
-512 -219 0
-512 -321 0
-512 -79 0
-512 -473 0
-512 -33 0
-513 -165 0
-513 -290 0
-513 -452 0
-513 -266 0
-513 -467 0
-513 -264 0
-513 -317 0
-513 -477 0
-514 -319 0
-514 -108 0
-514 -92 0
-514 -527 0
-514 -374 0
-514 -191 0
-514 -393 0
-514 -98 0
-514 -437 0
-514 -111 0
-514 -249 0
-514 -516 0
-514 -511 0
-514 -360 0
-514 -163 0
-514 -86 0
-515 -81 0
-515 -43 0
-516 -14 0
-516 -284 0
-516 -277 0
-516 -213 0
-516 -392 0
-516 -274 0
-516 -62 0
-516 -28 0
-516 -177 0
-516 -160 0
-516 -126 0
-516 -107 0
-516 -129 0
-517 -507 0
-517 -448 0
-517 -228 0
-517 -116 0
-517 -241 0
-517 -238 0
-517 -54 0
-517 -478 0
-517 -113 0
-517 -19 0
-517 -201 0
-517 -193 0
-518 -151 0
-518 -386 0
-518 -502 0
-518 -295 0
-518 -388 0
-518 -444 0
-518 -251 0
-518 -76 0
-518 -524 0
-518 -107 0
-518 -337 0
-518 -166 0
-518 -433 0
-518 -409 0
-519 -459 0
-519 -414 0
-519 -421 0
-519 -411 0
-519 -507 0
-519 -282 0
-519 -429 0
-519 -330 0
-519 -301 0
-520 -40 0
-520 -23 0
-520 -476 0
-520 -465 0
-520 -326 0
-520 -464 0
-520 -521 0
-520 -75 0
-520 -511 0
-520 -92 0
-520 -285 0
-520 -288 0
-520 -57 0
-520 -202 0
-521 -3 0
-521 -93 0
-521 -114 0
-521 -202 0
-521 -494 0
-521 -380 0
-521 -417 0
-521 -247 0
-521 -284 0
-521 -153 0
-521 -156 0
-521 -94 0
-522 -161 0
-522 -114 0
-522 -513 0
-522 -448 0
-522 -41 0
-522 -210 0
-522 -116 0
-522 -104 0
-522 -71 0
-522 -373 0
-522 -150 0
-522 -243 0
-523 -142 0
-523 -29 0
-523 -460 0
-523 -455 0
-523 -260 0
-523 -522 0
-523 -118 0
-523 -109 0
-523 -100 0
-523 -86 0
-523 -67 0
-523 -138 0
-523 -429 0
-523 -97 0
-523 -377 0
-523 -261 0
-523 -216 0
-524 -452 0
-524 -325 0
-524 -203 0
-524 -265 0
-524 -372 0
-524 -525 0
-524 -273 0
-524 -87 0
-524 -201 0
-525 -81 0
-525 -440 0
-525 -70 0
-525 -239 0
-525 -268 0
-525 -365 0
-526 -182 0
-526 -506 0
-526 -530 0
-526 -505 0
-526 -30 0
-526 -410 0
-526 -187 0
-526 -35 0
-526 -1 0
-526 -155 0
-526 -423 0
-527 -227 0
-527 -49 0
-527 -71 0
-527 -310 0
-527 -238 0
-527 -357 0
-527 -522 0
-527 -289 0
-527 -255 0
-527 -277 0
-527 -246 0
-528 -179 0
-528 -103 0
-528 -416 0
-528 -18 0
-528 -10 0
-528 -147 0
-528 -314 0
-528 -471 0
-528 -87 0
-528 -65 0
-528 -40 0
-529 -267 0
-529 -182 0
-529 -271 0
-529 -520 0
-529 -403 0
-529 -447 0
-529 -391 0
-529 -467 0
-529 -256 0
-529 -139 0
-529 -359 0
-529 -425 0
-529 -298 0
-529 -239 0
-529 -225 0
-530 -96 0
-530 -72 0
-530 -496 0
-530 -443 0
-530 -386 0
-530 -323 0
-530 -172 0
-530 -190 0
-530 -307 0
-530 -338 0
-530 -41 0
-530 -28 0
-530 -33 0
-530 -445 0
-530 -239 0
-530 -389 0
-530 -24 0
-531 -149 0
-531 -122 0
-531 -81 0
-531 -453 0
-531 -429 0
-531 -447 0
-531 -449 0
-531 -320 0
-531 -528 0
-531 -502 0
-531 -417 0
-531 -327 0
-531 -369 0
-531 -507 0
-531 -246 0
-531 -301 0
-531 -521 0
-531 -460 0
-532 -1 0
-533 -2 0
-534 -3 0
-535 -4 0
-536 -5 0
-537 -6 0
-538 -7 0
-539 -8 0
-540 -9 0
-541 -10 0
-542 -11 0
-543 -12 0
-544 -13 0
-545 -14 0
-546 -15 0
-547 -16 0
-548 -17 0
-549 -18 0
-550 -19 0
-551 -20 0
-552 -21 0
-553 -22 0
-554 -23 0
-555 -24 0
-556 -25 0
-557 -26 0
-558 -27 0
-559 -28 0
-560 -29 0
-561 -30 0
-562 -31 0
-563 -32 0
-564 -33 0
-565 -34 0
-566 -35 0
-567 -36 0
-568 -37 0
-569 -38 0
-570 -39 0
-571 -40 0
-572 -41 0
-573 -42 0
-574 -43 0
-575 -44 0
-576 -45 0
-577 -46 0
-578 -47 0
-579 -48 0
-580 -49 0
-581 -50 0
-582 -51 0
-583 -52 0
-584 -53 0
-585 -54 0
-586 -55 0
-587 -56 0
-588 -57 0
-589 -58 0
-590 -59 0
-591 -60 0
-592 -61 0
-593 -62 0
-594 -63 0
-595 -64 0
-596 -65 0
-597 -66 0
-598 -67 0
-599 -68 0
-600 -69 0
-601 -70 0
-602 -71 0
-603 -72 0
-604 -73 0
-605 -74 0
-606 -75 0
-607 -76 0
-608 -77 0
-609 -78 0
-610 -79 0
-611 -80 0
-612 -81 0
-613 -82 0
-614 -83 0
-615 -84 0
-616 -85 0
-617 -86 0
-618 -87 0
-619 -88 0
-620 -89 0
-621 -90 0
-622 -91 0
-623 -92 0
-624 -93 0
-625 -94 0
-626 -95 0
-627 -96 0
-628 -97 0
-629 -98 0
-630 -99 0
-631 -100 0
-632 -101 0
-633 -102 0
-634 -103 0
-635 -104 0
-636 -105 0
-637 -106 0
-638 -107 0
-639 -108 0
-640 -109 0
-641 -110 0
-642 -111 0
-643 -112 0
-644 -113 0
-645 -114 0
-646 -115 0
-647 -116 0
-648 -117 0
-649 -118 0
-650 -119 0
-651 -120 0
-652 -121 0
-653 -122 0
-654 -123 0
-655 -124 0
-656 -125 0
-657 -126 0
-658 -127 0
-659 -128 0
-660 -129 0
-661 -130 0
-662 -131 0
-663 -132 0
-664 -133 0
-665 -134 0
-666 -135 0
-667 -136 0
-668 -137 0
-669 -138 0
-670 -139 0
-671 -140 0
-672 -141 0
-673 -142 0
-674 -143 0
-675 -144 0
-676 -145 0
-677 -146 0
-678 -147 0
-679 -148 0
-680 -149 0
-681 -150 0
-682 -151 0
-683 -152 0
-684 -153 0
-685 -154 0
-686 -155 0
-687 -156 0
-688 -157 0
-689 -158 0
-690 -159 0
-691 -160 0
-692 -161 0
-693 -162 0
-694 -163 0
-695 -164 0
-696 -165 0
-697 -166 0
-698 -167 0
-699 -168 0
-700 -169 0
-701 -170 0
-702 -171 0
-703 -172 0
-704 -173 0
-705 -174 0
-706 -175 0
-707 -176 0
-708 -177 0
-709 -178 0
-710 -179 0
-711 -180 0
-712 -181 0
-713 -182 0
-714 -183 0
-715 -184 0
-716 -185 0
-717 -186 0
-718 -187 0
-719 -188 0
-720 -189 0
-721 -190 0
-722 -191 0
-723 -192 0
-724 -193 0
-725 -194 0
-726 -195 0
-727 -196 0
-728 -197 0
-729 -198 0
-730 -199 0
-731 -200 0
-732 -201 0
-733 -202 0
-734 -203 0
-735 -204 0
-736 -205 0
-737 -206 0
-738 -207 0
-739 -208 0
-740 -209 0
-741 -210 0
-742 -211 0
-743 -212 0
-744 -213 0
-745 -214 0
-746 -215 0
-747 -216 0
-748 -217 0
-749 -218 0
-750 -219 0
-751 -220 0
-752 -221 0
-753 -222 0
-754 -223 0
-755 -224 0
-756 -225 0
-757 -226 0
-758 -227 0
-759 -228 0
-760 -229 0
-761 -230 0
-762 -231 0
-763 -232 0
-764 -233 0
-765 -234 0
-766 -235 0
-767 -236 0
-768 -237 0
-769 -238 0
-770 -239 0
-771 -240 0
-772 -241 0
-773 -242 0
-774 -243 0
-775 -244 0
-776 -245 0
-777 -246 0
-778 -247 0
-779 -248 0
-780 -249 0
-781 -250 0
-782 -251 0
-783 -252 0
-784 -253 0
-785 -254 0
-786 -255 0
-787 -256 0
-788 -257 0
-789 -258 0
-790 -259 0
-791 -260 0
-792 -261 0
-793 -262 0
-794 -263 0
-795 -264 0
-796 -265 0
-797 -266 0
-798 -267 0
-799 -268 0
-800 -269 0
-801 -270 0
-802 -271 0
-803 -272 0
-804 -273 0
-805 -274 0
-806 -275 0
-807 -276 0
-808 -277 0
-809 -278 0
-810 -279 0
-811 -280 0
-812 -281 0
-813 -282 0
-814 -283 0
-815 -284 0
-816 -285 0
-817 -286 0
-818 -287 0
-819 -288 0
-820 -289 0
-821 -290 0
-822 -291 0
-823 -292 0
-824 -293 0
-825 -294 0
-826 -295 0
-827 -296 0
-828 -297 0
-829 -298 0
-830 -299 0
-831 -300 0
-832 -301 0
-833 -302 0
-834 -303 0
-835 -304 0
-836 -305 0
-837 -306 0
-838 -307 0
-839 -308 0
-840 -309 0
-841 -310 0
-842 -311 0
-843 -312 0
-844 -313 0
-845 -314 0
-846 -315 0
-847 -316 0
-848 -317 0
-849 -318 0
-850 -319 0
-851 -320 0
-852 -321 0
-853 -322 0
-854 -323 0
-855 -324 0
-856 -325 0
-857 -326 0
-858 -327 0
-859 -328 0
-860 -329 0
-861 -330 0
-862 -331 0
-863 -332 0
-864 -333 0
-865 -334 0
-866 -335 0
-867 -336 0
-868 -337 0
-869 -338 0
-870 -339 0
-871 -340 0
-872 -341 0
-873 -342 0
-874 -343 0
-875 -344 0
-876 -345 0
-877 -346 0
-878 -347 0
-879 -348 0
-880 -349 0
-881 -350 0
-882 -351 0
-883 -352 0
-884 -353 0
-885 -354 0
-886 -355 0
-887 -356 0
-888 -357 0
-889 -358 0
-890 -359 0
-891 -360 0
-892 -361 0
-893 -362 0
-894 -363 0
-895 -364 0
-896 -365 0
-897 -366 0
-898 -367 0
-899 -368 0
-900 -369 0
-901 -370 0
-902 -371 0
-903 -372 0
-904 -373 0
-905 -374 0
-906 -375 0
-907 -376 0
-908 -377 0
-909 -378 0
-910 -379 0
-911 -380 0
-912 -381 0
-913 -382 0
-914 -383 0
-915 -384 0
-916 -385 0
-917 -386 0
-918 -387 0
-919 -388 0
-920 -389 0
-921 -390 0
-922 -391 0
-923 -392 0
-924 -393 0
-925 -394 0
-926 -395 0
-927 -396 0
-928 -397 0
-929 -398 0
-930 -399 0
-931 -400 0
-932 -401 0
-933 -402 0
-934 -403 0
-935 -404 0
-936 -405 0
-937 -406 0
-938 -407 0
-939 -408 0
-940 -409 0
-941 -410 0
-942 -411 0
-943 -412 0
-944 -413 0
-945 -414 0
-946 -415 0
-947 -416 0
-948 -417 0
-949 -418 0
-950 -419 0
-951 -420 0
-952 -421 0
-953 -422 0
-954 -423 0
-955 -424 0
-956 -425 0
-957 -426 0
-958 -427 0
-959 -428 0
-960 -429 0
-961 -430 0
-962 -431 0
-963 -432 0
-964 -433 0
-965 -434 0
-966 -435 0
-967 -436 0
-968 -437 0
-969 -438 0
-970 -439 0
-971 -440 0
-972 -441 0
-973 -442 0
-974 -443 0
-975 -444 0
-976 -445 0
-977 -446 0
-978 -447 0
-979 -448 0
-980 -449 0
-981 -450 0
-982 -451 0
-983 -452 0
-984 -453 0
-985 -454 0
-986 -455 0
-987 -456 0
-988 -457 0
-989 -458 0
-990 -459 0
-991 -460 0
-992 -461 0
-993 -462 0
-994 -463 0
-995 -464 0
-996 -465 0
-997 -466 0
-998 -467 0
-999 -468 0
-1000 -469 0
-1001 -470 0
-1002 -471 0
-1003 -472 0
-1004 -473 0
-1005 -474 0
-1006 -475 0
-1007 -476 0
-1008 -477 0
-1009 -478 0
-1010 -479 0
-1011 -480 0
-1012 -481 0
-1013 -482 0
-1014 -483 0
-1015 -484 0
-1016 -485 0
-1017 -486 0
-1018 -487 0
-1019 -488 0
-1020 -489 0
-1021 -490 0
-1022 -491 0
-1023 -492 0
-1024 -493 0
-1025 -494 0
-1026 -495 0
-1027 -496 0
-1028 -497 0
-1029 -498 0
-1030 -499 0
-1031 -500 0
-1032 -501 0
-1033 -502 0
-1034 -503 0
-1035 -504 0
-1036 -505 0
-1037 -506 0
-1038 -507 0
-1039 -508 0
-1040 -509 0
-1041 -510 0
-1042 -511 0
-1043 -512 0
-1044 -513 0
-1045 -514 0
-1046 -515 0
-1047 -516 0
-1048 -517 0
-1049 -518 0
-1050 -519 0
-1051 -520 0
-1052 -521 0
-1053 -522 0
-1054 -523 0
-1055 -524 0
-1056 -525 0
-1057 -526 0
-1058 -527 0
-1059 -528 0
-1060 -529 0
-1061 -530 0
-1062 -531 0
532 -247 0
532 -245 0
532 -308 0
532 -129 0
532 -9 0
532 -134 0
532 -171 0
532 -156 0
532 -475 0
532 -461 0
532 -279 0
532 -447 0
532 -441 0
533 -414 0
533 -248 0
533 -76 0
533 -138 0
533 -73 0
533 -115 0
533 -442 0
533 -385 0
533 -510 0
533 -112 0
533 -169 0
534 -242 0
534 -264 0
534 -154 0
534 -207 0
534 -174 0
534 -185 0
534 -385 0
534 -46 0
534 -368 0
534 -443 0
534 -156 0
534 -502 0
535 -146 0
535 -286 0
535 -301 0
535 -124 0
535 -520 0
535 -430 0
535 -20 0
535 -372 0
535 -280 0
535 -197 0
535 -445 0
535 -385 0
535 -348 0
535 -380 0
536 -154 0
536 -287 0
536 -193 0
536 -268 0
536 -530 0
536 -44 0
536 -51 0
536 -143 0
536 -456 0
536 -234 0
536 -399 0
536 -390 0
536 -290 0
536 -481 0
536 -384 0
537 -251 0
537 -337 0
537 -249 0
537 -402 0
537 -80 0
537 -424 0
537 -18 0
537 -110 0
537 -269 0
537 -377 0
537 -423 0
537 -371 0
537 -188 0
538 -268 0
538 -493 0
538 -81 0
538 -70 0
538 -43 0
538 -458 0
539 -362 0
539 -1 0
539 -242 0
539 -525 0
539 -304 0
539 -136 0
539 -331 0
539 -142 0
539 -18 0
539 -527 0
539 -72 0
539 -302 0
539 -402 0
539 -93 0
540 -150 0
540 -137 0
540 -239 0
540 -79 0
540 -182 0
540 -60 0
540 -453 0
540 -457 0
540 -203 0
540 -393 0
540 -206 0
540 -4 0
540 -290 0
540 -361 0
541 -242 0
541 -107 0
541 -203 0
541 -21 0
541 -123 0
541 -11 0
541 -190 0
541 -42 0
541 -426 0
541 -216 0
541 -328 0
542 -270 0
542 -389 0
542 -95 0
542 -493 0
542 -440 0
542 -70 0
543 -526 0
543 -169 0
543 -32 0
543 -347 0
543 -225 0
543 -486 0
543 -451 0
543 -387 0
543 -429 0
543 -520 0
543 -331 0
544 -291 0
544 -36 0
544 -19 0
544 -201 0
544 -503 0
544 -240 0
544 -521 0
544 -485 0
544 -119 0
544 -376 0
544 -313 0
544 -215 0
544 -110 0
544 -229 0
544 -429 0
544 -77 0
545 -330 0
545 -111 0
545 -410 0
545 -363 0
545 -271 0
545 -109 0
545 -182 0
545 -49 0
545 -451 0
545 -336 0
545 -397 0
545 -512 0
546 -525 0
546 -89 0
546 -6 0
546 -170 0
546 -487 0
546 -433 0
546 -237 0
546 -164 0
546 -449 0
546 -29 0
547 -254 0
547 -378 0
547 -414 0
547 -309 0
547 -65 0
547 -283 0
547 -117 0
547 -176 0
547 -14 0
547 -225 0
547 -493 0
547 -305 0
547 -499 0
547 -384 0
547 -333 0
548 -337 0
548 -35 0
548 -255 0
548 -157 0
548 -356 0
548 -322 0
548 -321 0
548 -323 0
549 -530 0
549 -283 0
549 -287 0
549 -265 0
549 -154 0
549 -99 0
549 -235 0
549 -85 0
549 -442 0
549 -494 0
549 -149 0
549 -401 0
550 -352 0
550 -54 0
550 -105 0
550 -49 0
550 -207 0
550 -299 0
550 -380 0
550 -201 0
551 -163 0
551 -361 0
551 -188 0
551 -223 0
551 -103 0
551 -104 0
551 -280 0
551 -286 0
551 -366 0
551 -429 0
551 -501 0
551 -89 0
551 -388 0
551 -317 0
552 -167 0
552 -70 0
552 -184 0
552 -239 0
552 -408 0
553 -362 0
553 -137 0
553 -23 0
553 -21 0
553 -76 0
553 -395 0
553 -165 0
553 -263 0
553 -182 0
553 -96 0
553 -289 0
553 -438 0
553 -237 0
553 -409 0
554 -131 0
554 -415 0
554 -258 0
554 -406 0
554 -484 0
554 -301 0
554 -215 0
554 -204 0
554 -164 0
554 -277 0
554 -497 0
554 -449 0
554 -227 0
555 -348 0
555 -233 0
555 -6 0
555 -192 0
555 -217 0
555 -92 0
555 -61 0
555 -44 0
555 -155 0
555 -31 0
555 -295 0
556 -203 0
556 -116 0
556 -100 0
556 -351 0
556 -183 0
556 -387 0
556 -338 0
556 -84 0
556 -267 0
556 -119 0
556 -333 0
556 -452 0
556 -499 0
556 -195 0
557 -242 0
557 -251 0
557 -325 0
557 -344 0
557 -129 0
557 -200 0
557 -62 0
557 -511 0
557 -430 0
557 -327 0
558 -264 0
558 -424 0
558 -152 0
558 -120 0
558 -202 0
558 -97 0
558 -127 0
558 -318 0
558 -485 0
558 -359 0
558 -425 0
558 -273 0
558 -142 0
558 -169 0
558 -406 0
558 -473 0
559 -348 0
559 -57 0
559 -15 0
559 -10 0
559 -521 0
559 -64 0
559 -513 0
559 -112 0
559 -360 0
559 -350 0
559 -328 0
560 -400 0
560 -224 0
560 -208 0
560 -59 0
560 -57 0
560 -289 0
560 -306 0
560 -180 0
560 -468 0
560 -281 0
561 -337 0
561 -268 0
561 -481 0
561 -384 0
561 -222 0
561 -351 0
561 -109 0
561 -271 0
561 -259 0
561 -421 0
561 -428 0
561 -357 0
562 -4 0
562 -127 0
562 -378 0
562 -66 0
562 -457 0
562 -498 0
562 -124 0
562 -453 0
562 -403 0
562 -439 0
562 -197 0
562 -303 0
562 -143 0
562 -518 0
563 -302 0
563 -43 0
563 -258 0
563 -84 0
563 -65 0
563 -25 0
563 -44 0
563 -120 0
563 -373 0
564 -57 0
564 -462 0
564 -376 0
564 -464 0
564 -56 0
564 -160 0
564 -453 0
564 -208 0
564 -284 0
565 -37 0
565 -6 0
565 -521 0
565 -246 0
565 -360 0
565 -373 0
565 -377 0
565 -517 0
565 -265 0
565 -229 0
566 -525 0
566 -372 0
566 -88 0
566 -320 0
566 -316 0
566 -244 0
566 -331 0
566 -416 0
566 -502 0
566 -412 0
566 -307 0
567 -69 0
567 -37 0
567 -266 0
567 -474 0
567 -387 0
567 -103 0
567 -390 0
567 -48 0
567 -132 0
567 -451 0
567 -397 0
567 -399 0
568 -137 0
568 -102 0
568 -141 0
568 -468 0
568 -282 0
568 -136 0
568 -235 0
568 -496 0
568 -487 0
568 -263 0
568 -25 0
568 -355 0
568 -464 0
569 -114 0
569 -107 0
569 -464 0
569 -26 0
569 -75 0
569 -429 0
569 -351 0
569 -396 0
569 -297 0
569 -78 0
570 -209 0
570 -121 0
570 -359 0
570 -26 0
570 -370 0
570 -321 0
570 -353 0
570 -295 0
571 -48 0
571 -286 0
571 -165 0
571 -396 0
571 -433 0
571 -223 0
571 -174 0
571 -12 0
571 -284 0
571 -24 0
571 -412 0
572 -154 0
572 -245 0
572 -325 0
572 -104 0
572 -256 0
572 -270 0
572 -263 0
572 -95 0
572 -267 0
572 -170 0
572 -497 0
572 -318 0
572 -456 0
572 -205 0
572 -444 0
573 -362 0
573 -328 0
573 -375 0
573 -57 0
573 -192 0
573 -405 0
573 -453 0
573 -334 0
573 -394 0
573 -247 0
574 -81 0
575 -156 0
575 -96 0
575 -246 0
575 -19 0
575 -241 0
575 -117 0
575 -210 0
575 -72 0
575 -470 0
575 -508 0
575 -502 0
575 -524 0
575 -38 0
575 -426 0
576 -526 0
576 -109 0
576 -308 0
576 -487 0
576 -335 0
576 -164 0
576 -127 0
576 -173 0
576 -13 0
577 -130 0
577 -128 0
577 -315 0
577 -236 0
577 -409 0
577 -412 0
577 -213 0
577 -442 0
577 -385 0
577 -237 0
578 -422 0
578 -355 0
578 -154 0
578 -230 0
578 -348 0
578 -279 0
578 -505 0
578 -40 0
578 -330 0
578 -492 0
578 -319 0
578 -241 0
578 -127 0
578 -191 0
579 -379 0
579 -464 0
579 -88 0
579 -72 0
579 -98 0
579 -241 0
579 -285 0
579 -467 0
580 -181 0
580 -270 0
580 -38 0
580 -143 0
580 -217 0
580 -125 0
580 -331 0
580 -353 0
580 -124 0
580 -182 0
580 -518 0
580 -142 0
580 -252 0
580 -280 0
580 -502 0
580 -137 0
580 -201 0
580 -14 0
581 -404 0
581 -434 0
581 -508 0
581 -209 0
581 -391 0
581 -364 0
581 -319 0
581 -520 0
582 -216 0
582 -50 0
582 -2 0
582 -63 0
582 -38 0
582 -520 0
582 -92 0
582 -394 0
582 -214 0
582 -317 0
582 -507 0
582 -67 0
582 -493 0
583 -403 0
583 -373 0
583 -266 0
583 -242 0
583 -86 0
583 -285 0
583 -429 0
583 -62 0
583 -121 0
583 -197 0
583 -304 0
583 -29 0
584 -215 0
584 -435 0
584 -81 0
584 -439 0
584 -293 0
584 -222 0
584 -90 0
584 -352 0
584 -20 0
584 -429 0
584 -306 0
584 -344 0
584 -380 0
584 -302 0
585 -336 0
585 -426 0
585 -260 0
585 -4 0
585 -519 0
585 -378 0
585 -320 0
585 -423 0
585 -126 0
585 -355 0
585 -199 0
585 -478 0
585 -255 0
585 -331 0
585 -271 0
586 -357 0
586 -187 0
586 -172 0
586 -523 0
586 -176 0
586 -105 0
586 -188 0
586 -226 0
586 -154 0
586 -364 0
586 -229 0
586 -377 0
586 -77 0
586 -443 0
586 -151 0
586 -445 0
586 -471 0
587 -402 0
587 -89 0
587 -8 0
587 -374 0
587 -170 0
587 -28 0
587 -485 0
587 -453 0
587 -507 0
587 -32 0
587 -199 0
587 -61 0
588 -355 0
588 -268 0
588 -527 0
588 -245 0
588 -398 0
588 -116 0
588 -105 0
588 -2 0
588 -78 0
588 -76 0
588 -205 0
588 -159 0
588 -71 0
589 -299 0
589 -139 0
589 -413 0
589 -525 0
589 -77 0
589 -43 0
589 -75 0
589 -124 0
589 -164 0
589 -187 0
589 -241 0
589 -46 0
589 -298 0
589 -13 0
589 -337 0
589 -29 0
590 -473 0
590 -475 0
590 -137 0
590 -357 0
590 -43 0
590 -17 0
590 -3 0
590 -524 0
590 -319 0
590 -389 0
590 -16 0
590 -255 0
590 -372 0
590 -308 0
590 -286 0
590 -139 0
590 -429 0
590 -170 0
590 -23 0
590 -151 0
591 -277 0
591 -406 0
591 -330 0
591 -40 0
591 -488 0
591 -317 0
591 -334 0
591 -478 0
591 -456 0
591 -489 0
591 -358 0
591 -179 0
592 -120 0
592 -9 0
592 -308 0
592 -427 0
592 -82 0
592 -326 0
592 -212 0
592 -355 0
592 -288 0
592 -498 0
592 -153 0
593 -469 0
593 -147 0
593 -138 0
593 -100 0
593 -223 0
593 -284 0
593 -76 0
593 -210 0
593 -47 0
594 -307 0
594 -175 0
594 -24 0
594 -239 0
594 -226 0
594 -160 0
594 -415 0
594 -20 0
594 -491 0
594 -470 0
594 -436 0
594 -232 0
595 -158 0
595 -226 0
595 -398 0
595 -381 0
595 -205 0
595 -186 0
595 -194 0
595 -475 0
595 -175 0
596 -493 0
597 -238 0
597 -233 0
597 -109 0
597 -266 0
597 -282 0
597 -205 0
597 -116 0
597 -363 0
597 -476 0
597 -360 0
597 -65 0
597 -507 0
597 -499 0
598 -203 0
598 -362 0
598 -524 0
598 -166 0
598 -120 0
598 -496 0
598 -491 0
598 -70 0
598 -380 0
598 -111 0
598 -520 0
598 -126 0
598 -175 0
599 -277 0
599 -242 0
599 -113 0
599 -226 0
599 -300 0
599 -375 0
599 -196 0
599 -511 0
599 -482 0
599 -373 0
599 -284 0
599 -514 0
599 -331 0
599 -73 0
599 -125 0
599 -527 0
600 -330 0
600 -323 0
600 -50 0
600 -179 0
600 -338 0
600 -385 0
600 -420 0
600 -147 0
600 -3 0
602 -345 0
602 -294 0
602 -252 0
602 -188 0
602 -460 0
602 -191 0
602 -316 0
602 -219 0
602 -12 0
602 -125 0
602 -518 0
602 -456 0
602 -158 0
603 -305 0
603 -328 0
603 -6 0
603 -462 0
603 -326 0
603 -481 0
603 -395 0
603 -143 0
603 -5 0
604 -437 0
604 -268 0
604 -253 0
604 -362 0
604 -38 0
604 -129 0
604 -168 0
604 -488 0
604 -498 0
604 -78 0
604 -70 0
604 -227 0
604 -251 0
605 -295 0
605 -323 0
605 -405 0
605 -198 0
605 -58 0
605 -259 0
605 -250 0
605 -482 0
605 -331 0
605 -303 0
605 -375 0
605 -56 0
605 -211 0
605 -240 0
605 -395 0
606 -345 0
606 -215 0
606 -358 0
606 -204 0
606 -119 0
606 -172 0
606 -61 0
606 -331 0
606 -32 0
606 -433 0
606 -291 0
606 -89 0
607 -365 0
607 -307 0
607 -166 0
607 -113 0
607 -500 0
607 -277 0
607 -99 0
607 -96 0
607 -358 0
607 -308 0
608 -379 0
608 -150 0
608 -143 0
608 -287 0
608 -175 0
608 -24 0
608 -134 0
608 -96 0
608 -93 0
608 -218 0
608 -463 0
608 -216 0
609 -493 0
609 -296 0
609 -400 0
609 -426 0
609 -320 0
609 -332 0
609 -54 0
609 -264 0
609 -302 0
609 -254 0
609 -255 0
609 -333 0
609 -257 0
609 -468 0
609 -25 0
609 -229 0
610 -242 0
610 -43 0
610 -366 0
610 -308 0
610 -40 0
610 -512 0
610 -316 0
610 -450 0
610 -493 0
610 -179 0
610 -183 0
610 -188 0
610 -31 0
610 -379 0
611 -458 0
611 -81 0
611 -84 0
611 -43 0
611 -515 0
611 -322 0
612 -408 0
613 -477 0
613 -507 0
613 -391 0
613 -420 0
613 -415 0
613 -195 0
613 -530 0
613 -528 0
613 -13 0
613 -180 0
613 -237 0
613 -392 0
613 -188 0
613 -21 0
613 -98 0
613 -318 0
613 -43 0
614 -461 0
614 -406 0
614 -337 0
614 -166 0
614 -527 0
614 -50 0
614 -7 0
614 -351 0
614 -263 0
614 -433 0
614 -331 0
614 -301 0
614 -246 0
614 -446 0
614 -42 0
615 -197 0
615 -43 0
615 -365 0
615 -458 0
616 -305 0
616 -249 0
616 -187 0
616 -181 0
616 -307 0
616 -433 0
616 -265 0
616 -174 0
616 -327 0
616 -173 0
616 -14 0
616 -363 0
616 -456 0
616 -466 0
616 -64 0
617 -146 0
617 -236 0
617 -35 0
617 -259 0
617 -132 0
617 -205 0
617 -421 0
617 -72 0
617 -90 0
617 -387 0
617 -423 0
618 -86 0
618 -158 0
618 -25 0
618 -468 0
618 -168 0
618 -170 0
618 -492 0
618 -75 0
618 -81 0
618 -451 0
618 -352 0
618 -294 0
618 -510 0
619 -451 0
619 -383 0
619 -111 0
619 -232 0
619 -125 0
619 -109 0
619 -338 0
620 -386 0
620 -268 0
620 -328 0
620 -270 0
620 -465 0
620 -319 0
620 -37 0
620 -255 0
620 -178 0
620 -223 0
620 -142 0
620 -100 0
621 -355 0
621 -163 0
621 -82 0
621 -219 0
621 -113 0
621 -457 0
621 -168 0
621 -321 0
621 -101 0
621 -494 0
622 -452 0
622 -527 0
622 -447 0
622 -17 0
622 -197 0
622 -214 0
622 -136 0
622 -28 0
622 -24 0
622 -173 0
622 -461 0
622 -29 0
622 -231 0
622 -322 0
622 -442 0
623 -133 0
623 -254 0
623 -423 0
623 -252 0
623 -16 0
623 -35 0
623 -464 0
623 -106 0
623 -326 0
623 -444 0
623 -391 0
623 -413 0
624 -478 0
624 -412 0
624 -411 0
624 -306 0
624 -288 0
624 -297 0
624 -68 0
624 -311 0
624 -371 0
624 -179 0
624 -344 0
624 -252 0
624 -517 0
625 -343 0
625 -128 0
625 -352 0
625 -145 0
625 -48 0
625 -41 0
625 -10 0
625 -39 0
625 -451 0
625 -88 0
625 -171 0
625 -204 0
625 -271 0
625 -267 0
625 -259 0
625 -44 0
625 -390 0
626 -493 0
626 -440 0
627 -421 0
627 -443 0
627 -247 0
627 -258 0
627 -154 0
627 -342 0
627 -169 0
627 -160 0
627 -59 0
627 -217 0
627 -55 0
627 -347 0
627 -512 0
627 -53 0
628 -486 0
628 -524 0
628 -2 0
628 -180 0
628 -227 0
628 -185 0
628 -429 0
628 -48 0
628 -393 0
628 -496 0
628 -30 0
629 -426 0
629 -109 0
629 -197 0
629 -320 0
629 -174 0
629 -405 0
629 -33 0
629 -34 0
629 -399 0
629 -239 0
629 -395 0
629 -295 0
629 -371 0
630 -510 0
630 -333 0
630 -80 0
630 -69 0
630 -183 0
630 -292 0
630 -485 0
630 -241 0
630 -227 0
630 -67 0
630 -307 0
631 -385 0
631 -208 0
631 -152 0
631 -113 0
631 -36 0
631 -418 0
631 -80 0
631 -314 0
631 -217 0
631 -93 0
631 -200 0
631 -149 0
631 -318 0
631 -97 0
631 -440 0
631 -408 0
631 -519 0
631 -468 0
632 -432 0
632 -118 0
632 -102 0
632 -430 0
632 -311 0
632 -331 0
632 -119 0
632 -186 0
632 -179 0
632 -84 0
632 -427 0
632 -508 0
632 -322 0
632 -383 0
632 -253 0
633 -289 0
633 -530 0
633 -2 0
633 -329 0
633 -429 0
633 -472 0
633 -240 0
633 -274 0
633 -489 0
634 -207 0
634 -204 0
634 -126 0
634 -338 0
634 -469 0
634 -71 0
634 -14 0
634 -460 0
634 -9 0
634 -182 0
634 -529 0
634 -295 0
634 -288 0
635 -379 0
635 -354 0
635 -475 0
635 -21 0
635 -420 0
635 -289 0
635 -136 0
635 -223 0
635 -455 0
635 -328 0
635 -501 0
635 -266 0
635 -469 0
636 -107 0
636 -57 0
636 -526 0
636 -172 0
636 -293 0
636 -386 0
636 -225 0
636 -516 0
636 -481 0
636 -452 0
636 -227 0
636 -296 0
637 -54 0
637 -323 0
637 -411 0
637 -274 0
637 -509 0
637 -259 0
637 -429 0
637 -24 0
637 -22 0
637 -150 0
637 -53 0
637 -457 0
637 -394 0
637 -124 0
637 -436 0
637 -62 0
638 -430 0
638 -348 0
638 -251 0
638 -331 0
638 -209 0
638 -432 0
638 -475 0
638 -505 0
638 -512 0
638 -335 0
638 -22 0
638 -123 0
639 -156 0
639 -197 0
639 -223 0
639 -423 0
639 -317 0
639 -71 0
639 -383 0
639 -114 0
639 -443 0
639 -25 0
639 -112 0
640 -299 0
640 -348 0
640 -2 0
640 -221 0
640 -351 0
640 -410 0
640 -177 0
640 -148 0
640 -319 0
640 -298 0
640 -436 0
641 -233 0
641 -52 0
641 -36 0
641 -378 0
641 -329 0
641 -267 0
641 -144 0
641 -93 0
641 -56 0
641 -373 0
641 -67 0
641 -90 0
641 -447 0
641 -333 0
641 -399 0
642 -475 0
642 -143 0
642 -181 0
642 -175 0
642 -126 0
642 -325 0
642 -42 0
642 -453 0
642 -510 0
642 -119 0
642 -136 0
642 -521 0
642 -433 0
643 -531 0
643 -178 0
643 -372 0
643 -298 0
643 -110 0
643 -12 0
643 -75 0
643 -312 0
643 -497 0
643 -387 0
643 -20 0
643 -53 0
643 -237 0
643 -292 0
644 -299 0
644 -256 0
644 -279 0
644 -226 0
644 -262 0
644 -10 0
644 -39 0
644 -38 0
644 -414 0
644 -269 0
644 -326 0
644 -431 0
644 -331 0
644 -108 0
644 -31 0
644 -381 0
645 -116 0
645 -69 0
645 -392 0
645 -95 0
645 -452 0
645 -32 0
645 -103 0
645 -72 0
645 -296 0
645 -483 0
645 -126 0
646 -434 0
646 -276 0
646 -108 0
646 -31 0
646 -170 0
646 -153 0
646 -487 0
646 -443 0
646 -414 0
646 -233 0
646 -390 0
646 -221 0
646 -24 0
646 -516 0
646 -168 0
647 -376 0
647 -323 0
647 -235 0
647 -52 0
647 -401 0
647 -501 0
647 -66 0
648 -273 0
648 -215 0
648 -128 0
648 -527 0
648 -235 0
648 -263 0
648 -159 0
648 -161 0
648 -337 0
648 -27 0
648 -71 0
648 -42 0
648 -148 0
649 -443 0
649 -281 0
649 -360 0
649 -120 0
649 -481 0
649 -389 0
649 -99 0
649 -274 0
649 -339 0
649 -20 0
649 -492 0
649 -160 0
649 -64 0
650 -434 0
650 -328 0
650 -195 0
650 -397 0
650 -183 0
650 -110 0
650 -513 0
650 -488 0
650 -77 0
650 -288 0
651 -195 0
651 -89 0
651 -238 0
651 -40 0
651 -308 0
651 -257 0
651 -426 0
651 -296 0
651 -76 0
651 -63 0
652 -139 0
652 -130 0
652 -212 0
652 -423 0
652 -257 0
652 -99 0
652 -464 0
652 -62 0
652 -369 0
652 -507 0
652 -299 0
652 -302 0
652 -92 0
653 -360 0
653 -48 0
653 -378 0
653 -459 0
653 -76 0
653 -73 0
653 -335 0
653 -203 0
653 -490 0
653 -362 0
653 -248 0
653 -306 0
653 -95 0
653 -397 0
654 -197 0
654 -458 0
654 -184 0
654 -43 0
654 -269 0
654 -440 0
654 -317 0
655 -91 0
655 -5 0
655 -314 0
655 -168 0
655 -177 0
655 -274 0
655 -263 0
655 -10 0
656 -489 0
656 -374 0
656 -283 0
656 -372 0
656 -158 0
656 -43 0
656 -153 0
656 -182 0
656 -209 0
656 -371 0
656 -458 0
656 -279 0
656 -159 0
657 -297 0
657 -402 0
657 -109 0
657 -326 0
657 -317 0
657 -517 0
657 -164 0
657 -205 0
657 -233 0
657 -129 0
657 -527 0
657 -262 0
657 -504 0
657 -411 0
657 -478 0
658 -226 0
658 -91 0
658 -169 0
658 -142 0
658 -450 0
658 -262 0
658 -87 0
658 -501 0
658 -491 0
658 -170 0
658 -335 0
658 -167 0
659 -68 0
659 -292 0
659 -458 0
659 -345 0
659 -428 0
659 -77 0
659 -98 0
659 -275 0
659 -234 0
659 -381 0
659 -207 0
659 -392 0
659 -164 0
659 -411 0
660 -400 0
660 -440 0
660 -406 0
660 -522 0
660 -281 0
660 -271 0
660 -311 0
660 -395 0
660 -132 0
660 -391 0
660 -70 0
660 -310 0
660 -26 0
660 -264 0
661 -216 0
661 -355 0
661 -424 0
661 -321 0
661 -392 0
661 -33 0
661 -153 0
661 -448 0
661 -6 0
661 -127 0
661 -476 0
662 -497 0
662 -501 0
662 -433 0
662 -346 0
662 -206 0
662 -189 0
662 -194 0
662 -184 0
662 -65 0
662 -61 0
662 -98 0
662 -296 0
663 -438 0
663 -283 0
663 -410 0
663 -528 0
663 -286 0
663 -125 0
663 -290 0
663 -368 0
663 -167 0
663 -327 0
663 -511 0
664 -377 0
664 -273 0
664 -197 0
664 -287 0
664 -525 0
664 -262 0
664 -52 0
664 -527 0
664 -19 0
664 -164 0
664 -494 0
665 -118 0
665 -9 0
665 -349 0
665 -204 0
665 -138 0
665 -363 0
665 -16 0
665 -144 0
665 -334 0
665 -445 0
666 -437 0
666 -307 0
666 -325 0
666 -309 0
666 -100 0
666 -473 0
666 -311 0
666 -132 0
666 -49 0
666 -407 0
666 -254 0
666 -124 0
666 -384 0
666 -28 0
667 -385 0
667 -288 0
667 -400 0
667 -192 0
667 -337 0
667 -384 0
667 -126 0
667 -368 0
667 -518 0
667 -82 0
667 -353 0
668 -146 0
668 -308 0
668 -239 0
668 -99 0
668 -246 0
668 -500 0
668 -504 0
668 -514 0
668 -317 0
668 -521 0
668 -14 0
669 -294 0
669 -348 0
669 -236 0
669 -86 0
669 -329 0
669 -353 0
669 -55 0
669 -263 0
669 -414 0
669 -300 0
669 -267 0
669 -171 0
669 -14 0
670 -513 0
670 -362 0
670 -522 0
670 -410 0
670 -74 0
670 -376 0
670 -465 0
670 -312 0
670 -258 0
670 -250 0
670 -205 0
670 -48 0
670 -394 0
671 -441 0
671 -440 0
671 -33 0
671 -312 0
671 -369 0
671 -395 0
671 -364 0
671 -88 0
671 -28 0
671 -22 0
671 -513 0
671 -73 0
671 -520 0
672 -343 0
672 -135 0
672 -270 0
672 -39 0
672 -282 0
672 -494 0
672 -17 0
672 -200 0
672 -498 0
672 -271 0
672 -519 0
672 -444 0
673 -307 0
673 -279 0
673 -175 0
673 -269 0
673 -311 0
673 -239 0
673 -110 0
673 -241 0
673 -88 0
673 -11 0
673 -510 0
673 -339 0
673 -204 0
674 -509 0
674 -296 0
674 -292 0
674 -426 0
674 -283 0
674 -206 0
674 -54 0
674 -19 0
674 -239 0
674 -461 0
674 -458 0
674 -58 0
675 -154 0
675 -178 0
675 -524 0
675 -253 0
675 -384 0
675 -304 0
675 -525 0
675 -325 0
675 -478 0
675 -217 0
675 -205 0
675 -169 0
675 -68 0
676 -303 0
676 -262 0
676 -77 0
676 -50 0
676 -260 0
676 -459 0
676 -73 0
676 -234 0
676 -500 0
676 -182 0
676 -149 0
676 -63 0
676 -98 0
676 -84 0
676 -513 0
676 -395 0
676 -514 0
677 -438 0
677 -368 0
677 -50 0
677 -422 0
677 -351 0
677 -225 0
677 -189 0
677 -83 0
677 -506 0
677 -138 0
677 -121 0
678 -434 0
678 -300 0
678 -59 0
678 -388 0
678 -389 0
678 -405 0
678 -505 0
678 -188 0
678 -99 0
678 -326 0
678 -250 0
678 -176 0
679 -434 0
679 -260 0
679 -294 0
679 -120 0
679 -405 0
679 -180 0
679 -315 0
679 -147 0
679 -117 0
679 -377 0
679 -185 0
679 -85 0
679 -259 0
679 -421 0
679 -206 0
680 -304 0
680 -142 0
680 -432 0
680 -468 0
680 -103 0
680 -20 0
680 -65 0
680 -517 0
680 -87 0
680 -315 0
680 -383 0
680 -359 0
680 -445 0
680 -502 0
680 -440 0
681 -494 0
681 -483 0
681 -325 0
681 -137 0
681 -437 0
681 -472 0
681 -284 0
681 -148 0
681 -428 0
681 -207 0
682 -437 0
682 -131 0
682 -266 0
682 -32 0
682 -7 0
682 -117 0
682 -269 0
682 -186 0
682 -96 0
682 -447 0
682 -322 0
682 -471 0
682 -353 0
683 -303 0
683 -34 0
683 -236 0
683 -117 0
683 -36 0
683 -200 0
683 -142 0
683 -512 0
683 -70 0
683 -239 0
683 -441 0
683 -130 0
684 -279 0
684 -86 0
684 -278 0
684 -311 0
684 -366 0
684 -358 0
684 -237 0
684 -191 0
684 -106 0
684 -456 0
684 -488 0
684 -134 0
684 -380 0
684 -257 0
684 -18 0
684 -526 0
685 -299 0
685 -530 0
685 -77 0
685 -160 0
685 -41 0
685 -38 0
685 -35 0
685 -36 0
685 -357 0
685 -413 0
685 -309 0
685 -518 0
685 -184 0
685 -42 0
686 -493 0
686 -442 0
686 -464 0
686 -404 0
686 -158 0
686 -306 0
686 -432 0
686 -399 0
686 -178 0
686 -459 0
686 -482 0
686 -18 0
686 -263 0
687 -268 0
687 -245 0
687 -169 0
687 -289 0
687 -278 0
687 -108 0
687 -56 0
687 -330 0
687 -117 0
687 -236 0
687 -92 0
687 -444 0
688 -192 0
688 -166 0
688 -352 0
688 -372 0
688 -67 0
688 -117 0
688 -49 0
688 -513 0
688 -467 0
688 -109 0
689 -29 0
689 -281 0
689 -447 0
689 -330 0
689 -100 0
689 -426 0
689 -253 0
689 -294 0
689 -293 0
689 -269 0
689 -482 0
689 -325 0
689 -366 0
689 -301 0
689 -101 0
690 -166 0
690 -298 0
690 -244 0
690 -110 0
690 -24 0
690 -278 0
690 -30 0
691 -343 0
691 -294 0
691 -402 0
691 -31 0
691 -202 0
691 -50 0
691 -299 0
691 -525 0
691 -71 0
691 -134 0
691 -197 0
692 -345 0
692 -7 0
692 -194 0
692 -78 0
692 -464 0
692 -324 0
692 -62 0
692 -287 0
692 -32 0
692 -453 0
692 -519 0
693 -45 0
693 -8 0
693 -316 0
693 -481 0
693 -151 0
693 -318 0
693 -93 0
693 -182 0
693 -468 0
693 -364 0
693 -29 0
693 -376 0
694 -516 0
694 -337 0
694 -327 0
694 -209 0
694 -474 0
694 -251 0
694 -200 0
694 -117 0
694 -367 0
694 -205 0
694 -308 0
694 -325 0
694 -25 0
694 -373 0
695 -184 0
695 -133 0
695 -89 0
695 -28 0
695 -40 0
695 -88 0
695 -270 0
695 -310 0
695 -223 0
695 -115 0
695 -105 0
695 -213 0
695 -313 0
696 -488 0
696 -456 0
696 -226 0
696 -123 0
696 -1 0
696 -39 0
696 -171 0
696 -140 0
696 -188 0
696 -22 0
696 -176 0
696 -225 0
696 -293 0
696 -514 0
697 -266 0
697 -175 0
697 -88 0
697 -144 0
697 -281 0
697 -448 0
697 -185 0
698 -458 0
699 -216 0
699 -284 0
699 -525 0
699 -109 0
699 -77 0
699 -128 0
699 -206 0
699 -143 0
699 -174 0
699 -351 0
699 -170 0
699 -11 0
699 -521 0
699 -506 0
700 -467 0
700 -465 0
700 -397 0
700 -109 0
700 -250 0
700 -223 0
700 -240 0
700 -144 0
701 -76 0
701 -366 0
701 -29 0
701 -88 0
701 -511 0
701 -463 0
701 -252 0
701 -322 0
701 -501 0
701 -506 0
701 -203 0
701 -459 0
702 -439 0
702 -475 0
702 -210 0
702 -101 0
702 -459 0
702 -159 0
702 -170 0
702 -219 0
702 -156 0
702 -84 0
702 -365 0
702 -324 0
702 -483 0
702 -267 0
703 -251 0
703 -116 0
703 -107 0
703 -52 0
703 -123 0
703 -485 0
703 -254 0
703 -362 0
703 -117 0
703 -149 0
703 -446 0
704 -362 0
704 -31 0
704 -33 0
704 -217 0
704 -416 0
704 -293 0
704 -454 0
704 -373 0
704 -440 0
704 -478 0
704 -295 0
705 -494 0
705 -421 0
705 -303 0
705 -299 0
705 -139 0
705 -325 0
705 -118 0
705 -233 0
705 -26 0
705 -482 0
705 -378 0
705 -329 0
705 -528 0
705 -69 0
705 -10 0
705 -186 0
706 -270 0
706 -65 0
706 -84 0
706 -408 0
707 -417 0
707 -352 0
707 -242 0
707 -32 0
707 -423 0
707 -413 0
707 -147 0
707 -165 0
707 -188 0
707 -377 0
707 -370 0
707 -66 0
707 -420 0
707 -199 0
707 -456 0
708 -396 0
708 -509 0
708 -158 0
708 -302 0
708 -531 0
708 -137 0
708 -97 0
708 -268 0
708 -188 0
708 -317 0
708 -96 0
708 -429 0
708 -41 0
708 -18 0
708 -78 0
708 -511 0
709 -376 0
709 -340 0
709 -461 0
709 -291 0
709 -325 0
709 -508 0
709 -88 0
709 -378 0
709 -501 0
709 -208 0
709 -458 0
709 -438 0
710 -310 0
710 -410 0
710 -50 0
710 -183 0
710 -375 0
710 -363 0
710 -200 0
710 -44 0
710 -456 0
710 -389 0
710 -379 0
710 -66 0
710 -445 0
710 -65 0
711 -285 0
711 -126 0
711 -387 0
711 -481 0
711 -124 0
711 -347 0
711 -244 0
711 -336 0
711 -179 0
711 -191 0
712 -251 0
712 -214 0
712 -205 0
712 -246 0
712 -86 0
712 -329 0
712 -361 0
712 -143 0
713 -281 0
713 -187 0
713 -39 0
713 -427 0
713 -459 0
713 -396 0
713 -40 0
713 -66 0
713 -499 0
713 -488 0
713 -63 0
714 -433 0
714 -333 0
714 -296 0
714 -523 0
714 -290 0
714 -278 0
714 -204 0
714 -459 0
714 -177 0
714 -260 0
714 -173 0
714 -286 0
714 -342 0
714 -514 0
715 -270 0
716 -218 0
716 -39 0
716 -242 0
716 -329 0
716 -381 0
716 -188 0
716 -235 0
716 -362 0
716 -368 0
716 -138 0
716 -438 0
716 -507 0
716 -501 0
716 -386 0
717 -417 0
717 -332 0
717 -52 0
717 -270 0
717 -28 0
717 -508 0
717 -462 0
717 -311 0
717 -72 0
717 -159 0
717 -530 0
717 -355 0
717 -26 0
717 -81 0
717 -225 0
718 -386 0
718 -303 0
718 -312 0
718 -415 0
718 -240 0
718 -145 0
718 -21 0
718 -484 0
718 -358 0
718 -462 0
718 -378 0
718 -316 0
718 -133 0
718 -448 0
719 -408 0
719 -251 0
719 -432 0
719 -38 0
719 -225 0
719 -246 0
719 -395 0
719 -370 0
719 -180 0
720 -442 0
720 -443 0
720 -38 0
720 -203 0
720 -293 0
720 -217 0
720 -305 0
720 -381 0
720 -313 0
721 -284 0
721 -334 0
721 -348 0
721 -373 0
721 -242 0
721 -38 0
721 -511 0
721 -409 0
721 -311 0
721 -60 0
721 -313 0
721 -189 0
721 -235 0
721 -300 0
721 -188 0
722 -240 0
722 -208 0
722 -118 0
722 -28 0
722 -19 0
722 -378 0
722 -344 0
722 -185 0
722 -514 0
722 -97 0
722 -445 0
722 -456 0
722 -473 0
722 -373 0
723 -454 0
723 -415 0
723 -312 0
723 -143 0
723 -153 0
723 -209 0
723 -370 0
723 -17 0
723 -422 0
723 -387 0
723 -8 0
723 -382 0
723 -223 0
723 -511 0
723 -392 0
724 -240 0
724 -253 0
724 -369 0
724 -462 0
724 -364 0
724 -185 0
724 -95 0
724 -33 0
724 -133 0
724 -231 0
724 -64 0
725 -284 0
725 -226 0
725 -264 0
725 -102 0
725 -384 0
725 -387 0
725 -462 0
725 -287 0
725 -414 0
725 -179 0
725 -192 0
725 -135 0
726 -139 0
726 -143 0
726 -434 0
726 -282 0
726 -182 0
726 -521 0
726 -227 0
726 -477 0
726 -63 0
726 -68 0
726 -159 0
727 -41 0
727 -419 0
727 -239 0
727 -87 0
727 -380 0
727 -63 0
727 -65 0
727 -319 0
727 -445 0
727 -361 0
727 -38 0
727 -457 0
727 -30 0
727 -441 0
727 -528 0
727 -386 0
728 -440 0
728 -365 0
728 -268 0
728 -43 0
728 -493 0
728 -408 0
728 -81 0
729 -453 0
729 -507 0
729 -489 0
729 -400 0
729 -243 0
729 -306 0
729 -266 0
729 -50 0
729 -356 0
729 -459 0
729 -82 0
729 -78 0
729 -11 0
729 -302 0
729 -483 0
730 -210 0
730 -526 0
730 -275 0
730 -305 0
730 -222 0
730 -400 0
730 -189 0
730 -96 0
730 -178 0
730 -215 0
730 -338 0
730 -446 0
730 -329 0
730 -67 0
730 -63 0
730 -17 0
730 -171 0
731 -325 0
731 -431 0
731 -186 0
731 -33 0
731 -231 0
731 -442 0
731 -119 0
731 -367 0
731 -60 0
731 -353 0
731 -509 0
731 -138 0
732 -412 0
732 -391 0
732 -260 0
732 -415 0
732 -189 0
732 -372 0
732 -382 0
732 -172 0
732 -335 0
732 -150 0
732 -409 0
732 -58 0
732 -74 0
733 -475 0
733 -480 0
733 -379 0
733 -273 0
733 -120 0
733 -113 0
733 -102 0
733 -488 0
733 -347 0
733 -215 0
733 -260 0
733 -383 0
734 -145 0
734 -38 0
734 -347 0
734 -173 0
734 -179 0
734 -20 0
734 -355 0
734 -62 0
734 -516 0
734 -353 0
734 -327 0
734 -393 0
735 -135 0
735 -279 0
735 -270 0
735 -9 0
735 -304 0
735 -24 0
735 -257 0
735 -103 0
735 -325 0
735 -203 0
736 -355 0
736 -525 0
736 -154 0
736 -124 0
736 -71 0
736 -60 0
736 -433 0
736 -382 0
736 -512 0
736 -72 0
736 -20 0
736 -507 0
736 -109 0
737 -487 0
737 -254 0
737 -330 0
737 -226 0
737 -33 0
737 -106 0
737 -394 0
737 -396 0
737 -244 0
737 -378 0
737 -411 0
738 -451 0
738 -434 0
738 -253 0
738 -218 0
738 -381 0
738 -379 0
738 -491 0
738 -35 0
738 -189 0
738 -353 0
738 -133 0
738 -519 0
739 -289 0
739 -352 0
739 -99 0
739 -318 0
739 -197 0
739 -90 0
739 -460 0
739 -117 0
739 -456 0
740 -104 0
740 -360 0
740 -263 0
740 -75 0
740 -157 0
740 -84 0
740 -142 0
740 -512 0
740 -385 0
740 -46 0
740 -314 0
740 -439 0
740 -327 0
740 -61 0
740 -10 0
740 -361 0
740 -165 0
741 -67 0
741 -495 0
741 -266 0
741 -54 0
741 -6 0
741 -415 0
741 -401 0
741 -220 0
741 -369 0
741 -252 0
741 -187 0
741 -75 0
741 -164 0
742 -407 0
742 -374 0
742 -201 0
742 -402 0
742 -362 0
742 -109 0
742 -391 0
742 -37 0
742 -286 0
742 -194 0
742 -263 0
742 -275 0
742 -222 0
742 -62 0
742 -521 0
743 -500 0
743 -486 0
743 -483 0
743 -418 0
743 -325 0
743 -175 0
743 -316 0
743 -33 0
743 -326 0
743 -26 0
743 -478 0
743 -501 0
743 -412 0
743 -490 0
743 -44 0
744 -63 0
744 -393 0
744 -181 0
744 -38 0
744 -35 0
744 -304 0
744 -77 0
744 -146 0
744 -353 0
744 -466 0
744 -366 0
744 -51 0
745 -426 0
745 -470 0
745 -415 0
745 -385 0
745 -178 0
745 -384 0
745 -361 0
745 -140 0
745 -500 0
745 -204 0
745 -335 0
745 -508 0
745 -422 0
745 -283 0
745 -496 0
745 -439 0
745 -24 0
746 -63 0
746 -416 0
746 -333 0
746 -289 0
746 -210 0
746 -530 0
746 -15 0
746 -372 0
746 -435 0
746 -241 0
746 -64 0
747 -518 0
747 -454 0
747 -62 0
747 -352 0
747 -203 0
747 -7 0
747 -34 0
747 -376 0
747 -466 0
747 -423 0
747 -23 0
748 -411 0
748 -359 0
748 -503 0
748 -184 0
748 -156 0
748 -94 0
748 -225 0
748 -331 0
748 -358 0
748 -50 0
748 -121 0
748 -448 0
748 -498 0
748 -329 0
749 -464 0
749 -215 0
749 -169 0
749 -13 0
749 -528 0
749 -390 0
749 -17 0
749 -99 0
749 -76 0
749 -193 0
749 -105 0
749 -460 0
749 -167 0
749 -188 0
749 -130 0
750 -297 0
750 -345 0
750 -54 0
750 -236 0
750 -235 0
750 -147 0
750 -400 0
750 -204 0
750 -511 0
750 -72 0
750 -276 0
750 -200 0
750 -257 0
750 -339 0
750 -430 0
750 -390 0
751 -519 0
751 -422 0
751 -448 0
751 -343 0
751 -272 0
751 -18 0
751 -194 0
751 -147 0
751 -363 0
751 -382 0
751 -326 0
751 -201 0
752 -507 0
752 -388 0
752 -343 0
752 -154 0
752 -166 0
752 -35 0
752 -499 0
752 -462 0
752 -378 0
752 -43 0
752 -358 0
752 -80 0
752 -74 0
752 -2 0
752 -16 0
752 -450 0
753 -510 0
753 -228 0
753 -172 0
753 -82 0
753 -147 0
753 -380 0
753 -175 0
753 -513 0
753 -399 0
754 -139 0
754 -218 0
754 -360 0
754 -17 0
754 -472 0
754 -311 0
754 -181 0
754 -157 0
754 -103 0
754 -504 0
754 -282 0
755 -461 0
755 -150 0
755 -279 0
755 -8 0
755 -283 0
755 -476 0
755 -328 0
755 -209 0
755 -351 0
755 -315 0
755 -281 0
755 -107 0
755 -487 0
756 -419 0
756 -258 0
756 -77 0
756 -191 0
756 -132 0
756 -119 0
756 -170 0
756 -162 0
757 -379 0
757 -509 0
757 -404 0
757 -476 0
757 -356 0
757 -363 0
757 -488 0
757 -51 0
757 -132 0
757 -403 0
757 -528 0
758 -208 0
758 -137 0
758 -2 0
758 -6 0
758 -467 0
758 -149 0
758 -204 0
758 -482 0
758 -362 0
758 -455 0
758 -390 0
758 -273 0
758 -364 0
758 -30 0
759 -482 0
759 -292 0
759 -63 0
759 -350 0
759 -310 0
759 -371 0
759 -452 0
759 -316 0
759 -231 0
759 -497 0
759 -432 0
759 -182 0
759 -105 0
760 -197 0
760 -253 0
760 -408 0
760 -515 0
761 -336 0
761 -380 0
761 -302 0
761 -208 0
761 -226 0
761 -366 0
761 -28 0
761 -202 0
761 -474 0
761 -204 0
761 -122 0
761 -359 0
761 -444 0
761 -153 0
761 -129 0
761 -374 0
762 -166 0
762 -57 0
762 -109 0
762 -409 0
762 -93 0
762 -19 0
762 -147 0
762 -335 0
762 -329 0
762 -320 0
762 -495 0
762 -72 0
762 -436 0
762 -512 0
763 -215 0
763 -154 0
763 -156 0
763 -424 0
763 -253 0
763 -261 0
763 -95 0
763 -203 0
763 -513 0
763 -113 0
763 -470 0
763 -166 0
763 -507 0
763 -322 0
763 -413 0
763 -443 0
764 -483 0
764 -506 0
764 -143 0
764 -106 0
764 -181 0
764 -110 0
764 -323 0
764 -191 0
764 -462 0
764 -11 0
764 -461 0
764 -47 0
764 -33 0
764 -501 0
764 -498 0
765 -422 0
765 -208 0
765 -120 0
765 -111 0
765 -166 0
765 -313 0
765 -239 0
765 -26 0
765 -230 0
765 -137 0
765 -370 0
765 -347 0
765 -292 0
765 -7 0
765 -73 0
765 -70 0
766 -425 0
766 -333 0
766 -197 0
766 -419 0
766 -360 0
766 -251 0
766 -399 0
766 -34 0
767 -386 0
767 -318 0
767 -426 0
767 -273 0
767 -293 0
767 -351 0
767 -519 0
767 -29 0
767 -69 0
767 -5 0
767 -129 0
767 -51 0
767 -397 0
768 -352 0
768 -137 0
768 -375 0
768 -134 0
768 -138 0
768 -112 0
768 -18 0
768 -493 0
768 -193 0
768 -283 0
768 -36 0
768 -333 0
768 -480 0
768 -368 0
769 -336 0
769 -406 0
769 -104 0
769 -69 0
769 -31 0
769 -366 0
769 -362 0
769 -252 0
769 -315 0
769 -324 0
769 -458 0
769 -331 0
769 -437 0
770 -365 0
770 -408 0
770 -440 0
771 -386 0
771 -483 0
771 -203 0
771 -43 0
771 -376 0
771 -378 0
771 -220 0
771 -361 0
771 -8 0
771 -278 0
771 -61 0
771 -274 0
772 -318 0
772 -273 0
772 -89 0
772 -128 0
772 -338 0
772 -303 0
772 -142 0
772 -132 0
772 -117 0
772 -339 0
772 -235 0
772 -371 0
773 -71 0
773 -66 0
773 -466 0
773 -497 0
773 -292 0
773 -381 0
773 -276 0
773 -338 0
773 -392 0
773 -34 0
773 -56 0
774 -494 0
774 -492 0
774 -456 0
774 -446 0
774 -441 0
774 -306 0
774 -502 0
774 -201 0
774 -16 0
774 -101 0
774 -250 0
774 -299 0
774 -33 0
775 -313 0
775 -426 0
775 -318 0
775 -433 0
775 -277 0
775 -270 0
775 -266 0
775 -104 0
775 -7 0
775 -165 0
775 -310 0
775 -14 0
775 -226 0
775 -162 0
775 -241 0
776 -445 0
776 -312 0
776 -476 0
776 -105 0
776 -174 0
776 -279 0
776 -243 0
776 -133 0
776 -510 0
776 -295 0
776 -444 0
776 -412 0
776 -20 0
776 -502 0
777 -299 0
777 -318 0
777 -404 0
777 -392 0
777 -73 0
777 -171 0
777 -272 0
777 -495 0
777 -430 0
777 -377 0
777 -471 0
778 -403 0
778 -448 0
778 -276 0
778 -386 0
778 -396 0
778 -297 0
778 -52 0
778 -373 0
778 -477 0
778 -7 0
778 -502 0
778 -121 0
778 -165 0
778 -335 0
778 -23 0
778 -82 0
779 -433 0
779 -510 0
779 -394 0
779 -277 0
779 -251 0
779 -287 0
779 -5 0
779 -36 0
779 -328 0
779 -281 0
779 -314 0
779 -140 0
779 -326 0
779 -475 0
779 -231 0
779 -455 0
779 -275 0
779 -291 0
780 -201 0
780 -279 0
780 -175 0
780 -216 0
780 -10 0
780 -508 0
780 -229 0
780 -157 0
780 -93 0
780 -4 0
780 -498 0
780 -194 0
780 -421 0
780 -283 0
781 -52 0
781 -324 0
781 -171 0
781 -78 0
781 -88 0
781 -405 0
781 -332 0
781 -174 0
781 -382 0
781 -26 0
781 -292 0
781 -121 0
782 -490 0
782 -491 0
782 -333 0
782 -466 0
782 -3 0
782 -464 0
782 -25 0
782 -45 0
782 -329 0
782 -309 0
782 -226 0
782 -431 0
782 -105 0
783 -505 0
783 -289 0
783 -201 0
783 -357 0
783 -74 0
783 -342 0
783 -104 0
783 -179 0
783 -101 0
783 -119 0
783 -207 0
783 -463 0
784 -293 0
784 -95 0
784 -365 0
785 -515 0
785 -452 0
785 -192 0
785 -86 0
785 -253 0
785 -39 0
785 -328 0
785 -360 0
785 -239 0
785 -278 0
785 -358 0
785 -518 0
786 -445 0
786 -355 0
786 -266 0
786 -50 0
786 -210 0
786 -228 0
786 -520 0
786 -159 0
786 -173 0
786 -476 0
786 -246 0
786 -26 0
786 -208 0
786 -514 0
787 -334 0
787 -61 0
787 -420 0
787 -325 0
787 -203 0
787 -59 0
787 -282 0
787 -308 0
787 -136 0
787 -300 0
787 -97 0
787 -88 0
787 -176 0
787 -355 0
787 -463 0
787 -328 0
788 -158 0
788 -243 0
788 -291 0
788 -83 0
788 -528 0
788 -495 0
788 -132 0
788 -502 0
788 -368 0
788 -185 0
788 -124 0
788 -488 0
788 -182 0
789 -443 0
789 -275 0
789 -525 0
789 -419 0
789 -268 0
789 -369 0
789 -366 0
789 -236 0
789 -94 0
789 -136 0
789 -33 0
789 -15 0
789 -71 0
789 -173 0
789 -7 0
790 -277 0
790 -285 0
790 -48 0
790 -357 0
790 -13 0
790 -428 0
790 -10 0
790 -459 0
790 -142 0
790 -304 0
790 -273 0
790 -515 0
790 -443 0
791 -493 0
791 -365 0
791 -408 0
791 -270 0
791 -239 0
791 -167 0
791 -377 0
791 -84 0
791 -322 0
791 -269 0
792 -497 0
792 -420 0
792 -307 0
792 -169 0
792 -476 0
792 -82 0
792 -312 0
792 -447 0
792 -38 0
792 -127 0
792 -122 0
792 -274 0
792 -107 0
793 -140 0
793 -337 0
793 -84 0
793 -257 0
793 -29 0
793 -271 0
793 -102 0
793 -117 0
793 -521 0
793 -20 0
793 -389 0
793 -21 0
793 -419 0
794 -5 0
794 -35 0
794 -411 0
794 -129 0
794 -95 0
794 -463 0
794 -456 0
794 -196 0
794 -317 0
794 -339 0
794 -65 0
795 -70 0
795 -333 0
795 -327 0
795 -417 0
795 -100 0
795 -99 0
795 -428 0
795 -244 0
795 -469 0
795 -136 0
795 -24 0
795 -111 0
795 -463 0
796 -497 0
796 -197 0
796 -501 0
796 -359 0
796 -96 0
796 -304 0
796 -221 0
796 -241 0
796 -38 0
796 -22 0
796 -98 0
796 -121 0
796 -132 0
797 -506 0
797 -464 0
797 -483 0
797 -400 0
797 -293 0
797 -124 0
797 -153 0
797 -112 0
797 -395 0
797 -449 0
798 -224 0
798 -287 0
798 -113 0
798 -27 0
798 -183 0
798 -296 0
798 -453 0
798 -447 0
798 -505 0
799 -458 0
800 -7 0
801 -408 0
801 -458 0
802 -303 0
802 -526 0
802 -190 0
802 -387 0
802 -159 0
802 -235 0
802 -203 0
802 -248 0
802 -366 0
802 -56 0
802 -53 0
802 -448 0
802 -441 0
803 -248 0
803 -155 0
803 -167 0
803 -338 0
803 -19 0
803 -485 0
803 -456 0
803 -508 0
803 -202 0
803 -260 0
803 -339 0
803 -218 0
803 -45 0
803 -156 0
803 -455 0
803 -240 0
803 -24 0
804 -354 0
804 -109 0
804 -181 0
804 -315 0
804 -282 0
804 -337 0
804 -474 0
804 -235 0
804 -475 0
804 -157 0
804 -393 0
804 -213 0
805 -365 0
805 -381 0
805 -423 0
805 -378 0
805 -278 0
805 -78 0
805 -251 0
805 -114 0
805 -147 0
805 -108 0
805 -155 0
805 -139 0
805 -164 0
806 -184 0
806 -324 0
806 -34 0
806 -125 0
806 -341 0
806 -250 0
806 -481 0
806 -469 0
806 -11 0
806 -409 0
806 -495 0
806 -95 0
806 -67 0
807 -278 0
807 -117 0
807 -167 0
807 -125 0
807 -464 0
807 -266 0
807 -528 0
807 -206 0
807 -118 0
807 -106 0
807 -282 0
807 -399 0
807 -11 0
807 -41 0
807 -495 0
808 -373 0
808 -370 0
808 -483 0
808 -23 0
808 -154 0
808 -37 0
808 -505 0
808 -99 0
808 -35 0
808 -143 0
808 -4 0
809 -456 0
809 -275 0
809 -118 0
809 -242 0
809 -32 0
809 -174 0
809 -398 0
809 -217 0
809 -489 0
809 -495 0
809 -12 0
809 -119 0
809 -171 0
810 -38 0
810 -69 0
810 -431 0
810 -331 0
810 -235 0
810 -295 0
810 -24 0
810 -421 0
810 -54 0
810 -48 0
811 -31 0
811 -338 0
811 -353 0
811 -92 0
811 -98 0
811 -87 0
811 -181 0
811 -431 0
811 -528 0
811 -182 0
811 -279 0
811 -111 0
812 -440 0
812 -385 0
812 -393 0
812 -434 0
812 -264 0
812 -369 0
812 -216 0
812 -312 0
812 -259 0
812 -205 0
812 -502 0
812 -227 0
813 -325 0
813 -96 0
813 -263 0
813 -140 0
813 -222 0
813 -449 0
813 -95 0
813 -135 0
814 -296 0
814 -254 0
814 -337 0
814 -236 0
814 -8 0
814 -118 0
814 -418 0
814 -115 0
814 -130 0
814 -284 0
814 -527 0
814 -66 0
815 -32 0
815 -321 0
815 -370 0
815 -491 0
815 -112 0
815 -382 0
815 -202 0
815 -24 0
815 -420 0
815 -247 0
815 -160 0
816 -518 0
816 -404 0
816 -434 0
816 -360 0
816 -424 0
816 -279 0
816 -17 0
816 -249 0
816 -427 0
816 -437 0
816 -408 0
816 -80 0
817 -150 0
817 -175 0
817 -361 0
817 -85 0
817 -194 0
817 -462 0
817 -324 0
817 -366 0
817 -195 0
817 -531 0
817 -391 0
818 -345 0
818 -428 0
818 -471 0
818 -254 0
818 -276 0
818 -401 0
818 -351 0
818 -194 0
818 -108 0
819 -476 0
819 -159 0
819 -136 0
819 -223 0
819 -191 0
819 -518 0
819 -253 0
819 -131 0
819 -201 0
819 -224 0
819 -454 0
819 -104 0
819 -477 0
819 -80 0
819 -175 0
819 -130 0
820 -17 0
820 -250 0
820 -409 0
820 -260 0
820 -379 0
820 -400 0
820 -241 0
820 -453 0
820 -220 0
820 -65 0
820 -474 0
820 -189 0
821 -99 0
821 -487 0
821 -448 0
821 -297 0
821 -485 0
821 -103 0
821 -106 0
821 -315 0
821 -100 0
821 -33 0
821 -41 0
821 -109 0
821 -496 0
822 -332 0
822 -355 0
822 -260 0
822 -77 0
822 -135 0
822 -36 0
822 -319 0
822 -189 0
822 -290 0
822 -242 0
822 -29 0
822 -238 0
822 -44 0
823 -414 0
823 -301 0
823 -42 0
823 -99 0
823 -430 0
823 -12 0
823 -285 0
823 -367 0
823 -481 0
823 -218 0
823 -258 0
823 -242 0
823 -182 0
824 -65 0
824 -408 0
825 -364 0
825 -333 0
825 -150 0
825 -97 0
825 -258 0
825 -327 0
825 -76 0
825 -73 0
825 -42 0
825 -523 0
825 -259 0
825 -192 0
825 -479 0
825 -504 0
825 -222 0
825 -61 0
826 -19 0
826 -211 0
826 -101 0
826 -119 0
826 -443 0
826 -502 0
826 -139 0
826 -156 0
826 -525 0
826 -262 0
826 -322 0
826 -173 0
827 -409 0
827 -392 0
827 -98 0
827 -84 0
827 -91 0
827 -58 0
827 -258 0
827 -76 0
827 -262 0
827 -528 0
827 -376 0
827 -120 0
828 -261 0
828 -38 0
828 -436 0
828 -267 0
828 -483 0
828 -272 0
828 -504 0
828 -36 0
828 -250 0
829 -421 0
829 -181 0
829 -31 0
829 -40 0
829 -129 0
829 -99 0
829 -132 0
829 -161 0
829 -98 0
829 -153 0
829 -134 0
830 -513 0
830 -487 0
830 -277 0
830 -502 0
830 -407 0
830 -401 0
830 -114 0
830 -12 0
830 -63 0
830 -426 0
830 -339 0
830 -161 0
831 -507 0
831 -422 0
831 -386 0
831 -133 0
831 -408 0
831 -466 0
831 -395 0
831 -274 0
831 -260 0
831 -123 0
831 -321 0
831 -223 0
831 -115 0
831 -117 0
831 -487 0
832 -440 0
832 -428 0
832 -17 0
832 -366 0
832 -311 0
832 -452 0
832 -507 0
832 -376 0
832 -61 0
832 -42 0
832 -22 0
833 -480 0
833 -449 0
833 -402 0
833 -320 0
833 -50 0
833 -474 0
833 -38 0
833 -465 0
833 -388 0
833 -92 0
833 -531 0
833 -519 0
834 -65 0
834 -428 0
834 -83 0
834 -268 0
834 -265 0
834 -412 0
834 -333 0
834 -500 0
834 -328 0
834 -457 0
834 -196 0
834 -449 0
834 -16 0
834 -213 0
835 -306 0
835 -333 0
835 -394 0
835 -213 0
835 -395 0
835 -86 0
835 -33 0
835 -92 0
835 -472 0
835 -427 0
835 -233 0
835 -284 0
835 -134 0
836 -264 0
836 -315 0
836 -476 0
836 -29 0
836 -193 0
836 -434 0
836 -46 0
836 -350 0
837 -409 0
837 -99 0
837 -478 0
837 -420 0
837 -258 0
837 -350 0
837 -286 0
837 -345 0
837 -184 0
837 -154 0
837 -442 0
837 -160 0
837 -48 0
837 -173 0
838 -63 0
838 -139 0
838 -251 0
838 -266 0
838 -222 0
838 -61 0
838 -438 0
838 -57 0
838 -344 0
838 -171 0
838 -134 0
839 -359 0
839 -426 0
839 -253 0
839 -116 0
839 -25 0
839 -286 0
839 -99 0
839 -41 0
839 -138 0
839 -61 0
839 -176 0
839 -163 0
839 -297 0
840 -461 0
840 -422 0
840 -345 0
840 -285 0
840 -69 0
840 -78 0
840 -276 0
840 -331 0
840 -223 0
840 -498 0
840 -490 0
840 -187 0
840 -29 0
840 -407 0
840 -362 0
841 -26 0
841 -522 0
841 -126 0
841 -40 0
841 -263 0
841 -282 0
841 -28 0
841 -116 0
841 -294 0
841 -253 0
841 -427 0
841 -475 0
841 -385 0
841 -178 0
841 -516 0
841 -189 0
842 -486 0
842 -393 0
842 -187 0
842 -106 0
842 -206 0
842 -414 0
842 -144 0
842 -120 0
842 -189 0
842 -418 0
842 -390 0
842 -338 0
842 -480 0
842 -36 0
842 -55 0
843 -510 0
843 -476 0
843 -526 0
843 -423 0
843 -180 0
843 -232 0
843 -207 0
843 -60 0
843 -16 0
843 -344 0
843 -487 0
843 -350 0
843 -91 0
843 -456 0
844 -38 0
844 -164 0
844 -396 0
844 -43 0
844 -391 0
844 -344 0
844 -364 0
844 -410 0
844 -493 0
844 -384 0
844 -298 0
844 -48 0
845 -490 0
845 -240 0
845 -524 0
845 -43 0
845 -109 0
845 -145 0
845 -431 0
845 -392 0
845 -125 0
845 -511 0
845 -76 0
846 -437 0
846 -426 0
846 -54 0
846 -35 0
846 -312 0
846 -226 0
846 -450 0
846 -305 0
846 -489 0
846 -413 0
846 -386 0
846 -528 0
847 -303 0
847 -268 0
847 -206 0
847 -350 0
847 -477 0
847 -64 0
847 -502 0
847 -394 0
847 -156 0
848 -7 0
848 -293 0
848 -322 0
848 -197 0
848 -365 0
848 -80 0
848 -500 0
849 -440 0
849 -345 0
849 -496 0
849 -420 0
849 -46 0
849 -406 0
849 -28 0
849 -349 0
849 -153 0
849 -240 0
850 -429 0
850 -354 0
850 -448 0
850 -254 0
850 -426 0
850 -152 0
850 -362 0
850 -125 0
850 -96 0
850 -501 0
850 -432 0
850 -104 0
850 -504 0
850 -199 0
850 -189 0
851 -382 0
851 -264 0
851 -432 0
851 -337 0
851 -522 0
851 -443 0
851 -152 0
851 -9 0
851 -366 0
851 -174 0
851 -259 0
851 -17 0
851 -117 0
851 -463 0
851 -108 0
852 -23 0
852 -25 0
852 -318 0
852 -196 0
852 -75 0
852 -53 0
852 -390 0
852 -50 0
852 -452 0
852 -380 0
854 -11 0
854 -436 0
854 -288 0
854 -175 0
854 -34 0
854 -9 0
854 -140 0
854 -99 0
854 -166 0
854 -449 0
854 -198 0
854 -501 0
854 -118 0
854 -291 0
855 -379 0
855 -126 0
855 -20 0
855 -513 0
855 -194 0
855 -311 0
855 -472 0
855 -232 0
855 -358 0
855 -226 0
855 -448 0
856 -6 0
856 -45 0
856 -223 0
856 -151 0
856 -105 0
856 -119 0
856 -25 0
857 -52 0
857 -318 0
857 -253 0
857 -299 0
857 -457 0
857 -278 0
857 -454 0
857 -151 0
857 -301 0
857 -406 0
857 -353 0
858 -207 0
858 -88 0
858 -149 0
858 -162 0
858 -316 0
858 -372 0
858 -377 0
858 -108 0
858 -296 0
858 -513 0
858 -315 0
858 -199 0
858 -507 0
858 -236 0
858 -410 0
858 -462 0
859 -332 0
859 -11 0
859 -254 0
859 -346 0
859 -400 0
859 -385 0
859 -53 0
859 -503 0
859 -60 0
860 -281 0
860 -253 0
860 -86 0
860 -31 0
860 -351 0
860 -390 0
860 -202 0
860 -225 0
860 -91 0
860 -325 0
860 -63 0
860 -294 0
861 -380 0
861 -325 0
861 -275 0
861 -141 0
861 -405 0
861 -44 0
861 -107 0
861 -168 0
861 -147 0
861 -104 0
861 -35 0
861 -517 0
861 -81 0
861 -492 0
862 -109 0
862 -124 0
862 -507 0
862 -316 0
862 -113 0
862 -72 0
863 -481 0
863 -136 0
863 -189 0
863 -64 0
863 -408 0
863 -441 0
863 -334 0
863 -40 0
863 -501 0
863 -492 0
863 -278 0
863 -433 0
863 -325 0
863 -147 0
863 -184 0
863 -108 0
863 -422 0
864 -58 0
864 -249 0
864 -63 0
864 -450 0
864 -16 0
864 -422 0
864 -478 0
864 -419 0
864 -347 0
864 -529 0
864 -413 0
864 -83 0
864 -107 0
864 -264 0
865 -221 0
865 -87 0
865 -482 0
865 -46 0
865 -337 0
865 -117 0
865 -356 0
865 -253 0
865 -487 0
865 -524 0
865 -107 0
865 -490 0
866 -325 0
866 -406 0
866 -222 0
866 -175 0
866 -79 0
866 -348 0
866 -223 0
866 -233 0
866 -383 0
866 -457 0
866 -382 0
866 -502 0
867 -372 0
867 -140 0
867 -250 0
867 -36 0
867 -162 0
867 -362 0
867 -459 0
867 -79 0
867 -378 0
867 -512 0
867 -339 0
867 -238 0
867 -29 0
867 -415 0
867 -245 0
867 -376 0
868 -264 0
868 -360 0
868 -142 0
868 -241 0
868 -90 0
868 -110 0
868 -440 0
868 -490 0
868 -465 0
869 -120 0
869 -413 0
869 -524 0
869 -384 0
869 -134 0
869 -119 0
869 -103 0
869 -29 0
869 -513 0
869 -250 0
869 -63 0
869 -305 0
869 -158 0
870 -69 0
870 -301 0
870 -265 0
870 -392 0
870 -505 0
870 -76 0
870 -300 0
870 -213 0
870 -240 0
870 -66 0
870 -113 0
871 -501 0
871 -339 0
871 -158 0
871 -156 0
871 -41 0
871 -421 0
871 -387 0
871 -4 0
871 -384 0
871 -431 0
871 -479 0
871 -29 0
871 -349 0
871 -92 0
871 -269 0
871 -149 0
872 -322 0
872 -130 0
872 -406 0
872 -432 0
872 -320 0
872 -38 0
872 -349 0
872 -378 0
872 -474 0
872 -329 0
872 -235 0
872 -506 0
872 -250 0
872 -92 0
872 -260 0
872 -121 0
872 -517 0
872 -145 0
873 -452 0
873 -154 0
873 -357 0
873 -275 0
873 -302 0
873 -121 0
873 -194 0
873 -479 0
873 -489 0
873 -463 0
874 -456 0
874 -407 0
874 -242 0
874 -222 0
874 -526 0
874 -33 0
874 -371 0
874 -228 0
874 -397 0
874 -316 0
874 -237 0
874 -525 0
874 -176 0
874 -338 0
875 -354 0
875 -449 0
875 -391 0
875 -154 0
875 -133 0
875 -97 0
875 -102 0
875 -358 0
875 -374 0
875 -246 0
875 -250 0
875 -298 0
876 -141 0
876 -89 0
876 -349 0
876 -325 0
876 -376 0
876 -411 0
876 -87 0
876 -506 0
876 -497 0
877 -447 0
877 -441 0
877 -505 0
877 -448 0
877 -247 0
877 -146 0
877 -402 0
877 -253 0
877 -120 0
877 -319 0
877 -220 0
877 -37 0
877 -286 0
877 -405 0
878 -253 0
878 -500 0
878 -389 0
878 -175 0
878 -239 0
878 -229 0
878 -95 0
878 -269 0
879 -480 0
879 -37 0
879 -215 0
879 -345 0
879 -507 0
879 -225 0
879 -272 0
879 -482 0
879 -108 0
879 -53 0
879 -249 0
879 -479 0
880 -128 0
880 -195 0
880 -100 0
880 -23 0
880 -488 0
880 -168 0
880 -297 0
880 -103 0
880 -274 0
880 -63 0
880 -42 0
880 -443 0
881 -296 0
881 -295 0
881 -260 0
881 -505 0
881 -434 0
881 -422 0
881 -241 0
881 -488 0
881 -24 0
882 -146 0
882 -528 0
882 -32 0
882 -201 0
882 -265 0
882 -509 0
882 -356 0
882 -47 0
882 -26 0
882 -324 0
882 -56 0
883 -530 0
883 -279 0
883 -141 0
883 -30 0
883 -40 0
883 -405 0
883 -248 0
883 -504 0
883 -228 0
883 -464 0
883 -411 0
883 -337 0
883 -73 0
884 -318 0
884 -418 0
884 -274 0
884 -221 0
884 -121 0
884 -145 0
884 -459 0
884 -170 0
884 -85 0
884 -101 0
884 -306 0
884 -66 0
885 -324 0
885 -519 0
885 -165 0
885 -64 0
885 -370 0
885 -475 0
885 -502 0
885 -296 0
885 -409 0
885 -424 0
885 -352 0
885 -86 0
885 -449 0
886 -437 0
886 -509 0
886 -289 0
886 -208 0
886 -166 0
886 -31 0
886 -528 0
886 -524 0
886 -144 0
886 -307 0
886 -358 0
886 -510 0
887 -394 0
887 -283 0
887 -302 0
887 -467 0
887 -388 0
887 -381 0
887 -492 0
887 -204 0
887 -514 0
887 -182 0
887 -105 0
887 -63 0
887 -61 0
887 -494 0
888 -439 0
888 -243 0
888 -123 0
888 -8 0
888 -384 0
888 -47 0
888 -278 0
888 -169 0
888 -209 0
888 -157 0
888 -523 0
888 -290 0
889 -357 0
889 -348 0
889 -319 0
889 -235 0
889 -268 0
889 -132 0
889 -92 0
889 -209 0
889 -55 0
889 -287 0
889 -87 0
889 -295 0
889 -437 0
889 -116 0
890 -27 0
890 -263 0
890 -127 0
890 -68 0
890 -110 0
890 -400 0
890 -321 0
890 -189 0
890 -408 0
890 -337 0
890 -339 0
890 -347 0
890 -379 0
891 -334 0
891 -461 0
891 -391 0
891 -10 0
891 -314 0
891 -270 0
891 -372 0
892 -444 0
892 -337 0
892 -120 0
892 -21 0
892 -140 0
892 -271 0
892 -321 0
892 -231 0
892 -166 0
892 -345 0
892 -204 0
893 -268 0
893 -302 0
893 -39 0
893 -33 0
893 -31 0
893 -481 0
893 -347 0
893 -271 0
893 -461 0
893 -242 0
893 -182 0
894 -299 0
894 -297 0
894 -52 0
894 -111 0
894 -305 0
894 -27 0
894 -15 0
894 -180 0
894 -488 0
894 -355 0
894 -249 0
894 -290 0
894 -295 0
894 -408 0
895 -8 0
895 -423 0
895 -503 0
895 -124 0
895 -185 0
895 -341 0
895 -86 0
895 -268 0
895 -33 0
895 -317 0
895 -530 0
895 -374 0
895 -178 0
895 -330 0
895 -427 0
896 -70 0
897 -370 0
897 -334 0
897 -50 0
897 -293 0
897 -347 0
897 -112 0
897 -134 0
897 -360 0
897 -162 0
898 -23 0
898 -125 0
898 -259 0
898 -407 0
898 -500 0
898 -255 0
898 -430 0
898 -264 0
898 -111 0
898 -225 0
898 -172 0
899 -306 0
899 -437 0
899 -422 0
899 -502 0
899 -302 0
899 -175 0
899 -1 0
899 -484 0
899 -291 0
899 -49 0
899 -57 0
899 -322 0
899 -244 0
899 -78 0
899 -483 0
900 -464 0
900 -526 0
900 -40 0
900 -7 0
900 -484 0
900 -4 0
900 -409 0
900 -280 0
900 -205 0
900 -14 0
900 -296 0
900 -297 0
901 -15 0
901 -26 0
901 -456 0
901 -464 0
901 -14 0
901 -426 0
901 -312 0
901 -265 0
901 -169 0
901 -48 0
901 -531 0
901 -238 0
902 -20 0
902 -527 0
902 -493 0
902 -409 0
902 -308 0
902 -247 0
902 -188 0
902 -205 0
902 -423 0
902 -282 0
902 -42 0
903 -453 0
903 -160 0
903 -15 0
903 -10 0
903 -169 0
903 -384 0
903 -382 0
903 -14 0
904 -34 0
904 -418 0
904 -379 0
904 -500 0
904 -273 0
904 -139 0
904 -426 0
904 -16 0
904 -241 0
905 -106 0
905 -166 0
905 -15 0
905 -500 0
905 -459 0
905 -9 0
905 -384 0
905 -207 0
905 -286 0
905 -349 0
905 -405 0
905 -165 0
905 -37 0
905 -441 0
905 -271 0
905 -66 0
906 -482 0
906 -290 0
906 -276 0
906 -213 0
906 -262 0
906 -315 0
906 -125 0
906 -278 0
906 -202 0
906 -56 0
906 -349 0
906 -70 0
906 -416 0
907 -324 0
907 -235 0
907 -293 0
907 -55 0
907 -114 0
907 -485 0
907 -180 0
907 -42 0
907 -487 0
907 -212 0
907 -192 0
907 -477 0
908 -7 0
908 -84 0
908 -515 0
908 -184 0
908 -81 0
908 -11 0
908 -95 0
908 -43 0
908 -268 0
908 -458 0
909 -508 0
909 -323 0
909 -318 0
909 -350 0
909 -131 0
909 -527 0
909 -233 0
909 -464 0
909 -19 0
909 -108 0
910 -40 0
910 -418 0
910 -182 0
910 -19 0
910 -76 0
910 -41 0
910 -166 0
910 -481 0
911 -479 0
911 -317 0
911 -432 0
911 -33 0
911 -420 0
911 -418 0
911 -116 0
911 -304 0
911 -198 0
911 -235 0
911 -96 0
911 -216 0
912 -407 0
912 -475 0
912 -243 0
912 -152 0
912 -313 0
912 -186 0
912 -85 0
912 -164 0
912 -495 0
912 -51 0
912 -121 0
912 -517 0
912 -366 0
913 -6 0
913 -329 0
913 -326 0
913 -204 0
913 -378 0
913 -146 0
913 -346 0
913 -62 0
913 -266 0
913 -81 0
913 -163 0
913 -429 0
914 -18 0
914 -390 0
914 -33 0
914 -431 0
914 -359 0
914 -8 0
914 -207 0
914 -195 0
914 -316 0
914 -465 0
914 -60 0
914 -46 0
914 -393 0
915 -433 0
915 -390 0
915 -459 0
915 -147 0
915 -90 0
915 -237 0
915 -185 0
915 -200 0
915 -116 0
915 -343 0
916 -21 0
916 -409 0
916 -62 0
916 -516 0
916 -266 0
916 -153 0
916 -109 0
916 -478 0
916 -325 0
916 -342 0
917 -407 0
917 -525 0
917 -116 0
917 -425 0
917 -388 0
917 -159 0
917 -94 0
917 -217 0
917 -117 0
917 -61 0
917 -235 0
918 -477 0
918 -359 0
918 -336 0
918 -380 0
918 -355 0
918 -404 0
918 -305 0
918 -102 0
918 -446 0
918 -445 0
918 -245 0
918 -497 0
918 -36 0
919 -496 0
919 -429 0
919 -37 0
919 -387 0
919 -132 0
919 -289 0
919 -66 0
919 -72 0
919 -170 0
919 -24 0
920 -408 0
920 -70 0
921 -180 0
921 -185 0
921 -186 0
921 -458 0
921 -501 0
921 -279 0
921 -378 0
921 -287 0
921 -195 0
921 -234 0
922 -70 0
922 -458 0
922 -270 0
922 -184 0
922 -81 0
923 -502 0
923 -362 0
923 -484 0
923 -224 0
923 -125 0
923 -353 0
923 -12 0
923 -175 0
923 -109 0
923 -525 0
923 -514 0
924 -10 0
924 -409 0
924 -414 0
924 -25 0
924 -42 0
924 -297 0
924 -512 0
924 -14 0
924 -486 0
924 -45 0
924 -213 0
924 -135 0
924 -295 0
924 -58 0
924 -437 0
925 -507 0
925 -215 0
925 -30 0
925 -6 0
925 -449 0
925 -509 0
925 -261 0
925 -335 0
925 -193 0
925 -411 0
925 -104 0
925 -117 0
925 -301 0
926 -171 0
926 -191 0
926 -354 0
926 -464 0
926 -420 0
926 -242 0
926 -260 0
926 -77 0
926 -129 0
926 -414 0
926 -66 0
927 -436 0
927 -426 0
927 -310 0
927 -416 0
927 -35 0
927 -11 0
927 -2 0
927 -409 0
927 -176 0
927 -360 0
927 -324 0
927 -269 0
927 -224 0
928 -507 0
928 -65 0
928 -422 0
928 -368 0
928 -515 0
928 -262 0
928 -300 0
928 -505 0
928 -124 0
928 -504 0
929 -268 0
929 -192 0
929 -17 0
929 -37 0
929 -358 0
929 -270 0
929 -101 0
929 -407 0
929 -257 0
929 -308 0
930 -2 0
930 -6 0
930 -11 0
930 -340 0
930 -504 0
930 -371 0
930 -412 0
930 -185 0
930 -390 0
930 -335 0
930 -89 0
930 -179 0
930 -384 0
931 -523 0
931 -156 0
931 -245 0
931 -253 0
931 -3 0
931 -49 0
931 -263 0
931 -147 0
931 -34 0
931 -110 0
932 -292 0
932 -216 0
932 -480 0
932 -454 0
932 -502 0
932 -106 0
932 -293 0
932 -93 0
932 -386 0
932 -321 0
932 -453 0
932 -468 0
932 -174 0
932 -62 0
932 -494 0
933 -524 0
933 -329 0
933 -147 0
933 -507 0
933 -326 0
933 -108 0
933 -298 0
933 -419 0
933 -334 0
933 -47 0
933 -252 0
934 -209 0
934 -142 0
934 -252 0
934 -498 0
934 -416 0
934 -407 0
934 -359 0
934 -519 0
934 -511 0
934 -426 0
934 -121 0
934 -415 0
934 -305 0
934 -122 0
934 -163 0
934 -467 0
934 -203 0
935 -66 0
935 -332 0
935 -430 0
935 -380 0
935 -360 0
935 -406 0
935 -379 0
935 -220 0
935 -42 0
935 -247 0
935 -9 0
935 -211 0
935 -73 0
935 -127 0
935 -351 0
936 -449 0
936 -365 0
936 -391 0
936 -328 0
936 -415 0
936 -240 0
936 -59 0
936 -410 0
936 -317 0
936 -171 0
936 -286 0
936 -115 0
936 -119 0
936 -495 0
937 -322 0
937 -184 0
937 -84 0
937 -80 0
937 -95 0
937 -493 0
938 -76 0
938 -219 0
938 -237 0
938 -39 0
938 -14 0
938 -506 0
938 -293 0
938 -380 0
938 -335 0
938 -97 0
938 -206 0
938 -345 0
938 -195 0
938 -42 0
938 -337 0
938 -305 0
938 -77 0
939 -70 0
940 -412 0
940 -434 0
940 -303 0
940 -302 0
940 -88 0
940 -170 0
940 -295 0
940 -345 0
940 -131 0
941 -287 0
941 -270 0
941 -40 0
941 -226 0
941 -507 0
941 -72 0
941 -470 0
941 -231 0
941 -68 0
941 -105 0
941 -129 0
942 -225 0
942 -200 0
942 -481 0
942 -256 0
942 -321 0
942 -362 0
942 -276 0
942 -168 0
943 -32 0
943 -225 0
943 -171 0
943 -10 0
943 -455 0
943 -354 0
943 -89 0
943 -172 0
943 -86 0
943 -111 0
943 -94 0
943 -385 0
943 -141 0
943 -19 0
944 -291 0
944 -126 0
944 -359 0
944 -191 0
944 -271 0
944 -327 0
944 -521 0
944 -470 0
944 -460 0
944 -374 0
944 -446 0
945 -289 0
945 -328 0
945 -230 0
945 -48 0
945 -425 0
945 -266 0
945 -293 0
945 -211 0
945 -156 0
945 -432 0
945 -263 0
945 -501 0
945 -338 0
945 -147 0
946 -307 0
946 -31 0
946 -203 0
946 -109 0
946 -32 0
946 -88 0
946 -418 0
946 -298 0
946 -162 0
946 -496 0
946 -455 0
946 -136 0
947 -173 0
947 -60 0
947 -395 0
947 -391 0
947 -488 0
947 -497 0
947 -473 0
947 -150 0
947 -243 0
947 -273 0
947 -432 0
947 -304 0
947 -199 0
947 -342 0
947 -66 0
947 -309 0
948 -482 0
948 -383 0
948 -297 0
948 -130 0
948 -8 0
948 -311 0
948 -159 0
948 -131 0
948 -489 0
948 -271 0
949 -456 0
949 -457 0
949 -334 0
949 -292 0
949 -251 0
949 -139 0
949 -261 0
949 -448 0
949 -90 0
949 -62 0
949 -207 0
949 -399 0
949 -498 0
950 -447 0
950 -357 0
950 -156 0
950 -48 0
950 -3 0
950 -212 0
950 -178 0
950 -241 0
950 -77 0
950 -502 0
950 -482 0
950 -326 0
951 -416 0
951 -480 0
951 -295 0
951 -228 0
951 -69 0
951 -469 0
951 -291 0
951 -75 0
951 -204 0
951 -164 0
951 -87 0
951 -396 0
952 -392 0
952 -96 0
952 -174 0
952 -183 0
952 -331 0
952 -314 0
952 -108 0
952 -242 0
952 -268 0
952 -324 0
952 -362 0
952 -156 0
952 -236 0
952 -199 0
952 -258 0
953 -371 0
953 -285 0
953 -208 0
953 -169 0
953 -186 0
953 -389 0
953 -211 0
953 -504 0
953 -500 0
953 -2 0
953 -72 0
953 -321 0
953 -354 0
954 -483 0
954 -128 0
954 -28 0
954 -32 0
954 -23 0
954 -474 0
954 -79 0
954 -321 0
954 -292 0
954 -492 0
955 -531 0
955 -156 0
955 -137 0
955 -239 0
955 -277 0
955 -310 0
955 -10 0
955 -440 0
955 -492 0
955 -375 0
955 -330 0
955 -469 0
955 -390 0
955 -476 0
956 -366 0
956 -202 0
956 -78 0
956 -138 0
956 -162 0
956 -448 0
956 -496 0
956 -143 0
956 -264 0
956 -337 0
956 -116 0
956 -123 0
956 -278 0
956 -254 0
956 -401 0
956 -50 0
957 -339 0
957 -456 0
957 -409 0
957 -524 0
957 -265 0
957 -189 0
957 -21 0
957 -10 0
958 -25 0
958 -239 0
958 -144 0
958 -238 0
958 -167 0
958 -14 0
958 -98 0
958 -15 0
958 -378 0
958 -520 0
959 -284 0
959 -318 0
959 -337 0
959 -256 0
959 -30 0
959 -138 0
959 -335 0
959 -239 0
959 -402 0
959 -246 0
959 -440 0
959 -496 0
959 -421 0
959 -352 0
959 -215 0
960 -39 0
960 -204 0
960 -108 0
960 -402 0
960 -357 0
960 -44 0
960 -373 0
960 -390 0
960 -434 0
960 -404 0
960 -386 0
960 -32 0
960 -493 0
960 -164 0
960 -117 0
960 -388 0
961 -22 0
961 -201 0
961 -256 0
961 -251 0
961 -163 0
961 -468 0
961 -359 0
961 -324 0
961 -37 0
961 -14 0
961 -286 0
962 -450 0
962 -52 0
962 -36 0
962 -268 0
962 -293 0
962 -159 0
962 -278 0
962 -193 0
962 -109 0
962 -16 0
962 -100 0
962 -173 0
962 -250 0
963 -334 0
963 -126 0
963 -294 0
963 -17 0
963 -184 0
963 -165 0
963 -125 0
963 -107 0
963 -79 0
963 -369 0
963 -11 0
963 -504 0
964 -110 0
964 -44 0
964 -421 0
964 -467 0
964 -288 0
964 -370 0
964 -123 0
965 -12 0
965 -420 0
965 -305 0
965 -120 0
965 -36 0
965 -4 0
965 -384 0
965 -159 0
965 -399 0
965 -257 0
965 -49 0
965 -42 0
966 -334 0
966 -277 0
966 -380 0
966 -379 0
966 -451 0
966 -372 0
966 -143 0
966 -75 0
966 -278 0
966 -62 0
966 -238 0
966 -308 0
966 -314 0
966 -93 0
966 -331 0
966 -180 0
967 -122 0
967 -491 0
967 -478 0
967 -466 0
967 -444 0
967 -154 0
967 -523 0
967 -103 0
967 -315 0
967 -275 0
967 -23 0
967 -363 0
967 -240 0
967 -148 0
967 -360 0
968 -516 0
968 -339 0
968 -139 0
968 -330 0
968 -352 0
968 -293 0
968 -407 0
968 -316 0
968 -157 0
969 -378 0
969 -324 0
969 -200 0
969 -477 0
969 -377 0
969 -452 0
969 -380 0
969 -356 0
969 -150 0
969 -315 0
969 -178 0
969 -54 0
969 -245 0
969 -152 0
969 -285 0
969 -172 0
969 -201 0
969 -497 0
969 -21 0
970 -224 0
970 -348 0
970 -315 0
970 -15 0
970 -225 0
970 -105 0
970 -232 0
970 -5 0
970 -351 0
970 -261 0
970 -191 0
970 -440 0
970 -253 0
971 -70 0
971 -270 0
971 -269 0
972 -451 0
972 -505 0
972 -437 0
972 -506 0
972 -245 0
972 -309 0
972 -462 0
972 -324 0
972 -76 0
972 -487 0
972 -305 0
972 -476 0
972 -358 0
972 -68 0
973 -338 0
973 -188 0
973 -393 0
973 -391 0
973 -372 0
973 -215 0
973 -270 0
973 -360 0
973 -522 0
973 -26 0
973 -425 0
973 -496 0
973 -258 0
973 -145 0
974 -488 0
974 -208 0
974 -166 0
974 -107 0
974 -30 0
974 -178 0
974 -435 0
974 -378 0
974 -328 0
974 -300 0
974 -366 0
974 -433 0
974 -121 0
975 -62 0
975 -504 0
975 -31 0
975 -295 0
975 -447 0
975 -454 0
975 -238 0
975 -373 0
975 -347 0
975 -175 0
975 -193 0
975 -89 0
975 -54 0
976 -439 0
976 -238 0
976 -419 0
976 -233 0
976 -160 0
976 -372 0
976 -295 0
976 -174 0
976 -71 0
976 -264 0
976 -423 0
976 -39 0
976 -82 0
976 -61 0
977 -33 0
977 -144 0
977 -138 0
977 -103 0
977 -394 0
977 -200 0
977 -294 0
977 -156 0
977 -440 0
977 -183 0
977 -142 0
978 -487 0
978 -516 0
978 -428 0
978 -527 0
978 -266 0
978 -104 0
978 -308 0
978 -347 0
978 -508 0
978 -259 0
979 -407 0
979 -260 0
979 -410 0
979 -8 0
979 -330 0
979 -354 0
979 -418 0
979 -117 0
979 -318 0
979 -107 0
979 -66 0
979 -281 0
980 -18 0
980 -440 0
980 -443 0
980 -342 0
980 -17 0
980 -403 0
980 -120 0
980 -136 0
980 -335 0
980 -389 0
980 -159 0
980 -450 0
981 -17 0
981 -409 0
981 -73 0
981 -478 0
981 -502 0
981 -430 0
981 -420 0
981 -215 0
981 -453 0
981 -513 0
981 -155 0
981 -184 0
982 -286 0
982 -121 0
982 -142 0
982 -460 0
982 -393 0
982 -19 0
982 -419 0
982 -243 0
982 -426 0
982 -115 0
982 -279 0
982 -141 0
982 -290 0
982 -43 0
983 -312 0
983 -348 0
983 -141 0
983 -106 0
983 -473 0
983 -3 0
983 -392 0
983 -221 0
983 -306 0
983 -188 0
983 -196 0
984 -34 0
984 -159 0
984 -269 0
984 -61 0
984 -521 0
984 -515 0
984 -322 0
984 -181 0
984 -144 0
984 -505 0
984 -527 0
985 -310 0
985 -394 0
985 -348 0
985 -97 0
985 -150 0
985 -173 0
985 -286 0
985 -93 0
985 -110 0
985 -298 0
985 -84 0
985 -285 0
985 -334 0
985 -108 0
986 -308 0
986 -183 0
986 -157 0
986 -485 0
986 -403 0
986 -507 0
986 -306 0
986 -393 0
986 -13 0
986 -294 0
986 -389 0
986 -348 0
986 -400 0
987 -347 0
987 -391 0
987 -359 0
987 -380 0
987 -210 0
987 -213 0
987 -481 0
987 -283 0
987 -84 0
988 -69 0
988 -15 0
988 -8 0
988 -366 0
988 -252 0
988 -84 0
988 -14 0
988 -254 0
988 -18 0
988 -467 0
988 -112 0
988 -453 0
988 -199 0
988 -240 0
990 -447 0
990 -439 0
990 -152 0
990 -367 0
990 -278 0
990 -245 0
990 -204 0
990 -227 0
990 -51 0
990 -234 0
991 -248 0
991 -349 0
991 -162 0
991 -176 0
991 -285 0
991 -410 0
991 -337 0
991 -149 0
991 -397 0
991 -29 0
991 -144 0
992 -292 0
992 -404 0
992 -299 0
992 -123 0
992 -172 0
992 -321 0
992 -10 0
992 -233 0
992 -28 0
992 -272 0
992 -39 0
992 -265 0
992 -75 0
992 -223 0
992 -403 0
992 -65 0
992 -30 0
993 -382 0
993 -290 0
993 -123 0
993 -102 0
993 -440 0
993 -176 0
993 -93 0
993 -237 0
993 -92 0
993 -11 0
993 -57 0
993 -380 0
993 -234 0
993 -42 0
994 -28 0
994 -122 0
994 -164 0
994 -492 0
994 -516 0
994 -446 0
994 -117 0
994 -243 0
994 -374 0
994 -302 0
994 -52 0
994 -502 0
994 -149 0
995 -345 0
995 -254 0
995 -472 0
995 -189 0
995 -463 0
995 -16 0
995 -374 0
995 -68 0
996 -446 0
996 -139 0
996 -243 0
996 -19 0
996 -196 0
996 -481 0
996 -366 0
996 -440 0
996 -138 0
996 -99 0
996 -126 0
996 -81 0
996 -48 0
996 -170 0
996 -362 0
997 -219 0
997 -321 0
997 -326 0
997 -250 0
997 -165 0
997 -457 0
997 -198 0
997 -77 0
997 -313 0
997 -417 0
997 -406 0
997 -232 0
997 -283 0
997 -392 0
997 -254 0
997 -499 0
998 -443 0
998 -383 0
998 -224 0
998 -480 0
998 -74 0
998 -159 0
998 -87 0
998 -105 0
998 -103 0
999 -342 0
999 -450 0
999 -83 0
999 -52 0
999 -19 0
999 -378 0
999 -20 0
999 -108 0
999 -498 0
999 -248 0
1000 -158 0
1000 -264 0
1000 -195 0
1000 -458 0
1000 -107 0
1000 -5 0
1000 -337 0
1000 -356 0
1000 -239 0
1000 -88 0
1000 -256 0
1000 -432 0
1000 -64 0
1000 -191 0
1000 -164 0
1000 -15 0
1000 -171 0
1000 -492 0
1001 -144 0
1001 -167 0
1001 -87 0
1001 -501 0
1001 -497 0
1001 -259 0
1001 -471 0
1001 -127 0
1001 -203 0
1001 -398 0
1001 -195 0
1001 -291 0
1001 -113 0
1001 -284 0
1001 -169 0
1002 -348 0
1002 -530 0
1002 -86 0
1002 -34 0
1002 -497 0
1002 -363 0
1002 -229 0
1002 -129 0
1002 -210 0
1002 -353 0
1002 -63 0
1002 -15 0
1002 -278 0
1003 -238 0
1003 -242 0
1003 -48 0
1003 -339 0
1003 -38 0
1003 -78 0
1003 -132 0
1003 -278 0
1003 -468 0
1003 -302 0
1003 -105 0
1003 -67 0
1003 -426 0
1004 -317 0
1004 -197 0
1004 -260 0
1004 -525 0
1004 -167 0
1004 -7 0
1004 -493 0
1005 -419 0
1005 -208 0
1005 -500 0
1005 -427 0
1005 -301 0
1005 -172 0
1005 -14 0
1005 -46 0
1005 -324 0
1005 -493 0
1006 -11 0
1006 -505 0
1006 -277 0
1006 -47 0
1006 -250 0
1006 -426 0
1006 -452 0
1006 -355 0
1006 -159 0
1006 -459 0
1006 -238 0
1006 -138 0
1006 -191 0
1006 -325 0
1006 -282 0
1007 -379 0
1007 -473 0
1007 -283 0
1007 -17 0
1007 -291 0
1007 -369 0
1007 -460 0
1007 -22 0
1007 -39 0
1007 -525 0
1007 -504 0
1008 -96 0
1008 -165 0
1008 -196 0
1008 -121 0
1008 -162 0
1008 -403 0
1008 -298 0
1008 -53 0
1008 -526 0
1008 -97 0
1008 -93 0
1008 -47 0
1008 -410 0
1008 -45 0
1009 -144 0
1009 -93 0
1009 -170 0
1009 -188 0
1009 -16 0
1009 -504 0
1009 -390 0
1009 -201 0
1009 -419 0
1009 -410 0
1009 -235 0
1009 -225 0
1009 -14 0
1010 -414 0
1010 -369 0
1010 -499 0
1010 -402 0
1010 -370 0
1010 -449 0
1010 -430 0
1010 -319 0
1010 -510 0
1010 -254 0
1010 -366 0
1010 -243 0
1010 -374 0
1010 -519 0
1010 -166 0
1011 -505 0
1011 -199 0
1011 -287 0
1011 -245 0
1011 -305 0
1011 -21 0
1011 -7 0
1011 -396 0
1011 -274 0
1011 -175 0
1011 -130 0
1011 -479 0
1011 -44 0
1011 -179 0
1012 -334 0
1012 -306 0
1012 -330 0
1012 -40 0
1012 -347 0
1012 -180 0
1012 -372 0
1012 -13 0
1012 -92 0
1012 -400 0
1013 -286 0
1013 -149 0
1013 -437 0
1013 -463 0
1013 -267 0
1013 -309 0
1013 -233 0
1013 -12 0
1013 -125 0
1013 -74 0
1013 -56 0
1013 -397 0
1014 -448 0
1014 -305 0
1014 -522 0
1014 -172 0
1014 -219 0
1014 -389 0
1014 -236 0
1014 -176 0
1014 -271 0
1014 -404 0
1014 -263 0
1015 -382 0
1015 -483 0
1015 -184 0
1015 -323 0
1015 -500 0
1015 -261 0
1015 -177 0
1015 -136 0
1015 -371 0
1015 -358 0
1015 -191 0
1015 -151 0
1015 -70 0
1015 -64 0
1015 -42 0
1015 -416 0
1015 -17 0
1015 -118 0
1016 -194 0
1016 -261 0
1016 -103 0
1016 -121 0
1016 -184 0
1016 -170 0
1016 -84 0
1016 -290 0
1016 -241 0
1016 -192 0
1016 -291 0
1016 -429 0
1016 -314 0
1016 -57 0
1017 -412 0
1017 -197 0
1017 -222 0
1017 -501 0
1017 -10 0
1017 -140 0
1017 -290 0
1017 -314 0
1017 -461 0
1017 -368 0
1017 -208 0
1017 -331 0
1017 -353 0
1017 -134 0
1017 -261 0
1017 -251 0
1017 -315 0
1018 -4 0
1018 -9 0
1018 -435 0
1018 -338 0
1018 -331 0
1018 -510 0
1018 -228 0
1018 -323 0
1018 -184 0
1018 -234 0
1018 -414 0
1018 -160 0
1019 -39 0
1019 -231 0
1019 -81 0
1019 -63 0
1019 -60 0
1019 -321 0
1019 -162 0
1019 -227 0
1019 -337 0
1019 -325 0
1019 -141 0
1019 -58 0
1019 -216 0
1019 -41 0
1019 -296 0
1020 -517 0
1020 -507 0
1020 -308 0
1020 -273 0
1020 -279 0
1020 -215 0
1020 -320 0
1020 -351 0
1020 -243 0
1020 -490 0
1020 -374 0
1020 -484 0
1020 -361 0
1021 -462 0
1021 -171 0
1021 -521 0
1021 -12 0
1021 -387 0
1021 -318 0
1021 -242 0
1021 -371 0
1021 -485 0
1021 -28 0
1021 -225 0
1021 -329 0
1021 -245 0
1021 -397 0
1021 -259 0
1022 -159 0
1022 -101 0
1022 -105 0
1022 -70 0
1022 -516 0
1022 -210 0
1022 -226 0
1022 -183 0
1022 -268 0
1022 -169 0
1022 -276 0
1022 -403 0
1023 -105 0
1023 -56 0
1023 -16 0
1023 -411 0
1023 -403 0
1023 -509 0
1023 -503 0
1023 -514 0
1023 -328 0
1023 -393 0
1023 -50 0
1023 -398 0
1024 -365 0
1025 -155 0
1025 -326 0
1025 -289 0
1025 -277 0
1025 -135 0
1025 -283 0
1025 -108 0
1025 -495 0
1025 -524 0
1025 -353 0
1025 -505 0
1025 -190 0
1025 -41 0
1026 -28 0
1026 -99 0
1026 -369 0
1026 -136 0
1026 -198 0
1026 -216 0
1026 -416 0
1026 -218 0
1026 -526 0
1026 -156 0
1026 -521 0
1026 -1 0
1026 -491 0
1027 -151 0
1027 -231 0
1027 -124 0
1027 -495 0
1027 -444 0
1027 -395 0
1027 -508 0
1027 -502 0
1027 -468 0
1027 -175 0
1027 -131 0
1027 -172 0
1027 -180 0
1027 -79 0
1028 -5 0
1028 -314 0
1028 -261 0
1028 -183 0
1028 -453 0
1028 -370 0
1028 -327 0
1028 -357 0
1028 -454 0
1028 -230 0
1028 -212 0
1028 -528 0
1028 -65 0
1028 -504 0
1028 -24 0
1029 -491 0
1029 -425 0
1029 -447 0
1029 -306 0
1029 -510 0
1029 -259 0
1029 -394 0
1029 -430 0
1029 -38 0
1029 -299 0
1030 -392 0
1030 -125 0
1030 -241 0
1030 -171 0
1030 -75 0
1030 -287 0
1030 -193 0
1030 -443 0
1030 -254 0
1030 -212 0
1030 -116 0
1031 -389 0
1031 -65 0
1031 -175 0
1032 -304 0
1032 -2 0
1032 -164 0
1032 -46 0
1032 -508 0
1032 -379 0
1032 -100 0
1032 -252 0
1033 -107 0
1033 -48 0
1033 -8 0
1033 -301 0
1033 -382 0
1033 -175 0
1033 -164 0
1033 -239 0
1033 -167 0
1033 -117 0
1034 -519 0
1034 -514 0
1034 -498 0
1034 -411 0
1034 -213 0
1034 -372 0
1034 -111 0
1034 -269 0
1034 -136 0
1034 -3 0
1034 -346 0
1034 -462 0
1034 -103 0
1034 -5 0
1034 -129 0
1035 -72 0
1035 -185 0
1035 -514 0
1035 -488 0
1035 -482 0
1035 -364 0
1035 -478 0
1035 -201 0
1035 -205 0
1035 -387 0
1035 -453 0
1035 -102 0
1036 -295 0
1036 -360 0
1036 -218 0
1036 -330 0
1036 -154 0
1036 -90 0
1036 -191 0
1036 -272 0
1036 -523 0
1037 -515 0
1037 -458 0
1037 -272 0
1037 -303 0
1037 -398 0
1037 -26 0
1037 -437 0
1037 -193 0
1037 -110 0
1037 -217 0
1037 -8 0
1037 -162 0
1037 -116 0
1037 -298 0
1038 -373 0
1038 -526 0
1038 -155 0
1038 -195 0
1038 -90 0
1038 -26 0
1039 -411 0
1039 -373 0
1039 -277 0
1039 -158 0
1039 -432 0
1039 -497 0
1039 -83 0
1039 -278 0
1039 -311 0
1039 -356 0
1039 -39 0
1039 -133 0
1039 -489 0
1040 -284 0
1040 -430 0
1040 -52 0
1040 -69 0
1040 -325 0
1040 -381 0
1040 -320 0
1040 -490 0
1040 -124 0
1040 -117 0
1040 -182 0
1040 -375 0
1040 -121 0
1041 -371 0
1041 -203 0
1041 -23 0
1041 -359 0
1041 -217 0
1041 -361 0
1041 -63 0
1041 -508 0
1041 -285 0
1041 -14 0
1041 -121 0
1042 -409 0
1042 -341 0
1042 -151 0
1042 -180 0
1042 -321 0
1042 -147 0
1042 -226 0
1042 -89 0
1042 -212 0
1042 -270 0
1043 -2 0
1043 -344 0
1043 -46 0
1043 -515 0
1043 -510 0
1043 -187 0
1043 -294 0
1043 -219 0
1043 -321 0
1043 -79 0
1043 -473 0
1043 -33 0
1044 -165 0
1044 -290 0
1044 -452 0
1044 -266 0
1044 -467 0
1044 -264 0
1044 -317 0
1044 -477 0
1045 -319 0
1045 -108 0
1045 -92 0
1045 -527 0
1045 -374 0
1045 -191 0
1045 -393 0
1045 -98 0
1045 -437 0
1045 -111 0
1045 -249 0
1045 -516 0
1045 -511 0
1045 -360 0
1045 -163 0
1045 -86 0
1046 -81 0
1046 -43 0
1047 -14 0
1047 -284 0
1047 -277 0
1047 -213 0
1047 -392 0
1047 -274 0
1047 -62 0
1047 -28 0
1047 -177 0
1047 -160 0
1047 -126 0
1047 -107 0
1047 -129 0
1048 -507 0
1048 -448 0
1048 -228 0
1048 -116 0
1048 -241 0
1048 -238 0
1048 -54 0
1048 -478 0
1048 -113 0
1048 -19 0
1048 -201 0
1048 -193 0
1049 -151 0
1049 -386 0
1049 -502 0
1049 -295 0
1049 -388 0
1049 -444 0
1049 -251 0
1049 -76 0
1049 -524 0
1049 -107 0
1049 -337 0
1049 -166 0
1049 -433 0
1049 -409 0
1050 -459 0
1050 -414 0
1050 -421 0
1050 -411 0
1050 -507 0
1050 -282 0
1050 -429 0
1050 -330 0
1050 -301 0
1051 -40 0
1051 -23 0
1051 -476 0
1051 -465 0
1051 -326 0
1051 -464 0
1051 -521 0
1051 -75 0
1051 -511 0
1051 -92 0
1051 -285 0
1051 -288 0
1051 -57 0
1051 -202 0
1052 -3 0
1052 -93 0
1052 -114 0
1052 -202 0
1052 -494 0
1052 -380 0
1052 -417 0
1052 -247 0
1052 -284 0
1052 -153 0
1052 -156 0
1052 -94 0
1053 -161 0
1053 -114 0
1053 -513 0
1053 -448 0
1053 -41 0
1053 -210 0
1053 -116 0
1053 -104 0
1053 -71 0
1053 -373 0
1053 -150 0
1053 -243 0
1054 -142 0
1054 -29 0
1054 -460 0
1054 -455 0
1054 -260 0
1054 -522 0
1054 -118 0
1054 -109 0
1054 -100 0
1054 -86 0
1054 -67 0
1054 -138 0
1054 -429 0
1054 -97 0
1054 -377 0
1054 -261 0
1054 -216 0
1055 -452 0
1055 -325 0
1055 -203 0
1055 -265 0
1055 -372 0
1055 -525 0
1055 -273 0
1055 -87 0
1055 -201 0
1056 -81 0
1056 -440 0
1056 -70 0
1056 -239 0
1056 -268 0
1056 -365 0
1057 -182 0
1057 -506 0
1057 -530 0
1057 -505 0
1057 -30 0
1057 -410 0
1057 -187 0
1057 -35 0
1057 -1 0
1057 -155 0
1057 -423 0
1058 -227 0
1058 -49 0
1058 -71 0
1058 -310 0
1058 -238 0
1058 -357 0
1058 -522 0
1058 -289 0
1058 -255 0
1058 -277 0
1058 -246 0
1059 -179 0
1059 -103 0
1059 -416 0
1059 -18 0
1059 -10 0
1059 -147 0
1059 -314 0
1059 -471 0
1059 -87 0
1059 -65 0
1059 -40 0
1060 -267 0
1060 -182 0
1060 -271 0
1060 -520 0
1060 -403 0
1060 -447 0
1060 -391 0
1060 -467 0
1060 -256 0
1060 -139 0
1060 -359 0
1060 -425 0
1060 -298 0
1060 -239 0
1060 -225 0
1061 -96 0
1061 -72 0
1061 -496 0
1061 -443 0
1061 -386 0
1061 -323 0
1061 -172 0
1061 -190 0
1061 -307 0
1061 -338 0
1061 -41 0
1061 -28 0
1061 -33 0
1061 -445 0
1061 -239 0
1061 -389 0
1061 -24 0
1062 -149 0
1062 -122 0
1062 -81 0
1062 -453 0
1062 -429 0
1062 -447 0
1062 -449 0
1062 -320 0
1062 -528 0
1062 -502 0
1062 -417 0
1062 -327 0
1062 -369 0
1062 -507 0
1062 -246 0
1062 -301 0
1062 -521 0
1062 -460 0
247 245 308 129 9 134 171 156 475 461 279 447 441 -532 0
414 248 76 138 73 115 442 385 510 112 169 -533 0
242 264 154 207 174 185 385 46 368 443 156 502 -534 0
146 286 301 124 520 430 20 372 280 197 445 385 348 380 -535 0
154 287 193 268 530 44 51 143 456 234 399 390 290 481 384 -536 0
251 337 249 402 80 424 18 110 269 377 423 371 188 -537 0
268 493 81 70 43 458 -538 0
362 1 242 525 304 136 331 142 18 527 72 302 402 93 -539 0
150 137 239 79 182 60 453 457 203 393 206 4 290 361 -540 0
242 107 203 21 123 11 190 42 426 216 328 -541 0
270 389 95 493 440 70 -542 0
526 169 32 347 225 486 451 387 429 520 331 -543 0
291 36 19 201 503 240 521 485 119 376 313 215 110 229 429 77 -544 0
330 111 410 363 271 109 182 49 451 336 397 512 -545 0
525 89 6 170 487 433 237 164 449 29 -546 0
254 378 414 309 65 283 117 176 14 225 493 305 499 384 333 -547 0
337 35 255 157 356 322 321 323 -548 0
530 283 287 265 154 99 235 85 442 494 149 401 -549 0
352 54 105 49 207 299 380 201 -550 0
163 361 188 223 103 104 280 286 366 429 501 89 388 317 -551 0
167 70 184 239 408 -552 0
362 137 23 21 76 395 165 263 182 96 289 438 237 409 -553 0
131 415 258 406 484 301 215 204 164 277 497 449 227 -554 0
348 233 6 192 217 92 61 44 155 31 295 -555 0
203 116 100 351 183 387 338 84 267 119 333 452 499 195 -556 0
242 251 325 344 129 200 62 511 430 327 -557 0
264 424 152 120 202 97 127 318 485 359 425 273 142 169 406 473 -558 0
348 57 15 10 521 64 513 112 360 350 328 -559 0
400 224 208 59 57 289 306 180 468 281 -560 0
337 268 481 384 222 351 109 271 259 421 428 357 -561 0
4 127 378 66 457 498 124 453 403 439 197 303 143 518 -562 0
302 43 258 84 65 25 44 120 373 -563 0
57 462 376 464 56 160 453 208 284 -564 0
37 6 521 246 360 373 377 517 265 229 -565 0
525 372 88 320 316 244 331 416 502 412 307 -566 0
69 37 266 474 387 103 390 48 132 451 397 399 -567 0
137 102 141 468 282 136 235 496 487 263 25 355 464 -568 0
114 107 464 26 75 429 351 396 297 78 -569 0
209 121 359 26 370 321 353 295 -570 0
48 286 165 396 433 223 174 12 284 24 412 -571 0
154 245 325 104 256 270 263 95 267 170 497 318 456 205 444 -572 0
362 328 375 57 192 405 453 334 394 247 -573 0
81 -574 0
156 96 246 19 241 117 210 72 470 508 502 524 38 426 -575 0
526 109 308 487 335 164 127 173 13 -576 0
130 128 315 236 409 412 213 442 385 237 -577 0
422 355 154 230 348 279 505 40 330 492 319 241 127 191 -578 0
379 464 88 72 98 241 285 467 -579 0
181 270 38 143 217 125 331 353 124 182 518 142 252 280 502 137 201 14 -580 0
404 434 508 209 391 364 319 520 -581 0
216 50 2 63 38 520 92 394 214 317 507 67 493 -582 0
403 373 266 242 86 285 429 62 121 197 304 29 -583 0
215 435 81 439 293 222 90 352 20 429 306 344 380 302 -584 0
336 426 260 4 519 378 320 423 126 355 199 478 255 331 271 -585 0
357 187 172 523 176 105 188 226 154 364 229 377 77 443 151 445 471 -586 0
402 89 8 374 170 28 485 453 507 32 199 61 -587 0
355 268 527 245 398 116 105 2 78 76 205 159 71 -588 0
299 139 413 525 77 43 75 124 164 187 241 46 298 13 337 29 -589 0
473 475 137 357 43 17 3 524 319 389 16 255 372 308 286 139 429 170 23 151 -590 0
277 406 330 40 488 317 334 478 456 489 358 179 -591 0
120 9 308 427 82 326 212 355 288 498 153 -592 0
469 147 138 100 223 284 76 210 47 -593 0
307 175 24 239 226 160 415 20 491 470 436 232 -594 0
158 226 398 381 205 186 194 475 175 -595 0
493 -596 0
238 233 109 266 282 205 116 363 476 360 65 507 499 -597 0
203 362 524 166 120 496 491 70 380 111 520 126 175 -598 0
277 242 113 226 300 375 196 511 482 373 284 514 331 73 125 527 -599 0
330 323 50 179 338 385 420 147 3 -600 0
-601 0
345 294 252 188 460 191 316 219 12 125 518 456 158 -602 0
305 328 6 462 326 481 395 143 5 -603 0
437 268 253 362 38 129 168 488 498 78 70 227 251 -604 0
295 323 405 198 58 259 250 482 331 303 375 56 211 240 395 -605 0
345 215 358 204 119 172 61 331 32 433 291 89 -606 0
365 307 166 113 500 277 99 96 358 308 -607 0
379 150 143 287 175 24 134 96 93 218 463 216 -608 0
493 296 400 426 320 332 54 264 302 254 255 333 257 468 25 229 -609 0
242 43 366 308 40 512 316 450 493 179 183 188 31 379 -610 0
458 81 84 43 515 322 -611 0
408 -612 0
477 507 391 420 415 195 530 528 13 180 237 392 188 21 98 318 43 -613 0
461 406 337 166 527 50 7 351 263 433 331 301 246 446 42 -614 0
197 43 365 458 -615 0
305 249 187 181 307 433 265 174 327 173 14 363 456 466 64 -616 0
146 236 35 259 132 205 421 72 90 387 423 -617 0
86 158 25 468 168 170 492 75 81 451 352 294 510 -618 0
451 383 111 232 125 109 338 -619 0
386 268 328 270 465 319 37 255 178 223 142 100 -620 0
355 163 82 219 113 457 168 321 101 494 -621 0
452 527 447 17 197 214 136 28 24 173 461 29 231 322 442 -622 0
133 254 423 252 16 35 464 106 326 444 391 413 -623 0
478 412 411 306 288 297 68 311 371 179 344 252 517 -624 0
343 128 352 145 48 41 10 39 451 88 171 204 271 267 259 44 390 -625 0
493 440 -626 0
421 443 247 258 154 342 169 160 59 217 55 347 512 53 -627 0
486 524 2 180 227 185 429 48 393 496 30 -628 0
426 109 197 320 174 405 33 34 399 239 395 295 371 -629 0
510 333 80 69 183 292 485 241 227 67 307 -630 0
385 208 152 113 36 418 80 314 217 93 200 149 318 97 440 408 519 468 -631 0
432 118 102 430 311 331 119 186 179 84 427 508 322 383 253 -632 0
289 530 2 329 429 472 240 274 489 -633 0
207 204 126 338 469 71 14 460 9 182 529 295 288 -634 0
379 354 475 21 420 289 136 223 455 328 501 266 469 -635 0
107 57 526 172 293 386 225 516 481 452 227 296 -636 0
54 323 411 274 509 259 429 24 22 150 53 457 394 124 436 62 -637 0
430 348 251 331 209 432 475 505 512 335 22 123 -638 0
156 197 223 423 317 71 383 114 443 25 112 -639 0
299 348 2 221 351 410 177 148 319 298 436 -640 0
233 52 36 378 329 267 144 93 56 373 67 90 447 333 399 -641 0
475 143 181 175 126 325 42 453 510 119 136 521 433 -642 0
531 178 372 298 110 12 75 312 497 387 20 53 237 292 -643 0
299 256 279 226 262 10 39 38 414 269 326 431 331 108 31 381 -644 0
116 69 392 95 452 32 103 72 296 483 126 -645 0
434 276 108 31 170 153 487 443 414 233 390 221 24 516 168 -646 0
376 323 235 52 401 501 66 -647 0
273 215 128 527 235 263 159 161 337 27 71 42 148 -648 0
443 281 360 120 481 389 99 274 339 20 492 160 64 -649 0
434 328 195 397 183 110 513 488 77 288 -650 0
195 89 238 40 308 257 426 296 76 63 -651 0
139 130 212 423 257 99 464 62 369 507 299 302 92 -652 0
360 48 378 459 76 73 335 203 490 362 248 306 95 397 -653 0
197 458 184 43 269 440 317 -654 0
91 5 314 168 177 274 263 10 -655 0
489 374 283 372 158 43 153 182 209 371 458 279 159 -656 0
297 402 109 326 317 517 164 205 233 129 527 262 504 411 478 -657 0
226 91 169 142 450 262 87 501 491 170 335 167 -658 0
68 292 458 345 428 77 98 275 234 381 207 392 164 411 -659 0
400 440 406 522 281 271 311 395 132 391 70 310 26 264 -660 0
216 355 424 321 392 33 153 448 6 127 476 -661 0
497 501 433 346 206 189 194 184 65 61 98 296 -662 0
438 283 410 528 286 125 290 368 167 327 511 -663 0
377 273 197 287 525 262 52 527 19 164 494 -664 0
118 9 349 204 138 363 16 144 334 445 -665 0
437 307 325 309 100 473 311 132 49 407 254 124 384 28 -666 0
385 288 400 192 337 384 126 368 518 82 353 -667 0
146 308 239 99 246 500 504 514 317 521 14 -668 0
294 348 236 86 329 353 55 263 414 300 267 171 14 -669 0
513 362 522 410 74 376 465 312 258 250 205 48 394 -670 0
441 440 33 312 369 395 364 88 28 22 513 73 520 -671 0
343 135 270 39 282 494 17 200 498 271 519 444 -672 0
307 279 175 269 311 239 110 241 88 11 510 339 204 -673 0
509 296 292 426 283 206 54 19 239 461 458 58 -674 0
154 178 524 253 384 304 525 325 478 217 205 169 68 -675 0
303 262 77 50 260 459 73 234 500 182 149 63 98 84 513 395 514 -676 0
438 368 50 422 351 225 189 83 506 138 121 -677 0
434 300 59 388 389 405 505 188 99 326 250 176 -678 0
434 260 294 120 405 180 315 147 117 377 185 85 259 421 206 -679 0
304 142 432 468 103 20 65 517 87 315 383 359 445 502 440 -680 0
494 483 325 137 437 472 284 148 428 207 -681 0
437 131 266 32 7 117 269 186 96 447 322 471 353 -682 0
303 34 236 117 36 200 142 512 70 239 441 130 -683 0
279 86 278 311 366 358 237 191 106 456 488 134 380 257 18 526 -684 0
299 530 77 160 41 38 35 36 357 413 309 518 184 42 -685 0
493 442 464 404 158 306 432 399 178 459 482 18 263 -686 0
268 245 169 289 278 108 56 330 117 236 92 444 -687 0
192 166 352 372 67 117 49 513 467 109 -688 0
29 281 447 330 100 426 253 294 293 269 482 325 366 301 101 -689 0
166 298 244 110 24 278 30 -690 0
343 294 402 31 202 50 299 525 71 134 197 -691 0
345 7 194 78 464 324 62 287 32 453 519 -692 0
45 8 316 481 151 318 93 182 468 364 29 376 -693 0
516 337 327 209 474 251 200 117 367 205 308 325 25 373 -694 0
184 133 89 28 40 88 270 310 223 115 105 213 313 -695 0
488 456 226 123 1 39 171 140 188 22 176 225 293 514 -696 0
266 175 88 144 281 448 185 -697 0
458 -698 0
216 284 525 109 77 128 206 143 174 351 170 11 521 506 -699 0
467 465 397 109 250 223 240 144 -700 0
76 366 29 88 511 463 252 322 501 506 203 459 -701 0
439 475 210 101 459 159 170 219 156 84 365 324 483 267 -702 0
251 116 107 52 123 485 254 362 117 149 446 -703 0
362 31 33 217 416 293 454 373 440 478 295 -704 0
494 421 303 299 139 325 118 233 26 482 378 329 528 69 10 186 -705 0
270 65 84 408 -706 0
417 352 242 32 423 413 147 165 188 377 370 66 420 199 456 -707 0
396 509 158 302 531 137 97 268 188 317 96 429 41 18 78 511 -708 0
376 340 461 291 325 508 88 378 501 208 458 438 -709 0
310 410 50 183 375 363 200 44 456 389 379 66 445 65 -710 0
285 126 387 481 124 347 244 336 179 191 -711 0
251 214 205 246 86 329 361 143 -712 0
281 187 39 427 459 396 40 66 499 488 63 -713 0
433 333 296 523 290 278 204 459 177 260 173 286 342 514 -714 0
270 -715 0
218 39 242 329 381 188 235 362 368 138 438 507 501 386 -716 0
417 332 52 270 28 508 462 311 72 159 530 355 26 81 225 -717 0
386 303 312 415 240 145 21 484 358 462 378 316 133 448 -718 0
408 251 432 38 225 246 395 370 180 -719 0
442 443 38 203 293 217 305 381 313 -720 0
284 334 348 373 242 38 511 409 311 60 313 189 235 300 188 -721 0
240 208 118 28 19 378 344 185 514 97 445 456 473 373 -722 0
454 415 312 143 153 209 370 17 422 387 8 382 223 511 392 -723 0
240 253 369 462 364 185 95 33 133 231 64 -724 0
284 226 264 102 384 387 462 287 414 179 192 135 -725 0
139 143 434 282 182 521 227 477 63 68 159 -726 0
41 419 239 87 380 63 65 319 445 361 38 457 30 441 528 386 -727 0
440 365 268 43 493 408 81 -728 0
453 507 489 400 243 306 266 50 356 459 82 78 11 302 483 -729 0
210 526 275 305 222 400 189 96 178 215 338 446 329 67 63 17 171 -730 0
325 431 186 33 231 442 119 367 60 353 509 138 -731 0
412 391 260 415 189 372 382 172 335 150 409 58 74 -732 0
475 480 379 273 120 113 102 488 347 215 260 383 -733 0
145 38 347 173 179 20 355 62 516 353 327 393 -734 0
135 279 270 9 304 24 257 103 325 203 -735 0
355 525 154 124 71 60 433 382 512 72 20 507 109 -736 0
487 254 330 226 33 106 394 396 244 378 411 -737 0
451 434 253 218 381 379 491 35 189 353 133 519 -738 0
289 352 99 318 197 90 460 117 456 -739 0
104 360 263 75 157 84 142 512 385 46 314 439 327 61 10 361 165 -740 0
67 495 266 54 6 415 401 220 369 252 187 75 164 -741 0
407 374 201 402 362 109 391 37 286 194 263 275 222 62 521 -742 0
500 486 483 418 325 175 316 33 326 26 478 501 412 490 44 -743 0
63 393 181 38 35 304 77 146 353 466 366 51 -744 0
426 470 415 385 178 384 361 140 500 204 335 508 422 283 496 439 24 -745 0
63 416 333 289 210 530 15 372 435 241 64 -746 0
518 454 62 352 203 7 34 376 466 423 23 -747 0
411 359 503 184 156 94 225 331 358 50 121 448 498 329 -748 0
464 215 169 13 528 390 17 99 76 193 105 460 167 188 130 -749 0
297 345 54 236 235 147 400 204 511 72 276 200 257 339 430 390 -750 0
519 422 448 343 272 18 194 147 363 382 326 201 -751 0
507 388 343 154 166 35 499 462 378 43 358 80 74 2 16 450 -752 0
510 228 172 82 147 380 175 513 399 -753 0
139 218 360 17 472 311 181 157 103 504 282 -754 0
461 150 279 8 283 476 328 209 351 315 281 107 487 -755 0
419 258 77 191 132 119 170 162 -756 0
379 509 404 476 356 363 488 51 132 403 528 -757 0
208 137 2 6 467 149 204 482 362 455 390 273 364 30 -758 0
482 292 63 350 310 371 452 316 231 497 432 182 105 -759 0
197 253 408 515 -760 0
336 380 302 208 226 366 28 202 474 204 122 359 444 153 129 374 -761 0
166 57 109 409 93 19 147 335 329 320 495 72 436 512 -762 0
215 154 156 424 253 261 95 203 513 113 470 166 507 322 413 443 -763 0
483 506 143 106 181 110 323 191 462 11 461 47 33 501 498 -764 0
422 208 120 111 166 313 239 26 230 137 370 347 292 7 73 70 -765 0
425 333 197 419 360 251 399 34 -766 0
386 318 426 273 293 351 519 29 69 5 129 51 397 -767 0
352 137 375 134 138 112 18 493 193 283 36 333 480 368 -768 0
336 406 104 69 31 366 362 252 315 324 458 331 437 -769 0
365 408 440 -770 0
386 483 203 43 376 378 220 361 8 278 61 274 -771 0
318 273 89 128 338 303 142 132 117 339 235 371 -772 0
71 66 466 497 292 381 276 338 392 34 56 -773 0
494 492 456 446 441 306 502 201 16 101 250 299 33 -774 0
313 426 318 433 277 270 266 104 7 165 310 14 226 162 241 -775 0
445 312 476 105 174 279 243 133 510 295 444 412 20 502 -776 0
299 318 404 392 73 171 272 495 430 377 471 -777 0
403 448 276 386 396 297 52 373 477 7 502 121 165 335 23 82 -778 0
433 510 394 277 251 287 5 36 328 281 314 140 326 475 231 455 275 291 -779 0
201 279 175 216 10 508 229 157 93 4 498 194 421 283 -780 0
52 324 171 78 88 405 332 174 382 26 292 121 -781 0
490 491 333 466 3 464 25 45 329 309 226 431 105 -782 0
505 289 201 357 74 342 104 179 101 119 207 463 -783 0
293 95 365 -784 0
515 452 192 86 253 39 328 360 239 278 358 518 -785 0
445 355 266 50 210 228 520 159 173 476 246 26 208 514 -786 0
334 61 420 325 203 59 282 308 136 300 97 88 176 355 463 328 -787 0
158 243 291 83 528 495 132 502 368 185 124 488 182 -788 0
443 275 525 419 268 369 366 236 94 136 33 15 71 173 7 -789 0
277 285 48 357 13 428 10 459 142 304 273 515 443 -790 0
493 365 408 270 239 167 377 84 322 269 -791 0
497 420 307 169 476 82 312 447 38 127 122 274 107 -792 0
140 337 84 257 29 271 102 117 521 20 389 21 419 -793 0
5 35 411 129 95 463 456 196 317 339 65 -794 0
70 333 327 417 100 99 428 244 469 136 24 111 463 -795 0
497 197 501 359 96 304 221 241 38 22 98 121 132 -796 0
506 464 483 400 293 124 153 112 395 449 -797 0
224 287 113 27 183 296 453 447 505 -798 0
458 -799 0
7 -800 0
408 458 -801 0
303 526 190 387 159 235 203 248 366 56 53 448 441 -802 0
248 155 167 338 19 485 456 508 202 260 339 218 45 156 455 240 24 -803 0
354 109 181 315 282 337 474 235 475 157 393 213 -804 0
365 381 423 378 278 78 251 114 147 108 155 139 164 -805 0
184 324 34 125 341 250 481 469 11 409 495 95 67 -806 0
278 117 167 125 464 266 528 206 118 106 282 399 11 41 495 -807 0
373 370 483 23 154 37 505 99 35 143 4 -808 0
456 275 118 242 32 174 398 217 489 495 12 119 171 -809 0
38 69 431 331 235 295 24 421 54 48 -810 0
31 338 353 92 98 87 181 431 528 182 279 111 -811 0
440 385 393 434 264 369 216 312 259 205 502 227 -812 0
325 96 263 140 222 449 95 135 -813 0
296 254 337 236 8 118 418 115 130 284 527 66 -814 0
32 321 370 491 112 382 202 24 420 247 160 -815 0
518 404 434 360 424 279 17 249 427 437 408 80 -816 0
150 175 361 85 194 462 324 366 195 531 391 -817 0
345 428 471 254 276 401 351 194 108 -818 0
476 159 136 223 191 518 253 131 201 224 454 104 477 80 175 130 -819 0
17 250 409 260 379 400 241 453 220 65 474 189 -820 0
99 487 448 297 485 103 106 315 100 33 41 109 496 -821 0
332 355 260 77 135 36 319 189 290 242 29 238 44 -822 0
414 301 42 99 430 12 285 367 481 218 258 242 182 -823 0
65 408 -824 0
364 333 150 97 258 327 76 73 42 523 259 192 479 504 222 61 -825 0
19 211 101 119 443 502 139 156 525 262 322 173 -826 0
409 392 98 84 91 58 258 76 262 528 376 120 -827 0
261 38 436 267 483 272 504 36 250 -828 0
421 181 31 40 129 99 132 161 98 153 134 -829 0
513 487 277 502 407 401 114 12 63 426 339 161 -830 0
507 422 386 133 408 466 395 274 260 123 321 223 115 117 487 -831 0
440 428 17 366 311 452 507 376 61 42 22 -832 0
480 449 402 320 50 474 38 465 388 92 531 519 -833 0
65 428 83 268 265 412 333 500 328 457 196 449 16 213 -834 0
306 333 394 213 395 86 33 92 472 427 233 284 134 -835 0
264 315 476 29 193 434 46 350 -836 0
409 99 478 420 258 350 286 345 184 154 442 160 48 173 -837 0
63 139 251 266 222 61 438 57 344 171 134 -838 0
359 426 253 116 25 286 99 41 138 61 176 163 297 -839 0
461 422 345 285 69 78 276 331 223 498 490 187 29 407 362 -840 0
26 522 126 40 263 282 28 116 294 253 427 475 385 178 516 189 -841 0
486 393 187 106 206 414 144 120 189 418 390 338 480 36 55 -842 0
510 476 526 423 180 232 207 60 16 344 487 350 91 456 -843 0
38 164 396 43 391 344 364 410 493 384 298 48 -844 0
490 240 524 43 109 145 431 392 125 511 76 -845 0
437 426 54 35 312 226 450 305 489 413 386 528 -846 0
303 268 206 350 477 64 502 394 156 -847 0
7 293 322 197 365 80 500 -848 0
440 345 496 420 46 406 28 349 153 240 -849 0
429 354 448 254 426 152 362 125 96 501 432 104 504 199 189 -850 0
382 264 432 337 522 443 152 9 366 174 259 17 117 463 108 -851 0
23 25 318 196 75 53 390 50 452 380 -852 0
-853 0
11 436 288 175 34 9 140 99 166 449 198 501 118 291 -854 0
379 126 20 513 194 311 472 232 358 226 448 -855 0
6 45 223 151 105 119 25 -856 0
52 318 253 299 457 278 454 151 301 406 353 -857 0
207 88 149 162 316 372 377 108 296 513 315 199 507 236 410 462 -858 0
332 11 254 346 400 385 53 503 60 -859 0
281 253 86 31 351 390 202 225 91 325 63 294 -860 0
380 325 275 141 405 44 107 168 147 104 35 517 81 492 -861 0
109 124 507 316 113 72 -862 0
481 136 189 64 408 441 334 40 501 492 278 433 325 147 184 108 422 -863 0
58 249 63 450 16 422 478 419 347 529 413 83 107 264 -864 0
221 87 482 46 337 117 356 253 487 524 107 490 -865 0
325 406 222 175 79 348 223 233 383 457 382 502 -866 0
372 140 250 36 162 362 459 79 378 512 339 238 29 415 245 376 -867 0
264 360 142 241 90 110 440 490 465 -868 0
120 413 524 384 134 119 103 29 513 250 63 305 158 -869 0
69 301 265 392 505 76 300 213 240 66 113 -870 0
501 339 158 156 41 421 387 4 384 431 479 29 349 92 269 149 -871 0
322 130 406 432 320 38 349 378 474 329 235 506 250 92 260 121 517 145 -872 0
452 154 357 275 302 121 194 479 489 463 -873 0
456 407 242 222 526 33 371 228 397 316 237 525 176 338 -874 0
354 449 391 154 133 97 102 358 374 246 250 298 -875 0
141 89 349 325 376 411 87 506 497 -876 0
447 441 505 448 247 146 402 253 120 319 220 37 286 405 -877 0
253 500 389 175 239 229 95 269 -878 0
480 37 215 345 507 225 272 482 108 53 249 479 -879 0
128 195 100 23 488 168 297 103 274 63 42 443 -880 0
296 295 260 505 434 422 241 488 24 -881 0
146 528 32 201 265 509 356 47 26 324 56 -882 0
530 279 141 30 40 405 248 504 228 464 411 337 73 -883 0
318 418 274 221 121 145 459 170 85 101 306 66 -884 0
324 519 165 64 370 475 502 296 409 424 352 86 449 -885 0
437 509 289 208 166 31 528 524 144 307 358 510 -886 0
394 283 302 467 388 381 492 204 514 182 105 63 61 494 -887 0
439 243 123 8 384 47 278 169 209 157 523 290 -888 0
357 348 319 235 268 132 92 209 55 287 87 295 437 116 -889 0
27 263 127 68 110 400 321 189 408 337 339 347 379 -890 0
334 461 391 10 314 270 372 -891 0
444 337 120 21 140 271 321 231 166 345 204 -892 0
268 302 39 33 31 481 347 271 461 242 182 -893 0
299 297 52 111 305 27 15 180 488 355 249 290 295 408 -894 0
8 423 503 124 185 341 86 268 33 317 530 374 178 330 427 -895 0
70 -896 0
370 334 50 293 347 112 134 360 162 -897 0
23 125 259 407 500 255 430 264 111 225 172 -898 0
306 437 422 502 302 175 1 484 291 49 57 322 244 78 483 -899 0
464 526 40 7 484 4 409 280 205 14 296 297 -900 0
15 26 456 464 14 426 312 265 169 48 531 238 -901 0
20 527 493 409 308 247 188 205 423 282 42 -902 0
453 160 15 10 169 384 382 14 -903 0
34 418 379 500 273 139 426 16 241 -904 0
106 166 15 500 459 9 384 207 286 349 405 165 37 441 271 66 -905 0
482 290 276 213 262 315 125 278 202 56 349 70 416 -906 0
324 235 293 55 114 485 180 42 487 212 192 477 -907 0
7 84 515 184 81 11 95 43 268 458 -908 0
508 323 318 350 131 527 233 464 19 108 -909 0
40 418 182 19 76 41 166 481 -910 0
479 317 432 33 420 418 116 304 198 235 96 216 -911 0
407 475 243 152 313 186 85 164 495 51 121 517 366 -912 0
6 329 326 204 378 146 346 62 266 81 163 429 -913 0
18 390 33 431 359 8 207 195 316 465 60 46 393 -914 0
433 390 459 147 90 237 185 200 116 343 -915 0
21 409 62 516 266 153 109 478 325 342 -916 0
407 525 116 425 388 159 94 217 117 61 235 -917 0
477 359 336 380 355 404 305 102 446 445 245 497 36 -918 0
496 429 37 387 132 289 66 72 170 24 -919 0
408 70 -920 0
180 185 186 458 501 279 378 287 195 234 -921 0
70 458 270 184 81 -922 0
502 362 484 224 125 353 12 175 109 525 514 -923 0
10 409 414 25 42 297 512 14 486 45 213 135 295 58 437 -924 0
507 215 30 6 449 509 261 335 193 411 104 117 301 -925 0
171 191 354 464 420 242 260 77 129 414 66 -926 0
436 426 310 416 35 11 2 409 176 360 324 269 224 -927 0
507 65 422 368 515 262 300 505 124 504 -928 0
268 192 17 37 358 270 101 407 257 308 -929 0
2 6 11 340 504 371 412 185 390 335 89 179 384 -930 0
523 156 245 253 3 49 263 147 34 110 -931 0
292 216 480 454 502 106 293 93 386 321 453 468 174 62 494 -932 0
524 329 147 507 326 108 298 419 334 47 252 -933 0
209 142 252 498 416 407 359 519 511 426 121 415 305 122 163 467 203 -934 0
66 332 430 380 360 406 379 220 42 247 9 211 73 127 351 -935 0
449 365 391 328 415 240 59 410 317 171 286 115 119 495 -936 0
322 184 84 80 95 493 -937 0
76 219 237 39 14 506 293 380 335 97 206 345 195 42 337 305 77 -938 0
70 -939 0
412 434 303 302 88 170 295 345 131 -940 0
287 270 40 226 507 72 470 231 68 105 129 -941 0
225 200 481 256 321 362 276 168 -942 0
32 225 171 10 455 354 89 172 86 111 94 385 141 19 -943 0
291 126 359 191 271 327 521 470 460 374 446 -944 0
289 328 230 48 425 266 293 211 156 432 263 501 338 147 -945 0
307 31 203 109 32 88 418 298 162 496 455 136 -946 0
173 60 395 391 488 497 473 150 243 273 432 304 199 342 66 309 -947 0
482 383 297 130 8 311 159 131 489 271 -948 0
456 457 334 292 251 139 261 448 90 62 207 399 498 -949 0
447 357 156 48 3 212 178 241 77 502 482 326 -950 0
416 480 295 228 69 469 291 75 204 164 87 396 -951 0
392 96 174 183 331 314 108 242 268 324 362 156 236 199 258 -952 0
371 285 208 169 186 389 211 504 500 2 72 321 354 -953 0
483 128 28 32 23 474 79 321 292 492 -954 0
531 156 137 239 277 310 10 440 492 375 330 469 390 476 -955 0
366 202 78 138 162 448 496 143 264 337 116 123 278 254 401 50 -956 0
339 456 409 524 265 189 21 10 -957 0
25 239 144 238 167 14 98 15 378 520 -958 0
284 318 337 256 30 138 335 239 402 246 440 496 421 352 215 -959 0
39 204 108 402 357 44 373 390 434 404 386 32 493 164 117 388 -960 0
22 201 256 251 163 468 359 324 37 14 286 -961 0
450 52 36 268 293 159 278 193 109 16 100 173 250 -962 0
334 126 294 17 184 165 125 107 79 369 11 504 -963 0
110 44 421 467 288 370 123 -964 0
12 420 305 120 36 4 384 159 399 257 49 42 -965 0
334 277 380 379 451 372 143 75 278 62 238 308 314 93 331 180 -966 0
122 491 478 466 444 154 523 103 315 275 23 363 240 148 360 -967 0
516 339 139 330 352 293 407 316 157 -968 0
378 324 200 477 377 452 380 356 150 315 178 54 245 152 285 172 201 497 21 -969 0
224 348 315 15 225 105 232 5 351 261 191 440 253 -970 0
70 270 269 -971 0
451 505 437 506 245 309 462 324 76 487 305 476 358 68 -972 0
338 188 393 391 372 215 270 360 522 26 425 496 258 145 -973 0
488 208 166 107 30 178 435 378 328 300 366 433 121 -974 0
62 504 31 295 447 454 238 373 347 175 193 89 54 -975 0
439 238 419 233 160 372 295 174 71 264 423 39 82 61 -976 0
33 144 138 103 394 200 294 156 440 183 142 -977 0
487 516 428 527 266 104 308 347 508 259 -978 0
407 260 410 8 330 354 418 117 318 107 66 281 -979 0
18 440 443 342 17 403 120 136 335 389 159 450 -980 0
17 409 73 478 502 430 420 215 453 513 155 184 -981 0
286 121 142 460 393 19 419 243 426 115 279 141 290 43 -982 0
312 348 141 106 473 3 392 221 306 188 196 -983 0
34 159 269 61 521 515 322 181 144 505 527 -984 0
310 394 348 97 150 173 286 93 110 298 84 285 334 108 -985 0
308 183 157 485 403 507 306 393 13 294 389 348 400 -986 0
347 391 359 380 210 213 481 283 84 -987 0
69 15 8 366 252 84 14 254 18 467 112 453 199 240 -988 0
-989 0
447 439 152 367 278 245 204 227 51 234 -990 0
248 349 162 176 285 410 337 149 397 29 144 -991 0
292 404 299 123 172 321 10 233 28 272 39 265 75 223 403 65 30 -992 0
382 290 123 102 440 176 93 237 92 11 57 380 234 42 -993 0
28 122 164 492 516 446 117 243 374 302 52 502 149 -994 0
345 254 472 189 463 16 374 68 -995 0
446 139 243 19 196 481 366 440 138 99 126 81 48 170 362 -996 0
219 321 326 250 165 457 198 77 313 417 406 232 283 392 254 499 -997 0
443 383 224 480 74 159 87 105 103 -998 0
342 450 83 52 19 378 20 108 498 248 -999 0
158 264 195 458 107 5 337 356 239 88 256 432 64 191 164 15 171 492 -1000 0
144 167 87 501 497 259 471 127 203 398 195 291 113 284 169 -1001 0
348 530 86 34 497 363 229 129 210 353 63 15 278 -1002 0
238 242 48 339 38 78 132 278 468 302 105 67 426 -1003 0
317 197 260 525 167 7 493 -1004 0
419 208 500 427 301 172 14 46 324 493 -1005 0
11 505 277 47 250 426 452 355 159 459 238 138 191 325 282 -1006 0
379 473 283 17 291 369 460 22 39 525 504 -1007 0
96 165 196 121 162 403 298 53 526 97 93 47 410 45 -1008 0
144 93 170 188 16 504 390 201 419 410 235 225 14 -1009 0
414 369 499 402 370 449 430 319 510 254 366 243 374 519 166 -1010 0
505 199 287 245 305 21 7 396 274 175 130 479 44 179 -1011 0
334 306 330 40 347 180 372 13 92 400 -1012 0
286 149 437 463 267 309 233 12 125 74 56 397 -1013 0
448 305 522 172 219 389 236 176 271 404 263 -1014 0
382 483 184 323 500 261 177 136 371 358 191 151 70 64 42 416 17 118 -1015 0
194 261 103 121 184 170 84 290 241 192 291 429 314 57 -1016 0
412 197 222 501 10 140 290 314 461 368 208 331 353 134 261 251 315 -1017 0
4 9 435 338 331 510 228 323 184 234 414 160 -1018 0
39 231 81 63 60 321 162 227 337 325 141 58 216 41 296 -1019 0
517 507 308 273 279 215 320 351 243 490 374 484 361 -1020 0
462 171 521 12 387 318 242 371 485 28 225 329 245 397 259 -1021 0
159 101 105 70 516 210 226 183 268 169 276 403 -1022 0
105 56 16 411 403 509 503 514 328 393 50 398 -1023 0
365 -1024 0
155 326 289 277 135 283 108 495 524 353 505 190 41 -1025 0
28 99 369 136 198 216 416 218 526 156 521 1 491 -1026 0
151 231 124 495 444 395 508 502 468 175 131 172 180 79 -1027 0
5 314 261 183 453 370 327 357 454 230 212 528 65 504 24 -1028 0
491 425 447 306 510 259 394 430 38 299 -1029 0
392 125 241 171 75 287 193 443 254 212 116 -1030 0
389 65 175 -1031 0
304 2 164 46 508 379 100 252 -1032 0
107 48 8 301 382 175 164 239 167 117 -1033 0
519 514 498 411 213 372 111 269 136 3 346 462 103 5 129 -1034 0
72 185 514 488 482 364 478 201 205 387 453 102 -1035 0
295 360 218 330 154 90 191 272 523 -1036 0
515 458 272 303 398 26 437 193 110 217 8 162 116 298 -1037 0
373 526 155 195 90 26 -1038 0
411 373 277 158 432 497 83 278 311 356 39 133 489 -1039 0
284 430 52 69 325 381 320 490 124 117 182 375 121 -1040 0
371 203 23 359 217 361 63 508 285 14 121 -1041 0
409 341 151 180 321 147 226 89 212 270 -1042 0
2 344 46 515 510 187 294 219 321 79 473 33 -1043 0
165 290 452 266 467 264 317 477 -1044 0
319 108 92 527 374 191 393 98 437 111 249 516 511 360 163 86 -1045 0
81 43 -1046 0
14 284 277 213 392 274 62 28 177 160 126 107 129 -1047 0
507 448 228 116 241 238 54 478 113 19 201 193 -1048 0
151 386 502 295 388 444 251 76 524 107 337 166 433 409 -1049 0
459 414 421 411 507 282 429 330 301 -1050 0
40 23 476 465 326 464 521 75 511 92 285 288 57 202 -1051 0
3 93 114 202 494 380 417 247 284 153 156 94 -1052 0
161 114 513 448 41 210 116 104 71 373 150 243 -1053 0
142 29 460 455 260 522 118 109 100 86 67 138 429 97 377 261 216 -1054 0
452 325 203 265 372 525 273 87 201 -1055 0
81 440 70 239 268 365 -1056 0
182 506 530 505 30 410 187 35 1 155 423 -1057 0
227 49 71 310 238 357 522 289 255 277 246 -1058 0
179 103 416 18 10 147 314 471 87 65 40 -1059 0
267 182 271 520 403 447 391 467 256 139 359 425 298 239 225 -1060 0
96 72 496 443 386 323 172 190 307 338 41 28 33 445 239 389 24 -1061 0
149 122 81 453 429 447 449 320 528 502 417 327 369 507 246 301 521 460 -1062 0
-1 778 0
-1 776 0
-1 839 0
-1 660 0
-1 540 0
-1 665 0
-1 702 0
-1 687 0
-1 1006 0
-1 992 0
-1 810 0
-1 978 0
-1 972 0
-2 945 0
-2 779 0
-2 607 0
-2 669 0
-2 604 0
-2 646 0
-2 973 0
-2 916 0
-2 1041 0
-2 643 0
-2 700 0
-3 773 0
-3 795 0
-3 685 0
-3 738 0
-3 705 0
-3 716 0
-3 916 0
-3 577 0
-3 899 0
-3 974 0
-3 687 0
-3 1033 0
-4 677 0
-4 817 0
-4 832 0
-4 655 0
-4 1051 0
-4 961 0
-4 551 0
-4 903 0
-4 811 0
-4 728 0
-4 976 0
-4 916 0
-4 879 0
-4 911 0
-5 685 0
-5 818 0
-5 724 0
-5 799 0
-5 1061 0
-5 575 0
-5 582 0
-5 674 0
-5 987 0
-5 765 0
-5 930 0
-5 921 0
-5 821 0
-5 1012 0
-5 915 0
-6 782 0
-6 868 0
-6 780 0
-6 933 0
-6 611 0
-6 955 0
-6 549 0
-6 641 0
-6 800 0
-6 908 0
-6 954 0
-6 902 0
-6 719 0
-7 799 0
-7 1024 0
-7 612 0
-7 601 0
-7 574 0
-7 989 0
-8 893 0
-8 532 0
-8 773 0
-8 1056 0
-8 835 0
-8 667 0
-8 862 0
-8 673 0
-8 549 0
-8 1058 0
-8 603 0
-8 833 0
-8 933 0
-8 624 0
-9 681 0
-9 668 0
-9 770 0
-9 610 0
-9 713 0
-9 591 0
-9 984 0
-9 988 0
-9 734 0
-9 924 0
-9 737 0
-9 535 0
-9 821 0
-9 892 0
-10 773 0
-10 638 0
-10 734 0
-10 552 0
-10 654 0
-10 542 0
-10 721 0
-10 573 0
-10 747 0
-10 859 0
-11 801 0
-11 920 0
-11 626 0
-11 1024 0
-11 971 0
-11 601 0
-12 1057 0
-12 700 0
-12 563 0
-12 878 0
-12 756 0
-12 1017 0
-12 982 0
-12 918 0
-12 960 0
-12 1051 0
-12 862 0
-13 822 0
-13 567 0
-13 550 0
-13 732 0
-13 1034 0
-13 771 0
-13 1052 0
-13 1016 0
-13 650 0
-13 907 0
-13 844 0
-13 746 0
-13 641 0
-13 760 0
-13 960 0
-13 608 0
-14 861 0
-14 642 0
-14 941 0
-14 894 0
-14 802 0
-14 640 0
-14 713 0
-14 982 0
-14 867 0
-14 928 0
-14 1043 0
-15 1056 0
-15 620 0
-15 537 0
-15 701 0
-15 1018 0
-15 964 0
-15 768 0
-15 695 0
-15 980 0
-15 560 0
-16 785 0
-16 909 0
-16 945 0
-16 840 0
-16 596 0
-16 814 0
-16 648 0
-16 707 0
-16 545 0
-16 756 0
-16 1024 0
-16 836 0
-16 1030 0
-16 915 0
-17 868 0
-17 566 0
-17 786 0
-17 688 0
-17 887 0
-17 853 0
-17 852 0
-17 854 0
-18 1061 0
-18 814 0
-18 818 0
-18 796 0
-18 685 0
-18 630 0
-18 766 0
-18 616 0
-18 973 0
-18 1025 0
-18 680 0
-18 932 0
-19 883 0
-19 585 0
-19 636 0
-19 580 0
-19 738 0
-19 830 0
-19 911 0
-19 732 0
-20 694 0
-20 892 0
-20 719 0
-20 754 0
-20 634 0
-20 635 0
-20 811 0
-20 817 0
-20 897 0
-20 960 0
-20 1032 0
-20 620 0
-20 919 0
-20 848 0
-21 698 0
-21 601 0
-21 715 0
-21 770 0
-21 939 0
-22 893 0
-22 668 0
-22 554 0
-22 552 0
-22 607 0
-22 926 0
-22 794 0
-22 713 0
-22 627 0
-22 820 0
-22 969 0
-22 768 0
-22 940 0
-23 662 0
-23 946 0
-23 789 0
-23 937 0
-23 1015 0
-23 832 0
-23 746 0
-23 735 0
-23 695 0
-23 1028 0
-23 980 0
-23 758 0
-24 879 0
-24 764 0
-24 537 0
-24 723 0
-24 748 0
-24 623 0
-24 592 0
-24 575 0
-24 686 0
-24 562 0
-24 826 0
-25 734 0
-25 647 0
-25 631 0
-25 882 0
-25 714 0
-25 918 0
-25 869 0
-25 615 0
-25 798 0
-25 650 0
-25 864 0
-25 983 0
-25 1030 0
-25 726 0
-26 773 0
-26 782 0
-26 856 0
-26 875 0
-26 731 0
-26 593 0
-26 1042 0
-26 961 0
-26 858 0
-27 795 0
-27 955 0
-27 683 0
-27 651 0
-27 733 0
-27 628 0
-27 658 0
-27 849 0
-27 1016 0
-27 956 0
-27 804 0
-27 673 0
-27 700 0
-27 937 0
-27 1004 0
-28 879 0
-28 588 0
-28 546 0
-28 541 0
-28 1052 0
-28 595 0
-28 1044 0
-28 643 0
-28 891 0
-28 881 0
-28 859 0
-29 931 0
-29 755 0
-29 739 0
-29 590 0
-29 588 0
-29 820 0
-29 837 0
-29 711 0
-29 999 0
-29 812 0
-30 868 0
-30 799 0
-30 1012 0
-30 915 0
-30 753 0
-30 882 0
-30 640 0
-30 802 0
-30 790 0
-30 952 0
-30 888 0
-31 535 0
-31 658 0
-31 909 0
-31 597 0
-31 988 0
-31 1029 0
-31 655 0
-31 984 0
-31 934 0
-31 970 0
-31 728 0
-31 834 0
-31 674 0
-31 1049 0
-32 833 0
-32 574 0
-32 789 0
-32 615 0
-32 596 0
-32 556 0
-32 575 0
-32 651 0
-32 904 0
-33 588 0
-33 993 0
-33 907 0
-33 995 0
-33 587 0
-33 691 0
-33 984 0
-33 739 0
-33 815 0
-34 568 0
-34 537 0
-34 1052 0
-34 777 0
-34 891 0
-34 908 0
-34 1048 0
-34 796 0
-34 760 0
-35 1056 0
-35 903 0
-35 619 0
-35 851 0
-35 847 0
-35 775 0
-35 862 0
-35 947 0
-35 1033 0
-35 943 0
-35 838 0
-36 600 0
-36 568 0
-36 797 0
-36 1005 0
-36 634 0
-36 921 0
-36 579 0
-36 663 0
-36 982 0
-36 928 0
-36 930 0
-37 668 0
-37 633 0
-37 672 0
-37 999 0
-37 813 0
-37 667 0
-37 766 0
-37 1027 0
-37 1018 0
-37 794 0
-37 556 0
-37 886 0
-37 995 0
-38 645 0
-38 638 0
-38 995 0
-38 557 0
-38 606 0
-38 960 0
-38 882 0
-38 927 0
-38 609 0
-39 740 0
-39 652 0
-39 890 0
-39 557 0
-39 901 0
-39 852 0
-39 884 0
-39 826 0
-40 579 0
-40 817 0
-40 696 0
-40 927 0
-40 964 0
-40 754 0
-40 705 0
-40 543 0
-40 815 0
-40 555 0
-40 943 0
-41 776 0
-41 856 0
-41 635 0
-41 787 0
-41 801 0
-41 794 0
-41 626 0
-41 798 0
-41 701 0
-41 1028 0
-41 849 0
-41 987 0
-41 736 0
-41 975 0
-42 893 0
-42 859 0
-42 906 0
-42 588 0
-42 723 0
-42 936 0
-42 984 0
-42 865 0
-42 925 0
-42 778 0
-43 612 0
-44 687 0
-44 627 0
-44 777 0
-44 550 0
-44 772 0
-44 648 0
-44 741 0
-44 603 0
-44 1001 0
-44 1039 0
-44 1033 0
-44 1055 0
-44 569 0
-44 957 0
-45 1057 0
-45 640 0
-45 839 0
-45 1018 0
-45 866 0
-45 695 0
-45 658 0
-45 704 0
-45 544 0
-46 661 0
-46 659 0
-46 846 0
-46 767 0
-46 940 0
-46 943 0
-46 744 0
-46 973 0
-46 916 0
-46 768 0
-47 953 0
-47 886 0
-47 685 0
-47 761 0
-47 879 0
-47 810 0
-47 1036 0
-47 571 0
-47 861 0
-47 1023 0
-47 850 0
-47 772 0
-47 658 0
-47 722 0
-48 910 0
-48 995 0
-48 619 0
-48 603 0
-48 629 0
-48 772 0
-48 816 0
-48 998 0
-49 712 0
-49 801 0
-49 569 0
-49 674 0
-49 748 0
-49 656 0
-49 862 0
-49 884 0
-49 655 0
-49 713 0
-49 1049 0
-49 673 0
-49 783 0
-49 811 0
-49 1033 0
-49 668 0
-49 732 0
-50 935 0
-50 965 0
-50 1039 0
-50 740 0
-50 922 0
-50 895 0
-50 850 0
-50 1051 0
-51 747 0
-51 581 0
-51 533 0
-51 594 0
-51 569 0
-51 1051 0
-51 623 0
-51 925 0
-51 745 0
-51 848 0
-51 1038 0
-51 598 0
-51 1024 0
-52 934 0
-52 904 0
-52 797 0
-52 773 0
-52 617 0
-52 816 0
-52 960 0
-52 593 0
-52 652 0
-52 728 0
-52 835 0
-52 560 0
-53 746 0
-53 966 0
-53 612 0
-53 970 0
-53 824 0
-53 753 0
-53 621 0
-53 883 0
-53 551 0
-53 960 0
-53 837 0
-53 875 0
-53 911 0
-53 833 0
-54 867 0
-54 957 0
-54 791 0
-54 535 0
-54 1050 0
-54 909 0
-54 851 0
-54 954 0
-54 657 0
-54 886 0
-54 730 0
-54 1009 0
-54 786 0
-54 862 0
-54 802 0
-55 888 0
-55 718 0
-55 703 0
-55 1054 0
-55 707 0
-55 636 0
-55 719 0
-55 757 0
-55 685 0
-55 895 0
-55 760 0
-55 908 0
-55 608 0
-55 974 0
-55 682 0
-55 976 0
-55 1002 0
-56 933 0
-56 620 0
-56 539 0
-56 905 0
-56 701 0
-56 559 0
-56 1016 0
-56 984 0
-56 1038 0
-56 563 0
-56 730 0
-56 592 0
-57 886 0
-57 799 0
-57 1058 0
-57 776 0
-57 929 0
-57 647 0
-57 533 0
-57 609 0
-57 607 0
-57 736 0
-57 690 0
-57 602 0
-58 830 0
-58 670 0
-58 944 0
-58 1056 0
-58 608 0
-58 574 0
-58 606 0
-58 655 0
-58 695 0
-58 718 0
-58 772 0
-58 577 0
-58 829 0
-58 544 0
-58 868 0
-58 560 0
-59 1004 0
-59 1006 0
-59 668 0
-59 888 0
-59 574 0
-59 548 0
-59 534 0
-59 1055 0
-59 850 0
-59 920 0
-59 547 0
-59 786 0
-59 903 0
-59 839 0
-59 817 0
-59 670 0
-59 960 0
-59 701 0
-59 554 0
-59 682 0
-60 808 0
-60 937 0
-60 861 0
-60 571 0
-60 848 0
-60 865 0
-60 1009 0
-60 987 0
-60 1020 0
-60 889 0
-60 710 0
-61 651 0
-61 540 0
-61 958 0
-61 613 0
-61 857 0
-61 743 0
-61 886 0
-61 819 0
-61 1029 0
-61 684 0
-62 1000 0
-62 678 0
-62 669 0
-62 631 0
-62 754 0
-62 815 0
-62 607 0
-62 741 0
-62 578 0
-63 706 0
-63 555 0
-63 770 0
-63 757 0
-63 691 0
-63 946 0
-63 551 0
-63 1022 0
-63 1001 0
-63 967 0
-63 763 0
-64 689 0
-64 757 0
-64 929 0
-64 912 0
-64 736 0
-64 717 0
-64 725 0
-64 1006 0
-64 706 0
-65 1024 0
-66 769 0
-66 764 0
-66 640 0
-66 797 0
-66 813 0
-66 736 0
-66 894 0
-66 1007 0
-66 891 0
-66 596 0
-66 1038 0
-66 1030 0
-67 734 0
-67 893 0
-67 1055 0
-67 697 0
-67 651 0
-67 1027 0
-67 1022 0
-67 601 0
-67 911 0
-67 642 0
-67 1051 0
-67 657 0
-67 706 0
-68 808 0
-68 773 0
-68 644 0
-68 757 0
-68 831 0
-68 906 0
-68 727 0
-68 1042 0
-68 1013 0
-68 904 0
-68 815 0
-68 1045 0
-68 862 0
-68 604 0
-68 656 0
-68 1058 0
-69 861 0
-69 854 0
-69 581 0
-69 710 0
-69 869 0
-69 916 0
-69 678 0
-69 534 0
-71 876 0
-71 825 0
-71 783 0
-71 719 0
-71 991 0
-71 722 0
-71 847 0
-71 750 0
-71 543 0
-71 656 0
-71 1049 0
-71 987 0
-71 689 0
-72 836 0
-72 859 0
-72 537 0
-72 993 0
-72 857 0
-72 1012 0
-72 926 0
-72 674 0
-72 536 0
-73 968 0
-73 799 0
-73 784 0
-73 893 0
-73 569 0
-73 660 0
-73 699 0
-73 1019 0
-73 1029 0
-73 609 0
-73 601 0
-73 758 0
-73 782 0
-74 826 0
-74 854 0
-74 936 0
-74 729 0
-74 589 0
-74 790 0
-74 781 0
-74 862 0
-74 834 0
-74 906 0
-74 587 0
-74 742 0
-74 771 0
-74 926 0
-75 876 0
-75 746 0
-75 889 0
-75 735 0
-75 650 0
-75 703 0
-75 592 0
-75 862 0
-75 563 0
-75 964 0
-75 822 0
-75 620 0
-76 896 0
-76 838 0
-76 697 0
-76 644 0
-76 1031 0
-76 808 0
-76 630 0
-76 627 0
-76 889 0
-76 839 0
-77 910 0
-77 681 0
-77 674 0
-77 818 0
-77 706 0
-77 555 0
-77 665 0
-77 627 0
-77 624 0
-77 749 0
-77 994 0
-77 747 0
-78 1024 0
-78 827 0
-78 931 0
-78 957 0
-78 851 0
-78 863 0
-78 585 0
-78 795 0
-78 833 0
-78 785 0
-78 786 0
-78 864 0
-78 788 0
-78 999 0
-78 556 0
-78 760 0
-79 773 0
-79 574 0
-79 897 0
-79 839 0
-79 571 0
-79 847 0
-79 981 0
-79 1024 0
-79 710 0
-79 714 0
-79 719 0
-79 562 0
-79 910 0
-80 989 0
-80 612 0
-80 615 0
-80 574 0
-80 1046 0
-80 853 0
-81 939 0
-82 1008 0
-82 1038 0
-82 922 0
-82 951 0
-82 946 0
-82 726 0
-82 1061 0
-82 1059 0
-82 544 0
-82 711 0
-82 768 0
-82 923 0
-82 719 0
-82 552 0
-82 629 0
-82 849 0
-82 574 0
-83 992 0
-83 937 0
-83 868 0
-83 697 0
-83 1058 0
-83 581 0
-83 538 0
-83 882 0
-83 794 0
-83 964 0
-83 862 0
-83 832 0
-83 777 0
-83 977 0
-83 573 0
-84 728 0
-84 574 0
-84 896 0
-84 989 0
-85 836 0
-85 780 0
-85 718 0
-85 712 0
-85 838 0
-85 964 0
-85 796 0
-85 705 0
-85 858 0
-85 704 0
-85 545 0
-85 894 0
-85 987 0
-85 997 0
-85 595 0
-86 677 0
-86 767 0
-86 566 0
-86 790 0
-86 663 0
-86 736 0
-86 952 0
-86 603 0
-86 621 0
-86 918 0
-86 954 0
-87 617 0
-87 689 0
-87 556 0
-87 999 0
-87 699 0
-87 701 0
-87 1023 0
-87 606 0
-87 612 0
-87 982 0
-87 883 0
-87 825 0
-87 1041 0
-88 982 0
-88 914 0
-88 642 0
-88 763 0
-88 656 0
-88 640 0
-88 869 0
-89 917 0
-89 799 0
-89 859 0
-89 801 0
-89 996 0
-89 850 0
-89 568 0
-89 786 0
-89 709 0
-89 754 0
-89 673 0
-89 631 0
-90 886 0
-90 694 0
-90 613 0
-90 750 0
-90 644 0
-90 988 0
-90 699 0
-90 852 0
-90 632 0
-90 1025 0
-91 983 0
-91 1058 0
-91 978 0
-91 548 0
-91 728 0
-91 745 0
-91 667 0
-91 559 0
-91 555 0
-91 704 0
-91 992 0
-91 560 0
-91 762 0
-91 853 0
-91 973 0
-92 664 0
-92 785 0
-92 954 0
-92 783 0
-92 547 0
-92 566 0
-92 995 0
-92 637 0
-92 857 0
-92 975 0
-92 922 0
-92 944 0
-93 943 0
-93 942 0
-93 837 0
-93 819 0
-93 828 0
-93 599 0
-93 842 0
-93 902 0
-93 710 0
-93 875 0
-93 783 0
-93 1048 0
-94 874 0
-94 659 0
-94 883 0
-94 676 0
-94 579 0
-94 572 0
-94 541 0
-94 570 0
-94 982 0
-94 619 0
-94 702 0
-94 735 0
-94 802 0
-94 798 0
-94 790 0
-94 575 0
-94 921 0
-95 1024 0
-95 971 0
-96 974 0
-96 778 0
-96 789 0
-96 685 0
-96 873 0
-96 700 0
-96 691 0
-96 590 0
-96 748 0
-96 586 0
-96 878 0
-96 1043 0
-96 584 0
-97 1017 0
-97 1055 0
-97 533 0
-97 711 0
-97 758 0
-97 716 0
-97 960 0
-97 579 0
-97 924 0
-97 1027 0
-97 561 0
-98 957 0
-98 640 0
-98 728 0
-98 851 0
-98 705 0
-98 936 0
-98 564 0
-98 565 0
-98 930 0
-98 770 0
-98 926 0
-98 826 0
-98 902 0
-99 1041 0
-99 864 0
-99 611 0
-99 600 0
-99 714 0
-99 1016 0
-99 772 0
-99 758 0
-99 598 0
-99 838 0
-100 916 0
-100 739 0
-100 683 0
-100 644 0
-100 567 0
-100 949 0
-100 611 0
-100 845 0
-100 748 0
-100 624 0
-100 731 0
-100 680 0
-100 849 0
-100 628 0
-100 971 0
-100 939 0
-100 1050 0
-100 999 0
-101 963 0
-101 649 0
-101 633 0
-101 961 0
-101 842 0
-101 862 0
-101 650 0
-101 717 0
-101 710 0
-101 615 0
-101 958 0
-101 1039 0
-101 853 0
-101 914 0
-101 784 0
-102 820 0
-102 1061 0
-102 533 0
-102 860 0
-102 960 0
-102 1003 0
-102 771 0
-102 805 0
-102 1020 0
-103 738 0
-103 657 0
-103 1000 0
-103 602 0
-103 545 0
-103 991 0
-103 540 0
-103 713 0
-103 1060 0
-103 826 0
-103 819 0
-104 910 0
-104 885 0
-104 1006 0
-104 552 0
-104 951 0
-104 820 0
-104 667 0
-104 754 0
-104 986 0
-104 859 0
-104 1032 0
-104 797 0
-104 1000 0
-105 638 0
-105 1057 0
-105 703 0
-105 824 0
-105 917 0
-105 756 0
-105 1047 0
-105 1012 0
-105 983 0
-105 758 0
-105 827 0
-106 585 0
-106 854 0
-106 942 0
-106 805 0
-106 1040 0
-106 790 0
-106 960 0
-106 555 0
-106 553 0
-106 681 0
-106 584 0
-106 988 0
-106 925 0
-106 655 0
-106 967 0
-106 593 0
-107 961 0
-107 879 0
-107 782 0
-107 862 0
-107 740 0
-107 1006 0
-107 1036 0
-107 1043 0
-107 866 0
-107 553 0
-107 654 0
-108 728 0
-108 754 0
-108 954 0
-108 848 0
-108 602 0
-108 914 0
-108 645 0
-108 974 0
-108 556 0
-108 643 0
-109 830 0
-109 879 0
-109 533 0
-109 752 0
-109 882 0
-109 941 0
-109 708 0
-109 679 0
-109 850 0
-109 829 0
-109 967 0
-110 583 0
-110 567 0
-110 909 0
-110 860 0
-110 798 0
-110 675 0
-110 624 0
-110 587 0
-110 904 0
-110 598 0
-110 621 0
-110 978 0
-110 864 0
-110 930 0
-111 1006 0
-111 674 0
-111 712 0
-111 706 0
-111 657 0
-111 856 0
-111 573 0
-111 984 0
-111 1041 0
-111 650 0
-111 667 0
-111 1052 0
-111 964 0
-112 1062 0
-112 709 0
-112 903 0
-112 829 0
-112 641 0
-112 543 0
-112 606 0
-112 843 0
-112 1028 0
-112 918 0
-112 551 0
-112 584 0
-112 823 0
-113 830 0
-113 787 0
-113 810 0
-113 757 0
-113 793 0
-113 541 0
-113 570 0
-113 569 0
-113 945 0
-113 800 0
-113 857 0
-113 962 0
-113 639 0
-113 562 0
-113 912 0
-114 647 0
-114 600 0
-114 923 0
-114 626 0
-114 983 0
-114 563 0
-114 634 0
-114 603 0
-114 827 0
-114 1014 0
-114 657 0
-115 965 0
-115 807 0
-115 639 0
-115 562 0
-115 701 0
-115 684 0
-115 1018 0
-115 974 0
-115 945 0
-115 764 0
-115 921 0
-115 752 0
-115 555 0
-115 1047 0
-115 699 0
-116 907 0
-116 854 0
-116 766 0
-116 583 0
-116 932 0
-116 1032 0
-117 804 0
-117 746 0
-117 659 0
-117 1058 0
-117 766 0
-117 794 0
-117 690 0
-117 692 0
-117 868 0
-117 558 0
-117 602 0
-117 573 0
-118 974 0
-118 812 0
-118 891 0
-118 651 0
-118 1012 0
-118 920 0
-118 630 0
-118 805 0
-118 870 0
-118 551 0
-118 1023 0
-118 691 0
-118 595 0
-119 965 0
-119 859 0
-119 726 0
-119 928 0
-119 714 0
-119 641 0
-119 1044 0
-119 1019 0
-119 608 0
-119 819 0
-120 726 0
-120 620 0
-120 769 0
-120 571 0
-120 839 0
-120 788 0
-120 957 0
-120 607 0
-120 594 0
-121 670 0
-121 661 0
-121 743 0
-121 954 0
-121 788 0
-121 630 0
-121 995 0
-121 593 0
-121 900 0
-121 1038 0
-121 830 0
-121 833 0
-121 623 0
-122 891 0
-122 579 0
-122 909 0
-122 990 0
-122 607 0
-122 604 0
-122 866 0
-122 734 0
-122 1021 0
-122 893 0
-122 779 0
-122 837 0
-122 626 0
-122 928 0
-123 728 0
-123 989 0
-123 715 0
-123 574 0
-123 800 0
-123 971 0
-123 848 0
-124 622 0
-124 536 0
-124 845 0
-124 699 0
-124 708 0
-124 805 0
-124 794 0
-124 541 0
-125 1020 0
-125 905 0
-125 814 0
-125 903 0
-125 689 0
-125 574 0
-125 684 0
-125 713 0
-125 740 0
-125 902 0
-125 989 0
-125 810 0
-125 690 0
-126 828 0
-126 933 0
-126 640 0
-126 857 0
-126 848 0
-126 1048 0
-126 695 0
-126 736 0
-126 764 0
-126 660 0
-126 1058 0
-126 793 0
-126 1035 0
-126 942 0
-126 1009 0
-127 757 0
-127 622 0
-127 700 0
-127 673 0
-127 981 0
-127 793 0
-127 618 0
-127 1032 0
-127 1022 0
-127 701 0
-127 866 0
-127 698 0
-128 599 0
-128 823 0
-128 989 0
-128 876 0
-128 959 0
-128 608 0
-128 629 0
-128 806 0
-128 765 0
-128 912 0
-128 738 0
-128 923 0
-128 695 0
-128 942 0
-129 931 0
-129 971 0
-129 937 0
-129 1053 0
-129 812 0
-129 802 0
-129 842 0
-129 663 0
-129 922 0
-129 601 0
-129 841 0
-129 795 0
-130 747 0
-130 886 0
-130 955 0
-130 852 0
-130 923 0
-130 564 0
-130 684 0
-130 979 0
-130 537 0
-130 658 0
-130 1007 0
-131 1028 0
-131 1032 0
-131 964 0
-131 877 0
-131 737 0
-131 720 0
-131 725 0
-131 715 0
-131 596 0
-131 592 0
-131 629 0
-131 827 0
-132 969 0
-132 814 0
-132 941 0
-132 1059 0
-132 817 0
-132 656 0
-132 821 0
-132 899 0
-132 698 0
-132 858 0
-132 1042 0
-133 908 0
-133 804 0
-133 728 0
-133 818 0
-133 1056 0
-133 793 0
-133 583 0
-133 1058 0
-133 550 0
-133 1025 0
-134 649 0
-134 540 0
-134 880 0
-134 735 0
-134 669 0
-134 894 0
-134 547 0
-134 675 0
-134 865 0
-134 976 0
-135 968 0
-135 838 0
-135 856 0
-135 840 0
-135 631 0
-135 1004 0
-135 842 0
-135 663 0
-135 580 0
-135 938 0
-135 785 0
-135 655 0
-135 915 0
-135 559 0
-136 916 0
-136 931 0
-136 723 0
-136 868 0
-136 915 0
-136 657 0
-136 899 0
-136 1049 0
-136 613 0
-136 884 0
-137 677 0
-137 839 0
-137 770 0
-137 630 0
-137 777 0
-137 1031 0
-137 1035 0
-137 1045 0
-137 848 0
-137 1052 0
-137 545 0
-138 825 0
-138 879 0
-138 767 0
-138 617 0
-138 860 0
-138 884 0
-138 586 0
-138 794 0
-138 945 0
-138 831 0
-138 798 0
-138 702 0
-138 545 0
-139 1044 0
-139 893 0
-139 1053 0
-139 941 0
-139 605 0
-139 907 0
-139 843 0
-139 789 0
-139 781 0
-139 736 0
-139 579 0
-139 925 0
-140 972 0
-140 971 0
-140 564 0
-140 843 0
-140 900 0
-140 926 0
-140 895 0
-140 619 0
-140 559 0
-140 553 0
-140 1044 0
-140 604 0
-140 1051 0
-141 874 0
-141 666 0
-141 801 0
-141 570 0
-141 813 0
-141 1025 0
-141 548 0
-141 731 0
-141 1029 0
-141 802 0
-141 1050 0
-141 975 0
-142 838 0
-142 810 0
-142 706 0
-142 800 0
-142 842 0
-142 770 0
-142 641 0
-142 619 0
-142 542 0
-142 1041 0
-142 870 0
-142 735 0
-143 1040 0
-143 827 0
-143 823 0
-143 957 0
-143 814 0
-143 737 0
-143 585 0
-143 550 0
-143 770 0
-143 992 0
-143 989 0
-143 589 0
-144 685 0
-144 709 0
-144 1055 0
-144 784 0
-144 915 0
-144 835 0
-144 1056 0
-144 856 0
-144 748 0
-144 736 0
-144 599 0
-145 834 0
-145 793 0
-145 608 0
-145 581 0
-145 791 0
-145 990 0
-145 604 0
-145 765 0
-145 1031 0
-145 713 0
-145 680 0
-145 594 0
-145 629 0
-145 615 0
-145 1044 0
-145 926 0
-145 1045 0
-146 969 0
-146 899 0
-146 581 0
-146 953 0
-146 756 0
-146 720 0
-146 614 0
-146 1037 0
-146 669 0
-146 652 0
-147 965 0
-147 831 0
-147 590 0
-147 919 0
-147 920 0
-147 936 0
-147 1036 0
-147 719 0
-147 630 0
-147 857 0
-147 781 0
-148 965 0
-148 791 0
-148 825 0
-148 651 0
-148 936 0
-148 711 0
-148 846 0
-148 678 0
-148 908 0
-148 716 0
-148 616 0
-148 790 0
-148 952 0
-148 737 0
-149 835 0
-149 673 0
-149 963 0
-149 999 0
-149 634 0
-149 551 0
-149 596 0
-149 1048 0
-149 618 0
-149 846 0
-149 914 0
-149 890 0
-149 976 0
-149 1033 0
-149 971 0
-150 1025 0
-150 1014 0
-150 856 0
-150 668 0
-150 968 0
-150 1003 0
-150 815 0
-150 679 0
-150 959 0
-150 738 0
-151 968 0
-151 662 0
-151 797 0
-151 563 0
-151 538 0
-151 648 0
-151 800 0
-151 717 0
-151 627 0
-151 978 0
-151 853 0
-151 1002 0
-151 884 0
-152 834 0
-152 565 0
-152 767 0
-152 648 0
-152 567 0
-152 731 0
-152 673 0
-152 1043 0
-152 601 0
-152 770 0
-152 972 0
-152 661 0
-153 810 0
-153 617 0
-153 809 0
-153 842 0
-153 897 0
-153 889 0
-153 768 0
-153 722 0
-153 637 0
-153 987 0
-153 1019 0
-153 665 0
-153 911 0
-153 788 0
-153 549 0
-153 1057 0
-154 830 0
-154 1061 0
-154 608 0
-154 691 0
-154 569 0
-154 566 0
-154 567 0
-154 888 0
-154 944 0
-154 840 0
-154 1049 0
-154 715 0
-154 573 0
-155 1024 0
-155 973 0
-155 995 0
-155 935 0
-155 689 0
-155 837 0
-155 963 0
-155 930 0
-155 709 0
-155 990 0
-155 1013 0
-155 549 0
-155 794 0
-156 799 0
-156 776 0
-156 700 0
-156 820 0
-156 809 0
-156 587 0
-156 861 0
-156 648 0
-156 767 0
-156 623 0
-156 975 0
-157 723 0
-157 697 0
-157 883 0
-157 903 0
-157 598 0
-157 648 0
-157 580 0
-157 1044 0
-157 998 0
-157 640 0
-158 560 0
-158 812 0
-158 978 0
-158 861 0
-158 631 0
-158 957 0
-158 784 0
-158 825 0
-158 824 0
-158 800 0
-158 1013 0
-158 856 0
-158 897 0
-158 832 0
-158 632 0
-159 697 0
-159 829 0
-159 775 0
-159 641 0
-159 555 0
-159 809 0
-159 561 0
-160 874 0
-160 825 0
-160 933 0
-160 562 0
-160 733 0
-160 581 0
-160 830 0
-160 1056 0
-160 602 0
-160 665 0
-160 728 0
-161 876 0
-161 538 0
-161 725 0
-161 609 0
-161 995 0
-161 855 0
-161 593 0
-161 818 0
-161 563 0
-161 984 0
-161 1050 0
-162 576 0
-162 539 0
-162 847 0
-162 1012 0
-162 682 0
-162 849 0
-162 624 0
-162 713 0
-162 999 0
-162 895 0
-162 560 0
-162 907 0
-163 1047 0
-163 868 0
-163 858 0
-163 740 0
-163 1005 0
-163 782 0
-163 731 0
-163 648 0
-163 898 0
-163 736 0
-163 856 0
-163 556 0
-163 904 0
-164 715 0
-164 620 0
-164 559 0
-164 571 0
-164 619 0
-164 801 0
-164 841 0
-164 754 0
-164 646 0
-164 636 0
-164 744 0
-165 1019 0
-165 987 0
-165 757 0
-165 654 0
-165 532 0
-165 570 0
-165 702 0
-165 671 0
-165 719 0
-165 756 0
-165 824 0
-165 1045 0
-166 797 0
-166 706 0
-166 619 0
-166 675 0
-166 812 0
-166 979 0
-166 716 0
-167 989 0
-168 747 0
-168 815 0
-168 1056 0
-168 640 0
-168 608 0
-168 659 0
-168 737 0
-168 674 0
-168 705 0
-168 882 0
-168 701 0
-168 542 0
-168 1052 0
-168 1037 0
-169 998 0
-169 996 0
-169 928 0
-169 640 0
-169 781 0
-169 754 0
-169 771 0
-170 607 0
-170 897 0
-170 560 0
-170 619 0
-170 1042 0
-170 994 0
-170 783 0
-170 853 0
-170 1032 0
-170 1037 0
-170 734 0
-170 990 0
-171 970 0
-171 1006 0
-171 741 0
-171 632 0
-171 990 0
-171 690 0
-171 701 0
-171 750 0
-171 687 0
-171 615 0
-171 896 0
-171 855 0
-171 1014 0
-171 798 0
-172 782 0
-172 647 0
-172 638 0
-172 583 0
-172 654 0
-172 1016 0
-172 785 0
-172 893 0
-172 648 0
-172 680 0
-172 977 0
-173 893 0
-173 562 0
-173 564 0
-173 748 0
-173 824 0
-173 904 0
-173 971 0
-173 1009 0
-174 1025 0
-174 834 0
-174 830 0
-174 670 0
-174 856 0
-174 649 0
-174 764 0
-174 557 0
-174 1013 0
-174 909 0
-174 860 0
-174 1059 0
-174 600 0
-174 541 0
-174 717 0
-175 801 0
-175 596 0
-175 615 0
-175 939 0
-176 948 0
-176 883 0
-176 773 0
-176 563 0
-176 954 0
-176 944 0
-176 719 0
-176 908 0
-176 901 0
-176 597 0
-176 951 0
-176 730 0
-176 987 0
-177 927 0
-177 1040 0
-177 689 0
-177 833 0
-177 1062 0
-177 668 0
-177 628 0
-177 799 0
-177 719 0
-177 848 0
-177 627 0
-177 960 0
-177 572 0
-177 549 0
-177 609 0
-177 1042 0
-178 907 0
-178 871 0
-178 992 0
-178 822 0
-178 856 0
-178 1039 0
-178 619 0
-178 909 0
-178 1032 0
-178 739 0
-178 989 0
-179 841 0
-179 941 0
-179 581 0
-179 714 0
-179 906 0
-179 894 0
-179 731 0
-179 575 0
-179 987 0
-179 920 0
-179 910 0
-179 597 0
-179 976 0
-179 596 0
-180 816 0
-180 657 0
-180 918 0
-180 655 0
-180 878 0
-180 775 0
-180 867 0
-180 710 0
-180 722 0
-181 782 0
-181 745 0
-181 736 0
-181 777 0
-181 617 0
-181 860 0
-181 892 0
-181 674 0
-182 812 0
-182 718 0
-182 570 0
-182 958 0
-182 990 0
-182 927 0
-182 571 0
-182 597 0
-182 1030 0
-182 1019 0
-182 594 0
-183 964 0
-183 864 0
-183 827 0
-183 1054 0
-183 821 0
-183 809 0
-183 735 0
-183 990 0
-183 708 0
-183 791 0
-183 704 0
-183 817 0
-183 873 0
-183 1045 0
-184 801 0
-185 749 0
-185 570 0
-185 773 0
-185 860 0
-185 912 0
-185 719 0
-185 766 0
-185 893 0
-185 899 0
-185 669 0
-185 969 0
-185 1038 0
-185 1032 0
-185 917 0
-186 948 0
-186 863 0
-186 583 0
-186 801 0
-186 559 0
-186 1039 0
-186 993 0
-186 842 0
-186 603 0
-186 690 0
-186 1061 0
-186 886 0
-186 557 0
-186 612 0
-186 756 0
-187 917 0
-187 834 0
-187 843 0
-187 946 0
-187 771 0
-187 676 0
-187 552 0
-187 1015 0
-187 889 0
-187 993 0
-187 909 0
-187 847 0
-187 664 0
-187 979 0
-188 939 0
-188 782 0
-188 963 0
-188 569 0
-188 756 0
-188 777 0
-188 926 0
-188 901 0
-188 711 0
-189 973 0
-189 974 0
-189 569 0
-189 734 0
-189 824 0
-189 748 0
-189 836 0
-189 912 0
-189 844 0
-190 815 0
-190 865 0
-190 879 0
-190 904 0
-190 773 0
-190 569 0
-190 1042 0
-190 940 0
-190 842 0
-190 591 0
-190 844 0
-190 720 0
-190 766 0
-190 831 0
-190 719 0
-191 771 0
-191 739 0
-191 649 0
-191 559 0
-191 550 0
-191 909 0
-191 875 0
-191 716 0
-191 628 0
-191 976 0
-191 987 0
-191 1004 0
-191 904 0
-192 985 0
-192 946 0
-192 843 0
-192 674 0
-192 684 0
-192 740 0
-192 901 0
-192 548 0
-192 953 0
-192 918 0
-192 539 0
-192 913 0
-192 754 0
-192 1042 0
-192 923 0
-193 771 0
-193 784 0
-193 900 0
-193 993 0
-193 895 0
-193 716 0
-193 626 0
-193 564 0
-193 664 0
-193 762 0
-193 595 0
-194 815 0
-194 757 0
-194 795 0
-194 633 0
-194 915 0
-194 918 0
-194 993 0
-194 945 0
-194 710 0
-194 723 0
-194 666 0
-195 670 0
-195 674 0
-195 965 0
-195 813 0
-195 713 0
-195 1052 0
-195 758 0
-195 1008 0
-195 594 0
-195 599 0
-195 690 0
-196 572 0
-196 950 0
-196 770 0
-196 618 0
-196 911 0
-196 594 0
-196 596 0
-196 850 0
-196 976 0
-196 892 0
-196 569 0
-196 988 0
-196 561 0
-196 972 0
-196 1059 0
-196 917 0
-197 971 0
-197 896 0
-197 799 0
-197 574 0
-197 1024 0
-197 939 0
-197 612 0
-198 984 0
-198 1038 0
-198 1020 0
-198 931 0
-198 774 0
-198 837 0
-198 797 0
-198 581 0
-198 887 0
-198 990 0
-198 613 0
-198 609 0
-198 542 0
-198 833 0
-198 1014 0
-199 741 0
-199 1057 0
-199 806 0
-199 836 0
-199 753 0
-199 931 0
-199 720 0
-199 627 0
-199 709 0
-199 746 0
-199 869 0
-199 977 0
-199 860 0
-199 598 0
-199 594 0
-199 548 0
-199 702 0
-200 856 0
-200 962 0
-200 717 0
-200 564 0
-200 762 0
-200 973 0
-200 650 0
-200 898 0
-200 591 0
-200 884 0
-200 1040 0
-200 669 0
-201 943 0
-201 922 0
-201 791 0
-201 946 0
-201 720 0
-201 903 0
-201 913 0
-201 703 0
-201 866 0
-201 681 0
-201 940 0
-201 589 0
-201 605 0
-202 1006 0
-202 1011 0
-202 910 0
-202 804 0
-202 651 0
-202 644 0
-202 633 0
-202 1019 0
-202 878 0
-202 746 0
-202 791 0
-202 914 0
-203 676 0
-203 569 0
-203 878 0
-203 704 0
-203 710 0
-203 551 0
-203 886 0
-203 593 0
-203 1047 0
-203 884 0
-203 858 0
-203 924 0
-204 666 0
-204 810 0
-204 801 0
-204 540 0
-204 835 0
-204 555 0
-204 788 0
-204 856 0
-204 734 0
-205 886 0
-205 1056 0
-205 685 0
-205 655 0
-205 602 0
-205 591 0
-205 964 0
-205 913 0
-205 1043 0
-205 603 0
-205 551 0
-205 1038 0
-205 640 0
-206 1018 0
-206 785 0
-206 861 0
-206 757 0
-206 564 0
-206 637 0
-206 925 0
-206 927 0
-206 775 0
-206 909 0
-206 942 0
-207 982 0
-207 965 0
-207 784 0
-207 749 0
-207 912 0
-207 910 0
-207 1022 0
-207 566 0
-207 720 0
-207 884 0
-207 664 0
-207 1050 0
-208 820 0
-208 883 0
-208 630 0
-208 849 0
-208 728 0
-208 621 0
-208 991 0
-208 648 0
-208 987 0
-209 635 0
-209 891 0
-209 794 0
-209 606 0
-209 688 0
-209 615 0
-209 673 0
-209 1043 0
-209 916 0
-209 577 0
-209 845 0
-209 970 0
-209 858 0
-209 592 0
-209 541 0
-209 892 0
-209 696 0
-210 598 0
-210 1026 0
-210 797 0
-210 585 0
-210 537 0
-210 946 0
-210 932 0
-210 751 0
-210 900 0
-210 783 0
-210 718 0
-210 606 0
-210 695 0
-211 938 0
-211 905 0
-211 732 0
-211 933 0
-211 893 0
-211 640 0
-211 922 0
-211 568 0
-211 817 0
-211 725 0
-211 794 0
-211 806 0
-211 753 0
-211 593 0
-211 1052 0
-212 1031 0
-212 1017 0
-212 1014 0
-212 949 0
-212 856 0
-212 706 0
-212 847 0
-212 564 0
-212 857 0
-212 557 0
-212 1009 0
-212 1032 0
-212 943 0
-212 1021 0
-212 575 0
-213 594 0
-213 712 0
-213 569 0
-213 566 0
-213 608 0
-213 677 0
-213 884 0
-213 997 0
-213 897 0
-213 582 0
-214 957 0
-214 1001 0
-214 946 0
-214 916 0
-214 709 0
-214 915 0
-214 892 0
-214 671 0
-214 1031 0
-214 735 0
-214 866 0
-214 1039 0
-214 953 0
-214 814 0
-214 1027 0
-214 970 0
-214 555 0
-215 594 0
-215 947 0
-215 864 0
-215 820 0
-215 741 0
-215 1061 0
-215 546 0
-215 903 0
-215 966 0
-215 772 0
-215 595 0
-216 1049 0
-216 985 0
-216 593 0
-216 883 0
-216 734 0
-216 538 0
-216 565 0
-216 907 0
-216 997 0
-216 954 0
-216 554 0
-217 942 0
-217 890 0
-217 1034 0
-217 715 0
-217 687 0
-217 625 0
-217 756 0
-217 862 0
-217 889 0
-217 581 0
-217 652 0
-217 979 0
-217 1029 0
-217 860 0
-218 995 0
-218 746 0
-218 700 0
-218 544 0
-218 1059 0
-218 921 0
-218 548 0
-218 630 0
-218 607 0
-218 724 0
-218 636 0
-218 991 0
-218 698 0
-218 719 0
-218 661 0
-219 828 0
-219 876 0
-219 585 0
-219 767 0
-219 766 0
-219 678 0
-219 931 0
-219 735 0
-219 1042 0
-219 603 0
-219 807 0
-219 731 0
-219 788 0
-219 870 0
-219 961 0
-219 921 0
-220 1050 0
-220 953 0
-220 979 0
-220 874 0
-220 803 0
-220 549 0
-220 725 0
-220 678 0
-220 894 0
-220 913 0
-220 857 0
-220 732 0
-221 1038 0
-221 919 0
-221 874 0
-221 685 0
-221 697 0
-221 566 0
-221 1030 0
-221 993 0
-221 909 0
-221 574 0
-221 889 0
-221 611 0
-221 605 0
-221 533 0
-221 547 0
-221 981 0
-222 1041 0
-222 759 0
-222 703 0
-222 613 0
-222 678 0
-222 911 0
-222 706 0
-222 1044 0
-222 930 0
-223 670 0
-223 749 0
-223 891 0
-223 548 0
-223 1003 0
-223 842 0
-223 712 0
-223 688 0
-223 634 0
-223 1035 0
-223 813 0
-224 992 0
-224 681 0
-224 810 0
-224 539 0
-224 814 0
-224 1007 0
-224 859 0
-224 740 0
-224 882 0
-224 846 0
-224 812 0
-224 638 0
-224 1018 0
-225 950 0
-225 789 0
-225 608 0
-225 722 0
-225 663 0
-225 650 0
-225 701 0
-225 693 0
-226 910 0
-226 1040 0
-226 935 0
-226 1007 0
-226 887 0
-226 894 0
-226 1019 0
-226 582 0
-226 663 0
-226 934 0
-226 1059 0
-227 739 0
-227 668 0
-227 533 0
-227 537 0
-227 998 0
-227 680 0
-227 735 0
-227 1013 0
-227 893 0
-227 986 0
-227 921 0
-227 804 0
-227 895 0
-227 561 0
-228 1013 0
-228 823 0
-228 594 0
-228 881 0
-228 841 0
-228 902 0
-228 983 0
-228 847 0
-228 762 0
-228 1028 0
-228 963 0
-228 713 0
-228 636 0
-229 728 0
-229 784 0
-229 939 0
-229 1046 0
-230 867 0
-230 911 0
-230 833 0
-230 739 0
-230 757 0
-230 897 0
-230 559 0
-230 733 0
-230 1005 0
-230 735 0
-230 653 0
-230 890 0
-230 975 0
-230 684 0
-230 660 0
-230 905 0
-231 697 0
-231 588 0
-231 640 0
-231 940 0
-231 624 0
-231 550 0
-231 678 0
-231 866 0
-231 860 0
-231 851 0
-231 1026 0
-231 603 0
-231 967 0
-231 1043 0
-232 746 0
-232 685 0
-232 687 0
-232 955 0
-232 784 0
-232 792 0
-232 626 0
-232 734 0
-232 1044 0
-232 644 0
-232 1001 0
-232 697 0
-232 1038 0
-232 853 0
-232 944 0
-232 974 0
-233 1014 0
-233 1037 0
-233 674 0
-233 637 0
-233 712 0
-233 854 0
-233 722 0
-233 993 0
-233 542 0
-233 578 0
-233 564 0
-233 1032 0
-233 1029 0
-234 953 0
-234 739 0
-234 651 0
-234 642 0
-234 697 0
-234 844 0
-234 770 0
-234 557 0
-234 761 0
-234 668 0
-234 901 0
-234 878 0
-234 823 0
-234 538 0
-234 604 0
-234 601 0
-235 956 0
-235 864 0
-235 728 0
-235 950 0
-235 891 0
-235 782 0
-235 930 0
-235 565 0
-236 917 0
-236 849 0
-236 957 0
-236 804 0
-236 824 0
-236 882 0
-236 1050 0
-236 560 0
-236 600 0
-236 536 0
-236 660 0
-236 582 0
-236 928 0
-237 883 0
-237 668 0
-237 906 0
-237 665 0
-237 669 0
-237 549 0
-237 1024 0
-237 724 0
-237 814 0
-237 567 0
-237 864 0
-237 1011 0
-237 899 0
-238 937 0
-238 635 0
-238 600 0
-238 562 0
-238 897 0
-238 893 0
-238 783 0
-238 846 0
-238 855 0
-238 989 0
-238 862 0
-238 968 0
-239 896 0
-239 939 0
-239 971 0
-240 917 0
-240 1014 0
-240 734 0
-240 574 0
-240 907 0
-240 909 0
-240 751 0
-240 892 0
-240 539 0
-240 809 0
-240 592 0
-240 805 0
-241 849 0
-241 804 0
-241 620 0
-241 659 0
-241 869 0
-241 834 0
-241 663 0
-241 648 0
-241 870 0
-241 766 0
-241 902 0
-242 602 0
-242 597 0
-242 997 0
-242 1028 0
-242 912 0
-242 807 0
-242 869 0
-242 923 0
-242 565 0
-242 587 0
-243 1025 0
-243 1023 0
-243 987 0
-243 977 0
-243 972 0
-243 837 0
-243 1033 0
-243 732 0
-243 547 0
-243 632 0
-243 781 0
-243 830 0
-243 564 0
-244 844 0
-244 957 0
-244 849 0
-244 964 0
-244 808 0
-244 801 0
-244 797 0
-244 635 0
-244 538 0
-244 696 0
-244 841 0
-244 545 0
-244 757 0
-244 693 0
-244 772 0
-245 976 0
-245 843 0
-245 1007 0
-245 636 0
-245 705 0
-245 810 0
-245 774 0
-245 664 0
-245 1041 0
-245 826 0
-245 975 0
-245 943 0
-245 551 0
-245 1033 0
-246 830 0
-246 849 0
-246 935 0
-246 923 0
-246 604 0
-246 702 0
-246 803 0
-246 1026 0
-246 961 0
-246 908 0
-246 1002 0
-247 934 0
-247 979 0
-247 807 0
-247 917 0
-247 927 0
-247 828 0
-247 583 0
-247 904 0
-247 1008 0
-247 538 0
-247 1033 0
-247 652 0
-247 696 0
-247 866 0
-247 554 0
-247 613 0
-248 964 0
-248 1041 0
-248 925 0
-248 808 0
-248 782 0
-248 818 0
-248 536 0
-248 567 0
-248 859 0
-248 812 0
-248 845 0
-248 671 0
-248 857 0
-248 1006 0
-248 762 0
-248 986 0
-248 806 0
-248 822 0
-249 732 0
-249 810 0
-249 706 0
-249 747 0
-249 541 0
-249 1039 0
-249 760 0
-249 688 0
-249 624 0
-249 535 0
-249 1029 0
-249 725 0
-249 952 0
-249 814 0
-250 583 0
-250 855 0
-250 702 0
-250 609 0
-250 619 0
-250 936 0
-250 863 0
-250 705 0
-250 913 0
-250 557 0
-250 823 0
-250 652 0
-251 1021 0
-251 1022 0
-251 864 0
-251 997 0
-251 534 0
-251 995 0
-251 556 0
-251 576 0
-251 860 0
-251 840 0
-251 757 0
-251 962 0
-251 636 0
-252 1036 0
-252 820 0
-252 732 0
-252 888 0
-252 605 0
-252 873 0
-252 635 0
-252 710 0
-252 632 0
-252 650 0
-252 738 0
-252 994 0
-253 824 0
-253 626 0
-253 896 0
-254 1046 0
-254 983 0
-254 723 0
-254 617 0
-254 784 0
-254 570 0
-254 891 0
-254 770 0
-254 809 0
-254 889 0
-254 1049 0
-255 976 0
-255 886 0
-255 797 0
-255 581 0
-255 741 0
-255 759 0
-255 1051 0
-255 690 0
-255 704 0
-255 1007 0
-255 777 0
-255 557 0
-255 739 0
-255 1045 0
-256 865 0
-256 592 0
-256 951 0
-256 856 0
-256 734 0
-256 590 0
-256 813 0
-256 839 0
-256 667 0
-256 831 0
-256 628 0
-256 619 0
-256 707 0
-256 886 0
-256 994 0
-256 859 0
-257 689 0
-257 774 0
-257 822 0
-257 614 0
-257 1059 0
-257 1026 0
-257 663 0
-257 1033 0
-257 899 0
-257 716 0
-257 655 0
-257 1019 0
-257 713 0
-258 974 0
-258 806 0
-258 1056 0
-258 950 0
-258 799 0
-258 900 0
-258 897 0
-258 767 0
-258 625 0
-258 667 0
-258 564 0
-258 546 0
-258 602 0
-258 704 0
-258 538 0
-259 808 0
-259 816 0
-259 579 0
-259 888 0
-259 544 0
-259 959 0
-259 541 0
-259 990 0
-259 673 0
-259 835 0
-259 804 0
-259 1046 0
-259 974 0
-260 1024 0
-260 896 0
-260 939 0
-260 801 0
-260 770 0
-260 698 0
-260 908 0
-260 615 0
-260 853 0
-260 800 0
-261 951 0
-261 838 0
-261 700 0
-261 1007 0
-261 613 0
-261 843 0
-261 978 0
-261 569 0
-261 658 0
-261 653 0
-261 805 0
-261 638 0
-262 671 0
-262 868 0
-262 615 0
-262 788 0
-262 560 0
-262 802 0
-262 633 0
-262 648 0
-262 1052 0
-262 551 0
-262 920 0
-262 552 0
-262 950 0
-263 536 0
-263 566 0
-263 942 0
-263 660 0
-263 626 0
-263 994 0
-263 987 0
-263 727 0
-263 848 0
-263 870 0
-263 596 0
-264 601 0
-264 858 0
-264 948 0
-264 631 0
-264 630 0
-264 959 0
-264 775 0
-264 667 0
-264 555 0
-264 642 0
-264 994 0
-265 1028 0
-265 728 0
-265 1032 0
-265 890 0
-265 627 0
-265 835 0
-265 752 0
-265 772 0
-265 569 0
-265 553 0
-265 629 0
-265 652 0
-265 663 0
-266 1037 0
-266 995 0
-266 1014 0
-266 931 0
-266 824 0
-266 655 0
-266 684 0
-266 643 0
-266 926 0
-266 980 0
-267 755 0
-267 818 0
-267 644 0
-267 558 0
-267 714 0
-267 827 0
-267 984 0
-267 978 0
-267 1036 0
-268 989 0
-269 538 0
-270 939 0
-270 989 0
-271 834 0
-271 1057 0
-271 721 0
-271 918 0
-271 690 0
-271 766 0
-271 734 0
-271 779 0
-271 897 0
-271 587 0
-271 584 0
-271 979 0
-271 972 0
-272 779 0
-272 686 0
-272 698 0
-272 869 0
-272 550 0
-272 1016 0
-272 987 0
-272 1039 0
-272 733 0
-272 791 0
-272 870 0
-272 749 0
-272 576 0
-272 687 0
-272 986 0
-272 771 0
-272 555 0
-273 885 0
-273 640 0
-273 712 0
-273 846 0
-273 813 0
-273 868 0
-273 1005 0
-273 766 0
-273 1006 0
-273 688 0
-273 924 0
-273 744 0
-274 896 0
-274 912 0
-274 954 0
-274 909 0
-274 809 0
-274 609 0
-274 782 0
-274 645 0
-274 678 0
-274 639 0
-274 686 0
-274 670 0
-274 695 0
-275 715 0
-275 855 0
-275 565 0
-275 656 0
-275 872 0
-275 781 0
-275 1012 0
-275 1000 0
-275 542 0
-275 940 0
-275 1026 0
-275 626 0
-275 598 0
-276 809 0
-276 648 0
-276 698 0
-276 656 0
-276 995 0
-276 797 0
-276 1059 0
-276 737 0
-276 649 0
-276 637 0
-276 813 0
-276 930 0
-276 542 0
-276 572 0
-276 1026 0
-277 904 0
-277 901 0
-277 1014 0
-277 685 0
-277 568 0
-277 1036 0
-277 630 0
-277 566 0
-277 674 0
-277 535 0
-278 987 0
-278 806 0
-278 649 0
-278 773 0
-278 563 0
-278 705 0
-278 929 0
-278 748 0
-278 1020 0
-278 1026 0
-278 543 0
-278 650 0
-278 702 0
-279 569 0
-279 600 0
-279 962 0
-279 862 0
-279 766 0
-279 826 0
-279 555 0
-279 952 0
-279 585 0
-279 579 0
-280 562 0
-280 869 0
-280 884 0
-280 623 0
-280 629 0
-280 618 0
-280 712 0
-280 962 0
-280 1059 0
-280 713 0
-280 810 0
-280 642 0
-281 971 0
-281 916 0
-281 924 0
-281 965 0
-281 795 0
-281 900 0
-281 747 0
-281 843 0
-281 790 0
-281 736 0
-281 1033 0
-281 758 0
-282 856 0
-282 627 0
-282 794 0
-282 671 0
-282 753 0
-282 980 0
-282 626 0
-282 666 0
-283 827 0
-283 785 0
-283 868 0
-283 767 0
-283 539 0
-283 649 0
-283 949 0
-283 646 0
-283 661 0
-283 815 0
-283 1058 0
-283 597 0
-284 563 0
-284 852 0
-284 901 0
-284 1022 0
-284 643 0
-284 913 0
-284 733 0
-284 555 0
-284 951 0
-284 778 0
-284 691 0
-285 1049 0
-285 935 0
-285 965 0
-285 891 0
-285 955 0
-285 810 0
-285 548 0
-285 780 0
-285 958 0
-285 968 0
-285 939 0
-285 611 0
-286 681 0
-286 706 0
-286 892 0
-286 616 0
-286 725 0
-286 993 0
-286 855 0
-286 897 0
-286 726 0
-286 1062 0
-286 922 0
-287 876 0
-287 959 0
-287 1002 0
-287 785 0
-287 807 0
-287 932 0
-287 882 0
-287 639 0
-288 1007 0
-288 690 0
-288 754 0
-288 722 0
-288 1049 0
-288 784 0
-288 662 0
-288 732 0
-288 755 0
-288 985 0
-288 635 0
-288 1008 0
-288 611 0
-288 706 0
-288 661 0
-289 548 0
-289 781 0
-289 940 0
-289 791 0
-289 910 0
-289 931 0
-289 772 0
-289 984 0
-289 751 0
-289 596 0
-289 1005 0
-289 720 0
-290 630 0
-290 1018 0
-290 979 0
-290 828 0
-290 634 0
-290 637 0
-290 846 0
-290 631 0
-290 564 0
-290 572 0
-290 640 0
-290 1027 0
-291 863 0
-291 886 0
-291 791 0
-291 608 0
-291 666 0
-291 567 0
-291 850 0
-291 720 0
-291 821 0
-291 773 0
-291 560 0
-291 769 0
-291 575 0
-292 945 0
-292 832 0
-292 573 0
-292 961 0
-292 543 0
-292 816 0
-292 898 0
-292 1012 0
-292 749 0
-292 789 0
-292 713 0
-293 596 0
-293 939 0
-294 895 0
-294 864 0
-294 681 0
-294 628 0
-294 789 0
-294 858 0
-294 607 0
-294 604 0
-294 573 0
-294 1054 0
-294 790 0
-294 723 0
-294 1010 0
-294 1035 0
-294 753 0
-294 592 0
-295 550 0
-295 742 0
-295 632 0
-295 650 0
-295 974 0
-295 1033 0
-295 670 0
-295 687 0
-295 1056 0
-295 793 0
-295 853 0
-296 940 0
-296 923 0
-296 629 0
-296 615 0
-296 622 0
-296 589 0
-296 789 0
-296 607 0
-296 793 0
-296 1059 0
-296 907 0
-297 792 0
-297 967 0
-297 798 0
-297 1014 0
-297 803 0
-297 1035 0
-297 567 0
-297 781 0
-298 952 0
-298 712 0
-298 562 0
-298 571 0
-298 660 0
-298 630 0
-298 663 0
-298 692 0
-298 629 0
-298 684 0
-298 665 0
-299 1044 0
-299 1018 0
-299 808 0
-299 1033 0
-299 938 0
-299 932 0
-299 645 0
-299 543 0
-299 594 0
-299 957 0
-299 870 0
-299 692 0
-300 1038 0
-300 953 0
-300 917 0
-300 664 0
-300 939 0
-300 997 0
-300 926 0
-300 805 0
-300 791 0
-300 654 0
-300 852 0
-300 754 0
-300 646 0
-300 648 0
-300 1018 0
-301 971 0
-301 959 0
-301 548 0
-301 897 0
-301 842 0
-301 983 0
-301 1038 0
-301 907 0
-301 592 0
-301 573 0
-301 553 0
-302 1011 0
-302 980 0
-302 933 0
-302 851 0
-302 581 0
-302 1005 0
-302 569 0
-302 996 0
-302 919 0
-302 623 0
-302 1062 0
-302 1050 0
-303 596 0
-303 959 0
-303 614 0
-303 799 0
-303 796 0
-303 943 0
-303 864 0
-303 1031 0
-303 859 0
-303 988 0
-303 727 0
-303 980 0
-303 547 0
-303 744 0
-304 837 0
-304 864 0
-304 925 0
-304 926 0
-304 617 0
-304 564 0
-304 623 0
-304 1003 0
-304 958 0
-304 764 0
-304 815 0
-304 665 0
-305 795 0
-305 1007 0
-305 560 0
-305 724 0
-305 577 0
-305 881 0
-306 940 0
-306 630 0
-306 1009 0
-306 951 0
-306 789 0
-306 881 0
-306 817 0
-306 876 0
-306 715 0
-306 685 0
-306 973 0
-306 691 0
-306 579 0
-306 704 0
-307 670 0
-307 782 0
-307 797 0
-307 753 0
-307 592 0
-307 969 0
-307 588 0
-307 875 0
-307 702 0
-307 665 0
-308 890 0
-308 957 0
-308 784 0
-308 647 0
-308 556 0
-308 817 0
-308 630 0
-308 572 0
-308 669 0
-308 707 0
-308 828 0
-309 992 0
-309 953 0
-309 876 0
-309 816 0
-309 600 0
-309 609 0
-309 807 0
-309 862 0
-309 754 0
-309 1029 0
-309 1021 0
-309 718 0
-309 560 0
-309 938 0
-309 893 0
-310 557 0
-310 1053 0
-310 657 0
-310 571 0
-310 794 0
-310 813 0
-310 559 0
-310 647 0
-310 825 0
-310 784 0
-310 958 0
-310 1006 0
-310 916 0
-310 709 0
-310 1047 0
-310 720 0
-311 1017 0
-311 924 0
-311 718 0
-311 637 0
-311 737 0
-311 945 0
-311 675 0
-311 651 0
-311 720 0
-311 949 0
-311 921 0
-311 869 0
-311 1011 0
-311 567 0
-311 586 0
-312 1041 0
-312 1007 0
-312 1057 0
-312 954 0
-312 711 0
-312 763 0
-312 738 0
-312 591 0
-312 547 0
-312 875 0
-312 1018 0
-312 881 0
-312 622 0
-312 987 0
-313 569 0
-313 927 0
-313 574 0
-313 922 0
-313 875 0
-313 895 0
-313 941 0
-313 1024 0
-313 915 0
-313 829 0
-313 579 0
-314 1021 0
-314 771 0
-314 1055 0
-314 574 0
-314 640 0
-314 676 0
-314 962 0
-314 923 0
-314 656 0
-314 1042 0
-314 607 0
-315 968 0
-315 957 0
-315 585 0
-315 566 0
-315 843 0
-315 757 0
-315 981 0
-315 1020 0
-315 944 0
-315 917 0
-315 1059 0
-316 834 0
-316 799 0
-316 737 0
-316 881 0
-316 1008 0
-316 595 0
-316 1033 0
-316 925 0
-316 687 0
-317 538 0
-317 824 0
-317 853 0
-317 728 0
-317 896 0
-317 611 0
-317 1031 0
-318 971 0
-318 876 0
-318 1027 0
-318 951 0
-318 577 0
-318 937 0
-318 559 0
-318 880 0
-318 684 0
-318 771 0
-319 960 0
-319 885 0
-319 979 0
-319 785 0
-319 957 0
-319 683 0
-319 893 0
-319 656 0
-319 627 0
-319 1032 0
-319 963 0
-319 635 0
-319 1035 0
-319 730 0
-319 720 0
-320 913 0
-320 795 0
-320 963 0
-320 868 0
-320 1053 0
-320 974 0
-320 683 0
-320 540 0
-320 897 0
-320 705 0
-320 790 0
-320 548 0
-320 648 0
-320 994 0
-320 639 0
-321 554 0
-321 556 0
-321 849 0
-321 727 0
-321 606 0
-321 584 0
-321 921 0
-321 581 0
-321 983 0
-321 911 0
-323 542 0
-323 967 0
-323 819 0
-323 706 0
-323 565 0
-323 540 0
-323 671 0
-323 630 0
-323 697 0
-323 980 0
-323 729 0
-323 1032 0
-323 649 0
-323 822 0
-324 910 0
-324 657 0
-324 551 0
-324 1044 0
-324 725 0
-324 842 0
-324 1003 0
-324 763 0
-324 889 0
-324 757 0
-324 979 0
-325 537 0
-325 576 0
-325 754 0
-325 682 0
-325 636 0
-325 650 0
-325 556 0
-326 583 0
-326 849 0
-326 784 0
-326 830 0
-326 988 0
-326 809 0
-326 985 0
-326 682 0
-326 832 0
-326 937 0
-326 884 0
-327 738 0
-327 619 0
-327 680 0
-327 693 0
-327 847 0
-327 903 0
-327 908 0
-327 639 0
-327 827 0
-327 1044 0
-327 846 0
-327 730 0
-327 1038 0
-327 767 0
-327 941 0
-327 993 0
-328 863 0
-328 542 0
-328 877 0
-328 931 0
-328 916 0
-328 584 0
-328 1034 0
-328 591 0
-329 812 0
-329 784 0
-329 617 0
-329 562 0
-329 882 0
-329 921 0
-329 733 0
-329 756 0
-329 622 0
-329 856 0
-329 594 0
-329 825 0
-330 911 0
-330 856 0
-330 806 0
-330 672 0
-330 936 0
-330 575 0
-330 638 0
-330 699 0
-330 678 0
-330 635 0
-330 566 0
-330 1048 0
-330 612 0
-330 1023 0
-331 640 0
-331 655 0
-331 1038 0
-331 847 0
-331 603 0
-332 1012 0
-332 667 0
-332 720 0
-332 595 0
-332 939 0
-332 972 0
-332 865 0
-332 571 0
-332 1032 0
-332 1023 0
-332 809 0
-332 964 0
-332 856 0
-332 678 0
-332 715 0
-332 639 0
-332 953 0
-333 589 0
-333 780 0
-333 594 0
-333 981 0
-333 953 0
-333 1009 0
-333 950 0
-333 878 0
-333 1060 0
-333 944 0
-333 614 0
-333 638 0
-334 752 0
-334 618 0
-334 1013 0
-334 577 0
-334 868 0
-334 648 0
-334 887 0
-334 784 0
-334 1018 0
-334 1055 0
-334 638 0
-334 1021 0
-335 856 0
-335 937 0
-335 753 0
-335 706 0
-335 610 0
-335 879 0
-335 754 0
-335 764 0
-335 914 0
-335 988 0
-335 913 0
-335 1033 0
-336 903 0
-336 671 0
-336 781 0
-336 567 0
-336 693 0
-336 893 0
-336 990 0
-336 610 0
-336 909 0
-336 1043 0
-336 870 0
-336 560 0
-336 946 0
-336 776 0
-336 907 0
-337 795 0
-337 891 0
-337 673 0
-337 772 0
-337 621 0
-337 641 0
-337 971 0
-337 1021 0
-337 996 0
-338 651 0
-338 944 0
-338 1055 0
-338 915 0
-338 665 0
-338 650 0
-338 560 0
-338 1044 0
-338 781 0
-338 594 0
-338 836 0
-338 689 0
-339 600 0
-339 832 0
-339 796 0
-339 923 0
-339 1036 0
-339 607 0
-339 831 0
-339 744 0
-339 771 0
-339 597 0
-339 644 0
-340 1032 0
-340 870 0
-340 689 0
-340 687 0
-340 572 0
-340 952 0
-340 918 0
-340 535 0
-340 915 0
-340 962 0
-340 1010 0
-340 560 0
-340 880 0
-340 623 0
-340 800 0
-340 680 0
-341 853 0
-341 661 0
-341 937 0
-341 963 0
-341 851 0
-341 569 0
-341 880 0
-341 909 0
-341 1005 0
-341 860 0
-341 766 0
-341 1037 0
-341 781 0
-341 623 0
-341 791 0
-341 652 0
-341 1048 0
-341 676 0
-342 983 0
-342 685 0
-342 888 0
-342 806 0
-342 833 0
-342 652 0
-342 725 0
-342 1010 0
-342 1020 0
-342 994 0
-343 987 0
-343 938 0
-343 773 0
-343 753 0
-343 1057 0
-343 564 0
-343 902 0
-343 759 0
-343 928 0
-343 847 0
-343 768 0
-343 1056 0
-343 707 0
-343 869 0
-344 885 0
-344 980 0
-344 922 0
-344 685 0
-344 664 0
-344 628 0
-344 633 0
-344 889 0
-344 905 0
-344 777 0
-344 781 0
-344 829 0
-345 672 0
-345 620 0
-345 880 0
-345 856 0
-345 907 0
-345 942 0
-345 618 0
-345 1037 0
-345 1028 0
-346 978 0
-346 972 0
-346 1036 0
-346 979 0
-346 778 0
-346 677 0
-346 933 0
-346 784 0
-346 651 0
-346 850 0
-346 751 0
-346 568 0
-346 817 0
-346 936 0
-347 784 0
-347 1031 0
-347 920 0
-347 706 0
-347 770 0
-347 760 0
-347 626 0
-347 800 0
-348 1011 0
-348 568 0
-348 746 0
-348 876 0
-348 1038 0
-348 756 0
-348 803 0
-348 1013 0
-348 639 0
-348 584 0
-348 780 0
-348 1010 0
-349 659 0
-349 726 0
-349 631 0
-349 554 0
-349 1019 0
-349 699 0
-349 828 0
-349 634 0
-349 805 0
-349 594 0
-349 573 0
-349 974 0
-350 827 0
-350 826 0
-350 791 0
-350 1036 0
-350 965 0
-350 953 0
-350 772 0
-350 1019 0
-350 555 0
-351 1059 0
-351 563 0
-351 732 0
-351 796 0
-351 1040 0
-351 887 0
-351 578 0
-351 557 0
-351 855 0
-351 587 0
-352 1061 0
-352 810 0
-352 672 0
-352 561 0
-352 571 0
-352 936 0
-352 779 0
-352 1035 0
-352 759 0
-352 995 0
-352 942 0
-352 868 0
-352 604 0
-353 849 0
-353 949 0
-353 805 0
-353 752 0
-353 652 0
-353 676 0
-353 990 0
-353 701 0
-353 616 0
-353 632 0
-353 837 0
-353 597 0
-354 855 0
-354 1050 0
-354 696 0
-354 595 0
-354 901 0
-354 1006 0
-354 1033 0
-354 827 0
-354 940 0
-354 955 0
-354 883 0
-354 617 0
-354 980 0
-355 968 0
-355 1040 0
-355 820 0
-355 739 0
-355 697 0
-355 562 0
-355 1059 0
-355 1055 0
-355 675 0
-355 838 0
-355 889 0
-355 1041 0
-356 925 0
-356 814 0
-356 833 0
-356 998 0
-356 919 0
-356 912 0
-356 1023 0
-356 735 0
-356 1045 0
-356 713 0
-356 636 0
-356 594 0
-356 592 0
-356 1025 0
-357 970 0
-357 774 0
-357 654 0
-357 539 0
-357 915 0
-357 578 0
-357 809 0
-357 700 0
-357 740 0
-357 688 0
-357 1054 0
-357 821 0
-358 888 0
-358 879 0
-358 850 0
-358 766 0
-358 799 0
-358 663 0
-358 623 0
-358 740 0
-358 586 0
-358 818 0
-358 618 0
-358 826 0
-358 968 0
-358 647 0
-359 794 0
-359 658 0
-359 599 0
-359 641 0
-359 931 0
-359 852 0
-359 720 0
-359 939 0
-359 868 0
-359 870 0
-359 878 0
-359 910 0
-360 865 0
-360 992 0
-360 922 0
-360 541 0
-360 845 0
-360 801 0
-360 903 0
-361 975 0
-361 868 0
-361 651 0
-361 552 0
-361 671 0
-361 802 0
-361 852 0
-361 762 0
-361 697 0
-361 876 0
-361 735 0
-362 799 0
-362 833 0
-362 570 0
-362 564 0
-362 562 0
-362 1012 0
-362 878 0
-362 802 0
-362 992 0
-362 773 0
-362 713 0
-363 830 0
-363 828 0
-363 583 0
-363 642 0
-363 836 0
-363 558 0
-363 546 0
-363 711 0
-363 1019 0
-363 886 0
-363 780 0
-363 821 0
-363 826 0
-363 939 0
-364 539 0
-364 954 0
-364 1034 0
-364 655 0
-364 716 0
-364 872 0
-364 617 0
-364 799 0
-364 564 0
-364 848 0
-364 1061 0
-364 905 0
-364 709 0
-364 861 0
-364 958 0
-365 601 0
-366 901 0
-366 865 0
-366 581 0
-366 824 0
-366 878 0
-366 643 0
-366 665 0
-366 891 0
-366 693 0
-367 554 0
-367 656 0
-367 790 0
-367 938 0
-367 1031 0
-367 786 0
-367 961 0
-367 795 0
-367 642 0
-367 756 0
-367 703 0
-368 837 0
-368 968 0
-368 953 0
-368 1033 0
-368 833 0
-368 706 0
-368 532 0
-368 1015 0
-368 822 0
-368 580 0
-368 588 0
-368 853 0
-368 775 0
-368 609 0
-368 1014 0
-369 995 0
-369 1057 0
-369 571 0
-369 538 0
-369 1015 0
-369 535 0
-369 940 0
-369 811 0
-369 736 0
-369 545 0
-369 827 0
-369 828 0
-370 546 0
-370 557 0
-370 987 0
-370 995 0
-370 545 0
-370 957 0
-370 843 0
-370 796 0
-370 700 0
-370 579 0
-370 1062 0
-370 769 0
-371 551 0
-371 1058 0
-371 1024 0
-371 940 0
-371 839 0
-371 778 0
-371 719 0
-371 736 0
-371 954 0
-371 813 0
-371 573 0
-372 984 0
-372 691 0
-372 546 0
-372 541 0
-372 700 0
-372 915 0
-372 913 0
-372 545 0
-373 949 0
-373 910 0
-373 1031 0
-373 804 0
-373 670 0
-373 957 0
-373 547 0
-373 772 0
-374 637 0
-374 697 0
-374 546 0
-374 1031 0
-374 990 0
-374 540 0
-374 915 0
-374 738 0
-374 817 0
-374 880 0
-374 936 0
-374 696 0
-374 568 0
-374 972 0
-374 802 0
-374 597 0
-375 1013 0
-375 821 0
-375 807 0
-375 744 0
-375 793 0
-375 846 0
-375 656 0
-375 809 0
-375 733 0
-375 587 0
-375 880 0
-375 601 0
-375 947 0
-376 855 0
-376 766 0
-376 824 0
-376 586 0
-376 645 0
-376 1016 0
-376 711 0
-376 573 0
-376 1018 0
-376 743 0
-376 723 0
-376 1008 0
-377 538 0
-377 615 0
-377 1046 0
-377 715 0
-377 612 0
-377 542 0
-377 626 0
-377 574 0
-377 799 0
-377 989 0
-378 1039 0
-378 854 0
-378 849 0
-378 881 0
-378 662 0
-378 1058 0
-378 764 0
-378 995 0
-378 550 0
-378 639 0
-379 571 0
-379 949 0
-379 713 0
-379 550 0
-379 607 0
-379 572 0
-379 697 0
-379 1012 0
-380 1010 0
-380 848 0
-380 963 0
-380 564 0
-380 951 0
-380 949 0
-380 647 0
-380 835 0
-380 729 0
-380 766 0
-380 627 0
-380 747 0
-381 938 0
-381 1006 0
-381 774 0
-381 683 0
-381 844 0
-381 717 0
-381 616 0
-381 695 0
-381 1026 0
-381 582 0
-381 652 0
-381 1048 0
-381 897 0
-382 537 0
-382 860 0
-382 857 0
-382 735 0
-382 909 0
-382 677 0
-382 877 0
-382 593 0
-382 797 0
-382 612 0
-382 694 0
-382 960 0
-383 549 0
-383 921 0
-383 564 0
-383 962 0
-383 890 0
-383 539 0
-383 738 0
-383 726 0
-383 847 0
-383 996 0
-383 591 0
-383 577 0
-383 924 0
-384 964 0
-384 921 0
-384 990 0
-384 678 0
-384 621 0
-384 768 0
-384 716 0
-384 731 0
-384 647 0
-384 874 0
-385 552 0
-385 940 0
-385 593 0
-385 1047 0
-385 797 0
-385 684 0
-385 640 0
-385 1009 0
-385 856 0
-385 873 0
-386 938 0
-386 1056 0
-386 647 0
-386 956 0
-386 919 0
-386 690 0
-386 625 0
-386 748 0
-386 648 0
-386 592 0
-386 766 0
-387 1008 0
-387 890 0
-387 867 0
-387 911 0
-387 886 0
-387 935 0
-387 836 0
-387 633 0
-387 977 0
-387 976 0
-387 776 0
-387 1028 0
-388 1027 0
-388 568 0
-388 918 0
-388 663 0
-388 820 0
-388 597 0
-388 603 0
-388 701 0
-388 555 0
-389 939 0
-389 601 0
-390 711 0
-390 716 0
-390 717 0
-390 989 0
-390 1032 0
-390 810 0
-390 909 0
-390 818 0
-390 726 0
-390 765 0
-391 601 0
-391 989 0
-391 801 0
-391 715 0
-391 612 0
-392 1033 0
-392 893 0
-392 1015 0
-392 755 0
-392 656 0
-392 884 0
-392 543 0
-392 706 0
-392 640 0
-392 1056 0
-392 1045 0
-393 541 0
-393 940 0
-393 945 0
-393 556 0
-393 573 0
-393 828 0
-393 1043 0
-393 545 0
-393 1017 0
-393 576 0
-393 666 0
-393 826 0
-393 589 0
-393 968 0
-394 1038 0
-394 746 0
-394 561 0
-394 537 0
-394 980 0
-394 1040 0
-394 792 0
-394 866 0
-394 724 0
-394 942 0
-394 635 0
-394 648 0
-394 832 0
-395 702 0
-395 722 0
-395 885 0
-395 995 0
-395 951 0
-395 773 0
-395 791 0
-395 608 0
-395 945 0
-395 597 0
-396 967 0
-396 957 0
-396 841 0
-396 947 0
-396 566 0
-396 542 0
-396 533 0
-396 940 0
-396 707 0
-396 891 0
-396 855 0
-396 800 0
-396 755 0
-397 1038 0
-397 596 0
-397 953 0
-397 899 0
-397 1046 0
-397 793 0
-397 831 0
-397 1036 0
-397 655 0
-397 1035 0
-398 799 0
-398 723 0
-398 548 0
-398 568 0
-398 889 0
-398 801 0
-398 632 0
-398 938 0
-398 788 0
-398 839 0
-399 533 0
-399 537 0
-399 542 0
-399 871 0
-399 1035 0
-399 902 0
-399 943 0
-399 716 0
-399 921 0
-399 866 0
-399 620 0
-399 710 0
-399 915 0
-400 1054 0
-400 687 0
-400 776 0
-400 784 0
-400 534 0
-400 580 0
-400 794 0
-400 678 0
-400 565 0
-400 641 0
-401 823 0
-401 747 0
-401 1011 0
-401 985 0
-401 1033 0
-401 637 0
-401 824 0
-401 624 0
-401 917 0
-401 852 0
-401 984 0
-401 999 0
-401 705 0
-401 593 0
-401 1025 0
-402 1055 0
-402 860 0
-402 678 0
-402 1038 0
-402 857 0
-402 639 0
-402 829 0
-402 950 0
-402 865 0
-402 578 0
-402 783 0
-403 740 0
-403 673 0
-403 783 0
-403 1029 0
-403 947 0
-403 938 0
-403 890 0
-403 1050 0
-403 1042 0
-403 957 0
-403 652 0
-403 946 0
-403 836 0
-403 653 0
-403 694 0
-403 998 0
-403 734 0
-404 597 0
-404 863 0
-404 961 0
-404 911 0
-404 891 0
-404 937 0
-404 910 0
-404 751 0
-404 573 0
-404 778 0
-404 540 0
-404 742 0
-404 604 0
-404 658 0
-404 882 0
-405 980 0
-405 896 0
-405 922 0
-405 859 0
-405 946 0
-405 771 0
-405 590 0
-405 941 0
-405 848 0
-405 702 0
-405 817 0
-405 646 0
-405 650 0
-405 1026 0
-406 853 0
-406 715 0
-406 615 0
-406 611 0
-406 626 0
-406 1024 0
-407 607 0
-407 750 0
-407 768 0
-407 570 0
-407 545 0
-407 1037 0
-407 824 0
-407 911 0
-407 866 0
-407 628 0
-407 737 0
-407 876 0
-407 726 0
-407 573 0
-407 868 0
-407 836 0
-407 608 0
-408 601 0
-409 943 0
-409 965 0
-409 834 0
-409 833 0
-409 619 0
-409 701 0
-409 826 0
-409 876 0
-409 662 0
-410 818 0
-410 801 0
-410 571 0
-410 757 0
-410 1038 0
-410 603 0
-410 1001 0
-410 762 0
-410 599 0
-410 636 0
-410 660 0
-411 756 0
-411 731 0
-411 1012 0
-411 787 0
-411 852 0
-411 893 0
-411 807 0
-411 699 0
-412 563 0
-412 756 0
-412 702 0
-412 541 0
-412 986 0
-412 885 0
-412 620 0
-412 703 0
-412 617 0
-412 642 0
-412 625 0
-412 916 0
-412 672 0
-412 550 0
-413 822 0
-413 657 0
-413 890 0
-413 722 0
-413 802 0
-413 858 0
-413 1052 0
-413 1001 0
-413 991 0
-413 905 0
-413 977 0
-414 820 0
-414 859 0
-414 761 0
-414 579 0
-414 956 0
-414 797 0
-414 824 0
-414 742 0
-414 687 0
-414 963 0
-414 794 0
-414 1032 0
-414 869 0
-414 678 0
-415 838 0
-415 562 0
-415 734 0
-415 640 0
-415 563 0
-415 619 0
-415 949 0
-415 829 0
-415 693 0
-415 1027 0
-415 986 0
-415 667 0
-416 591 0
-416 926 0
-416 922 0
-416 1019 0
-416 1028 0
-416 1004 0
-416 681 0
-416 774 0
-416 804 0
-416 963 0
-416 835 0
-416 730 0
-416 873 0
-416 597 0
-416 840 0
-417 1013 0
-417 914 0
-417 828 0
-417 661 0
-417 539 0
-417 842 0
-417 690 0
-417 662 0
-417 1020 0
-417 802 0
-418 987 0
-418 988 0
-418 865 0
-418 823 0
-418 782 0
-418 670 0
-418 792 0
-418 621 0
-418 593 0
-418 738 0
-418 930 0
-418 1029 0
-419 978 0
-419 888 0
-419 687 0
-419 579 0
-419 534 0
-419 743 0
-419 709 0
-419 772 0
-419 608 0
-419 1033 0
-419 1013 0
-419 857 0
-420 947 0
-420 1011 0
-420 826 0
-420 759 0
-420 1000 0
-420 822 0
-420 606 0
-420 735 0
-420 695 0
-420 618 0
-420 927 0
-421 923 0
-421 714 0
-421 862 0
-421 845 0
-421 639 0
-421 773 0
-421 799 0
-421 855 0
-421 893 0
-421 687 0
-421 767 0
-421 730 0
-421 789 0
-422 902 0
-422 816 0
-422 739 0
-422 700 0
-422 717 0
-422 920 0
-422 742 0
-422 1035 0
-422 1031 0
-422 533 0
-422 603 0
-422 852 0
-422 885 0
-423 1014 0
-423 659 0
-423 559 0
-423 563 0
-423 554 0
-423 1005 0
-423 610 0
-423 852 0
-423 823 0
-423 1023 0
-424 1062 0
-424 687 0
-424 668 0
-424 770 0
-424 808 0
-424 841 0
-424 541 0
-424 971 0
-424 1023 0
-424 906 0
-424 861 0
-424 1000 0
-424 921 0
-424 1007 0
-425 897 0
-425 733 0
-425 609 0
-425 669 0
-425 693 0
-425 979 0
-425 1027 0
-425 674 0
-425 795 0
-425 868 0
-425 647 0
-425 654 0
-425 809 0
-425 785 0
-425 932 0
-425 581 0
-426 870 0
-426 987 0
-426 940 0
-426 1055 0
-426 796 0
-426 720 0
-426 552 0
-427 556 0
-427 770 0
-427 675 0
-427 769 0
-427 698 0
-427 545 0
-427 629 0
-427 546 0
-427 909 0
-427 1051 0
-428 815 0
-428 849 0
-428 868 0
-428 787 0
-428 669 0
-428 866 0
-428 770 0
-428 933 0
-428 777 0
-428 971 0
-428 1027 0
-428 952 0
-428 883 0
-428 746 0
-429 570 0
-429 735 0
-429 639 0
-429 933 0
-429 888 0
-429 575 0
-429 904 0
-429 921 0
-429 965 0
-429 935 0
-429 917 0
-429 563 0
-429 1024 0
-429 695 0
-429 648 0
-430 553 0
-430 732 0
-430 787 0
-430 782 0
-430 694 0
-430 999 0
-430 890 0
-430 855 0
-430 568 0
-430 545 0
-430 817 0
-431 981 0
-431 583 0
-431 567 0
-431 799 0
-431 824 0
-431 690 0
-431 809 0
-431 724 0
-431 640 0
-431 547 0
-431 631 0
-431 704 0
-431 781 0
-432 865 0
-432 657 0
-432 825 0
-432 548 0
-432 715 0
-432 696 0
-432 656 0
-432 610 0
-432 900 0
-432 542 0
-432 1035 0
-433 641 0
-433 575 0
-433 952 0
-433 998 0
-433 819 0
-433 901 0
-433 654 0
-434 543 0
-434 951 0
-434 651 0
-434 567 0
-434 535 0
-434 915 0
-434 690 0
-434 930 0
-434 788 0
-434 580 0
-434 573 0
-435 865 0
-435 808 0
-435 911 0
-435 910 0
-435 982 0
-435 903 0
-435 674 0
-435 606 0
-435 809 0
-435 593 0
-435 769 0
-435 839 0
-435 845 0
-435 624 0
-435 862 0
-435 711 0
-436 653 0
-436 1022 0
-436 1009 0
-436 997 0
-436 975 0
-436 685 0
-436 1054 0
-436 634 0
-436 846 0
-436 806 0
-436 554 0
-436 894 0
-436 771 0
-436 679 0
-436 891 0
-437 1047 0
-437 870 0
-437 670 0
-437 861 0
-437 883 0
-437 824 0
-437 938 0
-437 847 0
-437 688 0
-438 909 0
-438 855 0
-438 731 0
-438 1008 0
-438 908 0
-438 983 0
-438 911 0
-438 887 0
-438 681 0
-438 846 0
-438 585 0
-438 776 0
-438 683 0
-438 816 0
-438 703 0
-438 732 0
-438 1028 0
-438 552 0
-439 755 0
-439 879 0
-439 846 0
-439 546 0
-439 756 0
-439 636 0
-439 763 0
-439 536 0
-439 882 0
-439 792 0
-439 722 0
-439 971 0
-439 784 0
-440 601 0
-440 801 0
-440 800 0
-441 982 0
-441 1036 0
-441 968 0
-441 1037 0
-441 776 0
-441 840 0
-441 993 0
-441 855 0
-441 607 0
-441 1018 0
-441 836 0
-441 1007 0
-441 889 0
-441 599 0
-442 869 0
-442 719 0
-442 924 0
-442 922 0
-442 903 0
-442 746 0
-442 801 0
-442 891 0
-442 1053 0
-442 557 0
-442 956 0
-442 1027 0
-442 789 0
-442 676 0
-443 1019 0
-443 739 0
-443 697 0
-443 638 0
-443 561 0
-443 709 0
-443 966 0
-443 909 0
-443 859 0
-443 831 0
-443 897 0
-443 964 0
-443 652 0
-444 593 0
-444 1035 0
-444 562 0
-444 826 0
-444 978 0
-444 985 0
-444 769 0
-444 904 0
-444 878 0
-444 706 0
-444 724 0
-444 620 0
-444 585 0
-445 970 0
-445 769 0
-445 950 0
-445 764 0
-445 691 0
-445 903 0
-445 826 0
-445 705 0
-445 602 0
-445 795 0
-445 954 0
-445 570 0
-445 613 0
-445 592 0
-446 564 0
-446 675 0
-446 669 0
-446 634 0
-446 925 0
-446 731 0
-446 825 0
-446 687 0
-446 971 0
-446 714 0
-446 673 0
-447 1018 0
-447 1047 0
-447 959 0
-447 1058 0
-447 797 0
-447 635 0
-447 839 0
-447 878 0
-447 1039 0
-447 790 0
-448 938 0
-448 791 0
-448 941 0
-448 539 0
-448 861 0
-448 885 0
-448 648 0
-448 849 0
-448 638 0
-448 597 0
-448 812 0
-449 549 0
-449 971 0
-449 974 0
-449 873 0
-449 548 0
-449 934 0
-449 651 0
-449 667 0
-449 866 0
-449 920 0
-449 690 0
-449 981 0
-450 548 0
-450 940 0
-450 604 0
-450 1009 0
-450 1033 0
-450 961 0
-450 951 0
-450 746 0
-450 984 0
-450 1044 0
-450 686 0
-450 715 0
-451 817 0
-451 652 0
-451 673 0
-451 991 0
-451 924 0
-451 550 0
-451 950 0
-451 774 0
-451 957 0
-451 646 0
-451 810 0
-451 672 0
-451 821 0
-451 574 0
-452 843 0
-452 879 0
-452 672 0
-452 637 0
-452 1004 0
-452 534 0
-452 923 0
-452 752 0
-452 837 0
-452 719 0
-452 727 0
-453 565 0
-453 690 0
-453 800 0
-453 592 0
-453 1052 0
-453 1046 0
-453 853 0
-453 712 0
-453 675 0
-453 1036 0
-453 1058 0
-454 841 0
-454 925 0
-454 879 0
-454 628 0
-454 681 0
-454 817 0
-454 624 0
-454 641 0
-454 829 0
-454 615 0
-454 816 0
-454 865 0
-454 639 0
-455 839 0
-455 714 0
-455 688 0
-455 1016 0
-455 934 0
-455 1038 0
-455 837 0
-455 924 0
-455 544 0
-455 825 0
-455 920 0
-455 879 0
-455 931 0
-456 878 0
-456 922 0
-456 890 0
-456 911 0
-456 741 0
-456 744 0
-456 1012 0
-456 814 0
-456 615 0
-457 600 0
-457 546 0
-457 539 0
-457 897 0
-457 783 0
-457 615 0
-457 545 0
-457 785 0
-457 549 0
-457 998 0
-457 643 0
-457 984 0
-457 730 0
-457 771 0
-459 978 0
-459 970 0
-459 683 0
-459 898 0
-459 809 0
-459 776 0
-459 735 0
-459 758 0
-459 582 0
-459 765 0
-460 779 0
-460 880 0
-460 693 0
-460 707 0
-460 816 0
-460 941 0
-460 868 0
-460 680 0
-460 928 0
-460 560 0
-460 675 0
-461 823 0
-461 935 0
-461 830 0
-461 654 0
-461 703 0
-461 852 0
-461 541 0
-461 559 0
-461 803 0
-461 570 0
-461 796 0
-461 606 0
-461 754 0
-461 934 0
-461 596 0
-461 561 0
-462 913 0
-462 821 0
-462 654 0
-462 633 0
-462 971 0
-462 707 0
-462 624 0
-462 768 0
-462 623 0
-462 542 0
-462 588 0
-462 911 0
-462 765 0
-462 573 0
-463 559 0
-463 653 0
-463 695 0
-463 1023 0
-463 1047 0
-463 977 0
-463 648 0
-463 774 0
-463 905 0
-463 833 0
-463 583 0
-463 1033 0
-463 680 0
-464 876 0
-464 785 0
-464 1003 0
-464 720 0
-464 994 0
-464 547 0
-464 905 0
-464 599 0
-465 977 0
-465 774 0
-465 550 0
-465 727 0
-465 1012 0
-465 897 0
-465 971 0
-465 669 0
-465 630 0
-465 657 0
-465 612 0
-465 579 0
-465 701 0
-465 893 0
-466 750 0
-466 852 0
-466 857 0
-466 781 0
-466 696 0
-466 988 0
-466 729 0
-466 608 0
-466 844 0
-466 948 0
-466 937 0
-466 763 0
-466 814 0
-466 923 0
-466 785 0
-466 1030 0
-467 974 0
-467 914 0
-467 755 0
-467 1011 0
-467 605 0
-467 690 0
-467 618 0
-467 636 0
-467 634 0
-468 873 0
-468 981 0
-468 614 0
-468 583 0
-468 550 0
-468 909 0
-468 551 0
-468 639 0
-468 1029 0
-468 779 0
-469 689 0
-469 726 0
-469 989 0
-469 638 0
-469 536 0
-469 868 0
-469 887 0
-469 770 0
-469 619 0
-469 787 0
-469 963 0
-469 595 0
-469 722 0
-469 695 0
-469 546 0
-469 702 0
-469 1023 0
-470 675 0
-470 698 0
-470 618 0
-470 1032 0
-470 1028 0
-470 790 0
-470 1002 0
-470 658 0
-470 734 0
-470 929 0
-470 726 0
-470 822 0
-470 644 0
-470 815 0
-470 700 0
-471 879 0
-471 1061 0
-471 617 0
-471 565 0
-471 1028 0
-471 894 0
-471 760 0
-471 660 0
-471 741 0
-471 884 0
-471 594 0
-471 546 0
-471 809 0
-472 769 0
-472 773 0
-472 579 0
-472 870 0
-472 569 0
-472 609 0
-472 663 0
-472 809 0
-472 999 0
-472 833 0
-472 636 0
-472 598 0
-472 957 0
-473 848 0
-473 728 0
-473 791 0
-473 1056 0
-473 698 0
-473 538 0
-473 1024 0
-474 950 0
-474 739 0
-474 1031 0
-474 958 0
-474 832 0
-474 703 0
-474 545 0
-474 577 0
-474 855 0
-474 1024 0
-475 542 0
-475 1036 0
-475 808 0
-475 578 0
-475 781 0
-475 957 0
-475 983 0
-475 886 0
-475 690 0
-475 990 0
-475 769 0
-475 669 0
-475 722 0
-475 856 0
-475 813 0
-476 910 0
-476 1004 0
-476 814 0
-476 548 0
-476 822 0
-476 900 0
-476 991 0
-476 553 0
-476 570 0
-476 1056 0
-476 1035 0
-477 627 0
-477 696 0
-477 727 0
-477 652 0
-477 693 0
-477 934 0
-477 829 0
-477 584 0
-477 1057 0
-477 628 0
-477 624 0
-477 578 0
-477 941 0
-477 576 0
-478 701 0
-478 719 0
-478 547 0
-478 921 0
-478 732 0
-478 950 0
-478 941 0
-478 766 0
-478 756 0
-478 545 0
-479 945 0
-479 900 0
-479 1030 0
-479 933 0
-479 901 0
-479 980 0
-479 961 0
-479 850 0
-479 1041 0
-479 785 0
-479 897 0
-479 774 0
-479 905 0
-479 1050 0
-479 697 0
-480 1036 0
-480 730 0
-480 818 0
-480 776 0
-480 836 0
-480 552 0
-480 538 0
-480 927 0
-480 805 0
-480 706 0
-480 661 0
-480 1010 0
-480 575 0
-480 710 0
-481 865 0
-481 837 0
-481 861 0
-481 571 0
-481 878 0
-481 903 0
-481 544 0
-481 623 0
-481 931 0
-482 817 0
-482 680 0
-482 968 0
-482 994 0
-482 798 0
-482 840 0
-482 764 0
-482 543 0
-482 656 0
-482 587 0
-482 928 0
-483 979 0
-483 836 0
-483 1053 0
-483 703 0
-483 750 0
-483 920 0
-483 767 0
-483 707 0
-483 802 0
-483 935 0
-483 794 0
-484 913 0
-484 1014 0
-484 715 0
-484 854 0
-484 1031 0
-484 792 0
-484 708 0
-484 667 0
-484 902 0
-484 889 0
-484 722 0
-484 682 0
-484 601 0
-484 595 0
-484 573 0
-484 947 0
-484 548 0
-484 649 0
-485 725 0
-485 792 0
-485 634 0
-485 652 0
-485 715 0
-485 701 0
-485 615 0
-485 772 0
-485 723 0
-485 822 0
-485 960 0
-485 845 0
-485 588 0
-486 943 0
-486 728 0
-486 753 0
-486 1032 0
-486 541 0
-486 671 0
-486 821 0
-486 845 0
-486 992 0
-486 899 0
-486 739 0
-486 862 0
-486 884 0
-486 665 0
-486 792 0
-486 782 0
-486 846 0
-487 535 0
-487 540 0
-487 966 0
-487 869 0
-487 862 0
-487 1041 0
-487 759 0
-487 854 0
-487 715 0
-487 765 0
-487 945 0
-487 691 0
-488 570 0
-488 762 0
-488 612 0
-488 594 0
-488 852 0
-488 693 0
-488 758 0
-488 868 0
-488 856 0
-488 672 0
-488 589 0
-488 747 0
-488 572 0
-488 827 0
-489 1048 0
-489 1038 0
-489 839 0
-489 804 0
-489 810 0
-489 746 0
-489 851 0
-489 882 0
-489 774 0
-489 1021 0
-489 905 0
-489 1015 0
-489 892 0
-490 993 0
-490 702 0
-490 1052 0
-490 543 0
-490 918 0
-490 849 0
-490 773 0
-490 902 0
-490 1016 0
-490 559 0
-490 756 0
-490 860 0
-490 776 0
-490 928 0
-490 790 0
-491 690 0
-491 632 0
-491 636 0
-491 601 0
-491 1047 0
-491 741 0
-491 757 0
-491 714 0
-491 799 0
-491 700 0
-491 807 0
-491 934 0
-492 636 0
-492 587 0
-492 547 0
-492 942 0
-492 934 0
-492 1040 0
-492 1034 0
-492 1045 0
-492 859 0
-492 924 0
-492 581 0
-492 929 0
-493 896 0
-494 686 0
-494 857 0
-494 820 0
-494 808 0
-494 666 0
-494 814 0
-494 639 0
-494 1026 0
-494 1055 0
-494 884 0
-494 1036 0
-494 721 0
-494 572 0
-495 559 0
-495 630 0
-495 900 0
-495 667 0
-495 729 0
-495 747 0
-495 947 0
-495 749 0
-495 1057 0
-495 687 0
-495 1052 0
-495 532 0
-495 1022 0
-496 682 0
-496 762 0
-496 655 0
-496 1026 0
-496 975 0
-496 926 0
-496 1039 0
-496 1033 0
-496 999 0
-496 706 0
-496 662 0
-496 703 0
-496 711 0
-496 610 0
-497 536 0
-497 845 0
-497 714 0
-497 984 0
-497 901 0
-497 858 0
-497 888 0
-497 985 0
-497 761 0
-497 743 0
-497 1059 0
-497 596 0
-497 1035 0
-497 555 0
-498 1022 0
-498 956 0
-498 978 0
-498 837 0
-498 1041 0
-498 790 0
-498 925 0
-498 961 0
-498 569 0
-498 830 0
-499 923 0
-499 656 0
-499 772 0
-499 702 0
-499 606 0
-499 818 0
-499 724 0
-499 974 0
-499 785 0
-499 743 0
-499 647 0
-500 920 0
-500 596 0
-500 706 0
-501 835 0
-501 533 0
-501 695 0
-501 577 0
-501 1039 0
-501 910 0
-501 631 0
-501 783 0
-502 638 0
-502 579 0
-502 539 0
-502 832 0
-502 913 0
-502 706 0
-502 695 0
-502 770 0
-502 698 0
-502 648 0
-503 1050 0
-503 1045 0
-503 1029 0
-503 942 0
-503 744 0
-503 903 0
-503 642 0
-503 800 0
-503 667 0
-503 534 0
-503 877 0
-503 993 0
-503 634 0
-503 536 0
-503 660 0
-504 603 0
-504 716 0
-504 1045 0
-504 1019 0
-504 1013 0
-504 895 0
-504 732 0
-504 736 0
-504 918 0
-504 984 0
-504 633 0
-505 826 0
-505 891 0
-505 749 0
-505 861 0
-505 685 0
-505 621 0
-505 722 0
-505 803 0
-505 1054 0
-506 1046 0
-506 989 0
-506 803 0
-506 834 0
-506 929 0
-506 557 0
-506 968 0
-506 724 0
-506 641 0
-506 748 0
-506 539 0
-506 693 0
-506 647 0
-506 829 0
-507 904 0
-507 1057 0
-507 686 0
-507 726 0
-507 621 0
-507 557 0
-508 942 0
-508 904 0
-508 808 0
-508 689 0
-508 963 0
-508 1028 0
-508 614 0
-508 809 0
-508 842 0
-508 887 0
-508 570 0
-508 664 0
-508 1020 0
-509 815 0
-509 961 0
-509 583 0
-509 600 0
-509 856 0
-509 912 0
-509 851 0
-509 1021 0
-509 655 0
-509 648 0
-509 713 0
-509 906 0
-509 652 0
-510 902 0
-510 734 0
-510 554 0
-510 890 0
-510 748 0
-510 892 0
-510 594 0
-510 1039 0
-510 816 0
-510 545 0
-510 652 0
-511 940 0
-511 872 0
-511 682 0
-511 711 0
-511 852 0
-511 678 0
-511 757 0
-511 620 0
-511 743 0
-511 801 0
-512 533 0
-512 875 0
-512 577 0
-512 1046 0
-512 1041 0
-512 718 0
-512 825 0
-512 750 0
-512 852 0
-512 1004 0
-512 564 0
-513 696 0
-513 821 0
-513 983 0
-513 797 0
-513 998 0
-513 795 0
-513 848 0
-513 1008 0
-514 850 0
-514 639 0
-514 623 0
-514 1058 0
-514 905 0
-514 924 0
-514 629 0
-514 968 0
-514 642 0
-514 780 0
-514 1047 0
-514 1042 0
-514 891 0
-514 694 0
-514 617 0
-515 612 0
-515 574 0
-516 545 0
-516 815 0
-516 808 0
-516 744 0
-516 923 0
-516 805 0
-516 593 0
-516 559 0
-516 708 0
-516 691 0
-516 657 0
-516 638 0
-516 660 0
-517 1038 0
-517 979 0
-517 759 0
-517 647 0
-517 772 0
-517 769 0
-517 585 0
-517 1009 0
-517 644 0
-517 550 0
-517 732 0
-517 724 0
-518 682 0
-518 917 0
-518 1033 0
-518 826 0
-518 919 0
-518 975 0
-518 782 0
-518 607 0
-518 1055 0
-518 638 0
-518 868 0
-518 697 0
-518 964 0
-518 940 0
-519 990 0
-519 945 0
-519 952 0
-519 942 0
-519 1038 0
-519 813 0
-519 960 0
-519 861 0
-519 832 0
-520 571 0
-520 554 0
-520 1007 0
-520 996 0
-520 857 0
-520 995 0
-520 1052 0
-520 606 0
-520 1042 0
-520 623 0
-520 816 0
-520 819 0
-520 588 0
-520 733 0
-521 534 0
-521 624 0
-521 645 0
-521 733 0
-521 1025 0
-521 911 0
-521 948 0
-521 778 0
-521 815 0
-521 684 0
-521 687 0
-521 625 0
-522 692 0
-522 645 0
-522 1044 0
-522 979 0
-522 572 0
-522 741 0
-522 647 0
-522 635 0
-522 602 0
-522 904 0
-522 681 0
-522 774 0
-523 673 0
-523 560 0
-523 991 0
-523 986 0
-523 791 0
-523 1053 0
-523 649 0
-523 640 0
-523 631 0
-523 617 0
-523 598 0
-523 669 0
-523 960 0
-523 628 0
-523 908 0
-523 792 0
-523 747 0
-524 983 0
-524 856 0
-524 734 0
-524 796 0
-524 903 0
-524 1056 0
-524 804 0
-524 618 0
-524 732 0
-525 612 0
-525 971 0
-525 601 0
-525 770 0
-525 799 0
-525 896 0
-526 713 0
-526 1037 0
-526 1061 0
-526 1036 0
-526 561 0
-526 941 0
-526 718 0
-526 566 0
-526 532 0
-526 686 0
-526 954 0
-527 758 0
-527 580 0
-527 602 0
-527 841 0
-527 769 0
-527 888 0
-527 1053 0
-527 820 0
-527 786 0
-527 808 0
-527 777 0
-528 710 0
-528 634 0
-528 947 0
-528 549 0
-528 541 0
-528 678 0
-528 845 0
-528 1002 0
-528 618 0
-528 596 0
-528 571 0
-529 798 0
-529 713 0
-529 802 0
-529 1051 0
-529 934 0
-529 978 0
-529 922 0
-529 998 0
-529 787 0
-529 670 0
-529 890 0
-529 956 0
-529 829 0
-529 770 0
-529 756 0
-530 627 0
-530 603 0
-530 1027 0
-530 974 0
-530 917 0
-530 854 0
-530 703 0
-530 721 0
-530 838 0
-530 869 0
-530 572 0
-530 559 0
-530 564 0
-530 976 0
-530 770 0
-530 920 0
-530 555 0
-531 680 0
-531 653 0
-531 612 0
-531 984 0
-531 960 0
-531 978 0
-531 980 0
-531 851 0
-531 1059 0
-531 1033 0
-531 948 0
-531 858 0
-531 900 0
-531 1038 0
-531 777 0
-531 832 0
-531 1052 0
-531 991 0
149 0
