p cnf 460 8655
1 2 3 4 5 6 7 8 9 10 11 12 13 14 15 16 17 0
18 19 20 21 22 23 24 25 26 27 28 29 30 31 32 33 34 0
35 36 37 38 39 40 41 42 43 44 45 46 47 48 49 50 51 0
52 53 54 55 56 57 58 59 60 61 62 63 64 65 66 67 68 0
69 70 71 72 73 74 75 76 77 78 79 80 81 82 83 84 85 0
86 87 88 89 90 91 92 93 94 95 96 97 98 99 100 101 102 0
103 104 105 106 107 108 109 110 111 112 113 114 115 116 117 118 119 0
120 121 122 123 124 125 126 127 128 129 130 131 132 133 134 135 136 0
137 138 139 140 141 142 143 144 145 146 147 148 149 150 151 152 153 0
154 155 156 157 158 159 160 161 162 163 164 165 166 167 168 169 170 0
171 172 173 174 175 176 177 178 179 180 181 182 183 184 185 186 187 0
188 189 190 191 192 193 194 195 196 197 198 199 200 201 202 203 204 0
205 206 207 208 209 210 211 212 213 214 215 216 217 218 219 220 221 0
222 223 224 225 226 227 228 229 230 231 232 233 234 235 236 237 238 0
239 240 241 242 243 244 245 246 247 248 249 250 251 252 253 254 255 0
256 257 258 259 260 261 262 263 264 265 266 267 268 269 270 271 272 0
273 274 275 276 277 278 279 280 281 282 283 284 285 286 287 288 289 0
290 291 292 293 294 295 296 297 298 299 300 301 302 303 304 305 306 0
-1 -18 0
-1 -35 0
-1 -52 0
-1 -69 0
-1 -86 0
-1 -103 0
-1 -120 0
-1 -137 0
-1 -154 0
-1 -171 0
-1 -188 0
-1 -205 0
-1 -222 0
-1 -239 0
-1 -256 0
-1 -273 0
-1 -290 0
-18 -35 0
-18 -52 0
-18 -69 0
-18 -86 0
-18 -103 0
-18 -120 0
-18 -137 0
-18 -154 0
-18 -171 0
-18 -188 0
-18 -205 0
-18 -222 0
-18 -239 0
-18 -256 0
-18 -273 0
-18 -290 0
-35 -52 0
-35 -69 0
-35 -86 0
-35 -103 0
-35 -120 0
-35 -137 0
-35 -154 0
-35 -171 0
-35 -188 0
-35 -205 0
-35 -222 0
-35 -239 0
-35 -256 0
-35 -273 0
-35 -290 0
-52 -69 0
-52 -86 0
-52 -103 0
-52 -120 0
-52 -137 0
-52 -154 0
-52 -171 0
-52 -188 0
-52 -205 0
-52 -222 0
-52 -239 0
-52 -256 0
-52 -273 0
-52 -290 0
-69 -86 0
-69 -103 0
-69 -120 0
-69 -137 0
-69 -154 0
-69 -171 0
-69 -188 0
-69 -205 0
-69 -222 0
-69 -239 0
-69 -256 0
-69 -273 0
-69 -290 0
-86 -103 0
-86 -120 0
-86 -137 0
-86 -154 0
-86 -171 0
-86 -188 0
-86 -205 0
-86 -222 0
-86 -239 0
-86 -256 0
-86 -273 0
-86 -290 0
-103 -120 0
-103 -137 0
-103 -154 0
-103 -171 0
-103 -188 0
-103 -205 0
-103 -222 0
-103 -239 0
-103 -256 0
-103 -273 0
-103 -290 0
-120 -137 0
-120 -154 0
-120 -171 0
-120 -188 0
-120 -205 0
-120 -222 0
-120 -239 0
-120 -256 0
-120 -273 0
-120 -290 0
-137 -154 0
-137 -171 0
-137 -188 0
-137 -205 0
-137 -222 0
-137 -239 0
-137 -256 0
-137 -273 0
-137 -290 0
-154 -171 0
-154 -188 0
-154 -205 0
-154 -222 0
-154 -239 0
-154 -256 0
-154 -273 0
-154 -290 0
-171 -188 0
-171 -205 0
-171 -222 0
-171 -239 0
-171 -256 0
-171 -273 0
-171 -290 0
-188 -205 0
-188 -222 0
-188 -239 0
-188 -256 0
-188 -273 0
-188 -290 0
-205 -222 0
-205 -239 0
-205 -256 0
-205 -273 0
-205 -290 0
-222 -239 0
-222 -256 0
-222 -273 0
-222 -290 0
-239 -256 0
-239 -273 0
-239 -290 0
-256 -273 0
-256 -290 0
-273 -290 0
-2 -19 0
-2 -36 0
-2 -53 0
-2 -70 0
-2 -87 0
-2 -104 0
-2 -121 0
-2 -138 0
-2 -155 0
-2 -172 0
-2 -189 0
-2 -206 0
-2 -223 0
-2 -240 0
-2 -257 0
-2 -274 0
-2 -291 0
-19 -36 0
-19 -53 0
-19 -70 0
-19 -87 0
-19 -104 0
-19 -121 0
-19 -138 0
-19 -155 0
-19 -172 0
-19 -189 0
-19 -206 0
-19 -223 0
-19 -240 0
-19 -257 0
-19 -274 0
-19 -291 0
-36 -53 0
-36 -70 0
-36 -87 0
-36 -104 0
-36 -121 0
-36 -138 0
-36 -155 0
-36 -172 0
-36 -189 0
-36 -206 0
-36 -223 0
-36 -240 0
-36 -257 0
-36 -274 0
-36 -291 0
-53 -70 0
-53 -87 0
-53 -104 0
-53 -121 0
-53 -138 0
-53 -155 0
-53 -172 0
-53 -189 0
-53 -206 0
-53 -223 0
-53 -240 0
-53 -257 0
-53 -274 0
-53 -291 0
-70 -87 0
-70 -104 0
-70 -121 0
-70 -138 0
-70 -155 0
-70 -172 0
-70 -189 0
-70 -206 0
-70 -223 0
-70 -240 0
-70 -257 0
-70 -274 0
-70 -291 0
-87 -104 0
-87 -121 0
-87 -138 0
-87 -155 0
-87 -172 0
-87 -189 0
-87 -206 0
-87 -223 0
-87 -240 0
-87 -257 0
-87 -274 0
-87 -291 0
-104 -121 0
-104 -138 0
-104 -155 0
-104 -172 0
-104 -189 0
-104 -206 0
-104 -223 0
-104 -240 0
-104 -257 0
-104 -274 0
-104 -291 0
-121 -138 0
-121 -155 0
-121 -172 0
-121 -189 0
-121 -206 0
-121 -223 0
-121 -240 0
-121 -257 0
-121 -274 0
-121 -291 0
-138 -155 0
-138 -172 0
-138 -189 0
-138 -206 0
-138 -223 0
-138 -240 0
-138 -257 0
-138 -274 0
-138 -291 0
-155 -172 0
-155 -189 0
-155 -206 0
-155 -223 0
-155 -240 0
-155 -257 0
-155 -274 0
-155 -291 0
-172 -189 0
-172 -206 0
-172 -223 0
-172 -240 0
-172 -257 0
-172 -274 0
-172 -291 0
-189 -206 0
-189 -223 0
-189 -240 0
-189 -257 0
-189 -274 0
-189 -291 0
-206 -223 0
-206 -240 0
-206 -257 0
-206 -274 0
-206 -291 0
-223 -240 0
-223 -257 0
-223 -274 0
-223 -291 0
-240 -257 0
-240 -274 0
-240 -291 0
-257 -274 0
-257 -291 0
-274 -291 0
-3 -20 0
-3 -37 0
-3 -307 0
-20 -37 0
-20 -307 0
-37 -307 0
307 -54 0
307 -71 0
307 -308 0
-54 -71 0
-54 -308 0
-71 -308 0
308 -88 0
308 -105 0
308 -309 0
-88 -105 0
-88 -309 0
-105 -309 0
309 -122 0
309 -139 0
309 -310 0
-122 -139 0
-122 -310 0
-139 -310 0
310 -156 0
310 -173 0
310 -311 0
-156 -173 0
-156 -311 0
-173 -311 0
311 -190 0
311 -207 0
311 -312 0
-190 -207 0
-190 -312 0
-207 -312 0
312 -224 0
312 -241 0
312 -313 0
-224 -241 0
-224 -313 0
-241 -313 0
313 -258 0
313 -275 0
313 -292 0
-258 -275 0
-258 -292 0
-275 -292 0
-4 314 0
-21 315 0
-21 -314 0
-314 315 0
-38 316 0
-38 -315 0
-315 316 0
-55 317 0
-55 -316 0
-316 317 0
-72 318 0
-72 -317 0
-317 318 0
-89 319 0
-89 -318 0
-318 319 0
-106 320 0
-106 -319 0
-319 320 0
-123 321 0
-123 -320 0
-320 321 0
-140 322 0
-140 -321 0
-321 322 0
-157 323 0
-157 -322 0
-322 323 0
-174 324 0
-174 -323 0
-323 324 0
-191 325 0
-191 -324 0
-324 325 0
-208 326 0
-208 -325 0
-325 326 0
-225 327 0
-225 -326 0
-326 327 0
-242 328 0
-242 -327 0
-327 328 0
-259 329 0
-259 -328 0
-328 329 0
-276 330 0
-276 -329 0
-329 330 0
-293 -330 0
-5 331 0
-22 332 0
-22 -331 0
-331 332 0
-39 333 0
-39 -332 0
-332 333 0
-56 334 0
-56 -333 0
-333 334 0
-73 335 0
-73 -334 0
-334 335 0
-90 336 0
-90 -335 0
-335 336 0
-107 337 0
-107 -336 0
-336 337 0
-124 338 0
-124 -337 0
-337 338 0
-141 339 0
-141 -338 0
-338 339 0
-158 340 0
-158 -339 0
-339 340 0
-175 341 0
-175 -340 0
-340 341 0
-192 342 0
-192 -341 0
-341 342 0
-209 343 0
-209 -342 0
-342 343 0
-226 344 0
-226 -343 0
-343 344 0
-243 345 0
-243 -344 0
-344 345 0
-260 346 0
-260 -345 0
-345 346 0
-277 347 0
-277 -346 0
-346 347 0
-294 -347 0
-6 -23 0
-6 -40 0
-6 -57 0
-6 -74 0
-6 -91 0
-6 -108 0
-6 -125 0
-6 -142 0
-6 -159 0
-6 -176 0
-6 -193 0
-6 -210 0
-6 -227 0
-6 -244 0
-6 -261 0
-6 -278 0
-6 -295 0
-23 -40 0
-23 -57 0
-23 -74 0
-23 -91 0
-23 -108 0
-23 -125 0
-23 -142 0
-23 -159 0
-23 -176 0
-23 -193 0
-23 -210 0
-23 -227 0
-23 -244 0
-23 -261 0
-23 -278 0
-23 -295 0
-40 -57 0
-40 -74 0
-40 -91 0
-40 -108 0
-40 -125 0
-40 -142 0
-40 -159 0
-40 -176 0
-40 -193 0
-40 -210 0
-40 -227 0
-40 -244 0
-40 -261 0
-40 -278 0
-40 -295 0
-57 -74 0
-57 -91 0
-57 -108 0
-57 -125 0
-57 -142 0
-57 -159 0
-57 -176 0
-57 -193 0
-57 -210 0
-57 -227 0
-57 -244 0
-57 -261 0
-57 -278 0
-57 -295 0
-74 -91 0
-74 -108 0
-74 -125 0
-74 -142 0
-74 -159 0
-74 -176 0
-74 -193 0
-74 -210 0
-74 -227 0
-74 -244 0
-74 -261 0
-74 -278 0
-74 -295 0
-91 -108 0
-91 -125 0
-91 -142 0
-91 -159 0
-91 -176 0
-91 -193 0
-91 -210 0
-91 -227 0
-91 -244 0
-91 -261 0
-91 -278 0
-91 -295 0
-108 -125 0
-108 -142 0
-108 -159 0
-108 -176 0
-108 -193 0
-108 -210 0
-108 -227 0
-108 -244 0
-108 -261 0
-108 -278 0
-108 -295 0
-125 -142 0
-125 -159 0
-125 -176 0
-125 -193 0
-125 -210 0
-125 -227 0
-125 -244 0
-125 -261 0
-125 -278 0
-125 -295 0
-142 -159 0
-142 -176 0
-142 -193 0
-142 -210 0
-142 -227 0
-142 -244 0
-142 -261 0
-142 -278 0
-142 -295 0
-159 -176 0
-159 -193 0
-159 -210 0
-159 -227 0
-159 -244 0
-159 -261 0
-159 -278 0
-159 -295 0
-176 -193 0
-176 -210 0
-176 -227 0
-176 -244 0
-176 -261 0
-176 -278 0
-176 -295 0
-193 -210 0
-193 -227 0
-193 -244 0
-193 -261 0
-193 -278 0
-193 -295 0
-210 -227 0
-210 -244 0
-210 -261 0
-210 -278 0
-210 -295 0
-227 -244 0
-227 -261 0
-227 -278 0
-227 -295 0
-244 -261 0
-244 -278 0
-244 -295 0
-261 -278 0
-261 -295 0
-278 -295 0
-7 348 0
-24 349 0
-24 -348 0
-348 349 0
-41 350 0
-41 -349 0
-349 350 0
-58 351 0
-58 -350 0
-350 351 0
-75 352 0
-75 -351 0
-351 352 0
-92 353 0
-92 -352 0
-352 353 0
-109 354 0
-109 -353 0
-353 354 0
-126 355 0
-126 -354 0
-354 355 0
-143 356 0
-143 -355 0
-355 356 0
-160 357 0
-160 -356 0
-356 357 0
-177 358 0
-177 -357 0
-357 358 0
-194 359 0
-194 -358 0
-358 359 0
-211 360 0
-211 -359 0
-359 360 0
-228 361 0
-228 -360 0
-360 361 0
-245 362 0
-245 -361 0
-361 362 0
-262 363 0
-262 -362 0
-362 363 0
-279 364 0
-279 -363 0
-363 364 0
-296 -364 0
-8 365 0
-25 366 0
-25 -365 0
-365 366 0
-42 367 0
-42 -366 0
-366 367 0
-59 368 0
-59 -367 0
-367 368 0
-76 369 0
-76 -368 0
-368 369 0
-93 370 0
-93 -369 0
-369 370 0
-110 371 0
-110 -370 0
-370 371 0
-127 372 0
-127 -371 0
-371 372 0
-144 373 0
-144 -372 0
-372 373 0
-161 374 0
-161 -373 0
-373 374 0
-178 375 0
-178 -374 0
-374 375 0
-195 376 0
-195 -375 0
-375 376 0
-212 377 0
-212 -376 0
-376 377 0
-229 378 0
-229 -377 0
-377 378 0
-246 379 0
-246 -378 0
-378 379 0
-263 380 0
-263 -379 0
-379 380 0
-280 381 0
-280 -380 0
-380 381 0
-297 -381 0
-9 -26 0
-9 -43 0
-9 -382 0
-26 -43 0
-26 -382 0
-43 -382 0
382 -60 0
382 -77 0
382 -383 0
-60 -77 0
-60 -383 0
-77 -383 0
383 -94 0
383 -111 0
383 -384 0
-94 -111 0
-94 -384 0
-111 -384 0
384 -128 0
384 -145 0
384 -385 0
-128 -145 0
-128 -385 0
-145 -385 0
385 -162 0
385 -179 0
385 -386 0
-162 -179 0
-162 -386 0
-179 -386 0
386 -196 0
386 -213 0
386 -387 0
-196 -213 0
-196 -387 0
-213 -387 0
387 -230 0
387 -247 0
387 -388 0
-230 -247 0
-230 -388 0
-247 -388 0
388 -264 0
388 -281 0
388 -298 0
-264 -281 0
-264 -298 0
-281 -298 0
-10 389 0
-27 390 0
-27 -389 0
-389 390 0
-44 391 0
-44 -390 0
-390 391 0
-61 392 0
-61 -391 0
-391 392 0
-78 393 0
-78 -392 0
-392 393 0
-95 394 0
-95 -393 0
-393 394 0
-112 395 0
-112 -394 0
-394 395 0
-129 396 0
-129 -395 0
-395 396 0
-146 397 0
-146 -396 0
-396 397 0
-163 398 0
-163 -397 0
-397 398 0
-180 399 0
-180 -398 0
-398 399 0
-197 400 0
-197 -399 0
-399 400 0
-214 401 0
-214 -400 0
-400 401 0
-231 402 0
-231 -401 0
-401 402 0
-248 403 0
-248 -402 0
-402 403 0
-265 404 0
-265 -403 0
-403 404 0
-282 405 0
-282 -404 0
-404 405 0
-299 -405 0
-11 406 0
-28 407 0
-28 -406 0
-406 407 0
-45 408 0
-45 -407 0
-407 408 0
-62 409 0
-62 -408 0
-408 409 0
-79 410 0
-79 -409 0
-409 410 0
-96 411 0
-96 -410 0
-410 411 0
-113 412 0
-113 -411 0
-411 412 0
-130 413 0
-130 -412 0
-412 413 0
-147 414 0
-147 -413 0
-413 414 0
-164 415 0
-164 -414 0
-414 415 0
-181 416 0
-181 -415 0
-415 416 0
-198 417 0
-198 -416 0
-416 417 0
-215 418 0
-215 -417 0
-417 418 0
-232 419 0
-232 -418 0
-418 419 0
-249 420 0
-249 -419 0
-419 420 0
-266 421 0
-266 -420 0
-420 421 0
-283 422 0
-283 -421 0
-421 422 0
-300 -422 0
-12 -29 0
-12 -46 0
-12 -423 0
-29 -46 0
-29 -423 0
-46 -423 0
423 -63 0
423 -80 0
423 -424 0
-63 -80 0
-63 -424 0
-80 -424 0
424 -97 0
424 -114 0
424 -425 0
-97 -114 0
-97 -425 0
-114 -425 0
425 -131 0
425 -148 0
425 -426 0
-131 -148 0
-131 -426 0
-148 -426 0
426 -165 0
426 -182 0
426 -427 0
-165 -182 0
-165 -427 0
-182 -427 0
427 -199 0
427 -216 0
427 -428 0
-199 -216 0
-199 -428 0
-216 -428 0
428 -233 0
428 -250 0
428 -429 0
-233 -250 0
-233 -429 0
-250 -429 0
429 -267 0
429 -284 0
429 -301 0
-267 -284 0
-267 -301 0
-284 -301 0
-13 -30 0
-13 -47 0
-13 -430 0
-30 -47 0
-30 -430 0
-47 -430 0
430 -64 0
430 -81 0
430 -431 0
-64 -81 0
-64 -431 0
-81 -431 0
431 -98 0
431 -115 0
431 -432 0
-98 -115 0
-98 -432 0
-115 -432 0
432 -132 0
432 -149 0
432 -433 0
-132 -149 0
-132 -433 0
-149 -433 0
433 -166 0
433 -183 0
433 -434 0
-166 -183 0
-166 -434 0
-183 -434 0
434 -200 0
434 -217 0
434 -435 0
-200 -217 0
-200 -435 0
-217 -435 0
435 -234 0
435 -251 0
435 -436 0
-234 -251 0
-234 -436 0
-251 -436 0
436 -268 0
436 -285 0
436 -302 0
-268 -285 0
-268 -302 0
-285 -302 0
-14 -31 0
-14 -48 0
-14 -65 0
-14 -82 0
-14 -99 0
-14 -116 0
-14 -133 0
-14 -150 0
-14 -167 0
-14 -184 0
-14 -201 0
-14 -218 0
-14 -235 0
-14 -252 0
-14 -269 0
-14 -286 0
-14 -303 0
-31 -48 0
-31 -65 0
-31 -82 0
-31 -99 0
-31 -116 0
-31 -133 0
-31 -150 0
-31 -167 0
-31 -184 0
-31 -201 0
-31 -218 0
-31 -235 0
-31 -252 0
-31 -269 0
-31 -286 0
-31 -303 0
-48 -65 0
-48 -82 0
-48 -99 0
-48 -116 0
-48 -133 0
-48 -150 0
-48 -167 0
-48 -184 0
-48 -201 0
-48 -218 0
-48 -235 0
-48 -252 0
-48 -269 0
-48 -286 0
-48 -303 0
-65 -82 0
-65 -99 0
-65 -116 0
-65 -133 0
-65 -150 0
-65 -167 0
-65 -184 0
-65 -201 0
-65 -218 0
-65 -235 0
-65 -252 0
-65 -269 0
-65 -286 0
-65 -303 0
-82 -99 0
-82 -116 0
-82 -133 0
-82 -150 0
-82 -167 0
-82 -184 0
-82 -201 0
-82 -218 0
-82 -235 0
-82 -252 0
-82 -269 0
-82 -286 0
-82 -303 0
-99 -116 0
-99 -133 0
-99 -150 0
-99 -167 0
-99 -184 0
-99 -201 0
-99 -218 0
-99 -235 0
-99 -252 0
-99 -269 0
-99 -286 0
-99 -303 0
-116 -133 0
-116 -150 0
-116 -167 0
-116 -184 0
-116 -201 0
-116 -218 0
-116 -235 0
-116 -252 0
-116 -269 0
-116 -286 0
-116 -303 0
-133 -150 0
-133 -167 0
-133 -184 0
-133 -201 0
-133 -218 0
-133 -235 0
-133 -252 0
-133 -269 0
-133 -286 0
-133 -303 0
-150 -167 0
-150 -184 0
-150 -201 0
-150 -218 0
-150 -235 0
-150 -252 0
-150 -269 0
-150 -286 0
-150 -303 0
-167 -184 0
-167 -201 0
-167 -218 0
-167 -235 0
-167 -252 0
-167 -269 0
-167 -286 0
-167 -303 0
-184 -201 0
-184 -218 0
-184 -235 0
-184 -252 0
-184 -269 0
-184 -286 0
-184 -303 0
-201 -218 0
-201 -235 0
-201 -252 0
-201 -269 0
-201 -286 0
-201 -303 0
-218 -235 0
-218 -252 0
-218 -269 0
-218 -286 0
-218 -303 0
-235 -252 0
-235 -269 0
-235 -286 0
-235 -303 0
-252 -269 0
-252 -286 0
-252 -303 0
-269 -286 0
-269 -303 0
-286 -303 0
-15 -32 0
-15 -49 0
-15 -66 0
-15 -83 0
-15 -100 0
-15 -117 0
-15 -134 0
-15 -151 0
-15 -168 0
-15 -185 0
-15 -202 0
-15 -219 0
-15 -236 0
-15 -253 0
-15 -270 0
-15 -287 0
-15 -304 0
-32 -49 0
-32 -66 0
-32 -83 0
-32 -100 0
-32 -117 0
-32 -134 0
-32 -151 0
-32 -168 0
-32 -185 0
-32 -202 0
-32 -219 0
-32 -236 0
-32 -253 0
-32 -270 0
-32 -287 0
-32 -304 0
-49 -66 0
-49 -83 0
-49 -100 0
-49 -117 0
-49 -134 0
-49 -151 0
-49 -168 0
-49 -185 0
-49 -202 0
-49 -219 0
-49 -236 0
-49 -253 0
-49 -270 0
-49 -287 0
-49 -304 0
-66 -83 0
-66 -100 0
-66 -117 0
-66 -134 0
-66 -151 0
-66 -168 0
-66 -185 0
-66 -202 0
-66 -219 0
-66 -236 0
-66 -253 0
-66 -270 0
-66 -287 0
-66 -304 0
-83 -100 0
-83 -117 0
-83 -134 0
-83 -151 0
-83 -168 0
-83 -185 0
-83 -202 0
-83 -219 0
-83 -236 0
-83 -253 0
-83 -270 0
-83 -287 0
-83 -304 0
-100 -117 0
-100 -134 0
-100 -151 0
-100 -168 0
-100 -185 0
-100 -202 0
-100 -219 0
-100 -236 0
-100 -253 0
-100 -270 0
-100 -287 0
-100 -304 0
-117 -134 0
-117 -151 0
-117 -168 0
-117 -185 0
-117 -202 0
-117 -219 0
-117 -236 0
-117 -253 0
-117 -270 0
-117 -287 0
-117 -304 0
-134 -151 0
-134 -168 0
-134 -185 0
-134 -202 0
-134 -219 0
-134 -236 0
-134 -253 0
-134 -270 0
-134 -287 0
-134 -304 0
-151 -168 0
-151 -185 0
-151 -202 0
-151 -219 0
-151 -236 0
-151 -253 0
-151 -270 0
-151 -287 0
-151 -304 0
-168 -185 0
-168 -202 0
-168 -219 0
-168 -236 0
-168 -253 0
-168 -270 0
-168 -287 0
-168 -304 0
-185 -202 0
-185 -219 0
-185 -236 0
-185 -253 0
-185 -270 0
-185 -287 0
-185 -304 0
-202 -219 0
-202 -236 0
-202 -253 0
-202 -270 0
-202 -287 0
-202 -304 0
-219 -236 0
-219 -253 0
-219 -270 0
-219 -287 0
-219 -304 0
-236 -253 0
-236 -270 0
-236 -287 0
-236 -304 0
-253 -270 0
-253 -287 0
-253 -304 0
-270 -287 0
-270 -304 0
-287 -304 0
-16 437 0
-33 438 0
-33 -437 0
-437 438 0
-50 439 0
-50 -438 0
-438 439 0
-67 440 0
-67 -439 0
-439 440 0
-84 441 0
-84 -440 0
-440 441 0
-101 442 0
-101 -441 0
-441 442 0
-118 443 0
-118 -442 0
-442 443 0
-135 444 0
-135 -443 0
-443 444 0
-152 445 0
-152 -444 0
-444 445 0
-169 446 0
-169 -445 0
-445 446 0
-186 447 0
-186 -446 0
-446 447 0
-203 448 0
-203 -447 0
-447 448 0
-220 449 0
-220 -448 0
-448 449 0
-237 450 0
-237 -449 0
-449 450 0
-254 451 0
-254 -450 0
-450 451 0
-271 452 0
-271 -451 0
-451 452 0
-288 453 0
-288 -452 0
-452 453 0
-305 -453 0
-17 -34 0
-17 -51 0
-17 -454 0
-34 -51 0
-34 -454 0
-51 -454 0
454 -68 0
454 -85 0
454 -455 0
-68 -85 0
-68 -455 0
-85 -455 0
455 -102 0
455 -119 0
455 -456 0
-102 -119 0
-102 -456 0
-119 -456 0
456 -136 0
456 -153 0
456 -457 0
-136 -153 0
-136 -457 0
-153 -457 0
457 -170 0
457 -187 0
457 -458 0
-170 -187 0
-170 -458 0
-187 -458 0
458 -204 0
458 -221 0
458 -459 0
-204 -221 0
-204 -459 0
-221 -459 0
459 -238 0
459 -255 0
459 -460 0
-238 -255 0
-238 -460 0
-255 -460 0
460 -272 0
460 -289 0
460 -306 0
-272 -289 0
-272 -306 0
-289 -306 0
-28 -188 0
-14 -283 0
-30 -259 0
-118 -233 0
-99 -296 0
-212 -245 0
-169 -176 0
-13 -39 0
-97 -130 0
-95 -292 0
-187 -249 0
-12 -28 0
-90 -190 0
-34 -175 0
-102 -220 0
-49 -90 0
-234 -299 0
-143 -225 0
-132 -260 0
-66 -251 0
-82 -240 0
-11 -56 0
-71 -172 0
-85 -219 0
-209 -276 0
-219 -285 0
-75 -121 0
-26 -58 0
-17 -235 0
-255 -301 0
-229 -244 0
-84 -276 0
-67 -285 0
-219 -235 0
-28 -210 0
-28 -39 0
-39 -106 0
-17 -155 0
-202 -207 0
-220 -256 0
-61 -105 0
-213 -277 0
-7 -105 0
-82 -132 0
-28 -230 0
-144 -193 0
-142 -291 0
-76 -275 0
-99 -191 0
-29 -96 0
-116 -291 0
-278 -290 0
-149 -160 0
-68 -83 0
-149 -222 0
-233 -283 0
-29 -212 0
-97 -240 0
-15 -47 0
-72 -103 0
-93 -226 0
-93 -239 0
-26 -295 0
-212 -260 0
-11 -90 0
-109 -175 0
-101 -116 0
-30 -142 0
-51 -83 0
-8 -140 0
-58 -224 0
-32 -252 0
-47 -260 0
-166 -232 0
-22 -275 0
-150 -249 0
-17 -133 0
-281 -290 0
-27 -260 0
-220 -263 0
-145 -240 0
-165 -174 0
-65 -251 0
-33 -229 0
-14 -193 0
-22 -242 0
-59 -106 0
-15 -250 0
-24 -69 0
-30 -105 0
-84 -212 0
-130 -225 0
-59 -243 0
-85 -230 0
-160 -274 0
-136 -274 0
-181 -245 0
-87 -137 0
-47 -59 0
-65 -191 0
-185 -229 0
-195 -262 0
-101 -171 0
-221 -257 0
-131 -244 0
-204 -262 0
-82 -285 0
-14 -88 0
-31 -127 0
-253 -266 0
-66 -139 0
-61 -120 0
-49 -115 0
-46 -257 0
-101 -247 0
-8 -290 0
-42 -141 0
-117 -196 0
-221 -228 0
-180 -296 0
-169 -279 0
-165 -290 0
-99 -146 0
-210 -240 0
-12 -69 0
-152 -191 0
-186 -191 0
-194 -223 0
-183 -273 0
-68 -247 0
-32 -94 0
-12 -154 0
-123 -190 0
-151 -231 0
-23 -104 0
-32 -188 0
-135 -142 0
-7 -175 0
-92 -207 0
-49 -98 0
-49 -133 0
-153 -214 0
-23 -274 0
-65 -180 0
-4 -223 0
-186 -229 0
-85 -304 0
-215 -227 0
-32 -199 0
-84 -300 0
-233 -247 0
-16 -264 0
-32 -229 0
-8 -72 0
-89 -239 0
-284 -292 0
-50 -232 0
-100 -240 0
-249 -298 0
-130 -273 0
-118 -192 0
-150 -217 0
-7 -224 0
-22 -70 0
-184 -240 0
-12 -75 0
-136 -239 0
-41 -122 0
-49 -260 0
-14 -228 0
-148 -241 0
-41 -171 0
-202 -224 0
-27 -257 0
-102 -147 0
-14 -70 0
-68 -294 0
-270 -296 0
-158 -205 0
-115 -297 0
-126 -142 0
-17 -294 0
-110 -122 0
-76 -191 0
-80 -96 0
-9 -74 0
-47 -291 0
-209 -224 0
-77 -225 0
-32 -89 0
-50 -196 0
-27 -228 0
-170 -231 0
-151 -230 0
-14 -189 0
-169 -244 0
-192 -258 0
-201 -293 0
-60 -262 0
-67 -232 0
-12 -129 0
-61 -139 0
-53 -171 0
-80 -227 0
-167 -222 0
-129 -273 0
-178 -260 0
-6 -225 0
-110 -291 0
-151 -227 0
-14 -242 0
-67 -195 0
-97 -197 0
-41 -120 0
-23 -124 0
-51 -274 0
-202 -218 0
-115 -160 0
-92 -205 0
-101 -164 0
-289 -303 0
-97 -275 0
-125 -154 0
-97 -147 0
-107 -240 0
-168 -241 0
-152 -225 0
-84 -98 0
-81 -283 0
-192 -256 0
-7 -71 0
-114 -223 0
-153 -302 0
-66 -293 0
-83 -143 0
-26 -274 0
-56 -274 0
-150 -215 0
-29 -89 0
-6 -259 0
-102 -293 0
-217 -297 0
-153 -192 0
-133 -283 0
-33 -292 0
-91 -188 0
-109 -176 0
-169 -246 0
-130 -174 0
-186 -242 0
-270 -286 0
-135 -163 0
-38 -120 0
-107 -157 0
-28 -231 0
-179 -239 0
-270 -301 0
-114 -213 0
-113 -176 0
-68 -91 0
-149 -173 0
-126 -256 0
-51 -222 0
-39 -239 0
-173 -257 0
-64 -261 0
-16 -39 0
-90 -241 0
-85 -223 0
-119 -218 0
-30 -137 0
-16 -166 0
-59 -138 0
-14 -198 0
-31 -58 0
-84 -104 0
-232 -263 0
-99 -154 0
-51 -206 0
-181 -275 0
-49 -146 0
-163 -195 0
-60 -120 0
-161 -274 0
-81 -227 0
-122 -240 0
-272 -285 0
-78 -256 0
-132 -140 0
-9 -58 0
-12 -196 0
-254 -298 0
-66 -274 0
-114 -142 0
-81 -172 0
-33 -111 0
-231 -262 0
-97 -125 0
-214 -290 0
-78 -93 0
-148 -283 0
-124 -171 0
-128 -227 0
-288 -299 0
-144 -257 0
-130 -262 0
-112 -245 0
-266 -292 0
-16 -260 0
-176 -207 0
-28 -112 0
-157 -206 0
-68 -134 0
-125 -225 0
-64 -198 0
-27 -126 0
-204 -284 0
-127 -260 0
-23 -71 0
-132 -274 0
-116 -294 0
-17 -286 0
-49 -293 0
-44 -264 0
-48 -147 0
-102 -208 0
-67 -80 0
-9 -110 0
-149 -280 0
-79 -190 0
-63 -138 0
-27 -93 0
-200 -277 0
-63 -124 0
-220 -262 0
-153 -218 0
-10 -77 0
-15 -104 0
-108 -259 0
-95 -109 0
-67 -263 0
-284 -297 0
-100 -199 0
-23 -137 0
-177 -240 0
-254 -269 0
-116 -301 0
-111 -126 0
-27 -139 0
-151 -239 0
-108 -188 0
-25 -142 0
-91 -277 0
-114 -293 0
-85 -262 0
-63 -87 0
-199 -295 0
-77 -174 0
-236 -242 0
-181 -208 0
-51 -227 0
-162 -191 0
-23 -87 0
-5 -54 0
-83 -232 0
-60 -244 0
-16 -295 0
-6 -54 0
-96 -122 0
-80 -197 0
-283 -290 0
-81 -210 0
-136 -241 0
-100 -132 0
-158 -208 0
-204 -230 0
-40 -53 0
-11 -239 0
-160 -260 0
-218 -260 0
-24 -273 0
-79 -86 0
-38 -121 0
-165 -264 0
-193 -222 0
-113 -180 0
-174 -206 0
-56 -258 0
-32 -53 0
-87 -290 0
-95 -228 0
-147 -171 0
-131 -141 0
-117 -177 0
-41 -123 0
-96 -281 0
-31 -258 0
-285 -301 0
-184 -265 0
-67 -242 0
-58 -257 0
-179 -191 0
-17 -220 0
-84 -144 0
-115 -172 0
-204 -240 0
-130 -160 0
-61 -261 0
-198 -259 0
-72 -172 0
-75 -243 0
-196 -228 0
-118 -276 0
-49 -241 0
-219 -274 0
-132 -290 0
-142 -189 0
-65 -232 0
-65 -264 0
-94 -138 0
-81 -196 0
-95 -139 0
-162 -275 0
-67 -199 0
-9 -120 0
-104 -239 0
-260 -292 0
-17 -164 0
-39 -223 0
-106 -206 0
-66 -78 0
-59 -103 0
-180 -210 0
-170 -232 0
-27 -52 0
-15 -260 0
-4 -207 0
-260 -274 0
-49 -88 0
-64 -87 0
-44 -227 0
-81 -137 0
-109 -273 0
-33 -103 0
-48 -163 0
-34 -43 0
-31 -224 0
-238 -242 0
-65 -294 0
-29 -139 0
-143 -258 0
-15 -227 0
-109 -174 0
-151 -182 0
-127 -191 0
-50 -226 0
-196 -246 0
-63 -75 0
-96 -137 0
-101 -261 0
-33 -205 0
-227 -292 0
-91 -223 0
-70 -222 0
-68 -121 0
-182 -230 0
-27 -222 0
-32 -201 0
-7 -22 0
-99 -277 0
-62 -282 0
-118 -151 0
-43 -208 0
-109 -137 0
-49 -275 0
-212 -292 0
-28 -275 0
-10 -154 0
-153 -232 0
-248 -263 0
-65 -128 0
-204 -249 0
-31 -177 0
-79 -278 0
-166 -240 0
-64 -226 0
-13 -273 0
-197 -295 0
-79 -226 0
-132 -148 0
-14 -260 0
-3 -290 0
-106 -222 0
-34 -78 0
-26 -90 0
-25 -188 0
-178 -277 0
-38 -70 0
-131 -294 0
-152 -228 0
-215 -242 0
-78 -247 0
-79 -210 0
-91 -106 0
-13 -35 0
-67 -256 0
-76 -295 0
-30 -178 0
-48 -241 0
-23 -188 0
-82 -209 0
-31 -106 0
-29 -192 0
-213 -224 0
-83 -124 0
-14 -244 0
-186 -295 0
-232 -265 0
-283 -295 0
-81 -140 0
-27 -124 0
-164 -222 0
-145 -290 0
-153 -244 0
-15 -92 0
-31 -295 0
-151 -195 0
-125 -157 0
-283 -298 0
-42 -160 0
-184 -209 0
-192 -225 0
-212 -279 0
-11 -154 0
-149 -275 0
-36 -188 0
-9 -57 0
-11 -279 0
-40 -294 0
-11 -141 0
-134 -275 0
-105 -189 0
-187 -295 0
-30 -141 0
-96 -172 0
-272 -303 0
-184 -244 0
-79 -240 0
-150 -193 0
-12 -87 0
-48 -275 0
-48 -239 0
-117 -276 0
-236 -246 0
-47 -140 0
-62 -294 0
-81 -300 0
-13 -281 0
-70 -290 0
-16 -160 0
-132 -240 0
-12 -20 0
-272 -275 0
-30 -157 0
-44 -239 0
-129 -229 0
-115 -159 0
-217 -284 0
-122 -171 0
-98 -103 0
-166 -205 0
-67 -178 0
-68 -126 0
-65 -259 0
-75 -123 0
-27 -298 0
-21 -87 0
-66 -303 0
-159 -291 0
-136 -265 0
-32 -173 0
-119 -125 0
-159 -273 0
-117 -166 0
-251 -282 0
-75 -222 0
-219 -264 0
-4 -258 0
-67 -206 0
-34 -234 0
-32 -63 0
-25 -294 0
-119 -216 0
-91 -241 0
-212 -259 0
-112 -194 0
-134 -205 0
-100 -114 0
-63 -248 0
-151 -247 0
-186 -274 0
-65 -216 0
-82 -193 0
-94 -210 0
-94 -144 0
-132 -165 0
-46 -244 0
-68 -244 0
-145 -178 0
-179 -296 0
-16 -44 0
-51 -81 0
-101 -256 0
-19 -290 0
-61 -122 0
-102 -104 0
-165 -226 0
-113 -225 0
-11 -163 0
-9 -54 0
-185 -282 0
-66 -123 0
-200 -243 0
-49 -256 0
-250 -276 0
-12 -175 0
-85 -292 0
-166 -206 0
-92 -142 0
-119 -161 0
-24 -155 0
-135 -213 0
-165 -211 0
-41 -53 0
-198 -277 0
-10 -58 0
-78 -91 0
-58 -176 0
-101 -213 0
-61 -294 0
-152 -218 0
-102 -214 0
-148 -292 0
-64 -78 0
-114 -147 0
-46 -241 0
-76 -177 0
-83 -138 0
-47 -171 0
-133 -159 0
-97 -156 0
-30 -57 0
-127 -296 0
-118 -250 0
-60 -194 0
-134 -260 0
-63 -180 0
-49 -176 0
-90 -208 0
-89 -173 0
-29 -249 0
-91 -172 0
-116 -171 0
-31 -239 0
-50 -108 0
-237 -300 0
-10 -296 0
-100 -112 0
-15 -146 0
-131 -281 0
-29 -161 0
-74 -258 0
-132 -231 0
-24 -191 0
-148 -229 0
-111 -189 0
-82 -246 0
-170 -201 0
-45 -156 0
-145 -195 0
-199 -213 0
-244 -274 0
-146 -258 0
-14 -162 0
-98 -267 0
-118 -212 0
-102 -209 0
-43 -54 0
-41 -139 0
-41 -188 0
-150 -180 0
-135 -205 0
-49 -227 0
-119 -283 0
-272 -304 0
-80 -191 0
-79 -172 0
-221 -224 0
-14 -143 0
-33 -208 0
-32 -106 0
-185 -242 0
-71 -290 0
-132 -143 0
-149 -214 0
-221 -260 0
-102 -290 0
-174 -190 0
-185 -291 0
-146 -263 0
-153 -250 0
-12 -141 0
-250 -275 0
-45 -205 0
-12 -96 0
-16 -182 0
-158 -275 0
-118 -242 0
-139 -256 0
-165 -298 0
-45 -154 0
-134 -213 0
-202 -276 0
-16 -298 0
-26 -242 0
-78 -139 0
-5 -191 0
-56 -69 0
-7 -188 0
-38 -273 0
-232 -257 0
-79 -92 0
-92 -257 0
-202 -216 0
-29 -124 0
-98 -160 0
-131 -226 0
-93 -207 0
-126 -293 0
-99 -149 0
-64 -75 0
-113 -159 0
-98 -196 0
-93 -225 0
-83 -262 0
-184 -239 0
-149 -291 0
-98 -154 0
-10 -38 0
-29 -173 0
-219 -250 0
-32 -96 0
-89 -172 0
-61 -158 0
-15 -278 0
-182 -212 0
-166 -224 0
-168 -295 0
-128 -194 0
-64 -262 0
-50 -208 0
-98 -264 0
-192 -207 0
-217 -281 0
-156 -256 0
-11 -178 0
-150 -181 0
-98 -240 0
-10 -89 0
-88 -120 0
-65 -274 0
-149 -180 0
-10 -230 0
-43 -122 0
-50 -285 0
-153 -167 0
-55 -207 0
-78 -206 0
-200 -210 0
-47 -199 0
-110 -190 0
-202 -265 0
-68 -137 0
-81 -125 0
-6 -122 0
-77 -222 0
-161 -256 0
-90 -174 0
-92 -210 0
-7 -89 0
-49 -298 0
-30 -190 0
-12 -190 0
-267 -273 0
-9 -92 0
-102 -247 0
-87 -188 0
-13 -140 0
-140 -273 0
-28 -122 0
-197 -243 0
-85 -242 0
-150 -274 0
-111 -141 0
-187 -230 0
-15 -35 0
-58 -125 0
-194 -274 0
-134 -227 0
-184 -279 0
-252 -296 0
-63 -231 0
-51 -101 0
-196 -291 0
-17 -118 0
-66 -296 0
-30 -125 0
-68 -97 0
-9 -243 0
-50 -125 0
-65 -160 0
-21 -172 0
-141 -273 0
-228 -275 0
-94 -125 0
-3 -103 0
-152 -290 0
-160 -261 0
-43 -189 0
-117 -300 0
-46 -52 0
-181 -299 0
-62 -174 0
-94 -280 0
-80 -158 0
-136 -192 0
-16 -249 0
-6 -175 0
-214 -277 0
-59 -294 0
-166 -258 0
-128 -177 0
-140 -222 0
-68 -80 0
-166 -273 0
-151 -196 0
-3 -188 0
-49 -70 0
-31 -213 0
-45 -122 0
-49 -97 0
-34 -133 0
-98 -127 0
-68 -271 0
-85 -99 0
-117 -235 0
-11 -58 0
-10 -259 0
-65 -79 0
-125 -208 0
-60 -290 0
-62 -192 0
-113 -248 0
-134 -232 0
-9 -139 0
-176 -273 0
-66 -132 0
-9 -226 0
-68 -138 0
-26 -154 0
-66 -77 0
-250 -278 0
-175 -291 0
-97 -247 0
-72 -105 0
-63 -292 0
-135 -274 0
-34 -236 0
-167 -283 0
-83 -201 0
-16 -77 0
-80 -208 0
-237 -284 0
-20 -137 0
-43 -206 0
-64 -104 0
-26 -259 0
-131 -161 0
-203 -267 0
-12 -249 0
-168 -218 0
-112 -274 0
-95 -257 0
-173 -290 0
-51 -127 0
-33 -302 0
-230 -294 0
-197 -278 0
-40 -88 0
-77 -290 0
-113 -138 0
-12 -93 0
-135 -293 0
-16 -258 0
-132 -233 0
-83 -172 0
-65 -181 0
-63 -159 0
-63 -240 0
-48 -301 0
-61 -243 0
-113 -155 0
-66 -131 0
-109 -206 0
-110 -261 0
-54 -154 0
-32 -264 0
-23 -209 0
-185 -216 0
-61 -70 0
-93 -105 0
-169 -213 0
-198 -293 0
-134 -179 0
-203 -261 0
-183 -233 0
-63 -256 0
-112 -223 0
-57 -138 0
-6 -222 0
-119 -171 0
-146 -245 0
-89 -105 0
-13 -114 0
-51 -242 0
-192 -240 0
-161 -225 0
-76 -121 0
-147 -194 0
-14 -94 0
-145 -291 0
-178 -292 0
-84 -244 0
-167 -239 0
-129 -141 0
-68 -152 0
-33 -36 0
-85 -280 0
-40 -275 0
-13 -157 0
-119 -177 0
-142 -224 0
-149 -177 0
-73 -223 0
-82 -174 0
-15 -26 0
-177 -223 0
-264 -297 0
-236 -269 0
-168 -248 0
-102 -273 0
-55 -173 0
-14 -107 0
-32 -87 0
-83 -109 0
-50 -278 0
-219 -268 0
-60 -126 0
-130 -263 0
-180 -256 0
-11 -174 0
-192 -208 0
-68 -301 0
-16 -303 0
-64 -121 0
-169 -224 0
-5 -120 0
-96 -261 0
-25 -175 0
-48 -189 0
-62 -281 0
-221 -246 0
-11 -194 0
-47 -142 0
-194 -243 0
-235 -293 0
-113 -277 0
-34 -120 0
-101 -124 0
-203 -264 0
-54 -86 0
-43 -241 0
-49 -62 0
-66 -112 0
-118 -142 0
-26 -91 0
-98 -139 0
-162 -194 0
-216 -246 0
-119 -229 0
-180 -244 0
-31 -275 0
-22 -256 0
-19 -120 0
-118 -124 0
-99 -200 0
-204 -241 0
-124 -157 0
-109 -274 0
-163 -190 0
-213 -244 0
-63 -283 0
-65 -266 0
-187 -247 0
-117 -274 0
-82 -104 0
-31 -175 0
-145 -190 0
-15 -112 0
-122 -205 0
-48 -251 0
-148 -196 0
-216 -227 0
-115 -262 0
-111 -225 0
-185 -193 0
-60 -190 0
-3 -121 0
-149 -158 0
-186 -262 0
-116 -131 0
-112 -259 0
-116 -163 0
-143 -207 0
-49 -150 0
-176 -277 0
-123 -291 0
-23 -243 0
-152 -299 0
-182 -260 0
-221 -243 0
-66 -229 0
-181 -258 0
-23 -38 0
-90 -103 0
-201 -226 0
-40 -240 0
-57 -293 0
-46 -207 0
-204 -222 0
-106 -139 0
-94 -191 0
-83 -249 0
-10 -175 0
-15 -23 0
-29 -275 0
-183 -232 0
-187 -276 0
-180 -263 0
-179 -294 0
-219 -291 0
-63 -205 0
-68 -151 0
-61 -196 0
-135 -247 0
-62 -175 0
-51 -186 0
-261 -276 0
-83 -207 0
-156 -240 0
-51 -294 0
-51 -174 0
-96 -224 0
-78 -108 0
-33 -62 0
-185 -196 0
-148 -265 0
-110 -273 0
-128 -206 0
-218 -292 0
-68 -109 0
-164 -206 0
-80 -171 0
-83 -176 0
-27 -54 0
-47 -161 0
-162 -243 0
-113 -247 0
-48 -216 0
-62 -121 0
-60 -192 0
-46 -53 0
-99 -282 0
-116 -137 0
-191 -273 0
-135 -251 0
-221 -290 0
-102 -267 0
-221 -252 0
-51 -215 0
-170 -301 0
-204 -210 0
-51 -121 0
-79 -90 0
-62 -295 0
-163 -278 0
-44 -191 0
-224 -291 0
-134 -138 0
-150 -229 0
-114 -129 0
-192 -259 0
-71 -120 0
-11 -145 0
-144 -262 0
-168 -293 0
-169 -240 0
-14 -20 0
-29 -55 0
-25 -189 0
-11 -18 0
-201 -276 0
-32 -284 0
-95 -188 0
-97 -248 0
-14 -159 0
-132 -173 0
-49 -78 0
-152 -261 0
-126 -222 0
-7 -18 0
-101 -233 0
-74 -171 0
-34 -118 0
-26 -189 0
-170 -283 0
-10 -93 0
-218 -257 0
-10 -128 0
-135 -159 0
-51 -214 0
-51 -210 0
-236 -262 0
-67 -262 0
-51 -213 0
-83 -267 0
-66 -88 0
-134 -224 0
-112 -126 0
-113 -214 0
-5 -157 0
-29 -142 0
-129 -291 0
-124 -173 0
-186 -205 0
-186 -251 0
-177 -190 0
-65 -129 0
-59 -89 0
-64 -141 0
-252 -299 0
-116 -229 0
-126 -191 0
-170 -242 0
-97 -173 0
-82 -142 0
-40 -290 0
-251 -291 0
-100 -244 0
-177 -226 0
-38 -222 0
-65 -273 0
-58 -155 0
-26 -53 0
-126 -209 0
-16 -210 0
-72 -256 0
-21 -71 0
-122 -223 0
-62 -196 0
-168 -292 0
-14 -300 0
-152 -176 0
-63 -113 0
-204 -294 0
-6 -72 0
-50 -290 0
-40 -224 0
-32 -230 0
-75 -157 0
-208 -239 0
-30 -139 0
-267 -280 0
-182 -211 0
-94 -103 0
-56 -273 0
-10 -107 0
-77 -258 0
-183 -223 0
-66 -162 0
-84 -301 0
-68 -166 0
-13 -280 0
-29 -113 0
-50 -292 0
-219 -276 0
-24 -40 0
-186 -264 0
-34 -97 0
-254 -262 0
-133 -181 0
-23 -223 0
-61 -264 0
-26 -278 0
-42 -108 0
-60 -91 0
-26 -155 0
-187 -256 0
-10 -75 0
-105 -273 0
-14 -46 0
-169 -181 0
-44 -141 0
-136 -146 0
-150 -290 0
-161 -258 0
-10 -226 0
-12 -73 0
-17 -71 0
-31 -98 0
-183 -283 0
-229 -257 0
-33 -209 0
-65 -109 0
-141 -205 0
-47 -129 0
-220 -296 0
-204 -281 0
-186 -281 0
-168 -262 0
-45 -88 0
-153 -251 0
-42 -240 0
-15 -127 0
-50 -69 0
-67 -171 0
-82 -260 0
-17 -203 0
-194 -278 0
-30 -232 0
-134 -188 0
-174 -207 0
-145 -276 0
-170 -212 0
-144 -243 0
-117 -190 0
-22 -87 0
-80 -212 0
-96 -292 0
-66 -290 0
-64 -94 0
-97 -282 0
-62 -265 0
-68 -89 0
-170 -269 0
-113 -210 0
-51 -90 0
-153 -190 0
-202 -245 0
-12 -213 0
-23 -154 0
-79 -299 0
-184 -283 0
-13 -260 0
-9 -293 0
-118 -235 0
-68 -133 0
-133 -278 0
-68 -106 0
-17 -259 0
-13 -91 0
-167 -233 0
-34 -190 0
-68 -195 0
-170 -302 0
-37 -206 0
-76 -209 0
-94 -122 0
-83 -193 0
-60 -176 0
-7 -258 0
-81 -87 0
-50 -151 0
-152 -277 0
-16 -112 0
-100 -150 0
-233 -278 0
-80 -176 0
-178 -189 0
-100 -251 0
-48 -72 0
-185 -244 0
-10 -23 0
-13 -226 0
-78 -179 0
-146 -277 0
-14 -138 0
-49 -121 0
-30 -261 0
-132 -283 0
-156 -257 0
-46 -158 0
-80 -256 0
-144 -223 0
-24 -35 0
-266 -274 0
-77 -194 0
-133 -268 0
-221 -235 0
-3 -87 0
-32 -146 0
-168 -231 0
-134 -190 0
-268 -297 0
-204 -278 0
-61 -205 0
-74 -174 0
-28 -58 0
-253 -268 0
-50 -133 0
-124 -205 0
-9 -137 0
-151 -278 0
-57 -241 0
-157 -291 0
-163 -242 0
-16 -94 0
-238 -248 0
-50 -245 0
-13 -213 0
-32 -269 0
-202 -297 0
-220 -261 0
-82 -198 0
-96 -190 0
-47 -126 0
-127 -176 0
-29 -122 0
-215 -296 0
-233 -295 0
-184 -285 0
-133 -173 0
-81 -178 0
-74 -120 0
-134 -137 0
-82 -275 0
-15 -284 0
-56 -87 0
-97 -158 0
-204 -256 0
-143 -223 0
-129 -296 0
-10 -291 0
-63 -262 0
-130 -239 0
-100 -108 0
-38 -122 0
-102 -197 0
-65 -73 0
-13 -61 0
-204 -298 0
-161 -194 0
-33 -293 0
-58 -88 0
-78 -120 0
-131 -211 0
-49 -130 0
-34 -73 0
-25 -206 0
-49 -77 0
-44 -121 0
-65 -93 0
-200 -291 0
-82 -115 0
-16 -197 0
-220 -283 0
-118 -279 0
-165 -178 0
-80 -278 0
-177 -261 0
-33 -124 0
-199 -222 0
-31 -200 0
-60 -107 0
-204 -282 0
-51 -265 0
-64 -159 0
-48 -243 0
-97 -138 0
-4 -154 0
-194 -241 0
-176 -188 0
-10 -41 0
-187 -263 0
-123 -172 0
-184 -274 0
-68 -227 0
-82 -131 0
-31 -282 0
-118 -156 0
-43 -190 0
-118 -163 0
-237 -266 0
-9 -244 0
-49 -120 0
-135 -232 0
-80 -181 0
-80 -188 0
-267 -297 0
-19 -137 0
-41 -107 0
-43 -244 0
-101 -172 0
-85 -224 0
-17 -231 0
-153 -287 0
-116 -183 0
-32 -129 0
-49 -139 0
-29 -223 0
-24 -122 0
-159 -209 0
-12 -290 0
-111 -160 0
-252 -273 0
-74 -175 0
-17 -162 0
-221 -231 0
-183 -282 0
-97 -225 0
-182 -222 0
-181 -210 0
-46 -226 0
-82 -111 0
-48 -227 0
-44 -108 0
-48 -92 0
-80 -279 0
-32 -205 0
-11 -243 0
-115 -222 0
-26 -263 0
-100 -256 0
-97 -157 0
-244 -259 0
-186 -224 0
-90 -224 0
-4 -20 0
-268 -291 0
-85 -161 0
-59 -88 0
-230 -278 0
-200 -224 0
-118 -239 0
-142 -273 0
-64 -227 0
-159 -175 0
-135 -196 0
-7 -205 0
-84 -223 0
-117 -265 0
-34 -93 0
-109 -292 0
-98 -259 0
-118 -125 0
-40 -171 0
-153 -295 0
-185 -190 0
-100 -146 0
-201 -240 0
-235 -247 0
-163 -290 0
-113 -160 0
-43 -88 0
-136 -219 0
-102 -223 0
-83 -212 0
-81 -262 0
-184 -263 0
-17 -181 0
-208 -258 0
-100 -259 0
-233 -266 0
-202 -266 0
-160 -208 0
-151 -223 0
-118 -283 0
-49 -164 0
-28 -214 0
-125 -188 0
-43 -256 0
-251 -257 0
-16 -196 0
-65 -108 0
-47 -163 0
-236 -278 0
-34 -294 0
-223 -256 0
-166 -178 0
-170 -279 0
-20 -154 0
-118 -297 0
-99 -147 0
-112 -241 0
-73 -222 0
-126 -173 0
-34 -94 0
-148 -197 0
-254 -292 0
-26 -160 0
-16 -273 0
-180 -190 0
-83 -194 0
-60 -124 0
-184 -212 0
-80 -179 0
-162 -207 0
-199 -205 0
-204 -302 0
-214 -260 0
-17 -191 0
-189 -222 0
-77 -123 0
-60 -103 0
-66 -188 0
-34 -189 0
-101 -215 0
-49 -258 0
-63 -259 0
-98 -129 0
-128 -174 0
-254 -278 0
-76 -86 0
-92 -239 0
-130 -209 0
-91 -124 0
-226 -256 0
-29 -230 0
-66 -107 0
-23 -222 0
-170 -253 0
-8 -74 0
-48 -79 0
-119 -271 0
-23 -105 0
-201 -231 0
-81 -157 0
-150 -183 0
-45 -197 0
-100 -104 0
-237 -270 0
-31 -268 0
-68 -143 0
-13 -296 0
-40 -72 0
-75 -224 0
-76 -245 0
-146 -243 0
-31 -266 0
-237 -257 0
-24 -104 0
-227 -257 0
-70 -120 0
-96 -138 0
-212 -227 0
-117 -140 0
-48 -190 0
-145 -174 0
-67 -109 0
-129 -228 0
-82 -147 0
-84 -123 0
-48 -231 0
-16 -281 0
-25 -228 0
-16 -232 0
-34 -188 0
-82 -192 0
-200 -225 0
-100 -129 0
-31 -210 0
-41 -138 0
-32 -268 0
-62 -274 0
-88 -104 0
-118 -286 0
-12 -71 0
-106 -275 0
-221 -227 0
-60 -172 0
-80 -297 0
-149 -248 0
-163 -263 0
-10 -110 0
-83 -278 0
-43 -224 0
-67 -252 0
-50 -92 0
-153 -259 0
-129 -162 0
-116 -239 0
-30 -129 0
-125 -242 0
-148 -231 0
-79 -87 0
-131 -194 0
-49 -175 0
-14 -194 0
-41 -87 0
-11 -139 0
-33 -95 0
-82 -263 0
-130 -230 0
-216 -263 0
-50 -166 0
-203 -244 0
-64 -296 0
-237 -245 0
-142 -154 0
-113 -139 0
-32 -172 0
-136 -227 0
-106 -171 0
-29 -61 0
-132 -206 0
-144 -259 0
-58 -71 0
-44 -276 0
-231 -258 0
-45 -77 0
-179 -223 0
-60 -258 0
-119 -230 0
-115 -213 0
-149 -300 0
-60 -144 0
-226 -275 0
-15 -86 0
-92 -171 0
-201 -277 0
-281 -294 0
-113 -242 0
-9 -87 0
-23 -205 0
-44 -93 0
-102 -234 0
-46 -191 0
-41 -88 0
-33 -261 0
-58 -138 0
-51 -181 0
-156 -172 0
-112 -260 0
-12 -110 0
-65 -301 0
-151 -303 0
-117 -162 0
-30 -123 0
-112 -171 0
-20 -53 0
-84 -274 0
-45 -196 0
-82 -256 0
-164 -278 0
-141 -223 0
-152 -173 0
-181 -292 0
-30 -91 0
-92 -154 0
-55 -257 0
-26 -92 0
-200 -292 0
-11 -71 0
-218 -276 0
-22 -36 0
-202 -298 0
-184 -260 0
-30 -290 0
-33 -217 0
-85 -143 0
-162 -296 0
-81 -165 0
-33 -200 0
-11 -129 0
-46 -281 0
-45 -86 0
-92 -222 0
-81 -214 0
-12 -109 0
-199 -273 0
-68 -150 0
-8 -143 0
-24 -120 0
-115 -178 0
-114 -227 0
-179 -245 0
-56 -275 0
-41 -156 0
-17 -301 0
-61 -86 0
-194 -227 0
-67 -129 0
-32 -301 0
-153 -165 0
-100 -294 0
-26 -226 0
-34 -235 0
-30 -212 0
-65 -224 0
-33 -257 0
-272 -300 0
-136 -268 0
-33 -155 0
-203 -222 0
-60 -156 0
-218 -258 0
-119 -296 0
-115 -146 0
-110 -142 0
-83 -222 0
-98 -195 0
-102 -141 0
-92 -139 0
-13 -59 0
-150 -295 0
-217 -260 0
-251 -281 0
-136 -234 0
-170 -177 0
-133 -241 0
-254 -280 0
-189 -205 0
-76 -211 0
-47 -156 0
-83 -225 0
-158 -223 0
-219 -245 0
-213 -293 0
-248 -290 0
-11 -274 0
-36 -103 0
-117 -226 0
-128 -243 0
-115 -293 0
-201 -296 0
-13 -277 0
-16 -114 0
-178 -209 0
-228 -244 0
-43 -193 0
-102 -202 0
-24 -107 0
-218 -291 0
-33 -239 0
-132 -163 0
-22 -123 0
-51 -195 0
-202 -242 0
-214 -256 0
-165 -245 0
-14 -86 0
-96 -214 0
-29 -300 0
-75 -192 0
-16 -131 0
-63 -120 0
-148 -246 0
-95 -154 0
-38 -275 0
-20 -69 0
-24 -57 0
-48 -172 0
-47 -139 0
-99 -122 0
-96 -273 0
-48 -284 0
-68 -264 0
-82 -199 0
-42 -278 0
-62 -228 0
-162 -222 0
-67 -239 0
-148 -262 0
-131 -172 0
-66 -89 0
-50 -251 0
-76 -156 0
-50 -116 0
-62 -248 0
-153 -305 0
-17 -154 0
-82 -94 0
-85 -87 0
-242 -257 0
-55 -156 0
-32 -70 0
-83 -215 0
-51 -117 0
-83 -294 0
-43 -263 0
-262 -275 0
-28 -57 0
-163 -273 0
-102 -109 0
-15 -21 0
-11 -89 0
-15 -159 0
-133 -231 0
-112 -127 0
-119 -224 0
-101 -185 0
-198 -295 0
-45 -273 0
-14 -208 0
-163 -208 0
-31 -42 0
-91 -104 0
-29 -290 0
-246 -292 0
-113 -142 0
-286 -300 0
-79 -137 0
-92 -294 0
-43 -261 0
-100 -218 0
-213 -242 0
-83 -164 0
-117 -189 0
-111 -157 0
-50 -127 0
-59 -260 0
-259 -274 0
-85 -301 0
-83 -257 0
-65 -76 0
-57 -294 0
-72 -189 0
-112 -280 0
-126 -159 0
-238 -256 0
-46 -107 0
-65 -256 0
-48 -162 0
-43 -161 0
-58 -226 0
-93 -278 0
-132 -179 0
-203 -245 0
-183 -195 0
-65 -215 0
-16 -104 0
-276 -292 0
-112 -273 0
-196 -276 0
-243 -275 0
-117 -277 0
-219 -296 0
-2 -52 0
-33 -256 0
-221 -274 0
-134 -258 0
-48 -105 0
-181 -190 0
-51 -268 0
-246 -257 0
-59 -296 0
-49 -182 0
-135 -258 0
-94 -212 0
-45 -177 0
-186 -241 0
-184 -230 0
-101 -299 0
-133 -243 0
-151 -277 0
-84 -233 0
-34 -83 0
-56 -222 0
-5 -174 0
-17 -283 0
-151 -298 0
-27 -60 0
-16 -73 0
-10 -73 0
-84 -177 0
-60 -178 0
-63 -276 0
-26 -211 0
-165 -231 0
-11 -230 0
-112 -121 0
-184 -258 0
-176 -191 0
-66 -149 0
-143 -222 0
-12 -276 0
-68 -118 0
-76 -239 0
-34 -165 0
-114 -126 0
-44 -159 0
-10 -120 0
-203 -284 0
-66 -206 0
-15 -208 0
-111 -156 0
-110 -275 0
-83 -301 0
-136 -259 0
-131 -280 0
-119 -275 0
-50 -64 0
-186 -231 0
-84 -185 0
-31 -264 0
-126 -241 0
-61 -145 0
-79 -230 0
-80 -294 0
-80 -293 0
-105 -205 0
-141 -174 0
-73 -191 0
-25 -120 0
-48 -267 0
-216 -256 0
-149 -249 0
-118 -256 0
-79 -122 0
-14 -214 0
-27 -127 0
-30 -244 0
-37 -205 0
-102 -278 0
-98 -223 0
-31 -263 0
-196 -290 0
-163 -176 0
-44 -58 0
-76 -279 0
-148 -261 0
-163 -256 0
-152 -286 0
-64 -113 0
-151 -290 0
-164 -273 0
-5 -190 0
-102 -237 0
-84 -262 0
-196 -277 0
-10 -74 0
-88 -291 0
-27 -210 0
-51 -158 0
-63 -229 0
-47 -290 0
-12 -94 0
-48 -111 0
-91 -208 0
-151 -228 0
-287 -290 0
-48 -126 0
-48 -259 0
-25 -176 0
-181 -194 0
-177 -227 0
-94 -243 0
-250 -290 0
-42 -155 0
-67 -209 0
-32 -171 0
-170 -196 0
-134 -158 0
-191 -292 0
-116 -160 0
-81 -138 0
-91 -192 0
-24 -292 0
-11 -27 0
-47 -266 0
-68 -223 0
-20 -206 0
-85 -234 0
-63 -213 0
-49 -56 0
-62 -179 0
-7 -107 0
-196 -258 0
-289 -296 0
-136 -220 0
-180 -262 0
-128 -159 0
-48 -290 0
-135 -193 0
-39 -72 0
-116 -196 0
-68 -182 0
-181 -282 0
-33 -283 0
-126 -259 0
-131 -229 0
-128 -139 0
-100 -176 0
-221 -262 0
-32 -82 0
-217 -294 0
-49 -91 0
-34 -269 0
-252 -266 0
-34 -167 0
-197 -294 0
-47 -75 0
-168 -210 0
-13 -230 0
-197 -274 0
-6 -277 0
-111 -291 0
-152 -276 0
-117 -205 0
-45 -70 0
-27 -226 0
-130 -227 0
-11 -72 0
-250 -296 0
-64 -292 0
-15 -148 0
-63 -223 0
-115 -174 0
-38 -257 0
-27 -88 0
-131 -230 0
-83 -197 0
-264 -290 0
-82 -148 0
-77 -177 0
-60 -74 0
-102 -155 0
-101 -129 0
-145 -241 0
-13 -244 0
-49 -142 0
-83 -227 0
-93 -211 0
-129 -158 0
-68 -276 0
-31 -225 0
-150 -279 0
-149 -256 0
-165 -281 0
-81 -124 0
-89 -121 0
-156 -290 0
-173 -222 0
-102 -298 0
-40 -120 0
-40 -192 0
-234 -266 0
-180 -227 0
-140 -205 0
-218 -229 0
-32 -206 0
-59 -259 0
-80 -275 0
-59 -141 0
-61 -273 0
-118 -141 0
-31 -157 0
-85 -93 0
-81 -130 0
-13 -128 0
-79 -247 0
-13 -300 0
-16 -261 0
-32 -256 0
-38 -139 0
-150 -160 0
-169 -196 0
-203 -293 0
-204 -260 0
-136 -167 0
-200 -266 0
-14 -28 0
-12 -126 0
-101 -270 0
-10 -42 0
-11 -192 0
-33 -181 0
-175 -273 0
-202 -267 0
-102 -114 0
-33 -250 0
-59 -261 0
-49 -206 0
-132 -276 0
-85 -174 0
-203 -225 0
-114 -246 0
-8 -41 0
-105 -223 0
-28 -60 0
-34 -274 0
-28 -123 0
-100 -301 0
-42 -256 0
-180 -295 0
-40 -86 0
-13 -197 0
-31 -281 0
-225 -292 0
-106 -223 0
-4 -104 0
-76 -141 0
-217 -279 0
-134 -147 0
-94 -173 0
-60 -256 0
-135 -263 0
-12 -146 0
-66 -291 0
-85 -243 0
-83 -116 0
-111 -188 0
-83 -145 0
-28 -73 0
-135 -282 0
-76 -160 0
-116 -295 0
-196 -205 0
-168 -265 0
-153 -160 0
-62 -214 0
-50 -216 0
-108 -276 0
-178 -190 0
-106 -156 0
-5 -52 0
-220 -284 0
-184 -229 0
-78 -121 0
-176 -226 0
-12 -180 0
-82 -163 0
-100 -133 0
-6 -70 0
-64 -110 0
-182 -223 0
-81 -164 0
-147 -256 0
-152 -242 0
-30 -233 0
-238 -301 0
-124 -276 0
-27 -207 0
-20 -36 0
-145 -154 0
-145 -274 0
-64 -112 0
-84 -174 0
-7 -57 0
-164 -173 0
-184 -299 0
-254 -264 0
-203 -283 0
-153 -171 0
-51 -283 0
-17 -35 0
-50 -110 0
-30 -154 0
-45 -175 0
-30 -165 0
-218 -268 0
-30 -223 0
-117 -240 0
-15 -201 0
-43 -154 0
-218 -232 0
-12 -282 0
-79 -192 0
-15 -162 0
-14 -113 0
-21 -173 0
-147 -159 0
-170 -243 0
-167 -212 0
-127 -141 0
-116 -280 0
-119 -165 0
-9 -295 0
-240 -256 0
-63 -228 0
-57 -258 0
-219 -251 0
-15 -103 0
-127 -157 0
-237 -276 0
-81 -248 0
-119 -122 0
-284 -296 0
-2 -18 0
-14 -278 0
-39 -104 0
-50 -253 0
-165 -259 0
-186 -267 0
-63 -76 0
-34 -96 0
-98 -205 0
-212 -239 0
-117 -281 0
-77 -296 0
-255 -305 0
-191 -291 0
-16 -91 0
-66 -72 0
-96 -163 0
-50 -193 0
-50 -205 0
-185 -208 0
-119 -155 0
-51 -237 0
-197 -279 0
-67 -194 0
-34 -131 0
-155 -239 0
-6 -53 0
-136 -159 0
-7 -156 0
-114 -156 0
-34 -76 0
-127 -225 0
-79 -214 0
-48 -93 0
-129 -280 0
-88 -172 0
-114 -207 0
-63 -247 0
-130 -173 0
-43 -56 0
-30 -52 0
-118 -287 0
-215 -258 0
-81 -128 0
-27 -125 0
-43 -239 0
-63 -91 0
-248 -279 0
-94 -297 0
-82 -241 0
-169 -229 0
-178 -294 0
-193 -273 0
-83 -174 0
-43 -290 0
-61 -160 0
-95 -239 0
-261 -274 0
-150 -208 0
-115 -195 0
-17 -234 0
-45 -248 0
-10 -122 0
-49 -140 0
-80 -280 0
-16 -151 0
-200 -226 0
-102 -123 0
-178 -259 0
-48 -173 0
-151 -268 0
-55 -206 0
-32 -157 0
-135 -236 0
-124 -140 0
-55 -292 0
-68 -203 0
-75 -193 0
-114 -172 0
-114 -282 0
-73 -224 0
-78 -241 0
-112 -281 0
-14 -69 0
-49 -53 0
-17 -60 0
-220 -232 0
-39 -139 0
-59 -171 0
-114 -281 0
-44 -128 0
-98 -295 0
-67 -230 0
-93 -277 0
-45 -106 0
-136 -179 0
-66 -75 0
-49 -242 0
-66 -82 0
-8 -257 0
-31 -115 0
-29 -70 0
-133 -147 0
-100 -173 0
-11 -54 0
-47 -191 0
-129 -294 0
-244 -275 0
-66 -91 0
-24 -55 0
-132 -225 0
-26 -193 0
-51 -80 0
-233 -259 0
-67 -231 0
-30 -162 0
-44 -177 0
-46 -178 0
-150 -213 0
-131 -300 0
-123 -241 0
-59 -121 0
-13 -258 0
-58 -142 0
-22 -157 0
-136 -226 0
-117 -230 0
-111 -195 0
-33 -234 0
-12 -24 0
-78 -244 0
-131 -179 0
-75 -173 0
-150 -227 0
-228 -291 0
-149 -216 0
-197 -281 0
-27 -123 0
-26 -107 0
-33 -265 0
-152 -231 0
-9 -40 0
-80 -127 0
-25 -262 0
-96 -159 0
-50 -291 0
-153 -293 0
-11 -77 0
-131 -180 0
-43 -222 0
-145 -192 0
-245 -256 0
-83 -154 0
-31 -109 0
-152 -236 0
-32 -98 0
-288 -303 0
-237 -244 0
-196 -241 0
-39 -172 0
-9 -171 0
-78 -127 0
-102 -165 0
-153 -256 0
-177 -275 0
-229 -296 0
-115 -130 0
-101 -240 0
-169 -233 0
-14 -276 0
-33 -63 0
-15 -285 0
-15 -31 0
-203 -298 0
-25 -123 0
-209 -241 0
-117 -128 0
-183 -281 0
-153 -193 0
-92 -295 0
-63 -260 0
-133 -163 0
-118 -199 0
-131 -157 0
-72 -88 0
-182 -256 0
-105 -138 0
-48 -276 0
-84 -99 0
-64 -240 0
-9 -280 0
-62 -171 0
-9 -193 0
-117 -261 0
-192 -292 0
-64 -298 0
-66 -200 0
-51 -155 0
-134 -206 0
-34 -99 0
-232 -241 0
-113 -290 0
-82 -298 0
-24 -257 0
-200 -262 0
-115 -229 0
-43 -223 0
-12 -92 0
-180 -259 0
-92 -140 0
-253 -259 0
-167 -205 0
-32 -88 0
-53 -256 0
-129 -222 0
-166 -298 0
-228 -260 0
-44 -56 0
-11 -191 0
-224 -257 0
-47 -292 0
-57 -189 0
-84 -269 0
-184 -276 0
-17 -217 0
-45 -108 0
-43 -177 0
-136 -161 0
-84 -248 0
-84 -201 0
-101 -121 0
-149 -240 0
-146 -297 0
-167 -268 0
-28 -247 0
-242 -292 0
-181 -191 0
-67 -282 0
-102 -252 0
-131 -145 0
-255 -262 0
-108 -154 0
-201 -212 0
-59 -120 0
-68 -234 0
-183 -242 0
-186 -210 0
-25 -244 0
-29 -181 0
-4 -274 0
-153 -269 0
-132 -247 0
-176 -274 0
-143 -275 0
-151 -160 0
-92 -122 0
-23 -55 0
-203 -247 0
-20 -290 0
-136 -217 0
-17 -179 0
-32 -90 0
-199 -224 0
-28 -175 0
-11 -277 0
-245 -294 0
-110 -194 0
-130 -194 0
-179 -211 0
-11 -52 0
-102 -145 0
-85 -185 0
-140 -291 0
-108 -208 0
-186 -217 0
-102 -259 0
-131 -274 0
-25 -108 0
-166 -210 0
-109 -258 0
-176 -291 0
-152 -174 0
-218 -280 0
-42 -139 0
-41 -137 0
-79 -282 0
-151 -273 0
-271 -291 0
-180 -242 0
-111 -246 0
-150 -228 0
-219 -292 0
-50 -282 0
-61 -190 0
-255 -288 0
-164 -180 0
-156 -171 0
-79 -127 0
-46 -208 0
-196 -292 0
-47 -56 0
-67 -304 0
-61 -111 0
-93 -108 0
-112 -161 0
-62 -105 0
-129 -207 0
-11 -26 0
-96 -242 0
-77 -157 0
-5 -291 0
-26 -138 0
-49 -63 0
-81 -191 0
-49 -195 0
-118 -168 0
-31 -88 0
-68 -96 0
-51 -212 0
-64 -163 0
-61 -276 0
-67 -96 0
-112 -177 0
-109 -261 0
-182 -282 0
-68 -251 0
-132 -212 0
-62 -278 0
-38 -207 0
-102 -257 0
-212 -257 0
-84 -266 0
-102 -210 0
-95 -213 0
-85 -118 0
-83 -230 0
-266 -290 0
-148 -162 0
-231 -296 0
-97 -209 0
-254 -291 0
-67 -131 0
-64 -69 0
-235 -276 0
-106 -274 0
-10 -280 0
-179 -222 0
-268 -292 0
-129 -137 0
-203 -224 0
-153 -188 0
-45 -87 0
-132 -227 0
-136 -166 0
-149 -267 0
-11 -140 0
-40 -122 0
-107 -188 0
-9 -121 0
-42 -137 0
-244 -292 0
-203 -236 0
-166 -188 0
-249 -297 0
-15 -225 0
-153 -286 0
-44 -72 0
-8 -292 0
-17 -95 0
-129 -240 0
-169 -248 0
-89 -139 0
-46 -109 0
-81 -104 0
-228 -242 0
-99 -267 0
-30 -282 0
-49 -126 0
-164 -179 0
-85 -184 0
-151 -199 0
-168 -266 0
-47 -130 0
-61 -207 0
-68 -282 0
-15 -182 0
-219 -226 0
-46 -214 0
-47 -182 0
-57 -73 0
-150 -176 0
-147 -240 0
-71 -240 0
-65 -126 0
-13 -295 0
-75 -207 0
-67 -229 0
-134 -252 0
-233 -276 0
-47 -111 0
-97 -174 0
-235 -245 0
-25 -71 0
-96 -180 0
-49 -89 0
-180 -194 0
-15 -96 0
-117 -301 0
-80 -89 0
-200 -208 0
-282 -290 0
-92 -125 0
-212 -291 0
-67 -268 0
-178 -256 0
-102 -154 0
-216 -242 0
-234 -241 0
-15 -72 0
-24 -105 0
-175 -188 0
-204 -209 0
-97 -194 0
-67 -130 0
-50 -72 0
-275 -291 0
-30 -130 0
-135 -147 0
-96 -298 0
-118 -132 0
-192 -257 0
-213 -262 0
-153 -301 0
-51 -103 0
-40 -90 0
-250 -295 0
-65 -81 0
-13 -130 0
-105 -172 0
-111 -142 0
-117 -216 0
-218 -259 0
-161 -191 0
-117 -192 0
-160 -278 0
-142 -173 0
-196 -240 0
-284 -294 0
-47 -247 0
-112 -124 0
-10 -139 0
-138 -171 0
-211 -224 0
-65 -175 0
-65 -248 0
-30 -280 0
-77 -205 0
-82 -92 0
-16 -246 0
-62 -191 0
-27 -247 0
-31 -159 0
-146 -154 0
-132 -261 0
-12 -244 0
-101 -198 0
-135 -222 0
-26 -73 0
-44 -54 0
-254 -258 0
-132 -138 0
-79 -189 0
-48 -90 0
-131 -246 0
-76 -262 0
-15 -215 0
-11 -224 0
-164 -265 0
-164 -291 0
-146 -213 0
-43 -296 0
-149 -293 0
-13 -137 0
-135 -300 0
-68 -155 0
-13 -301 0
-33 -268 0
-184 -277 0
-100 -174 0
-174 -205 0
-39 -154 0
-31 -243 0
-131 -231 0
-219 -252 0
-214 -296 0
-130 -292 0
-94 -156 0
-98 -239 0
-174 -273 0
-33 -66 0
-236 -275 0
-185 -215 0
-130 -282 0
-78 -105 0
-117 -229 0
-124 -241 0
-113 -241 0
-234 -301 0
-94 -277 0
-25 -137 0
-159 -240 0
-54 -239 0
-169 -266 0
-53 -103 0
-185 -217 0
-68 -124 0
-128 -140 0
-68 -220 0
-90 -274 0
-42 -88 0
-24 -208 0
-102 -240 0
-30 -273 0
-129 -159 0
-49 -233 0
-12 -72 0
-164 -189 0
-235 -264 0
-12 -172 0
-17 -245 0
-81 -139 0
-144 -296 0
-84 -103 0
-110 -175 0
-102 -134 0
-145 -279 0
-8 -157 0
-211 -294 0
-16 -155 0
-119 -151 0
-54 -206 0
-135 -265 0
-67 -293 0
-60 -142 0
-16 -80 0
-16 -280 0
-63 -110 0
-54 -121 0
-115 -250 0
-170 -288 0
-96 -162 0
-74 -240 0
-51 -180 0
-97 -111 0
-33 -245 0
-233 -261 0
-47 -196 0
-80 -228 0
-249 -293 0
-118 -266 0
-184 -217 0
-126 -155 0
-102 -173 0
-66 -159 0
-146 -191 0
-23 -275 0
-45 -90 0
-29 -177 0
-15 -298 0
-31 -121 0
-152 -181 0
-136 -258 0
-42 -296 0
-191 -241 0
-50 -137 0
-219 -256 0
-252 -275 0
-100 -165 0
-30 -281 0
-93 -125 0
-95 -295 0
-96 -120 0
-88 -256 0
-114 -205 0
-163 -276 0
-6 -138 0
-220 -241 0
-21 -138 0
-167 -225 0
-50 -149 0
-34 -183 0
-82 -113 0
-9 -207 0
-111 -278 0
-100 -161 0
-134 -142 0
-91 -242 0
-238 -299 0
-114 -146 0
-73 -190 0
-45 -279 0
-77 -239 0
-199 -290 0
-98 -244 0
-170 -254 0
-271 -300 0
-117 -180 0
-49 -234 0
-166 -189 0
-116 -217 0
-31 -81 0
-102 -219 0
-84 -196 0
-170 -245 0
-16 -209 0
-39 -155 0
-129 -177 0
-129 -295 0
-68 -192 0
-117 -193 0
-212 -296 0
-232 -298 0
-162 -171 0
-115 -284 0
-14 -18 0
-13 -284 0
-10 -179 0
-198 -273 0
-33 -163 0
-85 -247 0
-15 -154 0
-24 -206 0
-11 -171 0
-58 -89 0
-26 -69 0
-14 -299 0
-167 -285 0
-48 -278 0
-118 -210 0
-15 -156 0
-197 -210 0
-158 -191 0
-153 -178 0
-68 -178 0
-68 -184 0
-115 -233 0
-33 -246 0
-136 -218 0
-31 -54 0
-50 -141 0
-153 -300 0
-101 -251 0
-44 -144 0
-135 -262 0
-118 -294 0
-214 -280 0
-99 -110 0
-272 -283 0
-91 -259 0
-101 -245 0
-67 -164 0
-10 -227 0
-82 -297 0
-31 -181 0
-51 -270 0
-60 -223 0
-189 -256 0
-113 -294 0
-83 -276 0
-15 -161 0
-102 -282 0
-51 -301 0
-164 -248 0
-57 -71 0
-232 -256 0
-37 -188 0
-63 -179 0
-12 -205 0
-67 -126 0
-17 -23 0
-43 -192 0
-49 -167 0
-14 -298 0
-50 -179 0
-187 -248 0
-34 -197 0
-84 -296 0
-27 -280 0
-85 -152 0
-165 -278 0
-93 -293 0
-12 -26 0
-44 -225 0
-28 -297 0
-34 -70 0
-118 -211 0
-64 -277 0
-73 -274 0
-7 -139 0
-51 -72 0
-136 -230 0
-146 -226 0
-145 -160 0
-238 -267 0
-119 -174 0
-149 -259 0
-119 -212 0
-9 -275 0
-136 -285 0
-128 -137 0
-48 -283 0
-46 -213 0
-64 -161 0
-33 -145 0
-30 -120 0
-83 -104 0
-100 -283 0
-113 -191 0
-30 -301 0
-220 -302 0
-12 -137 0
-166 -245 0
-114 -232 0
-79 -207 0
-10 -211 0
-15 -81 0
-204 -208 0
-98 -138 0
-66 -114 0
-95 -259 0
-82 -172 0
-93 -191 0
-136 -213 0
-66 -130 0
-157 -207 0
-217 -300 0
-119 -225 0
-204 -243 0
-100 -107 0
-77 -139 0
-4 -122 0
-50 -222 0
-41 -190 0
-24 -244 0
-202 -209 0
-152 -245 0
-99 -112 0
-39 -292 0
-3 -257 0
-68 -95 0
-49 -190 0
-10 -111 0
-98 -163 0
-133 -249 0
-100 -141 0
-78 -190 0
-12 -246 0
-236 -294 0
-55 -172 0
-99 -290 0
-16 -225 0
-288 -301 0
-259 -273 0
-202 -229 0
-84 -253 0
-287 -297 0
-41 -121 0
-29 -224 0
-49 -141 0
-92 -173 0
-133 -258 0
-22 -290 0
-47 -112 0
-236 -299 0
-67 -114 0
-79 -257 0
-94 -194 0
-187 -303 0
-218 -225 0
-16 -172 0
-125 -155 0
-45 -137 0
-83 -142 0
-84 -267 0
-185 -266 0
-161 -294 0
-68 -147 0
-65 -95 0
-234 -258 0
-194 -260 0
-26 -173 0
-164 -260 0
-43 -91 0
-4 -290 0
-16 -31 0
-89 -273 0
-31 -114 0
-161 -295 0
-131 -260 0
-184 -200 0
-15 -194 0
-21 -290 0
-232 -281 0
-214 -262 0
-48 -268 0
-68 -224 0
-27 -256 0
-40 -189 0
-45 -297 0
-162 -223 0
-12 -189 0
-66 -198 0
-210 -242 0
-136 -176 0
-216 -298 0
-211 -291 0
-151 -172 0
-29 -209 0
-83 -239 0
-34 -198 0
-67 -116 0
-221 -248 0
-131 -140 0
-113 -143 0
-31 -214 0
-219 -266 0
-201 -261 0
-81 -294 0
-150 -212 0
-47 -94 0
-131 -189 0
-178 -262 0
-201 -290 0
-183 -259 0
-25 -274 0
-12 -36 0
-170 -195 0
-31 -190 0
-34 -39 0
-16 -95 0
-170 -205 0
-11 -241 0
-182 -191 0
-153 -243 0
-198 -223 0
-42 -106 0
-13 -161 0
-99 -242 0
-168 -216 0
-15 -230 0
-65 -112 0
-24 -275 0
-78 -123 0
-34 -288 0
-33 -175 0
-47 -231 0
-44 -246 0
-79 -261 0
-112 -228 0
-136 -150 0
-34 -127 0
-115 -127 0
-67 -202 0
-238 -259 0
-43 -159 0
-85 -158 0
-102 -148 0
-163 -188 0
-13 -160 0
-42 -140 0
-33 -151 0
-101 -132 0
-102 -144 0
-48 -124 0
-158 -276 0
-185 -211 0
-5 -137 0
-58 -277 0
-117 -217 0
-108 -223 0
-84 -226 0
-45 -223 0
-116 -292 0
-213 -295 0
-8 -57 0
-174 -239 0
-24 -174 0
-64 -105 0
-66 -207 0
-4 -138 0
-278 -292 0
-106 -154 0
-132 -174 0
-236 -277 0
-178 -193 0
-31 -124 0
-57 -156 0
-100 -269 0
-57 -157 0
-19 -256 0
-169 -231 0
-91 -107 0
-29 -242 0
-126 -139 0
-85 -181 0
-169 -273 0
-102 -199 0
-34 -277 0
-67 -86 0
-116 -302 0
-85 -237 0
-101 -249 0
-81 -141 0
-62 -137 0
-15 -20 0
-15 -257 0
-45 -140 0
-9 -157 0
-102 -281 0
-33 -191 0
-143 -175 0
-28 -208 0
-68 -226 0
-90 -242 0
-59 -262 0
-184 -226 0
-118 -128 0
-117 -120 0
-16 -124 0
-78 -213 0
-84 -232 0
-16 -158 0
-91 -103 0
-199 -242 0
-116 -175 0
-215 -263 0
-280 -290 0
-31 -274 0
-187 -210 0
-261 -290 0
-62 -112 0
-10 -247 0
-100 -226 0
-62 -77 0
-148 -294 0
-101 -262 0
-13 -138 0
-15 -73 0
-45 -103 0
-13 -111 0
-16 -120 0
-135 -304 0
-80 -93 0
-101 -195 0
-27 -138 0
-150 -245 0
-10 -127 0
-16 -98 0
-98 -294 0
-65 -249 0
-111 -296 0
-67 -210 0
-3 -53 0
-51 -77 0
-101 -156 0
-16 -150 0
-27 -212 0
-229 -261 0
-65 -280 0
-164 -177 0
-135 -164 0
-44 -291 0
-197 -264 0
-66 -156 0
-9 -122 0
-5 -256 0
-133 -189 0
-153 -175 0
-170 -286 0
-125 -259 0
-48 -81 0
-74 -122 0
-66 -284 0
-42 -210 0
-31 -141 0
-253 -286 0
-66 -282 0
-14 -104 0
-102 -271 0
-107 -120 0
-102 -244 0
-15 -36 0
-25 -174 0
-19 -239 0
-28 -294 0
-97 -257 0
-151 -184 0
-248 -261 0
-151 -286 0
-179 -278 0
-73 -225 0
-32 -246 0
-48 -285 0
-49 -248 0
-68 -293 0
-50 -178 0
-136 -178 0
-165 -242 0
-135 -207 0
-84 -113 0
-73 -189 0
-78 -245 0
-159 -257 0
-114 -144 0
-17 -152 0
-7 -138 0
-169 -208 0
-238 -264 0
-67 -110 0
-108 -190 0
-134 -222 0
-30 -279 0
-66 -222 0
-258 -291 0
-147 -223 0
-30 -62 0
-46 -265 0
-181 -281 0
-140 -207 0
-128 -280 0
-108 -156 0
-63 -298 0
-167 -266 0
-186 -199 0
-8 -158 0
-22 -188 0
-16 -20 0
-145 -228 0
-142 -292 0
-67 -75 0
-6 -276 0
-77 -229 0
-76 -122 0
-152 -285 0
-96 -146 0
-26 -177 0
-168 -291 0
-14 -98 0
-144 -189 0
-101 -264 0
-115 -173 0
-266 -273 0
-46 -72 0
-78 -195 0
-50 -128 0
-184 -194 0
-131 -146 0
-14 -130 0
-191 -224 0
-219 -223 0
-129 -276 0
-150 -230 0
-85 -226 0
-123 -256 0
-67 -295 0
-63 -72 0
-84 -155 0
-47 -276 0
-102 -176 0
-17 -261 0
-32 -214 0
-30 -226 0
-117 -175 0
-16 -230 0
-13 -40 0
-119 -197 0
-169 -227 0
-15 -198 0
-64 -181 0
-121 -137 0
-45 -141 0
-169 -202 0
-163 -296 0
-6 -139 0
-49 -239 0
-238 -276 0
-129 -281 0
-234 -243 0
-65 -205 0
-115 -157 0
-34 -231 0
-30 -75 0
-31 -122 0
-81 -180 0
-68 -250 0
-42 -175 0
-12 -257 0
-13 -77 0
-220 -287 0
-128 -275 0
-26 -109 0
-56 -120 0
-127 -139 0
-23 -277 0
-34 -222 0
-50 -120 0
-24 -277 0
-97 -188 0
-67 -156 0
-85 -112 0
-80 -162 0
-50 -154 0
-92 -155 0
-47 -70 0
-68 -110 0
-30 -148 0
-135 -176 0
-63 -197 0
-198 -275 0
-90 -206 0
-102 -301 0
-34 -209 0
-263 -290 0
-60 -246 0
-183 -276 0
-109 -256 0
-51 -167 0
-220 -298 0
-130 -193 0
-15 -246 0
-97 -277 0
-30 -40 0
-123 -224 0
-29 -197 0
-59 -244 0
-23 -54 0
-236 -295 0
-73 -172 0
-47 -86 0
-34 -252 0
-219 -242 0
-63 -192 0
-71 -274 0
-183 -260 0
-17 -72 0
-111 -206 0
-220 -223 0
-32 -114 0
-75 -275 0
-38 -52 0
-50 -240 0
-115 -196 0
-98 -283 0
-135 -297 0
-32 -35 0
-51 -62 0
-113 -243 0
-163 -210 0
-65 -157 0
-186 -212 0
-197 -261 0
-33 -94 0
-30 -207 0
-48 -256 0
-43 -125 0
-148 -243 0
-68 -164 0
-50 -242 0
-92 -243 0
-60 -154 0
-63 -89 0
-143 -159 0
-116 -296 0
-47 -298 0
-149 -188 0
-129 -155 0
-151 -274 0
-145 -158 0
-66 -108 0
-134 -189 0
-134 -161 0
-102 -304 0
-51 -92 0
-127 -188 0
-221 -304 0
-6 -226 0
-13 -175 0
-133 -162 0
-147 -242 0
-260 -293 0
-49 -128 0
-66 -93 0
-93 -156 0
-201 -247 0
-148 -154 0
-187 -239 0
-22 -239 0
-34 -98 0
-132 -164 0
-183 -261 0
-175 -257 0
-59 -156 0
-230 -262 0
-134 -286 0
-27 -176 0
-125 -158 0
-59 -173 0
-47 -248 0
-33 -61 0
-34 -146 0
-149 -299 0
-10 -59 0
-29 -120 0
-116 -210 0
-26 -74 0
-41 -89 0
-11 -128 0
-38 -206 0
-92 -291 0
-131 -241 0
-253 -257 0
-208 -291 0
-184 -266 0
-180 -239 0
-119 -266 0
-115 -298 0
-181 -274 0
-247 -278 0
-149 -273 0
-14 -37 0
-270 -285 0
-25 -53 0
-197 -224 0
-85 -228 0
-150 -268 0
-68 -99 0
-102 -117 0
-11 -205 0
-48 -300 0
-238 -296 0
-149 -176 0
-136 -172 0
-21 -189 0
-77 -243 0
-153 -282 0
-142 -259 0
-96 -128 0
-50 -258 0
-111 -257 0
-99 -261 0
-10 -240 0
-31 -215 0
-127 -257 0
-152 -234 0
-49 -108 0
-84 -275 0
-117 -206 0
-33 -92 0
-12 -192 0
-185 -264 0
-272 -292 0
-49 -138 0
-77 -172 0
-68 -77 0
-199 -299 0
-249 -260 0
-33 -277 0
-72 -224 0
-22 -273 0
-117 -290 0
-40 -121 0
-15 -163 0
-65 -283 0
-132 -296 0
-143 -278 0
-85 -254 0
-14 -74 0
-99 -156 0
-132 -242 0
-97 -224 0
-23 -191 0
-24 -124 0
-99 -128 0
-200 -216 0
-47 -71 0
-78 -172 0
-34 -186 0
-119 -149 0
-81 -195 0
-148 -230 0
-111 -210 0
-99 -280 0
-46 -96 0
-266 -281 0
-27 -73 0
-79 -256 0
-30 -58 0
-215 -241 0
-94 -172 0
-14 -24 0
-203 -219 0
-67 -94 0
-33 -231 0
-47 -243 0
-152 -296 0
-67 -112 0
-34 -89 0
-76 -105 0
-90 -106 0
-135 -246 0
-78 -125 0
-115 -212 0
-13 -294 0
-45 -158 0
-167 -256 0
-185 -223 0
-44 -258 0
-61 -143 0
-101 -267 0
-203 -231 0
-15 -273 0
-70 -273 0
-194 -207 0
-136 -280 0
-14 -281 0
-15 -217 0
-162 -174 0
-186 -230 0
-47 -154 0
-147 -263 0
-83 -277 0
-187 -288 0
-217 -232 0
-225 -275 0
-132 -180 0
-76 -125 0
-62 -205 0
-67 -79 0
-204 -223 0
-16 -42 0
-101 -229 0
-160 -205 0
-168 -206 0
-17 -89 0
-232 -260 0
-65 -111 0
-32 -81 0
-218 -285 0
-46 -263 0
-50 -219 0
-27 -110 0
-136 -142 0
-285 -293 0
-182 -228 0
-169 -280 0
-44 -295 0
-59 -177 0
-114 -300 0
-24 -73 0
-74 -206 0
-45 -189 0
-51 -257 0
-195 -294 0
-83 -115 0
-45 -72 0
-117 -227 0
-98 -279 0
-56 -276 0
-102 -181 0
-95 -191 0
-29 -205 0
-136 -180 0
-93 -122 0
-45 -129 0
-184 -188 0
-110 -290 0
-144 -172 0
-199 -291 0
-127 -205 0
-126 -225 0
-81 -198 0
-152 -154 0
-67 -168 0
-13 -177 0
-46 -130 0
-140 -275 0
-27 -122 0
-26 -290 0
-67 -182 0
-101 -266 0
-85 -265 0
-67 -274 0
-218 -233 0
-12 -239 0
-85 -278 0
-118 -270 0
-61 -293 0
-11 -121 0
-80 -244 0
-92 -191 0
-156 -188 0
-132 -160 0
-159 -188 0
-183 -284 0
-75 -190 0
-131 -209 0
-221 -223 0
-271 -278 0
-144 -242 0
-167 -265 0
-129 -191 0
-272 -291 0
-127 -173 0
-82 -160 0
-48 -197 0
-119 -246 0
-133 -178 0
-147 -244 0
-25 -69 0
-85 -250 0
-131 -266 0
-84 -156 0
-17 -151 0
-17 -80 0
-153 -281 0
-89 -290 0
-17 -288 0
-49 -281 0
-108 -172 0
-270 -299 0
-46 -195 0
-44 -293 0
-74 -192 0
-73 -105 0
-101 -105 0
-126 -257 0
-125 -171 0
-252 -292 0
-145 -188 0
-72 -137 0
-30 -122 0
-186 -195 0
-68 -72 0
-125 -137 0
-68 -197 0
-119 -210 0
-74 -137 0
-57 -208 0
-128 -240 0
-11 -22 0
-67 -267 0
-62 -124 0
-44 -162 0
-105 -120 0
-100 -190 0
-34 -66 0
-148 -257 0
-255 -267 0
-94 -193 0
-16 -110 0
-221 -258 0
-6 -257 0
-49 -223 0
-34 -230 0
-153 -164 0
-14 -195 0
-117 -157 0
-93 -103 0
-162 -273 0
-115 -154 0
-75 -140 0
-128 -207 0
-14 -183 0
-187 -290 0
-119 -143 0
-65 -74 0
-77 -160 0
-15 -140 0
-229 -262 0
-47 -61 0
-98 -108 0
-60 -157 0
-51 -303 0
-149 -171 0
-133 -182 0
-287 -295 0
-75 -87 0
-85 -239 0
-200 -246 0
-261 -294 0
-5 -189 0
-197 -227 0
-97 -280 0
-203 -211 0
-17 -31 0
-200 -273 0
-216 -229 0
-43 -123 0
-46 -189 0
-218 -282 0
-75 -89 0
-194 -257 0
-30 -278 0
-183 -280 0
-19 -188 0
-38 -290 0
-80 -209 0
-60 -226 0
-101 -219 0
-185 -198 0
-32 -105 0
-158 -292 0
-26 -293 0
-133 -296 0
-17 -188 0
-48 -107 0
-152 -215 0
-141 -207 0
-30 -247 0
-176 -240 0
-165 -223 0
-16 -37 0
-48 -63 0
-33 -35 0
-170 -248 0
-182 -262 0
-150 -179 0
-96 -143 0
-97 -195 0
-101 -150 0
-151 -226 0
-41 -72 0
-180 -224 0
-213 -256 0
-17 -145 0
-200 -281 0
-213 -292 0
-48 -246 0
-126 -175 0
-135 -217 0
-63 -244 0
-195 -295 0
-57 -123 0
-62 -143 0
-74 -277 0
-10 -193 0
-93 -295 0
-17 -250 0
-110 -205 0
-7 -210 0
-187 -236 0
-236 -243 0
-67 -192 0
-219 -243 0
-16 -201 0
-25 -277 0
-66 -233 0
-168 -263 0
-143 -226 0
-167 -300 0
-30 -71 0
-102 -287 0
-113 -299 0
-17 -69 0
-33 -291 0
-144 -177 0
-124 -139 0
-34 -227 0
-92 -256 0
-14 -226 0
-78 -242 0
-15 -178 0
-196 -297 0
-28 -207 0
-29 -95 0
-165 -215 0
-79 -95 0
-43 -157 0
-28 -281 0
-246 -276 0
-185 -293 0
-28 -227 0
-44 -230 0
-237 -291 0
-174 -240 0
-99 -298 0
-165 -207 0
-16 -72 0
-149 -246 0
-85 -169 0
-286 -294 0
-44 -73 0
-54 -189 0
-90 -257 0
-198 -248 0
-185 -276 0
-129 -226 0
-143 -190 0
-60 -105 0
-15 -291 0
-282 -291 0
-27 -160 0
-163 -264 0
-116 -230 0
-178 -239 0
-271 -282 0
-38 -291 0
-237 -282 0
-130 -176 0
-170 -224 0
-187 -287 0
-147 -192 0
-283 -293 0
-75 -86 0
-101 -224 0
-153 -276 0
-16 -268 0
-187 -196 0
-210 -224 0
-245 -295 0
-129 -144 0
-45 -109 0
-64 -207 0
-181 -277 0
-146 -222 0
-23 -242 0
-85 -95 0
-80 -154 0
-152 -167 0
-13 -165 0
-99 -292 0
-62 -223 0
-134 -277 0
-46 -223 0
-228 -240 0
-127 -177 0
-142 -208 0
-114 -277 0
-82 -176 0
-13 -42 0
-30 -300 0
-129 -277 0
-28 -222 0
-161 -240 0
-47 -274 0
-96 -197 0
-232 -247 0
-134 -212 0
-95 -144 0
-147 -260 0
-16 -100 0
-113 -125 0
-84 -217 0
-234 -279 0
-59 -275 0
-48 -59 0
-253 -302 0
-169 -172 0
-255 -281 0
-17 -229 0
-226 -290 0
-63 -265 0
-82 -278 0
-32 -147 0
-116 -277 0
-168 -232 0
-51 -96 0
-176 -192 0
-109 -189 0
-236 -303 0
-34 -173 0
-4 -188 0
-238 -260 0
-64 -208 0
-96 -178 0
-29 -292 0
-7 -157 0
-45 -57 0
-16 -143 0
-50 -241 0
-119 -279 0
-34 -181 0
-16 -86 0
-219 -278 0
-67 -181 0
-66 -295 0
-254 -284 0
-10 -222 0
-181 -226 0
-78 -261 0
-7 -137 0
-119 -142 0
-27 -162 0
-163 -226 0
-29 -257 0
-34 -54 0
-29 -130 0
-27 -209 0
-66 -95 0
-16 -129 0
-26 -70 0
-191 -257 0
-203 -242 0
-84 -162 0
-236 -249 0
-167 -284 0
-96 -125 0
-84 -228 0
-269 -293 0
-30 -246 0
-243 -256 0
-32 -296 0
-8 -273 0
-118 -245 0
-187 -291 0
-13 -191 0
-143 -290 0
-203 -299 0
-21 -36 0
-162 -226 0
-14 -53 0
-228 -290 0
-8 -262 0
-38 -256 0
-152 -235 0
-143 -294 0
-11 -69 0
-33 -228 0
-119 -294 0
-143 -242 0
-28 -276 0
-97 -281 0
-80 -195 0
-17 -101 0
-209 -293 0
-51 -240 0
-28 -146 0
-99 -224 0
-101 -268 0
-88 -273 0
-6 -173 0
-9 -223 0
-119 -201 0
-168 -230 0
-117 -282 0
-34 -264 0
-98 -276 0
-64 -137 0
-125 -190 0
-167 -196 0
-200 -228 0
-181 -263 0
-76 -225 0
-33 -39 0
-197 -225 0
-102 -195 0
-7 -52 0
-59 -206 0
-12 -23 0
-125 -140 0
-152 -230 0
-166 -209 0
-60 -260 0
-119 -276 0
-81 -97 0
-68 -273 0
-116 -125 0
-140 -171 0
-66 -260 0
-232 -275 0
-169 -267 0
-148 -181 0
-49 -192 0
-39 -208 0
-134 -235 0
-151 -176 0
-266 -293 0
-51 -59 0
-82 -173 0
-229 -260 0
-204 -226 0
-11 -229 0
-25 -192 0
-133 -214 0
-146 -158 0
-136 -278 0
-42 -105 0
-80 -180 0
-197 -276 0
-132 -243 0
-57 -174 0
-10 -123 0
-67 -148 0
-32 -65 0
-74 -89 0
-180 -196 0
-129 -274 0
-136 -141 0
-110 -277 0
-194 -276 0
-146 -291 0
-119 -253 0
-68 -174 0
-32 -193 0
-116 -120 0
-89 -188 0
-74 -156 0
-34 -81 0
-200 -223 0
-228 -292 0
-167 -259 0
-57 -173 0
-97 -193 0
-23 -122 0
-93 -155 0
-24 -209 0
-185 -224 0
-170 -184 0
-3 -104 0
-133 -149 0
-50 -173 0
-66 -175 0
-66 -167 0
-13 -229 0
-119 -173 0
-16 -217 0
-133 -265 0
-200 -274 0
-61 -174 0
-9 -241 0
-47 -108 0
-44 -161 0
-30 -277 0
-73 -174 0
-42 -223 0
-270 -276 0
-33 -172 0
-235 -266 0
-76 -176 0
-76 -194 0
-152 -222 0
-284 -293 0
-111 -122 0
-31 -179 0
-255 -282 0
-49 -267 0
-80 -290 0
-44 -172 0
-119 -147 0
-78 -207 0
-206 -290 0
-15 -108 0
-187 -280 0
-79 -206 0
-162 -263 0
-153 -283 0
-33 -236 0
-250 -259 0
-136 -237 0
-62 -72 0
-85 -270 0
-118 -174 0
-134 -278 0
-122 -257 0
-196 -243 0
-80 -160 0
-61 -275 0
-6 -19 0
-153 -217 0
-33 -48 0
-190 -256 0
-81 -274 0
-200 -280 0
-16 -54 0
-77 -276 0
-170 -292 0
-67 -176 0
-31 -285 0
-141 -241 0
-102 -291 0
-57 -243 0
-250 -280 0
-220 -250 0
-33 -248 0
-146 -230 0
-94 -279 0
-119 -287 0
-73 -121 0
-27 -159 0
-164 -193 0
-30 -128 0
-228 -294 0
-83 -191 0
-202 -301 0
-34 -74 0
-12 -223 0
-101 -110 0
-83 -292 0
-253 -293 0
-152 -161 0
-99 -259 0
-96 -176 0
-30 -260 0
-198 -260 0
-44 -247 0
-66 -124 0
-14 -161 0
-72 -206 0
-6 -120 0
-47 -181 0
-184 -214 0
-8 -226 0
-163 -279 0
-27 -246 0
-33 -180 0
-5 -87 0
-130 -257 0
-242 -291 0
-4 -224 0
-98 -112 0
-165 -243 0
-183 -230 0
-15 -245 0
-61 -75 0
-6 -157 0
-81 -143 0
-79 -208 0
-195 -259 0
-153 -304 0
-150 -155 0
-253 -278 0
-2 -171 0
-50 -211 0
-187 -258 0
-44 -245 0
-235 -277 0
-15 -181 0
-105 -239 0
-118 -224 0
-28 -195 0
-83 -280 0
-254 -268 0
-47 -92 0
-252 -297 0
-111 -295 0
-186 -214 0
-144 -295 0
-144 -279 0
-147 -247 0
-72 -291 0
-108 -260 0
-27 -111 0
-47 -297 0
-254 -270 0
-149 -284 0
-131 -292 0
-249 -290 0
-233 -296 0
-66 -227 0
-45 -145 0
-185 -199 0
-9 -86 0
-50 -185 0
-135 -137 0
-30 -230 0
-85 -199 0
-112 -144 0
-84 -149 0
-31 -110 0
-16 -244 0
-142 -243 0
-108 -293 0
-26 -212 0
-78 -229 0
-56 -208 0
-34 -201 0
-67 -157 0
-30 -250 0
-280 -294 0
-48 -206 0
-225 -240 0
-194 -256 0
-269 -278 0
-16 -49 0
-203 -285 0
-26 -228 0
-116 -283 0
-200 -214 0
-248 -257 0
-31 -207 0
-98 -144 0
-216 -228 0
-67 -83 0
-93 -175 0
-252 -280 0
-161 -189 0
-10 -191 0
-109 -171 0
-263 -279 0
-33 -235 0
-49 -104 0
-12 -278 0
-153 -207 0
-227 -256 0
-66 -171 0
-109 -140 0
-139 -290 0
-152 -182 0
-116 -144 0
-115 -165 0
-105 -154 0
-145 -242 0
-220 -295 0
-201 -299 0
-200 -295 0
-33 -214 0
-272 -293 0
-12 -231 0
-124 -273 0
-8 -107 0
-49 -216 0
-166 -195 0
-76 -226 0
-34 -110 0
-195 -239 0
-34 -47 0
-159 -191 0
-159 -276 0
-119 -150 0
-62 -292 0
-40 -156 0
-13 -298 0
-125 -260 0
-14 -229 0
-163 -178 0
-92 -159 0
-128 -222 0
-113 -196 0
-33 -226 0
-30 -69 0
-153 -183 0
-100 -179 0
-250 -273 0
-132 -205 0
-25 -106 0
-29 -222 0
-165 -195 0
-50 -140 0
-148 -208 0
-23 -190 0
-128 -290 0
-78 -173 0
-152 -158 0
-50 -215 0
-126 -294 0
-26 -159 0
-135 -198 0
-101 -217 0
-146 -260 0
-118 -191 0
-100 -193 0
-119 -295 0
-8 -193 0
-183 -301 0
-16 -107 0
-8 -295 0
-271 -287 0
-102 -254 0
-214 -257 0
-67 -180 0
-54 -240 0
-14 -175 0
-83 -299 0
-42 -211 0
-38 -138 0
-64 -96 0
-15 -99 0
-91 -171 0
-202 -227 0
-79 -281 0
-182 -280 0
-180 -207 0
-34 -46 0
-247 -279 0
-72 -120 0
-41 -223 0
-170 -293 0
-59 -189 0
-75 -209 0
-32 -111 0
-203 -277 0
-114 -141 0
-14 -215 0
-102 -236 0
-132 -295 0
-118 -246 0
-65 -190 0
-101 -218 0
-34 -240 0
-203 -274 0
-34 -49 0
-93 -227 0
-64 -165 0
-45 -173 0
-111 -158 0
-170 -252 0
-225 -239 0
-163 -261 0
-66 -103 0
-129 -264 0
-102 -192 0
-68 -281 0
-21 -223 0
-84 -194 0
-32 -184 0
-94 -141 0
-46 -128 0
-16 -70 0
-75 -188 0
-20 -120 0
-67 -183 0
-238 -261 0
-12 -155 0
-77 -240 0
-46 -230 0
-17 -104 0
-6 -258 0
-98 -282 0
-28 -90 0
-197 -260 0
-42 -227 0
-49 -58 0
-49 -299 0
-11 -155 0
-68 -90 0
-251 -259 0
-102 -126 0
-51 -302 0
-14 -59 0
-82 -122 0
-11 -53 0
-8 -206 0
-51 -165 0
-164 -294 0
-31 -70 0
-134 -300 0
-51 -295 0
-84 -137 0
-215 -239 0
-63 -242 0
-146 -280 0
-184 -191 0
-16 -218 0
-31 -59 0
-75 -294 0
-98 -179 0
-67 -184 0
-34 -267 0
-15 -137 0
-46 -155 0
-78 -144 0
-33 -54 0
-168 -209 0
-271 -274 0
-160 -222 0
-61 -209 0
-27 -91 0
-13 -28 0
-182 -279 0
-128 -176 0
-151 -192 0
-51 -290 0
-81 -192 0
-250 -261 0
-229 -245 0
-184 -275 0
-33 -300 0
-215 -226 0
-252 -290 0
-47 -74 0
-84 -127 0
-134 -296 0
-217 -264 0
-270 -275 0
-58 -188 0
-27 -239 0
-47 -257 0
-199 -241 0
-158 -291 0
-47 -88 0
-167 -213 0
-174 -275 0
-99 -268 0
-100 -196 0
-177 -188 0
-102 -296 0
-179 -263 0
-228 -274 0
-151 -213 0
-99 -231 0
-96 -243 0
-17 -70 0
-100 -279 0
-46 -196 0
-61 -281 0
-16 -240 0
-146 -281 0
-219 -228 0
-255 -279 0
-85 -196 0
-254 -290 0
-194 -224 0
-45 -138 0
-200 -239 0
-232 -274 0
-50 -138 0
-166 -297 0
-117 -161 0
-22 -224 0
-43 -57 0
-102 -172 0
-99 -285 0
-89 -241 0
-153 -233 0
-31 -44 0
-113 -224 0
-14 -137 0
-61 -292 0
-153 -263 0
-152 -227 0
-152 -279 0
-63 -245 0
-141 -154 0
-83 -302 0
-76 -137 0
-66 -298 0
-30 -147 0
-65 -86 0
-93 -138 0
-252 -265 0
-14 -275 0
-33 -157 0
-179 -195 0
-140 -154 0
-119 -183 0
-105 -121 0
-85 -222 0
-197 -208 0
-8 -245 0
-252 -301 0
-158 -241 0
-236 -302 0
-180 -276 0
-112 -243 0
-15 -174 0
-166 -223 0
-84 -257 0
-16 -43 0
-61 -88 0
-76 -124 0
-63 -173 0
-151 -259 0
-12 -296 0
-255 -299 0
-13 -275 0
-47 -110 0
-30 -53 0
-45 -121 0
-173 -206 0
-250 -258 0
-34 -296 0
-30 -222 0
-251 -297 0
-26 -103 0
-32 -99 0
-32 -80 0
-29 -140 0
-67 -193 0
-34 -41 0
-34 -62 0
-49 -105 0
-149 -295 0
-26 -256 0
-13 -29 0
-38 -86 0
-48 -282 0
-218 -243 0
-247 -280 0
-8 -120 0
-100 -178 0
-160 -190 0
-180 -293 0
-118 -293 0
-14 -267 0
-203 -249 0
-55 -222 0
-170 -276 0
-32 -95 0
-83 -218 0
-260 -291 0
-45 -258 0
-255 -273 0
-161 -262 0
-16 -144 0
-220 -251 0
-176 -258 0
-149 -229 0
-67 -266 0
-130 -179 0
-114 -214 0
-212 -226 0
-166 -249 0
-16 -79 0
-45 -281 0
-83 -139 0
-32 -54 0
-152 -274 0
-116 -200 0
-61 -121 0
-10 -35 0
-114 -256 0
-90 -105 0
-14 -91 0
-95 -189 0
-136 -300 0
-83 -273 0
-211 -258 0
-44 -106 0
-135 -301 0
-198 -226 0
-212 -228 0
-126 -275 0
-138 -154 0
-136 -253 0
-40 -208 0
-161 -276 0
-201 -232 0
-117 -142 0
-49 -286 0
-182 -249 0
-97 -296 0
-215 -247 0
-37 -138 0
-110 -228 0
-33 -128 0
-238 -279 0
-187 -235 0
-17 -160 0
-197 -296 0
-85 -145 0
-217 -290 0
-217 -296 0
-170 -213 0
-16 -61 0
-102 -135 0
-164 -245 0
-64 -180 0
-165 -276 0
-49 -210 0
-46 -299 0
-117 -285 0
-44 -274 0
-45 -260 0
-143 -276 0
-9 -41 0
-84 -284 0
-119 -265 0
-267 -274 0
-94 -154 0
-13 -181 0
-10 -257 0
-184 -231 0
-65 -225 0
-49 -278 0
-85 -111 0
-12 -191 0
-90 -138 0
-235 -249 0
-62 -213 0
-10 -209 0
-194 -239 0
-51 -161 0
-15 -243 0
-237 -240 0
-112 -137 0
-59 -75 0
-51 -172 0
-73 -123 0
-149 -261 0
-98 -206 0
-124 -257 0
-67 -234 0
-15 -22 0
-226 -258 0
-29 -260 0
-58 -87 0
-135 -230 0
-101 -263 0
-215 -260 0
-245 -258 0
-33 -116 0
-251 -280 0
-60 -208 0
-17 -19 0
-234 -244 0
-169 -174 0
-153 -249 0
-13 -173 0
-117 -154 0
-83 -150 0
-265 -273 0
-234 -282 0
-198 -214 0
-46 -188 0
-9 -155 0
-246 -293 0
-50 -201 0
-75 -174 0
-32 -109 0
-114 -245 0
-80 -123 0
-17 -165 0
-118 -197 0
-169 -198 0
-237 -295 0
-28 -174 0
-206 -273 0
-93 -262 0
-134 -284 0
-165 -230 0
-113 -213 0
-83 -86 0
-17 -169 0
-28 -159 0
-144 -227 0
-168 -243 0
-96 -194 0
-30 -146 0
-111 -140 0
-153 -285 0
-16 -198 0
-6 -141 0
-204 -286 0
-40 -123 0
-51 -71 0
-67 -151 0
-147 -206 0
-81 -266 0
-32 -298 0
-20 -171 0
-135 -243 0
-253 -273 0
-150 -262 0
-33 -160 0
-142 -172 0
-28 -190 0
-147 -248 0
-11 -107 0
-168 -213 0
-78 -208 0
-47 -210 0
-124 -223 0
-11 -143 0
-11 -38 0
-43 -273 0
-167 -290 0
-11 -275 0
-17 -190 0
-164 -207 0
-270 -294 0
-187 -226 0
-130 -210 0
-118 -298 0
-166 -212 0
-80 -211 0
-65 -166 0
-13 -210 0
-85 -269 0
-23 -257 0
-66 -97 0
-61 -195 0
-46 -300 0
-17 -291 0
-12 -39 0
-14 -256 0
-90 -156 0
-98 -128 0
-12 -74 0
-136 -279 0
-96 -155 0
-50 -54 0
-285 -292 0
-237 -294 0
-11 -214 0
-49 -297 0
-40 -239 0
-32 -164 0
-254 -294 0
-6 -89 0
-170 -295 0
-221 -237 0
-51 -220 0
-68 -148 0
-166 -211 0
-109 -138 0
-177 -292 0
-116 -290 0
-31 -125 0
-31 -198 0
-81 -247 0
-68 -140 0
-75 -159 0
-111 -258 0
-110 -121 0
-39 -123 0
-49 -137 0
-204 -233 0
-153 -262 0
-111 -244 0
-219 -259 0
-251 -256 0
-129 -278 0
-211 -274 0
-136 -305 0
-113 -146 0
-14 -106 0
-9 -222 0
-42 -194 0
-75 -176 0
-42 -222 0
-84 -134 0
-26 -55 0
-64 -267 0
-43 -109 0
-195 -293 0
-98 -280 0
-185 -300 0
-29 -214 0
-93 -172 0
-106 -207 0
-182 -192 0
-79 -193 0
-102 -277 0
-91 -225 0
-229 -273 0
-95 -247 0
-134 -178 0
-146 -244 0
-60 -206 0
-51 -76 0
-164 -282 0
-92 -260 0
-203 -250 0
-77 -228 0
-151 -205 0
-68 -239 0
-148 -266 0
-45 -146 0
-134 -229 0
-220 -300 0
-266 -299 0
-41 -55 0
-110 -208 0
-94 -292 0
-118 -249 0
-255 -291 0
-83 -274 0
-288 -290 0
-141 -171 0
-47 -213 0
-199 -283 0
-245 -278 0
-65 -163 0
-101 -279 0
-74 -106 0
-49 -129 0
-16 -270 0
-251 -296 0
-135 -208 0
-7 -226 0
-62 -111 0
-234 -259 0
-67 -147 0
-166 -281 0
-152 -208 0
-187 -189 0
-231 -261 0
-102 -168 0
-91 -123 0
-83 -205 0
-159 -275 0
-68 -285 0
-50 -287 0
-40 -273 0
-74 -209 0
-28 -92 0
-183 -207 0
-109 -205 0
-92 -241 0
-72 -138 0
-118 -175 0
-43 -297 0
-83 -141 0
-81 -173 0
-30 -44 0
-199 -215 0
-24 -56 0
-4 -257 0
-13 -24 0
-68 -87 0
-22 -54 0
-142 -257 0
-150 -266 0
-42 -243 0
-115 -281 0
-11 -103 0
-153 -163 0
-215 -229 0
-44 -193 0
-7 -190 0
-107 -224 0
-79 -175 0
-67 -134 0
-26 -258 0
-268 -294 0
-92 -123 0
-149 -228 0
-131 -205 0
-119 -301 0
-145 -257 0
-100 -290 0
-45 -276 0
-169 -201 0
-66 -110 0
-23 -239 0
-186 -233 0
-271 -285 0
-117 -194 0
-14 -121 0
-33 -52 0
-17 -270 0
-82 -294 0
-127 -138 0
-252 -261 0
-148 -174 0
-6 -224 0
-184 -196 0
-43 -158 0
-77 -127 0
-151 -252 0
-46 -120 0
-218 -231 0
-65 -140 0
-96 -110 0
-126 -240 0
-8 -89 0
-81 -275 0
-4 -155 0
-100 -280 0
-13 -73 0
-230 -257 0
-159 -294 0
-61 -177 0
-80 -92 0
-5 -106 0
-113 -207 0
-102 -248 0
-3 -189 0
-13 -209 0
-62 -140 0
-49 -180 0
-68 -86 0
-117 -182 0
-95 -138 0
-97 -273 0
-17 -96 0
-130 -224 0
-30 -171 0
-58 -172 0
-268 -284 0
-29 -141 0
-42 -72 0
-97 -120 0
-57 -141 0
-112 -193 0
-31 -267 0
-197 -262 0
-150 -190 0
-29 -208 0
-241 -290 0
-16 -179 0
-131 -290 0
-78 -259 0
-10 -188 0
-102 -288 0
-143 -241 0
-150 -239 0
-46 -172 0
-81 -226 0
-81 -113 0
-33 -275 0
-187 -240 0
-176 -224 0
-84 -298 0
-82 -226 0
-95 -240 0
-201 -280 0
-213 -223 0
-116 -197 0
-181 -223 0
-251 -266 0
-79 -291 0
-112 -257 0
-24 -256 0
-183 -248 0
-30 -231 0
-287 -291 0
-14 -103 0
-215 -259 0
-234 -260 0
-169 -206 0
-136 -205 0
-94 -293 0
-15 -276 0
-147 -196 0
-119 -277 0
-33 -227 0
-70 -205 0
-34 -200 0
-38 -171 0
-152 -266 0
-7 -291 0
-89 -120 0
-234 -250 0
-102 -225 0
-183 -256 0
-79 -222 0
-47 -242 0
-49 -155 0
-11 -226 0
-83 -125 0
-93 -190 0
-71 -188 0
-65 -299 0
-184 -293 0
-127 -291 0
-102 -270 0
-284 -299 0
-150 -200 0
-61 -230 0
-245 -290 0
-168 -299 0
-158 -256 0
-128 -245 0
-119 -219 0
-68 -69 0
-185 -250 0
-84 -200 0
-54 -70 0
-32 -133 0
-14 -172 0
-119 -235 0
-10 -54 0
-28 -128 0
-70 -239 0
-28 -75 0
-215 -231 0
-136 -139 0
-203 -275 0
-201 -216 0
-10 -94 0
-134 -268 0
-119 -145 0
-130 -189 0
-32 -124 0
-150 -258 0
-183 -291 0
-16 -87 0
-50 -66 0
-219 -224 0
-116 -123 0
-31 -38 0
-227 -259 0
-17 -77 0
-231 -239 0
-147 -241 0
-15 -274 0
-236 -259 0
-24 -278 0
-245 -291 0
-150 -199 0
-50 -117 0
-13 -228 0
-150 -251 0
-232 -293 0
-74 -241 0
-17 -138 0
-17 -216 0
-90 -140 0
-108 -240 0
-32 -62 0
-231 -274 0
-13 -261 0
-144 -278 0
-68 -122 0
-100 -241 0
-28 -127 0
-85 -281 0
-233 -274 0
-31 -277 0
-61 -295 0
-49 -199 0
-125 -256 0
-14 -35 0
-185 -234 0
-143 -224 0
-29 -44 0
-32 -155 0
-101 -176 0
-49 -247 0
-163 -262 0
-78 -124 0
-17 -232 0
-11 -36 0
-13 -105 0
-39 -53 0
-66 -213 0
-63 -295 0
-257 -290 0
-246 -278 0
-34 -58 0
-71 -137 0
-14 -274 0
-119 -198 0
-26 -105 0
-9 -160 0
-31 -245 0
-186 -300 0
-202 -262 0
-134 -159 0
-44 -263 0
-119 -298 0
-33 -278 0
-131 -214 0
-48 -265 0
-57 -277 0
-50 -301 0
-185 -231 0
-269 -290 0
-32 -108 0
-16 -157 0
-184 -268 0
-220 -293 0
-80 -121 0
-81 -205 0
-14 -73 0
-78 -110 0
-8 -194 0
-17 -141 0
-39 -52 0
-185 -189 0
-95 -128 0
-194 -226 0
-68 -107 0
-102 -269 0
-112 -230 0
-17 -211 0
-5 -208 0
-58 -207 0
-10 -106 0
-151 -296 0
-17 -33 0
-102 -241 0
-44 -74 0
-129 -243 0
-132 -162 0
-56 -207 0
-159 -224 0
-9 -211 0
-43 -142 0
-31 -195 0
-84 -281 0
-217 -248 0
-39 -258 0
-115 -274 0
-15 -133 0
-183 -209 0
-44 -88 0
-79 -138 0
-68 -268 0
-99 -111 0
-166 -239 0
-13 -38 0
-99 -230 0
-33 -88 0
-44 -158 0
-49 -161 0
-136 -282 0
-200 -211 0
-13 -41 0
-51 -143 0
-115 -190 0
-111 -297 0
-204 -252 0
-13 -232 0
-201 -243 0
-186 -290 0
-79 -123 0
-29 -244 0
-83 -264 0
-65 -171 0
-33 -148 0
-136 -151 0
-178 -192 0
-50 -93 0
-92 -292 0
-94 -278 0
-45 -191 0
-76 -258 0
-66 -275 0
-12 -261 0
-16 -116 0
-14 -147 0
-253 -262 0
-117 -150 0
-117 -160 0
-67 -146 0
-114 -197 0
-247 -261 0
-98 -162 0
-33 -49 0
-47 -211 0
-48 -199 0
-31 -209 0
-195 -224 0
-58 -295 0
-10 -292 0
-42 -55 0
-271 -303 0
-131 -208 0
-17 -173 0
-215 -277 0
-72 -239 0
-64 -256 0
-135 -141 0
-55 -122 0
-65 -139 0
-12 -122 0
-178 -258 0
-42 -87 0
-157 -223 0
-49 -110 0
-135 -235 0
-32 -145 0
-33 -99 0
-100 -299 0
-65 -97 0
-219 -295 0
-25 -91 0
-169 -190 0
-50 -130 0
-17 -129 0
-64 -74 0
-76 -107 0
-60 -86 0
-247 -263 0
-60 -242 0
-27 -192 0
-33 -184 0
-37 -69 0
-84 -295 0
-96 -223 0
-132 -195 0
-36 -222 0
-132 -244 0
-67 -150 0
-264 -275 0
-33 -183 0
-102 -190 0
-8 -296 0
-40 -52 0
-6 -39 0
-232 -290 0
-51 -106 0
-134 -243 0
-151 -263 0
-33 -106 0
-112 -239 0
-49 -107 0
-143 -156 0
-215 -276 0
-76 -175 0
-181 -242 0
-117 -269 0
-77 -241 0
-215 -280 0
-131 -265 0
-235 -248 0
-102 -137 0
-48 -264 0
-17 -266 0
-177 -273 0
-46 -276 0
-268 -273 0
-216 -295 0
-80 -214 0
-6 -190 0
-164 -196 0
-17 -125 0
-269 -291 0
-151 -279 0
-200 -229 0
-51 -259 0
-46 -227 0
-16 -165 0
-79 -209 0
-99 -172 0
-185 -213 0
-180 -209 0
-82 -128 0
-44 -171 0
-248 -264 0
-181 -280 0
-31 -205 0
-113 -190 0
-272 -288 0
-203 -239 0
-16 -178 0
-56 -70 0
-32 -120 0
-68 -169 0
-57 -103 0
-7 -227 0
-117 -132 0
-197 -239 0
-98 -228 0
-160 -173 0
-34 -194 0
-183 -264 0
-198 -294 0
-111 -175 0
-179 -273 0
-68 -261 0
-50 -57 0
-100 -297 0
-217 -261 0
-77 -93 0
-132 -224 0
-186 -297 0
-33 -86 0
-25 -86 0
-12 -240 0
-199 -249 0
-74 -191 0
-178 -194 0
-112 -192 0
-99 -137 0
-12 -291 0
-98 -131 0
-198 -208 0
-185 -265 0
-44 -139 0
-196 -263 0
-82 -242 0
-98 -192 0
-66 -292 0
-150 -265 0
-68 -208 0
-46 -179 0
-34 -163 0
-119 -215 0
-80 -140 0
-117 -171 0
-66 -142 0
-84 -202 0
-131 -232 0
-94 -209 0
-164 -247 0
-29 -259 0
-25 -275 0
-80 -277 0
-91 -157 0
-15 -232 0
-144 -274 0
-40 -55 0
-146 -210 0
-31 -223 0
-33 -81 0
-112 -293 0
-33 -140 0
-48 -209 0
-97 -154 0
-15 -275 0
-60 -195 0
-149 -225 0
-89 -206 0
-48 -91 0
-11 -73 0
-95 -111 0
-84 -259 0
-141 -191 0
-15 -242 0
-64 -194 0
-163 -171 0
-63 -257 0
-162 -245 0
-29 -91 0
-168 -234 0
-167 -183 0
-28 -244 0
-201 -233 0
-115 -163 0
-71 -138 0
-235 -296 0
-55 -69 0
-130 -280 0
-99 -213 0
-14 -160 0
-67 -82 0
-159 -293 0
-155 -205 0
-85 -150 0
-185 -212 0
-75 -240 0
-51 -146 0
-99 -148 0
-199 -206 0
-10 -208 0
-88 -257 0
-199 -275 0
-108 -290 0
-58 -141 0
-73 -89 0
-32 -209 0
-67 -196 0
-84 -95 0
-65 -234 0
-42 -192 0
-33 -242 0
-28 -193 0
-181 -293 0
-34 -196 0
-136 -145 0
-101 -269 0
-21 -273 0
-169 -177 0
-29 -41 0
-164 -172 0
-81 -179 0
-220 -242 0
-13 -215 0
-34 -292 0
-93 -242 0
-119 -133 0
-13 -104 0
-14 -43 0
-14 -81 0
-6 -22 0
-94 -174 0
-135 -160 0
-114 -298 0
-289 -297 0
-182 -231 0
-115 -259 0
-169 -214 0
-153 -196 0
-5 -140 0
-81 -207 0
-152 -183 0
-114 -283 0
-252 -259 0
-5 -88 0
-79 -104 0
-197 -222 0
-2 -35 0
-29 -38 0
-149 -292 0
-67 -71 0
-16 -117 0
-43 -275 0
-136 -267 0
-131 -139 0
-16 -64 0
-29 -92 0
-131 -258 0
-30 -126 0
-32 -131 0
-57 -290 0
-102 -152 0
-148 -163 0
-125 -172 0
-61 -141 0
-98 -207 0
-204 -205 0
-82 -125 0
-187 -213 0
-29 -103 0
-203 -226 0
-16 -66 0
-109 -173 0
-94 -160 0
-9 -36 0
-22 -276 0
-79 -163 0
-98 -290 0
-109 -291 0
-170 -208 0
-148 -172 0
-32 -231 0
-119 -148 0
-47 -138 0
-127 -207 0
-112 -160 0
-187 -231 0
-24 -87 0
-51 -152 0
-5 -242 0
-84 -171 0
-110 -209 0
-202 -282 0
-161 -192 0
-119 -200 0
-44 -229 0
-148 -279 0
-81 -295 0
-49 -226 0
-178 -241 0
-2 -205 0
-51 -246 0
-15 -71 0
-185 -277 0
-195 -205 0
-166 -230 0
-194 -294 0
-217 -243 0
-30 -76 0
-203 -214 0
-32 -128 0
-243 -293 0
-130 -265 0
-200 -245 0
-99 -263 0
-135 -139 0
-15 -114 0
-127 -277 0
-7 -88 0
-149 -239 0
-45 -78 0
-121 -239 0
-92 -193 0
-250 -256 0
-41 -273 0
-151 -232 0
-148 -282 0
-48 -97 0
-10 -174 0
-180 -290 0
-41 -191 0
-201 -298 0
-59 -194 0
-266 -275 0
-29 -226 0
-147 -191 0
-192 -223 0
-116 -189 0
-168 -224 0
-209 -222 0
-77 -256 0
-17 -18 0
-129 -176 0
-21 -70 0
-14 -29 0
-22 -55 0
-40 -103 0
-114 -208 0
-66 -265 0
-62 -163 0
-56 -206 0
-26 -54 0
-7 -38 0
-10 -20 0
-14 -225 0
-99 -194 0
-134 -211 0
-34 -268 0
-113 -209 0
-164 -174 0
-161 -273 0
-50 -70 0
-82 -229 0
-126 -239 0
-167 -243 0
-100 -157 0
-49 -145 0
-68 -218 0
-63 -93 0
-247 -276 0
-10 -281 0
-130 -295 0
-251 -294 0
-255 -294 0
-24 -106 0
-134 -148 0
-26 -140 0
-248 -259 0
-12 -283 0
-119 -243 0
-153 -223 0
-10 -210 0
-116 -266 0
-22 -104 0
-44 -156 0
-17 -148 0
-95 -281 0
-77 -144 0
-91 -290 0
-75 -276 0
-96 -260 0
-111 -227 0
-23 -121 0
-184 -207 0
-151 -225 0
-170 -217 0
-83 -161 0
-221 -275 0
-15 -262 0
-30 -193 0
-132 -156 0
-129 -139 0
-47 -240 0
-144 -205 0
-85 -172 0
-118 -194 0
-65 -113 0
-126 -244 0
-30 -211 0
-97 -137 0
-152 -247 0
-63 -156 0
-76 -240 0
-169 -301 0
-186 -303 0
-185 -297 0
-64 -171 0
-28 -125 0
-77 -126 0
-75 -260 0
-269 -298 0
-163 -294 0
-192 -274 0
-101 -127 0
-185 -260 0
-160 -276 0
-110 -292 0
-117 -199 0
-17 -115 0
-51 -200 0
-248 -294 0
-116 -232 0
-164 -178 0
-130 -207 0
-183 -250 0
-101 -216 0
-5 -225 0
-43 -59 0
-133 -138 0
-93 -292 0
-17 -273 0
-169 -294 0
-66 -79 0
-29 -108 0
-180 -222 0
-23 -175 0
-152 -297 0
-100 -293 0
-59 -175 0
-127 -158 0
-31 -78 0
-26 -222 0
-132 -246 0
-26 -192 0
-94 -296 0
-235 -262 0
-88 -103 0
-281 -292 0
-13 -192 0
-209 -225 0
-99 -177 0
-183 -211 0
-15 -167 0
-134 -231 0
-230 -290 0
-47 -60 0
-98 -121 0
-106 -273 0
-196 -223 0
-133 -166 0
-128 -211 0
-200 -240 0
-81 -120 0
-113 -122 0
-28 -295 0
-83 -97 0
-195 -256 0
-236 -267 0
-128 -225 0
-21 -155 0
-28 -71 0
-51 -93 0
-79 -191 0
-99 -247 0
-286 -299 0
-23 -224 0
-17 -228 0
-130 -246 0
-44 -173 0
-250 -299 0
-68 -142 0
-187 -277 0
-100 -225 0
-117 -127 0
-190 -274 0
-65 -226 0
-143 -257 0
-83 -130 0
-255 -280 0
-218 -301 0
-43 -262 0
-14 -42 0
-165 -194 0
-84 -87 0
-28 -296 0
-32 -183 0
-28 -194 0
-100 -243 0
-31 -103 0
-172 -290 0
-167 -172 0
-234 -297 0
-25 -122 0
-111 -120 0
-204 -257 0
-91 -154 0
-267 -283 0
-64 -91 0
-147 -226 0
-251 -260 0
-79 -296 0
-150 -285 0
-10 -140 0
-252 -264 0
-119 -188 0
-66 -183 0
-28 -211 0
-28 -264 0
-48 -98 0
-116 -179 0
-143 -193 0
-78 -162 0
-110 -206 0
-22 -223 0
-85 -144 0
-110 -223 0
-132 -194 0
-164 -228 0
-46 -59 0
-230 -242 0
-165 -291 0
-159 -226 0
-128 -190 0
-4 -275 0
-61 -77 0
-169 -264 0
-146 -293 0
-29 -211 0
-116 -234 0
-95 -208 0
-132 -257 0
-17 -88 0
-178 -273 0
-108 -209 0
-17 -58 0
-98 -194 0
-56 -242 0
-15 -40 0
-152 -164 0
-13 -71 0
-134 -248 0
-125 -275 0
-148 -194 0
-153 -208 0
-152 -243 0
-136 -254 0
-221 -229 0
-55 -86 0
-50 -165 0
-151 -300 0
-16 -167 0
-117 -239 0
-59 -240 0
-67 -173 0
-98 -241 0
-11 -87 0
-252 -277 0
-23 -292 0
-66 -163 0
-65 -124 0
-14 -75 0
-39 -71 0
-17 -54 0
-32 -233 0
-88 -154 0
-230 -256 0
-62 -86 0
-146 -247 0
-169 -270 0
-229 -258 0
-44 -260 0
-265 -298 0
-33 -122 0
-65 -239 0
-7 -192 0
-200 -232 0
-45 -241 0
-199 -240 0
-139 -189 0
-83 -223 0
-182 -195 0
-100 -249 0
-165 -299 0
-16 -163 0
-51 -219 0
-145 -207 0
-132 -155 0
-186 -209 0
-40 -243 0
-34 -91 0
-214 -291 0
-144 -160 0
-29 -110 0
-81 -291 0
-218 -275 0
-117 -257 0
-92 -156 0
-33 -301 0
-160 -226 0
-184 -262 0
-15 -41 0
-216 -241 0
-161 -243 0
-16 -259 0
-84 -163 0
-14 -142 0
-32 -139 0
-6 -241 0
-131 -144 0
-32 -181 0
-152 -211 0
-28 -280 0
-160 -209 0
-187 -194 0
-29 -274 0
-89 -156 0
-30 -199 0
-77 -274 0
-93 -137 0
-16 -174 0
-25 -143 0
-67 -144 0
-153 -292 0
-13 -139 0
-141 -225 0
-65 -241 0
-202 -296 0
-238 -257 0
-131 -174 0
-249 -279 0
-11 -20 0
-235 -250 0
-93 -206 0
-160 -259 0
-97 -294 0
-62 -212 0
-166 -295 0
-130 -208 0
-185 -261 0
-91 -191 0
-46 -105 0
-98 -109 0
-219 -222 0
-11 -156 0
-42 -273 0
-187 -233 0
-60 -140 0
-212 -224 0
-42 -120 0
-106 -173 0
-99 -222 0
-183 -222 0
-284 -295 0
-33 -56 0
-130 -248 0
-124 -189 0
-14 -155 0
-221 -279 0
-22 -138 0
-11 -293 0
-116 -214 0
-16 -27 0
-240 -273 0
-57 -206 0
-24 -291 0
-45 -180 0
-200 -213 0
-17 -295 0
-34 -245 0
-153 -226 0
-17 -177 0
-49 -61 0
-11 -44 0
-163 -175 0
-114 -195 0
-68 -254 0
-117 -208 0
-255 -268 0
-30 -131 0
-66 -144 0
-50 -115 0
-19 -35 0
-134 -299 0
-131 -256 0
-98 -158 0
-76 -103 0
-45 -261 0
-17 -49 0
-92 -105 0
-118 -299 0
-64 -239 0
-100 -164 0
-98 -245 0
-10 -138 0
-61 -229 0
-12 -227 0
-232 -262 0
-118 -172 0
-65 -275 0
-116 -198 0
-67 -106 0
-176 -208 0
-51 -115 0
-63 -178 0
-117 -133 0
-56 -72 0
-131 -181 0
-204 -231 0
-204 -207 0
-50 -300 0
-128 -210 0
-109 -276 0
-43 -137 0
-211 -257 0
-150 -260 0
-47 -277 0
-165 -228 0
-130 -240 0
-10 -297 0
-17 -146 0
-63 -300 0
-131 -262 0
-13 -113 0
-42 -228 0
-112 -195 0
-54 -120 0
-114 -292 0
-141 -157 0
-33 -131 0
-16 -108 0
-167 -257 0
-67 -257 0
-85 -295 0
-31 -194 0
-244 -273 0
-33 -279 0
-15 -143 0
-15 -142 0
-28 -93 0
-101 -174 0
-187 -222 0
-270 -281 0
-134 -165 0
-193 -226 0
-229 -290 0
-44 -94 0
-64 -77 0
-102 -138 0
-13 -57 0
-165 -172 0
-134 -181 0
-77 -125 0
-5 -21 0
-198 -261 0
-15 -233 0
-30 -45 0
-11 -75 0
-11 -298 0
-136 -242 0
-96 -121 0
-99 -161 0
-159 -260 0
-75 -278 0
-135 -144 0
-101 -253 0
-160 -210 0
-25 -296 0
-10 -39 0
-114 -265 0
-81 -108 0
-169 -180 0
-114 -192 0
-27 -143 0
-186 -235 0
-169 -243 0
-16 -32 0
-98 -209 0
-58 -261 0
-47 -229 0
-133 -257 0
-123 -171 0
-14 -90 0
-17 -25 0
-263 -292 0
-180 -226 0
-131 -156 0
-100 -216 0
-158 -224 0
-83 -244 0
-42 -71 0
-100 -261 0
-238 -283 0
-85 -180 0
-133 -211 0
-78 -297 0
-109 -210 0
-12 -242 0
-133 -281 0
-50 -192 0
-105 -206 0
-49 -213 0
-253 -258 0
-28 -94 0
-126 -274 0
-131 -276 0
-167 -226 0
-112 -210 0
-31 -302 0
-133 -227 0
-67 -301 0
-135 -266 0
-210 -258 0
-94 -260 0
-74 -140 0
-139 -240 0
-31 -284 0
-221 -285 0
-229 -277 0
-150 -206 0
-12 -78 0
-30 -159 0
-170 -282 0
-190 -205 0
-102 -180 0
-14 -40 0
-83 -92 0
-23 -73 0
-37 -240 0
-237 -267 0
-151 -211 0
-48 -64 0
-118 -262 0
-80 -124 0
-135 -240 0
-41 -176 0
-17 -24 0
-14 -61 0
-82 -273 0
-95 -177 0
-68 -159 0
-98 -122 0
-285 -294 0
-123 -222 0
-140 -258 0
-151 -257 0
-12 -157 0
-60 -72 0
-153 -229 0
-182 -258 0
-150 -297 0
-44 -179 0
-62 -127 0
-21 -257 0
-150 -275 0
-114 -122 0
-31 -62 0
-145 -176 0
-84 -188 0
-50 -227 0
-119 -152 0
-247 -296 0
-57 -257 0
-10 -104 0
-34 -253 0
-51 -239 0
-13 -75 0
-112 -244 0
-168 -205 0
-100 -262 0
-149 -264 0
-132 -197 0
-28 -154 0
-28 -172 0
-143 -192 0
-83 -147 0
-49 -148 0
-91 -190 0
-11 -76 0
-43 -274 0
-77 -260 0
-15 -205 0
-60 -229 0
-44 -110 0
-91 -258 0
-189 -290 0
-169 -226 0
-133 -261 0
-47 -159 0
-114 -180 0
-97 -160 0
-83 -269 0
-119 -189 0
-26 -273 0
-31 -69 0
-33 -161 0
-168 -189 0
-47 -91 0
-47 -122 0
-51 -298 0
-144 -206 0
-94 -106 0
-142 -293 0
-43 -226 0
-67 -133 0
-65 -143 0
-46 -137 0
-47 -63 0
-114 -291 0
-44 -57 0
-27 -87 0
-12 -89 0
-182 -257 0
-80 -282 0
-119 -260 0
-81 -163 0
-150 -211 0
-43 -194 0
-197 -298 0
-31 -74 0
-99 -159 0
-17 -198 0
-186 -273 0
-112 -162 0
-135 -219 0
-79 -159 0
-126 -205 0
-132 -207 0
-80 -112 0
-115 -177 0
-60 -155 0
-11 -39 0
-252 -278 0
-202 -293 0
-64 -266 0
-78 -227 0
-51 -201 0
-163 -277 0
-150 -178 0
-183 -199 0
-33 -259 0
-177 -274 0
-126 -206 0
-41 -210 0
-160 -291 0
-30 -224 0
-99 -276 0
-12 -210 0
-150 -209 0
-45 -52 0
-8 -293 0
-133 -279 0
-78 -126 0
-7 -20 0
-15 -65 0
-79 -239 0
-161 -177 0
-128 -274 0
-185 -256 0
-142 -240 0
-34 -254 0
-82 -234 0
-147 -277 0
-66 -262 0
-40 -293 0
-100 -303 0
-221 -280 0
-101 -258 0
-208 -223 0
-41 -292 0
-17 -159 0
-3 -70 0
-152 -259 0
-9 -240 0
-29 -105 0
-160 -292 0
-112 -189 0
-106 -121 0
-5 -258 0
-219 -240 0
-169 -200 0
-98 -165 0
-17 -284 0
-135 -192 0
-43 -75 0
-42 -260 0
-99 -165 0
-141 -292 0
-84 -89 0
-10 -225 0
-131 -192 0
-77 -110 0
-82 -164 0
-44 -261 0
-45 -257 0
-165 -257 0
-36 -273 0
-201 -301 0
-113 -124 0
-102 -105 0
-106 -292 0
-119 -233 0
-116 -227 0
-77 -294 0
-32 -142 0
-173 -239 0
-42 -241 0
-76 -274 0
-150 -207 0
-32 -74 0
-6 -174 0
-122 -222 0
-132 -228 0
-47 -78 0
-6 -21 0
-96 -246 0
-200 -205 0
-117 -139 0
-235 -246 0
-8 -208 0
-78 -143 0
-50 -160 0
-221 -278 0
-145 -189 0
-64 -143 0
-67 -162 0
-88 -137 0
-129 -241 0
-152 -282 0
-91 -257 0
-118 -206 0
-97 -261 0
-113 -212 0
-34 -232 0
-63 -291 0
-136 -155 0
-25 -278 0
-13 -146 0
-255 -266 0
-102 -294 0
-32 -273 0
-61 -161 0
-130 -137 0
-94 -222 0
-136 -211 0
-153 -174 0
-22 -189 0
-201 -214 0
-62 -264 0
-165 -225 0
-243 -259 0
-34 -87 0
-136 -164 0
-37 -274 0
-66 -195 0
-17 -27 0
-49 -197 0
-82 -290 0
-55 -224 0
-152 -201 0
-151 -285 0
-92 -209 0
-81 -122 0
-60 -274 0
-31 -71 0
-123 -274 0
-46 -274 0
-94 -206 0
-116 -121 0
-99 -260 0
-200 -284 0
-166 -174 0
-116 -156 0
-116 -146 0
-30 -89 0
-67 -214 0
-63 -154 0
-187 -286 0
-42 -91 0
-11 -208 0
-65 -302 0
-162 -295 0
-79 -108 0
-3 -222 0
-31 -131 0
-118 -155 0
-11 -70 0
-4 -139 0
-158 -174 0
-43 -58 0
-41 -54 0
-218 -297 0
-201 -213 0
-67 -77 0
-149 -194 0
-111 -123 0
-126 -292 0
-49 -86 0
-217 -239 0
-93 -294 0
-162 -188 0
-135 -284 0
-194 -206 0
-160 -223 0
-40 -191 0
-80 -224 0
-7 -90 0
-244 -290 0
-168 -239 0
-83 -131 0
-126 -207 0
-144 -290 0
-17 -32 0
-16 -252 0
-221 -240 0
-11 -242 0
-187 -262 0
-100 -208 0
-99 -240 0
-81 -193 0
-84 -96 0
-145 -224 0
-160 -258 0
-203 -290 0
-83 -260 0
-114 -198 0
-196 -210 0
-81 -160 0
-117 -263 0
-13 -195 0
-67 -278 0
-50 -109 0
-63 -196 0
-116 -140 0
-85 -298 0
-180 -193 0
-75 -274 0
-49 -94 0
-67 -175 0
-169 -210 0
-192 -206 0
-148 -278 0
-24 -240 0
-7 -54 0
-100 -115 0
-66 -92 0
-11 -125 0
-31 -47 0
-186 -296 0
-66 -80 0
-253 -265 0
-202 -286 0
-170 -199 0
-213 -227 0
-110 -156 0
-33 -105 0
-208 -240 0
-46 -228 0
-133 -154 0
-12 -163 0
-289 -290 0
-115 -249 0
-288 -295 0
-20 -188 0
-250 -266 0
-161 -275 0
-168 -244 0
-102 -203 0
-197 -258 0
-97 -283 0
-113 -158 0
-98 -284 0
-10 -158 0
-80 -258 0
-101 -209 0
-231 -276 0
-94 -225 0
-64 -222 0
-187 -242 0
-265 -296 0
-64 -182 0
-51 -182 0
-65 -141 0
-119 -263 0
-55 -256 0
-113 -276 0
-133 -198 0
-64 -210 0
-51 -108 0
-166 -177 0
-133 -179 0
-237 -297 0
-110 -225 0
-20 -256 0
-82 -265 0
-26 -294 0
-118 -291 0
-67 -161 0
-117 -273 0
-93 -273 0
-25 -41 0
-78 -278 0
-106 -120 0
-49 -222 0
-111 -208 0
-31 -130 0
-136 -303 0
-33 -83 0
-46 -110 0
-11 -144 0
-209 -242 0
-146 -172 0
-61 -93 0
-83 -106 0
-4 -292 0
-82 -224 0
-153 -199 0
-163 -291 0
-139 -239 0
-166 -215 0
-152 -171 0
-267 -295 0
-79 -262 0
-262 -274 0
-80 -296 0
-28 -91 0
-115 -162 0
-209 -223 0
-80 -103 0
-102 -305 0
-249 -276 0
-119 -273 0
-54 -291 0
-208 -290 0
-10 -295 0
-14 -279 0
-3 -155 0
-66 -174 0
-16 -302 0
-16 -283 0
-152 -217 0
-48 -171 0
-231 -246 0
-64 -245 0
-46 -69 0
-48 -144 0
-203 -263 0
-31 -206 0
-8 -106 0
-96 -191 0
-24 -210 0
-182 -298 0
-34 -176 0
-111 -242 0
-176 -256 0
-174 -291 0
-84 -191 0
-30 -175 0
-83 -243 0
-162 -211 0
-21 -139 0
-45 -112 0
-119 -282 0
-41 -208 0
-68 -199 0
-15 -62 0
-10 -142 0
-95 -279 0
-51 -273 0
-186 -206 0
-246 -296 0
-7 -222 0
-51 -116 0
-246 -262 0
-144 -194 0
-196 -280 0
-277 -293 0
-23 -37 0
-64 -154 0
-84 -222 0
-100 -268 0
-174 -292 0
-202 -222 0
-17 -93 0
-219 -298 0
-289 -294 0
-62 -257 0
-216 -293 0
-136 -184 0
-235 -259 0
-169 -295 0
-185 -286 0
-28 -226 0
-187 -268 0
-57 -224 0
-170 -258 0
-14 -163 0
-151 -233 0
-11 -59 0
-34 -157 0
-217 -276 0
-84 -229 0
-85 -195 0
-134 -195 0
-76 -208 0
-91 -209 0
-162 -297 0
-219 -231 0
-184 -267 0
-218 -279 0
-164 -225 0
-41 -142 0
-148 -296 0
-22 -103 0
-31 -234 0
-14 -157 0
-182 -299 0
-193 -277 0
-115 -278 0
-46 -212 0
-30 -266 0
-85 -245 0
-162 -292 0
-236 -285 0
-84 -197 0
-16 -286 0
-204 -283 0
-101 -296 0
-45 -105 0
-165 -190 0
-102 -178 0
-152 -160 0
-109 -275 0
-13 -87 0
-266 -295 0
-42 -75 0
-24 -142 0
-58 -140 0
-63 -106 0
-113 -282 0
-185 -299 0
-119 -166 0
-62 -129 0
-17 -183 0
-106 -256 0
-61 -223 0
-13 -76 0
-41 -295 0
-12 -70 0
-42 -52 0
-107 -121 0
-168 -294 0
-288 -291 0
-33 -93 0
-60 -121 0
-129 -161 0
-117 -130 0
-81 -161 0
-152 -295 0
-170 -237 0
-145 -239 0
-130 -281 0
-10 -72 0
-161 -227 0
-195 -261 0
-13 -190 0
-163 -246 0
-96 -278 0
-92 -124 0
-183 -240 0
-15 -126 0
-41 -104 0
-83 -107 0
-81 -250 0
-70 -171 0
-116 -195 0
-99 -130 0
-179 -292 0
-83 -256 0
-215 -261 0
-126 -190 0
-66 -158 0
-59 -225 0
-15 -294 0
-101 -188 0
-149 -192 0
-107 -276 0
-165 -239 0
-229 -275 0
-238 -274 0
-255 -290 0
-27 -76 0
-247 -258 0
-34 -199 0
-99 -211 0
-211 -277 0
-135 -143 0
-14 -54 0
-152 -162 0
-62 -87 0
-29 -90 0
-146 -224 0
-198 -263 0
-33 -185 0
-26 -38 0
-124 -190 0
-187 -298 0
-231 -259 0
-95 -245 0
-216 -290 0
-169 -193 0
-187 -195 0
-186 -282 0
-202 -232 0
-201 -209 0
-33 -287 0
-234 -264 0
-16 -74 0
-11 -231 0
-91 -240 0
-191 -290 0
-234 -240 0
-39 -120 0
-15 -214 0
-84 -250 0
-61 -193 0
-228 -243 0
-204 -261 0
-135 -180 0
-5 -239 0
-41 -227 0
-287 -301 0
-164 -211 0
-267 -275 0
-79 -146 0
-114 -191 0
-102 -275 0
-62 -73 0
-79 -223 0
-131 -225 0
-215 -262 0
-180 -280 0
-201 -227 0
-8 -227 0
-46 -145 0
-3 -171 0
-148 -299 0
-148 -210 0
-132 -193 0
-194 -295 0
-247 -297 0
-34 -282 0
-111 -144 0
-117 -259 0
-147 -299 0
-187 -296 0
-79 -227 0
-129 -188 0
-167 -208 0
-92 -225 0
-169 -215 0
-166 -301 0
-66 -242 0
-57 -155 0
-77 -279 0
-150 -244 0
-66 -210 0
-5 -223 0
-12 -229 0
-49 -235 0
-117 -146 0
-134 -163 0
-118 -263 0
-132 -158 0
-83 -175 0
-95 -174 0
-59 -125 0
-149 -197 0
-79 -280 0
-13 -188 0
-76 -294 0
-115 -129 0
-128 -296 0
-29 -273 0
-269 -284 0
-8 -39 0
-130 -245 0
-66 -137 0
-8 -174 0
-63 -294 0
-79 -154 0
-83 -279 0
-64 -72 0
-129 -258 0
-152 -184 0
-182 -264 0
-199 -244 0
-9 -246 0
-110 -174 0
-81 -208 0
-82 -213 0
-81 -246 0
-170 -275 0
-113 -239 0
-33 -252 0
-255 -297 0
-173 -240 0
-68 -193 0
-24 -274 0
-85 -159 0
-60 -294 0
-195 -296 0
-46 -278 0
-220 -234 0
-201 -285 0
-142 -260 0
-127 -210 0
-263 -278 0
-63 -77 0
-8 -54 0
-112 -212 0
-24 -86 0
-66 -279 0
-194 -210 0
-43 -55 0
-246 -261 0
-27 -89 0
-176 -294 0
-176 -257 0
-142 -258 0
-167 -247 0
-28 -104 0
-68 -241 0
-216 -225 0
-100 -250 0
-233 -242 0
-82 -205 0
-39 -189 0
-81 -297 0
-47 -281 0
-133 -282 0
-193 -290 0
-45 -292 0
-45 -290 0
-60 -137 0
-45 -174 0
-130 -211 0
-98 -301 0
-46 -295 0
-32 -247 0
-119 -123 0
-65 -120 0
-179 -277 0
-217 -299 0
-119 -199 0
-153 -242 0
-226 -242 0
-94 -258 0
-47 -208 0
-76 -104 0
-101 -273 0
-32 -127 0
-253 -298 0
-114 -164 0
-135 -172 0
-13 -19 0
-79 -188 0
-47 -296 0
-96 -154 0
-28 -74 0
-114 -181 0
-187 -224 0
-185 -269 0
-90 -240 0
-132 -232 0
-49 -209 0
-218 -266 0
-252 -256 0
-57 -188 0
-64 -89 0
-51 -130 0
-107 -242 0
-22 -139 0
-63 -162 0
-129 -259 0
-83 -88 0
-132 -264 0
-50 -188 0
-218 -283 0
-116 -259 0
-81 -194 0
-219 -262 0
-45 -143 0
-31 -72 0
-199 -258 0
-113 -262 0
-100 -163 0
-149 -178 0
-4 -18 0
-65 -295 0
-26 -35 0
-90 -172 0
-253 -296 0
-118 -218 0
-25 -171 0
-17 -214 0
-29 -188 0
-135 -214 0
-28 -239 0
-161 -261 0
-20 -222 0
-60 -92 0
-170 -240 0
-48 -296 0
-44 -174 0
-119 -139 0
-115 -199 0
-75 -292 0
-15 -244 0
-74 -275 0
-219 -286 0
-133 -183 0
-211 -293 0
-39 -225 0
-30 -124 0
-127 -228 0
-115 -242 0
-27 -230 0
-97 -300 0
-77 -242 0
-162 -278 0
-117 -214 0
-220 -224 0
-128 -263 0
-37 -290 0
-14 -261 0
-230 -240 0
-42 -121 0
-119 -240 0
-85 -197 0
-198 -274 0
-66 -148 0
-74 -243 0
-108 -191 0
-27 -137 0
-237 -252 0
-135 -283 0
-199 -225 0
-97 -144 0
-129 -143 0
-6 -242 0
-79 -248 0
-179 -275 0
-142 -156 0
-13 -89 0
-63 -109 0
-200 -282 0
-230 -296 0
-194 -244 0
-220 -267 0
-110 -258 0
-12 -176 0
-16 -134 0
-15 -223 0
-46 -261 0
-66 -258 0
-29 -109 0
-160 -176 0
-21 -188 0
-53 -69 0
-118 -148 0
-33 -156 0
-23 -120 0
-75 -205 0
-44 -228 0
-65 -70 0
-159 -259 0
-79 -292 0
-93 -205 0
-213 -263 0
-182 -266 0
-187 -192 0
-12 -44 0
-203 -215 0
-167 -199 0
-174 -256 0
-85 -260 0
-133 -193 0
-13 -36 0
-248 -296 0
-39 -222 0
-227 -242 0
-65 -103 0
-112 -175 0
-184 -190 0
-65 -192 0
-51 -84 0
-80 -144 0
-26 -178 0
-42 -109 0
-30 -205 0
-151 -183 0
-117 -181 0
-26 -158 0
-193 -276 0
-85 -89 0
-13 -259 0
-30 -103 0
-88 -189 0
-126 -295 0
-11 -209 0
-67 -70 0
-83 -184 0
-220 -301 0
-56 -173 0
-132 -258 0
-182 -193 0
-235 -261 0
-82 -97 0
-116 -233 0
-49 -183 0
-98 -213 0
-271 -297 0
-51 -261 0
-102 -184 0
-167 -178 0
-77 -223 0
-98 -126 0
-59 -295 0
-27 -40 0
-196 -262 0
-73 -292 0
-117 -284 0
-165 -173 0
-85 -107 0
-134 -249 0
-7 -123 0
-249 -261 0
-152 -190 0
-98 -173 0
-66 -115 0
-136 -207 0
-152 -246 0
-255 -275 0
-99 -241 0
-195 -257 0
-51 -149 0
-30 -225 0
-46 -141 0
-249 -277 0
-167 -190 0
-110 -211 0
-133 -217 0
-64 -263 0
-78 -226 0
-30 -263 0
-83 -111 0
-115 -205 0
-95 -194 0
-49 -111 0
-118 -189 0
-17 -227 0
-130 -222 0
-30 -160 0
-51 -137 0
-125 -222 0
-98 -176 0
-48 -53 0
-253 -294 0
-78 -171 0
-151 -218 0
-102 -166 0
-77 -120 0
-82 -259 0
-135 -303 0
-44 -189 0
-63 -195 0
-118 -143 0
-169 -188 0
-187 -225 0
-204 -267 0
-30 -256 0
-212 -276 0
-152 -213 0
-100 -130 0
-236 -252 0
-127 -245 0
-251 -279 0
-228 -273 0
-221 -230 0
-111 -294 0
-97 -212 0
-58 -222 0
-82 -200 0
-133 -250 0
-96 -248 0
-94 -127 0
-112 -263 0
-25 -55 0
-49 -189 0
-159 -189 0
-59 -174 0
-164 -208 0
-83 -211 0
-115 -189 0
-98 -105 0
-152 -192 0
-129 -171 0
-73 -122 0
-142 -276 0
-33 -114 0
-10 -176 0
-51 -168 0
-219 -290 0
-14 -250 0
-78 -210 0
-9 -208 0
-84 -133 0
-183 -214 0
-51 -271 0
-116 -279 0
-60 -159 0
-165 -208 0
-210 -241 0
-130 -279 0
-237 -259 0
-85 -154 0
-118 -196 0
-49 -224 0
-114 -139 0
-195 -275 0
-82 -280 0
-62 -157 0
-85 -123 0
-236 -251 0
-119 -179 0
-46 -260 0
-63 -214 0
-134 -166 0
-31 -216 0
-255 -303 0
-131 -176 0
-98 -230 0
-133 -293 0
-74 -294 0
-51 -178 0
-147 -258 0
-16 -300 0
-187 -190 0
-187 -265 0
-182 -283 0
-93 -160 0
-15 -78 0
-182 -248 0
-177 -290 0
-94 -257 0
-50 -71 0
-13 -154 0
-125 -240 0
-231 -260 0
-248 -295 0
-8 -278 0
-255 -259 0
-249 -299 0
-147 -257 0
-271 -281 0
-236 -250 0
-253 -280 0
-92 -176 0
-85 -214 0
-65 -245 0
-31 -296 0
-101 -276 0
-33 -147 0
-59 -159 0
-61 -192 0
-263 -293 0
-269 -279 0
-66 -214 0
-202 -252 0
-129 -193 0
-235 -256 0
-146 -298 0
-200 -278 0
-37 -137 0
-80 -177 0
-169 -175 0
-6 -154 0
-11 -172 0
-194 -225 0
-12 -125 0
-32 -148 0
-139 -188 0
-124 -172 0
-21 -256 0
-169 -239 0
-81 -256 0
-96 -189 0
-11 -78 0
-14 -239 0
-210 -293 0
-26 -86 0
-221 -270 0
-34 -303 0
-150 -165 0
-136 -215 0
-9 -297 0
-169 -285 0
-143 -243 0
-153 -271 0
-82 -121 0
-99 -126 0
-85 -210 0
-146 -279 0
-33 -190 0
-16 -177 0
-16 -219 0
-66 -285 0
-157 -240 0
-31 -52 0
-100 -233 0
-202 -275 0
-7 -55 0
-133 -233 0
-80 -178 0
-259 -292 0
-251 -263 0
-17 -193 0
-83 -234 0
-245 -292 0
-65 -75 0
-33 -59 0
-48 -166 0
-58 -73 0
-114 -257 0
-29 -146 0
-61 -222 0
-62 -226 0
-268 -280 0
-78 -296 0
-44 -124 0
-30 -110 0
-238 -280 0
-214 -244 0
-7 -189 0
-85 -188 0
-167 -209 0
-150 -198 0
-67 -111 0
-186 -258 0
-46 -70 0
-50 -225 0
-200 -209 0
-67 -88 0
-153 -278 0
-225 -241 0
-25 -260 0
-187 -273 0
-82 -247 0
-68 -236 0
-44 -196 0
-123 -290 0
-236 -247 0
-49 -65 0
-68 -183 0
-215 -265 0
-204 -297 0
-45 -282 0
-49 -295 0
-26 -243 0
-245 -274 0
-10 -141 0
-62 -275 0
-141 -275 0
-13 -78 0
-153 -202 0
-29 -88 0
-34 -142 0
-6 -205 0
-117 -147 0
-51 -262 0
-115 -263 0
-218 -263 0
-9 -188 0
-238 -271 0
-125 -239 0
-77 -209 0
-83 -214 0
-231 -240 0
-14 -192 0
-145 -193 0
-49 -283 0
-118 -268 0
-111 -121 0
-33 -117 0
-165 -206 0
-153 -205 0
-68 -71 0
-153 -161 0
-13 -108 0
-11 -256 0
-65 -179 0
-14 -224 0
-100 -181 0
-232 -299 0
-166 -259 0
-47 -192 0
-162 -246 0
-215 -246 0
-26 -207 0
-29 -71 0
-247 -262 0
-55 -105 0
-42 -176 0
-23 -139 0
-17 -20 0
-136 -140 0
-252 -300 0
-98 -181 0
-47 -124 0
-92 -107 0
-9 -55 0
-130 -191 0
-111 -241 0
-81 -225 0
-113 -260 0
-219 -234 0
-151 -295 0
-198 -244 0
-134 -257 0
-118 -241 0
-9 -276 0
-165 -181 0
-37 -223 0
-61 -154 0
-134 -198 0
-149 -212 0
-48 -250 0
-100 -230 0
-199 -300 0
-183 -241 0
-209 -257 0
-16 -127 0
-48 -183 0
-15 -293 0
-173 -189 0
-58 -242 0
-83 -158 0
-61 -123 0
-8 -90 0
-50 -122 0
-143 -158 0
-81 -223 0
-32 -217 0
-79 -179 0
-22 -172 0
-72 -290 0
-100 -296 0
-111 -177 0
-83 -189 0
-77 -142 0
-161 -228 0
-34 -64 0
-65 -137 0
-64 -139 0
-65 -227 0
-51 -160 0
-81 -147 0
-128 -260 0
-67 -98 0
-92 -244 0
-32 -113 0
-45 -227 0
-51 -276 0
-75 -104 0
-144 -261 0
-195 -210 0
-67 -219 0
-97 -121 0
-241 -274 0
-211 -242 0
-61 -224 0
-132 -239 0
-89 -222 0
-182 -224 0
-41 -105 0
-212 -222 0
-180 -191 0
-9 -154 0
-58 -70 0
-117 -299 0
-221 -294 0
-85 -131 0
-11 -228 0
-204 -227 0
-25 -223 0
-186 -275 0
-80 -232 0
-201 -244 0
-40 -70 0
-50 -284 0
-56 -138 0
-113 -226 0
-47 -176 0
-229 -276 0
-85 -286 0
-152 -292 0
-15 -160 0
-179 -261 0
-16 -81 0
-136 -244 0
-210 -225 0
-95 -179 0
-30 -299 0
-284 -291 0
-197 -244 0
-194 -261 0
-237 -242 0
-16 -46 0
-102 -217 0
-15 -123 0
-161 -208 0
-49 -200 0
-33 -150 0
-152 -188 0
-149 -199 0
-83 -246 0
-31 -156 0
