p cnf 836 17335
-1 -255 0
-1 -271 0
-1 -48 0
-1 -350 0
-1 -313 0
-1 -354 0
-1 -392 0
-1 -336 0
-1 -4 0
-2 -204 0
-2 -197 0
-2 -84 0
-2 -143 0
-2 -166 0
-2 -6 0
-2 -26 0
-2 -163 0
-2 -309 0
-2 -407 0
-2 -381 0
-2 -358 0
-2 -354 0
-3 -279 0
-3 -202 0
-3 -150 0
-3 -63 0
-3 -247 0
-3 -41 0
-3 -314 0
-3 -6 0
-3 -375 0
-3 -338 0
-3 -351 0
-3 -2 0
-4 -283 0
-4 -219 0
-4 -238 0
-4 -246 0
-4 -13 0
-4 -181 0
-4 -329 0
-4 -381 0
-4 -397 0
-5 -416 0
-5 -105 0
-5 -329 0
-5 -50 0
-5 -198 0
-5 -109 0
-5 -154 0
-5 -10 0
-5 -385 0
-5 -158 0
-5 -299 0
-5 -269 0
-5 -226 0
-5 -277 0
-5 -412 0
-5 -289 0
-5 -86 0
-6 -204 0
-6 -145 0
-6 -78 0
-6 -409 0
-6 -373 0
-6 -378 0
-6 -277 0
-6 -397 0
-6 -367 0
-6 -203 0
-7 -208 0
-7 -318 0
-7 -249 0
-7 -87 0
-7 -146 0
-7 -242 0
-7 -107 0
-7 -278 0
-7 -376 0
-7 -384 0
-7 -264 0
-7 -389 0
-7 -382 0
-8 -371 0
-8 -202 0
-8 -319 0
-8 -184 0
-8 -105 0
-8 -6 0
-8 -57 0
-8 -353 0
-8 -264 0
-8 -1 0
-8 -50 0
-8 -269 0
-8 -394 0
-8 -404 0
-9 -146 0
-9 -60 0
-9 -304 0
-9 -102 0
-9 -20 0
-9 -5 0
-9 -144 0
-9 -145 0
-10 -110 0
-10 -258 0
-10 -412 0
-10 -91 0
-10 -35 0
-10 -15 0
-10 -185 0
-10 -17 0
-10 -298 0
-10 -28 0
-11 -263 0
-11 -281 0
-11 -183 0
-11 -211 0
-11 -172 0
-11 -144 0
-11 -16 0
-11 -201 0
-11 -303 0
-11 -21 0
-11 -107 0
-12 -290 0
-12 -270 0
-12 -254 0
-12 -65 0
-12 -306 0
-12 -267 0
-12 -154 0
-12 -240 0
-12 -157 0
-12 -3 0
-12 -406 0
-12 -400 0
-12 -41 0
-13 -373 0
-13 -164 0
-13 -306 0
-13 -89 0
-13 -168 0
-13 -295 0
-13 -181 0
-13 -60 0
-13 -15 0
-13 -413 0
-13 -26 0
-13 -379 0
-13 -6 0
-13 -376 0
-14 -255 0
-14 -335 0
-14 -271 0
-14 -240 0
-14 -363 0
-14 -65 0
-14 -288 0
-14 -224 0
-14 -51 0
-14 -328 0
-14 -347 0
-14 -79 0
-14 -392 0
-14 -135 0
-14 -376 0
-14 -136 0
-14 -22 0
-14 -274 0
-15 -163 0
-15 -64 0
-15 -247 0
-15 -370 0
-15 -96 0
-15 -81 0
-15 -333 0
-15 -418 0
-15 -63 0
-15 -352 0
-16 -260 0
-16 -358 0
-16 -173 0
-16 -256 0
-16 -174 0
-16 -314 0
-16 -202 0
-16 -177 0
-16 -366 0
-16 -11 0
-16 -411 0
-16 -43 0
-16 -374 0
-16 -3 0
-16 -187 0
-17 -263 0
-17 -334 0
-17 -126 0
-17 -107 0
-17 -233 0
-17 -295 0
-17 -347 0
-17 -391 0
-17 -374 0
-17 -343 0
-17 -69 0
-18 -348 0
-18 -373 0
-18 -86 0
-18 -83 0
-18 -275 0
-18 -105 0
-18 -138 0
-18 -3 0
-18 -183 0
-18 -46 0
-18 -338 0
-18 -331 0
-18 -10 0
-19 -222 0
-19 -355 0
-19 -370 0
-19 -215 0
-19 -158 0
-19 -31 0
-19 -245 0
-19 -129 0
-19 -246 0
-19 -404 0
-19 -368 0
-19 -42 0
-20 -89 0
-20 -53 0
-20 -147 0
-20 -100 0
-20 -168 0
-20 -48 0
-20 -321 0
-20 -140 0
-20 -401 0
-20 -82 0
-20 -353 0
-21 -231 0
-21 -86 0
-21 -201 0
-21 -245 0
-21 -81 0
-21 -335 0
-21 -344 0
-21 -177 0
-21 -405 0
-21 -110 0
-21 -290 0
-21 -230 0
-21 -56 0
-21 -351 0
-22 -200 0
-22 -68 0
-22 -122 0
-22 -201 0
-22 -93 0
-22 -88 0
-22 -377 0
-22 -418 0
-22 -243 0
-22 -123 0
-22 -267 0
-22 -286 0
-22 -410 0
-22 -348 0
-23 -359 0
-23 -118 0
-23 -368 0
-23 -150 0
-23 -152 0
-23 -108 0
-23 -91 0
-23 -92 0
-23 -32 0
-23 -85 0
-23 -364 0
-23 -273 0
-23 -411 0
-23 -266 0
-23 -399 0
-23 -189 0
-23 -373 0
-24 -170 0
-24 -355 0
-24 -180 0
-24 -409 0
-24 -412 0
-24 -79 0
-24 -98 0
-24 -227 0
-24 -405 0
-24 -21 0
-24 -137 0
-24 -377 0
-24 -360 0
-24 -335 0
-25 -240 0
-25 -195 0
-25 -267 0
-25 -72 0
-25 -246 0
-25 -233 0
-25 -47 0
-25 -151 0
-25 -16 0
-25 -358 0
-25 -262 0
-25 -366 0
-26 -112 0
-26 -237 0
-26 -105 0
-26 -191 0
-26 -151 0
-26 -217 0
-26 -96 0
-26 -410 0
-26 -291 0
-26 -19 0
-26 -136 0
-26 -10 0
-26 -227 0
-26 -229 0
-27 -152 0
-27 -105 0
-27 -132 0
-27 -239 0
-27 -355 0
-27 -82 0
-27 -174 0
-27 -229 0
-27 -193 0
-27 -299 0
-27 -140 0
-28 -287 0
-28 -248 0
-28 -371 0
-28 -276 0
-28 -195 0
-28 -84 0
-28 -164 0
-28 -153 0
-28 -18 0
-28 -108 0
-28 -7 0
-28 -196 0
-28 -192 0
-28 -278 0
-28 -290 0
-28 -42 0
-29 -251 0
-29 -207 0
-29 -240 0
-29 -131 0
-29 -216 0
-29 -60 0
-29 -164 0
-29 -159 0
-29 -113 0
-29 -123 0
-29 -330 0
-29 -42 0
-29 -1 0
-29 -8 0
-30 -243 0
-30 -189 0
-30 -322 0
-30 -156 0
-30 -219 0
-30 -213 0
-30 -356 0
-30 -352 0
-30 -323 0
-30 -377 0
-30 -198 0
-30 -299 0
-31 -379 0
-31 -228 0
-31 -274 0
-31 -222 0
-31 -205 0
-31 -150 0
-31 -81 0
-31 -5 0
-31 -104 0
-31 -231 0
-31 -11 0
-31 -375 0
-31 -334 0
-31 -109 0
-32 -389 0
-32 -345 0
-32 -115 0
-32 -355 0
-32 -86 0
-32 -143 0
-32 -238 0
-32 -160 0
-32 -374 0
-32 -42 0
-32 -39 0
-32 -7 0
-32 -183 0
-32 -49 0
-32 -340 0
-33 -266 0
-34 -340 0
-34 -264 0
-34 -358 0
-34 -356 0
-34 -301 0
-34 -83 0
-34 -43 0
-34 -170 0
-34 -57 0
-34 -312 0
-34 -273 0
-35 -389 0
-35 -255 0
-35 -231 0
-35 -304 0
-35 -403 0
-35 -124 0
-35 -175 0
-35 -1 0
-35 -165 0
-35 -108 0
-35 -70 0
-35 -118 0
-35 -209 0
-35 -62 0
-35 -241 0
-36 -379 0
-36 -234 0
-36 -178 0
-36 -356 0
-36 -368 0
-36 -84 0
-36 -109 0
-36 -148 0
-36 -409 0
-36 -91 0
-36 -52 0
-36 -35 0
-36 -134 0
-36 -374 0
-36 -304 0
-36 -102 0
-37 -207 0
-37 -201 0
-37 -195 0
-37 -127 0
-37 -99 0
-37 -122 0
-37 -69 0
-37 -144 0
-37 -47 0
-37 -313 0
-37 -189 0
-37 -256 0
-37 -329 0
-37 -406 0
-37 -386 0
-37 -265 0
-38 -260 0
-38 -264 0
-38 -177 0
-38 -371 0
-38 -208 0
-38 -241 0
-38 -198 0
-38 -199 0
-38 -109 0
-38 -165 0
-38 -378 0
-38 -129 0
-38 -21 0
-38 -280 0
-38 -333 0
-38 -8 0
-38 -55 0
-39 -171 0
-39 -64 0
-39 -172 0
-39 -367 0
-39 -51 0
-39 -374 0
-39 -329 0
-39 -381 0
-39 -234 0
-39 -23 0
-39 -7 0
-40 -331 0
-40 -189 0
-40 -149 0
-40 -80 0
-40 -15 0
-40 -326 0
-40 -168 0
-40 -67 0
-40 -267 0
-40 -102 0
-40 -272 0
-40 -238 0
-40 -239 0
-40 -41 0
-40 -118 0
-40 -225 0
-40 -233 0
-41 -389 0
-41 -352 0
-41 -274 0
-41 -245 0
-41 -84 0
-41 -415 0
-41 -234 0
-41 -193 0
-41 -212 0
-41 -199 0
-41 -398 0
-41 -206 0
-41 -113 0
-43 -379 0
-43 -294 0
-43 -386 0
-43 -51 0
-43 -150 0
-43 -93 0
-43 -323 0
-43 -175 0
-43 -207 0
-43 -59 0
-43 -50 0
-43 -5 0
-44 -243 0
-44 -226 0
-44 -309 0
-44 -274 0
-44 -64 0
-44 -170 0
-44 -154 0
-44 -123 0
-44 -15 0
-44 -345 0
-44 -10 0
-44 -59 0
-44 -98 0
-44 -330 0
-44 -326 0
-44 -130 0
-45 -254 0
-45 -189 0
-45 -364 0
-45 -234 0
-45 -283 0
-45 -405 0
-45 -103 0
-45 -28 0
-45 -398 0
-45 -400 0
-45 -13 0
-45 -294 0
-45 -39 0
-45 -241 0
-45 -11 0
-45 -42 0
-45 -387 0
-45 -102 0
-45 -327 0
-46 -240 0
-46 -201 0
-46 -395 0
-46 -97 0
-46 -409 0
-46 -120 0
-46 -298 0
-46 -323 0
-46 -90 0
-47 -254 0
-47 -186 0
-47 -177 0
-47 -160 0
-47 -361 0
-47 -407 0
-47 -375 0
-47 -215 0
-47 -223 0
-47 -271 0
-47 -145 0
-47 -212 0
-47 -36 0
-47 -383 0
-47 -327 0
-48 -243 0
-48 -130 0
-48 -62 0
-48 -317 0
-48 -223 0
-48 -326 0
-48 -205 0
-48 -128 0
-48 -79 0
-48 -165 0
-48 -354 0
-48 -337 0
-49 -254 0
-49 -121 0
-49 -292 0
-49 -318 0
-49 -35 0
-49 -385 0
-49 -42 0
-49 -201 0
-49 -240 0
-49 -382 0
-49 -45 0
-50 -264 0
-50 -275 0
-50 -113 0
-50 -245 0
-50 -202 0
-50 -370 0
-50 -368 0
-50 -45 0
-50 -350 0
-50 -285 0
-50 -81 0
-50 -57 0
-50 -300 0
-50 -334 0
-50 -178 0
-50 -386 0
-51 -179 0
-51 -204 0
-51 -65 0
-51 -206 0
-51 -63 0
-51 -307 0
-51 -18 0
-51 -208 0
-51 -50 0
-51 -385 0
-51 -9 0
-51 -278 0
-52 -373 0
-52 -393 0
-52 -368 0
-52 -86 0
-52 -74 0
-52 -215 0
-52 -333 0
-52 -366 0
-52 -144 0
-52 -319 0
-52 -224 0
-52 -62 0
-52 -382 0
-52 -398 0
-52 -9 0
-52 -67 0
-53 -270 0
-53 -146 0
-53 -359 0
-53 -137 0
-53 -220 0
-53 -76 0
-53 -174 0
-53 -346 0
-53 -9 0
-53 -314 0
-54 -252 0
-54 -178 0
-54 -146 0
-54 -201 0
-54 -74 0
-54 -249 0
-54 -339 0
-54 -138 0
-54 -393 0
-54 -88 0
-54 -48 0
-54 -397 0
-54 -297 0
-54 -174 0
-54 -43 0
-54 -46 0
-55 -177 0
-55 -373 0
-55 -218 0
-55 -171 0
-55 -74 0
-55 -113 0
-55 -245 0
-55 -63 0
-55 -222 0
-55 -47 0
-55 -191 0
-55 -49 0
-55 -311 0
-55 -398 0
-55 -42 0
-55 -416 0
-55 -145 0
-55 -343 0
-55 -381 0
-56 -262 0
-56 -256 0
-56 -218 0
-56 -336 0
-56 -64 0
-56 -223 0
-56 -238 0
-56 -306 0
-56 -297 0
-56 -239 0
-56 -274 0
-56 -57 0
-56 -61 0
-56 -235 0
-56 -144 0
-56 -192 0
-56 -359 0
-56 -405 0
-56 -372 0
-57 -77 0
-57 -164 0
-57 -293 0
-57 -384 0
-57 -237 0
-57 -44 0
-57 -208 0
-57 -82 0
-57 -7 0
-57 -366 0
-57 -385 0
-58 -251 0
-58 -360 0
-58 -359 0
-58 -356 0
-58 -412 0
-58 -33 0
-58 -81 0
-58 -99 0
-58 -103 0
-58 -245 0
-58 -340 0
-58 -317 0
-58 -379 0
-58 -105 0
-58 -62 0
-58 -123 0
-59 -262 0
-59 -146 0
-59 -196 0
-59 -84 0
-59 -180 0
-59 -36 0
-59 -41 0
-59 -124 0
-59 -329 0
-59 -113 0
-59 -249 0
-59 -374 0
-60 -384 0
-60 -286 0
-60 -314 0
-60 -188 0
-60 -239 0
-60 -214 0
-60 -377 0
-60 -88 0
-60 -174 0
-60 -144 0
-60 -208 0
-60 -418 0
-61 -367 0
-61 -93 0
-61 -216 0
-61 -23 0
-61 -276 0
-61 -120 0
-61 -104 0
-61 -70 0
-61 -331 0
-61 -53 0
-61 -46 0
-61 -105 0
-61 -386 0
-62 -7 0
-62 -264 0
-62 -136 0
-62 -253 0
-62 -208 0
-62 -248 0
-62 -95 0
-62 -291 0
-62 -57 0
-62 -262 0
-63 -353 0
-63 -326 0
-63 -291 0
-63 -44 0
-63 -153 0
-63 -175 0
-63 -366 0
-63 -134 0
-63 -19 0
-63 -27 0
-63 -394 0
-63 -8 0
-64 -333 0
-64 -362 0
-64 -237 0
-64 -130 0
-64 -312 0
-64 -288 0
-64 -75 0
-64 -91 0
-64 -15 0
-64 -104 0
-64 -418 0
-64 -96 0
-64 -93 0
-65 -386 0
-65 -320 0
-65 -271 0
-65 -354 0
-65 -101 0
-65 -242 0
-65 -321 0
-65 -305 0
-65 -391 0
-65 -249 0
-65 -411 0
-65 -310 0
-65 -29 0
-65 -98 0
-66 -316 0
-66 -341 0
-66 -263 0
-66 -338 0
-66 -211 0
-66 -268 0
-66 -113 0
-66 -209 0
-66 -83 0
-66 -16 0
-66 -94 0
-66 -292 0
-66 -400 0
-67 -326 0
-67 -304 0
-67 -133 0
-67 -248 0
-67 -131 0
-67 -105 0
-67 -99 0
-67 -246 0
-67 -324 0
-67 -293 0
-67 -36 0
-68 -312 0
-68 -173 0
-68 -364 0
-68 -271 0
-68 -242 0
-68 -29 0
-68 -96 0
-68 -155 0
-68 -374 0
-68 -352 0
-68 -235 0
-69 -298 0
-69 -281 0
-69 -259 0
-69 -296 0
-69 -314 0
-69 -364 0
-69 -154 0
-69 -184 0
-69 -204 0
-69 -104 0
-69 -366 0
-69 -405 0
-69 -404 0
-70 -274 0
-70 -205 0
-70 -201 0
-70 -167 0
-70 -111 0
-70 -106 0
-70 -36 0
-70 -32 0
-70 -86 0
-70 -370 0
-70 -376 0
-70 -189 0
-71 -24 0
-71 -336 0
-71 -351 0
-71 -345 0
-71 -358 0
-71 -359 0
-71 -235 0
-71 -47 0
-71 -88 0
-71 -260 0
-71 -146 0
-71 -201 0
-72 -303 0
-72 -277 0
-72 -325 0
-72 -330 0
-72 -396 0
-72 -291 0
-72 -135 0
-72 -333 0
-72 -289 0
-72 -60 0
-72 -242 0
-72 -236 0
-72 -154 0
-72 -37 0
-72 -383 0
-72 -400 0
-72 -300 0
-72 -8 0
-72 -193 0
-73 -214 0
-73 -136 0
-73 -236 0
-73 -154 0
-73 -138 0
-73 -233 0
-73 -418 0
-73 -297 0
-73 -163 0
-73 -283 0
-73 -112 0
-73 -385 0
-73 -316 0
-73 -57 0
-74 -402 0
-74 -294 0
-74 -358 0
-74 -60 0
-74 -38 0
-74 -48 0
-74 -96 0
-74 -127 0
-74 -339 0
-75 -357 0
-75 -263 0
-75 -283 0
-75 -230 0
-75 -302 0
-75 -113 0
-75 -97 0
-75 -259 0
-75 -106 0
-75 -165 0
-75 -401 0
-75 -197 0
-75 -252 0
-75 -364 0
-75 -3 0
-75 -180 0
-76 -185 0
-76 -193 0
-76 -163 0
-76 -362 0
-76 -322 0
-76 -409 0
-76 -104 0
-76 -117 0
-76 -286 0
-76 -279 0
-76 -351 0
-76 -417 0
-76 -7 0
-76 -408 0
-76 -299 0
-77 -399 0
-77 -354 0
-77 -414 0
-77 -219 0
-77 -167 0
-77 -116 0
-77 -78 0
-77 -233 0
-77 -29 0
-77 -88 0
-77 -19 0
-77 -17 0
-77 -42 0
-77 -175 0
-77 -324 0
-78 -274 0
-78 -232 0
-78 -387 0
-78 -385 0
-78 -327 0
-78 -414 0
-78 -195 0
-78 -58 0
-78 -318 0
-78 -151 0
-78 -2 0
-79 -330 0
-79 -126 0
-79 -221 0
-79 -235 0
-79 -292 0
-79 -285 0
-79 -180 0
-79 -11 0
-79 -41 0
-79 -323 0
-79 -381 0
-79 -1 0
-79 -410 0
-79 -240 0
-80 -365 0
-80 -366 0
-80 -286 0
-80 -341 0
-80 -396 0
-80 -316 0
-80 -309 0
-80 -58 0
-80 -171 0
-80 -305 0
-80 -284 0
-80 -140 0
-80 -102 0
-80 -413 0
-80 -29 0
-80 -23 0
-80 -315 0
-80 -49 0
-80 -301 0
-80 -178 0
-81 -312 0
-81 -352 0
-81 -232 0
-81 -369 0
-81 -97 0
-81 -416 0
-81 -287 0
-81 -138 0
-81 -172 0
-81 -214 0
-81 -110 0
-81 -324 0
-81 -405 0
-82 -230 0
-82 -300 0
-82 -307 0
-82 -322 0
-82 -67 0
-82 -92 0
-82 -14 0
-82 -53 0
-82 -400 0
-82 -283 0
-82 -243 0
-82 -191 0
-82 -366 0
-83 -258 0
-83 -379 0
-83 -337 0
-83 -248 0
-83 -6 0
-83 -287 0
-83 -205 0
-83 -215 0
-83 -137 0
-83 -325 0
-83 -108 0
-83 -278 0
-84 -312 0
-84 -274 0
-84 -146 0
-84 -361 0
-84 -216 0
-84 -418 0
-84 -416 0
-84 -33 0
-84 -133 0
-84 -177 0
-84 -196 0
-85 -46 0
-85 -315 0
-85 -416 0
-85 -376 0
-85 -108 0
-85 -191 0
-85 -15 0
-85 -290 0
-85 -120 0
-86 -185 0
-86 -305 0
-86 -207 0
-86 -157 0
-86 -164 0
-86 -66 0
-86 -197 0
-86 -114 0
-86 -319 0
-86 -12 0
-86 -262 0
-87 -290 0
-87 -341 0
-87 -260 0
-87 -381 0
-87 -198 0
-87 -95 0
-87 -72 0
-87 -60 0
-87 -413 0
-87 -139 0
-87 -170 0
-87 -38 0
-87 -195 0
-87 -335 0
-88 -367 0
-88 -236 0
-88 -235 0
-88 -21 0
-88 -148 0
-88 -132 0
-88 -46 0
-88 -11 0
-88 -114 0
-88 -207 0
-88 -377 0
-88 -354 0
-88 -34 0
-88 -201 0
-89 -330 0
-89 -390 0
-89 -160 0
-89 -349 0
-89 -396 0
-89 -293 0
-89 -14 0
-89 -297 0
-89 -75 0
-89 -39 0
-89 -15 0
-89 -417 0
-89 -385 0
-89 -406 0
-90 -267 0
-90 -86 0
-90 -161 0
-90 -113 0
-90 -122 0
-90 -180 0
-90 -412 0
-90 -21 0
-90 -100 0
-90 -88 0
-90 -52 0
-91 -387 0
-91 -178 0
-91 -86 0
-91 -105 0
-91 -209 0
-91 -199 0
-91 -66 0
-91 -295 0
-91 -412 0
-91 -220 0
-91 -55 0
-91 -46 0
-91 -249 0
-91 -373 0
-91 -77 0
-91 -193 0
-91 -331 0
-92 -329 0
-92 -263 0
-92 -267 0
-92 -348 0
-92 -71 0
-92 -190 0
-92 -103 0
-92 -117 0
-92 -198 0
-92 -97 0
-92 -315 0
-93 -299 0
-93 -187 0
-93 -256 0
-93 -115 0
-93 -230 0
-93 -74 0
-93 -285 0
-93 -84 0
-93 -412 0
-93 -13 0
-93 -70 0
-93 -240 0
-93 -348 0
-93 -405 0
-94 -189 0
-94 -185 0
-94 -146 0
-94 -318 0
-94 -153 0
-94 -411 0
-94 -271 0
-94 -37 0
-94 -303 0
-94 -184 0
-94 -130 0
-94 -355 0
-94 -359 0
-94 -124 0
-95 -187 0
-95 -359 0
-95 -51 0
-95 -300 0
-95 -309 0
-95 -59 0
-95 -85 0
-95 -296 0
-95 -401 0
-95 -10 0
-96 -118 0
-96 -266 0
-96 -313 0
-96 -204 0
-96 -69 0
-96 -229 0
-96 -49 0
-96 -414 0
-96 -254 0
-97 -215 0
-97 -113 0
-97 -119 0
-97 -173 0
-97 -105 0
-97 -92 0
-97 -292 0
-97 -310 0
-97 -283 0
-97 -98 0
-97 -106 0
-97 -72 0
-97 -417 0
-97 -100 0
-97 -109 0
-97 -62 0
-98 -326 0
-98 -358 0
-98 -276 0
-98 -209 0
-98 -307 0
-98 -31 0
-98 -313 0
-98 -251 0
-98 -311 0
-98 -331 0
-99 -325 0
-99 -261 0
-99 -255 0
-99 -219 0
-99 -192 0
-99 -119 0
-99 -74 0
-99 -129 0
-99 -154 0
-99 -199 0
-99 -323 0
-99 -135 0
-99 -7 0
-99 -418 0
-100 -415 0
-100 -118 0
-100 -40 0
-100 -111 0
-100 -42 0
-100 -325 0
-100 -3 0
-100 -39 0
-100 -130 0
-100 -320 0
-100 -401 0
-100 -153 0
-100 -292 0
-100 -212 0
-101 -298 0
-101 -228 0
-101 -367 0
-101 -237 0
-101 -361 0
-101 -112 0
-101 -122 0
-101 -52 0
-101 -144 0
-101 -154 0
-101 -278 0
-101 -400 0
-101 -282 0
-101 -318 0
-101 -91 0
-101 -234 0
-102 -389 0
-102 -255 0
-102 -278 0
-102 -317 0
-102 -181 0
-102 -86 0
-102 -285 0
-102 -68 0
-102 -314 0
-102 -388 0
-102 -391 0
-102 -344 0
-102 -39 0
-102 -36 0
-102 -398 0
-102 -338 0
-103 -382 0
-103 -169 0
-103 -279 0
-103 -284 0
-103 -240 0
-103 -268 0
-103 -311 0
-103 -67 0
-103 -32 0
-103 -34 0
-103 -417 0
-103 -262 0
-103 -136 0
-103 -373 0
-103 -273 0
-104 -260 0
-104 -262 0
-104 -163 0
-104 -252 0
-104 -301 0
-104 -127 0
-104 -69 0
-104 -25 0
-104 -335 0
-104 -35 0
-104 -75 0
-105 -196 0
-105 -218 0
-105 -103 0
-105 -274 0
-105 -180 0
-105 -146 0
-105 -78 0
-105 -17 0
-105 -188 0
-105 -347 0
-106 -251 0
-106 -249 0
-106 -215 0
-106 -184 0
-106 -60 0
-106 -45 0
-106 -117 0
-106 -46 0
-106 -30 0
-106 -16 0
-106 -32 0
-106 -95 0
-106 -288 0
-107 -247 0
-107 -173 0
-107 -185 0
-107 -186 0
-107 -274 0
-107 -188 0
-107 -250 0
-107 -233 0
-107 -20 0
-107 -248 0
-107 -354 0
-107 -72 0
-107 -256 0
-107 -61 0
-107 -288 0
-107 -160 0
-107 -227 0
-108 -118 0
-108 -64 0
-108 -322 0
-108 -211 0
-108 -137 0
-108 -227 0
-108 -411 0
-108 -304 0
-108 -49 0
-108 -67 0
-108 -114 0
-109 -257 0
-109 -226 0
-109 -261 0
-109 -201 0
-109 -143 0
-109 -293 0
-109 -302 0
-109 -414 0
-109 -371 0
-109 -96 0
-109 -32 0
-109 -67 0
-109 -54 0
-109 -284 0
-109 -352 0
-110 -393 0
-110 -256 0
-110 -44 0
-110 -120 0
-110 -308 0
-110 -304 0
-110 -301 0
-110 -24 0
-111 -247 0
-111 -217 0
-111 -115 0
-111 -275 0
-111 -95 0
-111 -81 0
-111 -38 0
-111 -59 0
-111 -17 0
-111 -313 0
-111 -326 0
-111 -63 0
-111 -290 0
-111 -4 0
-111 -329 0
-112 -377 0
-112 -192 0
-112 -166 0
-112 -349 0
-112 -330 0
-112 -249 0
-112 -241 0
-112 -70 0
-112 -82 0
-112 -340 0
-112 -57 0
-112 -53 0
-112 -220 0
-112 -382 0
-113 -290 0
-113 -266 0
-113 -393 0
-113 -185 0
-113 -274 0
-113 -245 0
-113 -188 0
-113 -67 0
-114 -321 0
-114 -351 0
-114 -370 0
-114 -234 0
-114 -178 0
-114 -267 0
-114 -130 0
-114 -63 0
-114 -366 0
-114 -5 0
-114 -156 0
-114 -174 0
-114 -363 0
-114 -277 0
-115 -298 0
-115 -203 0
-115 -225 0
-115 -394 0
-115 -358 0
-115 -121 0
-115 -86 0
-115 -108 0
-115 -110 0
-115 -271 0
-115 -52 0
-115 -279 0
-115 -57 0
-116 -381 0
-116 -124 0
-116 -99 0
-116 -30 0
-116 -418 0
-116 -410 0
-116 -68 0
-116 -52 0
-116 -199 0
-116 -177 0
-116 -391 0
-116 -209 0
-116 -82 0
-116 -213 0
-117 -273 0
-117 -370 0
-117 -101 0
-117 -411 0
-117 -270 0
-117 -41 0
-117 -252 0
-117 -71 0
-117 -342 0
-117 -93 0
-117 -66 0
-118 -370 0
-118 -22 0
-118 -11 0
-118 -409 0
-118 -91 0
-118 -379 0
-118 -394 0
-118 -208 0
-118 -44 0
-119 -344 0
-119 -337 0
-119 -225 0
-119 -173 0
-119 -236 0
-119 -248 0
-119 -141 0
-119 -319 0
-119 -17 0
-119 -213 0
-119 -358 0
-119 -384 0
-119 -379 0
-119 -31 0
-119 -299 0
-119 -172 0
-119 -415 0
-120 -181 0
-120 -157 0
-120 -122 0
-120 -18 0
-120 -16 0
-120 -74 0
-120 -116 0
-120 -399 0
-120 -417 0
-120 -347 0
-120 -325 0
-120 -85 0
-121 -374 0
-121 -375 0
-121 -279 0
-121 -170 0
-121 -394 0
-121 -219 0
-121 -244 0
-121 -125 0
-121 -146 0
-121 -164 0
-121 -256 0
-121 -112 0
-121 -200 0
-121 -51 0
-122 -290 0
-122 -240 0
-122 -66 0
-122 -154 0
-122 -409 0
-122 -8 0
-122 -6 0
-123 -182 0
-123 -214 0
-123 -158 0
-123 -139 0
-123 -413 0
-123 -120 0
-123 -89 0
-123 -102 0
-123 -382 0
-123 -358 0
-123 -335 0
-123 -122 0
-123 -320 0
-124 -7 0
-124 -384 0
-124 -318 0
-124 -150 0
-124 -95 0
-124 -90 0
-124 -46 0
-124 -180 0
-124 -266 0
-124 -70 0
-124 -368 0
-125 -272 0
-125 -282 0
-125 -230 0
-125 -295 0
-125 -283 0
-125 -178 0
-125 -314 0
-125 -210 0
-125 -162 0
-125 -188 0
-125 -26 0
-125 -105 0
-125 -73 0
-125 -310 0
-125 -12 0
-125 -302 0
-125 -30 0
-125 -68 0
-126 -342 0
-126 -394 0
-126 -252 0
-126 -370 0
-126 -372 0
-126 -204 0
-126 -265 0
-126 -112 0
-126 -201 0
-126 -293 0
-126 -384 0
-126 -391 0
-126 -106 0
-126 -138 0
-126 -13 0
-126 -371 0
-126 -223 0
-127 -408 0
-127 -396 0
-127 -174 0
-127 -307 0
-127 -118 0
-127 -11 0
-127 -229 0
-127 -352 0
-127 -205 0
-127 -369 0
-127 -306 0
-127 -110 0
-127 -218 0
-128 -379 0
-128 -240 0
-128 -200 0
-128 -133 0
-128 -352 0
-128 -167 0
-128 -239 0
-128 -242 0
-128 -151 0
-128 -29 0
-128 -41 0
-128 -68 0
-128 -62 0
-128 -396 0
-128 -188 0
-128 -252 0
-129 -243 0
-129 -370 0
-129 -124 0
-129 -276 0
-129 -219 0
-129 -80 0
-129 -143 0
-129 -315 0
-129 -159 0
-129 -40 0
-129 -242 0
-129 -224 0
-129 -373 0
-129 -66 0
-130 -10 0
-130 -383 0
-130 -258 0
-130 -353 0
-130 -344 0
-130 -215 0
-130 -71 0
-130 -143 0
-130 -140 0
-130 -11 0
-130 -199 0
-130 -145 0
-130 -57 0
-130 -8 0
-131 -160 0
-131 -149 0
-131 -275 0
-131 -180 0
-131 -409 0
-131 -205 0
-131 -58 0
-131 -247 0
-131 -11 0
-131 -16 0
-131 -54 0
-131 -233 0
-131 -392 0
-131 -110 0
-131 -170 0
-131 -352 0
-132 -397 0
-132 -155 0
-132 -253 0
-132 -122 0
-132 -246 0
-132 -117 0
-132 -35 0
-132 -83 0
-132 -414 0
-132 -9 0
-132 -294 0
-132 -404 0
-133 -353 0
-133 -334 0
-133 -263 0
-133 -324 0
-133 -378 0
-133 -122 0
-133 -141 0
-133 -200 0
-133 -123 0
-133 -402 0
-133 -336 0
-133 -269 0
-133 -57 0
-133 -218 0
-134 -256 0
-134 -174 0
-134 -356 0
-134 -346 0
-134 -239 0
-134 -180 0
-134 -275 0
-134 -85 0
-134 -244 0
-134 -132 0
-134 -98 0
-134 -178 0
-134 -366 0
-135 -345 0
-135 -281 0
-135 -227 0
-135 -178 0
-135 -410 0
-135 -333 0
-135 -104 0
-135 -85 0
-135 -51 0
-135 -13 0
-135 -230 0
-136 -328 0
-136 -247 0
-136 -396 0
-136 -267 0
-136 -27 0
-136 -349 0
-136 -153 0
-136 -134 0
-136 -118 0
-136 -409 0
-136 -41 0
-136 -83 0
-136 -238 0
-136 -155 0
-136 -280 0
-137 -308 0
-137 -320 0
-137 -217 0
-137 -261 0
-137 -166 0
-137 -334 0
-137 -297 0
-137 -151 0
-137 -1 0
-137 -385 0
-137 -146 0
-137 -53 0
-138 -341 0
-138 -362 0
-138 -273 0
-138 -346 0
-138 -359 0
-138 -235 0
-138 -296 0
-138 -304 0
-138 -119 0
-138 -76 0
-138 -413 0
-138 -159 0
-139 -261 0
-139 -287 0
-139 -256 0
-139 -175 0
-139 -122 0
-139 -95 0
-139 -38 0
-139 -286 0
-139 -32 0
-139 -184 0
-139 -232 0
-139 -63 0
-139 -290 0
-139 -132 0
-139 -66 0
-140 -266 0
-140 -321 0
-140 -283 0
-140 -238 0
-140 -249 0
-140 -376 0
-140 -164 0
-140 -44 0
-140 -254 0
-140 -335 0
-140 -319 0
-140 -5 0
-140 -399 0
-141 -397 0
-141 -295 0
-141 -349 0
-141 -235 0
-141 -415 0
-141 -47 0
-141 -396 0
-141 -62 0
-141 -368 0
-141 -144 0
-141 -128 0
-141 -83 0
-141 -386 0
-141 -365 0
-141 -329 0
-142 -333 0
-142 -387 0
-142 -265 0
-142 -29 0
-142 -150 0
-142 -323 0
-142 -391 0
-142 -192 0
-142 -289 0
-142 -298 0
-142 -108 0
-142 -101 0
-143 -303 0
-143 -263 0
-143 -396 0
-143 -275 0
-143 -354 0
-143 -287 0
-143 -137 0
-143 -150 0
-143 -360 0
-143 -66 0
-143 -319 0
-143 -270 0
-143 -4 0
-143 -335 0
-144 -336 0
-144 -345 0
-144 -155 0
-144 -152 0
-144 -359 0
-144 -362 0
-144 -284 0
-144 -184 0
-144 -398 0
-144 -382 0
-144 -162 0
-144 -366 0
-144 -323 0
-144 -200 0
-144 -261 0
-144 -272 0
-145 -229 0
-145 -146 0
-145 -271 0
-145 -188 0
-145 -249 0
-145 -65 0
-145 -349 0
-145 -324 0
-145 -276 0
-145 -415 0
-145 -418 0
-145 -34 0
-145 -73 0
-145 -118 0
-145 -189 0
-146 -339 0
-146 -192 0
-146 -321 0
-146 -23 0
-146 -349 0
-146 -232 0
-146 -382 0
-146 -81 0
-146 -416 0
-146 -207 0
-146 -85 0
-146 -288 0
-146 -30 0
-147 -364 0
-147 -227 0
-147 -393 0
-147 -397 0
-147 -196 0
-147 -368 0
-147 -123 0
-147 -64 0
-147 -285 0
-147 -83 0
-147 -333 0
-147 -47 0
-147 -79 0
-147 -404 0
-148 -227 0
-148 -146 0
-148 -279 0
-148 -237 0
-148 -140 0
-148 -172 0
-148 -310 0
-148 -62 0
-148 -57 0
-148 -30 0
-148 -358 0
-148 -11 0
-148 -3 0
-148 -253 0
-148 -25 0
-148 -408 0
-148 -132 0
-148 -416 0
-149 -2 0
-149 -344 0
-149 -386 0
-149 -243 0
-149 -261 0
-149 -252 0
-149 -271 0
-149 -125 0
-149 -46 0
-149 -34 0
-149 -111 0
-149 -85 0
-149 -298 0
-149 -141 0
-149 -306 0
-149 -173 0
-149 -146 0
-150 -313 0
-150 -178 0
-150 -279 0
-150 -140 0
-150 -199 0
-150 -409 0
-150 -100 0
-150 -297 0
-150 -336 0
-150 -94 0
-150 -232 0
-151 -313 0
-151 -360 0
-151 -295 0
-151 -142 0
-151 -211 0
-151 -47 0
-151 -130 0
-151 -76 0
-151 -34 0
-151 -99 0
-151 -320 0
-151 -106 0
-151 -85 0
-151 -286 0
-152 -329 0
-152 -226 0
-152 -197 0
-152 -262 0
-152 -227 0
-152 -160 0
-152 -306 0
-152 -138 0
-152 -113 0
-152 -242 0
-152 -202 0
-152 -344 0
-152 -347 0
-152 -117 0
-153 -382 0
-153 -301 0
-153 -205 0
-153 -264 0
-153 -256 0
-153 -154 0
-153 -139 0
-153 -50 0
-153 -4 0
-153 -208 0
-153 -9 0
-153 -21 0
-153 -15 0
-153 -393 0
-153 -96 0
-154 -403 0
-154 -226 0
-154 -124 0
-154 -296 0
-154 -180 0
-154 -139 0
-154 -99 0
-154 -300 0
-154 -366 0
-154 -353 0
-154 -233 0
-154 -286 0
-155 -21 0
-155 -228 0
-155 -273 0
-155 -83 0
-155 -150 0
-155 -110 0
-155 -95 0
-155 -92 0
-155 -100 0
-155 -346 0
-155 -113 0
-155 -304 0
-155 -12 0
-155 -177 0
-155 -22 0
-155 -130 0
-155 -127 0
-155 -51 0
-156 -254 0
-156 -234 0
-156 -167 0
-156 -349 0
-156 -128 0
-156 -120 0
-156 -202 0
-156 -284 0
-156 -204 0
-156 -16 0
-156 -207 0
-156 -379 0
-157 -384 0
-157 -213 0
-157 -187 0
-157 -214 0
-157 -310 0
-157 -65 0
-157 -156 0
-157 -19 0
-157 -56 0
-157 -78 0
-157 -48 0
-158 -336 0
-158 -390 0
-158 -328 0
-158 -283 0
-158 -409 0
-158 -212 0
-158 -114 0
-158 -35 0
-158 -395 0
-158 -270 0
-158 -407 0
-159 -213 0
-159 -259 0
-159 -359 0
-159 -152 0
-159 -207 0
-159 -110 0
-159 -334 0
-159 -412 0
-159 -293 0
-159 -46 0
-159 -206 0
-159 -302 0
-159 -298 0
-159 -401 0
-159 -97 0
-159 -351 0
-160 -408 0
-160 -324 0
-160 -334 0
-160 -356 0
-160 -369 0
-160 -215 0
-160 -230 0
-160 -306 0
-160 -185 0
-160 -111 0
-160 -276 0
-160 -165 0
-160 -216 0
-161 -379 0
-161 -187 0
-161 -393 0
-161 -362 0
-161 -387 0
-161 -262 0
-161 -319 0
-161 -225 0
-161 -354 0
-161 -282 0
-161 -51 0
-161 -295 0
-161 -47 0
-161 -404 0
-162 -393 0
-162 -232 0
-162 -235 0
-162 -158 0
-162 -168 0
-162 -165 0
-162 -212 0
-162 -96 0
-162 -69 0
-162 -154 0
-162 -171 0
-162 -32 0
-162 -230 0
-162 -27 0
-162 -402 0
-162 -300 0
-162 -356 0
-162 -329 0
-163 -401 0
-163 -210 0
-163 -394 0
-163 -314 0
-163 -253 0
-163 -22 0
-163 -380 0
-163 -87 0
-163 -70 0
-163 -285 0
-163 -361 0
-163 -18 0
-163 -15 0
-163 -355 0
-163 -53 0
-163 -98 0
-164 -386 0
-164 -374 0
-164 -329 0
-164 -226 0
-164 -396 0
-164 -261 0
-164 -197 0
-164 -125 0
-164 -405 0
-164 -139 0
-164 -152 0
-164 -210 0
-164 -236 0
-164 -134 0
-164 -407 0
-165 -264 0
-165 -145 0
-165 -259 0
-165 -185 0
-165 -301 0
-165 -334 0
-165 -411 0
-165 -206 0
-165 -202 0
-165 -59 0
-165 -42 0
-165 -229 0
-165 -24 0
-165 -232 0
-166 -366 0
-166 -337 0
-166 -314 0
-166 -274 0
-166 -69 0
-166 -206 0
-166 -413 0
-166 -126 0
-166 -113 0
-166 -99 0
-166 -408 0
-166 -291 0
-166 -298 0
-166 -71 0
-167 -254 0
-167 -317 0
-167 -136 0
-167 -364 0
-167 -77 0
-167 -356 0
-167 -100 0
-167 -13 0
-167 -93 0
-167 -10 0
-167 -357 0
-167 -42 0
-168 -396 0
-168 -255 0
-168 -367 0
-168 -124 0
-168 -245 0
-168 -319 0
-168 -116 0
-168 -107 0
-168 -180 0
-168 -144 0
-168 -106 0
-168 -85 0
-168 -286 0
-168 -352 0
-168 -289 0
-168 -35 0
-168 -329 0
-168 -22 0
-169 -399 0
-169 -382 0
-169 -279 0
-169 -321 0
-169 -181 0
-169 -370 0
-169 -64 0
-169 -206 0
-169 -96 0
-169 -122 0
-169 -89 0
-169 -16 0
-169 -17 0
-169 -392 0
-170 -405 0
-170 -385 0
-170 -266 0
-170 -335 0
-170 -367 0
-170 -348 0
-170 -307 0
-170 -115 0
-170 -81 0
-170 -72 0
-170 -288 0
-170 -392 0
-170 -328 0
-170 -231 0
-171 -33 0
-172 -358 0
-172 -204 0
-172 -217 0
-172 -158 0
-172 -140 0
-172 -72 0
-172 -118 0
-172 -61 0
-172 -304 0
-172 -144 0
-172 -163 0
-172 -79 0
-172 -417 0
-172 -31 0
-173 -260 0
-173 -226 0
-173 -418 0
-173 -261 0
-173 -137 0
-173 -322 0
-173 -205 0
-173 -287 0
-173 -170 0
-173 -3 0
-174 -401 0
-174 -181 0
-174 -294 0
-174 -288 0
-174 -285 0
-174 -113 0
-174 -138 0
-174 -325 0
-174 -139 0
-174 -240 0
-174 -85 0
-174 -396 0
-174 -307 0
-174 -258 0
-175 -344 0
-175 -335 0
-175 -145 0
-175 -368 0
-175 -242 0
-175 -363 0
-175 -384 0
-175 -376 0
-175 -39 0
-175 -54 0
-175 -55 0
-175 -10 0
-175 -24 0
-175 -154 0
-175 -324 0
-175 -159 0
-176 -260 0
-176 -112 0
-176 -268 0
-176 -416 0
-176 -159 0
-176 -111 0
-176 -135 0
-176 -59 0
-176 -54 0
-176 -335 0
-176 -88 0
-176 -418 0
-176 -383 0
-176 -192 0
-176 -83 0
-176 -298 0
-176 -290 0
-176 -367 0
-176 -232 0
-177 -277 0
-177 -244 0
-177 -335 0
-177 -155 0
-177 -371 0
-177 -232 0
-177 -90 0
-177 -169 0
-177 -165 0
-177 -147 0
-177 -17 0
-177 -311 0
-177 -181 0
-178 -384 0
-178 -327 0
-178 -275 0
-178 -270 0
-178 -285 0
-179 -338 0
-179 -347 0
-179 -213 0
-179 -392 0
-179 -278 0
-179 -358 0
-179 -65 0
-179 -43 0
-179 -47 0
-179 -206 0
-179 -188 0
-179 -418 0
-179 -242 0
-179 -79 0
-179 -367 0
-180 -332 0
-180 -358 0
-180 -200 0
-180 -301 0
-180 -217 0
-180 -124 0
-180 -63 0
-180 -70 0
-181 -312 0
-181 -380 0
-181 -403 0
-181 -313 0
-181 -370 0
-181 -281 0
-181 -236 0
-181 -309 0
-181 -58 0
-181 -182 0
-181 -259 0
-181 -67 0
-181 -9 0
-181 -91 0
-181 -257 0
-182 -22 0
-182 -382 0
-182 -187 0
-182 -237 0
-182 -371 0
-182 -87 0
-182 -240 0
-182 -337 0
-182 -156 0
-182 -93 0
-182 -139 0
-182 -135 0
-182 -18 0
-182 -70 0
-182 -172 0
-182 -298 0
-183 -347 0
-183 -393 0
-183 -396 0
-183 -187 0
-183 -357 0
-183 -314 0
-183 -133 0
-183 -224 0
-183 -233 0
-183 -414 0
-183 -76 0
-183 -54 0
-183 -59 0
-183 -53 0
-183 -271 0
-183 -401 0
-183 -26 0
-184 -124 0
-184 -75 0
-184 -109 0
-184 -11 0
-184 -58 0
-184 -108 0
-184 -100 0
-184 -277 0
-184 -333 0
-185 -273 0
-185 -410 0
-185 -202 0
-185 -292 0
-185 -130 0
-185 -219 0
-185 -13 0
-185 -158 0
-185 -237 0
-185 -168 0
-185 -159 0
-186 -341 0
-186 -392 0
-186 -129 0
-186 -347 0
-186 -362 0
-186 -244 0
-186 -207 0
-186 -201 0
-186 -344 0
-186 -401 0
-186 -114 0
-186 -115 0
-186 -211 0
-186 -107 0
-186 -54 0
-186 -318 0
-186 -103 0
-187 -337 0
-187 -269 0
-187 -228 0
-187 -237 0
-187 -200 0
-187 -77 0
-187 -322 0
-187 -341 0
-187 -122 0
-187 -38 0
-187 -367 0
-187 -26 0
-187 -190 0
-187 -414 0
-187 -384 0
-188 -157 0
-188 -77 0
-188 -175 0
-188 -411 0
-188 -71 0
-188 -32 0
-188 -398 0
-188 -335 0
-188 -61 0
-188 -364 0
-188 -263 0
-188 -368 0
-188 -229 0
-189 -7 0
-189 -398 0
-189 -263 0
-189 -226 0
-189 -370 0
-189 -88 0
-189 -124 0
-189 -34 0
-189 -197 0
-189 -300 0
-189 -180 0
-189 -381 0
-189 -414 0
-189 -67 0
-190 -353 0
-190 -299 0
-190 -221 0
-190 -371 0
-190 -340 0
-190 -235 0
-190 -31 0
-190 -396 0
-190 -67 0
-190 -254 0
-190 -42 0
-190 -286 0
-190 -9 0
-190 -330 0
-190 -268 0
-190 -302 0
-190 -385 0
-191 -221 0
-191 -396 0
-191 -218 0
-191 -161 0
-191 -220 0
-191 -202 0
-191 -413 0
-191 -139 0
-191 -135 0
-191 -333 0
-191 -32 0
-191 -408 0
-191 -259 0
-191 -402 0
-191 -126 0
-192 -257 0
-192 -248 0
-192 -371 0
-192 -196 0
-192 -270 0
-192 -410 0
-192 -167 0
-192 -289 0
-192 -191 0
-192 -24 0
-192 -88 0
-193 -299 0
-193 -225 0
-193 -221 0
-193 -397 0
-193 -251 0
-193 -370 0
-193 -284 0
-193 -118 0
-193 -164 0
-193 -161 0
-193 -338 0
-193 -66 0
-193 -202 0
-193 -165 0
-193 -286 0
-194 -327 0
-194 -282 0
-194 -294 0
-194 -251 0
-194 -336 0
-194 -244 0
-194 -342 0
-194 -70 0
-194 -404 0
-194 -154 0
-194 -2 0
-194 -212 0
-194 -106 0
-194 -178 0
-194 -157 0
-194 -412 0
-194 -96 0
-194 -285 0
-194 -220 0
-195 -197 0
-195 -296 0
-195 -322 0
-195 -262 0
-195 -70 0
-195 -392 0
-195 -92 0
-195 -267 0
-195 -34 0
-195 -268 0
-195 -284 0
-195 -398 0
-195 -98 0
-195 -109 0
-195 -90 0
-195 -4 0
-196 -398 0
-196 -382 0
-196 -385 0
-196 -333 0
-196 -291 0
-196 -299 0
-196 -371 0
-196 -249 0
-196 -21 0
-196 -221 0
-196 -136 0
-196 -124 0
-196 -3 0
-196 -251 0
-196 -186 0
-196 -404 0
-196 -87 0
-196 -85 0
-196 -223 0
-196 -20 0
-197 -213 0
-197 -362 0
-197 -355 0
-197 -75 0
-197 -131 0
-197 -191 0
-197 -36 0
-197 -48 0
-197 -41 0
-197 -387 0
-197 -45 0
-197 -203 0
-197 -2 0
-198 -337 0
-198 -332 0
-198 -334 0
-198 -228 0
-198 -283 0
-198 -192 0
-198 -182 0
-198 -259 0
-198 -317 0
-198 -285 0
-198 -281 0
-198 -31 0
-198 -99 0
-198 -345 0
-198 -77 0
-198 -148 0
-198 -241 0
-198 -20 0
-198 -343 0
-198 -109 0
-198 -92 0
-198 -227 0
-199 -177 0
-199 -240 0
-199 -72 0
-199 -128 0
-199 -59 0
-199 -53 0
-199 -415 0
-199 -9 0
-199 -381 0
-199 -200 0
-199 -250 0
-199 -4 0
-200 -217 0
-200 -173 0
-200 -304 0
-200 -309 0
-200 -363 0
-200 -195 0
-200 -67 0
-200 -113 0
-200 -92 0
-200 -122 0
-200 -11 0
-200 -129 0
-201 -298 0
-201 -393 0
-201 -136 0
-201 -278 0
-201 -233 0
-201 -152 0
-201 -35 0
-201 -89 0
-201 -92 0
-201 -327 0
-201 -52 0
-201 -394 0
-201 -39 0
-202 -339 0
-202 -174 0
-202 -314 0
-202 -184 0
-202 -291 0
-202 -67 0
-202 -117 0
-202 -186 0
-202 -46 0
-202 -141 0
-202 -269 0
-202 -204 0
-202 -152 0
-202 -362 0
-202 -338 0
-203 -340 0
-203 -312 0
-203 -243 0
-203 -373 0
-203 -214 0
-203 -353 0
-203 -27 0
-203 -313 0
-203 -184 0
-203 -93 0
-203 -175 0
-203 -409 0
-203 -39 0
-203 -57 0
-204 -308 0
-204 -284 0
-204 -197 0
-204 -167 0
-204 -81 0
-204 -84 0
-204 -172 0
-204 -102 0
-205 -362 0
-205 -200 0
-205 -163 0
-205 -68 0
-205 -266 0
-205 -184 0
-205 -144 0
-205 -103 0
-205 -151 0
-205 -24 0
-205 -7 0
-205 -8 0
-206 -326 0
-206 -157 0
-206 -118 0
-206 -150 0
-206 -148 0
-206 -104 0
-206 -372 0
-206 -375 0
-206 -333 0
-207 -400 0
-207 -376 0
-207 -343 0
-207 -326 0
-207 -169 0
-207 -385 0
-207 -232 0
-207 -153 0
-207 -414 0
-207 -234 0
-207 -202 0
-207 -104 0
-208 -369 0
-208 -357 0
-208 -251 0
-208 -367 0
-208 -286 0
-208 -182 0
-208 -406 0
-208 -111 0
-208 -138 0
-208 -58 0
-208 -96 0
-208 -389 0
-209 -234 0
-209 -352 0
-209 -170 0
-209 -302 0
-209 -192 0
-209 -242 0
-209 -60 0
-209 -412 0
-209 -46 0
-209 -32 0
-209 -87 0
-209 -380 0
-210 -7 0
-210 -406 0
-210 -308 0
-210 -299 0
-210 -202 0
-210 -55 0
-210 -15 0
-210 -80 0
-210 -75 0
-210 -246 0
-210 -60 0
-210 -76 0
-210 -111 0
-210 -397 0
-210 -405 0
-210 -45 0
-211 -397 0
-211 -313 0
-211 -361 0
-211 -245 0
-211 -219 0
-211 -120 0
-211 -66 0
-211 -92 0
-211 -180 0
-211 -56 0
-211 -32 0
-211 -226 0
-211 -106 0
-211 -352 0
-211 -217 0
-211 -165 0
-212 -251 0
-212 -219 0
-212 -171 0
-212 -319 0
-212 -92 0
-212 -284 0
-212 -368 0
-212 -41 0
-212 -349 0
-212 -55 0
-212 -36 0
-212 -133 0
-212 -391 0
-212 -160 0
-213 -4 0
-213 -272 0
-213 -185 0
-213 -265 0
-213 -301 0
-213 -321 0
-213 -149 0
-213 -302 0
-213 -140 0
-213 -293 0
-214 -339 0
-214 -304 0
-214 -391 0
-214 -215 0
-214 -398 0
-214 -137 0
-214 -180 0
-214 -299 0
-214 -168 0
-214 -40 0
-214 -128 0
-214 -140 0
-214 -111 0
-215 -226 0
-215 -396 0
-215 -394 0
-215 -207 0
-215 -158 0
-215 -12 0
-215 -245 0
-215 -327 0
-216 -163 0
-216 -136 0
-216 -355 0
-216 -262 0
-216 -300 0
-216 -239 0
-216 -188 0
-216 -266 0
-216 -315 0
-216 -414 0
-216 -291 0
-216 -4 0
-216 -406 0
-216 -260 0
-217 -404 0
-217 -344 0
-217 -251 0
-217 -237 0
-217 -279 0
-217 -150 0
-217 -73 0
-217 -209 0
-217 -325 0
-217 -187 0
-217 -57 0
-217 -398 0
-217 -388 0
-217 -60 0
-218 -222 0
-218 -170 0
-218 -268 0
-218 -310 0
-218 -129 0
-218 -215 0
-218 -298 0
-218 -116 0
-218 -10 0
-218 -107 0
-219 -266 0
-220 -296 0
-220 -307 0
-220 -329 0
-220 -61 0
-220 -11 0
-220 -226 0
-220 -377 0
-220 -242 0
-220 -212 0
-221 -370 0
-221 -358 0
-221 -237 0
-221 -309 0
-221 -388 0
-221 -180 0
-221 -17 0
-222 -384 0
-222 -369 0
-222 -325 0
-222 -197 0
-222 -305 0
-222 -117 0
-222 -205 0
-222 -202 0
-222 -34 0
-222 -235 0
-222 -106 0
-222 -400 0
-222 -11 0
-222 -4 0
-222 -25 0
-223 -373 0
-223 -152 0
-223 -256 0
-223 -409 0
-223 -209 0
-223 -8 0
-223 -302 0
-223 -305 0
-223 -259 0
-223 -143 0
-223 -27 0
-224 -389 0
-224 -348 0
-224 -361 0
-224 -178 0
-224 -110 0
-224 -122 0
-224 -66 0
-224 -120 0
-224 -211 0
-224 -36 0
-224 -242 0
-224 -229 0
-224 -184 0
-224 -305 0
-225 -4 0
-225 -384 0
-225 -23 0
-225 -22 0
-225 -49 0
-225 -393 0
-225 -313 0
-225 -322 0
-225 -192 0
-225 -113 0
-225 -347 0
-225 -201 0
-225 -85 0
-226 -337 0
-226 -367 0
-226 -213 0
-226 -222 0
-226 -197 0
-226 -229 0
-226 -209 0
-226 -412 0
-226 -255 0
-226 -399 0
-227 -375 0
-227 -366 0
-227 -386 0
-227 -348 0
-227 -322 0
-227 -412 0
-227 -343 0
-227 -165 0
-227 -73 0
-228 -408 0
-228 -28 0
-228 -166 0
-228 -386 0
-228 -390 0
-228 -119 0
-228 -211 0
-228 -293 0
-228 -186 0
-228 -220 0
-228 -48 0
-228 -317 0
-228 -143 0
-228 -414 0
-228 -73 0
-229 -264 0
-229 -221 0
-229 -275 0
-229 -178 0
-229 -149 0
-229 -215 0
-229 -122 0
-229 -14 0
-229 -319 0
-229 -139 0
-229 -299 0
-229 -47 0
-230 -404 0
-230 -350 0
-230 -257 0
-230 -377 0
-230 -244 0
-230 -204 0
-230 -65 0
-230 -206 0
-230 -231 0
-230 -66 0
-230 -354 0
-230 -418 0
-230 -254 0
-230 -375 0
-230 -53 0
-230 -271 0
-231 -2 0
-231 -22 0
-231 -362 0
-231 -130 0
-231 -363 0
-231 -352 0
-231 -183 0
-231 -134 0
-231 -364 0
-231 -205 0
-231 -220 0
-231 -37 0
-232 -344 0
-232 -326 0
-232 -348 0
-232 -240 0
-232 -314 0
-232 -90 0
-232 -141 0
-232 -82 0
-232 -17 0
-232 -327 0
-233 -221 0
-233 -335 0
-233 -152 0
-233 -185 0
-233 -117 0
-233 -247 0
-233 -13 0
-233 -89 0
-233 -48 0
-233 -286 0
-234 -280 0
-234 -335 0
-234 -270 0
-234 -238 0
-234 -414 0
-234 -80 0
-234 -113 0
-234 -340 0
-234 -60 0
-234 -47 0
-234 -315 0
-234 -301 0
-235 -272 0
-235 -397 0
-235 -173 0
-235 -304 0
-235 -353 0
-235 -62 0
-235 -292 0
-235 -218 0
-235 -21 0
-235 -104 0
-235 -356 0
-235 -245 0
-235 -13 0
-236 -333 0
-236 -370 0
-236 -25 0
-236 -17 0
-236 -200 0
-236 -349 0
-236 -416 0
-236 -186 0
-236 -22 0
-236 -315 0
-236 -282 0
-236 -391 0
-236 -402 0
-236 -351 0
-236 -143 0
-237 -331 0
-237 -337 0
-237 -403 0
-237 -287 0
-237 -135 0
-237 -35 0
-237 -42 0
-237 -93 0
-237 -91 0
-237 -386 0
-238 -287 0
-238 -354 0
-238 -149 0
-238 -314 0
-238 -118 0
-238 -245 0
-238 -266 0
-238 -366 0
-238 -277 0
-238 -57 0
-238 -98 0
-238 -60 0
-238 -2 0
-238 -239 0
-239 -251 0
-239 -189 0
-239 -223 0
-239 -250 0
-239 -39 0
-239 -134 0
-239 -11 0
-239 -393 0
-239 -151 0
-239 -125 0
-239 -96 0
-239 -354 0
-239 -353 0
-239 -289 0
-239 -180 0
-240 -5 0
-240 -283 0
-240 -295 0
-240 -178 0
-240 -322 0
-240 -399 0
-240 -2 0
-240 -210 0
-240 -29 0
-240 -417 0
-240 -227 0
-240 -345 0
-241 -362 0
-241 -314 0
-241 -136 0
-241 -315 0
-241 -116 0
-241 -128 0
-241 -409 0
-241 -306 0
-241 -265 0
-241 -80 0
-241 -199 0
-241 -137 0
-241 -407 0
-241 -370 0
-242 -339 0
-242 -348 0
-242 -194 0
-242 -359 0
-242 -67 0
-242 -235 0
-242 -305 0
-242 -89 0
-242 -105 0
-242 -22 0
-242 -375 0
-242 -145 0
-242 -411 0
-243 -408 0
-243 -398 0
-243 -387 0
-243 -403 0
-243 -361 0
-243 -25 0
-243 -305 0
-243 -35 0
-243 -5 0
-243 -154 0
-243 -96 0
-243 -248 0
-243 -386 0
-243 -86 0
-244 -21 0
-244 -254 0
-244 -228 0
-244 -210 0
-244 -279 0
-244 -79 0
-244 -156 0
-244 -166 0
-244 -127 0
-244 -378 0
-244 -95 0
-244 -73 0
-244 -12 0
-244 -98 0
-244 -108 0
-244 -106 0
-245 -260 0
-245 -142 0
-245 -267 0
-245 -201 0
-245 -77 0
-245 -300 0
-245 -34 0
-245 -400 0
-245 -229 0
-245 -71 0
-245 -343 0
-245 -81 0
-245 -289 0
-245 -147 0
-246 -370 0
-246 -170 0
-246 -74 0
-246 -289 0
-246 -202 0
-246 -66 0
-246 -114 0
-246 -413 0
-246 -382 0
-246 -347 0
-246 -124 0
-246 -38 0
-246 -418 0
-246 -379 0
-247 -7 0
-247 -386 0
-247 -345 0
-247 -339 0
-247 -326 0
-247 -349 0
-247 -134 0
-247 -53 0
-247 -78 0
-247 -47 0
-247 -34 0
-247 -89 0
-247 -92 0
-247 -51 0
-247 -114 0
-247 -332 0
-247 -216 0
-248 -22 0
-248 -280 0
-248 -177 0
-248 -375 0
-248 -382 0
-248 -279 0
-248 -211 0
-248 -137 0
-248 -84 0
-248 -87 0
-248 -107 0
-248 -179 0
-248 -256 0
-248 -59 0
-248 -124 0
-248 -80 0
-248 -25 0
-248 -19 0
-248 -372 0
-249 -266 0
-249 -219 0
-249 -42 0
-250 -304 0
-250 -171 0
-250 -387 0
-250 -150 0
-250 -398 0
-250 -123 0
-250 -99 0
-250 -19 0
-250 -364 0
-250 -408 0
-250 -128 0
-250 -58 0
-250 -54 0
-250 -284 0
-251 -342 0
-251 -247 0
-251 -230 0
-251 -275 0
-251 -170 0
-251 -292 0
-251 -253 0
-251 -121 0
-251 -270 0
-251 -13 0
-251 -197 0
-251 -413 0
-251 -165 0
-251 -11 0
-251 -272 0
-252 -264 0
-252 -349 0
-252 -106 0
-252 -406 0
-252 -155 0
-252 -371 0
-252 -84 0
-252 -146 0
-252 -255 0
-252 -340 0
-252 -151 0
-252 -269 0
-252 -22 0
-252 -66 0
-253 -257 0
-253 -218 0
-253 -170 0
-253 -174 0
-253 -387 0
-253 -208 0
-253 -303 0
-253 -236 0
-253 -188 0
-253 -417 0
-253 -9 0
-253 -79 0
-253 -229 0
-253 -315 0
-253 -122 0
-253 -141 0
-253 -167 0
-253 -6 0
-253 -10 0
-254 -405 0
-254 -404 0
-254 -388 0
-254 -295 0
-254 -361 0
-254 -356 0
-254 -307 0
-254 -140 0
-254 -362 0
-254 -32 0
-254 -170 0
-254 -31 0
-255 -401 0
-255 -382 0
-255 -139 0
-255 -56 0
-255 -97 0
-255 -305 0
-255 -108 0
-255 -98 0
-255 -205 0
-255 -113 0
-255 -92 0
-256 -210 0
-256 -240 0
-256 -33 0
-256 -255 0
-256 -96 0
-256 -286 0
-256 -191 0
-256 -320 0
-256 -383 0
-256 -408 0
-257 -8 0
-257 -26 0
-257 -239 0
-257 -403 0
-257 -185 0
-257 -290 0
-257 -275 0
-257 -231 0
-257 -74 0
-257 -262 0
-257 -146 0
-257 -289 0
-257 -67 0
-257 -333 0
-257 -108 0
-258 -6 0
-258 -280 0
-258 -263 0
-258 -257 0
-258 -261 0
-258 -396 0
-258 -305 0
-258 -268 0
-258 -253 0
-258 -174 0
-258 -150 0
-258 -41 0
-258 -233 0
-258 -191 0
-258 -307 0
-258 -189 0
-259 -377 0
-259 -350 0
-259 -247 0
-259 -192 0
-259 -339 0
-259 -374 0
-259 -157 0
-259 -90 0
-259 -222 0
-259 -143 0
-259 -119 0
-259 -137 0
-259 -100 0
-259 -177 0
-259 -8 0
-259 -7 0
-260 -6 0
-260 -316 0
-260 -387 0
-260 -214 0
-260 -344 0
-260 -361 0
-260 -199 0
-260 -298 0
-260 -17 0
-260 -175 0
-260 -242 0
-260 -286 0
-260 -72 0
-260 -86 0
-261 -364 0
-261 -272 0
-261 -394 0
-261 -255 0
-261 -22 0
-261 -232 0
-261 -122 0
-261 -353 0
-261 -83 0
-261 -302 0
-261 -90 0
-261 -43 0
-262 -175 0
-262 -368 0
-262 -34 0
-262 -362 0
-262 -82 0
-262 -70 0
-262 -42 0
-262 -182 0
-262 -105 0
-262 -77 0
-262 -396 0
-262 -405 0
-263 -221 0
-263 -110 0
-263 -225 0
-263 -194 0
-263 -133 0
-263 -274 0
-263 -175 0
-263 -24 0
-263 -72 0
-263 -157 0
-263 -73 0
-263 -135 0
-263 -165 0
-263 -313 0
-263 -177 0
-263 -209 0
-264 -269 0
-264 -89 0
-264 -195 0
-264 -270 0
-264 -228 0
-264 -349 0
-264 -113 0
-264 -124 0
-264 -299 0
-264 -406 0
-264 -110 0
-265 -277 0
-265 -225 0
-265 -181 0
-265 -182 0
-265 -185 0
-265 -140 0
-265 -79 0
-265 -372 0
-265 -163 0
-265 -16 0
-265 -4 0
-265 -321 0
-265 -397 0
-265 -294 0
-265 -63 0
-265 -169 0
-267 -288 0
-267 -134 0
-267 -305 0
-267 -180 0
-267 -43 0
-267 -106 0
-267 -206 0
-267 -4 0
-267 -249 0
-268 -389 0
-268 -299 0
-268 -387 0
-268 -289 0
-268 -75 0
-268 -18 0
-268 -120 0
-268 -95 0
-268 -85 0
-268 -101 0
-268 -30 0
-268 -356 0
-268 -230 0
-268 -113 0
-269 -405 0
-269 -205 0
-269 -180 0
-269 -372 0
-269 -41 0
-269 -288 0
-269 -370 0
-269 -176 0
-269 -271 0
-270 -24 0
-270 -374 0
-270 -308 0
-270 -225 0
-270 -292 0
-270 -349 0
-270 -239 0
-270 -412 0
-270 -203 0
-270 -205 0
-270 -253 0
-270 -129 0
-271 -226 0
-271 -218 0
-271 -178 0
-271 -348 0
-271 -176 0
-271 -161 0
-271 -276 0
-271 -310 0
-271 -211 0
-271 -73 0
-271 -71 0
-271 -388 0
-272 -405 0
-272 -377 0
-272 -338 0
-272 -280 0
-272 -263 0
-272 -332 0
-272 -317 0
-272 -189 0
-272 -258 0
-272 -334 0
-272 -284 0
-272 -173 0
-272 -297 0
-272 -208 0
-272 -171 0
-272 -40 0
-273 -401 0
-273 -230 0
-273 -124 0
-273 -7 0
-273 -75 0
-273 -299 0
-273 -54 0
-273 -356 0
-273 -90 0
-273 -99 0
-273 -74 0
-273 -77 0
-273 -141 0
-274 -332 0
-274 -276 0
-274 -335 0
-274 -207 0
-274 -370 0
-274 -190 0
-274 -39 0
-274 -415 0
-274 -74 0
-274 -7 0
-275 -331 0
-275 -193 0
-275 -65 0
-275 -256 0
-275 -123 0
-275 -90 0
-275 -67 0
-275 -203 0
-275 -116 0
-275 -308 0
-275 -296 0
-275 -184 0
-275 -11 0
-276 -309 0
-276 -394 0
-276 -83 0
-276 -152 0
-276 -223 0
-276 -68 0
-276 -317 0
-276 -62 0
-276 -106 0
-276 -372 0
-276 -75 0
-276 -54 0
-277 -272 0
-277 -186 0
-277 -203 0
-277 -317 0
-277 -258 0
-277 -231 0
-277 -368 0
-277 -19 0
-277 -197 0
-277 -115 0
-277 -249 0
-277 -363 0
-277 -279 0
-278 -227 0
-278 -400 0
-278 -287 0
-278 -204 0
-278 -146 0
-278 -403 0
-278 -174 0
-278 -35 0
-278 -42 0
-278 -412 0
-278 -22 0
-278 -51 0
-278 -269 0
-279 -358 0
-279 -255 0
-279 -187 0
-279 -195 0
-279 -324 0
-279 -47 0
-279 -410 0
-279 -180 0
-279 -398 0
-279 -13 0
-280 -366 0
-280 -323 0
-280 -227 0
-280 -118 0
-280 -121 0
-280 -194 0
-280 -125 0
-280 -286 0
-280 -119 0
-280 -300 0
-280 -56 0
-280 -33 0
-280 -117 0
-280 -135 0
-280 -187 0
-280 -85 0
-281 -386 0
-281 -364 0
-281 -278 0
-281 -115 0
-281 -128 0
-281 -256 0
-281 -414 0
-281 -16 0
-281 -351 0
-281 -160 0
-281 -25 0
-281 -267 0
-281 -22 0
-281 -161 0
-282 -386 0
-282 -385 0
-282 -264 0
-282 -394 0
-282 -281 0
-282 -124 0
-282 -363 0
-282 -81 0
-282 -34 0
-282 -208 0
-282 -173 0
-282 -418 0
-282 -268 0
-282 -415 0
-282 -237 0
-282 -147 0
-283 -295 0
-283 -267 0
-283 -65 0
-283 -265 0
-283 -69 0
-283 -147 0
-283 -99 0
-283 -67 0
-283 -17 0
-283 -84 0
-283 -148 0
-283 -76 0
-284 -248 0
-284 -359 0
-284 -281 0
-284 -218 0
-284 -219 0
-284 -167 0
-284 -212 0
-284 -77 0
-284 -26 0
-284 -56 0
-284 -17 0
-284 -51 0
-284 -412 0
-285 -172 0
-285 -22 0
-285 -148 0
-285 -209 0
-285 -280 0
-285 -18 0
-285 -226 0
-285 -260 0
-285 -412 0
-285 -169 0
-285 -46 0
-285 -383 0
-285 -80 0
-286 -342 0
-286 -338 0
-286 -193 0
-286 -136 0
-286 -322 0
-286 -134 0
-286 -215 0
-286 -205 0
-286 -34 0
-286 -52 0
-286 -53 0
-287 -367 0
-287 -341 0
-287 -304 0
-287 -348 0
-287 -123 0
-287 -103 0
-287 -362 0
-287 -138 0
-287 -258 0
-287 -51 0
-287 -227 0
-287 -128 0
-287 -310 0
-288 -348 0
-288 -257 0
-288 -304 0
-288 -351 0
-288 -363 0
-288 -312 0
-288 -220 0
-288 -301 0
-288 -211 0
-288 -375 0
-288 -404 0
-289 -142 0
-289 -112 0
-289 -158 0
-289 -124 0
-289 -202 0
-289 -106 0
-289 -351 0
-289 -42 0
-289 -347 0
-289 -8 0
-289 -5 0
-290 -379 0
-290 -393 0
-290 -389 0
-290 -133 0
-290 -161 0
-290 -123 0
-290 -206 0
-290 -87 0
-290 -205 0
-290 -141 0
-290 -208 0
-291 -374 0
-291 -9 0
-291 -317 0
-291 -356 0
-291 -219 0
-291 -302 0
-291 -282 0
-291 -191 0
-291 -79 0
-291 -129 0
-291 -98 0
-291 -240 0
-291 -44 0
-291 -138 0
-292 -369 0
-292 -402 0
-292 -146 0
-292 -27 0
-292 -224 0
-292 -413 0
-292 -168 0
-292 -46 0
-292 -245 0
-292 -161 0
-292 -53 0
-292 -4 0
-292 -150 0
-292 -37 0
-293 -177 0
-293 -341 0
-293 -271 0
-293 -208 0
-293 -68 0
-293 -385 0
-293 -5 0
-293 -132 0
-293 -56 0
-293 -391 0
-293 -104 0
-293 -399 0
-293 -167 0
-293 -307 0
-293 -52 0
-294 -378 0
-294 -282 0
-294 -273 0
-294 -119 0
-294 -215 0
-294 -255 0
-294 -336 0
-294 -189 0
-294 -219 0
-294 -208 0
-294 -49 0
-294 -164 0
-294 -237 0
-294 -240 0
-294 -152 0
-294 -139 0
-294 -104 0
-295 -383 0
-295 -265 0
-295 -39 0
-295 -238 0
-295 -208 0
-295 -183 0
-295 -193 0
-295 -400 0
-295 -405 0
-295 -165 0
-295 -15 0
-295 -201 0
-296 -327 0
-296 -260 0
-296 -181 0
-296 -313 0
-296 -258 0
-296 -301 0
-296 -84 0
-296 -284 0
-296 -229 0
-296 -239 0
-296 -95 0
-296 -19 0
-296 -138 0
-297 -358 0
-297 -387 0
-297 -258 0
-297 -157 0
-297 -308 0
-297 -61 0
-297 -109 0
-297 -154 0
-297 -15 0
-297 -19 0
-297 -322 0
-297 -120 0
-297 -84 0
-297 -348 0
-297 -267 0
-297 -188 0
-297 -388 0
-297 -243 0
-298 -308 0
-298 -312 0
-298 -248 0
-298 -213 0
-298 -63 0
-298 -12 0
-299 -266 0
-299 -347 0
-299 -65 0
-299 -75 0
-299 -276 0
-299 -283 0
-299 -184 0
-299 -61 0
-299 -31 0
-299 -245 0
-299 -209 0
-299 -220 0
-299 -79 0
-299 -179 0
-299 -39 0
-299 -51 0
-300 -304 0
-300 -223 0
-300 -417 0
-300 -190 0
-300 -105 0
-300 -239 0
-300 -233 0
-300 -320 0
-300 -165 0
-300 -32 0
-300 -286 0
-300 -308 0
-300 -2 0
-300 -9 0
-301 -340 0
-301 -294 0
-301 -240 0
-301 -290 0
-301 -275 0
-301 -306 0
-301 -132 0
-301 -116 0
-301 -164 0
-301 -292 0
-301 -134 0
-301 -189 0
-301 -329 0
-301 -400 0
-301 -154 0
-301 -391 0
-301 -27 0
-301 -388 0
-301 -341 0
-301 -257 0
-302 -339 0
-302 -341 0
-302 -359 0
-302 -200 0
-302 -185 0
-302 -66 0
-302 -84 0
-302 -87 0
-302 -33 0
-302 -48 0
-302 -182 0
-302 -337 0
-303 -372 0
-303 -337 0
-303 -387 0
-303 -352 0
-303 -345 0
-303 -318 0
-303 -77 0
-303 -368 0
-303 -253 0
-303 -184 0
-303 -289 0
-303 -40 0
-303 -143 0
-303 -132 0
-303 -120 0
-303 -106 0
-303 -16 0
-303 -122 0
-304 -312 0
-304 -317 0
-304 -393 0
-304 -183 0
-304 -164 0
-304 -67 0
-304 -109 0
-304 -391 0
-304 -305 0
-304 -212 0
-305 -342 0
-305 -345 0
-305 -295 0
-305 -222 0
-305 -251 0
-305 -319 0
-305 -39 0
-305 -44 0
-305 -108 0
-305 -15 0
-305 -409 0
-305 -8 0
-305 -87 0
-305 -289 0
-306 -345 0
-306 -160 0
-306 -241 0
-306 -312 0
-306 -179 0
-306 -224 0
-306 -199 0
-306 -308 0
-306 -357 0
-306 -372 0
-306 -96 0
-306 -343 0
-306 -218 0
-306 -65 0
-307 -1 0
-307 -187 0
-307 -313 0
-307 -352 0
-307 -346 0
-307 -259 0
-307 -63 0
-307 -284 0
-307 -391 0
-307 -309 0
-307 -136 0
-307 -377 0
-308 -374 0
-308 -329 0
-308 -371 0
-308 -129 0
-308 -302 0
-308 -20 0
-308 -199 0
-308 -76 0
-308 -372 0
-308 -407 0
-308 -34 0
-308 -67 0
-308 -376 0
-308 -160 0
-309 -335 0
-309 -295 0
-309 -142 0
-309 -296 0
-309 -412 0
-309 -144 0
-309 -376 0
-309 -94 0
-309 -314 0
-309 -194 0
-310 -332 0
-310 -275 0
-310 -269 0
-310 -97 0
-310 -179 0
-310 -30 0
-310 -148 0
-310 -142 0
-310 -200 0
-310 -90 0
-310 -346 0
-311 -284 0
-311 -235 0
-311 -64 0
-311 -66 0
-311 -167 0
-311 -216 0
-311 -173 0
-311 -397 0
-311 -414 0
-311 -30 0
-311 -86 0
-311 -322 0
-311 -294 0
-311 -209 0
-311 -418 0
-311 -144 0
-312 -403 0
-312 -263 0
-312 -260 0
-312 -129 0
-312 -31 0
-312 -174 0
-312 -269 0
-313 -4 0
-313 -383 0
-313 -303 0
-313 -263 0
-313 -173 0
-313 -200 0
-313 -65 0
-313 -329 0
-313 -33 0
-313 -59 0
-313 -67 0
-313 -68 0
-313 -414 0
-314 -373 0
-314 -112 0
-314 -214 0
-314 -205 0
-314 -77 0
-314 -398 0
-314 -188 0
-314 -8 0
-314 -180 0
-315 -396 0
-315 -133 0
-315 -265 0
-315 -215 0
-315 -205 0
-315 -78 0
-315 -67 0
-315 -54 0
-315 -254 0
-315 -312 0
-315 -373 0
-315 -412 0
-315 -364 0
-315 -400 0
-315 -257 0
-316 -169 0
-316 -371 0
-316 -118 0
-316 -68 0
-316 -87 0
-316 -11 0
-316 -220 0
-316 -229 0
-316 -36 0
-316 -184 0
-316 -35 0
-316 -406 0
-316 -154 0
-317 -25 0
-317 -266 0
-317 -193 0
-317 -387 0
-317 -313 0
-317 -223 0
-317 -265 0
-317 -85 0
-317 -349 0
-317 -46 0
-318 -348 0
-318 -345 0
-318 -392 0
-318 -181 0
-318 -313 0
-318 -270 0
-318 -344 0
-318 -66 0
-318 -302 0
-318 -248 0
-318 -233 0
-318 -141 0
-318 -188 0
-318 -58 0
-318 -140 0
-318 -168 0
-318 -187 0
-318 -25 0
-318 -399 0
-318 -166 0
-318 -34 0
-319 -334 0
-319 -295 0
-319 -112 0
-319 -276 0
-319 -228 0
-319 -76 0
-319 -86 0
-319 -409 0
-319 -144 0
-319 -111 0
-319 -161 0
-319 -381 0
-319 -266 0
-319 -299 0
-319 -269 0
-320 -398 0
-320 -299 0
-320 -396 0
-320 -263 0
-320 -284 0
-320 -219 0
-320 -44 0
-320 -300 0
-320 -359 0
-320 -363 0
-320 -146 0
-320 -95 0
-320 -411 0
-320 -59 0
-320 -401 0
-320 -393 0
-321 -320 0
-321 -185 0
-321 -358 0
-321 -243 0
-321 -275 0
-321 -405 0
-321 -121 0
-321 -207 0
-321 -31 0
-321 -103 0
-321 -34 0
-321 -197 0
-322 -342 0
-322 -387 0
-322 -325 0
-322 -287 0
-322 -252 0
-322 -296 0
-322 -305 0
-322 -152 0
-322 -139 0
-322 -129 0
-322 -253 0
-322 -383 0
-323 -335 0
-323 -349 0
-323 -368 0
-323 -301 0
-323 -308 0
-323 -307 0
-323 -412 0
-323 -367 0
-323 -132 0
-323 -120 0
-323 -49 0
-323 -137 0
-323 -226 0
-323 -415 0
-324 -374 0
-324 -376 0
-324 -169 0
-324 -278 0
-324 -371 0
-324 -267 0
-324 -329 0
-324 -249 0
-324 -413 0
-324 -225 0
-324 -417 0
-324 -90 0
-324 -188 0
-324 -117 0
-325 -338 0
-325 -370 0
-325 -278 0
-325 -255 0
-325 -70 0
-325 -350 0
-325 -97 0
-325 -69 0
-325 -140 0
-325 -208 0
-325 -383 0
-326 -376 0
-326 -345 0
-326 -4 0
-326 -245 0
-326 -65 0
-326 -225 0
-326 -132 0
-326 -95 0
-326 -417 0
-326 -89 0
-327 -357 0
-327 -118 0
-327 -115 0
-327 -127 0
-327 -178 0
-327 -262 0
-327 -248 0
-327 -1 0
-327 -120 0
-327 -412 0
-327 -154 0
-327 -131 0
-327 -96 0
-328 -286 0
-328 -354 0
-328 -245 0
-328 -256 0
-328 -409 0
-328 -25 0
-328 -411 0
-328 -156 0
-328 -39 0
-328 -110 0
-328 -238 0
-328 -105 0
-329 -228 0
-329 -213 0
-329 -263 0
-329 -148 0
-329 -221 0
-329 -182 0
-329 -70 0
-329 -167 0
-329 -85 0
-329 -409 0
-329 -50 0
-330 -254 0
-330 -340 0
-330 -113 0
-330 -77 0
-330 -256 0
-330 -75 0
-330 -239 0
-330 -218 0
-330 -105 0
-330 -58 0
-330 -246 0
-330 -372 0
-331 -4 0
-331 -1 0
-331 -384 0
-331 -254 0
-331 -285 0
-331 -341 0
-331 -214 0
-331 -126 0
-331 -127 0
-331 -60 0
-331 -137 0
-331 -150 0
-331 -107 0
-331 -135 0
-331 -37 0
-331 -173 0
-332 -218 0
-332 -291 0
-332 -305 0
-332 -205 0
-332 -413 0
-332 -363 0
-332 -137 0
-332 -67 0
-332 -154 0
-332 -141 0
-332 -400 0
-332 -335 0
-332 -237 0
-332 -53 0
-333 -384 0
-333 -347 0
-333 -323 0
-333 -312 0
-333 -379 0
-333 -330 0
-333 -142 0
-333 -175 0
-333 -318 0
-334 -4 0
-334 -312 0
-334 -330 0
-334 -262 0
-334 -224 0
-334 -26 0
-334 -322 0
-334 -302 0
-334 -153 0
-334 -154 0
-334 -161 0
-334 -143 0
-334 -36 0
-334 -51 0
-335 -404 0
-335 -1 0
-335 -210 0
-335 -228 0
-335 -341 0
-335 -334 0
-335 -122 0
-335 -232 0
-335 -99 0
-336 -318 0
-336 -72 0
-336 -53 0
-336 -112 0
-336 -216 0
-336 -277 0
-336 -229 0
-336 -107 0
-336 -28 0
-336 -17 0
-337 -7 0
-337 -325 0
-337 -160 0
-337 -295 0
-337 -305 0
-337 -145 0
-337 -180 0
-337 -164 0
-337 -302 0
-337 -38 0
-337 -122 0
-337 -68 0
-337 -174 0
-338 -22 0
-338 -376 0
-338 -353 0
-338 -222 0
-338 -274 0
-338 -161 0
-338 -224 0
-338 -417 0
-338 -156 0
-338 -166 0
-338 -220 0
-338 -168 0
-339 -129 0
-339 -231 0
-339 -62 0
-339 -303 0
-339 -330 0
-339 -99 0
-339 -362 0
-339 -202 0
-339 -178 0
-339 -155 0
-339 -163 0
-339 -80 0
-339 -187 0
-339 -327 0
-340 -398 0
-340 -388 0
-340 -366 0
-340 -280 0
-340 -354 0
-340 -18 0
-340 -234 0
-340 -64 0
-340 -208 0
-340 -157 0
-340 -149 0
-340 -417 0
-340 -302 0
-340 -141 0
-340 -180 0
-341 -251 0
-341 -317 0
-341 -309 0
-341 -223 0
-341 -256 0
-341 -93 0
-341 -30 0
-341 -49 0
-341 -100 0
-341 -244 0
-341 -106 0
-342 -399 0
-342 -384 0
-342 -275 0
-342 -218 0
-342 -178 0
-342 -288 0
-342 -81 0
-342 -264 0
-342 -120 0
-342 -184 0
-342 -208 0
-343 -266 0
-344 -329 0
-344 -389 0
-344 -115 0
-344 -292 0
-344 -296 0
-344 -142 0
-344 -159 0
-344 -110 0
-344 -90 0
-344 -153 0
-344 -87 0
-345 -3 0
-345 -74 0
-345 -218 0
-345 -184 0
-345 -38 0
-345 -85 0
-345 -233 0
-345 -308 0
-345 -28 0
-345 -282 0
-345 -336 0
-346 -197 0
-346 -305 0
-346 -80 0
-346 -345 0
-346 -357 0
-346 -198 0
-346 -116 0
-346 -409 0
-346 -34 0
-346 -224 0
-346 -335 0
-346 -113 0
-346 -57 0
-346 -96 0
-346 -10 0
-346 -199 0
-346 -114 0
-347 -380 0
-347 -126 0
-347 -210 0
-347 -277 0
-347 -328 0
-347 -289 0
-347 -180 0
-347 -105 0
-347 -141 0
-347 -151 0
-347 -82 0
-347 -27 0
-348 -399 0
-348 -383 0
-348 -266 0
-348 -336 0
-348 -265 0
-348 -132 0
-348 -238 0
-348 -128 0
-348 -90 0
-348 -57 0
-348 -352 0
-348 -402 0
-348 -171 0
-349 -136 0
-349 -200 0
-349 -77 0
-349 -143 0
-349 -418 0
-349 -411 0
-349 -46 0
-349 -71 0
-349 -383 0
-349 -16 0
-349 -277 0
-350 -348 0
-350 -236 0
-350 -279 0
-350 -100 0
-350 -62 0
-350 -72 0
-350 -297 0
-350 -188 0
-350 -411 0
-350 -42 0
-350 -165 0
-350 -19 0
-350 -309 0
-350 -159 0
-351 -3 0
-351 -299 0
-351 -393 0
-351 -318 0
-351 -80 0
-351 -347 0
-351 -410 0
-351 -131 0
-351 -336 0
-351 -325 0
-351 -174 0
-351 -216 0
-351 -75 0
-351 -150 0
-352 -333 0
-352 -332 0
-352 -321 0
-352 -71 0
-352 -72 0
-352 -229 0
-352 -165 0
-352 -110 0
-352 -154 0
-352 -98 0
-352 -190 0
-352 -312 0
-352 -307 0
-352 -401 0
-352 -44 0
-353 -327 0
-353 -395 0
-353 -336 0
-353 -328 0
-353 -200 0
-353 -234 0
-353 -300 0
-353 -323 0
-353 -102 0
-353 -220 0
-354 -9 0
-354 -339 0
-354 -217 0
-354 -366 0
-354 -281 0
-354 -171 0
-354 -229 0
-354 -149 0
-354 -141 0
-354 -151 0
-354 -153 0
-354 -178 0
-354 -28 0
-355 -369 0
-355 -390 0
-355 -309 0
-355 -92 0
-355 -33 0
-355 -148 0
-355 -293 0
-355 -90 0
-355 -404 0
-355 -141 0
-355 -180 0
-355 -138 0
-356 -377 0
-356 -247 0
-356 -118 0
-356 -15 0
-356 -204 0
-356 -78 0
-356 -96 0
-356 -180 0
-356 -302 0
-356 -165 0
-356 -304 0
-356 -175 0
-356 -94 0
-356 -46 0
-356 -150 0
-357 -10 0
-357 -217 0
-357 -321 0
-357 -1 0
-357 -234 0
-357 -174 0
-357 -65 0
-357 -284 0
-357 -105 0
-357 -89 0
-357 -158 0
-357 -40 0
-357 -169 0
-357 -273 0
-357 -91 0
-357 -117 0
-358 -228 0
-358 -397 0
-358 -208 0
-358 -234 0
-358 -108 0
-358 -163 0
-358 -351 0
-359 -347 0
-359 -210 0
-359 -86 0
-359 -94 0
-359 -246 0
-359 -413 0
-359 -334 0
-359 -258 0
-359 -8 0
-359 -127 0
-360 -383 0
-360 -357 0
-360 -392 0
-360 -324 0
-360 -127 0
-360 -364 0
-360 -208 0
-360 -81 0
-360 -150 0
-360 -172 0
-360 -11 0
-360 -415 0
-360 -15 0
-360 -97 0
-360 -330 0
-361 -347 0
-361 -348 0
-361 -173 0
-361 -356 0
-361 -305 0
-361 -71 0
-361 -68 0
-361 -211 0
-361 -122 0
-361 -416 0
-361 -180 0
-361 -172 0
-361 -111 0
-361 -270 0
-361 -9 0
-361 -159 0
-361 -256 0
-362 -9 0
-362 -257 0
-362 -326 0
-362 -287 0
-362 -399 0
-362 -211 0
-362 -238 0
-362 -107 0
-362 -336 0
-362 -59 0
-362 -144 0
-362 -44 0
-362 -23 0
-362 -57 0
-363 -374 0
-363 -269 0
-363 -341 0
-363 -213 0
-363 -170 0
-363 -156 0
-363 -256 0
-363 -224 0
-363 -25 0
-363 -186 0
-363 -42 0
-363 -322 0
-364 -386 0
-364 -383 0
-364 -270 0
-364 -124 0
-364 -297 0
-364 -74 0
-364 -327 0
-364 -128 0
-364 -322 0
-364 -178 0
-364 -202 0
-364 -134 0
-364 -104 0
-364 -141 0
-365 -325 0
-365 -125 0
-365 -369 0
-365 -83 0
-365 -66 0
-365 -127 0
-365 -157 0
-365 -81 0
-365 -205 0
-365 -90 0
-365 -40 0
-365 -199 0
-365 -321 0
-365 -371 0
-365 -59 0
-366 -27 0
-366 -28 0
-366 -343 0
-366 -403 0
-366 -350 0
-366 -313 0
-366 -262 0
-366 -111 0
-366 -84 0
-366 -24 0
-366 -188 0
-366 -132 0
-366 -412 0
-366 -276 0
-367 -344 0
-367 -323 0
-367 -334 0
-367 -205 0
-367 -274 0
-367 -366 0
-367 -122 0
-367 -203 0
-367 -147 0
-367 -311 0
-367 -191 0
-367 -416 0
-367 -20 0
-367 -135 0
-367 -368 0
-368 -280 0
-368 -336 0
-368 -309 0
-368 -234 0
-368 -75 0
-368 -38 0
-368 -180 0
-368 -52 0
-368 -27 0
-368 -242 0
-368 -324 0
-368 -414 0
-369 -325 0
-369 -243 0
-369 -230 0
-369 -336 0
-369 -328 0
-369 -113 0
-369 -206 0
-369 -166 0
-369 -178 0
-369 -305 0
-369 -409 0
-369 -342 0
-370 -387 0
-370 -185 0
-370 -157 0
-370 -309 0
-370 -341 0
-370 -164 0
-370 -82 0
-371 -257 0
-371 -354 0
-371 -237 0
-371 -400 0
-371 -205 0
-371 -249 0
-371 -355 0
-371 -85 0
-371 -39 0
-371 -41 0
-371 -284 0
-371 -90 0
-371 -277 0
-371 -333 0
-372 -10 0
-372 -8 0
-372 -281 0
-372 -388 0
-372 -30 0
-372 -143 0
-372 -106 0
-372 -64 0
-372 -19 0
-373 -7 0
-373 -353 0
-373 -264 0
-373 -62 0
-373 -311 0
-373 -408 0
-373 -191 0
-373 -195 0
-373 -275 0
-373 -237 0
-373 -174 0
-374 -358 0
-374 -259 0
-374 -145 0
-374 -320 0
-374 -90 0
-374 -297 0
-374 -107 0
-374 -82 0
-375 -227 0
-375 -228 0
-375 -209 0
-375 -34 0
-375 -287 0
-375 -201 0
-375 -318 0
-375 -326 0
-375 -140 0
-375 -188 0
-375 -69 0
-375 -93 0
-375 -78 0
-376 -7 0
-376 -59 0
-376 -404 0
-376 -281 0
-376 -231 0
-376 -363 0
-376 -13 0
-376 -141 0
-376 -339 0
-376 -336 0
-377 -391 0
-377 -290 0
-377 -157 0
-377 -360 0
-377 -204 0
-377 -80 0
-377 -356 0
-377 -231 0
-377 -414 0
-377 -147 0
-377 -99 0
-377 -403 0
-378 -333 0
-378 -388 0
-378 -84 0
-378 -127 0
-378 -213 0
-378 -72 0
-378 -341 0
-378 -38 0
-378 -135 0
-378 -401 0
-378 -151 0
-378 -415 0
-378 -85 0
-378 -146 0
-378 -58 0
-379 -364 0
-379 -316 0
-379 -303 0
-379 -282 0
-379 -227 0
-379 -229 0
-379 -317 0
-379 -116 0
-379 -108 0
-379 -242 0
-379 -363 0
-380 -1 0
-380 -393 0
-380 -200 0
-380 -27 0
-380 -230 0
-380 -324 0
-380 -59 0
-380 -323 0
-380 -70 0
-380 -188 0
-380 -319 0
-380 -209 0
-380 -212 0
-380 -99 0
-380 -154 0
-380 -76 0
-380 -224 0
-380 -321 0
-381 -382 0
-381 -24 0
-381 -350 0
-381 -242 0
-381 -273 0
-381 -127 0
-381 -171 0
-381 -84 0
-381 -109 0
-381 -349 0
-381 -362 0
-381 -234 0
-381 -11 0
-381 -98 0
-382 -325 0
-382 -227 0
-382 -169 0
-382 -18 0
-382 -174 0
-382 -329 0
-382 -29 0
-382 -5 0
-382 -114 0
-382 -232 0
-383 -377 0
-383 -325 0
-383 -333 0
-383 -181 0
-383 -352 0
-383 -364 0
-383 -308 0
-383 -249 0
-383 -265 0
-383 -334 0
-383 -177 0
-383 -147 0
-383 -48 0
-383 -418 0
-383 -354 0
-384 -363 0
-384 -390 0
-384 -372 0
-384 -378 0
-384 -62 0
-384 -74 0
-384 -401 0
-384 -133 0
-384 -192 0
-384 -49 0
-385 -383 0
-385 -210 0
-385 -29 0
-385 -237 0
-385 -412 0
-385 -396 0
-385 -75 0
-385 -401 0
-385 -117 0
-385 -107 0
-385 -154 0
-385 -318 0
-385 -51 0
-386 -24 0
-386 -255 0
-386 -116 0
-386 -215 0
-386 -306 0
-386 -245 0
-386 -58 0
-386 -122 0
-386 -53 0
-386 -169 0
-386 -95 0
-386 -96 0
-387 -376 0
-387 -326 0
-387 -170 0
-387 -317 0
-387 -262 0
-387 -205 0
-387 -238 0
-387 -128 0
-387 -191 0
-387 -234 0
-387 -362 0
-387 -385 0
-387 -54 0
-388 -189 0
-388 -208 0
-388 -274 0
-388 -275 0
-388 -324 0
-388 -29 0
-388 -120 0
-388 -295 0
-388 -413 0
-388 -418 0
-388 -88 0
-388 -102 0
-388 -36 0
-388 -39 0
-389 -374 0
-389 -308 0
-389 -390 0
-389 -260 0
-389 -367 0
-389 -362 0
-389 -368 0
-389 -80 0
-389 -152 0
-389 -140 0
-389 -224 0
-389 -99 0
-389 -41 0
-389 -32 0
-389 -178 0
-390 -225 0
-390 -207 0
-390 -190 0
-390 -113 0
-390 -189 0
-390 -306 0
-390 -246 0
-390 -12 0
-390 -212 0
-390 -169 0
-390 -122 0
-390 -200 0
-390 -409 0
-391 -4 0
-391 -384 0
-391 -286 0
-391 -379 0
-391 -209 0
-391 -341 0
-391 -71 0
-391 -339 0
-391 -239 0
-391 -73 0
-391 -43 0
-392 -4 0
-392 -6 0
-392 -379 0
-392 -348 0
-392 -264 0
-392 -269 0
-392 -178 0
-392 -213 0
-392 -128 0
-392 -242 0
-392 -280 0
-392 -169 0
-392 -67 0
-392 -369 0
-393 -400 0
-393 -371 0
-393 -17 0
-393 -47 0
-393 -114 0
-393 -121 0
-393 -288 0
-393 -66 0
-394 -283 0
-394 -133 0
-394 -284 0
-394 -68 0
-394 -268 0
-394 -164 0
-394 -114 0
-394 -414 0
-394 -305 0
-394 -310 0
-394 -208 0
-394 -42 0
-394 -143 0
-394 -401 0
-395 -396 0
-395 -252 0
-395 -124 0
-395 -297 0
-395 -285 0
-395 -129 0
-395 -38 0
-395 -151 0
-395 -370 0
-395 -139 0
-395 -183 0
-395 -106 0
-395 -242 0
-395 -255 0
-395 -54 0
-395 -76 0
-395 -135 0
-395 -364 0
-396 -369 0
-396 -70 0
-396 -306 0
-396 -90 0
-396 -88 0
-396 -53 0
-396 -315 0
-396 -52 0
-396 -39 0
-396 -67 0
-396 -36 0
-396 -2 0
-397 -345 0
-397 -338 0
-397 -261 0
-397 -240 0
-397 -86 0
-397 -83 0
-397 -288 0
-397 -85 0
-397 -337 0
-397 -374 0
-397 -26 0
-398 -400 0
-398 -408 0
-398 -397 0
-398 -330 0
-398 -339 0
-398 -278 0
-398 -252 0
-398 -204 0
-398 -91 0
-399 -6 0
-399 -398 0
-399 -374 0
-399 -349 0
-399 -119 0
-399 -261 0
-399 -345 0
-399 -207 0
-399 -274 0
-399 -236 0
-399 -186 0
-399 -215 0
-399 -343 0
-399 -145 0
-399 -179 0
-399 -214 0
-399 -23 0
-399 -163 0
-400 -217 0
-400 -281 0
-400 -204 0
-400 -134 0
-400 -131 0
-400 -87 0
-400 -188 0
-400 -120 0
-400 -308 0
-400 -58 0
-400 -288 0
-400 -364 0
-401 -331 0
-401 -353 0
-401 -398 0
-401 -295 0
-401 -137 0
-401 -82 0
-401 -157 0
-401 -93 0
-401 -315 0
-401 -89 0
-401 -106 0
-402 -21 0
-402 -380 0
-402 -323 0
-402 -290 0
-402 -277 0
-402 -273 0
-402 -29 0
-402 -410 0
-402 -245 0
-402 -141 0
-402 -209 0
-402 -17 0
-402 -155 0
-402 -32 0
-403 -9 0
-403 -385 0
-403 -350 0
-403 -251 0
-403 -335 0
-403 -347 0
-403 -115 0
-403 -215 0
-403 -66 0
-403 -339 0
-403 -188 0
-403 -168 0
-403 -268 0
-403 -102 0
-403 -126 0
-403 -338 0
-404 -186 0
-404 -364 0
-404 -283 0
-404 -359 0
-404 -271 0
-404 -235 0
-404 -97 0
-404 -335 0
-404 -108 0
-404 -308 0
-405 -383 0
-405 -376 0
-405 -353 0
-405 -260 0
-405 -394 0
-405 -190 0
-405 -402 0
-405 -302 0
-405 -230 0
-405 -285 0
-405 -108 0
-405 -259 0
-405 -59 0
-406 -389 0
-406 -272 0
-406 -185 0
-406 -118 0
-406 -71 0
-406 -6 0
-406 -14 0
-406 -93 0
-406 -108 0
-406 -376 0
-406 -73 0
-406 -49 0
-406 -59 0
-406 -139 0
-407 -28 0
-407 -27 0
-407 -378 0
-407 -354 0
-407 -385 0
-407 -87 0
-407 -288 0
-407 -415 0
-407 -67 0
-407 -172 0
-407 -284 0
-407 -332 0
-407 -249 0
-408 -26 0
-408 -154 0
-408 -178 0
-408 -9 0
-408 -414 0
-408 -31 0
-408 -61 0
-408 -40 0
-409 -399 0
-409 -384 0
-409 -269 0
-409 -270 0
-409 -255 0
-409 -249 0
-409 -372 0
-409 -128 0
-409 -239 0
-410 -8 0
-410 -401 0
-410 -165 0
-410 -336 0
-410 -330 0
-410 -252 0
-410 -348 0
-410 -126 0
-410 -407 0
-410 -286 0
-410 -153 0
-410 -220 0
-410 -80 0
-410 -119 0
-411 -415 0
-411 -135 0
-411 -410 0
-411 -24 0
-411 -379 0
-411 -320 0
-411 -260 0
-411 -343 0
-411 -194 0
-411 -180 0
-411 -156 0
-412 -15 0
-412 -50 0
-412 -30 0
-412 -234 0
-412 -191 0
-412 -308 0
-412 -216 0
-412 -309 0
-412 -170 0
-412 -287 0
-412 -81 0
-413 -94 0
-413 -35 0
-413 -163 0
-413 -23 0
-413 -338 0
-413 -404 0
-413 -260 0
-413 -232 0
-413 -339 0
-413 -297 0
-413 -302 0
-413 -125 0
-413 -54 0
-413 -284 0
-414 -102 0
-414 -39 0
-414 -315 0
-414 -223 0
-414 -347 0
-414 -391 0
-414 -194 0
-414 -365 0
-414 -306 0
-414 -277 0
-414 -28 0
-414 -204 0
-415 -411 0
-415 -70 0
-415 -331 0
-415 -290 0
-415 -392 0
-415 -167 0
-415 -214 0
-415 -136 0
-415 -174 0
-415 -252 0
-415 -153 0
-415 -18 0
-415 -377 0
-415 -66 0
-415 -182 0
-416 -108 0
-416 -85 0
-416 -30 0
-416 -2 0
-416 -379 0
-416 -233 0
-416 -204 0
-416 -388 0
-416 -236 0
-416 -177 0
-416 -84 0
-416 -302 0
-416 -284 0
-416 -281 0
-416 -164 0
-416 -166 0
-416 -220 0
-416 -78 0
-416 -188 0
-417 -19 0
-417 -366 0
-417 -321 0
-417 -268 0
-417 -256 0
-417 -226 0
-417 -160 0
-417 -202 0
-417 -150 0
-417 -113 0
-418 -46 0
-418 -21 0
-418 -324 0
-418 -386 0
-418 -28 0
-418 -231 0
-418 -97 0
-418 -68 0
-418 -60 0
-418 -157 0
-419 -1 0
-420 -2 0
-421 -3 0
-422 -4 0
-423 -5 0
-424 -6 0
-425 -7 0
-426 -8 0
-427 -9 0
-428 -10 0
-429 -11 0
-430 -12 0
-431 -13 0
-432 -14 0
-433 -15 0
-434 -16 0
-435 -17 0
-436 -18 0
-437 -19 0
-438 -20 0
-439 -21 0
-440 -22 0
-441 -23 0
-442 -24 0
-443 -25 0
-444 -26 0
-445 -27 0
-446 -28 0
-447 -29 0
-448 -30 0
-449 -31 0
-450 -32 0
-451 -33 0
-452 -34 0
-453 -35 0
-454 -36 0
-455 -37 0
-456 -38 0
-457 -39 0
-458 -40 0
-459 -41 0
-460 -42 0
-461 -43 0
-462 -44 0
-463 -45 0
-464 -46 0
-465 -47 0
-466 -48 0
-467 -49 0
-468 -50 0
-469 -51 0
-470 -52 0
-471 -53 0
-472 -54 0
-473 -55 0
-474 -56 0
-475 -57 0
-476 -58 0
-477 -59 0
-478 -60 0
-479 -61 0
-480 -62 0
-481 -63 0
-482 -64 0
-483 -65 0
-484 -66 0
-485 -67 0
-486 -68 0
-487 -69 0
-488 -70 0
-489 -71 0
-490 -72 0
-491 -73 0
-492 -74 0
-493 -75 0
-494 -76 0
-495 -77 0
-496 -78 0
-497 -79 0
-498 -80 0
-499 -81 0
-500 -82 0
-501 -83 0
-502 -84 0
-503 -85 0
-504 -86 0
-505 -87 0
-506 -88 0
-507 -89 0
-508 -90 0
-509 -91 0
-510 -92 0
-511 -93 0
-512 -94 0
-513 -95 0
-514 -96 0
-515 -97 0
-516 -98 0
-517 -99 0
-518 -100 0
-519 -101 0
-520 -102 0
-521 -103 0
-522 -104 0
-523 -105 0
-524 -106 0
-525 -107 0
-526 -108 0
-527 -109 0
-528 -110 0
-529 -111 0
-530 -112 0
-531 -113 0
-532 -114 0
-533 -115 0
-534 -116 0
-535 -117 0
-536 -118 0
-537 -119 0
-538 -120 0
-539 -121 0
-540 -122 0
-541 -123 0
-542 -124 0
-543 -125 0
-544 -126 0
-545 -127 0
-546 -128 0
-547 -129 0
-548 -130 0
-549 -131 0
-550 -132 0
-551 -133 0
-552 -134 0
-553 -135 0
-554 -136 0
-555 -137 0
-556 -138 0
-557 -139 0
-558 -140 0
-559 -141 0
-560 -142 0
-561 -143 0
-562 -144 0
-563 -145 0
-564 -146 0
-565 -147 0
-566 -148 0
-567 -149 0
-568 -150 0
-569 -151 0
-570 -152 0
-571 -153 0
-572 -154 0
-573 -155 0
-574 -156 0
-575 -157 0
-576 -158 0
-577 -159 0
-578 -160 0
-579 -161 0
-580 -162 0
-581 -163 0
-582 -164 0
-583 -165 0
-584 -166 0
-585 -167 0
-586 -168 0
-587 -169 0
-588 -170 0
-589 -171 0
-590 -172 0
-591 -173 0
-592 -174 0
-593 -175 0
-594 -176 0
-595 -177 0
-596 -178 0
-597 -179 0
-598 -180 0
-599 -181 0
-600 -182 0
-601 -183 0
-602 -184 0
-603 -185 0
-604 -186 0
-605 -187 0
-606 -188 0
-607 -189 0
-608 -190 0
-609 -191 0
-610 -192 0
-611 -193 0
-612 -194 0
-613 -195 0
-614 -196 0
-615 -197 0
-616 -198 0
-617 -199 0
-618 -200 0
-619 -201 0
-620 -202 0
-621 -203 0
-622 -204 0
-623 -205 0
-624 -206 0
-625 -207 0
-626 -208 0
-627 -209 0
-628 -210 0
-629 -211 0
-630 -212 0
-631 -213 0
-632 -214 0
-633 -215 0
-634 -216 0
-635 -217 0
-636 -218 0
-637 -219 0
-638 -220 0
-639 -221 0
-640 -222 0
-641 -223 0
-642 -224 0
-643 -225 0
-644 -226 0
-645 -227 0
-646 -228 0
-647 -229 0
-648 -230 0
-649 -231 0
-650 -232 0
-651 -233 0
-652 -234 0
-653 -235 0
-654 -236 0
-655 -237 0
-656 -238 0
-657 -239 0
-658 -240 0
-659 -241 0
-660 -242 0
-661 -243 0
-662 -244 0
-663 -245 0
-664 -246 0
-665 -247 0
-666 -248 0
-667 -249 0
-668 -250 0
-669 -251 0
-670 -252 0
-671 -253 0
-672 -254 0
-673 -255 0
-674 -256 0
-675 -257 0
-676 -258 0
-677 -259 0
-678 -260 0
-679 -261 0
-680 -262 0
-681 -263 0
-682 -264 0
-683 -265 0
-684 -266 0
-685 -267 0
-686 -268 0
-687 -269 0
-688 -270 0
-689 -271 0
-690 -272 0
-691 -273 0
-692 -274 0
-693 -275 0
-694 -276 0
-695 -277 0
-696 -278 0
-697 -279 0
-698 -280 0
-699 -281 0
-700 -282 0
-701 -283 0
-702 -284 0
-703 -285 0
-704 -286 0
-705 -287 0
-706 -288 0
-707 -289 0
-708 -290 0
-709 -291 0
-710 -292 0
-711 -293 0
-712 -294 0
-713 -295 0
-714 -296 0
-715 -297 0
-716 -298 0
-717 -299 0
-718 -300 0
-719 -301 0
-720 -302 0
-721 -303 0
-722 -304 0
-723 -305 0
-724 -306 0
-725 -307 0
-726 -308 0
-727 -309 0
-728 -310 0
-729 -311 0
-730 -312 0
-731 -313 0
-732 -314 0
-733 -315 0
-734 -316 0
-735 -317 0
-736 -318 0
-737 -319 0
-738 -320 0
-739 -321 0
-740 -322 0
-741 -323 0
-742 -324 0
-743 -325 0
-744 -326 0
-745 -327 0
-746 -328 0
-747 -329 0
-748 -330 0
-749 -331 0
-750 -332 0
-751 -333 0
-752 -334 0
-753 -335 0
-754 -336 0
-755 -337 0
-756 -338 0
-757 -339 0
-758 -340 0
-759 -341 0
-760 -342 0
-761 -343 0
-762 -344 0
-763 -345 0
-764 -346 0
-765 -347 0
-766 -348 0
-767 -349 0
-768 -350 0
-769 -351 0
-770 -352 0
-771 -353 0
-772 -354 0
-773 -355 0
-774 -356 0
-775 -357 0
-776 -358 0
-777 -359 0
-778 -360 0
-779 -361 0
-780 -362 0
-781 -363 0
-782 -364 0
-783 -365 0
-784 -366 0
-785 -367 0
-786 -368 0
-787 -369 0
-788 -370 0
-789 -371 0
-790 -372 0
-791 -373 0
-792 -374 0
-793 -375 0
-794 -376 0
-795 -377 0
-796 -378 0
-797 -379 0
-798 -380 0
-799 -381 0
-800 -382 0
-801 -383 0
-802 -384 0
-803 -385 0
-804 -386 0
-805 -387 0
-806 -388 0
-807 -389 0
-808 -390 0
-809 -391 0
-810 -392 0
-811 -393 0
-812 -394 0
-813 -395 0
-814 -396 0
-815 -397 0
-816 -398 0
-817 -399 0
-818 -400 0
-819 -401 0
-820 -402 0
-821 -403 0
-822 -404 0
-823 -405 0
-824 -406 0
-825 -407 0
-826 -408 0
-827 -409 0
-828 -410 0
-829 -411 0
-830 -412 0
-831 -413 0
-832 -414 0
-833 -415 0
-834 -416 0
-835 -417 0
-836 -418 0
419 -255 0
419 -271 0
419 -48 0
419 -350 0
419 -313 0
419 -354 0
419 -392 0
419 -336 0
419 -4 0
420 -204 0
420 -197 0
420 -84 0
420 -143 0
420 -166 0
420 -6 0
420 -26 0
420 -163 0
420 -309 0
420 -407 0
420 -381 0
420 -358 0
420 -354 0
421 -279 0
421 -202 0
421 -150 0
421 -63 0
421 -247 0
421 -41 0
421 -314 0
421 -6 0
421 -375 0
421 -338 0
421 -351 0
421 -2 0
422 -283 0
422 -219 0
422 -238 0
422 -246 0
422 -13 0
422 -181 0
422 -329 0
422 -381 0
422 -397 0
423 -416 0
423 -105 0
423 -329 0
423 -50 0
423 -198 0
423 -109 0
423 -154 0
423 -10 0
423 -385 0
423 -158 0
423 -299 0
423 -269 0
423 -226 0
423 -277 0
423 -412 0
423 -289 0
423 -86 0
424 -204 0
424 -145 0
424 -78 0
424 -409 0
424 -373 0
424 -378 0
424 -277 0
424 -397 0
424 -367 0
424 -203 0
425 -208 0
425 -318 0
425 -249 0
425 -87 0
425 -146 0
425 -242 0
425 -107 0
425 -278 0
425 -376 0
425 -384 0
425 -264 0
425 -389 0
425 -382 0
426 -371 0
426 -202 0
426 -319 0
426 -184 0
426 -105 0
426 -6 0
426 -57 0
426 -353 0
426 -264 0
426 -1 0
426 -50 0
426 -269 0
426 -394 0
426 -404 0
427 -146 0
427 -60 0
427 -304 0
427 -102 0
427 -20 0
427 -5 0
427 -144 0
427 -145 0
428 -110 0
428 -258 0
428 -412 0
428 -91 0
428 -35 0
428 -15 0
428 -185 0
428 -17 0
428 -298 0
428 -28 0
429 -263 0
429 -281 0
429 -183 0
429 -211 0
429 -172 0
429 -144 0
429 -16 0
429 -201 0
429 -303 0
429 -21 0
429 -107 0
430 -290 0
430 -270 0
430 -254 0
430 -65 0
430 -306 0
430 -267 0
430 -154 0
430 -240 0
430 -157 0
430 -3 0
430 -406 0
430 -400 0
430 -41 0
431 -373 0
431 -164 0
431 -306 0
431 -89 0
431 -168 0
431 -295 0
431 -181 0
431 -60 0
431 -15 0
431 -413 0
431 -26 0
431 -379 0
431 -6 0
431 -376 0
432 -255 0
432 -335 0
432 -271 0
432 -240 0
432 -363 0
432 -65 0
432 -288 0
432 -224 0
432 -51 0
432 -328 0
432 -347 0
432 -79 0
432 -392 0
432 -135 0
432 -376 0
432 -136 0
432 -22 0
432 -274 0
433 -163 0
433 -64 0
433 -247 0
433 -370 0
433 -96 0
433 -81 0
433 -333 0
433 -418 0
433 -63 0
433 -352 0
434 -260 0
434 -358 0
434 -173 0
434 -256 0
434 -174 0
434 -314 0
434 -202 0
434 -177 0
434 -366 0
434 -11 0
434 -411 0
434 -43 0
434 -374 0
434 -3 0
434 -187 0
435 -263 0
435 -334 0
435 -126 0
435 -107 0
435 -233 0
435 -295 0
435 -347 0
435 -391 0
435 -374 0
435 -343 0
435 -69 0
436 -348 0
436 -373 0
436 -86 0
436 -83 0
436 -275 0
436 -105 0
436 -138 0
436 -3 0
436 -183 0
436 -46 0
436 -338 0
436 -331 0
436 -10 0
437 -222 0
437 -355 0
437 -370 0
437 -215 0
437 -158 0
437 -31 0
437 -245 0
437 -129 0
437 -246 0
437 -404 0
437 -368 0
437 -42 0
438 -89 0
438 -53 0
438 -147 0
438 -100 0
438 -168 0
438 -48 0
438 -321 0
438 -140 0
438 -401 0
438 -82 0
438 -353 0
439 -231 0
439 -86 0
439 -201 0
439 -245 0
439 -81 0
439 -335 0
439 -344 0
439 -177 0
439 -405 0
439 -110 0
439 -290 0
439 -230 0
439 -56 0
439 -351 0
440 -200 0
440 -68 0
440 -122 0
440 -201 0
440 -93 0
440 -88 0
440 -377 0
440 -418 0
440 -243 0
440 -123 0
440 -267 0
440 -286 0
440 -410 0
440 -348 0
441 -359 0
441 -118 0
441 -368 0
441 -150 0
441 -152 0
441 -108 0
441 -91 0
441 -92 0
441 -32 0
441 -85 0
441 -364 0
441 -273 0
441 -411 0
441 -266 0
441 -399 0
441 -189 0
441 -373 0
442 -170 0
442 -355 0
442 -180 0
442 -409 0
442 -412 0
442 -79 0
442 -98 0
442 -227 0
442 -405 0
442 -21 0
442 -137 0
442 -377 0
442 -360 0
442 -335 0
443 -240 0
443 -195 0
443 -267 0
443 -72 0
443 -246 0
443 -233 0
443 -47 0
443 -151 0
443 -16 0
443 -358 0
443 -262 0
443 -366 0
444 -112 0
444 -237 0
444 -105 0
444 -191 0
444 -151 0
444 -217 0
444 -96 0
444 -410 0
444 -291 0
444 -19 0
444 -136 0
444 -10 0
444 -227 0
444 -229 0
445 -152 0
445 -105 0
445 -132 0
445 -239 0
445 -355 0
445 -82 0
445 -174 0
445 -229 0
445 -193 0
445 -299 0
445 -140 0
446 -287 0
446 -248 0
446 -371 0
446 -276 0
446 -195 0
446 -84 0
446 -164 0
446 -153 0
446 -18 0
446 -108 0
446 -7 0
446 -196 0
446 -192 0
446 -278 0
446 -290 0
446 -42 0
447 -251 0
447 -207 0
447 -240 0
447 -131 0
447 -216 0
447 -60 0
447 -164 0
447 -159 0
447 -113 0
447 -123 0
447 -330 0
447 -42 0
447 -1 0
447 -8 0
448 -243 0
448 -189 0
448 -322 0
448 -156 0
448 -219 0
448 -213 0
448 -356 0
448 -352 0
448 -323 0
448 -377 0
448 -198 0
448 -299 0
449 -379 0
449 -228 0
449 -274 0
449 -222 0
449 -205 0
449 -150 0
449 -81 0
449 -5 0
449 -104 0
449 -231 0
449 -11 0
449 -375 0
449 -334 0
449 -109 0
450 -389 0
450 -345 0
450 -115 0
450 -355 0
450 -86 0
450 -143 0
450 -238 0
450 -160 0
450 -374 0
450 -42 0
450 -39 0
450 -7 0
450 -183 0
450 -49 0
450 -340 0
451 -266 0
452 -340 0
452 -264 0
452 -358 0
452 -356 0
452 -301 0
452 -83 0
452 -43 0
452 -170 0
452 -57 0
452 -312 0
452 -273 0
453 -389 0
453 -255 0
453 -231 0
453 -304 0
453 -403 0
453 -124 0
453 -175 0
453 -1 0
453 -165 0
453 -108 0
453 -70 0
453 -118 0
453 -209 0
453 -62 0
453 -241 0
454 -379 0
454 -234 0
454 -178 0
454 -356 0
454 -368 0
454 -84 0
454 -109 0
454 -148 0
454 -409 0
454 -91 0
454 -52 0
454 -35 0
454 -134 0
454 -374 0
454 -304 0
454 -102 0
455 -207 0
455 -201 0
455 -195 0
455 -127 0
455 -99 0
455 -122 0
455 -69 0
455 -144 0
455 -47 0
455 -313 0
455 -189 0
455 -256 0
455 -329 0
455 -406 0
455 -386 0
455 -265 0
456 -260 0
456 -264 0
456 -177 0
456 -371 0
456 -208 0
456 -241 0
456 -198 0
456 -199 0
456 -109 0
456 -165 0
456 -378 0
456 -129 0
456 -21 0
456 -280 0
456 -333 0
456 -8 0
456 -55 0
457 -171 0
457 -64 0
457 -172 0
457 -367 0
457 -51 0
457 -374 0
457 -329 0
457 -381 0
457 -234 0
457 -23 0
457 -7 0
458 -331 0
458 -189 0
458 -149 0
458 -80 0
458 -15 0
458 -326 0
458 -168 0
458 -67 0
458 -267 0
458 -102 0
458 -272 0
458 -238 0
458 -239 0
458 -41 0
458 -118 0
458 -225 0
458 -233 0
459 -389 0
459 -352 0
459 -274 0
459 -245 0
459 -84 0
459 -415 0
459 -234 0
459 -193 0
459 -212 0
459 -199 0
459 -398 0
459 -206 0
459 -113 0
461 -379 0
461 -294 0
461 -386 0
461 -51 0
461 -150 0
461 -93 0
461 -323 0
461 -175 0
461 -207 0
461 -59 0
461 -50 0
461 -5 0
462 -243 0
462 -226 0
462 -309 0
462 -274 0
462 -64 0
462 -170 0
462 -154 0
462 -123 0
462 -15 0
462 -345 0
462 -10 0
462 -59 0
462 -98 0
462 -330 0
462 -326 0
462 -130 0
463 -254 0
463 -189 0
463 -364 0
463 -234 0
463 -283 0
463 -405 0
463 -103 0
463 -28 0
463 -398 0
463 -400 0
463 -13 0
463 -294 0
463 -39 0
463 -241 0
463 -11 0
463 -42 0
463 -387 0
463 -102 0
463 -327 0
464 -240 0
464 -201 0
464 -395 0
464 -97 0
464 -409 0
464 -120 0
464 -298 0
464 -323 0
464 -90 0
465 -254 0
465 -186 0
465 -177 0
465 -160 0
465 -361 0
465 -407 0
465 -375 0
465 -215 0
465 -223 0
465 -271 0
465 -145 0
465 -212 0
465 -36 0
465 -383 0
465 -327 0
466 -243 0
466 -130 0
466 -62 0
466 -317 0
466 -223 0
466 -326 0
466 -205 0
466 -128 0
466 -79 0
466 -165 0
466 -354 0
466 -337 0
467 -254 0
467 -121 0
467 -292 0
467 -318 0
467 -35 0
467 -385 0
467 -42 0
467 -201 0
467 -240 0
467 -382 0
467 -45 0
468 -264 0
468 -275 0
468 -113 0
468 -245 0
468 -202 0
468 -370 0
468 -368 0
468 -45 0
468 -350 0
468 -285 0
468 -81 0
468 -57 0
468 -300 0
468 -334 0
468 -178 0
468 -386 0
469 -179 0
469 -204 0
469 -65 0
469 -206 0
469 -63 0
469 -307 0
469 -18 0
469 -208 0
469 -50 0
469 -385 0
469 -9 0
469 -278 0
470 -373 0
470 -393 0
470 -368 0
470 -86 0
470 -74 0
470 -215 0
470 -333 0
470 -366 0
470 -144 0
470 -319 0
470 -224 0
470 -62 0
470 -382 0
470 -398 0
470 -9 0
470 -67 0
471 -270 0
471 -146 0
471 -359 0
471 -137 0
471 -220 0
471 -76 0
471 -174 0
471 -346 0
471 -9 0
471 -314 0
472 -252 0
472 -178 0
472 -146 0
472 -201 0
472 -74 0
472 -249 0
472 -339 0
472 -138 0
472 -393 0
472 -88 0
472 -48 0
472 -397 0
472 -297 0
472 -174 0
472 -43 0
472 -46 0
473 -177 0
473 -373 0
473 -218 0
473 -171 0
473 -74 0
473 -113 0
473 -245 0
473 -63 0
473 -222 0
473 -47 0
473 -191 0
473 -49 0
473 -311 0
473 -398 0
473 -42 0
473 -416 0
473 -145 0
473 -343 0
473 -381 0
474 -262 0
474 -256 0
474 -218 0
474 -336 0
474 -64 0
474 -223 0
474 -238 0
474 -306 0
474 -297 0
474 -239 0
474 -274 0
474 -57 0
474 -61 0
474 -235 0
474 -144 0
474 -192 0
474 -359 0
474 -405 0
474 -372 0
475 -77 0
475 -164 0
475 -293 0
475 -384 0
475 -237 0
475 -44 0
475 -208 0
475 -82 0
475 -7 0
475 -366 0
475 -385 0
476 -251 0
476 -360 0
476 -359 0
476 -356 0
476 -412 0
476 -33 0
476 -81 0
476 -99 0
476 -103 0
476 -245 0
476 -340 0
476 -317 0
476 -379 0
476 -105 0
476 -62 0
476 -123 0
477 -262 0
477 -146 0
477 -196 0
477 -84 0
477 -180 0
477 -36 0
477 -41 0
477 -124 0
477 -329 0
477 -113 0
477 -249 0
477 -374 0
478 -384 0
478 -286 0
478 -314 0
478 -188 0
478 -239 0
478 -214 0
478 -377 0
478 -88 0
478 -174 0
478 -144 0
478 -208 0
478 -418 0
479 -367 0
479 -93 0
479 -216 0
479 -23 0
479 -276 0
479 -120 0
479 -104 0
479 -70 0
479 -331 0
479 -53 0
479 -46 0
479 -105 0
479 -386 0
480 -7 0
480 -264 0
480 -136 0
480 -253 0
480 -208 0
480 -248 0
480 -95 0
480 -291 0
480 -57 0
480 -262 0
481 -353 0
481 -326 0
481 -291 0
481 -44 0
481 -153 0
481 -175 0
481 -366 0
481 -134 0
481 -19 0
481 -27 0
481 -394 0
481 -8 0
482 -333 0
482 -362 0
482 -237 0
482 -130 0
482 -312 0
482 -288 0
482 -75 0
482 -91 0
482 -15 0
482 -104 0
482 -418 0
482 -96 0
482 -93 0
483 -386 0
483 -320 0
483 -271 0
483 -354 0
483 -101 0
483 -242 0
483 -321 0
483 -305 0
483 -391 0
483 -249 0
483 -411 0
483 -310 0
483 -29 0
483 -98 0
484 -316 0
484 -341 0
484 -263 0
484 -338 0
484 -211 0
484 -268 0
484 -113 0
484 -209 0
484 -83 0
484 -16 0
484 -94 0
484 -292 0
484 -400 0
485 -326 0
485 -304 0
485 -133 0
485 -248 0
485 -131 0
485 -105 0
485 -99 0
485 -246 0
485 -324 0
485 -293 0
485 -36 0
486 -312 0
486 -173 0
486 -364 0
486 -271 0
486 -242 0
486 -29 0
486 -96 0
486 -155 0
486 -374 0
486 -352 0
486 -235 0
487 -298 0
487 -281 0
487 -259 0
487 -296 0
487 -314 0
487 -364 0
487 -154 0
487 -184 0
487 -204 0
487 -104 0
487 -366 0
487 -405 0
487 -404 0
488 -274 0
488 -205 0
488 -201 0
488 -167 0
488 -111 0
488 -106 0
488 -36 0
488 -32 0
488 -86 0
488 -370 0
488 -376 0
488 -189 0
489 -24 0
489 -336 0
489 -351 0
489 -345 0
489 -358 0
489 -359 0
489 -235 0
489 -47 0
489 -88 0
489 -260 0
489 -146 0
489 -201 0
490 -303 0
490 -277 0
490 -325 0
490 -330 0
490 -396 0
490 -291 0
490 -135 0
490 -333 0
490 -289 0
490 -60 0
490 -242 0
490 -236 0
490 -154 0
490 -37 0
490 -383 0
490 -400 0
490 -300 0
490 -8 0
490 -193 0
491 -214 0
491 -136 0
491 -236 0
491 -154 0
491 -138 0
491 -233 0
491 -418 0
491 -297 0
491 -163 0
491 -283 0
491 -112 0
491 -385 0
491 -316 0
491 -57 0
492 -402 0
492 -294 0
492 -358 0
492 -60 0
492 -38 0
492 -48 0
492 -96 0
492 -127 0
492 -339 0
493 -357 0
493 -263 0
493 -283 0
493 -230 0
493 -302 0
493 -113 0
493 -97 0
493 -259 0
493 -106 0
493 -165 0
493 -401 0
493 -197 0
493 -252 0
493 -364 0
493 -3 0
493 -180 0
494 -185 0
494 -193 0
494 -163 0
494 -362 0
494 -322 0
494 -409 0
494 -104 0
494 -117 0
494 -286 0
494 -279 0
494 -351 0
494 -417 0
494 -7 0
494 -408 0
494 -299 0
495 -399 0
495 -354 0
495 -414 0
495 -219 0
495 -167 0
495 -116 0
495 -78 0
495 -233 0
495 -29 0
495 -88 0
495 -19 0
495 -17 0
495 -42 0
495 -175 0
495 -324 0
496 -274 0
496 -232 0
496 -387 0
496 -385 0
496 -327 0
496 -414 0
496 -195 0
496 -58 0
496 -318 0
496 -151 0
496 -2 0
497 -330 0
497 -126 0
497 -221 0
497 -235 0
497 -292 0
497 -285 0
497 -180 0
497 -11 0
497 -41 0
497 -323 0
497 -381 0
497 -1 0
497 -410 0
497 -240 0
498 -365 0
498 -366 0
498 -286 0
498 -341 0
498 -396 0
498 -316 0
498 -309 0
498 -58 0
498 -171 0
498 -305 0
498 -284 0
498 -140 0
498 -102 0
498 -413 0
498 -29 0
498 -23 0
498 -315 0
498 -49 0
498 -301 0
498 -178 0
499 -312 0
499 -352 0
499 -232 0
499 -369 0
499 -97 0
499 -416 0
499 -287 0
499 -138 0
499 -172 0
499 -214 0
499 -110 0
499 -324 0
499 -405 0
500 -230 0
500 -300 0
500 -307 0
500 -322 0
500 -67 0
500 -92 0
500 -14 0
500 -53 0
500 -400 0
500 -283 0
500 -243 0
500 -191 0
500 -366 0
501 -258 0
501 -379 0
501 -337 0
501 -248 0
501 -6 0
501 -287 0
501 -205 0
501 -215 0
501 -137 0
501 -325 0
501 -108 0
501 -278 0
502 -312 0
502 -274 0
502 -146 0
502 -361 0
502 -216 0
502 -418 0
502 -416 0
502 -33 0
502 -133 0
502 -177 0
502 -196 0
503 -46 0
503 -315 0
503 -416 0
503 -376 0
503 -108 0
503 -191 0
503 -15 0
503 -290 0
503 -120 0
504 -185 0
504 -305 0
504 -207 0
504 -157 0
504 -164 0
504 -66 0
504 -197 0
504 -114 0
504 -319 0
504 -12 0
504 -262 0
505 -290 0
505 -341 0
505 -260 0
505 -381 0
505 -198 0
505 -95 0
505 -72 0
505 -60 0
505 -413 0
505 -139 0
505 -170 0
505 -38 0
505 -195 0
505 -335 0
506 -367 0
506 -236 0
506 -235 0
506 -21 0
506 -148 0
506 -132 0
506 -46 0
506 -11 0
506 -114 0
506 -207 0
506 -377 0
506 -354 0
506 -34 0
506 -201 0
507 -330 0
507 -390 0
507 -160 0
507 -349 0
507 -396 0
507 -293 0
507 -14 0
507 -297 0
507 -75 0
507 -39 0
507 -15 0
507 -417 0
507 -385 0
507 -406 0
508 -267 0
508 -86 0
508 -161 0
508 -113 0
508 -122 0
508 -180 0
508 -412 0
508 -21 0
508 -100 0
508 -88 0
508 -52 0
509 -387 0
509 -178 0
509 -86 0
509 -105 0
509 -209 0
509 -199 0
509 -66 0
509 -295 0
509 -412 0
509 -220 0
509 -55 0
509 -46 0
509 -249 0
509 -373 0
509 -77 0
509 -193 0
509 -331 0
510 -329 0
510 -263 0
510 -267 0
510 -348 0
510 -71 0
510 -190 0
510 -103 0
510 -117 0
510 -198 0
510 -97 0
510 -315 0
511 -299 0
511 -187 0
511 -256 0
511 -115 0
511 -230 0
511 -74 0
511 -285 0
511 -84 0
511 -412 0
511 -13 0
511 -70 0
511 -240 0
511 -348 0
511 -405 0
512 -189 0
512 -185 0
512 -146 0
512 -318 0
512 -153 0
512 -411 0
512 -271 0
512 -37 0
512 -303 0
512 -184 0
512 -130 0
512 -355 0
512 -359 0
512 -124 0
513 -187 0
513 -359 0
513 -51 0
513 -300 0
513 -309 0
513 -59 0
513 -85 0
513 -296 0
513 -401 0
513 -10 0
514 -118 0
514 -266 0
514 -313 0
514 -204 0
514 -69 0
514 -229 0
514 -49 0
514 -414 0
514 -254 0
515 -215 0
515 -113 0
515 -119 0
515 -173 0
515 -105 0
515 -92 0
515 -292 0
515 -310 0
515 -283 0
515 -98 0
515 -106 0
515 -72 0
515 -417 0
515 -100 0
515 -109 0
515 -62 0
516 -326 0
516 -358 0
516 -276 0
516 -209 0
516 -307 0
516 -31 0
516 -313 0
516 -251 0
516 -311 0
516 -331 0
517 -325 0
517 -261 0
517 -255 0
517 -219 0
517 -192 0
517 -119 0
517 -74 0
517 -129 0
517 -154 0
517 -199 0
517 -323 0
517 -135 0
517 -7 0
517 -418 0
518 -415 0
518 -118 0
518 -40 0
518 -111 0
518 -42 0
518 -325 0
518 -3 0
518 -39 0
518 -130 0
518 -320 0
518 -401 0
518 -153 0
518 -292 0
518 -212 0
519 -298 0
519 -228 0
519 -367 0
519 -237 0
519 -361 0
519 -112 0
519 -122 0
519 -52 0
519 -144 0
519 -154 0
519 -278 0
519 -400 0
519 -282 0
519 -318 0
519 -91 0
519 -234 0
520 -389 0
520 -255 0
520 -278 0
520 -317 0
520 -181 0
520 -86 0
520 -285 0
520 -68 0
520 -314 0
520 -388 0
520 -391 0
520 -344 0
520 -39 0
520 -36 0
520 -398 0
520 -338 0
521 -382 0
521 -169 0
521 -279 0
521 -284 0
521 -240 0
521 -268 0
521 -311 0
521 -67 0
521 -32 0
521 -34 0
521 -417 0
521 -262 0
521 -136 0
521 -373 0
521 -273 0
522 -260 0
522 -262 0
522 -163 0
522 -252 0
522 -301 0
522 -127 0
522 -69 0
522 -25 0
522 -335 0
522 -35 0
522 -75 0
523 -196 0
523 -218 0
523 -103 0
523 -274 0
523 -180 0
523 -146 0
523 -78 0
523 -17 0
523 -188 0
523 -347 0
524 -251 0
524 -249 0
524 -215 0
524 -184 0
524 -60 0
524 -45 0
524 -117 0
524 -46 0
524 -30 0
524 -16 0
524 -32 0
524 -95 0
524 -288 0
525 -247 0
525 -173 0
525 -185 0
525 -186 0
525 -274 0
525 -188 0
525 -250 0
525 -233 0
525 -20 0
525 -248 0
525 -354 0
525 -72 0
525 -256 0
525 -61 0
525 -288 0
525 -160 0
525 -227 0
526 -118 0
526 -64 0
526 -322 0
526 -211 0
526 -137 0
526 -227 0
526 -411 0
526 -304 0
526 -49 0
526 -67 0
526 -114 0
527 -257 0
527 -226 0
527 -261 0
527 -201 0
527 -143 0
527 -293 0
527 -302 0
527 -414 0
527 -371 0
527 -96 0
527 -32 0
527 -67 0
527 -54 0
527 -284 0
527 -352 0
528 -393 0
528 -256 0
528 -44 0
528 -120 0
528 -308 0
528 -304 0
528 -301 0
528 -24 0
529 -247 0
529 -217 0
529 -115 0
529 -275 0
529 -95 0
529 -81 0
529 -38 0
529 -59 0
529 -17 0
529 -313 0
529 -326 0
529 -63 0
529 -290 0
529 -4 0
529 -329 0
530 -377 0
530 -192 0
530 -166 0
530 -349 0
530 -330 0
530 -249 0
530 -241 0
530 -70 0
530 -82 0
530 -340 0
530 -57 0
530 -53 0
530 -220 0
530 -382 0
531 -290 0
531 -266 0
531 -393 0
531 -185 0
531 -274 0
531 -245 0
531 -188 0
531 -67 0
532 -321 0
532 -351 0
532 -370 0
532 -234 0
532 -178 0
532 -267 0
532 -130 0
532 -63 0
532 -366 0
532 -5 0
532 -156 0
532 -174 0
532 -363 0
532 -277 0
533 -298 0
533 -203 0
533 -225 0
533 -394 0
533 -358 0
533 -121 0
533 -86 0
533 -108 0
533 -110 0
533 -271 0
533 -52 0
533 -279 0
533 -57 0
534 -381 0
534 -124 0
534 -99 0
534 -30 0
534 -418 0
534 -410 0
534 -68 0
534 -52 0
534 -199 0
534 -177 0
534 -391 0
534 -209 0
534 -82 0
534 -213 0
535 -273 0
535 -370 0
535 -101 0
535 -411 0
535 -270 0
535 -41 0
535 -252 0
535 -71 0
535 -342 0
535 -93 0
535 -66 0
536 -370 0
536 -22 0
536 -11 0
536 -409 0
536 -91 0
536 -379 0
536 -394 0
536 -208 0
536 -44 0
537 -344 0
537 -337 0
537 -225 0
537 -173 0
537 -236 0
537 -248 0
537 -141 0
537 -319 0
537 -17 0
537 -213 0
537 -358 0
537 -384 0
537 -379 0
537 -31 0
537 -299 0
537 -172 0
537 -415 0
538 -181 0
538 -157 0
538 -122 0
538 -18 0
538 -16 0
538 -74 0
538 -116 0
538 -399 0
538 -417 0
538 -347 0
538 -325 0
538 -85 0
539 -374 0
539 -375 0
539 -279 0
539 -170 0
539 -394 0
539 -219 0
539 -244 0
539 -125 0
539 -146 0
539 -164 0
539 -256 0
539 -112 0
539 -200 0
539 -51 0
540 -290 0
540 -240 0
540 -66 0
540 -154 0
540 -409 0
540 -8 0
540 -6 0
541 -182 0
541 -214 0
541 -158 0
541 -139 0
541 -413 0
541 -120 0
541 -89 0
541 -102 0
541 -382 0
541 -358 0
541 -335 0
541 -122 0
541 -320 0
542 -7 0
542 -384 0
542 -318 0
542 -150 0
542 -95 0
542 -90 0
542 -46 0
542 -180 0
542 -266 0
542 -70 0
542 -368 0
543 -272 0
543 -282 0
543 -230 0
543 -295 0
543 -283 0
543 -178 0
543 -314 0
543 -210 0
543 -162 0
543 -188 0
543 -26 0
543 -105 0
543 -73 0
543 -310 0
543 -12 0
543 -302 0
543 -30 0
543 -68 0
544 -342 0
544 -394 0
544 -252 0
544 -370 0
544 -372 0
544 -204 0
544 -265 0
544 -112 0
544 -201 0
544 -293 0
544 -384 0
544 -391 0
544 -106 0
544 -138 0
544 -13 0
544 -371 0
544 -223 0
545 -408 0
545 -396 0
545 -174 0
545 -307 0
545 -118 0
545 -11 0
545 -229 0
545 -352 0
545 -205 0
545 -369 0
545 -306 0
545 -110 0
545 -218 0
546 -379 0
546 -240 0
546 -200 0
546 -133 0
546 -352 0
546 -167 0
546 -239 0
546 -242 0
546 -151 0
546 -29 0
546 -41 0
546 -68 0
546 -62 0
546 -396 0
546 -188 0
546 -252 0
547 -243 0
547 -370 0
547 -124 0
547 -276 0
547 -219 0
547 -80 0
547 -143 0
547 -315 0
547 -159 0
547 -40 0
547 -242 0
547 -224 0
547 -373 0
547 -66 0
548 -10 0
548 -383 0
548 -258 0
548 -353 0
548 -344 0
548 -215 0
548 -71 0
548 -143 0
548 -140 0
548 -11 0
548 -199 0
548 -145 0
548 -57 0
548 -8 0
549 -160 0
549 -149 0
549 -275 0
549 -180 0
549 -409 0
549 -205 0
549 -58 0
549 -247 0
549 -11 0
549 -16 0
549 -54 0
549 -233 0
549 -392 0
549 -110 0
549 -170 0
549 -352 0
550 -397 0
550 -155 0
550 -253 0
550 -122 0
550 -246 0
550 -117 0
550 -35 0
550 -83 0
550 -414 0
550 -9 0
550 -294 0
550 -404 0
551 -353 0
551 -334 0
551 -263 0
551 -324 0
551 -378 0
551 -122 0
551 -141 0
551 -200 0
551 -123 0
551 -402 0
551 -336 0
551 -269 0
551 -57 0
551 -218 0
552 -256 0
552 -174 0
552 -356 0
552 -346 0
552 -239 0
552 -180 0
552 -275 0
552 -85 0
552 -244 0
552 -132 0
552 -98 0
552 -178 0
552 -366 0
553 -345 0
553 -281 0
553 -227 0
553 -178 0
553 -410 0
553 -333 0
553 -104 0
553 -85 0
553 -51 0
553 -13 0
553 -230 0
554 -328 0
554 -247 0
554 -396 0
554 -267 0
554 -27 0
554 -349 0
554 -153 0
554 -134 0
554 -118 0
554 -409 0
554 -41 0
554 -83 0
554 -238 0
554 -155 0
554 -280 0
555 -308 0
555 -320 0
555 -217 0
555 -261 0
555 -166 0
555 -334 0
555 -297 0
555 -151 0
555 -1 0
555 -385 0
555 -146 0
555 -53 0
556 -341 0
556 -362 0
556 -273 0
556 -346 0
556 -359 0
556 -235 0
556 -296 0
556 -304 0
556 -119 0
556 -76 0
556 -413 0
556 -159 0
557 -261 0
557 -287 0
557 -256 0
557 -175 0
557 -122 0
557 -95 0
557 -38 0
557 -286 0
557 -32 0
557 -184 0
557 -232 0
557 -63 0
557 -290 0
557 -132 0
557 -66 0
558 -266 0
558 -321 0
558 -283 0
558 -238 0
558 -249 0
558 -376 0
558 -164 0
558 -44 0
558 -254 0
558 -335 0
558 -319 0
558 -5 0
558 -399 0
559 -397 0
559 -295 0
559 -349 0
559 -235 0
559 -415 0
559 -47 0
559 -396 0
559 -62 0
559 -368 0
559 -144 0
559 -128 0
559 -83 0
559 -386 0
559 -365 0
559 -329 0
560 -333 0
560 -387 0
560 -265 0
560 -29 0
560 -150 0
560 -323 0
560 -391 0
560 -192 0
560 -289 0
560 -298 0
560 -108 0
560 -101 0
561 -303 0
561 -263 0
561 -396 0
561 -275 0
561 -354 0
561 -287 0
561 -137 0
561 -150 0
561 -360 0
561 -66 0
561 -319 0
561 -270 0
561 -4 0
561 -335 0
562 -336 0
562 -345 0
562 -155 0
562 -152 0
562 -359 0
562 -362 0
562 -284 0
562 -184 0
562 -398 0
562 -382 0
562 -162 0
562 -366 0
562 -323 0
562 -200 0
562 -261 0
562 -272 0
563 -229 0
563 -146 0
563 -271 0
563 -188 0
563 -249 0
563 -65 0
563 -349 0
563 -324 0
563 -276 0
563 -415 0
563 -418 0
563 -34 0
563 -73 0
563 -118 0
563 -189 0
564 -339 0
564 -192 0
564 -321 0
564 -23 0
564 -349 0
564 -232 0
564 -382 0
564 -81 0
564 -416 0
564 -207 0
564 -85 0
564 -288 0
564 -30 0
565 -364 0
565 -227 0
565 -393 0
565 -397 0
565 -196 0
565 -368 0
565 -123 0
565 -64 0
565 -285 0
565 -83 0
565 -333 0
565 -47 0
565 -79 0
565 -404 0
566 -227 0
566 -146 0
566 -279 0
566 -237 0
566 -140 0
566 -172 0
566 -310 0
566 -62 0
566 -57 0
566 -30 0
566 -358 0
566 -11 0
566 -3 0
566 -253 0
566 -25 0
566 -408 0
566 -132 0
566 -416 0
567 -2 0
567 -344 0
567 -386 0
567 -243 0
567 -261 0
567 -252 0
567 -271 0
567 -125 0
567 -46 0
567 -34 0
567 -111 0
567 -85 0
567 -298 0
567 -141 0
567 -306 0
567 -173 0
567 -146 0
568 -313 0
568 -178 0
568 -279 0
568 -140 0
568 -199 0
568 -409 0
568 -100 0
568 -297 0
568 -336 0
568 -94 0
568 -232 0
569 -313 0
569 -360 0
569 -295 0
569 -142 0
569 -211 0
569 -47 0
569 -130 0
569 -76 0
569 -34 0
569 -99 0
569 -320 0
569 -106 0
569 -85 0
569 -286 0
570 -329 0
570 -226 0
570 -197 0
570 -262 0
570 -227 0
570 -160 0
570 -306 0
570 -138 0
570 -113 0
570 -242 0
570 -202 0
570 -344 0
570 -347 0
570 -117 0
571 -382 0
571 -301 0
571 -205 0
571 -264 0
571 -256 0
571 -154 0
571 -139 0
571 -50 0
571 -4 0
571 -208 0
571 -9 0
571 -21 0
571 -15 0
571 -393 0
571 -96 0
572 -403 0
572 -226 0
572 -124 0
572 -296 0
572 -180 0
572 -139 0
572 -99 0
572 -300 0
572 -366 0
572 -353 0
572 -233 0
572 -286 0
573 -21 0
573 -228 0
573 -273 0
573 -83 0
573 -150 0
573 -110 0
573 -95 0
573 -92 0
573 -100 0
573 -346 0
573 -113 0
573 -304 0
573 -12 0
573 -177 0
573 -22 0
573 -130 0
573 -127 0
573 -51 0
574 -254 0
574 -234 0
574 -167 0
574 -349 0
574 -128 0
574 -120 0
574 -202 0
574 -284 0
574 -204 0
574 -16 0
574 -207 0
574 -379 0
575 -384 0
575 -213 0
575 -187 0
575 -214 0
575 -310 0
575 -65 0
575 -156 0
575 -19 0
575 -56 0
575 -78 0
575 -48 0
576 -336 0
576 -390 0
576 -328 0
576 -283 0
576 -409 0
576 -212 0
576 -114 0
576 -35 0
576 -395 0
576 -270 0
576 -407 0
577 -213 0
577 -259 0
577 -359 0
577 -152 0
577 -207 0
577 -110 0
577 -334 0
577 -412 0
577 -293 0
577 -46 0
577 -206 0
577 -302 0
577 -298 0
577 -401 0
577 -97 0
577 -351 0
578 -408 0
578 -324 0
578 -334 0
578 -356 0
578 -369 0
578 -215 0
578 -230 0
578 -306 0
578 -185 0
578 -111 0
578 -276 0
578 -165 0
578 -216 0
579 -379 0
579 -187 0
579 -393 0
579 -362 0
579 -387 0
579 -262 0
579 -319 0
579 -225 0
579 -354 0
579 -282 0
579 -51 0
579 -295 0
579 -47 0
579 -404 0
580 -393 0
580 -232 0
580 -235 0
580 -158 0
580 -168 0
580 -165 0
580 -212 0
580 -96 0
580 -69 0
580 -154 0
580 -171 0
580 -32 0
580 -230 0
580 -27 0
580 -402 0
580 -300 0
580 -356 0
580 -329 0
581 -401 0
581 -210 0
581 -394 0
581 -314 0
581 -253 0
581 -22 0
581 -380 0
581 -87 0
581 -70 0
581 -285 0
581 -361 0
581 -18 0
581 -15 0
581 -355 0
581 -53 0
581 -98 0
582 -386 0
582 -374 0
582 -329 0
582 -226 0
582 -396 0
582 -261 0
582 -197 0
582 -125 0
582 -405 0
582 -139 0
582 -152 0
582 -210 0
582 -236 0
582 -134 0
582 -407 0
583 -264 0
583 -145 0
583 -259 0
583 -185 0
583 -301 0
583 -334 0
583 -411 0
583 -206 0
583 -202 0
583 -59 0
583 -42 0
583 -229 0
583 -24 0
583 -232 0
584 -366 0
584 -337 0
584 -314 0
584 -274 0
584 -69 0
584 -206 0
584 -413 0
584 -126 0
584 -113 0
584 -99 0
584 -408 0
584 -291 0
584 -298 0
584 -71 0
585 -254 0
585 -317 0
585 -136 0
585 -364 0
585 -77 0
585 -356 0
585 -100 0
585 -13 0
585 -93 0
585 -10 0
585 -357 0
585 -42 0
586 -396 0
586 -255 0
586 -367 0
586 -124 0
586 -245 0
586 -319 0
586 -116 0
586 -107 0
586 -180 0
586 -144 0
586 -106 0
586 -85 0
586 -286 0
586 -352 0
586 -289 0
586 -35 0
586 -329 0
586 -22 0
587 -399 0
587 -382 0
587 -279 0
587 -321 0
587 -181 0
587 -370 0
587 -64 0
587 -206 0
587 -96 0
587 -122 0
587 -89 0
587 -16 0
587 -17 0
587 -392 0
588 -405 0
588 -385 0
588 -266 0
588 -335 0
588 -367 0
588 -348 0
588 -307 0
588 -115 0
588 -81 0
588 -72 0
588 -288 0
588 -392 0
588 -328 0
588 -231 0
589 -33 0
590 -358 0
590 -204 0
590 -217 0
590 -158 0
590 -140 0
590 -72 0
590 -118 0
590 -61 0
590 -304 0
590 -144 0
590 -163 0
590 -79 0
590 -417 0
590 -31 0
591 -260 0
591 -226 0
591 -418 0
591 -261 0
591 -137 0
591 -322 0
591 -205 0
591 -287 0
591 -170 0
591 -3 0
592 -401 0
592 -181 0
592 -294 0
592 -288 0
592 -285 0
592 -113 0
592 -138 0
592 -325 0
592 -139 0
592 -240 0
592 -85 0
592 -396 0
592 -307 0
592 -258 0
593 -344 0
593 -335 0
593 -145 0
593 -368 0
593 -242 0
593 -363 0
593 -384 0
593 -376 0
593 -39 0
593 -54 0
593 -55 0
593 -10 0
593 -24 0
593 -154 0
593 -324 0
593 -159 0
594 -260 0
594 -112 0
594 -268 0
594 -416 0
594 -159 0
594 -111 0
594 -135 0
594 -59 0
594 -54 0
594 -335 0
594 -88 0
594 -418 0
594 -383 0
594 -192 0
594 -83 0
594 -298 0
594 -290 0
594 -367 0
594 -232 0
595 -277 0
595 -244 0
595 -335 0
595 -155 0
595 -371 0
595 -232 0
595 -90 0
595 -169 0
595 -165 0
595 -147 0
595 -17 0
595 -311 0
595 -181 0
596 -384 0
596 -327 0
596 -275 0
596 -270 0
596 -285 0
597 -338 0
597 -347 0
597 -213 0
597 -392 0
597 -278 0
597 -358 0
597 -65 0
597 -43 0
597 -47 0
597 -206 0
597 -188 0
597 -418 0
597 -242 0
597 -79 0
597 -367 0
598 -332 0
598 -358 0
598 -200 0
598 -301 0
598 -217 0
598 -124 0
598 -63 0
598 -70 0
599 -312 0
599 -380 0
599 -403 0
599 -313 0
599 -370 0
599 -281 0
599 -236 0
599 -309 0
599 -58 0
599 -182 0
599 -259 0
599 -67 0
599 -9 0
599 -91 0
599 -257 0
600 -22 0
600 -382 0
600 -187 0
600 -237 0
600 -371 0
600 -87 0
600 -240 0
600 -337 0
600 -156 0
600 -93 0
600 -139 0
600 -135 0
600 -18 0
600 -70 0
600 -172 0
600 -298 0
601 -347 0
601 -393 0
601 -396 0
601 -187 0
601 -357 0
601 -314 0
601 -133 0
601 -224 0
601 -233 0
601 -414 0
601 -76 0
601 -54 0
601 -59 0
601 -53 0
601 -271 0
601 -401 0
601 -26 0
602 -124 0
602 -75 0
602 -109 0
602 -11 0
602 -58 0
602 -108 0
602 -100 0
602 -277 0
602 -333 0
603 -273 0
603 -410 0
603 -202 0
603 -292 0
603 -130 0
603 -219 0
603 -13 0
603 -158 0
603 -237 0
603 -168 0
603 -159 0
604 -341 0
604 -392 0
604 -129 0
604 -347 0
604 -362 0
604 -244 0
604 -207 0
604 -201 0
604 -344 0
604 -401 0
604 -114 0
604 -115 0
604 -211 0
604 -107 0
604 -54 0
604 -318 0
604 -103 0
605 -337 0
605 -269 0
605 -228 0
605 -237 0
605 -200 0
605 -77 0
605 -322 0
605 -341 0
605 -122 0
605 -38 0
605 -367 0
605 -26 0
605 -190 0
605 -414 0
605 -384 0
606 -157 0
606 -77 0
606 -175 0
606 -411 0
606 -71 0
606 -32 0
606 -398 0
606 -335 0
606 -61 0
606 -364 0
606 -263 0
606 -368 0
606 -229 0
607 -7 0
607 -398 0
607 -263 0
607 -226 0
607 -370 0
607 -88 0
607 -124 0
607 -34 0
607 -197 0
607 -300 0
607 -180 0
607 -381 0
607 -414 0
607 -67 0
608 -353 0
608 -299 0
608 -221 0
608 -371 0
608 -340 0
608 -235 0
608 -31 0
608 -396 0
608 -67 0
608 -254 0
608 -42 0
608 -286 0
608 -9 0
608 -330 0
608 -268 0
608 -302 0
608 -385 0
609 -221 0
609 -396 0
609 -218 0
609 -161 0
609 -220 0
609 -202 0
609 -413 0
609 -139 0
609 -135 0
609 -333 0
609 -32 0
609 -408 0
609 -259 0
609 -402 0
609 -126 0
610 -257 0
610 -248 0
610 -371 0
610 -196 0
610 -270 0
610 -410 0
610 -167 0
610 -289 0
610 -191 0
610 -24 0
610 -88 0
611 -299 0
611 -225 0
611 -221 0
611 -397 0
611 -251 0
611 -370 0
611 -284 0
611 -118 0
611 -164 0
611 -161 0
611 -338 0
611 -66 0
611 -202 0
611 -165 0
611 -286 0
612 -327 0
612 -282 0
612 -294 0
612 -251 0
612 -336 0
612 -244 0
612 -342 0
612 -70 0
612 -404 0
612 -154 0
612 -2 0
612 -212 0
612 -106 0
612 -178 0
612 -157 0
612 -412 0
612 -96 0
612 -285 0
612 -220 0
613 -197 0
613 -296 0
613 -322 0
613 -262 0
613 -70 0
613 -392 0
613 -92 0
613 -267 0
613 -34 0
613 -268 0
613 -284 0
613 -398 0
613 -98 0
613 -109 0
613 -90 0
613 -4 0
614 -398 0
614 -382 0
614 -385 0
614 -333 0
614 -291 0
614 -299 0
614 -371 0
614 -249 0
614 -21 0
614 -221 0
614 -136 0
614 -124 0
614 -3 0
614 -251 0
614 -186 0
614 -404 0
614 -87 0
614 -85 0
614 -223 0
614 -20 0
615 -213 0
615 -362 0
615 -355 0
615 -75 0
615 -131 0
615 -191 0
615 -36 0
615 -48 0
615 -41 0
615 -387 0
615 -45 0
615 -203 0
615 -2 0
616 -337 0
616 -332 0
616 -334 0
616 -228 0
616 -283 0
616 -192 0
616 -182 0
616 -259 0
616 -317 0
616 -285 0
616 -281 0
616 -31 0
616 -99 0
616 -345 0
616 -77 0
616 -148 0
616 -241 0
616 -20 0
616 -343 0
616 -109 0
616 -92 0
616 -227 0
617 -177 0
617 -240 0
617 -72 0
617 -128 0
617 -59 0
617 -53 0
617 -415 0
617 -9 0
617 -381 0
617 -200 0
617 -250 0
617 -4 0
618 -217 0
618 -173 0
618 -304 0
618 -309 0
618 -363 0
618 -195 0
618 -67 0
618 -113 0
618 -92 0
618 -122 0
618 -11 0
618 -129 0
619 -298 0
619 -393 0
619 -136 0
619 -278 0
619 -233 0
619 -152 0
619 -35 0
619 -89 0
619 -92 0
619 -327 0
619 -52 0
619 -394 0
619 -39 0
620 -339 0
620 -174 0
620 -314 0
620 -184 0
620 -291 0
620 -67 0
620 -117 0
620 -186 0
620 -46 0
620 -141 0
620 -269 0
620 -204 0
620 -152 0
620 -362 0
620 -338 0
621 -340 0
621 -312 0
621 -243 0
621 -373 0
621 -214 0
621 -353 0
621 -27 0
621 -313 0
621 -184 0
621 -93 0
621 -175 0
621 -409 0
621 -39 0
621 -57 0
622 -308 0
622 -284 0
622 -197 0
622 -167 0
622 -81 0
622 -84 0
622 -172 0
622 -102 0
623 -362 0
623 -200 0
623 -163 0
623 -68 0
623 -266 0
623 -184 0
623 -144 0
623 -103 0
623 -151 0
623 -24 0
623 -7 0
623 -8 0
624 -326 0
624 -157 0
624 -118 0
624 -150 0
624 -148 0
624 -104 0
624 -372 0
624 -375 0
624 -333 0
625 -400 0
625 -376 0
625 -343 0
625 -326 0
625 -169 0
625 -385 0
625 -232 0
625 -153 0
625 -414 0
625 -234 0
625 -202 0
625 -104 0
626 -369 0
626 -357 0
626 -251 0
626 -367 0
626 -286 0
626 -182 0
626 -406 0
626 -111 0
626 -138 0
626 -58 0
626 -96 0
626 -389 0
627 -234 0
627 -352 0
627 -170 0
627 -302 0
627 -192 0
627 -242 0
627 -60 0
627 -412 0
627 -46 0
627 -32 0
627 -87 0
627 -380 0
628 -7 0
628 -406 0
628 -308 0
628 -299 0
628 -202 0
628 -55 0
628 -15 0
628 -80 0
628 -75 0
628 -246 0
628 -60 0
628 -76 0
628 -111 0
628 -397 0
628 -405 0
628 -45 0
629 -397 0
629 -313 0
629 -361 0
629 -245 0
629 -219 0
629 -120 0
629 -66 0
629 -92 0
629 -180 0
629 -56 0
629 -32 0
629 -226 0
629 -106 0
629 -352 0
629 -217 0
629 -165 0
630 -251 0
630 -219 0
630 -171 0
630 -319 0
630 -92 0
630 -284 0
630 -368 0
630 -41 0
630 -349 0
630 -55 0
630 -36 0
630 -133 0
630 -391 0
630 -160 0
631 -4 0
631 -272 0
631 -185 0
631 -265 0
631 -301 0
631 -321 0
631 -149 0
631 -302 0
631 -140 0
631 -293 0
632 -339 0
632 -304 0
632 -391 0
632 -215 0
632 -398 0
632 -137 0
632 -180 0
632 -299 0
632 -168 0
632 -40 0
632 -128 0
632 -140 0
632 -111 0
633 -226 0
633 -396 0
633 -394 0
633 -207 0
633 -158 0
633 -12 0
633 -245 0
633 -327 0
634 -163 0
634 -136 0
634 -355 0
634 -262 0
634 -300 0
634 -239 0
634 -188 0
634 -266 0
634 -315 0
634 -414 0
634 -291 0
634 -4 0
634 -406 0
634 -260 0
635 -404 0
635 -344 0
635 -251 0
635 -237 0
635 -279 0
635 -150 0
635 -73 0
635 -209 0
635 -325 0
635 -187 0
635 -57 0
635 -398 0
635 -388 0
635 -60 0
636 -222 0
636 -170 0
636 -268 0
636 -310 0
636 -129 0
636 -215 0
636 -298 0
636 -116 0
636 -10 0
636 -107 0
637 -266 0
638 -296 0
638 -307 0
638 -329 0
638 -61 0
638 -11 0
638 -226 0
638 -377 0
638 -242 0
638 -212 0
639 -370 0
639 -358 0
639 -237 0
639 -309 0
639 -388 0
639 -180 0
639 -17 0
640 -384 0
640 -369 0
640 -325 0
640 -197 0
640 -305 0
640 -117 0
640 -205 0
640 -202 0
640 -34 0
640 -235 0
640 -106 0
640 -400 0
640 -11 0
640 -4 0
640 -25 0
641 -373 0
641 -152 0
641 -256 0
641 -409 0
641 -209 0
641 -8 0
641 -302 0
641 -305 0
641 -259 0
641 -143 0
641 -27 0
642 -389 0
642 -348 0
642 -361 0
642 -178 0
642 -110 0
642 -122 0
642 -66 0
642 -120 0
642 -211 0
642 -36 0
642 -242 0
642 -229 0
642 -184 0
642 -305 0
643 -4 0
643 -384 0
643 -23 0
643 -22 0
643 -49 0
643 -393 0
643 -313 0
643 -322 0
643 -192 0
643 -113 0
643 -347 0
643 -201 0
643 -85 0
644 -337 0
644 -367 0
644 -213 0
644 -222 0
644 -197 0
644 -229 0
644 -209 0
644 -412 0
644 -255 0
644 -399 0
645 -375 0
645 -366 0
645 -386 0
645 -348 0
645 -322 0
645 -412 0
645 -343 0
645 -165 0
645 -73 0
646 -408 0
646 -28 0
646 -166 0
646 -386 0
646 -390 0
646 -119 0
646 -211 0
646 -293 0
646 -186 0
646 -220 0
646 -48 0
646 -317 0
646 -143 0
646 -414 0
646 -73 0
647 -264 0
647 -221 0
647 -275 0
647 -178 0
647 -149 0
647 -215 0
647 -122 0
647 -14 0
647 -319 0
647 -139 0
647 -299 0
647 -47 0
648 -404 0
648 -350 0
648 -257 0
648 -377 0
648 -244 0
648 -204 0
648 -65 0
648 -206 0
648 -231 0
648 -66 0
648 -354 0
648 -418 0
648 -254 0
648 -375 0
648 -53 0
648 -271 0
649 -2 0
649 -22 0
649 -362 0
649 -130 0
649 -363 0
649 -352 0
649 -183 0
649 -134 0
649 -364 0
649 -205 0
649 -220 0
649 -37 0
650 -344 0
650 -326 0
650 -348 0
650 -240 0
650 -314 0
650 -90 0
650 -141 0
650 -82 0
650 -17 0
650 -327 0
651 -221 0
651 -335 0
651 -152 0
651 -185 0
651 -117 0
651 -247 0
651 -13 0
651 -89 0
651 -48 0
651 -286 0
652 -280 0
652 -335 0
652 -270 0
652 -238 0
652 -414 0
652 -80 0
652 -113 0
652 -340 0
652 -60 0
652 -47 0
652 -315 0
652 -301 0
653 -272 0
653 -397 0
653 -173 0
653 -304 0
653 -353 0
653 -62 0
653 -292 0
653 -218 0
653 -21 0
653 -104 0
653 -356 0
653 -245 0
653 -13 0
654 -333 0
654 -370 0
654 -25 0
654 -17 0
654 -200 0
654 -349 0
654 -416 0
654 -186 0
654 -22 0
654 -315 0
654 -282 0
654 -391 0
654 -402 0
654 -351 0
654 -143 0
655 -331 0
655 -337 0
655 -403 0
655 -287 0
655 -135 0
655 -35 0
655 -42 0
655 -93 0
655 -91 0
655 -386 0
656 -287 0
656 -354 0
656 -149 0
656 -314 0
656 -118 0
656 -245 0
656 -266 0
656 -366 0
656 -277 0
656 -57 0
656 -98 0
656 -60 0
656 -2 0
656 -239 0
657 -251 0
657 -189 0
657 -223 0
657 -250 0
657 -39 0
657 -134 0
657 -11 0
657 -393 0
657 -151 0
657 -125 0
657 -96 0
657 -354 0
657 -353 0
657 -289 0
657 -180 0
658 -5 0
658 -283 0
658 -295 0
658 -178 0
658 -322 0
658 -399 0
658 -2 0
658 -210 0
658 -29 0
658 -417 0
658 -227 0
658 -345 0
659 -362 0
659 -314 0
659 -136 0
659 -315 0
659 -116 0
659 -128 0
659 -409 0
659 -306 0
659 -265 0
659 -80 0
659 -199 0
659 -137 0
659 -407 0
659 -370 0
660 -339 0
660 -348 0
660 -194 0
660 -359 0
660 -67 0
660 -235 0
660 -305 0
660 -89 0
660 -105 0
660 -22 0
660 -375 0
660 -145 0
660 -411 0
661 -408 0
661 -398 0
661 -387 0
661 -403 0
661 -361 0
661 -25 0
661 -305 0
661 -35 0
661 -5 0
661 -154 0
661 -96 0
661 -248 0
661 -386 0
661 -86 0
662 -21 0
662 -254 0
662 -228 0
662 -210 0
662 -279 0
662 -79 0
662 -156 0
662 -166 0
662 -127 0
662 -378 0
662 -95 0
662 -73 0
662 -12 0
662 -98 0
662 -108 0
662 -106 0
663 -260 0
663 -142 0
663 -267 0
663 -201 0
663 -77 0
663 -300 0
663 -34 0
663 -400 0
663 -229 0
663 -71 0
663 -343 0
663 -81 0
663 -289 0
663 -147 0
664 -370 0
664 -170 0
664 -74 0
664 -289 0
664 -202 0
664 -66 0
664 -114 0
664 -413 0
664 -382 0
664 -347 0
664 -124 0
664 -38 0
664 -418 0
664 -379 0
665 -7 0
665 -386 0
665 -345 0
665 -339 0
665 -326 0
665 -349 0
665 -134 0
665 -53 0
665 -78 0
665 -47 0
665 -34 0
665 -89 0
665 -92 0
665 -51 0
665 -114 0
665 -332 0
665 -216 0
666 -22 0
666 -280 0
666 -177 0
666 -375 0
666 -382 0
666 -279 0
666 -211 0
666 -137 0
666 -84 0
666 -87 0
666 -107 0
666 -179 0
666 -256 0
666 -59 0
666 -124 0
666 -80 0
666 -25 0
666 -19 0
666 -372 0
667 -266 0
667 -219 0
667 -42 0
668 -304 0
668 -171 0
668 -387 0
668 -150 0
668 -398 0
668 -123 0
668 -99 0
668 -19 0
668 -364 0
668 -408 0
668 -128 0
668 -58 0
668 -54 0
668 -284 0
669 -342 0
669 -247 0
669 -230 0
669 -275 0
669 -170 0
669 -292 0
669 -253 0
669 -121 0
669 -270 0
669 -13 0
669 -197 0
669 -413 0
669 -165 0
669 -11 0
669 -272 0
670 -264 0
670 -349 0
670 -106 0
670 -406 0
670 -155 0
670 -371 0
670 -84 0
670 -146 0
670 -255 0
670 -340 0
670 -151 0
670 -269 0
670 -22 0
670 -66 0
671 -257 0
671 -218 0
671 -170 0
671 -174 0
671 -387 0
671 -208 0
671 -303 0
671 -236 0
671 -188 0
671 -417 0
671 -9 0
671 -79 0
671 -229 0
671 -315 0
671 -122 0
671 -141 0
671 -167 0
671 -6 0
671 -10 0
672 -405 0
672 -404 0
672 -388 0
672 -295 0
672 -361 0
672 -356 0
672 -307 0
672 -140 0
672 -362 0
672 -32 0
672 -170 0
672 -31 0
673 -401 0
673 -382 0
673 -139 0
673 -56 0
673 -97 0
673 -305 0
673 -108 0
673 -98 0
673 -205 0
673 -113 0
673 -92 0
674 -210 0
674 -240 0
674 -33 0
674 -255 0
674 -96 0
674 -286 0
674 -191 0
674 -320 0
674 -383 0
674 -408 0
675 -8 0
675 -26 0
675 -239 0
675 -403 0
675 -185 0
675 -290 0
675 -275 0
675 -231 0
675 -74 0
675 -262 0
675 -146 0
675 -289 0
675 -67 0
675 -333 0
675 -108 0
676 -6 0
676 -280 0
676 -263 0
676 -257 0
676 -261 0
676 -396 0
676 -305 0
676 -268 0
676 -253 0
676 -174 0
676 -150 0
676 -41 0
676 -233 0
676 -191 0
676 -307 0
676 -189 0
677 -377 0
677 -350 0
677 -247 0
677 -192 0
677 -339 0
677 -374 0
677 -157 0
677 -90 0
677 -222 0
677 -143 0
677 -119 0
677 -137 0
677 -100 0
677 -177 0
677 -8 0
677 -7 0
678 -6 0
678 -316 0
678 -387 0
678 -214 0
678 -344 0
678 -361 0
678 -199 0
678 -298 0
678 -17 0
678 -175 0
678 -242 0
678 -286 0
678 -72 0
678 -86 0
679 -364 0
679 -272 0
679 -394 0
679 -255 0
679 -22 0
679 -232 0
679 -122 0
679 -353 0
679 -83 0
679 -302 0
679 -90 0
679 -43 0
680 -175 0
680 -368 0
680 -34 0
680 -362 0
680 -82 0
680 -70 0
680 -42 0
680 -182 0
680 -105 0
680 -77 0
680 -396 0
680 -405 0
681 -221 0
681 -110 0
681 -225 0
681 -194 0
681 -133 0
681 -274 0
681 -175 0
681 -24 0
681 -72 0
681 -157 0
681 -73 0
681 -135 0
681 -165 0
681 -313 0
681 -177 0
681 -209 0
682 -269 0
682 -89 0
682 -195 0
682 -270 0
682 -228 0
682 -349 0
682 -113 0
682 -124 0
682 -299 0
682 -406 0
682 -110 0
683 -277 0
683 -225 0
683 -181 0
683 -182 0
683 -185 0
683 -140 0
683 -79 0
683 -372 0
683 -163 0
683 -16 0
683 -4 0
683 -321 0
683 -397 0
683 -294 0
683 -63 0
683 -169 0
685 -288 0
685 -134 0
685 -305 0
685 -180 0
685 -43 0
685 -106 0
685 -206 0
685 -4 0
685 -249 0
686 -389 0
686 -299 0
686 -387 0
686 -289 0
686 -75 0
686 -18 0
686 -120 0
686 -95 0
686 -85 0
686 -101 0
686 -30 0
686 -356 0
686 -230 0
686 -113 0
687 -405 0
687 -205 0
687 -180 0
687 -372 0
687 -41 0
687 -288 0
687 -370 0
687 -176 0
687 -271 0
688 -24 0
688 -374 0
688 -308 0
688 -225 0
688 -292 0
688 -349 0
688 -239 0
688 -412 0
688 -203 0
688 -205 0
688 -253 0
688 -129 0
689 -226 0
689 -218 0
689 -178 0
689 -348 0
689 -176 0
689 -161 0
689 -276 0
689 -310 0
689 -211 0
689 -73 0
689 -71 0
689 -388 0
690 -405 0
690 -377 0
690 -338 0
690 -280 0
690 -263 0
690 -332 0
690 -317 0
690 -189 0
690 -258 0
690 -334 0
690 -284 0
690 -173 0
690 -297 0
690 -208 0
690 -171 0
690 -40 0
691 -401 0
691 -230 0
691 -124 0
691 -7 0
691 -75 0
691 -299 0
691 -54 0
691 -356 0
691 -90 0
691 -99 0
691 -74 0
691 -77 0
691 -141 0
692 -332 0
692 -276 0
692 -335 0
692 -207 0
692 -370 0
692 -190 0
692 -39 0
692 -415 0
692 -74 0
692 -7 0
693 -331 0
693 -193 0
693 -65 0
693 -256 0
693 -123 0
693 -90 0
693 -67 0
693 -203 0
693 -116 0
693 -308 0
693 -296 0
693 -184 0
693 -11 0
694 -309 0
694 -394 0
694 -83 0
694 -152 0
694 -223 0
694 -68 0
694 -317 0
694 -62 0
694 -106 0
694 -372 0
694 -75 0
694 -54 0
695 -272 0
695 -186 0
695 -203 0
695 -317 0
695 -258 0
695 -231 0
695 -368 0
695 -19 0
695 -197 0
695 -115 0
695 -249 0
695 -363 0
695 -279 0
696 -227 0
696 -400 0
696 -287 0
696 -204 0
696 -146 0
696 -403 0
696 -174 0
696 -35 0
696 -42 0
696 -412 0
696 -22 0
696 -51 0
696 -269 0
697 -358 0
697 -255 0
697 -187 0
697 -195 0
697 -324 0
697 -47 0
697 -410 0
697 -180 0
697 -398 0
697 -13 0
698 -366 0
698 -323 0
698 -227 0
698 -118 0
698 -121 0
698 -194 0
698 -125 0
698 -286 0
698 -119 0
698 -300 0
698 -56 0
698 -33 0
698 -117 0
698 -135 0
698 -187 0
698 -85 0
699 -386 0
699 -364 0
699 -278 0
699 -115 0
699 -128 0
699 -256 0
699 -414 0
699 -16 0
699 -351 0
699 -160 0
699 -25 0
699 -267 0
699 -22 0
699 -161 0
700 -386 0
700 -385 0
700 -264 0
700 -394 0
700 -281 0
700 -124 0
700 -363 0
700 -81 0
700 -34 0
700 -208 0
700 -173 0
700 -418 0
700 -268 0
700 -415 0
700 -237 0
700 -147 0
701 -295 0
701 -267 0
701 -65 0
701 -265 0
701 -69 0
701 -147 0
701 -99 0
701 -67 0
701 -17 0
701 -84 0
701 -148 0
701 -76 0
702 -248 0
702 -359 0
702 -281 0
702 -218 0
702 -219 0
702 -167 0
702 -212 0
702 -77 0
702 -26 0
702 -56 0
702 -17 0
702 -51 0
702 -412 0
703 -172 0
703 -22 0
703 -148 0
703 -209 0
703 -280 0
703 -18 0
703 -226 0
703 -260 0
703 -412 0
703 -169 0
703 -46 0
703 -383 0
703 -80 0
704 -342 0
704 -338 0
704 -193 0
704 -136 0
704 -322 0
704 -134 0
704 -215 0
704 -205 0
704 -34 0
704 -52 0
704 -53 0
705 -367 0
705 -341 0
705 -304 0
705 -348 0
705 -123 0
705 -103 0
705 -362 0
705 -138 0
705 -258 0
705 -51 0
705 -227 0
705 -128 0
705 -310 0
706 -348 0
706 -257 0
706 -304 0
706 -351 0
706 -363 0
706 -312 0
706 -220 0
706 -301 0
706 -211 0
706 -375 0
706 -404 0
707 -142 0
707 -112 0
707 -158 0
707 -124 0
707 -202 0
707 -106 0
707 -351 0
707 -42 0
707 -347 0
707 -8 0
707 -5 0
708 -379 0
708 -393 0
708 -389 0
708 -133 0
708 -161 0
708 -123 0
708 -206 0
708 -87 0
708 -205 0
708 -141 0
708 -208 0
709 -374 0
709 -9 0
709 -317 0
709 -356 0
709 -219 0
709 -302 0
709 -282 0
709 -191 0
709 -79 0
709 -129 0
709 -98 0
709 -240 0
709 -44 0
709 -138 0
710 -369 0
710 -402 0
710 -146 0
710 -27 0
710 -224 0
710 -413 0
710 -168 0
710 -46 0
710 -245 0
710 -161 0
710 -53 0
710 -4 0
710 -150 0
710 -37 0
711 -177 0
711 -341 0
711 -271 0
711 -208 0
711 -68 0
711 -385 0
711 -5 0
711 -132 0
711 -56 0
711 -391 0
711 -104 0
711 -399 0
711 -167 0
711 -307 0
711 -52 0
712 -378 0
712 -282 0
712 -273 0
712 -119 0
712 -215 0
712 -255 0
712 -336 0
712 -189 0
712 -219 0
712 -208 0
712 -49 0
712 -164 0
712 -237 0
712 -240 0
712 -152 0
712 -139 0
712 -104 0
713 -383 0
713 -265 0
713 -39 0
713 -238 0
713 -208 0
713 -183 0
713 -193 0
713 -400 0
713 -405 0
713 -165 0
713 -15 0
713 -201 0
714 -327 0
714 -260 0
714 -181 0
714 -313 0
714 -258 0
714 -301 0
714 -84 0
714 -284 0
714 -229 0
714 -239 0
714 -95 0
714 -19 0
714 -138 0
715 -358 0
715 -387 0
715 -258 0
715 -157 0
715 -308 0
715 -61 0
715 -109 0
715 -154 0
715 -15 0
715 -19 0
715 -322 0
715 -120 0
715 -84 0
715 -348 0
715 -267 0
715 -188 0
715 -388 0
715 -243 0
716 -308 0
716 -312 0
716 -248 0
716 -213 0
716 -63 0
716 -12 0
717 -266 0
717 -347 0
717 -65 0
717 -75 0
717 -276 0
717 -283 0
717 -184 0
717 -61 0
717 -31 0
717 -245 0
717 -209 0
717 -220 0
717 -79 0
717 -179 0
717 -39 0
717 -51 0
718 -304 0
718 -223 0
718 -417 0
718 -190 0
718 -105 0
718 -239 0
718 -233 0
718 -320 0
718 -165 0
718 -32 0
718 -286 0
718 -308 0
718 -2 0
718 -9 0
719 -340 0
719 -294 0
719 -240 0
719 -290 0
719 -275 0
719 -306 0
719 -132 0
719 -116 0
719 -164 0
719 -292 0
719 -134 0
719 -189 0
719 -329 0
719 -400 0
719 -154 0
719 -391 0
719 -27 0
719 -388 0
719 -341 0
719 -257 0
720 -339 0
720 -341 0
720 -359 0
720 -200 0
720 -185 0
720 -66 0
720 -84 0
720 -87 0
720 -33 0
720 -48 0
720 -182 0
720 -337 0
721 -372 0
721 -337 0
721 -387 0
721 -352 0
721 -345 0
721 -318 0
721 -77 0
721 -368 0
721 -253 0
721 -184 0
721 -289 0
721 -40 0
721 -143 0
721 -132 0
721 -120 0
721 -106 0
721 -16 0
721 -122 0
722 -312 0
722 -317 0
722 -393 0
722 -183 0
722 -164 0
722 -67 0
722 -109 0
722 -391 0
722 -305 0
722 -212 0
723 -342 0
723 -345 0
723 -295 0
723 -222 0
723 -251 0
723 -319 0
723 -39 0
723 -44 0
723 -108 0
723 -15 0
723 -409 0
723 -8 0
723 -87 0
723 -289 0
724 -345 0
724 -160 0
724 -241 0
724 -312 0
724 -179 0
724 -224 0
724 -199 0
724 -308 0
724 -357 0
724 -372 0
724 -96 0
724 -343 0
724 -218 0
724 -65 0
725 -1 0
725 -187 0
725 -313 0
725 -352 0
725 -346 0
725 -259 0
725 -63 0
725 -284 0
725 -391 0
725 -309 0
725 -136 0
725 -377 0
726 -374 0
726 -329 0
726 -371 0
726 -129 0
726 -302 0
726 -20 0
726 -199 0
726 -76 0
726 -372 0
726 -407 0
726 -34 0
726 -67 0
726 -376 0
726 -160 0
727 -335 0
727 -295 0
727 -142 0
727 -296 0
727 -412 0
727 -144 0
727 -376 0
727 -94 0
727 -314 0
727 -194 0
728 -332 0
728 -275 0
728 -269 0
728 -97 0
728 -179 0
728 -30 0
728 -148 0
728 -142 0
728 -200 0
728 -90 0
728 -346 0
729 -284 0
729 -235 0
729 -64 0
729 -66 0
729 -167 0
729 -216 0
729 -173 0
729 -397 0
729 -414 0
729 -30 0
729 -86 0
729 -322 0
729 -294 0
729 -209 0
729 -418 0
729 -144 0
730 -403 0
730 -263 0
730 -260 0
730 -129 0
730 -31 0
730 -174 0
730 -269 0
731 -4 0
731 -383 0
731 -303 0
731 -263 0
731 -173 0
731 -200 0
731 -65 0
731 -329 0
731 -33 0
731 -59 0
731 -67 0
731 -68 0
731 -414 0
732 -373 0
732 -112 0
732 -214 0
732 -205 0
732 -77 0
732 -398 0
732 -188 0
732 -8 0
732 -180 0
733 -396 0
733 -133 0
733 -265 0
733 -215 0
733 -205 0
733 -78 0
733 -67 0
733 -54 0
733 -254 0
733 -312 0
733 -373 0
733 -412 0
733 -364 0
733 -400 0
733 -257 0
734 -169 0
734 -371 0
734 -118 0
734 -68 0
734 -87 0
734 -11 0
734 -220 0
734 -229 0
734 -36 0
734 -184 0
734 -35 0
734 -406 0
734 -154 0
735 -25 0
735 -266 0
735 -193 0
735 -387 0
735 -313 0
735 -223 0
735 -265 0
735 -85 0
735 -349 0
735 -46 0
736 -348 0
736 -345 0
736 -392 0
736 -181 0
736 -313 0
736 -270 0
736 -344 0
736 -66 0
736 -302 0
736 -248 0
736 -233 0
736 -141 0
736 -188 0
736 -58 0
736 -140 0
736 -168 0
736 -187 0
736 -25 0
736 -399 0
736 -166 0
736 -34 0
737 -334 0
737 -295 0
737 -112 0
737 -276 0
737 -228 0
737 -76 0
737 -86 0
737 -409 0
737 -144 0
737 -111 0
737 -161 0
737 -381 0
737 -266 0
737 -299 0
737 -269 0
738 -398 0
738 -299 0
738 -396 0
738 -263 0
738 -284 0
738 -219 0
738 -44 0
738 -300 0
738 -359 0
738 -363 0
738 -146 0
738 -95 0
738 -411 0
738 -59 0
738 -401 0
738 -393 0
739 -320 0
739 -185 0
739 -358 0
739 -243 0
739 -275 0
739 -405 0
739 -121 0
739 -207 0
739 -31 0
739 -103 0
739 -34 0
739 -197 0
740 -342 0
740 -387 0
740 -325 0
740 -287 0
740 -252 0
740 -296 0
740 -305 0
740 -152 0
740 -139 0
740 -129 0
740 -253 0
740 -383 0
741 -335 0
741 -349 0
741 -368 0
741 -301 0
741 -308 0
741 -307 0
741 -412 0
741 -367 0
741 -132 0
741 -120 0
741 -49 0
741 -137 0
741 -226 0
741 -415 0
742 -374 0
742 -376 0
742 -169 0
742 -278 0
742 -371 0
742 -267 0
742 -329 0
742 -249 0
742 -413 0
742 -225 0
742 -417 0
742 -90 0
742 -188 0
742 -117 0
743 -338 0
743 -370 0
743 -278 0
743 -255 0
743 -70 0
743 -350 0
743 -97 0
743 -69 0
743 -140 0
743 -208 0
743 -383 0
744 -376 0
744 -345 0
744 -4 0
744 -245 0
744 -65 0
744 -225 0
744 -132 0
744 -95 0
744 -417 0
744 -89 0
745 -357 0
745 -118 0
745 -115 0
745 -127 0
745 -178 0
745 -262 0
745 -248 0
745 -1 0
745 -120 0
745 -412 0
745 -154 0
745 -131 0
745 -96 0
746 -286 0
746 -354 0
746 -245 0
746 -256 0
746 -409 0
746 -25 0
746 -411 0
746 -156 0
746 -39 0
746 -110 0
746 -238 0
746 -105 0
747 -228 0
747 -213 0
747 -263 0
747 -148 0
747 -221 0
747 -182 0
747 -70 0
747 -167 0
747 -85 0
747 -409 0
747 -50 0
748 -254 0
748 -340 0
748 -113 0
748 -77 0
748 -256 0
748 -75 0
748 -239 0
748 -218 0
748 -105 0
748 -58 0
748 -246 0
748 -372 0
749 -4 0
749 -1 0
749 -384 0
749 -254 0
749 -285 0
749 -341 0
749 -214 0
749 -126 0
749 -127 0
749 -60 0
749 -137 0
749 -150 0
749 -107 0
749 -135 0
749 -37 0
749 -173 0
750 -218 0
750 -291 0
750 -305 0
750 -205 0
750 -413 0
750 -363 0
750 -137 0
750 -67 0
750 -154 0
750 -141 0
750 -400 0
750 -335 0
750 -237 0
750 -53 0
751 -384 0
751 -347 0
751 -323 0
751 -312 0
751 -379 0
751 -330 0
751 -142 0
751 -175 0
751 -318 0
752 -4 0
752 -312 0
752 -330 0
752 -262 0
752 -224 0
752 -26 0
752 -322 0
752 -302 0
752 -153 0
752 -154 0
752 -161 0
752 -143 0
752 -36 0
752 -51 0
753 -404 0
753 -1 0
753 -210 0
753 -228 0
753 -341 0
753 -334 0
753 -122 0
753 -232 0
753 -99 0
754 -318 0
754 -72 0
754 -53 0
754 -112 0
754 -216 0
754 -277 0
754 -229 0
754 -107 0
754 -28 0
754 -17 0
755 -7 0
755 -325 0
755 -160 0
755 -295 0
755 -305 0
755 -145 0
755 -180 0
755 -164 0
755 -302 0
755 -38 0
755 -122 0
755 -68 0
755 -174 0
756 -22 0
756 -376 0
756 -353 0
756 -222 0
756 -274 0
756 -161 0
756 -224 0
756 -417 0
756 -156 0
756 -166 0
756 -220 0
756 -168 0
757 -129 0
757 -231 0
757 -62 0
757 -303 0
757 -330 0
757 -99 0
757 -362 0
757 -202 0
757 -178 0
757 -155 0
757 -163 0
757 -80 0
757 -187 0
757 -327 0
758 -398 0
758 -388 0
758 -366 0
758 -280 0
758 -354 0
758 -18 0
758 -234 0
758 -64 0
758 -208 0
758 -157 0
758 -149 0
758 -417 0
758 -302 0
758 -141 0
758 -180 0
759 -251 0
759 -317 0
759 -309 0
759 -223 0
759 -256 0
759 -93 0
759 -30 0
759 -49 0
759 -100 0
759 -244 0
759 -106 0
760 -399 0
760 -384 0
760 -275 0
760 -218 0
760 -178 0
760 -288 0
760 -81 0
760 -264 0
760 -120 0
760 -184 0
760 -208 0
761 -266 0
762 -329 0
762 -389 0
762 -115 0
762 -292 0
762 -296 0
762 -142 0
762 -159 0
762 -110 0
762 -90 0
762 -153 0
762 -87 0
763 -3 0
763 -74 0
763 -218 0
763 -184 0
763 -38 0
763 -85 0
763 -233 0
763 -308 0
763 -28 0
763 -282 0
763 -336 0
764 -197 0
764 -305 0
764 -80 0
764 -345 0
764 -357 0
764 -198 0
764 -116 0
764 -409 0
764 -34 0
764 -224 0
764 -335 0
764 -113 0
764 -57 0
764 -96 0
764 -10 0
764 -199 0
764 -114 0
765 -380 0
765 -126 0
765 -210 0
765 -277 0
765 -328 0
765 -289 0
765 -180 0
765 -105 0
765 -141 0
765 -151 0
765 -82 0
765 -27 0
766 -399 0
766 -383 0
766 -266 0
766 -336 0
766 -265 0
766 -132 0
766 -238 0
766 -128 0
766 -90 0
766 -57 0
766 -352 0
766 -402 0
766 -171 0
767 -136 0
767 -200 0
767 -77 0
767 -143 0
767 -418 0
767 -411 0
767 -46 0
767 -71 0
767 -383 0
767 -16 0
767 -277 0
768 -348 0
768 -236 0
768 -279 0
768 -100 0
768 -62 0
768 -72 0
768 -297 0
768 -188 0
768 -411 0
768 -42 0
768 -165 0
768 -19 0
768 -309 0
768 -159 0
769 -3 0
769 -299 0
769 -393 0
769 -318 0
769 -80 0
769 -347 0
769 -410 0
769 -131 0
769 -336 0
769 -325 0
769 -174 0
769 -216 0
769 -75 0
769 -150 0
770 -333 0
770 -332 0
770 -321 0
770 -71 0
770 -72 0
770 -229 0
770 -165 0
770 -110 0
770 -154 0
770 -98 0
770 -190 0
770 -312 0
770 -307 0
770 -401 0
770 -44 0
771 -327 0
771 -395 0
771 -336 0
771 -328 0
771 -200 0
771 -234 0
771 -300 0
771 -323 0
771 -102 0
771 -220 0
772 -9 0
772 -339 0
772 -217 0
772 -366 0
772 -281 0
772 -171 0
772 -229 0
772 -149 0
772 -141 0
772 -151 0
772 -153 0
772 -178 0
772 -28 0
773 -369 0
773 -390 0
773 -309 0
773 -92 0
773 -33 0
773 -148 0
773 -293 0
773 -90 0
773 -404 0
773 -141 0
773 -180 0
773 -138 0
774 -377 0
774 -247 0
774 -118 0
774 -15 0
774 -204 0
774 -78 0
774 -96 0
774 -180 0
774 -302 0
774 -165 0
774 -304 0
774 -175 0
774 -94 0
774 -46 0
774 -150 0
775 -10 0
775 -217 0
775 -321 0
775 -1 0
775 -234 0
775 -174 0
775 -65 0
775 -284 0
775 -105 0
775 -89 0
775 -158 0
775 -40 0
775 -169 0
775 -273 0
775 -91 0
775 -117 0
776 -228 0
776 -397 0
776 -208 0
776 -234 0
776 -108 0
776 -163 0
776 -351 0
777 -347 0
777 -210 0
777 -86 0
777 -94 0
777 -246 0
777 -413 0
777 -334 0
777 -258 0
777 -8 0
777 -127 0
778 -383 0
778 -357 0
778 -392 0
778 -324 0
778 -127 0
778 -364 0
778 -208 0
778 -81 0
778 -150 0
778 -172 0
778 -11 0
778 -415 0
778 -15 0
778 -97 0
778 -330 0
779 -347 0
779 -348 0
779 -173 0
779 -356 0
779 -305 0
779 -71 0
779 -68 0
779 -211 0
779 -122 0
779 -416 0
779 -180 0
779 -172 0
779 -111 0
779 -270 0
779 -9 0
779 -159 0
779 -256 0
780 -9 0
780 -257 0
780 -326 0
780 -287 0
780 -399 0
780 -211 0
780 -238 0
780 -107 0
780 -336 0
780 -59 0
780 -144 0
780 -44 0
780 -23 0
780 -57 0
781 -374 0
781 -269 0
781 -341 0
781 -213 0
781 -170 0
781 -156 0
781 -256 0
781 -224 0
781 -25 0
781 -186 0
781 -42 0
781 -322 0
782 -386 0
782 -383 0
782 -270 0
782 -124 0
782 -297 0
782 -74 0
782 -327 0
782 -128 0
782 -322 0
782 -178 0
782 -202 0
782 -134 0
782 -104 0
782 -141 0
783 -325 0
783 -125 0
783 -369 0
783 -83 0
783 -66 0
783 -127 0
783 -157 0
783 -81 0
783 -205 0
783 -90 0
783 -40 0
783 -199 0
783 -321 0
783 -371 0
783 -59 0
784 -27 0
784 -28 0
784 -343 0
784 -403 0
784 -350 0
784 -313 0
784 -262 0
784 -111 0
784 -84 0
784 -24 0
784 -188 0
784 -132 0
784 -412 0
784 -276 0
785 -344 0
785 -323 0
785 -334 0
785 -205 0
785 -274 0
785 -366 0
785 -122 0
785 -203 0
785 -147 0
785 -311 0
785 -191 0
785 -416 0
785 -20 0
785 -135 0
785 -368 0
786 -280 0
786 -336 0
786 -309 0
786 -234 0
786 -75 0
786 -38 0
786 -180 0
786 -52 0
786 -27 0
786 -242 0
786 -324 0
786 -414 0
787 -325 0
787 -243 0
787 -230 0
787 -336 0
787 -328 0
787 -113 0
787 -206 0
787 -166 0
787 -178 0
787 -305 0
787 -409 0
787 -342 0
788 -387 0
788 -185 0
788 -157 0
788 -309 0
788 -341 0
788 -164 0
788 -82 0
789 -257 0
789 -354 0
789 -237 0
789 -400 0
789 -205 0
789 -249 0
789 -355 0
789 -85 0
789 -39 0
789 -41 0
789 -284 0
789 -90 0
789 -277 0
789 -333 0
790 -10 0
790 -8 0
790 -281 0
790 -388 0
790 -30 0
790 -143 0
790 -106 0
790 -64 0
790 -19 0
791 -7 0
791 -353 0
791 -264 0
791 -62 0
791 -311 0
791 -408 0
791 -191 0
791 -195 0
791 -275 0
791 -237 0
791 -174 0
792 -358 0
792 -259 0
792 -145 0
792 -320 0
792 -90 0
792 -297 0
792 -107 0
792 -82 0
793 -227 0
793 -228 0
793 -209 0
793 -34 0
793 -287 0
793 -201 0
793 -318 0
793 -326 0
793 -140 0
793 -188 0
793 -69 0
793 -93 0
793 -78 0
794 -7 0
794 -59 0
794 -404 0
794 -281 0
794 -231 0
794 -363 0
794 -13 0
794 -141 0
794 -339 0
794 -336 0
795 -391 0
795 -290 0
795 -157 0
795 -360 0
795 -204 0
795 -80 0
795 -356 0
795 -231 0
795 -414 0
795 -147 0
795 -99 0
795 -403 0
796 -333 0
796 -388 0
796 -84 0
796 -127 0
796 -213 0
796 -72 0
796 -341 0
796 -38 0
796 -135 0
796 -401 0
796 -151 0
796 -415 0
796 -85 0
796 -146 0
796 -58 0
797 -364 0
797 -316 0
797 -303 0
797 -282 0
797 -227 0
797 -229 0
797 -317 0
797 -116 0
797 -108 0
797 -242 0
797 -363 0
798 -1 0
798 -393 0
798 -200 0
798 -27 0
798 -230 0
798 -324 0
798 -59 0
798 -323 0
798 -70 0
798 -188 0
798 -319 0
798 -209 0
798 -212 0
798 -99 0
798 -154 0
798 -76 0
798 -224 0
798 -321 0
799 -382 0
799 -24 0
799 -350 0
799 -242 0
799 -273 0
799 -127 0
799 -171 0
799 -84 0
799 -109 0
799 -349 0
799 -362 0
799 -234 0
799 -11 0
799 -98 0
800 -325 0
800 -227 0
800 -169 0
800 -18 0
800 -174 0
800 -329 0
800 -29 0
800 -5 0
800 -114 0
800 -232 0
801 -377 0
801 -325 0
801 -333 0
801 -181 0
801 -352 0
801 -364 0
801 -308 0
801 -249 0
801 -265 0
801 -334 0
801 -177 0
801 -147 0
801 -48 0
801 -418 0
801 -354 0
802 -363 0
802 -390 0
802 -372 0
802 -378 0
802 -62 0
802 -74 0
802 -401 0
802 -133 0
802 -192 0
802 -49 0
803 -383 0
803 -210 0
803 -29 0
803 -237 0
803 -412 0
803 -396 0
803 -75 0
803 -401 0
803 -117 0
803 -107 0
803 -154 0
803 -318 0
803 -51 0
804 -24 0
804 -255 0
804 -116 0
804 -215 0
804 -306 0
804 -245 0
804 -58 0
804 -122 0
804 -53 0
804 -169 0
804 -95 0
804 -96 0
805 -376 0
805 -326 0
805 -170 0
805 -317 0
805 -262 0
805 -205 0
805 -238 0
805 -128 0
805 -191 0
805 -234 0
805 -362 0
805 -385 0
805 -54 0
806 -189 0
806 -208 0
806 -274 0
806 -275 0
806 -324 0
806 -29 0
806 -120 0
806 -295 0
806 -413 0
806 -418 0
806 -88 0
806 -102 0
806 -36 0
806 -39 0
807 -374 0
807 -308 0
807 -390 0
807 -260 0
807 -367 0
807 -362 0
807 -368 0
807 -80 0
807 -152 0
807 -140 0
807 -224 0
807 -99 0
807 -41 0
807 -32 0
807 -178 0
808 -225 0
808 -207 0
808 -190 0
808 -113 0
808 -189 0
808 -306 0
808 -246 0
808 -12 0
808 -212 0
808 -169 0
808 -122 0
808 -200 0
808 -409 0
809 -4 0
809 -384 0
809 -286 0
809 -379 0
809 -209 0
809 -341 0
809 -71 0
809 -339 0
809 -239 0
809 -73 0
809 -43 0
810 -4 0
810 -6 0
810 -379 0
810 -348 0
810 -264 0
810 -269 0
810 -178 0
810 -213 0
810 -128 0
810 -242 0
810 -280 0
810 -169 0
810 -67 0
810 -369 0
811 -400 0
811 -371 0
811 -17 0
811 -47 0
811 -114 0
811 -121 0
811 -288 0
811 -66 0
812 -283 0
812 -133 0
812 -284 0
812 -68 0
812 -268 0
812 -164 0
812 -114 0
812 -414 0
812 -305 0
812 -310 0
812 -208 0
812 -42 0
812 -143 0
812 -401 0
813 -396 0
813 -252 0
813 -124 0
813 -297 0
813 -285 0
813 -129 0
813 -38 0
813 -151 0
813 -370 0
813 -139 0
813 -183 0
813 -106 0
813 -242 0
813 -255 0
813 -54 0
813 -76 0
813 -135 0
813 -364 0
814 -369 0
814 -70 0
814 -306 0
814 -90 0
814 -88 0
814 -53 0
814 -315 0
814 -52 0
814 -39 0
814 -67 0
814 -36 0
814 -2 0
815 -345 0
815 -338 0
815 -261 0
815 -240 0
815 -86 0
815 -83 0
815 -288 0
815 -85 0
815 -337 0
815 -374 0
815 -26 0
816 -400 0
816 -408 0
816 -397 0
816 -330 0
816 -339 0
816 -278 0
816 -252 0
816 -204 0
816 -91 0
817 -6 0
817 -398 0
817 -374 0
817 -349 0
817 -119 0
817 -261 0
817 -345 0
817 -207 0
817 -274 0
817 -236 0
817 -186 0
817 -215 0
817 -343 0
817 -145 0
817 -179 0
817 -214 0
817 -23 0
817 -163 0
818 -217 0
818 -281 0
818 -204 0
818 -134 0
818 -131 0
818 -87 0
818 -188 0
818 -120 0
818 -308 0
818 -58 0
818 -288 0
818 -364 0
819 -331 0
819 -353 0
819 -398 0
819 -295 0
819 -137 0
819 -82 0
819 -157 0
819 -93 0
819 -315 0
819 -89 0
819 -106 0
820 -21 0
820 -380 0
820 -323 0
820 -290 0
820 -277 0
820 -273 0
820 -29 0
820 -410 0
820 -245 0
820 -141 0
820 -209 0
820 -17 0
820 -155 0
820 -32 0
821 -9 0
821 -385 0
821 -350 0
821 -251 0
821 -335 0
821 -347 0
821 -115 0
821 -215 0
821 -66 0
821 -339 0
821 -188 0
821 -168 0
821 -268 0
821 -102 0
821 -126 0
821 -338 0
822 -186 0
822 -364 0
822 -283 0
822 -359 0
822 -271 0
822 -235 0
822 -97 0
822 -335 0
822 -108 0
822 -308 0
823 -383 0
823 -376 0
823 -353 0
823 -260 0
823 -394 0
823 -190 0
823 -402 0
823 -302 0
823 -230 0
823 -285 0
823 -108 0
823 -259 0
823 -59 0
824 -389 0
824 -272 0
824 -185 0
824 -118 0
824 -71 0
824 -6 0
824 -14 0
824 -93 0
824 -108 0
824 -376 0
824 -73 0
824 -49 0
824 -59 0
824 -139 0
825 -28 0
825 -27 0
825 -378 0
825 -354 0
825 -385 0
825 -87 0
825 -288 0
825 -415 0
825 -67 0
825 -172 0
825 -284 0
825 -332 0
825 -249 0
826 -26 0
826 -154 0
826 -178 0
826 -9 0
826 -414 0
826 -31 0
826 -61 0
826 -40 0
827 -399 0
827 -384 0
827 -269 0
827 -270 0
827 -255 0
827 -249 0
827 -372 0
827 -128 0
827 -239 0
828 -8 0
828 -401 0
828 -165 0
828 -336 0
828 -330 0
828 -252 0
828 -348 0
828 -126 0
828 -407 0
828 -286 0
828 -153 0
828 -220 0
828 -80 0
828 -119 0
829 -415 0
829 -135 0
829 -410 0
829 -24 0
829 -379 0
829 -320 0
829 -260 0
829 -343 0
829 -194 0
829 -180 0
829 -156 0
830 -15 0
830 -50 0
830 -30 0
830 -234 0
830 -191 0
830 -308 0
830 -216 0
830 -309 0
830 -170 0
830 -287 0
830 -81 0
831 -94 0
831 -35 0
831 -163 0
831 -23 0
831 -338 0
831 -404 0
831 -260 0
831 -232 0
831 -339 0
831 -297 0
831 -302 0
831 -125 0
831 -54 0
831 -284 0
832 -102 0
832 -39 0
832 -315 0
832 -223 0
832 -347 0
832 -391 0
832 -194 0
832 -365 0
832 -306 0
832 -277 0
832 -28 0
832 -204 0
833 -411 0
833 -70 0
833 -331 0
833 -290 0
833 -392 0
833 -167 0
833 -214 0
833 -136 0
833 -174 0
833 -252 0
833 -153 0
833 -18 0
833 -377 0
833 -66 0
833 -182 0
834 -108 0
834 -85 0
834 -30 0
834 -2 0
834 -379 0
834 -233 0
834 -204 0
834 -388 0
834 -236 0
834 -177 0
834 -84 0
834 -302 0
834 -284 0
834 -281 0
834 -164 0
834 -166 0
834 -220 0
834 -78 0
834 -188 0
835 -19 0
835 -366 0
835 -321 0
835 -268 0
835 -256 0
835 -226 0
835 -160 0
835 -202 0
835 -150 0
835 -113 0
836 -46 0
836 -21 0
836 -324 0
836 -386 0
836 -28 0
836 -231 0
836 -97 0
836 -68 0
836 -60 0
836 -157 0
255 271 48 350 313 354 392 336 4 -419 0
204 197 84 143 166 6 26 163 309 407 381 358 354 -420 0
279 202 150 63 247 41 314 6 375 338 351 2 -421 0
283 219 238 246 13 181 329 381 397 -422 0
416 105 329 50 198 109 154 10 385 158 299 269 226 277 412 289 86 -423 0
204 145 78 409 373 378 277 397 367 203 -424 0
208 318 249 87 146 242 107 278 376 384 264 389 382 -425 0
371 202 319 184 105 6 57 353 264 1 50 269 394 404 -426 0
146 60 304 102 20 5 144 145 -427 0
110 258 412 91 35 15 185 17 298 28 -428 0
263 281 183 211 172 144 16 201 303 21 107 -429 0
290 270 254 65 306 267 154 240 157 3 406 400 41 -430 0
373 164 306 89 168 295 181 60 15 413 26 379 6 376 -431 0
255 335 271 240 363 65 288 224 51 328 347 79 392 135 376 136 22 274 -432 0
163 64 247 370 96 81 333 418 63 352 -433 0
260 358 173 256 174 314 202 177 366 11 411 43 374 3 187 -434 0
263 334 126 107 233 295 347 391 374 343 69 -435 0
348 373 86 83 275 105 138 3 183 46 338 331 10 -436 0
222 355 370 215 158 31 245 129 246 404 368 42 -437 0
89 53 147 100 168 48 321 140 401 82 353 -438 0
231 86 201 245 81 335 344 177 405 110 290 230 56 351 -439 0
200 68 122 201 93 88 377 418 243 123 267 286 410 348 -440 0
359 118 368 150 152 108 91 92 32 85 364 273 411 266 399 189 373 -441 0
170 355 180 409 412 79 98 227 405 21 137 377 360 335 -442 0
240 195 267 72 246 233 47 151 16 358 262 366 -443 0
112 237 105 191 151 217 96 410 291 19 136 10 227 229 -444 0
152 105 132 239 355 82 174 229 193 299 140 -445 0
287 248 371 276 195 84 164 153 18 108 7 196 192 278 290 42 -446 0
251 207 240 131 216 60 164 159 113 123 330 42 1 8 -447 0
243 189 322 156 219 213 356 352 323 377 198 299 -448 0
379 228 274 222 205 150 81 5 104 231 11 375 334 109 -449 0
389 345 115 355 86 143 238 160 374 42 39 7 183 49 340 -450 0
266 -451 0
340 264 358 356 301 83 43 170 57 312 273 -452 0
389 255 231 304 403 124 175 1 165 108 70 118 209 62 241 -453 0
379 234 178 356 368 84 109 148 409 91 52 35 134 374 304 102 -454 0
207 201 195 127 99 122 69 144 47 313 189 256 329 406 386 265 -455 0
260 264 177 371 208 241 198 199 109 165 378 129 21 280 333 8 55 -456 0
171 64 172 367 51 374 329 381 234 23 7 -457 0
331 189 149 80 15 326 168 67 267 102 272 238 239 41 118 225 233 -458 0
389 352 274 245 84 415 234 193 212 199 398 206 113 -459 0
-460 0
379 294 386 51 150 93 323 175 207 59 50 5 -461 0
243 226 309 274 64 170 154 123 15 345 10 59 98 330 326 130 -462 0
254 189 364 234 283 405 103 28 398 400 13 294 39 241 11 42 387 102 327 -463 0
240 201 395 97 409 120 298 323 90 -464 0
254 186 177 160 361 407 375 215 223 271 145 212 36 383 327 -465 0
243 130 62 317 223 326 205 128 79 165 354 337 -466 0
254 121 292 318 35 385 42 201 240 382 45 -467 0
264 275 113 245 202 370 368 45 350 285 81 57 300 334 178 386 -468 0
179 204 65 206 63 307 18 208 50 385 9 278 -469 0
373 393 368 86 74 215 333 366 144 319 224 62 382 398 9 67 -470 0
270 146 359 137 220 76 174 346 9 314 -471 0
252 178 146 201 74 249 339 138 393 88 48 397 297 174 43 46 -472 0
177 373 218 171 74 113 245 63 222 47 191 49 311 398 42 416 145 343 381 -473 0
262 256 218 336 64 223 238 306 297 239 274 57 61 235 144 192 359 405 372 -474 0
77 164 293 384 237 44 208 82 7 366 385 -475 0
251 360 359 356 412 33 81 99 103 245 340 317 379 105 62 123 -476 0
262 146 196 84 180 36 41 124 329 113 249 374 -477 0
384 286 314 188 239 214 377 88 174 144 208 418 -478 0
367 93 216 23 276 120 104 70 331 53 46 105 386 -479 0
7 264 136 253 208 248 95 291 57 262 -480 0
353 326 291 44 153 175 366 134 19 27 394 8 -481 0
333 362 237 130 312 288 75 91 15 104 418 96 93 -482 0
386 320 271 354 101 242 321 305 391 249 411 310 29 98 -483 0
316 341 263 338 211 268 113 209 83 16 94 292 400 -484 0
326 304 133 248 131 105 99 246 324 293 36 -485 0
312 173 364 271 242 29 96 155 374 352 235 -486 0
298 281 259 296 314 364 154 184 204 104 366 405 404 -487 0
274 205 201 167 111 106 36 32 86 370 376 189 -488 0
24 336 351 345 358 359 235 47 88 260 146 201 -489 0
303 277 325 330 396 291 135 333 289 60 242 236 154 37 383 400 300 8 193 -490 0
214 136 236 154 138 233 418 297 163 283 112 385 316 57 -491 0
402 294 358 60 38 48 96 127 339 -492 0
357 263 283 230 302 113 97 259 106 165 401 197 252 364 3 180 -493 0
185 193 163 362 322 409 104 117 286 279 351 417 7 408 299 -494 0
399 354 414 219 167 116 78 233 29 88 19 17 42 175 324 -495 0
274 232 387 385 327 414 195 58 318 151 2 -496 0
330 126 221 235 292 285 180 11 41 323 381 1 410 240 -497 0
365 366 286 341 396 316 309 58 171 305 284 140 102 413 29 23 315 49 301 178 -498 0
312 352 232 369 97 416 287 138 172 214 110 324 405 -499 0
230 300 307 322 67 92 14 53 400 283 243 191 366 -500 0
258 379 337 248 6 287 205 215 137 325 108 278 -501 0
312 274 146 361 216 418 416 33 133 177 196 -502 0
46 315 416 376 108 191 15 290 120 -503 0
185 305 207 157 164 66 197 114 319 12 262 -504 0
290 341 260 381 198 95 72 60 413 139 170 38 195 335 -505 0
367 236 235 21 148 132 46 11 114 207 377 354 34 201 -506 0
330 390 160 349 396 293 14 297 75 39 15 417 385 406 -507 0
267 86 161 113 122 180 412 21 100 88 52 -508 0
387 178 86 105 209 199 66 295 412 220 55 46 249 373 77 193 331 -509 0
329 263 267 348 71 190 103 117 198 97 315 -510 0
299 187 256 115 230 74 285 84 412 13 70 240 348 405 -511 0
189 185 146 318 153 411 271 37 303 184 130 355 359 124 -512 0
187 359 51 300 309 59 85 296 401 10 -513 0
118 266 313 204 69 229 49 414 254 -514 0
215 113 119 173 105 92 292 310 283 98 106 72 417 100 109 62 -515 0
326 358 276 209 307 31 313 251 311 331 -516 0
325 261 255 219 192 119 74 129 154 199 323 135 7 418 -517 0
415 118 40 111 42 325 3 39 130 320 401 153 292 212 -518 0
298 228 367 237 361 112 122 52 144 154 278 400 282 318 91 234 -519 0
389 255 278 317 181 86 285 68 314 388 391 344 39 36 398 338 -520 0
382 169 279 284 240 268 311 67 32 34 417 262 136 373 273 -521 0
260 262 163 252 301 127 69 25 335 35 75 -522 0
196 218 103 274 180 146 78 17 188 347 -523 0
251 249 215 184 60 45 117 46 30 16 32 95 288 -524 0
247 173 185 186 274 188 250 233 20 248 354 72 256 61 288 160 227 -525 0
118 64 322 211 137 227 411 304 49 67 114 -526 0
257 226 261 201 143 293 302 414 371 96 32 67 54 284 352 -527 0
393 256 44 120 308 304 301 24 -528 0
247 217 115 275 95 81 38 59 17 313 326 63 290 4 329 -529 0
377 192 166 349 330 249 241 70 82 340 57 53 220 382 -530 0
290 266 393 185 274 245 188 67 -531 0
321 351 370 234 178 267 130 63 366 5 156 174 363 277 -532 0
298 203 225 394 358 121 86 108 110 271 52 279 57 -533 0
381 124 99 30 418 410 68 52 199 177 391 209 82 213 -534 0
273 370 101 411 270 41 252 71 342 93 66 -535 0
370 22 11 409 91 379 394 208 44 -536 0
344 337 225 173 236 248 141 319 17 213 358 384 379 31 299 172 415 -537 0
181 157 122 18 16 74 116 399 417 347 325 85 -538 0
374 375 279 170 394 219 244 125 146 164 256 112 200 51 -539 0
290 240 66 154 409 8 6 -540 0
182 214 158 139 413 120 89 102 382 358 335 122 320 -541 0
7 384 318 150 95 90 46 180 266 70 368 -542 0
272 282 230 295 283 178 314 210 162 188 26 105 73 310 12 302 30 68 -543 0
342 394 252 370 372 204 265 112 201 293 384 391 106 138 13 371 223 -544 0
408 396 174 307 118 11 229 352 205 369 306 110 218 -545 0
379 240 200 133 352 167 239 242 151 29 41 68 62 396 188 252 -546 0
243 370 124 276 219 80 143 315 159 40 242 224 373 66 -547 0
10 383 258 353 344 215 71 143 140 11 199 145 57 8 -548 0
160 149 275 180 409 205 58 247 11 16 54 233 392 110 170 352 -549 0
397 155 253 122 246 117 35 83 414 9 294 404 -550 0
353 334 263 324 378 122 141 200 123 402 336 269 57 218 -551 0
256 174 356 346 239 180 275 85 244 132 98 178 366 -552 0
345 281 227 178 410 333 104 85 51 13 230 -553 0
328 247 396 267 27 349 153 134 118 409 41 83 238 155 280 -554 0
308 320 217 261 166 334 297 151 1 385 146 53 -555 0
341 362 273 346 359 235 296 304 119 76 413 159 -556 0
261 287 256 175 122 95 38 286 32 184 232 63 290 132 66 -557 0
266 321 283 238 249 376 164 44 254 335 319 5 399 -558 0
397 295 349 235 415 47 396 62 368 144 128 83 386 365 329 -559 0
333 387 265 29 150 323 391 192 289 298 108 101 -560 0
303 263 396 275 354 287 137 150 360 66 319 270 4 335 -561 0
336 345 155 152 359 362 284 184 398 382 162 366 323 200 261 272 -562 0
229 146 271 188 249 65 349 324 276 415 418 34 73 118 189 -563 0
339 192 321 23 349 232 382 81 416 207 85 288 30 -564 0
364 227 393 397 196 368 123 64 285 83 333 47 79 404 -565 0
227 146 279 237 140 172 310 62 57 30 358 11 3 253 25 408 132 416 -566 0
2 344 386 243 261 252 271 125 46 34 111 85 298 141 306 173 146 -567 0
313 178 279 140 199 409 100 297 336 94 232 -568 0
313 360 295 142 211 47 130 76 34 99 320 106 85 286 -569 0
329 226 197 262 227 160 306 138 113 242 202 344 347 117 -570 0
382 301 205 264 256 154 139 50 4 208 9 21 15 393 96 -571 0
403 226 124 296 180 139 99 300 366 353 233 286 -572 0
21 228 273 83 150 110 95 92 100 346 113 304 12 177 22 130 127 51 -573 0
254 234 167 349 128 120 202 284 204 16 207 379 -574 0
384 213 187 214 310 65 156 19 56 78 48 -575 0
336 390 328 283 409 212 114 35 395 270 407 -576 0
213 259 359 152 207 110 334 412 293 46 206 302 298 401 97 351 -577 0
408 324 334 356 369 215 230 306 185 111 276 165 216 -578 0
379 187 393 362 387 262 319 225 354 282 51 295 47 404 -579 0
393 232 235 158 168 165 212 96 69 154 171 32 230 27 402 300 356 329 -580 0
401 210 394 314 253 22 380 87 70 285 361 18 15 355 53 98 -581 0
386 374 329 226 396 261 197 125 405 139 152 210 236 134 407 -582 0
264 145 259 185 301 334 411 206 202 59 42 229 24 232 -583 0
366 337 314 274 69 206 413 126 113 99 408 291 298 71 -584 0
254 317 136 364 77 356 100 13 93 10 357 42 -585 0
396 255 367 124 245 319 116 107 180 144 106 85 286 352 289 35 329 22 -586 0
399 382 279 321 181 370 64 206 96 122 89 16 17 392 -587 0
405 385 266 335 367 348 307 115 81 72 288 392 328 231 -588 0
33 -589 0
358 204 217 158 140 72 118 61 304 144 163 79 417 31 -590 0
260 226 418 261 137 322 205 287 170 3 -591 0
401 181 294 288 285 113 138 325 139 240 85 396 307 258 -592 0
344 335 145 368 242 363 384 376 39 54 55 10 24 154 324 159 -593 0
260 112 268 416 159 111 135 59 54 335 88 418 383 192 83 298 290 367 232 -594 0
277 244 335 155 371 232 90 169 165 147 17 311 181 -595 0
384 327 275 270 285 -596 0
338 347 213 392 278 358 65 43 47 206 188 418 242 79 367 -597 0
332 358 200 301 217 124 63 70 -598 0
312 380 403 313 370 281 236 309 58 182 259 67 9 91 257 -599 0
22 382 187 237 371 87 240 337 156 93 139 135 18 70 172 298 -600 0
347 393 396 187 357 314 133 224 233 414 76 54 59 53 271 401 26 -601 0
124 75 109 11 58 108 100 277 333 -602 0
273 410 202 292 130 219 13 158 237 168 159 -603 0
341 392 129 347 362 244 207 201 344 401 114 115 211 107 54 318 103 -604 0
337 269 228 237 200 77 322 341 122 38 367 26 190 414 384 -605 0
157 77 175 411 71 32 398 335 61 364 263 368 229 -606 0
7 398 263 226 370 88 124 34 197 300 180 381 414 67 -607 0
353 299 221 371 340 235 31 396 67 254 42 286 9 330 268 302 385 -608 0
221 396 218 161 220 202 413 139 135 333 32 408 259 402 126 -609 0
257 248 371 196 270 410 167 289 191 24 88 -610 0
299 225 221 397 251 370 284 118 164 161 338 66 202 165 286 -611 0
327 282 294 251 336 244 342 70 404 154 2 212 106 178 157 412 96 285 220 -612 0
197 296 322 262 70 392 92 267 34 268 284 398 98 109 90 4 -613 0
398 382 385 333 291 299 371 249 21 221 136 124 3 251 186 404 87 85 223 20 -614 0
213 362 355 75 131 191 36 48 41 387 45 203 2 -615 0
337 332 334 228 283 192 182 259 317 285 281 31 99 345 77 148 241 20 343 109 92 227 -616 0
177 240 72 128 59 53 415 9 381 200 250 4 -617 0
217 173 304 309 363 195 67 113 92 122 11 129 -618 0
298 393 136 278 233 152 35 89 92 327 52 394 39 -619 0
339 174 314 184 291 67 117 186 46 141 269 204 152 362 338 -620 0
340 312 243 373 214 353 27 313 184 93 175 409 39 57 -621 0
308 284 197 167 81 84 172 102 -622 0
362 200 163 68 266 184 144 103 151 24 7 8 -623 0
326 157 118 150 148 104 372 375 333 -624 0
400 376 343 326 169 385 232 153 414 234 202 104 -625 0
369 357 251 367 286 182 406 111 138 58 96 389 -626 0
234 352 170 302 192 242 60 412 46 32 87 380 -627 0
7 406 308 299 202 55 15 80 75 246 60 76 111 397 405 45 -628 0
397 313 361 245 219 120 66 92 180 56 32 226 106 352 217 165 -629 0
251 219 171 319 92 284 368 41 349 55 36 133 391 160 -630 0
4 272 185 265 301 321 149 302 140 293 -631 0
339 304 391 215 398 137 180 299 168 40 128 140 111 -632 0
226 396 394 207 158 12 245 327 -633 0
163 136 355 262 300 239 188 266 315 414 291 4 406 260 -634 0
404 344 251 237 279 150 73 209 325 187 57 398 388 60 -635 0
222 170 268 310 129 215 298 116 10 107 -636 0
266 -637 0
296 307 329 61 11 226 377 242 212 -638 0
370 358 237 309 388 180 17 -639 0
384 369 325 197 305 117 205 202 34 235 106 400 11 4 25 -640 0
373 152 256 409 209 8 302 305 259 143 27 -641 0
389 348 361 178 110 122 66 120 211 36 242 229 184 305 -642 0
4 384 23 22 49 393 313 322 192 113 347 201 85 -643 0
337 367 213 222 197 229 209 412 255 399 -644 0
375 366 386 348 322 412 343 165 73 -645 0
408 28 166 386 390 119 211 293 186 220 48 317 143 414 73 -646 0
264 221 275 178 149 215 122 14 319 139 299 47 -647 0
404 350 257 377 244 204 65 206 231 66 354 418 254 375 53 271 -648 0
2 22 362 130 363 352 183 134 364 205 220 37 -649 0
344 326 348 240 314 90 141 82 17 327 -650 0
221 335 152 185 117 247 13 89 48 286 -651 0
280 335 270 238 414 80 113 340 60 47 315 301 -652 0
272 397 173 304 353 62 292 218 21 104 356 245 13 -653 0
333 370 25 17 200 349 416 186 22 315 282 391 402 351 143 -654 0
331 337 403 287 135 35 42 93 91 386 -655 0
287 354 149 314 118 245 266 366 277 57 98 60 2 239 -656 0
251 189 223 250 39 134 11 393 151 125 96 354 353 289 180 -657 0
5 283 295 178 322 399 2 210 29 417 227 345 -658 0
362 314 136 315 116 128 409 306 265 80 199 137 407 370 -659 0
339 348 194 359 67 235 305 89 105 22 375 145 411 -660 0
408 398 387 403 361 25 305 35 5 154 96 248 386 86 -661 0
21 254 228 210 279 79 156 166 127 378 95 73 12 98 108 106 -662 0
260 142 267 201 77 300 34 400 229 71 343 81 289 147 -663 0
370 170 74 289 202 66 114 413 382 347 124 38 418 379 -664 0
7 386 345 339 326 349 134 53 78 47 34 89 92 51 114 332 216 -665 0
22 280 177 375 382 279 211 137 84 87 107 179 256 59 124 80 25 19 372 -666 0
266 219 42 -667 0
304 171 387 150 398 123 99 19 364 408 128 58 54 284 -668 0
342 247 230 275 170 292 253 121 270 13 197 413 165 11 272 -669 0
264 349 106 406 155 371 84 146 255 340 151 269 22 66 -670 0
257 218 170 174 387 208 303 236 188 417 9 79 229 315 122 141 167 6 10 -671 0
405 404 388 295 361 356 307 140 362 32 170 31 -672 0
401 382 139 56 97 305 108 98 205 113 92 -673 0
210 240 33 255 96 286 191 320 383 408 -674 0
8 26 239 403 185 290 275 231 74 262 146 289 67 333 108 -675 0
6 280 263 257 261 396 305 268 253 174 150 41 233 191 307 189 -676 0
377 350 247 192 339 374 157 90 222 143 119 137 100 177 8 7 -677 0
6 316 387 214 344 361 199 298 17 175 242 286 72 86 -678 0
364 272 394 255 22 232 122 353 83 302 90 43 -679 0
175 368 34 362 82 70 42 182 105 77 396 405 -680 0
221 110 225 194 133 274 175 24 72 157 73 135 165 313 177 209 -681 0
269 89 195 270 228 349 113 124 299 406 110 -682 0
277 225 181 182 185 140 79 372 163 16 4 321 397 294 63 169 -683 0
-684 0
288 134 305 180 43 106 206 4 249 -685 0
389 299 387 289 75 18 120 95 85 101 30 356 230 113 -686 0
405 205 180 372 41 288 370 176 271 -687 0
24 374 308 225 292 349 239 412 203 205 253 129 -688 0
226 218 178 348 176 161 276 310 211 73 71 388 -689 0
405 377 338 280 263 332 317 189 258 334 284 173 297 208 171 40 -690 0
401 230 124 7 75 299 54 356 90 99 74 77 141 -691 0
332 276 335 207 370 190 39 415 74 7 -692 0
331 193 65 256 123 90 67 203 116 308 296 184 11 -693 0
309 394 83 152 223 68 317 62 106 372 75 54 -694 0
272 186 203 317 258 231 368 19 197 115 249 363 279 -695 0
227 400 287 204 146 403 174 35 42 412 22 51 269 -696 0
358 255 187 195 324 47 410 180 398 13 -697 0
366 323 227 118 121 194 125 286 119 300 56 33 117 135 187 85 -698 0
386 364 278 115 128 256 414 16 351 160 25 267 22 161 -699 0
386 385 264 394 281 124 363 81 34 208 173 418 268 415 237 147 -700 0
295 267 65 265 69 147 99 67 17 84 148 76 -701 0
248 359 281 218 219 167 212 77 26 56 17 51 412 -702 0
172 22 148 209 280 18 226 260 412 169 46 383 80 -703 0
342 338 193 136 322 134 215 205 34 52 53 -704 0
367 341 304 348 123 103 362 138 258 51 227 128 310 -705 0
348 257 304 351 363 312 220 301 211 375 404 -706 0
142 112 158 124 202 106 351 42 347 8 5 -707 0
379 393 389 133 161 123 206 87 205 141 208 -708 0
374 9 317 356 219 302 282 191 79 129 98 240 44 138 -709 0
369 402 146 27 224 413 168 46 245 161 53 4 150 37 -710 0
177 341 271 208 68 385 5 132 56 391 104 399 167 307 52 -711 0
378 282 273 119 215 255 336 189 219 208 49 164 237 240 152 139 104 -712 0
383 265 39 238 208 183 193 400 405 165 15 201 -713 0
327 260 181 313 258 301 84 284 229 239 95 19 138 -714 0
358 387 258 157 308 61 109 154 15 19 322 120 84 348 267 188 388 243 -715 0
308 312 248 213 63 12 -716 0
266 347 65 75 276 283 184 61 31 245 209 220 79 179 39 51 -717 0
304 223 417 190 105 239 233 320 165 32 286 308 2 9 -718 0
340 294 240 290 275 306 132 116 164 292 134 189 329 400 154 391 27 388 341 257 -719 0
339 341 359 200 185 66 84 87 33 48 182 337 -720 0
372 337 387 352 345 318 77 368 253 184 289 40 143 132 120 106 16 122 -721 0
312 317 393 183 164 67 109 391 305 212 -722 0
342 345 295 222 251 319 39 44 108 15 409 8 87 289 -723 0
345 160 241 312 179 224 199 308 357 372 96 343 218 65 -724 0
1 187 313 352 346 259 63 284 391 309 136 377 -725 0
374 329 371 129 302 20 199 76 372 407 34 67 376 160 -726 0
335 295 142 296 412 144 376 94 314 194 -727 0
332 275 269 97 179 30 148 142 200 90 346 -728 0
284 235 64 66 167 216 173 397 414 30 86 322 294 209 418 144 -729 0
403 263 260 129 31 174 269 -730 0
4 383 303 263 173 200 65 329 33 59 67 68 414 -731 0
373 112 214 205 77 398 188 8 180 -732 0
396 133 265 215 205 78 67 54 254 312 373 412 364 400 257 -733 0
169 371 118 68 87 11 220 229 36 184 35 406 154 -734 0
25 266 193 387 313 223 265 85 349 46 -735 0
348 345 392 181 313 270 344 66 302 248 233 141 188 58 140 168 187 25 399 166 34 -736 0
334 295 112 276 228 76 86 409 144 111 161 381 266 299 269 -737 0
398 299 396 263 284 219 44 300 359 363 146 95 411 59 401 393 -738 0
320 185 358 243 275 405 121 207 31 103 34 197 -739 0
342 387 325 287 252 296 305 152 139 129 253 383 -740 0
335 349 368 301 308 307 412 367 132 120 49 137 226 415 -741 0
374 376 169 278 371 267 329 249 413 225 417 90 188 117 -742 0
338 370 278 255 70 350 97 69 140 208 383 -743 0
376 345 4 245 65 225 132 95 417 89 -744 0
357 118 115 127 178 262 248 1 120 412 154 131 96 -745 0
286 354 245 256 409 25 411 156 39 110 238 105 -746 0
228 213 263 148 221 182 70 167 85 409 50 -747 0
254 340 113 77 256 75 239 218 105 58 246 372 -748 0
4 1 384 254 285 341 214 126 127 60 137 150 107 135 37 173 -749 0
218 291 305 205 413 363 137 67 154 141 400 335 237 53 -750 0
384 347 323 312 379 330 142 175 318 -751 0
4 312 330 262 224 26 322 302 153 154 161 143 36 51 -752 0
404 1 210 228 341 334 122 232 99 -753 0
318 72 53 112 216 277 229 107 28 17 -754 0
7 325 160 295 305 145 180 164 302 38 122 68 174 -755 0
22 376 353 222 274 161 224 417 156 166 220 168 -756 0
129 231 62 303 330 99 362 202 178 155 163 80 187 327 -757 0
398 388 366 280 354 18 234 64 208 157 149 417 302 141 180 -758 0
251 317 309 223 256 93 30 49 100 244 106 -759 0
399 384 275 218 178 288 81 264 120 184 208 -760 0
266 -761 0
329 389 115 292 296 142 159 110 90 153 87 -762 0
3 74 218 184 38 85 233 308 28 282 336 -763 0
197 305 80 345 357 198 116 409 34 224 335 113 57 96 10 199 114 -764 0
380 126 210 277 328 289 180 105 141 151 82 27 -765 0
399 383 266 336 265 132 238 128 90 57 352 402 171 -766 0
136 200 77 143 418 411 46 71 383 16 277 -767 0
348 236 279 100 62 72 297 188 411 42 165 19 309 159 -768 0
3 299 393 318 80 347 410 131 336 325 174 216 75 150 -769 0
333 332 321 71 72 229 165 110 154 98 190 312 307 401 44 -770 0
327 395 336 328 200 234 300 323 102 220 -771 0
9 339 217 366 281 171 229 149 141 151 153 178 28 -772 0
369 390 309 92 33 148 293 90 404 141 180 138 -773 0
377 247 118 15 204 78 96 180 302 165 304 175 94 46 150 -774 0
10 217 321 1 234 174 65 284 105 89 158 40 169 273 91 117 -775 0
228 397 208 234 108 163 351 -776 0
347 210 86 94 246 413 334 258 8 127 -777 0
383 357 392 324 127 364 208 81 150 172 11 415 15 97 330 -778 0
347 348 173 356 305 71 68 211 122 416 180 172 111 270 9 159 256 -779 0
9 257 326 287 399 211 238 107 336 59 144 44 23 57 -780 0
374 269 341 213 170 156 256 224 25 186 42 322 -781 0
386 383 270 124 297 74 327 128 322 178 202 134 104 141 -782 0
325 125 369 83 66 127 157 81 205 90 40 199 321 371 59 -783 0
27 28 343 403 350 313 262 111 84 24 188 132 412 276 -784 0
344 323 334 205 274 366 122 203 147 311 191 416 20 135 368 -785 0
280 336 309 234 75 38 180 52 27 242 324 414 -786 0
325 243 230 336 328 113 206 166 178 305 409 342 -787 0
387 185 157 309 341 164 82 -788 0
257 354 237 400 205 249 355 85 39 41 284 90 277 333 -789 0
10 8 281 388 30 143 106 64 19 -790 0
7 353 264 62 311 408 191 195 275 237 174 -791 0
358 259 145 320 90 297 107 82 -792 0
227 228 209 34 287 201 318 326 140 188 69 93 78 -793 0
7 59 404 281 231 363 13 141 339 336 -794 0
391 290 157 360 204 80 356 231 414 147 99 403 -795 0
333 388 84 127 213 72 341 38 135 401 151 415 85 146 58 -796 0
364 316 303 282 227 229 317 116 108 242 363 -797 0
1 393 200 27 230 324 59 323 70 188 319 209 212 99 154 76 224 321 -798 0
382 24 350 242 273 127 171 84 109 349 362 234 11 98 -799 0
325 227 169 18 174 329 29 5 114 232 -800 0
377 325 333 181 352 364 308 249 265 334 177 147 48 418 354 -801 0
363 390 372 378 62 74 401 133 192 49 -802 0
383 210 29 237 412 396 75 401 117 107 154 318 51 -803 0
24 255 116 215 306 245 58 122 53 169 95 96 -804 0
376 326 170 317 262 205 238 128 191 234 362 385 54 -805 0
189 208 274 275 324 29 120 295 413 418 88 102 36 39 -806 0
374 308 390 260 367 362 368 80 152 140 224 99 41 32 178 -807 0
225 207 190 113 189 306 246 12 212 169 122 200 409 -808 0
4 384 286 379 209 341 71 339 239 73 43 -809 0
4 6 379 348 264 269 178 213 128 242 280 169 67 369 -810 0
400 371 17 47 114 121 288 66 -811 0
283 133 284 68 268 164 114 414 305 310 208 42 143 401 -812 0
396 252 124 297 285 129 38 151 370 139 183 106 242 255 54 76 135 364 -813 0
369 70 306 90 88 53 315 52 39 67 36 2 -814 0
345 338 261 240 86 83 288 85 337 374 26 -815 0
400 408 397 330 339 278 252 204 91 -816 0
6 398 374 349 119 261 345 207 274 236 186 215 343 145 179 214 23 163 -817 0
217 281 204 134 131 87 188 120 308 58 288 364 -818 0
331 353 398 295 137 82 157 93 315 89 106 -819 0
21 380 323 290 277 273 29 410 245 141 209 17 155 32 -820 0
9 385 350 251 335 347 115 215 66 339 188 168 268 102 126 338 -821 0
186 364 283 359 271 235 97 335 108 308 -822 0
383 376 353 260 394 190 402 302 230 285 108 259 59 -823 0
389 272 185 118 71 6 14 93 108 376 73 49 59 139 -824 0
28 27 378 354 385 87 288 415 67 172 284 332 249 -825 0
26 154 178 9 414 31 61 40 -826 0
399 384 269 270 255 249 372 128 239 -827 0
8 401 165 336 330 252 348 126 407 286 153 220 80 119 -828 0
415 135 410 24 379 320 260 343 194 180 156 -829 0
15 50 30 234 191 308 216 309 170 287 81 -830 0
94 35 163 23 338 404 260 232 339 297 302 125 54 284 -831 0
102 39 315 223 347 391 194 365 306 277 28 204 -832 0
411 70 331 290 392 167 214 136 174 252 153 18 377 66 182 -833 0
108 85 30 2 379 233 204 388 236 177 84 302 284 281 164 166 220 78 188 -834 0
19 366 321 268 256 226 160 202 150 113 -835 0
46 21 324 386 28 231 97 68 60 157 -836 0
-1 673 0
-1 689 0
-1 466 0
-1 768 0
-1 731 0
-1 772 0
-1 810 0
-1 754 0
-1 422 0
-2 622 0
-2 502 0
-2 561 0
-2 584 0
-2 424 0
-2 444 0
-2 581 0
-2 727 0
-2 825 0
-2 799 0
-2 776 0
-2 772 0
-3 697 0
-3 620 0
-3 568 0
-3 481 0
-3 665 0
-3 459 0
-3 732 0
-3 424 0
-3 793 0
-3 756 0
-3 420 0
-4 701 0
-4 637 0
-4 656 0
-4 664 0
-4 431 0
-4 599 0
-4 747 0
-4 799 0
-4 815 0
-5 834 0
-5 523 0
-5 747 0
-5 468 0
-5 616 0
-5 527 0
-5 572 0
-5 428 0
-5 803 0
-5 576 0
-5 717 0
-5 687 0
-5 644 0
-5 695 0
-5 830 0
-5 504 0
-6 622 0
-6 563 0
-6 496 0
-6 827 0
-6 791 0
-6 796 0
-6 695 0
-6 815 0
-6 785 0
-6 621 0
-7 626 0
-7 736 0
-7 667 0
-7 505 0
-7 564 0
-7 660 0
-7 525 0
-7 696 0
-7 802 0
-7 682 0
-7 807 0
-7 800 0
-8 789 0
-8 620 0
-8 737 0
-8 602 0
-8 523 0
-8 424 0
-8 475 0
-8 771 0
-8 682 0
-8 419 0
-8 468 0
-8 687 0
-8 812 0
-8 822 0
-9 564 0
-9 478 0
-9 722 0
-9 520 0
-9 438 0
-9 423 0
-9 562 0
-9 563 0
-10 528 0
-10 676 0
-10 830 0
-10 509 0
-10 453 0
-10 433 0
-10 603 0
-10 435 0
-10 716 0
-10 446 0
-11 681 0
-11 699 0
-11 601 0
-11 629 0
-11 590 0
-11 562 0
-11 619 0
-11 721 0
-11 439 0
-11 525 0
-12 708 0
-12 688 0
-12 672 0
-12 483 0
-12 724 0
-12 685 0
-12 572 0
-12 658 0
-12 575 0
-12 421 0
-12 824 0
-12 818 0
-12 459 0
-13 791 0
-13 582 0
-13 724 0
-13 507 0
-13 586 0
-13 713 0
-13 599 0
-13 478 0
-13 433 0
-13 831 0
-13 444 0
-13 797 0
-13 424 0
-14 673 0
-14 753 0
-14 689 0
-14 658 0
-14 781 0
-14 483 0
-14 706 0
-14 642 0
-14 469 0
-14 746 0
-14 765 0
-14 497 0
-14 810 0
-14 553 0
-14 794 0
-14 554 0
-14 440 0
-14 692 0
-15 665 0
-15 788 0
-15 514 0
-15 499 0
-15 751 0
-15 836 0
-15 481 0
-15 770 0
-16 678 0
-16 776 0
-16 591 0
-16 674 0
-16 592 0
-16 732 0
-16 620 0
-16 595 0
-16 784 0
-16 829 0
-16 461 0
-16 792 0
-16 421 0
-16 605 0
-17 681 0
-17 752 0
-17 544 0
-17 525 0
-17 651 0
-17 713 0
-17 765 0
-17 809 0
-17 792 0
-17 761 0
-17 487 0
-18 766 0
-18 791 0
-18 504 0
-18 501 0
-18 693 0
-18 523 0
-18 556 0
-18 421 0
-18 601 0
-18 464 0
-18 756 0
-18 749 0
-18 428 0
-19 640 0
-19 773 0
-19 788 0
-19 633 0
-19 576 0
-19 449 0
-19 663 0
-19 547 0
-19 664 0
-19 822 0
-19 786 0
-19 460 0
-20 507 0
-20 471 0
-20 565 0
-20 518 0
-20 586 0
-20 466 0
-20 739 0
-20 558 0
-20 819 0
-20 500 0
-20 771 0
-21 649 0
-21 504 0
-21 619 0
-21 663 0
-21 499 0
-21 753 0
-21 762 0
-21 595 0
-21 823 0
-21 528 0
-21 708 0
-21 648 0
-21 474 0
-21 769 0
-22 618 0
-22 486 0
-22 540 0
-22 619 0
-22 511 0
-22 506 0
-22 795 0
-22 836 0
-22 661 0
-22 541 0
-22 685 0
-22 704 0
-22 828 0
-22 766 0
-23 777 0
-23 536 0
-23 786 0
-23 568 0
-23 570 0
-23 526 0
-23 509 0
-23 510 0
-23 450 0
-23 503 0
-23 782 0
-23 691 0
-23 829 0
-23 684 0
-23 607 0
-23 791 0
-24 588 0
-24 773 0
-24 598 0
-24 827 0
-24 830 0
-24 497 0
-24 516 0
-24 645 0
-24 823 0
-24 439 0
-24 555 0
-24 795 0
-24 778 0
-24 753 0
-25 658 0
-25 613 0
-25 685 0
-25 490 0
-25 664 0
-25 651 0
-25 465 0
-25 569 0
-25 434 0
-25 776 0
-25 680 0
-25 784 0
-26 530 0
-26 655 0
-26 523 0
-26 609 0
-26 569 0
-26 635 0
-26 514 0
-26 828 0
-26 709 0
-26 437 0
-26 554 0
-26 428 0
-26 645 0
-26 647 0
-27 570 0
-27 523 0
-27 550 0
-27 657 0
-27 773 0
-27 500 0
-27 592 0
-27 647 0
-27 611 0
-27 717 0
-27 558 0
-28 705 0
-28 666 0
-28 789 0
-28 694 0
-28 613 0
-28 502 0
-28 582 0
-28 571 0
-28 436 0
-28 526 0
-28 425 0
-28 614 0
-28 610 0
-28 696 0
-28 708 0
-28 460 0
-29 669 0
-29 625 0
-29 549 0
-29 634 0
-29 478 0
-29 582 0
-29 577 0
-29 531 0
-29 541 0
-29 748 0
-29 460 0
-29 419 0
-29 426 0
-30 661 0
-30 607 0
-30 740 0
-30 574 0
-30 637 0
-30 631 0
-30 774 0
-30 770 0
-30 741 0
-30 795 0
-30 616 0
-30 717 0
-31 797 0
-31 646 0
-31 692 0
-31 640 0
-31 623 0
-31 568 0
-31 499 0
-31 423 0
-31 522 0
-31 649 0
-31 429 0
-31 793 0
-31 752 0
-31 527 0
-32 763 0
-32 533 0
-32 773 0
-32 504 0
-32 561 0
-32 656 0
-32 578 0
-32 792 0
-32 460 0
-32 457 0
-32 425 0
-32 601 0
-32 467 0
-32 758 0
-33 684 0
-34 758 0
-34 682 0
-34 776 0
-34 774 0
-34 719 0
-34 501 0
-34 461 0
-34 588 0
-34 475 0
-34 730 0
-34 691 0
-35 807 0
-35 673 0
-35 649 0
-35 722 0
-35 821 0
-35 542 0
-35 593 0
-35 419 0
-35 583 0
-35 526 0
-35 488 0
-35 536 0
-35 627 0
-35 480 0
-35 659 0
-36 797 0
-36 652 0
-36 596 0
-36 774 0
-36 786 0
-36 502 0
-36 527 0
-36 566 0
-36 827 0
-36 509 0
-36 470 0
-36 453 0
-36 552 0
-36 792 0
-36 722 0
-37 625 0
-37 619 0
-37 613 0
-37 545 0
-37 517 0
-37 540 0
-37 487 0
-37 562 0
-37 465 0
-37 731 0
-37 607 0
-37 674 0
-37 747 0
-37 824 0
-37 804 0
-37 683 0
-38 678 0
-38 682 0
-38 595 0
-38 789 0
-38 626 0
-38 659 0
-38 616 0
-38 617 0
-38 527 0
-38 583 0
-38 547 0
-38 439 0
-38 698 0
-38 751 0
-38 426 0
-38 473 0
-39 589 0
-39 482 0
-39 590 0
-39 785 0
-39 469 0
-39 792 0
-39 747 0
-39 799 0
-39 652 0
-39 441 0
-39 425 0
-40 749 0
-40 607 0
-40 567 0
-40 498 0
-40 433 0
-40 744 0
-40 586 0
-40 485 0
-40 685 0
-40 520 0
-40 656 0
-40 657 0
-40 459 0
-40 536 0
-40 643 0
-40 651 0
-41 770 0
-41 692 0
-41 663 0
-41 502 0
-41 833 0
-41 652 0
-41 611 0
-41 617 0
-41 816 0
-41 624 0
-41 531 0
-43 797 0
-43 712 0
-43 804 0
-43 469 0
-43 568 0
-43 511 0
-43 741 0
-43 593 0
-43 625 0
-43 477 0
-43 468 0
-43 423 0
-44 661 0
-44 644 0
-44 727 0
-44 692 0
-44 482 0
-44 588 0
-44 572 0
-44 541 0
-44 433 0
-44 763 0
-44 428 0
-44 477 0
-44 516 0
-44 748 0
-44 744 0
-44 548 0
-45 672 0
-45 607 0
-45 782 0
-45 652 0
-45 701 0
-45 823 0
-45 521 0
-45 446 0
-45 816 0
-45 818 0
-45 431 0
-45 712 0
-45 457 0
-45 659 0
-45 429 0
-45 460 0
-45 805 0
-45 520 0
-45 745 0
-46 658 0
-46 619 0
-46 813 0
-46 515 0
-46 827 0
-46 538 0
-46 716 0
-46 741 0
-46 508 0
-47 672 0
-47 604 0
-47 595 0
-47 578 0
-47 779 0
-47 825 0
-47 793 0
-47 633 0
-47 641 0
-47 689 0
-47 563 0
-47 630 0
-47 454 0
-47 801 0
-47 745 0
-48 661 0
-48 548 0
-48 480 0
-48 735 0
-48 641 0
-48 744 0
-48 623 0
-48 546 0
-48 497 0
-48 583 0
-48 772 0
-48 755 0
-49 672 0
-49 539 0
-49 710 0
-49 736 0
-49 453 0
-49 803 0
-49 460 0
-49 619 0
-49 658 0
-49 800 0
-49 463 0
-50 682 0
-50 693 0
-50 531 0
-50 663 0
-50 620 0
-50 788 0
-50 786 0
-50 463 0
-50 768 0
-50 703 0
-50 499 0
-50 475 0
-50 718 0
-50 752 0
-50 596 0
-50 804 0
-51 597 0
-51 622 0
-51 483 0
-51 624 0
-51 481 0
-51 725 0
-51 436 0
-51 626 0
-51 468 0
-51 427 0
-52 791 0
-52 811 0
-52 504 0
-52 492 0
-52 633 0
-52 751 0
-52 784 0
-52 562 0
-52 737 0
-52 642 0
-52 480 0
-52 800 0
-52 816 0
-52 427 0
-52 485 0
-53 688 0
-53 564 0
-53 777 0
-53 638 0
-53 494 0
-53 592 0
-53 764 0
-53 427 0
-53 732 0
-54 670 0
-54 596 0
-54 564 0
-54 619 0
-54 492 0
-54 667 0
-54 757 0
-54 556 0
-54 811 0
-54 506 0
-54 466 0
-54 815 0
-54 715 0
-54 592 0
-54 461 0
-54 464 0
-55 595 0
-55 791 0
-55 636 0
-55 589 0
-55 492 0
-55 531 0
-55 663 0
-55 481 0
-55 640 0
-55 465 0
-55 609 0
-55 467 0
-55 729 0
-55 816 0
-55 460 0
-55 834 0
-55 563 0
-55 761 0
-55 799 0
-56 680 0
-56 674 0
-56 636 0
-56 754 0
-56 482 0
-56 641 0
-56 656 0
-56 724 0
-56 715 0
-56 657 0
-56 692 0
-56 475 0
-56 479 0
-56 653 0
-56 562 0
-56 610 0
-56 777 0
-56 823 0
-56 790 0
-57 495 0
-57 582 0
-57 711 0
-57 802 0
-57 655 0
-57 462 0
-57 626 0
-57 500 0
-57 425 0
-57 784 0
-57 803 0
-58 669 0
-58 778 0
-58 777 0
-58 774 0
-58 830 0
-58 451 0
-58 499 0
-58 517 0
-58 521 0
-58 663 0
-58 758 0
-58 735 0
-58 797 0
-58 523 0
-58 480 0
-58 541 0
-59 680 0
-59 564 0
-59 614 0
-59 502 0
-59 598 0
-59 454 0
-59 459 0
-59 542 0
-59 747 0
-59 531 0
-59 667 0
-59 792 0
-60 802 0
-60 704 0
-60 732 0
-60 606 0
-60 657 0
-60 632 0
-60 795 0
-60 506 0
-60 592 0
-60 562 0
-60 626 0
-61 785 0
-61 511 0
-61 634 0
-61 441 0
-61 694 0
-61 538 0
-61 522 0
-61 488 0
-61 749 0
-61 471 0
-61 464 0
-61 523 0
-61 804 0
-62 425 0
-62 682 0
-62 554 0
-62 671 0
-62 626 0
-62 666 0
-62 513 0
-62 709 0
-62 475 0
-62 680 0
-63 771 0
-63 744 0
-63 709 0
-63 462 0
-63 571 0
-63 593 0
-63 784 0
-63 552 0
-63 437 0
-63 445 0
-63 812 0
-63 426 0
-64 751 0
-64 780 0
-64 655 0
-64 548 0
-64 730 0
-64 706 0
-64 493 0
-64 509 0
-64 522 0
-64 836 0
-64 514 0
-64 511 0
-65 804 0
-65 738 0
-65 689 0
-65 772 0
-65 519 0
-65 660 0
-65 739 0
-65 723 0
-65 809 0
-65 667 0
-65 829 0
-65 728 0
-65 447 0
-65 516 0
-66 734 0
-66 759 0
-66 681 0
-66 756 0
-66 686 0
-66 531 0
-66 627 0
-66 501 0
-66 434 0
-66 512 0
-66 710 0
-66 818 0
-67 744 0
-67 551 0
-67 666 0
-67 549 0
-67 523 0
-67 517 0
-67 664 0
-67 742 0
-67 711 0
-67 454 0
-68 730 0
-68 591 0
-68 782 0
-68 689 0
-68 660 0
-68 447 0
-68 514 0
-68 573 0
-68 792 0
-68 770 0
-68 653 0
-69 716 0
-69 699 0
-69 677 0
-69 714 0
-69 732 0
-69 782 0
-69 572 0
-69 602 0
-69 622 0
-69 784 0
-69 823 0
-69 822 0
-70 692 0
-70 623 0
-70 619 0
-70 585 0
-70 529 0
-70 524 0
-70 454 0
-70 450 0
-70 504 0
-70 788 0
-70 794 0
-70 607 0
-71 442 0
-71 754 0
-71 769 0
-71 763 0
-71 776 0
-71 777 0
-71 653 0
-71 465 0
-71 506 0
-71 678 0
-71 564 0
-71 619 0
-72 721 0
-72 695 0
-72 743 0
-72 748 0
-72 814 0
-72 709 0
-72 553 0
-72 751 0
-72 707 0
-72 478 0
-72 660 0
-72 654 0
-72 572 0
-72 455 0
-72 801 0
-72 818 0
-72 718 0
-72 426 0
-72 611 0
-73 632 0
-73 554 0
-73 654 0
-73 572 0
-73 556 0
-73 651 0
-73 836 0
-73 715 0
-73 581 0
-73 701 0
-73 530 0
-73 803 0
-73 734 0
-73 475 0
-74 820 0
-74 712 0
-74 776 0
-74 478 0
-74 456 0
-74 466 0
-74 514 0
-74 545 0
-74 757 0
-75 775 0
-75 681 0
-75 701 0
-75 648 0
-75 720 0
-75 531 0
-75 515 0
-75 677 0
-75 524 0
-75 583 0
-75 819 0
-75 670 0
-75 782 0
-75 421 0
-75 598 0
-76 603 0
-76 611 0
-76 581 0
-76 780 0
-76 740 0
-76 827 0
-76 522 0
-76 535 0
-76 704 0
-76 697 0
-76 769 0
-76 835 0
-76 425 0
-76 826 0
-76 717 0
-77 817 0
-77 772 0
-77 832 0
-77 637 0
-77 534 0
-77 496 0
-77 651 0
-77 447 0
-77 506 0
-77 437 0
-77 435 0
-77 460 0
-77 593 0
-77 742 0
-78 692 0
-78 650 0
-78 805 0
-78 803 0
-78 745 0
-78 832 0
-78 613 0
-78 476 0
-78 736 0
-78 569 0
-78 420 0
-79 748 0
-79 544 0
-79 639 0
-79 653 0
-79 710 0
-79 703 0
-79 598 0
-79 429 0
-79 459 0
-79 741 0
-79 799 0
-79 419 0
-79 828 0
-79 658 0
-80 783 0
-80 784 0
-80 704 0
-80 759 0
-80 814 0
-80 734 0
-80 727 0
-80 476 0
-80 589 0
-80 723 0
-80 702 0
-80 558 0
-80 520 0
-80 831 0
-80 447 0
-80 441 0
-80 733 0
-80 467 0
-80 719 0
-80 596 0
-81 730 0
-81 770 0
-81 650 0
-81 787 0
-81 515 0
-81 834 0
-81 705 0
-81 556 0
-81 590 0
-81 632 0
-81 528 0
-81 742 0
-81 823 0
-82 648 0
-82 718 0
-82 725 0
-82 740 0
-82 485 0
-82 510 0
-82 432 0
-82 471 0
-82 818 0
-82 701 0
-82 661 0
-82 609 0
-82 784 0
-83 676 0
-83 797 0
-83 755 0
-83 666 0
-83 424 0
-83 705 0
-83 623 0
-83 633 0
-83 555 0
-83 743 0
-83 526 0
-83 696 0
-84 730 0
-84 692 0
-84 564 0
-84 779 0
-84 634 0
-84 836 0
-84 451 0
-84 551 0
-84 595 0
-84 614 0
-85 464 0
-85 733 0
-85 794 0
-85 526 0
-85 609 0
-85 433 0
-85 708 0
-86 603 0
-86 723 0
-86 625 0
-86 575 0
-86 582 0
-86 484 0
-86 615 0
-86 532 0
-86 430 0
-86 680 0
-87 759 0
-87 678 0
-87 799 0
-87 616 0
-87 513 0
-87 490 0
-87 478 0
-87 831 0
-87 557 0
-87 588 0
-87 456 0
-87 613 0
-87 753 0
-88 785 0
-88 654 0
-88 653 0
-88 439 0
-88 566 0
-88 550 0
-88 464 0
-88 429 0
-88 532 0
-88 625 0
-88 795 0
-88 772 0
-88 452 0
-88 619 0
-89 748 0
-89 808 0
-89 578 0
-89 767 0
-89 814 0
-89 711 0
-89 432 0
-89 715 0
-89 493 0
-89 457 0
-89 433 0
-89 835 0
-89 803 0
-89 824 0
-90 685 0
-90 504 0
-90 579 0
-90 531 0
-90 540 0
-90 598 0
-90 830 0
-90 439 0
-90 518 0
-90 506 0
-90 470 0
-91 805 0
-91 596 0
-91 504 0
-91 523 0
-91 627 0
-91 617 0
-91 484 0
-91 713 0
-91 830 0
-91 638 0
-91 473 0
-91 464 0
-91 667 0
-91 791 0
-91 495 0
-91 611 0
-91 749 0
-92 747 0
-92 681 0
-92 685 0
-92 766 0
-92 489 0
-92 608 0
-92 521 0
-92 535 0
-92 733 0
-93 717 0
-93 605 0
-93 674 0
-93 533 0
-93 648 0
-93 492 0
-93 703 0
-93 502 0
-93 830 0
-93 431 0
-93 488 0
-93 658 0
-93 766 0
-93 823 0
-94 607 0
-94 603 0
-94 564 0
-94 736 0
-94 571 0
-94 829 0
-94 689 0
-94 455 0
-94 721 0
-94 602 0
-94 548 0
-94 773 0
-94 542 0
-95 605 0
-95 777 0
-95 469 0
-95 718 0
-95 727 0
-95 477 0
-95 503 0
-95 819 0
-95 428 0
-96 536 0
-96 684 0
-96 731 0
-96 622 0
-96 487 0
-96 647 0
-96 467 0
-96 832 0
-96 672 0
-97 633 0
-97 531 0
-97 537 0
-97 591 0
-97 523 0
-97 710 0
-97 701 0
-97 516 0
-97 524 0
-97 490 0
-97 835 0
-97 518 0
-97 527 0
-97 480 0
-98 744 0
-98 776 0
-98 694 0
-98 627 0
-98 725 0
-98 449 0
-98 731 0
-98 669 0
-98 729 0
-98 749 0
-99 743 0
-99 679 0
-99 673 0
-99 637 0
-99 610 0
-99 537 0
-99 492 0
-99 547 0
-99 617 0
-99 741 0
-99 553 0
-99 425 0
-99 836 0
-100 833 0
-100 536 0
-100 458 0
-100 529 0
-100 460 0
-100 743 0
-100 421 0
-100 457 0
-100 548 0
-100 738 0
-100 819 0
-100 571 0
-100 710 0
-100 630 0
-101 716 0
-101 646 0
-101 785 0
-101 655 0
-101 779 0
-101 530 0
-101 540 0
-101 470 0
-101 562 0
-101 572 0
-101 696 0
-101 818 0
-101 700 0
-101 736 0
-101 509 0
-101 652 0
-102 807 0
-102 673 0
-102 696 0
-102 735 0
-102 599 0
-102 504 0
-102 703 0
-102 486 0
-102 732 0
-102 809 0
-102 762 0
-102 457 0
-102 816 0
-102 756 0
-103 800 0
-103 587 0
-103 697 0
-103 702 0
-103 658 0
-103 686 0
-103 729 0
-103 485 0
-103 450 0
-103 452 0
-103 835 0
-103 680 0
-103 554 0
-103 791 0
-103 691 0
-104 678 0
-104 680 0
-104 581 0
-104 670 0
-104 719 0
-104 545 0
-104 443 0
-104 753 0
-104 453 0
-104 493 0
-105 614 0
-105 636 0
-105 521 0
-105 692 0
-105 598 0
-105 564 0
-105 496 0
-105 435 0
-105 606 0
-106 669 0
-106 667 0
-106 633 0
-106 602 0
-106 478 0
-106 463 0
-106 535 0
-106 464 0
-106 448 0
-106 434 0
-106 450 0
-106 513 0
-106 706 0
-107 665 0
-107 591 0
-107 603 0
-107 692 0
-107 606 0
-107 668 0
-107 651 0
-107 438 0
-107 772 0
-107 490 0
-107 674 0
-107 479 0
-107 706 0
-107 578 0
-107 645 0
-108 536 0
-108 482 0
-108 740 0
-108 629 0
-108 555 0
-108 645 0
-108 829 0
-108 722 0
-108 467 0
-108 485 0
-108 532 0
-109 675 0
-109 644 0
-109 679 0
-109 619 0
-109 561 0
-109 711 0
-109 720 0
-109 832 0
-109 789 0
-109 514 0
-109 450 0
-109 485 0
-109 472 0
-109 702 0
-109 770 0
-110 811 0
-110 674 0
-110 462 0
-110 538 0
-110 726 0
-110 722 0
-110 719 0
-110 442 0
-111 665 0
-111 635 0
-111 533 0
-111 693 0
-111 513 0
-111 499 0
-111 456 0
-111 477 0
-111 435 0
-111 731 0
-111 744 0
-111 481 0
-111 708 0
-111 422 0
-111 747 0
-112 795 0
-112 610 0
-112 584 0
-112 767 0
-112 748 0
-112 667 0
-112 659 0
-112 488 0
-112 500 0
-112 758 0
-112 475 0
-112 471 0
-112 638 0
-112 800 0
-113 708 0
-113 684 0
-113 811 0
-113 603 0
-113 692 0
-113 663 0
-113 606 0
-113 485 0
-114 739 0
-114 769 0
-114 788 0
-114 652 0
-114 596 0
-114 685 0
-114 548 0
-114 481 0
-114 784 0
-114 423 0
-114 574 0
-114 592 0
-114 781 0
-114 695 0
-115 716 0
-115 621 0
-115 643 0
-115 812 0
-115 776 0
-115 539 0
-115 504 0
-115 526 0
-115 528 0
-115 689 0
-115 470 0
-115 697 0
-115 475 0
-116 799 0
-116 542 0
-116 517 0
-116 448 0
-116 836 0
-116 828 0
-116 486 0
-116 470 0
-116 617 0
-116 595 0
-116 809 0
-116 627 0
-116 500 0
-116 631 0
-117 691 0
-117 788 0
-117 519 0
-117 829 0
-117 688 0
-117 459 0
-117 670 0
-117 489 0
-117 760 0
-117 511 0
-117 484 0
-118 788 0
-118 440 0
-118 429 0
-118 827 0
-118 509 0
-118 797 0
-118 812 0
-118 626 0
-118 462 0
-119 762 0
-119 755 0
-119 643 0
-119 591 0
-119 654 0
-119 666 0
-119 559 0
-119 737 0
-119 435 0
-119 631 0
-119 776 0
-119 802 0
-119 797 0
-119 449 0
-119 717 0
-119 590 0
-119 833 0
-120 599 0
-120 575 0
-120 540 0
-120 436 0
-120 434 0
-120 492 0
-120 534 0
-120 817 0
-120 835 0
-120 765 0
-120 743 0
-121 792 0
-121 793 0
-121 697 0
-121 588 0
-121 812 0
-121 637 0
-121 662 0
-121 543 0
-121 564 0
-121 582 0
-121 674 0
-121 530 0
-121 618 0
-121 469 0
-122 708 0
-122 658 0
-122 484 0
-122 572 0
-122 827 0
-122 426 0
-122 424 0
-123 600 0
-123 632 0
-123 576 0
-123 557 0
-123 831 0
-123 538 0
-123 507 0
-123 520 0
-123 800 0
-123 776 0
-123 753 0
-123 540 0
-123 738 0
-124 425 0
-124 802 0
-124 736 0
-124 568 0
-124 513 0
-124 508 0
-124 464 0
-124 684 0
-124 488 0
-124 786 0
-125 690 0
-125 700 0
-125 648 0
-125 713 0
-125 701 0
-125 596 0
-125 732 0
-125 628 0
-125 580 0
-125 606 0
-125 444 0
-125 523 0
-125 491 0
-125 728 0
-125 430 0
-125 720 0
-125 448 0
-125 486 0
-126 760 0
-126 812 0
-126 670 0
-126 788 0
-126 790 0
-126 622 0
-126 683 0
-126 530 0
-126 619 0
-126 711 0
-126 802 0
-126 809 0
-126 524 0
-126 556 0
-126 431 0
-126 789 0
-126 641 0
-127 826 0
-127 814 0
-127 592 0
-127 725 0
-127 536 0
-127 429 0
-127 647 0
-127 770 0
-127 623 0
-127 787 0
-127 724 0
-127 528 0
-127 636 0
-128 797 0
-128 658 0
-128 618 0
-128 551 0
-128 770 0
-128 585 0
-128 657 0
-128 660 0
-128 569 0
-128 447 0
-128 459 0
-128 486 0
-128 480 0
-128 814 0
-128 606 0
-128 670 0
-129 661 0
-129 788 0
-129 542 0
-129 694 0
-129 637 0
-129 498 0
-129 561 0
-129 733 0
-129 577 0
-129 458 0
-129 660 0
-129 642 0
-129 791 0
-129 484 0
-130 428 0
-130 801 0
-130 676 0
-130 771 0
-130 762 0
-130 633 0
-130 489 0
-130 561 0
-130 558 0
-130 429 0
-130 617 0
-130 563 0
-130 475 0
-130 426 0
-131 578 0
-131 567 0
-131 693 0
-131 598 0
-131 827 0
-131 623 0
-131 476 0
-131 665 0
-131 429 0
-131 434 0
-131 472 0
-131 651 0
-131 810 0
-131 528 0
-131 588 0
-131 770 0
-132 815 0
-132 573 0
-132 671 0
-132 540 0
-132 664 0
-132 535 0
-132 453 0
-132 501 0
-132 832 0
-132 427 0
-132 712 0
-132 822 0
-133 771 0
-133 752 0
-133 742 0
-133 796 0
-133 540 0
-133 559 0
-133 618 0
-133 541 0
-133 820 0
-133 754 0
-133 687 0
-133 475 0
-133 636 0
-134 674 0
-134 592 0
-134 774 0
-134 764 0
-134 598 0
-134 693 0
-134 503 0
-134 662 0
-134 550 0
-134 516 0
-134 596 0
-134 784 0
-135 763 0
-135 699 0
-135 645 0
-135 596 0
-135 828 0
-135 751 0
-135 522 0
-135 503 0
-135 469 0
-135 431 0
-135 648 0
-136 746 0
-136 665 0
-136 814 0
-136 685 0
-136 445 0
-136 571 0
-136 552 0
-136 536 0
-136 827 0
-136 459 0
-136 501 0
-136 656 0
-136 573 0
-136 698 0
-137 726 0
-137 738 0
-137 635 0
-137 679 0
-137 584 0
-137 752 0
-137 715 0
-137 569 0
-137 419 0
-137 803 0
-137 564 0
-138 759 0
-138 780 0
-138 691 0
-138 764 0
-138 777 0
-138 653 0
-138 722 0
-138 537 0
-138 494 0
-138 831 0
-138 577 0
-139 679 0
-139 705 0
-139 674 0
-139 593 0
-139 540 0
-139 513 0
-139 456 0
-139 704 0
-139 450 0
-139 602 0
-139 650 0
-139 481 0
-139 708 0
-139 550 0
-139 484 0
-140 684 0
-140 739 0
-140 701 0
-140 656 0
-140 667 0
-140 794 0
-140 582 0
-140 462 0
-140 753 0
-140 737 0
-140 423 0
-140 817 0
-141 815 0
-141 713 0
-141 767 0
-141 653 0
-141 833 0
-141 465 0
-141 814 0
-141 480 0
-141 786 0
-141 562 0
-141 546 0
-141 501 0
-141 804 0
-141 783 0
-141 747 0
-142 805 0
-142 683 0
-142 447 0
-142 568 0
-142 741 0
-142 809 0
-142 610 0
-142 716 0
-142 526 0
-142 519 0
-143 681 0
-143 814 0
-143 693 0
-143 772 0
-143 705 0
-143 555 0
-143 568 0
-143 778 0
-143 484 0
-143 737 0
-143 688 0
-143 422 0
-143 753 0
-144 754 0
-144 763 0
-144 573 0
-144 570 0
-144 777 0
-144 702 0
-144 602 0
-144 816 0
-144 800 0
-144 580 0
-144 784 0
-144 741 0
-144 618 0
-144 679 0
-144 690 0
-145 647 0
-145 564 0
-145 689 0
-145 606 0
-145 667 0
-145 483 0
-145 767 0
-145 742 0
-145 694 0
-145 833 0
-145 836 0
-145 452 0
-145 491 0
-145 536 0
-145 607 0
-146 757 0
-146 610 0
-146 739 0
-146 441 0
-146 767 0
-146 650 0
-146 800 0
-146 499 0
-146 834 0
-146 625 0
-146 503 0
-146 706 0
-146 448 0
-147 782 0
-147 645 0
-147 811 0
-147 815 0
-147 614 0
-147 786 0
-147 541 0
-147 482 0
-147 703 0
-147 501 0
-147 751 0
-147 465 0
-147 497 0
-147 822 0
-148 645 0
-148 564 0
-148 697 0
-148 655 0
-148 558 0
-148 590 0
-148 480 0
-148 475 0
-148 448 0
-148 776 0
-148 429 0
-148 421 0
-148 671 0
-148 443 0
-148 826 0
-148 550 0
-148 834 0
-149 420 0
-149 762 0
-149 804 0
-149 661 0
-149 679 0
-149 670 0
-149 689 0
-149 543 0
-149 464 0
-149 452 0
-149 529 0
-149 503 0
-149 716 0
-149 559 0
-149 724 0
-149 591 0
-149 564 0
-150 731 0
-150 596 0
-150 697 0
-150 558 0
-150 617 0
-150 827 0
-150 518 0
-150 715 0
-150 754 0
-150 512 0
-150 650 0
-151 731 0
-151 778 0
-151 713 0
-151 560 0
-151 629 0
-151 465 0
-151 548 0
-151 494 0
-151 452 0
-151 517 0
-151 738 0
-151 524 0
-151 503 0
-151 704 0
-152 747 0
-152 644 0
-152 615 0
-152 680 0
-152 645 0
-152 578 0
-152 724 0
-152 556 0
-152 531 0
-152 660 0
-152 762 0
-152 765 0
-152 535 0
-153 800 0
-153 719 0
-153 623 0
-153 682 0
-153 674 0
-153 572 0
-153 557 0
-153 468 0
-153 422 0
-153 626 0
-153 427 0
-153 439 0
-153 433 0
-153 811 0
-153 514 0
-154 821 0
-154 644 0
-154 542 0
-154 714 0
-154 598 0
-154 557 0
-154 718 0
-154 784 0
-154 771 0
-154 651 0
-154 704 0
-155 439 0
-155 646 0
-155 691 0
-155 501 0
-155 568 0
-155 528 0
-155 513 0
-155 510 0
-155 518 0
-155 764 0
-155 531 0
-155 722 0
-155 430 0
-155 440 0
-155 548 0
-155 545 0
-155 469 0
-156 672 0
-156 652 0
-156 585 0
-156 767 0
-156 546 0
-156 538 0
-156 620 0
-156 702 0
-156 622 0
-156 434 0
-156 625 0
-156 797 0
-157 802 0
-157 631 0
-157 605 0
-157 632 0
-157 728 0
-157 483 0
-157 574 0
-157 437 0
-157 474 0
-157 496 0
-157 466 0
-158 754 0
-158 808 0
-158 746 0
-158 701 0
-158 827 0
-158 630 0
-158 532 0
-158 453 0
-158 813 0
-158 688 0
-158 825 0
-159 631 0
-159 677 0
-159 777 0
-159 570 0
-159 625 0
-159 528 0
-159 752 0
-159 830 0
-159 711 0
-159 464 0
-159 624 0
-159 720 0
-159 716 0
-159 819 0
-159 515 0
-159 769 0
-160 826 0
-160 742 0
-160 752 0
-160 774 0
-160 787 0
-160 633 0
-160 648 0
-160 603 0
-160 529 0
-160 694 0
-160 583 0
-160 634 0
-161 797 0
-161 605 0
-161 811 0
-161 780 0
-161 805 0
-161 680 0
-161 643 0
-161 772 0
-161 700 0
-161 469 0
-161 713 0
-161 465 0
-161 822 0
-162 811 0
-162 650 0
-162 653 0
-162 576 0
-162 586 0
-162 583 0
-162 630 0
-162 514 0
-162 487 0
-162 572 0
-162 589 0
-162 450 0
-162 648 0
-162 445 0
-162 820 0
-162 718 0
-162 774 0
-162 747 0
-163 819 0
-163 628 0
-163 812 0
-163 732 0
-163 671 0
-163 440 0
-163 798 0
-163 505 0
-163 488 0
-163 703 0
-163 779 0
-163 436 0
-163 773 0
-163 471 0
-163 516 0
-164 804 0
-164 792 0
-164 747 0
-164 644 0
-164 814 0
-164 679 0
-164 615 0
-164 543 0
-164 823 0
-164 557 0
-164 570 0
-164 628 0
-164 654 0
-164 552 0
-164 825 0
-165 682 0
-165 563 0
-165 677 0
-165 603 0
-165 719 0
-165 752 0
-165 829 0
-165 624 0
-165 620 0
-165 477 0
-165 460 0
-165 647 0
-165 442 0
-165 650 0
-166 784 0
-166 755 0
-166 732 0
-166 692 0
-166 487 0
-166 624 0
-166 831 0
-166 544 0
-166 531 0
-166 517 0
-166 826 0
-166 709 0
-166 716 0
-166 489 0
-167 672 0
-167 735 0
-167 554 0
-167 782 0
-167 774 0
-167 518 0
-167 431 0
-167 511 0
-167 428 0
-167 775 0
-167 460 0
-168 814 0
-168 673 0
-168 785 0
-168 542 0
-168 663 0
-168 737 0
-168 534 0
-168 525 0
-168 598 0
-168 562 0
-168 524 0
-168 503 0
-168 704 0
-168 770 0
-168 707 0
-168 453 0
-168 747 0
-168 440 0
-169 817 0
-169 697 0
-169 739 0
-169 599 0
-169 788 0
-169 482 0
-169 624 0
-169 514 0
-169 540 0
-169 507 0
-169 434 0
-169 435 0
-170 823 0
-170 803 0
-170 684 0
-170 753 0
-170 785 0
-170 766 0
-170 725 0
-170 533 0
-170 499 0
-170 490 0
-170 706 0
-170 810 0
-170 746 0
-170 649 0
-171 451 0
-172 776 0
-172 635 0
-172 576 0
-172 558 0
-172 490 0
-172 536 0
-172 479 0
-172 722 0
-172 562 0
-172 581 0
-172 497 0
-172 835 0
-172 449 0
-173 678 0
-173 644 0
-173 836 0
-173 679 0
-173 555 0
-173 740 0
-173 623 0
-173 705 0
-173 588 0
-173 421 0
-174 819 0
-174 599 0
-174 712 0
-174 706 0
-174 703 0
-174 531 0
-174 556 0
-174 743 0
-174 557 0
-174 658 0
-174 503 0
-174 814 0
-174 725 0
-175 762 0
-175 753 0
-175 563 0
-175 786 0
-175 660 0
-175 781 0
-175 802 0
-175 794 0
-175 457 0
-175 472 0
-175 473 0
-175 428 0
-175 442 0
-175 572 0
-175 742 0
-175 577 0
-176 678 0
-176 530 0
-176 686 0
-176 834 0
-176 577 0
-176 529 0
-176 553 0
-176 477 0
-176 472 0
-176 753 0
-176 506 0
-176 836 0
-176 801 0
-176 610 0
-176 501 0
-176 716 0
-176 708 0
-176 785 0
-176 650 0
-177 695 0
-177 662 0
-177 753 0
-177 789 0
-177 650 0
-177 508 0
-177 587 0
-177 583 0
-177 565 0
-177 435 0
-177 729 0
-177 599 0
-178 802 0
-178 693 0
-178 688 0
-178 703 0
-179 756 0
-179 765 0
-179 631 0
-179 810 0
-179 696 0
-179 776 0
-179 483 0
-179 461 0
-179 465 0
-179 624 0
-179 606 0
-179 836 0
-179 660 0
-179 497 0
-179 785 0
-180 750 0
-180 776 0
-180 618 0
-180 719 0
-180 635 0
-180 481 0
-180 488 0
-181 730 0
-181 798 0
-181 821 0
-181 731 0
-181 788 0
-181 699 0
-181 654 0
-181 727 0
-181 476 0
-181 600 0
-181 677 0
-181 485 0
-181 427 0
-181 509 0
-181 675 0
-182 440 0
-182 800 0
-182 605 0
-182 655 0
-182 789 0
-182 505 0
-182 658 0
-182 755 0
-182 574 0
-182 511 0
-182 557 0
-182 553 0
-182 436 0
-182 488 0
-182 590 0
-182 716 0
-183 765 0
-183 811 0
-183 814 0
-183 605 0
-183 775 0
-183 732 0
-183 551 0
-183 642 0
-183 651 0
-183 832 0
-183 494 0
-183 472 0
-183 477 0
-183 471 0
-183 689 0
-183 819 0
-183 444 0
-184 542 0
-184 493 0
-184 527 0
-184 429 0
-184 476 0
-184 526 0
-184 518 0
-184 695 0
-184 751 0
-185 691 0
-185 828 0
-185 620 0
-185 710 0
-185 548 0
-185 637 0
-185 431 0
-185 576 0
-185 655 0
-185 586 0
-185 577 0
-186 759 0
-186 810 0
-186 547 0
-186 765 0
-186 780 0
-186 662 0
-186 625 0
-186 619 0
-186 762 0
-186 819 0
-186 532 0
-186 533 0
-186 629 0
-186 472 0
-186 736 0
-186 521 0
-187 755 0
-187 687 0
-187 646 0
-187 655 0
-187 618 0
-187 495 0
-187 740 0
-187 759 0
-187 540 0
-187 456 0
-187 785 0
-187 444 0
-187 608 0
-187 832 0
-187 802 0
-188 575 0
-188 495 0
-188 593 0
-188 829 0
-188 489 0
-188 450 0
-188 816 0
-188 753 0
-188 479 0
-188 782 0
-188 681 0
-188 786 0
-188 647 0
-189 425 0
-189 816 0
-189 681 0
-189 644 0
-189 788 0
-189 506 0
-189 542 0
-189 452 0
-189 615 0
-189 718 0
-189 598 0
-189 799 0
-189 832 0
-189 485 0
-190 771 0
-190 717 0
-190 639 0
-190 789 0
-190 758 0
-190 653 0
-190 449 0
-190 814 0
-190 485 0
-190 672 0
-190 460 0
-190 704 0
-190 427 0
-190 748 0
-190 686 0
-190 720 0
-190 803 0
-191 639 0
-191 814 0
-191 636 0
-191 579 0
-191 638 0
-191 620 0
-191 831 0
-191 557 0
-191 553 0
-191 751 0
-191 450 0
-191 826 0
-191 677 0
-191 820 0
-191 544 0
-192 675 0
-192 666 0
-192 789 0
-192 614 0
-192 688 0
-192 828 0
-192 585 0
-192 707 0
-192 609 0
-192 442 0
-192 506 0
-193 717 0
-193 643 0
-193 639 0
-193 815 0
-193 669 0
-193 788 0
-193 702 0
-193 536 0
-193 582 0
-193 579 0
-193 756 0
-193 484 0
-193 620 0
-193 583 0
-194 745 0
-194 700 0
-194 712 0
-194 669 0
-194 754 0
-194 662 0
-194 760 0
-194 488 0
-194 822 0
-194 572 0
-194 420 0
-194 630 0
-194 524 0
-194 596 0
-194 575 0
-194 830 0
-194 514 0
-194 703 0
-194 638 0
-195 615 0
-195 714 0
-195 740 0
-195 680 0
-195 488 0
-195 810 0
-195 510 0
-195 685 0
-195 452 0
-195 686 0
-195 702 0
-195 816 0
-195 516 0
-195 527 0
-195 508 0
-195 422 0
-196 816 0
-196 800 0
-196 803 0
-196 751 0
-196 709 0
-196 717 0
-196 789 0
-196 667 0
-196 439 0
-196 639 0
-196 554 0
-196 542 0
-196 421 0
-196 669 0
-196 604 0
-196 822 0
-196 505 0
-196 503 0
-196 641 0
-196 438 0
-197 631 0
-197 780 0
-197 773 0
-197 549 0
-197 609 0
-197 454 0
-197 466 0
-197 459 0
-197 805 0
-197 463 0
-197 621 0
-198 755 0
-198 750 0
-198 752 0
-198 646 0
-198 701 0
-198 610 0
-198 600 0
-198 677 0
-198 735 0
-198 703 0
-198 699 0
-198 449 0
-198 517 0
-198 763 0
-198 495 0
-198 566 0
-198 659 0
-198 438 0
-198 761 0
-198 527 0
-198 645 0
-199 595 0
-199 658 0
-199 490 0
-199 546 0
-199 477 0
-199 471 0
-199 833 0
-199 427 0
-199 799 0
-199 618 0
-199 668 0
-199 422 0
-200 635 0
-200 591 0
-200 722 0
-200 727 0
-200 781 0
-200 613 0
-200 485 0
-200 531 0
-200 510 0
-200 540 0
-200 429 0
-200 547 0
-201 716 0
-201 811 0
-201 554 0
-201 696 0
-201 651 0
-201 570 0
-201 453 0
-201 507 0
-201 510 0
-201 745 0
-201 470 0
-201 812 0
-201 457 0
-202 592 0
-202 732 0
-202 602 0
-202 709 0
-202 485 0
-202 535 0
-202 604 0
-202 464 0
-202 559 0
-202 687 0
-202 622 0
-202 780 0
-202 756 0
-203 758 0
-203 730 0
-203 661 0
-203 791 0
-203 632 0
-203 771 0
-203 445 0
-203 731 0
-203 602 0
-203 511 0
-203 593 0
-203 827 0
-203 457 0
-203 475 0
-204 726 0
-204 702 0
-204 615 0
-204 585 0
-204 499 0
-204 502 0
-204 520 0
-205 780 0
-205 618 0
-205 581 0
-205 486 0
-205 684 0
-205 602 0
-205 562 0
-205 521 0
-205 569 0
-205 442 0
-205 425 0
-205 426 0
-206 744 0
-206 575 0
-206 536 0
-206 568 0
-206 566 0
-206 522 0
-206 790 0
-206 793 0
-206 751 0
-207 818 0
-207 794 0
-207 761 0
-207 744 0
-207 587 0
-207 803 0
-207 650 0
-207 571 0
-207 832 0
-207 652 0
-207 620 0
-207 522 0
-208 787 0
-208 775 0
-208 669 0
-208 785 0
-208 704 0
-208 600 0
-208 824 0
-208 529 0
-208 556 0
-208 476 0
-208 514 0
-208 807 0
-209 652 0
-209 770 0
-209 588 0
-209 720 0
-209 610 0
-209 660 0
-209 478 0
-209 830 0
-209 464 0
-209 450 0
-209 505 0
-210 425 0
-210 824 0
-210 726 0
-210 717 0
-210 620 0
-210 473 0
-210 433 0
-210 498 0
-210 493 0
-210 664 0
-210 478 0
-210 494 0
-210 529 0
-210 815 0
-210 823 0
-210 463 0
-211 815 0
-211 731 0
-211 663 0
-211 637 0
-211 538 0
-211 510 0
-211 598 0
-211 474 0
-211 450 0
-211 644 0
-211 524 0
-211 770 0
-211 635 0
-211 583 0
-212 669 0
-212 637 0
-212 589 0
-212 737 0
-212 510 0
-212 786 0
-212 767 0
-212 473 0
-212 454 0
-212 551 0
-212 809 0
-212 578 0
-213 422 0
-213 690 0
-213 603 0
-213 683 0
-213 719 0
-213 739 0
-213 567 0
-213 720 0
-213 558 0
-213 711 0
-214 757 0
-214 722 0
-214 809 0
-214 633 0
-214 816 0
-214 555 0
-214 598 0
-214 717 0
-214 586 0
-214 458 0
-214 546 0
-214 558 0
-214 529 0
-215 644 0
-215 814 0
-215 812 0
-215 625 0
-215 576 0
-215 430 0
-215 663 0
-215 745 0
-216 581 0
-216 554 0
-216 773 0
-216 680 0
-216 718 0
-216 657 0
-216 606 0
-216 684 0
-216 733 0
-216 832 0
-216 709 0
-216 422 0
-216 824 0
-216 678 0
-217 822 0
-217 762 0
-217 669 0
-217 655 0
-217 697 0
-217 568 0
-217 491 0
-217 627 0
-217 743 0
-217 605 0
-217 475 0
-217 816 0
-217 806 0
-217 478 0
-218 640 0
-218 588 0
-218 686 0
-218 728 0
-218 547 0
-218 633 0
-218 716 0
-218 534 0
-218 428 0
-218 525 0
-219 684 0
-220 714 0
-220 725 0
-220 747 0
-220 479 0
-220 429 0
-220 644 0
-220 795 0
-220 660 0
-220 630 0
-221 788 0
-221 776 0
-221 655 0
-221 727 0
-221 806 0
-221 598 0
-221 435 0
-222 802 0
-222 787 0
-222 743 0
-222 615 0
-222 535 0
-222 623 0
-222 620 0
-222 452 0
-222 653 0
-222 524 0
-222 818 0
-222 429 0
-222 422 0
-222 443 0
-223 791 0
-223 570 0
-223 674 0
-223 827 0
-223 627 0
-223 426 0
-223 720 0
-223 723 0
-223 677 0
-223 561 0
-223 445 0
-224 766 0
-224 779 0
-224 596 0
-224 528 0
-224 540 0
-224 484 0
-224 538 0
-224 629 0
-224 454 0
-224 660 0
-224 647 0
-224 602 0
-224 723 0
-225 422 0
-225 802 0
-225 441 0
-225 440 0
-225 467 0
-225 811 0
-225 731 0
-225 740 0
-225 610 0
-225 531 0
-225 765 0
-225 619 0
-225 503 0
-226 755 0
-226 785 0
-226 631 0
-226 640 0
-226 615 0
-226 647 0
-226 627 0
-226 830 0
-226 673 0
-226 817 0
-227 784 0
-227 804 0
-227 766 0
-227 740 0
-227 830 0
-227 761 0
-227 583 0
-227 491 0
-228 826 0
-228 446 0
-228 584 0
-228 804 0
-228 808 0
-228 537 0
-228 629 0
-228 711 0
-228 604 0
-228 638 0
-228 466 0
-228 735 0
-228 561 0
-228 832 0
-228 491 0
-229 682 0
-229 639 0
-229 693 0
-229 596 0
-229 567 0
-229 633 0
-229 540 0
-229 432 0
-229 737 0
-229 557 0
-229 717 0
-229 465 0
-230 822 0
-230 768 0
-230 675 0
-230 795 0
-230 662 0
-230 622 0
-230 483 0
-230 624 0
-230 649 0
-230 484 0
-230 772 0
-230 836 0
-230 672 0
-230 793 0
-230 471 0
-230 689 0
-231 420 0
-231 440 0
-231 780 0
-231 548 0
-231 781 0
-231 770 0
-231 601 0
-231 552 0
-231 782 0
-231 623 0
-231 638 0
-231 455 0
-232 762 0
-232 744 0
-232 766 0
-232 658 0
-232 732 0
-232 508 0
-232 559 0
-232 500 0
-232 435 0
-232 745 0
-233 639 0
-233 753 0
-233 570 0
-233 603 0
-233 535 0
-233 665 0
-233 431 0
-233 507 0
-233 466 0
-233 704 0
-234 698 0
-234 753 0
-234 688 0
-234 656 0
-234 832 0
-234 498 0
-234 531 0
-234 478 0
-234 465 0
-234 733 0
-234 719 0
-235 690 0
-235 815 0
-235 591 0
-235 722 0
-235 771 0
-235 480 0
-235 710 0
-235 636 0
-235 439 0
-235 522 0
-235 774 0
-235 663 0
-235 431 0
-236 751 0
-236 788 0
-236 443 0
-236 435 0
-236 618 0
-236 767 0
-236 604 0
-236 440 0
-236 733 0
-236 700 0
-236 809 0
-236 820 0
-236 769 0
-236 561 0
-237 749 0
-237 755 0
-237 821 0
-237 705 0
-237 553 0
-237 453 0
-237 460 0
-237 511 0
-237 509 0
-237 804 0
-238 705 0
-238 772 0
-238 567 0
-238 732 0
-238 536 0
-238 663 0
-238 684 0
-238 784 0
-238 695 0
-238 475 0
-238 516 0
-238 478 0
-238 420 0
-238 657 0
-239 669 0
-239 607 0
-239 641 0
-239 668 0
-239 457 0
-239 429 0
-239 811 0
-239 569 0
-239 543 0
-239 514 0
-239 772 0
-239 771 0
-239 707 0
-239 598 0
-240 423 0
-240 701 0
-240 713 0
-240 596 0
-240 740 0
-240 817 0
-240 420 0
-240 628 0
-240 835 0
-240 645 0
-240 763 0
-241 780 0
-241 732 0
-241 554 0
-241 733 0
-241 534 0
-241 546 0
-241 827 0
-241 683 0
-241 498 0
-241 617 0
-241 555 0
-241 825 0
-241 788 0
-242 757 0
-242 766 0
-242 612 0
-242 777 0
-242 485 0
-242 653 0
-242 723 0
-242 507 0
-242 523 0
-242 440 0
-242 793 0
-242 563 0
-242 829 0
-243 826 0
-243 816 0
-243 805 0
-243 821 0
-243 779 0
-243 443 0
-243 723 0
-243 453 0
-243 423 0
-243 572 0
-243 514 0
-243 666 0
-243 804 0
-243 504 0
-244 439 0
-244 672 0
-244 646 0
-244 628 0
-244 697 0
-244 497 0
-244 574 0
-244 584 0
-244 545 0
-244 796 0
-244 513 0
-244 491 0
-244 430 0
-244 516 0
-244 526 0
-244 524 0
-245 678 0
-245 560 0
-245 685 0
-245 619 0
-245 495 0
-245 718 0
-245 452 0
-245 818 0
-245 647 0
-245 489 0
-245 761 0
-245 499 0
-245 707 0
-245 565 0
-246 788 0
-246 588 0
-246 492 0
-246 707 0
-246 620 0
-246 484 0
-246 532 0
-246 831 0
-246 800 0
-246 765 0
-246 542 0
-246 456 0
-246 836 0
-246 797 0
-247 425 0
-247 804 0
-247 763 0
-247 757 0
-247 744 0
-247 767 0
-247 552 0
-247 471 0
-247 496 0
-247 465 0
-247 452 0
-247 507 0
-247 510 0
-247 469 0
-247 532 0
-247 750 0
-247 634 0
-248 440 0
-248 698 0
-248 595 0
-248 793 0
-248 800 0
-248 697 0
-248 629 0
-248 555 0
-248 502 0
-248 505 0
-248 597 0
-248 674 0
-248 477 0
-248 542 0
-248 498 0
-248 443 0
-248 437 0
-248 790 0
-249 684 0
-249 637 0
-249 460 0
-250 722 0
-250 589 0
-250 805 0
-250 568 0
-250 816 0
-250 541 0
-250 517 0
-250 437 0
-250 782 0
-250 826 0
-250 546 0
-250 476 0
-250 472 0
-250 702 0
-251 760 0
-251 665 0
-251 648 0
-251 693 0
-251 588 0
-251 710 0
-251 671 0
-251 539 0
-251 688 0
-251 431 0
-251 615 0
-251 831 0
-251 583 0
-251 429 0
-251 690 0
-252 682 0
-252 767 0
-252 524 0
-252 824 0
-252 573 0
-252 789 0
-252 502 0
-252 564 0
-252 673 0
-252 758 0
-252 569 0
-252 687 0
-252 440 0
-252 484 0
-253 675 0
-253 636 0
-253 588 0
-253 592 0
-253 805 0
-253 626 0
-253 654 0
-253 606 0
-253 835 0
-253 427 0
-253 497 0
-253 647 0
-253 733 0
-253 540 0
-253 559 0
-253 585 0
-253 424 0
-253 428 0
-254 823 0
-254 822 0
-254 806 0
-254 713 0
-254 779 0
-254 774 0
-254 725 0
-254 780 0
-254 450 0
-254 588 0
-254 449 0
-255 819 0
-255 800 0
-255 557 0
-255 474 0
-255 515 0
-255 723 0
-255 526 0
-255 516 0
-255 623 0
-255 531 0
-255 510 0
-256 628 0
-256 658 0
-256 451 0
-256 673 0
-256 514 0
-256 704 0
-256 609 0
-256 738 0
-256 801 0
-256 826 0
-257 426 0
-257 444 0
-257 657 0
-257 821 0
-257 603 0
-257 708 0
-257 693 0
-257 649 0
-257 492 0
-257 680 0
-257 564 0
-257 707 0
-257 485 0
-257 751 0
-257 526 0
-258 424 0
-258 698 0
-258 681 0
-258 675 0
-258 679 0
-258 814 0
-258 723 0
-258 686 0
-258 671 0
-258 568 0
-258 459 0
-258 651 0
-258 609 0
-258 725 0
-258 607 0
-259 795 0
-259 768 0
-259 665 0
-259 610 0
-259 757 0
-259 575 0
-259 508 0
-259 640 0
-259 561 0
-259 537 0
-259 555 0
-259 518 0
-259 595 0
-259 426 0
-259 425 0
-260 424 0
-260 734 0
-260 805 0
-260 632 0
-260 762 0
-260 779 0
-260 617 0
-260 716 0
-260 435 0
-260 593 0
-260 660 0
-260 704 0
-260 490 0
-260 504 0
-261 782 0
-261 690 0
-261 812 0
-261 673 0
-261 440 0
-261 650 0
-261 540 0
-261 771 0
-261 501 0
-261 720 0
-261 508 0
-261 461 0
-262 593 0
-262 786 0
-262 452 0
-262 780 0
-262 500 0
-262 488 0
-262 460 0
-262 600 0
-262 523 0
-262 495 0
-262 814 0
-262 823 0
-263 639 0
-263 528 0
-263 643 0
-263 612 0
-263 692 0
-263 593 0
-263 442 0
-263 490 0
-263 575 0
-263 491 0
-263 553 0
-263 583 0
-263 595 0
-263 627 0
-264 687 0
-264 507 0
-264 613 0
-264 688 0
-264 646 0
-264 767 0
-264 531 0
-264 542 0
-264 717 0
-264 824 0
-264 528 0
-265 695 0
-265 643 0
-265 599 0
-265 600 0
-265 603 0
-265 558 0
-265 497 0
-265 790 0
-265 581 0
-265 434 0
-265 422 0
-265 739 0
-265 815 0
-265 712 0
-265 481 0
-265 587 0
-267 706 0
-267 552 0
-267 723 0
-267 598 0
-267 461 0
-267 524 0
-267 624 0
-267 422 0
-267 667 0
-268 807 0
-268 717 0
-268 805 0
-268 707 0
-268 493 0
-268 436 0
-268 538 0
-268 513 0
-268 503 0
-268 519 0
-268 448 0
-268 774 0
-268 648 0
-268 531 0
-269 823 0
-269 623 0
-269 598 0
-269 790 0
-269 459 0
-269 706 0
-269 788 0
-269 594 0
-269 689 0
-270 442 0
-270 792 0
-270 726 0
-270 643 0
-270 710 0
-270 767 0
-270 657 0
-270 830 0
-270 621 0
-270 623 0
-270 671 0
-270 547 0
-271 644 0
-271 636 0
-271 596 0
-271 766 0
-271 594 0
-271 579 0
-271 694 0
-271 728 0
-271 629 0
-271 491 0
-271 489 0
-271 806 0
-272 823 0
-272 795 0
-272 756 0
-272 698 0
-272 681 0
-272 750 0
-272 735 0
-272 607 0
-272 676 0
-272 752 0
-272 702 0
-272 591 0
-272 715 0
-272 626 0
-272 589 0
-273 819 0
-273 648 0
-273 542 0
-273 425 0
-273 493 0
-273 717 0
-273 472 0
-273 774 0
-273 508 0
-273 517 0
-273 492 0
-273 495 0
-273 559 0
-274 750 0
-274 694 0
-274 753 0
-274 625 0
-274 788 0
-274 608 0
-274 457 0
-274 833 0
-274 492 0
-274 425 0
-275 749 0
-275 611 0
-275 483 0
-275 674 0
-275 541 0
-275 508 0
-275 485 0
-275 621 0
-275 534 0
-275 726 0
-275 714 0
-275 602 0
-275 429 0
-276 727 0
-276 812 0
-276 501 0
-276 570 0
-276 641 0
-276 486 0
-276 735 0
-276 480 0
-276 524 0
-276 790 0
-276 493 0
-276 472 0
-277 690 0
-277 604 0
-277 621 0
-277 735 0
-277 676 0
-277 649 0
-277 786 0
-277 437 0
-277 615 0
-277 533 0
-277 667 0
-277 781 0
-277 697 0
-278 645 0
-278 818 0
-278 705 0
-278 622 0
-278 564 0
-278 821 0
-278 592 0
-278 453 0
-278 460 0
-278 830 0
-278 440 0
-278 687 0
-279 776 0
-279 673 0
-279 605 0
-279 613 0
-279 742 0
-279 465 0
-279 828 0
-279 598 0
-279 816 0
-279 431 0
-280 784 0
-280 741 0
-280 645 0
-280 536 0
-280 539 0
-280 612 0
-280 543 0
-280 704 0
-280 537 0
-280 718 0
-280 474 0
-280 451 0
-280 535 0
-280 553 0
-280 605 0
-280 503 0
-281 804 0
-281 782 0
-281 696 0
-281 533 0
-281 546 0
-281 674 0
-281 832 0
-281 434 0
-281 769 0
-281 578 0
-281 443 0
-281 685 0
-281 440 0
-281 579 0
-282 804 0
-282 803 0
-282 682 0
-282 812 0
-282 699 0
-282 542 0
-282 781 0
-282 499 0
-282 452 0
-282 626 0
-282 591 0
-282 836 0
-282 686 0
-282 833 0
-282 655 0
-282 565 0
-283 713 0
-283 685 0
-283 483 0
-283 683 0
-283 487 0
-283 565 0
-283 517 0
-283 485 0
-283 435 0
-283 502 0
-283 566 0
-283 494 0
-284 666 0
-284 777 0
-284 699 0
-284 636 0
-284 637 0
-284 585 0
-284 495 0
-284 444 0
-284 474 0
-284 435 0
-284 469 0
-284 830 0
-285 590 0
-285 440 0
-285 566 0
-285 627 0
-285 698 0
-285 436 0
-285 644 0
-285 678 0
-285 830 0
-285 587 0
-285 464 0
-285 801 0
-285 498 0
-286 760 0
-286 756 0
-286 554 0
-286 740 0
-286 552 0
-286 633 0
-286 623 0
-286 452 0
-286 470 0
-286 471 0
-287 785 0
-287 759 0
-287 722 0
-287 766 0
-287 541 0
-287 521 0
-287 556 0
-287 676 0
-287 469 0
-287 645 0
-287 546 0
-287 728 0
-288 766 0
-288 675 0
-288 722 0
-288 769 0
-288 781 0
-288 730 0
-288 638 0
-288 719 0
-288 629 0
-288 793 0
-288 822 0
-289 530 0
-289 576 0
-289 542 0
-289 620 0
-289 524 0
-289 769 0
-289 460 0
-289 426 0
-290 797 0
-290 811 0
-290 807 0
-290 551 0
-290 579 0
-290 541 0
-290 624 0
-290 623 0
-290 559 0
-290 626 0
-291 792 0
-291 427 0
-291 735 0
-291 774 0
-291 637 0
-291 720 0
-291 700 0
-291 609 0
-291 497 0
-291 547 0
-291 516 0
-291 658 0
-291 462 0
-291 556 0
-292 787 0
-292 820 0
-292 564 0
-292 445 0
-292 642 0
-292 831 0
-292 586 0
-292 464 0
-292 663 0
-292 579 0
-292 471 0
-292 422 0
-292 568 0
-292 455 0
-293 595 0
-293 759 0
-293 689 0
-293 626 0
-293 486 0
-293 803 0
-293 423 0
-293 550 0
-293 474 0
-293 809 0
-293 522 0
-293 817 0
-293 585 0
-293 725 0
-293 470 0
-294 796 0
-294 700 0
-294 691 0
-294 537 0
-294 633 0
-294 673 0
-294 754 0
-294 607 0
-294 637 0
-294 626 0
-294 467 0
-294 582 0
-294 655 0
-294 658 0
-294 570 0
-294 557 0
-294 522 0
-295 801 0
-295 683 0
-295 457 0
-295 656 0
-295 626 0
-295 601 0
-295 611 0
-295 818 0
-295 823 0
-295 583 0
-295 433 0
-295 619 0
-296 745 0
-296 678 0
-296 599 0
-296 731 0
-296 676 0
-296 719 0
-296 502 0
-296 702 0
-296 647 0
-296 657 0
-296 437 0
-297 776 0
-297 805 0
-297 676 0
-297 575 0
-297 726 0
-297 479 0
-297 527 0
-297 572 0
-297 433 0
-297 437 0
-297 740 0
-297 538 0
-297 502 0
-297 766 0
-297 685 0
-297 606 0
-297 806 0
-297 661 0
-298 726 0
-298 730 0
-298 666 0
-298 631 0
-298 481 0
-298 430 0
-299 684 0
-299 765 0
-299 483 0
-299 493 0
-299 694 0
-299 701 0
-299 602 0
-299 479 0
-299 449 0
-299 663 0
-299 627 0
-299 638 0
-299 497 0
-299 597 0
-299 457 0
-299 469 0
-300 722 0
-300 641 0
-300 835 0
-300 608 0
-300 523 0
-300 657 0
-300 651 0
-300 583 0
-300 450 0
-300 704 0
-300 726 0
-300 420 0
-300 427 0
-301 758 0
-301 712 0
-301 658 0
-301 708 0
-301 693 0
-301 724 0
-301 550 0
-301 534 0
-301 582 0
-301 710 0
-301 552 0
-301 607 0
-301 747 0
-301 818 0
-301 572 0
-301 809 0
-301 445 0
-301 806 0
-301 759 0
-301 675 0
-302 757 0
-302 759 0
-302 777 0
-302 618 0
-302 603 0
-302 484 0
-302 502 0
-302 505 0
-302 451 0
-302 466 0
-302 600 0
-303 790 0
-303 755 0
-303 805 0
-303 770 0
-303 763 0
-303 736 0
-303 495 0
-303 786 0
-303 602 0
-303 707 0
-303 458 0
-303 550 0
-303 538 0
-303 524 0
-303 434 0
-303 540 0
-304 730 0
-304 735 0
-304 811 0
-304 601 0
-304 582 0
-304 527 0
-304 809 0
-304 723 0
-304 630 0
-305 760 0
-305 763 0
-305 713 0
-305 669 0
-305 737 0
-305 457 0
-305 462 0
-305 526 0
-305 433 0
-305 827 0
-305 426 0
-305 505 0
-305 707 0
-306 763 0
-306 730 0
-306 597 0
-306 642 0
-306 617 0
-306 726 0
-306 775 0
-306 790 0
-306 514 0
-306 761 0
-306 636 0
-306 483 0
-307 419 0
-307 605 0
-307 731 0
-307 764 0
-307 677 0
-307 481 0
-307 702 0
-307 809 0
-307 727 0
-307 554 0
-307 795 0
-308 792 0
-308 747 0
-308 789 0
-308 547 0
-308 720 0
-308 438 0
-308 617 0
-308 494 0
-308 790 0
-308 825 0
-308 452 0
-308 485 0
-308 794 0
-308 578 0
-309 753 0
-309 713 0
-309 560 0
-309 714 0
-309 562 0
-309 794 0
-309 512 0
-309 732 0
-309 612 0
-310 750 0
-310 693 0
-310 687 0
-310 597 0
-310 448 0
-310 560 0
-310 618 0
-310 508 0
-310 764 0
-311 702 0
-311 653 0
-311 482 0
-311 484 0
-311 585 0
-311 634 0
-311 591 0
-311 815 0
-311 832 0
-311 448 0
-311 504 0
-311 740 0
-311 712 0
-311 627 0
-311 836 0
-311 562 0
-312 821 0
-312 681 0
-312 678 0
-312 547 0
-312 449 0
-312 592 0
-312 687 0
-313 422 0
-313 801 0
-313 721 0
-313 591 0
-313 618 0
-313 483 0
-313 747 0
-313 451 0
-313 477 0
-313 485 0
-313 486 0
-313 832 0
-314 791 0
-314 530 0
-314 632 0
-314 623 0
-314 495 0
-314 816 0
-314 606 0
-314 426 0
-314 598 0
-315 551 0
-315 683 0
-315 633 0
-315 623 0
-315 496 0
-315 485 0
-315 472 0
-315 672 0
-315 730 0
-315 791 0
-315 830 0
-315 782 0
-315 818 0
-315 675 0
-316 587 0
-316 789 0
-316 536 0
-316 486 0
-316 505 0
-316 429 0
-316 638 0
-316 647 0
-316 454 0
-316 602 0
-316 453 0
-316 824 0
-316 572 0
-317 443 0
-317 684 0
-317 611 0
-317 731 0
-317 641 0
-317 683 0
-317 503 0
-317 767 0
-317 464 0
-318 766 0
-318 763 0
-318 810 0
-318 599 0
-318 731 0
-318 688 0
-318 762 0
-318 484 0
-318 720 0
-318 666 0
-318 651 0
-318 559 0
-318 606 0
-318 476 0
-318 558 0
-318 586 0
-318 605 0
-318 443 0
-318 817 0
-318 584 0
-318 452 0
-319 752 0
-319 713 0
-319 530 0
-319 694 0
-319 646 0
-319 494 0
-319 827 0
-319 562 0
-319 529 0
-319 799 0
-319 684 0
-319 717 0
-319 687 0
-320 816 0
-320 717 0
-320 814 0
-320 681 0
-320 702 0
-320 637 0
-320 462 0
-320 777 0
-320 781 0
-320 564 0
-320 513 0
-320 477 0
-320 819 0
-320 811 0
-321 738 0
-321 603 0
-321 776 0
-321 661 0
-321 693 0
-321 823 0
-321 539 0
-321 625 0
-321 449 0
-321 521 0
-321 452 0
-321 615 0
-322 760 0
-322 805 0
-322 743 0
-322 705 0
-322 670 0
-322 714 0
-322 723 0
-322 570 0
-322 557 0
-322 547 0
-322 671 0
-322 801 0
-323 753 0
-323 767 0
-323 786 0
-323 719 0
-323 726 0
-323 725 0
-323 830 0
-323 550 0
-323 538 0
-323 467 0
-323 555 0
-323 644 0
-323 833 0
-324 792 0
-324 794 0
-324 587 0
-324 696 0
-324 789 0
-324 685 0
-324 747 0
-324 667 0
-324 831 0
-324 643 0
-324 835 0
-324 508 0
-324 606 0
-324 535 0
-325 756 0
-325 788 0
-325 696 0
-325 673 0
-325 488 0
-325 768 0
-325 515 0
-325 487 0
-325 558 0
-325 626 0
-326 794 0
-326 763 0
-326 422 0
-326 663 0
-326 483 0
-326 643 0
-326 550 0
-326 513 0
-326 835 0
-326 507 0
-327 775 0
-327 536 0
-327 533 0
-327 545 0
-327 680 0
-327 666 0
-327 419 0
-327 538 0
-327 830 0
-327 572 0
-327 549 0
-327 514 0
-328 704 0
-328 772 0
-328 663 0
-328 674 0
-328 827 0
-328 443 0
-328 829 0
-328 574 0
-328 457 0
-328 528 0
-328 656 0
-328 523 0
-329 646 0
-329 631 0
-329 681 0
-329 566 0
-329 639 0
-329 600 0
-329 488 0
-329 585 0
-329 503 0
-329 827 0
-329 468 0
-330 672 0
-330 758 0
-330 531 0
-330 495 0
-330 674 0
-330 493 0
-330 657 0
-330 636 0
-330 523 0
-330 476 0
-330 664 0
-330 790 0
-331 422 0
-331 419 0
-331 802 0
-331 672 0
-331 703 0
-331 759 0
-331 632 0
-331 544 0
-331 545 0
-331 478 0
-331 555 0
-331 568 0
-331 525 0
-331 553 0
-331 455 0
-331 591 0
-332 636 0
-332 709 0
-332 723 0
-332 623 0
-332 831 0
-332 781 0
-332 555 0
-332 485 0
-332 572 0
-332 559 0
-332 818 0
-332 753 0
-332 655 0
-332 471 0
-333 802 0
-333 765 0
-333 741 0
-333 730 0
-333 797 0
-333 748 0
-333 593 0
-333 736 0
-334 422 0
-334 730 0
-334 748 0
-334 680 0
-334 642 0
-334 444 0
-334 740 0
-334 720 0
-334 571 0
-334 572 0
-334 579 0
-334 561 0
-334 454 0
-334 469 0
-335 419 0
-335 628 0
-335 646 0
-335 759 0
-335 752 0
-335 540 0
-335 650 0
-335 517 0
-336 736 0
-336 490 0
-336 471 0
-336 530 0
-336 634 0
-336 695 0
-336 647 0
-336 525 0
-336 446 0
-336 435 0
-337 425 0
-337 743 0
-337 578 0
-337 713 0
-337 723 0
-337 563 0
-337 598 0
-337 582 0
-337 456 0
-337 540 0
-337 486 0
-337 592 0
-338 440 0
-338 794 0
-338 771 0
-338 640 0
-338 692 0
-338 579 0
-338 642 0
-338 835 0
-338 574 0
-338 584 0
-338 638 0
-338 586 0
-339 547 0
-339 649 0
-339 480 0
-339 721 0
-339 748 0
-339 517 0
-339 780 0
-339 596 0
-339 573 0
-339 581 0
-339 498 0
-339 605 0
-339 745 0
-340 816 0
-340 806 0
-340 784 0
-340 698 0
-340 772 0
-340 436 0
-340 482 0
-340 626 0
-340 575 0
-340 567 0
-340 835 0
-340 720 0
-340 559 0
-340 598 0
-341 669 0
-341 735 0
-341 727 0
-341 641 0
-341 674 0
-341 511 0
-341 448 0
-341 467 0
-341 518 0
-341 662 0
-341 524 0
-342 817 0
-342 802 0
-342 693 0
-342 636 0
-342 596 0
-342 706 0
-342 499 0
-342 682 0
-342 538 0
-342 602 0
-342 626 0
-343 684 0
-344 747 0
-344 807 0
-344 533 0
-344 710 0
-344 714 0
-344 560 0
-344 577 0
-344 528 0
-344 508 0
-344 571 0
-344 505 0
-345 421 0
-345 492 0
-345 636 0
-345 602 0
-345 456 0
-345 503 0
-345 651 0
-345 726 0
-345 446 0
-345 700 0
-345 754 0
-346 615 0
-346 723 0
-346 498 0
-346 763 0
-346 775 0
-346 616 0
-346 534 0
-346 827 0
-346 452 0
-346 642 0
-346 753 0
-346 531 0
-346 475 0
-346 514 0
-346 428 0
-346 617 0
-346 532 0
-347 798 0
-347 544 0
-347 628 0
-347 695 0
-347 746 0
-347 598 0
-347 559 0
-347 569 0
-347 500 0
-347 445 0
-348 817 0
-348 801 0
-348 684 0
-348 754 0
-348 683 0
-348 550 0
-348 656 0
-348 546 0
-348 508 0
-348 475 0
-348 770 0
-348 820 0
-348 589 0
-349 618 0
-349 495 0
-349 561 0
-349 836 0
-349 829 0
-349 464 0
-349 489 0
-349 801 0
-349 434 0
-349 695 0
-350 766 0
-350 654 0
-350 697 0
-350 518 0
-350 480 0
-350 490 0
-350 715 0
-350 606 0
-350 829 0
-350 460 0
-350 583 0
-350 437 0
-350 727 0
-350 577 0
-351 717 0
-351 811 0
-351 736 0
-351 498 0
-351 765 0
-351 828 0
-351 549 0
-351 754 0
-351 743 0
-351 592 0
-351 634 0
-351 493 0
-351 568 0
-352 751 0
-352 750 0
-352 739 0
-352 489 0
-352 490 0
-352 647 0
-352 583 0
-352 528 0
-352 572 0
-352 516 0
-352 608 0
-352 730 0
-352 819 0
-352 462 0
-353 745 0
-353 813 0
-353 754 0
-353 746 0
-353 618 0
-353 652 0
-353 718 0
-353 741 0
-353 520 0
-353 638 0
-354 427 0
-354 757 0
-354 635 0
-354 784 0
-354 699 0
-354 589 0
-354 647 0
-354 567 0
-354 559 0
-354 569 0
-354 571 0
-354 596 0
-354 446 0
-355 787 0
-355 808 0
-355 727 0
-355 510 0
-355 451 0
-355 566 0
-355 711 0
-355 508 0
-355 822 0
-355 559 0
-355 598 0
-355 556 0
-356 665 0
-356 536 0
-356 433 0
-356 622 0
-356 496 0
-356 514 0
-356 598 0
-356 720 0
-356 583 0
-356 722 0
-356 593 0
-356 512 0
-356 464 0
-356 568 0
-357 428 0
-357 635 0
-357 739 0
-357 419 0
-357 652 0
-357 592 0
-357 483 0
-357 702 0
-357 523 0
-357 507 0
-357 576 0
-357 458 0
-357 587 0
-357 691 0
-357 509 0
-357 535 0
-358 646 0
-358 815 0
-358 626 0
-358 652 0
-358 526 0
-358 581 0
-358 769 0
-359 765 0
-359 628 0
-359 504 0
-359 664 0
-359 831 0
-359 752 0
-359 676 0
-359 426 0
-359 545 0
-360 801 0
-360 775 0
-360 810 0
-360 742 0
-360 545 0
-360 782 0
-360 626 0
-360 499 0
-360 568 0
-360 590 0
-360 429 0
-360 833 0
-360 433 0
-360 515 0
-360 748 0
-361 765 0
-361 766 0
-361 591 0
-361 774 0
-361 723 0
-361 489 0
-361 486 0
-361 540 0
-361 834 0
-361 598 0
-361 590 0
-361 529 0
-361 688 0
-361 427 0
-361 577 0
-361 674 0
-362 427 0
-362 675 0
-362 744 0
-362 817 0
-362 629 0
-362 656 0
-362 525 0
-362 754 0
-362 477 0
-362 462 0
-362 441 0
-362 475 0
-363 792 0
-363 687 0
-363 759 0
-363 631 0
-363 588 0
-363 574 0
-363 674 0
-363 642 0
-363 443 0
-363 604 0
-363 460 0
-363 740 0
-364 804 0
-364 688 0
-364 542 0
-364 715 0
-364 492 0
-364 745 0
-364 546 0
-364 740 0
-364 596 0
-364 620 0
-364 552 0
-364 522 0
-364 559 0
-365 743 0
-365 543 0
-365 787 0
-365 501 0
-365 484 0
-365 545 0
-365 575 0
-365 499 0
-365 623 0
-365 508 0
-365 458 0
-365 617 0
-365 739 0
-365 789 0
-365 477 0
-366 445 0
-366 446 0
-366 761 0
-366 821 0
-366 768 0
-366 731 0
-366 680 0
-366 529 0
-366 502 0
-366 442 0
-366 606 0
-366 550 0
-366 830 0
-366 694 0
-367 762 0
-367 752 0
-367 623 0
-367 692 0
-367 784 0
-367 540 0
-367 621 0
-367 565 0
-367 729 0
-367 609 0
-367 834 0
-367 438 0
-367 553 0
-367 786 0
-368 698 0
-368 754 0
-368 727 0
-368 652 0
-368 493 0
-368 456 0
-368 598 0
-368 445 0
-368 660 0
-368 742 0
-368 832 0
-369 743 0
-369 661 0
-369 648 0
-369 754 0
-369 746 0
-369 531 0
-369 624 0
-369 584 0
-369 596 0
-369 723 0
-369 827 0
-369 760 0
-370 805 0
-370 603 0
-370 575 0
-370 727 0
-370 759 0
-370 582 0
-370 500 0
-371 675 0
-371 772 0
-371 655 0
-371 818 0
-371 623 0
-371 667 0
-371 773 0
-371 503 0
-371 457 0
-371 459 0
-371 702 0
-371 508 0
-371 695 0
-371 751 0
-372 428 0
-372 426 0
-372 699 0
-372 806 0
-372 448 0
-372 561 0
-372 524 0
-372 482 0
-372 437 0
-373 425 0
-373 771 0
-373 682 0
-373 480 0
-373 729 0
-373 826 0
-373 609 0
-373 613 0
-373 693 0
-373 655 0
-373 592 0
-374 776 0
-374 563 0
-374 738 0
-374 508 0
-374 715 0
-374 525 0
-374 500 0
-375 646 0
-375 627 0
-375 452 0
-375 705 0
-375 619 0
-375 736 0
-375 744 0
-375 558 0
-375 606 0
-375 487 0
-375 511 0
-375 496 0
-376 477 0
-376 822 0
-376 699 0
-376 649 0
-376 781 0
-376 559 0
-376 757 0
-376 754 0
-377 809 0
-377 708 0
-377 575 0
-377 778 0
-377 622 0
-377 498 0
-377 649 0
-377 832 0
-377 565 0
-377 517 0
-377 821 0
-378 751 0
-378 806 0
-378 502 0
-378 545 0
-378 631 0
-378 490 0
-378 759 0
-378 553 0
-378 819 0
-378 569 0
-378 833 0
-378 503 0
-378 564 0
-378 476 0
-379 782 0
-379 734 0
-379 721 0
-379 700 0
-379 645 0
-379 647 0
-379 735 0
-379 534 0
-379 526 0
-379 660 0
-379 781 0
-380 419 0
-380 811 0
-380 618 0
-380 445 0
-380 648 0
-380 742 0
-380 477 0
-380 741 0
-380 488 0
-380 606 0
-380 737 0
-380 630 0
-380 517 0
-380 572 0
-380 494 0
-380 642 0
-380 739 0
-381 800 0
-381 442 0
-381 768 0
-381 660 0
-381 691 0
-381 545 0
-381 589 0
-381 502 0
-381 527 0
-381 767 0
-381 780 0
-381 652 0
-381 429 0
-381 516 0
-382 743 0
-382 645 0
-382 436 0
-382 592 0
-382 747 0
-382 447 0
-382 423 0
-382 532 0
-382 650 0
-383 795 0
-383 751 0
-383 599 0
-383 770 0
-383 726 0
-383 667 0
-383 683 0
-383 752 0
-383 595 0
-383 565 0
-383 466 0
-383 836 0
-383 772 0
-384 781 0
-384 808 0
-384 790 0
-384 796 0
-384 480 0
-384 492 0
-384 819 0
-384 551 0
-384 610 0
-384 467 0
-385 801 0
-385 628 0
-385 447 0
-385 655 0
-385 830 0
-385 814 0
-385 493 0
-385 819 0
-385 535 0
-385 525 0
-385 572 0
-385 736 0
-386 442 0
-386 673 0
-386 534 0
-386 633 0
-386 724 0
-386 663 0
-386 476 0
-386 540 0
-386 471 0
-386 587 0
-386 513 0
-386 514 0
-387 794 0
-387 744 0
-387 588 0
-387 680 0
-387 623 0
-387 656 0
-387 546 0
-387 609 0
-387 652 0
-387 780 0
-387 803 0
-387 472 0
-388 607 0
-388 626 0
-388 692 0
-388 693 0
-388 742 0
-388 447 0
-388 538 0
-388 713 0
-388 831 0
-388 836 0
-388 506 0
-388 454 0
-388 457 0
-389 792 0
-389 726 0
-389 808 0
-389 678 0
-389 785 0
-389 780 0
-389 786 0
-389 498 0
-389 570 0
-389 558 0
-389 517 0
-389 596 0
-390 643 0
-390 625 0
-390 608 0
-390 531 0
-390 607 0
-390 724 0
-390 664 0
-390 430 0
-390 630 0
-390 587 0
-390 540 0
-390 618 0
-390 827 0
-391 422 0
-391 802 0
-391 704 0
-391 797 0
-391 627 0
-391 759 0
-391 489 0
-391 757 0
-391 657 0
-391 491 0
-391 461 0
-392 422 0
-392 424 0
-392 797 0
-392 766 0
-392 682 0
-392 687 0
-392 596 0
-392 631 0
-392 546 0
-392 660 0
-392 698 0
-392 485 0
-392 787 0
-393 818 0
-393 789 0
-393 435 0
-393 465 0
-393 532 0
-393 539 0
-393 706 0
-393 484 0
-394 701 0
-394 551 0
-394 702 0
-394 486 0
-394 686 0
-394 582 0
-394 532 0
-394 832 0
-394 723 0
-394 728 0
-394 626 0
-394 460 0
-394 561 0
-394 819 0
-395 814 0
-395 670 0
-395 542 0
-395 715 0
-395 703 0
-395 547 0
-395 456 0
-395 569 0
-395 788 0
-395 557 0
-395 601 0
-395 524 0
-395 660 0
-395 673 0
-395 472 0
-395 494 0
-395 553 0
-395 782 0
-396 787 0
-396 488 0
-396 724 0
-396 508 0
-396 506 0
-396 471 0
-396 470 0
-396 457 0
-396 485 0
-396 454 0
-396 420 0
-397 763 0
-397 756 0
-397 679 0
-397 658 0
-397 504 0
-397 501 0
-397 706 0
-397 503 0
-397 755 0
-397 792 0
-397 444 0
-398 818 0
-398 826 0
-398 815 0
-398 748 0
-398 757 0
-398 696 0
-398 670 0
-398 622 0
-398 509 0
-399 424 0
-399 816 0
-399 792 0
-399 767 0
-399 537 0
-399 679 0
-399 763 0
-399 625 0
-399 692 0
-399 654 0
-399 604 0
-399 633 0
-399 761 0
-399 563 0
-399 597 0
-399 632 0
-399 581 0
-400 635 0
-400 699 0
-400 622 0
-400 552 0
-400 549 0
-400 505 0
-400 606 0
-400 538 0
-400 726 0
-400 476 0
-400 706 0
-400 782 0
-401 749 0
-401 771 0
-401 816 0
-401 713 0
-401 555 0
-401 500 0
-401 575 0
-401 511 0
-401 733 0
-401 507 0
-401 524 0
-402 439 0
-402 798 0
-402 741 0
-402 708 0
-402 695 0
-402 691 0
-402 447 0
-402 828 0
-402 663 0
-402 559 0
-402 627 0
-402 435 0
-402 573 0
-402 450 0
-403 427 0
-403 803 0
-403 768 0
-403 669 0
-403 753 0
-403 765 0
-403 533 0
-403 633 0
-403 484 0
-403 757 0
-403 606 0
-403 586 0
-403 686 0
-403 520 0
-403 544 0
-403 756 0
-404 604 0
-404 782 0
-404 701 0
-404 777 0
-404 689 0
-404 653 0
-404 515 0
-404 526 0
-404 726 0
-405 801 0
-405 794 0
-405 771 0
-405 678 0
-405 812 0
-405 608 0
-405 820 0
-405 720 0
-405 648 0
-405 703 0
-405 526 0
-405 677 0
-405 477 0
-406 807 0
-406 690 0
-406 603 0
-406 536 0
-406 489 0
-406 424 0
-406 432 0
-406 511 0
-406 526 0
-406 794 0
-406 491 0
-406 467 0
-406 477 0
-406 557 0
-407 446 0
-407 445 0
-407 796 0
-407 772 0
-407 803 0
-407 505 0
-407 706 0
-407 833 0
-407 485 0
-407 590 0
-407 702 0
-407 750 0
-407 667 0
-408 444 0
-408 572 0
-408 596 0
-408 427 0
-408 832 0
-408 449 0
-408 479 0
-408 458 0
-409 817 0
-409 802 0
-409 687 0
-409 688 0
-409 673 0
-409 667 0
-409 790 0
-409 546 0
-409 657 0
-410 426 0
-410 819 0
-410 583 0
-410 754 0
-410 748 0
-410 670 0
-410 766 0
-410 544 0
-410 825 0
-410 704 0
-410 571 0
-410 638 0
-410 498 0
-410 537 0
-411 553 0
-411 828 0
-411 442 0
-411 797 0
-411 678 0
-411 761 0
-411 612 0
-411 598 0
-411 574 0
-412 433 0
-412 468 0
-412 448 0
-412 652 0
-412 609 0
-412 726 0
-412 634 0
-412 588 0
-412 705 0
-412 499 0
-413 512 0
-413 453 0
-413 581 0
-413 441 0
-413 756 0
-413 822 0
-413 678 0
-413 650 0
-413 757 0
-413 715 0
-413 720 0
-413 543 0
-413 472 0
-413 702 0
-414 520 0
-414 457 0
-414 733 0
-414 641 0
-414 765 0
-414 809 0
-414 612 0
-414 783 0
-414 724 0
-414 695 0
-414 446 0
-414 622 0
-415 488 0
-415 749 0
-415 708 0
-415 810 0
-415 585 0
-415 632 0
-415 554 0
-415 592 0
-415 670 0
-415 571 0
-415 436 0
-415 795 0
-415 484 0
-415 600 0
-416 526 0
-416 448 0
-416 420 0
-416 797 0
-416 651 0
-416 622 0
-416 806 0
-416 595 0
-416 720 0
-416 702 0
-416 699 0
-416 582 0
-416 584 0
-416 638 0
-416 496 0
-416 606 0
-417 437 0
-417 784 0
-417 739 0
-417 686 0
-417 674 0
-417 644 0
-417 578 0
-417 620 0
-417 568 0
-417 531 0
-418 464 0
-418 439 0
-418 742 0
-418 804 0
-418 446 0
-418 649 0
-418 515 0
-418 486 0
-418 575 0
1 419 0
2 420 0
3 421 0
4 422 0
5 423 0
6 424 0
7 425 0
8 426 0
9 427 0
10 428 0
11 429 0
12 430 0
13 431 0
14 432 0
15 433 0
16 434 0
17 435 0
18 436 0
19 437 0
20 438 0
21 439 0
22 440 0
23 441 0
24 442 0
25 443 0
26 444 0
27 445 0
28 446 0
29 447 0
30 448 0
31 449 0
32 450 0
33 451 0
34 452 0
35 453 0
36 454 0
37 455 0
38 456 0
39 457 0
40 458 0
41 459 0
42 460 0
43 461 0
44 462 0
45 463 0
46 464 0
47 465 0
48 466 0
49 467 0
50 468 0
51 469 0
52 470 0
53 471 0
54 472 0
55 473 0
56 474 0
57 475 0
58 476 0
59 477 0
60 478 0
61 479 0
62 480 0
63 481 0
64 482 0
65 483 0
66 484 0
67 485 0
68 486 0
69 487 0
70 488 0
71 489 0
72 490 0
73 491 0
74 492 0
75 493 0
76 494 0
77 495 0
78 496 0
79 497 0
80 498 0
81 499 0
82 500 0
83 501 0
84 502 0
85 503 0
86 504 0
87 505 0
88 506 0
89 507 0
90 508 0
91 509 0
92 510 0
93 511 0
94 512 0
95 513 0
96 514 0
97 515 0
98 516 0
99 517 0
100 518 0
101 519 0
102 520 0
103 521 0
104 522 0
105 523 0
106 524 0
107 525 0
108 526 0
109 527 0
110 528 0
111 529 0
112 530 0
113 531 0
114 532 0
115 533 0
116 534 0
117 535 0
118 536 0
119 537 0
120 538 0
121 539 0
122 540 0
123 541 0
124 542 0
125 543 0
126 544 0
127 545 0
128 546 0
129 547 0
130 548 0
131 549 0
132 550 0
133 551 0
134 552 0
135 553 0
136 554 0
137 555 0
138 556 0
139 557 0
140 558 0
141 559 0
142 560 0
143 561 0
144 562 0
145 563 0
146 564 0
147 565 0
148 566 0
149 567 0
150 568 0
151 569 0
152 570 0
153 571 0
154 572 0
155 573 0
156 574 0
157 575 0
158 576 0
159 577 0
160 578 0
161 579 0
162 580 0
163 581 0
164 582 0
165 583 0
166 584 0
167 585 0
168 586 0
169 587 0
170 588 0
171 589 0
172 590 0
173 591 0
174 592 0
175 593 0
176 594 0
177 595 0
178 596 0
179 597 0
180 598 0
181 599 0
182 600 0
183 601 0
184 602 0
185 603 0
186 604 0
187 605 0
188 606 0
189 607 0
190 608 0
191 609 0
192 610 0
193 611 0
194 612 0
195 613 0
196 614 0
197 615 0
198 616 0
199 617 0
200 618 0
201 619 0
202 620 0
203 621 0
204 622 0
205 623 0
206 624 0
207 625 0
208 626 0
209 627 0
210 628 0
211 629 0
212 630 0
213 631 0
214 632 0
215 633 0
216 634 0
217 635 0
218 636 0
219 637 0
220 638 0
221 639 0
222 640 0
223 641 0
224 642 0
225 643 0
226 644 0
227 645 0
228 646 0
229 647 0
230 648 0
231 649 0
232 650 0
233 651 0
234 652 0
235 653 0
236 654 0
237 655 0
238 656 0
239 657 0
240 658 0
241 659 0
242 660 0
243 661 0
244 662 0
245 663 0
246 664 0
247 665 0
248 666 0
249 667 0
250 668 0
251 669 0
252 670 0
253 671 0
254 672 0
255 673 0
256 674 0
257 675 0
258 676 0
259 677 0
260 678 0
261 679 0
262 680 0
263 681 0
264 682 0
265 683 0
266 684 0
267 685 0
268 686 0
269 687 0
270 688 0
271 689 0
272 690 0
273 691 0
274 692 0
275 693 0
276 694 0
277 695 0
278 696 0
279 697 0
280 698 0
281 699 0
282 700 0
283 701 0
284 702 0
285 703 0
286 704 0
287 705 0
288 706 0
289 707 0
290 708 0
291 709 0
292 710 0
293 711 0
294 712 0
295 713 0
296 714 0
297 715 0
298 716 0
299 717 0
300 718 0
301 719 0
302 720 0
303 721 0
304 722 0
305 723 0
306 724 0
307 725 0
308 726 0
309 727 0
310 728 0
311 729 0
312 730 0
313 731 0
314 732 0
315 733 0
316 734 0
317 735 0
318 736 0
319 737 0
320 738 0
321 739 0
322 740 0
323 741 0
324 742 0
325 743 0
326 744 0
327 745 0
328 746 0
329 747 0
330 748 0
331 749 0
332 750 0
333 751 0
334 752 0
335 753 0
336 754 0
337 755 0
338 756 0
339 757 0
340 758 0
341 759 0
342 760 0
343 761 0
344 762 0
345 763 0
346 764 0
347 765 0
348 766 0
349 767 0
350 768 0
351 769 0
352 770 0
353 771 0
354 772 0
355 773 0
356 774 0
357 775 0
358 776 0
359 777 0
360 778 0
361 779 0
362 780 0
363 781 0
364 782 0
365 783 0
366 784 0
367 785 0
368 786 0
369 787 0
370 788 0
371 789 0
372 790 0
373 791 0
374 792 0
375 793 0
376 794 0
377 795 0
378 796 0
379 797 0
380 798 0
381 799 0
382 800 0
383 801 0
384 802 0
385 803 0
386 804 0
387 805 0
388 806 0
389 807 0
390 808 0
391 809 0
392 810 0
393 811 0
394 812 0
395 813 0
396 814 0
397 815 0
398 816 0
399 817 0
400 818 0
401 819 0
402 820 0
403 821 0
404 822 0
405 823 0
406 824 0
407 825 0
408 826 0
409 827 0
410 828 0
411 829 0
412 830 0
413 831 0
414 832 0
415 833 0
416 834 0
417 835 0
418 836 0
333 0
