p cnf 448 5562
1 2 3 4 5 6 7 8 9 10 11 12 13 14 0
15 16 17 18 19 20 21 22 23 24 25 26 27 28 0
29 30 31 32 33 34 35 36 37 38 39 40 41 42 0
43 44 45 46 47 48 49 50 51 52 53 54 55 56 0
57 58 59 60 61 62 63 64 65 66 67 68 69 70 0
71 72 73 74 75 76 77 78 79 80 81 82 83 84 0
85 86 87 88 89 90 91 92 93 94 95 96 97 98 0
99 100 101 102 103 104 105 106 107 108 109 110 111 112 0
113 114 115 116 117 118 119 120 121 122 123 124 125 126 0
127 128 129 130 131 132 133 134 135 136 137 138 139 140 0
141 142 143 144 145 146 147 148 149 150 151 152 153 154 0
155 156 157 158 159 160 161 162 163 164 165 166 167 168 0
169 170 171 172 173 174 175 176 177 178 179 180 181 182 0
183 184 185 186 187 188 189 190 191 192 193 194 195 196 0
197 198 199 200 201 202 203 204 205 206 207 208 209 210 0
211 212 213 214 215 216 217 218 219 220 221 222 223 224 0
225 226 227 228 229 230 231 232 233 234 235 236 237 238 0
239 240 241 242 243 244 245 246 247 248 249 250 251 252 0
253 254 255 256 257 258 259 260 261 262 263 264 265 266 0
267 268 269 270 271 272 273 274 275 276 277 278 279 280 0
281 282 283 284 285 286 287 288 289 290 291 292 293 294 0
295 296 297 298 299 300 301 302 303 304 305 306 307 308 0
309 310 311 312 313 314 315 316 317 318 319 320 321 322 0
323 324 325 326 327 328 329 330 331 332 333 334 335 336 0
337 338 339 340 341 342 343 344 345 346 347 348 349 350 0
351 352 353 354 355 356 357 358 359 360 361 362 363 364 0
365 366 367 368 369 370 371 372 373 374 375 376 377 378 0
379 380 381 382 383 384 385 386 387 388 389 390 391 392 0
393 394 395 396 397 398 399 400 401 402 403 404 405 406 0
407 408 409 410 411 412 413 414 415 416 417 418 419 420 0
421 422 423 424 425 426 427 428 429 430 431 432 433 434 0
435 436 437 438 439 440 441 442 443 444 445 446 447 448 0
-85 -225 0
-86 -226 0
-87 -227 0
-88 -228 0
-89 -229 0
-90 -230 0
-91 -231 0
-92 -232 0
-93 -233 0
-94 -234 0
-95 -235 0
-96 -236 0
-97 -237 0
-98 -238 0
-365 -43 0
-366 -44 0
-367 -45 0
-368 -46 0
-369 -47 0
-370 -48 0
-371 -49 0
-372 -50 0
-373 -51 0
-374 -52 0
-375 -53 0
-376 -54 0
-377 -55 0
-378 -56 0
-365 -169 0
-366 -170 0
-367 -171 0
-368 -172 0
-369 -173 0
-370 -174 0
-371 -175 0
-372 -176 0
-373 -177 0
-374 -178 0
-375 -179 0
-376 -180 0
-377 -181 0
-378 -182 0
-99 -113 0
-100 -114 0
-101 -115 0
-102 -116 0
-103 -117 0
-104 -118 0
-105 -119 0
-106 -120 0
-107 -121 0
-108 -122 0
-109 -123 0
-110 -124 0
-111 -125 0
-112 -126 0
-99 -239 0
-100 -240 0
-101 -241 0
-102 -242 0
-103 -243 0
-104 -244 0
-105 -245 0
-106 -246 0
-107 -247 0
-108 -248 0
-109 -249 0
-110 -250 0
-111 -251 0
-112 -252 0
-141 -183 0
-142 -184 0
-143 -185 0
-144 -186 0
-145 -187 0
-146 -188 0
-147 -189 0
-148 -190 0
-149 -191 0
-150 -192 0
-151 -193 0
-152 -194 0
-153 -195 0
-154 -196 0
-15 -435 0
-16 -436 0
-17 -437 0
-18 -438 0
-19 -439 0
-20 -440 0
-21 -441 0
-22 -442 0
-23 -443 0
-24 -444 0
-25 -445 0
-26 -446 0
-27 -447 0
-28 -448 0
-295 -127 0
-296 -128 0
-297 -129 0
-298 -130 0
-299 -131 0
-300 -132 0
-301 -133 0
-302 -134 0
-303 -135 0
-304 -136 0
-305 -137 0
-306 -138 0
-307 -139 0
-308 -140 0
-29 -71 0
-30 -72 0
-31 -73 0
-32 -74 0
-33 -75 0
-34 -76 0
-35 -77 0
-36 -78 0
-37 -79 0
-38 -80 0
-39 -81 0
-40 -82 0
-41 -83 0
-42 -84 0
-295 -253 0
-296 -254 0
-297 -255 0
-298 -256 0
-299 -257 0
-300 -258 0
-301 -259 0
-302 -260 0
-303 -261 0
-304 -262 0
-305 -263 0
-306 -264 0
-307 -265 0
-308 -266 0
-29 -197 0
-30 -198 0
-31 -199 0
-32 -200 0
-33 -201 0
-34 -202 0
-35 -203 0
-36 -204 0
-37 -205 0
-38 -206 0
-39 -207 0
-40 -208 0
-41 -209 0
-42 -210 0
-183 -197 0
-184 -198 0
-185 -199 0
-186 -200 0
-187 -201 0
-188 -202 0
-189 -203 0
-190 -204 0
-191 -205 0
-192 -206 0
-193 -207 0
-194 -208 0
-195 -209 0
-196 -210 0
-29 -323 0
-30 -324 0
-31 -325 0
-32 -326 0
-33 -327 0
-34 -328 0
-35 -329 0
-36 -330 0
-37 -331 0
-38 -332 0
-39 -333 0
-40 -334 0
-41 -335 0
-42 -336 0
-197 -211 0
-198 -212 0
-199 -213 0
-200 -214 0
-201 -215 0
-202 -216 0
-203 -217 0
-204 -218 0
-205 -219 0
-206 -220 0
-207 -221 0
-208 -222 0
-209 -223 0
-210 -224 0
-85 -155 0
-86 -156 0
-87 -157 0
-88 -158 0
-89 -159 0
-90 -160 0
-91 -161 0
-92 -162 0
-93 -163 0
-94 -164 0
-95 -165 0
-96 -166 0
-97 -167 0
-98 -168 0
-197 -337 0
-198 -338 0
-199 -339 0
-200 -340 0
-201 -341 0
-202 -342 0
-203 -343 0
-204 -344 0
-205 -345 0
-206 -346 0
-207 -347 0
-208 -348 0
-209 -349 0
-210 -350 0
-351 -337 0
-352 -338 0
-353 -339 0
-354 -340 0
-355 -341 0
-356 -342 0
-357 -343 0
-358 -344 0
-359 -345 0
-360 -346 0
-361 -347 0
-362 -348 0
-363 -349 0
-364 -350 0
-85 -281 0
-86 -282 0
-87 -283 0
-88 -284 0
-89 -285 0
-90 -286 0
-91 -287 0
-92 -288 0
-93 -289 0
-94 -290 0
-95 -291 0
-96 -292 0
-97 -293 0
-98 -294 0
-365 -99 0
-366 -100 0
-367 -101 0
-368 -102 0
-369 -103 0
-370 -104 0
-371 -105 0
-372 -106 0
-373 -107 0
-374 -108 0
-375 -109 0
-376 -110 0
-377 -111 0
-378 -112 0
-295 -183 0
-296 -184 0
-297 -185 0
-298 -186 0
-299 -187 0
-300 -188 0
-301 -189 0
-302 -190 0
-303 -191 0
-304 -192 0
-305 -193 0
-306 -194 0
-307 -195 0
-308 -196 0
-29 -127 0
-30 -128 0
-31 -129 0
-32 -130 0
-33 -131 0
-34 -132 0
-35 -133 0
-36 -134 0
-37 -135 0
-38 -136 0
-39 -137 0
-40 -138 0
-41 -139 0
-42 -140 0
-29 -253 0
-30 -254 0
-31 -255 0
-32 -256 0
-33 -257 0
-34 -258 0
-35 -259 0
-36 -260 0
-37 -261 0
-38 -262 0
-39 -263 0
-40 -264 0
-41 -265 0
-42 -266 0
-183 -253 0
-184 -254 0
-185 -255 0
-186 -256 0
-187 -257 0
-188 -258 0
-189 -259 0
-190 -260 0
-191 -261 0
-192 -262 0
-193 -263 0
-194 -264 0
-195 -265 0
-196 -266 0
-351 -267 0
-352 -268 0
-353 -269 0
-354 -270 0
-355 -271 0
-356 -272 0
-357 -273 0
-358 -274 0
-359 -275 0
-360 -276 0
-361 -277 0
-362 -278 0
-363 -279 0
-364 -280 0
-85 -211 0
-86 -212 0
-87 -213 0
-88 -214 0
-89 -215 0
-90 -216 0
-91 -217 0
-92 -218 0
-93 -219 0
-94 -220 0
-95 -221 0
-96 -222 0
-97 -223 0
-98 -224 0
-393 -169 0
-394 -170 0
-395 -171 0
-396 -172 0
-397 -173 0
-398 -174 0
-399 -175 0
-400 -176 0
-401 -177 0
-402 -178 0
-403 -179 0
-404 -180 0
-405 -181 0
-406 -182 0
-281 -239 0
-282 -240 0
-283 -241 0
-284 -242 0
-285 -243 0
-286 -244 0
-287 -245 0
-288 -246 0
-289 -247 0
-290 -248 0
-291 -249 0
-292 -250 0
-293 -251 0
-294 -252 0
-71 -393 0
-72 -394 0
-73 -395 0
-74 -396 0
-75 -397 0
-76 -398 0
-77 -399 0
-78 -400 0
-79 -401 0
-80 -402 0
-81 -403 0
-82 -404 0
-83 -405 0
-84 -406 0
-393 -421 0
-394 -422 0
-395 -423 0
-396 -424 0
-397 -425 0
-398 -426 0
-399 -427 0
-400 -428 0
-401 -429 0
-402 -430 0
-403 -431 0
-404 -432 0
-405 -433 0
-406 -434 0
-127 -225 0
-128 -226 0
-129 -227 0
-130 -228 0
-131 -229 0
-132 -230 0
-133 -231 0
-134 -232 0
-135 -233 0
-136 -234 0
-137 -235 0
-138 -236 0
-139 -237 0
-140 -238 0
-15 -169 0
-16 -170 0
-17 -171 0
-18 -172 0
-19 -173 0
-20 -174 0
-21 -175 0
-22 -176 0
-23 -177 0
-24 -178 0
-25 -179 0
-26 -180 0
-27 -181 0
-28 -182 0
-127 -351 0
-128 -352 0
-129 -353 0
-130 -354 0
-131 -355 0
-132 -356 0
-133 -357 0
-134 -358 0
-135 -359 0
-136 -360 0
-137 -361 0
-138 -362 0
-139 -363 0
-140 -364 0
-15 -295 0
-16 -296 0
-17 -297 0
-18 -298 0
-19 -299 0
-20 -300 0
-21 -301 0
-22 -302 0
-23 -303 0
-24 -304 0
-25 -305 0
-26 -306 0
-27 -307 0
-28 -308 0
-15 -421 0
-16 -422 0
-17 -423 0
-18 -424 0
-19 -425 0
-20 -426 0
-21 -427 0
-22 -428 0
-23 -429 0
-24 -430 0
-25 -431 0
-26 -432 0
-27 -433 0
-28 -434 0
-295 -113 0
-296 -114 0
-297 -115 0
-298 -116 0
-299 -117 0
-300 -118 0
-301 -119 0
-302 -120 0
-303 -121 0
-304 -122 0
-305 -123 0
-306 -124 0
-307 -125 0
-308 -126 0
-29 -57 0
-30 -58 0
-31 -59 0
-32 -60 0
-33 -61 0
-34 -62 0
-35 -63 0
-36 -64 0
-37 -65 0
-38 -66 0
-39 -67 0
-40 -68 0
-41 -69 0
-42 -70 0
-295 -239 0
-296 -240 0
-297 -241 0
-298 -242 0
-299 -243 0
-300 -244 0
-301 -245 0
-302 -246 0
-303 -247 0
-304 -248 0
-305 -249 0
-306 -250 0
-307 -251 0
-308 -252 0
-29 -183 0
-30 -184 0
-31 -185 0
-32 -186 0
-33 -187 0
-34 -188 0
-35 -189 0
-36 -190 0
-37 -191 0
-38 -192 0
-39 -193 0
-40 -194 0
-41 -195 0
-42 -196 0
-29 -309 0
-30 -310 0
-31 -311 0
-32 -312 0
-33 -313 0
-34 -314 0
-35 -315 0
-36 -316 0
-37 -317 0
-38 -318 0
-39 -319 0
-40 -320 0
-41 -321 0
-42 -322 0
-225 -337 0
-226 -338 0
-227 -339 0
-228 -340 0
-229 -341 0
-230 -342 0
-231 -343 0
-232 -344 0
-233 -345 0
-234 -346 0
-235 -347 0
-236 -348 0
-237 -349 0
-238 -350 0
-379 -337 0
-380 -338 0
-381 -339 0
-382 -340 0
-383 -341 0
-384 -342 0
-385 -343 0
-386 -344 0
-387 -345 0
-388 -346 0
-389 -347 0
-390 -348 0
-391 -349 0
-392 -350 0
-85 -141 0
-86 -142 0
-87 -143 0
-88 -144 0
-89 -145 0
-90 -146 0
-91 -147 0
-92 -148 0
-93 -149 0
-94 -150 0
-95 -151 0
-96 -152 0
-97 -153 0
-98 -154 0
-71 -197 0
-72 -198 0
-73 -199 0
-74 -200 0
-75 -201 0
-76 -202 0
-77 -203 0
-78 -204 0
-79 -205 0
-80 -206 0
-81 -207 0
-82 -208 0
-83 -209 0
-84 -210 0
-281 -169 0
-282 -170 0
-283 -171 0
-284 -172 0
-285 -173 0
-286 -174 0
-287 -175 0
-288 -176 0
-289 -177 0
-290 -178 0
-291 -179 0
-292 -180 0
-293 -181 0
-294 -182 0
-71 -323 0
-72 -324 0
-73 -325 0
-74 -326 0
-75 -327 0
-76 -328 0
-77 -329 0
-78 -330 0
-79 -331 0
-80 -332 0
-81 -333 0
-82 -334 0
-83 -335 0
-84 -336 0
-393 -351 0
-394 -352 0
-395 -353 0
-396 -354 0
-397 -355 0
-398 -356 0
-399 -357 0
-400 -358 0
-401 -359 0
-402 -360 0
-403 -361 0
-404 -362 0
-405 -363 0
-406 -364 0
-127 -155 0
-128 -156 0
-129 -157 0
-130 -158 0
-131 -159 0
-132 -160 0
-133 -161 0
-134 -162 0
-135 -163 0
-136 -164 0
-137 -165 0
-138 -166 0
-139 -167 0
-140 -168 0
-15 -99 0
-16 -100 0
-17 -101 0
-18 -102 0
-19 -103 0
-20 -104 0
-21 -105 0
-22 -106 0
-23 -107 0
-24 -108 0
-25 -109 0
-26 -110 0
-27 -111 0
-28 -112 0
-127 -281 0
-128 -282 0
-129 -283 0
-130 -284 0
-131 -285 0
-132 -286 0
-133 -287 0
-134 -288 0
-135 -289 0
-136 -290 0
-137 -291 0
-138 -292 0
-139 -293 0
-140 -294 0
-15 -225 0
-16 -226 0
-17 -227 0
-18 -228 0
-19 -229 0
-20 -230 0
-21 -231 0
-22 -232 0
-23 -233 0
-24 -234 0
-25 -235 0
-26 -236 0
-27 -237 0
-28 -238 0
-15 -351 0
-16 -352 0
-17 -353 0
-18 -354 0
-19 -355 0
-20 -356 0
-21 -357 0
-22 -358 0
-23 -359 0
-24 -360 0
-25 -361 0
-26 -362 0
-27 -363 0
-28 -364 0
-295 -169 0
-296 -170 0
-297 -171 0
-298 -172 0
-299 -173 0
-300 -174 0
-301 -175 0
-302 -176 0
-303 -177 0
-304 -178 0
-305 -179 0
-306 -180 0
-307 -181 0
-308 -182 0
-169 -435 0
-170 -436 0
-171 -437 0
-172 -438 0
-173 -439 0
-174 -440 0
-175 -441 0
-176 -442 0
-177 -443 0
-178 -444 0
-179 -445 0
-180 -446 0
-181 -447 0
-182 -448 0
-29 -113 0
-30 -114 0
-31 -115 0
-32 -116 0
-33 -117 0
-34 -118 0
-35 -119 0
-36 -120 0
-37 -121 0
-38 -122 0
-39 -123 0
-40 -124 0
-41 -125 0
-42 -126 0
-29 -239 0
-30 -240 0
-31 -241 0
-32 -242 0
-33 -243 0
-34 -244 0
-35 -245 0
-36 -246 0
-37 -247 0
-38 -248 0
-39 -249 0
-40 -250 0
-41 -251 0
-42 -252 0
-183 -239 0
-184 -240 0
-185 -241 0
-186 -242 0
-187 -243 0
-188 -244 0
-189 -245 0
-190 -246 0
-191 -247 0
-192 -248 0
-193 -249 0
-194 -250 0
-195 -251 0
-196 -252 0
-225 -267 0
-226 -268 0
-227 -269 0
-228 -270 0
-229 -271 0
-230 -272 0
-231 -273 0
-232 -274 0
-233 -275 0
-234 -276 0
-235 -277 0
-236 -278 0
-237 -279 0
-238 -280 0
-379 -267 0
-380 -268 0
-381 -269 0
-382 -270 0
-383 -271 0
-384 -272 0
-385 -273 0
-386 -274 0
-387 -275 0
-388 -276 0
-389 -277 0
-390 -278 0
-391 -279 0
-392 -280 0
-379 -393 0
-380 -394 0
-381 -395 0
-382 -396 0
-383 -397 0
-384 -398 0
-385 -399 0
-386 -400 0
-387 -401 0
-388 -402 0
-389 -403 0
-390 -404 0
-391 -405 0
-392 -406 0
-113 -337 0
-114 -338 0
-115 -339 0
-116 -340 0
-117 -341 0
-118 -342 0
-119 -343 0
-120 -344 0
-121 -345 0
-122 -346 0
-123 -347 0
-124 -348 0
-125 -349 0
-126 -350 0
-71 -127 0
-72 -128 0
-73 -129 0
-74 -130 0
-75 -131 0
-76 -132 0
-77 -133 0
-78 -134 0
-79 -135 0
-80 -136 0
-81 -137 0
-82 -138 0
-83 -139 0
-84 -140 0
-71 -253 0
-72 -254 0
-73 -255 0
-74 -256 0
-75 -257 0
-76 -258 0
-77 -259 0
-78 -260 0
-79 -261 0
-80 -262 0
-81 -263 0
-82 -264 0
-83 -265 0
-84 -266 0
-281 -225 0
-282 -226 0
-283 -227 0
-284 -228 0
-285 -229 0
-286 -230 0
-287 -231 0
-288 -232 0
-289 -233 0
-290 -234 0
-291 -235 0
-292 -236 0
-293 -237 0
-294 -238 0
-393 -407 0
-394 -408 0
-395 -409 0
-396 -410 0
-397 -411 0
-398 -412 0
-399 -413 0
-400 -414 0
-401 -415 0
-402 -416 0
-403 -417 0
-404 -418 0
-405 -419 0
-406 -420 0
-15 -29 0
-16 -30 0
-17 -31 0
-18 -32 0
-19 -33 0
-20 -34 0
-21 -35 0
-22 -36 0
-23 -37 0
-24 -38 0
-25 -39 0
-26 -40 0
-27 -41 0
-28 -42 0
-127 -211 0
-128 -212 0
-129 -213 0
-130 -214 0
-131 -215 0
-132 -216 0
-133 -217 0
-134 -218 0
-135 -219 0
-136 -220 0
-137 -221 0
-138 -222 0
-139 -223 0
-140 -224 0
-15 -155 0
-16 -156 0
-17 -157 0
-18 -158 0
-19 -159 0
-20 -160 0
-21 -161 0
-22 -162 0
-23 -163 0
-24 -164 0
-25 -165 0
-26 -166 0
-27 -167 0
-28 -168 0
-127 -337 0
-128 -338 0
-129 -339 0
-130 -340 0
-131 -341 0
-132 -342 0
-133 -343 0
-134 -344 0
-135 -345 0
-136 -346 0
-137 -347 0
-138 -348 0
-139 -349 0
-140 -350 0
-15 -281 0
-16 -282 0
-17 -283 0
-18 -284 0
-19 -285 0
-20 -286 0
-21 -287 0
-22 -288 0
-23 -289 0
-24 -290 0
-25 -291 0
-26 -292 0
-27 -293 0
-28 -294 0
-15 -407 0
-16 -408 0
-17 -409 0
-18 -410 0
-19 -411 0
-20 -412 0
-21 -413 0
-22 -414 0
-23 -415 0
-24 -416 0
-25 -417 0
-26 -418 0
-27 -419 0
-28 -420 0
-295 -99 0
-296 -100 0
-297 -101 0
-298 -102 0
-299 -103 0
-300 -104 0
-301 -105 0
-302 -106 0
-303 -107 0
-304 -108 0
-305 -109 0
-306 -110 0
-307 -111 0
-308 -112 0
-29 -43 0
-30 -44 0
-31 -45 0
-32 -46 0
-33 -47 0
-34 -48 0
-35 -49 0
-36 -50 0
-37 -51 0
-38 -52 0
-39 -53 0
-40 -54 0
-41 -55 0
-42 -56 0
-211 -435 0
-212 -436 0
-213 -437 0
-214 -438 0
-215 -439 0
-216 -440 0
-217 -441 0
-218 -442 0
-219 -443 0
-220 -444 0
-221 -445 0
-222 -446 0
-223 -447 0
-224 -448 0
-379 -71 0
-380 -72 0
-381 -73 0
-382 -74 0
-383 -75 0
-384 -76 0
-385 -77 0
-386 -78 0
-387 -79 0
-388 -80 0
-389 -81 0
-390 -82 0
-391 -83 0
-392 -84 0
-379 -197 0
-380 -198 0
-381 -199 0
-382 -200 0
-383 -201 0
-384 -202 0
-385 -203 0
-386 -204 0
-387 -205 0
-388 -206 0
-389 -207 0
-390 -208 0
-391 -209 0
-392 -210 0
-113 -141 0
-114 -142 0
-115 -143 0
-116 -144 0
-117 -145 0
-118 -146 0
-119 -147 0
-120 -148 0
-121 -149 0
-122 -150 0
-123 -151 0
-124 -152 0
-125 -153 0
-126 -154 0
-57 -295 0
-58 -296 0
-59 -297 0
-60 -298 0
-61 -299 0
-62 -300 0
-63 -301 0
-64 -302 0
-65 -303 0
-66 -304 0
-67 -305 0
-68 -306 0
-69 -307 0
-70 -308 0
-379 -323 0
-380 -324 0
-381 -325 0
-382 -326 0
-383 -327 0
-384 -328 0
-385 -329 0
-386 -330 0
-387 -331 0
-388 -332 0
-389 -333 0
-390 -334 0
-391 -335 0
-392 -336 0
-113 -267 0
-114 -268 0
-115 -269 0
-116 -270 0
-117 -271 0
-118 -272 0
-119 -273 0
-120 -274 0
-121 -275 0
-122 -276 0
-123 -277 0
-124 -278 0
-125 -279 0
-126 -280 0
-57 -421 0
-58 -422 0
-59 -423 0
-60 -424 0
-61 -425 0
-62 -426 0
-63 -427 0
-64 -428 0
-65 -429 0
-66 -430 0
-67 -431 0
-68 -432 0
-69 -433 0
-70 -434 0
-71 -183 0
-72 -184 0
-73 -185 0
-74 -186 0
-75 -187 0
-76 -188 0
-77 -189 0
-78 -190 0
-79 -191 0
-80 -192 0
-81 -193 0
-82 -194 0
-83 -195 0
-84 -196 0
-393 -211 0
-394 -212 0
-395 -213 0
-396 -214 0
-397 -215 0
-398 -216 0
-399 -217 0
-400 -218 0
-401 -219 0
-402 -220 0
-403 -221 0
-404 -222 0
-405 -223 0
-406 -224 0
-281 -155 0
-282 -156 0
-283 -157 0
-284 -158 0
-285 -159 0
-286 -160 0
-287 -161 0
-288 -162 0
-289 -163 0
-290 -164 0
-291 -165 0
-292 -166 0
-293 -167 0
-294 -168 0
-71 -309 0
-72 -310 0
-73 -311 0
-74 -312 0
-75 -313 0
-76 -314 0
-77 -315 0
-78 -316 0
-79 -317 0
-80 -318 0
-81 -319 0
-82 -320 0
-83 -321 0
-84 -322 0
-393 -337 0
-394 -338 0
-395 -339 0
-396 -340 0
-397 -341 0
-398 -342 0
-399 -343 0
-400 -344 0
-401 -345 0
-402 -346 0
-403 -347 0
-404 -348 0
-405 -349 0
-406 -350 0
-127 -141 0
-128 -142 0
-129 -143 0
-130 -144 0
-131 -145 0
-132 -146 0
-133 -147 0
-134 -148 0
-135 -149 0
-136 -150 0
-137 -151 0
-138 -152 0
-139 -153 0
-140 -154 0
-15 -85 0
-16 -86 0
-17 -87 0
-18 -88 0
-19 -89 0
-20 -90 0
-21 -91 0
-22 -92 0
-23 -93 0
-24 -94 0
-25 -95 0
-26 -96 0
-27 -97 0
-28 -98 0
-15 -211 0
-16 -212 0
-17 -213 0
-18 -214 0
-19 -215 0
-20 -216 0
-21 -217 0
-22 -218 0
-23 -219 0
-24 -220 0
-25 -221 0
-26 -222 0
-27 -223 0
-28 -224 0
-323 -169 0
-324 -170 0
-325 -171 0
-326 -172 0
-327 -173 0
-328 -174 0
-329 -175 0
-330 -176 0
-331 -177 0
-332 -178 0
-333 -179 0
-334 -180 0
-335 -181 0
-336 -182 0
-435 -351 0
-436 -352 0
-437 -353 0
-438 -354 0
-439 -355 0
-440 -356 0
-441 -357 0
-442 -358 0
-443 -359 0
-444 -360 0
-445 -361 0
-446 -362 0
-447 -363 0
-448 -364 0
-211 -239 0
-212 -240 0
-213 -241 0
-214 -242 0
-215 -243 0
-216 -244 0
-217 -245 0
-218 -246 0
-219 -247 0
-220 -248 0
-221 -249 0
-222 -250 0
-223 -251 0
-224 -252 0
-1 -393 0
-2 -394 0
-3 -395 0
-4 -396 0
-5 -397 0
-6 -398 0
-7 -399 0
-8 -400 0
-9 -401 0
-10 -402 0
-11 -403 0
-12 -404 0
-13 -405 0
-14 -406 0
-323 -421 0
-324 -422 0
-325 -423 0
-326 -424 0
-327 -425 0
-328 -426 0
-329 -427 0
-330 -428 0
-331 -429 0
-332 -430 0
-333 -431 0
-334 -432 0
-335 -433 0
-336 -434 0
-379 -1 0
-380 -2 0
-381 -3 0
-382 -4 0
-383 -5 0
-384 -6 0
-385 -7 0
-386 -8 0
-387 -9 0
-388 -10 0
-389 -11 0
-390 -12 0
-391 -13 0
-392 -14 0
-57 -99 0
-58 -100 0
-59 -101 0
-60 -102 0
-61 -103 0
-62 -104 0
-63 -105 0
-64 -106 0
-65 -107 0
-66 -108 0
-67 -109 0
-68 -110 0
-69 -111 0
-70 -112 0
-57 -225 0
-58 -226 0
-59 -227 0
-60 -228 0
-61 -229 0
-62 -230 0
-63 -231 0
-64 -232 0
-65 -233 0
-66 -234 0
-67 -235 0
-68 -236 0
-69 -237 0
-70 -238 0
-225 -253 0
-226 -254 0
-227 -255 0
-228 -256 0
-229 -257 0
-230 -258 0
-231 -259 0
-232 -260 0
-233 -261 0
-234 -262 0
-235 -263 0
-236 -264 0
-237 -265 0
-238 -266 0
-113 -197 0
-114 -198 0
-115 -199 0
-116 -200 0
-117 -201 0
-118 -202 0
-119 -203 0
-120 -204 0
-121 -205 0
-122 -206 0
-123 -207 0
-124 -208 0
-125 -209 0
-126 -210 0
-57 -351 0
-58 -352 0
-59 -353 0
-60 -354 0
-61 -355 0
-62 -356 0
-63 -357 0
-64 -358 0
-65 -359 0
-66 -360 0
-67 -361 0
-68 -362 0
-69 -363 0
-70 -364 0
-113 -323 0
-114 -324 0
-115 -325 0
-116 -326 0
-117 -327 0
-118 -328 0
-119 -329 0
-120 -330 0
-121 -331 0
-122 -332 0
-123 -333 0
-124 -334 0
-125 -335 0
-126 -336 0
-71 -113 0
-72 -114 0
-73 -115 0
-74 -116 0
-75 -117 0
-76 -118 0
-77 -119 0
-78 -120 0
-79 -121 0
-80 -122 0
-81 -123 0
-82 -124 0
-83 -125 0
-84 -126 0
-71 -239 0
-72 -240 0
-73 -241 0
-74 -242 0
-75 -243 0
-76 -244 0
-77 -245 0
-78 -246 0
-79 -247 0
-80 -248 0
-81 -249 0
-82 -250 0
-83 -251 0
-84 -252 0
-281 -211 0
-282 -212 0
-283 -213 0
-284 -214 0
-285 -215 0
-286 -216 0
-287 -217 0
-288 -218 0
-289 -219 0
-290 -220 0
-291 -221 0
-292 -222 0
-293 -223 0
-294 -224 0
-309 -337 0
-310 -338 0
-311 -339 0
-312 -340 0
-313 -341 0
-314 -342 0
-315 -343 0
-316 -344 0
-317 -345 0
-318 -346 0
-319 -347 0
-320 -348 0
-321 -349 0
-322 -350 0
-15 -141 0
-16 -142 0
-17 -143 0
-18 -144 0
-19 -145 0
-20 -146 0
-21 -147 0
-22 -148 0
-23 -149 0
-24 -150 0
-25 -151 0
-26 -152 0
-27 -153 0
-28 -154 0
-43 -407 0
-44 -408 0
-45 -409 0
-46 -410 0
-47 -411 0
-48 -412 0
-49 -413 0
-50 -414 0
-51 -415 0
-52 -416 0
-53 -417 0
-54 -418 0
-55 -419 0
-56 -420 0
-1 -197 0
-2 -198 0
-3 -199 0
-4 -200 0
-5 -201 0
-6 -202 0
-7 -203 0
-8 -204 0
-9 -205 0
-10 -206 0
-11 -207 0
-12 -208 0
-13 -209 0
-14 -210 0
-169 -225 0
-170 -226 0
-171 -227 0
-172 -228 0
-173 -229 0
-174 -230 0
-175 -231 0
-176 -232 0
-177 -233 0
-178 -234 0
-179 -235 0
-180 -236 0
-181 -237 0
-182 -238 0
-323 -225 0
-324 -226 0
-325 -227 0
-326 -228 0
-327 -229 0
-328 -230 0
-329 -231 0
-330 -232 0
-331 -233 0
-332 -234 0
-333 -235 0
-334 -236 0
-335 -237 0
-336 -238 0
-1 -323 0
-2 -324 0
-3 -325 0
-4 -326 0
-5 -327 0
-6 -328 0
-7 -329 0
-8 -330 0
-9 -331 0
-10 -332 0
-11 -333 0
-12 -334 0
-13 -335 0
-14 -336 0
-323 -351 0
-324 -352 0
-325 -353 0
-326 -354 0
-327 -355 0
-328 -356 0
-329 -357 0
-330 -358 0
-331 -359 0
-332 -360 0
-333 -361 0
-334 -362 0
-335 -363 0
-336 -364 0
-169 -351 0
-170 -352 0
-171 -353 0
-172 -354 0
-173 -355 0
-174 -356 0
-175 -357 0
-176 -358 0
-177 -359 0
-178 -360 0
-179 -361 0
-180 -362 0
-181 -363 0
-182 -364 0
-379 -57 0
-380 -58 0
-381 -59 0
-382 -60 0
-383 -61 0
-384 -62 0
-385 -63 0
-386 -64 0
-387 -65 0
-388 -66 0
-389 -67 0
-390 -68 0
-391 -69 0
-392 -70 0
-57 -155 0
-58 -156 0
-59 -157 0
-60 -158 0
-61 -159 0
-62 -160 0
-63 -161 0
-64 -162 0
-65 -163 0
-66 -164 0
-67 -165 0
-68 -166 0
-69 -167 0
-70 -168 0
-113 -127 0
-114 -128 0
-115 -129 0
-116 -130 0
-117 -131 0
-118 -132 0
-119 -133 0
-120 -134 0
-121 -135 0
-122 -136 0
-123 -137 0
-124 -138 0
-125 -139 0
-126 -140 0
-57 -281 0
-58 -282 0
-59 -283 0
-60 -284 0
-61 -285 0
-62 -286 0
-63 -287 0
-64 -288 0
-65 -289 0
-66 -290 0
-67 -291 0
-68 -292 0
-69 -293 0
-70 -294 0
-379 -309 0
-380 -310 0
-381 -311 0
-382 -312 0
-383 -313 0
-384 -314 0
-385 -315 0
-386 -316 0
-387 -317 0
-388 -318 0
-389 -319 0
-390 -320 0
-391 -321 0
-392 -322 0
-113 -253 0
-114 -254 0
-115 -255 0
-116 -256 0
-117 -257 0
-118 -258 0
-119 -259 0
-120 -260 0
-121 -261 0
-122 -262 0
-123 -263 0
-124 -264 0
-125 -265 0
-126 -266 0
-57 -407 0
-58 -408 0
-59 -409 0
-60 -410 0
-61 -411 0
-62 -412 0
-63 -413 0
-64 -414 0
-65 -415 0
-66 -416 0
-67 -417 0
-68 -418 0
-69 -419 0
-70 -420 0
-71 -169 0
-72 -170 0
-73 -171 0
-74 -172 0
-75 -173 0
-76 -174 0
-77 -175 0
-78 -176 0
-79 -177 0
-80 -178 0
-81 -179 0
-82 -180 0
-83 -181 0
-84 -182 0
-421 -197 0
-422 -198 0
-423 -199 0
-424 -200 0
-425 -201 0
-426 -202 0
-427 -203 0
-428 -204 0
-429 -205 0
-430 -206 0
-431 -207 0
-432 -208 0
-433 -209 0
-434 -210 0
-155 -267 0
-156 -268 0
-157 -269 0
-158 -270 0
-159 -271 0
-160 -272 0
-161 -273 0
-162 -274 0
-163 -275 0
-164 -276 0
-165 -277 0
-166 -278 0
-167 -279 0
-168 -280 0
-309 -267 0
-310 -268 0
-311 -269 0
-312 -270 0
-313 -271 0
-314 -272 0
-315 -273 0
-316 -274 0
-317 -275 0
-318 -276 0
-319 -277 0
-320 -278 0
-321 -279 0
-322 -280 0
-309 -393 0
-310 -394 0
-311 -395 0
-312 -396 0
-313 -397 0
-314 -398 0
-315 -399 0
-316 -400 0
-317 -401 0
-318 -402 0
-319 -403 0
-320 -404 0
-321 -405 0
-322 -406 0
-43 -337 0
-44 -338 0
-45 -339 0
-46 -340 0
-47 -341 0
-48 -342 0
-49 -343 0
-50 -344 0
-51 -345 0
-52 -346 0
-53 -347 0
-54 -348 0
-55 -349 0
-56 -350 0
-1 -127 0
-2 -128 0
-3 -129 0
-4 -130 0
-5 -131 0
-6 -132 0
-7 -133 0
-8 -134 0
-9 -135 0
-10 -136 0
-11 -137 0
-12 -138 0
-13 -139 0
-14 -140 0
-1 -253 0
-2 -254 0
-3 -255 0
-4 -256 0
-5 -257 0
-6 -258 0
-7 -259 0
-8 -260 0
-9 -261 0
-10 -262 0
-11 -263 0
-12 -264 0
-13 -265 0
-14 -266 0
-211 -225 0
-212 -226 0
-213 -227 0
-214 -228 0
-215 -229 0
-216 -230 0
-217 -231 0
-218 -232 0
-219 -233 0
-220 -234 0
-221 -235 0
-222 -236 0
-223 -237 0
-224 -238 0
-323 -407 0
-324 -408 0
-325 -409 0
-326 -410 0
-327 -411 0
-328 -412 0
-329 -413 0
-330 -414 0
-331 -415 0
-332 -416 0
-333 -417 0
-334 -418 0
-335 -419 0
-336 -420 0
-169 -407 0
-170 -408 0
-171 -409 0
-172 -410 0
-173 -411 0
-174 -412 0
-175 -413 0
-176 -414 0
-177 -415 0
-178 -416 0
-179 -417 0
-180 -418 0
-181 -419 0
-182 -420 0
-211 -351 0
-212 -352 0
-213 -353 0
-214 -354 0
-215 -355 0
-216 -356 0
-217 -357 0
-218 -358 0
-219 -359 0
-220 -360 0
-221 -361 0
-222 -362 0
-223 -363 0
-224 -364 0
-57 -85 0
-58 -86 0
-59 -87 0
-60 -88 0
-61 -89 0
-62 -90 0
-63 -91 0
-64 -92 0
-65 -93 0
-66 -94 0
-67 -95 0
-68 -96 0
-69 -97 0
-70 -98 0
-57 -211 0
-58 -212 0
-59 -213 0
-60 -214 0
-61 -215 0
-62 -216 0
-63 -217 0
-64 -218 0
-65 -219 0
-66 -220 0
-67 -221 0
-68 -222 0
-69 -223 0
-70 -224 0
-113 -183 0
-114 -184 0
-115 -185 0
-116 -186 0
-117 -187 0
-118 -188 0
-119 -189 0
-120 -190 0
-121 -191 0
-122 -192 0
-123 -193 0
-124 -194 0
-125 -195 0
-126 -196 0
-57 -337 0
-58 -338 0
-59 -339 0
-60 -340 0
-61 -341 0
-62 -342 0
-63 -343 0
-64 -344 0
-65 -345 0
-66 -346 0
-67 -347 0
-68 -348 0
-69 -349 0
-70 -350 0
-155 -197 0
-156 -198 0
-157 -199 0
-158 -200 0
-159 -201 0
-160 -202 0
-161 -203 0
-162 -204 0
-163 -205 0
-164 -206 0
-165 -207 0
-166 -208 0
-167 -209 0
-168 -210 0
-309 -197 0
-310 -198 0
-311 -199 0
-312 -200 0
-313 -201 0
-314 -202 0
-315 -203 0
-316 -204 0
-317 -205 0
-318 -206 0
-319 -207 0
-320 -208 0
-321 -209 0
-322 -210 0
-43 -141 0
-44 -142 0
-45 -143 0
-46 -144 0
-47 -145 0
-48 -146 0
-49 -147 0
-50 -148 0
-51 -149 0
-52 -150 0
-53 -151 0
-54 -152 0
-55 -153 0
-56 -154 0
-309 -323 0
-310 -324 0
-311 -325 0
-312 -326 0
-313 -327 0
-314 -328 0
-315 -329 0
-316 -330 0
-317 -331 0
-318 -332 0
-319 -333 0
-320 -334 0
-321 -335 0
-322 -336 0
-43 -267 0
-44 -268 0
-45 -269 0
-46 -270 0
-47 -271 0
-48 -272 0
-49 -273 0
-50 -274 0
-51 -275 0
-52 -276 0
-53 -277 0
-54 -278 0
-55 -279 0
-56 -280 0
-43 -393 0
-44 -394 0
-45 -395 0
-46 -396 0
-47 -397 0
-48 -398 0
-49 -399 0
-50 -400 0
-51 -401 0
-52 -402 0
-53 -403 0
-54 -404 0
-55 -405 0
-56 -406 0
-1 -57 0
-2 -58 0
-3 -59 0
-4 -60 0
-5 -61 0
-6 -62 0
-7 -63 0
-8 -64 0
-9 -65 0
-10 -66 0
-11 -67 0
-12 -68 0
-13 -69 0
-14 -70 0
-1 -183 0
-2 -184 0
-3 -185 0
-4 -186 0
-5 -187 0
-6 -188 0
-7 -189 0
-8 -190 0
-9 -191 0
-10 -192 0
-11 -193 0
-12 -194 0
-13 -195 0
-14 -196 0
-169 -211 0
-170 -212 0
-171 -213 0
-172 -214 0
-173 -215 0
-174 -216 0
-175 -217 0
-176 -218 0
-177 -219 0
-178 -220 0
-179 -221 0
-180 -222 0
-181 -223 0
-182 -224 0
-323 -211 0
-324 -212 0
-325 -213 0
-326 -214 0
-327 -215 0
-328 -216 0
-329 -217 0
-330 -218 0
-331 -219 0
-332 -220 0
-333 -221 0
-334 -222 0
-335 -223 0
-336 -224 0
-1 -309 0
-2 -310 0
-3 -311 0
-4 -312 0
-5 -313 0
-6 -314 0
-7 -315 0
-8 -316 0
-9 -317 0
-10 -318 0
-11 -319 0
-12 -320 0
-13 -321 0
-14 -322 0
-323 -337 0
-324 -338 0
-325 -339 0
-326 -340 0
-327 -341 0
-328 -342 0
-329 -343 0
-330 -344 0
-331 -345 0
-332 -346 0
-333 -347 0
-334 -348 0
-335 -349 0
-336 -350 0
-379 -43 0
-380 -44 0
-381 -45 0
-382 -46 0
-383 -47 0
-384 -48 0
-385 -49 0
-386 -50 0
-387 -51 0
-388 -52 0
-389 -53 0
-390 -54 0
-391 -55 0
-392 -56 0
-57 -141 0
-58 -142 0
-59 -143 0
-60 -144 0
-61 -145 0
-62 -146 0
-63 -147 0
-64 -148 0
-65 -149 0
-66 -150 0
-67 -151 0
-68 -152 0
-69 -153 0
-70 -154 0
-99 -169 0
-100 -170 0
-101 -171 0
-102 -172 0
-103 -173 0
-104 -174 0
-105 -175 0
-106 -176 0
-107 -177 0
-108 -178 0
-109 -179 0
-110 -180 0
-111 -181 0
-112 -182 0
-141 -239 0
-142 -240 0
-143 -241 0
-144 -242 0
-145 -243 0
-146 -244 0
-147 -245 0
-148 -246 0
-149 -247 0
-150 -248 0
-151 -249 0
-152 -250 0
-153 -251 0
-154 -252 0
-99 -421 0
-100 -422 0
-101 -423 0
-102 -424 0
-103 -425 0
-104 -426 0
-105 -427 0
-106 -428 0
-107 -429 0
-108 -430 0
-109 -431 0
-110 -432 0
-111 -433 0
-112 -434 0
-43 -71 0
-44 -72 0
-45 -73 0
-46 -74 0
-47 -75 0
-48 -76 0
-49 -77 0
-50 -78 0
-51 -79 0
-52 -80 0
-53 -81 0
-54 -82 0
-55 -83 0
-56 -84 0
-155 -253 0
-156 -254 0
-157 -255 0
-158 -256 0
-159 -257 0
-160 -258 0
-161 -259 0
-162 -260 0
-163 -261 0
-164 -262 0
-165 -263 0
-166 -264 0
-167 -265 0
-168 -266 0
-309 -253 0
-310 -254 0
-311 -255 0
-312 -256 0
-313 -257 0
-314 -258 0
-315 -259 0
-316 -260 0
-317 -261 0
-318 -262 0
-319 -263 0
-320 -264 0
-321 -265 0
-322 -266 0
-421 -435 0
-422 -436 0
-423 -437 0
-424 -438 0
-425 -439 0
-426 -440 0
-427 -441 0
-428 -442 0
-429 -443 0
-430 -444 0
-431 -445 0
-432 -446 0
-433 -447 0
-434 -448 0
-43 -197 0
-44 -198 0
-45 -199 0
-46 -200 0
-47 -201 0
-48 -202 0
-49 -203 0
-50 -204 0
-51 -205 0
-52 -206 0
-53 -207 0
-54 -208 0
-55 -209 0
-56 -210 0
-43 -323 0
-44 -324 0
-45 -325 0
-46 -326 0
-47 -327 0
-48 -328 0
-49 -329 0
-50 -330 0
-51 -331 0
-52 -332 0
-53 -333 0
-54 -334 0
-55 -335 0
-56 -336 0
-1 -113 0
-2 -114 0
-3 -115 0
-4 -116 0
-5 -117 0
-6 -118 0
-7 -119 0
-8 -120 0
-9 -121 0
-10 -122 0
-11 -123 0
-12 -124 0
-13 -125 0
-14 -126 0
-323 -141 0
-324 -142 0
-325 -143 0
-326 -144 0
-327 -145 0
-328 -146 0
-329 -147 0
-330 -148 0
-331 -149 0
-332 -150 0
-333 -151 0
-334 -152 0
-335 -153 0
-336 -154 0
-1 -239 0
-2 -240 0
-3 -241 0
-4 -242 0
-5 -243 0
-6 -244 0
-7 -245 0
-8 -246 0
-9 -247 0
-10 -248 0
-11 -249 0
-12 -250 0
-13 -251 0
-14 -252 0
-197 -267 0
-198 -268 0
-199 -269 0
-200 -270 0
-201 -271 0
-202 -272 0
-203 -273 0
-204 -274 0
-205 -275 0
-206 -276 0
-207 -277 0
-208 -278 0
-209 -279 0
-210 -280 0
-57 -71 0
-58 -72 0
-59 -73 0
-60 -74 0
-61 -75 0
-62 -76 0
-63 -77 0
-64 -78 0
-65 -79 0
-66 -80 0
-67 -81 0
-68 -82 0
-69 -83 0
-70 -84 0
-99 -225 0
-100 -226 0
-101 -227 0
-102 -228 0
-103 -229 0
-104 -230 0
-105 -231 0
-106 -232 0
-107 -233 0
-108 -234 0
-109 -235 0
-110 -236 0
-111 -237 0
-112 -238 0
-141 -169 0
-142 -170 0
-143 -171 0
-144 -172 0
-145 -173 0
-146 -174 0
-147 -175 0
-148 -176 0
-149 -177 0
-150 -178 0
-151 -179 0
-152 -180 0
-153 -181 0
-154 -182 0
-99 -351 0
-100 -352 0
-101 -353 0
-102 -354 0
-103 -355 0
-104 -356 0
-105 -357 0
-106 -358 0
-107 -359 0
-108 -360 0
-109 -361 0
-110 -362 0
-111 -363 0
-112 -364 0
-407 -351 0
-408 -352 0
-409 -353 0
-410 -354 0
-411 -355 0
-412 -356 0
-413 -357 0
-414 -358 0
-415 -359 0
-416 -360 0
-417 -361 0
-418 -362 0
-419 -363 0
-420 -364 0
-141 -421 0
-142 -422 0
-143 -423 0
-144 -424 0
-145 -425 0
-146 -426 0
-147 -427 0
-148 -428 0
-149 -429 0
-150 -430 0
-151 -431 0
-152 -432 0
-153 -433 0
-154 -434 0
-155 -183 0
-156 -184 0
-157 -185 0
-158 -186 0
-159 -187 0
-160 -188 0
-161 -189 0
-162 -190 0
-163 -191 0
-164 -192 0
-165 -193 0
-166 -194 0
-167 -195 0
-168 -196 0
-309 -183 0
-310 -184 0
-311 -185 0
-312 -186 0
-313 -187 0
-314 -188 0
-315 -189 0
-316 -190 0
-317 -191 0
-318 -192 0
-319 -193 0
-320 -194 0
-321 -195 0
-322 -196 0
-43 -127 0
-44 -128 0
-45 -129 0
-46 -130 0
-47 -131 0
-48 -132 0
-49 -133 0
-50 -134 0
-51 -135 0
-52 -136 0
-53 -137 0
-54 -138 0
-55 -139 0
-56 -140 0
-43 -253 0
-44 -254 0
-45 -255 0
-46 -256 0
-47 -257 0
-48 -258 0
-49 -259 0
-50 -260 0
-51 -261 0
-52 -262 0
-53 -263 0
-54 -264 0
-55 -265 0
-56 -266 0
-1 -43 0
-2 -44 0
-3 -45 0
-4 -46 0
-5 -47 0
-6 -48 0
-7 -49 0
-8 -50 0
-9 -51 0
-10 -52 0
-11 -53 0
-12 -54 0
-13 -55 0
-14 -56 0
-1 -169 0
-2 -170 0
-3 -171 0
-4 -172 0
-5 -173 0
-6 -174 0
-7 -175 0
-8 -176 0
-9 -177 0
-10 -178 0
-11 -179 0
-12 -180 0
-13 -181 0
-14 -182 0
-85 -267 0
-86 -268 0
-87 -269 0
-88 -270 0
-89 -271 0
-90 -272 0
-91 -273 0
-92 -274 0
-93 -275 0
-94 -276 0
-95 -277 0
-96 -278 0
-97 -279 0
-98 -280 0
-239 -267 0
-240 -268 0
-241 -269 0
-242 -270 0
-243 -271 0
-244 -272 0
-245 -273 0
-246 -274 0
-247 -275 0
-248 -276 0
-249 -277 0
-250 -278 0
-251 -279 0
-252 -280 0
-365 -211 0
-366 -212 0
-367 -213 0
-368 -214 0
-369 -215 0
-370 -216 0
-371 -217 0
-372 -218 0
-373 -219 0
-374 -220 0
-375 -221 0
-376 -222 0
-377 -223 0
-378 -224 0
-99 -155 0
-100 -156 0
-101 -157 0
-102 -158 0
-103 -159 0
-104 -160 0
-105 -161 0
-106 -162 0
-107 -163 0
-108 -164 0
-109 -165 0
-110 -166 0
-111 -167 0
-112 -168 0
-365 -337 0
-366 -338 0
-367 -339 0
-368 -340 0
-369 -341 0
-370 -342 0
-371 -343 0
-372 -344 0
-373 -345 0
-374 -346 0
-375 -347 0
-376 -348 0
-377 -349 0
-378 -350 0
-99 -281 0
-100 -282 0
-101 -283 0
-102 -284 0
-103 -285 0
-104 -286 0
-105 -287 0
-106 -288 0
-107 -289 0
-108 -290 0
-109 -291 0
-110 -292 0
-111 -293 0
-112 -294 0
-141 -225 0
-142 -226 0
-143 -227 0
-144 -228 0
-145 -229 0
-146 -230 0
-147 -231 0
-148 -232 0
-149 -233 0
-150 -234 0
-151 -235 0
-152 -236 0
-153 -237 0
-154 -238 0
-99 -407 0
-100 -408 0
-101 -409 0
-102 -410 0
-103 -411 0
-104 -412 0
-105 -413 0
-106 -414 0
-107 -415 0
-108 -416 0
-109 -417 0
-110 -418 0
-111 -419 0
-112 -420 0
-141 -351 0
-142 -352 0
-143 -353 0
-144 -354 0
-145 -355 0
-146 -356 0
-147 -357 0
-148 -358 0
-149 -359 0
-150 -360 0
-151 -361 0
-152 -362 0
-153 -363 0
-154 -364 0
-421 -169 0
-422 -170 0
-423 -171 0
-424 -172 0
-425 -173 0
-426 -174 0
-427 -175 0
-428 -176 0
-429 -177 0
-430 -178 0
-431 -179 0
-432 -180 0
-433 -181 0
-434 -182 0
-43 -57 0
-44 -58 0
-45 -59 0
-46 -60 0
-47 -61 0
-48 -62 0
-49 -63 0
-50 -64 0
-51 -65 0
-52 -66 0
-53 -67 0
-54 -68 0
-55 -69 0
-56 -70 0
-43 -183 0
-44 -184 0
-45 -185 0
-46 -186 0
-47 -187 0
-48 -188 0
-49 -189 0
-50 -190 0
-51 -191 0
-52 -192 0
-53 -193 0
-54 -194 0
-55 -195 0
-56 -196 0
-197 -253 0
-198 -254 0
-199 -255 0
-200 -256 0
-201 -257 0
-202 -258 0
-203 -259 0
-204 -260 0
-205 -261 0
-206 -262 0
-207 -263 0
-208 -264 0
-209 -265 0
-210 -266 0
-351 -253 0
-352 -254 0
-353 -255 0
-354 -256 0
-355 -257 0
-356 -258 0
-357 -259 0
-358 -260 0
-359 -261 0
-360 -262 0
-361 -263 0
-362 -264 0
-363 -265 0
-364 -266 0
-85 -197 0
-86 -198 0
-87 -199 0
-88 -200 0
-89 -201 0
-90 -202 0
-91 -203 0
-92 -204 0
-93 -205 0
-94 -206 0
-95 -207 0
-96 -208 0
-97 -209 0
-98 -210 0
-365 -15 0
-366 -16 0
-367 -17 0
-368 -18 0
-369 -19 0
-370 -20 0
-371 -21 0
-372 -22 0
-373 -23 0
-374 -24 0
-375 -25 0
-376 -26 0
-377 -27 0
-378 -28 0
-365 -141 0
-366 -142 0
-367 -143 0
-368 -144 0
-369 -145 0
-370 -146 0
-371 -147 0
-372 -148 0
-373 -149 0
-374 -150 0
-375 -151 0
-376 -152 0
-377 -153 0
-378 -154 0
-365 -267 0
-366 -268 0
-367 -269 0
-368 -270 0
-369 -271 0
-370 -272 0
-371 -273 0
-372 -274 0
-373 -275 0
-374 -276 0
-375 -277 0
-376 -278 0
-377 -279 0
-378 -280 0
-99 -211 0
-100 -212 0
-101 -213 0
-102 -214 0
-103 -215 0
-104 -216 0
-105 -217 0
-106 -218 0
-107 -219 0
-108 -220 0
-109 -221 0
-110 -222 0
-111 -223 0
-112 -224 0
-407 -211 0
-408 -212 0
-409 -213 0
-410 -214 0
-411 -215 0
-412 -216 0
-413 -217 0
-414 -218 0
-415 -219 0
-416 -220 0
-417 -221 0
-418 -222 0
-419 -223 0
-420 -224 0
-141 -155 0
-142 -156 0
-143 -157 0
-144 -158 0
-145 -159 0
-146 -160 0
-147 -161 0
-148 -162 0
-149 -163 0
-150 -164 0
-151 -165 0
-152 -166 0
-153 -167 0
-154 -168 0
-253 -337 0
-254 -338 0
-255 -339 0
-256 -340 0
-257 -341 0
-258 -342 0
-259 -343 0
-260 -344 0
-261 -345 0
-262 -346 0
-263 -347 0
-264 -348 0
-265 -349 0
-266 -350 0
-407 -337 0
-408 -338 0
-409 -339 0
-410 -340 0
-411 -341 0
-412 -342 0
-413 -343 0
-414 -344 0
-415 -345 0
-416 -346 0
-417 -347 0
-418 -348 0
-419 -349 0
-420 -350 0
-141 -281 0
-142 -282 0
-143 -283 0
-144 -284 0
-145 -285 0
-146 -286 0
-147 -287 0
-148 -288 0
-149 -289 0
-150 -290 0
-151 -291 0
-152 -292 0
-153 -293 0
-154 -294 0
-141 -407 0
-142 -408 0
-143 -409 0
-144 -410 0
-145 -411 0
-146 -412 0
-147 -413 0
-148 -414 0
-149 -415 0
-150 -416 0
-151 -417 0
-152 -418 0
-153 -419 0
-154 -420 0
-43 -113 0
-44 -114 0
-45 -115 0
-46 -116 0
-47 -117 0
-48 -118 0
-49 -119 0
-50 -120 0
-51 -121 0
-52 -122 0
-53 -123 0
-54 -124 0
-55 -125 0
-56 -126 0
-295 -225 0
-296 -226 0
-297 -227 0
-298 -228 0
-299 -229 0
-300 -230 0
-301 -231 0
-302 -232 0
-303 -233 0
-304 -234 0
-305 -235 0
-306 -236 0
-307 -237 0
-308 -238 0
-29 -169 0
-30 -170 0
-31 -171 0
-32 -172 0
-33 -173 0
-34 -174 0
-35 -175 0
-36 -176 0
-37 -177 0
-38 -178 0
-39 -179 0
-40 -180 0
-41 -181 0
-42 -182 0
-29 -295 0
-30 -296 0
-31 -297 0
-32 -298 0
-33 -299 0
-34 -300 0
-35 -301 0
-36 -302 0
-37 -303 0
-38 -304 0
-39 -305 0
-40 -306 0
-41 -307 0
-42 -308 0
-85 -127 0
-86 -128 0
-87 -129 0
-88 -130 0
-89 -131 0
-90 -132 0
-91 -133 0
-92 -134 0
-93 -135 0
-94 -136 0
-95 -137 0
-96 -138 0
-97 -139 0
-98 -140 0
-85 -253 0
-86 -254 0
-87 -255 0
-88 -256 0
-89 -257 0
-90 -258 0
-91 -259 0
-92 -260 0
-93 -261 0
-94 -262 0
-95 -263 0
-96 -264 0
-97 -265 0
-98 -266 0
-239 -253 0
-240 -254 0
-241 -255 0
-242 -256 0
-243 -257 0
-244 -258 0
-245 -259 0
-246 -260 0
-247 -261 0
-248 -262 0
-249 -263 0
-250 -264 0
-251 -265 0
-252 -266 0
-197 -435 0
-198 -436 0
-199 -437 0
-200 -438 0
-201 -439 0
-202 -440 0
-203 -441 0
-204 -442 0
-205 -443 0
-206 -444 0
-207 -445 0
-208 -446 0
-209 -447 0
-210 -448 0
-365 -71 0
-366 -72 0
-367 -73 0
-368 -74 0
-369 -75 0
-370 -76 0
-371 -77 0
-372 -78 0
-373 -79 0
-374 -80 0
-375 -81 0
-376 -82 0
-377 -83 0
-378 -84 0
-99 -141 0
-100 -142 0
-101 -143 0
-102 -144 0
-103 -145 0
-104 -146 0
-105 -147 0
-106 -148 0
-107 -149 0
-108 -150 0
-109 -151 0
-110 -152 0
-111 -153 0
-112 -154 0
-141 -211 0
-142 -212 0
-143 -213 0
-144 -214 0
-145 -215 0
-146 -216 0
-147 -217 0
-148 -218 0
-149 -219 0
-150 -220 0
-151 -221 0
-152 -222 0
-153 -223 0
-154 -224 0
-127 -267 0
-128 -268 0
-129 -269 0
-130 -270 0
-131 -271 0
-132 -272 0
-133 -273 0
-134 -274 0
-135 -275 0
-136 -276 0
-137 -277 0
-138 -278 0
-139 -279 0
-140 -280 0
-15 -337 0
-16 -338 0
-17 -339 0
-18 -340 0
-19 -341 0
-20 -342 0
-21 -343 0
-22 -344 0
-23 -345 0
-24 -346 0
-25 -347 0
-26 -348 0
-27 -349 0
-28 -350 0
-295 -155 0
-296 -156 0
-297 -157 0
-298 -158 0
-299 -159 0
-300 -160 0
-301 -161 0
-302 -162 0
-303 -163 0
-304 -164 0
-305 -165 0
-306 -166 0
-307 -167 0
-308 -168 0
-29 -99 0
-30 -100 0
-31 -101 0
-32 -102 0
-33 -103 0
-34 -104 0
-35 -105 0
-36 -106 0
-37 -107 0
-38 -108 0
-39 -109 0
-40 -110 0
-41 -111 0
-42 -112 0
-295 -281 0
-296 -282 0
-297 -283 0
-298 -284 0
-299 -285 0
-300 -286 0
-301 -287 0
-302 -288 0
-303 -289 0
-304 -290 0
-305 -291 0
-306 -292 0
-307 -293 0
-308 -294 0
-29 -225 0
-30 -226 0
-31 -227 0
-32 -228 0
-33 -229 0
-34 -230 0
-35 -231 0
-36 -232 0
-37 -233 0
-38 -234 0
-39 -235 0
-40 -236 0
-41 -237 0
-42 -238 0
-183 -225 0
-184 -226 0
-185 -227 0
-186 -228 0
-187 -229 0
-188 -230 0
-189 -231 0
-190 -232 0
-191 -233 0
-192 -234 0
-193 -235 0
-194 -236 0
-195 -237 0
-196 -238 0
-29 -351 0
-30 -352 0
-31 -353 0
-32 -354 0
-33 -355 0
-34 -356 0
-35 -357 0
-36 -358 0
-37 -359 0
-38 -360 0
-39 -361 0
-40 -362 0
-41 -363 0
-42 -364 0
-183 -351 0
-184 -352 0
-185 -353 0
-186 -354 0
-187 -355 0
-188 -356 0
-189 -357 0
-190 -358 0
-191 -359 0
-192 -360 0
-193 -361 0
-194 -362 0
-195 -363 0
-196 -364 0
-197 -239 0
-198 -240 0
-199 -241 0
-200 -242 0
-201 -243 0
-202 -244 0
-203 -245 0
-204 -246 0
-205 -247 0
-206 -248 0
-207 -249 0
-208 -250 0
-209 -251 0
-210 -252 0
-85 -183 0
-86 -184 0
-87 -185 0
-88 -186 0
-89 -187 0
-90 -188 0
-91 -189 0
-92 -190 0
-93 -191 0
-94 -192 0
-95 -193 0
-96 -194 0
-97 -195 0
-98 -196 0
-393 -267 0
-394 -268 0
-395 -269 0
-396 -270 0
-397 -271 0
-398 -272 0
-399 -273 0
-400 -274 0
-401 -275 0
-402 -276 0
-403 -277 0
-404 -278 0
-405 -279 0
-406 -280 0
-127 -197 0
-128 -198 0
-129 -199 0
-130 -200 0
-131 -201 0
-132 -202 0
-133 -203 0
-134 -204 0
-135 -205 0
-136 -206 0
-137 -207 0
-138 -208 0
-139 -209 0
-140 -210 0
-127 -323 0
-128 -324 0
-129 -325 0
-130 -326 0
-131 -327 0
-132 -328 0
-133 -329 0
-134 -330 0
-135 -331 0
-136 -332 0
-137 -333 0
-138 -334 0
-139 -335 0
-140 -336 0
-15 -267 0
-16 -268 0
-17 -269 0
-18 -270 0
-19 -271 0
-20 -272 0
-21 -273 0
-22 -274 0
-23 -275 0
-24 -276 0
-25 -277 0
-26 -278 0
-27 -279 0
-28 -280 0
-15 -393 0
-16 -394 0
-17 -395 0
-18 -396 0
-19 -397 0
-20 -398 0
-21 -399 0
-22 -400 0
-23 -401 0
-24 -402 0
-25 -403 0
-26 -404 0
-27 -405 0
-28 -406 0
-295 -85 0
-296 -86 0
-297 -87 0
-298 -88 0
-299 -89 0
-300 -90 0
-301 -91 0
-302 -92 0
-303 -93 0
-304 -94 0
-305 -95 0
-306 -96 0
-307 -97 0
-308 -98 0
-295 -211 0
-296 -212 0
-297 -213 0
-298 -214 0
-299 -215 0
-300 -216 0
-301 -217 0
-302 -218 0
-303 -219 0
-304 -220 0
-305 -221 0
-306 -222 0
-307 -223 0
-308 -224 0
-29 -155 0
-30 -156 0
-31 -157 0
-32 -158 0
-33 -159 0
-34 -160 0
-35 -161 0
-36 -162 0
-37 -163 0
-38 -164 0
-39 -165 0
-40 -166 0
-41 -167 0
-42 -168 0
-29 -281 0
-30 -282 0
-31 -283 0
-32 -284 0
-33 -285 0
-34 -286 0
-35 -287 0
-36 -288 0
-37 -289 0
-38 -290 0
-39 -291 0
-40 -292 0
-41 -293 0
-42 -294 0
-85 -113 0
-86 -114 0
-87 -115 0
-88 -116 0
-89 -117 0
-90 -118 0
-91 -119 0
-92 -120 0
-93 -121 0
-94 -122 0
-95 -123 0
-96 -124 0
-97 -125 0
-98 -126 0
-393 -197 0
-394 -198 0
-395 -199 0
-396 -200 0
-397 -201 0
-398 -202 0
-399 -203 0
-400 -204 0
-401 -205 0
-402 -206 0
-403 -207 0
-404 -208 0
-405 -209 0
-406 -210 0
-281 -267 0
-282 -268 0
-283 -269 0
-284 -270 0
-285 -271 0
-286 -272 0
-287 -273 0
-288 -274 0
-289 -275 0
-290 -276 0
-291 -277 0
-292 -278 0
-293 -279 0
-294 -280 0
-71 -421 0
-72 -422 0
-73 -423 0
-74 -424 0
-75 -425 0
-76 -426 0
-77 -427 0
-78 -428 0
-79 -429 0
-80 -430 0
-81 -431 0
-82 -432 0
-83 -433 0
-84 -434 0
-15 -71 0
-16 -72 0
-17 -73 0
-18 -74 0
-19 -75 0
-20 -76 0
-21 -77 0
-22 -78 0
-23 -79 0
-24 -80 0
-25 -81 0
-26 -82 0
-27 -83 0
-28 -84 0
-127 -253 0
-128 -254 0
-129 -255 0
-130 -256 0
-131 -257 0
-132 -258 0
-133 -259 0
-134 -260 0
-135 -261 0
-136 -262 0
-137 -263 0
-138 -264 0
-139 -265 0
-140 -266 0
-15 -197 0
-16 -198 0
-17 -199 0
-18 -200 0
-19 -201 0
-20 -202 0
-21 -203 0
-22 -204 0
-23 -205 0
-24 -206 0
-25 -207 0
-26 -208 0
-27 -209 0
-28 -210 0
-15 -323 0
-16 -324 0
-17 -325 0
-18 -326 0
-19 -327 0
-20 -328 0
-21 -329 0
-22 -330 0
-23 -331 0
-24 -332 0
-25 -333 0
-26 -334 0
-27 -335 0
-28 -336 0
-295 -141 0
-296 -142 0
-297 -143 0
-298 -144 0
-299 -145 0
-300 -146 0
-301 -147 0
-302 -148 0
-303 -149 0
-304 -150 0
-305 -151 0
-306 -152 0
-307 -153 0
-308 -154 0
-29 -85 0
-30 -86 0
-31 -87 0
-32 -88 0
-33 -89 0
-34 -90 0
-35 -91 0
-36 -92 0
-37 -93 0
-38 -94 0
-39 -95 0
-40 -96 0
-41 -97 0
-42 -98 0
-295 -267 0
-296 -268 0
-297 -269 0
-298 -270 0
-299 -271 0
-300 -272 0
-301 -273 0
-302 -274 0
-303 -275 0
-304 -276 0
-305 -277 0
-306 -278 0
-307 -279 0
-308 -280 0
-29 -211 0
-30 -212 0
-31 -213 0
-32 -214 0
-33 -215 0
-34 -216 0
-35 -217 0
-36 -218 0
-37 -219 0
-38 -220 0
-39 -221 0
-40 -222 0
-41 -223 0
-42 -224 0
-183 -211 0
-184 -212 0
-185 -213 0
-186 -214 0
-187 -215 0
-188 -216 0
-189 -217 0
-190 -218 0
-191 -219 0
-192 -220 0
-193 -221 0
-194 -222 0
-195 -223 0
-196 -224 0
-29 -337 0
-30 -338 0
-31 -339 0
-32 -340 0
-33 -341 0
-34 -342 0
-35 -343 0
-36 -344 0
-37 -345 0
-38 -346 0
-39 -347 0
-40 -348 0
-41 -349 0
-42 -350 0
-183 -337 0
-184 -338 0
-185 -339 0
-186 -340 0
-187 -341 0
-188 -342 0
-189 -343 0
-190 -344 0
-191 -345 0
-192 -346 0
-193 -347 0
-194 -348 0
-195 -349 0
-196 -350 0
-225 -239 0
-226 -240 0
-227 -241 0
-228 -242 0
-229 -243 0
-230 -244 0
-231 -245 0
-232 -246 0
-233 -247 0
-234 -248 0
-235 -249 0
-236 -250 0
-237 -251 0
-238 -252 0
-113 -309 0
-114 -310 0
-115 -311 0
-116 -312 0
-117 -313 0
-118 -314 0
-119 -315 0
-120 -316 0
-121 -317 0
-122 -318 0
-123 -319 0
-124 -320 0
-125 -321 0
-126 -322 0
-71 -99 0
-72 -100 0
-73 -101 0
-74 -102 0
-75 -103 0
-76 -104 0
-77 -105 0
-78 -106 0
-79 -107 0
-80 -108 0
-81 -109 0
-82 -110 0
-83 -111 0
-84 -112 0
-71 -225 0
-72 -226 0
-73 -227 0
-74 -228 0
-75 -229 0
-76 -230 0
-77 -231 0
-78 -232 0
-79 -233 0
-80 -234 0
-81 -235 0
-82 -236 0
-83 -237 0
-84 -238 0
-281 -197 0
-282 -198 0
-283 -199 0
-284 -200 0
-285 -201 0
-286 -202 0
-287 -203 0
-288 -204 0
-289 -205 0
-290 -206 0
-291 -207 0
-292 -208 0
-293 -209 0
-294 -210 0
-71 -351 0
-72 -352 0
-73 -353 0
-74 -354 0
-75 -355 0
-76 -356 0
-77 -357 0
-78 -358 0
-79 -359 0
-80 -360 0
-81 -361 0
-82 -362 0
-83 -363 0
-84 -364 0
-127 -183 0
-128 -184 0
-129 -185 0
-130 -186 0
-131 -187 0
-132 -188 0
-133 -189 0
-134 -190 0
-135 -191 0
-136 -192 0
-137 -193 0
-138 -194 0
-139 -195 0
-140 -196 0
-15 -127 0
-16 -128 0
-17 -129 0
-18 -130 0
-19 -131 0
-20 -132 0
-21 -133 0
-22 -134 0
-23 -135 0
-24 -136 0
-25 -137 0
-26 -138 0
-27 -139 0
-28 -140 0
-127 -309 0
-128 -310 0
-129 -311 0
-130 -312 0
-131 -313 0
-132 -314 0
-133 -315 0
-134 -316 0
-135 -317 0
-136 -318 0
-137 -319 0
-138 -320 0
-139 -321 0
-140 -322 0
-15 -253 0
-16 -254 0
-17 -255 0
-18 -256 0
-19 -257 0
-20 -258 0
-21 -259 0
-22 -260 0
-23 -261 0
-24 -262 0
-25 -263 0
-26 -264 0
-27 -265 0
-28 -266 0
-295 -71 0
-296 -72 0
-297 -73 0
-298 -74 0
-299 -75 0
-300 -76 0
-301 -77 0
-302 -78 0
-303 -79 0
-304 -80 0
-305 -81 0
-306 -82 0
-307 -83 0
-308 -84 0
-169 -337 0
-170 -338 0
-171 -339 0
-172 -340 0
-173 -341 0
-174 -342 0
-175 -343 0
-176 -344 0
-177 -345 0
-178 -346 0
-179 -347 0
-180 -348 0
-181 -349 0
-182 -350 0
-29 -141 0
-30 -142 0
-31 -143 0
-32 -144 0
-33 -145 0
-34 -146 0
-35 -147 0
-36 -148 0
-37 -149 0
-38 -150 0
-39 -151 0
-40 -152 0
-41 -153 0
-42 -154 0
-379 -169 0
-380 -170 0
-381 -171 0
-382 -172 0
-383 -173 0
-384 -174 0
-385 -175 0
-386 -176 0
-387 -177 0
-388 -178 0
-389 -179 0
-390 -180 0
-391 -181 0
-392 -182 0
-57 -267 0
-58 -268 0
-59 -269 0
-60 -270 0
-61 -271 0
-62 -272 0
-63 -273 0
-64 -274 0
-65 -275 0
-66 -276 0
-67 -277 0
-68 -278 0
-69 -279 0
-70 -280 0
-113 -239 0
-114 -240 0
-115 -241 0
-116 -242 0
-117 -243 0
-118 -244 0
-119 -245 0
-120 -246 0
-121 -247 0
-122 -248 0
-123 -249 0
-124 -250 0
-125 -251 0
-126 -252 0
-57 -393 0
-58 -394 0
-59 -395 0
-60 -396 0
-61 -397 0
-62 -398 0
-63 -399 0
-64 -400 0
-65 -401 0
-66 -402 0
-67 -403 0
-68 -404 0
-69 -405 0
-70 -406 0
-379 -421 0
-380 -422 0
-381 -423 0
-382 -424 0
-383 -425 0
-384 -426 0
-385 -427 0
-386 -428 0
-387 -429 0
-388 -430 0
-389 -431 0
-390 -432 0
-391 -433 0
-392 -434 0
-71 -155 0
-72 -156 0
-73 -157 0
-74 -158 0
-75 -159 0
-76 -160 0
-77 -161 0
-78 -162 0
-79 -163 0
-80 -164 0
-81 -165 0
-82 -166 0
-83 -167 0
-84 -168 0
-71 -281 0
-72 -282 0
-73 -283 0
-74 -284 0
-75 -285 0
-76 -286 0
-77 -287 0
-78 -288 0
-79 -289 0
-80 -290 0
-81 -291 0
-82 -292 0
-83 -293 0
-84 -294 0
-281 -253 0
-282 -254 0
-283 -255 0
-284 -256 0
-285 -257 0
-286 -258 0
-287 -259 0
-288 -260 0
-289 -261 0
-290 -262 0
-291 -263 0
-292 -264 0
-293 -265 0
-294 -266 0
-71 -407 0
-72 -408 0
-73 -409 0
-74 -410 0
-75 -411 0
-76 -412 0
-77 -413 0
-78 -414 0
-79 -415 0
-80 -416 0
-81 -417 0
-82 -418 0
-83 -419 0
-84 -420 0
-15 -57 0
-16 -58 0
-17 -59 0
-18 -60 0
-19 -61 0
-20 -62 0
-21 -63 0
-22 -64 0
-23 -65 0
-24 -66 0
-25 -67 0
-26 -68 0
-27 -69 0
-28 -70 0
-127 -239 0
-128 -240 0
-129 -241 0
-130 -242 0
-131 -243 0
-132 -244 0
-133 -245 0
-134 -246 0
-135 -247 0
-136 -248 0
-137 -249 0
-138 -250 0
-139 -251 0
-140 -252 0
-15 -183 0
-16 -184 0
-17 -185 0
-18 -186 0
-19 -187 0
-20 -188 0
-21 -189 0
-22 -190 0
-23 -191 0
-24 -192 0
-25 -193 0
-26 -194 0
-27 -195 0
-28 -196 0
-15 -309 0
-16 -310 0
-17 -311 0
-18 -312 0
-19 -313 0
-20 -314 0
-21 -315 0
-22 -316 0
-23 -317 0
-24 -318 0
-25 -319 0
-26 -320 0
-27 -321 0
-28 -322 0
-435 -323 0
-436 -324 0
-437 -325 0
-438 -326 0
-439 -327 0
-440 -328 0
-441 -329 0
-442 -330 0
-443 -331 0
-444 -332 0
-445 -333 0
-446 -334 0
-447 -335 0
-448 -336 0
-169 -267 0
-170 -268 0
-171 -269 0
-172 -270 0
-173 -271 0
-174 -272 0
-175 -273 0
-176 -274 0
-177 -275 0
-178 -276 0
-179 -277 0
-180 -278 0
-181 -279 0
-182 -280 0
-323 -267 0
-324 -268 0
-325 -269 0
-326 -270 0
-327 -271 0
-328 -272 0
-329 -273 0
-330 -274 0
-331 -275 0
-332 -276 0
-333 -277 0
-334 -278 0
-335 -279 0
-336 -280 0
-1 -365 0
-2 -366 0
-3 -367 0
-4 -368 0
-5 -369 0
-6 -370 0
-7 -371 0
-8 -372 0
-9 -373 0
-10 -374 0
-11 -375 0
-12 -376 0
-13 -377 0
-14 -378 0
-323 -393 0
-324 -394 0
-325 -395 0
-326 -396 0
-327 -397 0
-328 -398 0
-329 -399 0
-330 -400 0
-331 -401 0
-332 -402 0
-333 -403 0
-334 -404 0
-335 -405 0
-336 -406 0
-211 -337 0
-212 -338 0
-213 -339 0
-214 -340 0
-215 -341 0
-216 -342 0
-217 -343 0
-218 -344 0
-219 -345 0
-220 -346 0
-221 -347 0
-222 -348 0
-223 -349 0
-224 -350 0
-379 -99 0
-380 -100 0
-381 -101 0
-382 -102 0
-383 -103 0
-384 -104 0
-385 -105 0
-386 -106 0
-387 -107 0
-388 -108 0
-389 -109 0
-390 -110 0
-391 -111 0
-392 -112 0
-57 -197 0
-58 -198 0
-59 -199 0
-60 -200 0
-61 -201 0
-62 -202 0
-63 -203 0
-64 -204 0
-65 -205 0
-66 -206 0
-67 -207 0
-68 -208 0
-69 -209 0
-70 -210 0
-113 -169 0
-114 -170 0
-115 -171 0
-116 -172 0
-117 -173 0
-118 -174 0
-119 -175 0
-120 -176 0
-121 -177 0
-122 -178 0
-123 -179 0
-124 -180 0
-125 -181 0
-126 -182 0
-57 -323 0
-58 -324 0
-59 -325 0
-60 -326 0
-61 -327 0
-62 -328 0
-63 -329 0
-64 -330 0
-65 -331 0
-66 -332 0
-67 -333 0
-68 -334 0
-69 -335 0
-70 -336 0
-225 -351 0
-226 -352 0
-227 -353 0
-228 -354 0
-229 -355 0
-230 -356 0
-231 -357 0
-232 -358 0
-233 -359 0
-234 -360 0
-235 -361 0
-236 -362 0
-237 -363 0
-238 -364 0
-379 -351 0
-380 -352 0
-381 -353 0
-382 -354 0
-383 -355 0
-384 -356 0
-385 -357 0
-386 -358 0
-387 -359 0
-388 -360 0
-389 -361 0
-390 -362 0
-391 -363 0
-392 -364 0
-71 -85 0
-72 -86 0
-73 -87 0
-74 -88 0
-75 -89 0
-76 -90 0
-77 -91 0
-78 -92 0
-79 -93 0
-80 -94 0
-81 -95 0
-82 -96 0
-83 -97 0
-84 -98 0
-71 -211 0
-72 -212 0
-73 -213 0
-74 -214 0
-75 -215 0
-76 -216 0
-77 -217 0
-78 -218 0
-79 -219 0
-80 -220 0
-81 -221 0
-82 -222 0
-83 -223 0
-84 -224 0
-281 -183 0
-282 -184 0
-283 -185 0
-284 -186 0
-285 -187 0
-286 -188 0
-287 -189 0
-288 -190 0
-289 -191 0
-290 -192 0
-291 -193 0
-292 -194 0
-293 -195 0
-294 -196 0
-71 -337 0
-72 -338 0
-73 -339 0
-74 -340 0
-75 -341 0
-76 -342 0
-77 -343 0
-78 -344 0
-79 -345 0
-80 -346 0
-81 -347 0
-82 -348 0
-83 -349 0
-84 -350 0
-127 -169 0
-128 -170 0
-129 -171 0
-130 -172 0
-131 -173 0
-132 -174 0
-133 -175 0
-134 -176 0
-135 -177 0
-136 -178 0
-137 -179 0
-138 -180 0
-139 -181 0
-140 -182 0
-15 -113 0
-16 -114 0
-17 -115 0
-18 -116 0
-19 -117 0
-20 -118 0
-21 -119 0
-22 -120 0
-23 -121 0
-24 -122 0
-25 -123 0
-26 -124 0
-27 -125 0
-28 -126 0
-15 -239 0
-16 -240 0
-17 -241 0
-18 -242 0
-19 -243 0
-20 -244 0
-21 -245 0
-22 -246 0
-23 -247 0
-24 -248 0
-25 -249 0
-26 -250 0
-27 -251 0
-28 -252 0
-323 -197 0
-324 -198 0
-325 -199 0
-326 -200 0
-327 -201 0
-328 -202 0
-329 -203 0
-330 -204 0
-331 -205 0
-332 -206 0
-333 -207 0
-334 -208 0
-335 -209 0
-336 -210 0
-169 -197 0
-170 -198 0
-171 -199 0
-172 -200 0
-173 -201 0
-174 -202 0
-175 -203 0
-176 -204 0
-177 -205 0
-178 -206 0
-179 -207 0
-180 -208 0
-181 -209 0
-182 -210 0
-1 -295 0
-2 -296 0
-3 -297 0
-4 -298 0
-5 -299 0
-6 -300 0
-7 -301 0
-8 -302 0
-9 -303 0
-10 -304 0
-11 -305 0
-12 -306 0
-13 -307 0
-14 -308 0
-211 -267 0
-212 -268 0
-213 -269 0
-214 -270 0
-215 -271 0
-216 -272 0
-217 -273 0
-218 -274 0
-219 -275 0
-220 -276 0
-221 -277 0
-222 -278 0
-223 -279 0
-224 -280 0
-1 -421 0
-2 -422 0
-3 -423 0
-4 -424 0
-5 -425 0
-6 -426 0
-7 -427 0
-8 -428 0
-9 -429 0
-10 -430 0
-11 -431 0
-12 -432 0
-13 -433 0
-14 -434 0
-57 -127 0
-58 -128 0
-59 -129 0
-60 -130 0
-61 -131 0
-62 -132 0
-63 -133 0
-64 -134 0
-65 -135 0
-66 -136 0
-67 -137 0
-68 -138 0
-69 -139 0
-70 -140 0
-57 -253 0
-58 -254 0
-59 -255 0
-60 -256 0
-61 -257 0
-62 -258 0
-63 -259 0
-64 -260 0
-65 -261 0
-66 -262 0
-67 -263 0
-68 -264 0
-69 -265 0
-70 -266 0
-113 -225 0
-114 -226 0
-115 -227 0
-116 -228 0
-117 -229 0
-118 -230 0
-119 -231 0
-120 -232 0
-121 -233 0
-122 -234 0
-123 -235 0
-124 -236 0
-125 -237 0
-126 -238 0
-379 -407 0
-380 -408 0
-381 -409 0
-382 -410 0
-383 -411 0
-384 -412 0
-385 -413 0
-386 -414 0
-387 -415 0
-388 -416 0
-389 -417 0
-390 -418 0
-391 -419 0
-392 -420 0
-113 -351 0
-114 -352 0
-115 -353 0
-116 -354 0
-117 -355 0
-118 -356 0
-119 -357 0
-120 -358 0
-121 -359 0
-122 -360 0
-123 -361 0
-124 -362 0
-125 -363 0
-126 -364 0
-71 -141 0
-72 -142 0
-73 -143 0
-74 -144 0
-75 -145 0
-76 -146 0
-77 -147 0
-78 -148 0
-79 -149 0
-80 -150 0
-81 -151 0
-82 -152 0
-83 -153 0
-84 -154 0
-71 -267 0
-72 -268 0
-73 -269 0
-74 -270 0
-75 -271 0
-76 -272 0
-77 -273 0
-78 -274 0
-79 -275 0
-80 -276 0
-81 -277 0
-82 -278 0
-83 -279 0
-84 -280 0
-155 -239 0
-156 -240 0
-157 -241 0
-158 -242 0
-159 -243 0
-160 -244 0
-161 -245 0
-162 -246 0
-163 -247 0
-164 -248 0
-165 -249 0
-166 -250 0
-167 -251 0
-168 -252 0
-15 -43 0
-16 -44 0
-17 -45 0
-18 -46 0
-19 -47 0
-20 -48 0
-21 -49 0
-22 -50 0
-23 -51 0
-24 -52 0
-25 -53 0
-26 -54 0
-27 -55 0
-28 -56 0
-43 -309 0
-44 -310 0
-45 -311 0
-46 -312 0
-47 -313 0
-48 -314 0
-49 -315 0
-50 -316 0
-51 -317 0
-52 -318 0
-53 -319 0
-54 -320 0
-55 -321 0
-56 -322 0
-435 -57 0
-436 -58 0
-437 -59 0
-438 -60 0
-439 -61 0
-440 -62 0
-441 -63 0
-442 -64 0
-443 -65 0
-444 -66 0
-445 -67 0
-446 -68 0
-447 -69 0
-448 -70 0
-43 -435 0
-44 -436 0
-45 -437 0
-46 -438 0
-47 -439 0
-48 -440 0
-49 -441 0
-50 -442 0
-51 -443 0
-52 -444 0
-53 -445 0
-54 -446 0
-55 -447 0
-56 -448 0
-1 -99 0
-2 -100 0
-3 -101 0
-4 -102 0
-5 -103 0
-6 -104 0
-7 -105 0
-8 -106 0
-9 -107 0
-10 -108 0
-11 -109 0
-12 -110 0
-13 -111 0
-14 -112 0
-1 -225 0
-2 -226 0
-3 -227 0
-4 -228 0
-5 -229 0
-6 -230 0
-7 -231 0
-8 -232 0
-9 -233 0
-10 -234 0
-11 -235 0
-12 -236 0
-13 -237 0
-14 -238 0
-169 -253 0
-170 -254 0
-171 -255 0
-172 -256 0
-173 -257 0
-174 -258 0
-175 -259 0
-176 -260 0
-177 -261 0
-178 -262 0
-179 -263 0
-180 -264 0
-181 -265 0
-182 -266 0
-323 -253 0
-324 -254 0
-325 -255 0
-326 -256 0
-327 -257 0
-328 -258 0
-329 -259 0
-330 -260 0
-331 -261 0
-332 -262 0
-333 -263 0
-334 -264 0
-335 -265 0
-336 -266 0
-1 -351 0
-2 -352 0
-3 -353 0
-4 -354 0
-5 -355 0
-6 -356 0
-7 -357 0
-8 -358 0
-9 -359 0
-10 -360 0
-11 -361 0
-12 -362 0
-13 -363 0
-14 -364 0
-57 -183 0
-58 -184 0
-59 -185 0
-60 -186 0
-61 -187 0
-62 -188 0
-63 -189 0
-64 -190 0
-65 -191 0
-66 -192 0
-67 -193 0
-68 -194 0
-69 -195 0
-70 -196 0
-379 -211 0
-380 -212 0
-381 -213 0
-382 -214 0
-383 -215 0
-384 -216 0
-385 -217 0
-386 -218 0
-387 -219 0
-388 -220 0
-389 -221 0
-390 -222 0
-391 -223 0
-392 -224 0
-113 -155 0
-114 -156 0
-115 -157 0
-116 -158 0
-117 -159 0
-118 -160 0
-119 -161 0
-120 -162 0
-121 -163 0
-122 -164 0
-123 -165 0
-124 -166 0
-125 -167 0
-126 -168 0
-57 -309 0
-58 -310 0
-59 -311 0
-60 -312 0
-61 -313 0
-62 -314 0
-63 -315 0
-64 -316 0
-65 -317 0
-66 -318 0
-67 -319 0
-68 -320 0
-69 -321 0
-70 -322 0
-113 -281 0
-114 -282 0
-115 -283 0
-116 -284 0
-117 -285 0
-118 -286 0
-119 -287 0
-120 -288 0
-121 -289 0
-122 -290 0
-123 -291 0
-124 -292 0
-125 -293 0
-126 -294 0
-99 -337 0
-100 -338 0
-101 -339 0
-102 -340 0
-103 -341 0
-104 -342 0
-105 -343 0
-106 -344 0
-107 -345 0
-108 -346 0
-109 -347 0
-110 -348 0
-111 -349 0
-112 -350 0
-155 -169 0
-156 -170 0
-157 -171 0
-158 -172 0
-159 -173 0
-160 -174 0
-161 -175 0
-162 -176 0
-163 -177 0
-164 -178 0
-165 -179 0
-166 -180 0
-167 -181 0
-168 -182 0
-309 -169 0
-310 -170 0
-311 -171 0
-312 -172 0
-313 -173 0
-314 -174 0
-315 -175 0
-316 -176 0
-317 -177 0
-318 -178 0
-319 -179 0
-320 -180 0
-321 -181 0
-322 -182 0
-421 -351 0
-422 -352 0
-423 -353 0
-424 -354 0
-425 -355 0
-426 -356 0
-427 -357 0
-428 -358 0
-429 -359 0
-430 -360 0
-431 -361 0
-432 -362 0
-433 -363 0
-434 -364 0
-43 -239 0
-44 -240 0
-45 -241 0
-46 -242 0
-47 -243 0
-48 -244 0
-49 -245 0
-50 -246 0
-51 -247 0
-52 -248 0
-53 -249 0
-54 -250 0
-55 -251 0
-56 -252 0
-309 -421 0
-310 -422 0
-311 -423 0
-312 -424 0
-313 -425 0
-314 -426 0
-315 -427 0
-316 -428 0
-317 -429 0
-318 -430 0
-319 -431 0
-320 -432 0
-321 -433 0
-322 -434 0
-1 -29 0
-2 -30 0
-3 -31 0
-4 -32 0
-5 -33 0
-6 -34 0
-7 -35 0
-8 -36 0
-9 -37 0
-10 -38 0
-11 -39 0
-12 -40 0
-13 -41 0
-14 -42 0
-1 -155 0
-2 -156 0
-3 -157 0
-4 -158 0
-5 -159 0
-6 -160 0
-7 -161 0
-8 -162 0
-9 -163 0
-10 -164 0
-11 -165 0
-12 -166 0
-13 -167 0
-14 -168 0
-169 -183 0
-170 -184 0
-171 -185 0
-172 -186 0
-173 -187 0
-174 -188 0
-175 -189 0
-176 -190 0
-177 -191 0
-178 -192 0
-179 -193 0
-180 -194 0
-181 -195 0
-182 -196 0
-323 -183 0
-324 -184 0
-325 -185 0
-326 -186 0
-327 -187 0
-328 -188 0
-329 -189 0
-330 -190 0
-331 -191 0
-332 -192 0
-333 -193 0
-334 -194 0
-335 -195 0
-336 -196 0
-1 -281 0
-2 -282 0
-3 -283 0
-4 -284 0
-5 -285 0
-6 -286 0
-7 -287 0
-8 -288 0
-9 -289 0
-10 -290 0
-11 -291 0
-12 -292 0
-13 -293 0
-14 -294 0
-211 -253 0
-212 -254 0
-213 -255 0
-214 -256 0
-215 -257 0
-216 -258 0
-217 -259 0
-218 -260 0
-219 -261 0
-220 -262 0
-221 -263 0
-222 -264 0
-223 -265 0
-224 -266 0
-1 -407 0
-2 -408 0
-3 -409 0
-4 -410 0
-5 -411 0
-6 -412 0
-7 -413 0
-8 -414 0
-9 -415 0
-10 -416 0
-11 -417 0
-12 -418 0
-13 -419 0
-14 -420 0
-379 -15 0
-380 -16 0
-381 -17 0
-382 -18 0
-383 -19 0
-384 -20 0
-385 -21 0
-386 -22 0
-387 -23 0
-388 -24 0
-389 -25 0
-390 -26 0
-391 -27 0
-392 -28 0
-57 -113 0
-58 -114 0
-59 -115 0
-60 -116 0
-61 -117 0
-62 -118 0
-63 -119 0
-64 -120 0
-65 -121 0
-66 -122 0
-67 -123 0
-68 -124 0
-69 -125 0
-70 -126 0
-379 -141 0
-380 -142 0
-381 -143 0
-382 -144 0
-383 -145 0
-384 -146 0
-385 -147 0
-386 -148 0
-387 -149 0
-388 -150 0
-389 -151 0
-390 -152 0
-391 -153 0
-392 -154 0
-57 -239 0
-58 -240 0
-59 -241 0
-60 -242 0
-61 -243 0
-62 -244 0
-63 -245 0
-64 -246 0
-65 -247 0
-66 -248 0
-67 -249 0
-68 -250 0
-69 -251 0
-70 -252 0
-113 -211 0
-114 -212 0
-115 -213 0
-116 -214 0
-117 -215 0
-118 -216 0
-119 -217 0
-120 -218 0
-121 -219 0
-122 -220 0
-123 -221 0
-124 -222 0
-125 -223 0
-126 -224 0
-365 -197 0
-366 -198 0
-367 -199 0
-368 -200 0
-369 -201 0
-370 -202 0
-371 -203 0
-372 -204 0
-373 -205 0
-374 -206 0
-375 -207 0
-376 -208 0
-377 -209 0
-378 -210 0
-365 -323 0
-366 -324 0
-367 -325 0
-368 -326 0
-369 -327 0
-370 -328 0
-371 -329 0
-372 -330 0
-373 -331 0
-374 -332 0
-375 -333 0
-376 -334 0
-377 -335 0
-378 -336 0
-99 -267 0
-100 -268 0
-101 -269 0
-102 -270 0
-103 -271 0
-104 -272 0
-105 -273 0
-106 -274 0
-107 -275 0
-108 -276 0
-109 -277 0
-110 -278 0
-111 -279 0
-112 -280 0
-253 -267 0
-254 -268 0
-255 -269 0
-256 -270 0
-257 -271 0
-258 -272 0
-259 -273 0
-260 -274 0
-261 -275 0
-262 -276 0
-263 -277 0
-264 -278 0
-265 -279 0
-266 -280 0
-407 -267 0
-408 -268 0
-409 -269 0
-410 -270 0
-411 -271 0
-412 -272 0
-413 -273 0
-414 -274 0
-415 -275 0
-416 -276 0
-417 -277 0
-418 -278 0
-419 -279 0
-420 -280 0
-99 -393 0
-100 -394 0
-101 -395 0
-102 -396 0
-103 -397 0
-104 -398 0
-105 -399 0
-106 -400 0
-107 -401 0
-108 -402 0
-109 -403 0
-110 -404 0
-111 -405 0
-112 -406 0
-141 -337 0
-142 -338 0
-143 -339 0
-144 -340 0
-145 -341 0
-146 -342 0
-147 -343 0
-148 -344 0
-149 -345 0
-150 -346 0
-151 -347 0
-152 -348 0
-153 -349 0
-154 -350 0
-155 -225 0
-156 -226 0
-157 -227 0
-158 -228 0
-159 -229 0
-160 -230 0
-161 -231 0
-162 -232 0
-163 -233 0
-164 -234 0
-165 -235 0
-166 -236 0
-167 -237 0
-168 -238 0
-309 -225 0
-310 -226 0
-311 -227 0
-312 -228 0
-313 -229 0
-314 -230 0
-315 -231 0
-316 -232 0
-317 -233 0
-318 -234 0
-319 -235 0
-320 -236 0
-321 -237 0
-322 -238 0
-421 -407 0
-422 -408 0
-423 -409 0
-424 -410 0
-425 -411 0
-426 -412 0
-427 -413 0
-428 -414 0
-429 -415 0
-430 -416 0
-431 -417 0
-432 -418 0
-433 -419 0
-434 -420 0
-43 -169 0
-44 -170 0
-45 -171 0
-46 -172 0
-47 -173 0
-48 -174 0
-49 -175 0
-50 -176 0
-51 -177 0
-52 -178 0
-53 -179 0
-54 -180 0
-55 -181 0
-56 -182 0
-309 -351 0
-310 -352 0
-311 -353 0
-312 -354 0
-313 -355 0
-314 -356 0
-315 -357 0
-316 -358 0
-317 -359 0
-318 -360 0
-319 -361 0
-320 -362 0
-321 -363 0
-322 -364 0
-43 -295 0
-44 -296 0
-45 -297 0
-46 -298 0
-47 -299 0
-48 -300 0
-49 -301 0
-50 -302 0
-51 -303 0
-52 -304 0
-53 -305 0
-54 -306 0
-55 -307 0
-56 -308 0
-43 -421 0
-44 -422 0
-45 -423 0
-46 -424 0
-47 -425 0
-48 -426 0
-49 -427 0
-50 -428 0
-51 -429 0
-52 -430 0
-53 -431 0
-54 -432 0
-55 -433 0
-56 -434 0
-1 -85 0
-2 -86 0
-3 -87 0
-4 -88 0
-5 -89 0
-6 -90 0
-7 -91 0
-8 -92 0
-9 -93 0
-10 -94 0
-11 -95 0
-12 -96 0
-13 -97 0
-14 -98 0
-1 -211 0
-2 -212 0
-3 -213 0
-4 -214 0
-5 -215 0
-6 -216 0
-7 -217 0
-8 -218 0
-9 -219 0
-10 -220 0
-11 -221 0
-12 -222 0
-13 -223 0
-14 -224 0
-169 -239 0
-170 -240 0
-171 -241 0
-172 -242 0
-173 -243 0
-174 -244 0
-175 -245 0
-176 -246 0
-177 -247 0
-178 -248 0
-179 -249 0
-180 -250 0
-181 -251 0
-182 -252 0
-1 -337 0
-2 -338 0
-3 -339 0
-4 -340 0
-5 -341 0
-6 -342 0
-7 -343 0
-8 -344 0
-9 -345 0
-10 -346 0
-11 -347 0
-12 -348 0
-13 -349 0
-14 -350 0
-57 -169 0
-58 -170 0
-59 -171 0
-60 -172 0
-61 -173 0
-62 -174 0
-63 -175 0
-64 -176 0
-65 -177 0
-66 -178 0
-67 -179 0
-68 -180 0
-69 -181 0
-70 -182 0
-365 -127 0
-366 -128 0
-367 -129 0
-368 -130 0
-369 -131 0
-370 -132 0
-371 -133 0
-372 -134 0
-373 -135 0
-374 -136 0
-375 -137 0
-376 -138 0
-377 -139 0
-378 -140 0
-99 -197 0
-100 -198 0
-101 -199 0
-102 -200 0
-103 -201 0
-104 -202 0
-105 -203 0
-106 -204 0
-107 -205 0
-108 -206 0
-109 -207 0
-110 -208 0
-111 -209 0
-112 -210 0
-407 -197 0
-408 -198 0
-409 -199 0
-410 -200 0
-411 -201 0
-412 -202 0
-413 -203 0
-414 -204 0
-415 -205 0
-416 -206 0
-417 -207 0
-418 -208 0
-419 -209 0
-420 -210 0
-99 -323 0
-100 -324 0
-101 -325 0
-102 -326 0
-103 -327 0
-104 -328 0
-105 -329 0
-106 -330 0
-107 -331 0
-108 -332 0
-109 -333 0
-110 -334 0
-111 -335 0
-112 -336 0
-141 -267 0
-142 -268 0
-143 -269 0
-144 -270 0
-145 -271 0
-146 -272 0
-147 -273 0
-148 -274 0
-149 -275 0
-150 -276 0
-151 -277 0
-152 -278 0
-153 -279 0
-154 -280 0
-141 -393 0
-142 -394 0
-143 -395 0
-144 -396 0
-145 -397 0
-146 -398 0
-147 -399 0
-148 -400 0
-149 -401 0
-150 -402 0
-151 -403 0
-152 -404 0
-153 -405 0
-154 -406 0
-421 -211 0
-422 -212 0
-423 -213 0
-424 -214 0
-425 -215 0
-426 -216 0
-427 -217 0
-428 -218 0
-429 -219 0
-430 -220 0
-431 -221 0
-432 -222 0
-433 -223 0
-434 -224 0
-267 -337 0
-268 -338 0
-269 -339 0
-270 -340 0
-271 -341 0
-272 -342 0
-273 -343 0
-274 -344 0
-275 -345 0
-276 -346 0
-277 -347 0
-278 -348 0
-279 -349 0
-280 -350 0
-43 -99 0
-44 -100 0
-45 -101 0
-46 -102 0
-47 -103 0
-48 -104 0
-49 -105 0
-50 -106 0
-51 -107 0
-52 -108 0
-53 -109 0
-54 -110 0
-55 -111 0
-56 -112 0
-421 -337 0
-422 -338 0
-423 -339 0
-424 -340 0
-425 -341 0
-426 -342 0
-427 -343 0
-428 -344 0
-429 -345 0
-430 -346 0
-431 -347 0
-432 -348 0
-433 -349 0
-434 -350 0
-43 -225 0
-44 -226 0
-45 -227 0
-46 -228 0
-47 -229 0
-48 -230 0
-49 -231 0
-50 -232 0
-51 -233 0
-52 -234 0
-53 -235 0
-54 -236 0
-55 -237 0
-56 -238 0
-309 -407 0
-310 -408 0
-311 -409 0
-312 -410 0
-313 -411 0
-314 -412 0
-315 -413 0
-316 -414 0
-317 -415 0
-318 -416 0
-319 -417 0
-320 -418 0
-321 -419 0
-322 -420 0
-43 -351 0
-44 -352 0
-45 -353 0
-46 -354 0
-47 -355 0
-48 -356 0
-49 -357 0
-50 -358 0
-51 -359 0
-52 -360 0
-53 -361 0
-54 -362 0
-55 -363 0
-56 -364 0
-1 -15 0
-2 -16 0
-3 -17 0
-4 -18 0
-5 -19 0
-6 -20 0
-7 -21 0
-8 -22 0
-9 -23 0
-10 -24 0
-11 -25 0
-12 -26 0
-13 -27 0
-14 -28 0
-1 -141 0
-2 -142 0
-3 -143 0
-4 -144 0
-5 -145 0
-6 -146 0
-7 -147 0
-8 -148 0
-9 -149 0
-10 -150 0
-11 -151 0
-12 -152 0
-13 -153 0
-14 -154 0
-1 -267 0
-2 -268 0
-3 -269 0
-4 -270 0
-5 -271 0
-6 -272 0
-7 -273 0
-8 -274 0
-9 -275 0
-10 -276 0
-11 -277 0
-12 -278 0
-13 -279 0
-14 -280 0
-85 -239 0
-86 -240 0
-87 -241 0
-88 -242 0
-89 -243 0
-90 -244 0
-91 -245 0
-92 -246 0
-93 -247 0
-94 -248 0
-95 -249 0
-96 -250 0
-97 -251 0
-98 -252 0
-365 -57 0
-366 -58 0
-367 -59 0
-368 -60 0
-369 -61 0
-370 -62 0
-371 -63 0
-372 -64 0
-373 -65 0
-374 -66 0
-375 -67 0
-376 -68 0
-377 -69 0
-378 -70 0
-99 -127 0
-100 -128 0
-101 -129 0
-102 -130 0
-103 -131 0
-104 -132 0
-105 -133 0
-106 -134 0
-107 -135 0
-108 -136 0
-109 -137 0
-110 -138 0
-111 -139 0
-112 -140 0
-365 -309 0
-366 -310 0
-367 -311 0
-368 -312 0
-369 -313 0
-370 -314 0
-371 -315 0
-372 -316 0
-373 -317 0
-374 -318 0
-375 -319 0
-376 -320 0
-377 -321 0
-378 -322 0
-99 -253 0
-100 -254 0
-101 -255 0
-102 -256 0
-103 -257 0
-104 -258 0
-105 -259 0
-106 -260 0
-107 -261 0
-108 -262 0
-109 -263 0
-110 -264 0
-111 -265 0
-112 -266 0
-141 -197 0
-142 -198 0
-143 -199 0
-144 -200 0
-145 -201 0
-146 -202 0
-147 -203 0
-148 -204 0
-149 -205 0
-150 -206 0
-151 -207 0
-152 -208 0
-153 -209 0
-154 -210 0
-421 -267 0
-422 -268 0
-423 -269 0
-424 -270 0
-425 -271 0
-426 -272 0
-427 -273 0
-428 -274 0
-429 -275 0
-430 -276 0
-431 -277 0
-432 -278 0
-433 -279 0
-434 -280 0
-155 -211 0
-156 -212 0
-157 -213 0
-158 -214 0
-159 -215 0
-160 -216 0
-161 -217 0
-162 -218 0
-163 -219 0
-164 -220 0
-165 -221 0
-166 -222 0
-167 -223 0
-168 -224 0
-309 -211 0
-310 -212 0
-311 -213 0
-312 -214 0
-313 -215 0
-314 -216 0
-315 -217 0
-316 -218 0
-317 -219 0
-318 -220 0
-319 -221 0
-320 -222 0
-321 -223 0
-322 -224 0
-43 -155 0
-44 -156 0
-45 -157 0
-46 -158 0
-47 -159 0
-48 -160 0
-49 -161 0
-50 -162 0
-51 -163 0
-52 -164 0
-53 -165 0
-54 -166 0
-55 -167 0
-56 -168 0
-43 -281 0
-44 -282 0
-45 -283 0
-46 -284 0
-47 -285 0
-48 -286 0
-49 -287 0
-50 -288 0
-51 -289 0
-52 -290 0
-53 -291 0
-54 -292 0
-55 -293 0
-56 -294 0
-1 -71 0
-2 -72 0
-3 -73 0
-4 -74 0
-5 -75 0
-6 -76 0
-7 -77 0
-8 -78 0
-9 -79 0
-10 -80 0
-11 -81 0
-12 -82 0
-13 -83 0
-14 -84 0
-197 -225 0
-198 -226 0
-199 -227 0
-200 -228 0
-201 -229 0
-202 -230 0
-203 -231 0
-204 -232 0
-205 -233 0
-206 -234 0
-207 -235 0
-208 -236 0
-209 -237 0
-210 -238 0
-85 -169 0
-86 -170 0
-87 -171 0
-88 -172 0
-89 -173 0
-90 -174 0
-91 -175 0
-92 -176 0
-93 -177 0
-94 -178 0
-95 -179 0
-96 -180 0
-97 -181 0
-98 -182 0
-197 -351 0
-198 -352 0
-199 -353 0
-200 -354 0
-201 -355 0
-202 -356 0
-203 -357 0
-204 -358 0
-205 -359 0
-206 -360 0
-207 -361 0
-208 -362 0
-209 -363 0
-210 -364 0
-99 -183 0
-100 -184 0
-101 -185 0
-102 -186 0
-103 -187 0
-104 -188 0
-105 -189 0
-106 -190 0
-107 -191 0
-108 -192 0
-109 -193 0
-110 -194 0
-111 -195 0
-112 -196 0
-99 -309 0
-100 -310 0
-101 -311 0
-102 -312 0
-103 -313 0
-104 -314 0
-105 -315 0
-106 -316 0
-107 -317 0
-108 -318 0
-109 -319 0
-110 -320 0
-111 -321 0
-112 -322 0
-141 -253 0
-142 -254 0
-143 -255 0
-144 -256 0
-145 -257 0
-146 -258 0
-147 -259 0
-148 -260 0
-149 -261 0
-150 -262 0
-151 -263 0
-152 -264 0
-153 -265 0
-154 -266 0
-309 -141 0
-310 -142 0
-311 -143 0
-312 -144 0
-313 -145 0
-314 -146 0
-315 -147 0
-316 -148 0
-317 -149 0
-318 -150 0
-319 -151 0
-320 -152 0
-321 -153 0
-322 -154 0
-43 -85 0
-44 -86 0
-45 -87 0
-46 -88 0
-47 -89 0
-48 -90 0
-49 -91 0
-50 -92 0
-51 -93 0
-52 -94 0
-53 -95 0
-54 -96 0
-55 -97 0
-56 -98 0
-43 -211 0
-44 -212 0
-45 -213 0
-46 -214 0
-47 -215 0
-48 -216 0
-49 -217 0
-50 -218 0
-51 -219 0
-52 -220 0
-53 -221 0
-54 -222 0
-55 -223 0
-56 -224 0
-295 -197 0
-296 -198 0
-297 -199 0
-298 -200 0
-299 -201 0
-300 -202 0
-301 -203 0
-302 -204 0
-303 -205 0
-304 -206 0
-305 -207 0
-306 -208 0
-307 -209 0
-308 -210 0
-29 -267 0
-30 -268 0
-31 -269 0
-32 -270 0
-33 -271 0
-34 -272 0
-35 -273 0
-36 -274 0
-37 -275 0
-38 -276 0
-39 -277 0
-40 -278 0
-41 -279 0
-42 -280 0
-183 -267 0
-184 -268 0
-185 -269 0
-186 -270 0
-187 -271 0
-188 -272 0
-189 -273 0
-190 -274 0
-191 -275 0
-192 -276 0
-193 -277 0
-194 -278 0
-195 -279 0
-196 -280 0
-85 -99 0
-86 -100 0
-87 -101 0
-88 -102 0
-89 -103 0
-90 -104 0
-91 -105 0
-92 -106 0
-93 -107 0
-94 -108 0
-95 -109 0
-96 -110 0
-97 -111 0
-98 -112 0
