p cnf 412 3654
1 2 3 4 5 6 7 8 9 10 11 12 13 14 15 16 0
17 18 19 20 21 22 23 24 25 26 27 28 29 30 31 32 0
33 34 35 36 37 38 39 40 41 42 43 44 45 46 47 48 0
49 50 51 52 53 54 55 56 57 58 59 60 61 62 63 64 0
65 66 67 68 69 70 71 72 73 74 75 76 77 78 79 80 0
81 82 83 84 85 86 87 88 89 90 91 92 93 94 95 96 0
97 98 99 100 101 102 103 104 105 106 107 108 109 110 111 112 0
113 114 115 116 117 118 119 120 121 122 123 124 125 126 127 128 0
129 130 131 132 133 134 135 136 137 138 139 140 141 142 143 144 0
145 146 147 148 149 150 151 152 153 154 155 156 157 158 159 160 0
161 162 163 164 165 166 167 168 169 170 171 172 173 174 175 176 0
177 178 179 180 181 182 183 184 185 186 187 188 189 190 191 192 0
193 194 195 196 197 198 199 200 201 202 203 204 205 206 207 208 0
209 210 211 212 213 214 215 216 217 218 219 220 221 222 223 224 0
225 226 227 228 229 230 231 232 233 234 235 236 237 238 239 240 0
241 242 243 244 245 246 247 248 249 250 251 252 253 254 255 256 0
257 258 259 260 261 262 263 264 265 266 267 268 269 270 271 272 0
-1 -17 0
-1 -33 0
-1 -49 0
-1 -65 0
-1 -81 0
-1 -97 0
-1 -113 0
-1 -129 0
-1 -145 0
-1 -161 0
-1 -177 0
-1 -193 0
-1 -209 0
-1 -225 0
-1 -241 0
-1 -257 0
-17 -33 0
-17 -49 0
-17 -65 0
-17 -81 0
-17 -97 0
-17 -113 0
-17 -129 0
-17 -145 0
-17 -161 0
-17 -177 0
-17 -193 0
-17 -209 0
-17 -225 0
-17 -241 0
-17 -257 0
-33 -49 0
-33 -65 0
-33 -81 0
-33 -97 0
-33 -113 0
-33 -129 0
-33 -145 0
-33 -161 0
-33 -177 0
-33 -193 0
-33 -209 0
-33 -225 0
-33 -241 0
-33 -257 0
-49 -65 0
-49 -81 0
-49 -97 0
-49 -113 0
-49 -129 0
-49 -145 0
-49 -161 0
-49 -177 0
-49 -193 0
-49 -209 0
-49 -225 0
-49 -241 0
-49 -257 0
-65 -81 0
-65 -97 0
-65 -113 0
-65 -129 0
-65 -145 0
-65 -161 0
-65 -177 0
-65 -193 0
-65 -209 0
-65 -225 0
-65 -241 0
-65 -257 0
-81 -97 0
-81 -113 0
-81 -129 0
-81 -145 0
-81 -161 0
-81 -177 0
-81 -193 0
-81 -209 0
-81 -225 0
-81 -241 0
-81 -257 0
-97 -113 0
-97 -129 0
-97 -145 0
-97 -161 0
-97 -177 0
-97 -193 0
-97 -209 0
-97 -225 0
-97 -241 0
-97 -257 0
-113 -129 0
-113 -145 0
-113 -161 0
-113 -177 0
-113 -193 0
-113 -209 0
-113 -225 0
-113 -241 0
-113 -257 0
-129 -145 0
-129 -161 0
-129 -177 0
-129 -193 0
-129 -209 0
-129 -225 0
-129 -241 0
-129 -257 0
-145 -161 0
-145 -177 0
-145 -193 0
-145 -209 0
-145 -225 0
-145 -241 0
-145 -257 0
-161 -177 0
-161 -193 0
-161 -209 0
-161 -225 0
-161 -241 0
-161 -257 0
-177 -193 0
-177 -209 0
-177 -225 0
-177 -241 0
-177 -257 0
-193 -209 0
-193 -225 0
-193 -241 0
-193 -257 0
-209 -225 0
-209 -241 0
-209 -257 0
-225 -241 0
-225 -257 0
-241 -257 0
-2 -18 0
-2 -34 0
-2 -50 0
-2 -66 0
-2 -82 0
-2 -98 0
-2 -114 0
-2 -130 0
-2 -146 0
-2 -162 0
-2 -178 0
-2 -194 0
-2 -210 0
-2 -226 0
-2 -242 0
-2 -258 0
-18 -34 0
-18 -50 0
-18 -66 0
-18 -82 0
-18 -98 0
-18 -114 0
-18 -130 0
-18 -146 0
-18 -162 0
-18 -178 0
-18 -194 0
-18 -210 0
-18 -226 0
-18 -242 0
-18 -258 0
-34 -50 0
-34 -66 0
-34 -82 0
-34 -98 0
-34 -114 0
-34 -130 0
-34 -146 0
-34 -162 0
-34 -178 0
-34 -194 0
-34 -210 0
-34 -226 0
-34 -242 0
-34 -258 0
-50 -66 0
-50 -82 0
-50 -98 0
-50 -114 0
-50 -130 0
-50 -146 0
-50 -162 0
-50 -178 0
-50 -194 0
-50 -210 0
-50 -226 0
-50 -242 0
-50 -258 0
-66 -82 0
-66 -98 0
-66 -114 0
-66 -130 0
-66 -146 0
-66 -162 0
-66 -178 0
-66 -194 0
-66 -210 0
-66 -226 0
-66 -242 0
-66 -258 0
-82 -98 0
-82 -114 0
-82 -130 0
-82 -146 0
-82 -162 0
-82 -178 0
-82 -194 0
-82 -210 0
-82 -226 0
-82 -242 0
-82 -258 0
-98 -114 0
-98 -130 0
-98 -146 0
-98 -162 0
-98 -178 0
-98 -194 0
-98 -210 0
-98 -226 0
-98 -242 0
-98 -258 0
-114 -130 0
-114 -146 0
-114 -162 0
-114 -178 0
-114 -194 0
-114 -210 0
-114 -226 0
-114 -242 0
-114 -258 0
-130 -146 0
-130 -162 0
-130 -178 0
-130 -194 0
-130 -210 0
-130 -226 0
-130 -242 0
-130 -258 0
-146 -162 0
-146 -178 0
-146 -194 0
-146 -210 0
-146 -226 0
-146 -242 0
-146 -258 0
-162 -178 0
-162 -194 0
-162 -210 0
-162 -226 0
-162 -242 0
-162 -258 0
-178 -194 0
-178 -210 0
-178 -226 0
-178 -242 0
-178 -258 0
-194 -210 0
-194 -226 0
-194 -242 0
-194 -258 0
-210 -226 0
-210 -242 0
-210 -258 0
-226 -242 0
-226 -258 0
-242 -258 0
-3 -19 0
-3 -35 0
-3 -273 0
-19 -35 0
-19 -273 0
-35 -273 0
273 -51 0
273 -67 0
273 -274 0
-51 -67 0
-51 -274 0
-67 -274 0
274 -83 0
274 -99 0
274 -275 0
-83 -99 0
-83 -275 0
-99 -275 0
275 -115 0
275 -131 0
275 -276 0
-115 -131 0
-115 -276 0
-131 -276 0
276 -147 0
276 -163 0
276 -277 0
-147 -163 0
-147 -277 0
-163 -277 0
277 -179 0
277 -195 0
277 -278 0
-179 -195 0
-179 -278 0
-195 -278 0
278 -211 0
278 -227 0
278 -279 0
-211 -227 0
-211 -279 0
-227 -279 0
279 -243 0
279 -259 0
-243 -259 0
-4 280 0
-20 281 0
-20 -280 0
-280 281 0
-36 282 0
-36 -281 0
-281 282 0
-52 283 0
-52 -282 0
-282 283 0
-68 284 0
-68 -283 0
-283 284 0
-84 285 0
-84 -284 0
-284 285 0
-100 286 0
-100 -285 0
-285 286 0
-116 287 0
-116 -286 0
-286 287 0
-132 288 0
-132 -287 0
-287 288 0
-148 289 0
-148 -288 0
-288 289 0
-164 290 0
-164 -289 0
-289 290 0
-180 291 0
-180 -290 0
-290 291 0
-196 292 0
-196 -291 0
-291 292 0
-212 293 0
-212 -292 0
-292 293 0
-228 294 0
-228 -293 0
-293 294 0
-244 295 0
-244 -294 0
-294 295 0
-260 -295 0
-5 296 0
-21 297 0
-21 -296 0
-296 297 0
-37 298 0
-37 -297 0
-297 298 0
-53 299 0
-53 -298 0
-298 299 0
-69 300 0
-69 -299 0
-299 300 0
-85 301 0
-85 -300 0
-300 301 0
-101 302 0
-101 -301 0
-301 302 0
-117 303 0
-117 -302 0
-302 303 0
-133 304 0
-133 -303 0
-303 304 0
-149 305 0
-149 -304 0
-304 305 0
-165 306 0
-165 -305 0
-305 306 0
-181 307 0
-181 -306 0
-306 307 0
-197 308 0
-197 -307 0
-307 308 0
-213 309 0
-213 -308 0
-308 309 0
-229 310 0
-229 -309 0
-309 310 0
-245 311 0
-245 -310 0
-310 311 0
-261 -311 0
-6 -22 0
-6 -38 0
-6 -54 0
-6 -70 0
-6 -86 0
-6 -102 0
-6 -118 0
-6 -134 0
-6 -150 0
-6 -166 0
-6 -182 0
-6 -198 0
-6 -214 0
-6 -230 0
-6 -246 0
-6 -262 0
-22 -38 0
-22 -54 0
-22 -70 0
-22 -86 0
-22 -102 0
-22 -118 0
-22 -134 0
-22 -150 0
-22 -166 0
-22 -182 0
-22 -198 0
-22 -214 0
-22 -230 0
-22 -246 0
-22 -262 0
-38 -54 0
-38 -70 0
-38 -86 0
-38 -102 0
-38 -118 0
-38 -134 0
-38 -150 0
-38 -166 0
-38 -182 0
-38 -198 0
-38 -214 0
-38 -230 0
-38 -246 0
-38 -262 0
-54 -70 0
-54 -86 0
-54 -102 0
-54 -118 0
-54 -134 0
-54 -150 0
-54 -166 0
-54 -182 0
-54 -198 0
-54 -214 0
-54 -230 0
-54 -246 0
-54 -262 0
-70 -86 0
-70 -102 0
-70 -118 0
-70 -134 0
-70 -150 0
-70 -166 0
-70 -182 0
-70 -198 0
-70 -214 0
-70 -230 0
-70 -246 0
-70 -262 0
-86 -102 0
-86 -118 0
-86 -134 0
-86 -150 0
-86 -166 0
-86 -182 0
-86 -198 0
-86 -214 0
-86 -230 0
-86 -246 0
-86 -262 0
-102 -118 0
-102 -134 0
-102 -150 0
-102 -166 0
-102 -182 0
-102 -198 0
-102 -214 0
-102 -230 0
-102 -246 0
-102 -262 0
-118 -134 0
-118 -150 0
-118 -166 0
-118 -182 0
-118 -198 0
-118 -214 0
-118 -230 0
-118 -246 0
-118 -262 0
-134 -150 0
-134 -166 0
-134 -182 0
-134 -198 0
-134 -214 0
-134 -230 0
-134 -246 0
-134 -262 0
-150 -166 0
-150 -182 0
-150 -198 0
-150 -214 0
-150 -230 0
-150 -246 0
-150 -262 0
-166 -182 0
-166 -198 0
-166 -214 0
-166 -230 0
-166 -246 0
-166 -262 0
-182 -198 0
-182 -214 0
-182 -230 0
-182 -246 0
-182 -262 0
-198 -214 0
-198 -230 0
-198 -246 0
-198 -262 0
-214 -230 0
-214 -246 0
-214 -262 0
-230 -246 0
-230 -262 0
-246 -262 0
-7 312 0
-23 313 0
-23 -312 0
-312 313 0
-39 314 0
-39 -313 0
-313 314 0
-55 315 0
-55 -314 0
-314 315 0
-71 316 0
-71 -315 0
-315 316 0
-87 317 0
-87 -316 0
-316 317 0
-103 318 0
-103 -317 0
-317 318 0
-119 319 0
-119 -318 0
-318 319 0
-135 320 0
-135 -319 0
-319 320 0
-151 321 0
-151 -320 0
-320 321 0
-167 322 0
-167 -321 0
-321 322 0
-183 323 0
-183 -322 0
-322 323 0
-199 324 0
-199 -323 0
-323 324 0
-215 325 0
-215 -324 0
-324 325 0
-231 326 0
-231 -325 0
-325 326 0
-247 327 0
-247 -326 0
-326 327 0
-263 -327 0
-8 328 0
-24 329 0
-24 -328 0
-328 329 0
-40 330 0
-40 -329 0
-329 330 0
-56 331 0
-56 -330 0
-330 331 0
-72 332 0
-72 -331 0
-331 332 0
-88 333 0
-88 -332 0
-332 333 0
-104 334 0
-104 -333 0
-333 334 0
-120 335 0
-120 -334 0
-334 335 0
-136 336 0
-136 -335 0
-335 336 0
-152 337 0
-152 -336 0
-336 337 0
-168 338 0
-168 -337 0
-337 338 0
-184 339 0
-184 -338 0
-338 339 0
-200 340 0
-200 -339 0
-339 340 0
-216 341 0
-216 -340 0
-340 341 0
-232 342 0
-232 -341 0
-341 342 0
-248 343 0
-248 -342 0
-342 343 0
-264 -343 0
-9 -25 0
-9 -41 0
-9 -344 0
-25 -41 0
-25 -344 0
-41 -344 0
344 -57 0
344 -73 0
344 -345 0
-57 -73 0
-57 -345 0
-73 -345 0
345 -89 0
345 -105 0
345 -346 0
-89 -105 0
-89 -346 0
-105 -346 0
346 -121 0
346 -137 0
346 -347 0
-121 -137 0
-121 -347 0
-137 -347 0
347 -153 0
347 -169 0
347 -348 0
-153 -169 0
-153 -348 0
-169 -348 0
348 -185 0
348 -201 0
348 -349 0
-185 -201 0
-185 -349 0
-201 -349 0
349 -217 0
349 -233 0
349 -350 0
-217 -233 0
-217 -350 0
-233 -350 0
350 -249 0
350 -265 0
-249 -265 0
-10 351 0
-26 352 0
-26 -351 0
-351 352 0
-42 353 0
-42 -352 0
-352 353 0
-58 354 0
-58 -353 0
-353 354 0
-74 355 0
-74 -354 0
-354 355 0
-90 356 0
-90 -355 0
-355 356 0
-106 357 0
-106 -356 0
-356 357 0
-122 358 0
-122 -357 0
-357 358 0
-138 359 0
-138 -358 0
-358 359 0
-154 360 0
-154 -359 0
-359 360 0
-170 361 0
-170 -360 0
-360 361 0
-186 362 0
-186 -361 0
-361 362 0
-202 363 0
-202 -362 0
-362 363 0
-218 364 0
-218 -363 0
-363 364 0
-234 365 0
-234 -364 0
-364 365 0
-250 366 0
-250 -365 0
-365 366 0
-266 -366 0
-11 367 0
-27 368 0
-27 -367 0
-367 368 0
-43 369 0
-43 -368 0
-368 369 0
-59 370 0
-59 -369 0
-369 370 0
-75 371 0
-75 -370 0
-370 371 0
-91 372 0
-91 -371 0
-371 372 0
-107 373 0
-107 -372 0
-372 373 0
-123 374 0
-123 -373 0
-373 374 0
-139 375 0
-139 -374 0
-374 375 0
-155 376 0
-155 -375 0
-375 376 0
-171 377 0
-171 -376 0
-376 377 0
-187 378 0
-187 -377 0
-377 378 0
-203 379 0
-203 -378 0
-378 379 0
-219 380 0
-219 -379 0
-379 380 0
-235 381 0
-235 -380 0
-380 381 0
-251 382 0
-251 -381 0
-381 382 0
-267 -382 0
-12 -28 0
-12 -44 0
-12 -383 0
-28 -44 0
-28 -383 0
-44 -383 0
383 -60 0
383 -76 0
383 -384 0
-60 -76 0
-60 -384 0
-76 -384 0
384 -92 0
384 -108 0
384 -385 0
-92 -108 0
-92 -385 0
-108 -385 0
385 -124 0
385 -140 0
385 -386 0
-124 -140 0
-124 -386 0
-140 -386 0
386 -156 0
386 -172 0
386 -387 0
-156 -172 0
-156 -387 0
-172 -387 0
387 -188 0
387 -204 0
387 -388 0
-188 -204 0
-188 -388 0
-204 -388 0
388 -220 0
388 -236 0
388 -389 0
-220 -236 0
-220 -389 0
-236 -389 0
389 -252 0
389 -268 0
-252 -268 0
-13 -29 0
-13 -45 0
-13 -390 0
-29 -45 0
-29 -390 0
-45 -390 0
390 -61 0
390 -77 0
390 -391 0
-61 -77 0
-61 -391 0
-77 -391 0
391 -93 0
391 -109 0
391 -392 0
-93 -109 0
-93 -392 0
-109 -392 0
392 -125 0
392 -141 0
392 -393 0
-125 -141 0
-125 -393 0
-141 -393 0
393 -157 0
393 -173 0
393 -394 0
-157 -173 0
-157 -394 0
-173 -394 0
394 -189 0
394 -205 0
394 -395 0
-189 -205 0
-189 -395 0
-205 -395 0
395 -221 0
395 -237 0
395 -396 0
-221 -237 0
-221 -396 0
-237 -396 0
396 -253 0
396 -269 0
-253 -269 0
-14 -30 0
-14 -46 0
-14 -62 0
-14 -78 0
-14 -94 0
-14 -110 0
-14 -126 0
-14 -142 0
-14 -158 0
-14 -174 0
-14 -190 0
-14 -206 0
-14 -222 0
-14 -238 0
-14 -254 0
-14 -270 0
-30 -46 0
-30 -62 0
-30 -78 0
-30 -94 0
-30 -110 0
-30 -126 0
-30 -142 0
-30 -158 0
-30 -174 0
-30 -190 0
-30 -206 0
-30 -222 0
-30 -238 0
-30 -254 0
-30 -270 0
-46 -62 0
-46 -78 0
-46 -94 0
-46 -110 0
-46 -126 0
-46 -142 0
-46 -158 0
-46 -174 0
-46 -190 0
-46 -206 0
-46 -222 0
-46 -238 0
-46 -254 0
-46 -270 0
-62 -78 0
-62 -94 0
-62 -110 0
-62 -126 0
-62 -142 0
-62 -158 0
-62 -174 0
-62 -190 0
-62 -206 0
-62 -222 0
-62 -238 0
-62 -254 0
-62 -270 0
-78 -94 0
-78 -110 0
-78 -126 0
-78 -142 0
-78 -158 0
-78 -174 0
-78 -190 0
-78 -206 0
-78 -222 0
-78 -238 0
-78 -254 0
-78 -270 0
-94 -110 0
-94 -126 0
-94 -142 0
-94 -158 0
-94 -174 0
-94 -190 0
-94 -206 0
-94 -222 0
-94 -238 0
-94 -254 0
-94 -270 0
-110 -126 0
-110 -142 0
-110 -158 0
-110 -174 0
-110 -190 0
-110 -206 0
-110 -222 0
-110 -238 0
-110 -254 0
-110 -270 0
-126 -142 0
-126 -158 0
-126 -174 0
-126 -190 0
-126 -206 0
-126 -222 0
-126 -238 0
-126 -254 0
-126 -270 0
-142 -158 0
-142 -174 0
-142 -190 0
-142 -206 0
-142 -222 0
-142 -238 0
-142 -254 0
-142 -270 0
-158 -174 0
-158 -190 0
-158 -206 0
-158 -222 0
-158 -238 0
-158 -254 0
-158 -270 0
-174 -190 0
-174 -206 0
-174 -222 0
-174 -238 0
-174 -254 0
-174 -270 0
-190 -206 0
-190 -222 0
-190 -238 0
-190 -254 0
-190 -270 0
-206 -222 0
-206 -238 0
-206 -254 0
-206 -270 0
-222 -238 0
-222 -254 0
-222 -270 0
-238 -254 0
-238 -270 0
-254 -270 0
-15 -31 0
-15 -47 0
-15 -63 0
-15 -79 0
-15 -95 0
-15 -111 0
-15 -127 0
-15 -143 0
-15 -159 0
-15 -175 0
-15 -191 0
-15 -207 0
-15 -223 0
-15 -239 0
-15 -255 0
-15 -271 0
-31 -47 0
-31 -63 0
-31 -79 0
-31 -95 0
-31 -111 0
-31 -127 0
-31 -143 0
-31 -159 0
-31 -175 0
-31 -191 0
-31 -207 0
-31 -223 0
-31 -239 0
-31 -255 0
-31 -271 0
-47 -63 0
-47 -79 0
-47 -95 0
-47 -111 0
-47 -127 0
-47 -143 0
-47 -159 0
-47 -175 0
-47 -191 0
-47 -207 0
-47 -223 0
-47 -239 0
-47 -255 0
-47 -271 0
-63 -79 0
-63 -95 0
-63 -111 0
-63 -127 0
-63 -143 0
-63 -159 0
-63 -175 0
-63 -191 0
-63 -207 0
-63 -223 0
-63 -239 0
-63 -255 0
-63 -271 0
-79 -95 0
-79 -111 0
-79 -127 0
-79 -143 0
-79 -159 0
-79 -175 0
-79 -191 0
-79 -207 0
-79 -223 0
-79 -239 0
-79 -255 0
-79 -271 0
-95 -111 0
-95 -127 0
-95 -143 0
-95 -159 0
-95 -175 0
-95 -191 0
-95 -207 0
-95 -223 0
-95 -239 0
-95 -255 0
-95 -271 0
-111 -127 0
-111 -143 0
-111 -159 0
-111 -175 0
-111 -191 0
-111 -207 0
-111 -223 0
-111 -239 0
-111 -255 0
-111 -271 0
-127 -143 0
-127 -159 0
-127 -175 0
-127 -191 0
-127 -207 0
-127 -223 0
-127 -239 0
-127 -255 0
-127 -271 0
-143 -159 0
-143 -175 0
-143 -191 0
-143 -207 0
-143 -223 0
-143 -239 0
-143 -255 0
-143 -271 0
-159 -175 0
-159 -191 0
-159 -207 0
-159 -223 0
-159 -239 0
-159 -255 0
-159 -271 0
-175 -191 0
-175 -207 0
-175 -223 0
-175 -239 0
-175 -255 0
-175 -271 0
-191 -207 0
-191 -223 0
-191 -239 0
-191 -255 0
-191 -271 0
-207 -223 0
-207 -239 0
-207 -255 0
-207 -271 0
-223 -239 0
-223 -255 0
-223 -271 0
-239 -255 0
-239 -271 0
-255 -271 0
-16 397 0
-32 398 0
-32 -397 0
-397 398 0
-48 399 0
-48 -398 0
-398 399 0
-64 400 0
-64 -399 0
-399 400 0
-80 401 0
-80 -400 0
-400 401 0
-96 402 0
-96 -401 0
-401 402 0
-112 403 0
-112 -402 0
-402 403 0
-128 404 0
-128 -403 0
-403 404 0
-144 405 0
-144 -404 0
-404 405 0
-160 406 0
-160 -405 0
-405 406 0
-176 407 0
-176 -406 0
-406 407 0
-192 408 0
-192 -407 0
-407 408 0
-208 409 0
-208 -408 0
-408 409 0
-224 410 0
-224 -409 0
-409 410 0
-240 411 0
-240 -410 0
-410 411 0
-256 412 0
-256 -411 0
-411 412 0
-272 -412 0
-189 -193 0
-135 -261 0
-152 -214 0
-112 -211 0
-4 -82 0
-135 -177 0
-133 -259 0
-111 -220 0
-90 -183 0
-79 -269 0
-72 -99 0
-46 -89 0
-30 -178 0
-60 -245 0
-184 -199 0
-164 -209 0
-36 -66 0
-9 -211 0
-10 -178 0
-92 -114 0
-255 -264 0
-25 -85 0
-75 -184 0
-76 -235 0
-107 -154 0
-88 -151 0
-147 -162 0
-44 -155 0
-25 -50 0
-165 -244 0
-78 -155 0
-6 -99 0
-124 -217 0
-11 -84 0
-78 -104 0
-110 -169 0
-94 -152 0
-142 -187 0
-21 -211 0
-125 -185 0
-15 -233 0
-153 -246 0
-44 -97 0
-183 -228 0
-127 -182 0
-55 -98 0
-71 -262 0
-208 -222 0
-29 -265 0
-14 -108 0
-61 -103 0
-187 -244 0
-5 -177 0
-144 -212 0
-92 -178 0
-94 -98 0
-169 -260 0
-63 -89 0
-75 -248 0
-44 -67 0
-22 -241 0
-5 -193 0
-154 -214 0
-38 -260 0
-25 -37 0
-91 -263 0
-90 -114 0
-240 -263 0
-114 -225 0
-121 -226 0
-41 -147 0
-171 -177 0
-47 -265 0
-11 -22 0
-72 -131 0
-120 -257 0
-38 -197 0
-20 -99 0
-107 -258 0
-96 -263 0
-203 -218 0
-176 -250 0
-30 -97 0
-110 -136 0
-27 -213 0
-77 -151 0
-27 -229 0
-144 -167 0
-109 -226 0
-75 -149 0
-11 -52 0
-151 -213 0
-174 -197 0
-28 -88 0
-236 -263 0
-40 -71 0
-186 -244 0
-63 -174 0
-119 -230 0
-207 -259 0
-41 -259 0
-118 -211 0
-204 -259 0
-88 -134 0
-111 -156 0
-91 -121 0
-13 -138 0
-83 -226 0
-88 -149 0
-133 -178 0
-137 -247 0
-170 -243 0
-107 -215 0
-107 -214 0
-42 -115 0
-74 -85 0
-54 -213 0
-60 -149 0
-136 -199 0
-77 -210 0
-127 -222 0
-46 -213 0
-95 -117 0
-44 -154 0
-138 -225 0
-64 -194 0
-126 -168 0
-96 -122 0
-15 -78 0
-46 -138 0
-165 -180 0
-14 -181 0
-62 -123 0
-62 -98 0
-48 -94 0
-234 -263 0
-62 -168 0
-153 -194 0
-55 -179 0
-63 -121 0
-64 -76 0
-220 -259 0
-108 -210 0
-206 -265 0
-141 -260 0
-136 -260 0
-29 -115 0
-15 -183 0
-9 -241 0
-16 -223 0
-79 -142 0
-173 -227 0
-239 -262 0
-30 -59 0
-61 -170 0
-11 -258 0
-127 -247 0
-253 -264 0
-99 -210 0
-128 -255 0
-44 -113 0
-54 -84 0
-48 -262 0
-28 -35 0
-85 -132 0
-28 -54 0
-30 -120 0
-10 -151 0
-115 -225 0
-60 -106 0
-207 -213 0
-248 -257 0
-180 -193 0
-204 -216 0
-22 -82 0
-42 -89 0
-70 -195 0
-175 -177 0
-224 -253 0
-15 -219 0
-93 -145 0
-80 -193 0
-191 -237 0
-9 -65 0
-42 -248 0
-8 -35 0
-41 -163 0
-128 -149 0
-10 -137 0
-88 -148 0
-7 -114 0
-91 -202 0
-83 -257 0
-74 -196 0
-28 -212 0
-248 -260 0
-62 -103 0
-111 -257 0
-175 -211 0
-189 -197 0
-70 -177 0
-222 -232 0
-69 -177 0
-44 -130 0
-47 -97 0
-27 -266 0
-16 -27 0
-18 -177 0
-32 -219 0
-22 -177 0
-107 -218 0
-57 -212 0
-61 -100 0
-124 -262 0
-47 -244 0
-105 -229 0
-142 -215 0
-183 -260 0
-79 -219 0
-121 -229 0
-77 -248 0
-79 -94 0
-140 -232 0
-144 -149 0
-45 -177 0
-208 -268 0
-168 -179 0
-106 -226 0
-62 -70 0
-44 -69 0
-59 -120 0
-15 -116 0
-48 -115 0
-44 -75 0
-127 -189 0
-191 -249 0
-46 -52 0
-35 -209 0
-198 -226 0
-31 -141 0
-27 -200 0
-83 -129 0
-45 -85 0
-184 -226 0
-64 -126 0
-106 -245 0
-98 -145 0
-12 -113 0
-111 -183 0
-107 -241 0
-44 -181 0
-55 -131 0
-43 -245 0
-164 -241 0
-60 -229 0
-112 -194 0
-121 -134 0
-69 -241 0
-125 -179 0
-64 -169 0
-5 -260 0
-19 -161 0
-144 -166 0
-39 -82 0
-220 -234 0
-103 -150 0
-59 -167 0
-12 -37 0
-122 -151 0
-90 -163 0
-189 -246 0
-57 -167 0
-170 -215 0
-122 -194 0
-41 -247 0
-185 -257 0
-110 -200 0
-13 -51 0
-62 -82 0
-123 -217 0
-122 -200 0
-48 -179 0
-127 -236 0
-41 -119 0
-106 -114 0
-86 -161 0
-140 -233 0
-30 -91 0
-106 -247 0
-54 -113 0
-14 -20 0
-83 -146 0
-63 -225 0
-46 -113 0
-80 -117 0
-10 -135 0
-28 -113 0
-60 -150 0
-38 -229 0
-42 -57 0
-29 -252 0
-24 -34 0
-15 -126 0
-59 -260 0
-7 -209 0
-85 -178 0
-15 -252 0
-108 -120 0
-15 -37 0
-90 -201 0
-46 -98 0
-153 -232 0
-138 -151 0
-240 -266 0
-173 -266 0
-73 -100 0
-222 -241 0
-167 -211 0
-189 -236 0
-125 -164 0
-141 -212 0
-149 -241 0
-125 -210 0
-140 -225 0
-76 -179 0
-136 -261 0
-187 -194 0
-80 -218 0
-70 -225 0
-69 -260 0
-47 -181 0
-39 -114 0
-73 -116 0
-32 -74 0
-4 -243 0
-78 -258 0
-90 -217 0
-41 -228 0
-128 -202 0
-197 -227 0
-77 -156 0
-10 -22 0
-208 -214 0
-27 -246 0
-31 -246 0
-10 -70 0
-232 -244 0
-137 -166 0
-189 -214 0
-136 -166 0
-135 -179 0
-19 -194 0
-59 -113 0
-154 -227 0
-112 -195 0
-140 -226 0
-26 -242 0
-103 -210 0
-48 -227 0
-78 -183 0
-127 -186 0
-45 -218 0
-96 -151 0
-30 -100 0
-13 -148 0
-119 -179 0
-110 -163 0
-9 -114 0
-201 -248 0
-215 -228 0
-187 -245 0
-96 -215 0
-16 -51 0
-62 -105 0
-120 -228 0
-12 -130 0
-104 -119 0
-44 -104 0
-15 -58 0
-184 -215 0
-80 -159 0
-45 -66 0
-144 -172 0
-60 -68 0
-94 -243 0
-224 -269 0
-21 -193 0
-192 -239 0
-71 -259 0
-206 -266 0
-123 -212 0
-57 -200 0
-69 -116 0
-103 -229 0
-45 -187 0
-106 -242 0
-190 -265 0
-92 -132 0
-99 -226 0
-5 -33 0
-46 -232 0
-110 -214 0
-27 -215 0
-45 -161 0
-41 -199 0
-73 -243 0
-223 -263 0
-92 -259 0
-185 -241 0
-64 -218 0
-12 -147 0
-20 -242 0
-90 -164 0
-26 -169 0
-169 -182 0
-77 -260 0
-70 -210 0
-95 -156 0
-95 -183 0
-62 -246 0
-126 -218 0
-8 -229 0
-58 -71 0
-120 -229 0
-92 -244 0
-92 -117 0
-112 -181 0
-155 -164 0
-88 -226 0
-175 -230 0
-39 -214 0
-44 -120 0
-46 -233 0
-240 -269 0
-38 -50 0
-23 -66 0
-45 -200 0
-24 -65 0
-125 -228 0
-70 -117 0
-44 -56 0
-171 -185 0
-28 -201 0
-32 -59 0
-223 -241 0
-96 -186 0
-55 -213 0
-29 -172 0
-140 -228 0
-31 -254 0
-28 -81 0
-30 -265 0
-174 -253 0
-14 -134 0
-157 -209 0
-124 -247 0
-124 -241 0
-75 -266 0
-21 -244 0
-206 -215 0
-127 -134 0
-73 -242 0
-168 -245 0
-52 -163 0
-56 -210 0
-89 -151 0
-160 -206 0
-30 -70 0
-45 -103 0
-80 -206 0
-79 -86 0
-8 -49 0
-78 -108 0
-91 -198 0
-126 -253 0
-14 -34 0
-6 -37 0
-175 -194 0
-87 -102 0
-107 -230 0
-105 -198 0
-47 -129 0
-22 -260 0
-181 -227 0
-92 -137 0
-43 -225 0
-196 -258 0
-117 -194 0
-39 -166 0
-112 -182 0
-15 -242 0
-39 -244 0
-47 -238 0
-55 -260 0
-16 -232 0
-93 -196 0
-159 -243 0
-108 -227 0
-60 -85 0
-75 -113 0
-45 -156 0
-57 -149 0
-119 -246 0
-111 -187 0
-13 -34 0
-24 -210 0
-150 -226 0
-84 -177 0
-73 -195 0
-192 -252 0
-105 -113 0
-159 -270 0
-55 -65 0
-3 -34 0
-78 -212 0
-13 -25 0
-189 -241 0
-32 -198 0
-202 -231 0
-31 -100 0
-45 -216 0
-12 -35 0
-46 -161 0
-46 -93 0
-135 -145 0
-42 -51 0
-16 -122 0
-142 -245 0
-47 -165 0
-96 -259 0
-75 -99 0
-96 -216 0
-126 -132 0
-85 -162 0
-91 -260 0
-28 -260 0
-91 -131 0
-101 -147 0
-14 -169 0
-95 -234 0
-76 -242 0
-160 -175 0
-85 -243 0
-109 -262 0
-15 -148 0
-213 -244 0
-4 -209 0
-30 -49 0
-131 -241 0
-59 -198 0
-85 -212 0
-62 -265 0
-127 -227 0
-96 -141 0
-122 -130 0
-95 -222 0
-78 -200 0
-45 -167 0
-255 -259 0
-96 -212 0
-103 -163 0
-3 -65 0
-73 -229 0
-208 -225 0
-89 -104 0
-158 -241 0
-84 -179 0
-21 -146 0
-176 -228 0
-76 -219 0
-26 -114 0
-80 -145 0
-173 -216 0
-176 -203 0
-112 -149 0
-120 -199 0
-44 -53 0
-159 -174 0
-26 -209 0
-80 -263 0
-112 -143 0
-157 -257 0
-154 -182 0
-89 -120 0
-125 -177 0
-140 -162 0
-256 -260 0
-127 -156 0
-95 -249 0
-42 -101 0
-10 -40 0
-107 -232 0
-44 -52 0
-27 -150 0
-15 -67 0
-122 -215 0
-71 -198 0
-88 -199 0
-80 -199 0
-44 -186 0
-60 -211 0
-47 -59 0
-191 -230 0
-71 -150 0
-91 -103 0
-108 -211 0
-18 -113 0
-23 -209 0
-134 -148 0
-63 -138 0
-124 -178 0
-169 -178 0
-26 -152 0
-167 -227 0
-167 -210 0
-236 -259 0
-74 -177 0
-21 -258 0
-106 -232 0
-13 -257 0
-218 -264 0
-101 -244 0
-87 -132 0
-15 -245 0
-167 -180 0
-13 -266 0
-47 -74 0
-75 -98 0
-8 -257 0
-126 -181 0
-46 -164 0
-6 -114 0
-29 -50 0
-61 -120 0
-21 -179 0
-89 -245 0
-44 -184 0
-12 -120 0
-92 -261 0
-112 -187 0
-74 -200 0
-46 -146 0
-126 -185 0
-70 -130 0
-79 -231 0
-109 -171 0
-52 -243 0
-5 -49 0
-94 -155 0
-123 -133 0
-136 -225 0
-138 -244 0
-76 -198 0
-256 -267 0
-221 -259 0
-235 -258 0
-29 -204 0
-59 -196 0
-139 -177 0
-128 -150 0
-48 -185 0
-95 -228 0
-126 -178 0
-125 -136 0
-144 -201 0
-6 -20 0
-48 -162 0
-22 -225 0
-109 -199 0
-223 -252 0
-77 -82 0
-128 -249 0
-221 -248 0
-13 -28 0
-11 -247 0
-29 -244 0
-159 -177 0
-53 -259 0
-120 -258 0
-78 -267 0
-20 -257 0
-75 -131 0
-24 -182 0
-149 -195 0
-69 -212 0
-73 -81 0
-61 -186 0
-40 -261 0
-156 -193 0
-13 -259 0
-46 -136 0
-94 -153 0
-184 -213 0
-138 -227 0
-47 -78 0
-30 -252 0
-39 -245 0
-47 -196 0
-235 -244 0
-16 -163 0
-62 -147 0
-158 -229 0
-5 -17 0
-45 -186 0
-123 -132 0
-108 -162 0
-141 -155 0
-128 -236 0
-38 -261 0
-133 -179 0
-25 -248 0
-29 -136 0
-109 -114 0
-51 -242 0
-218 -258 0
-39 -129 0
-43 -234 0
-240 -245 0
-61 -138 0
-23 -194 0
-15 -243 0
-46 -221 0
-3 -145 0
-133 -148 0
-62 -186 0
-108 -195 0
-188 -259 0
-91 -98 0
-254 -267 0
-106 -233 0
-32 -255 0
-13 -152 0
-14 -55 0
-32 -131 0
-77 -152 0
-187 -249 0
-87 -161 0
-80 -244 0
-68 -115 0
-26 -181 0
-63 -164 0
-165 -179 0
-76 -118 0
-172 -217 0
-122 -211 0
-86 -115 0
-12 -38 0
-196 -241 0
-126 -251 0
-30 -107 0
-46 -148 0
-64 -216 0
-48 -66 0
-205 -213 0
-103 -113 0
-30 -217 0
-12 -198 0
-143 -212 0
-96 -264 0
-59 -70 0
-118 -197 0
-30 -61 0
-91 -145 0
-189 -218 0
-22 -210 0
-73 -245 0
-42 -102 0
-94 -261 0
-80 -157 0
-12 -146 0
-192 -206 0
-48 -88 0
-175 -267 0
-126 -147 0
-60 -248 0
-2 -113 0
-54 -245 0
-132 -146 0
-92 -215 0
-122 -243 0
-123 -177 0
-218 -229 0
-101 -259 0
-15 -193 0
-186 -217 0
-22 -113 0
-90 -261 0
-22 -35 0
-35 -114 0
-39 -180 0
-58 -200 0
-93 -108 0
-59 -153 0
-128 -238 0
-71 -115 0
-26 -264 0
-13 -27 0
-119 -149 0
-154 -166 0
-122 -229 0
-90 -133 0
-48 -226 0
-10 -265 0
-11 -134 0
-16 -180 0
-88 -195 0
-217 -247 0
-89 -193 0
-107 -114 0
-92 -145 0
-25 -118 0
-158 -162 0
-173 -242 0
-182 -197 0
-204 -228 0
-159 -165 0
-128 -245 0
-219 -227 0
-54 -177 0
-163 -193 0
-110 -133 0
-89 -134 0
-95 -217 0
-42 -103 0
-140 -214 0
-60 -264 0
-14 -162 0
-7 -36 0
-141 -145 0
-45 -92 0
-41 -214 0
-78 -216 0
-7 -84 0
-27 -153 0
-52 -113 0
-31 -152 0
-106 -197 0
-153 -195 0
-46 -103 0
-124 -213 0
-189 -200 0
-29 -76 0
-94 -268 0
-64 -204 0
-132 -179 0
-143 -178 0
-15 -121 0
-92 -216 0
-5 -34 0
-32 -235 0
-99 -258 0
-79 -100 0
-47 -220 0
-110 -213 0
-112 -246 0
-205 -263 0
-164 -258 0
-16 -44 0
-124 -182 0
-60 -258 0
-120 -210 0
-218 -247 0
-10 -243 0
-48 -100 0
-87 -146 0
-61 -215 0
-87 -213 0
-64 -177 0
-143 -174 0
-189 -230 0
-27 -249 0
-93 -244 0
-108 -167 0
-11 -209 0
-30 -168 0
-182 -193 0
-103 -132 0
-200 -226 0
-124 -267 0
-54 -229 0
-126 -184 0
-137 -152 0
-121 -183 0
-96 -204 0
-73 -150 0
-158 -225 0
-111 -217 0
-79 -114 0
-110 -135 0
-16 -158 0
-61 -119 0
-79 -152 0
-29 -179 0
-142 -259 0
-53 -226 0
-176 -217 0
-43 -261 0
-143 -161 0
-200 -213 0
-169 -180 0
-7 -38 0
-72 -181 0
-173 -263 0
-95 -253 0
-111 -189 0
-120 -164 0
-103 -147 0
-60 -130 0
-108 -213 0
-171 -198 0
-71 -246 0
-61 -113 0
-53 -65 0
-26 -149 0
-189 -242 0
-8 -180 0
-29 -235 0
-223 -260 0
-59 -137 0
-4 -242 0
-142 -204 0
-175 -181 0
-14 -28 0
-44 -198 0
-182 -258 0
-76 -229 0
-160 -181 0
-44 -182 0
-110 -230 0
-171 -209 0
-57 -210 0
-77 -236 0
-142 -249 0
-22 -66 0
-95 -114 0
-94 -187 0
-36 -145 0
-71 -97 0
-9 -49 0
-28 -101 0
-100 -146 0
-76 -116 0
-8 -19 0
-14 -99 0
-156 -218 0
-112 -216 0
-31 -70 0
-27 -69 0
-130 -241 0
-15 -130 0
-11 -33 0
-172 -262 0
-63 -201 0
-73 -246 0
-75 -135 0
-74 -233 0
-237 -242 0
-48 -62 0
-28 -98 0
-60 -166 0
-127 -229 0
-80 -119 0
-42 -264 0
-160 -270 0
-15 -124 0
-26 -39 0
-144 -190 0
-39 -209 0
-96 -269 0
-96 -198 0
-125 -220 0
-7 -33 0
-88 -257 0
-188 -198 0
-69 -146 0
-102 -163 0
-90 -226 0
-125 -216 0
-192 -228 0
-15 -52 0
-15 -188 0
-16 -46 0
-64 -141 0
-27 -244 0
-47 -215 0
-202 -243 0
-57 -66 0
-15 -117 0
-63 -235 0
-128 -268 0
-62 -162 0
-25 -130 0
-35 -177 0
-28 -115 0
-131 -226 0
-154 -211 0
-122 -180 0
-127 -235 0
-127 -249 0
-152 -231 0
-171 -186 0
-142 -262 0
-126 -173 0
-25 -228 0
-186 -197 0
-40 -146 0
-56 -66 0
-142 -229 0
-151 -230 0
-155 -257 0
-160 -174 0
-93 -154 0
-79 -233 0
-112 -210 0
-94 -178 0
-9 -216 0
-13 -252 0
-30 -75 0
-78 -252 0
-36 -257 0
-64 -74 0
-199 -246 0
-10 -113 0
-45 -213 0
-143 -165 0
-202 -244 0
-12 -197 0
-77 -113 0
-15 -180 0
-79 -151 0
-10 -24 0
-62 -145 0
-45 -235 0
-153 -213 0
-103 -198 0
-13 -155 0
-188 -243 0
-47 -177 0
-206 -253 0
-164 -195 0
-59 -181 0
-63 -86 0
-42 -73 0
-52 -147 0
-75 -227 0
-40 -86 0
-112 -252 0
-174 -202 0
-106 -216 0
-86 -195 0
-91 -247 0
-185 -261 0
-153 -210 0
-102 -244 0
-74 -84 0
-206 -260 0
-59 -90 0
-80 -183 0
-36 -225 0
-32 -222 0
-206 -220 0
-44 -71 0
-190 -258 0
-75 -85 0
-190 -263 0
-131 -258 0
-95 -121 0
-16 -66 0
-96 -199 0
-175 -261 0
-30 -198 0
-112 -247 0
-244 -259 0
-48 -243 0
-115 -161 0
-128 -271 0
-175 -189 0
-204 -260 0
-30 -114 0
-223 -229 0
-13 -250 0
-54 -116 0
-10 -82 0
-191 -217 0
-104 -162 0
-64 -187 0
-185 -247 0
-168 -196 0
-41 -132 0
-102 -226 0
-31 -261 0
-13 -74 0
-60 -181 0
-44 -194 0
-45 -179 0
-44 -266 0
-8 -226 0
-191 -262 0
-8 -209 0
-102 -116 0
-91 -167 0
-123 -233 0
-58 -132 0
-60 -120 0
-186 -260 0
-39 -193 0
-41 -133 0
-187 -261 0
-158 -199 0
-76 -131 0
-4 -99 0
-116 -162 0
-154 -217 0
-63 -77 0
-30 -72 0
-57 -98 0
-79 -102 0
-13 -168 0
-12 -88 0
-89 -246 0
-150 -210 0
-63 -83 0
-10 -183 0
-69 -195 0
-166 -244 0
-43 -115 0
-78 -134 0
-55 -101 0
-205 -230 0
-221 -250 0
-139 -146 0
-32 -214 0
-152 -230 0
-126 -129 0
-105 -194 0
-27 -58 0
-126 -213 0
-208 -242 0
-16 -198 0
-39 -132 0
-48 -60 0
-14 -164 0
-127 -231 0
-27 -70 0
-105 -241 0
-10 -194 0
-204 -233 0
-70 -258 0
-126 -177 0
-83 -98 0
-63 -151 0
-13 -103 0
-59 -103 0
-240 -267 0
-237 -243 0
-155 -258 0
-29 -123 0
-160 -185 0
-174 -212 0
-150 -242 0
-48 -195 0
-37 -49 0
-62 -218 0
-154 -247 0
-158 -221 0
-79 -157 0
-167 -229 0
-15 -152 0
-8 -71 0
-9 -70 0
-43 -233 0
-194 -225 0
-19 -162 0
-96 -172 0
-37 -148 0
-94 -245 0
-182 -243 0
-45 -201 0
-32 -169 0
-42 -49 0
-138 -216 0
-107 -195 0
-150 -195 0
-41 -88 0
-31 -171 0
-168 -244 0
-89 -247 0
-64 -159 0
-192 -242 0
-5 -100 0
-41 -66 0
-190 -210 0
-79 -195 0
-198 -257 0
-107 -233 0
-23 -166 0
-223 -246 0
-74 -263 0
-93 -100 0
-48 -145 0
-125 -203 0
-206 -214 0
-13 -167 0
-77 -136 0
-29 -150 0
-180 -242 0
-5 -195 0
-59 -241 0
-11 -74 0
-44 -264 0
-93 -245 0
-92 -264 0
-8 -38 0
-216 -225 0
-78 -140 0
-152 -180 0
-92 -116 0
-207 -225 0
-155 -162 0
-47 -77 0
-122 -261 0
-63 -155 0
-72 -87 0
-105 -199 0
-109 -117 0
-48 -230 0
-39 -178 0
-61 -268 0
-11 -152 0
-68 -98 0
-54 -225 0
-23 -210 0
-190 -197 0
-75 -225 0
-202 -249 0
-87 -134 0
-43 -170 0
-90 -197 0
-52 -177 0
-181 -257 0
-127 -154 0
-167 -246 0
-156 -199 0
-87 -113 0
-124 -137 0
-159 -260 0
-90 -258 0
-41 -232 0
-109 -229 0
-78 -152 0
-45 -139 0
-32 -203 0
-32 -98 0
-77 -84 0
-46 -170 0
-92 -151 0
-141 -180 0
-232 -245 0
-96 -149 0
-48 -119 0
-31 -178 0
-154 -193 0
-222 -262 0
-190 -217 0
-78 -202 0
-144 -233 0
-58 -184 0
-21 -164 0
-23 -102 0
-140 -170 0
-155 -265 0
-69 -194 0
-58 -66 0
-40 -241 0
-223 -249 0
-110 -114 0
-109 -156 0
-16 -245 0
-45 -131 0
-56 -135 0
-237 -248 0
-8 -183 0
-7 -165 0
-93 -199 0
-64 -222 0
-124 -130 0
-56 -98 0
-56 -165 0
-109 -130 0
-61 -197 0
-27 -56 0
-62 -267 0
-9 -177 0
-124 -149 0
-120 -209 0
-166 -245 0
-22 -81 0
-151 -193 0
-78 -114 0
-48 -164 0
-63 -232 0
-188 -219 0
-99 -241 0
-120 -215 0
-63 -101 0
-110 -148 0
-112 -189 0
-192 -233 0
-80 -125 0
-12 -83 0
-124 -203 0
-189 -266 0
-89 -101 0
-57 -193 0
-31 -222 0
-122 -242 0
-48 -61 0
-40 -115 0
-91 -266 0
-173 -195 0
-103 -114 0
-69 -257 0
-66 -129 0
-92 -171 0
-156 -249 0
-143 -199 0
-90 -263 0
-173 -188 0
-136 -179 0
-61 -252 0
-16 -268 0
-94 -177 0
-75 -218 0
-186 -212 0
-48 -187 0
-76 -211 0
-175 -235 0
-154 -228 0
-128 -171 0
-124 -202 0
-124 -183 0
-31 -135 0
-59 -152 0
-26 -161 0
-189 -234 0
-91 -225 0
-219 -231 0
-95 -153 0
-120 -195 0
-156 -245 0
-63 -166 0
-207 -211 0
-30 -104 0
-75 -234 0
-21 -36 0
-126 -221 0
-95 -262 0
-104 -181 0
-8 -100 0
-92 -164 0
-67 -161 0
-93 -188 0
-15 -123 0
-60 -185 0
-123 -244 0
-111 -125 0
-31 -183 0
-77 -165 0
-137 -225 0
-104 -214 0
-53 -66 0
-46 -106 0
-173 -248 0
-127 -138 0
-4 -146 0
-39 -257 0
-158 -259 0
-146 -161 0
-157 -194 0
-149 -227 0
-94 -163 0
-62 -124 0
-102 -165 0
-31 -204 0
-12 -229 0
-14 -74 0
-110 -201 0
-160 -267 0
-29 -210 0
-13 -119 0
-59 -244 0
-166 -242 0
-77 -202 0
-89 -200 0
-61 -99 0
-93 -214 0
-86 -209 0
-60 -101 0
-155 -177 0
-224 -231 0
-26 -162 0
-87 -197 0
-86 -116 0
-157 -211 0
-87 -196 0
-45 -129 0
-142 -173 0
-192 -197 0
-13 -91 0
-50 -97 0
-151 -163 0
-64 -254 0
-143 -264 0
-100 -113 0
-76 -102 0
-14 -203 0
-137 -161 0
-135 -165 0
-28 -118 0
-30 -105 0
-47 -155 0
-32 -261 0
-207 -229 0
-70 -193 0
-109 -155 0
-174 -250 0
-8 -102 0
-64 -120 0
-46 -149 0
-137 -211 0
-190 -261 0
-231 -261 0
-75 -212 0
-186 -259 0
-30 -152 0
-139 -248 0
-140 -171 0
-215 -230 0
-126 -246 0
-15 -217 0
-11 -169 0
-62 -148 0
-183 -195 0
-105 -161 0
-176 -268 0
-16 -95 0
-126 -183 0
-11 -218 0
-74 -198 0
-14 -250 0
-26 -40 0
-80 -152 0
-12 -89 0
-15 -267 0
-175 -237 0
-175 -262 0
-21 -81 0
-89 -113 0
-112 -262 0
-29 -250 0
-10 -134 0
-38 -149 0
-32 -52 0
-233 -262 0
-206 -269 0
-117 -258 0
-8 -36 0
-79 -101 0
-40 -82 0
-72 -132 0
-120 -162 0
-11 -130 0
-160 -271 0
-20 -33 0
-122 -164 0
-40 -209 0
-123 -138 0
-15 -103 0
-71 -99 0
-176 -202 0
-28 -57 0
-57 -214 0
-125 -245 0
-26 -168 0
-173 -211 0
-60 -218 0
-80 -226 0
-14 -93 0
-72 -101 0
-7 -98 0
-54 -209 0
-14 -60 0
-29 -165 0
-12 -97 0
-107 -200 0
-62 -229 0
-63 -267 0
-45 -51 0
-221 -263 0
-106 -215 0
-136 -257 0
-92 -147 0
-88 -196 0
-80 -110 0
-48 -126 0
-53 -225 0
-109 -211 0
-110 -157 0
-61 -200 0
-62 -171 0
-106 -265 0
-172 -211 0
-24 -261 0
-217 -264 0
-99 -145 0
-12 -73 0
-140 -201 0
-43 -249 0
-58 -135 0
-57 -164 0
-15 -254 0
-40 -67 0
-155 -266 0
-64 -263 0
-9 -262 0
-25 -168 0
-173 -232 0
-80 -115 0
-92 -233 0
-76 -227 0
-63 -78 0
-12 -56 0
-168 -246 0
-14 -243 0
-26 -150 0
-77 -234 0
-153 -212 0
-14 -149 0
-48 -197 0
-154 -241 0
-139 -260 0
-122 -161 0
-223 -259 0
-16 -131 0
-61 -106 0
-13 -17 0
-111 -193 0
-23 -97 0
-78 -98 0
-171 -241 0
-127 -181 0
-169 -226 0
-234 -262 0
-142 -227 0
-88 -215 0
-77 -200 0
-64 -149 0
-30 -39 0
-80 -205 0
-159 -168 0
-153 -231 0
-154 -169 0
-222 -248 0
-57 -166 0
-76 -129 0
-246 -259 0
-91 -106 0
-174 -264 0
-23 -146 0
-7 -133 0
-10 -34 0
-190 -204 0
-107 -164 0
-206 -211 0
-108 -203 0
-96 -104 0
-140 -245 0
-15 -70 0
-123 -169 0
-127 -188 0
-169 -231 0
-124 -228 0
-71 -214 0
-190 -236 0
-134 -227 0
-220 -231 0
-13 -60 0
-126 -187 0
-70 -113 0
-70 -133 0
-189 -251 0
-158 -194 0
-96 -169 0
-46 -186 0
-170 -225 0
-160 -218 0
-10 -166 0
-89 -241 0
-59 -226 0
-173 -183 0
-134 -211 0
-31 -267 0
-108 -212 0
-69 -196 0
-78 -217 0
-12 -133 0
-59 -138 0
-61 -70 0
-55 -148 0
-252 -257 0
-165 -193 0
-108 -168 0
-12 -200 0
-124 -260 0
-64 -195 0
-127 -232 0
-61 -249 0
-80 -154 0
-77 -185 0
-127 -265 0
-53 -228 0
-47 -94 0
-59 -214 0
-106 -134 0
-42 -181 0
-135 -161 0
-77 -123 0
-74 -162 0
-180 -241 0
-5 -98 0
-240 -260 0
-27 -117 0
-239 -250 0
-88 -245 0
-88 -225 0
-32 -262 0
-141 -154 0
-189 -195 0
-16 -154 0
-64 -143 0
-45 -243 0
-126 -216 0
-135 -244 0
-80 -246 0
-9 -131 0
-120 -180 0
-192 -250 0
-105 -149 0
-28 -185 0
-54 -261 0
-123 -198 0
-39 -149 0
-15 -109 0
-28 -91 0
-94 -133 0
-109 -163 0
-9 -97 0
-206 -217 0
-64 -151 0
-88 -247 0
-107 -228 0
-132 -241 0
-91 -249 0
-76 -145 0
-189 -250 0
-24 -102 0
-111 -139 0
-32 -172 0
-12 -213 0
-96 -182 0
-125 -244 0
-55 -195 0
-61 -164 0
-124 -186 0
-168 -257 0
-89 -197 0
-164 -226 0
-153 -226 0
-207 -221 0
-39 -84 0
-192 -220 0
-13 -184 0
-123 -234 0
-46 -124 0
-44 -169 0
-48 -127 0
-176 -230 0
-52 -98 0
-143 -245 0
-68 -259 0
-78 -137 0
-172 -186 0
-15 -134 0
-19 -242 0
-207 -242 0
-89 -195 0
-47 -152 0
-75 -134 0
-6 -241 0
-23 -84 0
-45 -58 0
-38 -99 0
-188 -250 0
-23 -195 0
-44 -119 0
-107 -247 0
-93 -267 0
-74 -264 0
-116 -147 0
-96 -179 0
-182 -245 0
-198 -245 0
-47 -52 0
-37 -178 0
-204 -210 0
-63 -246 0
-31 -146 0
-14 -57 0
-79 -173 0
-24 -115 0
-42 -65 0
-111 -230 0
-44 -82 0
-107 -185 0
-61 -209 0
-133 -180 0
-73 -118 0
-126 -250 0
-15 -132 0
-154 -264 0
-41 -151 0
-111 -236 0
-238 -248 0
-32 -185 0
-95 -260 0
-13 -115 0
-46 -229 0
-5 -212 0
-79 -120 0
-156 -183 0
-207 -219 0
-110 -226 0
-192 -217 0
-256 -266 0
-100 -257 0
-62 -237 0
-123 -167 0
-9 -36 0
-43 -73 0
-203 -246 0
-102 -149 0
-85 -177 0
-59 -178 0
-103 -197 0
-148 -225 0
-71 -196 0
-27 -242 0
-220 -263 0
-58 -259 0
-112 -186 0
-128 -216 0
-12 -119 0
-20 -195 0
-153 -182 0
-25 -103 0
-58 -103 0
-109 -162 0
-208 -247 0
-239 -268 0
-58 -148 0
-30 -218 0
-207 -263 0
-10 -196 0
-211 -258 0
-51 -225 0
-138 -150 0
-63 -65 0
-236 -257 0
-188 -233 0
-27 -42 0
-79 -251 0
-142 -199 0
-106 -116 0
-31 -52 0
-171 -184 0
-7 -69 0
-7 -118 0
-27 -216 0
-79 -182 0
-42 -113 0
-15 -99 0
-239 -251 0
-27 -151 0
-60 -260 0
-15 -21 0
-92 -122 0
-43 -266 0
-40 -98 0
-80 -221 0
-4 -258 0
-74 -195 0
-68 -226 0
-170 -193 0
-176 -212 0
-99 -242 0
-170 -181 0
-62 -136 0
-152 -260 0
-40 -100 0
-14 -210 0
-122 -212 0
-220 -250 0
-77 -209 0
-9 -180 0
-157 -259 0
-13 -183 0
-43 -227 0
-75 -121 0
-179 -241 0
-56 -196 0
-8 -115 0
-28 -161 0
-40 -262 0
-114 -257 0
-89 -183 0
-63 -69 0
-23 -145 0
-174 -257 0
-59 -202 0
-61 -198 0
-187 -243 0
-35 -50 0
-144 -222 0
-200 -259 0
-82 -145 0
-38 -242 0
-58 -257 0
-156 -233 0
-76 -213 0
-16 -125 0
-117 -226 0
-95 -162 0
-62 -213 0
-61 -213 0
-29 -119 0
-239 -247 0
-14 -172 0
-13 -116 0
-25 -182 0
-61 -135 0
-143 -194 0
-132 -193 0
-13 -172 0
-190 -267 0
-10 -184 0
-59 -259 0
-202 -259 0
-5 -180 0
-149 -260 0
-77 -213 0
-126 -209 0
-40 -215 0
-96 -239 0
-120 -227 0
-127 -201 0
-148 -178 0
-172 -242 0
-68 -161 0
-29 -194 0
-43 -199 0
-79 -148 0
-172 -259 0
-42 -67 0
-88 -129 0
-110 -173 0
-30 -249 0
-138 -194 0
-224 -270 0
-6 -259 0
-25 -210 0
-137 -229 0
-44 -116 0
-48 -138 0
-75 -231 0
-39 -161 0
-88 -116 0
-31 -215 0
-157 -214 0
-32 -113 0
-95 -213 0
-105 -184 0
-55 -245 0
-14 -131 0
-63 -94 0
-229 -257 0
-12 -234 0
-23 -99 0
-11 -120 0
-206 -235 0
-109 -249 0
-6 -178 0
-92 -135 0
-214 -258 0
-158 -269 0
-11 -18 0
-99 -193 0
-11 -168 0
-46 -132 0
-175 -217 0
-56 -119 0
-188 -218 0
-180 -194 0
-156 -259 0
-110 -151 0
-233 -242 0
-78 -147 0
-54 -83 0
-238 -269 0
-109 -138 0
-53 -83 0
-26 -198 0
-54 -81 0
-91 -186 0
-11 -86 0
-125 -194 0
-96 -250 0
-106 -153 0
-32 -38 0
-162 -241 0
-96 -229 0
-28 -152 0
-110 -153 0
-75 -247 0
-89 -227 0
-12 -244 0
-59 -212 0
-160 -251 0
-10 -146 0
-156 -241 0
-52 -146 0
-46 -227 0
-59 -200 0
-239 -241 0
-109 -225 0
-3 -177 0
-54 -148 0
-71 -82 0
-94 -251 0
-221 -226 0
-152 -226 0
-249 -260 0
-93 -168 0
-79 -193 0
-222 -235 0
-4 -161 0
-77 -155 0
-170 -229 0
-59 -163 0
-160 -234 0
-44 -211 0
-151 -212 0
-133 -260 0
-37 -162 0
-202 -265 0
-144 -230 0
-29 -169 0
-116 -227 0
-123 -130 0
-125 -267 0
-79 -252 0
-45 -199 0
-105 -164 0
-11 -164 0
-82 -113 0
-157 -234 0
-134 -210 0
-63 -258 0
-111 -259 0
-48 -246 0
-110 -137 0
-126 -154 0
-45 -195 0
-109 -215 0
-45 -228 0
-77 -266 0
-31 -140 0
-8 -116 0
-10 -89 0
-136 -244 0
-125 -257 0
-90 -145 0
-23 -212 0
-125 -154 0
-54 -180 0
-70 -181 0
-31 -190 0
-131 -161 0
-149 -244 0
-43 -201 0
-26 -262 0
-31 -259 0
-126 -182 0
-103 -245 0
-218 -226 0
-94 -156 0
-171 -214 0
-26 -244 0
-226 -241 0
-27 -179 0
-76 -146 0
-122 -241 0
-144 -244 0
-143 -167 0
-29 -89 0
-76 -262 0
-45 -212 0
-124 -193 0
-144 -243 0
-15 -97 0
-66 -225 0
-24 -133 0
-189 -229 0
-32 -197 0
-32 -258 0
-64 -133 0
-136 -162 0
-127 -230 0
-84 -194 0
-63 -193 0
-174 -231 0
-48 -217 0
-35 -49 0
-155 -249 0
-125 -161 0
-143 -218 0
-90 -180 0
-88 -119 0
-202 -227 0
-42 -87 0
-59 -82 0
-28 -71 0
-80 -98 0
-144 -211 0
-150 -180 0
-64 -167 0
-76 -90 0
-27 -130 0
-32 -55 0
-174 -235 0
-7 -37 0
-46 -117 0
-76 -230 0
-37 -114 0
-71 -145 0
-155 -170 0
-15 -59 0
-27 -201 0
-107 -147 0
-11 -245 0
-173 -209 0
-151 -197 0
-32 -162 0
-52 -99 0
-144 -147 0
-142 -243 0
-143 -233 0
-7 -197 0
-142 -153 0
-39 -70 0
-159 -203 0
-47 -236 0
-41 -178 0
-21 -196 0
-140 -180 0
-58 -84 0
-123 -196 0
-45 -183 0
-144 -238 0
-23 -227 0
-38 -257 0
-163 -258 0
-110 -141 0
-89 -148 0
-14 -269 0
-78 -209 0
-79 -221 0
-16 -258 0
-47 -172 0
-79 -204 0
-94 -166 0
-46 -188 0
-91 -182 0
-46 -225 0
-80 -103 0
-16 -222 0
-253 -258 0
-79 -129 0
-27 -196 0
-184 -260 0
-253 -265 0
-75 -104 0
-63 -244 0
-22 -129 0
-64 -146 0
-8 -118 0
-60 -250 0
-197 -211 0
-27 -39 0
-80 -210 0
-79 -189 0
-3 -18 0
-93 -186 0
-186 -227 0
-234 -243 0
-185 -248 0
-173 -250 0
-134 -259 0
-58 -120 0
-64 -173 0
-90 -165 0
-151 -228 0
-78 -259 0
-94 -220 0
-8 -150 0
-104 -230 0
-169 -200 0
-95 -106 0
-150 -162 0
-202 -261 0
-40 -163 0
-95 -210 0
-73 -261 0
-93 -209 0
-175 -253 0
-36 -178 0
-6 -165 0
-14 -180 0
-191 -198 0
-6 -161 0
-94 -230 0
-158 -189 0
-220 -262 0
-160 -211 0
-45 -227 0
-27 -36 0
-122 -259 0
-98 -241 0
-64 -166 0
-80 -265 0
-139 -225 0
-169 -245 0
-69 -81 0
-86 -165 0
-96 -178 0
-115 -162 0
-116 -257 0
-70 -129 0
-172 -232 0
-87 -209 0
-56 -81 0
-5 -35 0
-93 -185 0
-94 -209 0
-13 -226 0
-160 -217 0
-109 -195 0
-141 -148 0
-11 -170 0
-43 -71 0
-9 -227 0
-16 -110 0
-76 -258 0
-190 -218 0
-18 -65 0
-37 -260 0
-126 -134 0
-93 -233 0
-92 -183 0
-36 -209 0
-16 -143 0
-37 -147 0
-159 -217 0
-78 -215 0
-144 -214 0
-96 -175 0
-10 -136 0
-107 -181 0
-91 -200 0
-166 -197 0
-154 -165 0
-255 -258 0
-54 -165 0
-28 -210 0
-47 -87 0
-63 -213 0
-48 -70 0
-93 -264 0
-63 -270 0
-143 -248 0
-255 -257 0
-96 -251 0
-42 -183 0
-182 -196 0
-29 -161 0
-134 -242 0
-15 -118 0
-207 -261 0
-120 -179 0
-138 -257 0
-104 -133 0
-14 -129 0
-118 -130 0
-76 -195 0
-20 -179 0
-6 -163 0
-142 -193 0
-62 -156 0
-200 -261 0
-119 -260 0
-30 -103 0
-124 -195 0
-117 -146 0
-47 -83 0
-44 -210 0
-64 -97 0
-74 -115 0
-12 -258 0
-215 -225 0
-73 -135 0
-120 -177 0
-109 -188 0
-7 -259 0
-32 -50 0
-40 -119 0
-63 -71 0
-162 -257 0
-125 -152 0
-75 -170 0
-76 -250 0
-150 -261 0
-16 -127 0
-189 -265 0
-150 -212 0
-64 -210 0
-15 -253 0
-31 -123 0
-222 -245 0
-170 -179 0
-184 -262 0
-44 -163 0
-44 -165 0
-159 -185 0
-110 -251 0
-62 -250 0
-30 -43 0
-183 -227 0
-11 -81 0
-53 -115 0
-138 -242 0
-16 -191 0
-46 -109 0
-47 -145 0
-77 -139 0
-8 -243 0
-107 -130 0
-175 -226 0
-58 -198 0
-25 -101 0
-20 -131 0
-71 -182 0
-204 -235 0
-12 -166 0
-167 -245 0
-30 -242 0
-93 -114 0
-134 -213 0
-31 -38 0
-68 -131 0
-144 -198 0
-156 -177 0
-77 -83 0
-41 -55 0
-9 -33 0
-104 -150 0
-106 -117 0
-124 -266 0
-59 -68 0
-15 -84 0
-111 -222 0
-16 -162 0
-159 -254 0
-60 -72 0
-29 -101 0
-25 -54 0
-139 -163 0
-31 -51 0
-60 -263 0
-160 -250 0
-48 -83 0
-112 -251 0
-56 -199 0
-140 -246 0
-6 -209 0
-96 -127 0
-142 -165 0
-80 -222 0
-140 -258 0
-191 -238 0
-160 -244 0
-70 -179 0
-47 -136 0
-157 -216 0
-237 -263 0
-8 -242 0
-79 -225 0
-126 -194 0
-80 -150 0
-16 -52 0
-86 -229 0
-59 -258 0
-198 -227 0
-16 -216 0
-43 -180 0
-14 -178 0
-11 -257 0
-59 -218 0
-190 -214 0
-63 -172 0
-10 -133 0
-27 -258 0
-29 -262 0
-96 -211 0
-73 -228 0
-95 -230 0
-30 -135 0
-175 -206 0
-41 -70 0
-45 -245 0
-160 -257 0
-96 -253 0
-79 -186 0
-171 -233 0
-80 -237 0
-95 -251 0
-60 -265 0
-93 -116 0
-153 -200 0
-76 -199 0
-28 -177 0
-61 -265 0
-72 -146 0
-58 -100 0
-48 -181 0
-36 -241 0
-9 -200 0
-121 -199 0
-10 -54 0
-40 -145 0
-108 -266 0
-62 -188 0
-144 -221 0
-153 -183 0
-154 -195 0
-11 -261 0
-42 -145 0
-121 -151 0
-26 -86 0
-60 -234 0
-121 -244 0
-43 -100 0
-121 -245 0
-73 -129 0
-92 -166 0
-98 -113 0
-107 -165 0
-4 -129 0
-64 -235 0
-189 -245 0
-31 -165 0
-48 -49 0
-90 -119 0
-38 -245 0
-110 -118 0
-45 -136 0
-91 -197 0
-24 -151 0
-42 -147 0
-23 -49 0
-48 -166 0
-158 -250 0
-12 -250 0
-22 -258 0
-111 -140 0
-3 -162 0
-127 -190 0
-93 -180 0
-76 -134 0
-116 -145 0
-36 -115 0
-56 -161 0
-109 -149 0
-47 -89 0
-39 -85 0
-88 -101 0
-197 -212 0
-94 -234 0
-58 -181 0
-96 -249 0
-28 -132 0
-94 -107 0
-92 -200 0
-95 -236 0
-90 -181 0
-217 -263 0
-79 -150 0
-175 -187 0
-70 -83 0
-184 -212 0
-29 -230 0
-124 -261 0
-95 -179 0
-182 -195 0
-88 -210 0
-96 -153 0
-201 -244 0
-11 -57 0
-224 -235 0
-63 -117 0
-32 -183 0
-19 -65 0
-111 -119 0
-173 -194 0
-108 -180 0
-138 -261 0
-5 -161 0
-176 -219 0
-204 -211 0
-25 -82 0
-143 -229 0
-48 -215 0
-79 -84 0
-127 -164 0
-14 -209 0
-74 -88 0
-64 -190 0
-215 -226 0
-95 -131 0
-136 -215 0
