p cnf 252 2049
1 2 3 4 5 6 7 8 9 10 11 12 0
13 14 15 16 17 18 19 20 21 22 23 24 0
25 26 27 28 29 30 31 32 33 34 35 36 0
37 38 39 40 41 42 43 44 45 46 47 48 0
49 50 51 52 53 54 55 56 57 58 59 60 0
61 62 63 64 65 66 67 68 69 70 71 72 0
73 74 75 76 77 78 79 80 81 82 83 84 0
85 86 87 88 89 90 91 92 93 94 95 96 0
97 98 99 100 101 102 103 104 105 106 107 108 0
109 110 111 112 113 114 115 116 117 118 119 120 0
121 122 123 124 125 126 127 128 129 130 131 132 0
133 134 135 136 137 138 139 140 141 142 143 144 0
145 146 147 148 149 150 151 152 153 154 155 156 0
157 158 159 160 161 162 163 164 165 166 167 168 0
169 170 171 172 173 174 175 176 177 178 179 180 0
181 182 183 184 185 186 187 188 189 190 191 192 0
193 194 195 196 197 198 199 200 201 202 203 204 0
205 206 207 208 209 210 211 212 213 214 215 216 0
217 218 219 220 221 222 223 224 225 226 227 228 0
229 230 231 232 233 234 235 236 237 238 239 240 0
241 242 243 244 245 246 247 248 249 250 251 252 0
-61 -205 0
-62 -206 0
-63 -207 0
-64 -208 0
-65 -209 0
-66 -210 0
-67 -211 0
-68 -212 0
-69 -213 0
-70 -214 0
-71 -215 0
-72 -216 0
-37 -97 0
-38 -98 0
-39 -99 0
-40 -100 0
-41 -101 0
-42 -102 0
-43 -103 0
-44 -104 0
-45 -105 0
-46 -106 0
-47 -107 0
-48 -108 0
-25 -145 0
-26 -146 0
-27 -147 0
-28 -148 0
-29 -149 0
-30 -150 0
-31 -151 0
-32 -152 0
-33 -153 0
-34 -154 0
-35 -155 0
-36 -156 0
-49 -109 0
-50 -110 0
-51 -111 0
-52 -112 0
-53 -113 0
-54 -114 0
-55 -115 0
-56 -116 0
-57 -117 0
-58 -118 0
-59 -119 0
-60 -120 0
-85 -97 0
-86 -98 0
-87 -99 0
-88 -100 0
-89 -101 0
-90 -102 0
-91 -103 0
-92 -104 0
-93 -105 0
-94 -106 0
-95 -107 0
-96 -108 0
-193 -133 0
-194 -134 0
-195 -135 0
-196 -136 0
-197 -137 0
-198 -138 0
-199 -139 0
-200 -140 0
-201 -141 0
-202 -142 0
-203 -143 0
-204 -144 0
-217 -97 0
-218 -98 0
-219 -99 0
-220 -100 0
-221 -101 0
-222 -102 0
-223 -103 0
-224 -104 0
-225 -105 0
-226 -106 0
-227 -107 0
-228 -108 0
-217 -205 0
-218 -206 0
-219 -207 0
-220 -208 0
-221 -209 0
-222 -210 0
-223 -211 0
-224 -212 0
-225 -213 0
-226 -214 0
-227 -215 0
-228 -216 0
-13 -121 0
-14 -122 0
-15 -123 0
-16 -124 0
-17 -125 0
-18 -126 0
-19 -127 0
-20 -128 0
-21 -129 0
-22 -130 0
-23 -131 0
-24 -132 0
-169 -49 0
-170 -50 0
-171 -51 0
-172 -52 0
-173 -53 0
-174 -54 0
-175 -55 0
-176 -56 0
-177 -57 0
-178 -58 0
-179 -59 0
-180 -60 0
-169 -157 0
-170 -158 0
-171 -159 0
-172 -160 0
-173 -161 0
-174 -162 0
-175 -163 0
-176 -164 0
-177 -165 0
-178 -166 0
-179 -167 0
-180 -168 0
-61 -121 0
-62 -122 0
-63 -123 0
-64 -124 0
-65 -125 0
-66 -126 0
-67 -127 0
-68 -128 0
-69 -129 0
-70 -130 0
-71 -131 0
-72 -132 0
-181 -145 0
-182 -146 0
-183 -147 0
-184 -148 0
-185 -149 0
-186 -150 0
-187 -151 0
-188 -152 0
-189 -153 0
-190 -154 0
-191 -155 0
-192 -156 0
-73 -109 0
-74 -110 0
-75 -111 0
-76 -112 0
-77 -113 0
-78 -114 0
-79 -115 0
-80 -116 0
-81 -117 0
-82 -118 0
-83 -119 0
-84 -120 0
-241 -97 0
-242 -98 0
-243 -99 0
-244 -100 0
-245 -101 0
-246 -102 0
-247 -103 0
-248 -104 0
-249 -105 0
-250 -106 0
-251 -107 0
-252 -108 0
-61 -229 0
-62 -230 0
-63 -231 0
-64 -232 0
-65 -233 0
-66 -234 0
-67 -235 0
-68 -236 0
-69 -237 0
-70 -238 0
-71 -239 0
-72 -240 0
-25 -61 0
-26 -62 0
-27 -63 0
-28 -64 0
-29 -65 0
-30 -66 0
-31 -67 0
-32 -68 0
-33 -69 0
-34 -70 0
-35 -71 0
-36 -72 0
-193 -49 0
-194 -50 0
-195 -51 0
-196 -52 0
-197 -53 0
-198 -54 0
-199 -55 0
-200 -56 0
-201 -57 0
-202 -58 0
-203 -59 0
-204 -60 0
-49 -133 0
-50 -134 0
-51 -135 0
-52 -136 0
-53 -137 0
-54 -138 0
-55 -139 0
-56 -140 0
-57 -141 0
-58 -142 0
-59 -143 0
-60 -144 0
-85 -121 0
-86 -122 0
-87 -123 0
-88 -124 0
-89 -125 0
-90 -126 0
-91 -127 0
-92 -128 0
-93 -129 0
-94 -130 0
-95 -131 0
-96 -132 0
-97 -109 0
-98 -110 0
-99 -111 0
-100 -112 0
-101 -113 0
-102 -114 0
-103 -115 0
-104 -116 0
-105 -117 0
-106 -118 0
-107 -119 0
-108 -120 0
-13 -37 0
-14 -38 0
-15 -39 0
-16 -40 0
-17 -41 0
-18 -42 0
-19 -43 0
-20 -44 0
-21 -45 0
-22 -46 0
-23 -47 0
-24 -48 0
-1 -85 0
-2 -86 0
-3 -87 0
-4 -88 0
-5 -89 0
-6 -90 0
-7 -91 0
-8 -92 0
-9 -93 0
-10 -94 0
-11 -95 0
-12 -96 0
-169 -73 0
-170 -74 0
-171 -75 0
-172 -76 0
-173 -77 0
-174 -78 0
-175 -79 0
-176 -80 0
-177 -81 0
-178 -82 0
-179 -83 0
-180 -84 0
-181 -61 0
-182 -62 0
-183 -63 0
-184 -64 0
-185 -65 0
-186 -66 0
-187 -67 0
-188 -68 0
-189 -69 0
-190 -70 0
-191 -71 0
-192 -72 0
-109 -229 0
-110 -230 0
-111 -231 0
-112 -232 0
-113 -233 0
-114 -234 0
-115 -235 0
-116 -236 0
-117 -237 0
-118 -238 0
-119 -239 0
-120 -240 0
-241 -13 0
-242 -14 0
-243 -15 0
-244 -16 0
-245 -17 0
-246 -18 0
-247 -19 0
-248 -20 0
-249 -21 0
-250 -22 0
-251 -23 0
-252 -24 0
-61 -145 0
-62 -146 0
-63 -147 0
-64 -148 0
-65 -149 0
-66 -150 0
-67 -151 0
-68 -152 0
-69 -153 0
-70 -154 0
-71 -155 0
-72 -156 0
-73 -133 0
-74 -134 0
-75 -135 0
-76 -136 0
-77 -137 0
-78 -138 0
-79 -139 0
-80 -140 0
-81 -141 0
-82 -142 0
-83 -143 0
-84 -144 0
-205 -133 0
-206 -134 0
-207 -135 0
-208 -136 0
-209 -137 0
-210 -138 0
-211 -139 0
-212 -140 0
-213 -141 0
-214 -142 0
-215 -143 0
-216 -144 0
-25 -85 0
-26 -86 0
-27 -87 0
-28 -88 0
-29 -89 0
-30 -90 0
-31 -91 0
-32 -92 0
-33 -93 0
-34 -94 0
-35 -95 0
-36 -96 0
-193 -73 0
-194 -74 0
-195 -75 0
-196 -76 0
-197 -77 0
-198 -78 0
-199 -79 0
-200 -80 0
-201 -81 0
-202 -82 0
-203 -83 0
-204 -84 0
-133 -229 0
-134 -230 0
-135 -231 0
-136 -232 0
-137 -233 0
-138 -234 0
-139 -235 0
-140 -236 0
-141 -237 0
-142 -238 0
-143 -239 0
-144 -240 0
-97 -133 0
-98 -134 0
-99 -135 0
-100 -136 0
-101 -137 0
-102 -138 0
-103 -139 0
-104 -140 0
-105 -141 0
-106 -142 0
-107 -143 0
-108 -144 0
-1 -109 0
-2 -110 0
-3 -111 0
-4 -112 0
-5 -113 0
-6 -114 0
-7 -115 0
-8 -116 0
-9 -117 0
-10 -118 0
-11 -119 0
-12 -120 0
-169 -97 0
-170 -98 0
-171 -99 0
-172 -100 0
-173 -101 0
-174 -102 0
-175 -103 0
-176 -104 0
-177 -105 0
-178 -106 0
-179 -107 0
-180 -108 0
-241 -37 0
-242 -38 0
-243 -39 0
-244 -40 0
-245 -41 0
-246 -42 0
-247 -43 0
-248 -44 0
-249 -45 0
-250 -46 0
-251 -47 0
-252 -48 0
-73 -157 0
-74 -158 0
-75 -159 0
-76 -160 0
-77 -161 0
-78 -162 0
-79 -163 0
-80 -164 0
-81 -165 0
-82 -166 0
-83 -167 0
-84 -168 0
-157 -1 0
-158 -2 0
-159 -3 0
-160 -4 0
-161 -5 0
-162 -6 0
-163 -7 0
-164 -8 0
-165 -9 0
-166 -10 0
-167 -11 0
-168 -12 0
-133 -145 0
-134 -146 0
-135 -147 0
-136 -148 0
-137 -149 0
-138 -150 0
-139 -151 0
-140 -152 0
-141 -153 0
-142 -154 0
-143 -155 0
-144 -156 0
-25 -109 0
-26 -110 0
-27 -111 0
-28 -112 0
-29 -113 0
-30 -114 0
-31 -115 0
-32 -116 0
-33 -117 0
-34 -118 0
-35 -119 0
-36 -120 0
-49 -73 0
-50 -74 0
-51 -75 0
-52 -76 0
-53 -77 0
-54 -78 0
-55 -79 0
-56 -80 0
-57 -81 0
-58 -82 0
-59 -83 0
-60 -84 0
-157 -109 0
-158 -110 0
-159 -111 0
-160 -112 0
-161 -113 0
-162 -114 0
-163 -115 0
-164 -116 0
-165 -117 0
-166 -118 0
-167 -119 0
-168 -120 0
-193 -97 0
-194 -98 0
-195 -99 0
-196 -100 0
-197 -101 0
-198 -102 0
-199 -103 0
-200 -104 0
-201 -105 0
-202 -106 0
-203 -107 0
-204 -108 0
-217 -61 0
-218 -62 0
-219 -63 0
-220 -64 0
-221 -65 0
-222 -66 0
-223 -67 0
-224 -68 0
-225 -69 0
-226 -70 0
-227 -71 0
-228 -72 0
-37 -205 0
-38 -206 0
-39 -207 0
-40 -208 0
-41 -209 0
-42 -210 0
-43 -211 0
-44 -212 0
-45 -213 0
-46 -214 0
-47 -215 0
-48 -216 0
-97 -157 0
-98 -158 0
-99 -159 0
-100 -160 0
-101 -161 0
-102 -162 0
-103 -163 0
-104 -164 0
-105 -165 0
-106 -166 0
-107 -167 0
-108 -168 0
-1 -25 0
-2 -26 0
-3 -27 0
-4 -28 0
-5 -29 0
-6 -30 0
-7 -31 0
-8 -32 0
-9 -33 0
-10 -34 0
-11 -35 0
-12 -36 0
-1 -133 0
-2 -134 0
-3 -135 0
-4 -136 0
-5 -137 0
-6 -138 0
-7 -139 0
-8 -140 0
-9 -141 0
-10 -142 0
-11 -143 0
-12 -144 0
-145 -157 0
-146 -158 0
-147 -159 0
-148 -160 0
-149 -161 0
-150 -162 0
-151 -163 0
-152 -164 0
-153 -165 0
-154 -166 0
-155 -167 0
-156 -168 0
-169 -121 0
-170 -122 0
-171 -123 0
-172 -124 0
-173 -125 0
-174 -126 0
-175 -127 0
-176 -128 0
-177 -129 0
-178 -130 0
-179 -131 0
-180 -132 0
-181 -109 0
-182 -110 0
-183 -111 0
-184 -112 0
-185 -113 0
-186 -114 0
-187 -115 0
-188 -116 0
-189 -117 0
-190 -118 0
-191 -119 0
-192 -120 0
-13 -229 0
-14 -230 0
-15 -231 0
-16 -232 0
-17 -233 0
-18 -234 0
-19 -235 0
-20 -236 0
-21 -237 0
-22 -238 0
-23 -239 0
-24 -240 0
-157 -25 0
-158 -26 0
-159 -27 0
-160 -28 0
-161 -29 0
-162 -30 0
-163 -31 0
-164 -32 0
-165 -33 0
-166 -34 0
-167 -35 0
-168 -36 0
-193 -13 0
-194 -14 0
-195 -15 0
-196 -16 0
-197 -17 0
-198 -18 0
-199 -19 0
-200 -20 0
-201 -21 0
-202 -22 0
-203 -23 0
-204 -24 0
-241 -205 0
-242 -206 0
-243 -207 0
-244 -208 0
-245 -209 0
-246 -210 0
-247 -211 0
-248 -212 0
-249 -213 0
-250 -214 0
-251 -215 0
-252 -216 0
-25 -133 0
-26 -134 0
-27 -135 0
-28 -136 0
-29 -137 0
-30 -138 0
-31 -139 0
-32 -140 0
-33 -141 0
-34 -142 0
-35 -143 0
-36 -144 0
-49 -97 0
-50 -98 0
-51 -99 0
-52 -100 0
-53 -101 0
-54 -102 0
-55 -103 0
-56 -104 0
-57 -105 0
-58 -106 0
-59 -107 0
-60 -108 0
-37 -121 0
-38 -122 0
-39 -123 0
-40 -124 0
-41 -125 0
-42 -126 0
-43 -127 0
-44 -128 0
-45 -129 0
-46 -130 0
-47 -131 0
-48 -132 0
-157 -133 0
-158 -134 0
-159 -135 0
-160 -136 0
-161 -137 0
-162 -138 0
-163 -139 0
-164 -140 0
-165 -141 0
-166 -142 0
-167 -143 0
-168 -144 0
-49 -205 0
-50 -206 0
-51 -207 0
-52 -208 0
-53 -209 0
-54 -210 0
-55 -211 0
-56 -212 0
-57 -213 0
-58 -214 0
-59 -215 0
-60 -216 0
-37 -229 0
-38 -230 0
-39 -231 0
-40 -232 0
-41 -233 0
-42 -234 0
-43 -235 0
-44 -236 0
-45 -237 0
-46 -238 0
-47 -239 0
-48 -240 0
-1 -49 0
-2 -50 0
-3 -51 0
-4 -52 0
-5 -53 0
-6 -54 0
-7 -55 0
-8 -56 0
-9 -57 0
-10 -58 0
-11 -59 0
-12 -60 0
-217 -229 0
-218 -230 0
-219 -231 0
-220 -232 0
-221 -233 0
-222 -234 0
-223 -235 0
-224 -236 0
-225 -237 0
-226 -238 0
-227 -239 0
-228 -240 0
-169 -145 0
-170 -146 0
-171 -147 0
-172 -148 0
-173 -149 0
-174 -150 0
-175 -151 0
-176 -152 0
-177 -153 0
-178 -154 0
-179 -155 0
-180 -156 0
-13 -145 0
-14 -146 0
-15 -147 0
-16 -148 0
-17 -149 0
-18 -150 0
-19 -151 0
-20 -152 0
-21 -153 0
-22 -154 0
-23 -155 0
-24 -156 0
-181 -133 0
-182 -134 0
-183 -135 0
-184 -136 0
-185 -137 0
-186 -138 0
-187 -139 0
-188 -140 0
-189 -141 0
-190 -142 0
-191 -143 0
-192 -144 0
-73 -97 0
-74 -98 0
-75 -99 0
-76 -100 0
-77 -101 0
-78 -102 0
-79 -103 0
-80 -104 0
-81 -105 0
-82 -106 0
-83 -107 0
-84 -108 0
-25 -49 0
-26 -50 0
-27 -51 0
-28 -52 0
-29 -53 0
-30 -54 0
-31 -55 0
-32 -56 0
-33 -57 0
-34 -58 0
-35 -59 0
-36 -60 0
-157 -49 0
-158 -50 0
-159 -51 0
-160 -52 0
-161 -53 0
-162 -54 0
-163 -55 0
-164 -56 0
-165 -57 0
-166 -58 0
-167 -59 0
-168 -60 0
-193 -37 0
-194 -38 0
-195 -39 0
-196 -40 0
-197 -41 0
-198 -42 0
-199 -43 0
-200 -44 0
-201 -45 0
-202 -46 0
-203 -47 0
-204 -48 0
-241 -229 0
-242 -230 0
-243 -231 0
-244 -232 0
-245 -233 0
-246 -234 0
-247 -235 0
-248 -236 0
-249 -237 0
-250 -238 0
-251 -239 0
-252 -240 0
-49 -121 0
-50 -122 0
-51 -123 0
-52 -124 0
-53 -125 0
-54 -126 0
-55 -127 0
-56 -128 0
-57 -129 0
-58 -130 0
-59 -131 0
-60 -132 0
-37 -145 0
-38 -146 0
-39 -147 0
-40 -148 0
-41 -149 0
-42 -150 0
-43 -151 0
-44 -152 0
-45 -153 0
-46 -154 0
-47 -155 0
-48 -156 0
-85 -145 0
-86 -146 0
-87 -147 0
-88 -148 0
-89 -149 0
-90 -150 0
-91 -151 0
-92 -152 0
-93 -153 0
-94 -154 0
-95 -155 0
-96 -156 0
-217 -145 0
-218 -146 0
-219 -147 0
-220 -148 0
-221 -149 0
-222 -150 0
-223 -151 0
-224 -152 0
-225 -153 0
-226 -154 0
-227 -155 0
-228 -156 0
-1 -73 0
-2 -74 0
-3 -75 0
-4 -76 0
-5 -77 0
-6 -78 0
-7 -79 0
-8 -80 0
-9 -81 0
-10 -82 0
-11 -83 0
-12 -84 0
-13 -61 0
-14 -62 0
-15 -63 0
-16 -64 0
-17 -65 0
-18 -66 0
-19 -67 0
-20 -68 0
-21 -69 0
-22 -70 0
-23 -71 0
-24 -72 0
-181 -49 0
-182 -50 0
-183 -51 0
-184 -52 0
-185 -53 0
-186 -54 0
-187 -55 0
-188 -56 0
-189 -57 0
-190 -58 0
-191 -59 0
-192 -60 0
-13 -169 0
-14 -170 0
-15 -171 0
-16 -172 0
-17 -173 0
-18 -174 0
-19 -175 0
-20 -176 0
-21 -177 0
-22 -178 0
-23 -179 0
-24 -180 0
-73 -121 0
-74 -122 0
-75 -123 0
-76 -124 0
-77 -125 0
-78 -126 0
-79 -127 0
-80 -128 0
-81 -129 0
-82 -130 0
-83 -131 0
-84 -132 0
-61 -169 0
-62 -170 0
-63 -171 0
-64 -172 0
-65 -173 0
-66 -174 0
-67 -175 0
-68 -176 0
-69 -177 0
-70 -178 0
-71 -179 0
-72 -180 0
-241 -145 0
-242 -146 0
-243 -147 0
-244 -148 0
-245 -149 0
-246 -150 0
-247 -151 0
-248 -152 0
-249 -153 0
-250 -154 0
-251 -155 0
-252 -156 0
-25 -73 0
-26 -74 0
-27 -75 0
-28 -76 0
-29 -77 0
-30 -78 0
-31 -79 0
-32 -80 0
-33 -81 0
-34 -82 0
-35 -83 0
-36 -84 0
-37 -61 0
-38 -62 0
-39 -63 0
-40 -64 0
-41 -65 0
-42 -66 0
-43 -67 0
-44 -68 0
-45 -69 0
-46 -70 0
-47 -71 0
-48 -72 0
-49 -145 0
-50 -146 0
-51 -147 0
-52 -148 0
-53 -149 0
-54 -150 0
-55 -151 0
-56 -152 0
-57 -153 0
-58 -154 0
-59 -155 0
-60 -156 0
-37 -169 0
-38 -170 0
-39 -171 0
-40 -172 0
-41 -173 0
-42 -174 0
-43 -175 0
-44 -176 0
-45 -177 0
-46 -178 0
-47 -179 0
-48 -180 0
-193 -205 0
-194 -206 0
-195 -207 0
-196 -208 0
-197 -209 0
-198 -210 0
-199 -211 0
-200 -212 0
-201 -213 0
-202 -214 0
-203 -215 0
-204 -216 0
-109 -133 0
-110 -134 0
-111 -135 0
-112 -136 0
-113 -137 0
-114 -138 0
-115 -139 0
-116 -140 0
-117 -141 0
-118 -142 0
-119 -143 0
-120 -144 0
-1 -97 0
-2 -98 0
-3 -99 0
-4 -100 0
-5 -101 0
-6 -102 0
-7 -103 0
-8 -104 0
-9 -105 0
-10 -106 0
-11 -107 0
-12 -108 0
-13 -85 0
-14 -86 0
-15 -87 0
-16 -88 0
-17 -89 0
-18 -90 0
-19 -91 0
-20 -92 0
-21 -93 0
-22 -94 0
-23 -95 0
-24 -96 0
-181 -73 0
-182 -74 0
-183 -75 0
-184 -76 0
-185 -77 0
-186 -78 0
-187 -79 0
-188 -80 0
-189 -81 0
-190 -82 0
-191 -83 0
-192 -84 0
-61 -85 0
-62 -86 0
-63 -87 0
-64 -88 0
-65 -89 0
-66 -90 0
-67 -91 0
-68 -92 0
-69 -93 0
-70 -94 0
-71 -95 0
-72 -96 0
-241 -61 0
-242 -62 0
-243 -63 0
-244 -64 0
-245 -65 0
-246 -66 0
-247 -67 0
-248 -68 0
-249 -69 0
-250 -70 0
-251 -71 0
-252 -72 0
-25 -97 0
-26 -98 0
-27 -99 0
-28 -100 0
-29 -101 0
-30 -102 0
-31 -103 0
-32 -104 0
-33 -105 0
-34 -106 0
-35 -107 0
-36 -108 0
-49 -61 0
-50 -62 0
-51 -63 0
-52 -64 0
-53 -65 0
-54 -66 0
-55 -67 0
-56 -68 0
-57 -69 0
-58 -70 0
-59 -71 0
-60 -72 0
-37 -85 0
-38 -86 0
-39 -87 0
-40 -88 0
-41 -89 0
-42 -90 0
-43 -91 0
-44 -92 0
-45 -93 0
-46 -94 0
-47 -95 0
-48 -96 0
-1 -13 0
-2 -14 0
-3 -15 0
-4 -16 0
-5 -17 0
-6 -18 0
-7 -19 0
-8 -20 0
-9 -21 0
-10 -22 0
-11 -23 0
-12 -24 0
-193 -229 0
-194 -230 0
-195 -231 0
-196 -232 0
-197 -233 0
-198 -234 0
-199 -235 0
-200 -236 0
-201 -237 0
-202 -238 0
-203 -239 0
-204 -240 0
-1 -121 0
-2 -122 0
-3 -123 0
-4 -124 0
-5 -125 0
-6 -126 0
-7 -127 0
-8 -128 0
-9 -129 0
-10 -130 0
-11 -131 0
-12 -132 0
-121 -145 0
-122 -146 0
-123 -147 0
-124 -148 0
-125 -149 0
-126 -150 0
-127 -151 0
-128 -152 0
-129 -153 0
-130 -154 0
-131 -155 0
-132 -156 0
-13 -109 0
-14 -110 0
-15 -111 0
-16 -112 0
-17 -113 0
-18 -114 0
-19 -115 0
-20 -116 0
-21 -117 0
-22 -118 0
-23 -119 0
-24 -120 0
-181 -97 0
-182 -98 0
-183 -99 0
-184 -100 0
-185 -101 0
-186 -102 0
-187 -103 0
-188 -104 0
-189 -105 0
-190 -106 0
-191 -107 0
-192 -108 0
-13 -217 0
-14 -218 0
-15 -219 0
-16 -220 0
-17 -221 0
-18 -222 0
-19 -223 0
-20 -224 0
-21 -225 0
-22 -226 0
-23 -227 0
-24 -228 0
-61 -109 0
-62 -110 0
-63 -111 0
-64 -112 0
-65 -113 0
-66 -114 0
-67 -115 0
-68 -116 0
-69 -117 0
-70 -118 0
-71 -119 0
-72 -120 0
-73 -205 0
-74 -206 0
-75 -207 0
-76 -208 0
-77 -209 0
-78 -210 0
-79 -211 0
-80 -212 0
-81 -213 0
-82 -214 0
-83 -215 0
-84 -216 0
-241 -193 0
-242 -194 0
-243 -195 0
-244 -196 0
-245 -197 0
-246 -198 0
-247 -199 0
-248 -200 0
-249 -201 0
-250 -202 0
-251 -203 0
-252 -204 0
-25 -121 0
-26 -122 0
-27 -123 0
-28 -124 0
-29 -125 0
-30 -126 0
-31 -127 0
-32 -128 0
-33 -129 0
-34 -130 0
-35 -131 0
-36 -132 0
-157 -121 0
-158 -122 0
-159 -123 0
-160 -124 0
-161 -125 0
-162 -126 0
-163 -127 0
-164 -128 0
-165 -129 0
-166 -130 0
-167 -131 0
-168 -132 0
-37 -109 0
-38 -110 0
-39 -111 0
-40 -112 0
-41 -113 0
-42 -114 0
-43 -115 0
-44 -116 0
-45 -117 0
-46 -118 0
-47 -119 0
-48 -120 0
-37 -217 0
-38 -218 0
-39 -219 0
-40 -220 0
-41 -221 0
-42 -222 0
-43 -223 0
-44 -224 0
-45 -225 0
-46 -226 0
-47 -227 0
-48 -228 0
-193 -145 0
-194 -146 0
-195 -147 0
-196 -148 0
-197 -149 0
-198 -150 0
-199 -151 0
-200 -152 0
-201 -153 0
-202 -154 0
-203 -155 0
-204 -156 0
-85 -109 0
-86 -110 0
-87 -111 0
-88 -112 0
-89 -113 0
-90 -114 0
-91 -115 0
-92 -116 0
-93 -117 0
-94 -118 0
-95 -119 0
-96 -120 0
-217 -109 0
-218 -110 0
-219 -111 0
-220 -112 0
-221 -113 0
-222 -114 0
-223 -115 0
-224 -116 0
-225 -117 0
-226 -118 0
-227 -119 0
-228 -120 0
-1 -37 0
-2 -38 0
-3 -39 0
-4 -40 0
-5 -41 0
-6 -42 0
-7 -43 0
-8 -44 0
-9 -45 0
-10 -46 0
-11 -47 0
-12 -48 0
-13 -25 0
-14 -26 0
-15 -27 0
-16 -28 0
-17 -29 0
-18 -30 0
-19 -31 0
-20 -32 0
-21 -33 0
-22 -34 0
-23 -35 0
-24 -36 0
-49 -229 0
-50 -230 0
-51 -231 0
-52 -232 0
-53 -233 0
-54 -234 0
-55 -235 0
-56 -236 0
-57 -237 0
-58 -238 0
-59 -239 0
-60 -240 0
-1 -145 0
-2 -146 0
-3 -147 0
-4 -148 0
-5 -149 0
-6 -150 0
-7 -151 0
-8 -152 0
-9 -153 0
-10 -154 0
-11 -155 0
-12 -156 0
-97 -205 0
-98 -206 0
-99 -207 0
-100 -208 0
-101 -209 0
-102 -210 0
-103 -211 0
-104 -212 0
-105 -213 0
-106 -214 0
-107 -215 0
-108 -216 0
-13 -133 0
-14 -134 0
-15 -135 0
-16 -136 0
-17 -137 0
-18 -138 0
-19 -139 0
-20 -140 0
-21 -141 0
-22 -142 0
-23 -143 0
-24 -144 0
-61 -133 0
-62 -134 0
-63 -135 0
-64 -136 0
-65 -137 0
-66 -138 0
-67 -139 0
-68 -140 0
-69 -141 0
-70 -142 0
-71 -143 0
-72 -144 0
-241 -109 0
-242 -110 0
-243 -111 0
-244 -112 0
-245 -113 0
-246 -114 0
-247 -115 0
-248 -116 0
-249 -117 0
-250 -118 0
-251 -119 0
-252 -120 0
-25 -37 0
-26 -38 0
-27 -39 0
-28 -40 0
-29 -41 0
-30 -42 0
-31 -43 0
-32 -44 0
-33 -45 0
-34 -46 0
-35 -47 0
-36 -48 0
-73 -229 0
-74 -230 0
-75 -231 0
-76 -232 0
-77 -233 0
-78 -234 0
-79 -235 0
-80 -236 0
-81 -237 0
-82 -238 0
-83 -239 0
-84 -240 0
-205 -229 0
-206 -230 0
-207 -231 0
-208 -232 0
-209 -233 0
-210 -234 0
-211 -235 0
-212 -236 0
-213 -237 0
-214 -238 0
-215 -239 0
-216 -240 0
-241 -217 0
-242 -218 0
-243 -219 0
-244 -220 0
-245 -221 0
-246 -222 0
-247 -223 0
-248 -224 0
-249 -225 0
-250 -226 0
-251 -227 0
-252 -228 0
-37 -133 0
-38 -134 0
-39 -135 0
-40 -136 0
-41 -137 0
-42 -138 0
-43 -139 0
-44 -140 0
-45 -141 0
-46 -142 0
-47 -143 0
-48 -144 0
-193 -61 0
-194 -62 0
-195 -63 0
-196 -64 0
-197 -65 0
-198 -66 0
-199 -67 0
-200 -68 0
-201 -69 0
-202 -70 0
-203 -71 0
-204 -72 0
-85 -133 0
-86 -134 0
-87 -135 0
-88 -136 0
-89 -137 0
-90 -138 0
-91 -139 0
-92 -140 0
-93 -141 0
-94 -142 0
-95 -143 0
-96 -144 0
-217 -133 0
-218 -134 0
-219 -135 0
-220 -136 0
-221 -137 0
-222 -138 0
-223 -139 0
-224 -140 0
-225 -141 0
-226 -142 0
-227 -143 0
-228 -144 0
-1 -61 0
-2 -62 0
-3 -63 0
-4 -64 0
-5 -65 0
-6 -66 0
-7 -67 0
-8 -68 0
-9 -69 0
-10 -70 0
-11 -71 0
-12 -72 0
-97 -121 0
-98 -122 0
-99 -123 0
-100 -124 0
-101 -125 0
-102 -126 0
-103 -127 0
-104 -128 0
-105 -129 0
-106 -130 0
-107 -131 0
-108 -132 0
-13 -49 0
-14 -50 0
-15 -51 0
-16 -52 0
-17 -53 0
-18 -54 0
-19 -55 0
-20 -56 0
-21 -57 0
-22 -58 0
-23 -59 0
-24 -60 0
-181 -37 0
-182 -38 0
-183 -39 0
-184 -40 0
-185 -41 0
-186 -42 0
-187 -43 0
-188 -44 0
-189 -45 0
-190 -46 0
-191 -47 0
-192 -48 0
-109 -205 0
-110 -206 0
-111 -207 0
-112 -208 0
-113 -209 0
-114 -210 0
-115 -211 0
-116 -212 0
-117 -213 0
-118 -214 0
-119 -215 0
-120 -216 0
-97 -229 0
-98 -230 0
-99 -231 0
-100 -232 0
-101 -233 0
-102 -234 0
-103 -235 0
-104 -236 0
-105 -237 0
-106 -238 0
-107 -239 0
-108 -240 0
-13 -157 0
-14 -158 0
-15 -159 0
-16 -160 0
-17 -161 0
-18 -162 0
-19 -163 0
-20 -164 0
-21 -165 0
-22 -166 0
-23 -167 0
-24 -168 0
-169 -85 0
-170 -86 0
-171 -87 0
-172 -88 0
-173 -89 0
-174 -90 0
-175 -91 0
-176 -92 0
-177 -93 0
-178 -94 0
-179 -95 0
-180 -96 0
-145 -229 0
-146 -230 0
-147 -231 0
-148 -232 0
-149 -233 0
-150 -234 0
-151 -235 0
-152 -236 0
-153 -237 0
-154 -238 0
-155 -239 0
-156 -240 0
-61 -157 0
-62 -158 0
-63 -159 0
-64 -160 0
-65 -161 0
-66 -162 0
-67 -163 0
-68 -164 0
-69 -165 0
-70 -166 0
-71 -167 0
-72 -168 0
-73 -145 0
-74 -146 0
-75 -147 0
-76 -148 0
-77 -149 0
-78 -150 0
-79 -151 0
-80 -152 0
-81 -153 0
-82 -154 0
-83 -155 0
-84 -156 0
-205 -145 0
-206 -146 0
-207 -147 0
-208 -148 0
-209 -149 0
-210 -150 0
-211 -151 0
-212 -152 0
-213 -153 0
-214 -154 0
-215 -155 0
-216 -156 0
-241 -133 0
-242 -134 0
-243 -135 0
-244 -136 0
-245 -137 0
-246 -138 0
-247 -139 0
-248 -140 0
-249 -141 0
-250 -142 0
-251 -143 0
-252 -144 0
-37 -49 0
-38 -50 0
-39 -51 0
-40 -52 0
-41 -53 0
-42 -54 0
-43 -55 0
-44 -56 0
-45 -57 0
-46 -58 0
-47 -59 0
-48 -60 0
-37 -157 0
-38 -158 0
-39 -159 0
-40 -160 0
-41 -161 0
-42 -162 0
-43 -163 0
-44 -164 0
-45 -165 0
-46 -166 0
-47 -167 0
-48 -168 0
-217 -49 0
-218 -50 0
-219 -51 0
-220 -52 0
-221 -53 0
-222 -54 0
-223 -55 0
-224 -56 0
-225 -57 0
-226 -58 0
-227 -59 0
-228 -60 0
-85 -157 0
-86 -158 0
-87 -159 0
-88 -160 0
-89 -161 0
-90 -162 0
-91 -163 0
-92 -164 0
-93 -165 0
-94 -166 0
-95 -167 0
-96 -168 0
-109 -121 0
-110 -122 0
-111 -123 0
-112 -124 0
-113 -125 0
-114 -126 0
-115 -127 0
-116 -128 0
-117 -129 0
-118 -130 0
-119 -131 0
-120 -132 0
-97 -145 0
-98 -146 0
-99 -147 0
-100 -148 0
-101 -149 0
-102 -150 0
-103 -151 0
-104 -152 0
-105 -153 0
-106 -154 0
-107 -155 0
-108 -156 0
-13 -73 0
-14 -74 0
-15 -75 0
-16 -76 0
-17 -77 0
-18 -78 0
-19 -79 0
-20 -80 0
-21 -81 0
-22 -82 0
-23 -83 0
-24 -84 0
-169 -1 0
-170 -2 0
-171 -3 0
-172 -4 0
-173 -5 0
-174 -6 0
-175 -7 0
-176 -8 0
-177 -9 0
-178 -10 0
-179 -11 0
-180 -12 0
-13 -181 0
-14 -182 0
-15 -183 0
-16 -184 0
-17 -185 0
-18 -186 0
-19 -187 0
-20 -188 0
-21 -189 0
-22 -190 0
-23 -191 0
-24 -192 0
-169 -109 0
-170 -110 0
-171 -111 0
-172 -112 0
-173 -113 0
-174 -114 0
-175 -115 0
-176 -116 0
-177 -117 0
-178 -118 0
-179 -119 0
-180 -120 0
-61 -73 0
-62 -74 0
-63 -75 0
-64 -76 0
-65 -77 0
-66 -78 0
-67 -79 0
-68 -80 0
-69 -81 0
-70 -82 0
-71 -83 0
-72 -84 0
-241 -49 0
-242 -50 0
-243 -51 0
-244 -52 0
-245 -53 0
-246 -54 0
-247 -55 0
-248 -56 0
-249 -57 0
-250 -58 0
-251 -59 0
-252 -60 0
-37 -73 0
-38 -74 0
-39 -75 0
-40 -76 0
-41 -77 0
-42 -78 0
-43 -79 0
-44 -80 0
-45 -81 0
-46 -82 0
-47 -83 0
-48 -84 0
-49 -85 0
-50 -86 0
-51 -87 0
-52 -88 0
-53 -89 0
-54 -90 0
-55 -91 0
-56 -92 0
-57 -93 0
-58 -94 0
-59 -95 0
-60 -96 0
-193 -109 0
-194 -110 0
-195 -111 0
-196 -112 0
-197 -113 0
-198 -114 0
-199 -115 0
-200 -116 0
-201 -117 0
-202 -118 0
-203 -119 0
-204 -120 0
-217 -73 0
-218 -74 0
-219 -75 0
-220 -76 0
-221 -77 0
-222 -78 0
-223 -79 0
-224 -80 0
-225 -81 0
-226 -82 0
-227 -83 0
-228 -84 0
-193 -217 0
-194 -218 0
-195 -219 0
-196 -220 0
-197 -221 0
-198 -222 0
-199 -223 0
-200 -224 0
-201 -225 0
-202 -226 0
-203 -227 0
-204 -228 0
-109 -145 0
-110 -146 0
-111 -147 0
-112 -148 0
-113 -149 0
-114 -150 0
-115 -151 0
-116 -152 0
-117 -153 0
-118 -154 0
-119 -155 0
-120 -156 0
-121 -133 0
-122 -134 0
-123 -135 0
-124 -136 0
-125 -137 0
-126 -138 0
-127 -139 0
-128 -140 0
-129 -141 0
-130 -142 0
-131 -143 0
-132 -144 0
-13 -97 0
-14 -98 0
-15 -99 0
-16 -100 0
-17 -101 0
-18 -102 0
-19 -103 0
-20 -104 0
-21 -105 0
-22 -106 0
-23 -107 0
-24 -108 0
-169 -25 0
-170 -26 0
-171 -27 0
-172 -28 0
-173 -29 0
-174 -30 0
-175 -31 0
-176 -32 0
-177 -33 0
-178 -34 0
-179 -35 0
-180 -36 0
-13 -205 0
-14 -206 0
-15 -207 0
-16 -208 0
-17 -209 0
-18 -210 0
-19 -211 0
-20 -212 0
-21 -213 0
-22 -214 0
-23 -215 0
-24 -216 0
-169 -133 0
-170 -134 0
-171 -135 0
-172 -136 0
-173 -137 0
-174 -138 0
-175 -139 0
-176 -140 0
-177 -141 0
-178 -142 0
-179 -143 0
-180 -144 0
-61 -97 0
-62 -98 0
-63 -99 0
-64 -100 0
-65 -101 0
-66 -102 0
-67 -103 0
-68 -104 0
-69 -105 0
-70 -106 0
-71 -107 0
-72 -108 0
-73 -85 0
-74 -86 0
-75 -87 0
-76 -88 0
-77 -89 0
-78 -90 0
-79 -91 0
-80 -92 0
-81 -93 0
-82 -94 0
-83 -95 0
-84 -96 0
-241 -73 0
-242 -74 0
-243 -75 0
-244 -76 0
-245 -77 0
-246 -78 0
-247 -79 0
-248 -80 0
-249 -81 0
-250 -82 0
-251 -83 0
-252 -84 0
