p cnf 1080 7287
171 172 283 284 -799 0
171 172 283 284 -800 0
171 172 -283 799 800 0
171 172 -284 799 800 0
-171 283 284 799 800 0
-172 283 284 799 800 0
-171 -283 -799 0
-171 -283 -800 0
-171 -284 -799 0
-171 -284 -800 0
-172 -283 -799 0
-172 -283 -800 0
-172 -284 -799 0
-172 -284 -800 0
199 200 469 470 517 518 0
199 200 -469 -517 0
199 200 -469 -518 0
199 200 -470 -517 0
199 200 -470 -518 0
-199 469 470 -517 0
-199 469 470 -518 0
-200 469 470 -517 0
-200 469 470 -518 0
-199 -469 517 518 0
-199 -470 517 518 0
-200 -469 517 518 0
-200 -470 517 518 0
113 114 533 534 -901 0
113 114 533 534 -902 0
113 114 -533 901 902 0
113 114 -534 901 902 0
-113 533 534 901 902 0
-114 533 534 901 902 0
-113 -533 -901 0
-113 -533 -902 0
-113 -534 -901 0
-113 -534 -902 0
-114 -533 -901 0
-114 -533 -902 0
-114 -534 -901 0
-114 -534 -902 0
303 304 537 538 -877 0
303 304 537 538 -878 0
303 304 -537 877 878 0
303 304 -538 877 878 0
-303 537 538 877 878 0
-304 537 538 877 878 0
-303 -537 -877 0
-303 -537 -878 0
-303 -538 -877 0
-303 -538 -878 0
-304 -537 -877 0
-304 -537 -878 0
-304 -538 -877 0
-304 -538 -878 0
63 64 381 382 -941 0
63 64 381 382 -942 0
63 64 -381 941 942 0
63 64 -382 941 942 0
-63 381 382 941 942 0
-64 381 382 941 942 0
-63 -381 -941 0
-63 -381 -942 0
-63 -382 -941 0
-63 -382 -942 0
-64 -381 -941 0
-64 -381 -942 0
-64 -382 -941 0
-64 -382 -942 0
377 378 815 816 983 984 0
377 378 -815 -983 0
377 378 -815 -984 0
377 378 -816 -983 0
377 378 -816 -984 0
-377 815 816 -983 0
-377 815 816 -984 0
-378 815 816 -983 0
-378 815 816 -984 0
-377 -815 983 984 0
-377 -816 983 984 0
-378 -815 983 984 0
-378 -816 983 984 0
455 456 699 700 -919 0
455 456 699 700 -920 0
455 456 -699 919 920 0
455 456 -700 919 920 0
-455 699 700 919 920 0
-456 699 700 919 920 0
-455 -699 -919 0
-455 -699 -920 0
-455 -700 -919 0
-455 -700 -920 0
-456 -699 -919 0
-456 -699 -920 0
-456 -700 -919 0
-456 -700 -920 0
283 284 829 830 855 856 0
283 284 -829 -855 0
283 284 -829 -856 0
283 284 -830 -855 0
283 284 -830 -856 0
-283 829 830 -855 0
-283 829 830 -856 0
-284 829 830 -855 0
-284 829 830 -856 0
-283 -829 855 856 0
-283 -830 855 856 0
-284 -829 855 856 0
-284 -830 855 856 0
231 232 595 596 -951 0
231 232 595 596 -952 0
231 232 -595 951 952 0
231 232 -596 951 952 0
-231 595 596 951 952 0
-232 595 596 951 952 0
-231 -595 -951 0
-231 -595 -952 0
-231 -596 -951 0
-231 -596 -952 0
-232 -595 -951 0
-232 -595 -952 0
-232 -596 -951 0
-232 -596 -952 0
147 148 843 844 -883 0
147 148 843 844 -884 0
147 148 -843 883 884 0
147 148 -844 883 884 0
-147 843 844 883 884 0
-148 843 844 883 884 0
-147 -843 -883 0
-147 -843 -884 0
-147 -844 -883 0
-147 -844 -884 0
-148 -843 -883 0
-148 -843 -884 0
-148 -844 -883 0
-148 -844 -884 0
681 682 835 836 -1061 0
681 682 835 836 -1062 0
681 682 -835 1061 1062 0
681 682 -836 1061 1062 0
-681 835 836 1061 1062 0
-682 835 836 1061 1062 0
-681 -835 -1061 0
-681 -835 -1062 0
-681 -836 -1061 0
-681 -836 -1062 0
-682 -835 -1061 0
-682 -835 -1062 0
-682 -836 -1061 0
-682 -836 -1062 0
709 710 805 806 1047 1048 0
709 710 -805 -1047 0
709 710 -805 -1048 0
709 710 -806 -1047 0
709 710 -806 -1048 0
-709 805 806 -1047 0
-709 805 806 -1048 0
-710 805 806 -1047 0
-710 805 806 -1048 0
-709 -805 1047 1048 0
-709 -806 1047 1048 0
-710 -805 1047 1048 0
-710 -806 1047 1048 0
109 110 555 556 859 860 0
109 110 -555 -859 0
109 110 -555 -860 0
109 110 -556 -859 0
109 110 -556 -860 0
-109 555 556 -859 0
-109 555 556 -860 0
-110 555 556 -859 0
-110 555 556 -860 0
-109 -555 859 860 0
-109 -556 859 860 0
-110 -555 859 860 0
-110 -556 859 860 0
127 128 345 346 697 698 0
127 128 -345 -697 0
127 128 -345 -698 0
127 128 -346 -697 0
127 128 -346 -698 0
-127 345 346 -697 0
-127 345 346 -698 0
-128 345 346 -697 0
-128 345 346 -698 0
-127 -345 697 698 0
-127 -346 697 698 0
-128 -345 697 698 0
-128 -346 697 698 0
523 524 671 672 869 870 0
523 524 -671 -869 0
523 524 -671 -870 0
523 524 -672 -869 0
523 524 -672 -870 0
-523 671 672 -869 0
-523 671 672 -870 0
-524 671 672 -869 0
-524 671 672 -870 0
-523 -671 869 870 0
-523 -672 869 870 0
-524 -671 869 870 0
-524 -672 869 870 0
65 66 247 248 -839 0
65 66 247 248 -840 0
65 66 -247 839 840 0
65 66 -248 839 840 0
-65 247 248 839 840 0
-66 247 248 839 840 0
-65 -247 -839 0
-65 -247 -840 0
-65 -248 -839 0
-65 -248 -840 0
-66 -247 -839 0
-66 -247 -840 0
-66 -248 -839 0
-66 -248 -840 0
343 344 725 726 911 912 0
343 344 -725 -911 0
343 344 -725 -912 0
343 344 -726 -911 0
343 344 -726 -912 0
-343 725 726 -911 0
-343 725 726 -912 0
-344 725 726 -911 0
-344 725 726 -912 0
-343 -725 911 912 0
-343 -726 911 912 0
-344 -725 911 912 0
-344 -726 911 912 0
891 892 917 918 -1005 0
891 892 917 918 -1006 0
891 892 -917 1005 1006 0
891 892 -918 1005 1006 0
-891 917 918 1005 1006 0
-892 917 918 1005 1006 0
-891 -917 -1005 0
-891 -917 -1006 0
-891 -918 -1005 0
-891 -918 -1006 0
-892 -917 -1005 0
-892 -917 -1006 0
-892 -918 -1005 0
-892 -918 -1006 0
89 90 545 546 1027 1028 0
89 90 -545 -1027 0
89 90 -545 -1028 0
89 90 -546 -1027 0
89 90 -546 -1028 0
-89 545 546 -1027 0
-89 545 546 -1028 0
-90 545 546 -1027 0
-90 545 546 -1028 0
-89 -545 1027 1028 0
-89 -546 1027 1028 0
-90 -545 1027 1028 0
-90 -546 1027 1028 0
593 594 697 698 -793 0
593 594 697 698 -794 0
593 594 -697 793 794 0
593 594 -698 793 794 0
-593 697 698 793 794 0
-594 697 698 793 794 0
-593 -697 -793 0
-593 -697 -794 0
-593 -698 -793 0
-593 -698 -794 0
-594 -697 -793 0
-594 -697 -794 0
-594 -698 -793 0
-594 -698 -794 0
115 116 467 468 899 900 0
115 116 -467 -899 0
115 116 -467 -900 0
115 116 -468 -899 0
115 116 -468 -900 0
-115 467 468 -899 0
-115 467 468 -900 0
-116 467 468 -899 0
-116 467 468 -900 0
-115 -467 899 900 0
-115 -468 899 900 0
-116 -467 899 900 0
-116 -468 899 900 0
177 178 697 698 -805 0
177 178 697 698 -806 0
177 178 -697 805 806 0
177 178 -698 805 806 0
-177 697 698 805 806 0
-178 697 698 805 806 0
-177 -697 -805 0
-177 -697 -806 0
-177 -698 -805 0
-177 -698 -806 0
-178 -697 -805 0
-178 -697 -806 0
-178 -698 -805 0
-178 -698 -806 0
57 58 95 96 595 596 0
57 58 -95 -595 0
57 58 -95 -596 0
57 58 -96 -595 0
57 58 -96 -596 0
-57 95 96 -595 0
-57 95 96 -596 0
-58 95 96 -595 0
-58 95 96 -596 0
-57 -95 595 596 0
-57 -96 595 596 0
-58 -95 595 596 0
-58 -96 595 596 0
447 448 765 766 997 998 0
447 448 -765 -997 0
447 448 -765 -998 0
447 448 -766 -997 0
447 448 -766 -998 0
-447 765 766 -997 0
-447 765 766 -998 0
-448 765 766 -997 0
-448 765 766 -998 0
-447 -765 997 998 0
-447 -766 997 998 0
-448 -765 997 998 0
-448 -766 997 998 0
7 8 233 234 419 420 0
7 8 -233 -419 0
7 8 -233 -420 0
7 8 -234 -419 0
7 8 -234 -420 0
-7 233 234 -419 0
-7 233 234 -420 0
-8 233 234 -419 0
-8 233 234 -420 0
-7 -233 419 420 0
-7 -234 419 420 0
-8 -233 419 420 0
-8 -234 419 420 0
281 282 633 634 981 982 0
281 282 -633 -981 0
281 282 -633 -982 0
281 282 -634 -981 0
281 282 -634 -982 0
-281 633 634 -981 0
-281 633 634 -982 0
-282 633 634 -981 0
-282 633 634 -982 0
-281 -633 981 982 0
-281 -634 981 982 0
-282 -633 981 982 0
-282 -634 981 982 0
335 336 789 790 -885 0
335 336 789 790 -886 0
335 336 -789 885 886 0
335 336 -790 885 886 0
-335 789 790 885 886 0
-336 789 790 885 886 0
-335 -789 -885 0
-335 -789 -886 0
-335 -790 -885 0
-335 -790 -886 0
-336 -789 -885 0
-336 -789 -886 0
-336 -790 -885 0
-336 -790 -886 0
199 200 263 264 801 802 0
199 200 -263 -801 0
199 200 -263 -802 0
199 200 -264 -801 0
199 200 -264 -802 0
-199 263 264 -801 0
-199 263 264 -802 0
-200 263 264 -801 0
-200 263 264 -802 0
-199 -263 801 802 0
-199 -264 801 802 0
-200 -263 801 802 0
-200 -264 801 802 0
41 42 401 402 -741 0
41 42 401 402 -742 0
41 42 -401 741 742 0
41 42 -402 741 742 0
-41 401 402 741 742 0
-42 401 402 741 742 0
-41 -401 -741 0
-41 -401 -742 0
-41 -402 -741 0
-41 -402 -742 0
-42 -401 -741 0
-42 -401 -742 0
-42 -402 -741 0
-42 -402 -742 0
313 314 433 434 -621 0
313 314 433 434 -622 0
313 314 -433 621 622 0
313 314 -434 621 622 0
-313 433 434 621 622 0
-314 433 434 621 622 0
-313 -433 -621 0
-313 -433 -622 0
-313 -434 -621 0
-313 -434 -622 0
-314 -433 -621 0
-314 -433 -622 0
-314 -434 -621 0
-314 -434 -622 0
503 504 517 518 -641 0
503 504 517 518 -642 0
503 504 -517 641 642 0
503 504 -518 641 642 0
-503 517 518 641 642 0
-504 517 518 641 642 0
-503 -517 -641 0
-503 -517 -642 0
-503 -518 -641 0
-503 -518 -642 0
-504 -517 -641 0
-504 -517 -642 0
-504 -518 -641 0
-504 -518 -642 0
51 52 369 370 717 718 0
51 52 -369 -717 0
51 52 -369 -718 0
51 52 -370 -717 0
51 52 -370 -718 0
-51 369 370 -717 0
-51 369 370 -718 0
-52 369 370 -717 0
-52 369 370 -718 0
-51 -369 717 718 0
-51 -370 717 718 0
-52 -369 717 718 0
-52 -370 717 718 0
267 268 479 480 851 852 0
267 268 -479 -851 0
267 268 -479 -852 0
267 268 -480 -851 0
267 268 -480 -852 0
-267 479 480 -851 0
-267 479 480 -852 0
-268 479 480 -851 0
-268 479 480 -852 0
-267 -479 851 852 0
-267 -480 851 852 0
-268 -479 851 852 0
-268 -480 851 852 0
61 62 335 336 653 654 0
61 62 -335 -653 0
61 62 -335 -654 0
61 62 -336 -653 0
61 62 -336 -654 0
-61 335 336 -653 0
-61 335 336 -654 0
-62 335 336 -653 0
-62 335 336 -654 0
-61 -335 653 654 0
-61 -336 653 654 0
-62 -335 653 654 0
-62 -336 653 654 0
247 248 805 806 931 932 0
247 248 -805 -931 0
247 248 -805 -932 0
247 248 -806 -931 0
247 248 -806 -932 0
-247 805 806 -931 0
-247 805 806 -932 0
-248 805 806 -931 0
-248 805 806 -932 0
-247 -805 931 932 0
-247 -806 931 932 0
-248 -805 931 932 0
-248 -806 931 932 0
363 364 577 578 727 728 0
363 364 -577 -727 0
363 364 -577 -728 0
363 364 -578 -727 0
363 364 -578 -728 0
-363 577 578 -727 0
-363 577 578 -728 0
-364 577 578 -727 0
-364 577 578 -728 0
-363 -577 727 728 0
-363 -578 727 728 0
-364 -577 727 728 0
-364 -578 727 728 0
851 852 969 970 -1035 0
851 852 969 970 -1036 0
851 852 -969 1035 1036 0
851 852 -970 1035 1036 0
-851 969 970 1035 1036 0
-852 969 970 1035 1036 0
-851 -969 -1035 0
-851 -969 -1036 0
-851 -970 -1035 0
-851 -970 -1036 0
-852 -969 -1035 0
-852 -969 -1036 0
-852 -970 -1035 0
-852 -970 -1036 0
391 392 667 668 967 968 0
391 392 -667 -967 0
391 392 -667 -968 0
391 392 -668 -967 0
391 392 -668 -968 0
-391 667 668 -967 0
-391 667 668 -968 0
-392 667 668 -967 0
-392 667 668 -968 0
-391 -667 967 968 0
-391 -668 967 968 0
-392 -667 967 968 0
-392 -668 967 968 0
73 74 541 542 -793 0
73 74 541 542 -794 0
73 74 -541 793 794 0
73 74 -542 793 794 0
-73 541 542 793 794 0
-74 541 542 793 794 0
-73 -541 -793 0
-73 -541 -794 0
-73 -542 -793 0
-73 -542 -794 0
-74 -541 -793 0
-74 -541 -794 0
-74 -542 -793 0
-74 -542 -794 0
545 546 831 832 891 892 0
545 546 -831 -891 0
545 546 -831 -892 0
545 546 -832 -891 0
545 546 -832 -892 0
-545 831 832 -891 0
-545 831 832 -892 0
-546 831 832 -891 0
-546 831 832 -892 0
-545 -831 891 892 0
-545 -832 891 892 0
-546 -831 891 892 0
-546 -832 891 892 0
153 154 485 486 -609 0
153 154 485 486 -610 0
153 154 -485 609 610 0
153 154 -486 609 610 0
-153 485 486 609 610 0
-154 485 486 609 610 0
-153 -485 -609 0
-153 -485 -610 0
-153 -486 -609 0
-153 -486 -610 0
-154 -485 -609 0
-154 -485 -610 0
-154 -486 -609 0
-154 -486 -610 0
197 198 633 634 775 776 0
197 198 -633 -775 0
197 198 -633 -776 0
197 198 -634 -775 0
197 198 -634 -776 0
-197 633 634 -775 0
-197 633 634 -776 0
-198 633 634 -775 0
-198 633 634 -776 0
-197 -633 775 776 0
-197 -634 775 776 0
-198 -633 775 776 0
-198 -634 775 776 0
505 506 507 508 -985 0
505 506 507 508 -986 0
505 506 -507 985 986 0
505 506 -508 985 986 0
-505 507 508 985 986 0
-506 507 508 985 986 0
-505 -507 -985 0
-505 -507 -986 0
-505 -508 -985 0
-505 -508 -986 0
-506 -507 -985 0
-506 -507 -986 0
-506 -508 -985 0
-506 -508 -986 0
83 84 331 332 807 808 0
83 84 -331 -807 0
83 84 -331 -808 0
83 84 -332 -807 0
83 84 -332 -808 0
-83 331 332 -807 0
-83 331 332 -808 0
-84 331 332 -807 0
-84 331 332 -808 0
-83 -331 807 808 0
-83 -332 807 808 0
-84 -331 807 808 0
-84 -332 807 808 0
495 496 695 696 -811 0
495 496 695 696 -812 0
495 496 -695 811 812 0
495 496 -696 811 812 0
-495 695 696 811 812 0
-496 695 696 811 812 0
-495 -695 -811 0
-495 -695 -812 0
-495 -696 -811 0
-495 -696 -812 0
-496 -695 -811 0
-496 -695 -812 0
-496 -696 -811 0
-496 -696 -812 0
119 120 513 514 789 790 0
119 120 -513 -789 0
119 120 -513 -790 0
119 120 -514 -789 0
119 120 -514 -790 0
-119 513 514 -789 0
-119 513 514 -790 0
-120 513 514 -789 0
-120 513 514 -790 0
-119 -513 789 790 0
-119 -514 789 790 0
-120 -513 789 790 0
-120 -514 789 790 0
309 310 827 828 -841 0
309 310 827 828 -842 0
309 310 -827 841 842 0
309 310 -828 841 842 0
-309 827 828 841 842 0
-310 827 828 841 842 0
-309 -827 -841 0
-309 -827 -842 0
-309 -828 -841 0
-309 -828 -842 0
-310 -827 -841 0
-310 -827 -842 0
-310 -828 -841 0
-310 -828 -842 0
137 138 599 600 -1017 0
137 138 599 600 -1018 0
137 138 -599 1017 1018 0
137 138 -600 1017 1018 0
-137 599 600 1017 1018 0
-138 599 600 1017 1018 0
-137 -599 -1017 0
-137 -599 -1018 0
-137 -600 -1017 0
-137 -600 -1018 0
-138 -599 -1017 0
-138 -599 -1018 0
-138 -600 -1017 0
-138 -600 -1018 0
197 198 235 236 997 998 0
197 198 -235 -997 0
197 198 -235 -998 0
197 198 -236 -997 0
197 198 -236 -998 0
-197 235 236 -997 0
-197 235 236 -998 0
-198 235 236 -997 0
-198 235 236 -998 0
-197 -235 997 998 0
-197 -236 997 998 0
-198 -235 997 998 0
-198 -236 997 998 0
183 184 729 730 -953 0
183 184 729 730 -954 0
183 184 -729 953 954 0
183 184 -730 953 954 0
-183 729 730 953 954 0
-184 729 730 953 954 0
-183 -729 -953 0
-183 -729 -954 0
-183 -730 -953 0
-183 -730 -954 0
-184 -729 -953 0
-184 -729 -954 0
-184 -730 -953 0
-184 -730 -954 0
187 188 661 662 -781 0
187 188 661 662 -782 0
187 188 -661 781 782 0
187 188 -662 781 782 0
-187 661 662 781 782 0
-188 661 662 781 782 0
-187 -661 -781 0
-187 -661 -782 0
-187 -662 -781 0
-187 -662 -782 0
-188 -661 -781 0
-188 -661 -782 0
-188 -662 -781 0
-188 -662 -782 0
303 304 699 700 1045 1046 0
303 304 -699 -1045 0
303 304 -699 -1046 0
303 304 -700 -1045 0
303 304 -700 -1046 0
-303 699 700 -1045 0
-303 699 700 -1046 0
-304 699 700 -1045 0
-304 699 700 -1046 0
-303 -699 1045 1046 0
-303 -700 1045 1046 0
-304 -699 1045 1046 0
-304 -700 1045 1046 0
143 144 943 944 1041 1042 0
143 144 -943 -1041 0
143 144 -943 -1042 0
143 144 -944 -1041 0
143 144 -944 -1042 0
-143 943 944 -1041 0
-143 943 944 -1042 0
-144 943 944 -1041 0
-144 943 944 -1042 0
-143 -943 1041 1042 0
-143 -944 1041 1042 0
-144 -943 1041 1042 0
-144 -944 1041 1042 0
101 102 563 564 1061 1062 0
101 102 -563 -1061 0
101 102 -563 -1062 0
101 102 -564 -1061 0
101 102 -564 -1062 0
-101 563 564 -1061 0
-101 563 564 -1062 0
-102 563 564 -1061 0
-102 563 564 -1062 0
-101 -563 1061 1062 0
-101 -564 1061 1062 0
-102 -563 1061 1062 0
-102 -564 1061 1062 0
163 164 355 356 677 678 0
163 164 -355 -677 0
163 164 -355 -678 0
163 164 -356 -677 0
163 164 -356 -678 0
-163 355 356 -677 0
-163 355 356 -678 0
-164 355 356 -677 0
-164 355 356 -678 0
-163 -355 677 678 0
-163 -356 677 678 0
-164 -355 677 678 0
-164 -356 677 678 0
277 278 809 810 895 896 0
277 278 -809 -895 0
277 278 -809 -896 0
277 278 -810 -895 0
277 278 -810 -896 0
-277 809 810 -895 0
-277 809 810 -896 0
-278 809 810 -895 0
-278 809 810 -896 0
-277 -809 895 896 0
-277 -810 895 896 0
-278 -809 895 896 0
-278 -810 895 896 0
105 106 223 224 -443 0
105 106 223 224 -444 0
105 106 -223 443 444 0
105 106 -224 443 444 0
-105 223 224 443 444 0
-106 223 224 443 444 0
-105 -223 -443 0
-105 -223 -444 0
-105 -224 -443 0
-105 -224 -444 0
-106 -223 -443 0
-106 -223 -444 0
-106 -224 -443 0
-106 -224 -444 0
25 26 731 732 -897 0
25 26 731 732 -898 0
25 26 -731 897 898 0
25 26 -732 897 898 0
-25 731 732 897 898 0
-26 731 732 897 898 0
-25 -731 -897 0
-25 -731 -898 0
-25 -732 -897 0
-25 -732 -898 0
-26 -731 -897 0
-26 -731 -898 0
-26 -732 -897 0
-26 -732 -898 0
73 74 251 252 403 404 0
73 74 -251 -403 0
73 74 -251 -404 0
73 74 -252 -403 0
73 74 -252 -404 0
-73 251 252 -403 0
-73 251 252 -404 0
-74 251 252 -403 0
-74 251 252 -404 0
-73 -251 403 404 0
-73 -252 403 404 0
-74 -251 403 404 0
-74 -252 403 404 0
77 78 969 970 995 996 0
77 78 -969 -995 0
77 78 -969 -996 0
77 78 -970 -995 0
77 78 -970 -996 0
-77 969 970 -995 0
-77 969 970 -996 0
-78 969 970 -995 0
-78 969 970 -996 0
-77 -969 995 996 0
-77 -970 995 996 0
-78 -969 995 996 0
-78 -970 995 996 0
581 582 637 638 693 694 0
581 582 -637 -693 0
581 582 -637 -694 0
581 582 -638 -693 0
581 582 -638 -694 0
-581 637 638 -693 0
-581 637 638 -694 0
-582 637 638 -693 0
-582 637 638 -694 0
-581 -637 693 694 0
-581 -638 693 694 0
-582 -637 693 694 0
-582 -638 693 694 0
59 60 769 770 -851 0
59 60 769 770 -852 0
59 60 -769 851 852 0
59 60 -770 851 852 0
-59 769 770 851 852 0
-60 769 770 851 852 0
-59 -769 -851 0
-59 -769 -852 0
-59 -770 -851 0
-59 -770 -852 0
-60 -769 -851 0
-60 -769 -852 0
-60 -770 -851 0
-60 -770 -852 0
297 298 787 788 1017 1018 0
297 298 -787 -1017 0
297 298 -787 -1018 0
297 298 -788 -1017 0
297 298 -788 -1018 0
-297 787 788 -1017 0
-297 787 788 -1018 0
-298 787 788 -1017 0
-298 787 788 -1018 0
-297 -787 1017 1018 0
-297 -788 1017 1018 0
-298 -787 1017 1018 0
-298 -788 1017 1018 0
411 412 445 446 -929 0
411 412 445 446 -930 0
411 412 -445 929 930 0
411 412 -446 929 930 0
-411 445 446 929 930 0
-412 445 446 929 930 0
-411 -445 -929 0
-411 -445 -930 0
-411 -446 -929 0
-411 -446 -930 0
-412 -445 -929 0
-412 -445 -930 0
-412 -446 -929 0
-412 -446 -930 0
313 314 833 834 859 860 0
313 314 -833 -859 0
313 314 -833 -860 0
313 314 -834 -859 0
313 314 -834 -860 0
-313 833 834 -859 0
-313 833 834 -860 0
-314 833 834 -859 0
-314 833 834 -860 0
-313 -833 859 860 0
-313 -834 859 860 0
-314 -833 859 860 0
-314 -834 859 860 0
167 168 605 606 -877 0
167 168 605 606 -878 0
167 168 -605 877 878 0
167 168 -606 877 878 0
-167 605 606 877 878 0
-168 605 606 877 878 0
-167 -605 -877 0
-167 -605 -878 0
-167 -606 -877 0
-167 -606 -878 0
-168 -605 -877 0
-168 -605 -878 0
-168 -606 -877 0
-168 -606 -878 0
525 526 781 782 955 956 0
525 526 -781 -955 0
525 526 -781 -956 0
525 526 -782 -955 0
525 526 -782 -956 0
-525 781 782 -955 0
-525 781 782 -956 0
-526 781 782 -955 0
-526 781 782 -956 0
-525 -781 955 956 0
-525 -782 955 956 0
-526 -781 955 956 0
-526 -782 955 956 0
161 162 289 290 399 400 0
161 162 -289 -399 0
161 162 -289 -400 0
161 162 -290 -399 0
161 162 -290 -400 0
-161 289 290 -399 0
-161 289 290 -400 0
-162 289 290 -399 0
-162 289 290 -400 0
-161 -289 399 400 0
-161 -290 399 400 0
-162 -289 399 400 0
-162 -290 399 400 0
589 590 695 696 1011 1012 0
589 590 -695 -1011 0
589 590 -695 -1012 0
589 590 -696 -1011 0
589 590 -696 -1012 0
-589 695 696 -1011 0
-589 695 696 -1012 0
-590 695 696 -1011 0
-590 695 696 -1012 0
-589 -695 1011 1012 0
-589 -696 1011 1012 0
-590 -695 1011 1012 0
-590 -696 1011 1012 0
33 34 451 452 -755 0
33 34 451 452 -756 0
33 34 -451 755 756 0
33 34 -452 755 756 0
-33 451 452 755 756 0
-34 451 452 755 756 0
-33 -451 -755 0
-33 -451 -756 0
-33 -452 -755 0
-33 -452 -756 0
-34 -451 -755 0
-34 -451 -756 0
-34 -452 -755 0
-34 -452 -756 0
187 188 321 322 775 776 0
187 188 -321 -775 0
187 188 -321 -776 0
187 188 -322 -775 0
187 188 -322 -776 0
-187 321 322 -775 0
-187 321 322 -776 0
-188 321 322 -775 0
-188 321 322 -776 0
-187 -321 775 776 0
-187 -322 775 776 0
-188 -321 775 776 0
-188 -322 775 776 0
383 384 393 394 -707 0
383 384 393 394 -708 0
383 384 -393 707 708 0
383 384 -394 707 708 0
-383 393 394 707 708 0
-384 393 394 707 708 0
-383 -393 -707 0
-383 -393 -708 0
-383 -394 -707 0
-383 -394 -708 0
-384 -393 -707 0
-384 -393 -708 0
-384 -394 -707 0
-384 -394 -708 0
129 130 851 852 917 918 0
129 130 -851 -917 0
129 130 -851 -918 0
129 130 -852 -917 0
129 130 -852 -918 0
-129 851 852 -917 0
-129 851 852 -918 0
-130 851 852 -917 0
-130 851 852 -918 0
-129 -851 917 918 0
-129 -852 917 918 0
-130 -851 917 918 0
-130 -852 917 918 0
317 318 335 336 -349 0
317 318 335 336 -350 0
317 318 -335 349 350 0
317 318 -336 349 350 0
-317 335 336 349 350 0
-318 335 336 349 350 0
-317 -335 -349 0
-317 -335 -350 0
-317 -336 -349 0
-317 -336 -350 0
-318 -335 -349 0
-318 -335 -350 0
-318 -336 -349 0
-318 -336 -350 0
89 90 113 114 801 802 0
89 90 -113 -801 0
89 90 -113 -802 0
89 90 -114 -801 0
89 90 -114 -802 0
-89 113 114 -801 0
-89 113 114 -802 0
-90 113 114 -801 0
-90 113 114 -802 0
-89 -113 801 802 0
-89 -114 801 802 0
-90 -113 801 802 0
-90 -114 801 802 0
141 142 161 162 -803 0
141 142 161 162 -804 0
141 142 -161 803 804 0
141 142 -162 803 804 0
-141 161 162 803 804 0
-142 161 162 803 804 0
-141 -161 -803 0
-141 -161 -804 0
-141 -162 -803 0
-141 -162 -804 0
-142 -161 -803 0
-142 -161 -804 0
-142 -162 -803 0
-142 -162 -804 0
349 350 675 676 893 894 0
349 350 -675 -893 0
349 350 -675 -894 0
349 350 -676 -893 0
349 350 -676 -894 0
-349 675 676 -893 0
-349 675 676 -894 0
-350 675 676 -893 0
-350 675 676 -894 0
-349 -675 893 894 0
-349 -676 893 894 0
-350 -675 893 894 0
-350 -676 893 894 0
397 398 691 692 807 808 0
397 398 -691 -807 0
397 398 -691 -808 0
397 398 -692 -807 0
397 398 -692 -808 0
-397 691 692 -807 0
-397 691 692 -808 0
-398 691 692 -807 0
-398 691 692 -808 0
-397 -691 807 808 0
-397 -692 807 808 0
-398 -691 807 808 0
-398 -692 807 808 0
211 212 573 574 807 808 0
211 212 -573 -807 0
211 212 -573 -808 0
211 212 -574 -807 0
211 212 -574 -808 0
-211 573 574 -807 0
-211 573 574 -808 0
-212 573 574 -807 0
-212 573 574 -808 0
-211 -573 807 808 0
-211 -574 807 808 0
-212 -573 807 808 0
-212 -574 807 808 0
563 564 733 734 -887 0
563 564 733 734 -888 0
563 564 -733 887 888 0
563 564 -734 887 888 0
-563 733 734 887 888 0
-564 733 734 887 888 0
-563 -733 -887 0
-563 -733 -888 0
-563 -734 -887 0
-563 -734 -888 0
-564 -733 -887 0
-564 -733 -888 0
-564 -734 -887 0
-564 -734 -888 0
331 332 441 442 -521 0
331 332 441 442 -522 0
331 332 -441 521 522 0
331 332 -442 521 522 0
-331 441 442 521 522 0
-332 441 442 521 522 0
-331 -441 -521 0
-331 -441 -522 0
-331 -442 -521 0
-331 -442 -522 0
-332 -441 -521 0
-332 -441 -522 0
-332 -442 -521 0
-332 -442 -522 0
367 368 815 816 -835 0
367 368 815 816 -836 0
367 368 -815 835 836 0
367 368 -816 835 836 0
-367 815 816 835 836 0
-368 815 816 835 836 0
-367 -815 -835 0
-367 -815 -836 0
-367 -816 -835 0
-367 -816 -836 0
-368 -815 -835 0
-368 -815 -836 0
-368 -816 -835 0
-368 -816 -836 0
91 92 429 430 877 878 0
91 92 -429 -877 0
91 92 -429 -878 0
91 92 -430 -877 0
91 92 -430 -878 0
-91 429 430 -877 0
-91 429 430 -878 0
-92 429 430 -877 0
-92 429 430 -878 0
-91 -429 877 878 0
-91 -430 877 878 0
-92 -429 877 878 0
-92 -430 877 878 0
405 406 501 502 799 800 0
405 406 -501 -799 0
405 406 -501 -800 0
405 406 -502 -799 0
405 406 -502 -800 0
-405 501 502 -799 0
-405 501 502 -800 0
-406 501 502 -799 0
-406 501 502 -800 0
-405 -501 799 800 0
-405 -502 799 800 0
-406 -501 799 800 0
-406 -502 799 800 0
161 162 345 346 1003 1004 0
161 162 -345 -1003 0
161 162 -345 -1004 0
161 162 -346 -1003 0
161 162 -346 -1004 0
-161 345 346 -1003 0
-161 345 346 -1004 0
-162 345 346 -1003 0
-162 345 346 -1004 0
-161 -345 1003 1004 0
-161 -346 1003 1004 0
-162 -345 1003 1004 0
-162 -346 1003 1004 0
211 212 877 878 -945 0
211 212 877 878 -946 0
211 212 -877 945 946 0
211 212 -878 945 946 0
-211 877 878 945 946 0
-212 877 878 945 946 0
-211 -877 -945 0
-211 -877 -946 0
-211 -878 -945 0
-211 -878 -946 0
-212 -877 -945 0
-212 -877 -946 0
-212 -878 -945 0
-212 -878 -946 0
211 212 495 496 1077 1078 0
211 212 -495 -1077 0
211 212 -495 -1078 0
211 212 -496 -1077 0
211 212 -496 -1078 0
-211 495 496 -1077 0
-211 495 496 -1078 0
-212 495 496 -1077 0
-212 495 496 -1078 0
-211 -495 1077 1078 0
-211 -496 1077 1078 0
-212 -495 1077 1078 0
-212 -496 1077 1078 0
551 552 609 610 -683 0
551 552 609 610 -684 0
551 552 -609 683 684 0
551 552 -610 683 684 0
-551 609 610 683 684 0
-552 609 610 683 684 0
-551 -609 -683 0
-551 -609 -684 0
-551 -610 -683 0
-551 -610 -684 0
-552 -609 -683 0
-552 -609 -684 0
-552 -610 -683 0
-552 -610 -684 0
565 566 699 700 -1015 0
565 566 699 700 -1016 0
565 566 -699 1015 1016 0
565 566 -700 1015 1016 0
-565 699 700 1015 1016 0
-566 699 700 1015 1016 0
-565 -699 -1015 0
-565 -699 -1016 0
-565 -700 -1015 0
-565 -700 -1016 0
-566 -699 -1015 0
-566 -699 -1016 0
-566 -700 -1015 0
-566 -700 -1016 0
273 274 635 636 -1049 0
273 274 635 636 -1050 0
273 274 -635 1049 1050 0
273 274 -636 1049 1050 0
-273 635 636 1049 1050 0
-274 635 636 1049 1050 0
-273 -635 -1049 0
-273 -635 -1050 0
-273 -636 -1049 0
-273 -636 -1050 0
-274 -635 -1049 0
-274 -635 -1050 0
-274 -636 -1049 0
-274 -636 -1050 0
501 502 905 906 -921 0
501 502 905 906 -922 0
501 502 -905 921 922 0
501 502 -906 921 922 0
-501 905 906 921 922 0
-502 905 906 921 922 0
-501 -905 -921 0
-501 -905 -922 0
-501 -906 -921 0
-501 -906 -922 0
-502 -905 -921 0
-502 -905 -922 0
-502 -906 -921 0
-502 -906 -922 0
223 224 305 306 -1055 0
223 224 305 306 -1056 0
223 224 -305 1055 1056 0
223 224 -306 1055 1056 0
-223 305 306 1055 1056 0
-224 305 306 1055 1056 0
-223 -305 -1055 0
-223 -305 -1056 0
-223 -306 -1055 0
-223 -306 -1056 0
-224 -305 -1055 0
-224 -305 -1056 0
-224 -306 -1055 0
-224 -306 -1056 0
227 228 229 230 -417 0
227 228 229 230 -418 0
227 228 -229 417 418 0
227 228 -230 417 418 0
-227 229 230 417 418 0
-228 229 230 417 418 0
-227 -229 -417 0
-227 -229 -418 0
-227 -230 -417 0
-227 -230 -418 0
-228 -229 -417 0
-228 -229 -418 0
-228 -230 -417 0
-228 -230 -418 0
79 80 519 520 -719 0
79 80 519 520 -720 0
79 80 -519 719 720 0
79 80 -520 719 720 0
-79 519 520 719 720 0
-80 519 520 719 720 0
-79 -519 -719 0
-79 -519 -720 0
-79 -520 -719 0
-79 -520 -720 0
-80 -519 -719 0
-80 -519 -720 0
-80 -520 -719 0
-80 -520 -720 0
97 98 257 258 685 686 0
97 98 -257 -685 0
97 98 -257 -686 0
97 98 -258 -685 0
97 98 -258 -686 0
-97 257 258 -685 0
-97 257 258 -686 0
-98 257 258 -685 0
-98 257 258 -686 0
-97 -257 685 686 0
-97 -258 685 686 0
-98 -257 685 686 0
-98 -258 685 686 0
219 220 509 510 -811 0
219 220 509 510 -812 0
219 220 -509 811 812 0
219 220 -510 811 812 0
-219 509 510 811 812 0
-220 509 510 811 812 0
-219 -509 -811 0
-219 -509 -812 0
-219 -510 -811 0
-219 -510 -812 0
-220 -509 -811 0
-220 -509 -812 0
-220 -510 -811 0
-220 -510 -812 0
211 212 367 368 673 674 0
211 212 -367 -673 0
211 212 -367 -674 0
211 212 -368 -673 0
211 212 -368 -674 0
-211 367 368 -673 0
-211 367 368 -674 0
-212 367 368 -673 0
-212 367 368 -674 0
-211 -367 673 674 0
-211 -368 673 674 0
-212 -367 673 674 0
-212 -368 673 674 0
77 78 575 576 761 762 0
77 78 -575 -761 0
77 78 -575 -762 0
77 78 -576 -761 0
77 78 -576 -762 0
-77 575 576 -761 0
-77 575 576 -762 0
-78 575 576 -761 0
-78 575 576 -762 0
-77 -575 761 762 0
-77 -576 761 762 0
-78 -575 761 762 0
-78 -576 761 762 0
123 124 365 366 475 476 0
123 124 -365 -475 0
123 124 -365 -476 0
123 124 -366 -475 0
123 124 -366 -476 0
-123 365 366 -475 0
-123 365 366 -476 0
-124 365 366 -475 0
-124 365 366 -476 0
-123 -365 475 476 0
-123 -366 475 476 0
-124 -365 475 476 0
-124 -366 475 476 0
321 322 587 588 -779 0
321 322 587 588 -780 0
321 322 -587 779 780 0
321 322 -588 779 780 0
-321 587 588 779 780 0
-322 587 588 779 780 0
-321 -587 -779 0
-321 -587 -780 0
-321 -588 -779 0
-321 -588 -780 0
-322 -587 -779 0
-322 -587 -780 0
-322 -588 -779 0
-322 -588 -780 0
145 146 753 754 1053 1054 0
145 146 -753 -1053 0
145 146 -753 -1054 0
145 146 -754 -1053 0
145 146 -754 -1054 0
-145 753 754 -1053 0
-145 753 754 -1054 0
-146 753 754 -1053 0
-146 753 754 -1054 0
-145 -753 1053 1054 0
-145 -754 1053 1054 0
-146 -753 1053 1054 0
-146 -754 1053 1054 0
61 62 179 180 -1021 0
61 62 179 180 -1022 0
61 62 -179 1021 1022 0
61 62 -180 1021 1022 0
-61 179 180 1021 1022 0
-62 179 180 1021 1022 0
-61 -179 -1021 0
-61 -179 -1022 0
-61 -180 -1021 0
-61 -180 -1022 0
-62 -179 -1021 0
-62 -179 -1022 0
-62 -180 -1021 0
-62 -180 -1022 0
85 86 447 448 811 812 0
85 86 -447 -811 0
85 86 -447 -812 0
85 86 -448 -811 0
85 86 -448 -812 0
-85 447 448 -811 0
-85 447 448 -812 0
-86 447 448 -811 0
-86 447 448 -812 0
-85 -447 811 812 0
-85 -448 811 812 0
-86 -447 811 812 0
-86 -448 811 812 0
187 188 365 366 -845 0
187 188 365 366 -846 0
187 188 -365 845 846 0
187 188 -366 845 846 0
-187 365 366 845 846 0
-188 365 366 845 846 0
-187 -365 -845 0
-187 -365 -846 0
-187 -366 -845 0
-187 -366 -846 0
-188 -365 -845 0
-188 -365 -846 0
-188 -366 -845 0
-188 -366 -846 0
529 530 621 622 -763 0
529 530 621 622 -764 0
529 530 -621 763 764 0
529 530 -622 763 764 0
-529 621 622 763 764 0
-530 621 622 763 764 0
-529 -621 -763 0
-529 -621 -764 0
-529 -622 -763 0
-529 -622 -764 0
-530 -621 -763 0
-530 -621 -764 0
-530 -622 -763 0
-530 -622 -764 0
625 626 761 762 -917 0
625 626 761 762 -918 0
625 626 -761 917 918 0
625 626 -762 917 918 0
-625 761 762 917 918 0
-626 761 762 917 918 0
-625 -761 -917 0
-625 -761 -918 0
-625 -762 -917 0
-625 -762 -918 0
-626 -761 -917 0
-626 -761 -918 0
-626 -762 -917 0
-626 -762 -918 0
171 172 541 542 -989 0
171 172 541 542 -990 0
171 172 -541 989 990 0
171 172 -542 989 990 0
-171 541 542 989 990 0
-172 541 542 989 990 0
-171 -541 -989 0
-171 -541 -990 0
-171 -542 -989 0
-171 -542 -990 0
-172 -541 -989 0
-172 -541 -990 0
-172 -542 -989 0
-172 -542 -990 0
181 182 749 750 983 984 0
181 182 -749 -983 0
181 182 -749 -984 0
181 182 -750 -983 0
181 182 -750 -984 0
-181 749 750 -983 0
-181 749 750 -984 0
-182 749 750 -983 0
-182 749 750 -984 0
-181 -749 983 984 0
-181 -750 983 984 0
-182 -749 983 984 0
-182 -750 983 984 0
205 206 801 802 -1061 0
205 206 801 802 -1062 0
205 206 -801 1061 1062 0
205 206 -802 1061 1062 0
-205 801 802 1061 1062 0
-206 801 802 1061 1062 0
-205 -801 -1061 0
-205 -801 -1062 0
-205 -802 -1061 0
-205 -802 -1062 0
-206 -801 -1061 0
-206 -801 -1062 0
-206 -802 -1061 0
-206 -802 -1062 0
247 248 459 460 707 708 0
247 248 -459 -707 0
247 248 -459 -708 0
247 248 -460 -707 0
247 248 -460 -708 0
-247 459 460 -707 0
-247 459 460 -708 0
-248 459 460 -707 0
-248 459 460 -708 0
-247 -459 707 708 0
-247 -460 707 708 0
-248 -459 707 708 0
-248 -460 707 708 0
103 104 371 372 993 994 0
103 104 -371 -993 0
103 104 -371 -994 0
103 104 -372 -993 0
103 104 -372 -994 0
-103 371 372 -993 0
-103 371 372 -994 0
-104 371 372 -993 0
-104 371 372 -994 0
-103 -371 993 994 0
-103 -372 993 994 0
-104 -371 993 994 0
-104 -372 993 994 0
445 446 811 812 931 932 0
445 446 -811 -931 0
445 446 -811 -932 0
445 446 -812 -931 0
445 446 -812 -932 0
-445 811 812 -931 0
-445 811 812 -932 0
-446 811 812 -931 0
-446 811 812 -932 0
-445 -811 931 932 0
-445 -812 931 932 0
-446 -811 931 932 0
-446 -812 931 932 0
117 118 505 506 -535 0
117 118 505 506 -536 0
117 118 -505 535 536 0
117 118 -506 535 536 0
-117 505 506 535 536 0
-118 505 506 535 536 0
-117 -505 -535 0
-117 -505 -536 0
-117 -506 -535 0
-117 -506 -536 0
-118 -505 -535 0
-118 -505 -536 0
-118 -506 -535 0
-118 -506 -536 0
437 438 473 474 713 714 0
437 438 -473 -713 0
437 438 -473 -714 0
437 438 -474 -713 0
437 438 -474 -714 0
-437 473 474 -713 0
-437 473 474 -714 0
-438 473 474 -713 0
-438 473 474 -714 0
-437 -473 713 714 0
-437 -474 713 714 0
-438 -473 713 714 0
-438 -474 713 714 0
367 368 393 394 649 650 0
367 368 -393 -649 0
367 368 -393 -650 0
367 368 -394 -649 0
367 368 -394 -650 0
-367 393 394 -649 0
-367 393 394 -650 0
-368 393 394 -649 0
-368 393 394 -650 0
-367 -393 649 650 0
-367 -394 649 650 0
-368 -393 649 650 0
-368 -394 649 650 0
125 126 557 558 669 670 0
125 126 -557 -669 0
125 126 -557 -670 0
125 126 -558 -669 0
125 126 -558 -670 0
-125 557 558 -669 0
-125 557 558 -670 0
-126 557 558 -669 0
-126 557 558 -670 0
-125 -557 669 670 0
-125 -558 669 670 0
-126 -557 669 670 0
-126 -558 669 670 0
617 618 655 656 -835 0
617 618 655 656 -836 0
617 618 -655 835 836 0
617 618 -656 835 836 0
-617 655 656 835 836 0
-618 655 656 835 836 0
-617 -655 -835 0
-617 -655 -836 0
-617 -656 -835 0
-617 -656 -836 0
-618 -655 -835 0
-618 -655 -836 0
-618 -656 -835 0
-618 -656 -836 0
133 134 607 608 661 662 0
133 134 -607 -661 0
133 134 -607 -662 0
133 134 -608 -661 0
133 134 -608 -662 0
-133 607 608 -661 0
-133 607 608 -662 0
-134 607 608 -661 0
-134 607 608 -662 0
-133 -607 661 662 0
-133 -608 661 662 0
-134 -607 661 662 0
-134 -608 661 662 0
341 342 1011 1012 -1031 0
341 342 1011 1012 -1032 0
341 342 -1011 1031 1032 0
341 342 -1012 1031 1032 0
-341 1011 1012 1031 1032 0
-342 1011 1012 1031 1032 0
-341 -1011 -1031 0
-341 -1011 -1032 0
-341 -1012 -1031 0
-341 -1012 -1032 0
-342 -1011 -1031 0
-342 -1011 -1032 0
-342 -1012 -1031 0
-342 -1012 -1032 0
135 136 701 702 -965 0
135 136 701 702 -966 0
135 136 -701 965 966 0
135 136 -702 965 966 0
-135 701 702 965 966 0
-136 701 702 965 966 0
-135 -701 -965 0
-135 -701 -966 0
-135 -702 -965 0
-135 -702 -966 0
-136 -701 -965 0
-136 -701 -966 0
-136 -702 -965 0
-136 -702 -966 0
299 300 621 622 -861 0
299 300 621 622 -862 0
299 300 -621 861 862 0
299 300 -622 861 862 0
-299 621 622 861 862 0
-300 621 622 861 862 0
-299 -621 -861 0
-299 -621 -862 0
-299 -622 -861 0
-299 -622 -862 0
-300 -621 -861 0
-300 -621 -862 0
-300 -622 -861 0
-300 -622 -862 0
117 118 863 864 -975 0
117 118 863 864 -976 0
117 118 -863 975 976 0
117 118 -864 975 976 0
-117 863 864 975 976 0
-118 863 864 975 976 0
-117 -863 -975 0
-117 -863 -976 0
-117 -864 -975 0
-117 -864 -976 0
-118 -863 -975 0
-118 -863 -976 0
-118 -864 -975 0
-118 -864 -976 0
133 134 241 242 -665 0
133 134 241 242 -666 0
133 134 -241 665 666 0
133 134 -242 665 666 0
-133 241 242 665 666 0
-134 241 242 665 666 0
-133 -241 -665 0
-133 -241 -666 0
-133 -242 -665 0
-133 -242 -666 0
-134 -241 -665 0
-134 -241 -666 0
-134 -242 -665 0
-134 -242 -666 0
335 336 699 700 -829 0
335 336 699 700 -830 0
335 336 -699 829 830 0
335 336 -700 829 830 0
-335 699 700 829 830 0
-336 699 700 829 830 0
-335 -699 -829 0
-335 -699 -830 0
-335 -700 -829 0
-335 -700 -830 0
-336 -699 -829 0
-336 -699 -830 0
-336 -700 -829 0
-336 -700 -830 0
37 38 783 784 1037 1038 0
37 38 -783 -1037 0
37 38 -783 -1038 0
37 38 -784 -1037 0
37 38 -784 -1038 0
-37 783 784 -1037 0
-37 783 784 -1038 0
-38 783 784 -1037 0
-38 783 784 -1038 0
-37 -783 1037 1038 0
-37 -784 1037 1038 0
-38 -783 1037 1038 0
-38 -784 1037 1038 0
95 96 425 426 -895 0
95 96 425 426 -896 0
95 96 -425 895 896 0
95 96 -426 895 896 0
-95 425 426 895 896 0
-96 425 426 895 896 0
-95 -425 -895 0
-95 -425 -896 0
-95 -426 -895 0
-95 -426 -896 0
-96 -425 -895 0
-96 -425 -896 0
-96 -426 -895 0
-96 -426 -896 0
233 234 807 808 841 842 0
233 234 -807 -841 0
233 234 -807 -842 0
233 234 -808 -841 0
233 234 -808 -842 0
-233 807 808 -841 0
-233 807 808 -842 0
-234 807 808 -841 0
-234 807 808 -842 0
-233 -807 841 842 0
-233 -808 841 842 0
-234 -807 841 842 0
-234 -808 841 842 0
33 34 735 736 979 980 0
33 34 -735 -979 0
33 34 -735 -980 0
33 34 -736 -979 0
33 34 -736 -980 0
-33 735 736 -979 0
-33 735 736 -980 0
-34 735 736 -979 0
-34 735 736 -980 0
-33 -735 979 980 0
-33 -736 979 980 0
-34 -735 979 980 0
-34 -736 979 980 0
93 94 235 236 401 402 0
93 94 -235 -401 0
93 94 -235 -402 0
93 94 -236 -401 0
93 94 -236 -402 0
-93 235 236 -401 0
-93 235 236 -402 0
-94 235 236 -401 0
-94 235 236 -402 0
-93 -235 401 402 0
-93 -236 401 402 0
-94 -235 401 402 0
-94 -236 401 402 0
479 480 913 914 -993 0
479 480 913 914 -994 0
479 480 -913 993 994 0
479 480 -914 993 994 0
-479 913 914 993 994 0
-480 913 914 993 994 0
-479 -913 -993 0
-479 -913 -994 0
-479 -914 -993 0
-479 -914 -994 0
-480 -913 -993 0
-480 -913 -994 0
-480 -914 -993 0
-480 -914 -994 0
833 834 837 838 1011 1012 0
833 834 -837 -1011 0
833 834 -837 -1012 0
833 834 -838 -1011 0
833 834 -838 -1012 0
-833 837 838 -1011 0
-833 837 838 -1012 0
-834 837 838 -1011 0
-834 837 838 -1012 0
-833 -837 1011 1012 0
-833 -838 1011 1012 0
-834 -837 1011 1012 0
-834 -838 1011 1012 0
225 226 241 242 301 302 0
225 226 -241 -301 0
225 226 -241 -302 0
225 226 -242 -301 0
225 226 -242 -302 0
-225 241 242 -301 0
-225 241 242 -302 0
-226 241 242 -301 0
-226 241 242 -302 0
-225 -241 301 302 0
-225 -242 301 302 0
-226 -241 301 302 0
-226 -242 301 302 0
49 50 669 670 -989 0
49 50 669 670 -990 0
49 50 -669 989 990 0
49 50 -670 989 990 0
-49 669 670 989 990 0
-50 669 670 989 990 0
-49 -669 -989 0
-49 -669 -990 0
-49 -670 -989 0
-49 -670 -990 0
-50 -669 -989 0
-50 -669 -990 0
-50 -670 -989 0
-50 -670 -990 0
29 30 507 508 907 908 0
29 30 -507 -907 0
29 30 -507 -908 0
29 30 -508 -907 0
29 30 -508 -908 0
-29 507 508 -907 0
-29 507 508 -908 0
-30 507 508 -907 0
-30 507 508 -908 0
-29 -507 907 908 0
-29 -508 907 908 0
-30 -507 907 908 0
-30 -508 907 908 0
69 70 629 630 703 704 0
69 70 -629 -703 0
69 70 -629 -704 0
69 70 -630 -703 0
69 70 -630 -704 0
-69 629 630 -703 0
-69 629 630 -704 0
-70 629 630 -703 0
-70 629 630 -704 0
-69 -629 703 704 0
-69 -630 703 704 0
-70 -629 703 704 0
-70 -630 703 704 0
409 410 683 684 715 716 0
409 410 -683 -715 0
409 410 -683 -716 0
409 410 -684 -715 0
409 410 -684 -716 0
-409 683 684 -715 0
-409 683 684 -716 0
-410 683 684 -715 0
-410 683 684 -716 0
-409 -683 715 716 0
-409 -684 715 716 0
-410 -683 715 716 0
-410 -684 715 716 0
403 404 619 620 -1019 0
403 404 619 620 -1020 0
403 404 -619 1019 1020 0
403 404 -620 1019 1020 0
-403 619 620 1019 1020 0
-404 619 620 1019 1020 0
-403 -619 -1019 0
-403 -619 -1020 0
-403 -620 -1019 0
-403 -620 -1020 0
-404 -619 -1019 0
-404 -619 -1020 0
-404 -620 -1019 0
-404 -620 -1020 0
117 118 339 340 833 834 0
117 118 -339 -833 0
117 118 -339 -834 0
117 118 -340 -833 0
117 118 -340 -834 0
-117 339 340 -833 0
-117 339 340 -834 0
-118 339 340 -833 0
-118 339 340 -834 0
-117 -339 833 834 0
-117 -340 833 834 0
-118 -339 833 834 0
-118 -340 833 834 0
553 554 617 618 701 702 0
553 554 -617 -701 0
553 554 -617 -702 0
553 554 -618 -701 0
553 554 -618 -702 0
-553 617 618 -701 0
-553 617 618 -702 0
-554 617 618 -701 0
-554 617 618 -702 0
-553 -617 701 702 0
-553 -618 701 702 0
-554 -617 701 702 0
-554 -618 701 702 0
67 68 375 376 427 428 0
67 68 -375 -427 0
67 68 -375 -428 0
67 68 -376 -427 0
67 68 -376 -428 0
-67 375 376 -427 0
-67 375 376 -428 0
-68 375 376 -427 0
-68 375 376 -428 0
-67 -375 427 428 0
-67 -376 427 428 0
-68 -375 427 428 0
-68 -376 427 428 0
191 192 319 320 -803 0
191 192 319 320 -804 0
191 192 -319 803 804 0
191 192 -320 803 804 0
-191 319 320 803 804 0
-192 319 320 803 804 0
-191 -319 -803 0
-191 -319 -804 0
-191 -320 -803 0
-191 -320 -804 0
-192 -319 -803 0
-192 -319 -804 0
-192 -320 -803 0
-192 -320 -804 0
29 30 167 168 -637 0
29 30 167 168 -638 0
29 30 -167 637 638 0
29 30 -168 637 638 0
-29 167 168 637 638 0
-30 167 168 637 638 0
-29 -167 -637 0
-29 -167 -638 0
-29 -168 -637 0
-29 -168 -638 0
-30 -167 -637 0
-30 -167 -638 0
-30 -168 -637 0
-30 -168 -638 0
473 474 547 548 -783 0
473 474 547 548 -784 0
473 474 -547 783 784 0
473 474 -548 783 784 0
-473 547 548 783 784 0
-474 547 548 783 784 0
-473 -547 -783 0
-473 -547 -784 0
-473 -548 -783 0
-473 -548 -784 0
-474 -547 -783 0
-474 -547 -784 0
-474 -548 -783 0
-474 -548 -784 0
375 376 497 498 -695 0
375 376 497 498 -696 0
375 376 -497 695 696 0
375 376 -498 695 696 0
-375 497 498 695 696 0
-376 497 498 695 696 0
-375 -497 -695 0
-375 -497 -696 0
-375 -498 -695 0
-375 -498 -696 0
-376 -497 -695 0
-376 -497 -696 0
-376 -498 -695 0
-376 -498 -696 0
333 334 341 342 -573 0
333 334 341 342 -574 0
333 334 -341 573 574 0
333 334 -342 573 574 0
-333 341 342 573 574 0
-334 341 342 573 574 0
-333 -341 -573 0
-333 -341 -574 0
-333 -342 -573 0
-333 -342 -574 0
-334 -341 -573 0
-334 -341 -574 0
-334 -342 -573 0
-334 -342 -574 0
123 124 265 266 -639 0
123 124 265 266 -640 0
123 124 -265 639 640 0
123 124 -266 639 640 0
-123 265 266 639 640 0
-124 265 266 639 640 0
-123 -265 -639 0
-123 -265 -640 0
-123 -266 -639 0
-123 -266 -640 0
-124 -265 -639 0
-124 -265 -640 0
-124 -266 -639 0
-124 -266 -640 0
365 366 497 498 -847 0
365 366 497 498 -848 0
365 366 -497 847 848 0
365 366 -498 847 848 0
-365 497 498 847 848 0
-366 497 498 847 848 0
-365 -497 -847 0
-365 -497 -848 0
-365 -498 -847 0
-365 -498 -848 0
-366 -497 -847 0
-366 -497 -848 0
-366 -498 -847 0
-366 -498 -848 0
101 102 283 284 -729 0
101 102 283 284 -730 0
101 102 -283 729 730 0
101 102 -284 729 730 0
-101 283 284 729 730 0
-102 283 284 729 730 0
-101 -283 -729 0
-101 -283 -730 0
-101 -284 -729 0
-101 -284 -730 0
-102 -283 -729 0
-102 -283 -730 0
-102 -284 -729 0
-102 -284 -730 0
189 190 561 562 929 930 0
189 190 -561 -929 0
189 190 -561 -930 0
189 190 -562 -929 0
189 190 -562 -930 0
-189 561 562 -929 0
-189 561 562 -930 0
-190 561 562 -929 0
-190 561 562 -930 0
-189 -561 929 930 0
-189 -562 929 930 0
-190 -561 929 930 0
-190 -562 929 930 0
489 490 613 614 745 746 0
489 490 -613 -745 0
489 490 -613 -746 0
489 490 -614 -745 0
489 490 -614 -746 0
-489 613 614 -745 0
-489 613 614 -746 0
-490 613 614 -745 0
-490 613 614 -746 0
-489 -613 745 746 0
-489 -614 745 746 0
-490 -613 745 746 0
-490 -614 745 746 0
251 252 267 268 353 354 0
251 252 -267 -353 0
251 252 -267 -354 0
251 252 -268 -353 0
251 252 -268 -354 0
-251 267 268 -353 0
-251 267 268 -354 0
-252 267 268 -353 0
-252 267 268 -354 0
-251 -267 353 354 0
-251 -268 353 354 0
-252 -267 353 354 0
-252 -268 353 354 0
251 252 503 504 -769 0
251 252 503 504 -770 0
251 252 -503 769 770 0
251 252 -504 769 770 0
-251 503 504 769 770 0
-252 503 504 769 770 0
-251 -503 -769 0
-251 -503 -770 0
-251 -504 -769 0
-251 -504 -770 0
-252 -503 -769 0
-252 -503 -770 0
-252 -504 -769 0
-252 -504 -770 0
21 22 125 126 -629 0
21 22 125 126 -630 0
21 22 -125 629 630 0
21 22 -126 629 630 0
-21 125 126 629 630 0
-22 125 126 629 630 0
-21 -125 -629 0
-21 -125 -630 0
-21 -126 -629 0
-21 -126 -630 0
-22 -125 -629 0
-22 -125 -630 0
-22 -126 -629 0
-22 -126 -630 0
143 144 975 976 -1007 0
143 144 975 976 -1008 0
143 144 -975 1007 1008 0
143 144 -976 1007 1008 0
-143 975 976 1007 1008 0
-144 975 976 1007 1008 0
-143 -975 -1007 0
-143 -975 -1008 0
-143 -976 -1007 0
-143 -976 -1008 0
-144 -975 -1007 0
-144 -975 -1008 0
-144 -976 -1007 0
-144 -976 -1008 0
209 210 293 294 651 652 0
209 210 -293 -651 0
209 210 -293 -652 0
209 210 -294 -651 0
209 210 -294 -652 0
-209 293 294 -651 0
-209 293 294 -652 0
-210 293 294 -651 0
-210 293 294 -652 0
-209 -293 651 652 0
-209 -294 651 652 0
-210 -293 651 652 0
-210 -294 651 652 0
321 322 465 466 -951 0
321 322 465 466 -952 0
321 322 -465 951 952 0
321 322 -466 951 952 0
-321 465 466 951 952 0
-322 465 466 951 952 0
-321 -465 -951 0
-321 -465 -952 0
-321 -466 -951 0
-321 -466 -952 0
-322 -465 -951 0
-322 -465 -952 0
-322 -466 -951 0
-322 -466 -952 0
119 120 695 696 723 724 0
119 120 -695 -723 0
119 120 -695 -724 0
119 120 -696 -723 0
119 120 -696 -724 0
-119 695 696 -723 0
-119 695 696 -724 0
-120 695 696 -723 0
-120 695 696 -724 0
-119 -695 723 724 0
-119 -696 723 724 0
-120 -695 723 724 0
-120 -696 723 724 0
251 252 677 678 -751 0
251 252 677 678 -752 0
251 252 -677 751 752 0
251 252 -678 751 752 0
-251 677 678 751 752 0
-252 677 678 751 752 0
-251 -677 -751 0
-251 -677 -752 0
-251 -678 -751 0
-251 -678 -752 0
-252 -677 -751 0
-252 -677 -752 0
-252 -678 -751 0
-252 -678 -752 0
91 92 837 838 -905 0
91 92 837 838 -906 0
91 92 -837 905 906 0
91 92 -838 905 906 0
-91 837 838 905 906 0
-92 837 838 905 906 0
-91 -837 -905 0
-91 -837 -906 0
-91 -838 -905 0
-91 -838 -906 0
-92 -837 -905 0
-92 -837 -906 0
-92 -838 -905 0
-92 -838 -906 0
41 42 127 128 797 798 0
41 42 -127 -797 0
41 42 -127 -798 0
41 42 -128 -797 0
41 42 -128 -798 0
-41 127 128 -797 0
-41 127 128 -798 0
-42 127 128 -797 0
-42 127 128 -798 0
-41 -127 797 798 0
-41 -128 797 798 0
-42 -127 797 798 0
-42 -128 797 798 0
435 436 701 702 735 736 0
435 436 -701 -735 0
435 436 -701 -736 0
435 436 -702 -735 0
435 436 -702 -736 0
-435 701 702 -735 0
-435 701 702 -736 0
-436 701 702 -735 0
-436 701 702 -736 0
-435 -701 735 736 0
-435 -702 735 736 0
-436 -701 735 736 0
-436 -702 735 736 0
309 310 491 492 -1071 0
309 310 491 492 -1072 0
309 310 -491 1071 1072 0
309 310 -492 1071 1072 0
-309 491 492 1071 1072 0
-310 491 492 1071 1072 0
-309 -491 -1071 0
-309 -491 -1072 0
-309 -492 -1071 0
-309 -492 -1072 0
-310 -491 -1071 0
-310 -491 -1072 0
-310 -492 -1071 0
-310 -492 -1072 0
583 584 1011 1012 1015 1016 0
583 584 -1011 -1015 0
583 584 -1011 -1016 0
583 584 -1012 -1015 0
583 584 -1012 -1016 0
-583 1011 1012 -1015 0
-583 1011 1012 -1016 0
-584 1011 1012 -1015 0
-584 1011 1012 -1016 0
-583 -1011 1015 1016 0
-583 -1012 1015 1016 0
-584 -1011 1015 1016 0
-584 -1012 1015 1016 0
233 234 597 598 751 752 0
233 234 -597 -751 0
233 234 -597 -752 0
233 234 -598 -751 0
233 234 -598 -752 0
-233 597 598 -751 0
-233 597 598 -752 0
-234 597 598 -751 0
-234 597 598 -752 0
-233 -597 751 752 0
-233 -598 751 752 0
-234 -597 751 752 0
-234 -598 751 752 0
153 154 493 494 637 638 0
153 154 -493 -637 0
153 154 -493 -638 0
153 154 -494 -637 0
153 154 -494 -638 0
-153 493 494 -637 0
-153 493 494 -638 0
-154 493 494 -637 0
-154 493 494 -638 0
-153 -493 637 638 0
-153 -494 637 638 0
-154 -493 637 638 0
-154 -494 637 638 0
33 34 619 620 -861 0
33 34 619 620 -862 0
33 34 -619 861 862 0
33 34 -620 861 862 0
-33 619 620 861 862 0
-34 619 620 861 862 0
-33 -619 -861 0
-33 -619 -862 0
-33 -620 -861 0
-33 -620 -862 0
-34 -619 -861 0
-34 -619 -862 0
-34 -620 -861 0
-34 -620 -862 0
105 106 613 614 -755 0
105 106 613 614 -756 0
105 106 -613 755 756 0
105 106 -614 755 756 0
-105 613 614 755 756 0
-106 613 614 755 756 0
-105 -613 -755 0
-105 -613 -756 0
-105 -614 -755 0
-105 -614 -756 0
-106 -613 -755 0
-106 -613 -756 0
-106 -614 -755 0
-106 -614 -756 0
17 18 57 58 -525 0
17 18 57 58 -526 0
17 18 -57 525 526 0
17 18 -58 525 526 0
-17 57 58 525 526 0
-18 57 58 525 526 0
-17 -57 -525 0
-17 -57 -526 0
-17 -58 -525 0
-17 -58 -526 0
-18 -57 -525 0
-18 -57 -526 0
-18 -58 -525 0
-18 -58 -526 0
197 198 231 232 631 632 0
197 198 -231 -631 0
197 198 -231 -632 0
197 198 -232 -631 0
197 198 -232 -632 0
-197 231 232 -631 0
-197 231 232 -632 0
-198 231 232 -631 0
-198 231 232 -632 0
-197 -231 631 632 0
-197 -232 631 632 0
-198 -231 631 632 0
-198 -232 631 632 0
163 164 621 622 -865 0
163 164 621 622 -866 0
163 164 -621 865 866 0
163 164 -622 865 866 0
-163 621 622 865 866 0
-164 621 622 865 866 0
-163 -621 -865 0
-163 -621 -866 0
-163 -622 -865 0
-163 -622 -866 0
-164 -621 -865 0
-164 -621 -866 0
-164 -622 -865 0
-164 -622 -866 0
99 100 463 464 745 746 0
99 100 -463 -745 0
99 100 -463 -746 0
99 100 -464 -745 0
99 100 -464 -746 0
-99 463 464 -745 0
-99 463 464 -746 0
-100 463 464 -745 0
-100 463 464 -746 0
-99 -463 745 746 0
-99 -464 745 746 0
-100 -463 745 746 0
-100 -464 745 746 0
41 42 417 418 -535 0
41 42 417 418 -536 0
41 42 -417 535 536 0
41 42 -418 535 536 0
-41 417 418 535 536 0
-42 417 418 535 536 0
-41 -417 -535 0
-41 -417 -536 0
-41 -418 -535 0
-41 -418 -536 0
-42 -417 -535 0
-42 -417 -536 0
-42 -418 -535 0
-42 -418 -536 0
683 684 787 788 801 802 0
683 684 -787 -801 0
683 684 -787 -802 0
683 684 -788 -801 0
683 684 -788 -802 0
-683 787 788 -801 0
-683 787 788 -802 0
-684 787 788 -801 0
-684 787 788 -802 0
-683 -787 801 802 0
-683 -788 801 802 0
-684 -787 801 802 0
-684 -788 801 802 0
251 252 681 682 -831 0
251 252 681 682 -832 0
251 252 -681 831 832 0
251 252 -682 831 832 0
-251 681 682 831 832 0
-252 681 682 831 832 0
-251 -681 -831 0
-251 -681 -832 0
-251 -682 -831 0
-251 -682 -832 0
-252 -681 -831 0
-252 -681 -832 0
-252 -682 -831 0
-252 -682 -832 0
77 78 813 814 -891 0
77 78 813 814 -892 0
77 78 -813 891 892 0
77 78 -814 891 892 0
-77 813 814 891 892 0
-78 813 814 891 892 0
-77 -813 -891 0
-77 -813 -892 0
-77 -814 -891 0
-77 -814 -892 0
-78 -813 -891 0
-78 -813 -892 0
-78 -814 -891 0
-78 -814 -892 0
283 284 599 600 -665 0
283 284 599 600 -666 0
283 284 -599 665 666 0
283 284 -600 665 666 0
-283 599 600 665 666 0
-284 599 600 665 666 0
-283 -599 -665 0
-283 -599 -666 0
-283 -600 -665 0
-283 -600 -666 0
-284 -599 -665 0
-284 -599 -666 0
-284 -600 -665 0
-284 -600 -666 0
751 752 819 820 1037 1038 0
751 752 -819 -1037 0
751 752 -819 -1038 0
751 752 -820 -1037 0
751 752 -820 -1038 0
-751 819 820 -1037 0
-751 819 820 -1038 0
-752 819 820 -1037 0
-752 819 820 -1038 0
-751 -819 1037 1038 0
-751 -820 1037 1038 0
-752 -819 1037 1038 0
-752 -820 1037 1038 0
367 368 475 476 -541 0
367 368 475 476 -542 0
367 368 -475 541 542 0
367 368 -476 541 542 0
-367 475 476 541 542 0
-368 475 476 541 542 0
-367 -475 -541 0
-367 -475 -542 0
-367 -476 -541 0
-367 -476 -542 0
-368 -475 -541 0
-368 -475 -542 0
-368 -476 -541 0
-368 -476 -542 0
601 602 733 734 1041 1042 0
601 602 -733 -1041 0
601 602 -733 -1042 0
601 602 -734 -1041 0
601 602 -734 -1042 0
-601 733 734 -1041 0
-601 733 734 -1042 0
-602 733 734 -1041 0
-602 733 734 -1042 0
-601 -733 1041 1042 0
-601 -734 1041 1042 0
-602 -733 1041 1042 0
-602 -734 1041 1042 0
29 30 315 316 -431 0
29 30 315 316 -432 0
29 30 -315 431 432 0
29 30 -316 431 432 0
-29 315 316 431 432 0
-30 315 316 431 432 0
-29 -315 -431 0
-29 -315 -432 0
-29 -316 -431 0
-29 -316 -432 0
-30 -315 -431 0
-30 -315 -432 0
-30 -316 -431 0
-30 -316 -432 0
537 538 669 670 -913 0
537 538 669 670 -914 0
537 538 -669 913 914 0
537 538 -670 913 914 0
-537 669 670 913 914 0
-538 669 670 913 914 0
-537 -669 -913 0
-537 -669 -914 0
-537 -670 -913 0
-537 -670 -914 0
-538 -669 -913 0
-538 -669 -914 0
-538 -670 -913 0
-538 -670 -914 0
19 20 119 120 215 216 0
19 20 -119 -215 0
19 20 -119 -216 0
19 20 -120 -215 0
19 20 -120 -216 0
-19 119 120 -215 0
-19 119 120 -216 0
-20 119 120 -215 0
-20 119 120 -216 0
-19 -119 215 216 0
-19 -120 215 216 0
-20 -119 215 216 0
-20 -120 215 216 0
125 126 325 326 565 566 0
125 126 -325 -565 0
125 126 -325 -566 0
125 126 -326 -565 0
125 126 -326 -566 0
-125 325 326 -565 0
-125 325 326 -566 0
-126 325 326 -565 0
-126 325 326 -566 0
-125 -325 565 566 0
-125 -326 565 566 0
-126 -325 565 566 0
-126 -326 565 566 0
199 200 515 516 769 770 0
199 200 -515 -769 0
199 200 -515 -770 0
199 200 -516 -769 0
199 200 -516 -770 0
-199 515 516 -769 0
-199 515 516 -770 0
-200 515 516 -769 0
-200 515 516 -770 0
-199 -515 769 770 0
-199 -516 769 770 0
-200 -515 769 770 0
-200 -516 769 770 0
601 602 713 714 929 930 0
601 602 -713 -929 0
601 602 -713 -930 0
601 602 -714 -929 0
601 602 -714 -930 0
-601 713 714 -929 0
-601 713 714 -930 0
-602 713 714 -929 0
-602 713 714 -930 0
-601 -713 929 930 0
-601 -714 929 930 0
-602 -713 929 930 0
-602 -714 929 930 0
65 66 181 182 -249 0
65 66 181 182 -250 0
65 66 -181 249 250 0
65 66 -182 249 250 0
-65 181 182 249 250 0
-66 181 182 249 250 0
-65 -181 -249 0
-65 -181 -250 0
-65 -182 -249 0
-65 -182 -250 0
-66 -181 -249 0
-66 -181 -250 0
-66 -182 -249 0
-66 -182 -250 0
543 544 559 560 -625 0
543 544 559 560 -626 0
543 544 -559 625 626 0
543 544 -560 625 626 0
-543 559 560 625 626 0
-544 559 560 625 626 0
-543 -559 -625 0
-543 -559 -626 0
-543 -560 -625 0
-543 -560 -626 0
-544 -559 -625 0
-544 -559 -626 0
-544 -560 -625 0
-544 -560 -626 0
225 226 899 900 -939 0
225 226 899 900 -940 0
225 226 -899 939 940 0
225 226 -900 939 940 0
-225 899 900 939 940 0
-226 899 900 939 940 0
-225 -899 -939 0
-225 -899 -940 0
-225 -900 -939 0
-225 -900 -940 0
-226 -899 -939 0
-226 -899 -940 0
-226 -900 -939 0
-226 -900 -940 0
199 200 307 308 -577 0
199 200 307 308 -578 0
199 200 -307 577 578 0
199 200 -308 577 578 0
-199 307 308 577 578 0
-200 307 308 577 578 0
-199 -307 -577 0
-199 -307 -578 0
-199 -308 -577 0
-199 -308 -578 0
-200 -307 -577 0
-200 -307 -578 0
-200 -308 -577 0
-200 -308 -578 0
119 120 537 538 625 626 0
119 120 -537 -625 0
119 120 -537 -626 0
119 120 -538 -625 0
119 120 -538 -626 0
-119 537 538 -625 0
-119 537 538 -626 0
-120 537 538 -625 0
-120 537 538 -626 0
-119 -537 625 626 0
-119 -538 625 626 0
-120 -537 625 626 0
-120 -538 625 626 0
39 40 577 578 771 772 0
39 40 -577 -771 0
39 40 -577 -772 0
39 40 -578 -771 0
39 40 -578 -772 0
-39 577 578 -771 0
-39 577 578 -772 0
-40 577 578 -771 0
-40 577 578 -772 0
-39 -577 771 772 0
-39 -578 771 772 0
-40 -577 771 772 0
-40 -578 771 772 0
47 48 549 550 1077 1078 0
47 48 -549 -1077 0
47 48 -549 -1078 0
47 48 -550 -1077 0
47 48 -550 -1078 0
-47 549 550 -1077 0
-47 549 550 -1078 0
-48 549 550 -1077 0
-48 549 550 -1078 0
-47 -549 1077 1078 0
-47 -550 1077 1078 0
-48 -549 1077 1078 0
-48 -550 1077 1078 0
43 44 943 944 -1029 0
43 44 943 944 -1030 0
43 44 -943 1029 1030 0
43 44 -944 1029 1030 0
-43 943 944 1029 1030 0
-44 943 944 1029 1030 0
-43 -943 -1029 0
-43 -943 -1030 0
-43 -944 -1029 0
-43 -944 -1030 0
-44 -943 -1029 0
-44 -943 -1030 0
-44 -944 -1029 0
-44 -944 -1030 0
75 76 349 350 781 782 0
75 76 -349 -781 0
75 76 -349 -782 0
75 76 -350 -781 0
75 76 -350 -782 0
-75 349 350 -781 0
-75 349 350 -782 0
-76 349 350 -781 0
-76 349 350 -782 0
-75 -349 781 782 0
-75 -350 781 782 0
-76 -349 781 782 0
-76 -350 781 782 0
139 140 715 716 981 982 0
139 140 -715 -981 0
139 140 -715 -982 0
139 140 -716 -981 0
139 140 -716 -982 0
-139 715 716 -981 0
-139 715 716 -982 0
-140 715 716 -981 0
-140 715 716 -982 0
-139 -715 981 982 0
-139 -716 981 982 0
-140 -715 981 982 0
-140 -716 981 982 0
361 362 641 642 -985 0
361 362 641 642 -986 0
361 362 -641 985 986 0
361 362 -642 985 986 0
-361 641 642 985 986 0
-362 641 642 985 986 0
-361 -641 -985 0
-361 -641 -986 0
-361 -642 -985 0
-361 -642 -986 0
-362 -641 -985 0
-362 -641 -986 0
-362 -642 -985 0
-362 -642 -986 0
215 216 723 724 1009 1010 0
215 216 -723 -1009 0
215 216 -723 -1010 0
215 216 -724 -1009 0
215 216 -724 -1010 0
-215 723 724 -1009 0
-215 723 724 -1010 0
-216 723 724 -1009 0
-216 723 724 -1010 0
-215 -723 1009 1010 0
-215 -724 1009 1010 0
-216 -723 1009 1010 0
-216 -724 1009 1010 0
139 140 407 408 -457 0
139 140 407 408 -458 0
139 140 -407 457 458 0
139 140 -408 457 458 0
-139 407 408 457 458 0
-140 407 408 457 458 0
-139 -407 -457 0
-139 -407 -458 0
-139 -408 -457 0
-139 -408 -458 0
-140 -407 -457 0
-140 -407 -458 0
-140 -408 -457 0
-140 -408 -458 0
189 190 269 270 -383 0
189 190 269 270 -384 0
189 190 -269 383 384 0
189 190 -270 383 384 0
-189 269 270 383 384 0
-190 269 270 383 384 0
-189 -269 -383 0
-189 -269 -384 0
-189 -270 -383 0
-189 -270 -384 0
-190 -269 -383 0
-190 -269 -384 0
-190 -270 -383 0
-190 -270 -384 0
227 228 259 260 -715 0
227 228 259 260 -716 0
227 228 -259 715 716 0
227 228 -260 715 716 0
-227 259 260 715 716 0
-228 259 260 715 716 0
-227 -259 -715 0
-227 -259 -716 0
-227 -260 -715 0
-227 -260 -716 0
-228 -259 -715 0
-228 -259 -716 0
-228 -260 -715 0
-228 -260 -716 0
51 52 801 802 849 850 0
51 52 -801 -849 0
51 52 -801 -850 0
51 52 -802 -849 0
51 52 -802 -850 0
-51 801 802 -849 0
-51 801 802 -850 0
-52 801 802 -849 0
-52 801 802 -850 0
-51 -801 849 850 0
-51 -802 849 850 0
-52 -801 849 850 0
-52 -802 849 850 0
39 40 709 710 -843 0
39 40 709 710 -844 0
39 40 -709 843 844 0
39 40 -710 843 844 0
-39 709 710 843 844 0
-40 709 710 843 844 0
-39 -709 -843 0
-39 -709 -844 0
-39 -710 -843 0
-39 -710 -844 0
-40 -709 -843 0
-40 -709 -844 0
-40 -710 -843 0
-40 -710 -844 0
183 184 227 228 685 686 0
183 184 -227 -685 0
183 184 -227 -686 0
183 184 -228 -685 0
183 184 -228 -686 0
-183 227 228 -685 0
-183 227 228 -686 0
-184 227 228 -685 0
-184 227 228 -686 0
-183 -227 685 686 0
-183 -228 685 686 0
-184 -227 685 686 0
-184 -228 685 686 0
189 190 319 320 -773 0
189 190 319 320 -774 0
189 190 -319 773 774 0
189 190 -320 773 774 0
-189 319 320 773 774 0
-190 319 320 773 774 0
-189 -319 -773 0
-189 -319 -774 0
-189 -320 -773 0
-189 -320 -774 0
-190 -319 -773 0
-190 -319 -774 0
-190 -320 -773 0
-190 -320 -774 0
309 310 777 778 1049 1050 0
309 310 -777 -1049 0
309 310 -777 -1050 0
309 310 -778 -1049 0
309 310 -778 -1050 0
-309 777 778 -1049 0
-309 777 778 -1050 0
-310 777 778 -1049 0
-310 777 778 -1050 0
-309 -777 1049 1050 0
-309 -778 1049 1050 0
-310 -777 1049 1050 0
-310 -778 1049 1050 0
345 346 559 560 593 594 0
345 346 -559 -593 0
345 346 -559 -594 0
345 346 -560 -593 0
345 346 -560 -594 0
-345 559 560 -593 0
-345 559 560 -594 0
-346 559 560 -593 0
-346 559 560 -594 0
-345 -559 593 594 0
-345 -560 593 594 0
-346 -559 593 594 0
-346 -560 593 594 0
275 276 473 474 835 836 0
275 276 -473 -835 0
275 276 -473 -836 0
275 276 -474 -835 0
275 276 -474 -836 0
-275 473 474 -835 0
-275 473 474 -836 0
-276 473 474 -835 0
-276 473 474 -836 0
-275 -473 835 836 0
-275 -474 835 836 0
-276 -473 835 836 0
-276 -474 835 836 0
305 306 479 480 -579 0
305 306 479 480 -580 0
305 306 -479 579 580 0
305 306 -480 579 580 0
-305 479 480 579 580 0
-306 479 480 579 580 0
-305 -479 -579 0
-305 -479 -580 0
-305 -480 -579 0
-305 -480 -580 0
-306 -479 -579 0
-306 -479 -580 0
-306 -480 -579 0
-306 -480 -580 0
569 570 655 656 845 846 0
569 570 -655 -845 0
569 570 -655 -846 0
569 570 -656 -845 0
569 570 -656 -846 0
-569 655 656 -845 0
-569 655 656 -846 0
-570 655 656 -845 0
-570 655 656 -846 0
-569 -655 845 846 0
-569 -656 845 846 0
-570 -655 845 846 0
-570 -656 845 846 0
393 394 815 816 993 994 0
393 394 -815 -993 0
393 394 -815 -994 0
393 394 -816 -993 0
393 394 -816 -994 0
-393 815 816 -993 0
-393 815 816 -994 0
-394 815 816 -993 0
-394 815 816 -994 0
-393 -815 993 994 0
-393 -816 993 994 0
-394 -815 993 994 0
-394 -816 993 994 0
619 620 665 666 -797 0
619 620 665 666 -798 0
619 620 -665 797 798 0
619 620 -666 797 798 0
-619 665 666 797 798 0
-620 665 666 797 798 0
-619 -665 -797 0
-619 -665 -798 0
-619 -666 -797 0
-619 -666 -798 0
-620 -665 -797 0
-620 -665 -798 0
-620 -666 -797 0
-620 -666 -798 0
31 32 471 472 1007 1008 0
31 32 -471 -1007 0
31 32 -471 -1008 0
31 32 -472 -1007 0
31 32 -472 -1008 0
-31 471 472 -1007 0
-31 471 472 -1008 0
-32 471 472 -1007 0
-32 471 472 -1008 0
-31 -471 1007 1008 0
-31 -472 1007 1008 0
-32 -471 1007 1008 0
-32 -472 1007 1008 0
213 214 509 510 -811 0
213 214 509 510 -812 0
213 214 -509 811 812 0
213 214 -510 811 812 0
-213 509 510 811 812 0
-214 509 510 811 812 0
-213 -509 -811 0
-213 -509 -812 0
-213 -510 -811 0
-213 -510 -812 0
-214 -509 -811 0
-214 -509 -812 0
-214 -510 -811 0
-214 -510 -812 0
731 732 809 810 -869 0
731 732 809 810 -870 0
731 732 -809 869 870 0
731 732 -810 869 870 0
-731 809 810 869 870 0
-732 809 810 869 870 0
-731 -809 -869 0
-731 -809 -870 0
-731 -810 -869 0
-731 -810 -870 0
-732 -809 -869 0
-732 -809 -870 0
-732 -810 -869 0
-732 -810 -870 0
249 250 459 460 -675 0
249 250 459 460 -676 0
249 250 -459 675 676 0
249 250 -460 675 676 0
-249 459 460 675 676 0
-250 459 460 675 676 0
-249 -459 -675 0
-249 -459 -676 0
-249 -460 -675 0
-249 -460 -676 0
-250 -459 -675 0
-250 -459 -676 0
-250 -460 -675 0
-250 -460 -676 0
205 206 669 670 -987 0
205 206 669 670 -988 0
205 206 -669 987 988 0
205 206 -670 987 988 0
-205 669 670 987 988 0
-206 669 670 987 988 0
-205 -669 -987 0
-205 -669 -988 0
-205 -670 -987 0
-205 -670 -988 0
-206 -669 -987 0
-206 -669 -988 0
-206 -670 -987 0
-206 -670 -988 0
341 342 501 502 821 822 0
341 342 -501 -821 0
341 342 -501 -822 0
341 342 -502 -821 0
341 342 -502 -822 0
-341 501 502 -821 0
-341 501 502 -822 0
-342 501 502 -821 0
-342 501 502 -822 0
-341 -501 821 822 0
-341 -502 821 822 0
-342 -501 821 822 0
-342 -502 821 822 0
25 26 243 244 703 704 0
25 26 -243 -703 0
25 26 -243 -704 0
25 26 -244 -703 0
25 26 -244 -704 0
-25 243 244 -703 0
-25 243 244 -704 0
-26 243 244 -703 0
-26 243 244 -704 0
-25 -243 703 704 0
-25 -244 703 704 0
-26 -243 703 704 0
-26 -244 703 704 0
371 372 969 970 -1037 0
371 372 969 970 -1038 0
371 372 -969 1037 1038 0
371 372 -970 1037 1038 0
-371 969 970 1037 1038 0
-372 969 970 1037 1038 0
-371 -969 -1037 0
-371 -969 -1038 0
-371 -970 -1037 0
-371 -970 -1038 0
-372 -969 -1037 0
-372 -969 -1038 0
-372 -970 -1037 0
-372 -970 -1038 0
639 640 827 828 -1079 0
639 640 827 828 -1080 0
639 640 -827 1079 1080 0
639 640 -828 1079 1080 0
-639 827 828 1079 1080 0
-640 827 828 1079 1080 0
-639 -827 -1079 0
-639 -827 -1080 0
-639 -828 -1079 0
-639 -828 -1080 0
-640 -827 -1079 0
-640 -827 -1080 0
-640 -828 -1079 0
-640 -828 -1080 0
199 200 871 872 -993 0
199 200 871 872 -994 0
199 200 -871 993 994 0
199 200 -872 993 994 0
-199 871 872 993 994 0
-200 871 872 993 994 0
-199 -871 -993 0
-199 -871 -994 0
-199 -872 -993 0
-199 -872 -994 0
-200 -871 -993 0
-200 -871 -994 0
-200 -872 -993 0
-200 -872 -994 0
267 268 437 438 877 878 0
267 268 -437 -877 0
267 268 -437 -878 0
267 268 -438 -877 0
267 268 -438 -878 0
-267 437 438 -877 0
-267 437 438 -878 0
-268 437 438 -877 0
-268 437 438 -878 0
-267 -437 877 878 0
-267 -438 877 878 0
-268 -437 877 878 0
-268 -438 877 878 0
95 96 337 338 537 538 0
95 96 -337 -537 0
95 96 -337 -538 0
95 96 -338 -537 0
95 96 -338 -538 0
-95 337 338 -537 0
-95 337 338 -538 0
-96 337 338 -537 0
-96 337 338 -538 0
-95 -337 537 538 0
-95 -338 537 538 0
-96 -337 537 538 0
-96 -338 537 538 0
135 136 917 918 981 982 0
135 136 -917 -981 0
135 136 -917 -982 0
135 136 -918 -981 0
135 136 -918 -982 0
-135 917 918 -981 0
-135 917 918 -982 0
-136 917 918 -981 0
-136 917 918 -982 0
-135 -917 981 982 0
-135 -918 981 982 0
-136 -917 981 982 0
-136 -918 981 982 0
79 80 655 656 839 840 0
79 80 -655 -839 0
79 80 -655 -840 0
79 80 -656 -839 0
79 80 -656 -840 0
-79 655 656 -839 0
-79 655 656 -840 0
-80 655 656 -839 0
-80 655 656 -840 0
-79 -655 839 840 0
-79 -656 839 840 0
-80 -655 839 840 0
-80 -656 839 840 0
367 368 691 692 -907 0
367 368 691 692 -908 0
367 368 -691 907 908 0
367 368 -692 907 908 0
-367 691 692 907 908 0
-368 691 692 907 908 0
-367 -691 -907 0
-367 -691 -908 0
-367 -692 -907 0
-367 -692 -908 0
-368 -691 -907 0
-368 -691 -908 0
-368 -692 -907 0
-368 -692 -908 0
113 114 207 208 619 620 0
113 114 -207 -619 0
113 114 -207 -620 0
113 114 -208 -619 0
113 114 -208 -620 0
-113 207 208 -619 0
-113 207 208 -620 0
-114 207 208 -619 0
-114 207 208 -620 0
-113 -207 619 620 0
-113 -208 619 620 0
-114 -207 619 620 0
-114 -208 619 620 0
401 402 495 496 675 676 0
401 402 -495 -675 0
401 402 -495 -676 0
401 402 -496 -675 0
401 402 -496 -676 0
-401 495 496 -675 0
-401 495 496 -676 0
-402 495 496 -675 0
-402 495 496 -676 0
-401 -495 675 676 0
-401 -496 675 676 0
-402 -495 675 676 0
-402 -496 675 676 0
15 16 499 500 1075 1076 0
15 16 -499 -1075 0
15 16 -499 -1076 0
15 16 -500 -1075 0
15 16 -500 -1076 0
-15 499 500 -1075 0
-15 499 500 -1076 0
-16 499 500 -1075 0
-16 499 500 -1076 0
-15 -499 1075 1076 0
-15 -500 1075 1076 0
-16 -499 1075 1076 0
-16 -500 1075 1076 0
11 12 121 122 -305 0
11 12 121 122 -306 0
11 12 -121 305 306 0
11 12 -122 305 306 0
-11 121 122 305 306 0
-12 121 122 305 306 0
-11 -121 -305 0
-11 -121 -306 0
-11 -122 -305 0
-11 -122 -306 0
-12 -121 -305 0
-12 -121 -306 0
-12 -122 -305 0
-12 -122 -306 0
41 42 519 520 827 828 0
41 42 -519 -827 0
41 42 -519 -828 0
41 42 -520 -827 0
41 42 -520 -828 0
-41 519 520 -827 0
-41 519 520 -828 0
-42 519 520 -827 0
-42 519 520 -828 0
-41 -519 827 828 0
-41 -520 827 828 0
-42 -519 827 828 0
-42 -520 827 828 0
119 120 171 172 -291 0
119 120 171 172 -292 0
119 120 -171 291 292 0
119 120 -172 291 292 0
-119 171 172 291 292 0
-120 171 172 291 292 0
-119 -171 -291 0
-119 -171 -292 0
-119 -172 -291 0
-119 -172 -292 0
-120 -171 -291 0
-120 -171 -292 0
-120 -172 -291 0
-120 -172 -292 0
121 122 469 470 957 958 0
121 122 -469 -957 0
121 122 -469 -958 0
121 122 -470 -957 0
121 122 -470 -958 0
-121 469 470 -957 0
-121 469 470 -958 0
-122 469 470 -957 0
-122 469 470 -958 0
-121 -469 957 958 0
-121 -470 957 958 0
-122 -469 957 958 0
-122 -470 957 958 0
115 116 739 740 783 784 0
115 116 -739 -783 0
115 116 -739 -784 0
115 116 -740 -783 0
115 116 -740 -784 0
-115 739 740 -783 0
-115 739 740 -784 0
-116 739 740 -783 0
-116 739 740 -784 0
-115 -739 783 784 0
-115 -740 783 784 0
-116 -739 783 784 0
-116 -740 783 784 0
641 642 671 672 -733 0
641 642 671 672 -734 0
641 642 -671 733 734 0
641 642 -672 733 734 0
-641 671 672 733 734 0
-642 671 672 733 734 0
-641 -671 -733 0
-641 -671 -734 0
-641 -672 -733 0
-641 -672 -734 0
-642 -671 -733 0
-642 -671 -734 0
-642 -672 -733 0
-642 -672 -734 0
711 712 745 746 -923 0
711 712 745 746 -924 0
711 712 -745 923 924 0
711 712 -746 923 924 0
-711 745 746 923 924 0
-712 745 746 923 924 0
-711 -745 -923 0
-711 -745 -924 0
-711 -746 -923 0
-711 -746 -924 0
-712 -745 -923 0
-712 -745 -924 0
-712 -746 -923 0
-712 -746 -924 0
119 120 313 314 985 986 0
119 120 -313 -985 0
119 120 -313 -986 0
119 120 -314 -985 0
119 120 -314 -986 0
-119 313 314 -985 0
-119 313 314 -986 0
-120 313 314 -985 0
-120 313 314 -986 0
-119 -313 985 986 0
-119 -314 985 986 0
-120 -313 985 986 0
-120 -314 985 986 0
211 212 589 590 -697 0
211 212 589 590 -698 0
211 212 -589 697 698 0
211 212 -590 697 698 0
-211 589 590 697 698 0
-212 589 590 697 698 0
-211 -589 -697 0
-211 -589 -698 0
-211 -590 -697 0
-211 -590 -698 0
-212 -589 -697 0
-212 -589 -698 0
-212 -590 -697 0
-212 -590 -698 0
65 66 227 228 795 796 0
65 66 -227 -795 0
65 66 -227 -796 0
65 66 -228 -795 0
65 66 -228 -796 0
-65 227 228 -795 0
-65 227 228 -796 0
-66 227 228 -795 0
-66 227 228 -796 0
-65 -227 795 796 0
-65 -228 795 796 0
-66 -227 795 796 0
-66 -228 795 796 0
435 436 867 868 -917 0
435 436 867 868 -918 0
435 436 -867 917 918 0
435 436 -868 917 918 0
-435 867 868 917 918 0
-436 867 868 917 918 0
-435 -867 -917 0
-435 -867 -918 0
-435 -868 -917 0
-435 -868 -918 0
-436 -867 -917 0
-436 -867 -918 0
-436 -868 -917 0
-436 -868 -918 0
51 52 215 216 -987 0
51 52 215 216 -988 0
51 52 -215 987 988 0
51 52 -216 987 988 0
-51 215 216 987 988 0
-52 215 216 987 988 0
-51 -215 -987 0
-51 -215 -988 0
-51 -216 -987 0
-51 -216 -988 0
-52 -215 -987 0
-52 -215 -988 0
-52 -216 -987 0
-52 -216 -988 0
159 160 173 174 -893 0
159 160 173 174 -894 0
159 160 -173 893 894 0
159 160 -174 893 894 0
-159 173 174 893 894 0
-160 173 174 893 894 0
-159 -173 -893 0
-159 -173 -894 0
-159 -174 -893 0
-159 -174 -894 0
-160 -173 -893 0
-160 -173 -894 0
-160 -174 -893 0
-160 -174 -894 0
75 76 417 418 443 444 0
75 76 -417 -443 0
75 76 -417 -444 0
75 76 -418 -443 0
75 76 -418 -444 0
-75 417 418 -443 0
-75 417 418 -444 0
-76 417 418 -443 0
-76 417 418 -444 0
-75 -417 443 444 0
-75 -418 443 444 0
-76 -417 443 444 0
-76 -418 443 444 0
171 172 667 668 -699 0
171 172 667 668 -700 0
171 172 -667 699 700 0
171 172 -668 699 700 0
-171 667 668 699 700 0
-172 667 668 699 700 0
-171 -667 -699 0
-171 -667 -700 0
-171 -668 -699 0
-171 -668 -700 0
-172 -667 -699 0
-172 -667 -700 0
-172 -668 -699 0
-172 -668 -700 0
203 204 321 322 353 354 0
203 204 -321 -353 0
203 204 -321 -354 0
203 204 -322 -353 0
203 204 -322 -354 0
-203 321 322 -353 0
-203 321 322 -354 0
-204 321 322 -353 0
-204 321 322 -354 0
-203 -321 353 354 0
-203 -322 353 354 0
-204 -321 353 354 0
-204 -322 353 354 0
27 28 481 482 -505 0
27 28 481 482 -506 0
27 28 -481 505 506 0
27 28 -482 505 506 0
-27 481 482 505 506 0
-28 481 482 505 506 0
-27 -481 -505 0
-27 -481 -506 0
-27 -482 -505 0
-27 -482 -506 0
-28 -481 -505 0
-28 -481 -506 0
-28 -482 -505 0
-28 -482 -506 0
69 70 819 820 943 944 0
69 70 -819 -943 0
69 70 -819 -944 0
69 70 -820 -943 0
69 70 -820 -944 0
-69 819 820 -943 0
-69 819 820 -944 0
-70 819 820 -943 0
-70 819 820 -944 0
-69 -819 943 944 0
-69 -820 943 944 0
-70 -819 943 944 0
-70 -820 943 944 0
543 544 765 766 -869 0
543 544 765 766 -870 0
543 544 -765 869 870 0
543 544 -766 869 870 0
-543 765 766 869 870 0
-544 765 766 869 870 0
-543 -765 -869 0
-543 -765 -870 0
-543 -766 -869 0
-543 -766 -870 0
-544 -765 -869 0
-544 -765 -870 0
-544 -766 -869 0
-544 -766 -870 0
153 154 165 166 -287 0
153 154 165 166 -288 0
153 154 -165 287 288 0
153 154 -166 287 288 0
-153 165 166 287 288 0
-154 165 166 287 288 0
-153 -165 -287 0
-153 -165 -288 0
-153 -166 -287 0
-153 -166 -288 0
-154 -165 -287 0
-154 -165 -288 0
-154 -166 -287 0
-154 -166 -288 0
3 4 23 24 -827 0
3 4 23 24 -828 0
3 4 -23 827 828 0
3 4 -24 827 828 0
-3 23 24 827 828 0
-4 23 24 827 828 0
-3 -23 -827 0
-3 -23 -828 0
-3 -24 -827 0
-3 -24 -828 0
-4 -23 -827 0
-4 -23 -828 0
-4 -24 -827 0
-4 -24 -828 0
9 10 185 186 723 724 0
9 10 -185 -723 0
9 10 -185 -724 0
9 10 -186 -723 0
9 10 -186 -724 0
-9 185 186 -723 0
-9 185 186 -724 0
-10 185 186 -723 0
-10 185 186 -724 0
-9 -185 723 724 0
-9 -186 723 724 0
-10 -185 723 724 0
-10 -186 723 724 0
15 16 455 456 -583 0
15 16 455 456 -584 0
15 16 -455 583 584 0
15 16 -456 583 584 0
-15 455 456 583 584 0
-16 455 456 583 584 0
-15 -455 -583 0
-15 -455 -584 0
-15 -456 -583 0
-15 -456 -584 0
-16 -455 -583 0
-16 -455 -584 0
-16 -456 -583 0
-16 -456 -584 0
103 104 181 182 357 358 0
103 104 -181 -357 0
103 104 -181 -358 0
103 104 -182 -357 0
103 104 -182 -358 0
-103 181 182 -357 0
-103 181 182 -358 0
-104 181 182 -357 0
-104 181 182 -358 0
-103 -181 357 358 0
-103 -182 357 358 0
-104 -181 357 358 0
-104 -182 357 358 0
495 496 595 596 637 638 0
495 496 -595 -637 0
495 496 -595 -638 0
495 496 -596 -637 0
495 496 -596 -638 0
-495 595 596 -637 0
-495 595 596 -638 0
-496 595 596 -637 0
-496 595 596 -638 0
-495 -595 637 638 0
-495 -596 637 638 0
-496 -595 637 638 0
-496 -596 637 638 0
65 66 671 672 -1031 0
65 66 671 672 -1032 0
65 66 -671 1031 1032 0
65 66 -672 1031 1032 0
-65 671 672 1031 1032 0
-66 671 672 1031 1032 0
-65 -671 -1031 0
-65 -671 -1032 0
-65 -672 -1031 0
-65 -672 -1032 0
-66 -671 -1031 0
-66 -671 -1032 0
-66 -672 -1031 0
-66 -672 -1032 0
307 308 485 486 691 692 0
307 308 -485 -691 0
307 308 -485 -692 0
307 308 -486 -691 0
307 308 -486 -692 0
-307 485 486 -691 0
-307 485 486 -692 0
-308 485 486 -691 0
-308 485 486 -692 0
-307 -485 691 692 0
-307 -486 691 692 0
-308 -485 691 692 0
-308 -486 691 692 0
231 232 423 424 915 916 0
231 232 -423 -915 0
231 232 -423 -916 0
231 232 -424 -915 0
231 232 -424 -916 0
-231 423 424 -915 0
-231 423 424 -916 0
-232 423 424 -915 0
-232 423 424 -916 0
-231 -423 915 916 0
-231 -424 915 916 0
-232 -423 915 916 0
-232 -424 915 916 0
573 574 681 682 697 698 0
573 574 -681 -697 0
573 574 -681 -698 0
573 574 -682 -697 0
573 574 -682 -698 0
-573 681 682 -697 0
-573 681 682 -698 0
-574 681 682 -697 0
-574 681 682 -698 0
-573 -681 697 698 0
-573 -682 697 698 0
-574 -681 697 698 0
-574 -682 697 698 0
99 100 115 116 193 194 0
99 100 -115 -193 0
99 100 -115 -194 0
99 100 -116 -193 0
99 100 -116 -194 0
-99 115 116 -193 0
-99 115 116 -194 0
-100 115 116 -193 0
-100 115 116 -194 0
-99 -115 193 194 0
-99 -116 193 194 0
-100 -115 193 194 0
-100 -116 193 194 0
9 10 239 240 995 996 0
9 10 -239 -995 0
9 10 -239 -996 0
9 10 -240 -995 0
9 10 -240 -996 0
-9 239 240 -995 0
-9 239 240 -996 0
-10 239 240 -995 0
-10 239 240 -996 0
-9 -239 995 996 0
-9 -240 995 996 0
-10 -239 995 996 0
-10 -240 995 996 0
237 238 447 448 831 832 0
237 238 -447 -831 0
237 238 -447 -832 0
237 238 -448 -831 0
237 238 -448 -832 0
-237 447 448 -831 0
-237 447 448 -832 0
-238 447 448 -831 0
-238 447 448 -832 0
-237 -447 831 832 0
-237 -448 831 832 0
-238 -447 831 832 0
-238 -448 831 832 0
525 526 595 596 1013 1014 0
525 526 -595 -1013 0
525 526 -595 -1014 0
525 526 -596 -1013 0
525 526 -596 -1014 0
-525 595 596 -1013 0
-525 595 596 -1014 0
-526 595 596 -1013 0
-526 595 596 -1014 0
-525 -595 1013 1014 0
-525 -596 1013 1014 0
-526 -595 1013 1014 0
-526 -596 1013 1014 0
625 626 793 794 1005 1006 0
625 626 -793 -1005 0
625 626 -793 -1006 0
625 626 -794 -1005 0
625 626 -794 -1006 0
-625 793 794 -1005 0
-625 793 794 -1006 0
-626 793 794 -1005 0
-626 793 794 -1006 0
-625 -793 1005 1006 0
-625 -794 1005 1006 0
-626 -793 1005 1006 0
-626 -794 1005 1006 0
59 60 905 906 -1075 0
59 60 905 906 -1076 0
59 60 -905 1075 1076 0
59 60 -906 1075 1076 0
-59 905 906 1075 1076 0
-60 905 906 1075 1076 0
-59 -905 -1075 0
-59 -905 -1076 0
-59 -906 -1075 0
-59 -906 -1076 0
-60 -905 -1075 0
-60 -905 -1076 0
-60 -906 -1075 0
-60 -906 -1076 0
79 80 213 214 -539 0
79 80 213 214 -540 0
79 80 -213 539 540 0
79 80 -214 539 540 0
-79 213 214 539 540 0
-80 213 214 539 540 0
-79 -213 -539 0
-79 -213 -540 0
-79 -214 -539 0
-79 -214 -540 0
-80 -213 -539 0
-80 -213 -540 0
-80 -214 -539 0
-80 -214 -540 0
49 50 647 648 851 852 0
49 50 -647 -851 0
49 50 -647 -852 0
49 50 -648 -851 0
49 50 -648 -852 0
-49 647 648 -851 0
-49 647 648 -852 0
-50 647 648 -851 0
-50 647 648 -852 0
-49 -647 851 852 0
-49 -648 851 852 0
-50 -647 851 852 0
-50 -648 851 852 0
5 6 745 746 829 830 0
5 6 -745 -829 0
5 6 -745 -830 0
5 6 -746 -829 0
5 6 -746 -830 0
-5 745 746 -829 0
-5 745 746 -830 0
-6 745 746 -829 0
-6 745 746 -830 0
-5 -745 829 830 0
-5 -746 829 830 0
-6 -745 829 830 0
-6 -746 829 830 0
39 40 227 228 -481 0
39 40 227 228 -482 0
39 40 -227 481 482 0
39 40 -228 481 482 0
-39 227 228 481 482 0
-40 227 228 481 482 0
-39 -227 -481 0
-39 -227 -482 0
-39 -228 -481 0
-39 -228 -482 0
-40 -227 -481 0
-40 -227 -482 0
-40 -228 -481 0
-40 -228 -482 0
641 642 651 652 985 986 0
641 642 -651 -985 0
641 642 -651 -986 0
641 642 -652 -985 0
641 642 -652 -986 0
-641 651 652 -985 0
-641 651 652 -986 0
-642 651 652 -985 0
-642 651 652 -986 0
-641 -651 985 986 0
-641 -652 985 986 0
-642 -651 985 986 0
-642 -652 985 986 0
75 76 515 516 -853 0
75 76 515 516 -854 0
75 76 -515 853 854 0
75 76 -516 853 854 0
-75 515 516 853 854 0
-76 515 516 853 854 0
-75 -515 -853 0
-75 -515 -854 0
-75 -516 -853 0
-75 -516 -854 0
-76 -515 -853 0
-76 -515 -854 0
-76 -516 -853 0
-76 -516 -854 0
171 172 373 374 -391 0
171 172 373 374 -392 0
171 172 -373 391 392 0
171 172 -374 391 392 0
-171 373 374 391 392 0
-172 373 374 391 392 0
-171 -373 -391 0
-171 -373 -392 0
-171 -374 -391 0
-171 -374 -392 0
-172 -373 -391 0
-172 -373 -392 0
-172 -374 -391 0
-172 -374 -392 0
185 186 1051 1052 1073 1074 0
185 186 -1051 -1073 0
185 186 -1051 -1074 0
185 186 -1052 -1073 0
185 186 -1052 -1074 0
-185 1051 1052 -1073 0
-185 1051 1052 -1074 0
-186 1051 1052 -1073 0
-186 1051 1052 -1074 0
-185 -1051 1073 1074 0
-185 -1052 1073 1074 0
-186 -1051 1073 1074 0
-186 -1052 1073 1074 0
229 230 283 284 319 320 0
229 230 -283 -319 0
229 230 -283 -320 0
229 230 -284 -319 0
229 230 -284 -320 0
-229 283 284 -319 0
-229 283 284 -320 0
-230 283 284 -319 0
-230 283 284 -320 0
-229 -283 319 320 0
-229 -284 319 320 0
-230 -283 319 320 0
-230 -284 319 320 0
51 52 699 700 -773 0
51 52 699 700 -774 0
51 52 -699 773 774 0
51 52 -700 773 774 0
-51 699 700 773 774 0
-52 699 700 773 774 0
-51 -699 -773 0
-51 -699 -774 0
-51 -700 -773 0
-51 -700 -774 0
-52 -699 -773 0
-52 -699 -774 0
-52 -700 -773 0
-52 -700 -774 0
193 194 337 338 -889 0
193 194 337 338 -890 0
193 194 -337 889 890 0
193 194 -338 889 890 0
-193 337 338 889 890 0
-194 337 338 889 890 0
-193 -337 -889 0
-193 -337 -890 0
-193 -338 -889 0
-193 -338 -890 0
-194 -337 -889 0
-194 -337 -890 0
-194 -338 -889 0
-194 -338 -890 0
47 48 79 80 -679 0
47 48 79 80 -680 0
47 48 -79 679 680 0
47 48 -80 679 680 0
-47 79 80 679 680 0
-48 79 80 679 680 0
-47 -79 -679 0
-47 -79 -680 0
-47 -80 -679 0
-47 -80 -680 0
-48 -79 -679 0
-48 -79 -680 0
-48 -80 -679 0
-48 -80 -680 0
113 114 837 838 1065 1066 0
113 114 -837 -1065 0
113 114 -837 -1066 0
113 114 -838 -1065 0
113 114 -838 -1066 0
-113 837 838 -1065 0
-113 837 838 -1066 0
-114 837 838 -1065 0
-114 837 838 -1066 0
-113 -837 1065 1066 0
-113 -838 1065 1066 0
-114 -837 1065 1066 0
-114 -838 1065 1066 0
293 294 881 882 -883 0
293 294 881 882 -884 0
293 294 -881 883 884 0
293 294 -882 883 884 0
-293 881 882 883 884 0
-294 881 882 883 884 0
-293 -881 -883 0
-293 -881 -884 0
-293 -882 -883 0
-293 -882 -884 0
-294 -881 -883 0
-294 -881 -884 0
-294 -882 -883 0
-294 -882 -884 0
223 224 379 380 425 426 0
223 224 -379 -425 0
223 224 -379 -426 0
223 224 -380 -425 0
223 224 -380 -426 0
-223 379 380 -425 0
-223 379 380 -426 0
-224 379 380 -425 0
-224 379 380 -426 0
-223 -379 425 426 0
-223 -380 425 426 0
-224 -379 425 426 0
-224 -380 425 426 0
33 34 687 688 -1061 0
33 34 687 688 -1062 0
33 34 -687 1061 1062 0
33 34 -688 1061 1062 0
-33 687 688 1061 1062 0
-34 687 688 1061 1062 0
-33 -687 -1061 0
-33 -687 -1062 0
-33 -688 -1061 0
-33 -688 -1062 0
-34 -687 -1061 0
-34 -687 -1062 0
-34 -688 -1061 0
-34 -688 -1062 0
297 298 799 800 855 856 0
297 298 -799 -855 0
297 298 -799 -856 0
297 298 -800 -855 0
297 298 -800 -856 0
-297 799 800 -855 0
-297 799 800 -856 0
-298 799 800 -855 0
-298 799 800 -856 0
-297 -799 855 856 0
-297 -800 855 856 0
-298 -799 855 856 0
-298 -800 855 856 0
105 106 135 136 -559 0
105 106 135 136 -560 0
105 106 -135 559 560 0
105 106 -136 559 560 0
-105 135 136 559 560 0
-106 135 136 559 560 0
-105 -135 -559 0
-105 -135 -560 0
-105 -136 -559 0
-105 -136 -560 0
-106 -135 -559 0
-106 -135 -560 0
-106 -136 -559 0
-106 -136 -560 0
175 176 709 710 869 870 0
175 176 -709 -869 0
175 176 -709 -870 0
175 176 -710 -869 0
175 176 -710 -870 0
-175 709 710 -869 0
-175 709 710 -870 0
-176 709 710 -869 0
-176 709 710 -870 0
-175 -709 869 870 0
-175 -710 869 870 0
-176 -709 869 870 0
-176 -710 869 870 0
345 346 479 480 1073 1074 0
345 346 -479 -1073 0
345 346 -479 -1074 0
345 346 -480 -1073 0
345 346 -480 -1074 0
-345 479 480 -1073 0
-345 479 480 -1074 0
-346 479 480 -1073 0
-346 479 480 -1074 0
-345 -479 1073 1074 0
-345 -480 1073 1074 0
-346 -479 1073 1074 0
-346 -480 1073 1074 0
169 170 319 320 1029 1030 0
169 170 -319 -1029 0
169 170 -319 -1030 0
169 170 -320 -1029 0
169 170 -320 -1030 0
-169 319 320 -1029 0
-169 319 320 -1030 0
-170 319 320 -1029 0
-170 319 320 -1030 0
-169 -319 1029 1030 0
-169 -320 1029 1030 0
-170 -319 1029 1030 0
-170 -320 1029 1030 0
495 496 787 788 -955 0
495 496 787 788 -956 0
495 496 -787 955 956 0
495 496 -788 955 956 0
-495 787 788 955 956 0
-496 787 788 955 956 0
-495 -787 -955 0
-495 -787 -956 0
-495 -788 -955 0
-495 -788 -956 0
-496 -787 -955 0
-496 -787 -956 0
-496 -788 -955 0
-496 -788 -956 0
183 184 187 188 -541 0
183 184 187 188 -542 0
183 184 -187 541 542 0
183 184 -188 541 542 0
-183 187 188 541 542 0
-184 187 188 541 542 0
-183 -187 -541 0
-183 -187 -542 0
-183 -188 -541 0
-183 -188 -542 0
-184 -187 -541 0
-184 -187 -542 0
-184 -188 -541 0
-184 -188 -542 0
107 108 359 360 -577 0
107 108 359 360 -578 0
107 108 -359 577 578 0
107 108 -360 577 578 0
-107 359 360 577 578 0
-108 359 360 577 578 0
-107 -359 -577 0
-107 -359 -578 0
-107 -360 -577 0
-107 -360 -578 0
-108 -359 -577 0
-108 -359 -578 0
-108 -360 -577 0
-108 -360 -578 0
25 26 193 194 -827 0
25 26 193 194 -828 0
25 26 -193 827 828 0
25 26 -194 827 828 0
-25 193 194 827 828 0
-26 193 194 827 828 0
-25 -193 -827 0
-25 -193 -828 0
-25 -194 -827 0
-25 -194 -828 0
-26 -193 -827 0
-26 -193 -828 0
-26 -194 -827 0
-26 -194 -828 0
585 586 999 1000 1077 1078 0
585 586 -999 -1077 0
585 586 -999 -1078 0
585 586 -1000 -1077 0
585 586 -1000 -1078 0
-585 999 1000 -1077 0
-585 999 1000 -1078 0
-586 999 1000 -1077 0
-586 999 1000 -1078 0
-585 -999 1077 1078 0
-585 -1000 1077 1078 0
-586 -999 1077 1078 0
-586 -1000 1077 1078 0
87 88 555 556 -947 0
87 88 555 556 -948 0
87 88 -555 947 948 0
87 88 -556 947 948 0
-87 555 556 947 948 0
-88 555 556 947 948 0
-87 -555 -947 0
-87 -555 -948 0
-87 -556 -947 0
-87 -556 -948 0
-88 -555 -947 0
-88 -555 -948 0
-88 -556 -947 0
-88 -556 -948 0
399 400 425 426 839 840 0
399 400 -425 -839 0
399 400 -425 -840 0
399 400 -426 -839 0
399 400 -426 -840 0
-399 425 426 -839 0
-399 425 426 -840 0
-400 425 426 -839 0
-400 425 426 -840 0
-399 -425 839 840 0
-399 -426 839 840 0
-400 -425 839 840 0
-400 -426 839 840 0
579 580 707 708 -1079 0
579 580 707 708 -1080 0
579 580 -707 1079 1080 0
579 580 -708 1079 1080 0
-579 707 708 1079 1080 0
-580 707 708 1079 1080 0
-579 -707 -1079 0
-579 -707 -1080 0
-579 -708 -1079 0
-579 -708 -1080 0
-580 -707 -1079 0
-580 -707 -1080 0
-580 -708 -1079 0
-580 -708 -1080 0
35 36 957 958 991 992 0
35 36 -957 -991 0
35 36 -957 -992 0
35 36 -958 -991 0
35 36 -958 -992 0
-35 957 958 -991 0
-35 957 958 -992 0
-36 957 958 -991 0
-36 957 958 -992 0
-35 -957 991 992 0
-35 -958 991 992 0
-36 -957 991 992 0
-36 -958 991 992 0
375 376 543 544 1069 1070 0
375 376 -543 -1069 0
375 376 -543 -1070 0
375 376 -544 -1069 0
375 376 -544 -1070 0
-375 543 544 -1069 0
-375 543 544 -1070 0
-376 543 544 -1069 0
-376 543 544 -1070 0
-375 -543 1069 1070 0
-375 -544 1069 1070 0
-376 -543 1069 1070 0
-376 -544 1069 1070 0
539 540 1035 1036 1067 1068 0
539 540 -1035 -1067 0
539 540 -1035 -1068 0
539 540 -1036 -1067 0
539 540 -1036 -1068 0
-539 1035 1036 -1067 0
-539 1035 1036 -1068 0
-540 1035 1036 -1067 0
-540 1035 1036 -1068 0
-539 -1035 1067 1068 0
-539 -1036 1067 1068 0
-540 -1035 1067 1068 0
-540 -1036 1067 1068 0
349 350 769 770 -975 0
349 350 769 770 -976 0
349 350 -769 975 976 0
349 350 -770 975 976 0
-349 769 770 975 976 0
-350 769 770 975 976 0
-349 -769 -975 0
-349 -769 -976 0
-349 -770 -975 0
-349 -770 -976 0
-350 -769 -975 0
-350 -769 -976 0
-350 -770 -975 0
-350 -770 -976 0
369 370 447 448 -631 0
369 370 447 448 -632 0
369 370 -447 631 632 0
369 370 -448 631 632 0
-369 447 448 631 632 0
-370 447 448 631 632 0
-369 -447 -631 0
-369 -447 -632 0
-369 -448 -631 0
-369 -448 -632 0
-370 -447 -631 0
-370 -447 -632 0
-370 -448 -631 0
-370 -448 -632 0
631 632 729 730 801 802 0
631 632 -729 -801 0
631 632 -729 -802 0
631 632 -730 -801 0
631 632 -730 -802 0
-631 729 730 -801 0
-631 729 730 -802 0
-632 729 730 -801 0
-632 729 730 -802 0
-631 -729 801 802 0
-631 -730 801 802 0
-632 -729 801 802 0
-632 -730 801 802 0
315 316 627 628 -831 0
315 316 627 628 -832 0
315 316 -627 831 832 0
315 316 -628 831 832 0
-315 627 628 831 832 0
-316 627 628 831 832 0
-315 -627 -831 0
-315 -627 -832 0
-315 -628 -831 0
-315 -628 -832 0
-316 -627 -831 0
-316 -627 -832 0
-316 -628 -831 0
-316 -628 -832 0
213 214 623 624 687 688 0
213 214 -623 -687 0
213 214 -623 -688 0
213 214 -624 -687 0
213 214 -624 -688 0
-213 623 624 -687 0
-213 623 624 -688 0
-214 623 624 -687 0
-214 623 624 -688 0
-213 -623 687 688 0
-213 -624 687 688 0
-214 -623 687 688 0
-214 -624 687 688 0
607 608 847 848 -975 0
607 608 847 848 -976 0
607 608 -847 975 976 0
607 608 -848 975 976 0
-607 847 848 975 976 0
-608 847 848 975 976 0
-607 -847 -975 0
-607 -847 -976 0
-607 -848 -975 0
-607 -848 -976 0
-608 -847 -975 0
-608 -847 -976 0
-608 -848 -975 0
-608 -848 -976 0
165 166 649 650 -829 0
165 166 649 650 -830 0
165 166 -649 829 830 0
165 166 -650 829 830 0
-165 649 650 829 830 0
-166 649 650 829 830 0
-165 -649 -829 0
-165 -649 -830 0
-165 -650 -829 0
-165 -650 -830 0
-166 -649 -829 0
-166 -649 -830 0
-166 -650 -829 0
-166 -650 -830 0
417 418 511 512 -763 0
417 418 511 512 -764 0
417 418 -511 763 764 0
417 418 -512 763 764 0
-417 511 512 763 764 0
-418 511 512 763 764 0
-417 -511 -763 0
-417 -511 -764 0
-417 -512 -763 0
-417 -512 -764 0
-418 -511 -763 0
-418 -511 -764 0
-418 -512 -763 0
-418 -512 -764 0
173 174 339 340 1069 1070 0
173 174 -339 -1069 0
173 174 -339 -1070 0
173 174 -340 -1069 0
173 174 -340 -1070 0
-173 339 340 -1069 0
-173 339 340 -1070 0
-174 339 340 -1069 0
-174 339 340 -1070 0
-173 -339 1069 1070 0
-173 -340 1069 1070 0
-174 -339 1069 1070 0
-174 -340 1069 1070 0
1 2 691 692 1033 1034 0
1 2 -691 -1033 0
1 2 -691 -1034 0
1 2 -692 -1033 0
1 2 -692 -1034 0
-1 691 692 -1033 0
-1 691 692 -1034 0
-2 691 692 -1033 0
-2 691 692 -1034 0
-1 -691 1033 1034 0
-1 -692 1033 1034 0
-2 -691 1033 1034 0
-2 -692 1033 1034 0
679 680 881 882 -911 0
679 680 881 882 -912 0
679 680 -881 911 912 0
679 680 -882 911 912 0
-679 881 882 911 912 0
-680 881 882 911 912 0
-679 -881 -911 0
-679 -881 -912 0
-679 -882 -911 0
-679 -882 -912 0
-680 -881 -911 0
-680 -881 -912 0
-680 -882 -911 0
-680 -882 -912 0
251 252 563 564 -585 0
251 252 563 564 -586 0
251 252 -563 585 586 0
251 252 -564 585 586 0
-251 563 564 585 586 0
-252 563 564 585 586 0
-251 -563 -585 0
-251 -563 -586 0
-251 -564 -585 0
-251 -564 -586 0
-252 -563 -585 0
-252 -563 -586 0
-252 -564 -585 0
-252 -564 -586 0
863 864 977 978 -1045 0
863 864 977 978 -1046 0
863 864 -977 1045 1046 0
863 864 -978 1045 1046 0
-863 977 978 1045 1046 0
-864 977 978 1045 1046 0
-863 -977 -1045 0
-863 -977 -1046 0
-863 -978 -1045 0
-863 -978 -1046 0
-864 -977 -1045 0
-864 -977 -1046 0
-864 -978 -1045 0
-864 -978 -1046 0
271 272 301 302 -877 0
271 272 301 302 -878 0
271 272 -301 877 878 0
271 272 -302 877 878 0
-271 301 302 877 878 0
-272 301 302 877 878 0
-271 -301 -877 0
-271 -301 -878 0
-271 -302 -877 0
-271 -302 -878 0
-272 -301 -877 0
-272 -301 -878 0
-272 -302 -877 0
-272 -302 -878 0
105 106 281 282 -685 0
105 106 281 282 -686 0
105 106 -281 685 686 0
105 106 -282 685 686 0
-105 281 282 685 686 0
-106 281 282 685 686 0
-105 -281 -685 0
-105 -281 -686 0
-105 -282 -685 0
-105 -282 -686 0
-106 -281 -685 0
-106 -281 -686 0
-106 -282 -685 0
-106 -282 -686 0
429 430 507 508 983 984 0
429 430 -507 -983 0
429 430 -507 -984 0
429 430 -508 -983 0
429 430 -508 -984 0
-429 507 508 -983 0
-429 507 508 -984 0
-430 507 508 -983 0
-430 507 508 -984 0
-429 -507 983 984 0
-429 -508 983 984 0
-430 -507 983 984 0
-430 -508 983 984 0
493 494 761 762 953 954 0
493 494 -761 -953 0
493 494 -761 -954 0
493 494 -762 -953 0
493 494 -762 -954 0
-493 761 762 -953 0
-493 761 762 -954 0
-494 761 762 -953 0
-494 761 762 -954 0
-493 -761 953 954 0
-493 -762 953 954 0
-494 -761 953 954 0
-494 -762 953 954 0
123 124 669 670 -971 0
123 124 669 670 -972 0
123 124 -669 971 972 0
123 124 -670 971 972 0
-123 669 670 971 972 0
-124 669 670 971 972 0
-123 -669 -971 0
-123 -669 -972 0
-123 -670 -971 0
-123 -670 -972 0
-124 -669 -971 0
-124 -669 -972 0
-124 -670 -971 0
-124 -670 -972 0
689 690 933 934 1043 1044 0
689 690 -933 -1043 0
689 690 -933 -1044 0
689 690 -934 -1043 0
689 690 -934 -1044 0
-689 933 934 -1043 0
-689 933 934 -1044 0
-690 933 934 -1043 0
-690 933 934 -1044 0
-689 -933 1043 1044 0
-689 -934 1043 1044 0
-690 -933 1043 1044 0
-690 -934 1043 1044 0
97 98 509 510 863 864 0
97 98 -509 -863 0
97 98 -509 -864 0
97 98 -510 -863 0
97 98 -510 -864 0
-97 509 510 -863 0
-97 509 510 -864 0
-98 509 510 -863 0
-98 509 510 -864 0
-97 -509 863 864 0
-97 -510 863 864 0
-98 -509 863 864 0
-98 -510 863 864 0
63 64 595 596 -641 0
63 64 595 596 -642 0
63 64 -595 641 642 0
63 64 -596 641 642 0
-63 595 596 641 642 0
-64 595 596 641 642 0
-63 -595 -641 0
-63 -595 -642 0
-63 -596 -641 0
-63 -596 -642 0
-64 -595 -641 0
-64 -595 -642 0
-64 -596 -641 0
-64 -596 -642 0
557 558 611 612 817 818 0
557 558 -611 -817 0
557 558 -611 -818 0
557 558 -612 -817 0
557 558 -612 -818 0
-557 611 612 -817 0
-557 611 612 -818 0
-558 611 612 -817 0
-558 611 612 -818 0
-557 -611 817 818 0
-557 -612 817 818 0
-558 -611 817 818 0
-558 -612 817 818 0
277 278 591 592 -669 0
277 278 591 592 -670 0
277 278 -591 669 670 0
277 278 -592 669 670 0
-277 591 592 669 670 0
-278 591 592 669 670 0
-277 -591 -669 0
-277 -591 -670 0
-277 -592 -669 0
-277 -592 -670 0
-278 -591 -669 0
-278 -591 -670 0
-278 -592 -669 0
-278 -592 -670 0
671 672 917 918 973 974 0
671 672 -917 -973 0
671 672 -917 -974 0
671 672 -918 -973 0
671 672 -918 -974 0
-671 917 918 -973 0
-671 917 918 -974 0
-672 917 918 -973 0
-672 917 918 -974 0
-671 -917 973 974 0
-671 -918 973 974 0
-672 -917 973 974 0
-672 -918 973 974 0
583 584 857 858 927 928 0
583 584 -857 -927 0
583 584 -857 -928 0
583 584 -858 -927 0
583 584 -858 -928 0
-583 857 858 -927 0
-583 857 858 -928 0
-584 857 858 -927 0
-584 857 858 -928 0
-583 -857 927 928 0
-583 -858 927 928 0
-584 -857 927 928 0
-584 -858 927 928 0
7 8 717 718 755 756 0
7 8 -717 -755 0
7 8 -717 -756 0
7 8 -718 -755 0
7 8 -718 -756 0
-7 717 718 -755 0
-7 717 718 -756 0
-8 717 718 -755 0
-8 717 718 -756 0
-7 -717 755 756 0
-7 -718 755 756 0
-8 -717 755 756 0
-8 -718 755 756 0
43 44 65 66 719 720 0
43 44 -65 -719 0
43 44 -65 -720 0
43 44 -66 -719 0
43 44 -66 -720 0
-43 65 66 -719 0
-43 65 66 -720 0
-44 65 66 -719 0
-44 65 66 -720 0
-43 -65 719 720 0
-43 -66 719 720 0
-44 -65 719 720 0
-44 -66 719 720 0
177 178 529 530 -849 0
177 178 529 530 -850 0
177 178 -529 849 850 0
177 178 -530 849 850 0
-177 529 530 849 850 0
-178 529 530 849 850 0
-177 -529 -849 0
-177 -529 -850 0
-177 -530 -849 0
-177 -530 -850 0
-178 -529 -849 0
-178 -529 -850 0
-178 -530 -849 0
-178 -530 -850 0
77 78 147 148 -271 0
77 78 147 148 -272 0
77 78 -147 271 272 0
77 78 -148 271 272 0
-77 147 148 271 272 0
-78 147 148 271 272 0
-77 -147 -271 0
-77 -147 -272 0
-77 -148 -271 0
-77 -148 -272 0
-78 -147 -271 0
-78 -147 -272 0
-78 -148 -271 0
-78 -148 -272 0
61 62 457 458 551 552 0
61 62 -457 -551 0
61 62 -457 -552 0
61 62 -458 -551 0
61 62 -458 -552 0
-61 457 458 -551 0
-61 457 458 -552 0
-62 457 458 -551 0
-62 457 458 -552 0
-61 -457 551 552 0
-61 -458 551 552 0
-62 -457 551 552 0
-62 -458 551 552 0
161 162 211 212 -297 0
161 162 211 212 -298 0
161 162 -211 297 298 0
161 162 -212 297 298 0
-161 211 212 297 298 0
-162 211 212 297 298 0
-161 -211 -297 0
-161 -211 -298 0
-161 -212 -297 0
-161 -212 -298 0
-162 -211 -297 0
-162 -211 -298 0
-162 -212 -297 0
-162 -212 -298 0
435 436 559 560 -1007 0
435 436 559 560 -1008 0
435 436 -559 1007 1008 0
435 436 -560 1007 1008 0
-435 559 560 1007 1008 0
-436 559 560 1007 1008 0
-435 -559 -1007 0
-435 -559 -1008 0
-435 -560 -1007 0
-435 -560 -1008 0
-436 -559 -1007 0
-436 -559 -1008 0
-436 -560 -1007 0
-436 -560 -1008 0
165 166 211 212 -685 0
165 166 211 212 -686 0
165 166 -211 685 686 0
165 166 -212 685 686 0
-165 211 212 685 686 0
-166 211 212 685 686 0
-165 -211 -685 0
-165 -211 -686 0
-165 -212 -685 0
-165 -212 -686 0
-166 -211 -685 0
-166 -211 -686 0
-166 -212 -685 0
-166 -212 -686 0
199 200 363 364 421 422 0
199 200 -363 -421 0
199 200 -363 -422 0
199 200 -364 -421 0
199 200 -364 -422 0
-199 363 364 -421 0
-199 363 364 -422 0
-200 363 364 -421 0
-200 363 364 -422 0
-199 -363 421 422 0
-199 -364 421 422 0
-200 -363 421 422 0
-200 -364 421 422 0
323 324 427 428 -993 0
323 324 427 428 -994 0
323 324 -427 993 994 0
323 324 -428 993 994 0
-323 427 428 993 994 0
-324 427 428 993 994 0
-323 -427 -993 0
-323 -427 -994 0
-323 -428 -993 0
-323 -428 -994 0
-324 -427 -993 0
-324 -427 -994 0
-324 -428 -993 0
-324 -428 -994 0
373 374 631 632 1049 1050 0
373 374 -631 -1049 0
373 374 -631 -1050 0
373 374 -632 -1049 0
373 374 -632 -1050 0
-373 631 632 -1049 0
-373 631 632 -1050 0
-374 631 632 -1049 0
-374 631 632 -1050 0
-373 -631 1049 1050 0
-373 -632 1049 1050 0
-374 -631 1049 1050 0
-374 -632 1049 1050 0
381 382 649 650 1013 1014 0
381 382 -649 -1013 0
381 382 -649 -1014 0
381 382 -650 -1013 0
381 382 -650 -1014 0
-381 649 650 -1013 0
-381 649 650 -1014 0
-382 649 650 -1013 0
-382 649 650 -1014 0
-381 -649 1013 1014 0
-381 -650 1013 1014 0
-382 -649 1013 1014 0
-382 -650 1013 1014 0
227 228 659 660 761 762 0
227 228 -659 -761 0
227 228 -659 -762 0
227 228 -660 -761 0
227 228 -660 -762 0
-227 659 660 -761 0
-227 659 660 -762 0
-228 659 660 -761 0
-228 659 660 -762 0
-227 -659 761 762 0
-227 -660 761 762 0
-228 -659 761 762 0
-228 -660 761 762 0
329 330 463 464 -995 0
329 330 463 464 -996 0
329 330 -463 995 996 0
329 330 -464 995 996 0
-329 463 464 995 996 0
-330 463 464 995 996 0
-329 -463 -995 0
-329 -463 -996 0
-329 -464 -995 0
-329 -464 -996 0
-330 -463 -995 0
-330 -463 -996 0
-330 -464 -995 0
-330 -464 -996 0
279 280 809 810 -901 0
279 280 809 810 -902 0
279 280 -809 901 902 0
279 280 -810 901 902 0
-279 809 810 901 902 0
-280 809 810 901 902 0
-279 -809 -901 0
-279 -809 -902 0
-279 -810 -901 0
-279 -810 -902 0
-280 -809 -901 0
-280 -809 -902 0
-280 -810 -901 0
-280 -810 -902 0
179 180 579 580 1079 1080 0
179 180 -579 -1079 0
179 180 -579 -1080 0
179 180 -580 -1079 0
179 180 -580 -1080 0
-179 579 580 -1079 0
-179 579 580 -1080 0
-180 579 580 -1079 0
-180 579 580 -1080 0
-179 -579 1079 1080 0
-179 -580 1079 1080 0
-180 -579 1079 1080 0
-180 -580 1079 1080 0
423 424 875 876 943 944 0
423 424 -875 -943 0
423 424 -875 -944 0
423 424 -876 -943 0
423 424 -876 -944 0
-423 875 876 -943 0
-423 875 876 -944 0
-424 875 876 -943 0
-424 875 876 -944 0
-423 -875 943 944 0
-423 -876 943 944 0
-424 -875 943 944 0
-424 -876 943 944 0
31 32 165 166 705 706 0
31 32 -165 -705 0
31 32 -165 -706 0
31 32 -166 -705 0
31 32 -166 -706 0
-31 165 166 -705 0
-31 165 166 -706 0
-32 165 166 -705 0
-32 165 166 -706 0
-31 -165 705 706 0
-31 -166 705 706 0
-32 -165 705 706 0
-32 -166 705 706 0
413 414 467 468 695 696 0
413 414 -467 -695 0
413 414 -467 -696 0
413 414 -468 -695 0
413 414 -468 -696 0
-413 467 468 -695 0
-413 467 468 -696 0
-414 467 468 -695 0
-414 467 468 -696 0
-413 -467 695 696 0
-413 -468 695 696 0
-414 -467 695 696 0
-414 -468 695 696 0
195 196 607 608 797 798 0
195 196 -607 -797 0
195 196 -607 -798 0
195 196 -608 -797 0
195 196 -608 -798 0
-195 607 608 -797 0
-195 607 608 -798 0
-196 607 608 -797 0
-196 607 608 -798 0
-195 -607 797 798 0
-195 -608 797 798 0
-196 -607 797 798 0
-196 -608 797 798 0
31 32 141 142 -201 0
31 32 141 142 -202 0
31 32 -141 201 202 0
31 32 -142 201 202 0
-31 141 142 201 202 0
-32 141 142 201 202 0
-31 -141 -201 0
-31 -141 -202 0
-31 -142 -201 0
-31 -142 -202 0
-32 -141 -201 0
-32 -141 -202 0
-32 -142 -201 0
-32 -142 -202 0
167 168 527 528 -1079 0
167 168 527 528 -1080 0
167 168 -527 1079 1080 0
167 168 -528 1079 1080 0
-167 527 528 1079 1080 0
-168 527 528 1079 1080 0
-167 -527 -1079 0
-167 -527 -1080 0
-167 -528 -1079 0
-167 -528 -1080 0
-168 -527 -1079 0
-168 -527 -1080 0
-168 -528 -1079 0
-168 -528 -1080 0
299 300 331 332 -401 0
299 300 331 332 -402 0
299 300 -331 401 402 0
299 300 -332 401 402 0
-299 331 332 401 402 0
-300 331 332 401 402 0
-299 -331 -401 0
-299 -331 -402 0
-299 -332 -401 0
-299 -332 -402 0
-300 -331 -401 0
-300 -331 -402 0
-300 -332 -401 0
-300 -332 -402 0
27 28 625 626 -1037 0
27 28 625 626 -1038 0
27 28 -625 1037 1038 0
27 28 -626 1037 1038 0
-27 625 626 1037 1038 0
-28 625 626 1037 1038 0
-27 -625 -1037 0
-27 -625 -1038 0
-27 -626 -1037 0
-27 -626 -1038 0
-28 -625 -1037 0
-28 -625 -1038 0
-28 -626 -1037 0
-28 -626 -1038 0
177 178 943 944 1077 1078 0
177 178 -943 -1077 0
177 178 -943 -1078 0
177 178 -944 -1077 0
177 178 -944 -1078 0
-177 943 944 -1077 0
-177 943 944 -1078 0
-178 943 944 -1077 0
-178 943 944 -1078 0
-177 -943 1077 1078 0
-177 -944 1077 1078 0
-178 -943 1077 1078 0
-178 -944 1077 1078 0
59 60 637 638 -769 0
59 60 637 638 -770 0
59 60 -637 769 770 0
59 60 -638 769 770 0
-59 637 638 769 770 0
-60 637 638 769 770 0
-59 -637 -769 0
-59 -637 -770 0
-59 -638 -769 0
-59 -638 -770 0
-60 -637 -769 0
-60 -637 -770 0
-60 -638 -769 0
-60 -638 -770 0
345 346 549 550 941 942 0
345 346 -549 -941 0
345 346 -549 -942 0
345 346 -550 -941 0
345 346 -550 -942 0
-345 549 550 -941 0
-345 549 550 -942 0
-346 549 550 -941 0
-346 549 550 -942 0
-345 -549 941 942 0
-345 -550 941 942 0
-346 -549 941 942 0
-346 -550 941 942 0
51 52 135 136 -895 0
51 52 135 136 -896 0
51 52 -135 895 896 0
51 52 -136 895 896 0
-51 135 136 895 896 0
-52 135 136 895 896 0
-51 -135 -895 0
-51 -135 -896 0
-51 -136 -895 0
-51 -136 -896 0
-52 -135 -895 0
-52 -135 -896 0
-52 -136 -895 0
-52 -136 -896 0
5 6 137 138 -881 0
5 6 137 138 -882 0
5 6 -137 881 882 0
5 6 -138 881 882 0
-5 137 138 881 882 0
-6 137 138 881 882 0
-5 -137 -881 0
-5 -137 -882 0
-5 -138 -881 0
-5 -138 -882 0
-6 -137 -881 0
-6 -137 -882 0
-6 -138 -881 0
-6 -138 -882 0
447 448 711 712 1043 1044 0
447 448 -711 -1043 0
447 448 -711 -1044 0
447 448 -712 -1043 0
447 448 -712 -1044 0
-447 711 712 -1043 0
-447 711 712 -1044 0
-448 711 712 -1043 0
-448 711 712 -1044 0
-447 -711 1043 1044 0
-447 -712 1043 1044 0
-448 -711 1043 1044 0
-448 -712 1043 1044 0
405 406 439 440 847 848 0
405 406 -439 -847 0
405 406 -439 -848 0
405 406 -440 -847 0
405 406 -440 -848 0
-405 439 440 -847 0
-405 439 440 -848 0
-406 439 440 -847 0
-406 439 440 -848 0
-405 -439 847 848 0
-405 -440 847 848 0
-406 -439 847 848 0
-406 -440 847 848 0
359 360 451 452 1045 1046 0
359 360 -451 -1045 0
359 360 -451 -1046 0
359 360 -452 -1045 0
359 360 -452 -1046 0
-359 451 452 -1045 0
-359 451 452 -1046 0
-360 451 452 -1045 0
-360 451 452 -1046 0
-359 -451 1045 1046 0
-359 -452 1045 1046 0
-360 -451 1045 1046 0
-360 -452 1045 1046 0
413 414 619 620 -755 0
413 414 619 620 -756 0
413 414 -619 755 756 0
413 414 -620 755 756 0
-413 619 620 755 756 0
-414 619 620 755 756 0
-413 -619 -755 0
-413 -619 -756 0
-413 -620 -755 0
-413 -620 -756 0
-414 -619 -755 0
-414 -619 -756 0
-414 -620 -755 0
-414 -620 -756 0
365 366 807 808 -843 0
365 366 807 808 -844 0
365 366 -807 843 844 0
365 366 -808 843 844 0
-365 807 808 843 844 0
-366 807 808 843 844 0
-365 -807 -843 0
-365 -807 -844 0
-365 -808 -843 0
-365 -808 -844 0
-366 -807 -843 0
-366 -807 -844 0
-366 -808 -843 0
-366 -808 -844 0
51 52 513 514 -759 0
51 52 513 514 -760 0
51 52 -513 759 760 0
51 52 -514 759 760 0
-51 513 514 759 760 0
-52 513 514 759 760 0
-51 -513 -759 0
-51 -513 -760 0
-51 -514 -759 0
-51 -514 -760 0
-52 -513 -759 0
-52 -513 -760 0
-52 -514 -759 0
-52 -514 -760 0
285 286 691 692 1021 1022 0
285 286 -691 -1021 0
285 286 -691 -1022 0
285 286 -692 -1021 0
285 286 -692 -1022 0
-285 691 692 -1021 0
-285 691 692 -1022 0
-286 691 692 -1021 0
-286 691 692 -1022 0
-285 -691 1021 1022 0
-285 -692 1021 1022 0
-286 -691 1021 1022 0
-286 -692 1021 1022 0
519 520 965 966 969 970 0
519 520 -965 -969 0
519 520 -965 -970 0
519 520 -966 -969 0
519 520 -966 -970 0
-519 965 966 -969 0
-519 965 966 -970 0
-520 965 966 -969 0
-520 965 966 -970 0
-519 -965 969 970 0
-519 -966 969 970 0
-520 -965 969 970 0
-520 -966 969 970 0
475 476 815 816 921 922 0
475 476 -815 -921 0
475 476 -815 -922 0
475 476 -816 -921 0
475 476 -816 -922 0
-475 815 816 -921 0
-475 815 816 -922 0
-476 815 816 -921 0
-476 815 816 -922 0
-475 -815 921 922 0
-475 -816 921 922 0
-476 -815 921 922 0
-476 -816 921 922 0
465 466 505 506 -1065 0
465 466 505 506 -1066 0
465 466 -505 1065 1066 0
465 466 -506 1065 1066 0
-465 505 506 1065 1066 0
-466 505 506 1065 1066 0
-465 -505 -1065 0
-465 -505 -1066 0
-465 -506 -1065 0
-465 -506 -1066 0
-466 -505 -1065 0
-466 -505 -1066 0
-466 -506 -1065 0
-466 -506 -1066 0
233 234 785 786 819 820 0
233 234 -785 -819 0
233 234 -785 -820 0
233 234 -786 -819 0
233 234 -786 -820 0
-233 785 786 -819 0
-233 785 786 -820 0
-234 785 786 -819 0
-234 785 786 -820 0
-233 -785 819 820 0
-233 -786 819 820 0
-234 -785 819 820 0
-234 -786 819 820 0
173 174 535 536 893 894 0
173 174 -535 -893 0
173 174 -535 -894 0
173 174 -536 -893 0
173 174 -536 -894 0
-173 535 536 -893 0
-173 535 536 -894 0
-174 535 536 -893 0
-174 535 536 -894 0
-173 -535 893 894 0
-173 -536 893 894 0
-174 -535 893 894 0
-174 -536 893 894 0
441 442 681 682 749 750 0
441 442 -681 -749 0
441 442 -681 -750 0
441 442 -682 -749 0
441 442 -682 -750 0
-441 681 682 -749 0
-441 681 682 -750 0
-442 681 682 -749 0
-442 681 682 -750 0
-441 -681 749 750 0
-441 -682 749 750 0
-442 -681 749 750 0
-442 -682 749 750 0
137 138 729 730 965 966 0
137 138 -729 -965 0
137 138 -729 -966 0
137 138 -730 -965 0
137 138 -730 -966 0
-137 729 730 -965 0
-137 729 730 -966 0
-138 729 730 -965 0
-138 729 730 -966 0
-137 -729 965 966 0
-137 -730 965 966 0
-138 -729 965 966 0
-138 -730 965 966 0
301 302 769 770 919 920 0
301 302 -769 -919 0
301 302 -769 -920 0
301 302 -770 -919 0
301 302 -770 -920 0
-301 769 770 -919 0
-301 769 770 -920 0
-302 769 770 -919 0
-302 769 770 -920 0
-301 -769 919 920 0
-301 -770 919 920 0
-302 -769 919 920 0
-302 -770 919 920 0
99 100 917 918 919 920 0
99 100 -917 -919 0
99 100 -917 -920 0
99 100 -918 -919 0
99 100 -918 -920 0
-99 917 918 -919 0
-99 917 918 -920 0
-100 917 918 -919 0
-100 917 918 -920 0
-99 -917 919 920 0
-99 -918 919 920 0
-100 -917 919 920 0
-100 -918 919 920 0
71 72 135 136 -505 0
71 72 135 136 -506 0
71 72 -135 505 506 0
71 72 -136 505 506 0
-71 135 136 505 506 0
-72 135 136 505 506 0
-71 -135 -505 0
-71 -135 -506 0
-71 -136 -505 0
-71 -136 -506 0
-72 -135 -505 0
-72 -135 -506 0
-72 -136 -505 0
-72 -136 -506 0
75 76 753 754 -831 0
75 76 753 754 -832 0
75 76 -753 831 832 0
75 76 -754 831 832 0
-75 753 754 831 832 0
-76 753 754 831 832 0
-75 -753 -831 0
-75 -753 -832 0
-75 -754 -831 0
-75 -754 -832 0
-76 -753 -831 0
-76 -753 -832 0
-76 -754 -831 0
-76 -754 -832 0
475 476 833 834 -927 0
475 476 833 834 -928 0
475 476 -833 927 928 0
475 476 -834 927 928 0
-475 833 834 927 928 0
-476 833 834 927 928 0
-475 -833 -927 0
-475 -833 -928 0
-475 -834 -927 0
-475 -834 -928 0
-476 -833 -927 0
-476 -833 -928 0
-476 -834 -927 0
-476 -834 -928 0
35 36 259 260 -585 0
35 36 259 260 -586 0
35 36 -259 585 586 0
35 36 -260 585 586 0
-35 259 260 585 586 0
-36 259 260 585 586 0
-35 -259 -585 0
-35 -259 -586 0
-35 -260 -585 0
-35 -260 -586 0
-36 -259 -585 0
-36 -259 -586 0
-36 -260 -585 0
-36 -260 -586 0
203 204 533 534 931 932 0
203 204 -533 -931 0
203 204 -533 -932 0
203 204 -534 -931 0
203 204 -534 -932 0
-203 533 534 -931 0
-203 533 534 -932 0
-204 533 534 -931 0
-204 533 534 -932 0
-203 -533 931 932 0
-203 -534 931 932 0
-204 -533 931 932 0
-204 -534 931 932 0
79 80 397 398 -553 0
79 80 397 398 -554 0
79 80 -397 553 554 0
79 80 -398 553 554 0
-79 397 398 553 554 0
-80 397 398 553 554 0
-79 -397 -553 0
-79 -397 -554 0
-79 -398 -553 0
-79 -398 -554 0
-80 -397 -553 0
-80 -397 -554 0
-80 -398 -553 0
-80 -398 -554 0
349 350 439 440 523 524 0
349 350 -439 -523 0
349 350 -439 -524 0
349 350 -440 -523 0
349 350 -440 -524 0
-349 439 440 -523 0
-349 439 440 -524 0
-350 439 440 -523 0
-350 439 440 -524 0
-349 -439 523 524 0
-349 -440 523 524 0
-350 -439 523 524 0
-350 -440 523 524 0
69 70 337 338 535 536 0
69 70 -337 -535 0
69 70 -337 -536 0
69 70 -338 -535 0
69 70 -338 -536 0
-69 337 338 -535 0
-69 337 338 -536 0
-70 337 338 -535 0
-70 337 338 -536 0
-69 -337 535 536 0
-69 -338 535 536 0
-70 -337 535 536 0
-70 -338 535 536 0
115 116 323 324 -1019 0
115 116 323 324 -1020 0
115 116 -323 1019 1020 0
115 116 -324 1019 1020 0
-115 323 324 1019 1020 0
-116 323 324 1019 1020 0
-115 -323 -1019 0
-115 -323 -1020 0
-115 -324 -1019 0
-115 -324 -1020 0
-116 -323 -1019 0
-116 -323 -1020 0
-116 -324 -1019 0
-116 -324 -1020 0
707 708 981 982 -1055 0
707 708 981 982 -1056 0
707 708 -981 1055 1056 0
707 708 -982 1055 1056 0
-707 981 982 1055 1056 0
-708 981 982 1055 1056 0
-707 -981 -1055 0
-707 -981 -1056 0
-707 -982 -1055 0
-707 -982 -1056 0
-708 -981 -1055 0
-708 -981 -1056 0
-708 -982 -1055 0
-708 -982 -1056 0
219 220 445 446 501 502 0
219 220 -445 -501 0
219 220 -445 -502 0
219 220 -446 -501 0
219 220 -446 -502 0
-219 445 446 -501 0
-219 445 446 -502 0
-220 445 446 -501 0
-220 445 446 -502 0
-219 -445 501 502 0
-219 -446 501 502 0
-220 -445 501 502 0
-220 -446 501 502 0
649 650 663 664 919 920 0
649 650 -663 -919 0
649 650 -663 -920 0
649 650 -664 -919 0
649 650 -664 -920 0
-649 663 664 -919 0
-649 663 664 -920 0
-650 663 664 -919 0
-650 663 664 -920 0
-649 -663 919 920 0
-649 -664 919 920 0
-650 -663 919 920 0
-650 -664 919 920 0
339 340 827 828 1005 1006 0
339 340 -827 -1005 0
339 340 -827 -1006 0
339 340 -828 -1005 0
339 340 -828 -1006 0
-339 827 828 -1005 0
-339 827 828 -1006 0
-340 827 828 -1005 0
-340 827 828 -1006 0
-339 -827 1005 1006 0
-339 -828 1005 1006 0
-340 -827 1005 1006 0
-340 -828 1005 1006 0
347 348 579 580 843 844 0
347 348 -579 -843 0
347 348 -579 -844 0
347 348 -580 -843 0
347 348 -580 -844 0
-347 579 580 -843 0
-347 579 580 -844 0
-348 579 580 -843 0
-348 579 580 -844 0
-347 -579 843 844 0
-347 -580 843 844 0
-348 -579 843 844 0
-348 -580 843 844 0
483 484 509 510 807 808 0
483 484 -509 -807 0
483 484 -509 -808 0
483 484 -510 -807 0
483 484 -510 -808 0
-483 509 510 -807 0
-483 509 510 -808 0
-484 509 510 -807 0
-484 509 510 -808 0
-483 -509 807 808 0
-483 -510 807 808 0
-484 -509 807 808 0
-484 -510 807 808 0
473 474 667 668 805 806 0
473 474 -667 -805 0
473 474 -667 -806 0
473 474 -668 -805 0
473 474 -668 -806 0
-473 667 668 -805 0
-473 667 668 -806 0
-474 667 668 -805 0
-474 667 668 -806 0
-473 -667 805 806 0
-473 -668 805 806 0
-474 -667 805 806 0
-474 -668 805 806 0
207 208 377 378 613 614 0
207 208 -377 -613 0
207 208 -377 -614 0
207 208 -378 -613 0
207 208 -378 -614 0
-207 377 378 -613 0
-207 377 378 -614 0
-208 377 378 -613 0
-208 377 378 -614 0
-207 -377 613 614 0
-207 -378 613 614 0
-208 -377 613 614 0
-208 -378 613 614 0
409 410 627 628 -843 0
409 410 627 628 -844 0
409 410 -627 843 844 0
409 410 -628 843 844 0
-409 627 628 843 844 0
-410 627 628 843 844 0
-409 -627 -843 0
-409 -627 -844 0
-409 -628 -843 0
-409 -628 -844 0
-410 -627 -843 0
-410 -627 -844 0
-410 -628 -843 0
-410 -628 -844 0
211 212 335 336 -687 0
211 212 335 336 -688 0
211 212 -335 687 688 0
211 212 -336 687 688 0
-211 335 336 687 688 0
-212 335 336 687 688 0
-211 -335 -687 0
-211 -335 -688 0
-211 -336 -687 0
-211 -336 -688 0
-212 -335 -687 0
-212 -335 -688 0
-212 -336 -687 0
-212 -336 -688 0
51 52 651 652 879 880 0
51 52 -651 -879 0
51 52 -651 -880 0
51 52 -652 -879 0
51 52 -652 -880 0
-51 651 652 -879 0
-51 651 652 -880 0
-52 651 652 -879 0
-52 651 652 -880 0
-51 -651 879 880 0
-51 -652 879 880 0
-52 -651 879 880 0
-52 -652 879 880 0
47 48 53 54 441 442 0
47 48 -53 -441 0
47 48 -53 -442 0
47 48 -54 -441 0
47 48 -54 -442 0
-47 53 54 -441 0
-47 53 54 -442 0
-48 53 54 -441 0
-48 53 54 -442 0
-47 -53 441 442 0
-47 -54 441 442 0
-48 -53 441 442 0
-48 -54 441 442 0
9 10 535 536 -737 0
9 10 535 536 -738 0
9 10 -535 737 738 0
9 10 -536 737 738 0
-9 535 536 737 738 0
-10 535 536 737 738 0
-9 -535 -737 0
-9 -535 -738 0
-9 -536 -737 0
-9 -536 -738 0
-10 -535 -737 0
-10 -535 -738 0
-10 -536 -737 0
-10 -536 -738 0
295 296 439 440 553 554 0
295 296 -439 -553 0
295 296 -439 -554 0
295 296 -440 -553 0
295 296 -440 -554 0
-295 439 440 -553 0
-295 439 440 -554 0
-296 439 440 -553 0
-296 439 440 -554 0
-295 -439 553 554 0
-295 -440 553 554 0
-296 -439 553 554 0
-296 -440 553 554 0
937 938 951 952 1047 1048 0
937 938 -951 -1047 0
937 938 -951 -1048 0
937 938 -952 -1047 0
937 938 -952 -1048 0
-937 951 952 -1047 0
-937 951 952 -1048 0
-938 951 952 -1047 0
-938 951 952 -1048 0
-937 -951 1047 1048 0
-937 -952 1047 1048 0
-938 -951 1047 1048 0
-938 -952 1047 1048 0
123 124 523 524 631 632 0
123 124 -523 -631 0
123 124 -523 -632 0
123 124 -524 -631 0
123 124 -524 -632 0
-123 523 524 -631 0
-123 523 524 -632 0
-124 523 524 -631 0
-124 523 524 -632 0
-123 -523 631 632 0
-123 -524 631 632 0
-124 -523 631 632 0
-124 -524 631 632 0
313 314 703 704 -857 0
313 314 703 704 -858 0
313 314 -703 857 858 0
313 314 -704 857 858 0
-313 703 704 857 858 0
-314 703 704 857 858 0
-313 -703 -857 0
-313 -703 -858 0
-313 -704 -857 0
-313 -704 -858 0
-314 -703 -857 0
-314 -703 -858 0
-314 -704 -857 0
-314 -704 -858 0
33 34 93 94 -613 0
33 34 93 94 -614 0
33 34 -93 613 614 0
33 34 -94 613 614 0
-33 93 94 613 614 0
-34 93 94 613 614 0
-33 -93 -613 0
-33 -93 -614 0
-33 -94 -613 0
-33 -94 -614 0
-34 -93 -613 0
-34 -93 -614 0
-34 -94 -613 0
-34 -94 -614 0
541 542 727 728 761 762 0
541 542 -727 -761 0
541 542 -727 -762 0
541 542 -728 -761 0
541 542 -728 -762 0
-541 727 728 -761 0
-541 727 728 -762 0
-542 727 728 -761 0
-542 727 728 -762 0
-541 -727 761 762 0
-541 -728 761 762 0
-542 -727 761 762 0
-542 -728 761 762 0
427 428 909 910 955 956 0
427 428 -909 -955 0
427 428 -909 -956 0
427 428 -910 -955 0
427 428 -910 -956 0
-427 909 910 -955 0
-427 909 910 -956 0
-428 909 910 -955 0
-428 909 910 -956 0
-427 -909 955 956 0
-427 -910 955 956 0
-428 -909 955 956 0
-428 -910 955 956 0
83 84 157 158 -667 0
83 84 157 158 -668 0
83 84 -157 667 668 0
83 84 -158 667 668 0
-83 157 158 667 668 0
-84 157 158 667 668 0
-83 -157 -667 0
-83 -157 -668 0
-83 -158 -667 0
-83 -158 -668 0
-84 -157 -667 0
-84 -157 -668 0
-84 -158 -667 0
-84 -158 -668 0
49 50 607 608 993 994 0
49 50 -607 -993 0
49 50 -607 -994 0
49 50 -608 -993 0
49 50 -608 -994 0
-49 607 608 -993 0
-49 607 608 -994 0
-50 607 608 -993 0
-50 607 608 -994 0
-49 -607 993 994 0
-49 -608 993 994 0
-50 -607 993 994 0
-50 -608 993 994 0
607 608 959 960 999 1000 0
607 608 -959 -999 0
607 608 -959 -1000 0
607 608 -960 -999 0
607 608 -960 -1000 0
-607 959 960 -999 0
-607 959 960 -1000 0
-608 959 960 -999 0
-608 959 960 -1000 0
-607 -959 999 1000 0
-607 -960 999 1000 0
-608 -959 999 1000 0
-608 -960 999 1000 0
173 174 483 484 519 520 0
173 174 -483 -519 0
173 174 -483 -520 0
173 174 -484 -519 0
173 174 -484 -520 0
-173 483 484 -519 0
-173 483 484 -520 0
-174 483 484 -519 0
-174 483 484 -520 0
-173 -483 519 520 0
-173 -484 519 520 0
-174 -483 519 520 0
-174 -484 519 520 0
543 544 765 766 819 820 0
543 544 -765 -819 0
543 544 -765 -820 0
543 544 -766 -819 0
543 544 -766 -820 0
-543 765 766 -819 0
-543 765 766 -820 0
-544 765 766 -819 0
-544 765 766 -820 0
-543 -765 819 820 0
-543 -766 819 820 0
-544 -765 819 820 0
-544 -766 819 820 0
605 606 831 832 1071 1072 0
605 606 -831 -1071 0
605 606 -831 -1072 0
605 606 -832 -1071 0
605 606 -832 -1072 0
-605 831 832 -1071 0
-605 831 832 -1072 0
-606 831 832 -1071 0
-606 831 832 -1072 0
-605 -831 1071 1072 0
-605 -832 1071 1072 0
-606 -831 1071 1072 0
-606 -832 1071 1072 0
175 176 485 486 901 902 0
175 176 -485 -901 0
175 176 -485 -902 0
175 176 -486 -901 0
175 176 -486 -902 0
-175 485 486 -901 0
-175 485 486 -902 0
-176 485 486 -901 0
-176 485 486 -902 0
-175 -485 901 902 0
-175 -486 901 902 0
-176 -485 901 902 0
-176 -486 901 902 0
297 298 341 342 -823 0
297 298 341 342 -824 0
297 298 -341 823 824 0
297 298 -342 823 824 0
-297 341 342 823 824 0
-298 341 342 823 824 0
-297 -341 -823 0
-297 -341 -824 0
-297 -342 -823 0
-297 -342 -824 0
-298 -341 -823 0
-298 -341 -824 0
-298 -342 -823 0
-298 -342 -824 0
39 40 119 120 325 326 0
39 40 -119 -325 0
39 40 -119 -326 0
39 40 -120 -325 0
39 40 -120 -326 0
-39 119 120 -325 0
-39 119 120 -326 0
-40 119 120 -325 0
-40 119 120 -326 0
-39 -119 325 326 0
-39 -120 325 326 0
-40 -119 325 326 0
-40 -120 325 326 0
473 474 533 534 -795 0
473 474 533 534 -796 0
473 474 -533 795 796 0
473 474 -534 795 796 0
-473 533 534 795 796 0
-474 533 534 795 796 0
-473 -533 -795 0
-473 -533 -796 0
-473 -534 -795 0
-473 -534 -796 0
-474 -533 -795 0
-474 -533 -796 0
-474 -534 -795 0
-474 -534 -796 0
229 230 285 286 953 954 0
229 230 -285 -953 0
229 230 -285 -954 0
229 230 -286 -953 0
229 230 -286 -954 0
-229 285 286 -953 0
-229 285 286 -954 0
-230 285 286 -953 0
-230 285 286 -954 0
-229 -285 953 954 0
-229 -286 953 954 0
-230 -285 953 954 0
-230 -286 953 954 0
243 244 493 494 1045 1046 0
243 244 -493 -1045 0
243 244 -493 -1046 0
243 244 -494 -1045 0
243 244 -494 -1046 0
-243 493 494 -1045 0
-243 493 494 -1046 0
-244 493 494 -1045 0
-244 493 494 -1046 0
-243 -493 1045 1046 0
-243 -494 1045 1046 0
-244 -493 1045 1046 0
-244 -494 1045 1046 0
295 296 491 492 915 916 0
295 296 -491 -915 0
295 296 -491 -916 0
295 296 -492 -915 0
295 296 -492 -916 0
-295 491 492 -915 0
-295 491 492 -916 0
-296 491 492 -915 0
-296 491 492 -916 0
-295 -491 915 916 0
-295 -492 915 916 0
-296 -491 915 916 0
-296 -492 915 916 0
233 234 407 408 965 966 0
233 234 -407 -965 0
233 234 -407 -966 0
233 234 -408 -965 0
233 234 -408 -966 0
-233 407 408 -965 0
-233 407 408 -966 0
-234 407 408 -965 0
-234 407 408 -966 0
-233 -407 965 966 0
-233 -408 965 966 0
-234 -407 965 966 0
-234 -408 965 966 0
275 276 329 330 -423 0
275 276 329 330 -424 0
275 276 -329 423 424 0
275 276 -330 423 424 0
-275 329 330 423 424 0
-276 329 330 423 424 0
-275 -329 -423 0
-275 -329 -424 0
-275 -330 -423 0
-275 -330 -424 0
-276 -329 -423 0
-276 -329 -424 0
-276 -330 -423 0
-276 -330 -424 0
249 250 675 676 873 874 0
249 250 -675 -873 0
249 250 -675 -874 0
249 250 -676 -873 0
249 250 -676 -874 0
-249 675 676 -873 0
-249 675 676 -874 0
-250 675 676 -873 0
-250 675 676 -874 0
-249 -675 873 874 0
-249 -676 873 874 0
-250 -675 873 874 0
-250 -676 873 874 0
43 44 635 636 -973 0
43 44 635 636 -974 0
43 44 -635 973 974 0
43 44 -636 973 974 0
-43 635 636 973 974 0
-44 635 636 973 974 0
-43 -635 -973 0
-43 -635 -974 0
-43 -636 -973 0
-43 -636 -974 0
-44 -635 -973 0
-44 -635 -974 0
-44 -636 -973 0
-44 -636 -974 0
249 250 557 558 -985 0
249 250 557 558 -986 0
249 250 -557 985 986 0
249 250 -558 985 986 0
-249 557 558 985 986 0
-250 557 558 985 986 0
-249 -557 -985 0
-249 -557 -986 0
-249 -558 -985 0
-249 -558 -986 0
-250 -557 -985 0
-250 -557 -986 0
-250 -558 -985 0
-250 -558 -986 0
59 60 107 108 -709 0
59 60 107 108 -710 0
59 60 -107 709 710 0
59 60 -108 709 710 0
-59 107 108 709 710 0
-60 107 108 709 710 0
-59 -107 -709 0
-59 -107 -710 0
-59 -108 -709 0
-59 -108 -710 0
-60 -107 -709 0
-60 -107 -710 0
-60 -108 -709 0
-60 -108 -710 0
23 24 369 370 -741 0
23 24 369 370 -742 0
23 24 -369 741 742 0
23 24 -370 741 742 0
-23 369 370 741 742 0
-24 369 370 741 742 0
-23 -369 -741 0
-23 -369 -742 0
-23 -370 -741 0
-23 -370 -742 0
-24 -369 -741 0
-24 -369 -742 0
-24 -370 -741 0
-24 -370 -742 0
73 74 267 268 495 496 0
73 74 -267 -495 0
73 74 -267 -496 0
73 74 -268 -495 0
73 74 -268 -496 0
-73 267 268 -495 0
-73 267 268 -496 0
-74 267 268 -495 0
-74 267 268 -496 0
-73 -267 495 496 0
-73 -268 495 496 0
-74 -267 495 496 0
-74 -268 495 496 0
305 306 915 916 929 930 0
305 306 -915 -929 0
305 306 -915 -930 0
305 306 -916 -929 0
305 306 -916 -930 0
-305 915 916 -929 0
-305 915 916 -930 0
-306 915 916 -929 0
-306 915 916 -930 0
-305 -915 929 930 0
-305 -916 929 930 0
-306 -915 929 930 0
-306 -916 929 930 0
143 144 355 356 -1057 0
143 144 355 356 -1058 0
143 144 -355 1057 1058 0
143 144 -356 1057 1058 0
-143 355 356 1057 1058 0
-144 355 356 1057 1058 0
-143 -355 -1057 0
-143 -355 -1058 0
-143 -356 -1057 0
-143 -356 -1058 0
-144 -355 -1057 0
-144 -355 -1058 0
-144 -356 -1057 0
-144 -356 -1058 0
89 90 119 120 -213 0
89 90 119 120 -214 0
89 90 -119 213 214 0
89 90 -120 213 214 0
-89 119 120 213 214 0
-90 119 120 213 214 0
-89 -119 -213 0
-89 -119 -214 0
-89 -120 -213 0
-89 -120 -214 0
-90 -119 -213 0
-90 -119 -214 0
-90 -120 -213 0
-90 -120 -214 0
57 58 503 504 849 850 0
57 58 -503 -849 0
57 58 -503 -850 0
57 58 -504 -849 0
57 58 -504 -850 0
-57 503 504 -849 0
-57 503 504 -850 0
-58 503 504 -849 0
-58 503 504 -850 0
-57 -503 849 850 0
-57 -504 849 850 0
-58 -503 849 850 0
-58 -504 849 850 0
131 132 169 170 -265 0
131 132 169 170 -266 0
131 132 -169 265 266 0
131 132 -170 265 266 0
-131 169 170 265 266 0
-132 169 170 265 266 0
-131 -169 -265 0
-131 -169 -266 0
-131 -170 -265 0
-131 -170 -266 0
-132 -169 -265 0
-132 -169 -266 0
-132 -170 -265 0
-132 -170 -266 0
171 172 891 892 963 964 0
171 172 -891 -963 0
171 172 -891 -964 0
171 172 -892 -963 0
171 172 -892 -964 0
-171 891 892 -963 0
-171 891 892 -964 0
-172 891 892 -963 0
-172 891 892 -964 0
-171 -891 963 964 0
-171 -892 963 964 0
-172 -891 963 964 0
-172 -892 963 964 0
329 330 533 534 -651 0
329 330 533 534 -652 0
329 330 -533 651 652 0
329 330 -534 651 652 0
-329 533 534 651 652 0
-330 533 534 651 652 0
-329 -533 -651 0
-329 -533 -652 0
-329 -534 -651 0
-329 -534 -652 0
-330 -533 -651 0
-330 -533 -652 0
-330 -534 -651 0
-330 -534 -652 0
171 172 281 282 -933 0
171 172 281 282 -934 0
171 172 -281 933 934 0
171 172 -282 933 934 0
-171 281 282 933 934 0
-172 281 282 933 934 0
-171 -281 -933 0
-171 -281 -934 0
-171 -282 -933 0
-171 -282 -934 0
-172 -281 -933 0
-172 -281 -934 0
-172 -282 -933 0
-172 -282 -934 0
195 196 317 318 -507 0
195 196 317 318 -508 0
195 196 -317 507 508 0
195 196 -318 507 508 0
-195 317 318 507 508 0
-196 317 318 507 508 0
-195 -317 -507 0
-195 -317 -508 0
-195 -318 -507 0
-195 -318 -508 0
-196 -317 -507 0
-196 -317 -508 0
-196 -318 -507 0
-196 -318 -508 0
739 740 935 936 1013 1014 0
739 740 -935 -1013 0
739 740 -935 -1014 0
739 740 -936 -1013 0
739 740 -936 -1014 0
-739 935 936 -1013 0
-739 935 936 -1014 0
-740 935 936 -1013 0
-740 935 936 -1014 0
-739 -935 1013 1014 0
-739 -936 1013 1014 0
-740 -935 1013 1014 0
-740 -936 1013 1014 0
45 46 183 184 981 982 0
45 46 -183 -981 0
45 46 -183 -982 0
45 46 -184 -981 0
45 46 -184 -982 0
-45 183 184 -981 0
-45 183 184 -982 0
-46 183 184 -981 0
-46 183 184 -982 0
-45 -183 981 982 0
-45 -184 981 982 0
-46 -183 981 982 0
-46 -184 981 982 0
233 234 691 692 865 866 0
233 234 -691 -865 0
233 234 -691 -866 0
233 234 -692 -865 0
233 234 -692 -866 0
-233 691 692 -865 0
-233 691 692 -866 0
-234 691 692 -865 0
-234 691 692 -866 0
-233 -691 865 866 0
-233 -692 865 866 0
-234 -691 865 866 0
-234 -692 865 866 0
227 228 397 398 -427 0
227 228 397 398 -428 0
227 228 -397 427 428 0
227 228 -398 427 428 0
-227 397 398 427 428 0
-228 397 398 427 428 0
-227 -397 -427 0
-227 -397 -428 0
-227 -398 -427 0
-227 -398 -428 0
-228 -397 -427 0
-228 -397 -428 0
-228 -398 -427 0
-228 -398 -428 0
107 108 875 876 1077 1078 0
107 108 -875 -1077 0
107 108 -875 -1078 0
107 108 -876 -1077 0
107 108 -876 -1078 0
-107 875 876 -1077 0
-107 875 876 -1078 0
-108 875 876 -1077 0
-108 875 876 -1078 0
-107 -875 1077 1078 0
-107 -876 1077 1078 0
-108 -875 1077 1078 0
-108 -876 1077 1078 0
253 254 555 556 -1005 0
253 254 555 556 -1006 0
253 254 -555 1005 1006 0
253 254 -556 1005 1006 0
-253 555 556 1005 1006 0
-254 555 556 1005 1006 0
-253 -555 -1005 0
-253 -555 -1006 0
-253 -556 -1005 0
-253 -556 -1006 0
-254 -555 -1005 0
-254 -555 -1006 0
-254 -556 -1005 0
-254 -556 -1006 0
83 84 585 586 621 622 0
83 84 -585 -621 0
83 84 -585 -622 0
83 84 -586 -621 0
83 84 -586 -622 0
-83 585 586 -621 0
-83 585 586 -622 0
-84 585 586 -621 0
-84 585 586 -622 0
-83 -585 621 622 0
-83 -586 621 622 0
-84 -585 621 622 0
-84 -586 621 622 0
343 344 439 440 697 698 0
343 344 -439 -697 0
343 344 -439 -698 0
343 344 -440 -697 0
343 344 -440 -698 0
-343 439 440 -697 0
-343 439 440 -698 0
-344 439 440 -697 0
-344 439 440 -698 0
-343 -439 697 698 0
-343 -440 697 698 0
-344 -439 697 698 0
-344 -440 697 698 0
91 92 107 108 -787 0
91 92 107 108 -788 0
91 92 -107 787 788 0
91 92 -108 787 788 0
-91 107 108 787 788 0
-92 107 108 787 788 0
-91 -107 -787 0
-91 -107 -788 0
-91 -108 -787 0
-91 -108 -788 0
-92 -107 -787 0
-92 -107 -788 0
-92 -108 -787 0
-92 -108 -788 0
451 452 531 532 -555 0
451 452 531 532 -556 0
451 452 -531 555 556 0
451 452 -532 555 556 0
-451 531 532 555 556 0
-452 531 532 555 556 0
-451 -531 -555 0
-451 -531 -556 0
-451 -532 -555 0
-451 -532 -556 0
-452 -531 -555 0
-452 -531 -556 0
-452 -532 -555 0
-452 -532 -556 0
55 56 119 120 173 174 0
55 56 -119 -173 0
55 56 -119 -174 0
55 56 -120 -173 0
55 56 -120 -174 0
-55 119 120 -173 0
-55 119 120 -174 0
-56 119 120 -173 0
-56 119 120 -174 0
-55 -119 173 174 0
-55 -120 173 174 0
-56 -119 173 174 0
-56 -120 173 174 0
75 76 127 128 -935 0
75 76 127 128 -936 0
75 76 -127 935 936 0
75 76 -128 935 936 0
-75 127 128 935 936 0
-76 127 128 935 936 0
-75 -127 -935 0
-75 -127 -936 0
-75 -128 -935 0
-75 -128 -936 0
-76 -127 -935 0
-76 -127 -936 0
-76 -128 -935 0
-76 -128 -936 0
291 292 691 692 -749 0
291 292 691 692 -750 0
291 292 -691 749 750 0
291 292 -692 749 750 0
-291 691 692 749 750 0
-292 691 692 749 750 0
-291 -691 -749 0
-291 -691 -750 0
-291 -692 -749 0
-291 -692 -750 0
-292 -691 -749 0
-292 -691 -750 0
-292 -692 -749 0
-292 -692 -750 0
237 238 391 392 449 450 0
237 238 -391 -449 0
237 238 -391 -450 0
237 238 -392 -449 0
237 238 -392 -450 0
-237 391 392 -449 0
-237 391 392 -450 0
-238 391 392 -449 0
-238 391 392 -450 0
-237 -391 449 450 0
-237 -392 449 450 0
-238 -391 449 450 0
-238 -392 449 450 0
343 344 519 520 1003 1004 0
343 344 -519 -1003 0
343 344 -519 -1004 0
343 344 -520 -1003 0
343 344 -520 -1004 0
-343 519 520 -1003 0
-343 519 520 -1004 0
-344 519 520 -1003 0
-344 519 520 -1004 0
-343 -519 1003 1004 0
-343 -520 1003 1004 0
-344 -519 1003 1004 0
-344 -520 1003 1004 0
117 118 649 650 -899 0
117 118 649 650 -900 0
117 118 -649 899 900 0
117 118 -650 899 900 0
-117 649 650 899 900 0
-118 649 650 899 900 0
-117 -649 -899 0
-117 -649 -900 0
-117 -650 -899 0
-117 -650 -900 0
-118 -649 -899 0
-118 -649 -900 0
-118 -650 -899 0
-118 -650 -900 0
509 510 543 544 639 640 0
509 510 -543 -639 0
509 510 -543 -640 0
509 510 -544 -639 0
509 510 -544 -640 0
-509 543 544 -639 0
-509 543 544 -640 0
-510 543 544 -639 0
-510 543 544 -640 0
-509 -543 639 640 0
-509 -544 639 640 0
-510 -543 639 640 0
-510 -544 639 640 0
157 158 637 638 1039 1040 0
157 158 -637 -1039 0
157 158 -637 -1040 0
157 158 -638 -1039 0
157 158 -638 -1040 0
-157 637 638 -1039 0
-157 637 638 -1040 0
-158 637 638 -1039 0
-158 637 638 -1040 0
-157 -637 1039 1040 0
-157 -638 1039 1040 0
-158 -637 1039 1040 0
-158 -638 1039 1040 0
415 416 605 606 -915 0
415 416 605 606 -916 0
415 416 -605 915 916 0
415 416 -606 915 916 0
-415 605 606 915 916 0
-416 605 606 915 916 0
-415 -605 -915 0
-415 -605 -916 0
-415 -606 -915 0
-415 -606 -916 0
-416 -605 -915 0
-416 -605 -916 0
-416 -606 -915 0
-416 -606 -916 0
385 386 549 550 -575 0
385 386 549 550 -576 0
385 386 -549 575 576 0
385 386 -550 575 576 0
-385 549 550 575 576 0
-386 549 550 575 576 0
-385 -549 -575 0
-385 -549 -576 0
-385 -550 -575 0
-385 -550 -576 0
-386 -549 -575 0
-386 -549 -576 0
-386 -550 -575 0
-386 -550 -576 0
25 26 277 278 -617 0
25 26 277 278 -618 0
25 26 -277 617 618 0
25 26 -278 617 618 0
-25 277 278 617 618 0
-26 277 278 617 618 0
-25 -277 -617 0
-25 -277 -618 0
-25 -278 -617 0
-25 -278 -618 0
-26 -277 -617 0
-26 -277 -618 0
-26 -278 -617 0
-26 -278 -618 0
65 66 533 534 -677 0
65 66 533 534 -678 0
65 66 -533 677 678 0
65 66 -534 677 678 0
-65 533 534 677 678 0
-66 533 534 677 678 0
-65 -533 -677 0
-65 -533 -678 0
-65 -534 -677 0
-65 -534 -678 0
-66 -533 -677 0
-66 -533 -678 0
-66 -534 -677 0
-66 -534 -678 0
149 150 515 516 -1055 0
149 150 515 516 -1056 0
149 150 -515 1055 1056 0
149 150 -516 1055 1056 0
-149 515 516 1055 1056 0
-150 515 516 1055 1056 0
-149 -515 -1055 0
-149 -515 -1056 0
-149 -516 -1055 0
-149 -516 -1056 0
-150 -515 -1055 0
-150 -515 -1056 0
-150 -516 -1055 0
-150 -516 -1056 0
473 474 837 838 -993 0
473 474 837 838 -994 0
473 474 -837 993 994 0
473 474 -838 993 994 0
-473 837 838 993 994 0
-474 837 838 993 994 0
-473 -837 -993 0
-473 -837 -994 0
-473 -838 -993 0
-473 -838 -994 0
-474 -837 -993 0
-474 -837 -994 0
-474 -838 -993 0
-474 -838 -994 0
667 668 815 816 -1049 0
667 668 815 816 -1050 0
667 668 -815 1049 1050 0
667 668 -816 1049 1050 0
-667 815 816 1049 1050 0
-668 815 816 1049 1050 0
-667 -815 -1049 0
-667 -815 -1050 0
-667 -816 -1049 0
-667 -816 -1050 0
-668 -815 -1049 0
-668 -815 -1050 0
-668 -816 -1049 0
-668 -816 -1050 0
1 2 61 62 -429 0
1 2 61 62 -430 0
1 2 -61 429 430 0
1 2 -62 429 430 0
-1 61 62 429 430 0
-2 61 62 429 430 0
-1 -61 -429 0
-1 -61 -430 0
-1 -62 -429 0
-1 -62 -430 0
-2 -61 -429 0
-2 -61 -430 0
-2 -62 -429 0
-2 -62 -430 0
547 548 567 568 919 920 0
547 548 -567 -919 0
547 548 -567 -920 0
547 548 -568 -919 0
547 548 -568 -920 0
-547 567 568 -919 0
-547 567 568 -920 0
-548 567 568 -919 0
-548 567 568 -920 0
-547 -567 919 920 0
-547 -568 919 920 0
-548 -567 919 920 0
-548 -568 919 920 0
103 104 711 712 -1033 0
103 104 711 712 -1034 0
103 104 -711 1033 1034 0
103 104 -712 1033 1034 0
-103 711 712 1033 1034 0
-104 711 712 1033 1034 0
-103 -711 -1033 0
-103 -711 -1034 0
-103 -712 -1033 0
-103 -712 -1034 0
-104 -711 -1033 0
-104 -711 -1034 0
-104 -712 -1033 0
-104 -712 -1034 0
475 476 903 904 -1001 0
475 476 903 904 -1002 0
475 476 -903 1001 1002 0
475 476 -904 1001 1002 0
-475 903 904 1001 1002 0
-476 903 904 1001 1002 0
-475 -903 -1001 0
-475 -903 -1002 0
-475 -904 -1001 0
-475 -904 -1002 0
-476 -903 -1001 0
-476 -903 -1002 0
-476 -904 -1001 0
-476 -904 -1002 0
913 914 921 922 -995 0
913 914 921 922 -996 0
913 914 -921 995 996 0
913 914 -922 995 996 0
-913 921 922 995 996 0
-914 921 922 995 996 0
-913 -921 -995 0
-913 -921 -996 0
-913 -922 -995 0
-913 -922 -996 0
-914 -921 -995 0
-914 -921 -996 0
-914 -922 -995 0
-914 -922 -996 0
19 20 643 644 -723 0
19 20 643 644 -724 0
19 20 -643 723 724 0
19 20 -644 723 724 0
-19 643 644 723 724 0
-20 643 644 723 724 0
-19 -643 -723 0
-19 -643 -724 0
-19 -644 -723 0
-19 -644 -724 0
-20 -643 -723 0
-20 -643 -724 0
-20 -644 -723 0
-20 -644 -724 0
63 64 199 200 -255 0
63 64 199 200 -256 0
63 64 -199 255 256 0
63 64 -200 255 256 0
-63 199 200 255 256 0
-64 199 200 255 256 0
-63 -199 -255 0
-63 -199 -256 0
-63 -200 -255 0
-63 -200 -256 0
-64 -199 -255 0
-64 -199 -256 0
-64 -200 -255 0
-64 -200 -256 0
379 380 727 728 841 842 0
379 380 -727 -841 0
379 380 -727 -842 0
379 380 -728 -841 0
379 380 -728 -842 0
-379 727 728 -841 0
-379 727 728 -842 0
-380 727 728 -841 0
-380 727 728 -842 0
-379 -727 841 842 0
-379 -728 841 842 0
-380 -727 841 842 0
-380 -728 841 842 0
39 40 375 376 521 522 0
39 40 -375 -521 0
39 40 -375 -522 0
39 40 -376 -521 0
39 40 -376 -522 0
-39 375 376 -521 0
-39 375 376 -522 0
-40 375 376 -521 0
-40 375 376 -522 0
-39 -375 521 522 0
-39 -376 521 522 0
-40 -375 521 522 0
-40 -376 521 522 0
71 72 483 484 649 650 0
71 72 -483 -649 0
71 72 -483 -650 0
71 72 -484 -649 0
71 72 -484 -650 0
-71 483 484 -649 0
-71 483 484 -650 0
-72 483 484 -649 0
-72 483 484 -650 0
-71 -483 649 650 0
-71 -484 649 650 0
-72 -483 649 650 0
-72 -484 649 650 0
583 584 939 940 -1047 0
583 584 939 940 -1048 0
583 584 -939 1047 1048 0
583 584 -940 1047 1048 0
-583 939 940 1047 1048 0
-584 939 940 1047 1048 0
-583 -939 -1047 0
-583 -939 -1048 0
-583 -940 -1047 0
-583 -940 -1048 0
-584 -939 -1047 0
-584 -939 -1048 0
-584 -940 -1047 0
-584 -940 -1048 0
95 96 471 472 -501 0
95 96 471 472 -502 0
95 96 -471 501 502 0
95 96 -472 501 502 0
-95 471 472 501 502 0
-96 471 472 501 502 0
-95 -471 -501 0
-95 -471 -502 0
-95 -472 -501 0
-95 -472 -502 0
-96 -471 -501 0
-96 -471 -502 0
-96 -472 -501 0
-96 -472 -502 0
677 678 693 694 -747 0
677 678 693 694 -748 0
677 678 -693 747 748 0
677 678 -694 747 748 0
-677 693 694 747 748 0
-678 693 694 747 748 0
-677 -693 -747 0
-677 -693 -748 0
-677 -694 -747 0
-677 -694 -748 0
-678 -693 -747 0
-678 -693 -748 0
-678 -694 -747 0
-678 -694 -748 0
5 6 151 152 759 760 0
5 6 -151 -759 0
5 6 -151 -760 0
5 6 -152 -759 0
5 6 -152 -760 0
-5 151 152 -759 0
-5 151 152 -760 0
-6 151 152 -759 0
-6 151 152 -760 0
-5 -151 759 760 0
-5 -152 759 760 0
-6 -151 759 760 0
-6 -152 759 760 0
275 276 895 896 -981 0
275 276 895 896 -982 0
275 276 -895 981 982 0
275 276 -896 981 982 0
-275 895 896 981 982 0
-276 895 896 981 982 0
-275 -895 -981 0
-275 -895 -982 0
-275 -896 -981 0
-275 -896 -982 0
-276 -895 -981 0
-276 -895 -982 0
-276 -896 -981 0
-276 -896 -982 0
177 178 247 248 591 592 0
177 178 -247 -591 0
177 178 -247 -592 0
177 178 -248 -591 0
177 178 -248 -592 0
-177 247 248 -591 0
-177 247 248 -592 0
-178 247 248 -591 0
-178 247 248 -592 0
-177 -247 591 592 0
-177 -248 591 592 0
-178 -247 591 592 0
-178 -248 591 592 0
103 104 877 878 -1059 0
103 104 877 878 -1060 0
103 104 -877 1059 1060 0
103 104 -878 1059 1060 0
-103 877 878 1059 1060 0
-104 877 878 1059 1060 0
-103 -877 -1059 0
-103 -877 -1060 0
-103 -878 -1059 0
-103 -878 -1060 0
-104 -877 -1059 0
-104 -877 -1060 0
-104 -878 -1059 0
-104 -878 -1060 0
57 58 367 368 -739 0
57 58 367 368 -740 0
57 58 -367 739 740 0
57 58 -368 739 740 0
-57 367 368 739 740 0
-58 367 368 739 740 0
-57 -367 -739 0
-57 -367 -740 0
-57 -368 -739 0
-57 -368 -740 0
-58 -367 -739 0
-58 -367 -740 0
-58 -368 -739 0
-58 -368 -740 0
9 10 253 254 -729 0
9 10 253 254 -730 0
9 10 -253 729 730 0
9 10 -254 729 730 0
-9 253 254 729 730 0
-10 253 254 729 730 0
-9 -253 -729 0
-9 -253 -730 0
-9 -254 -729 0
-9 -254 -730 0
-10 -253 -729 0
-10 -253 -730 0
-10 -254 -729 0
-10 -254 -730 0
89 90 277 278 -1047 0
89 90 277 278 -1048 0
89 90 -277 1047 1048 0
89 90 -278 1047 1048 0
-89 277 278 1047 1048 0
-90 277 278 1047 1048 0
-89 -277 -1047 0
-89 -277 -1048 0
-89 -278 -1047 0
-89 -278 -1048 0
-90 -277 -1047 0
-90 -277 -1048 0
-90 -278 -1047 0
-90 -278 -1048 0
335 336 915 916 1025 1026 0
335 336 -915 -1025 0
335 336 -915 -1026 0
335 336 -916 -1025 0
335 336 -916 -1026 0
-335 915 916 -1025 0
-335 915 916 -1026 0
-336 915 916 -1025 0
-336 915 916 -1026 0
-335 -915 1025 1026 0
-335 -916 1025 1026 0
-336 -915 1025 1026 0
-336 -916 1025 1026 0
23 24 331 332 901 902 0
23 24 -331 -901 0
23 24 -331 -902 0
23 24 -332 -901 0
23 24 -332 -902 0
-23 331 332 -901 0
-23 331 332 -902 0
-24 331 332 -901 0
-24 331 332 -902 0
-23 -331 901 902 0
-23 -332 901 902 0
-24 -331 901 902 0
-24 -332 901 902 0
83 84 943 944 -1051 0
83 84 943 944 -1052 0
83 84 -943 1051 1052 0
83 84 -944 1051 1052 0
-83 943 944 1051 1052 0
-84 943 944 1051 1052 0
-83 -943 -1051 0
-83 -943 -1052 0
-83 -944 -1051 0
-83 -944 -1052 0
-84 -943 -1051 0
-84 -943 -1052 0
-84 -944 -1051 0
-84 -944 -1052 0
513 514 785 786 883 884 0
513 514 -785 -883 0
513 514 -785 -884 0
513 514 -786 -883 0
513 514 -786 -884 0
-513 785 786 -883 0
-513 785 786 -884 0
-514 785 786 -883 0
-514 785 786 -884 0
-513 -785 883 884 0
-513 -786 883 884 0
-514 -785 883 884 0
-514 -786 883 884 0
193 194 507 508 683 684 0
193 194 -507 -683 0
193 194 -507 -684 0
193 194 -508 -683 0
193 194 -508 -684 0
-193 507 508 -683 0
-193 507 508 -684 0
-194 507 508 -683 0
-194 507 508 -684 0
-193 -507 683 684 0
-193 -508 683 684 0
-194 -507 683 684 0
-194 -508 683 684 0
105 106 955 956 -1055 0
105 106 955 956 -1056 0
105 106 -955 1055 1056 0
105 106 -956 1055 1056 0
-105 955 956 1055 1056 0
-106 955 956 1055 1056 0
-105 -955 -1055 0
-105 -955 -1056 0
-105 -956 -1055 0
-105 -956 -1056 0
-106 -955 -1055 0
-106 -955 -1056 0
-106 -956 -1055 0
-106 -956 -1056 0
197 198 701 702 757 758 0
197 198 -701 -757 0
197 198 -701 -758 0
197 198 -702 -757 0
197 198 -702 -758 0
-197 701 702 -757 0
-197 701 702 -758 0
-198 701 702 -757 0
-198 701 702 -758 0
-197 -701 757 758 0
-197 -702 757 758 0
-198 -701 757 758 0
-198 -702 757 758 0
981 982 1041 1042 -1055 0
981 982 1041 1042 -1056 0
981 982 -1041 1055 1056 0
981 982 -1042 1055 1056 0
-981 1041 1042 1055 1056 0
-982 1041 1042 1055 1056 0
-981 -1041 -1055 0
-981 -1041 -1056 0
-981 -1042 -1055 0
-981 -1042 -1056 0
-982 -1041 -1055 0
-982 -1041 -1056 0
-982 -1042 -1055 0
-982 -1042 -1056 0
161 162 293 294 -919 0
161 162 293 294 -920 0
161 162 -293 919 920 0
161 162 -294 919 920 0
-161 293 294 919 920 0
-162 293 294 919 920 0
-161 -293 -919 0
-161 -293 -920 0
-161 -294 -919 0
-161 -294 -920 0
-162 -293 -919 0
-162 -293 -920 0
-162 -294 -919 0
-162 -294 -920 0
121 122 643 644 -1031 0
121 122 643 644 -1032 0
121 122 -643 1031 1032 0
121 122 -644 1031 1032 0
-121 643 644 1031 1032 0
-122 643 644 1031 1032 0
-121 -643 -1031 0
-121 -643 -1032 0
-121 -644 -1031 0
-121 -644 -1032 0
-122 -643 -1031 0
-122 -643 -1032 0
-122 -644 -1031 0
-122 -644 -1032 0
365 366 451 452 -757 0
365 366 451 452 -758 0
365 366 -451 757 758 0
365 366 -452 757 758 0
-365 451 452 757 758 0
-366 451 452 757 758 0
-365 -451 -757 0
-365 -451 -758 0
-365 -452 -757 0
-365 -452 -758 0
-366 -451 -757 0
-366 -451 -758 0
-366 -452 -757 0
-366 -452 -758 0
245 246 605 606 -791 0
245 246 605 606 -792 0
245 246 -605 791 792 0
245 246 -606 791 792 0
-245 605 606 791 792 0
-246 605 606 791 792 0
-245 -605 -791 0
-245 -605 -792 0
-245 -606 -791 0
-245 -606 -792 0
-246 -605 -791 0
-246 -605 -792 0
-246 -606 -791 0
-246 -606 -792 0
29 30 113 114 -709 0
29 30 113 114 -710 0
29 30 -113 709 710 0
29 30 -114 709 710 0
-29 113 114 709 710 0
-30 113 114 709 710 0
-29 -113 -709 0
-29 -113 -710 0
-29 -114 -709 0
-29 -114 -710 0
-30 -113 -709 0
-30 -113 -710 0
-30 -114 -709 0
-30 -114 -710 0
145 146 747 748 901 902 0
145 146 -747 -901 0
145 146 -747 -902 0
145 146 -748 -901 0
145 146 -748 -902 0
-145 747 748 -901 0
-145 747 748 -902 0
-146 747 748 -901 0
-146 747 748 -902 0
-145 -747 901 902 0
-145 -748 901 902 0
-146 -747 901 902 0
-146 -748 901 902 0
397 398 553 554 839 840 0
397 398 -553 -839 0
397 398 -553 -840 0
397 398 -554 -839 0
397 398 -554 -840 0
-397 553 554 -839 0
-397 553 554 -840 0
-398 553 554 -839 0
-398 553 554 -840 0
-397 -553 839 840 0
-397 -554 839 840 0
-398 -553 839 840 0
-398 -554 839 840 0
23 24 775 776 1023 1024 0
23 24 -775 -1023 0
23 24 -775 -1024 0
23 24 -776 -1023 0
23 24 -776 -1024 0
-23 775 776 -1023 0
-23 775 776 -1024 0
-24 775 776 -1023 0
-24 775 776 -1024 0
-23 -775 1023 1024 0
-23 -776 1023 1024 0
-24 -775 1023 1024 0
-24 -776 1023 1024 0
681 682 695 696 957 958 0
681 682 -695 -957 0
681 682 -695 -958 0
681 682 -696 -957 0
681 682 -696 -958 0
-681 695 696 -957 0
-681 695 696 -958 0
-682 695 696 -957 0
-682 695 696 -958 0
-681 -695 957 958 0
-681 -696 957 958 0
-682 -695 957 958 0
-682 -696 957 958 0
421 422 477 478 -801 0
421 422 477 478 -802 0
421 422 -477 801 802 0
421 422 -478 801 802 0
-421 477 478 801 802 0
-422 477 478 801 802 0
-421 -477 -801 0
-421 -477 -802 0
-421 -478 -801 0
-421 -478 -802 0
-422 -477 -801 0
-422 -477 -802 0
-422 -478 -801 0
-422 -478 -802 0
137 138 189 190 -655 0
137 138 189 190 -656 0
137 138 -189 655 656 0
137 138 -190 655 656 0
-137 189 190 655 656 0
-138 189 190 655 656 0
-137 -189 -655 0
-137 -189 -656 0
-137 -190 -655 0
-137 -190 -656 0
-138 -189 -655 0
-138 -189 -656 0
-138 -190 -655 0
-138 -190 -656 0
395 396 423 424 -447 0
395 396 423 424 -448 0
395 396 -423 447 448 0
395 396 -424 447 448 0
-395 423 424 447 448 0
-396 423 424 447 448 0
-395 -423 -447 0
-395 -423 -448 0
-395 -424 -447 0
-395 -424 -448 0
-396 -423 -447 0
-396 -423 -448 0
-396 -424 -447 0
-396 -424 -448 0
271 272 305 306 -471 0
271 272 305 306 -472 0
271 272 -305 471 472 0
271 272 -306 471 472 0
-271 305 306 471 472 0
-272 305 306 471 472 0
-271 -305 -471 0
-271 -305 -472 0
-271 -306 -471 0
-271 -306 -472 0
-272 -305 -471 0
-272 -305 -472 0
-272 -306 -471 0
-272 -306 -472 0
299 300 921 922 1041 1042 0
299 300 -921 -1041 0
299 300 -921 -1042 0
299 300 -922 -1041 0
299 300 -922 -1042 0
-299 921 922 -1041 0
-299 921 922 -1042 0
-300 921 922 -1041 0
-300 921 922 -1042 0
-299 -921 1041 1042 0
-299 -922 1041 1042 0
-300 -921 1041 1042 0
-300 -922 1041 1042 0
347 348 937 938 -987 0
347 348 937 938 -988 0
347 348 -937 987 988 0
347 348 -938 987 988 0
-347 937 938 987 988 0
-348 937 938 987 988 0
-347 -937 -987 0
-347 -937 -988 0
-347 -938 -987 0
-347 -938 -988 0
-348 -937 -987 0
-348 -937 -988 0
-348 -938 -987 0
-348 -938 -988 0
269 270 915 916 -969 0
269 270 915 916 -970 0
269 270 -915 969 970 0
269 270 -916 969 970 0
-269 915 916 969 970 0
-270 915 916 969 970 0
-269 -915 -969 0
-269 -915 -970 0
-269 -916 -969 0
-269 -916 -970 0
-270 -915 -969 0
-270 -915 -970 0
-270 -916 -969 0
-270 -916 -970 0
21 22 69 70 -613 0
21 22 69 70 -614 0
21 22 -69 613 614 0
21 22 -70 613 614 0
-21 69 70 613 614 0
-22 69 70 613 614 0
-21 -69 -613 0
-21 -69 -614 0
-21 -70 -613 0
-21 -70 -614 0
-22 -69 -613 0
-22 -69 -614 0
-22 -70 -613 0
-22 -70 -614 0
235 236 445 446 -657 0
235 236 445 446 -658 0
235 236 -445 657 658 0
235 236 -446 657 658 0
-235 445 446 657 658 0
-236 445 446 657 658 0
-235 -445 -657 0
-235 -445 -658 0
-235 -446 -657 0
-235 -446 -658 0
-236 -445 -657 0
-236 -445 -658 0
-236 -446 -657 0
-236 -446 -658 0
265 266 863 864 -885 0
265 266 863 864 -886 0
265 266 -863 885 886 0
265 266 -864 885 886 0
-265 863 864 885 886 0
-266 863 864 885 886 0
-265 -863 -885 0
-265 -863 -886 0
-265 -864 -885 0
-265 -864 -886 0
-266 -863 -885 0
-266 -863 -886 0
-266 -864 -885 0
-266 -864 -886 0
531 532 535 536 963 964 0
531 532 -535 -963 0
531 532 -535 -964 0
531 532 -536 -963 0
531 532 -536 -964 0
-531 535 536 -963 0
-531 535 536 -964 0
-532 535 536 -963 0
-532 535 536 -964 0
-531 -535 963 964 0
-531 -536 963 964 0
-532 -535 963 964 0
-532 -536 963 964 0
257 258 281 282 -377 0
257 258 281 282 -378 0
257 258 -281 377 378 0
257 258 -282 377 378 0
-257 281 282 377 378 0
-258 281 282 377 378 0
-257 -281 -377 0
-257 -281 -378 0
-257 -282 -377 0
-257 -282 -378 0
-258 -281 -377 0
-258 -281 -378 0
-258 -282 -377 0
-258 -282 -378 0
293 294 523 524 -941 0
293 294 523 524 -942 0
293 294 -523 941 942 0
293 294 -524 941 942 0
-293 523 524 941 942 0
-294 523 524 941 942 0
-293 -523 -941 0
-293 -523 -942 0
-293 -524 -941 0
-293 -524 -942 0
-294 -523 -941 0
-294 -523 -942 0
-294 -524 -941 0
-294 -524 -942 0
113 114 533 534 -991 0
113 114 533 534 -992 0
113 114 -533 991 992 0
113 114 -534 991 992 0
-113 533 534 991 992 0
-114 533 534 991 992 0
-113 -533 -991 0
-113 -533 -992 0
-113 -534 -991 0
-113 -534 -992 0
-114 -533 -991 0
-114 -533 -992 0
-114 -534 -991 0
-114 -534 -992 0
9 10 689 690 813 814 0
9 10 -689 -813 0
9 10 -689 -814 0
9 10 -690 -813 0
9 10 -690 -814 0
-9 689 690 -813 0
-9 689 690 -814 0
-10 689 690 -813 0
-10 689 690 -814 0
-9 -689 813 814 0
-9 -690 813 814 0
-10 -689 813 814 0
-10 -690 813 814 0
255 256 809 810 -839 0
255 256 809 810 -840 0
255 256 -809 839 840 0
255 256 -810 839 840 0
-255 809 810 839 840 0
-256 809 810 839 840 0
-255 -809 -839 0
-255 -809 -840 0
-255 -810 -839 0
-255 -810 -840 0
-256 -809 -839 0
-256 -809 -840 0
-256 -810 -839 0
-256 -810 -840 0
623 624 907 908 -987 0
623 624 907 908 -988 0
623 624 -907 987 988 0
623 624 -908 987 988 0
-623 907 908 987 988 0
-624 907 908 987 988 0
-623 -907 -987 0
-623 -907 -988 0
-623 -908 -987 0
-623 -908 -988 0
-624 -907 -987 0
-624 -907 -988 0
-624 -908 -987 0
-624 -908 -988 0
189 190 449 450 593 594 0
189 190 -449 -593 0
189 190 -449 -594 0
189 190 -450 -593 0
189 190 -450 -594 0
-189 449 450 -593 0
-189 449 450 -594 0
-190 449 450 -593 0
-190 449 450 -594 0
-189 -449 593 594 0
-189 -450 593 594 0
-190 -449 593 594 0
-190 -450 593 594 0
739 740 885 886 -927 0
739 740 885 886 -928 0
739 740 -885 927 928 0
739 740 -886 927 928 0
-739 885 886 927 928 0
-740 885 886 927 928 0
-739 -885 -927 0
-739 -885 -928 0
-739 -886 -927 0
-739 -886 -928 0
-740 -885 -927 0
-740 -885 -928 0
-740 -886 -927 0
-740 -886 -928 0
101 102 649 650 1055 1056 0
101 102 -649 -1055 0
101 102 -649 -1056 0
101 102 -650 -1055 0
101 102 -650 -1056 0
-101 649 650 -1055 0
-101 649 650 -1056 0
-102 649 650 -1055 0
-102 649 650 -1056 0
-101 -649 1055 1056 0
-101 -650 1055 1056 0
-102 -649 1055 1056 0
-102 -650 1055 1056 0
465 466 583 584 785 786 0
465 466 -583 -785 0
465 466 -583 -786 0
465 466 -584 -785 0
465 466 -584 -786 0
-465 583 584 -785 0
-465 583 584 -786 0
-466 583 584 -785 0
-466 583 584 -786 0
-465 -583 785 786 0
-465 -584 785 786 0
-466 -583 785 786 0
-466 -584 785 786 0
489 490 829 830 1019 1020 0
489 490 -829 -1019 0
489 490 -829 -1020 0
489 490 -830 -1019 0
489 490 -830 -1020 0
-489 829 830 -1019 0
-489 829 830 -1020 0
-490 829 830 -1019 0
-490 829 830 -1020 0
-489 -829 1019 1020 0
-489 -830 1019 1020 0
-490 -829 1019 1020 0
-490 -830 1019 1020 0
337 338 421 422 -567 0
337 338 421 422 -568 0
337 338 -421 567 568 0
337 338 -422 567 568 0
-337 421 422 567 568 0
-338 421 422 567 568 0
-337 -421 -567 0
-337 -421 -568 0
-337 -422 -567 0
-337 -422 -568 0
-338 -421 -567 0
-338 -421 -568 0
-338 -422 -567 0
-338 -422 -568 0
219 220 439 440 673 674 0
219 220 -439 -673 0
219 220 -439 -674 0
219 220 -440 -673 0
219 220 -440 -674 0
-219 439 440 -673 0
-219 439 440 -674 0
-220 439 440 -673 0
-220 439 440 -674 0
-219 -439 673 674 0
-219 -440 673 674 0
-220 -439 673 674 0
-220 -440 673 674 0
169 170 191 192 609 610 0
169 170 -191 -609 0
169 170 -191 -610 0
169 170 -192 -609 0
169 170 -192 -610 0
-169 191 192 -609 0
-169 191 192 -610 0
-170 191 192 -609 0
-170 191 192 -610 0
-169 -191 609 610 0
-169 -192 609 610 0
-170 -191 609 610 0
-170 -192 609 610 0
189 190 457 458 595 596 0
189 190 -457 -595 0
189 190 -457 -596 0
189 190 -458 -595 0
189 190 -458 -596 0
-189 457 458 -595 0
-189 457 458 -596 0
-190 457 458 -595 0
-190 457 458 -596 0
-189 -457 595 596 0
-189 -458 595 596 0
-190 -457 595 596 0
-190 -458 595 596 0
179 180 393 394 633 634 0
179 180 -393 -633 0
179 180 -393 -634 0
179 180 -394 -633 0
179 180 -394 -634 0
-179 393 394 -633 0
-179 393 394 -634 0
-180 393 394 -633 0
-180 393 394 -634 0
-179 -393 633 634 0
-179 -394 633 634 0
-180 -393 633 634 0
-180 -394 633 634 0
343 344 813 814 905 906 0
343 344 -813 -905 0
343 344 -813 -906 0
343 344 -814 -905 0
343 344 -814 -906 0
-343 813 814 -905 0
-343 813 814 -906 0
-344 813 814 -905 0
-344 813 814 -906 0
-343 -813 905 906 0
-343 -814 905 906 0
-344 -813 905 906 0
-344 -814 905 906 0
673 674 697 698 -819 0
673 674 697 698 -820 0
673 674 -697 819 820 0
673 674 -698 819 820 0
-673 697 698 819 820 0
-674 697 698 819 820 0
-673 -697 -819 0
-673 -697 -820 0
-673 -698 -819 0
-673 -698 -820 0
-674 -697 -819 0
-674 -697 -820 0
-674 -698 -819 0
-674 -698 -820 0
543 544 629 630 -881 0
543 544 629 630 -882 0
543 544 -629 881 882 0
543 544 -630 881 882 0
-543 629 630 881 882 0
-544 629 630 881 882 0
-543 -629 -881 0
-543 -629 -882 0
-543 -630 -881 0
-543 -630 -882 0
-544 -629 -881 0
-544 -629 -882 0
-544 -630 -881 0
-544 -630 -882 0
431 432 443 444 843 844 0
431 432 -443 -843 0
431 432 -443 -844 0
431 432 -444 -843 0
431 432 -444 -844 0
-431 443 444 -843 0
-431 443 444 -844 0
-432 443 444 -843 0
-432 443 444 -844 0
-431 -443 843 844 0
-431 -444 843 844 0
-432 -443 843 844 0
-432 -444 843 844 0
15 16 805 806 -807 0
15 16 805 806 -808 0
15 16 -805 807 808 0
15 16 -806 807 808 0
-15 805 806 807 808 0
-16 805 806 807 808 0
-15 -805 -807 0
-15 -805 -808 0
-15 -806 -807 0
-15 -806 -808 0
-16 -805 -807 0
-16 -805 -808 0
-16 -806 -807 0
-16 -806 -808 0
541 542 581 582 769 770 0
541 542 -581 -769 0
541 542 -581 -770 0
541 542 -582 -769 0
541 542 -582 -770 0
-541 581 582 -769 0
-541 581 582 -770 0
-542 581 582 -769 0
-542 581 582 -770 0
-541 -581 769 770 0
-541 -582 769 770 0
-542 -581 769 770 0
-542 -582 769 770 0
179 180 711 712 869 870 0
179 180 -711 -869 0
179 180 -711 -870 0
179 180 -712 -869 0
179 180 -712 -870 0
-179 711 712 -869 0
-179 711 712 -870 0
-180 711 712 -869 0
-180 711 712 -870 0
-179 -711 869 870 0
-179 -712 869 870 0
-180 -711 869 870 0
-180 -712 869 870 0
351 352 803 804 955 956 0
351 352 -803 -955 0
351 352 -803 -956 0
351 352 -804 -955 0
351 352 -804 -956 0
-351 803 804 -955 0
-351 803 804 -956 0
-352 803 804 -955 0
-352 803 804 -956 0
-351 -803 955 956 0
-351 -804 955 956 0
-352 -803 955 956 0
-352 -804 955 956 0
751 752 821 822 1053 1054 0
751 752 -821 -1053 0
751 752 -821 -1054 0
751 752 -822 -1053 0
751 752 -822 -1054 0
-751 821 822 -1053 0
-751 821 822 -1054 0
-752 821 822 -1053 0
-752 821 822 -1054 0
-751 -821 1053 1054 0
-751 -822 1053 1054 0
-752 -821 1053 1054 0
-752 -822 1053 1054 0
255 256 507 508 761 762 0
255 256 -507 -761 0
255 256 -507 -762 0
255 256 -508 -761 0
255 256 -508 -762 0
-255 507 508 -761 0
-255 507 508 -762 0
-256 507 508 -761 0
-256 507 508 -762 0
-255 -507 761 762 0
-255 -508 761 762 0
-256 -507 761 762 0
-256 -508 761 762 0
183 184 459 460 657 658 0
183 184 -459 -657 0
183 184 -459 -658 0
183 184 -460 -657 0
183 184 -460 -658 0
-183 459 460 -657 0
-183 459 460 -658 0
-184 459 460 -657 0
-184 459 460 -658 0
-183 -459 657 658 0
-183 -460 657 658 0
-184 -459 657 658 0
-184 -460 657 658 0
471 472 699 700 -917 0
471 472 699 700 -918 0
471 472 -699 917 918 0
471 472 -700 917 918 0
-471 699 700 917 918 0
-472 699 700 917 918 0
-471 -699 -917 0
-471 -699 -918 0
-471 -700 -917 0
-471 -700 -918 0
-472 -699 -917 0
-472 -699 -918 0
-472 -700 -917 0
-472 -700 -918 0
375 376 949 950 -961 0
375 376 949 950 -962 0
375 376 -949 961 962 0
375 376 -950 961 962 0
-375 949 950 961 962 0
-376 949 950 961 962 0
-375 -949 -961 0
-375 -949 -962 0
-375 -950 -961 0
-375 -950 -962 0
-376 -949 -961 0
-376 -949 -962 0
-376 -950 -961 0
-376 -950 -962 0
209 210 491 492 -795 0
209 210 491 492 -796 0
209 210 -491 795 796 0
209 210 -492 795 796 0
-209 491 492 795 796 0
-210 491 492 795 796 0
-209 -491 -795 0
-209 -491 -796 0
-209 -492 -795 0
-209 -492 -796 0
-210 -491 -795 0
-210 -491 -796 0
-210 -492 -795 0
-210 -492 -796 0
239 240 553 554 -657 0
239 240 553 554 -658 0
239 240 -553 657 658 0
239 240 -554 657 658 0
-239 553 554 657 658 0
-240 553 554 657 658 0
-239 -553 -657 0
-239 -553 -658 0
-239 -554 -657 0
-239 -554 -658 0
-240 -553 -657 0
-240 -553 -658 0
-240 -554 -657 0
-240 -554 -658 0
761 762 765 766 871 872 0
761 762 -765 -871 0
761 762 -765 -872 0
761 762 -766 -871 0
761 762 -766 -872 0
-761 765 766 -871 0
-761 765 766 -872 0
-762 765 766 -871 0
-762 765 766 -872 0
-761 -765 871 872 0
-761 -766 871 872 0
-762 -765 871 872 0
-762 -766 871 872 0
327 328 549 550 965 966 0
327 328 -549 -965 0
327 328 -549 -966 0
327 328 -550 -965 0
327 328 -550 -966 0
-327 549 550 -965 0
-327 549 550 -966 0
-328 549 550 -965 0
-328 549 550 -966 0
-327 -549 965 966 0
-327 -550 965 966 0
-328 -549 965 966 0
-328 -550 965 966 0
181 182 227 228 -675 0
181 182 227 228 -676 0
181 182 -227 675 676 0
181 182 -228 675 676 0
-181 227 228 675 676 0
-182 227 228 675 676 0
-181 -227 -675 0
-181 -227 -676 0
-181 -228 -675 0
-181 -228 -676 0
-182 -227 -675 0
-182 -227 -676 0
-182 -228 -675 0
-182 -228 -676 0
159 160 425 426 -1039 0
159 160 425 426 -1040 0
159 160 -425 1039 1040 0
159 160 -426 1039 1040 0
-159 425 426 1039 1040 0
-160 425 426 1039 1040 0
-159 -425 -1039 0
-159 -425 -1040 0
-159 -426 -1039 0
-159 -426 -1040 0
-160 -425 -1039 0
-160 -425 -1040 0
-160 -426 -1039 0
-160 -426 -1040 0
223 224 489 490 -817 0
223 224 489 490 -818 0
223 224 -489 817 818 0
223 224 -490 817 818 0
-223 489 490 817 818 0
-224 489 490 817 818 0
-223 -489 -817 0
-223 -489 -818 0
-223 -490 -817 0
-223 -490 -818 0
-224 -489 -817 0
-224 -489 -818 0
-224 -490 -817 0
-224 -490 -818 0
679 680 767 768 889 890 0
679 680 -767 -889 0
679 680 -767 -890 0
679 680 -768 -889 0
679 680 -768 -890 0
-679 767 768 -889 0
-679 767 768 -890 0
-680 767 768 -889 0
-680 767 768 -890 0
-679 -767 889 890 0
-679 -768 889 890 0
-680 -767 889 890 0
-680 -768 889 890 0
115 116 601 602 851 852 0
115 116 -601 -851 0
115 116 -601 -852 0
115 116 -602 -851 0
115 116 -602 -852 0
-115 601 602 -851 0
-115 601 602 -852 0
-116 601 602 -851 0
-116 601 602 -852 0
-115 -601 851 852 0
-115 -602 851 852 0
-116 -601 851 852 0
-116 -602 851 852 0
137 138 855 856 1009 1010 0
137 138 -855 -1009 0
137 138 -855 -1010 0
137 138 -856 -1009 0
137 138 -856 -1010 0
-137 855 856 -1009 0
-137 855 856 -1010 0
-138 855 856 -1009 0
-138 855 856 -1010 0
-137 -855 1009 1010 0
-137 -856 1009 1010 0
-138 -855 1009 1010 0
-138 -856 1009 1010 0
541 542 925 926 997 998 0
541 542 -925 -997 0
541 542 -925 -998 0
541 542 -926 -997 0
541 542 -926 -998 0
-541 925 926 -997 0
-541 925 926 -998 0
-542 925 926 -997 0
-542 925 926 -998 0
-541 -925 997 998 0
-541 -926 997 998 0
-542 -925 997 998 0
-542 -926 997 998 0
739 740 845 846 -979 0
739 740 845 846 -980 0
739 740 -845 979 980 0
739 740 -846 979 980 0
-739 845 846 979 980 0
-740 845 846 979 980 0
-739 -845 -979 0
-739 -845 -980 0
-739 -846 -979 0
-739 -846 -980 0
-740 -845 -979 0
-740 -845 -980 0
-740 -846 -979 0
-740 -846 -980 0
325 326 731 732 -1013 0
325 326 731 732 -1014 0
325 326 -731 1013 1014 0
325 326 -732 1013 1014 0
-325 731 732 1013 1014 0
-326 731 732 1013 1014 0
-325 -731 -1013 0
-325 -731 -1014 0
-325 -732 -1013 0
-325 -732 -1014 0
-326 -731 -1013 0
-326 -731 -1014 0
-326 -732 -1013 0
-326 -732 -1014 0
