c F6 factoring b=18 N=51041752009 prime (UNSAT by construction)
p cnf 972 5168
18 0
36 0
-37 1 0
-37 19 0
37 -1 -19 0
-38 2 0
-38 19 0
38 -2 -19 0
-39 3 0
-39 19 0
39 -3 -19 0
-40 4 0
-40 19 0
40 -4 -19 0
-41 5 0
-41 19 0
41 -5 -19 0
-42 6 0
-42 19 0
42 -6 -19 0
-43 7 0
-43 19 0
43 -7 -19 0
-44 8 0
-44 19 0
44 -8 -19 0
-45 9 0
-45 19 0
45 -9 -19 0
-46 10 0
-46 19 0
46 -10 -19 0
-47 11 0
-47 19 0
47 -11 -19 0
-48 12 0
-48 19 0
48 -12 -19 0
-49 13 0
-49 19 0
49 -13 -19 0
-50 14 0
-50 19 0
50 -14 -19 0
-51 15 0
-51 19 0
51 -15 -19 0
-52 16 0
-52 19 0
52 -16 -19 0
-53 17 0
-53 19 0
53 -17 -19 0
-54 18 0
-54 19 0
54 -18 -19 0
-55 1 0
-55 20 0
55 -1 -20 0
-56 2 0
-56 20 0
56 -2 -20 0
-57 3 0
-57 20 0
57 -3 -20 0
-58 4 0
-58 20 0
58 -4 -20 0
-59 5 0
-59 20 0
59 -5 -20 0
-60 6 0
-60 20 0
60 -6 -20 0
-61 7 0
-61 20 0
61 -7 -20 0
-62 8 0
-62 20 0
62 -8 -20 0
-63 9 0
-63 20 0
63 -9 -20 0
-64 10 0
-64 20 0
64 -10 -20 0
-65 11 0
-65 20 0
65 -11 -20 0
-66 12 0
-66 20 0
66 -12 -20 0
-67 13 0
-67 20 0
67 -13 -20 0
-68 14 0
-68 20 0
68 -14 -20 0
-69 15 0
-69 20 0
69 -15 -20 0
-70 16 0
-70 20 0
70 -16 -20 0
-71 17 0
-71 20 0
71 -17 -20 0
-72 18 0
-72 20 0
72 -18 -20 0
-73 1 0
-73 21 0
73 -1 -21 0
-74 2 0
-74 21 0
74 -2 -21 0
-75 3 0
-75 21 0
75 -3 -21 0
-76 4 0
-76 21 0
76 -4 -21 0
-77 5 0
-77 21 0
77 -5 -21 0
-78 6 0
-78 21 0
78 -6 -21 0
-79 7 0
-79 21 0
79 -7 -21 0
-80 8 0
-80 21 0
80 -8 -21 0
-81 9 0
-81 21 0
81 -9 -21 0
-82 10 0
-82 21 0
82 -10 -21 0
-83 11 0
-83 21 0
83 -11 -21 0
-84 12 0
-84 21 0
84 -12 -21 0
-85 13 0
-85 21 0
85 -13 -21 0
-86 14 0
-86 21 0
86 -14 -21 0
-87 15 0
-87 21 0
87 -15 -21 0
-88 16 0
-88 21 0
88 -16 -21 0
-89 17 0
-89 21 0
89 -17 -21 0
-90 18 0
-90 21 0
90 -18 -21 0
-91 1 0
-91 22 0
91 -1 -22 0
-92 2 0
-92 22 0
92 -2 -22 0
-93 3 0
-93 22 0
93 -3 -22 0
-94 4 0
-94 22 0
94 -4 -22 0
-95 5 0
-95 22 0
95 -5 -22 0
-96 6 0
-96 22 0
96 -6 -22 0
-97 7 0
-97 22 0
97 -7 -22 0
-98 8 0
-98 22 0
98 -8 -22 0
-99 9 0
-99 22 0
99 -9 -22 0
-100 10 0
-100 22 0
100 -10 -22 0
-101 11 0
-101 22 0
101 -11 -22 0
-102 12 0
-102 22 0
102 -12 -22 0
-103 13 0
-103 22 0
103 -13 -22 0
-104 14 0
-104 22 0
104 -14 -22 0
-105 15 0
-105 22 0
105 -15 -22 0
-106 16 0
-106 22 0
106 -16 -22 0
-107 17 0
-107 22 0
107 -17 -22 0
-108 18 0
-108 22 0
108 -18 -22 0
-109 1 0
-109 23 0
109 -1 -23 0
-110 2 0
-110 23 0
110 -2 -23 0
-111 3 0
-111 23 0
111 -3 -23 0
-112 4 0
-112 23 0
112 -4 -23 0
-113 5 0
-113 23 0
113 -5 -23 0
-114 6 0
-114 23 0
114 -6 -23 0
-115 7 0
-115 23 0
115 -7 -23 0
-116 8 0
-116 23 0
116 -8 -23 0
-117 9 0
-117 23 0
117 -9 -23 0
-118 10 0
-118 23 0
118 -10 -23 0
-119 11 0
-119 23 0
119 -11 -23 0
-120 12 0
-120 23 0
120 -12 -23 0
-121 13 0
-121 23 0
121 -13 -23 0
-122 14 0
-122 23 0
122 -14 -23 0
-123 15 0
-123 23 0
123 -15 -23 0
-124 16 0
-124 23 0
124 -16 -23 0
-125 17 0
-125 23 0
125 -17 -23 0
-126 18 0
-126 23 0
126 -18 -23 0
-127 1 0
-127 24 0
127 -1 -24 0
-128 2 0
-128 24 0
128 -2 -24 0
-129 3 0
-129 24 0
129 -3 -24 0
-130 4 0
-130 24 0
130 -4 -24 0
-131 5 0
-131 24 0
131 -5 -24 0
-132 6 0
-132 24 0
132 -6 -24 0
-133 7 0
-133 24 0
133 -7 -24 0
-134 8 0
-134 24 0
134 -8 -24 0
-135 9 0
-135 24 0
135 -9 -24 0
-136 10 0
-136 24 0
136 -10 -24 0
-137 11 0
-137 24 0
137 -11 -24 0
-138 12 0
-138 24 0
138 -12 -24 0
-139 13 0
-139 24 0
139 -13 -24 0
-140 14 0
-140 24 0
140 -14 -24 0
-141 15 0
-141 24 0
141 -15 -24 0
-142 16 0
-142 24 0
142 -16 -24 0
-143 17 0
-143 24 0
143 -17 -24 0
-144 18 0
-144 24 0
144 -18 -24 0
-145 1 0
-145 25 0
145 -1 -25 0
-146 2 0
-146 25 0
146 -2 -25 0
-147 3 0
-147 25 0
147 -3 -25 0
-148 4 0
-148 25 0
148 -4 -25 0
-149 5 0
-149 25 0
149 -5 -25 0
-150 6 0
-150 25 0
150 -6 -25 0
-151 7 0
-151 25 0
151 -7 -25 0
-152 8 0
-152 25 0
152 -8 -25 0
-153 9 0
-153 25 0
153 -9 -25 0
-154 10 0
-154 25 0
154 -10 -25 0
-155 11 0
-155 25 0
155 -11 -25 0
-156 12 0
-156 25 0
156 -12 -25 0
-157 13 0
-157 25 0
157 -13 -25 0
-158 14 0
-158 25 0
158 -14 -25 0
-159 15 0
-159 25 0
159 -15 -25 0
-160 16 0
-160 25 0
160 -16 -25 0
-161 17 0
-161 25 0
161 -17 -25 0
-162 18 0
-162 25 0
162 -18 -25 0
-163 1 0
-163 26 0
163 -1 -26 0
-164 2 0
-164 26 0
164 -2 -26 0
-165 3 0
-165 26 0
165 -3 -26 0
-166 4 0
-166 26 0
166 -4 -26 0
-167 5 0
-167 26 0
167 -5 -26 0
-168 6 0
-168 26 0
168 -6 -26 0
-169 7 0
-169 26 0
169 -7 -26 0
-170 8 0
-170 26 0
170 -8 -26 0
-171 9 0
-171 26 0
171 -9 -26 0
-172 10 0
-172 26 0
172 -10 -26 0
-173 11 0
-173 26 0
173 -11 -26 0
-174 12 0
-174 26 0
174 -12 -26 0
-175 13 0
-175 26 0
175 -13 -26 0
-176 14 0
-176 26 0
176 -14 -26 0
-177 15 0
-177 26 0
177 -15 -26 0
-178 16 0
-178 26 0
178 -16 -26 0
-179 17 0
-179 26 0
179 -17 -26 0
-180 18 0
-180 26 0
180 -18 -26 0
-181 1 0
-181 27 0
181 -1 -27 0
-182 2 0
-182 27 0
182 -2 -27 0
-183 3 0
-183 27 0
183 -3 -27 0
-184 4 0
-184 27 0
184 -4 -27 0
-185 5 0
-185 27 0
185 -5 -27 0
-186 6 0
-186 27 0
186 -6 -27 0
-187 7 0
-187 27 0
187 -7 -27 0
-188 8 0
-188 27 0
188 -8 -27 0
-189 9 0
-189 27 0
189 -9 -27 0
-190 10 0
-190 27 0
190 -10 -27 0
-191 11 0
-191 27 0
191 -11 -27 0
-192 12 0
-192 27 0
192 -12 -27 0
-193 13 0
-193 27 0
193 -13 -27 0
-194 14 0
-194 27 0
194 -14 -27 0
-195 15 0
-195 27 0
195 -15 -27 0
-196 16 0
-196 27 0
196 -16 -27 0
-197 17 0
-197 27 0
197 -17 -27 0
-198 18 0
-198 27 0
198 -18 -27 0
-199 1 0
-199 28 0
199 -1 -28 0
-200 2 0
-200 28 0
200 -2 -28 0
-201 3 0
-201 28 0
201 -3 -28 0
-202 4 0
-202 28 0
202 -4 -28 0
-203 5 0
-203 28 0
203 -5 -28 0
-204 6 0
-204 28 0
204 -6 -28 0
-205 7 0
-205 28 0
205 -7 -28 0
-206 8 0
-206 28 0
206 -8 -28 0
-207 9 0
-207 28 0
207 -9 -28 0
-208 10 0
-208 28 0
208 -10 -28 0
-209 11 0
-209 28 0
209 -11 -28 0
-210 12 0
-210 28 0
210 -12 -28 0
-211 13 0
-211 28 0
211 -13 -28 0
-212 14 0
-212 28 0
212 -14 -28 0
-213 15 0
-213 28 0
213 -15 -28 0
-214 16 0
-214 28 0
214 -16 -28 0
-215 17 0
-215 28 0
215 -17 -28 0
-216 18 0
-216 28 0
216 -18 -28 0
-217 1 0
-217 29 0
217 -1 -29 0
-218 2 0
-218 29 0
218 -2 -29 0
-219 3 0
-219 29 0
219 -3 -29 0
-220 4 0
-220 29 0
220 -4 -29 0
-221 5 0
-221 29 0
221 -5 -29 0
-222 6 0
-222 29 0
222 -6 -29 0
-223 7 0
-223 29 0
223 -7 -29 0
-224 8 0
-224 29 0
224 -8 -29 0
-225 9 0
-225 29 0
225 -9 -29 0
-226 10 0
-226 29 0
226 -10 -29 0
-227 11 0
-227 29 0
227 -11 -29 0
-228 12 0
-228 29 0
228 -12 -29 0
-229 13 0
-229 29 0
229 -13 -29 0
-230 14 0
-230 29 0
230 -14 -29 0
-231 15 0
-231 29 0
231 -15 -29 0
-232 16 0
-232 29 0
232 -16 -29 0
-233 17 0
-233 29 0
233 -17 -29 0
-234 18 0
-234 29 0
234 -18 -29 0
-235 1 0
-235 30 0
235 -1 -30 0
-236 2 0
-236 30 0
236 -2 -30 0
-237 3 0
-237 30 0
237 -3 -30 0
-238 4 0
-238 30 0
238 -4 -30 0
-239 5 0
-239 30 0
239 -5 -30 0
-240 6 0
-240 30 0
240 -6 -30 0
-241 7 0
-241 30 0
241 -7 -30 0
-242 8 0
-242 30 0
242 -8 -30 0
-243 9 0
-243 30 0
243 -9 -30 0
-244 10 0
-244 30 0
244 -10 -30 0
-245 11 0
-245 30 0
245 -11 -30 0
-246 12 0
-246 30 0
246 -12 -30 0
-247 13 0
-247 30 0
247 -13 -30 0
-248 14 0
-248 30 0
248 -14 -30 0
-249 15 0
-249 30 0
249 -15 -30 0
-250 16 0
-250 30 0
250 -16 -30 0
-251 17 0
-251 30 0
251 -17 -30 0
-252 18 0
-252 30 0
252 -18 -30 0
-253 1 0
-253 31 0
253 -1 -31 0
-254 2 0
-254 31 0
254 -2 -31 0
-255 3 0
-255 31 0
255 -3 -31 0
-256 4 0
-256 31 0
256 -4 -31 0
-257 5 0
-257 31 0
257 -5 -31 0
-258 6 0
-258 31 0
258 -6 -31 0
-259 7 0
-259 31 0
259 -7 -31 0
-260 8 0
-260 31 0
260 -8 -31 0
-261 9 0
-261 31 0
261 -9 -31 0
-262 10 0
-262 31 0
262 -10 -31 0
-263 11 0
-263 31 0
263 -11 -31 0
-264 12 0
-264 31 0
264 -12 -31 0
-265 13 0
-265 31 0
265 -13 -31 0
-266 14 0
-266 31 0
266 -14 -31 0
-267 15 0
-267 31 0
267 -15 -31 0
-268 16 0
-268 31 0
268 -16 -31 0
-269 17 0
-269 31 0
269 -17 -31 0
-270 18 0
-270 31 0
270 -18 -31 0
-271 1 0
-271 32 0
271 -1 -32 0
-272 2 0
-272 32 0
272 -2 -32 0
-273 3 0
-273 32 0
273 -3 -32 0
-274 4 0
-274 32 0
274 -4 -32 0
-275 5 0
-275 32 0
275 -5 -32 0
-276 6 0
-276 32 0
276 -6 -32 0
-277 7 0
-277 32 0
277 -7 -32 0
-278 8 0
-278 32 0
278 -8 -32 0
-279 9 0
-279 32 0
279 -9 -32 0
-280 10 0
-280 32 0
280 -10 -32 0
-281 11 0
-281 32 0
281 -11 -32 0
-282 12 0
-282 32 0
282 -12 -32 0
-283 13 0
-283 32 0
283 -13 -32 0
-284 14 0
-284 32 0
284 -14 -32 0
-285 15 0
-285 32 0
285 -15 -32 0
-286 16 0
-286 32 0
286 -16 -32 0
-287 17 0
-287 32 0
287 -17 -32 0
-288 18 0
-288 32 0
288 -18 -32 0
-289 1 0
-289 33 0
289 -1 -33 0
-290 2 0
-290 33 0
290 -2 -33 0
-291 3 0
-291 33 0
291 -3 -33 0
-292 4 0
-292 33 0
292 -4 -33 0
-293 5 0
-293 33 0
293 -5 -33 0
-294 6 0
-294 33 0
294 -6 -33 0
-295 7 0
-295 33 0
295 -7 -33 0
-296 8 0
-296 33 0
296 -8 -33 0
-297 9 0
-297 33 0
297 -9 -33 0
-298 10 0
-298 33 0
298 -10 -33 0
-299 11 0
-299 33 0
299 -11 -33 0
-300 12 0
-300 33 0
300 -12 -33 0
-301 13 0
-301 33 0
301 -13 -33 0
-302 14 0
-302 33 0
302 -14 -33 0
-303 15 0
-303 33 0
303 -15 -33 0
-304 16 0
-304 33 0
304 -16 -33 0
-305 17 0
-305 33 0
305 -17 -33 0
-306 18 0
-306 33 0
306 -18 -33 0
-307 1 0
-307 34 0
307 -1 -34 0
-308 2 0
-308 34 0
308 -2 -34 0
-309 3 0
-309 34 0
309 -3 -34 0
-310 4 0
-310 34 0
310 -4 -34 0
-311 5 0
-311 34 0
311 -5 -34 0
-312 6 0
-312 34 0
312 -6 -34 0
-313 7 0
-313 34 0
313 -7 -34 0
-314 8 0
-314 34 0
314 -8 -34 0
-315 9 0
-315 34 0
315 -9 -34 0
-316 10 0
-316 34 0
316 -10 -34 0
-317 11 0
-317 34 0
317 -11 -34 0
-318 12 0
-318 34 0
318 -12 -34 0
-319 13 0
-319 34 0
319 -13 -34 0
-320 14 0
-320 34 0
320 -14 -34 0
-321 15 0
-321 34 0
321 -15 -34 0
-322 16 0
-322 34 0
322 -16 -34 0
-323 17 0
-323 34 0
323 -17 -34 0
-324 18 0
-324 34 0
324 -18 -34 0
-325 1 0
-325 35 0
325 -1 -35 0
-326 2 0
-326 35 0
326 -2 -35 0
-327 3 0
-327 35 0
327 -3 -35 0
-328 4 0
-328 35 0
328 -4 -35 0
-329 5 0
-329 35 0
329 -5 -35 0
-330 6 0
-330 35 0
330 -6 -35 0
-331 7 0
-331 35 0
331 -7 -35 0
-332 8 0
-332 35 0
332 -8 -35 0
-333 9 0
-333 35 0
333 -9 -35 0
-334 10 0
-334 35 0
334 -10 -35 0
-335 11 0
-335 35 0
335 -11 -35 0
-336 12 0
-336 35 0
336 -12 -35 0
-337 13 0
-337 35 0
337 -13 -35 0
-338 14 0
-338 35 0
338 -14 -35 0
-339 15 0
-339 35 0
339 -15 -35 0
-340 16 0
-340 35 0
340 -16 -35 0
-341 17 0
-341 35 0
341 -17 -35 0
-342 18 0
-342 35 0
342 -18 -35 0
-343 1 0
-343 36 0
343 -1 -36 0
-344 2 0
-344 36 0
344 -2 -36 0
-345 3 0
-345 36 0
345 -3 -36 0
-346 4 0
-346 36 0
346 -4 -36 0
-347 5 0
-347 36 0
347 -5 -36 0
-348 6 0
-348 36 0
348 -6 -36 0
-349 7 0
-349 36 0
349 -7 -36 0
-350 8 0
-350 36 0
350 -8 -36 0
-351 9 0
-351 36 0
351 -9 -36 0
-352 10 0
-352 36 0
352 -10 -36 0
-353 11 0
-353 36 0
353 -11 -36 0
-354 12 0
-354 36 0
354 -12 -36 0
-355 13 0
-355 36 0
355 -13 -36 0
-356 14 0
-356 36 0
356 -14 -36 0
-357 15 0
-357 36 0
357 -15 -36 0
-358 16 0
-358 36 0
358 -16 -36 0
-359 17 0
-359 36 0
359 -17 -36 0
-360 18 0
-360 36 0
360 -18 -36 0
-361 38 55 0
-361 -38 -55 0
361 -38 55 0
361 38 -55 0
-362 38 0
-362 55 0
362 -38 -55 0
-39 -56 -362 363 0
-39 -56 362 -363 0
-39 56 -362 -363 0
-39 56 362 363 0
39 -56 -362 -363 0
39 -56 362 363 0
39 56 -362 363 0
39 56 362 -363 0
-39 -56 364 0
-39 -362 364 0
-56 -362 364 0
39 56 -364 0
39 362 -364 0
56 362 -364 0
-40 -57 -364 365 0
-40 -57 364 -365 0
-40 57 -364 -365 0
-40 57 364 365 0
40 -57 -364 -365 0
40 -57 364 365 0
40 57 -364 365 0
40 57 364 -365 0
-40 -57 366 0
-40 -364 366 0
-57 -364 366 0
40 57 -366 0
40 364 -366 0
57 364 -366 0
-41 -58 -366 367 0
-41 -58 366 -367 0
-41 58 -366 -367 0
-41 58 366 367 0
41 -58 -366 -367 0
41 -58 366 367 0
41 58 -366 367 0
41 58 366 -367 0
-41 -58 368 0
-41 -366 368 0
-58 -366 368 0
41 58 -368 0
41 366 -368 0
58 366 -368 0
-42 -59 -368 369 0
-42 -59 368 -369 0
-42 59 -368 -369 0
-42 59 368 369 0
42 -59 -368 -369 0
42 -59 368 369 0
42 59 -368 369 0
42 59 368 -369 0
-42 -59 370 0
-42 -368 370 0
-59 -368 370 0
42 59 -370 0
42 368 -370 0
59 368 -370 0
-43 -60 -370 371 0
-43 -60 370 -371 0
-43 60 -370 -371 0
-43 60 370 371 0
43 -60 -370 -371 0
43 -60 370 371 0
43 60 -370 371 0
43 60 370 -371 0
-43 -60 372 0
-43 -370 372 0
-60 -370 372 0
43 60 -372 0
43 370 -372 0
60 370 -372 0
-44 -61 -372 373 0
-44 -61 372 -373 0
-44 61 -372 -373 0
-44 61 372 373 0
44 -61 -372 -373 0
44 -61 372 373 0
44 61 -372 373 0
44 61 372 -373 0
-44 -61 374 0
-44 -372 374 0
-61 -372 374 0
44 61 -374 0
44 372 -374 0
61 372 -374 0
-45 -62 -374 375 0
-45 -62 374 -375 0
-45 62 -374 -375 0
-45 62 374 375 0
45 -62 -374 -375 0
45 -62 374 375 0
45 62 -374 375 0
45 62 374 -375 0
-45 -62 376 0
-45 -374 376 0
-62 -374 376 0
45 62 -376 0
45 374 -376 0
62 374 -376 0
-46 -63 -376 377 0
-46 -63 376 -377 0
-46 63 -376 -377 0
-46 63 376 377 0
46 -63 -376 -377 0
46 -63 376 377 0
46 63 -376 377 0
46 63 376 -377 0
-46 -63 378 0
-46 -376 378 0
-63 -376 378 0
46 63 -378 0
46 376 -378 0
63 376 -378 0
-47 -64 -378 379 0
-47 -64 378 -379 0
-47 64 -378 -379 0
-47 64 378 379 0
47 -64 -378 -379 0
47 -64 378 379 0
47 64 -378 379 0
47 64 378 -379 0
-47 -64 380 0
-47 -378 380 0
-64 -378 380 0
47 64 -380 0
47 378 -380 0
64 378 -380 0
-48 -65 -380 381 0
-48 -65 380 -381 0
-48 65 -380 -381 0
-48 65 380 381 0
48 -65 -380 -381 0
48 -65 380 381 0
48 65 -380 381 0
48 65 380 -381 0
-48 -65 382 0
-48 -380 382 0
-65 -380 382 0
48 65 -382 0
48 380 -382 0
65 380 -382 0
-49 -66 -382 383 0
-49 -66 382 -383 0
-49 66 -382 -383 0
-49 66 382 383 0
49 -66 -382 -383 0
49 -66 382 383 0
49 66 -382 383 0
49 66 382 -383 0
-49 -66 384 0
-49 -382 384 0
-66 -382 384 0
49 66 -384 0
49 382 -384 0
66 382 -384 0
-50 -67 -384 385 0
-50 -67 384 -385 0
-50 67 -384 -385 0
-50 67 384 385 0
50 -67 -384 -385 0
50 -67 384 385 0
50 67 -384 385 0
50 67 384 -385 0
-50 -67 386 0
-50 -384 386 0
-67 -384 386 0
50 67 -386 0
50 384 -386 0
67 384 -386 0
-51 -68 -386 387 0
-51 -68 386 -387 0
-51 68 -386 -387 0
-51 68 386 387 0
51 -68 -386 -387 0
51 -68 386 387 0
51 68 -386 387 0
51 68 386 -387 0
-51 -68 388 0
-51 -386 388 0
-68 -386 388 0
51 68 -388 0
51 386 -388 0
68 386 -388 0
-52 -69 -388 389 0
-52 -69 388 -389 0
-52 69 -388 -389 0
-52 69 388 389 0
52 -69 -388 -389 0
52 -69 388 389 0
52 69 -388 389 0
52 69 388 -389 0
-52 -69 390 0
-52 -388 390 0
-69 -388 390 0
52 69 -390 0
52 388 -390 0
69 388 -390 0
-53 -70 -390 391 0
-53 -70 390 -391 0
-53 70 -390 -391 0
-53 70 390 391 0
53 -70 -390 -391 0
53 -70 390 391 0
53 70 -390 391 0
53 70 390 -391 0
-53 -70 392 0
-53 -390 392 0
-70 -390 392 0
53 70 -392 0
53 390 -392 0
70 390 -392 0
-54 -71 -392 393 0
-54 -71 392 -393 0
-54 71 -392 -393 0
-54 71 392 393 0
54 -71 -392 -393 0
54 -71 392 393 0
54 71 -392 393 0
54 71 392 -393 0
-54 -71 394 0
-54 -392 394 0
-71 -392 394 0
54 71 -394 0
54 392 -394 0
71 392 -394 0
-395 72 394 0
-395 -72 -394 0
395 -72 394 0
395 72 -394 0
-396 72 0
-396 394 0
396 -72 -394 0
-397 363 73 0
-397 -363 -73 0
397 -363 73 0
397 363 -73 0
-398 363 0
-398 73 0
398 -363 -73 0
-365 -74 -398 399 0
-365 -74 398 -399 0
-365 74 -398 -399 0
-365 74 398 399 0
365 -74 -398 -399 0
365 -74 398 399 0
365 74 -398 399 0
365 74 398 -399 0
-365 -74 400 0
-365 -398 400 0
-74 -398 400 0
365 74 -400 0
365 398 -400 0
74 398 -400 0
-367 -75 -400 401 0
-367 -75 400 -401 0
-367 75 -400 -401 0
-367 75 400 401 0
367 -75 -400 -401 0
367 -75 400 401 0
367 75 -400 401 0
367 75 400 -401 0
-367 -75 402 0
-367 -400 402 0
-75 -400 402 0
367 75 -402 0
367 400 -402 0
75 400 -402 0
-369 -76 -402 403 0
-369 -76 402 -403 0
-369 76 -402 -403 0
-369 76 402 403 0
369 -76 -402 -403 0
369 -76 402 403 0
369 76 -402 403 0
369 76 402 -403 0
-369 -76 404 0
-369 -402 404 0
-76 -402 404 0
369 76 -404 0
369 402 -404 0
76 402 -404 0
-371 -77 -404 405 0
-371 -77 404 -405 0
-371 77 -404 -405 0
-371 77 404 405 0
371 -77 -404 -405 0
371 -77 404 405 0
371 77 -404 405 0
371 77 404 -405 0
-371 -77 406 0
-371 -404 406 0
-77 -404 406 0
371 77 -406 0
371 404 -406 0
77 404 -406 0
-373 -78 -406 407 0
-373 -78 406 -407 0
-373 78 -406 -407 0
-373 78 406 407 0
373 -78 -406 -407 0
373 -78 406 407 0
373 78 -406 407 0
373 78 406 -407 0
-373 -78 408 0
-373 -406 408 0
-78 -406 408 0
373 78 -408 0
373 406 -408 0
78 406 -408 0
-375 -79 -408 409 0
-375 -79 408 -409 0
-375 79 -408 -409 0
-375 79 408 409 0
375 -79 -408 -409 0
375 -79 408 409 0
375 79 -408 409 0
375 79 408 -409 0
-375 -79 410 0
-375 -408 410 0
-79 -408 410 0
375 79 -410 0
375 408 -410 0
79 408 -410 0
-377 -80 -410 411 0
-377 -80 410 -411 0
-377 80 -410 -411 0
-377 80 410 411 0
377 -80 -410 -411 0
377 -80 410 411 0
377 80 -410 411 0
377 80 410 -411 0
-377 -80 412 0
-377 -410 412 0
-80 -410 412 0
377 80 -412 0
377 410 -412 0
80 410 -412 0
-379 -81 -412 413 0
-379 -81 412 -413 0
-379 81 -412 -413 0
-379 81 412 413 0
379 -81 -412 -413 0
379 -81 412 413 0
379 81 -412 413 0
379 81 412 -413 0
-379 -81 414 0
-379 -412 414 0
-81 -412 414 0
379 81 -414 0
379 412 -414 0
81 412 -414 0
-381 -82 -414 415 0
-381 -82 414 -415 0
-381 82 -414 -415 0
-381 82 414 415 0
381 -82 -414 -415 0
381 -82 414 415 0
381 82 -414 415 0
381 82 414 -415 0
-381 -82 416 0
-381 -414 416 0
-82 -414 416 0
381 82 -416 0
381 414 -416 0
82 414 -416 0
-383 -83 -416 417 0
-383 -83 416 -417 0
-383 83 -416 -417 0
-383 83 416 417 0
383 -83 -416 -417 0
383 -83 416 417 0
383 83 -416 417 0
383 83 416 -417 0
-383 -83 418 0
-383 -416 418 0
-83 -416 418 0
383 83 -418 0
383 416 -418 0
83 416 -418 0
-385 -84 -418 419 0
-385 -84 418 -419 0
-385 84 -418 -419 0
-385 84 418 419 0
385 -84 -418 -419 0
385 -84 418 419 0
385 84 -418 419 0
385 84 418 -419 0
-385 -84 420 0
-385 -418 420 0
-84 -418 420 0
385 84 -420 0
385 418 -420 0
84 418 -420 0
-387 -85 -420 421 0
-387 -85 420 -421 0
-387 85 -420 -421 0
-387 85 420 421 0
387 -85 -420 -421 0
387 -85 420 421 0
387 85 -420 421 0
387 85 420 -421 0
-387 -85 422 0
-387 -420 422 0
-85 -420 422 0
387 85 -422 0
387 420 -422 0
85 420 -422 0
-389 -86 -422 423 0
-389 -86 422 -423 0
-389 86 -422 -423 0
-389 86 422 423 0
389 -86 -422 -423 0
389 -86 422 423 0
389 86 -422 423 0
389 86 422 -423 0
-389 -86 424 0
-389 -422 424 0
-86 -422 424 0
389 86 -424 0
389 422 -424 0
86 422 -424 0
-391 -87 -424 425 0
-391 -87 424 -425 0
-391 87 -424 -425 0
-391 87 424 425 0
391 -87 -424 -425 0
391 -87 424 425 0
391 87 -424 425 0
391 87 424 -425 0
-391 -87 426 0
-391 -424 426 0
-87 -424 426 0
391 87 -426 0
391 424 -426 0
87 424 -426 0
-393 -88 -426 427 0
-393 -88 426 -427 0
-393 88 -426 -427 0
-393 88 426 427 0
393 -88 -426 -427 0
393 -88 426 427 0
393 88 -426 427 0
393 88 426 -427 0
-393 -88 428 0
-393 -426 428 0
-88 -426 428 0
393 88 -428 0
393 426 -428 0
88 426 -428 0
-395 -89 -428 429 0
-395 -89 428 -429 0
-395 89 -428 -429 0
-395 89 428 429 0
395 -89 -428 -429 0
395 -89 428 429 0
395 89 -428 429 0
395 89 428 -429 0
-395 -89 430 0
-395 -428 430 0
-89 -428 430 0
395 89 -430 0
395 428 -430 0
89 428 -430 0
-396 -90 -430 431 0
-396 -90 430 -431 0
-396 90 -430 -431 0
-396 90 430 431 0
396 -90 -430 -431 0
396 -90 430 431 0
396 90 -430 431 0
396 90 430 -431 0
-396 -90 432 0
-396 -430 432 0
-90 -430 432 0
396 90 -432 0
396 430 -432 0
90 430 -432 0
-433 399 91 0
-433 -399 -91 0
433 -399 91 0
433 399 -91 0
-434 399 0
-434 91 0
434 -399 -91 0
-401 -92 -434 435 0
-401 -92 434 -435 0
-401 92 -434 -435 0
-401 92 434 435 0
401 -92 -434 -435 0
401 -92 434 435 0
401 92 -434 435 0
401 92 434 -435 0
-401 -92 436 0
-401 -434 436 0
-92 -434 436 0
401 92 -436 0
401 434 -436 0
92 434 -436 0
-403 -93 -436 437 0
-403 -93 436 -437 0
-403 93 -436 -437 0
-403 93 436 437 0
403 -93 -436 -437 0
403 -93 436 437 0
403 93 -436 437 0
403 93 436 -437 0
-403 -93 438 0
-403 -436 438 0
-93 -436 438 0
403 93 -438 0
403 436 -438 0
93 436 -438 0
-405 -94 -438 439 0
-405 -94 438 -439 0
-405 94 -438 -439 0
-405 94 438 439 0
405 -94 -438 -439 0
405 -94 438 439 0
405 94 -438 439 0
405 94 438 -439 0
-405 -94 440 0
-405 -438 440 0
-94 -438 440 0
405 94 -440 0
405 438 -440 0
94 438 -440 0
-407 -95 -440 441 0
-407 -95 440 -441 0
-407 95 -440 -441 0
-407 95 440 441 0
407 -95 -440 -441 0
407 -95 440 441 0
407 95 -440 441 0
407 95 440 -441 0
-407 -95 442 0
-407 -440 442 0
-95 -440 442 0
407 95 -442 0
407 440 -442 0
95 440 -442 0
-409 -96 -442 443 0
-409 -96 442 -443 0
-409 96 -442 -443 0
-409 96 442 443 0
409 -96 -442 -443 0
409 -96 442 443 0
409 96 -442 443 0
409 96 442 -443 0
-409 -96 444 0
-409 -442 444 0
-96 -442 444 0
409 96 -444 0
409 442 -444 0
96 442 -444 0
-411 -97 -444 445 0
-411 -97 444 -445 0
-411 97 -444 -445 0
-411 97 444 445 0
411 -97 -444 -445 0
411 -97 444 445 0
411 97 -444 445 0
411 97 444 -445 0
-411 -97 446 0
-411 -444 446 0
-97 -444 446 0
411 97 -446 0
411 444 -446 0
97 444 -446 0
-413 -98 -446 447 0
-413 -98 446 -447 0
-413 98 -446 -447 0
-413 98 446 447 0
413 -98 -446 -447 0
413 -98 446 447 0
413 98 -446 447 0
413 98 446 -447 0
-413 -98 448 0
-413 -446 448 0
-98 -446 448 0
413 98 -448 0
413 446 -448 0
98 446 -448 0
-415 -99 -448 449 0
-415 -99 448 -449 0
-415 99 -448 -449 0
-415 99 448 449 0
415 -99 -448 -449 0
415 -99 448 449 0
415 99 -448 449 0
415 99 448 -449 0
-415 -99 450 0
-415 -448 450 0
-99 -448 450 0
415 99 -450 0
415 448 -450 0
99 448 -450 0
-417 -100 -450 451 0
-417 -100 450 -451 0
-417 100 -450 -451 0
-417 100 450 451 0
417 -100 -450 -451 0
417 -100 450 451 0
417 100 -450 451 0
417 100 450 -451 0
-417 -100 452 0
-417 -450 452 0
-100 -450 452 0
417 100 -452 0
417 450 -452 0
100 450 -452 0
-419 -101 -452 453 0
-419 -101 452 -453 0
-419 101 -452 -453 0
-419 101 452 453 0
419 -101 -452 -453 0
419 -101 452 453 0
419 101 -452 453 0
419 101 452 -453 0
-419 -101 454 0
-419 -452 454 0
-101 -452 454 0
419 101 -454 0
419 452 -454 0
101 452 -454 0
-421 -102 -454 455 0
-421 -102 454 -455 0
-421 102 -454 -455 0
-421 102 454 455 0
421 -102 -454 -455 0
421 -102 454 455 0
421 102 -454 455 0
421 102 454 -455 0
-421 -102 456 0
-421 -454 456 0
-102 -454 456 0
421 102 -456 0
421 454 -456 0
102 454 -456 0
-423 -103 -456 457 0
-423 -103 456 -457 0
-423 103 -456 -457 0
-423 103 456 457 0
423 -103 -456 -457 0
423 -103 456 457 0
423 103 -456 457 0
423 103 456 -457 0
-423 -103 458 0
-423 -456 458 0
-103 -456 458 0
423 103 -458 0
423 456 -458 0
103 456 -458 0
-425 -104 -458 459 0
-425 -104 458 -459 0
-425 104 -458 -459 0
-425 104 458 459 0
425 -104 -458 -459 0
425 -104 458 459 0
425 104 -458 459 0
425 104 458 -459 0
-425 -104 460 0
-425 -458 460 0
-104 -458 460 0
425 104 -460 0
425 458 -460 0
104 458 -460 0
-427 -105 -460 461 0
-427 -105 460 -461 0
-427 105 -460 -461 0
-427 105 460 461 0
427 -105 -460 -461 0
427 -105 460 461 0
427 105 -460 461 0
427 105 460 -461 0
-427 -105 462 0
-427 -460 462 0
-105 -460 462 0
427 105 -462 0
427 460 -462 0
105 460 -462 0
-429 -106 -462 463 0
-429 -106 462 -463 0
-429 106 -462 -463 0
-429 106 462 463 0
429 -106 -462 -463 0
429 -106 462 463 0
429 106 -462 463 0
429 106 462 -463 0
-429 -106 464 0
-429 -462 464 0
-106 -462 464 0
429 106 -464 0
429 462 -464 0
106 462 -464 0
-431 -107 -464 465 0
-431 -107 464 -465 0
-431 107 -464 -465 0
-431 107 464 465 0
431 -107 -464 -465 0
431 -107 464 465 0
431 107 -464 465 0
431 107 464 -465 0
-431 -107 466 0
-431 -464 466 0
-107 -464 466 0
431 107 -466 0
431 464 -466 0
107 464 -466 0
-432 -108 -466 467 0
-432 -108 466 -467 0
-432 108 -466 -467 0
-432 108 466 467 0
432 -108 -466 -467 0
432 -108 466 467 0
432 108 -466 467 0
432 108 466 -467 0
-432 -108 468 0
-432 -466 468 0
-108 -466 468 0
432 108 -468 0
432 466 -468 0
108 466 -468 0
-469 435 109 0
-469 -435 -109 0
469 -435 109 0
469 435 -109 0
-470 435 0
-470 109 0
470 -435 -109 0
-437 -110 -470 471 0
-437 -110 470 -471 0
-437 110 -470 -471 0
-437 110 470 471 0
437 -110 -470 -471 0
437 -110 470 471 0
437 110 -470 471 0
437 110 470 -471 0
-437 -110 472 0
-437 -470 472 0
-110 -470 472 0
437 110 -472 0
437 470 -472 0
110 470 -472 0
-439 -111 -472 473 0
-439 -111 472 -473 0
-439 111 -472 -473 0
-439 111 472 473 0
439 -111 -472 -473 0
439 -111 472 473 0
439 111 -472 473 0
439 111 472 -473 0
-439 -111 474 0
-439 -472 474 0
-111 -472 474 0
439 111 -474 0
439 472 -474 0
111 472 -474 0
-441 -112 -474 475 0
-441 -112 474 -475 0
-441 112 -474 -475 0
-441 112 474 475 0
441 -112 -474 -475 0
441 -112 474 475 0
441 112 -474 475 0
441 112 474 -475 0
-441 -112 476 0
-441 -474 476 0
-112 -474 476 0
441 112 -476 0
441 474 -476 0
112 474 -476 0
-443 -113 -476 477 0
-443 -113 476 -477 0
-443 113 -476 -477 0
-443 113 476 477 0
443 -113 -476 -477 0
443 -113 476 477 0
443 113 -476 477 0
443 113 476 -477 0
-443 -113 478 0
-443 -476 478 0
-113 -476 478 0
443 113 -478 0
443 476 -478 0
113 476 -478 0
-445 -114 -478 479 0
-445 -114 478 -479 0
-445 114 -478 -479 0
-445 114 478 479 0
445 -114 -478 -479 0
445 -114 478 479 0
445 114 -478 479 0
445 114 478 -479 0
-445 -114 480 0
-445 -478 480 0
-114 -478 480 0
445 114 -480 0
445 478 -480 0
114 478 -480 0
-447 -115 -480 481 0
-447 -115 480 -481 0
-447 115 -480 -481 0
-447 115 480 481 0
447 -115 -480 -481 0
447 -115 480 481 0
447 115 -480 481 0
447 115 480 -481 0
-447 -115 482 0
-447 -480 482 0
-115 -480 482 0
447 115 -482 0
447 480 -482 0
115 480 -482 0
-449 -116 -482 483 0
-449 -116 482 -483 0
-449 116 -482 -483 0
-449 116 482 483 0
449 -116 -482 -483 0
449 -116 482 483 0
449 116 -482 483 0
449 116 482 -483 0
-449 -116 484 0
-449 -482 484 0
-116 -482 484 0
449 116 -484 0
449 482 -484 0
116 482 -484 0
-451 -117 -484 485 0
-451 -117 484 -485 0
-451 117 -484 -485 0
-451 117 484 485 0
451 -117 -484 -485 0
451 -117 484 485 0
451 117 -484 485 0
451 117 484 -485 0
-451 -117 486 0
-451 -484 486 0
-117 -484 486 0
451 117 -486 0
451 484 -486 0
117 484 -486 0
-453 -118 -486 487 0
-453 -118 486 -487 0
-453 118 -486 -487 0
-453 118 486 487 0
453 -118 -486 -487 0
453 -118 486 487 0
453 118 -486 487 0
453 118 486 -487 0
-453 -118 488 0
-453 -486 488 0
-118 -486 488 0
453 118 -488 0
453 486 -488 0
118 486 -488 0
-455 -119 -488 489 0
-455 -119 488 -489 0
-455 119 -488 -489 0
-455 119 488 489 0
455 -119 -488 -489 0
455 -119 488 489 0
455 119 -488 489 0
455 119 488 -489 0
-455 -119 490 0
-455 -488 490 0
-119 -488 490 0
455 119 -490 0
455 488 -490 0
119 488 -490 0
-457 -120 -490 491 0
-457 -120 490 -491 0
-457 120 -490 -491 0
-457 120 490 491 0
457 -120 -490 -491 0
457 -120 490 491 0
457 120 -490 491 0
457 120 490 -491 0
-457 -120 492 0
-457 -490 492 0
-120 -490 492 0
457 120 -492 0
457 490 -492 0
120 490 -492 0
-459 -121 -492 493 0
-459 -121 492 -493 0
-459 121 -492 -493 0
-459 121 492 493 0
459 -121 -492 -493 0
459 -121 492 493 0
459 121 -492 493 0
459 121 492 -493 0
-459 -121 494 0
-459 -492 494 0
-121 -492 494 0
459 121 -494 0
459 492 -494 0
121 492 -494 0
-461 -122 -494 495 0
-461 -122 494 -495 0
-461 122 -494 -495 0
-461 122 494 495 0
461 -122 -494 -495 0
461 -122 494 495 0
461 122 -494 495 0
461 122 494 -495 0
-461 -122 496 0
-461 -494 496 0
-122 -494 496 0
461 122 -496 0
461 494 -496 0
122 494 -496 0
-463 -123 -496 497 0
-463 -123 496 -497 0
-463 123 -496 -497 0
-463 123 496 497 0
463 -123 -496 -497 0
463 -123 496 497 0
463 123 -496 497 0
463 123 496 -497 0
-463 -123 498 0
-463 -496 498 0
-123 -496 498 0
463 123 -498 0
463 496 -498 0
123 496 -498 0
-465 -124 -498 499 0
-465 -124 498 -499 0
-465 124 -498 -499 0
-465 124 498 499 0
465 -124 -498 -499 0
465 -124 498 499 0
465 124 -498 499 0
465 124 498 -499 0
-465 -124 500 0
-465 -498 500 0
-124 -498 500 0
465 124 -500 0
465 498 -500 0
124 498 -500 0
-467 -125 -500 501 0
-467 -125 500 -501 0
-467 125 -500 -501 0
-467 125 500 501 0
467 -125 -500 -501 0
467 -125 500 501 0
467 125 -500 501 0
467 125 500 -501 0
-467 -125 502 0
-467 -500 502 0
-125 -500 502 0
467 125 -502 0
467 500 -502 0
125 500 -502 0
-468 -126 -502 503 0
-468 -126 502 -503 0
-468 126 -502 -503 0
-468 126 502 503 0
468 -126 -502 -503 0
468 -126 502 503 0
468 126 -502 503 0
468 126 502 -503 0
-468 -126 504 0
-468 -502 504 0
-126 -502 504 0
468 126 -504 0
468 502 -504 0
126 502 -504 0
-505 471 127 0
-505 -471 -127 0
505 -471 127 0
505 471 -127 0
-506 471 0
-506 127 0
506 -471 -127 0
-473 -128 -506 507 0
-473 -128 506 -507 0
-473 128 -506 -507 0
-473 128 506 507 0
473 -128 -506 -507 0
473 -128 506 507 0
473 128 -506 507 0
473 128 506 -507 0
-473 -128 508 0
-473 -506 508 0
-128 -506 508 0
473 128 -508 0
473 506 -508 0
128 506 -508 0
-475 -129 -508 509 0
-475 -129 508 -509 0
-475 129 -508 -509 0
-475 129 508 509 0
475 -129 -508 -509 0
475 -129 508 509 0
475 129 -508 509 0
475 129 508 -509 0
-475 -129 510 0
-475 -508 510 0
-129 -508 510 0
475 129 -510 0
475 508 -510 0
129 508 -510 0
-477 -130 -510 511 0
-477 -130 510 -511 0
-477 130 -510 -511 0
-477 130 510 511 0
477 -130 -510 -511 0
477 -130 510 511 0
477 130 -510 511 0
477 130 510 -511 0
-477 -130 512 0
-477 -510 512 0
-130 -510 512 0
477 130 -512 0
477 510 -512 0
130 510 -512 0
-479 -131 -512 513 0
-479 -131 512 -513 0
-479 131 -512 -513 0
-479 131 512 513 0
479 -131 -512 -513 0
479 -131 512 513 0
479 131 -512 513 0
479 131 512 -513 0
-479 -131 514 0
-479 -512 514 0
-131 -512 514 0
479 131 -514 0
479 512 -514 0
131 512 -514 0
-481 -132 -514 515 0
-481 -132 514 -515 0
-481 132 -514 -515 0
-481 132 514 515 0
481 -132 -514 -515 0
481 -132 514 515 0
481 132 -514 515 0
481 132 514 -515 0
-481 -132 516 0
-481 -514 516 0
-132 -514 516 0
481 132 -516 0
481 514 -516 0
132 514 -516 0
-483 -133 -516 517 0
-483 -133 516 -517 0
-483 133 -516 -517 0
-483 133 516 517 0
483 -133 -516 -517 0
483 -133 516 517 0
483 133 -516 517 0
483 133 516 -517 0
-483 -133 518 0
-483 -516 518 0
-133 -516 518 0
483 133 -518 0
483 516 -518 0
133 516 -518 0
-485 -134 -518 519 0
-485 -134 518 -519 0
-485 134 -518 -519 0
-485 134 518 519 0
485 -134 -518 -519 0
485 -134 518 519 0
485 134 -518 519 0
485 134 518 -519 0
-485 -134 520 0
-485 -518 520 0
-134 -518 520 0
485 134 -520 0
485 518 -520 0
134 518 -520 0
-487 -135 -520 521 0
-487 -135 520 -521 0
-487 135 -520 -521 0
-487 135 520 521 0
487 -135 -520 -521 0
487 -135 520 521 0
487 135 -520 521 0
487 135 520 -521 0
-487 -135 522 0
-487 -520 522 0
-135 -520 522 0
487 135 -522 0
487 520 -522 0
135 520 -522 0
-489 -136 -522 523 0
-489 -136 522 -523 0
-489 136 -522 -523 0
-489 136 522 523 0
489 -136 -522 -523 0
489 -136 522 523 0
489 136 -522 523 0
489 136 522 -523 0
-489 -136 524 0
-489 -522 524 0
-136 -522 524 0
489 136 -524 0
489 522 -524 0
136 522 -524 0
-491 -137 -524 525 0
-491 -137 524 -525 0
-491 137 -524 -525 0
-491 137 524 525 0
491 -137 -524 -525 0
491 -137 524 525 0
491 137 -524 525 0
491 137 524 -525 0
-491 -137 526 0
-491 -524 526 0
-137 -524 526 0
491 137 -526 0
491 524 -526 0
137 524 -526 0
-493 -138 -526 527 0
-493 -138 526 -527 0
-493 138 -526 -527 0
-493 138 526 527 0
493 -138 -526 -527 0
493 -138 526 527 0
493 138 -526 527 0
493 138 526 -527 0
-493 -138 528 0
-493 -526 528 0
-138 -526 528 0
493 138 -528 0
493 526 -528 0
138 526 -528 0
-495 -139 -528 529 0
-495 -139 528 -529 0
-495 139 -528 -529 0
-495 139 528 529 0
495 -139 -528 -529 0
495 -139 528 529 0
495 139 -528 529 0
495 139 528 -529 0
-495 -139 530 0
-495 -528 530 0
-139 -528 530 0
495 139 -530 0
495 528 -530 0
139 528 -530 0
-497 -140 -530 531 0
-497 -140 530 -531 0
-497 140 -530 -531 0
-497 140 530 531 0
497 -140 -530 -531 0
497 -140 530 531 0
497 140 -530 531 0
497 140 530 -531 0
-497 -140 532 0
-497 -530 532 0
-140 -530 532 0
497 140 -532 0
497 530 -532 0
140 530 -532 0
-499 -141 -532 533 0
-499 -141 532 -533 0
-499 141 -532 -533 0
-499 141 532 533 0
499 -141 -532 -533 0
499 -141 532 533 0
499 141 -532 533 0
499 141 532 -533 0
-499 -141 534 0
-499 -532 534 0
-141 -532 534 0
499 141 -534 0
499 532 -534 0
141 532 -534 0
-501 -142 -534 535 0
-501 -142 534 -535 0
-501 142 -534 -535 0
-501 142 534 535 0
501 -142 -534 -535 0
501 -142 534 535 0
501 142 -534 535 0
501 142 534 -535 0
-501 -142 536 0
-501 -534 536 0
-142 -534 536 0
501 142 -536 0
501 534 -536 0
142 534 -536 0
-503 -143 -536 537 0
-503 -143 536 -537 0
-503 143 -536 -537 0
-503 143 536 537 0
503 -143 -536 -537 0
503 -143 536 537 0
503 143 -536 537 0
503 143 536 -537 0
-503 -143 538 0
-503 -536 538 0
-143 -536 538 0
503 143 -538 0
503 536 -538 0
143 536 -538 0
-504 -144 -538 539 0
-504 -144 538 -539 0
-504 144 -538 -539 0
-504 144 538 539 0
504 -144 -538 -539 0
504 -144 538 539 0
504 144 -538 539 0
504 144 538 -539 0
-504 -144 540 0
-504 -538 540 0
-144 -538 540 0
504 144 -540 0
504 538 -540 0
144 538 -540 0
-541 507 145 0
-541 -507 -145 0
541 -507 145 0
541 507 -145 0
-542 507 0
-542 145 0
542 -507 -145 0
-509 -146 -542 543 0
-509 -146 542 -543 0
-509 146 -542 -543 0
-509 146 542 543 0
509 -146 -542 -543 0
509 -146 542 543 0
509 146 -542 543 0
509 146 542 -543 0
-509 -146 544 0
-509 -542 544 0
-146 -542 544 0
509 146 -544 0
509 542 -544 0
146 542 -544 0
-511 -147 -544 545 0
-511 -147 544 -545 0
-511 147 -544 -545 0
-511 147 544 545 0
511 -147 -544 -545 0
511 -147 544 545 0
511 147 -544 545 0
511 147 544 -545 0
-511 -147 546 0
-511 -544 546 0
-147 -544 546 0
511 147 -546 0
511 544 -546 0
147 544 -546 0
-513 -148 -546 547 0
-513 -148 546 -547 0
-513 148 -546 -547 0
-513 148 546 547 0
513 -148 -546 -547 0
513 -148 546 547 0
513 148 -546 547 0
513 148 546 -547 0
-513 -148 548 0
-513 -546 548 0
-148 -546 548 0
513 148 -548 0
513 546 -548 0
148 546 -548 0
-515 -149 -548 549 0
-515 -149 548 -549 0
-515 149 -548 -549 0
-515 149 548 549 0
515 -149 -548 -549 0
515 -149 548 549 0
515 149 -548 549 0
515 149 548 -549 0
-515 -149 550 0
-515 -548 550 0
-149 -548 550 0
515 149 -550 0
515 548 -550 0
149 548 -550 0
-517 -150 -550 551 0
-517 -150 550 -551 0
-517 150 -550 -551 0
-517 150 550 551 0
517 -150 -550 -551 0
517 -150 550 551 0
517 150 -550 551 0
517 150 550 -551 0
-517 -150 552 0
-517 -550 552 0
-150 -550 552 0
517 150 -552 0
517 550 -552 0
150 550 -552 0
-519 -151 -552 553 0
-519 -151 552 -553 0
-519 151 -552 -553 0
-519 151 552 553 0
519 -151 -552 -553 0
519 -151 552 553 0
519 151 -552 553 0
519 151 552 -553 0
-519 -151 554 0
-519 -552 554 0
-151 -552 554 0
519 151 -554 0
519 552 -554 0
151 552 -554 0
-521 -152 -554 555 0
-521 -152 554 -555 0
-521 152 -554 -555 0
-521 152 554 555 0
521 -152 -554 -555 0
521 -152 554 555 0
521 152 -554 555 0
521 152 554 -555 0
-521 -152 556 0
-521 -554 556 0
-152 -554 556 0
521 152 -556 0
521 554 -556 0
152 554 -556 0
-523 -153 -556 557 0
-523 -153 556 -557 0
-523 153 -556 -557 0
-523 153 556 557 0
523 -153 -556 -557 0
523 -153 556 557 0
523 153 -556 557 0
523 153 556 -557 0
-523 -153 558 0
-523 -556 558 0
-153 -556 558 0
523 153 -558 0
523 556 -558 0
153 556 -558 0
-525 -154 -558 559 0
-525 -154 558 -559 0
-525 154 -558 -559 0
-525 154 558 559 0
525 -154 -558 -559 0
525 -154 558 559 0
525 154 -558 559 0
525 154 558 -559 0
-525 -154 560 0
-525 -558 560 0
-154 -558 560 0
525 154 -560 0
525 558 -560 0
154 558 -560 0
-527 -155 -560 561 0
-527 -155 560 -561 0
-527 155 -560 -561 0
-527 155 560 561 0
527 -155 -560 -561 0
527 -155 560 561 0
527 155 -560 561 0
527 155 560 -561 0
-527 -155 562 0
-527 -560 562 0
-155 -560 562 0
527 155 -562 0
527 560 -562 0
155 560 -562 0
-529 -156 -562 563 0
-529 -156 562 -563 0
-529 156 -562 -563 0
-529 156 562 563 0
529 -156 -562 -563 0
529 -156 562 563 0
529 156 -562 563 0
529 156 562 -563 0
-529 -156 564 0
-529 -562 564 0
-156 -562 564 0
529 156 -564 0
529 562 -564 0
156 562 -564 0
-531 -157 -564 565 0
-531 -157 564 -565 0
-531 157 -564 -565 0
-531 157 564 565 0
531 -157 -564 -565 0
531 -157 564 565 0
531 157 -564 565 0
531 157 564 -565 0
-531 -157 566 0
-531 -564 566 0
-157 -564 566 0
531 157 -566 0
531 564 -566 0
157 564 -566 0
-533 -158 -566 567 0
-533 -158 566 -567 0
-533 158 -566 -567 0
-533 158 566 567 0
533 -158 -566 -567 0
533 -158 566 567 0
533 158 -566 567 0
533 158 566 -567 0
-533 -158 568 0
-533 -566 568 0
-158 -566 568 0
533 158 -568 0
533 566 -568 0
158 566 -568 0
-535 -159 -568 569 0
-535 -159 568 -569 0
-535 159 -568 -569 0
-535 159 568 569 0
535 -159 -568 -569 0
535 -159 568 569 0
535 159 -568 569 0
535 159 568 -569 0
-535 -159 570 0
-535 -568 570 0
-159 -568 570 0
535 159 -570 0
535 568 -570 0
159 568 -570 0
-537 -160 -570 571 0
-537 -160 570 -571 0
-537 160 -570 -571 0
-537 160 570 571 0
537 -160 -570 -571 0
537 -160 570 571 0
537 160 -570 571 0
537 160 570 -571 0
-537 -160 572 0
-537 -570 572 0
-160 -570 572 0
537 160 -572 0
537 570 -572 0
160 570 -572 0
-539 -161 -572 573 0
-539 -161 572 -573 0
-539 161 -572 -573 0
-539 161 572 573 0
539 -161 -572 -573 0
539 -161 572 573 0
539 161 -572 573 0
539 161 572 -573 0
-539 -161 574 0
-539 -572 574 0
-161 -572 574 0
539 161 -574 0
539 572 -574 0
161 572 -574 0
-540 -162 -574 575 0
-540 -162 574 -575 0
-540 162 -574 -575 0
-540 162 574 575 0
540 -162 -574 -575 0
540 -162 574 575 0
540 162 -574 575 0
540 162 574 -575 0
-540 -162 576 0
-540 -574 576 0
-162 -574 576 0
540 162 -576 0
540 574 -576 0
162 574 -576 0
-577 543 163 0
-577 -543 -163 0
577 -543 163 0
577 543 -163 0
-578 543 0
-578 163 0
578 -543 -163 0
-545 -164 -578 579 0
-545 -164 578 -579 0
-545 164 -578 -579 0
-545 164 578 579 0
545 -164 -578 -579 0
545 -164 578 579 0
545 164 -578 579 0
545 164 578 -579 0
-545 -164 580 0
-545 -578 580 0
-164 -578 580 0
545 164 -580 0
545 578 -580 0
164 578 -580 0
-547 -165 -580 581 0
-547 -165 580 -581 0
-547 165 -580 -581 0
-547 165 580 581 0
547 -165 -580 -581 0
547 -165 580 581 0
547 165 -580 581 0
547 165 580 -581 0
-547 -165 582 0
-547 -580 582 0
-165 -580 582 0
547 165 -582 0
547 580 -582 0
165 580 -582 0
-549 -166 -582 583 0
-549 -166 582 -583 0
-549 166 -582 -583 0
-549 166 582 583 0
549 -166 -582 -583 0
549 -166 582 583 0
549 166 -582 583 0
549 166 582 -583 0
-549 -166 584 0
-549 -582 584 0
-166 -582 584 0
549 166 -584 0
549 582 -584 0
166 582 -584 0
-551 -167 -584 585 0
-551 -167 584 -585 0
-551 167 -584 -585 0
-551 167 584 585 0
551 -167 -584 -585 0
551 -167 584 585 0
551 167 -584 585 0
551 167 584 -585 0
-551 -167 586 0
-551 -584 586 0
-167 -584 586 0
551 167 -586 0
551 584 -586 0
167 584 -586 0
-553 -168 -586 587 0
-553 -168 586 -587 0
-553 168 -586 -587 0
-553 168 586 587 0
553 -168 -586 -587 0
553 -168 586 587 0
553 168 -586 587 0
553 168 586 -587 0
-553 -168 588 0
-553 -586 588 0
-168 -586 588 0
553 168 -588 0
553 586 -588 0
168 586 -588 0
-555 -169 -588 589 0
-555 -169 588 -589 0
-555 169 -588 -589 0
-555 169 588 589 0
555 -169 -588 -589 0
555 -169 588 589 0
555 169 -588 589 0
555 169 588 -589 0
-555 -169 590 0
-555 -588 590 0
-169 -588 590 0
555 169 -590 0
555 588 -590 0
169 588 -590 0
-557 -170 -590 591 0
-557 -170 590 -591 0
-557 170 -590 -591 0
-557 170 590 591 0
557 -170 -590 -591 0
557 -170 590 591 0
557 170 -590 591 0
557 170 590 -591 0
-557 -170 592 0
-557 -590 592 0
-170 -590 592 0
557 170 -592 0
557 590 -592 0
170 590 -592 0
-559 -171 -592 593 0
-559 -171 592 -593 0
-559 171 -592 -593 0
-559 171 592 593 0
559 -171 -592 -593 0
559 -171 592 593 0
559 171 -592 593 0
559 171 592 -593 0
-559 -171 594 0
-559 -592 594 0
-171 -592 594 0
559 171 -594 0
559 592 -594 0
171 592 -594 0
-561 -172 -594 595 0
-561 -172 594 -595 0
-561 172 -594 -595 0
-561 172 594 595 0
561 -172 -594 -595 0
561 -172 594 595 0
561 172 -594 595 0
561 172 594 -595 0
-561 -172 596 0
-561 -594 596 0
-172 -594 596 0
561 172 -596 0
561 594 -596 0
172 594 -596 0
-563 -173 -596 597 0
-563 -173 596 -597 0
-563 173 -596 -597 0
-563 173 596 597 0
563 -173 -596 -597 0
563 -173 596 597 0
563 173 -596 597 0
563 173 596 -597 0
-563 -173 598 0
-563 -596 598 0
-173 -596 598 0
563 173 -598 0
563 596 -598 0
173 596 -598 0
-565 -174 -598 599 0
-565 -174 598 -599 0
-565 174 -598 -599 0
-565 174 598 599 0
565 -174 -598 -599 0
565 -174 598 599 0
565 174 -598 599 0
565 174 598 -599 0
-565 -174 600 0
-565 -598 600 0
-174 -598 600 0
565 174 -600 0
565 598 -600 0
174 598 -600 0
-567 -175 -600 601 0
-567 -175 600 -601 0
-567 175 -600 -601 0
-567 175 600 601 0
567 -175 -600 -601 0
567 -175 600 601 0
567 175 -600 601 0
567 175 600 -601 0
-567 -175 602 0
-567 -600 602 0
-175 -600 602 0
567 175 -602 0
567 600 -602 0
175 600 -602 0
-569 -176 -602 603 0
-569 -176 602 -603 0
-569 176 -602 -603 0
-569 176 602 603 0
569 -176 -602 -603 0
569 -176 602 603 0
569 176 -602 603 0
569 176 602 -603 0
-569 -176 604 0
-569 -602 604 0
-176 -602 604 0
569 176 -604 0
569 602 -604 0
176 602 -604 0
-571 -177 -604 605 0
-571 -177 604 -605 0
-571 177 -604 -605 0
-571 177 604 605 0
571 -177 -604 -605 0
571 -177 604 605 0
571 177 -604 605 0
571 177 604 -605 0
-571 -177 606 0
-571 -604 606 0
-177 -604 606 0
571 177 -606 0
571 604 -606 0
177 604 -606 0
-573 -178 -606 607 0
-573 -178 606 -607 0
-573 178 -606 -607 0
-573 178 606 607 0
573 -178 -606 -607 0
573 -178 606 607 0
573 178 -606 607 0
573 178 606 -607 0
-573 -178 608 0
-573 -606 608 0
-178 -606 608 0
573 178 -608 0
573 606 -608 0
178 606 -608 0
-575 -179 -608 609 0
-575 -179 608 -609 0
-575 179 -608 -609 0
-575 179 608 609 0
575 -179 -608 -609 0
575 -179 608 609 0
575 179 -608 609 0
575 179 608 -609 0
-575 -179 610 0
-575 -608 610 0
-179 -608 610 0
575 179 -610 0
575 608 -610 0
179 608 -610 0
-576 -180 -610 611 0
-576 -180 610 -611 0
-576 180 -610 -611 0
-576 180 610 611 0
576 -180 -610 -611 0
576 -180 610 611 0
576 180 -610 611 0
576 180 610 -611 0
-576 -180 612 0
-576 -610 612 0
-180 -610 612 0
576 180 -612 0
576 610 -612 0
180 610 -612 0
-613 579 181 0
-613 -579 -181 0
613 -579 181 0
613 579 -181 0
-614 579 0
-614 181 0
614 -579 -181 0
-581 -182 -614 615 0
-581 -182 614 -615 0
-581 182 -614 -615 0
-581 182 614 615 0
581 -182 -614 -615 0
581 -182 614 615 0
581 182 -614 615 0
581 182 614 -615 0
-581 -182 616 0
-581 -614 616 0
-182 -614 616 0
581 182 -616 0
581 614 -616 0
182 614 -616 0
-583 -183 -616 617 0
-583 -183 616 -617 0
-583 183 -616 -617 0
-583 183 616 617 0
583 -183 -616 -617 0
583 -183 616 617 0
583 183 -616 617 0
583 183 616 -617 0
-583 -183 618 0
-583 -616 618 0
-183 -616 618 0
583 183 -618 0
583 616 -618 0
183 616 -618 0
-585 -184 -618 619 0
-585 -184 618 -619 0
-585 184 -618 -619 0
-585 184 618 619 0
585 -184 -618 -619 0
585 -184 618 619 0
585 184 -618 619 0
585 184 618 -619 0
-585 -184 620 0
-585 -618 620 0
-184 -618 620 0
585 184 -620 0
585 618 -620 0
184 618 -620 0
-587 -185 -620 621 0
-587 -185 620 -621 0
-587 185 -620 -621 0
-587 185 620 621 0
587 -185 -620 -621 0
587 -185 620 621 0
587 185 -620 621 0
587 185 620 -621 0
-587 -185 622 0
-587 -620 622 0
-185 -620 622 0
587 185 -622 0
587 620 -622 0
185 620 -622 0
-589 -186 -622 623 0
-589 -186 622 -623 0
-589 186 -622 -623 0
-589 186 622 623 0
589 -186 -622 -623 0
589 -186 622 623 0
589 186 -622 623 0
589 186 622 -623 0
-589 -186 624 0
-589 -622 624 0
-186 -622 624 0
589 186 -624 0
589 622 -624 0
186 622 -624 0
-591 -187 -624 625 0
-591 -187 624 -625 0
-591 187 -624 -625 0
-591 187 624 625 0
591 -187 -624 -625 0
591 -187 624 625 0
591 187 -624 625 0
591 187 624 -625 0
-591 -187 626 0
-591 -624 626 0
-187 -624 626 0
591 187 -626 0
591 624 -626 0
187 624 -626 0
-593 -188 -626 627 0
-593 -188 626 -627 0
-593 188 -626 -627 0
-593 188 626 627 0
593 -188 -626 -627 0
593 -188 626 627 0
593 188 -626 627 0
593 188 626 -627 0
-593 -188 628 0
-593 -626 628 0
-188 -626 628 0
593 188 -628 0
593 626 -628 0
188 626 -628 0
-595 -189 -628 629 0
-595 -189 628 -629 0
-595 189 -628 -629 0
-595 189 628 629 0
595 -189 -628 -629 0
595 -189 628 629 0
595 189 -628 629 0
595 189 628 -629 0
-595 -189 630 0
-595 -628 630 0
-189 -628 630 0
595 189 -630 0
595 628 -630 0
189 628 -630 0
-597 -190 -630 631 0
-597 -190 630 -631 0
-597 190 -630 -631 0
-597 190 630 631 0
597 -190 -630 -631 0
597 -190 630 631 0
597 190 -630 631 0
597 190 630 -631 0
-597 -190 632 0
-597 -630 632 0
-190 -630 632 0
597 190 -632 0
597 630 -632 0
190 630 -632 0
-599 -191 -632 633 0
-599 -191 632 -633 0
-599 191 -632 -633 0
-599 191 632 633 0
599 -191 -632 -633 0
599 -191 632 633 0
599 191 -632 633 0
599 191 632 -633 0
-599 -191 634 0
-599 -632 634 0
-191 -632 634 0
599 191 -634 0
599 632 -634 0
191 632 -634 0
-601 -192 -634 635 0
-601 -192 634 -635 0
-601 192 -634 -635 0
-601 192 634 635 0
601 -192 -634 -635 0
601 -192 634 635 0
601 192 -634 635 0
601 192 634 -635 0
-601 -192 636 0
-601 -634 636 0
-192 -634 636 0
601 192 -636 0
601 634 -636 0
192 634 -636 0
-603 -193 -636 637 0
-603 -193 636 -637 0
-603 193 -636 -637 0
-603 193 636 637 0
603 -193 -636 -637 0
603 -193 636 637 0
603 193 -636 637 0
603 193 636 -637 0
-603 -193 638 0
-603 -636 638 0
-193 -636 638 0
603 193 -638 0
603 636 -638 0
193 636 -638 0
-605 -194 -638 639 0
-605 -194 638 -639 0
-605 194 -638 -639 0
-605 194 638 639 0
605 -194 -638 -639 0
605 -194 638 639 0
605 194 -638 639 0
605 194 638 -639 0
-605 -194 640 0
-605 -638 640 0
-194 -638 640 0
605 194 -640 0
605 638 -640 0
194 638 -640 0
-607 -195 -640 641 0
-607 -195 640 -641 0
-607 195 -640 -641 0
-607 195 640 641 0
607 -195 -640 -641 0
607 -195 640 641 0
607 195 -640 641 0
607 195 640 -641 0
-607 -195 642 0
-607 -640 642 0
-195 -640 642 0
607 195 -642 0
607 640 -642 0
195 640 -642 0
-609 -196 -642 643 0
-609 -196 642 -643 0
-609 196 -642 -643 0
-609 196 642 643 0
609 -196 -642 -643 0
609 -196 642 643 0
609 196 -642 643 0
609 196 642 -643 0
-609 -196 644 0
-609 -642 644 0
-196 -642 644 0
609 196 -644 0
609 642 -644 0
196 642 -644 0
-611 -197 -644 645 0
-611 -197 644 -645 0
-611 197 -644 -645 0
-611 197 644 645 0
611 -197 -644 -645 0
611 -197 644 645 0
611 197 -644 645 0
611 197 644 -645 0
-611 -197 646 0
-611 -644 646 0
-197 -644 646 0
611 197 -646 0
611 644 -646 0
197 644 -646 0
-612 -198 -646 647 0
-612 -198 646 -647 0
-612 198 -646 -647 0
-612 198 646 647 0
612 -198 -646 -647 0
612 -198 646 647 0
612 198 -646 647 0
612 198 646 -647 0
-612 -198 648 0
-612 -646 648 0
-198 -646 648 0
612 198 -648 0
612 646 -648 0
198 646 -648 0
-649 615 199 0
-649 -615 -199 0
649 -615 199 0
649 615 -199 0
-650 615 0
-650 199 0
650 -615 -199 0
-617 -200 -650 651 0
-617 -200 650 -651 0
-617 200 -650 -651 0
-617 200 650 651 0
617 -200 -650 -651 0
617 -200 650 651 0
617 200 -650 651 0
617 200 650 -651 0
-617 -200 652 0
-617 -650 652 0
-200 -650 652 0
617 200 -652 0
617 650 -652 0
200 650 -652 0
-619 -201 -652 653 0
-619 -201 652 -653 0
-619 201 -652 -653 0
-619 201 652 653 0
619 -201 -652 -653 0
619 -201 652 653 0
619 201 -652 653 0
619 201 652 -653 0
-619 -201 654 0
-619 -652 654 0
-201 -652 654 0
619 201 -654 0
619 652 -654 0
201 652 -654 0
-621 -202 -654 655 0
-621 -202 654 -655 0
-621 202 -654 -655 0
-621 202 654 655 0
621 -202 -654 -655 0
621 -202 654 655 0
621 202 -654 655 0
621 202 654 -655 0
-621 -202 656 0
-621 -654 656 0
-202 -654 656 0
621 202 -656 0
621 654 -656 0
202 654 -656 0
-623 -203 -656 657 0
-623 -203 656 -657 0
-623 203 -656 -657 0
-623 203 656 657 0
623 -203 -656 -657 0
623 -203 656 657 0
623 203 -656 657 0
623 203 656 -657 0
-623 -203 658 0
-623 -656 658 0
-203 -656 658 0
623 203 -658 0
623 656 -658 0
203 656 -658 0
-625 -204 -658 659 0
-625 -204 658 -659 0
-625 204 -658 -659 0
-625 204 658 659 0
625 -204 -658 -659 0
625 -204 658 659 0
625 204 -658 659 0
625 204 658 -659 0
-625 -204 660 0
-625 -658 660 0
-204 -658 660 0
625 204 -660 0
625 658 -660 0
204 658 -660 0
-627 -205 -660 661 0
-627 -205 660 -661 0
-627 205 -660 -661 0
-627 205 660 661 0
627 -205 -660 -661 0
627 -205 660 661 0
627 205 -660 661 0
627 205 660 -661 0
-627 -205 662 0
-627 -660 662 0
-205 -660 662 0
627 205 -662 0
627 660 -662 0
205 660 -662 0
-629 -206 -662 663 0
-629 -206 662 -663 0
-629 206 -662 -663 0
-629 206 662 663 0
629 -206 -662 -663 0
629 -206 662 663 0
629 206 -662 663 0
629 206 662 -663 0
-629 -206 664 0
-629 -662 664 0
-206 -662 664 0
629 206 -664 0
629 662 -664 0
206 662 -664 0
-631 -207 -664 665 0
-631 -207 664 -665 0
-631 207 -664 -665 0
-631 207 664 665 0
631 -207 -664 -665 0
631 -207 664 665 0
631 207 -664 665 0
631 207 664 -665 0
-631 -207 666 0
-631 -664 666 0
-207 -664 666 0
631 207 -666 0
631 664 -666 0
207 664 -666 0
-633 -208 -666 667 0
-633 -208 666 -667 0
-633 208 -666 -667 0
-633 208 666 667 0
633 -208 -666 -667 0
633 -208 666 667 0
633 208 -666 667 0
633 208 666 -667 0
-633 -208 668 0
-633 -666 668 0
-208 -666 668 0
633 208 -668 0
633 666 -668 0
208 666 -668 0
-635 -209 -668 669 0
-635 -209 668 -669 0
-635 209 -668 -669 0
-635 209 668 669 0
635 -209 -668 -669 0
635 -209 668 669 0
635 209 -668 669 0
635 209 668 -669 0
-635 -209 670 0
-635 -668 670 0
-209 -668 670 0
635 209 -670 0
635 668 -670 0
209 668 -670 0
-637 -210 -670 671 0
-637 -210 670 -671 0
-637 210 -670 -671 0
-637 210 670 671 0
637 -210 -670 -671 0
637 -210 670 671 0
637 210 -670 671 0
637 210 670 -671 0
-637 -210 672 0
-637 -670 672 0
-210 -670 672 0
637 210 -672 0
637 670 -672 0
210 670 -672 0
-639 -211 -672 673 0
-639 -211 672 -673 0
-639 211 -672 -673 0
-639 211 672 673 0
639 -211 -672 -673 0
639 -211 672 673 0
639 211 -672 673 0
639 211 672 -673 0
-639 -211 674 0
-639 -672 674 0
-211 -672 674 0
639 211 -674 0
639 672 -674 0
211 672 -674 0
-641 -212 -674 675 0
-641 -212 674 -675 0
-641 212 -674 -675 0
-641 212 674 675 0
641 -212 -674 -675 0
641 -212 674 675 0
641 212 -674 675 0
641 212 674 -675 0
-641 -212 676 0
-641 -674 676 0
-212 -674 676 0
641 212 -676 0
641 674 -676 0
212 674 -676 0
-643 -213 -676 677 0
-643 -213 676 -677 0
-643 213 -676 -677 0
-643 213 676 677 0
643 -213 -676 -677 0
643 -213 676 677 0
643 213 -676 677 0
643 213 676 -677 0
-643 -213 678 0
-643 -676 678 0
-213 -676 678 0
643 213 -678 0
643 676 -678 0
213 676 -678 0
-645 -214 -678 679 0
-645 -214 678 -679 0
-645 214 -678 -679 0
-645 214 678 679 0
645 -214 -678 -679 0
645 -214 678 679 0
645 214 -678 679 0
645 214 678 -679 0
-645 -214 680 0
-645 -678 680 0
-214 -678 680 0
645 214 -680 0
645 678 -680 0
214 678 -680 0
-647 -215 -680 681 0
-647 -215 680 -681 0
-647 215 -680 -681 0
-647 215 680 681 0
647 -215 -680 -681 0
647 -215 680 681 0
647 215 -680 681 0
647 215 680 -681 0
-647 -215 682 0
-647 -680 682 0
-215 -680 682 0
647 215 -682 0
647 680 -682 0
215 680 -682 0
-648 -216 -682 683 0
-648 -216 682 -683 0
-648 216 -682 -683 0
-648 216 682 683 0
648 -216 -682 -683 0
648 -216 682 683 0
648 216 -682 683 0
648 216 682 -683 0
-648 -216 684 0
-648 -682 684 0
-216 -682 684 0
648 216 -684 0
648 682 -684 0
216 682 -684 0
-685 651 217 0
-685 -651 -217 0
685 -651 217 0
685 651 -217 0
-686 651 0
-686 217 0
686 -651 -217 0
-653 -218 -686 687 0
-653 -218 686 -687 0
-653 218 -686 -687 0
-653 218 686 687 0
653 -218 -686 -687 0
653 -218 686 687 0
653 218 -686 687 0
653 218 686 -687 0
-653 -218 688 0
-653 -686 688 0
-218 -686 688 0
653 218 -688 0
653 686 -688 0
218 686 -688 0
-655 -219 -688 689 0
-655 -219 688 -689 0
-655 219 -688 -689 0
-655 219 688 689 0
655 -219 -688 -689 0
655 -219 688 689 0
655 219 -688 689 0
655 219 688 -689 0
-655 -219 690 0
-655 -688 690 0
-219 -688 690 0
655 219 -690 0
655 688 -690 0
219 688 -690 0
-657 -220 -690 691 0
-657 -220 690 -691 0
-657 220 -690 -691 0
-657 220 690 691 0
657 -220 -690 -691 0
657 -220 690 691 0
657 220 -690 691 0
657 220 690 -691 0
-657 -220 692 0
-657 -690 692 0
-220 -690 692 0
657 220 -692 0
657 690 -692 0
220 690 -692 0
-659 -221 -692 693 0
-659 -221 692 -693 0
-659 221 -692 -693 0
-659 221 692 693 0
659 -221 -692 -693 0
659 -221 692 693 0
659 221 -692 693 0
659 221 692 -693 0
-659 -221 694 0
-659 -692 694 0
-221 -692 694 0
659 221 -694 0
659 692 -694 0
221 692 -694 0
-661 -222 -694 695 0
-661 -222 694 -695 0
-661 222 -694 -695 0
-661 222 694 695 0
661 -222 -694 -695 0
661 -222 694 695 0
661 222 -694 695 0
661 222 694 -695 0
-661 -222 696 0
-661 -694 696 0
-222 -694 696 0
661 222 -696 0
661 694 -696 0
222 694 -696 0
-663 -223 -696 697 0
-663 -223 696 -697 0
-663 223 -696 -697 0
-663 223 696 697 0
663 -223 -696 -697 0
663 -223 696 697 0
663 223 -696 697 0
663 223 696 -697 0
-663 -223 698 0
-663 -696 698 0
-223 -696 698 0
663 223 -698 0
663 696 -698 0
223 696 -698 0
-665 -224 -698 699 0
-665 -224 698 -699 0
-665 224 -698 -699 0
-665 224 698 699 0
665 -224 -698 -699 0
665 -224 698 699 0
665 224 -698 699 0
665 224 698 -699 0
-665 -224 700 0
-665 -698 700 0
-224 -698 700 0
665 224 -700 0
665 698 -700 0
224 698 -700 0
-667 -225 -700 701 0
-667 -225 700 -701 0
-667 225 -700 -701 0
-667 225 700 701 0
667 -225 -700 -701 0
667 -225 700 701 0
667 225 -700 701 0
667 225 700 -701 0
-667 -225 702 0
-667 -700 702 0
-225 -700 702 0
667 225 -702 0
667 700 -702 0
225 700 -702 0
-669 -226 -702 703 0
-669 -226 702 -703 0
-669 226 -702 -703 0
-669 226 702 703 0
669 -226 -702 -703 0
669 -226 702 703 0
669 226 -702 703 0
669 226 702 -703 0
-669 -226 704 0
-669 -702 704 0
-226 -702 704 0
669 226 -704 0
669 702 -704 0
226 702 -704 0
-671 -227 -704 705 0
-671 -227 704 -705 0
-671 227 -704 -705 0
-671 227 704 705 0
671 -227 -704 -705 0
671 -227 704 705 0
671 227 -704 705 0
671 227 704 -705 0
-671 -227 706 0
-671 -704 706 0
-227 -704 706 0
671 227 -706 0
671 704 -706 0
227 704 -706 0
-673 -228 -706 707 0
-673 -228 706 -707 0
-673 228 -706 -707 0
-673 228 706 707 0
673 -228 -706 -707 0
673 -228 706 707 0
673 228 -706 707 0
673 228 706 -707 0
-673 -228 708 0
-673 -706 708 0
-228 -706 708 0
673 228 -708 0
673 706 -708 0
228 706 -708 0
-675 -229 -708 709 0
-675 -229 708 -709 0
-675 229 -708 -709 0
-675 229 708 709 0
675 -229 -708 -709 0
675 -229 708 709 0
675 229 -708 709 0
675 229 708 -709 0
-675 -229 710 0
-675 -708 710 0
-229 -708 710 0
675 229 -710 0
675 708 -710 0
229 708 -710 0
-677 -230 -710 711 0
-677 -230 710 -711 0
-677 230 -710 -711 0
-677 230 710 711 0
677 -230 -710 -711 0
677 -230 710 711 0
677 230 -710 711 0
677 230 710 -711 0
-677 -230 712 0
-677 -710 712 0
-230 -710 712 0
677 230 -712 0
677 710 -712 0
230 710 -712 0
-679 -231 -712 713 0
-679 -231 712 -713 0
-679 231 -712 -713 0
-679 231 712 713 0
679 -231 -712 -713 0
679 -231 712 713 0
679 231 -712 713 0
679 231 712 -713 0
-679 -231 714 0
-679 -712 714 0
-231 -712 714 0
679 231 -714 0
679 712 -714 0
231 712 -714 0
-681 -232 -714 715 0
-681 -232 714 -715 0
-681 232 -714 -715 0
-681 232 714 715 0
681 -232 -714 -715 0
681 -232 714 715 0
681 232 -714 715 0
681 232 714 -715 0
-681 -232 716 0
-681 -714 716 0
-232 -714 716 0
681 232 -716 0
681 714 -716 0
232 714 -716 0
-683 -233 -716 717 0
-683 -233 716 -717 0
-683 233 -716 -717 0
-683 233 716 717 0
683 -233 -716 -717 0
683 -233 716 717 0
683 233 -716 717 0
683 233 716 -717 0
-683 -233 718 0
-683 -716 718 0
-233 -716 718 0
683 233 -718 0
683 716 -718 0
233 716 -718 0
-684 -234 -718 719 0
-684 -234 718 -719 0
-684 234 -718 -719 0
-684 234 718 719 0
684 -234 -718 -719 0
684 -234 718 719 0
684 234 -718 719 0
684 234 718 -719 0
-684 -234 720 0
-684 -718 720 0
-234 -718 720 0
684 234 -720 0
684 718 -720 0
234 718 -720 0
-721 687 235 0
-721 -687 -235 0
721 -687 235 0
721 687 -235 0
-722 687 0
-722 235 0
722 -687 -235 0
-689 -236 -722 723 0
-689 -236 722 -723 0
-689 236 -722 -723 0
-689 236 722 723 0
689 -236 -722 -723 0
689 -236 722 723 0
689 236 -722 723 0
689 236 722 -723 0
-689 -236 724 0
-689 -722 724 0
-236 -722 724 0
689 236 -724 0
689 722 -724 0
236 722 -724 0
-691 -237 -724 725 0
-691 -237 724 -725 0
-691 237 -724 -725 0
-691 237 724 725 0
691 -237 -724 -725 0
691 -237 724 725 0
691 237 -724 725 0
691 237 724 -725 0
-691 -237 726 0
-691 -724 726 0
-237 -724 726 0
691 237 -726 0
691 724 -726 0
237 724 -726 0
-693 -238 -726 727 0
-693 -238 726 -727 0
-693 238 -726 -727 0
-693 238 726 727 0
693 -238 -726 -727 0
693 -238 726 727 0
693 238 -726 727 0
693 238 726 -727 0
-693 -238 728 0
-693 -726 728 0
-238 -726 728 0
693 238 -728 0
693 726 -728 0
238 726 -728 0
-695 -239 -728 729 0
-695 -239 728 -729 0
-695 239 -728 -729 0
-695 239 728 729 0
695 -239 -728 -729 0
695 -239 728 729 0
695 239 -728 729 0
695 239 728 -729 0
-695 -239 730 0
-695 -728 730 0
-239 -728 730 0
695 239 -730 0
695 728 -730 0
239 728 -730 0
-697 -240 -730 731 0
-697 -240 730 -731 0
-697 240 -730 -731 0
-697 240 730 731 0
697 -240 -730 -731 0
697 -240 730 731 0
697 240 -730 731 0
697 240 730 -731 0
-697 -240 732 0
-697 -730 732 0
-240 -730 732 0
697 240 -732 0
697 730 -732 0
240 730 -732 0
-699 -241 -732 733 0
-699 -241 732 -733 0
-699 241 -732 -733 0
-699 241 732 733 0
699 -241 -732 -733 0
699 -241 732 733 0
699 241 -732 733 0
699 241 732 -733 0
-699 -241 734 0
-699 -732 734 0
-241 -732 734 0
699 241 -734 0
699 732 -734 0
241 732 -734 0
-701 -242 -734 735 0
-701 -242 734 -735 0
-701 242 -734 -735 0
-701 242 734 735 0
701 -242 -734 -735 0
701 -242 734 735 0
701 242 -734 735 0
701 242 734 -735 0
-701 -242 736 0
-701 -734 736 0
-242 -734 736 0
701 242 -736 0
701 734 -736 0
242 734 -736 0
-703 -243 -736 737 0
-703 -243 736 -737 0
-703 243 -736 -737 0
-703 243 736 737 0
703 -243 -736 -737 0
703 -243 736 737 0
703 243 -736 737 0
703 243 736 -737 0
-703 -243 738 0
-703 -736 738 0
-243 -736 738 0
703 243 -738 0
703 736 -738 0
243 736 -738 0
-705 -244 -738 739 0
-705 -244 738 -739 0
-705 244 -738 -739 0
-705 244 738 739 0
705 -244 -738 -739 0
705 -244 738 739 0
705 244 -738 739 0
705 244 738 -739 0
-705 -244 740 0
-705 -738 740 0
-244 -738 740 0
705 244 -740 0
705 738 -740 0
244 738 -740 0
-707 -245 -740 741 0
-707 -245 740 -741 0
-707 245 -740 -741 0
-707 245 740 741 0
707 -245 -740 -741 0
707 -245 740 741 0
707 245 -740 741 0
707 245 740 -741 0
-707 -245 742 0
-707 -740 742 0
-245 -740 742 0
707 245 -742 0
707 740 -742 0
245 740 -742 0
-709 -246 -742 743 0
-709 -246 742 -743 0
-709 246 -742 -743 0
-709 246 742 743 0
709 -246 -742 -743 0
709 -246 742 743 0
709 246 -742 743 0
709 246 742 -743 0
-709 -246 744 0
-709 -742 744 0
-246 -742 744 0
709 246 -744 0
709 742 -744 0
246 742 -744 0
-711 -247 -744 745 0
-711 -247 744 -745 0
-711 247 -744 -745 0
-711 247 744 745 0
711 -247 -744 -745 0
711 -247 744 745 0
711 247 -744 745 0
711 247 744 -745 0
-711 -247 746 0
-711 -744 746 0
-247 -744 746 0
711 247 -746 0
711 744 -746 0
247 744 -746 0
-713 -248 -746 747 0
-713 -248 746 -747 0
-713 248 -746 -747 0
-713 248 746 747 0
713 -248 -746 -747 0
713 -248 746 747 0
713 248 -746 747 0
713 248 746 -747 0
-713 -248 748 0
-713 -746 748 0
-248 -746 748 0
713 248 -748 0
713 746 -748 0
248 746 -748 0
-715 -249 -748 749 0
-715 -249 748 -749 0
-715 249 -748 -749 0
-715 249 748 749 0
715 -249 -748 -749 0
715 -249 748 749 0
715 249 -748 749 0
715 249 748 -749 0
-715 -249 750 0
-715 -748 750 0
-249 -748 750 0
715 249 -750 0
715 748 -750 0
249 748 -750 0
-717 -250 -750 751 0
-717 -250 750 -751 0
-717 250 -750 -751 0
-717 250 750 751 0
717 -250 -750 -751 0
717 -250 750 751 0
717 250 -750 751 0
717 250 750 -751 0
-717 -250 752 0
-717 -750 752 0
-250 -750 752 0
717 250 -752 0
717 750 -752 0
250 750 -752 0
-719 -251 -752 753 0
-719 -251 752 -753 0
-719 251 -752 -753 0
-719 251 752 753 0
719 -251 -752 -753 0
719 -251 752 753 0
719 251 -752 753 0
719 251 752 -753 0
-719 -251 754 0
-719 -752 754 0
-251 -752 754 0
719 251 -754 0
719 752 -754 0
251 752 -754 0
-720 -252 -754 755 0
-720 -252 754 -755 0
-720 252 -754 -755 0
-720 252 754 755 0
720 -252 -754 -755 0
720 -252 754 755 0
720 252 -754 755 0
720 252 754 -755 0
-720 -252 756 0
-720 -754 756 0
-252 -754 756 0
720 252 -756 0
720 754 -756 0
252 754 -756 0
-757 723 253 0
-757 -723 -253 0
757 -723 253 0
757 723 -253 0
-758 723 0
-758 253 0
758 -723 -253 0
-725 -254 -758 759 0
-725 -254 758 -759 0
-725 254 -758 -759 0
-725 254 758 759 0
725 -254 -758 -759 0
725 -254 758 759 0
725 254 -758 759 0
725 254 758 -759 0
-725 -254 760 0
-725 -758 760 0
-254 -758 760 0
725 254 -760 0
725 758 -760 0
254 758 -760 0
-727 -255 -760 761 0
-727 -255 760 -761 0
-727 255 -760 -761 0
-727 255 760 761 0
727 -255 -760 -761 0
727 -255 760 761 0
727 255 -760 761 0
727 255 760 -761 0
-727 -255 762 0
-727 -760 762 0
-255 -760 762 0
727 255 -762 0
727 760 -762 0
255 760 -762 0
-729 -256 -762 763 0
-729 -256 762 -763 0
-729 256 -762 -763 0
-729 256 762 763 0
729 -256 -762 -763 0
729 -256 762 763 0
729 256 -762 763 0
729 256 762 -763 0
-729 -256 764 0
-729 -762 764 0
-256 -762 764 0
729 256 -764 0
729 762 -764 0
256 762 -764 0
-731 -257 -764 765 0
-731 -257 764 -765 0
-731 257 -764 -765 0
-731 257 764 765 0
731 -257 -764 -765 0
731 -257 764 765 0
731 257 -764 765 0
731 257 764 -765 0
-731 -257 766 0
-731 -764 766 0
-257 -764 766 0
731 257 -766 0
731 764 -766 0
257 764 -766 0
-733 -258 -766 767 0
-733 -258 766 -767 0
-733 258 -766 -767 0
-733 258 766 767 0
733 -258 -766 -767 0
733 -258 766 767 0
733 258 -766 767 0
733 258 766 -767 0
-733 -258 768 0
-733 -766 768 0
-258 -766 768 0
733 258 -768 0
733 766 -768 0
258 766 -768 0
-735 -259 -768 769 0
-735 -259 768 -769 0
-735 259 -768 -769 0
-735 259 768 769 0
735 -259 -768 -769 0
735 -259 768 769 0
735 259 -768 769 0
735 259 768 -769 0
-735 -259 770 0
-735 -768 770 0
-259 -768 770 0
735 259 -770 0
735 768 -770 0
259 768 -770 0
-737 -260 -770 771 0
-737 -260 770 -771 0
-737 260 -770 -771 0
-737 260 770 771 0
737 -260 -770 -771 0
737 -260 770 771 0
737 260 -770 771 0
737 260 770 -771 0
-737 -260 772 0
-737 -770 772 0
-260 -770 772 0
737 260 -772 0
737 770 -772 0
260 770 -772 0
-739 -261 -772 773 0
-739 -261 772 -773 0
-739 261 -772 -773 0
-739 261 772 773 0
739 -261 -772 -773 0
739 -261 772 773 0
739 261 -772 773 0
739 261 772 -773 0
-739 -261 774 0
-739 -772 774 0
-261 -772 774 0
739 261 -774 0
739 772 -774 0
261 772 -774 0
-741 -262 -774 775 0
-741 -262 774 -775 0
-741 262 -774 -775 0
-741 262 774 775 0
741 -262 -774 -775 0
741 -262 774 775 0
741 262 -774 775 0
741 262 774 -775 0
-741 -262 776 0
-741 -774 776 0
-262 -774 776 0
741 262 -776 0
741 774 -776 0
262 774 -776 0
-743 -263 -776 777 0
-743 -263 776 -777 0
-743 263 -776 -777 0
-743 263 776 777 0
743 -263 -776 -777 0
743 -263 776 777 0
743 263 -776 777 0
743 263 776 -777 0
-743 -263 778 0
-743 -776 778 0
-263 -776 778 0
743 263 -778 0
743 776 -778 0
263 776 -778 0
-745 -264 -778 779 0
-745 -264 778 -779 0
-745 264 -778 -779 0
-745 264 778 779 0
745 -264 -778 -779 0
745 -264 778 779 0
745 264 -778 779 0
745 264 778 -779 0
-745 -264 780 0
-745 -778 780 0
-264 -778 780 0
745 264 -780 0
745 778 -780 0
264 778 -780 0
-747 -265 -780 781 0
-747 -265 780 -781 0
-747 265 -780 -781 0
-747 265 780 781 0
747 -265 -780 -781 0
747 -265 780 781 0
747 265 -780 781 0
747 265 780 -781 0
-747 -265 782 0
-747 -780 782 0
-265 -780 782 0
747 265 -782 0
747 780 -782 0
265 780 -782 0
-749 -266 -782 783 0
-749 -266 782 -783 0
-749 266 -782 -783 0
-749 266 782 783 0
749 -266 -782 -783 0
749 -266 782 783 0
749 266 -782 783 0
749 266 782 -783 0
-749 -266 784 0
-749 -782 784 0
-266 -782 784 0
749 266 -784 0
749 782 -784 0
266 782 -784 0
-751 -267 -784 785 0
-751 -267 784 -785 0
-751 267 -784 -785 0
-751 267 784 785 0
751 -267 -784 -785 0
751 -267 784 785 0
751 267 -784 785 0
751 267 784 -785 0
-751 -267 786 0
-751 -784 786 0
-267 -784 786 0
751 267 -786 0
751 784 -786 0
267 784 -786 0
-753 -268 -786 787 0
-753 -268 786 -787 0
-753 268 -786 -787 0
-753 268 786 787 0
753 -268 -786 -787 0
753 -268 786 787 0
753 268 -786 787 0
753 268 786 -787 0
-753 -268 788 0
-753 -786 788 0
-268 -786 788 0
753 268 -788 0
753 786 -788 0
268 786 -788 0
-755 -269 -788 789 0
-755 -269 788 -789 0
-755 269 -788 -789 0
-755 269 788 789 0
755 -269 -788 -789 0
755 -269 788 789 0
755 269 -788 789 0
755 269 788 -789 0
-755 -269 790 0
-755 -788 790 0
-269 -788 790 0
755 269 -790 0
755 788 -790 0
269 788 -790 0
-756 -270 -790 791 0
-756 -270 790 -791 0
-756 270 -790 -791 0
-756 270 790 791 0
756 -270 -790 -791 0
756 -270 790 791 0
756 270 -790 791 0
756 270 790 -791 0
-756 -270 792 0
-756 -790 792 0
-270 -790 792 0
756 270 -792 0
756 790 -792 0
270 790 -792 0
-793 759 271 0
-793 -759 -271 0
793 -759 271 0
793 759 -271 0
-794 759 0
-794 271 0
794 -759 -271 0
-761 -272 -794 795 0
-761 -272 794 -795 0
-761 272 -794 -795 0
-761 272 794 795 0
761 -272 -794 -795 0
761 -272 794 795 0
761 272 -794 795 0
761 272 794 -795 0
-761 -272 796 0
-761 -794 796 0
-272 -794 796 0
761 272 -796 0
761 794 -796 0
272 794 -796 0
-763 -273 -796 797 0
-763 -273 796 -797 0
-763 273 -796 -797 0
-763 273 796 797 0
763 -273 -796 -797 0
763 -273 796 797 0
763 273 -796 797 0
763 273 796 -797 0
-763 -273 798 0
-763 -796 798 0
-273 -796 798 0
763 273 -798 0
763 796 -798 0
273 796 -798 0
-765 -274 -798 799 0
-765 -274 798 -799 0
-765 274 -798 -799 0
-765 274 798 799 0
765 -274 -798 -799 0
765 -274 798 799 0
765 274 -798 799 0
765 274 798 -799 0
-765 -274 800 0
-765 -798 800 0
-274 -798 800 0
765 274 -800 0
765 798 -800 0
274 798 -800 0
-767 -275 -800 801 0
-767 -275 800 -801 0
-767 275 -800 -801 0
-767 275 800 801 0
767 -275 -800 -801 0
767 -275 800 801 0
767 275 -800 801 0
767 275 800 -801 0
-767 -275 802 0
-767 -800 802 0
-275 -800 802 0
767 275 -802 0
767 800 -802 0
275 800 -802 0
-769 -276 -802 803 0
-769 -276 802 -803 0
-769 276 -802 -803 0
-769 276 802 803 0
769 -276 -802 -803 0
769 -276 802 803 0
769 276 -802 803 0
769 276 802 -803 0
-769 -276 804 0
-769 -802 804 0
-276 -802 804 0
769 276 -804 0
769 802 -804 0
276 802 -804 0
-771 -277 -804 805 0
-771 -277 804 -805 0
-771 277 -804 -805 0
-771 277 804 805 0
771 -277 -804 -805 0
771 -277 804 805 0
771 277 -804 805 0
771 277 804 -805 0
-771 -277 806 0
-771 -804 806 0
-277 -804 806 0
771 277 -806 0
771 804 -806 0
277 804 -806 0
-773 -278 -806 807 0
-773 -278 806 -807 0
-773 278 -806 -807 0
-773 278 806 807 0
773 -278 -806 -807 0
773 -278 806 807 0
773 278 -806 807 0
773 278 806 -807 0
-773 -278 808 0
-773 -806 808 0
-278 -806 808 0
773 278 -808 0
773 806 -808 0
278 806 -808 0
-775 -279 -808 809 0
-775 -279 808 -809 0
-775 279 -808 -809 0
-775 279 808 809 0
775 -279 -808 -809 0
775 -279 808 809 0
775 279 -808 809 0
775 279 808 -809 0
-775 -279 810 0
-775 -808 810 0
-279 -808 810 0
775 279 -810 0
775 808 -810 0
279 808 -810 0
-777 -280 -810 811 0
-777 -280 810 -811 0
-777 280 -810 -811 0
-777 280 810 811 0
777 -280 -810 -811 0
777 -280 810 811 0
777 280 -810 811 0
777 280 810 -811 0
-777 -280 812 0
-777 -810 812 0
-280 -810 812 0
777 280 -812 0
777 810 -812 0
280 810 -812 0
-779 -281 -812 813 0
-779 -281 812 -813 0
-779 281 -812 -813 0
-779 281 812 813 0
779 -281 -812 -813 0
779 -281 812 813 0
779 281 -812 813 0
779 281 812 -813 0
-779 -281 814 0
-779 -812 814 0
-281 -812 814 0
779 281 -814 0
779 812 -814 0
281 812 -814 0
-781 -282 -814 815 0
-781 -282 814 -815 0
-781 282 -814 -815 0
-781 282 814 815 0
781 -282 -814 -815 0
781 -282 814 815 0
781 282 -814 815 0
781 282 814 -815 0
-781 -282 816 0
-781 -814 816 0
-282 -814 816 0
781 282 -816 0
781 814 -816 0
282 814 -816 0
-783 -283 -816 817 0
-783 -283 816 -817 0
-783 283 -816 -817 0
-783 283 816 817 0
783 -283 -816 -817 0
783 -283 816 817 0
783 283 -816 817 0
783 283 816 -817 0
-783 -283 818 0
-783 -816 818 0
-283 -816 818 0
783 283 -818 0
783 816 -818 0
283 816 -818 0
-785 -284 -818 819 0
-785 -284 818 -819 0
-785 284 -818 -819 0
-785 284 818 819 0
785 -284 -818 -819 0
785 -284 818 819 0
785 284 -818 819 0
785 284 818 -819 0
-785 -284 820 0
-785 -818 820 0
-284 -818 820 0
785 284 -820 0
785 818 -820 0
284 818 -820 0
-787 -285 -820 821 0
-787 -285 820 -821 0
-787 285 -820 -821 0
-787 285 820 821 0
787 -285 -820 -821 0
787 -285 820 821 0
787 285 -820 821 0
787 285 820 -821 0
-787 -285 822 0
-787 -820 822 0
-285 -820 822 0
787 285 -822 0
787 820 -822 0
285 820 -822 0
-789 -286 -822 823 0
-789 -286 822 -823 0
-789 286 -822 -823 0
-789 286 822 823 0
789 -286 -822 -823 0
789 -286 822 823 0
789 286 -822 823 0
789 286 822 -823 0
-789 -286 824 0
-789 -822 824 0
-286 -822 824 0
789 286 -824 0
789 822 -824 0
286 822 -824 0
-791 -287 -824 825 0
-791 -287 824 -825 0
-791 287 -824 -825 0
-791 287 824 825 0
791 -287 -824 -825 0
791 -287 824 825 0
791 287 -824 825 0
791 287 824 -825 0
-791 -287 826 0
-791 -824 826 0
-287 -824 826 0
791 287 -826 0
791 824 -826 0
287 824 -826 0
-792 -288 -826 827 0
-792 -288 826 -827 0
-792 288 -826 -827 0
-792 288 826 827 0
792 -288 -826 -827 0
792 -288 826 827 0
792 288 -826 827 0
792 288 826 -827 0
-792 -288 828 0
-792 -826 828 0
-288 -826 828 0
792 288 -828 0
792 826 -828 0
288 826 -828 0
-829 795 289 0
-829 -795 -289 0
829 -795 289 0
829 795 -289 0
-830 795 0
-830 289 0
830 -795 -289 0
-797 -290 -830 831 0
-797 -290 830 -831 0
-797 290 -830 -831 0
-797 290 830 831 0
797 -290 -830 -831 0
797 -290 830 831 0
797 290 -830 831 0
797 290 830 -831 0
-797 -290 832 0
-797 -830 832 0
-290 -830 832 0
797 290 -832 0
797 830 -832 0
290 830 -832 0
-799 -291 -832 833 0
-799 -291 832 -833 0
-799 291 -832 -833 0
-799 291 832 833 0
799 -291 -832 -833 0
799 -291 832 833 0
799 291 -832 833 0
799 291 832 -833 0
-799 -291 834 0
-799 -832 834 0
-291 -832 834 0
799 291 -834 0
799 832 -834 0
291 832 -834 0
-801 -292 -834 835 0
-801 -292 834 -835 0
-801 292 -834 -835 0
-801 292 834 835 0
801 -292 -834 -835 0
801 -292 834 835 0
801 292 -834 835 0
801 292 834 -835 0
-801 -292 836 0
-801 -834 836 0
-292 -834 836 0
801 292 -836 0
801 834 -836 0
292 834 -836 0
-803 -293 -836 837 0
-803 -293 836 -837 0
-803 293 -836 -837 0
-803 293 836 837 0
803 -293 -836 -837 0
803 -293 836 837 0
803 293 -836 837 0
803 293 836 -837 0
-803 -293 838 0
-803 -836 838 0
-293 -836 838 0
803 293 -838 0
803 836 -838 0
293 836 -838 0
-805 -294 -838 839 0
-805 -294 838 -839 0
-805 294 -838 -839 0
-805 294 838 839 0
805 -294 -838 -839 0
805 -294 838 839 0
805 294 -838 839 0
805 294 838 -839 0
-805 -294 840 0
-805 -838 840 0
-294 -838 840 0
805 294 -840 0
805 838 -840 0
294 838 -840 0
-807 -295 -840 841 0
-807 -295 840 -841 0
-807 295 -840 -841 0
-807 295 840 841 0
807 -295 -840 -841 0
807 -295 840 841 0
807 295 -840 841 0
807 295 840 -841 0
-807 -295 842 0
-807 -840 842 0
-295 -840 842 0
807 295 -842 0
807 840 -842 0
295 840 -842 0
-809 -296 -842 843 0
-809 -296 842 -843 0
-809 296 -842 -843 0
-809 296 842 843 0
809 -296 -842 -843 0
809 -296 842 843 0
809 296 -842 843 0
809 296 842 -843 0
-809 -296 844 0
-809 -842 844 0
-296 -842 844 0
809 296 -844 0
809 842 -844 0
296 842 -844 0
-811 -297 -844 845 0
-811 -297 844 -845 0
-811 297 -844 -845 0
-811 297 844 845 0
811 -297 -844 -845 0
811 -297 844 845 0
811 297 -844 845 0
811 297 844 -845 0
-811 -297 846 0
-811 -844 846 0
-297 -844 846 0
811 297 -846 0
811 844 -846 0
297 844 -846 0
-813 -298 -846 847 0
-813 -298 846 -847 0
-813 298 -846 -847 0
-813 298 846 847 0
813 -298 -846 -847 0
813 -298 846 847 0
813 298 -846 847 0
813 298 846 -847 0
-813 -298 848 0
-813 -846 848 0
-298 -846 848 0
813 298 -848 0
813 846 -848 0
298 846 -848 0
-815 -299 -848 849 0
-815 -299 848 -849 0
-815 299 -848 -849 0
-815 299 848 849 0
815 -299 -848 -849 0
815 -299 848 849 0
815 299 -848 849 0
815 299 848 -849 0
-815 -299 850 0
-815 -848 850 0
-299 -848 850 0
815 299 -850 0
815 848 -850 0
299 848 -850 0
-817 -300 -850 851 0
-817 -300 850 -851 0
-817 300 -850 -851 0
-817 300 850 851 0
817 -300 -850 -851 0
817 -300 850 851 0
817 300 -850 851 0
817 300 850 -851 0
-817 -300 852 0
-817 -850 852 0
-300 -850 852 0
817 300 -852 0
817 850 -852 0
300 850 -852 0
-819 -301 -852 853 0
-819 -301 852 -853 0
-819 301 -852 -853 0
-819 301 852 853 0
819 -301 -852 -853 0
819 -301 852 853 0
819 301 -852 853 0
819 301 852 -853 0
-819 -301 854 0
-819 -852 854 0
-301 -852 854 0
819 301 -854 0
819 852 -854 0
301 852 -854 0
-821 -302 -854 855 0
-821 -302 854 -855 0
-821 302 -854 -855 0
-821 302 854 855 0
821 -302 -854 -855 0
821 -302 854 855 0
821 302 -854 855 0
821 302 854 -855 0
-821 -302 856 0
-821 -854 856 0
-302 -854 856 0
821 302 -856 0
821 854 -856 0
302 854 -856 0
-823 -303 -856 857 0
-823 -303 856 -857 0
-823 303 -856 -857 0
-823 303 856 857 0
823 -303 -856 -857 0
823 -303 856 857 0
823 303 -856 857 0
823 303 856 -857 0
-823 -303 858 0
-823 -856 858 0
-303 -856 858 0
823 303 -858 0
823 856 -858 0
303 856 -858 0
-825 -304 -858 859 0
-825 -304 858 -859 0
-825 304 -858 -859 0
-825 304 858 859 0
825 -304 -858 -859 0
825 -304 858 859 0
825 304 -858 859 0
825 304 858 -859 0
-825 -304 860 0
-825 -858 860 0
-304 -858 860 0
825 304 -860 0
825 858 -860 0
304 858 -860 0
-827 -305 -860 861 0
-827 -305 860 -861 0
-827 305 -860 -861 0
-827 305 860 861 0
827 -305 -860 -861 0
827 -305 860 861 0
827 305 -860 861 0
827 305 860 -861 0
-827 -305 862 0
-827 -860 862 0
-305 -860 862 0
827 305 -862 0
827 860 -862 0
305 860 -862 0
-828 -306 -862 863 0
-828 -306 862 -863 0
-828 306 -862 -863 0
-828 306 862 863 0
828 -306 -862 -863 0
828 -306 862 863 0
828 306 -862 863 0
828 306 862 -863 0
-828 -306 864 0
-828 -862 864 0
-306 -862 864 0
828 306 -864 0
828 862 -864 0
306 862 -864 0
-865 831 307 0
-865 -831 -307 0
865 -831 307 0
865 831 -307 0
-866 831 0
-866 307 0
866 -831 -307 0
-833 -308 -866 867 0
-833 -308 866 -867 0
-833 308 -866 -867 0
-833 308 866 867 0
833 -308 -866 -867 0
833 -308 866 867 0
833 308 -866 867 0
833 308 866 -867 0
-833 -308 868 0
-833 -866 868 0
-308 -866 868 0
833 308 -868 0
833 866 -868 0
308 866 -868 0
-835 -309 -868 869 0
-835 -309 868 -869 0
-835 309 -868 -869 0
-835 309 868 869 0
835 -309 -868 -869 0
835 -309 868 869 0
835 309 -868 869 0
835 309 868 -869 0
-835 -309 870 0
-835 -868 870 0
-309 -868 870 0
835 309 -870 0
835 868 -870 0
309 868 -870 0
-837 -310 -870 871 0
-837 -310 870 -871 0
-837 310 -870 -871 0
-837 310 870 871 0
837 -310 -870 -871 0
837 -310 870 871 0
837 310 -870 871 0
837 310 870 -871 0
-837 -310 872 0
-837 -870 872 0
-310 -870 872 0
837 310 -872 0
837 870 -872 0
310 870 -872 0
-839 -311 -872 873 0
-839 -311 872 -873 0
-839 311 -872 -873 0
-839 311 872 873 0
839 -311 -872 -873 0
839 -311 872 873 0
839 311 -872 873 0
839 311 872 -873 0
-839 -311 874 0
-839 -872 874 0
-311 -872 874 0
839 311 -874 0
839 872 -874 0
311 872 -874 0
-841 -312 -874 875 0
-841 -312 874 -875 0
-841 312 -874 -875 0
-841 312 874 875 0
841 -312 -874 -875 0
841 -312 874 875 0
841 312 -874 875 0
841 312 874 -875 0
-841 -312 876 0
-841 -874 876 0
-312 -874 876 0
841 312 -876 0
841 874 -876 0
312 874 -876 0
-843 -313 -876 877 0
-843 -313 876 -877 0
-843 313 -876 -877 0
-843 313 876 877 0
843 -313 -876 -877 0
843 -313 876 877 0
843 313 -876 877 0
843 313 876 -877 0
-843 -313 878 0
-843 -876 878 0
-313 -876 878 0
843 313 -878 0
843 876 -878 0
313 876 -878 0
-845 -314 -878 879 0
-845 -314 878 -879 0
-845 314 -878 -879 0
-845 314 878 879 0
845 -314 -878 -879 0
845 -314 878 879 0
845 314 -878 879 0
845 314 878 -879 0
-845 -314 880 0
-845 -878 880 0
-314 -878 880 0
845 314 -880 0
845 878 -880 0
314 878 -880 0
-847 -315 -880 881 0
-847 -315 880 -881 0
-847 315 -880 -881 0
-847 315 880 881 0
847 -315 -880 -881 0
847 -315 880 881 0
847 315 -880 881 0
847 315 880 -881 0
-847 -315 882 0
-847 -880 882 0
-315 -880 882 0
847 315 -882 0
847 880 -882 0
315 880 -882 0
-849 -316 -882 883 0
-849 -316 882 -883 0
-849 316 -882 -883 0
-849 316 882 883 0
849 -316 -882 -883 0
849 -316 882 883 0
849 316 -882 883 0
849 316 882 -883 0
-849 -316 884 0
-849 -882 884 0
-316 -882 884 0
849 316 -884 0
849 882 -884 0
316 882 -884 0
-851 -317 -884 885 0
-851 -317 884 -885 0
-851 317 -884 -885 0
-851 317 884 885 0
851 -317 -884 -885 0
851 -317 884 885 0
851 317 -884 885 0
851 317 884 -885 0
-851 -317 886 0
-851 -884 886 0
-317 -884 886 0
851 317 -886 0
851 884 -886 0
317 884 -886 0
-853 -318 -886 887 0
-853 -318 886 -887 0
-853 318 -886 -887 0
-853 318 886 887 0
853 -318 -886 -887 0
853 -318 886 887 0
853 318 -886 887 0
853 318 886 -887 0
-853 -318 888 0
-853 -886 888 0
-318 -886 888 0
853 318 -888 0
853 886 -888 0
318 886 -888 0
-855 -319 -888 889 0
-855 -319 888 -889 0
-855 319 -888 -889 0
-855 319 888 889 0
855 -319 -888 -889 0
855 -319 888 889 0
855 319 -888 889 0
855 319 888 -889 0
-855 -319 890 0
-855 -888 890 0
-319 -888 890 0
855 319 -890 0
855 888 -890 0
319 888 -890 0
-857 -320 -890 891 0
-857 -320 890 -891 0
-857 320 -890 -891 0
-857 320 890 891 0
857 -320 -890 -891 0
857 -320 890 891 0
857 320 -890 891 0
857 320 890 -891 0
-857 -320 892 0
-857 -890 892 0
-320 -890 892 0
857 320 -892 0
857 890 -892 0
320 890 -892 0
-859 -321 -892 893 0
-859 -321 892 -893 0
-859 321 -892 -893 0
-859 321 892 893 0
859 -321 -892 -893 0
859 -321 892 893 0
859 321 -892 893 0
859 321 892 -893 0
-859 -321 894 0
-859 -892 894 0
-321 -892 894 0
859 321 -894 0
859 892 -894 0
321 892 -894 0
-861 -322 -894 895 0
-861 -322 894 -895 0
-861 322 -894 -895 0
-861 322 894 895 0
861 -322 -894 -895 0
861 -322 894 895 0
861 322 -894 895 0
861 322 894 -895 0
-861 -322 896 0
-861 -894 896 0
-322 -894 896 0
861 322 -896 0
861 894 -896 0
322 894 -896 0
-863 -323 -896 897 0
-863 -323 896 -897 0
-863 323 -896 -897 0
-863 323 896 897 0
863 -323 -896 -897 0
863 -323 896 897 0
863 323 -896 897 0
863 323 896 -897 0
-863 -323 898 0
-863 -896 898 0
-323 -896 898 0
863 323 -898 0
863 896 -898 0
323 896 -898 0
-864 -324 -898 899 0
-864 -324 898 -899 0
-864 324 -898 -899 0
-864 324 898 899 0
864 -324 -898 -899 0
864 -324 898 899 0
864 324 -898 899 0
864 324 898 -899 0
-864 -324 900 0
-864 -898 900 0
-324 -898 900 0
864 324 -900 0
864 898 -900 0
324 898 -900 0
-901 867 325 0
-901 -867 -325 0
901 -867 325 0
901 867 -325 0
-902 867 0
-902 325 0
902 -867 -325 0
-869 -326 -902 903 0
-869 -326 902 -903 0
-869 326 -902 -903 0
-869 326 902 903 0
869 -326 -902 -903 0
869 -326 902 903 0
869 326 -902 903 0
869 326 902 -903 0
-869 -326 904 0
-869 -902 904 0
-326 -902 904 0
869 326 -904 0
869 902 -904 0
326 902 -904 0
-871 -327 -904 905 0
-871 -327 904 -905 0
-871 327 -904 -905 0
-871 327 904 905 0
871 -327 -904 -905 0
871 -327 904 905 0
871 327 -904 905 0
871 327 904 -905 0
-871 -327 906 0
-871 -904 906 0
-327 -904 906 0
871 327 -906 0
871 904 -906 0
327 904 -906 0
-873 -328 -906 907 0
-873 -328 906 -907 0
-873 328 -906 -907 0
-873 328 906 907 0
873 -328 -906 -907 0
873 -328 906 907 0
873 328 -906 907 0
873 328 906 -907 0
-873 -328 908 0
-873 -906 908 0
-328 -906 908 0
873 328 -908 0
873 906 -908 0
328 906 -908 0
-875 -329 -908 909 0
-875 -329 908 -909 0
-875 329 -908 -909 0
-875 329 908 909 0
875 -329 -908 -909 0
875 -329 908 909 0
875 329 -908 909 0
875 329 908 -909 0
-875 -329 910 0
-875 -908 910 0
-329 -908 910 0
875 329 -910 0
875 908 -910 0
329 908 -910 0
-877 -330 -910 911 0
-877 -330 910 -911 0
-877 330 -910 -911 0
-877 330 910 911 0
877 -330 -910 -911 0
877 -330 910 911 0
877 330 -910 911 0
877 330 910 -911 0
-877 -330 912 0
-877 -910 912 0
-330 -910 912 0
877 330 -912 0
877 910 -912 0
330 910 -912 0
-879 -331 -912 913 0
-879 -331 912 -913 0
-879 331 -912 -913 0
-879 331 912 913 0
879 -331 -912 -913 0
879 -331 912 913 0
879 331 -912 913 0
879 331 912 -913 0
-879 -331 914 0
-879 -912 914 0
-331 -912 914 0
879 331 -914 0
879 912 -914 0
331 912 -914 0
-881 -332 -914 915 0
-881 -332 914 -915 0
-881 332 -914 -915 0
-881 332 914 915 0
881 -332 -914 -915 0
881 -332 914 915 0
881 332 -914 915 0
881 332 914 -915 0
-881 -332 916 0
-881 -914 916 0
-332 -914 916 0
881 332 -916 0
881 914 -916 0
332 914 -916 0
-883 -333 -916 917 0
-883 -333 916 -917 0
-883 333 -916 -917 0
-883 333 916 917 0
883 -333 -916 -917 0
883 -333 916 917 0
883 333 -916 917 0
883 333 916 -917 0
-883 -333 918 0
-883 -916 918 0
-333 -916 918 0
883 333 -918 0
883 916 -918 0
333 916 -918 0
-885 -334 -918 919 0
-885 -334 918 -919 0
-885 334 -918 -919 0
-885 334 918 919 0
885 -334 -918 -919 0
885 -334 918 919 0
885 334 -918 919 0
885 334 918 -919 0
-885 -334 920 0
-885 -918 920 0
-334 -918 920 0
885 334 -920 0
885 918 -920 0
334 918 -920 0
-887 -335 -920 921 0
-887 -335 920 -921 0
-887 335 -920 -921 0
-887 335 920 921 0
887 -335 -920 -921 0
887 -335 920 921 0
887 335 -920 921 0
887 335 920 -921 0
-887 -335 922 0
-887 -920 922 0
-335 -920 922 0
887 335 -922 0
887 920 -922 0
335 920 -922 0
-889 -336 -922 923 0
-889 -336 922 -923 0
-889 336 -922 -923 0
-889 336 922 923 0
889 -336 -922 -923 0
889 -336 922 923 0
889 336 -922 923 0
889 336 922 -923 0
-889 -336 924 0
-889 -922 924 0
-336 -922 924 0
889 336 -924 0
889 922 -924 0
336 922 -924 0
-891 -337 -924 925 0
-891 -337 924 -925 0
-891 337 -924 -925 0
-891 337 924 925 0
891 -337 -924 -925 0
891 -337 924 925 0
891 337 -924 925 0
891 337 924 -925 0
-891 -337 926 0
-891 -924 926 0
-337 -924 926 0
891 337 -926 0
891 924 -926 0
337 924 -926 0
-893 -338 -926 927 0
-893 -338 926 -927 0
-893 338 -926 -927 0
-893 338 926 927 0
893 -338 -926 -927 0
893 -338 926 927 0
893 338 -926 927 0
893 338 926 -927 0
-893 -338 928 0
-893 -926 928 0
-338 -926 928 0
893 338 -928 0
893 926 -928 0
338 926 -928 0
-895 -339 -928 929 0
-895 -339 928 -929 0
-895 339 -928 -929 0
-895 339 928 929 0
895 -339 -928 -929 0
895 -339 928 929 0
895 339 -928 929 0
895 339 928 -929 0
-895 -339 930 0
-895 -928 930 0
-339 -928 930 0
895 339 -930 0
895 928 -930 0
339 928 -930 0
-897 -340 -930 931 0
-897 -340 930 -931 0
-897 340 -930 -931 0
-897 340 930 931 0
897 -340 -930 -931 0
897 -340 930 931 0
897 340 -930 931 0
897 340 930 -931 0
-897 -340 932 0
-897 -930 932 0
-340 -930 932 0
897 340 -932 0
897 930 -932 0
340 930 -932 0
-899 -341 -932 933 0
-899 -341 932 -933 0
-899 341 -932 -933 0
-899 341 932 933 0
899 -341 -932 -933 0
899 -341 932 933 0
899 341 -932 933 0
899 341 932 -933 0
-899 -341 934 0
-899 -932 934 0
-341 -932 934 0
899 341 -934 0
899 932 -934 0
341 932 -934 0
-900 -342 -934 935 0
-900 -342 934 -935 0
-900 342 -934 -935 0
-900 342 934 935 0
900 -342 -934 -935 0
900 -342 934 935 0
900 342 -934 935 0
900 342 934 -935 0
-900 -342 936 0
-900 -934 936 0
-342 -934 936 0
900 342 -936 0
900 934 -936 0
342 934 -936 0
-937 903 343 0
-937 -903 -343 0
937 -903 343 0
937 903 -343 0
-938 903 0
-938 343 0
938 -903 -343 0
-905 -344 -938 939 0
-905 -344 938 -939 0
-905 344 -938 -939 0
-905 344 938 939 0
905 -344 -938 -939 0
905 -344 938 939 0
905 344 -938 939 0
905 344 938 -939 0
-905 -344 940 0
-905 -938 940 0
-344 -938 940 0
905 344 -940 0
905 938 -940 0
344 938 -940 0
-907 -345 -940 941 0
-907 -345 940 -941 0
-907 345 -940 -941 0
-907 345 940 941 0
907 -345 -940 -941 0
907 -345 940 941 0
907 345 -940 941 0
907 345 940 -941 0
-907 -345 942 0
-907 -940 942 0
-345 -940 942 0
907 345 -942 0
907 940 -942 0
345 940 -942 0
-909 -346 -942 943 0
-909 -346 942 -943 0
-909 346 -942 -943 0
-909 346 942 943 0
909 -346 -942 -943 0
909 -346 942 943 0
909 346 -942 943 0
909 346 942 -943 0
-909 -346 944 0
-909 -942 944 0
-346 -942 944 0
909 346 -944 0
909 942 -944 0
346 942 -944 0
-911 -347 -944 945 0
-911 -347 944 -945 0
-911 347 -944 -945 0
-911 347 944 945 0
911 -347 -944 -945 0
911 -347 944 945 0
911 347 -944 945 0
911 347 944 -945 0
-911 -347 946 0
-911 -944 946 0
-347 -944 946 0
911 347 -946 0
911 944 -946 0
347 944 -946 0
-913 -348 -946 947 0
-913 -348 946 -947 0
-913 348 -946 -947 0
-913 348 946 947 0
913 -348 -946 -947 0
913 -348 946 947 0
913 348 -946 947 0
913 348 946 -947 0
-913 -348 948 0
-913 -946 948 0
-348 -946 948 0
913 348 -948 0
913 946 -948 0
348 946 -948 0
-915 -349 -948 949 0
-915 -349 948 -949 0
-915 349 -948 -949 0
-915 349 948 949 0
915 -349 -948 -949 0
915 -349 948 949 0
915 349 -948 949 0
915 349 948 -949 0
-915 -349 950 0
-915 -948 950 0
-349 -948 950 0
915 349 -950 0
915 948 -950 0
349 948 -950 0
-917 -350 -950 951 0
-917 -350 950 -951 0
-917 350 -950 -951 0
-917 350 950 951 0
917 -350 -950 -951 0
917 -350 950 951 0
917 350 -950 951 0
917 350 950 -951 0
-917 -350 952 0
-917 -950 952 0
-350 -950 952 0
917 350 -952 0
917 950 -952 0
350 950 -952 0
-919 -351 -952 953 0
-919 -351 952 -953 0
-919 351 -952 -953 0
-919 351 952 953 0
919 -351 -952 -953 0
919 -351 952 953 0
919 351 -952 953 0
919 351 952 -953 0
-919 -351 954 0
-919 -952 954 0
-351 -952 954 0
919 351 -954 0
919 952 -954 0
351 952 -954 0
-921 -352 -954 955 0
-921 -352 954 -955 0
-921 352 -954 -955 0
-921 352 954 955 0
921 -352 -954 -955 0
921 -352 954 955 0
921 352 -954 955 0
921 352 954 -955 0
-921 -352 956 0
-921 -954 956 0
-352 -954 956 0
921 352 -956 0
921 954 -956 0
352 954 -956 0
-923 -353 -956 957 0
-923 -353 956 -957 0
-923 353 -956 -957 0
-923 353 956 957 0
923 -353 -956 -957 0
923 -353 956 957 0
923 353 -956 957 0
923 353 956 -957 0
-923 -353 958 0
-923 -956 958 0
-353 -956 958 0
923 353 -958 0
923 956 -958 0
353 956 -958 0
-925 -354 -958 959 0
-925 -354 958 -959 0
-925 354 -958 -959 0
-925 354 958 959 0
925 -354 -958 -959 0
925 -354 958 959 0
925 354 -958 959 0
925 354 958 -959 0
-925 -354 960 0
-925 -958 960 0
-354 -958 960 0
925 354 -960 0
925 958 -960 0
354 958 -960 0
-927 -355 -960 961 0
-927 -355 960 -961 0
-927 355 -960 -961 0
-927 355 960 961 0
927 -355 -960 -961 0
927 -355 960 961 0
927 355 -960 961 0
927 355 960 -961 0
-927 -355 962 0
-927 -960 962 0
-355 -960 962 0
927 355 -962 0
927 960 -962 0
355 960 -962 0
-929 -356 -962 963 0
-929 -356 962 -963 0
-929 356 -962 -963 0
-929 356 962 963 0
929 -356 -962 -963 0
929 -356 962 963 0
929 356 -962 963 0
929 356 962 -963 0
-929 -356 964 0
-929 -962 964 0
-356 -962 964 0
929 356 -964 0
929 962 -964 0
356 962 -964 0
-931 -357 -964 965 0
-931 -357 964 -965 0
-931 357 -964 -965 0
-931 357 964 965 0
931 -357 -964 -965 0
931 -357 964 965 0
931 357 -964 965 0
931 357 964 -965 0
-931 -357 966 0
-931 -964 966 0
-357 -964 966 0
931 357 -966 0
931 964 -966 0
357 964 -966 0
-933 -358 -966 967 0
-933 -358 966 -967 0
-933 358 -966 -967 0
-933 358 966 967 0
933 -358 -966 -967 0
933 -358 966 967 0
933 358 -966 967 0
933 358 966 -967 0
-933 -358 968 0
-933 -966 968 0
-358 -966 968 0
933 358 -968 0
933 966 -968 0
358 966 -968 0
-935 -359 -968 969 0
-935 -359 968 -969 0
-935 359 -968 -969 0
-935 359 968 969 0
935 -359 -968 -969 0
935 -359 968 969 0
935 359 -968 969 0
935 359 968 -969 0
-935 -359 970 0
-935 -968 970 0
-359 -968 970 0
935 359 -970 0
935 968 -970 0
359 968 -970 0
-936 -360 -970 971 0
-936 -360 970 -971 0
-936 360 -970 -971 0
-936 360 970 971 0
936 -360 -970 -971 0
936 -360 970 971 0
936 360 -970 971 0
936 360 970 -971 0
-936 -360 972 0
-936 -970 972 0
-360 -970 972 0
936 360 -972 0
936 970 -972 0
360 970 -972 0
37 0
-361 0
-397 0
433 0
-469 0
-505 0
541 0
577 0
613 0
649 0
-685 0
-721 0
757 0
-793 0
829 0
-865 0
901 0
937 0
-939 0
-941 0
943 0
-945 0
947 0
-949 0
-951 0
953 0
-955 0
-957 0
-959 0
961 0
963 0
965 0
967 0
969 0
-971 0
972 0
