c F6 factoring b=6 N=1517 = 37 * 41 (SAT by construction)
p cnf 108 500
6 0
12 0
-13 1 0
-13 7 0
13 -1 -7 0
-14 2 0
-14 7 0
14 -2 -7 0
-15 3 0
-15 7 0
15 -3 -7 0
-16 4 0
-16 7 0
16 -4 -7 0
-17 5 0
-17 7 0
17 -5 -7 0
-18 6 0
-18 7 0
18 -6 -7 0
-19 1 0
-19 8 0
19 -1 -8 0
-20 2 0
-20 8 0
20 -2 -8 0
-21 3 0
-21 8 0
21 -3 -8 0
-22 4 0
-22 8 0
22 -4 -8 0
-23 5 0
-23 8 0
23 -5 -8 0
-24 6 0
-24 8 0
24 -6 -8 0
-25 1 0
-25 9 0
25 -1 -9 0
-26 2 0
-26 9 0
26 -2 -9 0
-27 3 0
-27 9 0
27 -3 -9 0
-28 4 0
-28 9 0
28 -4 -9 0
-29 5 0
-29 9 0
29 -5 -9 0
-30 6 0
-30 9 0
30 -6 -9 0
-31 1 0
-31 10 0
31 -1 -10 0
-32 2 0
-32 10 0
32 -2 -10 0
-33 3 0
-33 10 0
33 -3 -10 0
-34 4 0
-34 10 0
34 -4 -10 0
-35 5 0
-35 10 0
35 -5 -10 0
-36 6 0
-36 10 0
36 -6 -10 0
-37 1 0
-37 11 0
37 -1 -11 0
-38 2 0
-38 11 0
38 -2 -11 0
-39 3 0
-39 11 0
39 -3 -11 0
-40 4 0
-40 11 0
40 -4 -11 0
-41 5 0
-41 11 0
41 -5 -11 0
-42 6 0
-42 11 0
42 -6 -11 0
-43 1 0
-43 12 0
43 -1 -12 0
-44 2 0
-44 12 0
44 -2 -12 0
-45 3 0
-45 12 0
45 -3 -12 0
-46 4 0
-46 12 0
46 -4 -12 0
-47 5 0
-47 12 0
47 -5 -12 0
-48 6 0
-48 12 0
48 -6 -12 0
-49 14 19 0
-49 -14 -19 0
49 -14 19 0
49 14 -19 0
-50 14 0
-50 19 0
50 -14 -19 0
-15 -20 -50 51 0
-15 -20 50 -51 0
-15 20 -50 -51 0
-15 20 50 51 0
15 -20 -50 -51 0
15 -20 50 51 0
15 20 -50 51 0
15 20 50 -51 0
-15 -20 52 0
-15 -50 52 0
-20 -50 52 0
15 20 -52 0
15 50 -52 0
20 50 -52 0
-16 -21 -52 53 0
-16 -21 52 -53 0
-16 21 -52 -53 0
-16 21 52 53 0
16 -21 -52 -53 0
16 -21 52 53 0
16 21 -52 53 0
16 21 52 -53 0
-16 -21 54 0
-16 -52 54 0
-21 -52 54 0
16 21 -54 0
16 52 -54 0
21 52 -54 0
-17 -22 -54 55 0
-17 -22 54 -55 0
-17 22 -54 -55 0
-17 22 54 55 0
17 -22 -54 -55 0
17 -22 54 55 0
17 22 -54 55 0
17 22 54 -55 0
-17 -22 56 0
-17 -54 56 0
-22 -54 56 0
17 22 -56 0
17 54 -56 0
22 54 -56 0
-18 -23 -56 57 0
-18 -23 56 -57 0
-18 23 -56 -57 0
-18 23 56 57 0
18 -23 -56 -57 0
18 -23 56 57 0
18 23 -56 57 0
18 23 56 -57 0
-18 -23 58 0
-18 -56 58 0
-23 -56 58 0
18 23 -58 0
18 56 -58 0
23 56 -58 0
-59 24 58 0
-59 -24 -58 0
59 -24 58 0
59 24 -58 0
-60 24 0
-60 58 0
60 -24 -58 0
-61 51 25 0
-61 -51 -25 0
61 -51 25 0
61 51 -25 0
-62 51 0
-62 25 0
62 -51 -25 0
-53 -26 -62 63 0
-53 -26 62 -63 0
-53 26 -62 -63 0
-53 26 62 63 0
53 -26 -62 -63 0
53 -26 62 63 0
53 26 -62 63 0
53 26 62 -63 0
-53 -26 64 0
-53 -62 64 0
-26 -62 64 0
53 26 -64 0
53 62 -64 0
26 62 -64 0
-55 -27 -64 65 0
-55 -27 64 -65 0
-55 27 -64 -65 0
-55 27 64 65 0
55 -27 -64 -65 0
55 -27 64 65 0
55 27 -64 65 0
55 27 64 -65 0
-55 -27 66 0
-55 -64 66 0
-27 -64 66 0
55 27 -66 0
55 64 -66 0
27 64 -66 0
-57 -28 -66 67 0
-57 -28 66 -67 0
-57 28 -66 -67 0
-57 28 66 67 0
57 -28 -66 -67 0
57 -28 66 67 0
57 28 -66 67 0
57 28 66 -67 0
-57 -28 68 0
-57 -66 68 0
-28 -66 68 0
57 28 -68 0
57 66 -68 0
28 66 -68 0
-59 -29 -68 69 0
-59 -29 68 -69 0
-59 29 -68 -69 0
-59 29 68 69 0
59 -29 -68 -69 0
59 -29 68 69 0
59 29 -68 69 0
59 29 68 -69 0
-59 -29 70 0
-59 -68 70 0
-29 -68 70 0
59 29 -70 0
59 68 -70 0
29 68 -70 0
-60 -30 -70 71 0
-60 -30 70 -71 0
-60 30 -70 -71 0
-60 30 70 71 0
60 -30 -70 -71 0
60 -30 70 71 0
60 30 -70 71 0
60 30 70 -71 0
-60 -30 72 0
-60 -70 72 0
-30 -70 72 0
60 30 -72 0
60 70 -72 0
30 70 -72 0
-73 63 31 0
-73 -63 -31 0
73 -63 31 0
73 63 -31 0
-74 63 0
-74 31 0
74 -63 -31 0
-65 -32 -74 75 0
-65 -32 74 -75 0
-65 32 -74 -75 0
-65 32 74 75 0
65 -32 -74 -75 0
65 -32 74 75 0
65 32 -74 75 0
65 32 74 -75 0
-65 -32 76 0
-65 -74 76 0
-32 -74 76 0
65 32 -76 0
65 74 -76 0
32 74 -76 0
-67 -33 -76 77 0
-67 -33 76 -77 0
-67 33 -76 -77 0
-67 33 76 77 0
67 -33 -76 -77 0
67 -33 76 77 0
67 33 -76 77 0
67 33 76 -77 0
-67 -33 78 0
-67 -76 78 0
-33 -76 78 0
67 33 -78 0
67 76 -78 0
33 76 -78 0
-69 -34 -78 79 0
-69 -34 78 -79 0
-69 34 -78 -79 0
-69 34 78 79 0
69 -34 -78 -79 0
69 -34 78 79 0
69 34 -78 79 0
69 34 78 -79 0
-69 -34 80 0
-69 -78 80 0
-34 -78 80 0
69 34 -80 0
69 78 -80 0
34 78 -80 0
-71 -35 -80 81 0
-71 -35 80 -81 0
-71 35 -80 -81 0
-71 35 80 81 0
71 -35 -80 -81 0
71 -35 80 81 0
71 35 -80 81 0
71 35 80 -81 0
-71 -35 82 0
-71 -80 82 0
-35 -80 82 0
71 35 -82 0
71 80 -82 0
35 80 -82 0
-72 -36 -82 83 0
-72 -36 82 -83 0
-72 36 -82 -83 0
-72 36 82 83 0
72 -36 -82 -83 0
72 -36 82 83 0
72 36 -82 83 0
72 36 82 -83 0
-72 -36 84 0
-72 -82 84 0
-36 -82 84 0
72 36 -84 0
72 82 -84 0
36 82 -84 0
-85 75 37 0
-85 -75 -37 0
85 -75 37 0
85 75 -37 0
-86 75 0
-86 37 0
86 -75 -37 0
-77 -38 -86 87 0
-77 -38 86 -87 0
-77 38 -86 -87 0
-77 38 86 87 0
77 -38 -86 -87 0
77 -38 86 87 0
77 38 -86 87 0
77 38 86 -87 0
-77 -38 88 0
-77 -86 88 0
-38 -86 88 0
77 38 -88 0
77 86 -88 0
38 86 -88 0
-79 -39 -88 89 0
-79 -39 88 -89 0
-79 39 -88 -89 0
-79 39 88 89 0
79 -39 -88 -89 0
79 -39 88 89 0
79 39 -88 89 0
79 39 88 -89 0
-79 -39 90 0
-79 -88 90 0
-39 -88 90 0
79 39 -90 0
79 88 -90 0
39 88 -90 0
-81 -40 -90 91 0
-81 -40 90 -91 0
-81 40 -90 -91 0
-81 40 90 91 0
81 -40 -90 -91 0
81 -40 90 91 0
81 40 -90 91 0
81 40 90 -91 0
-81 -40 92 0
-81 -90 92 0
-40 -90 92 0
81 40 -92 0
81 90 -92 0
40 90 -92 0
-83 -41 -92 93 0
-83 -41 92 -93 0
-83 41 -92 -93 0
-83 41 92 93 0
83 -41 -92 -93 0
83 -41 92 93 0
83 41 -92 93 0
83 41 92 -93 0
-83 -41 94 0
-83 -92 94 0
-41 -92 94 0
83 41 -94 0
83 92 -94 0
41 92 -94 0
-84 -42 -94 95 0
-84 -42 94 -95 0
-84 42 -94 -95 0
-84 42 94 95 0
84 -42 -94 -95 0
84 -42 94 95 0
84 42 -94 95 0
84 42 94 -95 0
-84 -42 96 0
-84 -94 96 0
-42 -94 96 0
84 42 -96 0
84 94 -96 0
42 94 -96 0
-97 87 43 0
-97 -87 -43 0
97 -87 43 0
97 87 -43 0
-98 87 0
-98 43 0
98 -87 -43 0
-89 -44 -98 99 0
-89 -44 98 -99 0
-89 44 -98 -99 0
-89 44 98 99 0
89 -44 -98 -99 0
89 -44 98 99 0
89 44 -98 99 0
89 44 98 -99 0
-89 -44 100 0
-89 -98 100 0
-44 -98 100 0
89 44 -100 0
89 98 -100 0
44 98 -100 0
-91 -45 -100 101 0
-91 -45 100 -101 0
-91 45 -100 -101 0
-91 45 100 101 0
91 -45 -100 -101 0
91 -45 100 101 0
91 45 -100 101 0
91 45 100 -101 0
-91 -45 102 0
-91 -100 102 0
-45 -100 102 0
91 45 -102 0
91 100 -102 0
45 100 -102 0
-93 -46 -102 103 0
-93 -46 102 -103 0
-93 46 -102 -103 0
-93 46 102 103 0
93 -46 -102 -103 0
93 -46 102 103 0
93 46 -102 103 0
93 46 102 -103 0
-93 -46 104 0
-93 -102 104 0
-46 -102 104 0
93 46 -104 0
93 102 -104 0
46 102 -104 0
-95 -47 -104 105 0
-95 -47 104 -105 0
-95 47 -104 -105 0
-95 47 104 105 0
95 -47 -104 -105 0
95 -47 104 105 0
95 47 -104 105 0
95 47 104 -105 0
-95 -47 106 0
-95 -104 106 0
-47 -104 106 0
95 47 -106 0
95 104 -106 0
47 104 -106 0
-96 -48 -106 107 0
-96 -48 106 -107 0
-96 48 -106 -107 0
-96 48 106 107 0
96 -48 -106 -107 0
96 -48 106 107 0
96 48 -106 107 0
96 48 106 -107 0
-96 -48 108 0
-96 -106 108 0
-48 -106 108 0
96 48 -108 0
96 106 -108 0
48 106 -108 0
13 0
-49 0
61 0
73 0
-85 0
97 0
99 0
101 0
103 0
-105 0
107 0
-108 0
