c F6 factoring b=12 N=9099547 prime (UNSAT by construction)
p cnf 432 2222
12 0
24 0
-25 1 0
-25 13 0
25 -1 -13 0
-26 2 0
-26 13 0
26 -2 -13 0
-27 3 0
-27 13 0
27 -3 -13 0
-28 4 0
-28 13 0
28 -4 -13 0
-29 5 0
-29 13 0
29 -5 -13 0
-30 6 0
-30 13 0
30 -6 -13 0
-31 7 0
-31 13 0
31 -7 -13 0
-32 8 0
-32 13 0
32 -8 -13 0
-33 9 0
-33 13 0
33 -9 -13 0
-34 10 0
-34 13 0
34 -10 -13 0
-35 11 0
-35 13 0
35 -11 -13 0
-36 12 0
-36 13 0
36 -12 -13 0
-37 1 0
-37 14 0
37 -1 -14 0
-38 2 0
-38 14 0
38 -2 -14 0
-39 3 0
-39 14 0
39 -3 -14 0
-40 4 0
-40 14 0
40 -4 -14 0
-41 5 0
-41 14 0
41 -5 -14 0
-42 6 0
-42 14 0
42 -6 -14 0
-43 7 0
-43 14 0
43 -7 -14 0
-44 8 0
-44 14 0
44 -8 -14 0
-45 9 0
-45 14 0
45 -9 -14 0
-46 10 0
-46 14 0
46 -10 -14 0
-47 11 0
-47 14 0
47 -11 -14 0
-48 12 0
-48 14 0
48 -12 -14 0
-49 1 0
-49 15 0
49 -1 -15 0
-50 2 0
-50 15 0
50 -2 -15 0
-51 3 0
-51 15 0
51 -3 -15 0
-52 4 0
-52 15 0
52 -4 -15 0
-53 5 0
-53 15 0
53 -5 -15 0
-54 6 0
-54 15 0
54 -6 -15 0
-55 7 0
-55 15 0
55 -7 -15 0
-56 8 0
-56 15 0
56 -8 -15 0
-57 9 0
-57 15 0
57 -9 -15 0
-58 10 0
-58 15 0
58 -10 -15 0
-59 11 0
-59 15 0
59 -11 -15 0
-60 12 0
-60 15 0
60 -12 -15 0
-61 1 0
-61 16 0
61 -1 -16 0
-62 2 0
-62 16 0
62 -2 -16 0
-63 3 0
-63 16 0
63 -3 -16 0
-64 4 0
-64 16 0
64 -4 -16 0
-65 5 0
-65 16 0
65 -5 -16 0
-66 6 0
-66 16 0
66 -6 -16 0
-67 7 0
-67 16 0
67 -7 -16 0
-68 8 0
-68 16 0
68 -8 -16 0
-69 9 0
-69 16 0
69 -9 -16 0
-70 10 0
-70 16 0
70 -10 -16 0
-71 11 0
-71 16 0
71 -11 -16 0
-72 12 0
-72 16 0
72 -12 -16 0
-73 1 0
-73 17 0
73 -1 -17 0
-74 2 0
-74 17 0
74 -2 -17 0
-75 3 0
-75 17 0
75 -3 -17 0
-76 4 0
-76 17 0
76 -4 -17 0
-77 5 0
-77 17 0
77 -5 -17 0
-78 6 0
-78 17 0
78 -6 -17 0
-79 7 0
-79 17 0
79 -7 -17 0
-80 8 0
-80 17 0
80 -8 -17 0
-81 9 0
-81 17 0
81 -9 -17 0
-82 10 0
-82 17 0
82 -10 -17 0
-83 11 0
-83 17 0
83 -11 -17 0
-84 12 0
-84 17 0
84 -12 -17 0
-85 1 0
-85 18 0
85 -1 -18 0
-86 2 0
-86 18 0
86 -2 -18 0
-87 3 0
-87 18 0
87 -3 -18 0
-88 4 0
-88 18 0
88 -4 -18 0
-89 5 0
-89 18 0
89 -5 -18 0
-90 6 0
-90 18 0
90 -6 -18 0
-91 7 0
-91 18 0
91 -7 -18 0
-92 8 0
-92 18 0
92 -8 -18 0
-93 9 0
-93 18 0
93 -9 -18 0
-94 10 0
-94 18 0
94 -10 -18 0
-95 11 0
-95 18 0
95 -11 -18 0
-96 12 0
-96 18 0
96 -12 -18 0
-97 1 0
-97 19 0
97 -1 -19 0
-98 2 0
-98 19 0
98 -2 -19 0
-99 3 0
-99 19 0
99 -3 -19 0
-100 4 0
-100 19 0
100 -4 -19 0
-101 5 0
-101 19 0
101 -5 -19 0
-102 6 0
-102 19 0
102 -6 -19 0
-103 7 0
-103 19 0
103 -7 -19 0
-104 8 0
-104 19 0
104 -8 -19 0
-105 9 0
-105 19 0
105 -9 -19 0
-106 10 0
-106 19 0
106 -10 -19 0
-107 11 0
-107 19 0
107 -11 -19 0
-108 12 0
-108 19 0
108 -12 -19 0
-109 1 0
-109 20 0
109 -1 -20 0
-110 2 0
-110 20 0
110 -2 -20 0
-111 3 0
-111 20 0
111 -3 -20 0
-112 4 0
-112 20 0
112 -4 -20 0
-113 5 0
-113 20 0
113 -5 -20 0
-114 6 0
-114 20 0
114 -6 -20 0
-115 7 0
-115 20 0
115 -7 -20 0
-116 8 0
-116 20 0
116 -8 -20 0
-117 9 0
-117 20 0
117 -9 -20 0
-118 10 0
-118 20 0
118 -10 -20 0
-119 11 0
-119 20 0
119 -11 -20 0
-120 12 0
-120 20 0
120 -12 -20 0
-121 1 0
-121 21 0
121 -1 -21 0
-122 2 0
-122 21 0
122 -2 -21 0
-123 3 0
-123 21 0
123 -3 -21 0
-124 4 0
-124 21 0
124 -4 -21 0
-125 5 0
-125 21 0
125 -5 -21 0
-126 6 0
-126 21 0
126 -6 -21 0
-127 7 0
-127 21 0
127 -7 -21 0
-128 8 0
-128 21 0
128 -8 -21 0
-129 9 0
-129 21 0
129 -9 -21 0
-130 10 0
-130 21 0
130 -10 -21 0
-131 11 0
-131 21 0
131 -11 -21 0
-132 12 0
-132 21 0
132 -12 -21 0
-133 1 0
-133 22 0
133 -1 -22 0
-134 2 0
-134 22 0
134 -2 -22 0
-135 3 0
-135 22 0
135 -3 -22 0
-136 4 0
-136 22 0
136 -4 -22 0
-137 5 0
-137 22 0
137 -5 -22 0
-138 6 0
-138 22 0
138 -6 -22 0
-139 7 0
-139 22 0
139 -7 -22 0
-140 8 0
-140 22 0
140 -8 -22 0
-141 9 0
-141 22 0
141 -9 -22 0
-142 10 0
-142 22 0
142 -10 -22 0
-143 11 0
-143 22 0
143 -11 -22 0
-144 12 0
-144 22 0
144 -12 -22 0
-145 1 0
-145 23 0
145 -1 -23 0
-146 2 0
-146 23 0
146 -2 -23 0
-147 3 0
-147 23 0
147 -3 -23 0
-148 4 0
-148 23 0
148 -4 -23 0
-149 5 0
-149 23 0
149 -5 -23 0
-150 6 0
-150 23 0
150 -6 -23 0
-151 7 0
-151 23 0
151 -7 -23 0
-152 8 0
-152 23 0
152 -8 -23 0
-153 9 0
-153 23 0
153 -9 -23 0
-154 10 0
-154 23 0
154 -10 -23 0
-155 11 0
-155 23 0
155 -11 -23 0
-156 12 0
-156 23 0
156 -12 -23 0
-157 1 0
-157 24 0
157 -1 -24 0
-158 2 0
-158 24 0
158 -2 -24 0
-159 3 0
-159 24 0
159 -3 -24 0
-160 4 0
-160 24 0
160 -4 -24 0
-161 5 0
-161 24 0
161 -5 -24 0
-162 6 0
-162 24 0
162 -6 -24 0
-163 7 0
-163 24 0
163 -7 -24 0
-164 8 0
-164 24 0
164 -8 -24 0
-165 9 0
-165 24 0
165 -9 -24 0
-166 10 0
-166 24 0
166 -10 -24 0
-167 11 0
-167 24 0
167 -11 -24 0
-168 12 0
-168 24 0
168 -12 -24 0
-169 26 37 0
-169 -26 -37 0
169 -26 37 0
169 26 -37 0
-170 26 0
-170 37 0
170 -26 -37 0
-27 -38 -170 171 0
-27 -38 170 -171 0
-27 38 -170 -171 0
-27 38 170 171 0
27 -38 -170 -171 0
27 -38 170 171 0
27 38 -170 171 0
27 38 170 -171 0
-27 -38 172 0
-27 -170 172 0
-38 -170 172 0
27 38 -172 0
27 170 -172 0
38 170 -172 0
-28 -39 -172 173 0
-28 -39 172 -173 0
-28 39 -172 -173 0
-28 39 172 173 0
28 -39 -172 -173 0
28 -39 172 173 0
28 39 -172 173 0
28 39 172 -173 0
-28 -39 174 0
-28 -172 174 0
-39 -172 174 0
28 39 -174 0
28 172 -174 0
39 172 -174 0
-29 -40 -174 175 0
-29 -40 174 -175 0
-29 40 -174 -175 0
-29 40 174 175 0
29 -40 -174 -175 0
29 -40 174 175 0
29 40 -174 175 0
29 40 174 -175 0
-29 -40 176 0
-29 -174 176 0
-40 -174 176 0
29 40 -176 0
29 174 -176 0
40 174 -176 0
-30 -41 -176 177 0
-30 -41 176 -177 0
-30 41 -176 -177 0
-30 41 176 177 0
30 -41 -176 -177 0
30 -41 176 177 0
30 41 -176 177 0
30 41 176 -177 0
-30 -41 178 0
-30 -176 178 0
-41 -176 178 0
30 41 -178 0
30 176 -178 0
41 176 -178 0
-31 -42 -178 179 0
-31 -42 178 -179 0
-31 42 -178 -179 0
-31 42 178 179 0
31 -42 -178 -179 0
31 -42 178 179 0
31 42 -178 179 0
31 42 178 -179 0
-31 -42 180 0
-31 -178 180 0
-42 -178 180 0
31 42 -180 0
31 178 -180 0
42 178 -180 0
-32 -43 -180 181 0
-32 -43 180 -181 0
-32 43 -180 -181 0
-32 43 180 181 0
32 -43 -180 -181 0
32 -43 180 181 0
32 43 -180 181 0
32 43 180 -181 0
-32 -43 182 0
-32 -180 182 0
-43 -180 182 0
32 43 -182 0
32 180 -182 0
43 180 -182 0
-33 -44 -182 183 0
-33 -44 182 -183 0
-33 44 -182 -183 0
-33 44 182 183 0
33 -44 -182 -183 0
33 -44 182 183 0
33 44 -182 183 0
33 44 182 -183 0
-33 -44 184 0
-33 -182 184 0
-44 -182 184 0
33 44 -184 0
33 182 -184 0
44 182 -184 0
-34 -45 -184 185 0
-34 -45 184 -185 0
-34 45 -184 -185 0
-34 45 184 185 0
34 -45 -184 -185 0
34 -45 184 185 0
34 45 -184 185 0
34 45 184 -185 0
-34 -45 186 0
-34 -184 186 0
-45 -184 186 0
34 45 -186 0
34 184 -186 0
45 184 -186 0
-35 -46 -186 187 0
-35 -46 186 -187 0
-35 46 -186 -187 0
-35 46 186 187 0
35 -46 -186 -187 0
35 -46 186 187 0
35 46 -186 187 0
35 46 186 -187 0
-35 -46 188 0
-35 -186 188 0
-46 -186 188 0
35 46 -188 0
35 186 -188 0
46 186 -188 0
-36 -47 -188 189 0
-36 -47 188 -189 0
-36 47 -188 -189 0
-36 47 188 189 0
36 -47 -188 -189 0
36 -47 188 189 0
36 47 -188 189 0
36 47 188 -189 0
-36 -47 190 0
-36 -188 190 0
-47 -188 190 0
36 47 -190 0
36 188 -190 0
47 188 -190 0
-191 48 190 0
-191 -48 -190 0
191 -48 190 0
191 48 -190 0
-192 48 0
-192 190 0
192 -48 -190 0
-193 171 49 0
-193 -171 -49 0
193 -171 49 0
193 171 -49 0
-194 171 0
-194 49 0
194 -171 -49 0
-173 -50 -194 195 0
-173 -50 194 -195 0
-173 50 -194 -195 0
-173 50 194 195 0
173 -50 -194 -195 0
173 -50 194 195 0
173 50 -194 195 0
173 50 194 -195 0
-173 -50 196 0
-173 -194 196 0
-50 -194 196 0
173 50 -196 0
173 194 -196 0
50 194 -196 0
-175 -51 -196 197 0
-175 -51 196 -197 0
-175 51 -196 -197 0
-175 51 196 197 0
175 -51 -196 -197 0
175 -51 196 197 0
175 51 -196 197 0
175 51 196 -197 0
-175 -51 198 0
-175 -196 198 0
-51 -196 198 0
175 51 -198 0
175 196 -198 0
51 196 -198 0
-177 -52 -198 199 0
-177 -52 198 -199 0
-177 52 -198 -199 0
-177 52 198 199 0
177 -52 -198 -199 0
177 -52 198 199 0
177 52 -198 199 0
177 52 198 -199 0
-177 -52 200 0
-177 -198 200 0
-52 -198 200 0
177 52 -200 0
177 198 -200 0
52 198 -200 0
-179 -53 -200 201 0
-179 -53 200 -201 0
-179 53 -200 -201 0
-179 53 200 201 0
179 -53 -200 -201 0
179 -53 200 201 0
179 53 -200 201 0
179 53 200 -201 0
-179 -53 202 0
-179 -200 202 0
-53 -200 202 0
179 53 -202 0
179 200 -202 0
53 200 -202 0
-181 -54 -202 203 0
-181 -54 202 -203 0
-181 54 -202 -203 0
-181 54 202 203 0
181 -54 -202 -203 0
181 -54 202 203 0
181 54 -202 203 0
181 54 202 -203 0
-181 -54 204 0
-181 -202 204 0
-54 -202 204 0
181 54 -204 0
181 202 -204 0
54 202 -204 0
-183 -55 -204 205 0
-183 -55 204 -205 0
-183 55 -204 -205 0
-183 55 204 205 0
183 -55 -204 -205 0
183 -55 204 205 0
183 55 -204 205 0
183 55 204 -205 0
-183 -55 206 0
-183 -204 206 0
-55 -204 206 0
183 55 -206 0
183 204 -206 0
55 204 -206 0
-185 -56 -206 207 0
-185 -56 206 -207 0
-185 56 -206 -207 0
-185 56 206 207 0
185 -56 -206 -207 0
185 -56 206 207 0
185 56 -206 207 0
185 56 206 -207 0
-185 -56 208 0
-185 -206 208 0
-56 -206 208 0
185 56 -208 0
185 206 -208 0
56 206 -208 0
-187 -57 -208 209 0
-187 -57 208 -209 0
-187 57 -208 -209 0
-187 57 208 209 0
187 -57 -208 -209 0
187 -57 208 209 0
187 57 -208 209 0
187 57 208 -209 0
-187 -57 210 0
-187 -208 210 0
-57 -208 210 0
187 57 -210 0
187 208 -210 0
57 208 -210 0
-189 -58 -210 211 0
-189 -58 210 -211 0
-189 58 -210 -211 0
-189 58 210 211 0
189 -58 -210 -211 0
189 -58 210 211 0
189 58 -210 211 0
189 58 210 -211 0
-189 -58 212 0
-189 -210 212 0
-58 -210 212 0
189 58 -212 0
189 210 -212 0
58 210 -212 0
-191 -59 -212 213 0
-191 -59 212 -213 0
-191 59 -212 -213 0
-191 59 212 213 0
191 -59 -212 -213 0
191 -59 212 213 0
191 59 -212 213 0
191 59 212 -213 0
-191 -59 214 0
-191 -212 214 0
-59 -212 214 0
191 59 -214 0
191 212 -214 0
59 212 -214 0
-192 -60 -214 215 0
-192 -60 214 -215 0
-192 60 -214 -215 0
-192 60 214 215 0
192 -60 -214 -215 0
192 -60 214 215 0
192 60 -214 215 0
192 60 214 -215 0
-192 -60 216 0
-192 -214 216 0
-60 -214 216 0
192 60 -216 0
192 214 -216 0
60 214 -216 0
-217 195 61 0
-217 -195 -61 0
217 -195 61 0
217 195 -61 0
-218 195 0
-218 61 0
218 -195 -61 0
-197 -62 -218 219 0
-197 -62 218 -219 0
-197 62 -218 -219 0
-197 62 218 219 0
197 -62 -218 -219 0
197 -62 218 219 0
197 62 -218 219 0
197 62 218 -219 0
-197 -62 220 0
-197 -218 220 0
-62 -218 220 0
197 62 -220 0
197 218 -220 0
62 218 -220 0
-199 -63 -220 221 0
-199 -63 220 -221 0
-199 63 -220 -221 0
-199 63 220 221 0
199 -63 -220 -221 0
199 -63 220 221 0
199 63 -220 221 0
199 63 220 -221 0
-199 -63 222 0
-199 -220 222 0
-63 -220 222 0
199 63 -222 0
199 220 -222 0
63 220 -222 0
-201 -64 -222 223 0
-201 -64 222 -223 0
-201 64 -222 -223 0
-201 64 222 223 0
201 -64 -222 -223 0
201 -64 222 223 0
201 64 -222 223 0
201 64 222 -223 0
-201 -64 224 0
-201 -222 224 0
-64 -222 224 0
201 64 -224 0
201 222 -224 0
64 222 -224 0
-203 -65 -224 225 0
-203 -65 224 -225 0
-203 65 -224 -225 0
-203 65 224 225 0
203 -65 -224 -225 0
203 -65 224 225 0
203 65 -224 225 0
203 65 224 -225 0
-203 -65 226 0
-203 -224 226 0
-65 -224 226 0
203 65 -226 0
203 224 -226 0
65 224 -226 0
-205 -66 -226 227 0
-205 -66 226 -227 0
-205 66 -226 -227 0
-205 66 226 227 0
205 -66 -226 -227 0
205 -66 226 227 0
205 66 -226 227 0
205 66 226 -227 0
-205 -66 228 0
-205 -226 228 0
-66 -226 228 0
205 66 -228 0
205 226 -228 0
66 226 -228 0
-207 -67 -228 229 0
-207 -67 228 -229 0
-207 67 -228 -229 0
-207 67 228 229 0
207 -67 -228 -229 0
207 -67 228 229 0
207 67 -228 229 0
207 67 228 -229 0
-207 -67 230 0
-207 -228 230 0
-67 -228 230 0
207 67 -230 0
207 228 -230 0
67 228 -230 0
-209 -68 -230 231 0
-209 -68 230 -231 0
-209 68 -230 -231 0
-209 68 230 231 0
209 -68 -230 -231 0
209 -68 230 231 0
209 68 -230 231 0
209 68 230 -231 0
-209 -68 232 0
-209 -230 232 0
-68 -230 232 0
209 68 -232 0
209 230 -232 0
68 230 -232 0
-211 -69 -232 233 0
-211 -69 232 -233 0
-211 69 -232 -233 0
-211 69 232 233 0
211 -69 -232 -233 0
211 -69 232 233 0
211 69 -232 233 0
211 69 232 -233 0
-211 -69 234 0
-211 -232 234 0
-69 -232 234 0
211 69 -234 0
211 232 -234 0
69 232 -234 0
-213 -70 -234 235 0
-213 -70 234 -235 0
-213 70 -234 -235 0
-213 70 234 235 0
213 -70 -234 -235 0
213 -70 234 235 0
213 70 -234 235 0
213 70 234 -235 0
-213 -70 236 0
-213 -234 236 0
-70 -234 236 0
213 70 -236 0
213 234 -236 0
70 234 -236 0
-215 -71 -236 237 0
-215 -71 236 -237 0
-215 71 -236 -237 0
-215 71 236 237 0
215 -71 -236 -237 0
215 -71 236 237 0
215 71 -236 237 0
215 71 236 -237 0
-215 -71 238 0
-215 -236 238 0
-71 -236 238 0
215 71 -238 0
215 236 -238 0
71 236 -238 0
-216 -72 -238 239 0
-216 -72 238 -239 0
-216 72 -238 -239 0
-216 72 238 239 0
216 -72 -238 -239 0
216 -72 238 239 0
216 72 -238 239 0
216 72 238 -239 0
-216 -72 240 0
-216 -238 240 0
-72 -238 240 0
216 72 -240 0
216 238 -240 0
72 238 -240 0
-241 219 73 0
-241 -219 -73 0
241 -219 73 0
241 219 -73 0
-242 219 0
-242 73 0
242 -219 -73 0
-221 -74 -242 243 0
-221 -74 242 -243 0
-221 74 -242 -243 0
-221 74 242 243 0
221 -74 -242 -243 0
221 -74 242 243 0
221 74 -242 243 0
221 74 242 -243 0
-221 -74 244 0
-221 -242 244 0
-74 -242 244 0
221 74 -244 0
221 242 -244 0
74 242 -244 0
-223 -75 -244 245 0
-223 -75 244 -245 0
-223 75 -244 -245 0
-223 75 244 245 0
223 -75 -244 -245 0
223 -75 244 245 0
223 75 -244 245 0
223 75 244 -245 0
-223 -75 246 0
-223 -244 246 0
-75 -244 246 0
223 75 -246 0
223 244 -246 0
75 244 -246 0
-225 -76 -246 247 0
-225 -76 246 -247 0
-225 76 -246 -247 0
-225 76 246 247 0
225 -76 -246 -247 0
225 -76 246 247 0
225 76 -246 247 0
225 76 246 -247 0
-225 -76 248 0
-225 -246 248 0
-76 -246 248 0
225 76 -248 0
225 246 -248 0
76 246 -248 0
-227 -77 -248 249 0
-227 -77 248 -249 0
-227 77 -248 -249 0
-227 77 248 249 0
227 -77 -248 -249 0
227 -77 248 249 0
227 77 -248 249 0
227 77 248 -249 0
-227 -77 250 0
-227 -248 250 0
-77 -248 250 0
227 77 -250 0
227 248 -250 0
77 248 -250 0
-229 -78 -250 251 0
-229 -78 250 -251 0
-229 78 -250 -251 0
-229 78 250 251 0
229 -78 -250 -251 0
229 -78 250 251 0
229 78 -250 251 0
229 78 250 -251 0
-229 -78 252 0
-229 -250 252 0
-78 -250 252 0
229 78 -252 0
229 250 -252 0
78 250 -252 0
-231 -79 -252 253 0
-231 -79 252 -253 0
-231 79 -252 -253 0
-231 79 252 253 0
231 -79 -252 -253 0
231 -79 252 253 0
231 79 -252 253 0
231 79 252 -253 0
-231 -79 254 0
-231 -252 254 0
-79 -252 254 0
231 79 -254 0
231 252 -254 0
79 252 -254 0
-233 -80 -254 255 0
-233 -80 254 -255 0
-233 80 -254 -255 0
-233 80 254 255 0
233 -80 -254 -255 0
233 -80 254 255 0
233 80 -254 255 0
233 80 254 -255 0
-233 -80 256 0
-233 -254 256 0
-80 -254 256 0
233 80 -256 0
233 254 -256 0
80 254 -256 0
-235 -81 -256 257 0
-235 -81 256 -257 0
-235 81 -256 -257 0
-235 81 256 257 0
235 -81 -256 -257 0
235 -81 256 257 0
235 81 -256 257 0
235 81 256 -257 0
-235 -81 258 0
-235 -256 258 0
-81 -256 258 0
235 81 -258 0
235 256 -258 0
81 256 -258 0
-237 -82 -258 259 0
-237 -82 258 -259 0
-237 82 -258 -259 0
-237 82 258 259 0
237 -82 -258 -259 0
237 -82 258 259 0
237 82 -258 259 0
237 82 258 -259 0
-237 -82 260 0
-237 -258 260 0
-82 -258 260 0
237 82 -260 0
237 258 -260 0
82 258 -260 0
-239 -83 -260 261 0
-239 -83 260 -261 0
-239 83 -260 -261 0
-239 83 260 261 0
239 -83 -260 -261 0
239 -83 260 261 0
239 83 -260 261 0
239 83 260 -261 0
-239 -83 262 0
-239 -260 262 0
-83 -260 262 0
239 83 -262 0
239 260 -262 0
83 260 -262 0
-240 -84 -262 263 0
-240 -84 262 -263 0
-240 84 -262 -263 0
-240 84 262 263 0
240 -84 -262 -263 0
240 -84 262 263 0
240 84 -262 263 0
240 84 262 -263 0
-240 -84 264 0
-240 -262 264 0
-84 -262 264 0
240 84 -264 0
240 262 -264 0
84 262 -264 0
-265 243 85 0
-265 -243 -85 0
265 -243 85 0
265 243 -85 0
-266 243 0
-266 85 0
266 -243 -85 0
-245 -86 -266 267 0
-245 -86 266 -267 0
-245 86 -266 -267 0
-245 86 266 267 0
245 -86 -266 -267 0
245 -86 266 267 0
245 86 -266 267 0
245 86 266 -267 0
-245 -86 268 0
-245 -266 268 0
-86 -266 268 0
245 86 -268 0
245 266 -268 0
86 266 -268 0
-247 -87 -268 269 0
-247 -87 268 -269 0
-247 87 -268 -269 0
-247 87 268 269 0
247 -87 -268 -269 0
247 -87 268 269 0
247 87 -268 269 0
247 87 268 -269 0
-247 -87 270 0
-247 -268 270 0
-87 -268 270 0
247 87 -270 0
247 268 -270 0
87 268 -270 0
-249 -88 -270 271 0
-249 -88 270 -271 0
-249 88 -270 -271 0
-249 88 270 271 0
249 -88 -270 -271 0
249 -88 270 271 0
249 88 -270 271 0
249 88 270 -271 0
-249 -88 272 0
-249 -270 272 0
-88 -270 272 0
249 88 -272 0
249 270 -272 0
88 270 -272 0
-251 -89 -272 273 0
-251 -89 272 -273 0
-251 89 -272 -273 0
-251 89 272 273 0
251 -89 -272 -273 0
251 -89 272 273 0
251 89 -272 273 0
251 89 272 -273 0
-251 -89 274 0
-251 -272 274 0
-89 -272 274 0
251 89 -274 0
251 272 -274 0
89 272 -274 0
-253 -90 -274 275 0
-253 -90 274 -275 0
-253 90 -274 -275 0
-253 90 274 275 0
253 -90 -274 -275 0
253 -90 274 275 0
253 90 -274 275 0
253 90 274 -275 0
-253 -90 276 0
-253 -274 276 0
-90 -274 276 0
253 90 -276 0
253 274 -276 0
90 274 -276 0
-255 -91 -276 277 0
-255 -91 276 -277 0
-255 91 -276 -277 0
-255 91 276 277 0
255 -91 -276 -277 0
255 -91 276 277 0
255 91 -276 277 0
255 91 276 -277 0
-255 -91 278 0
-255 -276 278 0
-91 -276 278 0
255 91 -278 0
255 276 -278 0
91 276 -278 0
-257 -92 -278 279 0
-257 -92 278 -279 0
-257 92 -278 -279 0
-257 92 278 279 0
257 -92 -278 -279 0
257 -92 278 279 0
257 92 -278 279 0
257 92 278 -279 0
-257 -92 280 0
-257 -278 280 0
-92 -278 280 0
257 92 -280 0
257 278 -280 0
92 278 -280 0
-259 -93 -280 281 0
-259 -93 280 -281 0
-259 93 -280 -281 0
-259 93 280 281 0
259 -93 -280 -281 0
259 -93 280 281 0
259 93 -280 281 0
259 93 280 -281 0
-259 -93 282 0
-259 -280 282 0
-93 -280 282 0
259 93 -282 0
259 280 -282 0
93 280 -282 0
-261 -94 -282 283 0
-261 -94 282 -283 0
-261 94 -282 -283 0
-261 94 282 283 0
261 -94 -282 -283 0
261 -94 282 283 0
261 94 -282 283 0
261 94 282 -283 0
-261 -94 284 0
-261 -282 284 0
-94 -282 284 0
261 94 -284 0
261 282 -284 0
94 282 -284 0
-263 -95 -284 285 0
-263 -95 284 -285 0
-263 95 -284 -285 0
-263 95 284 285 0
263 -95 -284 -285 0
263 -95 284 285 0
263 95 -284 285 0
263 95 284 -285 0
-263 -95 286 0
-263 -284 286 0
-95 -284 286 0
263 95 -286 0
263 284 -286 0
95 284 -286 0
-264 -96 -286 287 0
-264 -96 286 -287 0
-264 96 -286 -287 0
-264 96 286 287 0
264 -96 -286 -287 0
264 -96 286 287 0
264 96 -286 287 0
264 96 286 -287 0
-264 -96 288 0
-264 -286 288 0
-96 -286 288 0
264 96 -288 0
264 286 -288 0
96 286 -288 0
-289 267 97 0
-289 -267 -97 0
289 -267 97 0
289 267 -97 0
-290 267 0
-290 97 0
290 -267 -97 0
-269 -98 -290 291 0
-269 -98 290 -291 0
-269 98 -290 -291 0
-269 98 290 291 0
269 -98 -290 -291 0
269 -98 290 291 0
269 98 -290 291 0
269 98 290 -291 0
-269 -98 292 0
-269 -290 292 0
-98 -290 292 0
269 98 -292 0
269 290 -292 0
98 290 -292 0
-271 -99 -292 293 0
-271 -99 292 -293 0
-271 99 -292 -293 0
-271 99 292 293 0
271 -99 -292 -293 0
271 -99 292 293 0
271 99 -292 293 0
271 99 292 -293 0
-271 -99 294 0
-271 -292 294 0
-99 -292 294 0
271 99 -294 0
271 292 -294 0
99 292 -294 0
-273 -100 -294 295 0
-273 -100 294 -295 0
-273 100 -294 -295 0
-273 100 294 295 0
273 -100 -294 -295 0
273 -100 294 295 0
273 100 -294 295 0
273 100 294 -295 0
-273 -100 296 0
-273 -294 296 0
-100 -294 296 0
273 100 -296 0
273 294 -296 0
100 294 -296 0
-275 -101 -296 297 0
-275 -101 296 -297 0
-275 101 -296 -297 0
-275 101 296 297 0
275 -101 -296 -297 0
275 -101 296 297 0
275 101 -296 297 0
275 101 296 -297 0
-275 -101 298 0
-275 -296 298 0
-101 -296 298 0
275 101 -298 0
275 296 -298 0
101 296 -298 0
-277 -102 -298 299 0
-277 -102 298 -299 0
-277 102 -298 -299 0
-277 102 298 299 0
277 -102 -298 -299 0
277 -102 298 299 0
277 102 -298 299 0
277 102 298 -299 0
-277 -102 300 0
-277 -298 300 0
-102 -298 300 0
277 102 -300 0
277 298 -300 0
102 298 -300 0
-279 -103 -300 301 0
-279 -103 300 -301 0
-279 103 -300 -301 0
-279 103 300 301 0
279 -103 -300 -301 0
279 -103 300 301 0
279 103 -300 301 0
279 103 300 -301 0
-279 -103 302 0
-279 -300 302 0
-103 -300 302 0
279 103 -302 0
279 300 -302 0
103 300 -302 0
-281 -104 -302 303 0
-281 -104 302 -303 0
-281 104 -302 -303 0
-281 104 302 303 0
281 -104 -302 -303 0
281 -104 302 303 0
281 104 -302 303 0
281 104 302 -303 0
-281 -104 304 0
-281 -302 304 0
-104 -302 304 0
281 104 -304 0
281 302 -304 0
104 302 -304 0
-283 -105 -304 305 0
-283 -105 304 -305 0
-283 105 -304 -305 0
-283 105 304 305 0
283 -105 -304 -305 0
283 -105 304 305 0
283 105 -304 305 0
283 105 304 -305 0
-283 -105 306 0
-283 -304 306 0
-105 -304 306 0
283 105 -306 0
283 304 -306 0
105 304 -306 0
-285 -106 -306 307 0
-285 -106 306 -307 0
-285 106 -306 -307 0
-285 106 306 307 0
285 -106 -306 -307 0
285 -106 306 307 0
285 106 -306 307 0
285 106 306 -307 0
-285 -106 308 0
-285 -306 308 0
-106 -306 308 0
285 106 -308 0
285 306 -308 0
106 306 -308 0
-287 -107 -308 309 0
-287 -107 308 -309 0
-287 107 -308 -309 0
-287 107 308 309 0
287 -107 -308 -309 0
287 -107 308 309 0
287 107 -308 309 0
287 107 308 -309 0
-287 -107 310 0
-287 -308 310 0
-107 -308 310 0
287 107 -310 0
287 308 -310 0
107 308 -310 0
-288 -108 -310 311 0
-288 -108 310 -311 0
-288 108 -310 -311 0
-288 108 310 311 0
288 -108 -310 -311 0
288 -108 310 311 0
288 108 -310 311 0
288 108 310 -311 0
-288 -108 312 0
-288 -310 312 0
-108 -310 312 0
288 108 -312 0
288 310 -312 0
108 310 -312 0
-313 291 109 0
-313 -291 -109 0
313 -291 109 0
313 291 -109 0
-314 291 0
-314 109 0
314 -291 -109 0
-293 -110 -314 315 0
-293 -110 314 -315 0
-293 110 -314 -315 0
-293 110 314 315 0
293 -110 -314 -315 0
293 -110 314 315 0
293 110 -314 315 0
293 110 314 -315 0
-293 -110 316 0
-293 -314 316 0
-110 -314 316 0
293 110 -316 0
293 314 -316 0
110 314 -316 0
-295 -111 -316 317 0
-295 -111 316 -317 0
-295 111 -316 -317 0
-295 111 316 317 0
295 -111 -316 -317 0
295 -111 316 317 0
295 111 -316 317 0
295 111 316 -317 0
-295 -111 318 0
-295 -316 318 0
-111 -316 318 0
295 111 -318 0
295 316 -318 0
111 316 -318 0
-297 -112 -318 319 0
-297 -112 318 -319 0
-297 112 -318 -319 0
-297 112 318 319 0
297 -112 -318 -319 0
297 -112 318 319 0
297 112 -318 319 0
297 112 318 -319 0
-297 -112 320 0
-297 -318 320 0
-112 -318 320 0
297 112 -320 0
297 318 -320 0
112 318 -320 0
-299 -113 -320 321 0
-299 -113 320 -321 0
-299 113 -320 -321 0
-299 113 320 321 0
299 -113 -320 -321 0
299 -113 320 321 0
299 113 -320 321 0
299 113 320 -321 0
-299 -113 322 0
-299 -320 322 0
-113 -320 322 0
299 113 -322 0
299 320 -322 0
113 320 -322 0
-301 -114 -322 323 0
-301 -114 322 -323 0
-301 114 -322 -323 0
-301 114 322 323 0
301 -114 -322 -323 0
301 -114 322 323 0
301 114 -322 323 0
301 114 322 -323 0
-301 -114 324 0
-301 -322 324 0
-114 -322 324 0
301 114 -324 0
301 322 -324 0
114 322 -324 0
-303 -115 -324 325 0
-303 -115 324 -325 0
-303 115 -324 -325 0
-303 115 324 325 0
303 -115 -324 -325 0
303 -115 324 325 0
303 115 -324 325 0
303 115 324 -325 0
-303 -115 326 0
-303 -324 326 0
-115 -324 326 0
303 115 -326 0
303 324 -326 0
115 324 -326 0
-305 -116 -326 327 0
-305 -116 326 -327 0
-305 116 -326 -327 0
-305 116 326 327 0
305 -116 -326 -327 0
305 -116 326 327 0
305 116 -326 327 0
305 116 326 -327 0
-305 -116 328 0
-305 -326 328 0
-116 -326 328 0
305 116 -328 0
305 326 -328 0
116 326 -328 0
-307 -117 -328 329 0
-307 -117 328 -329 0
-307 117 -328 -329 0
-307 117 328 329 0
307 -117 -328 -329 0
307 -117 328 329 0
307 117 -328 329 0
307 117 328 -329 0
-307 -117 330 0
-307 -328 330 0
-117 -328 330 0
307 117 -330 0
307 328 -330 0
117 328 -330 0
-309 -118 -330 331 0
-309 -118 330 -331 0
-309 118 -330 -331 0
-309 118 330 331 0
309 -118 -330 -331 0
309 -118 330 331 0
309 118 -330 331 0
309 118 330 -331 0
-309 -118 332 0
-309 -330 332 0
-118 -330 332 0
309 118 -332 0
309 330 -332 0
118 330 -332 0
-311 -119 -332 333 0
-311 -119 332 -333 0
-311 119 -332 -333 0
-311 119 332 333 0
311 -119 -332 -333 0
311 -119 332 333 0
311 119 -332 333 0
311 119 332 -333 0
-311 -119 334 0
-311 -332 334 0
-119 -332 334 0
311 119 -334 0
311 332 -334 0
119 332 -334 0
-312 -120 -334 335 0
-312 -120 334 -335 0
-312 120 -334 -335 0
-312 120 334 335 0
312 -120 -334 -335 0
312 -120 334 335 0
312 120 -334 335 0
312 120 334 -335 0
-312 -120 336 0
-312 -334 336 0
-120 -334 336 0
312 120 -336 0
312 334 -336 0
120 334 -336 0
-337 315 121 0
-337 -315 -121 0
337 -315 121 0
337 315 -121 0
-338 315 0
-338 121 0
338 -315 -121 0
-317 -122 -338 339 0
-317 -122 338 -339 0
-317 122 -338 -339 0
-317 122 338 339 0
317 -122 -338 -339 0
317 -122 338 339 0
317 122 -338 339 0
317 122 338 -339 0
-317 -122 340 0
-317 -338 340 0
-122 -338 340 0
317 122 -340 0
317 338 -340 0
122 338 -340 0
-319 -123 -340 341 0
-319 -123 340 -341 0
-319 123 -340 -341 0
-319 123 340 341 0
319 -123 -340 -341 0
319 -123 340 341 0
319 123 -340 341 0
319 123 340 -341 0
-319 -123 342 0
-319 -340 342 0
-123 -340 342 0
319 123 -342 0
319 340 -342 0
123 340 -342 0
-321 -124 -342 343 0
-321 -124 342 -343 0
-321 124 -342 -343 0
-321 124 342 343 0
321 -124 -342 -343 0
321 -124 342 343 0
321 124 -342 343 0
321 124 342 -343 0
-321 -124 344 0
-321 -342 344 0
-124 -342 344 0
321 124 -344 0
321 342 -344 0
124 342 -344 0
-323 -125 -344 345 0
-323 -125 344 -345 0
-323 125 -344 -345 0
-323 125 344 345 0
323 -125 -344 -345 0
323 -125 344 345 0
323 125 -344 345 0
323 125 344 -345 0
-323 -125 346 0
-323 -344 346 0
-125 -344 346 0
323 125 -346 0
323 344 -346 0
125 344 -346 0
-325 -126 -346 347 0
-325 -126 346 -347 0
-325 126 -346 -347 0
-325 126 346 347 0
325 -126 -346 -347 0
325 -126 346 347 0
325 126 -346 347 0
325 126 346 -347 0
-325 -126 348 0
-325 -346 348 0
-126 -346 348 0
325 126 -348 0
325 346 -348 0
126 346 -348 0
-327 -127 -348 349 0
-327 -127 348 -349 0
-327 127 -348 -349 0
-327 127 348 349 0
327 -127 -348 -349 0
327 -127 348 349 0
327 127 -348 349 0
327 127 348 -349 0
-327 -127 350 0
-327 -348 350 0
-127 -348 350 0
327 127 -350 0
327 348 -350 0
127 348 -350 0
-329 -128 -350 351 0
-329 -128 350 -351 0
-329 128 -350 -351 0
-329 128 350 351 0
329 -128 -350 -351 0
329 -128 350 351 0
329 128 -350 351 0
329 128 350 -351 0
-329 -128 352 0
-329 -350 352 0
-128 -350 352 0
329 128 -352 0
329 350 -352 0
128 350 -352 0
-331 -129 -352 353 0
-331 -129 352 -353 0
-331 129 -352 -353 0
-331 129 352 353 0
331 -129 -352 -353 0
331 -129 352 353 0
331 129 -352 353 0
331 129 352 -353 0
-331 -129 354 0
-331 -352 354 0
-129 -352 354 0
331 129 -354 0
331 352 -354 0
129 352 -354 0
-333 -130 -354 355 0
-333 -130 354 -355 0
-333 130 -354 -355 0
-333 130 354 355 0
333 -130 -354 -355 0
333 -130 354 355 0
333 130 -354 355 0
333 130 354 -355 0
-333 -130 356 0
-333 -354 356 0
-130 -354 356 0
333 130 -356 0
333 354 -356 0
130 354 -356 0
-335 -131 -356 357 0
-335 -131 356 -357 0
-335 131 -356 -357 0
-335 131 356 357 0
335 -131 -356 -357 0
335 -131 356 357 0
335 131 -356 357 0
335 131 356 -357 0
-335 -131 358 0
-335 -356 358 0
-131 -356 358 0
335 131 -358 0
335 356 -358 0
131 356 -358 0
-336 -132 -358 359 0
-336 -132 358 -359 0
-336 132 -358 -359 0
-336 132 358 359 0
336 -132 -358 -359 0
336 -132 358 359 0
336 132 -358 359 0
336 132 358 -359 0
-336 -132 360 0
-336 -358 360 0
-132 -358 360 0
336 132 -360 0
336 358 -360 0
132 358 -360 0
-361 339 133 0
-361 -339 -133 0
361 -339 133 0
361 339 -133 0
-362 339 0
-362 133 0
362 -339 -133 0
-341 -134 -362 363 0
-341 -134 362 -363 0
-341 134 -362 -363 0
-341 134 362 363 0
341 -134 -362 -363 0
341 -134 362 363 0
341 134 -362 363 0
341 134 362 -363 0
-341 -134 364 0
-341 -362 364 0
-134 -362 364 0
341 134 -364 0
341 362 -364 0
134 362 -364 0
-343 -135 -364 365 0
-343 -135 364 -365 0
-343 135 -364 -365 0
-343 135 364 365 0
343 -135 -364 -365 0
343 -135 364 365 0
343 135 -364 365 0
343 135 364 -365 0
-343 -135 366 0
-343 -364 366 0
-135 -364 366 0
343 135 -366 0
343 364 -366 0
135 364 -366 0
-345 -136 -366 367 0
-345 -136 366 -367 0
-345 136 -366 -367 0
-345 136 366 367 0
345 -136 -366 -367 0
345 -136 366 367 0
345 136 -366 367 0
345 136 366 -367 0
-345 -136 368 0
-345 -366 368 0
-136 -366 368 0
345 136 -368 0
345 366 -368 0
136 366 -368 0
-347 -137 -368 369 0
-347 -137 368 -369 0
-347 137 -368 -369 0
-347 137 368 369 0
347 -137 -368 -369 0
347 -137 368 369 0
347 137 -368 369 0
347 137 368 -369 0
-347 -137 370 0
-347 -368 370 0
-137 -368 370 0
347 137 -370 0
347 368 -370 0
137 368 -370 0
-349 -138 -370 371 0
-349 -138 370 -371 0
-349 138 -370 -371 0
-349 138 370 371 0
349 -138 -370 -371 0
349 -138 370 371 0
349 138 -370 371 0
349 138 370 -371 0
-349 -138 372 0
-349 -370 372 0
-138 -370 372 0
349 138 -372 0
349 370 -372 0
138 370 -372 0
-351 -139 -372 373 0
-351 -139 372 -373 0
-351 139 -372 -373 0
-351 139 372 373 0
351 -139 -372 -373 0
351 -139 372 373 0
351 139 -372 373 0
351 139 372 -373 0
-351 -139 374 0
-351 -372 374 0
-139 -372 374 0
351 139 -374 0
351 372 -374 0
139 372 -374 0
-353 -140 -374 375 0
-353 -140 374 -375 0
-353 140 -374 -375 0
-353 140 374 375 0
353 -140 -374 -375 0
353 -140 374 375 0
353 140 -374 375 0
353 140 374 -375 0
-353 -140 376 0
-353 -374 376 0
-140 -374 376 0
353 140 -376 0
353 374 -376 0
140 374 -376 0
-355 -141 -376 377 0
-355 -141 376 -377 0
-355 141 -376 -377 0
-355 141 376 377 0
355 -141 -376 -377 0
355 -141 376 377 0
355 141 -376 377 0
355 141 376 -377 0
-355 -141 378 0
-355 -376 378 0
-141 -376 378 0
355 141 -378 0
355 376 -378 0
141 376 -378 0
-357 -142 -378 379 0
-357 -142 378 -379 0
-357 142 -378 -379 0
-357 142 378 379 0
357 -142 -378 -379 0
357 -142 378 379 0
357 142 -378 379 0
357 142 378 -379 0
-357 -142 380 0
-357 -378 380 0
-142 -378 380 0
357 142 -380 0
357 378 -380 0
142 378 -380 0
-359 -143 -380 381 0
-359 -143 380 -381 0
-359 143 -380 -381 0
-359 143 380 381 0
359 -143 -380 -381 0
359 -143 380 381 0
359 143 -380 381 0
359 143 380 -381 0
-359 -143 382 0
-359 -380 382 0
-143 -380 382 0
359 143 -382 0
359 380 -382 0
143 380 -382 0
-360 -144 -382 383 0
-360 -144 382 -383 0
-360 144 -382 -383 0
-360 144 382 383 0
360 -144 -382 -383 0
360 -144 382 383 0
360 144 -382 383 0
360 144 382 -383 0
-360 -144 384 0
-360 -382 384 0
-144 -382 384 0
360 144 -384 0
360 382 -384 0
144 382 -384 0
-385 363 145 0
-385 -363 -145 0
385 -363 145 0
385 363 -145 0
-386 363 0
-386 145 0
386 -363 -145 0
-365 -146 -386 387 0
-365 -146 386 -387 0
-365 146 -386 -387 0
-365 146 386 387 0
365 -146 -386 -387 0
365 -146 386 387 0
365 146 -386 387 0
365 146 386 -387 0
-365 -146 388 0
-365 -386 388 0
-146 -386 388 0
365 146 -388 0
365 386 -388 0
146 386 -388 0
-367 -147 -388 389 0
-367 -147 388 -389 0
-367 147 -388 -389 0
-367 147 388 389 0
367 -147 -388 -389 0
367 -147 388 389 0
367 147 -388 389 0
367 147 388 -389 0
-367 -147 390 0
-367 -388 390 0
-147 -388 390 0
367 147 -390 0
367 388 -390 0
147 388 -390 0
-369 -148 -390 391 0
-369 -148 390 -391 0
-369 148 -390 -391 0
-369 148 390 391 0
369 -148 -390 -391 0
369 -148 390 391 0
369 148 -390 391 0
369 148 390 -391 0
-369 -148 392 0
-369 -390 392 0
-148 -390 392 0
369 148 -392 0
369 390 -392 0
148 390 -392 0
-371 -149 -392 393 0
-371 -149 392 -393 0
-371 149 -392 -393 0
-371 149 392 393 0
371 -149 -392 -393 0
371 -149 392 393 0
371 149 -392 393 0
371 149 392 -393 0
-371 -149 394 0
-371 -392 394 0
-149 -392 394 0
371 149 -394 0
371 392 -394 0
149 392 -394 0
-373 -150 -394 395 0
-373 -150 394 -395 0
-373 150 -394 -395 0
-373 150 394 395 0
373 -150 -394 -395 0
373 -150 394 395 0
373 150 -394 395 0
373 150 394 -395 0
-373 -150 396 0
-373 -394 396 0
-150 -394 396 0
373 150 -396 0
373 394 -396 0
150 394 -396 0
-375 -151 -396 397 0
-375 -151 396 -397 0
-375 151 -396 -397 0
-375 151 396 397 0
375 -151 -396 -397 0
375 -151 396 397 0
375 151 -396 397 0
375 151 396 -397 0
-375 -151 398 0
-375 -396 398 0
-151 -396 398 0
375 151 -398 0
375 396 -398 0
151 396 -398 0
-377 -152 -398 399 0
-377 -152 398 -399 0
-377 152 -398 -399 0
-377 152 398 399 0
377 -152 -398 -399 0
377 -152 398 399 0
377 152 -398 399 0
377 152 398 -399 0
-377 -152 400 0
-377 -398 400 0
-152 -398 400 0
377 152 -400 0
377 398 -400 0
152 398 -400 0
-379 -153 -400 401 0
-379 -153 400 -401 0
-379 153 -400 -401 0
-379 153 400 401 0
379 -153 -400 -401 0
379 -153 400 401 0
379 153 -400 401 0
379 153 400 -401 0
-379 -153 402 0
-379 -400 402 0
-153 -400 402 0
379 153 -402 0
379 400 -402 0
153 400 -402 0
-381 -154 -402 403 0
-381 -154 402 -403 0
-381 154 -402 -403 0
-381 154 402 403 0
381 -154 -402 -403 0
381 -154 402 403 0
381 154 -402 403 0
381 154 402 -403 0
-381 -154 404 0
-381 -402 404 0
-154 -402 404 0
381 154 -404 0
381 402 -404 0
154 402 -404 0
-383 -155 -404 405 0
-383 -155 404 -405 0
-383 155 -404 -405 0
-383 155 404 405 0
383 -155 -404 -405 0
383 -155 404 405 0
383 155 -404 405 0
383 155 404 -405 0
-383 -155 406 0
-383 -404 406 0
-155 -404 406 0
383 155 -406 0
383 404 -406 0
155 404 -406 0
-384 -156 -406 407 0
-384 -156 406 -407 0
-384 156 -406 -407 0
-384 156 406 407 0
384 -156 -406 -407 0
384 -156 406 407 0
384 156 -406 407 0
384 156 406 -407 0
-384 -156 408 0
-384 -406 408 0
-156 -406 408 0
384 156 -408 0
384 406 -408 0
156 406 -408 0
-409 387 157 0
-409 -387 -157 0
409 -387 157 0
409 387 -157 0
-410 387 0
-410 157 0
410 -387 -157 0
-389 -158 -410 411 0
-389 -158 410 -411 0
-389 158 -410 -411 0
-389 158 410 411 0
389 -158 -410 -411 0
389 -158 410 411 0
389 158 -410 411 0
389 158 410 -411 0
-389 -158 412 0
-389 -410 412 0
-158 -410 412 0
389 158 -412 0
389 410 -412 0
158 410 -412 0
-391 -159 -412 413 0
-391 -159 412 -413 0
-391 159 -412 -413 0
-391 159 412 413 0
391 -159 -412 -413 0
391 -159 412 413 0
391 159 -412 413 0
391 159 412 -413 0
-391 -159 414 0
-391 -412 414 0
-159 -412 414 0
391 159 -414 0
391 412 -414 0
159 412 -414 0
-393 -160 -414 415 0
-393 -160 414 -415 0
-393 160 -414 -415 0
-393 160 414 415 0
393 -160 -414 -415 0
393 -160 414 415 0
393 160 -414 415 0
393 160 414 -415 0
-393 -160 416 0
-393 -414 416 0
-160 -414 416 0
393 160 -416 0
393 414 -416 0
160 414 -416 0
-395 -161 -416 417 0
-395 -161 416 -417 0
-395 161 -416 -417 0
-395 161 416 417 0
395 -161 -416 -417 0
395 -161 416 417 0
395 161 -416 417 0
395 161 416 -417 0
-395 -161 418 0
-395 -416 418 0
-161 -416 418 0
395 161 -418 0
395 416 -418 0
161 416 -418 0
-397 -162 -418 419 0
-397 -162 418 -419 0
-397 162 -418 -419 0
-397 162 418 419 0
397 -162 -418 -419 0
397 -162 418 419 0
397 162 -418 419 0
397 162 418 -419 0
-397 -162 420 0
-397 -418 420 0
-162 -418 420 0
397 162 -420 0
397 418 -420 0
162 418 -420 0
-399 -163 -420 421 0
-399 -163 420 -421 0
-399 163 -420 -421 0
-399 163 420 421 0
399 -163 -420 -421 0
399 -163 420 421 0
399 163 -420 421 0
399 163 420 -421 0
-399 -163 422 0
-399 -420 422 0
-163 -420 422 0
399 163 -422 0
399 420 -422 0
163 420 -422 0
-401 -164 -422 423 0
-401 -164 422 -423 0
-401 164 -422 -423 0
-401 164 422 423 0
401 -164 -422 -423 0
401 -164 422 423 0
401 164 -422 423 0
401 164 422 -423 0
-401 -164 424 0
-401 -422 424 0
-164 -422 424 0
401 164 -424 0
401 422 -424 0
164 422 -424 0
-403 -165 -424 425 0
-403 -165 424 -425 0
-403 165 -424 -425 0
-403 165 424 425 0
403 -165 -424 -425 0
403 -165 424 425 0
403 165 -424 425 0
403 165 424 -425 0
-403 -165 426 0
-403 -424 426 0
-165 -424 426 0
403 165 -426 0
403 424 -426 0
165 424 -426 0
-405 -166 -426 427 0
-405 -166 426 -427 0
-405 166 -426 -427 0
-405 166 426 427 0
405 -166 -426 -427 0
405 -166 426 427 0
405 166 -426 427 0
405 166 426 -427 0
-405 -166 428 0
-405 -426 428 0
-166 -426 428 0
405 166 -428 0
405 426 -428 0
166 426 -428 0
-407 -167 -428 429 0
-407 -167 428 -429 0
-407 167 -428 -429 0
-407 167 428 429 0
407 -167 -428 -429 0
407 -167 428 429 0
407 167 -428 429 0
407 167 428 -429 0
-407 -167 430 0
-407 -428 430 0
-167 -428 430 0
407 167 -430 0
407 428 -430 0
167 428 -430 0
-408 -168 -430 431 0
-408 -168 430 -431 0
-408 168 -430 -431 0
-408 168 430 431 0
408 -168 -430 -431 0
408 -168 430 431 0
408 168 -430 431 0
408 168 430 -431 0
-408 -168 432 0
-408 -430 432 0
-168 -430 432 0
408 168 -432 0
408 430 -432 0
168 430 -432 0
25 0
169 0
-193 0
217 0
241 0
-265 0
-289 0
-313 0
337 0
-361 0
-385 0
409 0
411 0
-413 0
415 0
417 0
-419 0
421 0
-423 0
425 0
-427 0
-429 0
-431 0
432 0
