c F6 factoring b=8 N=63031 prime (UNSAT by construction)
p cnf 192 938
8 0
16 0
-17 1 0
-17 9 0
17 -1 -9 0
-18 2 0
-18 9 0
18 -2 -9 0
-19 3 0
-19 9 0
19 -3 -9 0
-20 4 0
-20 9 0
20 -4 -9 0
-21 5 0
-21 9 0
21 -5 -9 0
-22 6 0
-22 9 0
22 -6 -9 0
-23 7 0
-23 9 0
23 -7 -9 0
-24 8 0
-24 9 0
24 -8 -9 0
-25 1 0
-25 10 0
25 -1 -10 0
-26 2 0
-26 10 0
26 -2 -10 0
-27 3 0
-27 10 0
27 -3 -10 0
-28 4 0
-28 10 0
28 -4 -10 0
-29 5 0
-29 10 0
29 -5 -10 0
-30 6 0
-30 10 0
30 -6 -10 0
-31 7 0
-31 10 0
31 -7 -10 0
-32 8 0
-32 10 0
32 -8 -10 0
-33 1 0
-33 11 0
33 -1 -11 0
-34 2 0
-34 11 0
34 -2 -11 0
-35 3 0
-35 11 0
35 -3 -11 0
-36 4 0
-36 11 0
36 -4 -11 0
-37 5 0
-37 11 0
37 -5 -11 0
-38 6 0
-38 11 0
38 -6 -11 0
-39 7 0
-39 11 0
39 -7 -11 0
-40 8 0
-40 11 0
40 -8 -11 0
-41 1 0
-41 12 0
41 -1 -12 0
-42 2 0
-42 12 0
42 -2 -12 0
-43 3 0
-43 12 0
43 -3 -12 0
-44 4 0
-44 12 0
44 -4 -12 0
-45 5 0
-45 12 0
45 -5 -12 0
-46 6 0
-46 12 0
46 -6 -12 0
-47 7 0
-47 12 0
47 -7 -12 0
-48 8 0
-48 12 0
48 -8 -12 0
-49 1 0
-49 13 0
49 -1 -13 0
-50 2 0
-50 13 0
50 -2 -13 0
-51 3 0
-51 13 0
51 -3 -13 0
-52 4 0
-52 13 0
52 -4 -13 0
-53 5 0
-53 13 0
53 -5 -13 0
-54 6 0
-54 13 0
54 -6 -13 0
-55 7 0
-55 13 0
55 -7 -13 0
-56 8 0
-56 13 0
56 -8 -13 0
-57 1 0
-57 14 0
57 -1 -14 0
-58 2 0
-58 14 0
58 -2 -14 0
-59 3 0
-59 14 0
59 -3 -14 0
-60 4 0
-60 14 0
60 -4 -14 0
-61 5 0
-61 14 0
61 -5 -14 0
-62 6 0
-62 14 0
62 -6 -14 0
-63 7 0
-63 14 0
63 -7 -14 0
-64 8 0
-64 14 0
64 -8 -14 0
-65 1 0
-65 15 0
65 -1 -15 0
-66 2 0
-66 15 0
66 -2 -15 0
-67 3 0
-67 15 0
67 -3 -15 0
-68 4 0
-68 15 0
68 -4 -15 0
-69 5 0
-69 15 0
69 -5 -15 0
-70 6 0
-70 15 0
70 -6 -15 0
-71 7 0
-71 15 0
71 -7 -15 0
-72 8 0
-72 15 0
72 -8 -15 0
-73 1 0
-73 16 0
73 -1 -16 0
-74 2 0
-74 16 0
74 -2 -16 0
-75 3 0
-75 16 0
75 -3 -16 0
-76 4 0
-76 16 0
76 -4 -16 0
-77 5 0
-77 16 0
77 -5 -16 0
-78 6 0
-78 16 0
78 -6 -16 0
-79 7 0
-79 16 0
79 -7 -16 0
-80 8 0
-80 16 0
80 -8 -16 0
-81 18 25 0
-81 -18 -25 0
81 -18 25 0
81 18 -25 0
-82 18 0
-82 25 0
82 -18 -25 0
-19 -26 -82 83 0
-19 -26 82 -83 0
-19 26 -82 -83 0
-19 26 82 83 0
19 -26 -82 -83 0
19 -26 82 83 0
19 26 -82 83 0
19 26 82 -83 0
-19 -26 84 0
-19 -82 84 0
-26 -82 84 0
19 26 -84 0
19 82 -84 0
26 82 -84 0
-20 -27 -84 85 0
-20 -27 84 -85 0
-20 27 -84 -85 0
-20 27 84 85 0
20 -27 -84 -85 0
20 -27 84 85 0
20 27 -84 85 0
20 27 84 -85 0
-20 -27 86 0
-20 -84 86 0
-27 -84 86 0
20 27 -86 0
20 84 -86 0
27 84 -86 0
-21 -28 -86 87 0
-21 -28 86 -87 0
-21 28 -86 -87 0
-21 28 86 87 0
21 -28 -86 -87 0
21 -28 86 87 0
21 28 -86 87 0
21 28 86 -87 0
-21 -28 88 0
-21 -86 88 0
-28 -86 88 0
21 28 -88 0
21 86 -88 0
28 86 -88 0
-22 -29 -88 89 0
-22 -29 88 -89 0
-22 29 -88 -89 0
-22 29 88 89 0
22 -29 -88 -89 0
22 -29 88 89 0
22 29 -88 89 0
22 29 88 -89 0
-22 -29 90 0
-22 -88 90 0
-29 -88 90 0
22 29 -90 0
22 88 -90 0
29 88 -90 0
-23 -30 -90 91 0
-23 -30 90 -91 0
-23 30 -90 -91 0
-23 30 90 91 0
23 -30 -90 -91 0
23 -30 90 91 0
23 30 -90 91 0
23 30 90 -91 0
-23 -30 92 0
-23 -90 92 0
-30 -90 92 0
23 30 -92 0
23 90 -92 0
30 90 -92 0
-24 -31 -92 93 0
-24 -31 92 -93 0
-24 31 -92 -93 0
-24 31 92 93 0
24 -31 -92 -93 0
24 -31 92 93 0
24 31 -92 93 0
24 31 92 -93 0
-24 -31 94 0
-24 -92 94 0
-31 -92 94 0
24 31 -94 0
24 92 -94 0
31 92 -94 0
-95 32 94 0
-95 -32 -94 0
95 -32 94 0
95 32 -94 0
-96 32 0
-96 94 0
96 -32 -94 0
-97 83 33 0
-97 -83 -33 0
97 -83 33 0
97 83 -33 0
-98 83 0
-98 33 0
98 -83 -33 0
-85 -34 -98 99 0
-85 -34 98 -99 0
-85 34 -98 -99 0
-85 34 98 99 0
85 -34 -98 -99 0
85 -34 98 99 0
85 34 -98 99 0
85 34 98 -99 0
-85 -34 100 0
-85 -98 100 0
-34 -98 100 0
85 34 -100 0
85 98 -100 0
34 98 -100 0
-87 -35 -100 101 0
-87 -35 100 -101 0
-87 35 -100 -101 0
-87 35 100 101 0
87 -35 -100 -101 0
87 -35 100 101 0
87 35 -100 101 0
87 35 100 -101 0
-87 -35 102 0
-87 -100 102 0
-35 -100 102 0
87 35 -102 0
87 100 -102 0
35 100 -102 0
-89 -36 -102 103 0
-89 -36 102 -103 0
-89 36 -102 -103 0
-89 36 102 103 0
89 -36 -102 -103 0
89 -36 102 103 0
89 36 -102 103 0
89 36 102 -103 0
-89 -36 104 0
-89 -102 104 0
-36 -102 104 0
89 36 -104 0
89 102 -104 0
36 102 -104 0
-91 -37 -104 105 0
-91 -37 104 -105 0
-91 37 -104 -105 0
-91 37 104 105 0
91 -37 -104 -105 0
91 -37 104 105 0
91 37 -104 105 0
91 37 104 -105 0
-91 -37 106 0
-91 -104 106 0
-37 -104 106 0
91 37 -106 0
91 104 -106 0
37 104 -106 0
-93 -38 -106 107 0
-93 -38 106 -107 0
-93 38 -106 -107 0
-93 38 106 107 0
93 -38 -106 -107 0
93 -38 106 107 0
93 38 -106 107 0
93 38 106 -107 0
-93 -38 108 0
-93 -106 108 0
-38 -106 108 0
93 38 -108 0
93 106 -108 0
38 106 -108 0
-95 -39 -108 109 0
-95 -39 108 -109 0
-95 39 -108 -109 0
-95 39 108 109 0
95 -39 -108 -109 0
95 -39 108 109 0
95 39 -108 109 0
95 39 108 -109 0
-95 -39 110 0
-95 -108 110 0
-39 -108 110 0
95 39 -110 0
95 108 -110 0
39 108 -110 0
-96 -40 -110 111 0
-96 -40 110 -111 0
-96 40 -110 -111 0
-96 40 110 111 0
96 -40 -110 -111 0
96 -40 110 111 0
96 40 -110 111 0
96 40 110 -111 0
-96 -40 112 0
-96 -110 112 0
-40 -110 112 0
96 40 -112 0
96 110 -112 0
40 110 -112 0
-113 99 41 0
-113 -99 -41 0
113 -99 41 0
113 99 -41 0
-114 99 0
-114 41 0
114 -99 -41 0
-101 -42 -114 115 0
-101 -42 114 -115 0
-101 42 -114 -115 0
-101 42 114 115 0
101 -42 -114 -115 0
101 -42 114 115 0
101 42 -114 115 0
101 42 114 -115 0
-101 -42 116 0
-101 -114 116 0
-42 -114 116 0
101 42 -116 0
101 114 -116 0
42 114 -116 0
-103 -43 -116 117 0
-103 -43 116 -117 0
-103 43 -116 -117 0
-103 43 116 117 0
103 -43 -116 -117 0
103 -43 116 117 0
103 43 -116 117 0
103 43 116 -117 0
-103 -43 118 0
-103 -116 118 0
-43 -116 118 0
103 43 -118 0
103 116 -118 0
43 116 -118 0
-105 -44 -118 119 0
-105 -44 118 -119 0
-105 44 -118 -119 0
-105 44 118 119 0
105 -44 -118 -119 0
105 -44 118 119 0
105 44 -118 119 0
105 44 118 -119 0
-105 -44 120 0
-105 -118 120 0
-44 -118 120 0
105 44 -120 0
105 118 -120 0
44 118 -120 0
-107 -45 -120 121 0
-107 -45 120 -121 0
-107 45 -120 -121 0
-107 45 120 121 0
107 -45 -120 -121 0
107 -45 120 121 0
107 45 -120 121 0
107 45 120 -121 0
-107 -45 122 0
-107 -120 122 0
-45 -120 122 0
107 45 -122 0
107 120 -122 0
45 120 -122 0
-109 -46 -122 123 0
-109 -46 122 -123 0
-109 46 -122 -123 0
-109 46 122 123 0
109 -46 -122 -123 0
109 -46 122 123 0
109 46 -122 123 0
109 46 122 -123 0
-109 -46 124 0
-109 -122 124 0
-46 -122 124 0
109 46 -124 0
109 122 -124 0
46 122 -124 0
-111 -47 -124 125 0
-111 -47 124 -125 0
-111 47 -124 -125 0
-111 47 124 125 0
111 -47 -124 -125 0
111 -47 124 125 0
111 47 -124 125 0
111 47 124 -125 0
-111 -47 126 0
-111 -124 126 0
-47 -124 126 0
111 47 -126 0
111 124 -126 0
47 124 -126 0
-112 -48 -126 127 0
-112 -48 126 -127 0
-112 48 -126 -127 0
-112 48 126 127 0
112 -48 -126 -127 0
112 -48 126 127 0
112 48 -126 127 0
112 48 126 -127 0
-112 -48 128 0
-112 -126 128 0
-48 -126 128 0
112 48 -128 0
112 126 -128 0
48 126 -128 0
-129 115 49 0
-129 -115 -49 0
129 -115 49 0
129 115 -49 0
-130 115 0
-130 49 0
130 -115 -49 0
-117 -50 -130 131 0
-117 -50 130 -131 0
-117 50 -130 -131 0
-117 50 130 131 0
117 -50 -130 -131 0
117 -50 130 131 0
117 50 -130 131 0
117 50 130 -131 0
-117 -50 132 0
-117 -130 132 0
-50 -130 132 0
117 50 -132 0
117 130 -132 0
50 130 -132 0
-119 -51 -132 133 0
-119 -51 132 -133 0
-119 51 -132 -133 0
-119 51 132 133 0
119 -51 -132 -133 0
119 -51 132 133 0
119 51 -132 133 0
119 51 132 -133 0
-119 -51 134 0
-119 -132 134 0
-51 -132 134 0
119 51 -134 0
119 132 -134 0
51 132 -134 0
-121 -52 -134 135 0
-121 -52 134 -135 0
-121 52 -134 -135 0
-121 52 134 135 0
121 -52 -134 -135 0
121 -52 134 135 0
121 52 -134 135 0
121 52 134 -135 0
-121 -52 136 0
-121 -134 136 0
-52 -134 136 0
121 52 -136 0
121 134 -136 0
52 134 -136 0
-123 -53 -136 137 0
-123 -53 136 -137 0
-123 53 -136 -137 0
-123 53 136 137 0
123 -53 -136 -137 0
123 -53 136 137 0
123 53 -136 137 0
123 53 136 -137 0
-123 -53 138 0
-123 -136 138 0
-53 -136 138 0
123 53 -138 0
123 136 -138 0
53 136 -138 0
-125 -54 -138 139 0
-125 -54 138 -139 0
-125 54 -138 -139 0
-125 54 138 139 0
125 -54 -138 -139 0
125 -54 138 139 0
125 54 -138 139 0
125 54 138 -139 0
-125 -54 140 0
-125 -138 140 0
-54 -138 140 0
125 54 -140 0
125 138 -140 0
54 138 -140 0
-127 -55 -140 141 0
-127 -55 140 -141 0
-127 55 -140 -141 0
-127 55 140 141 0
127 -55 -140 -141 0
127 -55 140 141 0
127 55 -140 141 0
127 55 140 -141 0
-127 -55 142 0
-127 -140 142 0
-55 -140 142 0
127 55 -142 0
127 140 -142 0
55 140 -142 0
-128 -56 -142 143 0
-128 -56 142 -143 0
-128 56 -142 -143 0
-128 56 142 143 0
128 -56 -142 -143 0
128 -56 142 143 0
128 56 -142 143 0
128 56 142 -143 0
-128 -56 144 0
-128 -142 144 0
-56 -142 144 0
128 56 -144 0
128 142 -144 0
56 142 -144 0
-145 131 57 0
-145 -131 -57 0
145 -131 57 0
145 131 -57 0
-146 131 0
-146 57 0
146 -131 -57 0
-133 -58 -146 147 0
-133 -58 146 -147 0
-133 58 -146 -147 0
-133 58 146 147 0
133 -58 -146 -147 0
133 -58 146 147 0
133 58 -146 147 0
133 58 146 -147 0
-133 -58 148 0
-133 -146 148 0
-58 -146 148 0
133 58 -148 0
133 146 -148 0
58 146 -148 0
-135 -59 -148 149 0
-135 -59 148 -149 0
-135 59 -148 -149 0
-135 59 148 149 0
135 -59 -148 -149 0
135 -59 148 149 0
135 59 -148 149 0
135 59 148 -149 0
-135 -59 150 0
-135 -148 150 0
-59 -148 150 0
135 59 -150 0
135 148 -150 0
59 148 -150 0
-137 -60 -150 151 0
-137 -60 150 -151 0
-137 60 -150 -151 0
-137 60 150 151 0
137 -60 -150 -151 0
137 -60 150 151 0
137 60 -150 151 0
137 60 150 -151 0
-137 -60 152 0
-137 -150 152 0
-60 -150 152 0
137 60 -152 0
137 150 -152 0
60 150 -152 0
-139 -61 -152 153 0
-139 -61 152 -153 0
-139 61 -152 -153 0
-139 61 152 153 0
139 -61 -152 -153 0
139 -61 152 153 0
139 61 -152 153 0
139 61 152 -153 0
-139 -61 154 0
-139 -152 154 0
-61 -152 154 0
139 61 -154 0
139 152 -154 0
61 152 -154 0
-141 -62 -154 155 0
-141 -62 154 -155 0
-141 62 -154 -155 0
-141 62 154 155 0
141 -62 -154 -155 0
141 -62 154 155 0
141 62 -154 155 0
141 62 154 -155 0
-141 -62 156 0
-141 -154 156 0
-62 -154 156 0
141 62 -156 0
141 154 -156 0
62 154 -156 0
-143 -63 -156 157 0
-143 -63 156 -157 0
-143 63 -156 -157 0
-143 63 156 157 0
143 -63 -156 -157 0
143 -63 156 157 0
143 63 -156 157 0
143 63 156 -157 0
-143 -63 158 0
-143 -156 158 0
-63 -156 158 0
143 63 -158 0
143 156 -158 0
63 156 -158 0
-144 -64 -158 159 0
-144 -64 158 -159 0
-144 64 -158 -159 0
-144 64 158 159 0
144 -64 -158 -159 0
144 -64 158 159 0
144 64 -158 159 0
144 64 158 -159 0
-144 -64 160 0
-144 -158 160 0
-64 -158 160 0
144 64 -160 0
144 158 -160 0
64 158 -160 0
-161 147 65 0
-161 -147 -65 0
161 -147 65 0
161 147 -65 0
-162 147 0
-162 65 0
162 -147 -65 0
-149 -66 -162 163 0
-149 -66 162 -163 0
-149 66 -162 -163 0
-149 66 162 163 0
149 -66 -162 -163 0
149 -66 162 163 0
149 66 -162 163 0
149 66 162 -163 0
-149 -66 164 0
-149 -162 164 0
-66 -162 164 0
149 66 -164 0
149 162 -164 0
66 162 -164 0
-151 -67 -164 165 0
-151 -67 164 -165 0
-151 67 -164 -165 0
-151 67 164 165 0
151 -67 -164 -165 0
151 -67 164 165 0
151 67 -164 165 0
151 67 164 -165 0
-151 -67 166 0
-151 -164 166 0
-67 -164 166 0
151 67 -166 0
151 164 -166 0
67 164 -166 0
-153 -68 -166 167 0
-153 -68 166 -167 0
-153 68 -166 -167 0
-153 68 166 167 0
153 -68 -166 -167 0
153 -68 166 167 0
153 68 -166 167 0
153 68 166 -167 0
-153 -68 168 0
-153 -166 168 0
-68 -166 168 0
153 68 -168 0
153 166 -168 0
68 166 -168 0
-155 -69 -168 169 0
-155 -69 168 -169 0
-155 69 -168 -169 0
-155 69 168 169 0
155 -69 -168 -169 0
155 -69 168 169 0
155 69 -168 169 0
155 69 168 -169 0
-155 -69 170 0
-155 -168 170 0
-69 -168 170 0
155 69 -170 0
155 168 -170 0
69 168 -170 0
-157 -70 -170 171 0
-157 -70 170 -171 0
-157 70 -170 -171 0
-157 70 170 171 0
157 -70 -170 -171 0
157 -70 170 171 0
157 70 -170 171 0
157 70 170 -171 0
-157 -70 172 0
-157 -170 172 0
-70 -170 172 0
157 70 -172 0
157 170 -172 0
70 170 -172 0
-159 -71 -172 173 0
-159 -71 172 -173 0
-159 71 -172 -173 0
-159 71 172 173 0
159 -71 -172 -173 0
159 -71 172 173 0
159 71 -172 173 0
159 71 172 -173 0
-159 -71 174 0
-159 -172 174 0
-71 -172 174 0
159 71 -174 0
159 172 -174 0
71 172 -174 0
-160 -72 -174 175 0
-160 -72 174 -175 0
-160 72 -174 -175 0
-160 72 174 175 0
160 -72 -174 -175 0
160 -72 174 175 0
160 72 -174 175 0
160 72 174 -175 0
-160 -72 176 0
-160 -174 176 0
-72 -174 176 0
160 72 -176 0
160 174 -176 0
72 174 -176 0
-177 163 73 0
-177 -163 -73 0
177 -163 73 0
177 163 -73 0
-178 163 0
-178 73 0
178 -163 -73 0
-165 -74 -178 179 0
-165 -74 178 -179 0
-165 74 -178 -179 0
-165 74 178 179 0
165 -74 -178 -179 0
165 -74 178 179 0
165 74 -178 179 0
165 74 178 -179 0
-165 -74 180 0
-165 -178 180 0
-74 -178 180 0
165 74 -180 0
165 178 -180 0
74 178 -180 0
-167 -75 -180 181 0
-167 -75 180 -181 0
-167 75 -180 -181 0
-167 75 180 181 0
167 -75 -180 -181 0
167 -75 180 181 0
167 75 -180 181 0
167 75 180 -181 0
-167 -75 182 0
-167 -180 182 0
-75 -180 182 0
167 75 -182 0
167 180 -182 0
75 180 -182 0
-169 -76 -182 183 0
-169 -76 182 -183 0
-169 76 -182 -183 0
-169 76 182 183 0
169 -76 -182 -183 0
169 -76 182 183 0
169 76 -182 183 0
169 76 182 -183 0
-169 -76 184 0
-169 -182 184 0
-76 -182 184 0
169 76 -184 0
169 182 -184 0
76 182 -184 0
-171 -77 -184 185 0
-171 -77 184 -185 0
-171 77 -184 -185 0
-171 77 184 185 0
171 -77 -184 -185 0
171 -77 184 185 0
171 77 -184 185 0
171 77 184 -185 0
-171 -77 186 0
-171 -184 186 0
-77 -184 186 0
171 77 -186 0
171 184 -186 0
77 184 -186 0
-173 -78 -186 187 0
-173 -78 186 -187 0
-173 78 -186 -187 0
-173 78 186 187 0
173 -78 -186 -187 0
173 -78 186 187 0
173 78 -186 187 0
173 78 186 -187 0
-173 -78 188 0
-173 -186 188 0
-78 -186 188 0
173 78 -188 0
173 186 -188 0
78 186 -188 0
-175 -79 -188 189 0
-175 -79 188 -189 0
-175 79 -188 -189 0
-175 79 188 189 0
175 -79 -188 -189 0
175 -79 188 189 0
175 79 -188 189 0
175 79 188 -189 0
-175 -79 190 0
-175 -188 190 0
-79 -188 190 0
175 79 -190 0
175 188 -190 0
79 188 -190 0
-176 -80 -190 191 0
-176 -80 190 -191 0
-176 80 -190 -191 0
-176 80 190 191 0
176 -80 -190 -191 0
176 -80 190 191 0
176 80 -190 191 0
176 80 190 -191 0
-176 -80 192 0
-176 -190 192 0
-80 -190 192 0
176 80 -192 0
176 190 -192 0
80 190 -192 0
17 0
81 0
97 0
-113 0
129 0
145 0
-161 0
-177 0
-179 0
181 0
183 0
-185 0
187 0
189 0
191 0
192 0
