c F6 factoring b=10 N=902089 prime (UNSAT by construction)
p cnf 300 1512
10 0
20 0
-21 1 0
-21 11 0
21 -1 -11 0
-22 2 0
-22 11 0
22 -2 -11 0
-23 3 0
-23 11 0
23 -3 -11 0
-24 4 0
-24 11 0
24 -4 -11 0
-25 5 0
-25 11 0
25 -5 -11 0
-26 6 0
-26 11 0
26 -6 -11 0
-27 7 0
-27 11 0
27 -7 -11 0
-28 8 0
-28 11 0
28 -8 -11 0
-29 9 0
-29 11 0
29 -9 -11 0
-30 10 0
-30 11 0
30 -10 -11 0
-31 1 0
-31 12 0
31 -1 -12 0
-32 2 0
-32 12 0
32 -2 -12 0
-33 3 0
-33 12 0
33 -3 -12 0
-34 4 0
-34 12 0
34 -4 -12 0
-35 5 0
-35 12 0
35 -5 -12 0
-36 6 0
-36 12 0
36 -6 -12 0
-37 7 0
-37 12 0
37 -7 -12 0
-38 8 0
-38 12 0
38 -8 -12 0
-39 9 0
-39 12 0
39 -9 -12 0
-40 10 0
-40 12 0
40 -10 -12 0
-41 1 0
-41 13 0
41 -1 -13 0
-42 2 0
-42 13 0
42 -2 -13 0
-43 3 0
-43 13 0
43 -3 -13 0
-44 4 0
-44 13 0
44 -4 -13 0
-45 5 0
-45 13 0
45 -5 -13 0
-46 6 0
-46 13 0
46 -6 -13 0
-47 7 0
-47 13 0
47 -7 -13 0
-48 8 0
-48 13 0
48 -8 -13 0
-49 9 0
-49 13 0
49 -9 -13 0
-50 10 0
-50 13 0
50 -10 -13 0
-51 1 0
-51 14 0
51 -1 -14 0
-52 2 0
-52 14 0
52 -2 -14 0
-53 3 0
-53 14 0
53 -3 -14 0
-54 4 0
-54 14 0
54 -4 -14 0
-55 5 0
-55 14 0
55 -5 -14 0
-56 6 0
-56 14 0
56 -6 -14 0
-57 7 0
-57 14 0
57 -7 -14 0
-58 8 0
-58 14 0
58 -8 -14 0
-59 9 0
-59 14 0
59 -9 -14 0
-60 10 0
-60 14 0
60 -10 -14 0
-61 1 0
-61 15 0
61 -1 -15 0
-62 2 0
-62 15 0
62 -2 -15 0
-63 3 0
-63 15 0
63 -3 -15 0
-64 4 0
-64 15 0
64 -4 -15 0
-65 5 0
-65 15 0
65 -5 -15 0
-66 6 0
-66 15 0
66 -6 -15 0
-67 7 0
-67 15 0
67 -7 -15 0
-68 8 0
-68 15 0
68 -8 -15 0
-69 9 0
-69 15 0
69 -9 -15 0
-70 10 0
-70 15 0
70 -10 -15 0
-71 1 0
-71 16 0
71 -1 -16 0
-72 2 0
-72 16 0
72 -2 -16 0
-73 3 0
-73 16 0
73 -3 -16 0
-74 4 0
-74 16 0
74 -4 -16 0
-75 5 0
-75 16 0
75 -5 -16 0
-76 6 0
-76 16 0
76 -6 -16 0
-77 7 0
-77 16 0
77 -7 -16 0
-78 8 0
-78 16 0
78 -8 -16 0
-79 9 0
-79 16 0
79 -9 -16 0
-80 10 0
-80 16 0
80 -10 -16 0
-81 1 0
-81 17 0
81 -1 -17 0
-82 2 0
-82 17 0
82 -2 -17 0
-83 3 0
-83 17 0
83 -3 -17 0
-84 4 0
-84 17 0
84 -4 -17 0
-85 5 0
-85 17 0
85 -5 -17 0
-86 6 0
-86 17 0
86 -6 -17 0
-87 7 0
-87 17 0
87 -7 -17 0
-88 8 0
-88 17 0
88 -8 -17 0
-89 9 0
-89 17 0
89 -9 -17 0
-90 10 0
-90 17 0
90 -10 -17 0
-91 1 0
-91 18 0
91 -1 -18 0
-92 2 0
-92 18 0
92 -2 -18 0
-93 3 0
-93 18 0
93 -3 -18 0
-94 4 0
-94 18 0
94 -4 -18 0
-95 5 0
-95 18 0
95 -5 -18 0
-96 6 0
-96 18 0
96 -6 -18 0
-97 7 0
-97 18 0
97 -7 -18 0
-98 8 0
-98 18 0
98 -8 -18 0
-99 9 0
-99 18 0
99 -9 -18 0
-100 10 0
-100 18 0
100 -10 -18 0
-101 1 0
-101 19 0
101 -1 -19 0
-102 2 0
-102 19 0
102 -2 -19 0
-103 3 0
-103 19 0
103 -3 -19 0
-104 4 0
-104 19 0
104 -4 -19 0
-105 5 0
-105 19 0
105 -5 -19 0
-106 6 0
-106 19 0
106 -6 -19 0
-107 7 0
-107 19 0
107 -7 -19 0
-108 8 0
-108 19 0
108 -8 -19 0
-109 9 0
-109 19 0
109 -9 -19 0
-110 10 0
-110 19 0
110 -10 -19 0
-111 1 0
-111 20 0
111 -1 -20 0
-112 2 0
-112 20 0
112 -2 -20 0
-113 3 0
-113 20 0
113 -3 -20 0
-114 4 0
-114 20 0
114 -4 -20 0
-115 5 0
-115 20 0
115 -5 -20 0
-116 6 0
-116 20 0
116 -6 -20 0
-117 7 0
-117 20 0
117 -7 -20 0
-118 8 0
-118 20 0
118 -8 -20 0
-119 9 0
-119 20 0
119 -9 -20 0
-120 10 0
-120 20 0
120 -10 -20 0
-121 22 31 0
-121 -22 -31 0
121 -22 31 0
121 22 -31 0
-122 22 0
-122 31 0
122 -22 -31 0
-23 -32 -122 123 0
-23 -32 122 -123 0
-23 32 -122 -123 0
-23 32 122 123 0
23 -32 -122 -123 0
23 -32 122 123 0
23 32 -122 123 0
23 32 122 -123 0
-23 -32 124 0
-23 -122 124 0
-32 -122 124 0
23 32 -124 0
23 122 -124 0
32 122 -124 0
-24 -33 -124 125 0
-24 -33 124 -125 0
-24 33 -124 -125 0
-24 33 124 125 0
24 -33 -124 -125 0
24 -33 124 125 0
24 33 -124 125 0
24 33 124 -125 0
-24 -33 126 0
-24 -124 126 0
-33 -124 126 0
24 33 -126 0
24 124 -126 0
33 124 -126 0
-25 -34 -126 127 0
-25 -34 126 -127 0
-25 34 -126 -127 0
-25 34 126 127 0
25 -34 -126 -127 0
25 -34 126 127 0
25 34 -126 127 0
25 34 126 -127 0
-25 -34 128 0
-25 -126 128 0
-34 -126 128 0
25 34 -128 0
25 126 -128 0
34 126 -128 0
-26 -35 -128 129 0
-26 -35 128 -129 0
-26 35 -128 -129 0
-26 35 128 129 0
26 -35 -128 -129 0
26 -35 128 129 0
26 35 -128 129 0
26 35 128 -129 0
-26 -35 130 0
-26 -128 130 0
-35 -128 130 0
26 35 -130 0
26 128 -130 0
35 128 -130 0
-27 -36 -130 131 0
-27 -36 130 -131 0
-27 36 -130 -131 0
-27 36 130 131 0
27 -36 -130 -131 0
27 -36 130 131 0
27 36 -130 131 0
27 36 130 -131 0
-27 -36 132 0
-27 -130 132 0
-36 -130 132 0
27 36 -132 0
27 130 -132 0
36 130 -132 0
-28 -37 -132 133 0
-28 -37 132 -133 0
-28 37 -132 -133 0
-28 37 132 133 0
28 -37 -132 -133 0
28 -37 132 133 0
28 37 -132 133 0
28 37 132 -133 0
-28 -37 134 0
-28 -132 134 0
-37 -132 134 0
28 37 -134 0
28 132 -134 0
37 132 -134 0
-29 -38 -134 135 0
-29 -38 134 -135 0
-29 38 -134 -135 0
-29 38 134 135 0
29 -38 -134 -135 0
29 -38 134 135 0
29 38 -134 135 0
29 38 134 -135 0
-29 -38 136 0
-29 -134 136 0
-38 -134 136 0
29 38 -136 0
29 134 -136 0
38 134 -136 0
-30 -39 -136 137 0
-30 -39 136 -137 0
-30 39 -136 -137 0
-30 39 136 137 0
30 -39 -136 -137 0
30 -39 136 137 0
30 39 -136 137 0
30 39 136 -137 0
-30 -39 138 0
-30 -136 138 0
-39 -136 138 0
30 39 -138 0
30 136 -138 0
39 136 -138 0
-139 40 138 0
-139 -40 -138 0
139 -40 138 0
139 40 -138 0
-140 40 0
-140 138 0
140 -40 -138 0
-141 123 41 0
-141 -123 -41 0
141 -123 41 0
141 123 -41 0
-142 123 0
-142 41 0
142 -123 -41 0
-125 -42 -142 143 0
-125 -42 142 -143 0
-125 42 -142 -143 0
-125 42 142 143 0
125 -42 -142 -143 0
125 -42 142 143 0
125 42 -142 143 0
125 42 142 -143 0
-125 -42 144 0
-125 -142 144 0
-42 -142 144 0
125 42 -144 0
125 142 -144 0
42 142 -144 0
-127 -43 -144 145 0
-127 -43 144 -145 0
-127 43 -144 -145 0
-127 43 144 145 0
127 -43 -144 -145 0
127 -43 144 145 0
127 43 -144 145 0
127 43 144 -145 0
-127 -43 146 0
-127 -144 146 0
-43 -144 146 0
127 43 -146 0
127 144 -146 0
43 144 -146 0
-129 -44 -146 147 0
-129 -44 146 -147 0
-129 44 -146 -147 0
-129 44 146 147 0
129 -44 -146 -147 0
129 -44 146 147 0
129 44 -146 147 0
129 44 146 -147 0
-129 -44 148 0
-129 -146 148 0
-44 -146 148 0
129 44 -148 0
129 146 -148 0
44 146 -148 0
-131 -45 -148 149 0
-131 -45 148 -149 0
-131 45 -148 -149 0
-131 45 148 149 0
131 -45 -148 -149 0
131 -45 148 149 0
131 45 -148 149 0
131 45 148 -149 0
-131 -45 150 0
-131 -148 150 0
-45 -148 150 0
131 45 -150 0
131 148 -150 0
45 148 -150 0
-133 -46 -150 151 0
-133 -46 150 -151 0
-133 46 -150 -151 0
-133 46 150 151 0
133 -46 -150 -151 0
133 -46 150 151 0
133 46 -150 151 0
133 46 150 -151 0
-133 -46 152 0
-133 -150 152 0
-46 -150 152 0
133 46 -152 0
133 150 -152 0
46 150 -152 0
-135 -47 -152 153 0
-135 -47 152 -153 0
-135 47 -152 -153 0
-135 47 152 153 0
135 -47 -152 -153 0
135 -47 152 153 0
135 47 -152 153 0
135 47 152 -153 0
-135 -47 154 0
-135 -152 154 0
-47 -152 154 0
135 47 -154 0
135 152 -154 0
47 152 -154 0
-137 -48 -154 155 0
-137 -48 154 -155 0
-137 48 -154 -155 0
-137 48 154 155 0
137 -48 -154 -155 0
137 -48 154 155 0
137 48 -154 155 0
137 48 154 -155 0
-137 -48 156 0
-137 -154 156 0
-48 -154 156 0
137 48 -156 0
137 154 -156 0
48 154 -156 0
-139 -49 -156 157 0
-139 -49 156 -157 0
-139 49 -156 -157 0
-139 49 156 157 0
139 -49 -156 -157 0
139 -49 156 157 0
139 49 -156 157 0
139 49 156 -157 0
-139 -49 158 0
-139 -156 158 0
-49 -156 158 0
139 49 -158 0
139 156 -158 0
49 156 -158 0
-140 -50 -158 159 0
-140 -50 158 -159 0
-140 50 -158 -159 0
-140 50 158 159 0
140 -50 -158 -159 0
140 -50 158 159 0
140 50 -158 159 0
140 50 158 -159 0
-140 -50 160 0
-140 -158 160 0
-50 -158 160 0
140 50 -160 0
140 158 -160 0
50 158 -160 0
-161 143 51 0
-161 -143 -51 0
161 -143 51 0
161 143 -51 0
-162 143 0
-162 51 0
162 -143 -51 0
-145 -52 -162 163 0
-145 -52 162 -163 0
-145 52 -162 -163 0
-145 52 162 163 0
145 -52 -162 -163 0
145 -52 162 163 0
145 52 -162 163 0
145 52 162 -163 0
-145 -52 164 0
-145 -162 164 0
-52 -162 164 0
145 52 -164 0
145 162 -164 0
52 162 -164 0
-147 -53 -164 165 0
-147 -53 164 -165 0
-147 53 -164 -165 0
-147 53 164 165 0
147 -53 -164 -165 0
147 -53 164 165 0
147 53 -164 165 0
147 53 164 -165 0
-147 -53 166 0
-147 -164 166 0
-53 -164 166 0
147 53 -166 0
147 164 -166 0
53 164 -166 0
-149 -54 -166 167 0
-149 -54 166 -167 0
-149 54 -166 -167 0
-149 54 166 167 0
149 -54 -166 -167 0
149 -54 166 167 0
149 54 -166 167 0
149 54 166 -167 0
-149 -54 168 0
-149 -166 168 0
-54 -166 168 0
149 54 -168 0
149 166 -168 0
54 166 -168 0
-151 -55 -168 169 0
-151 -55 168 -169 0
-151 55 -168 -169 0
-151 55 168 169 0
151 -55 -168 -169 0
151 -55 168 169 0
151 55 -168 169 0
151 55 168 -169 0
-151 -55 170 0
-151 -168 170 0
-55 -168 170 0
151 55 -170 0
151 168 -170 0
55 168 -170 0
-153 -56 -170 171 0
-153 -56 170 -171 0
-153 56 -170 -171 0
-153 56 170 171 0
153 -56 -170 -171 0
153 -56 170 171 0
153 56 -170 171 0
153 56 170 -171 0
-153 -56 172 0
-153 -170 172 0
-56 -170 172 0
153 56 -172 0
153 170 -172 0
56 170 -172 0
-155 -57 -172 173 0
-155 -57 172 -173 0
-155 57 -172 -173 0
-155 57 172 173 0
155 -57 -172 -173 0
155 -57 172 173 0
155 57 -172 173 0
155 57 172 -173 0
-155 -57 174 0
-155 -172 174 0
-57 -172 174 0
155 57 -174 0
155 172 -174 0
57 172 -174 0
-157 -58 -174 175 0
-157 -58 174 -175 0
-157 58 -174 -175 0
-157 58 174 175 0
157 -58 -174 -175 0
157 -58 174 175 0
157 58 -174 175 0
157 58 174 -175 0
-157 -58 176 0
-157 -174 176 0
-58 -174 176 0
157 58 -176 0
157 174 -176 0
58 174 -176 0
-159 -59 -176 177 0
-159 -59 176 -177 0
-159 59 -176 -177 0
-159 59 176 177 0
159 -59 -176 -177 0
159 -59 176 177 0
159 59 -176 177 0
159 59 176 -177 0
-159 -59 178 0
-159 -176 178 0
-59 -176 178 0
159 59 -178 0
159 176 -178 0
59 176 -178 0
-160 -60 -178 179 0
-160 -60 178 -179 0
-160 60 -178 -179 0
-160 60 178 179 0
160 -60 -178 -179 0
160 -60 178 179 0
160 60 -178 179 0
160 60 178 -179 0
-160 -60 180 0
-160 -178 180 0
-60 -178 180 0
160 60 -180 0
160 178 -180 0
60 178 -180 0
-181 163 61 0
-181 -163 -61 0
181 -163 61 0
181 163 -61 0
-182 163 0
-182 61 0
182 -163 -61 0
-165 -62 -182 183 0
-165 -62 182 -183 0
-165 62 -182 -183 0
-165 62 182 183 0
165 -62 -182 -183 0
165 -62 182 183 0
165 62 -182 183 0
165 62 182 -183 0
-165 -62 184 0
-165 -182 184 0
-62 -182 184 0
165 62 -184 0
165 182 -184 0
62 182 -184 0
-167 -63 -184 185 0
-167 -63 184 -185 0
-167 63 -184 -185 0
-167 63 184 185 0
167 -63 -184 -185 0
167 -63 184 185 0
167 63 -184 185 0
167 63 184 -185 0
-167 -63 186 0
-167 -184 186 0
-63 -184 186 0
167 63 -186 0
167 184 -186 0
63 184 -186 0
-169 -64 -186 187 0
-169 -64 186 -187 0
-169 64 -186 -187 0
-169 64 186 187 0
169 -64 -186 -187 0
169 -64 186 187 0
169 64 -186 187 0
169 64 186 -187 0
-169 -64 188 0
-169 -186 188 0
-64 -186 188 0
169 64 -188 0
169 186 -188 0
64 186 -188 0
-171 -65 -188 189 0
-171 -65 188 -189 0
-171 65 -188 -189 0
-171 65 188 189 0
171 -65 -188 -189 0
171 -65 188 189 0
171 65 -188 189 0
171 65 188 -189 0
-171 -65 190 0
-171 -188 190 0
-65 -188 190 0
171 65 -190 0
171 188 -190 0
65 188 -190 0
-173 -66 -190 191 0
-173 -66 190 -191 0
-173 66 -190 -191 0
-173 66 190 191 0
173 -66 -190 -191 0
173 -66 190 191 0
173 66 -190 191 0
173 66 190 -191 0
-173 -66 192 0
-173 -190 192 0
-66 -190 192 0
173 66 -192 0
173 190 -192 0
66 190 -192 0
-175 -67 -192 193 0
-175 -67 192 -193 0
-175 67 -192 -193 0
-175 67 192 193 0
175 -67 -192 -193 0
175 -67 192 193 0
175 67 -192 193 0
175 67 192 -193 0
-175 -67 194 0
-175 -192 194 0
-67 -192 194 0
175 67 -194 0
175 192 -194 0
67 192 -194 0
-177 -68 -194 195 0
-177 -68 194 -195 0
-177 68 -194 -195 0
-177 68 194 195 0
177 -68 -194 -195 0
177 -68 194 195 0
177 68 -194 195 0
177 68 194 -195 0
-177 -68 196 0
-177 -194 196 0
-68 -194 196 0
177 68 -196 0
177 194 -196 0
68 194 -196 0
-179 -69 -196 197 0
-179 -69 196 -197 0
-179 69 -196 -197 0
-179 69 196 197 0
179 -69 -196 -197 0
179 -69 196 197 0
179 69 -196 197 0
179 69 196 -197 0
-179 -69 198 0
-179 -196 198 0
-69 -196 198 0
179 69 -198 0
179 196 -198 0
69 196 -198 0
-180 -70 -198 199 0
-180 -70 198 -199 0
-180 70 -198 -199 0
-180 70 198 199 0
180 -70 -198 -199 0
180 -70 198 199 0
180 70 -198 199 0
180 70 198 -199 0
-180 -70 200 0
-180 -198 200 0
-70 -198 200 0
180 70 -200 0
180 198 -200 0
70 198 -200 0
-201 183 71 0
-201 -183 -71 0
201 -183 71 0
201 183 -71 0
-202 183 0
-202 71 0
202 -183 -71 0
-185 -72 -202 203 0
-185 -72 202 -203 0
-185 72 -202 -203 0
-185 72 202 203 0
185 -72 -202 -203 0
185 -72 202 203 0
185 72 -202 203 0
185 72 202 -203 0
-185 -72 204 0
-185 -202 204 0
-72 -202 204 0
185 72 -204 0
185 202 -204 0
72 202 -204 0
-187 -73 -204 205 0
-187 -73 204 -205 0
-187 73 -204 -205 0
-187 73 204 205 0
187 -73 -204 -205 0
187 -73 204 205 0
187 73 -204 205 0
187 73 204 -205 0
-187 -73 206 0
-187 -204 206 0
-73 -204 206 0
187 73 -206 0
187 204 -206 0
73 204 -206 0
-189 -74 -206 207 0
-189 -74 206 -207 0
-189 74 -206 -207 0
-189 74 206 207 0
189 -74 -206 -207 0
189 -74 206 207 0
189 74 -206 207 0
189 74 206 -207 0
-189 -74 208 0
-189 -206 208 0
-74 -206 208 0
189 74 -208 0
189 206 -208 0
74 206 -208 0
-191 -75 -208 209 0
-191 -75 208 -209 0
-191 75 -208 -209 0
-191 75 208 209 0
191 -75 -208 -209 0
191 -75 208 209 0
191 75 -208 209 0
191 75 208 -209 0
-191 -75 210 0
-191 -208 210 0
-75 -208 210 0
191 75 -210 0
191 208 -210 0
75 208 -210 0
-193 -76 -210 211 0
-193 -76 210 -211 0
-193 76 -210 -211 0
-193 76 210 211 0
193 -76 -210 -211 0
193 -76 210 211 0
193 76 -210 211 0
193 76 210 -211 0
-193 -76 212 0
-193 -210 212 0
-76 -210 212 0
193 76 -212 0
193 210 -212 0
76 210 -212 0
-195 -77 -212 213 0
-195 -77 212 -213 0
-195 77 -212 -213 0
-195 77 212 213 0
195 -77 -212 -213 0
195 -77 212 213 0
195 77 -212 213 0
195 77 212 -213 0
-195 -77 214 0
-195 -212 214 0
-77 -212 214 0
195 77 -214 0
195 212 -214 0
77 212 -214 0
-197 -78 -214 215 0
-197 -78 214 -215 0
-197 78 -214 -215 0
-197 78 214 215 0
197 -78 -214 -215 0
197 -78 214 215 0
197 78 -214 215 0
197 78 214 -215 0
-197 -78 216 0
-197 -214 216 0
-78 -214 216 0
197 78 -216 0
197 214 -216 0
78 214 -216 0
-199 -79 -216 217 0
-199 -79 216 -217 0
-199 79 -216 -217 0
-199 79 216 217 0
199 -79 -216 -217 0
199 -79 216 217 0
199 79 -216 217 0
199 79 216 -217 0
-199 -79 218 0
-199 -216 218 0
-79 -216 218 0
199 79 -218 0
199 216 -218 0
79 216 -218 0
-200 -80 -218 219 0
-200 -80 218 -219 0
-200 80 -218 -219 0
-200 80 218 219 0
200 -80 -218 -219 0
200 -80 218 219 0
200 80 -218 219 0
200 80 218 -219 0
-200 -80 220 0
-200 -218 220 0
-80 -218 220 0
200 80 -220 0
200 218 -220 0
80 218 -220 0
-221 203 81 0
-221 -203 -81 0
221 -203 81 0
221 203 -81 0
-222 203 0
-222 81 0
222 -203 -81 0
-205 -82 -222 223 0
-205 -82 222 -223 0
-205 82 -222 -223 0
-205 82 222 223 0
205 -82 -222 -223 0
205 -82 222 223 0
205 82 -222 223 0
205 82 222 -223 0
-205 -82 224 0
-205 -222 224 0
-82 -222 224 0
205 82 -224 0
205 222 -224 0
82 222 -224 0
-207 -83 -224 225 0
-207 -83 224 -225 0
-207 83 -224 -225 0
-207 83 224 225 0
207 -83 -224 -225 0
207 -83 224 225 0
207 83 -224 225 0
207 83 224 -225 0
-207 -83 226 0
-207 -224 226 0
-83 -224 226 0
207 83 -226 0
207 224 -226 0
83 224 -226 0
-209 -84 -226 227 0
-209 -84 226 -227 0
-209 84 -226 -227 0
-209 84 226 227 0
209 -84 -226 -227 0
209 -84 226 227 0
209 84 -226 227 0
209 84 226 -227 0
-209 -84 228 0
-209 -226 228 0
-84 -226 228 0
209 84 -228 0
209 226 -228 0
84 226 -228 0
-211 -85 -228 229 0
-211 -85 228 -229 0
-211 85 -228 -229 0
-211 85 228 229 0
211 -85 -228 -229 0
211 -85 228 229 0
211 85 -228 229 0
211 85 228 -229 0
-211 -85 230 0
-211 -228 230 0
-85 -228 230 0
211 85 -230 0
211 228 -230 0
85 228 -230 0
-213 -86 -230 231 0
-213 -86 230 -231 0
-213 86 -230 -231 0
-213 86 230 231 0
213 -86 -230 -231 0
213 -86 230 231 0
213 86 -230 231 0
213 86 230 -231 0
-213 -86 232 0
-213 -230 232 0
-86 -230 232 0
213 86 -232 0
213 230 -232 0
86 230 -232 0
-215 -87 -232 233 0
-215 -87 232 -233 0
-215 87 -232 -233 0
-215 87 232 233 0
215 -87 -232 -233 0
215 -87 232 233 0
215 87 -232 233 0
215 87 232 -233 0
-215 -87 234 0
-215 -232 234 0
-87 -232 234 0
215 87 -234 0
215 232 -234 0
87 232 -234 0
-217 -88 -234 235 0
-217 -88 234 -235 0
-217 88 -234 -235 0
-217 88 234 235 0
217 -88 -234 -235 0
217 -88 234 235 0
217 88 -234 235 0
217 88 234 -235 0
-217 -88 236 0
-217 -234 236 0
-88 -234 236 0
217 88 -236 0
217 234 -236 0
88 234 -236 0
-219 -89 -236 237 0
-219 -89 236 -237 0
-219 89 -236 -237 0
-219 89 236 237 0
219 -89 -236 -237 0
219 -89 236 237 0
219 89 -236 237 0
219 89 236 -237 0
-219 -89 238 0
-219 -236 238 0
-89 -236 238 0
219 89 -238 0
219 236 -238 0
89 236 -238 0
-220 -90 -238 239 0
-220 -90 238 -239 0
-220 90 -238 -239 0
-220 90 238 239 0
220 -90 -238 -239 0
220 -90 238 239 0
220 90 -238 239 0
220 90 238 -239 0
-220 -90 240 0
-220 -238 240 0
-90 -238 240 0
220 90 -240 0
220 238 -240 0
90 238 -240 0
-241 223 91 0
-241 -223 -91 0
241 -223 91 0
241 223 -91 0
-242 223 0
-242 91 0
242 -223 -91 0
-225 -92 -242 243 0
-225 -92 242 -243 0
-225 92 -242 -243 0
-225 92 242 243 0
225 -92 -242 -243 0
225 -92 242 243 0
225 92 -242 243 0
225 92 242 -243 0
-225 -92 244 0
-225 -242 244 0
-92 -242 244 0
225 92 -244 0
225 242 -244 0
92 242 -244 0
-227 -93 -244 245 0
-227 -93 244 -245 0
-227 93 -244 -245 0
-227 93 244 245 0
227 -93 -244 -245 0
227 -93 244 245 0
227 93 -244 245 0
227 93 244 -245 0
-227 -93 246 0
-227 -244 246 0
-93 -244 246 0
227 93 -246 0
227 244 -246 0
93 244 -246 0
-229 -94 -246 247 0
-229 -94 246 -247 0
-229 94 -246 -247 0
-229 94 246 247 0
229 -94 -246 -247 0
229 -94 246 247 0
229 94 -246 247 0
229 94 246 -247 0
-229 -94 248 0
-229 -246 248 0
-94 -246 248 0
229 94 -248 0
229 246 -248 0
94 246 -248 0
-231 -95 -248 249 0
-231 -95 248 -249 0
-231 95 -248 -249 0
-231 95 248 249 0
231 -95 -248 -249 0
231 -95 248 249 0
231 95 -248 249 0
231 95 248 -249 0
-231 -95 250 0
-231 -248 250 0
-95 -248 250 0
231 95 -250 0
231 248 -250 0
95 248 -250 0
-233 -96 -250 251 0
-233 -96 250 -251 0
-233 96 -250 -251 0
-233 96 250 251 0
233 -96 -250 -251 0
233 -96 250 251 0
233 96 -250 251 0
233 96 250 -251 0
-233 -96 252 0
-233 -250 252 0
-96 -250 252 0
233 96 -252 0
233 250 -252 0
96 250 -252 0
-235 -97 -252 253 0
-235 -97 252 -253 0
-235 97 -252 -253 0
-235 97 252 253 0
235 -97 -252 -253 0
235 -97 252 253 0
235 97 -252 253 0
235 97 252 -253 0
-235 -97 254 0
-235 -252 254 0
-97 -252 254 0
235 97 -254 0
235 252 -254 0
97 252 -254 0
-237 -98 -254 255 0
-237 -98 254 -255 0
-237 98 -254 -255 0
-237 98 254 255 0
237 -98 -254 -255 0
237 -98 254 255 0
237 98 -254 255 0
237 98 254 -255 0
-237 -98 256 0
-237 -254 256 0
-98 -254 256 0
237 98 -256 0
237 254 -256 0
98 254 -256 0
-239 -99 -256 257 0
-239 -99 256 -257 0
-239 99 -256 -257 0
-239 99 256 257 0
239 -99 -256 -257 0
239 -99 256 257 0
239 99 -256 257 0
239 99 256 -257 0
-239 -99 258 0
-239 -256 258 0
-99 -256 258 0
239 99 -258 0
239 256 -258 0
99 256 -258 0
-240 -100 -258 259 0
-240 -100 258 -259 0
-240 100 -258 -259 0
-240 100 258 259 0
240 -100 -258 -259 0
240 -100 258 259 0
240 100 -258 259 0
240 100 258 -259 0
-240 -100 260 0
-240 -258 260 0
-100 -258 260 0
240 100 -260 0
240 258 -260 0
100 258 -260 0
-261 243 101 0
-261 -243 -101 0
261 -243 101 0
261 243 -101 0
-262 243 0
-262 101 0
262 -243 -101 0
-245 -102 -262 263 0
-245 -102 262 -263 0
-245 102 -262 -263 0
-245 102 262 263 0
245 -102 -262 -263 0
245 -102 262 263 0
245 102 -262 263 0
245 102 262 -263 0
-245 -102 264 0
-245 -262 264 0
-102 -262 264 0
245 102 -264 0
245 262 -264 0
102 262 -264 0
-247 -103 -264 265 0
-247 -103 264 -265 0
-247 103 -264 -265 0
-247 103 264 265 0
247 -103 -264 -265 0
247 -103 264 265 0
247 103 -264 265 0
247 103 264 -265 0
-247 -103 266 0
-247 -264 266 0
-103 -264 266 0
247 103 -266 0
247 264 -266 0
103 264 -266 0
-249 -104 -266 267 0
-249 -104 266 -267 0
-249 104 -266 -267 0
-249 104 266 267 0
249 -104 -266 -267 0
249 -104 266 267 0
249 104 -266 267 0
249 104 266 -267 0
-249 -104 268 0
-249 -266 268 0
-104 -266 268 0
249 104 -268 0
249 266 -268 0
104 266 -268 0
-251 -105 -268 269 0
-251 -105 268 -269 0
-251 105 -268 -269 0
-251 105 268 269 0
251 -105 -268 -269 0
251 -105 268 269 0
251 105 -268 269 0
251 105 268 -269 0
-251 -105 270 0
-251 -268 270 0
-105 -268 270 0
251 105 -270 0
251 268 -270 0
105 268 -270 0
-253 -106 -270 271 0
-253 -106 270 -271 0
-253 106 -270 -271 0
-253 106 270 271 0
253 -106 -270 -271 0
253 -106 270 271 0
253 106 -270 271 0
253 106 270 -271 0
-253 -106 272 0
-253 -270 272 0
-106 -270 272 0
253 106 -272 0
253 270 -272 0
106 270 -272 0
-255 -107 -272 273 0
-255 -107 272 -273 0
-255 107 -272 -273 0
-255 107 272 273 0
255 -107 -272 -273 0
255 -107 272 273 0
255 107 -272 273 0
255 107 272 -273 0
-255 -107 274 0
-255 -272 274 0
-107 -272 274 0
255 107 -274 0
255 272 -274 0
107 272 -274 0
-257 -108 -274 275 0
-257 -108 274 -275 0
-257 108 -274 -275 0
-257 108 274 275 0
257 -108 -274 -275 0
257 -108 274 275 0
257 108 -274 275 0
257 108 274 -275 0
-257 -108 276 0
-257 -274 276 0
-108 -274 276 0
257 108 -276 0
257 274 -276 0
108 274 -276 0
-259 -109 -276 277 0
-259 -109 276 -277 0
-259 109 -276 -277 0
-259 109 276 277 0
259 -109 -276 -277 0
259 -109 276 277 0
259 109 -276 277 0
259 109 276 -277 0
-259 -109 278 0
-259 -276 278 0
-109 -276 278 0
259 109 -278 0
259 276 -278 0
109 276 -278 0
-260 -110 -278 279 0
-260 -110 278 -279 0
-260 110 -278 -279 0
-260 110 278 279 0
260 -110 -278 -279 0
260 -110 278 279 0
260 110 -278 279 0
260 110 278 -279 0
-260 -110 280 0
-260 -278 280 0
-110 -278 280 0
260 110 -280 0
260 278 -280 0
110 278 -280 0
-281 263 111 0
-281 -263 -111 0
281 -263 111 0
281 263 -111 0
-282 263 0
-282 111 0
282 -263 -111 0
-265 -112 -282 283 0
-265 -112 282 -283 0
-265 112 -282 -283 0
-265 112 282 283 0
265 -112 -282 -283 0
265 -112 282 283 0
265 112 -282 283 0
265 112 282 -283 0
-265 -112 284 0
-265 -282 284 0
-112 -282 284 0
265 112 -284 0
265 282 -284 0
112 282 -284 0
-267 -113 -284 285 0
-267 -113 284 -285 0
-267 113 -284 -285 0
-267 113 284 285 0
267 -113 -284 -285 0
267 -113 284 285 0
267 113 -284 285 0
267 113 284 -285 0
-267 -113 286 0
-267 -284 286 0
-113 -284 286 0
267 113 -286 0
267 284 -286 0
113 284 -286 0
-269 -114 -286 287 0
-269 -114 286 -287 0
-269 114 -286 -287 0
-269 114 286 287 0
269 -114 -286 -287 0
269 -114 286 287 0
269 114 -286 287 0
269 114 286 -287 0
-269 -114 288 0
-269 -286 288 0
-114 -286 288 0
269 114 -288 0
269 286 -288 0
114 286 -288 0
-271 -115 -288 289 0
-271 -115 288 -289 0
-271 115 -288 -289 0
-271 115 288 289 0
271 -115 -288 -289 0
271 -115 288 289 0
271 115 -288 289 0
271 115 288 -289 0
-271 -115 290 0
-271 -288 290 0
-115 -288 290 0
271 115 -290 0
271 288 -290 0
115 288 -290 0
-273 -116 -290 291 0
-273 -116 290 -291 0
-273 116 -290 -291 0
-273 116 290 291 0
273 -116 -290 -291 0
273 -116 290 291 0
273 116 -290 291 0
273 116 290 -291 0
-273 -116 292 0
-273 -290 292 0
-116 -290 292 0
273 116 -292 0
273 290 -292 0
116 290 -292 0
-275 -117 -292 293 0
-275 -117 292 -293 0
-275 117 -292 -293 0
-275 117 292 293 0
275 -117 -292 -293 0
275 -117 292 293 0
275 117 -292 293 0
275 117 292 -293 0
-275 -117 294 0
-275 -292 294 0
-117 -292 294 0
275 117 -294 0
275 292 -294 0
117 292 -294 0
-277 -118 -294 295 0
-277 -118 294 -295 0
-277 118 -294 -295 0
-277 118 294 295 0
277 -118 -294 -295 0
277 -118 294 295 0
277 118 -294 295 0
277 118 294 -295 0
-277 -118 296 0
-277 -294 296 0
-118 -294 296 0
277 118 -296 0
277 294 -296 0
118 294 -296 0
-279 -119 -296 297 0
-279 -119 296 -297 0
-279 119 -296 -297 0
-279 119 296 297 0
279 -119 -296 -297 0
279 -119 296 297 0
279 119 -296 297 0
279 119 296 -297 0
-279 -119 298 0
-279 -296 298 0
-119 -296 298 0
279 119 -298 0
279 296 -298 0
119 296 -298 0
-280 -120 -298 299 0
-280 -120 298 -299 0
-280 120 -298 -299 0
-280 120 298 299 0
280 -120 -298 -299 0
280 -120 298 299 0
280 120 -298 299 0
280 120 298 -299 0
-280 -120 300 0
-280 -298 300 0
-120 -298 300 0
280 120 -300 0
280 298 -300 0
120 298 -300 0
21 0
-121 0
-141 0
161 0
-181 0
-201 0
221 0
241 0
261 0
281 0
-283 0
-285 0
-287 0
-289 0
291 0
293 0
295 0
-297 0
299 0
300 0
