c F6 factoring b=20 N=721730367697 prime (UNSAT by construction)
p cnf 1200 6422
20 0
40 0
-41 1 0
-41 21 0
41 -1 -21 0
-42 2 0
-42 21 0
42 -2 -21 0
-43 3 0
-43 21 0
43 -3 -21 0
-44 4 0
-44 21 0
44 -4 -21 0
-45 5 0
-45 21 0
45 -5 -21 0
-46 6 0
-46 21 0
46 -6 -21 0
-47 7 0
-47 21 0
47 -7 -21 0
-48 8 0
-48 21 0
48 -8 -21 0
-49 9 0
-49 21 0
49 -9 -21 0
-50 10 0
-50 21 0
50 -10 -21 0
-51 11 0
-51 21 0
51 -11 -21 0
-52 12 0
-52 21 0
52 -12 -21 0
-53 13 0
-53 21 0
53 -13 -21 0
-54 14 0
-54 21 0
54 -14 -21 0
-55 15 0
-55 21 0
55 -15 -21 0
-56 16 0
-56 21 0
56 -16 -21 0
-57 17 0
-57 21 0
57 -17 -21 0
-58 18 0
-58 21 0
58 -18 -21 0
-59 19 0
-59 21 0
59 -19 -21 0
-60 20 0
-60 21 0
60 -20 -21 0
-61 1 0
-61 22 0
61 -1 -22 0
-62 2 0
-62 22 0
62 -2 -22 0
-63 3 0
-63 22 0
63 -3 -22 0
-64 4 0
-64 22 0
64 -4 -22 0
-65 5 0
-65 22 0
65 -5 -22 0
-66 6 0
-66 22 0
66 -6 -22 0
-67 7 0
-67 22 0
67 -7 -22 0
-68 8 0
-68 22 0
68 -8 -22 0
-69 9 0
-69 22 0
69 -9 -22 0
-70 10 0
-70 22 0
70 -10 -22 0
-71 11 0
-71 22 0
71 -11 -22 0
-72 12 0
-72 22 0
72 -12 -22 0
-73 13 0
-73 22 0
73 -13 -22 0
-74 14 0
-74 22 0
74 -14 -22 0
-75 15 0
-75 22 0
75 -15 -22 0
-76 16 0
-76 22 0
76 -16 -22 0
-77 17 0
-77 22 0
77 -17 -22 0
-78 18 0
-78 22 0
78 -18 -22 0
-79 19 0
-79 22 0
79 -19 -22 0
-80 20 0
-80 22 0
80 -20 -22 0
-81 1 0
-81 23 0
81 -1 -23 0
-82 2 0
-82 23 0
82 -2 -23 0
-83 3 0
-83 23 0
83 -3 -23 0
-84 4 0
-84 23 0
84 -4 -23 0
-85 5 0
-85 23 0
85 -5 -23 0
-86 6 0
-86 23 0
86 -6 -23 0
-87 7 0
-87 23 0
87 -7 -23 0
-88 8 0
-88 23 0
88 -8 -23 0
-89 9 0
-89 23 0
89 -9 -23 0
-90 10 0
-90 23 0
90 -10 -23 0
-91 11 0
-91 23 0
91 -11 -23 0
-92 12 0
-92 23 0
92 -12 -23 0
-93 13 0
-93 23 0
93 -13 -23 0
-94 14 0
-94 23 0
94 -14 -23 0
-95 15 0
-95 23 0
95 -15 -23 0
-96 16 0
-96 23 0
96 -16 -23 0
-97 17 0
-97 23 0
97 -17 -23 0
-98 18 0
-98 23 0
98 -18 -23 0
-99 19 0
-99 23 0
99 -19 -23 0
-100 20 0
-100 23 0
100 -20 -23 0
-101 1 0
-101 24 0
101 -1 -24 0
-102 2 0
-102 24 0
102 -2 -24 0
-103 3 0
-103 24 0
103 -3 -24 0
-104 4 0
-104 24 0
104 -4 -24 0
-105 5 0
-105 24 0
105 -5 -24 0
-106 6 0
-106 24 0
106 -6 -24 0
-107 7 0
-107 24 0
107 -7 -24 0
-108 8 0
-108 24 0
108 -8 -24 0
-109 9 0
-109 24 0
109 -9 -24 0
-110 10 0
-110 24 0
110 -10 -24 0
-111 11 0
-111 24 0
111 -11 -24 0
-112 12 0
-112 24 0
112 -12 -24 0
-113 13 0
-113 24 0
113 -13 -24 0
-114 14 0
-114 24 0
114 -14 -24 0
-115 15 0
-115 24 0
115 -15 -24 0
-116 16 0
-116 24 0
116 -16 -24 0
-117 17 0
-117 24 0
117 -17 -24 0
-118 18 0
-118 24 0
118 -18 -24 0
-119 19 0
-119 24 0
119 -19 -24 0
-120 20 0
-120 24 0
120 -20 -24 0
-121 1 0
-121 25 0
121 -1 -25 0
-122 2 0
-122 25 0
122 -2 -25 0
-123 3 0
-123 25 0
123 -3 -25 0
-124 4 0
-124 25 0
124 -4 -25 0
-125 5 0
-125 25 0
125 -5 -25 0
-126 6 0
-126 25 0
126 -6 -25 0
-127 7 0
-127 25 0
127 -7 -25 0
-128 8 0
-128 25 0
128 -8 -25 0
-129 9 0
-129 25 0
129 -9 -25 0
-130 10 0
-130 25 0
130 -10 -25 0
-131 11 0
-131 25 0
131 -11 -25 0
-132 12 0
-132 25 0
132 -12 -25 0
-133 13 0
-133 25 0
133 -13 -25 0
-134 14 0
-134 25 0
134 -14 -25 0
-135 15 0
-135 25 0
135 -15 -25 0
-136 16 0
-136 25 0
136 -16 -25 0
-137 17 0
-137 25 0
137 -17 -25 0
-138 18 0
-138 25 0
138 -18 -25 0
-139 19 0
-139 25 0
139 -19 -25 0
-140 20 0
-140 25 0
140 -20 -25 0
-141 1 0
-141 26 0
141 -1 -26 0
-142 2 0
-142 26 0
142 -2 -26 0
-143 3 0
-143 26 0
143 -3 -26 0
-144 4 0
-144 26 0
144 -4 -26 0
-145 5 0
-145 26 0
145 -5 -26 0
-146 6 0
-146 26 0
146 -6 -26 0
-147 7 0
-147 26 0
147 -7 -26 0
-148 8 0
-148 26 0
148 -8 -26 0
-149 9 0
-149 26 0
149 -9 -26 0
-150 10 0
-150 26 0
150 -10 -26 0
-151 11 0
-151 26 0
151 -11 -26 0
-152 12 0
-152 26 0
152 -12 -26 0
-153 13 0
-153 26 0
153 -13 -26 0
-154 14 0
-154 26 0
154 -14 -26 0
-155 15 0
-155 26 0
155 -15 -26 0
-156 16 0
-156 26 0
156 -16 -26 0
-157 17 0
-157 26 0
157 -17 -26 0
-158 18 0
-158 26 0
158 -18 -26 0
-159 19 0
-159 26 0
159 -19 -26 0
-160 20 0
-160 26 0
160 -20 -26 0
-161 1 0
-161 27 0
161 -1 -27 0
-162 2 0
-162 27 0
162 -2 -27 0
-163 3 0
-163 27 0
163 -3 -27 0
-164 4 0
-164 27 0
164 -4 -27 0
-165 5 0
-165 27 0
165 -5 -27 0
-166 6 0
-166 27 0
166 -6 -27 0
-167 7 0
-167 27 0
167 -7 -27 0
-168 8 0
-168 27 0
168 -8 -27 0
-169 9 0
-169 27 0
169 -9 -27 0
-170 10 0
-170 27 0
170 -10 -27 0
-171 11 0
-171 27 0
171 -11 -27 0
-172 12 0
-172 27 0
172 -12 -27 0
-173 13 0
-173 27 0
173 -13 -27 0
-174 14 0
-174 27 0
174 -14 -27 0
-175 15 0
-175 27 0
175 -15 -27 0
-176 16 0
-176 27 0
176 -16 -27 0
-177 17 0
-177 27 0
177 -17 -27 0
-178 18 0
-178 27 0
178 -18 -27 0
-179 19 0
-179 27 0
179 -19 -27 0
-180 20 0
-180 27 0
180 -20 -27 0
-181 1 0
-181 28 0
181 -1 -28 0
-182 2 0
-182 28 0
182 -2 -28 0
-183 3 0
-183 28 0
183 -3 -28 0
-184 4 0
-184 28 0
184 -4 -28 0
-185 5 0
-185 28 0
185 -5 -28 0
-186 6 0
-186 28 0
186 -6 -28 0
-187 7 0
-187 28 0
187 -7 -28 0
-188 8 0
-188 28 0
188 -8 -28 0
-189 9 0
-189 28 0
189 -9 -28 0
-190 10 0
-190 28 0
190 -10 -28 0
-191 11 0
-191 28 0
191 -11 -28 0
-192 12 0
-192 28 0
192 -12 -28 0
-193 13 0
-193 28 0
193 -13 -28 0
-194 14 0
-194 28 0
194 -14 -28 0
-195 15 0
-195 28 0
195 -15 -28 0
-196 16 0
-196 28 0
196 -16 -28 0
-197 17 0
-197 28 0
197 -17 -28 0
-198 18 0
-198 28 0
198 -18 -28 0
-199 19 0
-199 28 0
199 -19 -28 0
-200 20 0
-200 28 0
200 -20 -28 0
-201 1 0
-201 29 0
201 -1 -29 0
-202 2 0
-202 29 0
202 -2 -29 0
-203 3 0
-203 29 0
203 -3 -29 0
-204 4 0
-204 29 0
204 -4 -29 0
-205 5 0
-205 29 0
205 -5 -29 0
-206 6 0
-206 29 0
206 -6 -29 0
-207 7 0
-207 29 0
207 -7 -29 0
-208 8 0
-208 29 0
208 -8 -29 0
-209 9 0
-209 29 0
209 -9 -29 0
-210 10 0
-210 29 0
210 -10 -29 0
-211 11 0
-211 29 0
211 -11 -29 0
-212 12 0
-212 29 0
212 -12 -29 0
-213 13 0
-213 29 0
213 -13 -29 0
-214 14 0
-214 29 0
214 -14 -29 0
-215 15 0
-215 29 0
215 -15 -29 0
-216 16 0
-216 29 0
216 -16 -29 0
-217 17 0
-217 29 0
217 -17 -29 0
-218 18 0
-218 29 0
218 -18 -29 0
-219 19 0
-219 29 0
219 -19 -29 0
-220 20 0
-220 29 0
220 -20 -29 0
-221 1 0
-221 30 0
221 -1 -30 0
-222 2 0
-222 30 0
222 -2 -30 0
-223 3 0
-223 30 0
223 -3 -30 0
-224 4 0
-224 30 0
224 -4 -30 0
-225 5 0
-225 30 0
225 -5 -30 0
-226 6 0
-226 30 0
226 -6 -30 0
-227 7 0
-227 30 0
227 -7 -30 0
-228 8 0
-228 30 0
228 -8 -30 0
-229 9 0
-229 30 0
229 -9 -30 0
-230 10 0
-230 30 0
230 -10 -30 0
-231 11 0
-231 30 0
231 -11 -30 0
-232 12 0
-232 30 0
232 -12 -30 0
-233 13 0
-233 30 0
233 -13 -30 0
-234 14 0
-234 30 0
234 -14 -30 0
-235 15 0
-235 30 0
235 -15 -30 0
-236 16 0
-236 30 0
236 -16 -30 0
-237 17 0
-237 30 0
237 -17 -30 0
-238 18 0
-238 30 0
238 -18 -30 0
-239 19 0
-239 30 0
239 -19 -30 0
-240 20 0
-240 30 0
240 -20 -30 0
-241 1 0
-241 31 0
241 -1 -31 0
-242 2 0
-242 31 0
242 -2 -31 0
-243 3 0
-243 31 0
243 -3 -31 0
-244 4 0
-244 31 0
244 -4 -31 0
-245 5 0
-245 31 0
245 -5 -31 0
-246 6 0
-246 31 0
246 -6 -31 0
-247 7 0
-247 31 0
247 -7 -31 0
-248 8 0
-248 31 0
248 -8 -31 0
-249 9 0
-249 31 0
249 -9 -31 0
-250 10 0
-250 31 0
250 -10 -31 0
-251 11 0
-251 31 0
251 -11 -31 0
-252 12 0
-252 31 0
252 -12 -31 0
-253 13 0
-253 31 0
253 -13 -31 0
-254 14 0
-254 31 0
254 -14 -31 0
-255 15 0
-255 31 0
255 -15 -31 0
-256 16 0
-256 31 0
256 -16 -31 0
-257 17 0
-257 31 0
257 -17 -31 0
-258 18 0
-258 31 0
258 -18 -31 0
-259 19 0
-259 31 0
259 -19 -31 0
-260 20 0
-260 31 0
260 -20 -31 0
-261 1 0
-261 32 0
261 -1 -32 0
-262 2 0
-262 32 0
262 -2 -32 0
-263 3 0
-263 32 0
263 -3 -32 0
-264 4 0
-264 32 0
264 -4 -32 0
-265 5 0
-265 32 0
265 -5 -32 0
-266 6 0
-266 32 0
266 -6 -32 0
-267 7 0
-267 32 0
267 -7 -32 0
-268 8 0
-268 32 0
268 -8 -32 0
-269 9 0
-269 32 0
269 -9 -32 0
-270 10 0
-270 32 0
270 -10 -32 0
-271 11 0
-271 32 0
271 -11 -32 0
-272 12 0
-272 32 0
272 -12 -32 0
-273 13 0
-273 32 0
273 -13 -32 0
-274 14 0
-274 32 0
274 -14 -32 0
-275 15 0
-275 32 0
275 -15 -32 0
-276 16 0
-276 32 0
276 -16 -32 0
-277 17 0
-277 32 0
277 -17 -32 0
-278 18 0
-278 32 0
278 -18 -32 0
-279 19 0
-279 32 0
279 -19 -32 0
-280 20 0
-280 32 0
280 -20 -32 0
-281 1 0
-281 33 0
281 -1 -33 0
-282 2 0
-282 33 0
282 -2 -33 0
-283 3 0
-283 33 0
283 -3 -33 0
-284 4 0
-284 33 0
284 -4 -33 0
-285 5 0
-285 33 0
285 -5 -33 0
-286 6 0
-286 33 0
286 -6 -33 0
-287 7 0
-287 33 0
287 -7 -33 0
-288 8 0
-288 33 0
288 -8 -33 0
-289 9 0
-289 33 0
289 -9 -33 0
-290 10 0
-290 33 0
290 -10 -33 0
-291 11 0
-291 33 0
291 -11 -33 0
-292 12 0
-292 33 0
292 -12 -33 0
-293 13 0
-293 33 0
293 -13 -33 0
-294 14 0
-294 33 0
294 -14 -33 0
-295 15 0
-295 33 0
295 -15 -33 0
-296 16 0
-296 33 0
296 -16 -33 0
-297 17 0
-297 33 0
297 -17 -33 0
-298 18 0
-298 33 0
298 -18 -33 0
-299 19 0
-299 33 0
299 -19 -33 0
-300 20 0
-300 33 0
300 -20 -33 0
-301 1 0
-301 34 0
301 -1 -34 0
-302 2 0
-302 34 0
302 -2 -34 0
-303 3 0
-303 34 0
303 -3 -34 0
-304 4 0
-304 34 0
304 -4 -34 0
-305 5 0
-305 34 0
305 -5 -34 0
-306 6 0
-306 34 0
306 -6 -34 0
-307 7 0
-307 34 0
307 -7 -34 0
-308 8 0
-308 34 0
308 -8 -34 0
-309 9 0
-309 34 0
309 -9 -34 0
-310 10 0
-310 34 0
310 -10 -34 0
-311 11 0
-311 34 0
311 -11 -34 0
-312 12 0
-312 34 0
312 -12 -34 0
-313 13 0
-313 34 0
313 -13 -34 0
-314 14 0
-314 34 0
314 -14 -34 0
-315 15 0
-315 34 0
315 -15 -34 0
-316 16 0
-316 34 0
316 -16 -34 0
-317 17 0
-317 34 0
317 -17 -34 0
-318 18 0
-318 34 0
318 -18 -34 0
-319 19 0
-319 34 0
319 -19 -34 0
-320 20 0
-320 34 0
320 -20 -34 0
-321 1 0
-321 35 0
321 -1 -35 0
-322 2 0
-322 35 0
322 -2 -35 0
-323 3 0
-323 35 0
323 -3 -35 0
-324 4 0
-324 35 0
324 -4 -35 0
-325 5 0
-325 35 0
325 -5 -35 0
-326 6 0
-326 35 0
326 -6 -35 0
-327 7 0
-327 35 0
327 -7 -35 0
-328 8 0
-328 35 0
328 -8 -35 0
-329 9 0
-329 35 0
329 -9 -35 0
-330 10 0
-330 35 0
330 -10 -35 0
-331 11 0
-331 35 0
331 -11 -35 0
-332 12 0
-332 35 0
332 -12 -35 0
-333 13 0
-333 35 0
333 -13 -35 0
-334 14 0
-334 35 0
334 -14 -35 0
-335 15 0
-335 35 0
335 -15 -35 0
-336 16 0
-336 35 0
336 -16 -35 0
-337 17 0
-337 35 0
337 -17 -35 0
-338 18 0
-338 35 0
338 -18 -35 0
-339 19 0
-339 35 0
339 -19 -35 0
-340 20 0
-340 35 0
340 -20 -35 0
-341 1 0
-341 36 0
341 -1 -36 0
-342 2 0
-342 36 0
342 -2 -36 0
-343 3 0
-343 36 0
343 -3 -36 0
-344 4 0
-344 36 0
344 -4 -36 0
-345 5 0
-345 36 0
345 -5 -36 0
-346 6 0
-346 36 0
346 -6 -36 0
-347 7 0
-347 36 0
347 -7 -36 0
-348 8 0
-348 36 0
348 -8 -36 0
-349 9 0
-349 36 0
349 -9 -36 0
-350 10 0
-350 36 0
350 -10 -36 0
-351 11 0
-351 36 0
351 -11 -36 0
-352 12 0
-352 36 0
352 -12 -36 0
-353 13 0
-353 36 0
353 -13 -36 0
-354 14 0
-354 36 0
354 -14 -36 0
-355 15 0
-355 36 0
355 -15 -36 0
-356 16 0
-356 36 0
356 -16 -36 0
-357 17 0
-357 36 0
357 -17 -36 0
-358 18 0
-358 36 0
358 -18 -36 0
-359 19 0
-359 36 0
359 -19 -36 0
-360 20 0
-360 36 0
360 -20 -36 0
-361 1 0
-361 37 0
361 -1 -37 0
-362 2 0
-362 37 0
362 -2 -37 0
-363 3 0
-363 37 0
363 -3 -37 0
-364 4 0
-364 37 0
364 -4 -37 0
-365 5 0
-365 37 0
365 -5 -37 0
-366 6 0
-366 37 0
366 -6 -37 0
-367 7 0
-367 37 0
367 -7 -37 0
-368 8 0
-368 37 0
368 -8 -37 0
-369 9 0
-369 37 0
369 -9 -37 0
-370 10 0
-370 37 0
370 -10 -37 0
-371 11 0
-371 37 0
371 -11 -37 0
-372 12 0
-372 37 0
372 -12 -37 0
-373 13 0
-373 37 0
373 -13 -37 0
-374 14 0
-374 37 0
374 -14 -37 0
-375 15 0
-375 37 0
375 -15 -37 0
-376 16 0
-376 37 0
376 -16 -37 0
-377 17 0
-377 37 0
377 -17 -37 0
-378 18 0
-378 37 0
378 -18 -37 0
-379 19 0
-379 37 0
379 -19 -37 0
-380 20 0
-380 37 0
380 -20 -37 0
-381 1 0
-381 38 0
381 -1 -38 0
-382 2 0
-382 38 0
382 -2 -38 0
-383 3 0
-383 38 0
383 -3 -38 0
-384 4 0
-384 38 0
384 -4 -38 0
-385 5 0
-385 38 0
385 -5 -38 0
-386 6 0
-386 38 0
386 -6 -38 0
-387 7 0
-387 38 0
387 -7 -38 0
-388 8 0
-388 38 0
388 -8 -38 0
-389 9 0
-389 38 0
389 -9 -38 0
-390 10 0
-390 38 0
390 -10 -38 0
-391 11 0
-391 38 0
391 -11 -38 0
-392 12 0
-392 38 0
392 -12 -38 0
-393 13 0
-393 38 0
393 -13 -38 0
-394 14 0
-394 38 0
394 -14 -38 0
-395 15 0
-395 38 0
395 -15 -38 0
-396 16 0
-396 38 0
396 -16 -38 0
-397 17 0
-397 38 0
397 -17 -38 0
-398 18 0
-398 38 0
398 -18 -38 0
-399 19 0
-399 38 0
399 -19 -38 0
-400 20 0
-400 38 0
400 -20 -38 0
-401 1 0
-401 39 0
401 -1 -39 0
-402 2 0
-402 39 0
402 -2 -39 0
-403 3 0
-403 39 0
403 -3 -39 0
-404 4 0
-404 39 0
404 -4 -39 0
-405 5 0
-405 39 0
405 -5 -39 0
-406 6 0
-406 39 0
406 -6 -39 0
-407 7 0
-407 39 0
407 -7 -39 0
-408 8 0
-408 39 0
408 -8 -39 0
-409 9 0
-409 39 0
409 -9 -39 0
-410 10 0
-410 39 0
410 -10 -39 0
-411 11 0
-411 39 0
411 -11 -39 0
-412 12 0
-412 39 0
412 -12 -39 0
-413 13 0
-413 39 0
413 -13 -39 0
-414 14 0
-414 39 0
414 -14 -39 0
-415 15 0
-415 39 0
415 -15 -39 0
-416 16 0
-416 39 0
416 -16 -39 0
-417 17 0
-417 39 0
417 -17 -39 0
-418 18 0
-418 39 0
418 -18 -39 0
-419 19 0
-419 39 0
419 -19 -39 0
-420 20 0
-420 39 0
420 -20 -39 0
-421 1 0
-421 40 0
421 -1 -40 0
-422 2 0
-422 40 0
422 -2 -40 0
-423 3 0
-423 40 0
423 -3 -40 0
-424 4 0
-424 40 0
424 -4 -40 0
-425 5 0
-425 40 0
425 -5 -40 0
-426 6 0
-426 40 0
426 -6 -40 0
-427 7 0
-427 40 0
427 -7 -40 0
-428 8 0
-428 40 0
428 -8 -40 0
-429 9 0
-429 40 0
429 -9 -40 0
-430 10 0
-430 40 0
430 -10 -40 0
-431 11 0
-431 40 0
431 -11 -40 0
-432 12 0
-432 40 0
432 -12 -40 0
-433 13 0
-433 40 0
433 -13 -40 0
-434 14 0
-434 40 0
434 -14 -40 0
-435 15 0
-435 40 0
435 -15 -40 0
-436 16 0
-436 40 0
436 -16 -40 0
-437 17 0
-437 40 0
437 -17 -40 0
-438 18 0
-438 40 0
438 -18 -40 0
-439 19 0
-439 40 0
439 -19 -40 0
-440 20 0
-440 40 0
440 -20 -40 0
-441 42 61 0
-441 -42 -61 0
441 -42 61 0
441 42 -61 0
-442 42 0
-442 61 0
442 -42 -61 0
-43 -62 -442 443 0
-43 -62 442 -443 0
-43 62 -442 -443 0
-43 62 442 443 0
43 -62 -442 -443 0
43 -62 442 443 0
43 62 -442 443 0
43 62 442 -443 0
-43 -62 444 0
-43 -442 444 0
-62 -442 444 0
43 62 -444 0
43 442 -444 0
62 442 -444 0
-44 -63 -444 445 0
-44 -63 444 -445 0
-44 63 -444 -445 0
-44 63 444 445 0
44 -63 -444 -445 0
44 -63 444 445 0
44 63 -444 445 0
44 63 444 -445 0
-44 -63 446 0
-44 -444 446 0
-63 -444 446 0
44 63 -446 0
44 444 -446 0
63 444 -446 0
-45 -64 -446 447 0
-45 -64 446 -447 0
-45 64 -446 -447 0
-45 64 446 447 0
45 -64 -446 -447 0
45 -64 446 447 0
45 64 -446 447 0
45 64 446 -447 0
-45 -64 448 0
-45 -446 448 0
-64 -446 448 0
45 64 -448 0
45 446 -448 0
64 446 -448 0
-46 -65 -448 449 0
-46 -65 448 -449 0
-46 65 -448 -449 0
-46 65 448 449 0
46 -65 -448 -449 0
46 -65 448 449 0
46 65 -448 449 0
46 65 448 -449 0
-46 -65 450 0
-46 -448 450 0
-65 -448 450 0
46 65 -450 0
46 448 -450 0
65 448 -450 0
-47 -66 -450 451 0
-47 -66 450 -451 0
-47 66 -450 -451 0
-47 66 450 451 0
47 -66 -450 -451 0
47 -66 450 451 0
47 66 -450 451 0
47 66 450 -451 0
-47 -66 452 0
-47 -450 452 0
-66 -450 452 0
47 66 -452 0
47 450 -452 0
66 450 -452 0
-48 -67 -452 453 0
-48 -67 452 -453 0
-48 67 -452 -453 0
-48 67 452 453 0
48 -67 -452 -453 0
48 -67 452 453 0
48 67 -452 453 0
48 67 452 -453 0
-48 -67 454 0
-48 -452 454 0
-67 -452 454 0
48 67 -454 0
48 452 -454 0
67 452 -454 0
-49 -68 -454 455 0
-49 -68 454 -455 0
-49 68 -454 -455 0
-49 68 454 455 0
49 -68 -454 -455 0
49 -68 454 455 0
49 68 -454 455 0
49 68 454 -455 0
-49 -68 456 0
-49 -454 456 0
-68 -454 456 0
49 68 -456 0
49 454 -456 0
68 454 -456 0
-50 -69 -456 457 0
-50 -69 456 -457 0
-50 69 -456 -457 0
-50 69 456 457 0
50 -69 -456 -457 0
50 -69 456 457 0
50 69 -456 457 0
50 69 456 -457 0
-50 -69 458 0
-50 -456 458 0
-69 -456 458 0
50 69 -458 0
50 456 -458 0
69 456 -458 0
-51 -70 -458 459 0
-51 -70 458 -459 0
-51 70 -458 -459 0
-51 70 458 459 0
51 -70 -458 -459 0
51 -70 458 459 0
51 70 -458 459 0
51 70 458 -459 0
-51 -70 460 0
-51 -458 460 0
-70 -458 460 0
51 70 -460 0
51 458 -460 0
70 458 -460 0
-52 -71 -460 461 0
-52 -71 460 -461 0
-52 71 -460 -461 0
-52 71 460 461 0
52 -71 -460 -461 0
52 -71 460 461 0
52 71 -460 461 0
52 71 460 -461 0
-52 -71 462 0
-52 -460 462 0
-71 -460 462 0
52 71 -462 0
52 460 -462 0
71 460 -462 0
-53 -72 -462 463 0
-53 -72 462 -463 0
-53 72 -462 -463 0
-53 72 462 463 0
53 -72 -462 -463 0
53 -72 462 463 0
53 72 -462 463 0
53 72 462 -463 0
-53 -72 464 0
-53 -462 464 0
-72 -462 464 0
53 72 -464 0
53 462 -464 0
72 462 -464 0
-54 -73 -464 465 0
-54 -73 464 -465 0
-54 73 -464 -465 0
-54 73 464 465 0
54 -73 -464 -465 0
54 -73 464 465 0
54 73 -464 465 0
54 73 464 -465 0
-54 -73 466 0
-54 -464 466 0
-73 -464 466 0
54 73 -466 0
54 464 -466 0
73 464 -466 0
-55 -74 -466 467 0
-55 -74 466 -467 0
-55 74 -466 -467 0
-55 74 466 467 0
55 -74 -466 -467 0
55 -74 466 467 0
55 74 -466 467 0
55 74 466 -467 0
-55 -74 468 0
-55 -466 468 0
-74 -466 468 0
55 74 -468 0
55 466 -468 0
74 466 -468 0
-56 -75 -468 469 0
-56 -75 468 -469 0
-56 75 -468 -469 0
-56 75 468 469 0
56 -75 -468 -469 0
56 -75 468 469 0
56 75 -468 469 0
56 75 468 -469 0
-56 -75 470 0
-56 -468 470 0
-75 -468 470 0
56 75 -470 0
56 468 -470 0
75 468 -470 0
-57 -76 -470 471 0
-57 -76 470 -471 0
-57 76 -470 -471 0
-57 76 470 471 0
57 -76 -470 -471 0
57 -76 470 471 0
57 76 -470 471 0
57 76 470 -471 0
-57 -76 472 0
-57 -470 472 0
-76 -470 472 0
57 76 -472 0
57 470 -472 0
76 470 -472 0
-58 -77 -472 473 0
-58 -77 472 -473 0
-58 77 -472 -473 0
-58 77 472 473 0
58 -77 -472 -473 0
58 -77 472 473 0
58 77 -472 473 0
58 77 472 -473 0
-58 -77 474 0
-58 -472 474 0
-77 -472 474 0
58 77 -474 0
58 472 -474 0
77 472 -474 0
-59 -78 -474 475 0
-59 -78 474 -475 0
-59 78 -474 -475 0
-59 78 474 475 0
59 -78 -474 -475 0
59 -78 474 475 0
59 78 -474 475 0
59 78 474 -475 0
-59 -78 476 0
-59 -474 476 0
-78 -474 476 0
59 78 -476 0
59 474 -476 0
78 474 -476 0
-60 -79 -476 477 0
-60 -79 476 -477 0
-60 79 -476 -477 0
-60 79 476 477 0
60 -79 -476 -477 0
60 -79 476 477 0
60 79 -476 477 0
60 79 476 -477 0
-60 -79 478 0
-60 -476 478 0
-79 -476 478 0
60 79 -478 0
60 476 -478 0
79 476 -478 0
-479 80 478 0
-479 -80 -478 0
479 -80 478 0
479 80 -478 0
-480 80 0
-480 478 0
480 -80 -478 0
-481 443 81 0
-481 -443 -81 0
481 -443 81 0
481 443 -81 0
-482 443 0
-482 81 0
482 -443 -81 0
-445 -82 -482 483 0
-445 -82 482 -483 0
-445 82 -482 -483 0
-445 82 482 483 0
445 -82 -482 -483 0
445 -82 482 483 0
445 82 -482 483 0
445 82 482 -483 0
-445 -82 484 0
-445 -482 484 0
-82 -482 484 0
445 82 -484 0
445 482 -484 0
82 482 -484 0
-447 -83 -484 485 0
-447 -83 484 -485 0
-447 83 -484 -485 0
-447 83 484 485 0
447 -83 -484 -485 0
447 -83 484 485 0
447 83 -484 485 0
447 83 484 -485 0
-447 -83 486 0
-447 -484 486 0
-83 -484 486 0
447 83 -486 0
447 484 -486 0
83 484 -486 0
-449 -84 -486 487 0
-449 -84 486 -487 0
-449 84 -486 -487 0
-449 84 486 487 0
449 -84 -486 -487 0
449 -84 486 487 0
449 84 -486 487 0
449 84 486 -487 0
-449 -84 488 0
-449 -486 488 0
-84 -486 488 0
449 84 -488 0
449 486 -488 0
84 486 -488 0
-451 -85 -488 489 0
-451 -85 488 -489 0
-451 85 -488 -489 0
-451 85 488 489 0
451 -85 -488 -489 0
451 -85 488 489 0
451 85 -488 489 0
451 85 488 -489 0
-451 -85 490 0
-451 -488 490 0
-85 -488 490 0
451 85 -490 0
451 488 -490 0
85 488 -490 0
-453 -86 -490 491 0
-453 -86 490 -491 0
-453 86 -490 -491 0
-453 86 490 491 0
453 -86 -490 -491 0
453 -86 490 491 0
453 86 -490 491 0
453 86 490 -491 0
-453 -86 492 0
-453 -490 492 0
-86 -490 492 0
453 86 -492 0
453 490 -492 0
86 490 -492 0
-455 -87 -492 493 0
-455 -87 492 -493 0
-455 87 -492 -493 0
-455 87 492 493 0
455 -87 -492 -493 0
455 -87 492 493 0
455 87 -492 493 0
455 87 492 -493 0
-455 -87 494 0
-455 -492 494 0
-87 -492 494 0
455 87 -494 0
455 492 -494 0
87 492 -494 0
-457 -88 -494 495 0
-457 -88 494 -495 0
-457 88 -494 -495 0
-457 88 494 495 0
457 -88 -494 -495 0
457 -88 494 495 0
457 88 -494 495 0
457 88 494 -495 0
-457 -88 496 0
-457 -494 496 0
-88 -494 496 0
457 88 -496 0
457 494 -496 0
88 494 -496 0
-459 -89 -496 497 0
-459 -89 496 -497 0
-459 89 -496 -497 0
-459 89 496 497 0
459 -89 -496 -497 0
459 -89 496 497 0
459 89 -496 497 0
459 89 496 -497 0
-459 -89 498 0
-459 -496 498 0
-89 -496 498 0
459 89 -498 0
459 496 -498 0
89 496 -498 0
-461 -90 -498 499 0
-461 -90 498 -499 0
-461 90 -498 -499 0
-461 90 498 499 0
461 -90 -498 -499 0
461 -90 498 499 0
461 90 -498 499 0
461 90 498 -499 0
-461 -90 500 0
-461 -498 500 0
-90 -498 500 0
461 90 -500 0
461 498 -500 0
90 498 -500 0
-463 -91 -500 501 0
-463 -91 500 -501 0
-463 91 -500 -501 0
-463 91 500 501 0
463 -91 -500 -501 0
463 -91 500 501 0
463 91 -500 501 0
463 91 500 -501 0
-463 -91 502 0
-463 -500 502 0
-91 -500 502 0
463 91 -502 0
463 500 -502 0
91 500 -502 0
-465 -92 -502 503 0
-465 -92 502 -503 0
-465 92 -502 -503 0
-465 92 502 503 0
465 -92 -502 -503 0
465 -92 502 503 0
465 92 -502 503 0
465 92 502 -503 0
-465 -92 504 0
-465 -502 504 0
-92 -502 504 0
465 92 -504 0
465 502 -504 0
92 502 -504 0
-467 -93 -504 505 0
-467 -93 504 -505 0
-467 93 -504 -505 0
-467 93 504 505 0
467 -93 -504 -505 0
467 -93 504 505 0
467 93 -504 505 0
467 93 504 -505 0
-467 -93 506 0
-467 -504 506 0
-93 -504 506 0
467 93 -506 0
467 504 -506 0
93 504 -506 0
-469 -94 -506 507 0
-469 -94 506 -507 0
-469 94 -506 -507 0
-469 94 506 507 0
469 -94 -506 -507 0
469 -94 506 507 0
469 94 -506 507 0
469 94 506 -507 0
-469 -94 508 0
-469 -506 508 0
-94 -506 508 0
469 94 -508 0
469 506 -508 0
94 506 -508 0
-471 -95 -508 509 0
-471 -95 508 -509 0
-471 95 -508 -509 0
-471 95 508 509 0
471 -95 -508 -509 0
471 -95 508 509 0
471 95 -508 509 0
471 95 508 -509 0
-471 -95 510 0
-471 -508 510 0
-95 -508 510 0
471 95 -510 0
471 508 -510 0
95 508 -510 0
-473 -96 -510 511 0
-473 -96 510 -511 0
-473 96 -510 -511 0
-473 96 510 511 0
473 -96 -510 -511 0
473 -96 510 511 0
473 96 -510 511 0
473 96 510 -511 0
-473 -96 512 0
-473 -510 512 0
-96 -510 512 0
473 96 -512 0
473 510 -512 0
96 510 -512 0
-475 -97 -512 513 0
-475 -97 512 -513 0
-475 97 -512 -513 0
-475 97 512 513 0
475 -97 -512 -513 0
475 -97 512 513 0
475 97 -512 513 0
475 97 512 -513 0
-475 -97 514 0
-475 -512 514 0
-97 -512 514 0
475 97 -514 0
475 512 -514 0
97 512 -514 0
-477 -98 -514 515 0
-477 -98 514 -515 0
-477 98 -514 -515 0
-477 98 514 515 0
477 -98 -514 -515 0
477 -98 514 515 0
477 98 -514 515 0
477 98 514 -515 0
-477 -98 516 0
-477 -514 516 0
-98 -514 516 0
477 98 -516 0
477 514 -516 0
98 514 -516 0
-479 -99 -516 517 0
-479 -99 516 -517 0
-479 99 -516 -517 0
-479 99 516 517 0
479 -99 -516 -517 0
479 -99 516 517 0
479 99 -516 517 0
479 99 516 -517 0
-479 -99 518 0
-479 -516 518 0
-99 -516 518 0
479 99 -518 0
479 516 -518 0
99 516 -518 0
-480 -100 -518 519 0
-480 -100 518 -519 0
-480 100 -518 -519 0
-480 100 518 519 0
480 -100 -518 -519 0
480 -100 518 519 0
480 100 -518 519 0
480 100 518 -519 0
-480 -100 520 0
-480 -518 520 0
-100 -518 520 0
480 100 -520 0
480 518 -520 0
100 518 -520 0
-521 483 101 0
-521 -483 -101 0
521 -483 101 0
521 483 -101 0
-522 483 0
-522 101 0
522 -483 -101 0
-485 -102 -522 523 0
-485 -102 522 -523 0
-485 102 -522 -523 0
-485 102 522 523 0
485 -102 -522 -523 0
485 -102 522 523 0
485 102 -522 523 0
485 102 522 -523 0
-485 -102 524 0
-485 -522 524 0
-102 -522 524 0
485 102 -524 0
485 522 -524 0
102 522 -524 0
-487 -103 -524 525 0
-487 -103 524 -525 0
-487 103 -524 -525 0
-487 103 524 525 0
487 -103 -524 -525 0
487 -103 524 525 0
487 103 -524 525 0
487 103 524 -525 0
-487 -103 526 0
-487 -524 526 0
-103 -524 526 0
487 103 -526 0
487 524 -526 0
103 524 -526 0
-489 -104 -526 527 0
-489 -104 526 -527 0
-489 104 -526 -527 0
-489 104 526 527 0
489 -104 -526 -527 0
489 -104 526 527 0
489 104 -526 527 0
489 104 526 -527 0
-489 -104 528 0
-489 -526 528 0
-104 -526 528 0
489 104 -528 0
489 526 -528 0
104 526 -528 0
-491 -105 -528 529 0
-491 -105 528 -529 0
-491 105 -528 -529 0
-491 105 528 529 0
491 -105 -528 -529 0
491 -105 528 529 0
491 105 -528 529 0
491 105 528 -529 0
-491 -105 530 0
-491 -528 530 0
-105 -528 530 0
491 105 -530 0
491 528 -530 0
105 528 -530 0
-493 -106 -530 531 0
-493 -106 530 -531 0
-493 106 -530 -531 0
-493 106 530 531 0
493 -106 -530 -531 0
493 -106 530 531 0
493 106 -530 531 0
493 106 530 -531 0
-493 -106 532 0
-493 -530 532 0
-106 -530 532 0
493 106 -532 0
493 530 -532 0
106 530 -532 0
-495 -107 -532 533 0
-495 -107 532 -533 0
-495 107 -532 -533 0
-495 107 532 533 0
495 -107 -532 -533 0
495 -107 532 533 0
495 107 -532 533 0
495 107 532 -533 0
-495 -107 534 0
-495 -532 534 0
-107 -532 534 0
495 107 -534 0
495 532 -534 0
107 532 -534 0
-497 -108 -534 535 0
-497 -108 534 -535 0
-497 108 -534 -535 0
-497 108 534 535 0
497 -108 -534 -535 0
497 -108 534 535 0
497 108 -534 535 0
497 108 534 -535 0
-497 -108 536 0
-497 -534 536 0
-108 -534 536 0
497 108 -536 0
497 534 -536 0
108 534 -536 0
-499 -109 -536 537 0
-499 -109 536 -537 0
-499 109 -536 -537 0
-499 109 536 537 0
499 -109 -536 -537 0
499 -109 536 537 0
499 109 -536 537 0
499 109 536 -537 0
-499 -109 538 0
-499 -536 538 0
-109 -536 538 0
499 109 -538 0
499 536 -538 0
109 536 -538 0
-501 -110 -538 539 0
-501 -110 538 -539 0
-501 110 -538 -539 0
-501 110 538 539 0
501 -110 -538 -539 0
501 -110 538 539 0
501 110 -538 539 0
501 110 538 -539 0
-501 -110 540 0
-501 -538 540 0
-110 -538 540 0
501 110 -540 0
501 538 -540 0
110 538 -540 0
-503 -111 -540 541 0
-503 -111 540 -541 0
-503 111 -540 -541 0
-503 111 540 541 0
503 -111 -540 -541 0
503 -111 540 541 0
503 111 -540 541 0
503 111 540 -541 0
-503 -111 542 0
-503 -540 542 0
-111 -540 542 0
503 111 -542 0
503 540 -542 0
111 540 -542 0
-505 -112 -542 543 0
-505 -112 542 -543 0
-505 112 -542 -543 0
-505 112 542 543 0
505 -112 -542 -543 0
505 -112 542 543 0
505 112 -542 543 0
505 112 542 -543 0
-505 -112 544 0
-505 -542 544 0
-112 -542 544 0
505 112 -544 0
505 542 -544 0
112 542 -544 0
-507 -113 -544 545 0
-507 -113 544 -545 0
-507 113 -544 -545 0
-507 113 544 545 0
507 -113 -544 -545 0
507 -113 544 545 0
507 113 -544 545 0
507 113 544 -545 0
-507 -113 546 0
-507 -544 546 0
-113 -544 546 0
507 113 -546 0
507 544 -546 0
113 544 -546 0
-509 -114 -546 547 0
-509 -114 546 -547 0
-509 114 -546 -547 0
-509 114 546 547 0
509 -114 -546 -547 0
509 -114 546 547 0
509 114 -546 547 0
509 114 546 -547 0
-509 -114 548 0
-509 -546 548 0
-114 -546 548 0
509 114 -548 0
509 546 -548 0
114 546 -548 0
-511 -115 -548 549 0
-511 -115 548 -549 0
-511 115 -548 -549 0
-511 115 548 549 0
511 -115 -548 -549 0
511 -115 548 549 0
511 115 -548 549 0
511 115 548 -549 0
-511 -115 550 0
-511 -548 550 0
-115 -548 550 0
511 115 -550 0
511 548 -550 0
115 548 -550 0
-513 -116 -550 551 0
-513 -116 550 -551 0
-513 116 -550 -551 0
-513 116 550 551 0
513 -116 -550 -551 0
513 -116 550 551 0
513 116 -550 551 0
513 116 550 -551 0
-513 -116 552 0
-513 -550 552 0
-116 -550 552 0
513 116 -552 0
513 550 -552 0
116 550 -552 0
-515 -117 -552 553 0
-515 -117 552 -553 0
-515 117 -552 -553 0
-515 117 552 553 0
515 -117 -552 -553 0
515 -117 552 553 0
515 117 -552 553 0
515 117 552 -553 0
-515 -117 554 0
-515 -552 554 0
-117 -552 554 0
515 117 -554 0
515 552 -554 0
117 552 -554 0
-517 -118 -554 555 0
-517 -118 554 -555 0
-517 118 -554 -555 0
-517 118 554 555 0
517 -118 -554 -555 0
517 -118 554 555 0
517 118 -554 555 0
517 118 554 -555 0
-517 -118 556 0
-517 -554 556 0
-118 -554 556 0
517 118 -556 0
517 554 -556 0
118 554 -556 0
-519 -119 -556 557 0
-519 -119 556 -557 0
-519 119 -556 -557 0
-519 119 556 557 0
519 -119 -556 -557 0
519 -119 556 557 0
519 119 -556 557 0
519 119 556 -557 0
-519 -119 558 0
-519 -556 558 0
-119 -556 558 0
519 119 -558 0
519 556 -558 0
119 556 -558 0
-520 -120 -558 559 0
-520 -120 558 -559 0
-520 120 -558 -559 0
-520 120 558 559 0
520 -120 -558 -559 0
520 -120 558 559 0
520 120 -558 559 0
520 120 558 -559 0
-520 -120 560 0
-520 -558 560 0
-120 -558 560 0
520 120 -560 0
520 558 -560 0
120 558 -560 0
-561 523 121 0
-561 -523 -121 0
561 -523 121 0
561 523 -121 0
-562 523 0
-562 121 0
562 -523 -121 0
-525 -122 -562 563 0
-525 -122 562 -563 0
-525 122 -562 -563 0
-525 122 562 563 0
525 -122 -562 -563 0
525 -122 562 563 0
525 122 -562 563 0
525 122 562 -563 0
-525 -122 564 0
-525 -562 564 0
-122 -562 564 0
525 122 -564 0
525 562 -564 0
122 562 -564 0
-527 -123 -564 565 0
-527 -123 564 -565 0
-527 123 -564 -565 0
-527 123 564 565 0
527 -123 -564 -565 0
527 -123 564 565 0
527 123 -564 565 0
527 123 564 -565 0
-527 -123 566 0
-527 -564 566 0
-123 -564 566 0
527 123 -566 0
527 564 -566 0
123 564 -566 0
-529 -124 -566 567 0
-529 -124 566 -567 0
-529 124 -566 -567 0
-529 124 566 567 0
529 -124 -566 -567 0
529 -124 566 567 0
529 124 -566 567 0
529 124 566 -567 0
-529 -124 568 0
-529 -566 568 0
-124 -566 568 0
529 124 -568 0
529 566 -568 0
124 566 -568 0
-531 -125 -568 569 0
-531 -125 568 -569 0
-531 125 -568 -569 0
-531 125 568 569 0
531 -125 -568 -569 0
531 -125 568 569 0
531 125 -568 569 0
531 125 568 -569 0
-531 -125 570 0
-531 -568 570 0
-125 -568 570 0
531 125 -570 0
531 568 -570 0
125 568 -570 0
-533 -126 -570 571 0
-533 -126 570 -571 0
-533 126 -570 -571 0
-533 126 570 571 0
533 -126 -570 -571 0
533 -126 570 571 0
533 126 -570 571 0
533 126 570 -571 0
-533 -126 572 0
-533 -570 572 0
-126 -570 572 0
533 126 -572 0
533 570 -572 0
126 570 -572 0
-535 -127 -572 573 0
-535 -127 572 -573 0
-535 127 -572 -573 0
-535 127 572 573 0
535 -127 -572 -573 0
535 -127 572 573 0
535 127 -572 573 0
535 127 572 -573 0
-535 -127 574 0
-535 -572 574 0
-127 -572 574 0
535 127 -574 0
535 572 -574 0
127 572 -574 0
-537 -128 -574 575 0
-537 -128 574 -575 0
-537 128 -574 -575 0
-537 128 574 575 0
537 -128 -574 -575 0
537 -128 574 575 0
537 128 -574 575 0
537 128 574 -575 0
-537 -128 576 0
-537 -574 576 0
-128 -574 576 0
537 128 -576 0
537 574 -576 0
128 574 -576 0
-539 -129 -576 577 0
-539 -129 576 -577 0
-539 129 -576 -577 0
-539 129 576 577 0
539 -129 -576 -577 0
539 -129 576 577 0
539 129 -576 577 0
539 129 576 -577 0
-539 -129 578 0
-539 -576 578 0
-129 -576 578 0
539 129 -578 0
539 576 -578 0
129 576 -578 0
-541 -130 -578 579 0
-541 -130 578 -579 0
-541 130 -578 -579 0
-541 130 578 579 0
541 -130 -578 -579 0
541 -130 578 579 0
541 130 -578 579 0
541 130 578 -579 0
-541 -130 580 0
-541 -578 580 0
-130 -578 580 0
541 130 -580 0
541 578 -580 0
130 578 -580 0
-543 -131 -580 581 0
-543 -131 580 -581 0
-543 131 -580 -581 0
-543 131 580 581 0
543 -131 -580 -581 0
543 -131 580 581 0
543 131 -580 581 0
543 131 580 -581 0
-543 -131 582 0
-543 -580 582 0
-131 -580 582 0
543 131 -582 0
543 580 -582 0
131 580 -582 0
-545 -132 -582 583 0
-545 -132 582 -583 0
-545 132 -582 -583 0
-545 132 582 583 0
545 -132 -582 -583 0
545 -132 582 583 0
545 132 -582 583 0
545 132 582 -583 0
-545 -132 584 0
-545 -582 584 0
-132 -582 584 0
545 132 -584 0
545 582 -584 0
132 582 -584 0
-547 -133 -584 585 0
-547 -133 584 -585 0
-547 133 -584 -585 0
-547 133 584 585 0
547 -133 -584 -585 0
547 -133 584 585 0
547 133 -584 585 0
547 133 584 -585 0
-547 -133 586 0
-547 -584 586 0
-133 -584 586 0
547 133 -586 0
547 584 -586 0
133 584 -586 0
-549 -134 -586 587 0
-549 -134 586 -587 0
-549 134 -586 -587 0
-549 134 586 587 0
549 -134 -586 -587 0
549 -134 586 587 0
549 134 -586 587 0
549 134 586 -587 0
-549 -134 588 0
-549 -586 588 0
-134 -586 588 0
549 134 -588 0
549 586 -588 0
134 586 -588 0
-551 -135 -588 589 0
-551 -135 588 -589 0
-551 135 -588 -589 0
-551 135 588 589 0
551 -135 -588 -589 0
551 -135 588 589 0
551 135 -588 589 0
551 135 588 -589 0
-551 -135 590 0
-551 -588 590 0
-135 -588 590 0
551 135 -590 0
551 588 -590 0
135 588 -590 0
-553 -136 -590 591 0
-553 -136 590 -591 0
-553 136 -590 -591 0
-553 136 590 591 0
553 -136 -590 -591 0
553 -136 590 591 0
553 136 -590 591 0
553 136 590 -591 0
-553 -136 592 0
-553 -590 592 0
-136 -590 592 0
553 136 -592 0
553 590 -592 0
136 590 -592 0
-555 -137 -592 593 0
-555 -137 592 -593 0
-555 137 -592 -593 0
-555 137 592 593 0
555 -137 -592 -593 0
555 -137 592 593 0
555 137 -592 593 0
555 137 592 -593 0
-555 -137 594 0
-555 -592 594 0
-137 -592 594 0
555 137 -594 0
555 592 -594 0
137 592 -594 0
-557 -138 -594 595 0
-557 -138 594 -595 0
-557 138 -594 -595 0
-557 138 594 595 0
557 -138 -594 -595 0
557 -138 594 595 0
557 138 -594 595 0
557 138 594 -595 0
-557 -138 596 0
-557 -594 596 0
-138 -594 596 0
557 138 -596 0
557 594 -596 0
138 594 -596 0
-559 -139 -596 597 0
-559 -139 596 -597 0
-559 139 -596 -597 0
-559 139 596 597 0
559 -139 -596 -597 0
559 -139 596 597 0
559 139 -596 597 0
559 139 596 -597 0
-559 -139 598 0
-559 -596 598 0
-139 -596 598 0
559 139 -598 0
559 596 -598 0
139 596 -598 0
-560 -140 -598 599 0
-560 -140 598 -599 0
-560 140 -598 -599 0
-560 140 598 599 0
560 -140 -598 -599 0
560 -140 598 599 0
560 140 -598 599 0
560 140 598 -599 0
-560 -140 600 0
-560 -598 600 0
-140 -598 600 0
560 140 -600 0
560 598 -600 0
140 598 -600 0
-601 563 141 0
-601 -563 -141 0
601 -563 141 0
601 563 -141 0
-602 563 0
-602 141 0
602 -563 -141 0
-565 -142 -602 603 0
-565 -142 602 -603 0
-565 142 -602 -603 0
-565 142 602 603 0
565 -142 -602 -603 0
565 -142 602 603 0
565 142 -602 603 0
565 142 602 -603 0
-565 -142 604 0
-565 -602 604 0
-142 -602 604 0
565 142 -604 0
565 602 -604 0
142 602 -604 0
-567 -143 -604 605 0
-567 -143 604 -605 0
-567 143 -604 -605 0
-567 143 604 605 0
567 -143 -604 -605 0
567 -143 604 605 0
567 143 -604 605 0
567 143 604 -605 0
-567 -143 606 0
-567 -604 606 0
-143 -604 606 0
567 143 -606 0
567 604 -606 0
143 604 -606 0
-569 -144 -606 607 0
-569 -144 606 -607 0
-569 144 -606 -607 0
-569 144 606 607 0
569 -144 -606 -607 0
569 -144 606 607 0
569 144 -606 607 0
569 144 606 -607 0
-569 -144 608 0
-569 -606 608 0
-144 -606 608 0
569 144 -608 0
569 606 -608 0
144 606 -608 0
-571 -145 -608 609 0
-571 -145 608 -609 0
-571 145 -608 -609 0
-571 145 608 609 0
571 -145 -608 -609 0
571 -145 608 609 0
571 145 -608 609 0
571 145 608 -609 0
-571 -145 610 0
-571 -608 610 0
-145 -608 610 0
571 145 -610 0
571 608 -610 0
145 608 -610 0
-573 -146 -610 611 0
-573 -146 610 -611 0
-573 146 -610 -611 0
-573 146 610 611 0
573 -146 -610 -611 0
573 -146 610 611 0
573 146 -610 611 0
573 146 610 -611 0
-573 -146 612 0
-573 -610 612 0
-146 -610 612 0
573 146 -612 0
573 610 -612 0
146 610 -612 0
-575 -147 -612 613 0
-575 -147 612 -613 0
-575 147 -612 -613 0
-575 147 612 613 0
575 -147 -612 -613 0
575 -147 612 613 0
575 147 -612 613 0
575 147 612 -613 0
-575 -147 614 0
-575 -612 614 0
-147 -612 614 0
575 147 -614 0
575 612 -614 0
147 612 -614 0
-577 -148 -614 615 0
-577 -148 614 -615 0
-577 148 -614 -615 0
-577 148 614 615 0
577 -148 -614 -615 0
577 -148 614 615 0
577 148 -614 615 0
577 148 614 -615 0
-577 -148 616 0
-577 -614 616 0
-148 -614 616 0
577 148 -616 0
577 614 -616 0
148 614 -616 0
-579 -149 -616 617 0
-579 -149 616 -617 0
-579 149 -616 -617 0
-579 149 616 617 0
579 -149 -616 -617 0
579 -149 616 617 0
579 149 -616 617 0
579 149 616 -617 0
-579 -149 618 0
-579 -616 618 0
-149 -616 618 0
579 149 -618 0
579 616 -618 0
149 616 -618 0
-581 -150 -618 619 0
-581 -150 618 -619 0
-581 150 -618 -619 0
-581 150 618 619 0
581 -150 -618 -619 0
581 -150 618 619 0
581 150 -618 619 0
581 150 618 -619 0
-581 -150 620 0
-581 -618 620 0
-150 -618 620 0
581 150 -620 0
581 618 -620 0
150 618 -620 0
-583 -151 -620 621 0
-583 -151 620 -621 0
-583 151 -620 -621 0
-583 151 620 621 0
583 -151 -620 -621 0
583 -151 620 621 0
583 151 -620 621 0
583 151 620 -621 0
-583 -151 622 0
-583 -620 622 0
-151 -620 622 0
583 151 -622 0
583 620 -622 0
151 620 -622 0
-585 -152 -622 623 0
-585 -152 622 -623 0
-585 152 -622 -623 0
-585 152 622 623 0
585 -152 -622 -623 0
585 -152 622 623 0
585 152 -622 623 0
585 152 622 -623 0
-585 -152 624 0
-585 -622 624 0
-152 -622 624 0
585 152 -624 0
585 622 -624 0
152 622 -624 0
-587 -153 -624 625 0
-587 -153 624 -625 0
-587 153 -624 -625 0
-587 153 624 625 0
587 -153 -624 -625 0
587 -153 624 625 0
587 153 -624 625 0
587 153 624 -625 0
-587 -153 626 0
-587 -624 626 0
-153 -624 626 0
587 153 -626 0
587 624 -626 0
153 624 -626 0
-589 -154 -626 627 0
-589 -154 626 -627 0
-589 154 -626 -627 0
-589 154 626 627 0
589 -154 -626 -627 0
589 -154 626 627 0
589 154 -626 627 0
589 154 626 -627 0
-589 -154 628 0
-589 -626 628 0
-154 -626 628 0
589 154 -628 0
589 626 -628 0
154 626 -628 0
-591 -155 -628 629 0
-591 -155 628 -629 0
-591 155 -628 -629 0
-591 155 628 629 0
591 -155 -628 -629 0
591 -155 628 629 0
591 155 -628 629 0
591 155 628 -629 0
-591 -155 630 0
-591 -628 630 0
-155 -628 630 0
591 155 -630 0
591 628 -630 0
155 628 -630 0
-593 -156 -630 631 0
-593 -156 630 -631 0
-593 156 -630 -631 0
-593 156 630 631 0
593 -156 -630 -631 0
593 -156 630 631 0
593 156 -630 631 0
593 156 630 -631 0
-593 -156 632 0
-593 -630 632 0
-156 -630 632 0
593 156 -632 0
593 630 -632 0
156 630 -632 0
-595 -157 -632 633 0
-595 -157 632 -633 0
-595 157 -632 -633 0
-595 157 632 633 0
595 -157 -632 -633 0
595 -157 632 633 0
595 157 -632 633 0
595 157 632 -633 0
-595 -157 634 0
-595 -632 634 0
-157 -632 634 0
595 157 -634 0
595 632 -634 0
157 632 -634 0
-597 -158 -634 635 0
-597 -158 634 -635 0
-597 158 -634 -635 0
-597 158 634 635 0
597 -158 -634 -635 0
597 -158 634 635 0
597 158 -634 635 0
597 158 634 -635 0
-597 -158 636 0
-597 -634 636 0
-158 -634 636 0
597 158 -636 0
597 634 -636 0
158 634 -636 0
-599 -159 -636 637 0
-599 -159 636 -637 0
-599 159 -636 -637 0
-599 159 636 637 0
599 -159 -636 -637 0
599 -159 636 637 0
599 159 -636 637 0
599 159 636 -637 0
-599 -159 638 0
-599 -636 638 0
-159 -636 638 0
599 159 -638 0
599 636 -638 0
159 636 -638 0
-600 -160 -638 639 0
-600 -160 638 -639 0
-600 160 -638 -639 0
-600 160 638 639 0
600 -160 -638 -639 0
600 -160 638 639 0
600 160 -638 639 0
600 160 638 -639 0
-600 -160 640 0
-600 -638 640 0
-160 -638 640 0
600 160 -640 0
600 638 -640 0
160 638 -640 0
-641 603 161 0
-641 -603 -161 0
641 -603 161 0
641 603 -161 0
-642 603 0
-642 161 0
642 -603 -161 0
-605 -162 -642 643 0
-605 -162 642 -643 0
-605 162 -642 -643 0
-605 162 642 643 0
605 -162 -642 -643 0
605 -162 642 643 0
605 162 -642 643 0
605 162 642 -643 0
-605 -162 644 0
-605 -642 644 0
-162 -642 644 0
605 162 -644 0
605 642 -644 0
162 642 -644 0
-607 -163 -644 645 0
-607 -163 644 -645 0
-607 163 -644 -645 0
-607 163 644 645 0
607 -163 -644 -645 0
607 -163 644 645 0
607 163 -644 645 0
607 163 644 -645 0
-607 -163 646 0
-607 -644 646 0
-163 -644 646 0
607 163 -646 0
607 644 -646 0
163 644 -646 0
-609 -164 -646 647 0
-609 -164 646 -647 0
-609 164 -646 -647 0
-609 164 646 647 0
609 -164 -646 -647 0
609 -164 646 647 0
609 164 -646 647 0
609 164 646 -647 0
-609 -164 648 0
-609 -646 648 0
-164 -646 648 0
609 164 -648 0
609 646 -648 0
164 646 -648 0
-611 -165 -648 649 0
-611 -165 648 -649 0
-611 165 -648 -649 0
-611 165 648 649 0
611 -165 -648 -649 0
611 -165 648 649 0
611 165 -648 649 0
611 165 648 -649 0
-611 -165 650 0
-611 -648 650 0
-165 -648 650 0
611 165 -650 0
611 648 -650 0
165 648 -650 0
-613 -166 -650 651 0
-613 -166 650 -651 0
-613 166 -650 -651 0
-613 166 650 651 0
613 -166 -650 -651 0
613 -166 650 651 0
613 166 -650 651 0
613 166 650 -651 0
-613 -166 652 0
-613 -650 652 0
-166 -650 652 0
613 166 -652 0
613 650 -652 0
166 650 -652 0
-615 -167 -652 653 0
-615 -167 652 -653 0
-615 167 -652 -653 0
-615 167 652 653 0
615 -167 -652 -653 0
615 -167 652 653 0
615 167 -652 653 0
615 167 652 -653 0
-615 -167 654 0
-615 -652 654 0
-167 -652 654 0
615 167 -654 0
615 652 -654 0
167 652 -654 0
-617 -168 -654 655 0
-617 -168 654 -655 0
-617 168 -654 -655 0
-617 168 654 655 0
617 -168 -654 -655 0
617 -168 654 655 0
617 168 -654 655 0
617 168 654 -655 0
-617 -168 656 0
-617 -654 656 0
-168 -654 656 0
617 168 -656 0
617 654 -656 0
168 654 -656 0
-619 -169 -656 657 0
-619 -169 656 -657 0
-619 169 -656 -657 0
-619 169 656 657 0
619 -169 -656 -657 0
619 -169 656 657 0
619 169 -656 657 0
619 169 656 -657 0
-619 -169 658 0
-619 -656 658 0
-169 -656 658 0
619 169 -658 0
619 656 -658 0
169 656 -658 0
-621 -170 -658 659 0
-621 -170 658 -659 0
-621 170 -658 -659 0
-621 170 658 659 0
621 -170 -658 -659 0
621 -170 658 659 0
621 170 -658 659 0
621 170 658 -659 0
-621 -170 660 0
-621 -658 660 0
-170 -658 660 0
621 170 -660 0
621 658 -660 0
170 658 -660 0
-623 -171 -660 661 0
-623 -171 660 -661 0
-623 171 -660 -661 0
-623 171 660 661 0
623 -171 -660 -661 0
623 -171 660 661 0
623 171 -660 661 0
623 171 660 -661 0
-623 -171 662 0
-623 -660 662 0
-171 -660 662 0
623 171 -662 0
623 660 -662 0
171 660 -662 0
-625 -172 -662 663 0
-625 -172 662 -663 0
-625 172 -662 -663 0
-625 172 662 663 0
625 -172 -662 -663 0
625 -172 662 663 0
625 172 -662 663 0
625 172 662 -663 0
-625 -172 664 0
-625 -662 664 0
-172 -662 664 0
625 172 -664 0
625 662 -664 0
172 662 -664 0
-627 -173 -664 665 0
-627 -173 664 -665 0
-627 173 -664 -665 0
-627 173 664 665 0
627 -173 -664 -665 0
627 -173 664 665 0
627 173 -664 665 0
627 173 664 -665 0
-627 -173 666 0
-627 -664 666 0
-173 -664 666 0
627 173 -666 0
627 664 -666 0
173 664 -666 0
-629 -174 -666 667 0
-629 -174 666 -667 0
-629 174 -666 -667 0
-629 174 666 667 0
629 -174 -666 -667 0
629 -174 666 667 0
629 174 -666 667 0
629 174 666 -667 0
-629 -174 668 0
-629 -666 668 0
-174 -666 668 0
629 174 -668 0
629 666 -668 0
174 666 -668 0
-631 -175 -668 669 0
-631 -175 668 -669 0
-631 175 -668 -669 0
-631 175 668 669 0
631 -175 -668 -669 0
631 -175 668 669 0
631 175 -668 669 0
631 175 668 -669 0
-631 -175 670 0
-631 -668 670 0
-175 -668 670 0
631 175 -670 0
631 668 -670 0
175 668 -670 0
-633 -176 -670 671 0
-633 -176 670 -671 0
-633 176 -670 -671 0
-633 176 670 671 0
633 -176 -670 -671 0
633 -176 670 671 0
633 176 -670 671 0
633 176 670 -671 0
-633 -176 672 0
-633 -670 672 0
-176 -670 672 0
633 176 -672 0
633 670 -672 0
176 670 -672 0
-635 -177 -672 673 0
-635 -177 672 -673 0
-635 177 -672 -673 0
-635 177 672 673 0
635 -177 -672 -673 0
635 -177 672 673 0
635 177 -672 673 0
635 177 672 -673 0
-635 -177 674 0
-635 -672 674 0
-177 -672 674 0
635 177 -674 0
635 672 -674 0
177 672 -674 0
-637 -178 -674 675 0
-637 -178 674 -675 0
-637 178 -674 -675 0
-637 178 674 675 0
637 -178 -674 -675 0
637 -178 674 675 0
637 178 -674 675 0
637 178 674 -675 0
-637 -178 676 0
-637 -674 676 0
-178 -674 676 0
637 178 -676 0
637 674 -676 0
178 674 -676 0
-639 -179 -676 677 0
-639 -179 676 -677 0
-639 179 -676 -677 0
-639 179 676 677 0
639 -179 -676 -677 0
639 -179 676 677 0
639 179 -676 677 0
639 179 676 -677 0
-639 -179 678 0
-639 -676 678 0
-179 -676 678 0
639 179 -678 0
639 676 -678 0
179 676 -678 0
-640 -180 -678 679 0
-640 -180 678 -679 0
-640 180 -678 -679 0
-640 180 678 679 0
640 -180 -678 -679 0
640 -180 678 679 0
640 180 -678 679 0
640 180 678 -679 0
-640 -180 680 0
-640 -678 680 0
-180 -678 680 0
640 180 -680 0
640 678 -680 0
180 678 -680 0
-681 643 181 0
-681 -643 -181 0
681 -643 181 0
681 643 -181 0
-682 643 0
-682 181 0
682 -643 -181 0
-645 -182 -682 683 0
-645 -182 682 -683 0
-645 182 -682 -683 0
-645 182 682 683 0
645 -182 -682 -683 0
645 -182 682 683 0
645 182 -682 683 0
645 182 682 -683 0
-645 -182 684 0
-645 -682 684 0
-182 -682 684 0
645 182 -684 0
645 682 -684 0
182 682 -684 0
-647 -183 -684 685 0
-647 -183 684 -685 0
-647 183 -684 -685 0
-647 183 684 685 0
647 -183 -684 -685 0
647 -183 684 685 0
647 183 -684 685 0
647 183 684 -685 0
-647 -183 686 0
-647 -684 686 0
-183 -684 686 0
647 183 -686 0
647 684 -686 0
183 684 -686 0
-649 -184 -686 687 0
-649 -184 686 -687 0
-649 184 -686 -687 0
-649 184 686 687 0
649 -184 -686 -687 0
649 -184 686 687 0
649 184 -686 687 0
649 184 686 -687 0
-649 -184 688 0
-649 -686 688 0
-184 -686 688 0
649 184 -688 0
649 686 -688 0
184 686 -688 0
-651 -185 -688 689 0
-651 -185 688 -689 0
-651 185 -688 -689 0
-651 185 688 689 0
651 -185 -688 -689 0
651 -185 688 689 0
651 185 -688 689 0
651 185 688 -689 0
-651 -185 690 0
-651 -688 690 0
-185 -688 690 0
651 185 -690 0
651 688 -690 0
185 688 -690 0
-653 -186 -690 691 0
-653 -186 690 -691 0
-653 186 -690 -691 0
-653 186 690 691 0
653 -186 -690 -691 0
653 -186 690 691 0
653 186 -690 691 0
653 186 690 -691 0
-653 -186 692 0
-653 -690 692 0
-186 -690 692 0
653 186 -692 0
653 690 -692 0
186 690 -692 0
-655 -187 -692 693 0
-655 -187 692 -693 0
-655 187 -692 -693 0
-655 187 692 693 0
655 -187 -692 -693 0
655 -187 692 693 0
655 187 -692 693 0
655 187 692 -693 0
-655 -187 694 0
-655 -692 694 0
-187 -692 694 0
655 187 -694 0
655 692 -694 0
187 692 -694 0
-657 -188 -694 695 0
-657 -188 694 -695 0
-657 188 -694 -695 0
-657 188 694 695 0
657 -188 -694 -695 0
657 -188 694 695 0
657 188 -694 695 0
657 188 694 -695 0
-657 -188 696 0
-657 -694 696 0
-188 -694 696 0
657 188 -696 0
657 694 -696 0
188 694 -696 0
-659 -189 -696 697 0
-659 -189 696 -697 0
-659 189 -696 -697 0
-659 189 696 697 0
659 -189 -696 -697 0
659 -189 696 697 0
659 189 -696 697 0
659 189 696 -697 0
-659 -189 698 0
-659 -696 698 0
-189 -696 698 0
659 189 -698 0
659 696 -698 0
189 696 -698 0
-661 -190 -698 699 0
-661 -190 698 -699 0
-661 190 -698 -699 0
-661 190 698 699 0
661 -190 -698 -699 0
661 -190 698 699 0
661 190 -698 699 0
661 190 698 -699 0
-661 -190 700 0
-661 -698 700 0
-190 -698 700 0
661 190 -700 0
661 698 -700 0
190 698 -700 0
-663 -191 -700 701 0
-663 -191 700 -701 0
-663 191 -700 -701 0
-663 191 700 701 0
663 -191 -700 -701 0
663 -191 700 701 0
663 191 -700 701 0
663 191 700 -701 0
-663 -191 702 0
-663 -700 702 0
-191 -700 702 0
663 191 -702 0
663 700 -702 0
191 700 -702 0
-665 -192 -702 703 0
-665 -192 702 -703 0
-665 192 -702 -703 0
-665 192 702 703 0
665 -192 -702 -703 0
665 -192 702 703 0
665 192 -702 703 0
665 192 702 -703 0
-665 -192 704 0
-665 -702 704 0
-192 -702 704 0
665 192 -704 0
665 702 -704 0
192 702 -704 0
-667 -193 -704 705 0
-667 -193 704 -705 0
-667 193 -704 -705 0
-667 193 704 705 0
667 -193 -704 -705 0
667 -193 704 705 0
667 193 -704 705 0
667 193 704 -705 0
-667 -193 706 0
-667 -704 706 0
-193 -704 706 0
667 193 -706 0
667 704 -706 0
193 704 -706 0
-669 -194 -706 707 0
-669 -194 706 -707 0
-669 194 -706 -707 0
-669 194 706 707 0
669 -194 -706 -707 0
669 -194 706 707 0
669 194 -706 707 0
669 194 706 -707 0
-669 -194 708 0
-669 -706 708 0
-194 -706 708 0
669 194 -708 0
669 706 -708 0
194 706 -708 0
-671 -195 -708 709 0
-671 -195 708 -709 0
-671 195 -708 -709 0
-671 195 708 709 0
671 -195 -708 -709 0
671 -195 708 709 0
671 195 -708 709 0
671 195 708 -709 0
-671 -195 710 0
-671 -708 710 0
-195 -708 710 0
671 195 -710 0
671 708 -710 0
195 708 -710 0
-673 -196 -710 711 0
-673 -196 710 -711 0
-673 196 -710 -711 0
-673 196 710 711 0
673 -196 -710 -711 0
673 -196 710 711 0
673 196 -710 711 0
673 196 710 -711 0
-673 -196 712 0
-673 -710 712 0
-196 -710 712 0
673 196 -712 0
673 710 -712 0
196 710 -712 0
-675 -197 -712 713 0
-675 -197 712 -713 0
-675 197 -712 -713 0
-675 197 712 713 0
675 -197 -712 -713 0
675 -197 712 713 0
675 197 -712 713 0
675 197 712 -713 0
-675 -197 714 0
-675 -712 714 0
-197 -712 714 0
675 197 -714 0
675 712 -714 0
197 712 -714 0
-677 -198 -714 715 0
-677 -198 714 -715 0
-677 198 -714 -715 0
-677 198 714 715 0
677 -198 -714 -715 0
677 -198 714 715 0
677 198 -714 715 0
677 198 714 -715 0
-677 -198 716 0
-677 -714 716 0
-198 -714 716 0
677 198 -716 0
677 714 -716 0
198 714 -716 0
-679 -199 -716 717 0
-679 -199 716 -717 0
-679 199 -716 -717 0
-679 199 716 717 0
679 -199 -716 -717 0
679 -199 716 717 0
679 199 -716 717 0
679 199 716 -717 0
-679 -199 718 0
-679 -716 718 0
-199 -716 718 0
679 199 -718 0
679 716 -718 0
199 716 -718 0
-680 -200 -718 719 0
-680 -200 718 -719 0
-680 200 -718 -719 0
-680 200 718 719 0
680 -200 -718 -719 0
680 -200 718 719 0
680 200 -718 719 0
680 200 718 -719 0
-680 -200 720 0
-680 -718 720 0
-200 -718 720 0
680 200 -720 0
680 718 -720 0
200 718 -720 0
-721 683 201 0
-721 -683 -201 0
721 -683 201 0
721 683 -201 0
-722 683 0
-722 201 0
722 -683 -201 0
-685 -202 -722 723 0
-685 -202 722 -723 0
-685 202 -722 -723 0
-685 202 722 723 0
685 -202 -722 -723 0
685 -202 722 723 0
685 202 -722 723 0
685 202 722 -723 0
-685 -202 724 0
-685 -722 724 0
-202 -722 724 0
685 202 -724 0
685 722 -724 0
202 722 -724 0
-687 -203 -724 725 0
-687 -203 724 -725 0
-687 203 -724 -725 0
-687 203 724 725 0
687 -203 -724 -725 0
687 -203 724 725 0
687 203 -724 725 0
687 203 724 -725 0
-687 -203 726 0
-687 -724 726 0
-203 -724 726 0
687 203 -726 0
687 724 -726 0
203 724 -726 0
-689 -204 -726 727 0
-689 -204 726 -727 0
-689 204 -726 -727 0
-689 204 726 727 0
689 -204 -726 -727 0
689 -204 726 727 0
689 204 -726 727 0
689 204 726 -727 0
-689 -204 728 0
-689 -726 728 0
-204 -726 728 0
689 204 -728 0
689 726 -728 0
204 726 -728 0
-691 -205 -728 729 0
-691 -205 728 -729 0
-691 205 -728 -729 0
-691 205 728 729 0
691 -205 -728 -729 0
691 -205 728 729 0
691 205 -728 729 0
691 205 728 -729 0
-691 -205 730 0
-691 -728 730 0
-205 -728 730 0
691 205 -730 0
691 728 -730 0
205 728 -730 0
-693 -206 -730 731 0
-693 -206 730 -731 0
-693 206 -730 -731 0
-693 206 730 731 0
693 -206 -730 -731 0
693 -206 730 731 0
693 206 -730 731 0
693 206 730 -731 0
-693 -206 732 0
-693 -730 732 0
-206 -730 732 0
693 206 -732 0
693 730 -732 0
206 730 -732 0
-695 -207 -732 733 0
-695 -207 732 -733 0
-695 207 -732 -733 0
-695 207 732 733 0
695 -207 -732 -733 0
695 -207 732 733 0
695 207 -732 733 0
695 207 732 -733 0
-695 -207 734 0
-695 -732 734 0
-207 -732 734 0
695 207 -734 0
695 732 -734 0
207 732 -734 0
-697 -208 -734 735 0
-697 -208 734 -735 0
-697 208 -734 -735 0
-697 208 734 735 0
697 -208 -734 -735 0
697 -208 734 735 0
697 208 -734 735 0
697 208 734 -735 0
-697 -208 736 0
-697 -734 736 0
-208 -734 736 0
697 208 -736 0
697 734 -736 0
208 734 -736 0
-699 -209 -736 737 0
-699 -209 736 -737 0
-699 209 -736 -737 0
-699 209 736 737 0
699 -209 -736 -737 0
699 -209 736 737 0
699 209 -736 737 0
699 209 736 -737 0
-699 -209 738 0
-699 -736 738 0
-209 -736 738 0
699 209 -738 0
699 736 -738 0
209 736 -738 0
-701 -210 -738 739 0
-701 -210 738 -739 0
-701 210 -738 -739 0
-701 210 738 739 0
701 -210 -738 -739 0
701 -210 738 739 0
701 210 -738 739 0
701 210 738 -739 0
-701 -210 740 0
-701 -738 740 0
-210 -738 740 0
701 210 -740 0
701 738 -740 0
210 738 -740 0
-703 -211 -740 741 0
-703 -211 740 -741 0
-703 211 -740 -741 0
-703 211 740 741 0
703 -211 -740 -741 0
703 -211 740 741 0
703 211 -740 741 0
703 211 740 -741 0
-703 -211 742 0
-703 -740 742 0
-211 -740 742 0
703 211 -742 0
703 740 -742 0
211 740 -742 0
-705 -212 -742 743 0
-705 -212 742 -743 0
-705 212 -742 -743 0
-705 212 742 743 0
705 -212 -742 -743 0
705 -212 742 743 0
705 212 -742 743 0
705 212 742 -743 0
-705 -212 744 0
-705 -742 744 0
-212 -742 744 0
705 212 -744 0
705 742 -744 0
212 742 -744 0
-707 -213 -744 745 0
-707 -213 744 -745 0
-707 213 -744 -745 0
-707 213 744 745 0
707 -213 -744 -745 0
707 -213 744 745 0
707 213 -744 745 0
707 213 744 -745 0
-707 -213 746 0
-707 -744 746 0
-213 -744 746 0
707 213 -746 0
707 744 -746 0
213 744 -746 0
-709 -214 -746 747 0
-709 -214 746 -747 0
-709 214 -746 -747 0
-709 214 746 747 0
709 -214 -746 -747 0
709 -214 746 747 0
709 214 -746 747 0
709 214 746 -747 0
-709 -214 748 0
-709 -746 748 0
-214 -746 748 0
709 214 -748 0
709 746 -748 0
214 746 -748 0
-711 -215 -748 749 0
-711 -215 748 -749 0
-711 215 -748 -749 0
-711 215 748 749 0
711 -215 -748 -749 0
711 -215 748 749 0
711 215 -748 749 0
711 215 748 -749 0
-711 -215 750 0
-711 -748 750 0
-215 -748 750 0
711 215 -750 0
711 748 -750 0
215 748 -750 0
-713 -216 -750 751 0
-713 -216 750 -751 0
-713 216 -750 -751 0
-713 216 750 751 0
713 -216 -750 -751 0
713 -216 750 751 0
713 216 -750 751 0
713 216 750 -751 0
-713 -216 752 0
-713 -750 752 0
-216 -750 752 0
713 216 -752 0
713 750 -752 0
216 750 -752 0
-715 -217 -752 753 0
-715 -217 752 -753 0
-715 217 -752 -753 0
-715 217 752 753 0
715 -217 -752 -753 0
715 -217 752 753 0
715 217 -752 753 0
715 217 752 -753 0
-715 -217 754 0
-715 -752 754 0
-217 -752 754 0
715 217 -754 0
715 752 -754 0
217 752 -754 0
-717 -218 -754 755 0
-717 -218 754 -755 0
-717 218 -754 -755 0
-717 218 754 755 0
717 -218 -754 -755 0
717 -218 754 755 0
717 218 -754 755 0
717 218 754 -755 0
-717 -218 756 0
-717 -754 756 0
-218 -754 756 0
717 218 -756 0
717 754 -756 0
218 754 -756 0
-719 -219 -756 757 0
-719 -219 756 -757 0
-719 219 -756 -757 0
-719 219 756 757 0
719 -219 -756 -757 0
719 -219 756 757 0
719 219 -756 757 0
719 219 756 -757 0
-719 -219 758 0
-719 -756 758 0
-219 -756 758 0
719 219 -758 0
719 756 -758 0
219 756 -758 0
-720 -220 -758 759 0
-720 -220 758 -759 0
-720 220 -758 -759 0
-720 220 758 759 0
720 -220 -758 -759 0
720 -220 758 759 0
720 220 -758 759 0
720 220 758 -759 0
-720 -220 760 0
-720 -758 760 0
-220 -758 760 0
720 220 -760 0
720 758 -760 0
220 758 -760 0
-761 723 221 0
-761 -723 -221 0
761 -723 221 0
761 723 -221 0
-762 723 0
-762 221 0
762 -723 -221 0
-725 -222 -762 763 0
-725 -222 762 -763 0
-725 222 -762 -763 0
-725 222 762 763 0
725 -222 -762 -763 0
725 -222 762 763 0
725 222 -762 763 0
725 222 762 -763 0
-725 -222 764 0
-725 -762 764 0
-222 -762 764 0
725 222 -764 0
725 762 -764 0
222 762 -764 0
-727 -223 -764 765 0
-727 -223 764 -765 0
-727 223 -764 -765 0
-727 223 764 765 0
727 -223 -764 -765 0
727 -223 764 765 0
727 223 -764 765 0
727 223 764 -765 0
-727 -223 766 0
-727 -764 766 0
-223 -764 766 0
727 223 -766 0
727 764 -766 0
223 764 -766 0
-729 -224 -766 767 0
-729 -224 766 -767 0
-729 224 -766 -767 0
-729 224 766 767 0
729 -224 -766 -767 0
729 -224 766 767 0
729 224 -766 767 0
729 224 766 -767 0
-729 -224 768 0
-729 -766 768 0
-224 -766 768 0
729 224 -768 0
729 766 -768 0
224 766 -768 0
-731 -225 -768 769 0
-731 -225 768 -769 0
-731 225 -768 -769 0
-731 225 768 769 0
731 -225 -768 -769 0
731 -225 768 769 0
731 225 -768 769 0
731 225 768 -769 0
-731 -225 770 0
-731 -768 770 0
-225 -768 770 0
731 225 -770 0
731 768 -770 0
225 768 -770 0
-733 -226 -770 771 0
-733 -226 770 -771 0
-733 226 -770 -771 0
-733 226 770 771 0
733 -226 -770 -771 0
733 -226 770 771 0
733 226 -770 771 0
733 226 770 -771 0
-733 -226 772 0
-733 -770 772 0
-226 -770 772 0
733 226 -772 0
733 770 -772 0
226 770 -772 0
-735 -227 -772 773 0
-735 -227 772 -773 0
-735 227 -772 -773 0
-735 227 772 773 0
735 -227 -772 -773 0
735 -227 772 773 0
735 227 -772 773 0
735 227 772 -773 0
-735 -227 774 0
-735 -772 774 0
-227 -772 774 0
735 227 -774 0
735 772 -774 0
227 772 -774 0
-737 -228 -774 775 0
-737 -228 774 -775 0
-737 228 -774 -775 0
-737 228 774 775 0
737 -228 -774 -775 0
737 -228 774 775 0
737 228 -774 775 0
737 228 774 -775 0
-737 -228 776 0
-737 -774 776 0
-228 -774 776 0
737 228 -776 0
737 774 -776 0
228 774 -776 0
-739 -229 -776 777 0
-739 -229 776 -777 0
-739 229 -776 -777 0
-739 229 776 777 0
739 -229 -776 -777 0
739 -229 776 777 0
739 229 -776 777 0
739 229 776 -777 0
-739 -229 778 0
-739 -776 778 0
-229 -776 778 0
739 229 -778 0
739 776 -778 0
229 776 -778 0
-741 -230 -778 779 0
-741 -230 778 -779 0
-741 230 -778 -779 0
-741 230 778 779 0
741 -230 -778 -779 0
741 -230 778 779 0
741 230 -778 779 0
741 230 778 -779 0
-741 -230 780 0
-741 -778 780 0
-230 -778 780 0
741 230 -780 0
741 778 -780 0
230 778 -780 0
-743 -231 -780 781 0
-743 -231 780 -781 0
-743 231 -780 -781 0
-743 231 780 781 0
743 -231 -780 -781 0
743 -231 780 781 0
743 231 -780 781 0
743 231 780 -781 0
-743 -231 782 0
-743 -780 782 0
-231 -780 782 0
743 231 -782 0
743 780 -782 0
231 780 -782 0
-745 -232 -782 783 0
-745 -232 782 -783 0
-745 232 -782 -783 0
-745 232 782 783 0
745 -232 -782 -783 0
745 -232 782 783 0
745 232 -782 783 0
745 232 782 -783 0
-745 -232 784 0
-745 -782 784 0
-232 -782 784 0
745 232 -784 0
745 782 -784 0
232 782 -784 0
-747 -233 -784 785 0
-747 -233 784 -785 0
-747 233 -784 -785 0
-747 233 784 785 0
747 -233 -784 -785 0
747 -233 784 785 0
747 233 -784 785 0
747 233 784 -785 0
-747 -233 786 0
-747 -784 786 0
-233 -784 786 0
747 233 -786 0
747 784 -786 0
233 784 -786 0
-749 -234 -786 787 0
-749 -234 786 -787 0
-749 234 -786 -787 0
-749 234 786 787 0
749 -234 -786 -787 0
749 -234 786 787 0
749 234 -786 787 0
749 234 786 -787 0
-749 -234 788 0
-749 -786 788 0
-234 -786 788 0
749 234 -788 0
749 786 -788 0
234 786 -788 0
-751 -235 -788 789 0
-751 -235 788 -789 0
-751 235 -788 -789 0
-751 235 788 789 0
751 -235 -788 -789 0
751 -235 788 789 0
751 235 -788 789 0
751 235 788 -789 0
-751 -235 790 0
-751 -788 790 0
-235 -788 790 0
751 235 -790 0
751 788 -790 0
235 788 -790 0
-753 -236 -790 791 0
-753 -236 790 -791 0
-753 236 -790 -791 0
-753 236 790 791 0
753 -236 -790 -791 0
753 -236 790 791 0
753 236 -790 791 0
753 236 790 -791 0
-753 -236 792 0
-753 -790 792 0
-236 -790 792 0
753 236 -792 0
753 790 -792 0
236 790 -792 0
-755 -237 -792 793 0
-755 -237 792 -793 0
-755 237 -792 -793 0
-755 237 792 793 0
755 -237 -792 -793 0
755 -237 792 793 0
755 237 -792 793 0
755 237 792 -793 0
-755 -237 794 0
-755 -792 794 0
-237 -792 794 0
755 237 -794 0
755 792 -794 0
237 792 -794 0
-757 -238 -794 795 0
-757 -238 794 -795 0
-757 238 -794 -795 0
-757 238 794 795 0
757 -238 -794 -795 0
757 -238 794 795 0
757 238 -794 795 0
757 238 794 -795 0
-757 -238 796 0
-757 -794 796 0
-238 -794 796 0
757 238 -796 0
757 794 -796 0
238 794 -796 0
-759 -239 -796 797 0
-759 -239 796 -797 0
-759 239 -796 -797 0
-759 239 796 797 0
759 -239 -796 -797 0
759 -239 796 797 0
759 239 -796 797 0
759 239 796 -797 0
-759 -239 798 0
-759 -796 798 0
-239 -796 798 0
759 239 -798 0
759 796 -798 0
239 796 -798 0
-760 -240 -798 799 0
-760 -240 798 -799 0
-760 240 -798 -799 0
-760 240 798 799 0
760 -240 -798 -799 0
760 -240 798 799 0
760 240 -798 799 0
760 240 798 -799 0
-760 -240 800 0
-760 -798 800 0
-240 -798 800 0
760 240 -800 0
760 798 -800 0
240 798 -800 0
-801 763 241 0
-801 -763 -241 0
801 -763 241 0
801 763 -241 0
-802 763 0
-802 241 0
802 -763 -241 0
-765 -242 -802 803 0
-765 -242 802 -803 0
-765 242 -802 -803 0
-765 242 802 803 0
765 -242 -802 -803 0
765 -242 802 803 0
765 242 -802 803 0
765 242 802 -803 0
-765 -242 804 0
-765 -802 804 0
-242 -802 804 0
765 242 -804 0
765 802 -804 0
242 802 -804 0
-767 -243 -804 805 0
-767 -243 804 -805 0
-767 243 -804 -805 0
-767 243 804 805 0
767 -243 -804 -805 0
767 -243 804 805 0
767 243 -804 805 0
767 243 804 -805 0
-767 -243 806 0
-767 -804 806 0
-243 -804 806 0
767 243 -806 0
767 804 -806 0
243 804 -806 0
-769 -244 -806 807 0
-769 -244 806 -807 0
-769 244 -806 -807 0
-769 244 806 807 0
769 -244 -806 -807 0
769 -244 806 807 0
769 244 -806 807 0
769 244 806 -807 0
-769 -244 808 0
-769 -806 808 0
-244 -806 808 0
769 244 -808 0
769 806 -808 0
244 806 -808 0
-771 -245 -808 809 0
-771 -245 808 -809 0
-771 245 -808 -809 0
-771 245 808 809 0
771 -245 -808 -809 0
771 -245 808 809 0
771 245 -808 809 0
771 245 808 -809 0
-771 -245 810 0
-771 -808 810 0
-245 -808 810 0
771 245 -810 0
771 808 -810 0
245 808 -810 0
-773 -246 -810 811 0
-773 -246 810 -811 0
-773 246 -810 -811 0
-773 246 810 811 0
773 -246 -810 -811 0
773 -246 810 811 0
773 246 -810 811 0
773 246 810 -811 0
-773 -246 812 0
-773 -810 812 0
-246 -810 812 0
773 246 -812 0
773 810 -812 0
246 810 -812 0
-775 -247 -812 813 0
-775 -247 812 -813 0
-775 247 -812 -813 0
-775 247 812 813 0
775 -247 -812 -813 0
775 -247 812 813 0
775 247 -812 813 0
775 247 812 -813 0
-775 -247 814 0
-775 -812 814 0
-247 -812 814 0
775 247 -814 0
775 812 -814 0
247 812 -814 0
-777 -248 -814 815 0
-777 -248 814 -815 0
-777 248 -814 -815 0
-777 248 814 815 0
777 -248 -814 -815 0
777 -248 814 815 0
777 248 -814 815 0
777 248 814 -815 0
-777 -248 816 0
-777 -814 816 0
-248 -814 816 0
777 248 -816 0
777 814 -816 0
248 814 -816 0
-779 -249 -816 817 0
-779 -249 816 -817 0
-779 249 -816 -817 0
-779 249 816 817 0
779 -249 -816 -817 0
779 -249 816 817 0
779 249 -816 817 0
779 249 816 -817 0
-779 -249 818 0
-779 -816 818 0
-249 -816 818 0
779 249 -818 0
779 816 -818 0
249 816 -818 0
-781 -250 -818 819 0
-781 -250 818 -819 0
-781 250 -818 -819 0
-781 250 818 819 0
781 -250 -818 -819 0
781 -250 818 819 0
781 250 -818 819 0
781 250 818 -819 0
-781 -250 820 0
-781 -818 820 0
-250 -818 820 0
781 250 -820 0
781 818 -820 0
250 818 -820 0
-783 -251 -820 821 0
-783 -251 820 -821 0
-783 251 -820 -821 0
-783 251 820 821 0
783 -251 -820 -821 0
783 -251 820 821 0
783 251 -820 821 0
783 251 820 -821 0
-783 -251 822 0
-783 -820 822 0
-251 -820 822 0
783 251 -822 0
783 820 -822 0
251 820 -822 0
-785 -252 -822 823 0
-785 -252 822 -823 0
-785 252 -822 -823 0
-785 252 822 823 0
785 -252 -822 -823 0
785 -252 822 823 0
785 252 -822 823 0
785 252 822 -823 0
-785 -252 824 0
-785 -822 824 0
-252 -822 824 0
785 252 -824 0
785 822 -824 0
252 822 -824 0
-787 -253 -824 825 0
-787 -253 824 -825 0
-787 253 -824 -825 0
-787 253 824 825 0
787 -253 -824 -825 0
787 -253 824 825 0
787 253 -824 825 0
787 253 824 -825 0
-787 -253 826 0
-787 -824 826 0
-253 -824 826 0
787 253 -826 0
787 824 -826 0
253 824 -826 0
-789 -254 -826 827 0
-789 -254 826 -827 0
-789 254 -826 -827 0
-789 254 826 827 0
789 -254 -826 -827 0
789 -254 826 827 0
789 254 -826 827 0
789 254 826 -827 0
-789 -254 828 0
-789 -826 828 0
-254 -826 828 0
789 254 -828 0
789 826 -828 0
254 826 -828 0
-791 -255 -828 829 0
-791 -255 828 -829 0
-791 255 -828 -829 0
-791 255 828 829 0
791 -255 -828 -829 0
791 -255 828 829 0
791 255 -828 829 0
791 255 828 -829 0
-791 -255 830 0
-791 -828 830 0
-255 -828 830 0
791 255 -830 0
791 828 -830 0
255 828 -830 0
-793 -256 -830 831 0
-793 -256 830 -831 0
-793 256 -830 -831 0
-793 256 830 831 0
793 -256 -830 -831 0
793 -256 830 831 0
793 256 -830 831 0
793 256 830 -831 0
-793 -256 832 0
-793 -830 832 0
-256 -830 832 0
793 256 -832 0
793 830 -832 0
256 830 -832 0
-795 -257 -832 833 0
-795 -257 832 -833 0
-795 257 -832 -833 0
-795 257 832 833 0
795 -257 -832 -833 0
795 -257 832 833 0
795 257 -832 833 0
795 257 832 -833 0
-795 -257 834 0
-795 -832 834 0
-257 -832 834 0
795 257 -834 0
795 832 -834 0
257 832 -834 0
-797 -258 -834 835 0
-797 -258 834 -835 0
-797 258 -834 -835 0
-797 258 834 835 0
797 -258 -834 -835 0
797 -258 834 835 0
797 258 -834 835 0
797 258 834 -835 0
-797 -258 836 0
-797 -834 836 0
-258 -834 836 0
797 258 -836 0
797 834 -836 0
258 834 -836 0
-799 -259 -836 837 0
-799 -259 836 -837 0
-799 259 -836 -837 0
-799 259 836 837 0
799 -259 -836 -837 0
799 -259 836 837 0
799 259 -836 837 0
799 259 836 -837 0
-799 -259 838 0
-799 -836 838 0
-259 -836 838 0
799 259 -838 0
799 836 -838 0
259 836 -838 0
-800 -260 -838 839 0
-800 -260 838 -839 0
-800 260 -838 -839 0
-800 260 838 839 0
800 -260 -838 -839 0
800 -260 838 839 0
800 260 -838 839 0
800 260 838 -839 0
-800 -260 840 0
-800 -838 840 0
-260 -838 840 0
800 260 -840 0
800 838 -840 0
260 838 -840 0
-841 803 261 0
-841 -803 -261 0
841 -803 261 0
841 803 -261 0
-842 803 0
-842 261 0
842 -803 -261 0
-805 -262 -842 843 0
-805 -262 842 -843 0
-805 262 -842 -843 0
-805 262 842 843 0
805 -262 -842 -843 0
805 -262 842 843 0
805 262 -842 843 0
805 262 842 -843 0
-805 -262 844 0
-805 -842 844 0
-262 -842 844 0
805 262 -844 0
805 842 -844 0
262 842 -844 0
-807 -263 -844 845 0
-807 -263 844 -845 0
-807 263 -844 -845 0
-807 263 844 845 0
807 -263 -844 -845 0
807 -263 844 845 0
807 263 -844 845 0
807 263 844 -845 0
-807 -263 846 0
-807 -844 846 0
-263 -844 846 0
807 263 -846 0
807 844 -846 0
263 844 -846 0
-809 -264 -846 847 0
-809 -264 846 -847 0
-809 264 -846 -847 0
-809 264 846 847 0
809 -264 -846 -847 0
809 -264 846 847 0
809 264 -846 847 0
809 264 846 -847 0
-809 -264 848 0
-809 -846 848 0
-264 -846 848 0
809 264 -848 0
809 846 -848 0
264 846 -848 0
-811 -265 -848 849 0
-811 -265 848 -849 0
-811 265 -848 -849 0
-811 265 848 849 0
811 -265 -848 -849 0
811 -265 848 849 0
811 265 -848 849 0
811 265 848 -849 0
-811 -265 850 0
-811 -848 850 0
-265 -848 850 0
811 265 -850 0
811 848 -850 0
265 848 -850 0
-813 -266 -850 851 0
-813 -266 850 -851 0
-813 266 -850 -851 0
-813 266 850 851 0
813 -266 -850 -851 0
813 -266 850 851 0
813 266 -850 851 0
813 266 850 -851 0
-813 -266 852 0
-813 -850 852 0
-266 -850 852 0
813 266 -852 0
813 850 -852 0
266 850 -852 0
-815 -267 -852 853 0
-815 -267 852 -853 0
-815 267 -852 -853 0
-815 267 852 853 0
815 -267 -852 -853 0
815 -267 852 853 0
815 267 -852 853 0
815 267 852 -853 0
-815 -267 854 0
-815 -852 854 0
-267 -852 854 0
815 267 -854 0
815 852 -854 0
267 852 -854 0
-817 -268 -854 855 0
-817 -268 854 -855 0
-817 268 -854 -855 0
-817 268 854 855 0
817 -268 -854 -855 0
817 -268 854 855 0
817 268 -854 855 0
817 268 854 -855 0
-817 -268 856 0
-817 -854 856 0
-268 -854 856 0
817 268 -856 0
817 854 -856 0
268 854 -856 0
-819 -269 -856 857 0
-819 -269 856 -857 0
-819 269 -856 -857 0
-819 269 856 857 0
819 -269 -856 -857 0
819 -269 856 857 0
819 269 -856 857 0
819 269 856 -857 0
-819 -269 858 0
-819 -856 858 0
-269 -856 858 0
819 269 -858 0
819 856 -858 0
269 856 -858 0
-821 -270 -858 859 0
-821 -270 858 -859 0
-821 270 -858 -859 0
-821 270 858 859 0
821 -270 -858 -859 0
821 -270 858 859 0
821 270 -858 859 0
821 270 858 -859 0
-821 -270 860 0
-821 -858 860 0
-270 -858 860 0
821 270 -860 0
821 858 -860 0
270 858 -860 0
-823 -271 -860 861 0
-823 -271 860 -861 0
-823 271 -860 -861 0
-823 271 860 861 0
823 -271 -860 -861 0
823 -271 860 861 0
823 271 -860 861 0
823 271 860 -861 0
-823 -271 862 0
-823 -860 862 0
-271 -860 862 0
823 271 -862 0
823 860 -862 0
271 860 -862 0
-825 -272 -862 863 0
-825 -272 862 -863 0
-825 272 -862 -863 0
-825 272 862 863 0
825 -272 -862 -863 0
825 -272 862 863 0
825 272 -862 863 0
825 272 862 -863 0
-825 -272 864 0
-825 -862 864 0
-272 -862 864 0
825 272 -864 0
825 862 -864 0
272 862 -864 0
-827 -273 -864 865 0
-827 -273 864 -865 0
-827 273 -864 -865 0
-827 273 864 865 0
827 -273 -864 -865 0
827 -273 864 865 0
827 273 -864 865 0
827 273 864 -865 0
-827 -273 866 0
-827 -864 866 0
-273 -864 866 0
827 273 -866 0
827 864 -866 0
273 864 -866 0
-829 -274 -866 867 0
-829 -274 866 -867 0
-829 274 -866 -867 0
-829 274 866 867 0
829 -274 -866 -867 0
829 -274 866 867 0
829 274 -866 867 0
829 274 866 -867 0
-829 -274 868 0
-829 -866 868 0
-274 -866 868 0
829 274 -868 0
829 866 -868 0
274 866 -868 0
-831 -275 -868 869 0
-831 -275 868 -869 0
-831 275 -868 -869 0
-831 275 868 869 0
831 -275 -868 -869 0
831 -275 868 869 0
831 275 -868 869 0
831 275 868 -869 0
-831 -275 870 0
-831 -868 870 0
-275 -868 870 0
831 275 -870 0
831 868 -870 0
275 868 -870 0
-833 -276 -870 871 0
-833 -276 870 -871 0
-833 276 -870 -871 0
-833 276 870 871 0
833 -276 -870 -871 0
833 -276 870 871 0
833 276 -870 871 0
833 276 870 -871 0
-833 -276 872 0
-833 -870 872 0
-276 -870 872 0
833 276 -872 0
833 870 -872 0
276 870 -872 0
-835 -277 -872 873 0
-835 -277 872 -873 0
-835 277 -872 -873 0
-835 277 872 873 0
835 -277 -872 -873 0
835 -277 872 873 0
835 277 -872 873 0
835 277 872 -873 0
-835 -277 874 0
-835 -872 874 0
-277 -872 874 0
835 277 -874 0
835 872 -874 0
277 872 -874 0
-837 -278 -874 875 0
-837 -278 874 -875 0
-837 278 -874 -875 0
-837 278 874 875 0
837 -278 -874 -875 0
837 -278 874 875 0
837 278 -874 875 0
837 278 874 -875 0
-837 -278 876 0
-837 -874 876 0
-278 -874 876 0
837 278 -876 0
837 874 -876 0
278 874 -876 0
-839 -279 -876 877 0
-839 -279 876 -877 0
-839 279 -876 -877 0
-839 279 876 877 0
839 -279 -876 -877 0
839 -279 876 877 0
839 279 -876 877 0
839 279 876 -877 0
-839 -279 878 0
-839 -876 878 0
-279 -876 878 0
839 279 -878 0
839 876 -878 0
279 876 -878 0
-840 -280 -878 879 0
-840 -280 878 -879 0
-840 280 -878 -879 0
-840 280 878 879 0
840 -280 -878 -879 0
840 -280 878 879 0
840 280 -878 879 0
840 280 878 -879 0
-840 -280 880 0
-840 -878 880 0
-280 -878 880 0
840 280 -880 0
840 878 -880 0
280 878 -880 0
-881 843 281 0
-881 -843 -281 0
881 -843 281 0
881 843 -281 0
-882 843 0
-882 281 0
882 -843 -281 0
-845 -282 -882 883 0
-845 -282 882 -883 0
-845 282 -882 -883 0
-845 282 882 883 0
845 -282 -882 -883 0
845 -282 882 883 0
845 282 -882 883 0
845 282 882 -883 0
-845 -282 884 0
-845 -882 884 0
-282 -882 884 0
845 282 -884 0
845 882 -884 0
282 882 -884 0
-847 -283 -884 885 0
-847 -283 884 -885 0
-847 283 -884 -885 0
-847 283 884 885 0
847 -283 -884 -885 0
847 -283 884 885 0
847 283 -884 885 0
847 283 884 -885 0
-847 -283 886 0
-847 -884 886 0
-283 -884 886 0
847 283 -886 0
847 884 -886 0
283 884 -886 0
-849 -284 -886 887 0
-849 -284 886 -887 0
-849 284 -886 -887 0
-849 284 886 887 0
849 -284 -886 -887 0
849 -284 886 887 0
849 284 -886 887 0
849 284 886 -887 0
-849 -284 888 0
-849 -886 888 0
-284 -886 888 0
849 284 -888 0
849 886 -888 0
284 886 -888 0
-851 -285 -888 889 0
-851 -285 888 -889 0
-851 285 -888 -889 0
-851 285 888 889 0
851 -285 -888 -889 0
851 -285 888 889 0
851 285 -888 889 0
851 285 888 -889 0
-851 -285 890 0
-851 -888 890 0
-285 -888 890 0
851 285 -890 0
851 888 -890 0
285 888 -890 0
-853 -286 -890 891 0
-853 -286 890 -891 0
-853 286 -890 -891 0
-853 286 890 891 0
853 -286 -890 -891 0
853 -286 890 891 0
853 286 -890 891 0
853 286 890 -891 0
-853 -286 892 0
-853 -890 892 0
-286 -890 892 0
853 286 -892 0
853 890 -892 0
286 890 -892 0
-855 -287 -892 893 0
-855 -287 892 -893 0
-855 287 -892 -893 0
-855 287 892 893 0
855 -287 -892 -893 0
855 -287 892 893 0
855 287 -892 893 0
855 287 892 -893 0
-855 -287 894 0
-855 -892 894 0
-287 -892 894 0
855 287 -894 0
855 892 -894 0
287 892 -894 0
-857 -288 -894 895 0
-857 -288 894 -895 0
-857 288 -894 -895 0
-857 288 894 895 0
857 -288 -894 -895 0
857 -288 894 895 0
857 288 -894 895 0
857 288 894 -895 0
-857 -288 896 0
-857 -894 896 0
-288 -894 896 0
857 288 -896 0
857 894 -896 0
288 894 -896 0
-859 -289 -896 897 0
-859 -289 896 -897 0
-859 289 -896 -897 0
-859 289 896 897 0
859 -289 -896 -897 0
859 -289 896 897 0
859 289 -896 897 0
859 289 896 -897 0
-859 -289 898 0
-859 -896 898 0
-289 -896 898 0
859 289 -898 0
859 896 -898 0
289 896 -898 0
-861 -290 -898 899 0
-861 -290 898 -899 0
-861 290 -898 -899 0
-861 290 898 899 0
861 -290 -898 -899 0
861 -290 898 899 0
861 290 -898 899 0
861 290 898 -899 0
-861 -290 900 0
-861 -898 900 0
-290 -898 900 0
861 290 -900 0
861 898 -900 0
290 898 -900 0
-863 -291 -900 901 0
-863 -291 900 -901 0
-863 291 -900 -901 0
-863 291 900 901 0
863 -291 -900 -901 0
863 -291 900 901 0
863 291 -900 901 0
863 291 900 -901 0
-863 -291 902 0
-863 -900 902 0
-291 -900 902 0
863 291 -902 0
863 900 -902 0
291 900 -902 0
-865 -292 -902 903 0
-865 -292 902 -903 0
-865 292 -902 -903 0
-865 292 902 903 0
865 -292 -902 -903 0
865 -292 902 903 0
865 292 -902 903 0
865 292 902 -903 0
-865 -292 904 0
-865 -902 904 0
-292 -902 904 0
865 292 -904 0
865 902 -904 0
292 902 -904 0
-867 -293 -904 905 0
-867 -293 904 -905 0
-867 293 -904 -905 0
-867 293 904 905 0
867 -293 -904 -905 0
867 -293 904 905 0
867 293 -904 905 0
867 293 904 -905 0
-867 -293 906 0
-867 -904 906 0
-293 -904 906 0
867 293 -906 0
867 904 -906 0
293 904 -906 0
-869 -294 -906 907 0
-869 -294 906 -907 0
-869 294 -906 -907 0
-869 294 906 907 0
869 -294 -906 -907 0
869 -294 906 907 0
869 294 -906 907 0
869 294 906 -907 0
-869 -294 908 0
-869 -906 908 0
-294 -906 908 0
869 294 -908 0
869 906 -908 0
294 906 -908 0
-871 -295 -908 909 0
-871 -295 908 -909 0
-871 295 -908 -909 0
-871 295 908 909 0
871 -295 -908 -909 0
871 -295 908 909 0
871 295 -908 909 0
871 295 908 -909 0
-871 -295 910 0
-871 -908 910 0
-295 -908 910 0
871 295 -910 0
871 908 -910 0
295 908 -910 0
-873 -296 -910 911 0
-873 -296 910 -911 0
-873 296 -910 -911 0
-873 296 910 911 0
873 -296 -910 -911 0
873 -296 910 911 0
873 296 -910 911 0
873 296 910 -911 0
-873 -296 912 0
-873 -910 912 0
-296 -910 912 0
873 296 -912 0
873 910 -912 0
296 910 -912 0
-875 -297 -912 913 0
-875 -297 912 -913 0
-875 297 -912 -913 0
-875 297 912 913 0
875 -297 -912 -913 0
875 -297 912 913 0
875 297 -912 913 0
875 297 912 -913 0
-875 -297 914 0
-875 -912 914 0
-297 -912 914 0
875 297 -914 0
875 912 -914 0
297 912 -914 0
-877 -298 -914 915 0
-877 -298 914 -915 0
-877 298 -914 -915 0
-877 298 914 915 0
877 -298 -914 -915 0
877 -298 914 915 0
877 298 -914 915 0
877 298 914 -915 0
-877 -298 916 0
-877 -914 916 0
-298 -914 916 0
877 298 -916 0
877 914 -916 0
298 914 -916 0
-879 -299 -916 917 0
-879 -299 916 -917 0
-879 299 -916 -917 0
-879 299 916 917 0
879 -299 -916 -917 0
879 -299 916 917 0
879 299 -916 917 0
879 299 916 -917 0
-879 -299 918 0
-879 -916 918 0
-299 -916 918 0
879 299 -918 0
879 916 -918 0
299 916 -918 0
-880 -300 -918 919 0
-880 -300 918 -919 0
-880 300 -918 -919 0
-880 300 918 919 0
880 -300 -918 -919 0
880 -300 918 919 0
880 300 -918 919 0
880 300 918 -919 0
-880 -300 920 0
-880 -918 920 0
-300 -918 920 0
880 300 -920 0
880 918 -920 0
300 918 -920 0
-921 883 301 0
-921 -883 -301 0
921 -883 301 0
921 883 -301 0
-922 883 0
-922 301 0
922 -883 -301 0
-885 -302 -922 923 0
-885 -302 922 -923 0
-885 302 -922 -923 0
-885 302 922 923 0
885 -302 -922 -923 0
885 -302 922 923 0
885 302 -922 923 0
885 302 922 -923 0
-885 -302 924 0
-885 -922 924 0
-302 -922 924 0
885 302 -924 0
885 922 -924 0
302 922 -924 0
-887 -303 -924 925 0
-887 -303 924 -925 0
-887 303 -924 -925 0
-887 303 924 925 0
887 -303 -924 -925 0
887 -303 924 925 0
887 303 -924 925 0
887 303 924 -925 0
-887 -303 926 0
-887 -924 926 0
-303 -924 926 0
887 303 -926 0
887 924 -926 0
303 924 -926 0
-889 -304 -926 927 0
-889 -304 926 -927 0
-889 304 -926 -927 0
-889 304 926 927 0
889 -304 -926 -927 0
889 -304 926 927 0
889 304 -926 927 0
889 304 926 -927 0
-889 -304 928 0
-889 -926 928 0
-304 -926 928 0
889 304 -928 0
889 926 -928 0
304 926 -928 0
-891 -305 -928 929 0
-891 -305 928 -929 0
-891 305 -928 -929 0
-891 305 928 929 0
891 -305 -928 -929 0
891 -305 928 929 0
891 305 -928 929 0
891 305 928 -929 0
-891 -305 930 0
-891 -928 930 0
-305 -928 930 0
891 305 -930 0
891 928 -930 0
305 928 -930 0
-893 -306 -930 931 0
-893 -306 930 -931 0
-893 306 -930 -931 0
-893 306 930 931 0
893 -306 -930 -931 0
893 -306 930 931 0
893 306 -930 931 0
893 306 930 -931 0
-893 -306 932 0
-893 -930 932 0
-306 -930 932 0
893 306 -932 0
893 930 -932 0
306 930 -932 0
-895 -307 -932 933 0
-895 -307 932 -933 0
-895 307 -932 -933 0
-895 307 932 933 0
895 -307 -932 -933 0
895 -307 932 933 0
895 307 -932 933 0
895 307 932 -933 0
-895 -307 934 0
-895 -932 934 0
-307 -932 934 0
895 307 -934 0
895 932 -934 0
307 932 -934 0
-897 -308 -934 935 0
-897 -308 934 -935 0
-897 308 -934 -935 0
-897 308 934 935 0
897 -308 -934 -935 0
897 -308 934 935 0
897 308 -934 935 0
897 308 934 -935 0
-897 -308 936 0
-897 -934 936 0
-308 -934 936 0
897 308 -936 0
897 934 -936 0
308 934 -936 0
-899 -309 -936 937 0
-899 -309 936 -937 0
-899 309 -936 -937 0
-899 309 936 937 0
899 -309 -936 -937 0
899 -309 936 937 0
899 309 -936 937 0
899 309 936 -937 0
-899 -309 938 0
-899 -936 938 0
-309 -936 938 0
899 309 -938 0
899 936 -938 0
309 936 -938 0
-901 -310 -938 939 0
-901 -310 938 -939 0
-901 310 -938 -939 0
-901 310 938 939 0
901 -310 -938 -939 0
901 -310 938 939 0
901 310 -938 939 0
901 310 938 -939 0
-901 -310 940 0
-901 -938 940 0
-310 -938 940 0
901 310 -940 0
901 938 -940 0
310 938 -940 0
-903 -311 -940 941 0
-903 -311 940 -941 0
-903 311 -940 -941 0
-903 311 940 941 0
903 -311 -940 -941 0
903 -311 940 941 0
903 311 -940 941 0
903 311 940 -941 0
-903 -311 942 0
-903 -940 942 0
-311 -940 942 0
903 311 -942 0
903 940 -942 0
311 940 -942 0
-905 -312 -942 943 0
-905 -312 942 -943 0
-905 312 -942 -943 0
-905 312 942 943 0
905 -312 -942 -943 0
905 -312 942 943 0
905 312 -942 943 0
905 312 942 -943 0
-905 -312 944 0
-905 -942 944 0
-312 -942 944 0
905 312 -944 0
905 942 -944 0
312 942 -944 0
-907 -313 -944 945 0
-907 -313 944 -945 0
-907 313 -944 -945 0
-907 313 944 945 0
907 -313 -944 -945 0
907 -313 944 945 0
907 313 -944 945 0
907 313 944 -945 0
-907 -313 946 0
-907 -944 946 0
-313 -944 946 0
907 313 -946 0
907 944 -946 0
313 944 -946 0
-909 -314 -946 947 0
-909 -314 946 -947 0
-909 314 -946 -947 0
-909 314 946 947 0
909 -314 -946 -947 0
909 -314 946 947 0
909 314 -946 947 0
909 314 946 -947 0
-909 -314 948 0
-909 -946 948 0
-314 -946 948 0
909 314 -948 0
909 946 -948 0
314 946 -948 0
-911 -315 -948 949 0
-911 -315 948 -949 0
-911 315 -948 -949 0
-911 315 948 949 0
911 -315 -948 -949 0
911 -315 948 949 0
911 315 -948 949 0
911 315 948 -949 0
-911 -315 950 0
-911 -948 950 0
-315 -948 950 0
911 315 -950 0
911 948 -950 0
315 948 -950 0
-913 -316 -950 951 0
-913 -316 950 -951 0
-913 316 -950 -951 0
-913 316 950 951 0
913 -316 -950 -951 0
913 -316 950 951 0
913 316 -950 951 0
913 316 950 -951 0
-913 -316 952 0
-913 -950 952 0
-316 -950 952 0
913 316 -952 0
913 950 -952 0
316 950 -952 0
-915 -317 -952 953 0
-915 -317 952 -953 0
-915 317 -952 -953 0
-915 317 952 953 0
915 -317 -952 -953 0
915 -317 952 953 0
915 317 -952 953 0
915 317 952 -953 0
-915 -317 954 0
-915 -952 954 0
-317 -952 954 0
915 317 -954 0
915 952 -954 0
317 952 -954 0
-917 -318 -954 955 0
-917 -318 954 -955 0
-917 318 -954 -955 0
-917 318 954 955 0
917 -318 -954 -955 0
917 -318 954 955 0
917 318 -954 955 0
917 318 954 -955 0
-917 -318 956 0
-917 -954 956 0
-318 -954 956 0
917 318 -956 0
917 954 -956 0
318 954 -956 0
-919 -319 -956 957 0
-919 -319 956 -957 0
-919 319 -956 -957 0
-919 319 956 957 0
919 -319 -956 -957 0
919 -319 956 957 0
919 319 -956 957 0
919 319 956 -957 0
-919 -319 958 0
-919 -956 958 0
-319 -956 958 0
919 319 -958 0
919 956 -958 0
319 956 -958 0
-920 -320 -958 959 0
-920 -320 958 -959 0
-920 320 -958 -959 0
-920 320 958 959 0
920 -320 -958 -959 0
920 -320 958 959 0
920 320 -958 959 0
920 320 958 -959 0
-920 -320 960 0
-920 -958 960 0
-320 -958 960 0
920 320 -960 0
920 958 -960 0
320 958 -960 0
-961 923 321 0
-961 -923 -321 0
961 -923 321 0
961 923 -321 0
-962 923 0
-962 321 0
962 -923 -321 0
-925 -322 -962 963 0
-925 -322 962 -963 0
-925 322 -962 -963 0
-925 322 962 963 0
925 -322 -962 -963 0
925 -322 962 963 0
925 322 -962 963 0
925 322 962 -963 0
-925 -322 964 0
-925 -962 964 0
-322 -962 964 0
925 322 -964 0
925 962 -964 0
322 962 -964 0
-927 -323 -964 965 0
-927 -323 964 -965 0
-927 323 -964 -965 0
-927 323 964 965 0
927 -323 -964 -965 0
927 -323 964 965 0
927 323 -964 965 0
927 323 964 -965 0
-927 -323 966 0
-927 -964 966 0
-323 -964 966 0
927 323 -966 0
927 964 -966 0
323 964 -966 0
-929 -324 -966 967 0
-929 -324 966 -967 0
-929 324 -966 -967 0
-929 324 966 967 0
929 -324 -966 -967 0
929 -324 966 967 0
929 324 -966 967 0
929 324 966 -967 0
-929 -324 968 0
-929 -966 968 0
-324 -966 968 0
929 324 -968 0
929 966 -968 0
324 966 -968 0
-931 -325 -968 969 0
-931 -325 968 -969 0
-931 325 -968 -969 0
-931 325 968 969 0
931 -325 -968 -969 0
931 -325 968 969 0
931 325 -968 969 0
931 325 968 -969 0
-931 -325 970 0
-931 -968 970 0
-325 -968 970 0
931 325 -970 0
931 968 -970 0
325 968 -970 0
-933 -326 -970 971 0
-933 -326 970 -971 0
-933 326 -970 -971 0
-933 326 970 971 0
933 -326 -970 -971 0
933 -326 970 971 0
933 326 -970 971 0
933 326 970 -971 0
-933 -326 972 0
-933 -970 972 0
-326 -970 972 0
933 326 -972 0
933 970 -972 0
326 970 -972 0
-935 -327 -972 973 0
-935 -327 972 -973 0
-935 327 -972 -973 0
-935 327 972 973 0
935 -327 -972 -973 0
935 -327 972 973 0
935 327 -972 973 0
935 327 972 -973 0
-935 -327 974 0
-935 -972 974 0
-327 -972 974 0
935 327 -974 0
935 972 -974 0
327 972 -974 0
-937 -328 -974 975 0
-937 -328 974 -975 0
-937 328 -974 -975 0
-937 328 974 975 0
937 -328 -974 -975 0
937 -328 974 975 0
937 328 -974 975 0
937 328 974 -975 0
-937 -328 976 0
-937 -974 976 0
-328 -974 976 0
937 328 -976 0
937 974 -976 0
328 974 -976 0
-939 -329 -976 977 0
-939 -329 976 -977 0
-939 329 -976 -977 0
-939 329 976 977 0
939 -329 -976 -977 0
939 -329 976 977 0
939 329 -976 977 0
939 329 976 -977 0
-939 -329 978 0
-939 -976 978 0
-329 -976 978 0
939 329 -978 0
939 976 -978 0
329 976 -978 0
-941 -330 -978 979 0
-941 -330 978 -979 0
-941 330 -978 -979 0
-941 330 978 979 0
941 -330 -978 -979 0
941 -330 978 979 0
941 330 -978 979 0
941 330 978 -979 0
-941 -330 980 0
-941 -978 980 0
-330 -978 980 0
941 330 -980 0
941 978 -980 0
330 978 -980 0
-943 -331 -980 981 0
-943 -331 980 -981 0
-943 331 -980 -981 0
-943 331 980 981 0
943 -331 -980 -981 0
943 -331 980 981 0
943 331 -980 981 0
943 331 980 -981 0
-943 -331 982 0
-943 -980 982 0
-331 -980 982 0
943 331 -982 0
943 980 -982 0
331 980 -982 0
-945 -332 -982 983 0
-945 -332 982 -983 0
-945 332 -982 -983 0
-945 332 982 983 0
945 -332 -982 -983 0
945 -332 982 983 0
945 332 -982 983 0
945 332 982 -983 0
-945 -332 984 0
-945 -982 984 0
-332 -982 984 0
945 332 -984 0
945 982 -984 0
332 982 -984 0
-947 -333 -984 985 0
-947 -333 984 -985 0
-947 333 -984 -985 0
-947 333 984 985 0
947 -333 -984 -985 0
947 -333 984 985 0
947 333 -984 985 0
947 333 984 -985 0
-947 -333 986 0
-947 -984 986 0
-333 -984 986 0
947 333 -986 0
947 984 -986 0
333 984 -986 0
-949 -334 -986 987 0
-949 -334 986 -987 0
-949 334 -986 -987 0
-949 334 986 987 0
949 -334 -986 -987 0
949 -334 986 987 0
949 334 -986 987 0
949 334 986 -987 0
-949 -334 988 0
-949 -986 988 0
-334 -986 988 0
949 334 -988 0
949 986 -988 0
334 986 -988 0
-951 -335 -988 989 0
-951 -335 988 -989 0
-951 335 -988 -989 0
-951 335 988 989 0
951 -335 -988 -989 0
951 -335 988 989 0
951 335 -988 989 0
951 335 988 -989 0
-951 -335 990 0
-951 -988 990 0
-335 -988 990 0
951 335 -990 0
951 988 -990 0
335 988 -990 0
-953 -336 -990 991 0
-953 -336 990 -991 0
-953 336 -990 -991 0
-953 336 990 991 0
953 -336 -990 -991 0
953 -336 990 991 0
953 336 -990 991 0
953 336 990 -991 0
-953 -336 992 0
-953 -990 992 0
-336 -990 992 0
953 336 -992 0
953 990 -992 0
336 990 -992 0
-955 -337 -992 993 0
-955 -337 992 -993 0
-955 337 -992 -993 0
-955 337 992 993 0
955 -337 -992 -993 0
955 -337 992 993 0
955 337 -992 993 0
955 337 992 -993 0
-955 -337 994 0
-955 -992 994 0
-337 -992 994 0
955 337 -994 0
955 992 -994 0
337 992 -994 0
-957 -338 -994 995 0
-957 -338 994 -995 0
-957 338 -994 -995 0
-957 338 994 995 0
957 -338 -994 -995 0
957 -338 994 995 0
957 338 -994 995 0
957 338 994 -995 0
-957 -338 996 0
-957 -994 996 0
-338 -994 996 0
957 338 -996 0
957 994 -996 0
338 994 -996 0
-959 -339 -996 997 0
-959 -339 996 -997 0
-959 339 -996 -997 0
-959 339 996 997 0
959 -339 -996 -997 0
959 -339 996 997 0
959 339 -996 997 0
959 339 996 -997 0
-959 -339 998 0
-959 -996 998 0
-339 -996 998 0
959 339 -998 0
959 996 -998 0
339 996 -998 0
-960 -340 -998 999 0
-960 -340 998 -999 0
-960 340 -998 -999 0
-960 340 998 999 0
960 -340 -998 -999 0
960 -340 998 999 0
960 340 -998 999 0
960 340 998 -999 0
-960 -340 1000 0
-960 -998 1000 0
-340 -998 1000 0
960 340 -1000 0
960 998 -1000 0
340 998 -1000 0
-1001 963 341 0
-1001 -963 -341 0
1001 -963 341 0
1001 963 -341 0
-1002 963 0
-1002 341 0
1002 -963 -341 0
-965 -342 -1002 1003 0
-965 -342 1002 -1003 0
-965 342 -1002 -1003 0
-965 342 1002 1003 0
965 -342 -1002 -1003 0
965 -342 1002 1003 0
965 342 -1002 1003 0
965 342 1002 -1003 0
-965 -342 1004 0
-965 -1002 1004 0
-342 -1002 1004 0
965 342 -1004 0
965 1002 -1004 0
342 1002 -1004 0
-967 -343 -1004 1005 0
-967 -343 1004 -1005 0
-967 343 -1004 -1005 0
-967 343 1004 1005 0
967 -343 -1004 -1005 0
967 -343 1004 1005 0
967 343 -1004 1005 0
967 343 1004 -1005 0
-967 -343 1006 0
-967 -1004 1006 0
-343 -1004 1006 0
967 343 -1006 0
967 1004 -1006 0
343 1004 -1006 0
-969 -344 -1006 1007 0
-969 -344 1006 -1007 0
-969 344 -1006 -1007 0
-969 344 1006 1007 0
969 -344 -1006 -1007 0
969 -344 1006 1007 0
969 344 -1006 1007 0
969 344 1006 -1007 0
-969 -344 1008 0
-969 -1006 1008 0
-344 -1006 1008 0
969 344 -1008 0
969 1006 -1008 0
344 1006 -1008 0
-971 -345 -1008 1009 0
-971 -345 1008 -1009 0
-971 345 -1008 -1009 0
-971 345 1008 1009 0
971 -345 -1008 -1009 0
971 -345 1008 1009 0
971 345 -1008 1009 0
971 345 1008 -1009 0
-971 -345 1010 0
-971 -1008 1010 0
-345 -1008 1010 0
971 345 -1010 0
971 1008 -1010 0
345 1008 -1010 0
-973 -346 -1010 1011 0
-973 -346 1010 -1011 0
-973 346 -1010 -1011 0
-973 346 1010 1011 0
973 -346 -1010 -1011 0
973 -346 1010 1011 0
973 346 -1010 1011 0
973 346 1010 -1011 0
-973 -346 1012 0
-973 -1010 1012 0
-346 -1010 1012 0
973 346 -1012 0
973 1010 -1012 0
346 1010 -1012 0
-975 -347 -1012 1013 0
-975 -347 1012 -1013 0
-975 347 -1012 -1013 0
-975 347 1012 1013 0
975 -347 -1012 -1013 0
975 -347 1012 1013 0
975 347 -1012 1013 0
975 347 1012 -1013 0
-975 -347 1014 0
-975 -1012 1014 0
-347 -1012 1014 0
975 347 -1014 0
975 1012 -1014 0
347 1012 -1014 0
-977 -348 -1014 1015 0
-977 -348 1014 -1015 0
-977 348 -1014 -1015 0
-977 348 1014 1015 0
977 -348 -1014 -1015 0
977 -348 1014 1015 0
977 348 -1014 1015 0
977 348 1014 -1015 0
-977 -348 1016 0
-977 -1014 1016 0
-348 -1014 1016 0
977 348 -1016 0
977 1014 -1016 0
348 1014 -1016 0
-979 -349 -1016 1017 0
-979 -349 1016 -1017 0
-979 349 -1016 -1017 0
-979 349 1016 1017 0
979 -349 -1016 -1017 0
979 -349 1016 1017 0
979 349 -1016 1017 0
979 349 1016 -1017 0
-979 -349 1018 0
-979 -1016 1018 0
-349 -1016 1018 0
979 349 -1018 0
979 1016 -1018 0
349 1016 -1018 0
-981 -350 -1018 1019 0
-981 -350 1018 -1019 0
-981 350 -1018 -1019 0
-981 350 1018 1019 0
981 -350 -1018 -1019 0
981 -350 1018 1019 0
981 350 -1018 1019 0
981 350 1018 -1019 0
-981 -350 1020 0
-981 -1018 1020 0
-350 -1018 1020 0
981 350 -1020 0
981 1018 -1020 0
350 1018 -1020 0
-983 -351 -1020 1021 0
-983 -351 1020 -1021 0
-983 351 -1020 -1021 0
-983 351 1020 1021 0
983 -351 -1020 -1021 0
983 -351 1020 1021 0
983 351 -1020 1021 0
983 351 1020 -1021 0
-983 -351 1022 0
-983 -1020 1022 0
-351 -1020 1022 0
983 351 -1022 0
983 1020 -1022 0
351 1020 -1022 0
-985 -352 -1022 1023 0
-985 -352 1022 -1023 0
-985 352 -1022 -1023 0
-985 352 1022 1023 0
985 -352 -1022 -1023 0
985 -352 1022 1023 0
985 352 -1022 1023 0
985 352 1022 -1023 0
-985 -352 1024 0
-985 -1022 1024 0
-352 -1022 1024 0
985 352 -1024 0
985 1022 -1024 0
352 1022 -1024 0
-987 -353 -1024 1025 0
-987 -353 1024 -1025 0
-987 353 -1024 -1025 0
-987 353 1024 1025 0
987 -353 -1024 -1025 0
987 -353 1024 1025 0
987 353 -1024 1025 0
987 353 1024 -1025 0
-987 -353 1026 0
-987 -1024 1026 0
-353 -1024 1026 0
987 353 -1026 0
987 1024 -1026 0
353 1024 -1026 0
-989 -354 -1026 1027 0
-989 -354 1026 -1027 0
-989 354 -1026 -1027 0
-989 354 1026 1027 0
989 -354 -1026 -1027 0
989 -354 1026 1027 0
989 354 -1026 1027 0
989 354 1026 -1027 0
-989 -354 1028 0
-989 -1026 1028 0
-354 -1026 1028 0
989 354 -1028 0
989 1026 -1028 0
354 1026 -1028 0
-991 -355 -1028 1029 0
-991 -355 1028 -1029 0
-991 355 -1028 -1029 0
-991 355 1028 1029 0
991 -355 -1028 -1029 0
991 -355 1028 1029 0
991 355 -1028 1029 0
991 355 1028 -1029 0
-991 -355 1030 0
-991 -1028 1030 0
-355 -1028 1030 0
991 355 -1030 0
991 1028 -1030 0
355 1028 -1030 0
-993 -356 -1030 1031 0
-993 -356 1030 -1031 0
-993 356 -1030 -1031 0
-993 356 1030 1031 0
993 -356 -1030 -1031 0
993 -356 1030 1031 0
993 356 -1030 1031 0
993 356 1030 -1031 0
-993 -356 1032 0
-993 -1030 1032 0
-356 -1030 1032 0
993 356 -1032 0
993 1030 -1032 0
356 1030 -1032 0
-995 -357 -1032 1033 0
-995 -357 1032 -1033 0
-995 357 -1032 -1033 0
-995 357 1032 1033 0
995 -357 -1032 -1033 0
995 -357 1032 1033 0
995 357 -1032 1033 0
995 357 1032 -1033 0
-995 -357 1034 0
-995 -1032 1034 0
-357 -1032 1034 0
995 357 -1034 0
995 1032 -1034 0
357 1032 -1034 0
-997 -358 -1034 1035 0
-997 -358 1034 -1035 0
-997 358 -1034 -1035 0
-997 358 1034 1035 0
997 -358 -1034 -1035 0
997 -358 1034 1035 0
997 358 -1034 1035 0
997 358 1034 -1035 0
-997 -358 1036 0
-997 -1034 1036 0
-358 -1034 1036 0
997 358 -1036 0
997 1034 -1036 0
358 1034 -1036 0
-999 -359 -1036 1037 0
-999 -359 1036 -1037 0
-999 359 -1036 -1037 0
-999 359 1036 1037 0
999 -359 -1036 -1037 0
999 -359 1036 1037 0
999 359 -1036 1037 0
999 359 1036 -1037 0
-999 -359 1038 0
-999 -1036 1038 0
-359 -1036 1038 0
999 359 -1038 0
999 1036 -1038 0
359 1036 -1038 0
-1000 -360 -1038 1039 0
-1000 -360 1038 -1039 0
-1000 360 -1038 -1039 0
-1000 360 1038 1039 0
1000 -360 -1038 -1039 0
1000 -360 1038 1039 0
1000 360 -1038 1039 0
1000 360 1038 -1039 0
-1000 -360 1040 0
-1000 -1038 1040 0
-360 -1038 1040 0
1000 360 -1040 0
1000 1038 -1040 0
360 1038 -1040 0
-1041 1003 361 0
-1041 -1003 -361 0
1041 -1003 361 0
1041 1003 -361 0
-1042 1003 0
-1042 361 0
1042 -1003 -361 0
-1005 -362 -1042 1043 0
-1005 -362 1042 -1043 0
-1005 362 -1042 -1043 0
-1005 362 1042 1043 0
1005 -362 -1042 -1043 0
1005 -362 1042 1043 0
1005 362 -1042 1043 0
1005 362 1042 -1043 0
-1005 -362 1044 0
-1005 -1042 1044 0
-362 -1042 1044 0
1005 362 -1044 0
1005 1042 -1044 0
362 1042 -1044 0
-1007 -363 -1044 1045 0
-1007 -363 1044 -1045 0
-1007 363 -1044 -1045 0
-1007 363 1044 1045 0
1007 -363 -1044 -1045 0
1007 -363 1044 1045 0
1007 363 -1044 1045 0
1007 363 1044 -1045 0
-1007 -363 1046 0
-1007 -1044 1046 0
-363 -1044 1046 0
1007 363 -1046 0
1007 1044 -1046 0
363 1044 -1046 0
-1009 -364 -1046 1047 0
-1009 -364 1046 -1047 0
-1009 364 -1046 -1047 0
-1009 364 1046 1047 0
1009 -364 -1046 -1047 0
1009 -364 1046 1047 0
1009 364 -1046 1047 0
1009 364 1046 -1047 0
-1009 -364 1048 0
-1009 -1046 1048 0
-364 -1046 1048 0
1009 364 -1048 0
1009 1046 -1048 0
364 1046 -1048 0
-1011 -365 -1048 1049 0
-1011 -365 1048 -1049 0
-1011 365 -1048 -1049 0
-1011 365 1048 1049 0
1011 -365 -1048 -1049 0
1011 -365 1048 1049 0
1011 365 -1048 1049 0
1011 365 1048 -1049 0
-1011 -365 1050 0
-1011 -1048 1050 0
-365 -1048 1050 0
1011 365 -1050 0
1011 1048 -1050 0
365 1048 -1050 0
-1013 -366 -1050 1051 0
-1013 -366 1050 -1051 0
-1013 366 -1050 -1051 0
-1013 366 1050 1051 0
1013 -366 -1050 -1051 0
1013 -366 1050 1051 0
1013 366 -1050 1051 0
1013 366 1050 -1051 0
-1013 -366 1052 0
-1013 -1050 1052 0
-366 -1050 1052 0
1013 366 -1052 0
1013 1050 -1052 0
366 1050 -1052 0
-1015 -367 -1052 1053 0
-1015 -367 1052 -1053 0
-1015 367 -1052 -1053 0
-1015 367 1052 1053 0
1015 -367 -1052 -1053 0
1015 -367 1052 1053 0
1015 367 -1052 1053 0
1015 367 1052 -1053 0
-1015 -367 1054 0
-1015 -1052 1054 0
-367 -1052 1054 0
1015 367 -1054 0
1015 1052 -1054 0
367 1052 -1054 0
-1017 -368 -1054 1055 0
-1017 -368 1054 -1055 0
-1017 368 -1054 -1055 0
-1017 368 1054 1055 0
1017 -368 -1054 -1055 0
1017 -368 1054 1055 0
1017 368 -1054 1055 0
1017 368 1054 -1055 0
-1017 -368 1056 0
-1017 -1054 1056 0
-368 -1054 1056 0
1017 368 -1056 0
1017 1054 -1056 0
368 1054 -1056 0
-1019 -369 -1056 1057 0
-1019 -369 1056 -1057 0
-1019 369 -1056 -1057 0
-1019 369 1056 1057 0
1019 -369 -1056 -1057 0
1019 -369 1056 1057 0
1019 369 -1056 1057 0
1019 369 1056 -1057 0
-1019 -369 1058 0
-1019 -1056 1058 0
-369 -1056 1058 0
1019 369 -1058 0
1019 1056 -1058 0
369 1056 -1058 0
-1021 -370 -1058 1059 0
-1021 -370 1058 -1059 0
-1021 370 -1058 -1059 0
-1021 370 1058 1059 0
1021 -370 -1058 -1059 0
1021 -370 1058 1059 0
1021 370 -1058 1059 0
1021 370 1058 -1059 0
-1021 -370 1060 0
-1021 -1058 1060 0
-370 -1058 1060 0
1021 370 -1060 0
1021 1058 -1060 0
370 1058 -1060 0
-1023 -371 -1060 1061 0
-1023 -371 1060 -1061 0
-1023 371 -1060 -1061 0
-1023 371 1060 1061 0
1023 -371 -1060 -1061 0
1023 -371 1060 1061 0
1023 371 -1060 1061 0
1023 371 1060 -1061 0
-1023 -371 1062 0
-1023 -1060 1062 0
-371 -1060 1062 0
1023 371 -1062 0
1023 1060 -1062 0
371 1060 -1062 0
-1025 -372 -1062 1063 0
-1025 -372 1062 -1063 0
-1025 372 -1062 -1063 0
-1025 372 1062 1063 0
1025 -372 -1062 -1063 0
1025 -372 1062 1063 0
1025 372 -1062 1063 0
1025 372 1062 -1063 0
-1025 -372 1064 0
-1025 -1062 1064 0
-372 -1062 1064 0
1025 372 -1064 0
1025 1062 -1064 0
372 1062 -1064 0
-1027 -373 -1064 1065 0
-1027 -373 1064 -1065 0
-1027 373 -1064 -1065 0
-1027 373 1064 1065 0
1027 -373 -1064 -1065 0
1027 -373 1064 1065 0
1027 373 -1064 1065 0
1027 373 1064 -1065 0
-1027 -373 1066 0
-1027 -1064 1066 0
-373 -1064 1066 0
1027 373 -1066 0
1027 1064 -1066 0
373 1064 -1066 0
-1029 -374 -1066 1067 0
-1029 -374 1066 -1067 0
-1029 374 -1066 -1067 0
-1029 374 1066 1067 0
1029 -374 -1066 -1067 0
1029 -374 1066 1067 0
1029 374 -1066 1067 0
1029 374 1066 -1067 0
-1029 -374 1068 0
-1029 -1066 1068 0
-374 -1066 1068 0
1029 374 -1068 0
1029 1066 -1068 0
374 1066 -1068 0
-1031 -375 -1068 1069 0
-1031 -375 1068 -1069 0
-1031 375 -1068 -1069 0
-1031 375 1068 1069 0
1031 -375 -1068 -1069 0
1031 -375 1068 1069 0
1031 375 -1068 1069 0
1031 375 1068 -1069 0
-1031 -375 1070 0
-1031 -1068 1070 0
-375 -1068 1070 0
1031 375 -1070 0
1031 1068 -1070 0
375 1068 -1070 0
-1033 -376 -1070 1071 0
-1033 -376 1070 -1071 0
-1033 376 -1070 -1071 0
-1033 376 1070 1071 0
1033 -376 -1070 -1071 0
1033 -376 1070 1071 0
1033 376 -1070 1071 0
1033 376 1070 -1071 0
-1033 -376 1072 0
-1033 -1070 1072 0
-376 -1070 1072 0
1033 376 -1072 0
1033 1070 -1072 0
376 1070 -1072 0
-1035 -377 -1072 1073 0
-1035 -377 1072 -1073 0
-1035 377 -1072 -1073 0
-1035 377 1072 1073 0
1035 -377 -1072 -1073 0
1035 -377 1072 1073 0
1035 377 -1072 1073 0
1035 377 1072 -1073 0
-1035 -377 1074 0
-1035 -1072 1074 0
-377 -1072 1074 0
1035 377 -1074 0
1035 1072 -1074 0
377 1072 -1074 0
-1037 -378 -1074 1075 0
-1037 -378 1074 -1075 0
-1037 378 -1074 -1075 0
-1037 378 1074 1075 0
1037 -378 -1074 -1075 0
1037 -378 1074 1075 0
1037 378 -1074 1075 0
1037 378 1074 -1075 0
-1037 -378 1076 0
-1037 -1074 1076 0
-378 -1074 1076 0
1037 378 -1076 0
1037 1074 -1076 0
378 1074 -1076 0
-1039 -379 -1076 1077 0
-1039 -379 1076 -1077 0
-1039 379 -1076 -1077 0
-1039 379 1076 1077 0
1039 -379 -1076 -1077 0
1039 -379 1076 1077 0
1039 379 -1076 1077 0
1039 379 1076 -1077 0
-1039 -379 1078 0
-1039 -1076 1078 0
-379 -1076 1078 0
1039 379 -1078 0
1039 1076 -1078 0
379 1076 -1078 0
-1040 -380 -1078 1079 0
-1040 -380 1078 -1079 0
-1040 380 -1078 -1079 0
-1040 380 1078 1079 0
1040 -380 -1078 -1079 0
1040 -380 1078 1079 0
1040 380 -1078 1079 0
1040 380 1078 -1079 0
-1040 -380 1080 0
-1040 -1078 1080 0
-380 -1078 1080 0
1040 380 -1080 0
1040 1078 -1080 0
380 1078 -1080 0
-1081 1043 381 0
-1081 -1043 -381 0
1081 -1043 381 0
1081 1043 -381 0
-1082 1043 0
-1082 381 0
1082 -1043 -381 0
-1045 -382 -1082 1083 0
-1045 -382 1082 -1083 0
-1045 382 -1082 -1083 0
-1045 382 1082 1083 0
1045 -382 -1082 -1083 0
1045 -382 1082 1083 0
1045 382 -1082 1083 0
1045 382 1082 -1083 0
-1045 -382 1084 0
-1045 -1082 1084 0
-382 -1082 1084 0
1045 382 -1084 0
1045 1082 -1084 0
382 1082 -1084 0
-1047 -383 -1084 1085 0
-1047 -383 1084 -1085 0
-1047 383 -1084 -1085 0
-1047 383 1084 1085 0
1047 -383 -1084 -1085 0
1047 -383 1084 1085 0
1047 383 -1084 1085 0
1047 383 1084 -1085 0
-1047 -383 1086 0
-1047 -1084 1086 0
-383 -1084 1086 0
1047 383 -1086 0
1047 1084 -1086 0
383 1084 -1086 0
-1049 -384 -1086 1087 0
-1049 -384 1086 -1087 0
-1049 384 -1086 -1087 0
-1049 384 1086 1087 0
1049 -384 -1086 -1087 0
1049 -384 1086 1087 0
1049 384 -1086 1087 0
1049 384 1086 -1087 0
-1049 -384 1088 0
-1049 -1086 1088 0
-384 -1086 1088 0
1049 384 -1088 0
1049 1086 -1088 0
384 1086 -1088 0
-1051 -385 -1088 1089 0
-1051 -385 1088 -1089 0
-1051 385 -1088 -1089 0
-1051 385 1088 1089 0
1051 -385 -1088 -1089 0
1051 -385 1088 1089 0
1051 385 -1088 1089 0
1051 385 1088 -1089 0
-1051 -385 1090 0
-1051 -1088 1090 0
-385 -1088 1090 0
1051 385 -1090 0
1051 1088 -1090 0
385 1088 -1090 0
-1053 -386 -1090 1091 0
-1053 -386 1090 -1091 0
-1053 386 -1090 -1091 0
-1053 386 1090 1091 0
1053 -386 -1090 -1091 0
1053 -386 1090 1091 0
1053 386 -1090 1091 0
1053 386 1090 -1091 0
-1053 -386 1092 0
-1053 -1090 1092 0
-386 -1090 1092 0
1053 386 -1092 0
1053 1090 -1092 0
386 1090 -1092 0
-1055 -387 -1092 1093 0
-1055 -387 1092 -1093 0
-1055 387 -1092 -1093 0
-1055 387 1092 1093 0
1055 -387 -1092 -1093 0
1055 -387 1092 1093 0
1055 387 -1092 1093 0
1055 387 1092 -1093 0
-1055 -387 1094 0
-1055 -1092 1094 0
-387 -1092 1094 0
1055 387 -1094 0
1055 1092 -1094 0
387 1092 -1094 0
-1057 -388 -1094 1095 0
-1057 -388 1094 -1095 0
-1057 388 -1094 -1095 0
-1057 388 1094 1095 0
1057 -388 -1094 -1095 0
1057 -388 1094 1095 0
1057 388 -1094 1095 0
1057 388 1094 -1095 0
-1057 -388 1096 0
-1057 -1094 1096 0
-388 -1094 1096 0
1057 388 -1096 0
1057 1094 -1096 0
388 1094 -1096 0
-1059 -389 -1096 1097 0
-1059 -389 1096 -1097 0
-1059 389 -1096 -1097 0
-1059 389 1096 1097 0
1059 -389 -1096 -1097 0
1059 -389 1096 1097 0
1059 389 -1096 1097 0
1059 389 1096 -1097 0
-1059 -389 1098 0
-1059 -1096 1098 0
-389 -1096 1098 0
1059 389 -1098 0
1059 1096 -1098 0
389 1096 -1098 0
-1061 -390 -1098 1099 0
-1061 -390 1098 -1099 0
-1061 390 -1098 -1099 0
-1061 390 1098 1099 0
1061 -390 -1098 -1099 0
1061 -390 1098 1099 0
1061 390 -1098 1099 0
1061 390 1098 -1099 0
-1061 -390 1100 0
-1061 -1098 1100 0
-390 -1098 1100 0
1061 390 -1100 0
1061 1098 -1100 0
390 1098 -1100 0
-1063 -391 -1100 1101 0
-1063 -391 1100 -1101 0
-1063 391 -1100 -1101 0
-1063 391 1100 1101 0
1063 -391 -1100 -1101 0
1063 -391 1100 1101 0
1063 391 -1100 1101 0
1063 391 1100 -1101 0
-1063 -391 1102 0
-1063 -1100 1102 0
-391 -1100 1102 0
1063 391 -1102 0
1063 1100 -1102 0
391 1100 -1102 0
-1065 -392 -1102 1103 0
-1065 -392 1102 -1103 0
-1065 392 -1102 -1103 0
-1065 392 1102 1103 0
1065 -392 -1102 -1103 0
1065 -392 1102 1103 0
1065 392 -1102 1103 0
1065 392 1102 -1103 0
-1065 -392 1104 0
-1065 -1102 1104 0
-392 -1102 1104 0
1065 392 -1104 0
1065 1102 -1104 0
392 1102 -1104 0
-1067 -393 -1104 1105 0
-1067 -393 1104 -1105 0
-1067 393 -1104 -1105 0
-1067 393 1104 1105 0
1067 -393 -1104 -1105 0
1067 -393 1104 1105 0
1067 393 -1104 1105 0
1067 393 1104 -1105 0
-1067 -393 1106 0
-1067 -1104 1106 0
-393 -1104 1106 0
1067 393 -1106 0
1067 1104 -1106 0
393 1104 -1106 0
-1069 -394 -1106 1107 0
-1069 -394 1106 -1107 0
-1069 394 -1106 -1107 0
-1069 394 1106 1107 0
1069 -394 -1106 -1107 0
1069 -394 1106 1107 0
1069 394 -1106 1107 0
1069 394 1106 -1107 0
-1069 -394 1108 0
-1069 -1106 1108 0
-394 -1106 1108 0
1069 394 -1108 0
1069 1106 -1108 0
394 1106 -1108 0
-1071 -395 -1108 1109 0
-1071 -395 1108 -1109 0
-1071 395 -1108 -1109 0
-1071 395 1108 1109 0
1071 -395 -1108 -1109 0
1071 -395 1108 1109 0
1071 395 -1108 1109 0
1071 395 1108 -1109 0
-1071 -395 1110 0
-1071 -1108 1110 0
-395 -1108 1110 0
1071 395 -1110 0
1071 1108 -1110 0
395 1108 -1110 0
-1073 -396 -1110 1111 0
-1073 -396 1110 -1111 0
-1073 396 -1110 -1111 0
-1073 396 1110 1111 0
1073 -396 -1110 -1111 0
1073 -396 1110 1111 0
1073 396 -1110 1111 0
1073 396 1110 -1111 0
-1073 -396 1112 0
-1073 -1110 1112 0
-396 -1110 1112 0
1073 396 -1112 0
1073 1110 -1112 0
396 1110 -1112 0
-1075 -397 -1112 1113 0
-1075 -397 1112 -1113 0
-1075 397 -1112 -1113 0
-1075 397 1112 1113 0
1075 -397 -1112 -1113 0
1075 -397 1112 1113 0
1075 397 -1112 1113 0
1075 397 1112 -1113 0
-1075 -397 1114 0
-1075 -1112 1114 0
-397 -1112 1114 0
1075 397 -1114 0
1075 1112 -1114 0
397 1112 -1114 0
-1077 -398 -1114 1115 0
-1077 -398 1114 -1115 0
-1077 398 -1114 -1115 0
-1077 398 1114 1115 0
1077 -398 -1114 -1115 0
1077 -398 1114 1115 0
1077 398 -1114 1115 0
1077 398 1114 -1115 0
-1077 -398 1116 0
-1077 -1114 1116 0
-398 -1114 1116 0
1077 398 -1116 0
1077 1114 -1116 0
398 1114 -1116 0
-1079 -399 -1116 1117 0
-1079 -399 1116 -1117 0
-1079 399 -1116 -1117 0
-1079 399 1116 1117 0
1079 -399 -1116 -1117 0
1079 -399 1116 1117 0
1079 399 -1116 1117 0
1079 399 1116 -1117 0
-1079 -399 1118 0
-1079 -1116 1118 0
-399 -1116 1118 0
1079 399 -1118 0
1079 1116 -1118 0
399 1116 -1118 0
-1080 -400 -1118 1119 0
-1080 -400 1118 -1119 0
-1080 400 -1118 -1119 0
-1080 400 1118 1119 0
1080 -400 -1118 -1119 0
1080 -400 1118 1119 0
1080 400 -1118 1119 0
1080 400 1118 -1119 0
-1080 -400 1120 0
-1080 -1118 1120 0
-400 -1118 1120 0
1080 400 -1120 0
1080 1118 -1120 0
400 1118 -1120 0
-1121 1083 401 0
-1121 -1083 -401 0
1121 -1083 401 0
1121 1083 -401 0
-1122 1083 0
-1122 401 0
1122 -1083 -401 0
-1085 -402 -1122 1123 0
-1085 -402 1122 -1123 0
-1085 402 -1122 -1123 0
-1085 402 1122 1123 0
1085 -402 -1122 -1123 0
1085 -402 1122 1123 0
1085 402 -1122 1123 0
1085 402 1122 -1123 0
-1085 -402 1124 0
-1085 -1122 1124 0
-402 -1122 1124 0
1085 402 -1124 0
1085 1122 -1124 0
402 1122 -1124 0
-1087 -403 -1124 1125 0
-1087 -403 1124 -1125 0
-1087 403 -1124 -1125 0
-1087 403 1124 1125 0
1087 -403 -1124 -1125 0
1087 -403 1124 1125 0
1087 403 -1124 1125 0
1087 403 1124 -1125 0
-1087 -403 1126 0
-1087 -1124 1126 0
-403 -1124 1126 0
1087 403 -1126 0
1087 1124 -1126 0
403 1124 -1126 0
-1089 -404 -1126 1127 0
-1089 -404 1126 -1127 0
-1089 404 -1126 -1127 0
-1089 404 1126 1127 0
1089 -404 -1126 -1127 0
1089 -404 1126 1127 0
1089 404 -1126 1127 0
1089 404 1126 -1127 0
-1089 -404 1128 0
-1089 -1126 1128 0
-404 -1126 1128 0
1089 404 -1128 0
1089 1126 -1128 0
404 1126 -1128 0
-1091 -405 -1128 1129 0
-1091 -405 1128 -1129 0
-1091 405 -1128 -1129 0
-1091 405 1128 1129 0
1091 -405 -1128 -1129 0
1091 -405 1128 1129 0
1091 405 -1128 1129 0
1091 405 1128 -1129 0
-1091 -405 1130 0
-1091 -1128 1130 0
-405 -1128 1130 0
1091 405 -1130 0
1091 1128 -1130 0
405 1128 -1130 0
-1093 -406 -1130 1131 0
-1093 -406 1130 -1131 0
-1093 406 -1130 -1131 0
-1093 406 1130 1131 0
1093 -406 -1130 -1131 0
1093 -406 1130 1131 0
1093 406 -1130 1131 0
1093 406 1130 -1131 0
-1093 -406 1132 0
-1093 -1130 1132 0
-406 -1130 1132 0
1093 406 -1132 0
1093 1130 -1132 0
406 1130 -1132 0
-1095 -407 -1132 1133 0
-1095 -407 1132 -1133 0
-1095 407 -1132 -1133 0
-1095 407 1132 1133 0
1095 -407 -1132 -1133 0
1095 -407 1132 1133 0
1095 407 -1132 1133 0
1095 407 1132 -1133 0
-1095 -407 1134 0
-1095 -1132 1134 0
-407 -1132 1134 0
1095 407 -1134 0
1095 1132 -1134 0
407 1132 -1134 0
-1097 -408 -1134 1135 0
-1097 -408 1134 -1135 0
-1097 408 -1134 -1135 0
-1097 408 1134 1135 0
1097 -408 -1134 -1135 0
1097 -408 1134 1135 0
1097 408 -1134 1135 0
1097 408 1134 -1135 0
-1097 -408 1136 0
-1097 -1134 1136 0
-408 -1134 1136 0
1097 408 -1136 0
1097 1134 -1136 0
408 1134 -1136 0
-1099 -409 -1136 1137 0
-1099 -409 1136 -1137 0
-1099 409 -1136 -1137 0
-1099 409 1136 1137 0
1099 -409 -1136 -1137 0
1099 -409 1136 1137 0
1099 409 -1136 1137 0
1099 409 1136 -1137 0
-1099 -409 1138 0
-1099 -1136 1138 0
-409 -1136 1138 0
1099 409 -1138 0
1099 1136 -1138 0
409 1136 -1138 0
-1101 -410 -1138 1139 0
-1101 -410 1138 -1139 0
-1101 410 -1138 -1139 0
-1101 410 1138 1139 0
1101 -410 -1138 -1139 0
1101 -410 1138 1139 0
1101 410 -1138 1139 0
1101 410 1138 -1139 0
-1101 -410 1140 0
-1101 -1138 1140 0
-410 -1138 1140 0
1101 410 -1140 0
1101 1138 -1140 0
410 1138 -1140 0
-1103 -411 -1140 1141 0
-1103 -411 1140 -1141 0
-1103 411 -1140 -1141 0
-1103 411 1140 1141 0
1103 -411 -1140 -1141 0
1103 -411 1140 1141 0
1103 411 -1140 1141 0
1103 411 1140 -1141 0
-1103 -411 1142 0
-1103 -1140 1142 0
-411 -1140 1142 0
1103 411 -1142 0
1103 1140 -1142 0
411 1140 -1142 0
-1105 -412 -1142 1143 0
-1105 -412 1142 -1143 0
-1105 412 -1142 -1143 0
-1105 412 1142 1143 0
1105 -412 -1142 -1143 0
1105 -412 1142 1143 0
1105 412 -1142 1143 0
1105 412 1142 -1143 0
-1105 -412 1144 0
-1105 -1142 1144 0
-412 -1142 1144 0
1105 412 -1144 0
1105 1142 -1144 0
412 1142 -1144 0
-1107 -413 -1144 1145 0
-1107 -413 1144 -1145 0
-1107 413 -1144 -1145 0
-1107 413 1144 1145 0
1107 -413 -1144 -1145 0
1107 -413 1144 1145 0
1107 413 -1144 1145 0
1107 413 1144 -1145 0
-1107 -413 1146 0
-1107 -1144 1146 0
-413 -1144 1146 0
1107 413 -1146 0
1107 1144 -1146 0
413 1144 -1146 0
-1109 -414 -1146 1147 0
-1109 -414 1146 -1147 0
-1109 414 -1146 -1147 0
-1109 414 1146 1147 0
1109 -414 -1146 -1147 0
1109 -414 1146 1147 0
1109 414 -1146 1147 0
1109 414 1146 -1147 0
-1109 -414 1148 0
-1109 -1146 1148 0
-414 -1146 1148 0
1109 414 -1148 0
1109 1146 -1148 0
414 1146 -1148 0
-1111 -415 -1148 1149 0
-1111 -415 1148 -1149 0
-1111 415 -1148 -1149 0
-1111 415 1148 1149 0
1111 -415 -1148 -1149 0
1111 -415 1148 1149 0
1111 415 -1148 1149 0
1111 415 1148 -1149 0
-1111 -415 1150 0
-1111 -1148 1150 0
-415 -1148 1150 0
1111 415 -1150 0
1111 1148 -1150 0
415 1148 -1150 0
-1113 -416 -1150 1151 0
-1113 -416 1150 -1151 0
-1113 416 -1150 -1151 0
-1113 416 1150 1151 0
1113 -416 -1150 -1151 0
1113 -416 1150 1151 0
1113 416 -1150 1151 0
1113 416 1150 -1151 0
-1113 -416 1152 0
-1113 -1150 1152 0
-416 -1150 1152 0
1113 416 -1152 0
1113 1150 -1152 0
416 1150 -1152 0
-1115 -417 -1152 1153 0
-1115 -417 1152 -1153 0
-1115 417 -1152 -1153 0
-1115 417 1152 1153 0
1115 -417 -1152 -1153 0
1115 -417 1152 1153 0
1115 417 -1152 1153 0
1115 417 1152 -1153 0
-1115 -417 1154 0
-1115 -1152 1154 0
-417 -1152 1154 0
1115 417 -1154 0
1115 1152 -1154 0
417 1152 -1154 0
-1117 -418 -1154 1155 0
-1117 -418 1154 -1155 0
-1117 418 -1154 -1155 0
-1117 418 1154 1155 0
1117 -418 -1154 -1155 0
1117 -418 1154 1155 0
1117 418 -1154 1155 0
1117 418 1154 -1155 0
-1117 -418 1156 0
-1117 -1154 1156 0
-418 -1154 1156 0
1117 418 -1156 0
1117 1154 -1156 0
418 1154 -1156 0
-1119 -419 -1156 1157 0
-1119 -419 1156 -1157 0
-1119 419 -1156 -1157 0
-1119 419 1156 1157 0
1119 -419 -1156 -1157 0
1119 -419 1156 1157 0
1119 419 -1156 1157 0
1119 419 1156 -1157 0
-1119 -419 1158 0
-1119 -1156 1158 0
-419 -1156 1158 0
1119 419 -1158 0
1119 1156 -1158 0
419 1156 -1158 0
-1120 -420 -1158 1159 0
-1120 -420 1158 -1159 0
-1120 420 -1158 -1159 0
-1120 420 1158 1159 0
1120 -420 -1158 -1159 0
1120 -420 1158 1159 0
1120 420 -1158 1159 0
1120 420 1158 -1159 0
-1120 -420 1160 0
-1120 -1158 1160 0
-420 -1158 1160 0
1120 420 -1160 0
1120 1158 -1160 0
420 1158 -1160 0
-1161 1123 421 0
-1161 -1123 -421 0
1161 -1123 421 0
1161 1123 -421 0
-1162 1123 0
-1162 421 0
1162 -1123 -421 0
-1125 -422 -1162 1163 0
-1125 -422 1162 -1163 0
-1125 422 -1162 -1163 0
-1125 422 1162 1163 0
1125 -422 -1162 -1163 0
1125 -422 1162 1163 0
1125 422 -1162 1163 0
1125 422 1162 -1163 0
-1125 -422 1164 0
-1125 -1162 1164 0
-422 -1162 1164 0
1125 422 -1164 0
1125 1162 -1164 0
422 1162 -1164 0
-1127 -423 -1164 1165 0
-1127 -423 1164 -1165 0
-1127 423 -1164 -1165 0
-1127 423 1164 1165 0
1127 -423 -1164 -1165 0
1127 -423 1164 1165 0
1127 423 -1164 1165 0
1127 423 1164 -1165 0
-1127 -423 1166 0
-1127 -1164 1166 0
-423 -1164 1166 0
1127 423 -1166 0
1127 1164 -1166 0
423 1164 -1166 0
-1129 -424 -1166 1167 0
-1129 -424 1166 -1167 0
-1129 424 -1166 -1167 0
-1129 424 1166 1167 0
1129 -424 -1166 -1167 0
1129 -424 1166 1167 0
1129 424 -1166 1167 0
1129 424 1166 -1167 0
-1129 -424 1168 0
-1129 -1166 1168 0
-424 -1166 1168 0
1129 424 -1168 0
1129 1166 -1168 0
424 1166 -1168 0
-1131 -425 -1168 1169 0
-1131 -425 1168 -1169 0
-1131 425 -1168 -1169 0
-1131 425 1168 1169 0
1131 -425 -1168 -1169 0
1131 -425 1168 1169 0
1131 425 -1168 1169 0
1131 425 1168 -1169 0
-1131 -425 1170 0
-1131 -1168 1170 0
-425 -1168 1170 0
1131 425 -1170 0
1131 1168 -1170 0
425 1168 -1170 0
-1133 -426 -1170 1171 0
-1133 -426 1170 -1171 0
-1133 426 -1170 -1171 0
-1133 426 1170 1171 0
1133 -426 -1170 -1171 0
1133 -426 1170 1171 0
1133 426 -1170 1171 0
1133 426 1170 -1171 0
-1133 -426 1172 0
-1133 -1170 1172 0
-426 -1170 1172 0
1133 426 -1172 0
1133 1170 -1172 0
426 1170 -1172 0
-1135 -427 -1172 1173 0
-1135 -427 1172 -1173 0
-1135 427 -1172 -1173 0
-1135 427 1172 1173 0
1135 -427 -1172 -1173 0
1135 -427 1172 1173 0
1135 427 -1172 1173 0
1135 427 1172 -1173 0
-1135 -427 1174 0
-1135 -1172 1174 0
-427 -1172 1174 0
1135 427 -1174 0
1135 1172 -1174 0
427 1172 -1174 0
-1137 -428 -1174 1175 0
-1137 -428 1174 -1175 0
-1137 428 -1174 -1175 0
-1137 428 1174 1175 0
1137 -428 -1174 -1175 0
1137 -428 1174 1175 0
1137 428 -1174 1175 0
1137 428 1174 -1175 0
-1137 -428 1176 0
-1137 -1174 1176 0
-428 -1174 1176 0
1137 428 -1176 0
1137 1174 -1176 0
428 1174 -1176 0
-1139 -429 -1176 1177 0
-1139 -429 1176 -1177 0
-1139 429 -1176 -1177 0
-1139 429 1176 1177 0
1139 -429 -1176 -1177 0
1139 -429 1176 1177 0
1139 429 -1176 1177 0
1139 429 1176 -1177 0
-1139 -429 1178 0
-1139 -1176 1178 0
-429 -1176 1178 0
1139 429 -1178 0
1139 1176 -1178 0
429 1176 -1178 0
-1141 -430 -1178 1179 0
-1141 -430 1178 -1179 0
-1141 430 -1178 -1179 0
-1141 430 1178 1179 0
1141 -430 -1178 -1179 0
1141 -430 1178 1179 0
1141 430 -1178 1179 0
1141 430 1178 -1179 0
-1141 -430 1180 0
-1141 -1178 1180 0
-430 -1178 1180 0
1141 430 -1180 0
1141 1178 -1180 0
430 1178 -1180 0
-1143 -431 -1180 1181 0
-1143 -431 1180 -1181 0
-1143 431 -1180 -1181 0
-1143 431 1180 1181 0
1143 -431 -1180 -1181 0
1143 -431 1180 1181 0
1143 431 -1180 1181 0
1143 431 1180 -1181 0
-1143 -431 1182 0
-1143 -1180 1182 0
-431 -1180 1182 0
1143 431 -1182 0
1143 1180 -1182 0
431 1180 -1182 0
-1145 -432 -1182 1183 0
-1145 -432 1182 -1183 0
-1145 432 -1182 -1183 0
-1145 432 1182 1183 0
1145 -432 -1182 -1183 0
1145 -432 1182 1183 0
1145 432 -1182 1183 0
1145 432 1182 -1183 0
-1145 -432 1184 0
-1145 -1182 1184 0
-432 -1182 1184 0
1145 432 -1184 0
1145 1182 -1184 0
432 1182 -1184 0
-1147 -433 -1184 1185 0
-1147 -433 1184 -1185 0
-1147 433 -1184 -1185 0
-1147 433 1184 1185 0
1147 -433 -1184 -1185 0
1147 -433 1184 1185 0
1147 433 -1184 1185 0
1147 433 1184 -1185 0
-1147 -433 1186 0
-1147 -1184 1186 0
-433 -1184 1186 0
1147 433 -1186 0
1147 1184 -1186 0
433 1184 -1186 0
-1149 -434 -1186 1187 0
-1149 -434 1186 -1187 0
-1149 434 -1186 -1187 0
-1149 434 1186 1187 0
1149 -434 -1186 -1187 0
1149 -434 1186 1187 0
1149 434 -1186 1187 0
1149 434 1186 -1187 0
-1149 -434 1188 0
-1149 -1186 1188 0
-434 -1186 1188 0
1149 434 -1188 0
1149 1186 -1188 0
434 1186 -1188 0
-1151 -435 -1188 1189 0
-1151 -435 1188 -1189 0
-1151 435 -1188 -1189 0
-1151 435 1188 1189 0
1151 -435 -1188 -1189 0
1151 -435 1188 1189 0
1151 435 -1188 1189 0
1151 435 1188 -1189 0
-1151 -435 1190 0
-1151 -1188 1190 0
-435 -1188 1190 0
1151 435 -1190 0
1151 1188 -1190 0
435 1188 -1190 0
-1153 -436 -1190 1191 0
-1153 -436 1190 -1191 0
-1153 436 -1190 -1191 0
-1153 436 1190 1191 0
1153 -436 -1190 -1191 0
1153 -436 1190 1191 0
1153 436 -1190 1191 0
1153 436 1190 -1191 0
-1153 -436 1192 0
-1153 -1190 1192 0
-436 -1190 1192 0
1153 436 -1192 0
1153 1190 -1192 0
436 1190 -1192 0
-1155 -437 -1192 1193 0
-1155 -437 1192 -1193 0
-1155 437 -1192 -1193 0
-1155 437 1192 1193 0
1155 -437 -1192 -1193 0
1155 -437 1192 1193 0
1155 437 -1192 1193 0
1155 437 1192 -1193 0
-1155 -437 1194 0
-1155 -1192 1194 0
-437 -1192 1194 0
1155 437 -1194 0
1155 1192 -1194 0
437 1192 -1194 0
-1157 -438 -1194 1195 0
-1157 -438 1194 -1195 0
-1157 438 -1194 -1195 0
-1157 438 1194 1195 0
1157 -438 -1194 -1195 0
1157 -438 1194 1195 0
1157 438 -1194 1195 0
1157 438 1194 -1195 0
-1157 -438 1196 0
-1157 -1194 1196 0
-438 -1194 1196 0
1157 438 -1196 0
1157 1194 -1196 0
438 1194 -1196 0
-1159 -439 -1196 1197 0
-1159 -439 1196 -1197 0
-1159 439 -1196 -1197 0
-1159 439 1196 1197 0
1159 -439 -1196 -1197 0
1159 -439 1196 1197 0
1159 439 -1196 1197 0
1159 439 1196 -1197 0
-1159 -439 1198 0
-1159 -1196 1198 0
-439 -1196 1198 0
1159 439 -1198 0
1159 1196 -1198 0
439 1196 -1198 0
-1160 -440 -1198 1199 0
-1160 -440 1198 -1199 0
-1160 440 -1198 -1199 0
-1160 440 1198 1199 0
1160 -440 -1198 -1199 0
1160 -440 1198 1199 0
1160 440 -1198 1199 0
1160 440 1198 -1199 0
-1160 -440 1200 0
-1160 -1198 1200 0
-440 -1198 1200 0
1160 440 -1200 0
1160 1198 -1200 0
440 1198 -1200 0
41 0
-441 0
-481 0
-521 0
561 0
-601 0
641 0
681 0
-721 0
-761 0
-801 0
-841 0
881 0
921 0
961 0
-1001 0
1041 0
1081 0
-1121 0
1161 0
1163 0
1165 0
1167 0
-1169 0
-1171 0
1173 0
-1175 0
1177 0
-1179 0
-1181 0
-1183 0
-1185 0
-1187 0
-1189 0
-1191 0
1193 0
-1195 0
1197 0
-1199 0
1200 0
