c F6 factoring b=16 N=3976145729 prime (UNSAT by construction)
p cnf 768 4050
16 0
32 0
-33 1 0
-33 17 0
33 -1 -17 0
-34 2 0
-34 17 0
34 -2 -17 0
-35 3 0
-35 17 0
35 -3 -17 0
-36 4 0
-36 17 0
36 -4 -17 0
-37 5 0
-37 17 0
37 -5 -17 0
-38 6 0
-38 17 0
38 -6 -17 0
-39 7 0
-39 17 0
39 -7 -17 0
-40 8 0
-40 17 0
40 -8 -17 0
-41 9 0
-41 17 0
41 -9 -17 0
-42 10 0
-42 17 0
42 -10 -17 0
-43 11 0
-43 17 0
43 -11 -17 0
-44 12 0
-44 17 0
44 -12 -17 0
-45 13 0
-45 17 0
45 -13 -17 0
-46 14 0
-46 17 0
46 -14 -17 0
-47 15 0
-47 17 0
47 -15 -17 0
-48 16 0
-48 17 0
48 -16 -17 0
-49 1 0
-49 18 0
49 -1 -18 0
-50 2 0
-50 18 0
50 -2 -18 0
-51 3 0
-51 18 0
51 -3 -18 0
-52 4 0
-52 18 0
52 -4 -18 0
-53 5 0
-53 18 0
53 -5 -18 0
-54 6 0
-54 18 0
54 -6 -18 0
-55 7 0
-55 18 0
55 -7 -18 0
-56 8 0
-56 18 0
56 -8 -18 0
-57 9 0
-57 18 0
57 -9 -18 0
-58 10 0
-58 18 0
58 -10 -18 0
-59 11 0
-59 18 0
59 -11 -18 0
-60 12 0
-60 18 0
60 -12 -18 0
-61 13 0
-61 18 0
61 -13 -18 0
-62 14 0
-62 18 0
62 -14 -18 0
-63 15 0
-63 18 0
63 -15 -18 0
-64 16 0
-64 18 0
64 -16 -18 0
-65 1 0
-65 19 0
65 -1 -19 0
-66 2 0
-66 19 0
66 -2 -19 0
-67 3 0
-67 19 0
67 -3 -19 0
-68 4 0
-68 19 0
68 -4 -19 0
-69 5 0
-69 19 0
69 -5 -19 0
-70 6 0
-70 19 0
70 -6 -19 0
-71 7 0
-71 19 0
71 -7 -19 0
-72 8 0
-72 19 0
72 -8 -19 0
-73 9 0
-73 19 0
73 -9 -19 0
-74 10 0
-74 19 0
74 -10 -19 0
-75 11 0
-75 19 0
75 -11 -19 0
-76 12 0
-76 19 0
76 -12 -19 0
-77 13 0
-77 19 0
77 -13 -19 0
-78 14 0
-78 19 0
78 -14 -19 0
-79 15 0
-79 19 0
79 -15 -19 0
-80 16 0
-80 19 0
80 -16 -19 0
-81 1 0
-81 20 0
81 -1 -20 0
-82 2 0
-82 20 0
82 -2 -20 0
-83 3 0
-83 20 0
83 -3 -20 0
-84 4 0
-84 20 0
84 -4 -20 0
-85 5 0
-85 20 0
85 -5 -20 0
-86 6 0
-86 20 0
86 -6 -20 0
-87 7 0
-87 20 0
87 -7 -20 0
-88 8 0
-88 20 0
88 -8 -20 0
-89 9 0
-89 20 0
89 -9 -20 0
-90 10 0
-90 20 0
90 -10 -20 0
-91 11 0
-91 20 0
91 -11 -20 0
-92 12 0
-92 20 0
92 -12 -20 0
-93 13 0
-93 20 0
93 -13 -20 0
-94 14 0
-94 20 0
94 -14 -20 0
-95 15 0
-95 20 0
95 -15 -20 0
-96 16 0
-96 20 0
96 -16 -20 0
-97 1 0
-97 21 0
97 -1 -21 0
-98 2 0
-98 21 0
98 -2 -21 0
-99 3 0
-99 21 0
99 -3 -21 0
-100 4 0
-100 21 0
100 -4 -21 0
-101 5 0
-101 21 0
101 -5 -21 0
-102 6 0
-102 21 0
102 -6 -21 0
-103 7 0
-103 21 0
103 -7 -21 0
-104 8 0
-104 21 0
104 -8 -21 0
-105 9 0
-105 21 0
105 -9 -21 0
-106 10 0
-106 21 0
106 -10 -21 0
-107 11 0
-107 21 0
107 -11 -21 0
-108 12 0
-108 21 0
108 -12 -21 0
-109 13 0
-109 21 0
109 -13 -21 0
-110 14 0
-110 21 0
110 -14 -21 0
-111 15 0
-111 21 0
111 -15 -21 0
-112 16 0
-112 21 0
112 -16 -21 0
-113 1 0
-113 22 0
113 -1 -22 0
-114 2 0
-114 22 0
114 -2 -22 0
-115 3 0
-115 22 0
115 -3 -22 0
-116 4 0
-116 22 0
116 -4 -22 0
-117 5 0
-117 22 0
117 -5 -22 0
-118 6 0
-118 22 0
118 -6 -22 0
-119 7 0
-119 22 0
119 -7 -22 0
-120 8 0
-120 22 0
120 -8 -22 0
-121 9 0
-121 22 0
121 -9 -22 0
-122 10 0
-122 22 0
122 -10 -22 0
-123 11 0
-123 22 0
123 -11 -22 0
-124 12 0
-124 22 0
124 -12 -22 0
-125 13 0
-125 22 0
125 -13 -22 0
-126 14 0
-126 22 0
126 -14 -22 0
-127 15 0
-127 22 0
127 -15 -22 0
-128 16 0
-128 22 0
128 -16 -22 0
-129 1 0
-129 23 0
129 -1 -23 0
-130 2 0
-130 23 0
130 -2 -23 0
-131 3 0
-131 23 0
131 -3 -23 0
-132 4 0
-132 23 0
132 -4 -23 0
-133 5 0
-133 23 0
133 -5 -23 0
-134 6 0
-134 23 0
134 -6 -23 0
-135 7 0
-135 23 0
135 -7 -23 0
-136 8 0
-136 23 0
136 -8 -23 0
-137 9 0
-137 23 0
137 -9 -23 0
-138 10 0
-138 23 0
138 -10 -23 0
-139 11 0
-139 23 0
139 -11 -23 0
-140 12 0
-140 23 0
140 -12 -23 0
-141 13 0
-141 23 0
141 -13 -23 0
-142 14 0
-142 23 0
142 -14 -23 0
-143 15 0
-143 23 0
143 -15 -23 0
-144 16 0
-144 23 0
144 -16 -23 0
-145 1 0
-145 24 0
145 -1 -24 0
-146 2 0
-146 24 0
146 -2 -24 0
-147 3 0
-147 24 0
147 -3 -24 0
-148 4 0
-148 24 0
148 -4 -24 0
-149 5 0
-149 24 0
149 -5 -24 0
-150 6 0
-150 24 0
150 -6 -24 0
-151 7 0
-151 24 0
151 -7 -24 0
-152 8 0
-152 24 0
152 -8 -24 0
-153 9 0
-153 24 0
153 -9 -24 0
-154 10 0
-154 24 0
154 -10 -24 0
-155 11 0
-155 24 0
155 -11 -24 0
-156 12 0
-156 24 0
156 -12 -24 0
-157 13 0
-157 24 0
157 -13 -24 0
-158 14 0
-158 24 0
158 -14 -24 0
-159 15 0
-159 24 0
159 -15 -24 0
-160 16 0
-160 24 0
160 -16 -24 0
-161 1 0
-161 25 0
161 -1 -25 0
-162 2 0
-162 25 0
162 -2 -25 0
-163 3 0
-163 25 0
163 -3 -25 0
-164 4 0
-164 25 0
164 -4 -25 0
-165 5 0
-165 25 0
165 -5 -25 0
-166 6 0
-166 25 0
166 -6 -25 0
-167 7 0
-167 25 0
167 -7 -25 0
-168 8 0
-168 25 0
168 -8 -25 0
-169 9 0
-169 25 0
169 -9 -25 0
-170 10 0
-170 25 0
170 -10 -25 0
-171 11 0
-171 25 0
171 -11 -25 0
-172 12 0
-172 25 0
172 -12 -25 0
-173 13 0
-173 25 0
173 -13 -25 0
-174 14 0
-174 25 0
174 -14 -25 0
-175 15 0
-175 25 0
175 -15 -25 0
-176 16 0
-176 25 0
176 -16 -25 0
-177 1 0
-177 26 0
177 -1 -26 0
-178 2 0
-178 26 0
178 -2 -26 0
-179 3 0
-179 26 0
179 -3 -26 0
-180 4 0
-180 26 0
180 -4 -26 0
-181 5 0
-181 26 0
181 -5 -26 0
-182 6 0
-182 26 0
182 -6 -26 0
-183 7 0
-183 26 0
183 -7 -26 0
-184 8 0
-184 26 0
184 -8 -26 0
-185 9 0
-185 26 0
185 -9 -26 0
-186 10 0
-186 26 0
186 -10 -26 0
-187 11 0
-187 26 0
187 -11 -26 0
-188 12 0
-188 26 0
188 -12 -26 0
-189 13 0
-189 26 0
189 -13 -26 0
-190 14 0
-190 26 0
190 -14 -26 0
-191 15 0
-191 26 0
191 -15 -26 0
-192 16 0
-192 26 0
192 -16 -26 0
-193 1 0
-193 27 0
193 -1 -27 0
-194 2 0
-194 27 0
194 -2 -27 0
-195 3 0
-195 27 0
195 -3 -27 0
-196 4 0
-196 27 0
196 -4 -27 0
-197 5 0
-197 27 0
197 -5 -27 0
-198 6 0
-198 27 0
198 -6 -27 0
-199 7 0
-199 27 0
199 -7 -27 0
-200 8 0
-200 27 0
200 -8 -27 0
-201 9 0
-201 27 0
201 -9 -27 0
-202 10 0
-202 27 0
202 -10 -27 0
-203 11 0
-203 27 0
203 -11 -27 0
-204 12 0
-204 27 0
204 -12 -27 0
-205 13 0
-205 27 0
205 -13 -27 0
-206 14 0
-206 27 0
206 -14 -27 0
-207 15 0
-207 27 0
207 -15 -27 0
-208 16 0
-208 27 0
208 -16 -27 0
-209 1 0
-209 28 0
209 -1 -28 0
-210 2 0
-210 28 0
210 -2 -28 0
-211 3 0
-211 28 0
211 -3 -28 0
-212 4 0
-212 28 0
212 -4 -28 0
-213 5 0
-213 28 0
213 -5 -28 0
-214 6 0
-214 28 0
214 -6 -28 0
-215 7 0
-215 28 0
215 -7 -28 0
-216 8 0
-216 28 0
216 -8 -28 0
-217 9 0
-217 28 0
217 -9 -28 0
-218 10 0
-218 28 0
218 -10 -28 0
-219 11 0
-219 28 0
219 -11 -28 0
-220 12 0
-220 28 0
220 -12 -28 0
-221 13 0
-221 28 0
221 -13 -28 0
-222 14 0
-222 28 0
222 -14 -28 0
-223 15 0
-223 28 0
223 -15 -28 0
-224 16 0
-224 28 0
224 -16 -28 0
-225 1 0
-225 29 0
225 -1 -29 0
-226 2 0
-226 29 0
226 -2 -29 0
-227 3 0
-227 29 0
227 -3 -29 0
-228 4 0
-228 29 0
228 -4 -29 0
-229 5 0
-229 29 0
229 -5 -29 0
-230 6 0
-230 29 0
230 -6 -29 0
-231 7 0
-231 29 0
231 -7 -29 0
-232 8 0
-232 29 0
232 -8 -29 0
-233 9 0
-233 29 0
233 -9 -29 0
-234 10 0
-234 29 0
234 -10 -29 0
-235 11 0
-235 29 0
235 -11 -29 0
-236 12 0
-236 29 0
236 -12 -29 0
-237 13 0
-237 29 0
237 -13 -29 0
-238 14 0
-238 29 0
238 -14 -29 0
-239 15 0
-239 29 0
239 -15 -29 0
-240 16 0
-240 29 0
240 -16 -29 0
-241 1 0
-241 30 0
241 -1 -30 0
-242 2 0
-242 30 0
242 -2 -30 0
-243 3 0
-243 30 0
243 -3 -30 0
-244 4 0
-244 30 0
244 -4 -30 0
-245 5 0
-245 30 0
245 -5 -30 0
-246 6 0
-246 30 0
246 -6 -30 0
-247 7 0
-247 30 0
247 -7 -30 0
-248 8 0
-248 30 0
248 -8 -30 0
-249 9 0
-249 30 0
249 -9 -30 0
-250 10 0
-250 30 0
250 -10 -30 0
-251 11 0
-251 30 0
251 -11 -30 0
-252 12 0
-252 30 0
252 -12 -30 0
-253 13 0
-253 30 0
253 -13 -30 0
-254 14 0
-254 30 0
254 -14 -30 0
-255 15 0
-255 30 0
255 -15 -30 0
-256 16 0
-256 30 0
256 -16 -30 0
-257 1 0
-257 31 0
257 -1 -31 0
-258 2 0
-258 31 0
258 -2 -31 0
-259 3 0
-259 31 0
259 -3 -31 0
-260 4 0
-260 31 0
260 -4 -31 0
-261 5 0
-261 31 0
261 -5 -31 0
-262 6 0
-262 31 0
262 -6 -31 0
-263 7 0
-263 31 0
263 -7 -31 0
-264 8 0
-264 31 0
264 -8 -31 0
-265 9 0
-265 31 0
265 -9 -31 0
-266 10 0
-266 31 0
266 -10 -31 0
-267 11 0
-267 31 0
267 -11 -31 0
-268 12 0
-268 31 0
268 -12 -31 0
-269 13 0
-269 31 0
269 -13 -31 0
-270 14 0
-270 31 0
270 -14 -31 0
-271 15 0
-271 31 0
271 -15 -31 0
-272 16 0
-272 31 0
272 -16 -31 0
-273 1 0
-273 32 0
273 -1 -32 0
-274 2 0
-274 32 0
274 -2 -32 0
-275 3 0
-275 32 0
275 -3 -32 0
-276 4 0
-276 32 0
276 -4 -32 0
-277 5 0
-277 32 0
277 -5 -32 0
-278 6 0
-278 32 0
278 -6 -32 0
-279 7 0
-279 32 0
279 -7 -32 0
-280 8 0
-280 32 0
280 -8 -32 0
-281 9 0
-281 32 0
281 -9 -32 0
-282 10 0
-282 32 0
282 -10 -32 0
-283 11 0
-283 32 0
283 -11 -32 0
-284 12 0
-284 32 0
284 -12 -32 0
-285 13 0
-285 32 0
285 -13 -32 0
-286 14 0
-286 32 0
286 -14 -32 0
-287 15 0
-287 32 0
287 -15 -32 0
-288 16 0
-288 32 0
288 -16 -32 0
-289 34 49 0
-289 -34 -49 0
289 -34 49 0
289 34 -49 0
-290 34 0
-290 49 0
290 -34 -49 0
-35 -50 -290 291 0
-35 -50 290 -291 0
-35 50 -290 -291 0
-35 50 290 291 0
35 -50 -290 -291 0
35 -50 290 291 0
35 50 -290 291 0
35 50 290 -291 0
-35 -50 292 0
-35 -290 292 0
-50 -290 292 0
35 50 -292 0
35 290 -292 0
50 290 -292 0
-36 -51 -292 293 0
-36 -51 292 -293 0
-36 51 -292 -293 0
-36 51 292 293 0
36 -51 -292 -293 0
36 -51 292 293 0
36 51 -292 293 0
36 51 292 -293 0
-36 -51 294 0
-36 -292 294 0
-51 -292 294 0
36 51 -294 0
36 292 -294 0
51 292 -294 0
-37 -52 -294 295 0
-37 -52 294 -295 0
-37 52 -294 -295 0
-37 52 294 295 0
37 -52 -294 -295 0
37 -52 294 295 0
37 52 -294 295 0
37 52 294 -295 0
-37 -52 296 0
-37 -294 296 0
-52 -294 296 0
37 52 -296 0
37 294 -296 0
52 294 -296 0
-38 -53 -296 297 0
-38 -53 296 -297 0
-38 53 -296 -297 0
-38 53 296 297 0
38 -53 -296 -297 0
38 -53 296 297 0
38 53 -296 297 0
38 53 296 -297 0
-38 -53 298 0
-38 -296 298 0
-53 -296 298 0
38 53 -298 0
38 296 -298 0
53 296 -298 0
-39 -54 -298 299 0
-39 -54 298 -299 0
-39 54 -298 -299 0
-39 54 298 299 0
39 -54 -298 -299 0
39 -54 298 299 0
39 54 -298 299 0
39 54 298 -299 0
-39 -54 300 0
-39 -298 300 0
-54 -298 300 0
39 54 -300 0
39 298 -300 0
54 298 -300 0
-40 -55 -300 301 0
-40 -55 300 -301 0
-40 55 -300 -301 0
-40 55 300 301 0
40 -55 -300 -301 0
40 -55 300 301 0
40 55 -300 301 0
40 55 300 -301 0
-40 -55 302 0
-40 -300 302 0
-55 -300 302 0
40 55 -302 0
40 300 -302 0
55 300 -302 0
-41 -56 -302 303 0
-41 -56 302 -303 0
-41 56 -302 -303 0
-41 56 302 303 0
41 -56 -302 -303 0
41 -56 302 303 0
41 56 -302 303 0
41 56 302 -303 0
-41 -56 304 0
-41 -302 304 0
-56 -302 304 0
41 56 -304 0
41 302 -304 0
56 302 -304 0
-42 -57 -304 305 0
-42 -57 304 -305 0
-42 57 -304 -305 0
-42 57 304 305 0
42 -57 -304 -305 0
42 -57 304 305 0
42 57 -304 305 0
42 57 304 -305 0
-42 -57 306 0
-42 -304 306 0
-57 -304 306 0
42 57 -306 0
42 304 -306 0
57 304 -306 0
-43 -58 -306 307 0
-43 -58 306 -307 0
-43 58 -306 -307 0
-43 58 306 307 0
43 -58 -306 -307 0
43 -58 306 307 0
43 58 -306 307 0
43 58 306 -307 0
-43 -58 308 0
-43 -306 308 0
-58 -306 308 0
43 58 -308 0
43 306 -308 0
58 306 -308 0
-44 -59 -308 309 0
-44 -59 308 -309 0
-44 59 -308 -309 0
-44 59 308 309 0
44 -59 -308 -309 0
44 -59 308 309 0
44 59 -308 309 0
44 59 308 -309 0
-44 -59 310 0
-44 -308 310 0
-59 -308 310 0
44 59 -310 0
44 308 -310 0
59 308 -310 0
-45 -60 -310 311 0
-45 -60 310 -311 0
-45 60 -310 -311 0
-45 60 310 311 0
45 -60 -310 -311 0
45 -60 310 311 0
45 60 -310 311 0
45 60 310 -311 0
-45 -60 312 0
-45 -310 312 0
-60 -310 312 0
45 60 -312 0
45 310 -312 0
60 310 -312 0
-46 -61 -312 313 0
-46 -61 312 -313 0
-46 61 -312 -313 0
-46 61 312 313 0
46 -61 -312 -313 0
46 -61 312 313 0
46 61 -312 313 0
46 61 312 -313 0
-46 -61 314 0
-46 -312 314 0
-61 -312 314 0
46 61 -314 0
46 312 -314 0
61 312 -314 0
-47 -62 -314 315 0
-47 -62 314 -315 0
-47 62 -314 -315 0
-47 62 314 315 0
47 -62 -314 -315 0
47 -62 314 315 0
47 62 -314 315 0
47 62 314 -315 0
-47 -62 316 0
-47 -314 316 0
-62 -314 316 0
47 62 -316 0
47 314 -316 0
62 314 -316 0
-48 -63 -316 317 0
-48 -63 316 -317 0
-48 63 -316 -317 0
-48 63 316 317 0
48 -63 -316 -317 0
48 -63 316 317 0
48 63 -316 317 0
48 63 316 -317 0
-48 -63 318 0
-48 -316 318 0
-63 -316 318 0
48 63 -318 0
48 316 -318 0
63 316 -318 0
-319 64 318 0
-319 -64 -318 0
319 -64 318 0
319 64 -318 0
-320 64 0
-320 318 0
320 -64 -318 0
-321 291 65 0
-321 -291 -65 0
321 -291 65 0
321 291 -65 0
-322 291 0
-322 65 0
322 -291 -65 0
-293 -66 -322 323 0
-293 -66 322 -323 0
-293 66 -322 -323 0
-293 66 322 323 0
293 -66 -322 -323 0
293 -66 322 323 0
293 66 -322 323 0
293 66 322 -323 0
-293 -66 324 0
-293 -322 324 0
-66 -322 324 0
293 66 -324 0
293 322 -324 0
66 322 -324 0
-295 -67 -324 325 0
-295 -67 324 -325 0
-295 67 -324 -325 0
-295 67 324 325 0
295 -67 -324 -325 0
295 -67 324 325 0
295 67 -324 325 0
295 67 324 -325 0
-295 -67 326 0
-295 -324 326 0
-67 -324 326 0
295 67 -326 0
295 324 -326 0
67 324 -326 0
-297 -68 -326 327 0
-297 -68 326 -327 0
-297 68 -326 -327 0
-297 68 326 327 0
297 -68 -326 -327 0
297 -68 326 327 0
297 68 -326 327 0
297 68 326 -327 0
-297 -68 328 0
-297 -326 328 0
-68 -326 328 0
297 68 -328 0
297 326 -328 0
68 326 -328 0
-299 -69 -328 329 0
-299 -69 328 -329 0
-299 69 -328 -329 0
-299 69 328 329 0
299 -69 -328 -329 0
299 -69 328 329 0
299 69 -328 329 0
299 69 328 -329 0
-299 -69 330 0
-299 -328 330 0
-69 -328 330 0
299 69 -330 0
299 328 -330 0
69 328 -330 0
-301 -70 -330 331 0
-301 -70 330 -331 0
-301 70 -330 -331 0
-301 70 330 331 0
301 -70 -330 -331 0
301 -70 330 331 0
301 70 -330 331 0
301 70 330 -331 0
-301 -70 332 0
-301 -330 332 0
-70 -330 332 0
301 70 -332 0
301 330 -332 0
70 330 -332 0
-303 -71 -332 333 0
-303 -71 332 -333 0
-303 71 -332 -333 0
-303 71 332 333 0
303 -71 -332 -333 0
303 -71 332 333 0
303 71 -332 333 0
303 71 332 -333 0
-303 -71 334 0
-303 -332 334 0
-71 -332 334 0
303 71 -334 0
303 332 -334 0
71 332 -334 0
-305 -72 -334 335 0
-305 -72 334 -335 0
-305 72 -334 -335 0
-305 72 334 335 0
305 -72 -334 -335 0
305 -72 334 335 0
305 72 -334 335 0
305 72 334 -335 0
-305 -72 336 0
-305 -334 336 0
-72 -334 336 0
305 72 -336 0
305 334 -336 0
72 334 -336 0
-307 -73 -336 337 0
-307 -73 336 -337 0
-307 73 -336 -337 0
-307 73 336 337 0
307 -73 -336 -337 0
307 -73 336 337 0
307 73 -336 337 0
307 73 336 -337 0
-307 -73 338 0
-307 -336 338 0
-73 -336 338 0
307 73 -338 0
307 336 -338 0
73 336 -338 0
-309 -74 -338 339 0
-309 -74 338 -339 0
-309 74 -338 -339 0
-309 74 338 339 0
309 -74 -338 -339 0
309 -74 338 339 0
309 74 -338 339 0
309 74 338 -339 0
-309 -74 340 0
-309 -338 340 0
-74 -338 340 0
309 74 -340 0
309 338 -340 0
74 338 -340 0
-311 -75 -340 341 0
-311 -75 340 -341 0
-311 75 -340 -341 0
-311 75 340 341 0
311 -75 -340 -341 0
311 -75 340 341 0
311 75 -340 341 0
311 75 340 -341 0
-311 -75 342 0
-311 -340 342 0
-75 -340 342 0
311 75 -342 0
311 340 -342 0
75 340 -342 0
-313 -76 -342 343 0
-313 -76 342 -343 0
-313 76 -342 -343 0
-313 76 342 343 0
313 -76 -342 -343 0
313 -76 342 343 0
313 76 -342 343 0
313 76 342 -343 0
-313 -76 344 0
-313 -342 344 0
-76 -342 344 0
313 76 -344 0
313 342 -344 0
76 342 -344 0
-315 -77 -344 345 0
-315 -77 344 -345 0
-315 77 -344 -345 0
-315 77 344 345 0
315 -77 -344 -345 0
315 -77 344 345 0
315 77 -344 345 0
315 77 344 -345 0
-315 -77 346 0
-315 -344 346 0
-77 -344 346 0
315 77 -346 0
315 344 -346 0
77 344 -346 0
-317 -78 -346 347 0
-317 -78 346 -347 0
-317 78 -346 -347 0
-317 78 346 347 0
317 -78 -346 -347 0
317 -78 346 347 0
317 78 -346 347 0
317 78 346 -347 0
-317 -78 348 0
-317 -346 348 0
-78 -346 348 0
317 78 -348 0
317 346 -348 0
78 346 -348 0
-319 -79 -348 349 0
-319 -79 348 -349 0
-319 79 -348 -349 0
-319 79 348 349 0
319 -79 -348 -349 0
319 -79 348 349 0
319 79 -348 349 0
319 79 348 -349 0
-319 -79 350 0
-319 -348 350 0
-79 -348 350 0
319 79 -350 0
319 348 -350 0
79 348 -350 0
-320 -80 -350 351 0
-320 -80 350 -351 0
-320 80 -350 -351 0
-320 80 350 351 0
320 -80 -350 -351 0
320 -80 350 351 0
320 80 -350 351 0
320 80 350 -351 0
-320 -80 352 0
-320 -350 352 0
-80 -350 352 0
320 80 -352 0
320 350 -352 0
80 350 -352 0
-353 323 81 0
-353 -323 -81 0
353 -323 81 0
353 323 -81 0
-354 323 0
-354 81 0
354 -323 -81 0
-325 -82 -354 355 0
-325 -82 354 -355 0
-325 82 -354 -355 0
-325 82 354 355 0
325 -82 -354 -355 0
325 -82 354 355 0
325 82 -354 355 0
325 82 354 -355 0
-325 -82 356 0
-325 -354 356 0
-82 -354 356 0
325 82 -356 0
325 354 -356 0
82 354 -356 0
-327 -83 -356 357 0
-327 -83 356 -357 0
-327 83 -356 -357 0
-327 83 356 357 0
327 -83 -356 -357 0
327 -83 356 357 0
327 83 -356 357 0
327 83 356 -357 0
-327 -83 358 0
-327 -356 358 0
-83 -356 358 0
327 83 -358 0
327 356 -358 0
83 356 -358 0
-329 -84 -358 359 0
-329 -84 358 -359 0
-329 84 -358 -359 0
-329 84 358 359 0
329 -84 -358 -359 0
329 -84 358 359 0
329 84 -358 359 0
329 84 358 -359 0
-329 -84 360 0
-329 -358 360 0
-84 -358 360 0
329 84 -360 0
329 358 -360 0
84 358 -360 0
-331 -85 -360 361 0
-331 -85 360 -361 0
-331 85 -360 -361 0
-331 85 360 361 0
331 -85 -360 -361 0
331 -85 360 361 0
331 85 -360 361 0
331 85 360 -361 0
-331 -85 362 0
-331 -360 362 0
-85 -360 362 0
331 85 -362 0
331 360 -362 0
85 360 -362 0
-333 -86 -362 363 0
-333 -86 362 -363 0
-333 86 -362 -363 0
-333 86 362 363 0
333 -86 -362 -363 0
333 -86 362 363 0
333 86 -362 363 0
333 86 362 -363 0
-333 -86 364 0
-333 -362 364 0
-86 -362 364 0
333 86 -364 0
333 362 -364 0
86 362 -364 0
-335 -87 -364 365 0
-335 -87 364 -365 0
-335 87 -364 -365 0
-335 87 364 365 0
335 -87 -364 -365 0
335 -87 364 365 0
335 87 -364 365 0
335 87 364 -365 0
-335 -87 366 0
-335 -364 366 0
-87 -364 366 0
335 87 -366 0
335 364 -366 0
87 364 -366 0
-337 -88 -366 367 0
-337 -88 366 -367 0
-337 88 -366 -367 0
-337 88 366 367 0
337 -88 -366 -367 0
337 -88 366 367 0
337 88 -366 367 0
337 88 366 -367 0
-337 -88 368 0
-337 -366 368 0
-88 -366 368 0
337 88 -368 0
337 366 -368 0
88 366 -368 0
-339 -89 -368 369 0
-339 -89 368 -369 0
-339 89 -368 -369 0
-339 89 368 369 0
339 -89 -368 -369 0
339 -89 368 369 0
339 89 -368 369 0
339 89 368 -369 0
-339 -89 370 0
-339 -368 370 0
-89 -368 370 0
339 89 -370 0
339 368 -370 0
89 368 -370 0
-341 -90 -370 371 0
-341 -90 370 -371 0
-341 90 -370 -371 0
-341 90 370 371 0
341 -90 -370 -371 0
341 -90 370 371 0
341 90 -370 371 0
341 90 370 -371 0
-341 -90 372 0
-341 -370 372 0
-90 -370 372 0
341 90 -372 0
341 370 -372 0
90 370 -372 0
-343 -91 -372 373 0
-343 -91 372 -373 0
-343 91 -372 -373 0
-343 91 372 373 0
343 -91 -372 -373 0
343 -91 372 373 0
343 91 -372 373 0
343 91 372 -373 0
-343 -91 374 0
-343 -372 374 0
-91 -372 374 0
343 91 -374 0
343 372 -374 0
91 372 -374 0
-345 -92 -374 375 0
-345 -92 374 -375 0
-345 92 -374 -375 0
-345 92 374 375 0
345 -92 -374 -375 0
345 -92 374 375 0
345 92 -374 375 0
345 92 374 -375 0
-345 -92 376 0
-345 -374 376 0
-92 -374 376 0
345 92 -376 0
345 374 -376 0
92 374 -376 0
-347 -93 -376 377 0
-347 -93 376 -377 0
-347 93 -376 -377 0
-347 93 376 377 0
347 -93 -376 -377 0
347 -93 376 377 0
347 93 -376 377 0
347 93 376 -377 0
-347 -93 378 0
-347 -376 378 0
-93 -376 378 0
347 93 -378 0
347 376 -378 0
93 376 -378 0
-349 -94 -378 379 0
-349 -94 378 -379 0
-349 94 -378 -379 0
-349 94 378 379 0
349 -94 -378 -379 0
349 -94 378 379 0
349 94 -378 379 0
349 94 378 -379 0
-349 -94 380 0
-349 -378 380 0
-94 -378 380 0
349 94 -380 0
349 378 -380 0
94 378 -380 0
-351 -95 -380 381 0
-351 -95 380 -381 0
-351 95 -380 -381 0
-351 95 380 381 0
351 -95 -380 -381 0
351 -95 380 381 0
351 95 -380 381 0
351 95 380 -381 0
-351 -95 382 0
-351 -380 382 0
-95 -380 382 0
351 95 -382 0
351 380 -382 0
95 380 -382 0
-352 -96 -382 383 0
-352 -96 382 -383 0
-352 96 -382 -383 0
-352 96 382 383 0
352 -96 -382 -383 0
352 -96 382 383 0
352 96 -382 383 0
352 96 382 -383 0
-352 -96 384 0
-352 -382 384 0
-96 -382 384 0
352 96 -384 0
352 382 -384 0
96 382 -384 0
-385 355 97 0
-385 -355 -97 0
385 -355 97 0
385 355 -97 0
-386 355 0
-386 97 0
386 -355 -97 0
-357 -98 -386 387 0
-357 -98 386 -387 0
-357 98 -386 -387 0
-357 98 386 387 0
357 -98 -386 -387 0
357 -98 386 387 0
357 98 -386 387 0
357 98 386 -387 0
-357 -98 388 0
-357 -386 388 0
-98 -386 388 0
357 98 -388 0
357 386 -388 0
98 386 -388 0
-359 -99 -388 389 0
-359 -99 388 -389 0
-359 99 -388 -389 0
-359 99 388 389 0
359 -99 -388 -389 0
359 -99 388 389 0
359 99 -388 389 0
359 99 388 -389 0
-359 -99 390 0
-359 -388 390 0
-99 -388 390 0
359 99 -390 0
359 388 -390 0
99 388 -390 0
-361 -100 -390 391 0
-361 -100 390 -391 0
-361 100 -390 -391 0
-361 100 390 391 0
361 -100 -390 -391 0
361 -100 390 391 0
361 100 -390 391 0
361 100 390 -391 0
-361 -100 392 0
-361 -390 392 0
-100 -390 392 0
361 100 -392 0
361 390 -392 0
100 390 -392 0
-363 -101 -392 393 0
-363 -101 392 -393 0
-363 101 -392 -393 0
-363 101 392 393 0
363 -101 -392 -393 0
363 -101 392 393 0
363 101 -392 393 0
363 101 392 -393 0
-363 -101 394 0
-363 -392 394 0
-101 -392 394 0
363 101 -394 0
363 392 -394 0
101 392 -394 0
-365 -102 -394 395 0
-365 -102 394 -395 0
-365 102 -394 -395 0
-365 102 394 395 0
365 -102 -394 -395 0
365 -102 394 395 0
365 102 -394 395 0
365 102 394 -395 0
-365 -102 396 0
-365 -394 396 0
-102 -394 396 0
365 102 -396 0
365 394 -396 0
102 394 -396 0
-367 -103 -396 397 0
-367 -103 396 -397 0
-367 103 -396 -397 0
-367 103 396 397 0
367 -103 -396 -397 0
367 -103 396 397 0
367 103 -396 397 0
367 103 396 -397 0
-367 -103 398 0
-367 -396 398 0
-103 -396 398 0
367 103 -398 0
367 396 -398 0
103 396 -398 0
-369 -104 -398 399 0
-369 -104 398 -399 0
-369 104 -398 -399 0
-369 104 398 399 0
369 -104 -398 -399 0
369 -104 398 399 0
369 104 -398 399 0
369 104 398 -399 0
-369 -104 400 0
-369 -398 400 0
-104 -398 400 0
369 104 -400 0
369 398 -400 0
104 398 -400 0
-371 -105 -400 401 0
-371 -105 400 -401 0
-371 105 -400 -401 0
-371 105 400 401 0
371 -105 -400 -401 0
371 -105 400 401 0
371 105 -400 401 0
371 105 400 -401 0
-371 -105 402 0
-371 -400 402 0
-105 -400 402 0
371 105 -402 0
371 400 -402 0
105 400 -402 0
-373 -106 -402 403 0
-373 -106 402 -403 0
-373 106 -402 -403 0
-373 106 402 403 0
373 -106 -402 -403 0
373 -106 402 403 0
373 106 -402 403 0
373 106 402 -403 0
-373 -106 404 0
-373 -402 404 0
-106 -402 404 0
373 106 -404 0
373 402 -404 0
106 402 -404 0
-375 -107 -404 405 0
-375 -107 404 -405 0
-375 107 -404 -405 0
-375 107 404 405 0
375 -107 -404 -405 0
375 -107 404 405 0
375 107 -404 405 0
375 107 404 -405 0
-375 -107 406 0
-375 -404 406 0
-107 -404 406 0
375 107 -406 0
375 404 -406 0
107 404 -406 0
-377 -108 -406 407 0
-377 -108 406 -407 0
-377 108 -406 -407 0
-377 108 406 407 0
377 -108 -406 -407 0
377 -108 406 407 0
377 108 -406 407 0
377 108 406 -407 0
-377 -108 408 0
-377 -406 408 0
-108 -406 408 0
377 108 -408 0
377 406 -408 0
108 406 -408 0
-379 -109 -408 409 0
-379 -109 408 -409 0
-379 109 -408 -409 0
-379 109 408 409 0
379 -109 -408 -409 0
379 -109 408 409 0
379 109 -408 409 0
379 109 408 -409 0
-379 -109 410 0
-379 -408 410 0
-109 -408 410 0
379 109 -410 0
379 408 -410 0
109 408 -410 0
-381 -110 -410 411 0
-381 -110 410 -411 0
-381 110 -410 -411 0
-381 110 410 411 0
381 -110 -410 -411 0
381 -110 410 411 0
381 110 -410 411 0
381 110 410 -411 0
-381 -110 412 0
-381 -410 412 0
-110 -410 412 0
381 110 -412 0
381 410 -412 0
110 410 -412 0
-383 -111 -412 413 0
-383 -111 412 -413 0
-383 111 -412 -413 0
-383 111 412 413 0
383 -111 -412 -413 0
383 -111 412 413 0
383 111 -412 413 0
383 111 412 -413 0
-383 -111 414 0
-383 -412 414 0
-111 -412 414 0
383 111 -414 0
383 412 -414 0
111 412 -414 0
-384 -112 -414 415 0
-384 -112 414 -415 0
-384 112 -414 -415 0
-384 112 414 415 0
384 -112 -414 -415 0
384 -112 414 415 0
384 112 -414 415 0
384 112 414 -415 0
-384 -112 416 0
-384 -414 416 0
-112 -414 416 0
384 112 -416 0
384 414 -416 0
112 414 -416 0
-417 387 113 0
-417 -387 -113 0
417 -387 113 0
417 387 -113 0
-418 387 0
-418 113 0
418 -387 -113 0
-389 -114 -418 419 0
-389 -114 418 -419 0
-389 114 -418 -419 0
-389 114 418 419 0
389 -114 -418 -419 0
389 -114 418 419 0
389 114 -418 419 0
389 114 418 -419 0
-389 -114 420 0
-389 -418 420 0
-114 -418 420 0
389 114 -420 0
389 418 -420 0
114 418 -420 0
-391 -115 -420 421 0
-391 -115 420 -421 0
-391 115 -420 -421 0
-391 115 420 421 0
391 -115 -420 -421 0
391 -115 420 421 0
391 115 -420 421 0
391 115 420 -421 0
-391 -115 422 0
-391 -420 422 0
-115 -420 422 0
391 115 -422 0
391 420 -422 0
115 420 -422 0
-393 -116 -422 423 0
-393 -116 422 -423 0
-393 116 -422 -423 0
-393 116 422 423 0
393 -116 -422 -423 0
393 -116 422 423 0
393 116 -422 423 0
393 116 422 -423 0
-393 -116 424 0
-393 -422 424 0
-116 -422 424 0
393 116 -424 0
393 422 -424 0
116 422 -424 0
-395 -117 -424 425 0
-395 -117 424 -425 0
-395 117 -424 -425 0
-395 117 424 425 0
395 -117 -424 -425 0
395 -117 424 425 0
395 117 -424 425 0
395 117 424 -425 0
-395 -117 426 0
-395 -424 426 0
-117 -424 426 0
395 117 -426 0
395 424 -426 0
117 424 -426 0
-397 -118 -426 427 0
-397 -118 426 -427 0
-397 118 -426 -427 0
-397 118 426 427 0
397 -118 -426 -427 0
397 -118 426 427 0
397 118 -426 427 0
397 118 426 -427 0
-397 -118 428 0
-397 -426 428 0
-118 -426 428 0
397 118 -428 0
397 426 -428 0
118 426 -428 0
-399 -119 -428 429 0
-399 -119 428 -429 0
-399 119 -428 -429 0
-399 119 428 429 0
399 -119 -428 -429 0
399 -119 428 429 0
399 119 -428 429 0
399 119 428 -429 0
-399 -119 430 0
-399 -428 430 0
-119 -428 430 0
399 119 -430 0
399 428 -430 0
119 428 -430 0
-401 -120 -430 431 0
-401 -120 430 -431 0
-401 120 -430 -431 0
-401 120 430 431 0
401 -120 -430 -431 0
401 -120 430 431 0
401 120 -430 431 0
401 120 430 -431 0
-401 -120 432 0
-401 -430 432 0
-120 -430 432 0
401 120 -432 0
401 430 -432 0
120 430 -432 0
-403 -121 -432 433 0
-403 -121 432 -433 0
-403 121 -432 -433 0
-403 121 432 433 0
403 -121 -432 -433 0
403 -121 432 433 0
403 121 -432 433 0
403 121 432 -433 0
-403 -121 434 0
-403 -432 434 0
-121 -432 434 0
403 121 -434 0
403 432 -434 0
121 432 -434 0
-405 -122 -434 435 0
-405 -122 434 -435 0
-405 122 -434 -435 0
-405 122 434 435 0
405 -122 -434 -435 0
405 -122 434 435 0
405 122 -434 435 0
405 122 434 -435 0
-405 -122 436 0
-405 -434 436 0
-122 -434 436 0
405 122 -436 0
405 434 -436 0
122 434 -436 0
-407 -123 -436 437 0
-407 -123 436 -437 0
-407 123 -436 -437 0
-407 123 436 437 0
407 -123 -436 -437 0
407 -123 436 437 0
407 123 -436 437 0
407 123 436 -437 0
-407 -123 438 0
-407 -436 438 0
-123 -436 438 0
407 123 -438 0
407 436 -438 0
123 436 -438 0
-409 -124 -438 439 0
-409 -124 438 -439 0
-409 124 -438 -439 0
-409 124 438 439 0
409 -124 -438 -439 0
409 -124 438 439 0
409 124 -438 439 0
409 124 438 -439 0
-409 -124 440 0
-409 -438 440 0
-124 -438 440 0
409 124 -440 0
409 438 -440 0
124 438 -440 0
-411 -125 -440 441 0
-411 -125 440 -441 0
-411 125 -440 -441 0
-411 125 440 441 0
411 -125 -440 -441 0
411 -125 440 441 0
411 125 -440 441 0
411 125 440 -441 0
-411 -125 442 0
-411 -440 442 0
-125 -440 442 0
411 125 -442 0
411 440 -442 0
125 440 -442 0
-413 -126 -442 443 0
-413 -126 442 -443 0
-413 126 -442 -443 0
-413 126 442 443 0
413 -126 -442 -443 0
413 -126 442 443 0
413 126 -442 443 0
413 126 442 -443 0
-413 -126 444 0
-413 -442 444 0
-126 -442 444 0
413 126 -444 0
413 442 -444 0
126 442 -444 0
-415 -127 -444 445 0
-415 -127 444 -445 0
-415 127 -444 -445 0
-415 127 444 445 0
415 -127 -444 -445 0
415 -127 444 445 0
415 127 -444 445 0
415 127 444 -445 0
-415 -127 446 0
-415 -444 446 0
-127 -444 446 0
415 127 -446 0
415 444 -446 0
127 444 -446 0
-416 -128 -446 447 0
-416 -128 446 -447 0
-416 128 -446 -447 0
-416 128 446 447 0
416 -128 -446 -447 0
416 -128 446 447 0
416 128 -446 447 0
416 128 446 -447 0
-416 -128 448 0
-416 -446 448 0
-128 -446 448 0
416 128 -448 0
416 446 -448 0
128 446 -448 0
-449 419 129 0
-449 -419 -129 0
449 -419 129 0
449 419 -129 0
-450 419 0
-450 129 0
450 -419 -129 0
-421 -130 -450 451 0
-421 -130 450 -451 0
-421 130 -450 -451 0
-421 130 450 451 0
421 -130 -450 -451 0
421 -130 450 451 0
421 130 -450 451 0
421 130 450 -451 0
-421 -130 452 0
-421 -450 452 0
-130 -450 452 0
421 130 -452 0
421 450 -452 0
130 450 -452 0
-423 -131 -452 453 0
-423 -131 452 -453 0
-423 131 -452 -453 0
-423 131 452 453 0
423 -131 -452 -453 0
423 -131 452 453 0
423 131 -452 453 0
423 131 452 -453 0
-423 -131 454 0
-423 -452 454 0
-131 -452 454 0
423 131 -454 0
423 452 -454 0
131 452 -454 0
-425 -132 -454 455 0
-425 -132 454 -455 0
-425 132 -454 -455 0
-425 132 454 455 0
425 -132 -454 -455 0
425 -132 454 455 0
425 132 -454 455 0
425 132 454 -455 0
-425 -132 456 0
-425 -454 456 0
-132 -454 456 0
425 132 -456 0
425 454 -456 0
132 454 -456 0
-427 -133 -456 457 0
-427 -133 456 -457 0
-427 133 -456 -457 0
-427 133 456 457 0
427 -133 -456 -457 0
427 -133 456 457 0
427 133 -456 457 0
427 133 456 -457 0
-427 -133 458 0
-427 -456 458 0
-133 -456 458 0
427 133 -458 0
427 456 -458 0
133 456 -458 0
-429 -134 -458 459 0
-429 -134 458 -459 0
-429 134 -458 -459 0
-429 134 458 459 0
429 -134 -458 -459 0
429 -134 458 459 0
429 134 -458 459 0
429 134 458 -459 0
-429 -134 460 0
-429 -458 460 0
-134 -458 460 0
429 134 -460 0
429 458 -460 0
134 458 -460 0
-431 -135 -460 461 0
-431 -135 460 -461 0
-431 135 -460 -461 0
-431 135 460 461 0
431 -135 -460 -461 0
431 -135 460 461 0
431 135 -460 461 0
431 135 460 -461 0
-431 -135 462 0
-431 -460 462 0
-135 -460 462 0
431 135 -462 0
431 460 -462 0
135 460 -462 0
-433 -136 -462 463 0
-433 -136 462 -463 0
-433 136 -462 -463 0
-433 136 462 463 0
433 -136 -462 -463 0
433 -136 462 463 0
433 136 -462 463 0
433 136 462 -463 0
-433 -136 464 0
-433 -462 464 0
-136 -462 464 0
433 136 -464 0
433 462 -464 0
136 462 -464 0
-435 -137 -464 465 0
-435 -137 464 -465 0
-435 137 -464 -465 0
-435 137 464 465 0
435 -137 -464 -465 0
435 -137 464 465 0
435 137 -464 465 0
435 137 464 -465 0
-435 -137 466 0
-435 -464 466 0
-137 -464 466 0
435 137 -466 0
435 464 -466 0
137 464 -466 0
-437 -138 -466 467 0
-437 -138 466 -467 0
-437 138 -466 -467 0
-437 138 466 467 0
437 -138 -466 -467 0
437 -138 466 467 0
437 138 -466 467 0
437 138 466 -467 0
-437 -138 468 0
-437 -466 468 0
-138 -466 468 0
437 138 -468 0
437 466 -468 0
138 466 -468 0
-439 -139 -468 469 0
-439 -139 468 -469 0
-439 139 -468 -469 0
-439 139 468 469 0
439 -139 -468 -469 0
439 -139 468 469 0
439 139 -468 469 0
439 139 468 -469 0
-439 -139 470 0
-439 -468 470 0
-139 -468 470 0
439 139 -470 0
439 468 -470 0
139 468 -470 0
-441 -140 -470 471 0
-441 -140 470 -471 0
-441 140 -470 -471 0
-441 140 470 471 0
441 -140 -470 -471 0
441 -140 470 471 0
441 140 -470 471 0
441 140 470 -471 0
-441 -140 472 0
-441 -470 472 0
-140 -470 472 0
441 140 -472 0
441 470 -472 0
140 470 -472 0
-443 -141 -472 473 0
-443 -141 472 -473 0
-443 141 -472 -473 0
-443 141 472 473 0
443 -141 -472 -473 0
443 -141 472 473 0
443 141 -472 473 0
443 141 472 -473 0
-443 -141 474 0
-443 -472 474 0
-141 -472 474 0
443 141 -474 0
443 472 -474 0
141 472 -474 0
-445 -142 -474 475 0
-445 -142 474 -475 0
-445 142 -474 -475 0
-445 142 474 475 0
445 -142 -474 -475 0
445 -142 474 475 0
445 142 -474 475 0
445 142 474 -475 0
-445 -142 476 0
-445 -474 476 0
-142 -474 476 0
445 142 -476 0
445 474 -476 0
142 474 -476 0
-447 -143 -476 477 0
-447 -143 476 -477 0
-447 143 -476 -477 0
-447 143 476 477 0
447 -143 -476 -477 0
447 -143 476 477 0
447 143 -476 477 0
447 143 476 -477 0
-447 -143 478 0
-447 -476 478 0
-143 -476 478 0
447 143 -478 0
447 476 -478 0
143 476 -478 0
-448 -144 -478 479 0
-448 -144 478 -479 0
-448 144 -478 -479 0
-448 144 478 479 0
448 -144 -478 -479 0
448 -144 478 479 0
448 144 -478 479 0
448 144 478 -479 0
-448 -144 480 0
-448 -478 480 0
-144 -478 480 0
448 144 -480 0
448 478 -480 0
144 478 -480 0
-481 451 145 0
-481 -451 -145 0
481 -451 145 0
481 451 -145 0
-482 451 0
-482 145 0
482 -451 -145 0
-453 -146 -482 483 0
-453 -146 482 -483 0
-453 146 -482 -483 0
-453 146 482 483 0
453 -146 -482 -483 0
453 -146 482 483 0
453 146 -482 483 0
453 146 482 -483 0
-453 -146 484 0
-453 -482 484 0
-146 -482 484 0
453 146 -484 0
453 482 -484 0
146 482 -484 0
-455 -147 -484 485 0
-455 -147 484 -485 0
-455 147 -484 -485 0
-455 147 484 485 0
455 -147 -484 -485 0
455 -147 484 485 0
455 147 -484 485 0
455 147 484 -485 0
-455 -147 486 0
-455 -484 486 0
-147 -484 486 0
455 147 -486 0
455 484 -486 0
147 484 -486 0
-457 -148 -486 487 0
-457 -148 486 -487 0
-457 148 -486 -487 0
-457 148 486 487 0
457 -148 -486 -487 0
457 -148 486 487 0
457 148 -486 487 0
457 148 486 -487 0
-457 -148 488 0
-457 -486 488 0
-148 -486 488 0
457 148 -488 0
457 486 -488 0
148 486 -488 0
-459 -149 -488 489 0
-459 -149 488 -489 0
-459 149 -488 -489 0
-459 149 488 489 0
459 -149 -488 -489 0
459 -149 488 489 0
459 149 -488 489 0
459 149 488 -489 0
-459 -149 490 0
-459 -488 490 0
-149 -488 490 0
459 149 -490 0
459 488 -490 0
149 488 -490 0
-461 -150 -490 491 0
-461 -150 490 -491 0
-461 150 -490 -491 0
-461 150 490 491 0
461 -150 -490 -491 0
461 -150 490 491 0
461 150 -490 491 0
461 150 490 -491 0
-461 -150 492 0
-461 -490 492 0
-150 -490 492 0
461 150 -492 0
461 490 -492 0
150 490 -492 0
-463 -151 -492 493 0
-463 -151 492 -493 0
-463 151 -492 -493 0
-463 151 492 493 0
463 -151 -492 -493 0
463 -151 492 493 0
463 151 -492 493 0
463 151 492 -493 0
-463 -151 494 0
-463 -492 494 0
-151 -492 494 0
463 151 -494 0
463 492 -494 0
151 492 -494 0
-465 -152 -494 495 0
-465 -152 494 -495 0
-465 152 -494 -495 0
-465 152 494 495 0
465 -152 -494 -495 0
465 -152 494 495 0
465 152 -494 495 0
465 152 494 -495 0
-465 -152 496 0
-465 -494 496 0
-152 -494 496 0
465 152 -496 0
465 494 -496 0
152 494 -496 0
-467 -153 -496 497 0
-467 -153 496 -497 0
-467 153 -496 -497 0
-467 153 496 497 0
467 -153 -496 -497 0
467 -153 496 497 0
467 153 -496 497 0
467 153 496 -497 0
-467 -153 498 0
-467 -496 498 0
-153 -496 498 0
467 153 -498 0
467 496 -498 0
153 496 -498 0
-469 -154 -498 499 0
-469 -154 498 -499 0
-469 154 -498 -499 0
-469 154 498 499 0
469 -154 -498 -499 0
469 -154 498 499 0
469 154 -498 499 0
469 154 498 -499 0
-469 -154 500 0
-469 -498 500 0
-154 -498 500 0
469 154 -500 0
469 498 -500 0
154 498 -500 0
-471 -155 -500 501 0
-471 -155 500 -501 0
-471 155 -500 -501 0
-471 155 500 501 0
471 -155 -500 -501 0
471 -155 500 501 0
471 155 -500 501 0
471 155 500 -501 0
-471 -155 502 0
-471 -500 502 0
-155 -500 502 0
471 155 -502 0
471 500 -502 0
155 500 -502 0
-473 -156 -502 503 0
-473 -156 502 -503 0
-473 156 -502 -503 0
-473 156 502 503 0
473 -156 -502 -503 0
473 -156 502 503 0
473 156 -502 503 0
473 156 502 -503 0
-473 -156 504 0
-473 -502 504 0
-156 -502 504 0
473 156 -504 0
473 502 -504 0
156 502 -504 0
-475 -157 -504 505 0
-475 -157 504 -505 0
-475 157 -504 -505 0
-475 157 504 505 0
475 -157 -504 -505 0
475 -157 504 505 0
475 157 -504 505 0
475 157 504 -505 0
-475 -157 506 0
-475 -504 506 0
-157 -504 506 0
475 157 -506 0
475 504 -506 0
157 504 -506 0
-477 -158 -506 507 0
-477 -158 506 -507 0
-477 158 -506 -507 0
-477 158 506 507 0
477 -158 -506 -507 0
477 -158 506 507 0
477 158 -506 507 0
477 158 506 -507 0
-477 -158 508 0
-477 -506 508 0
-158 -506 508 0
477 158 -508 0
477 506 -508 0
158 506 -508 0
-479 -159 -508 509 0
-479 -159 508 -509 0
-479 159 -508 -509 0
-479 159 508 509 0
479 -159 -508 -509 0
479 -159 508 509 0
479 159 -508 509 0
479 159 508 -509 0
-479 -159 510 0
-479 -508 510 0
-159 -508 510 0
479 159 -510 0
479 508 -510 0
159 508 -510 0
-480 -160 -510 511 0
-480 -160 510 -511 0
-480 160 -510 -511 0
-480 160 510 511 0
480 -160 -510 -511 0
480 -160 510 511 0
480 160 -510 511 0
480 160 510 -511 0
-480 -160 512 0
-480 -510 512 0
-160 -510 512 0
480 160 -512 0
480 510 -512 0
160 510 -512 0
-513 483 161 0
-513 -483 -161 0
513 -483 161 0
513 483 -161 0
-514 483 0
-514 161 0
514 -483 -161 0
-485 -162 -514 515 0
-485 -162 514 -515 0
-485 162 -514 -515 0
-485 162 514 515 0
485 -162 -514 -515 0
485 -162 514 515 0
485 162 -514 515 0
485 162 514 -515 0
-485 -162 516 0
-485 -514 516 0
-162 -514 516 0
485 162 -516 0
485 514 -516 0
162 514 -516 0
-487 -163 -516 517 0
-487 -163 516 -517 0
-487 163 -516 -517 0
-487 163 516 517 0
487 -163 -516 -517 0
487 -163 516 517 0
487 163 -516 517 0
487 163 516 -517 0
-487 -163 518 0
-487 -516 518 0
-163 -516 518 0
487 163 -518 0
487 516 -518 0
163 516 -518 0
-489 -164 -518 519 0
-489 -164 518 -519 0
-489 164 -518 -519 0
-489 164 518 519 0
489 -164 -518 -519 0
489 -164 518 519 0
489 164 -518 519 0
489 164 518 -519 0
-489 -164 520 0
-489 -518 520 0
-164 -518 520 0
489 164 -520 0
489 518 -520 0
164 518 -520 0
-491 -165 -520 521 0
-491 -165 520 -521 0
-491 165 -520 -521 0
-491 165 520 521 0
491 -165 -520 -521 0
491 -165 520 521 0
491 165 -520 521 0
491 165 520 -521 0
-491 -165 522 0
-491 -520 522 0
-165 -520 522 0
491 165 -522 0
491 520 -522 0
165 520 -522 0
-493 -166 -522 523 0
-493 -166 522 -523 0
-493 166 -522 -523 0
-493 166 522 523 0
493 -166 -522 -523 0
493 -166 522 523 0
493 166 -522 523 0
493 166 522 -523 0
-493 -166 524 0
-493 -522 524 0
-166 -522 524 0
493 166 -524 0
493 522 -524 0
166 522 -524 0
-495 -167 -524 525 0
-495 -167 524 -525 0
-495 167 -524 -525 0
-495 167 524 525 0
495 -167 -524 -525 0
495 -167 524 525 0
495 167 -524 525 0
495 167 524 -525 0
-495 -167 526 0
-495 -524 526 0
-167 -524 526 0
495 167 -526 0
495 524 -526 0
167 524 -526 0
-497 -168 -526 527 0
-497 -168 526 -527 0
-497 168 -526 -527 0
-497 168 526 527 0
497 -168 -526 -527 0
497 -168 526 527 0
497 168 -526 527 0
497 168 526 -527 0
-497 -168 528 0
-497 -526 528 0
-168 -526 528 0
497 168 -528 0
497 526 -528 0
168 526 -528 0
-499 -169 -528 529 0
-499 -169 528 -529 0
-499 169 -528 -529 0
-499 169 528 529 0
499 -169 -528 -529 0
499 -169 528 529 0
499 169 -528 529 0
499 169 528 -529 0
-499 -169 530 0
-499 -528 530 0
-169 -528 530 0
499 169 -530 0
499 528 -530 0
169 528 -530 0
-501 -170 -530 531 0
-501 -170 530 -531 0
-501 170 -530 -531 0
-501 170 530 531 0
501 -170 -530 -531 0
501 -170 530 531 0
501 170 -530 531 0
501 170 530 -531 0
-501 -170 532 0
-501 -530 532 0
-170 -530 532 0
501 170 -532 0
501 530 -532 0
170 530 -532 0
-503 -171 -532 533 0
-503 -171 532 -533 0
-503 171 -532 -533 0
-503 171 532 533 0
503 -171 -532 -533 0
503 -171 532 533 0
503 171 -532 533 0
503 171 532 -533 0
-503 -171 534 0
-503 -532 534 0
-171 -532 534 0
503 171 -534 0
503 532 -534 0
171 532 -534 0
-505 -172 -534 535 0
-505 -172 534 -535 0
-505 172 -534 -535 0
-505 172 534 535 0
505 -172 -534 -535 0
505 -172 534 535 0
505 172 -534 535 0
505 172 534 -535 0
-505 -172 536 0
-505 -534 536 0
-172 -534 536 0
505 172 -536 0
505 534 -536 0
172 534 -536 0
-507 -173 -536 537 0
-507 -173 536 -537 0
-507 173 -536 -537 0
-507 173 536 537 0
507 -173 -536 -537 0
507 -173 536 537 0
507 173 -536 537 0
507 173 536 -537 0
-507 -173 538 0
-507 -536 538 0
-173 -536 538 0
507 173 -538 0
507 536 -538 0
173 536 -538 0
-509 -174 -538 539 0
-509 -174 538 -539 0
-509 174 -538 -539 0
-509 174 538 539 0
509 -174 -538 -539 0
509 -174 538 539 0
509 174 -538 539 0
509 174 538 -539 0
-509 -174 540 0
-509 -538 540 0
-174 -538 540 0
509 174 -540 0
509 538 -540 0
174 538 -540 0
-511 -175 -540 541 0
-511 -175 540 -541 0
-511 175 -540 -541 0
-511 175 540 541 0
511 -175 -540 -541 0
511 -175 540 541 0
511 175 -540 541 0
511 175 540 -541 0
-511 -175 542 0
-511 -540 542 0
-175 -540 542 0
511 175 -542 0
511 540 -542 0
175 540 -542 0
-512 -176 -542 543 0
-512 -176 542 -543 0
-512 176 -542 -543 0
-512 176 542 543 0
512 -176 -542 -543 0
512 -176 542 543 0
512 176 -542 543 0
512 176 542 -543 0
-512 -176 544 0
-512 -542 544 0
-176 -542 544 0
512 176 -544 0
512 542 -544 0
176 542 -544 0
-545 515 177 0
-545 -515 -177 0
545 -515 177 0
545 515 -177 0
-546 515 0
-546 177 0
546 -515 -177 0
-517 -178 -546 547 0
-517 -178 546 -547 0
-517 178 -546 -547 0
-517 178 546 547 0
517 -178 -546 -547 0
517 -178 546 547 0
517 178 -546 547 0
517 178 546 -547 0
-517 -178 548 0
-517 -546 548 0
-178 -546 548 0
517 178 -548 0
517 546 -548 0
178 546 -548 0
-519 -179 -548 549 0
-519 -179 548 -549 0
-519 179 -548 -549 0
-519 179 548 549 0
519 -179 -548 -549 0
519 -179 548 549 0
519 179 -548 549 0
519 179 548 -549 0
-519 -179 550 0
-519 -548 550 0
-179 -548 550 0
519 179 -550 0
519 548 -550 0
179 548 -550 0
-521 -180 -550 551 0
-521 -180 550 -551 0
-521 180 -550 -551 0
-521 180 550 551 0
521 -180 -550 -551 0
521 -180 550 551 0
521 180 -550 551 0
521 180 550 -551 0
-521 -180 552 0
-521 -550 552 0
-180 -550 552 0
521 180 -552 0
521 550 -552 0
180 550 -552 0
-523 -181 -552 553 0
-523 -181 552 -553 0
-523 181 -552 -553 0
-523 181 552 553 0
523 -181 -552 -553 0
523 -181 552 553 0
523 181 -552 553 0
523 181 552 -553 0
-523 -181 554 0
-523 -552 554 0
-181 -552 554 0
523 181 -554 0
523 552 -554 0
181 552 -554 0
-525 -182 -554 555 0
-525 -182 554 -555 0
-525 182 -554 -555 0
-525 182 554 555 0
525 -182 -554 -555 0
525 -182 554 555 0
525 182 -554 555 0
525 182 554 -555 0
-525 -182 556 0
-525 -554 556 0
-182 -554 556 0
525 182 -556 0
525 554 -556 0
182 554 -556 0
-527 -183 -556 557 0
-527 -183 556 -557 0
-527 183 -556 -557 0
-527 183 556 557 0
527 -183 -556 -557 0
527 -183 556 557 0
527 183 -556 557 0
527 183 556 -557 0
-527 -183 558 0
-527 -556 558 0
-183 -556 558 0
527 183 -558 0
527 556 -558 0
183 556 -558 0
-529 -184 -558 559 0
-529 -184 558 -559 0
-529 184 -558 -559 0
-529 184 558 559 0
529 -184 -558 -559 0
529 -184 558 559 0
529 184 -558 559 0
529 184 558 -559 0
-529 -184 560 0
-529 -558 560 0
-184 -558 560 0
529 184 -560 0
529 558 -560 0
184 558 -560 0
-531 -185 -560 561 0
-531 -185 560 -561 0
-531 185 -560 -561 0
-531 185 560 561 0
531 -185 -560 -561 0
531 -185 560 561 0
531 185 -560 561 0
531 185 560 -561 0
-531 -185 562 0
-531 -560 562 0
-185 -560 562 0
531 185 -562 0
531 560 -562 0
185 560 -562 0
-533 -186 -562 563 0
-533 -186 562 -563 0
-533 186 -562 -563 0
-533 186 562 563 0
533 -186 -562 -563 0
533 -186 562 563 0
533 186 -562 563 0
533 186 562 -563 0
-533 -186 564 0
-533 -562 564 0
-186 -562 564 0
533 186 -564 0
533 562 -564 0
186 562 -564 0
-535 -187 -564 565 0
-535 -187 564 -565 0
-535 187 -564 -565 0
-535 187 564 565 0
535 -187 -564 -565 0
535 -187 564 565 0
535 187 -564 565 0
535 187 564 -565 0
-535 -187 566 0
-535 -564 566 0
-187 -564 566 0
535 187 -566 0
535 564 -566 0
187 564 -566 0
-537 -188 -566 567 0
-537 -188 566 -567 0
-537 188 -566 -567 0
-537 188 566 567 0
537 -188 -566 -567 0
537 -188 566 567 0
537 188 -566 567 0
537 188 566 -567 0
-537 -188 568 0
-537 -566 568 0
-188 -566 568 0
537 188 -568 0
537 566 -568 0
188 566 -568 0
-539 -189 -568 569 0
-539 -189 568 -569 0
-539 189 -568 -569 0
-539 189 568 569 0
539 -189 -568 -569 0
539 -189 568 569 0
539 189 -568 569 0
539 189 568 -569 0
-539 -189 570 0
-539 -568 570 0
-189 -568 570 0
539 189 -570 0
539 568 -570 0
189 568 -570 0
-541 -190 -570 571 0
-541 -190 570 -571 0
-541 190 -570 -571 0
-541 190 570 571 0
541 -190 -570 -571 0
541 -190 570 571 0
541 190 -570 571 0
541 190 570 -571 0
-541 -190 572 0
-541 -570 572 0
-190 -570 572 0
541 190 -572 0
541 570 -572 0
190 570 -572 0
-543 -191 -572 573 0
-543 -191 572 -573 0
-543 191 -572 -573 0
-543 191 572 573 0
543 -191 -572 -573 0
543 -191 572 573 0
543 191 -572 573 0
543 191 572 -573 0
-543 -191 574 0
-543 -572 574 0
-191 -572 574 0
543 191 -574 0
543 572 -574 0
191 572 -574 0
-544 -192 -574 575 0
-544 -192 574 -575 0
-544 192 -574 -575 0
-544 192 574 575 0
544 -192 -574 -575 0
544 -192 574 575 0
544 192 -574 575 0
544 192 574 -575 0
-544 -192 576 0
-544 -574 576 0
-192 -574 576 0
544 192 -576 0
544 574 -576 0
192 574 -576 0
-577 547 193 0
-577 -547 -193 0
577 -547 193 0
577 547 -193 0
-578 547 0
-578 193 0
578 -547 -193 0
-549 -194 -578 579 0
-549 -194 578 -579 0
-549 194 -578 -579 0
-549 194 578 579 0
549 -194 -578 -579 0
549 -194 578 579 0
549 194 -578 579 0
549 194 578 -579 0
-549 -194 580 0
-549 -578 580 0
-194 -578 580 0
549 194 -580 0
549 578 -580 0
194 578 -580 0
-551 -195 -580 581 0
-551 -195 580 -581 0
-551 195 -580 -581 0
-551 195 580 581 0
551 -195 -580 -581 0
551 -195 580 581 0
551 195 -580 581 0
551 195 580 -581 0
-551 -195 582 0
-551 -580 582 0
-195 -580 582 0
551 195 -582 0
551 580 -582 0
195 580 -582 0
-553 -196 -582 583 0
-553 -196 582 -583 0
-553 196 -582 -583 0
-553 196 582 583 0
553 -196 -582 -583 0
553 -196 582 583 0
553 196 -582 583 0
553 196 582 -583 0
-553 -196 584 0
-553 -582 584 0
-196 -582 584 0
553 196 -584 0
553 582 -584 0
196 582 -584 0
-555 -197 -584 585 0
-555 -197 584 -585 0
-555 197 -584 -585 0
-555 197 584 585 0
555 -197 -584 -585 0
555 -197 584 585 0
555 197 -584 585 0
555 197 584 -585 0
-555 -197 586 0
-555 -584 586 0
-197 -584 586 0
555 197 -586 0
555 584 -586 0
197 584 -586 0
-557 -198 -586 587 0
-557 -198 586 -587 0
-557 198 -586 -587 0
-557 198 586 587 0
557 -198 -586 -587 0
557 -198 586 587 0
557 198 -586 587 0
557 198 586 -587 0
-557 -198 588 0
-557 -586 588 0
-198 -586 588 0
557 198 -588 0
557 586 -588 0
198 586 -588 0
-559 -199 -588 589 0
-559 -199 588 -589 0
-559 199 -588 -589 0
-559 199 588 589 0
559 -199 -588 -589 0
559 -199 588 589 0
559 199 -588 589 0
559 199 588 -589 0
-559 -199 590 0
-559 -588 590 0
-199 -588 590 0
559 199 -590 0
559 588 -590 0
199 588 -590 0
-561 -200 -590 591 0
-561 -200 590 -591 0
-561 200 -590 -591 0
-561 200 590 591 0
561 -200 -590 -591 0
561 -200 590 591 0
561 200 -590 591 0
561 200 590 -591 0
-561 -200 592 0
-561 -590 592 0
-200 -590 592 0
561 200 -592 0
561 590 -592 0
200 590 -592 0
-563 -201 -592 593 0
-563 -201 592 -593 0
-563 201 -592 -593 0
-563 201 592 593 0
563 -201 -592 -593 0
563 -201 592 593 0
563 201 -592 593 0
563 201 592 -593 0
-563 -201 594 0
-563 -592 594 0
-201 -592 594 0
563 201 -594 0
563 592 -594 0
201 592 -594 0
-565 -202 -594 595 0
-565 -202 594 -595 0
-565 202 -594 -595 0
-565 202 594 595 0
565 -202 -594 -595 0
565 -202 594 595 0
565 202 -594 595 0
565 202 594 -595 0
-565 -202 596 0
-565 -594 596 0
-202 -594 596 0
565 202 -596 0
565 594 -596 0
202 594 -596 0
-567 -203 -596 597 0
-567 -203 596 -597 0
-567 203 -596 -597 0
-567 203 596 597 0
567 -203 -596 -597 0
567 -203 596 597 0
567 203 -596 597 0
567 203 596 -597 0
-567 -203 598 0
-567 -596 598 0
-203 -596 598 0
567 203 -598 0
567 596 -598 0
203 596 -598 0
-569 -204 -598 599 0
-569 -204 598 -599 0
-569 204 -598 -599 0
-569 204 598 599 0
569 -204 -598 -599 0
569 -204 598 599 0
569 204 -598 599 0
569 204 598 -599 0
-569 -204 600 0
-569 -598 600 0
-204 -598 600 0
569 204 -600 0
569 598 -600 0
204 598 -600 0
-571 -205 -600 601 0
-571 -205 600 -601 0
-571 205 -600 -601 0
-571 205 600 601 0
571 -205 -600 -601 0
571 -205 600 601 0
571 205 -600 601 0
571 205 600 -601 0
-571 -205 602 0
-571 -600 602 0
-205 -600 602 0
571 205 -602 0
571 600 -602 0
205 600 -602 0
-573 -206 -602 603 0
-573 -206 602 -603 0
-573 206 -602 -603 0
-573 206 602 603 0
573 -206 -602 -603 0
573 -206 602 603 0
573 206 -602 603 0
573 206 602 -603 0
-573 -206 604 0
-573 -602 604 0
-206 -602 604 0
573 206 -604 0
573 602 -604 0
206 602 -604 0
-575 -207 -604 605 0
-575 -207 604 -605 0
-575 207 -604 -605 0
-575 207 604 605 0
575 -207 -604 -605 0
575 -207 604 605 0
575 207 -604 605 0
575 207 604 -605 0
-575 -207 606 0
-575 -604 606 0
-207 -604 606 0
575 207 -606 0
575 604 -606 0
207 604 -606 0
-576 -208 -606 607 0
-576 -208 606 -607 0
-576 208 -606 -607 0
-576 208 606 607 0
576 -208 -606 -607 0
576 -208 606 607 0
576 208 -606 607 0
576 208 606 -607 0
-576 -208 608 0
-576 -606 608 0
-208 -606 608 0
576 208 -608 0
576 606 -608 0
208 606 -608 0
-609 579 209 0
-609 -579 -209 0
609 -579 209 0
609 579 -209 0
-610 579 0
-610 209 0
610 -579 -209 0
-581 -210 -610 611 0
-581 -210 610 -611 0
-581 210 -610 -611 0
-581 210 610 611 0
581 -210 -610 -611 0
581 -210 610 611 0
581 210 -610 611 0
581 210 610 -611 0
-581 -210 612 0
-581 -610 612 0
-210 -610 612 0
581 210 -612 0
581 610 -612 0
210 610 -612 0
-583 -211 -612 613 0
-583 -211 612 -613 0
-583 211 -612 -613 0
-583 211 612 613 0
583 -211 -612 -613 0
583 -211 612 613 0
583 211 -612 613 0
583 211 612 -613 0
-583 -211 614 0
-583 -612 614 0
-211 -612 614 0
583 211 -614 0
583 612 -614 0
211 612 -614 0
-585 -212 -614 615 0
-585 -212 614 -615 0
-585 212 -614 -615 0
-585 212 614 615 0
585 -212 -614 -615 0
585 -212 614 615 0
585 212 -614 615 0
585 212 614 -615 0
-585 -212 616 0
-585 -614 616 0
-212 -614 616 0
585 212 -616 0
585 614 -616 0
212 614 -616 0
-587 -213 -616 617 0
-587 -213 616 -617 0
-587 213 -616 -617 0
-587 213 616 617 0
587 -213 -616 -617 0
587 -213 616 617 0
587 213 -616 617 0
587 213 616 -617 0
-587 -213 618 0
-587 -616 618 0
-213 -616 618 0
587 213 -618 0
587 616 -618 0
213 616 -618 0
-589 -214 -618 619 0
-589 -214 618 -619 0
-589 214 -618 -619 0
-589 214 618 619 0
589 -214 -618 -619 0
589 -214 618 619 0
589 214 -618 619 0
589 214 618 -619 0
-589 -214 620 0
-589 -618 620 0
-214 -618 620 0
589 214 -620 0
589 618 -620 0
214 618 -620 0
-591 -215 -620 621 0
-591 -215 620 -621 0
-591 215 -620 -621 0
-591 215 620 621 0
591 -215 -620 -621 0
591 -215 620 621 0
591 215 -620 621 0
591 215 620 -621 0
-591 -215 622 0
-591 -620 622 0
-215 -620 622 0
591 215 -622 0
591 620 -622 0
215 620 -622 0
-593 -216 -622 623 0
-593 -216 622 -623 0
-593 216 -622 -623 0
-593 216 622 623 0
593 -216 -622 -623 0
593 -216 622 623 0
593 216 -622 623 0
593 216 622 -623 0
-593 -216 624 0
-593 -622 624 0
-216 -622 624 0
593 216 -624 0
593 622 -624 0
216 622 -624 0
-595 -217 -624 625 0
-595 -217 624 -625 0
-595 217 -624 -625 0
-595 217 624 625 0
595 -217 -624 -625 0
595 -217 624 625 0
595 217 -624 625 0
595 217 624 -625 0
-595 -217 626 0
-595 -624 626 0
-217 -624 626 0
595 217 -626 0
595 624 -626 0
217 624 -626 0
-597 -218 -626 627 0
-597 -218 626 -627 0
-597 218 -626 -627 0
-597 218 626 627 0
597 -218 -626 -627 0
597 -218 626 627 0
597 218 -626 627 0
597 218 626 -627 0
-597 -218 628 0
-597 -626 628 0
-218 -626 628 0
597 218 -628 0
597 626 -628 0
218 626 -628 0
-599 -219 -628 629 0
-599 -219 628 -629 0
-599 219 -628 -629 0
-599 219 628 629 0
599 -219 -628 -629 0
599 -219 628 629 0
599 219 -628 629 0
599 219 628 -629 0
-599 -219 630 0
-599 -628 630 0
-219 -628 630 0
599 219 -630 0
599 628 -630 0
219 628 -630 0
-601 -220 -630 631 0
-601 -220 630 -631 0
-601 220 -630 -631 0
-601 220 630 631 0
601 -220 -630 -631 0
601 -220 630 631 0
601 220 -630 631 0
601 220 630 -631 0
-601 -220 632 0
-601 -630 632 0
-220 -630 632 0
601 220 -632 0
601 630 -632 0
220 630 -632 0
-603 -221 -632 633 0
-603 -221 632 -633 0
-603 221 -632 -633 0
-603 221 632 633 0
603 -221 -632 -633 0
603 -221 632 633 0
603 221 -632 633 0
603 221 632 -633 0
-603 -221 634 0
-603 -632 634 0
-221 -632 634 0
603 221 -634 0
603 632 -634 0
221 632 -634 0
-605 -222 -634 635 0
-605 -222 634 -635 0
-605 222 -634 -635 0
-605 222 634 635 0
605 -222 -634 -635 0
605 -222 634 635 0
605 222 -634 635 0
605 222 634 -635 0
-605 -222 636 0
-605 -634 636 0
-222 -634 636 0
605 222 -636 0
605 634 -636 0
222 634 -636 0
-607 -223 -636 637 0
-607 -223 636 -637 0
-607 223 -636 -637 0
-607 223 636 637 0
607 -223 -636 -637 0
607 -223 636 637 0
607 223 -636 637 0
607 223 636 -637 0
-607 -223 638 0
-607 -636 638 0
-223 -636 638 0
607 223 -638 0
607 636 -638 0
223 636 -638 0
-608 -224 -638 639 0
-608 -224 638 -639 0
-608 224 -638 -639 0
-608 224 638 639 0
608 -224 -638 -639 0
608 -224 638 639 0
608 224 -638 639 0
608 224 638 -639 0
-608 -224 640 0
-608 -638 640 0
-224 -638 640 0
608 224 -640 0
608 638 -640 0
224 638 -640 0
-641 611 225 0
-641 -611 -225 0
641 -611 225 0
641 611 -225 0
-642 611 0
-642 225 0
642 -611 -225 0
-613 -226 -642 643 0
-613 -226 642 -643 0
-613 226 -642 -643 0
-613 226 642 643 0
613 -226 -642 -643 0
613 -226 642 643 0
613 226 -642 643 0
613 226 642 -643 0
-613 -226 644 0
-613 -642 644 0
-226 -642 644 0
613 226 -644 0
613 642 -644 0
226 642 -644 0
-615 -227 -644 645 0
-615 -227 644 -645 0
-615 227 -644 -645 0
-615 227 644 645 0
615 -227 -644 -645 0
615 -227 644 645 0
615 227 -644 645 0
615 227 644 -645 0
-615 -227 646 0
-615 -644 646 0
-227 -644 646 0
615 227 -646 0
615 644 -646 0
227 644 -646 0
-617 -228 -646 647 0
-617 -228 646 -647 0
-617 228 -646 -647 0
-617 228 646 647 0
617 -228 -646 -647 0
617 -228 646 647 0
617 228 -646 647 0
617 228 646 -647 0
-617 -228 648 0
-617 -646 648 0
-228 -646 648 0
617 228 -648 0
617 646 -648 0
228 646 -648 0
-619 -229 -648 649 0
-619 -229 648 -649 0
-619 229 -648 -649 0
-619 229 648 649 0
619 -229 -648 -649 0
619 -229 648 649 0
619 229 -648 649 0
619 229 648 -649 0
-619 -229 650 0
-619 -648 650 0
-229 -648 650 0
619 229 -650 0
619 648 -650 0
229 648 -650 0
-621 -230 -650 651 0
-621 -230 650 -651 0
-621 230 -650 -651 0
-621 230 650 651 0
621 -230 -650 -651 0
621 -230 650 651 0
621 230 -650 651 0
621 230 650 -651 0
-621 -230 652 0
-621 -650 652 0
-230 -650 652 0
621 230 -652 0
621 650 -652 0
230 650 -652 0
-623 -231 -652 653 0
-623 -231 652 -653 0
-623 231 -652 -653 0
-623 231 652 653 0
623 -231 -652 -653 0
623 -231 652 653 0
623 231 -652 653 0
623 231 652 -653 0
-623 -231 654 0
-623 -652 654 0
-231 -652 654 0
623 231 -654 0
623 652 -654 0
231 652 -654 0
-625 -232 -654 655 0
-625 -232 654 -655 0
-625 232 -654 -655 0
-625 232 654 655 0
625 -232 -654 -655 0
625 -232 654 655 0
625 232 -654 655 0
625 232 654 -655 0
-625 -232 656 0
-625 -654 656 0
-232 -654 656 0
625 232 -656 0
625 654 -656 0
232 654 -656 0
-627 -233 -656 657 0
-627 -233 656 -657 0
-627 233 -656 -657 0
-627 233 656 657 0
627 -233 -656 -657 0
627 -233 656 657 0
627 233 -656 657 0
627 233 656 -657 0
-627 -233 658 0
-627 -656 658 0
-233 -656 658 0
627 233 -658 0
627 656 -658 0
233 656 -658 0
-629 -234 -658 659 0
-629 -234 658 -659 0
-629 234 -658 -659 0
-629 234 658 659 0
629 -234 -658 -659 0
629 -234 658 659 0
629 234 -658 659 0
629 234 658 -659 0
-629 -234 660 0
-629 -658 660 0
-234 -658 660 0
629 234 -660 0
629 658 -660 0
234 658 -660 0
-631 -235 -660 661 0
-631 -235 660 -661 0
-631 235 -660 -661 0
-631 235 660 661 0
631 -235 -660 -661 0
631 -235 660 661 0
631 235 -660 661 0
631 235 660 -661 0
-631 -235 662 0
-631 -660 662 0
-235 -660 662 0
631 235 -662 0
631 660 -662 0
235 660 -662 0
-633 -236 -662 663 0
-633 -236 662 -663 0
-633 236 -662 -663 0
-633 236 662 663 0
633 -236 -662 -663 0
633 -236 662 663 0
633 236 -662 663 0
633 236 662 -663 0
-633 -236 664 0
-633 -662 664 0
-236 -662 664 0
633 236 -664 0
633 662 -664 0
236 662 -664 0
-635 -237 -664 665 0
-635 -237 664 -665 0
-635 237 -664 -665 0
-635 237 664 665 0
635 -237 -664 -665 0
635 -237 664 665 0
635 237 -664 665 0
635 237 664 -665 0
-635 -237 666 0
-635 -664 666 0
-237 -664 666 0
635 237 -666 0
635 664 -666 0
237 664 -666 0
-637 -238 -666 667 0
-637 -238 666 -667 0
-637 238 -666 -667 0
-637 238 666 667 0
637 -238 -666 -667 0
637 -238 666 667 0
637 238 -666 667 0
637 238 666 -667 0
-637 -238 668 0
-637 -666 668 0
-238 -666 668 0
637 238 -668 0
637 666 -668 0
238 666 -668 0
-639 -239 -668 669 0
-639 -239 668 -669 0
-639 239 -668 -669 0
-639 239 668 669 0
639 -239 -668 -669 0
639 -239 668 669 0
639 239 -668 669 0
639 239 668 -669 0
-639 -239 670 0
-639 -668 670 0
-239 -668 670 0
639 239 -670 0
639 668 -670 0
239 668 -670 0
-640 -240 -670 671 0
-640 -240 670 -671 0
-640 240 -670 -671 0
-640 240 670 671 0
640 -240 -670 -671 0
640 -240 670 671 0
640 240 -670 671 0
640 240 670 -671 0
-640 -240 672 0
-640 -670 672 0
-240 -670 672 0
640 240 -672 0
640 670 -672 0
240 670 -672 0
-673 643 241 0
-673 -643 -241 0
673 -643 241 0
673 643 -241 0
-674 643 0
-674 241 0
674 -643 -241 0
-645 -242 -674 675 0
-645 -242 674 -675 0
-645 242 -674 -675 0
-645 242 674 675 0
645 -242 -674 -675 0
645 -242 674 675 0
645 242 -674 675 0
645 242 674 -675 0
-645 -242 676 0
-645 -674 676 0
-242 -674 676 0
645 242 -676 0
645 674 -676 0
242 674 -676 0
-647 -243 -676 677 0
-647 -243 676 -677 0
-647 243 -676 -677 0
-647 243 676 677 0
647 -243 -676 -677 0
647 -243 676 677 0
647 243 -676 677 0
647 243 676 -677 0
-647 -243 678 0
-647 -676 678 0
-243 -676 678 0
647 243 -678 0
647 676 -678 0
243 676 -678 0
-649 -244 -678 679 0
-649 -244 678 -679 0
-649 244 -678 -679 0
-649 244 678 679 0
649 -244 -678 -679 0
649 -244 678 679 0
649 244 -678 679 0
649 244 678 -679 0
-649 -244 680 0
-649 -678 680 0
-244 -678 680 0
649 244 -680 0
649 678 -680 0
244 678 -680 0
-651 -245 -680 681 0
-651 -245 680 -681 0
-651 245 -680 -681 0
-651 245 680 681 0
651 -245 -680 -681 0
651 -245 680 681 0
651 245 -680 681 0
651 245 680 -681 0
-651 -245 682 0
-651 -680 682 0
-245 -680 682 0
651 245 -682 0
651 680 -682 0
245 680 -682 0
-653 -246 -682 683 0
-653 -246 682 -683 0
-653 246 -682 -683 0
-653 246 682 683 0
653 -246 -682 -683 0
653 -246 682 683 0
653 246 -682 683 0
653 246 682 -683 0
-653 -246 684 0
-653 -682 684 0
-246 -682 684 0
653 246 -684 0
653 682 -684 0
246 682 -684 0
-655 -247 -684 685 0
-655 -247 684 -685 0
-655 247 -684 -685 0
-655 247 684 685 0
655 -247 -684 -685 0
655 -247 684 685 0
655 247 -684 685 0
655 247 684 -685 0
-655 -247 686 0
-655 -684 686 0
-247 -684 686 0
655 247 -686 0
655 684 -686 0
247 684 -686 0
-657 -248 -686 687 0
-657 -248 686 -687 0
-657 248 -686 -687 0
-657 248 686 687 0
657 -248 -686 -687 0
657 -248 686 687 0
657 248 -686 687 0
657 248 686 -687 0
-657 -248 688 0
-657 -686 688 0
-248 -686 688 0
657 248 -688 0
657 686 -688 0
248 686 -688 0
-659 -249 -688 689 0
-659 -249 688 -689 0
-659 249 -688 -689 0
-659 249 688 689 0
659 -249 -688 -689 0
659 -249 688 689 0
659 249 -688 689 0
659 249 688 -689 0
-659 -249 690 0
-659 -688 690 0
-249 -688 690 0
659 249 -690 0
659 688 -690 0
249 688 -690 0
-661 -250 -690 691 0
-661 -250 690 -691 0
-661 250 -690 -691 0
-661 250 690 691 0
661 -250 -690 -691 0
661 -250 690 691 0
661 250 -690 691 0
661 250 690 -691 0
-661 -250 692 0
-661 -690 692 0
-250 -690 692 0
661 250 -692 0
661 690 -692 0
250 690 -692 0
-663 -251 -692 693 0
-663 -251 692 -693 0
-663 251 -692 -693 0
-663 251 692 693 0
663 -251 -692 -693 0
663 -251 692 693 0
663 251 -692 693 0
663 251 692 -693 0
-663 -251 694 0
-663 -692 694 0
-251 -692 694 0
663 251 -694 0
663 692 -694 0
251 692 -694 0
-665 -252 -694 695 0
-665 -252 694 -695 0
-665 252 -694 -695 0
-665 252 694 695 0
665 -252 -694 -695 0
665 -252 694 695 0
665 252 -694 695 0
665 252 694 -695 0
-665 -252 696 0
-665 -694 696 0
-252 -694 696 0
665 252 -696 0
665 694 -696 0
252 694 -696 0
-667 -253 -696 697 0
-667 -253 696 -697 0
-667 253 -696 -697 0
-667 253 696 697 0
667 -253 -696 -697 0
667 -253 696 697 0
667 253 -696 697 0
667 253 696 -697 0
-667 -253 698 0
-667 -696 698 0
-253 -696 698 0
667 253 -698 0
667 696 -698 0
253 696 -698 0
-669 -254 -698 699 0
-669 -254 698 -699 0
-669 254 -698 -699 0
-669 254 698 699 0
669 -254 -698 -699 0
669 -254 698 699 0
669 254 -698 699 0
669 254 698 -699 0
-669 -254 700 0
-669 -698 700 0
-254 -698 700 0
669 254 -700 0
669 698 -700 0
254 698 -700 0
-671 -255 -700 701 0
-671 -255 700 -701 0
-671 255 -700 -701 0
-671 255 700 701 0
671 -255 -700 -701 0
671 -255 700 701 0
671 255 -700 701 0
671 255 700 -701 0
-671 -255 702 0
-671 -700 702 0
-255 -700 702 0
671 255 -702 0
671 700 -702 0
255 700 -702 0
-672 -256 -702 703 0
-672 -256 702 -703 0
-672 256 -702 -703 0
-672 256 702 703 0
672 -256 -702 -703 0
672 -256 702 703 0
672 256 -702 703 0
672 256 702 -703 0
-672 -256 704 0
-672 -702 704 0
-256 -702 704 0
672 256 -704 0
672 702 -704 0
256 702 -704 0
-705 675 257 0
-705 -675 -257 0
705 -675 257 0
705 675 -257 0
-706 675 0
-706 257 0
706 -675 -257 0
-677 -258 -706 707 0
-677 -258 706 -707 0
-677 258 -706 -707 0
-677 258 706 707 0
677 -258 -706 -707 0
677 -258 706 707 0
677 258 -706 707 0
677 258 706 -707 0
-677 -258 708 0
-677 -706 708 0
-258 -706 708 0
677 258 -708 0
677 706 -708 0
258 706 -708 0
-679 -259 -708 709 0
-679 -259 708 -709 0
-679 259 -708 -709 0
-679 259 708 709 0
679 -259 -708 -709 0
679 -259 708 709 0
679 259 -708 709 0
679 259 708 -709 0
-679 -259 710 0
-679 -708 710 0
-259 -708 710 0
679 259 -710 0
679 708 -710 0
259 708 -710 0
-681 -260 -710 711 0
-681 -260 710 -711 0
-681 260 -710 -711 0
-681 260 710 711 0
681 -260 -710 -711 0
681 -260 710 711 0
681 260 -710 711 0
681 260 710 -711 0
-681 -260 712 0
-681 -710 712 0
-260 -710 712 0
681 260 -712 0
681 710 -712 0
260 710 -712 0
-683 -261 -712 713 0
-683 -261 712 -713 0
-683 261 -712 -713 0
-683 261 712 713 0
683 -261 -712 -713 0
683 -261 712 713 0
683 261 -712 713 0
683 261 712 -713 0
-683 -261 714 0
-683 -712 714 0
-261 -712 714 0
683 261 -714 0
683 712 -714 0
261 712 -714 0
-685 -262 -714 715 0
-685 -262 714 -715 0
-685 262 -714 -715 0
-685 262 714 715 0
685 -262 -714 -715 0
685 -262 714 715 0
685 262 -714 715 0
685 262 714 -715 0
-685 -262 716 0
-685 -714 716 0
-262 -714 716 0
685 262 -716 0
685 714 -716 0
262 714 -716 0
-687 -263 -716 717 0
-687 -263 716 -717 0
-687 263 -716 -717 0
-687 263 716 717 0
687 -263 -716 -717 0
687 -263 716 717 0
687 263 -716 717 0
687 263 716 -717 0
-687 -263 718 0
-687 -716 718 0
-263 -716 718 0
687 263 -718 0
687 716 -718 0
263 716 -718 0
-689 -264 -718 719 0
-689 -264 718 -719 0
-689 264 -718 -719 0
-689 264 718 719 0
689 -264 -718 -719 0
689 -264 718 719 0
689 264 -718 719 0
689 264 718 -719 0
-689 -264 720 0
-689 -718 720 0
-264 -718 720 0
689 264 -720 0
689 718 -720 0
264 718 -720 0
-691 -265 -720 721 0
-691 -265 720 -721 0
-691 265 -720 -721 0
-691 265 720 721 0
691 -265 -720 -721 0
691 -265 720 721 0
691 265 -720 721 0
691 265 720 -721 0
-691 -265 722 0
-691 -720 722 0
-265 -720 722 0
691 265 -722 0
691 720 -722 0
265 720 -722 0
-693 -266 -722 723 0
-693 -266 722 -723 0
-693 266 -722 -723 0
-693 266 722 723 0
693 -266 -722 -723 0
693 -266 722 723 0
693 266 -722 723 0
693 266 722 -723 0
-693 -266 724 0
-693 -722 724 0
-266 -722 724 0
693 266 -724 0
693 722 -724 0
266 722 -724 0
-695 -267 -724 725 0
-695 -267 724 -725 0
-695 267 -724 -725 0
-695 267 724 725 0
695 -267 -724 -725 0
695 -267 724 725 0
695 267 -724 725 0
695 267 724 -725 0
-695 -267 726 0
-695 -724 726 0
-267 -724 726 0
695 267 -726 0
695 724 -726 0
267 724 -726 0
-697 -268 -726 727 0
-697 -268 726 -727 0
-697 268 -726 -727 0
-697 268 726 727 0
697 -268 -726 -727 0
697 -268 726 727 0
697 268 -726 727 0
697 268 726 -727 0
-697 -268 728 0
-697 -726 728 0
-268 -726 728 0
697 268 -728 0
697 726 -728 0
268 726 -728 0
-699 -269 -728 729 0
-699 -269 728 -729 0
-699 269 -728 -729 0
-699 269 728 729 0
699 -269 -728 -729 0
699 -269 728 729 0
699 269 -728 729 0
699 269 728 -729 0
-699 -269 730 0
-699 -728 730 0
-269 -728 730 0
699 269 -730 0
699 728 -730 0
269 728 -730 0
-701 -270 -730 731 0
-701 -270 730 -731 0
-701 270 -730 -731 0
-701 270 730 731 0
701 -270 -730 -731 0
701 -270 730 731 0
701 270 -730 731 0
701 270 730 -731 0
-701 -270 732 0
-701 -730 732 0
-270 -730 732 0
701 270 -732 0
701 730 -732 0
270 730 -732 0
-703 -271 -732 733 0
-703 -271 732 -733 0
-703 271 -732 -733 0
-703 271 732 733 0
703 -271 -732 -733 0
703 -271 732 733 0
703 271 -732 733 0
703 271 732 -733 0
-703 -271 734 0
-703 -732 734 0
-271 -732 734 0
703 271 -734 0
703 732 -734 0
271 732 -734 0
-704 -272 -734 735 0
-704 -272 734 -735 0
-704 272 -734 -735 0
-704 272 734 735 0
704 -272 -734 -735 0
704 -272 734 735 0
704 272 -734 735 0
704 272 734 -735 0
-704 -272 736 0
-704 -734 736 0
-272 -734 736 0
704 272 -736 0
704 734 -736 0
272 734 -736 0
-737 707 273 0
-737 -707 -273 0
737 -707 273 0
737 707 -273 0
-738 707 0
-738 273 0
738 -707 -273 0
-709 -274 -738 739 0
-709 -274 738 -739 0
-709 274 -738 -739 0
-709 274 738 739 0
709 -274 -738 -739 0
709 -274 738 739 0
709 274 -738 739 0
709 274 738 -739 0
-709 -274 740 0
-709 -738 740 0
-274 -738 740 0
709 274 -740 0
709 738 -740 0
274 738 -740 0
-711 -275 -740 741 0
-711 -275 740 -741 0
-711 275 -740 -741 0
-711 275 740 741 0
711 -275 -740 -741 0
711 -275 740 741 0
711 275 -740 741 0
711 275 740 -741 0
-711 -275 742 0
-711 -740 742 0
-275 -740 742 0
711 275 -742 0
711 740 -742 0
275 740 -742 0
-713 -276 -742 743 0
-713 -276 742 -743 0
-713 276 -742 -743 0
-713 276 742 743 0
713 -276 -742 -743 0
713 -276 742 743 0
713 276 -742 743 0
713 276 742 -743 0
-713 -276 744 0
-713 -742 744 0
-276 -742 744 0
713 276 -744 0
713 742 -744 0
276 742 -744 0
-715 -277 -744 745 0
-715 -277 744 -745 0
-715 277 -744 -745 0
-715 277 744 745 0
715 -277 -744 -745 0
715 -277 744 745 0
715 277 -744 745 0
715 277 744 -745 0
-715 -277 746 0
-715 -744 746 0
-277 -744 746 0
715 277 -746 0
715 744 -746 0
277 744 -746 0
-717 -278 -746 747 0
-717 -278 746 -747 0
-717 278 -746 -747 0
-717 278 746 747 0
717 -278 -746 -747 0
717 -278 746 747 0
717 278 -746 747 0
717 278 746 -747 0
-717 -278 748 0
-717 -746 748 0
-278 -746 748 0
717 278 -748 0
717 746 -748 0
278 746 -748 0
-719 -279 -748 749 0
-719 -279 748 -749 0
-719 279 -748 -749 0
-719 279 748 749 0
719 -279 -748 -749 0
719 -279 748 749 0
719 279 -748 749 0
719 279 748 -749 0
-719 -279 750 0
-719 -748 750 0
-279 -748 750 0
719 279 -750 0
719 748 -750 0
279 748 -750 0
-721 -280 -750 751 0
-721 -280 750 -751 0
-721 280 -750 -751 0
-721 280 750 751 0
721 -280 -750 -751 0
721 -280 750 751 0
721 280 -750 751 0
721 280 750 -751 0
-721 -280 752 0
-721 -750 752 0
-280 -750 752 0
721 280 -752 0
721 750 -752 0
280 750 -752 0
-723 -281 -752 753 0
-723 -281 752 -753 0
-723 281 -752 -753 0
-723 281 752 753 0
723 -281 -752 -753 0
723 -281 752 753 0
723 281 -752 753 0
723 281 752 -753 0
-723 -281 754 0
-723 -752 754 0
-281 -752 754 0
723 281 -754 0
723 752 -754 0
281 752 -754 0
-725 -282 -754 755 0
-725 -282 754 -755 0
-725 282 -754 -755 0
-725 282 754 755 0
725 -282 -754 -755 0
725 -282 754 755 0
725 282 -754 755 0
725 282 754 -755 0
-725 -282 756 0
-725 -754 756 0
-282 -754 756 0
725 282 -756 0
725 754 -756 0
282 754 -756 0
-727 -283 -756 757 0
-727 -283 756 -757 0
-727 283 -756 -757 0
-727 283 756 757 0
727 -283 -756 -757 0
727 -283 756 757 0
727 283 -756 757 0
727 283 756 -757 0
-727 -283 758 0
-727 -756 758 0
-283 -756 758 0
727 283 -758 0
727 756 -758 0
283 756 -758 0
-729 -284 -758 759 0
-729 -284 758 -759 0
-729 284 -758 -759 0
-729 284 758 759 0
729 -284 -758 -759 0
729 -284 758 759 0
729 284 -758 759 0
729 284 758 -759 0
-729 -284 760 0
-729 -758 760 0
-284 -758 760 0
729 284 -760 0
729 758 -760 0
284 758 -760 0
-731 -285 -760 761 0
-731 -285 760 -761 0
-731 285 -760 -761 0
-731 285 760 761 0
731 -285 -760 -761 0
731 -285 760 761 0
731 285 -760 761 0
731 285 760 -761 0
-731 -285 762 0
-731 -760 762 0
-285 -760 762 0
731 285 -762 0
731 760 -762 0
285 760 -762 0
-733 -286 -762 763 0
-733 -286 762 -763 0
-733 286 -762 -763 0
-733 286 762 763 0
733 -286 -762 -763 0
733 -286 762 763 0
733 286 -762 763 0
733 286 762 -763 0
-733 -286 764 0
-733 -762 764 0
-286 -762 764 0
733 286 -764 0
733 762 -764 0
286 762 -764 0
-735 -287 -764 765 0
-735 -287 764 -765 0
-735 287 -764 -765 0
-735 287 764 765 0
735 -287 -764 -765 0
735 -287 764 765 0
735 287 -764 765 0
735 287 764 -765 0
-735 -287 766 0
-735 -764 766 0
-287 -764 766 0
735 287 -766 0
735 764 -766 0
287 764 -766 0
-736 -288 -766 767 0
-736 -288 766 -767 0
-736 288 -766 -767 0
-736 288 766 767 0
736 -288 -766 -767 0
736 -288 766 767 0
736 288 -766 767 0
736 288 766 -767 0
-736 -288 768 0
-736 -766 768 0
-288 -766 768 0
736 288 -768 0
736 766 -768 0
288 766 -768 0
33 0
-289 0
-321 0
-353 0
-385 0
-417 0
449 0
-481 0
513 0
545 0
-577 0
609 0
-641 0
673 0
-705 0
-737 0
739 0
741 0
743 0
745 0
747 0
749 0
751 0
753 0
-755 0
-757 0
759 0
761 0
-763 0
765 0
767 0
768 0
