c F6 factoring b=14 N=234704461 prime (UNSAT by construction)
p cnf 588 3068
14 0
28 0
-29 1 0
-29 15 0
29 -1 -15 0
-30 2 0
-30 15 0
30 -2 -15 0
-31 3 0
-31 15 0
31 -3 -15 0
-32 4 0
-32 15 0
32 -4 -15 0
-33 5 0
-33 15 0
33 -5 -15 0
-34 6 0
-34 15 0
34 -6 -15 0
-35 7 0
-35 15 0
35 -7 -15 0
-36 8 0
-36 15 0
36 -8 -15 0
-37 9 0
-37 15 0
37 -9 -15 0
-38 10 0
-38 15 0
38 -10 -15 0
-39 11 0
-39 15 0
39 -11 -15 0
-40 12 0
-40 15 0
40 -12 -15 0
-41 13 0
-41 15 0
41 -13 -15 0
-42 14 0
-42 15 0
42 -14 -15 0
-43 1 0
-43 16 0
43 -1 -16 0
-44 2 0
-44 16 0
44 -2 -16 0
-45 3 0
-45 16 0
45 -3 -16 0
-46 4 0
-46 16 0
46 -4 -16 0
-47 5 0
-47 16 0
47 -5 -16 0
-48 6 0
-48 16 0
48 -6 -16 0
-49 7 0
-49 16 0
49 -7 -16 0
-50 8 0
-50 16 0
50 -8 -16 0
-51 9 0
-51 16 0
51 -9 -16 0
-52 10 0
-52 16 0
52 -10 -16 0
-53 11 0
-53 16 0
53 -11 -16 0
-54 12 0
-54 16 0
54 -12 -16 0
-55 13 0
-55 16 0
55 -13 -16 0
-56 14 0
-56 16 0
56 -14 -16 0
-57 1 0
-57 17 0
57 -1 -17 0
-58 2 0
-58 17 0
58 -2 -17 0
-59 3 0
-59 17 0
59 -3 -17 0
-60 4 0
-60 17 0
60 -4 -17 0
-61 5 0
-61 17 0
61 -5 -17 0
-62 6 0
-62 17 0
62 -6 -17 0
-63 7 0
-63 17 0
63 -7 -17 0
-64 8 0
-64 17 0
64 -8 -17 0
-65 9 0
-65 17 0
65 -9 -17 0
-66 10 0
-66 17 0
66 -10 -17 0
-67 11 0
-67 17 0
67 -11 -17 0
-68 12 0
-68 17 0
68 -12 -17 0
-69 13 0
-69 17 0
69 -13 -17 0
-70 14 0
-70 17 0
70 -14 -17 0
-71 1 0
-71 18 0
71 -1 -18 0
-72 2 0
-72 18 0
72 -2 -18 0
-73 3 0
-73 18 0
73 -3 -18 0
-74 4 0
-74 18 0
74 -4 -18 0
-75 5 0
-75 18 0
75 -5 -18 0
-76 6 0
-76 18 0
76 -6 -18 0
-77 7 0
-77 18 0
77 -7 -18 0
-78 8 0
-78 18 0
78 -8 -18 0
-79 9 0
-79 18 0
79 -9 -18 0
-80 10 0
-80 18 0
80 -10 -18 0
-81 11 0
-81 18 0
81 -11 -18 0
-82 12 0
-82 18 0
82 -12 -18 0
-83 13 0
-83 18 0
83 -13 -18 0
-84 14 0
-84 18 0
84 -14 -18 0
-85 1 0
-85 19 0
85 -1 -19 0
-86 2 0
-86 19 0
86 -2 -19 0
-87 3 0
-87 19 0
87 -3 -19 0
-88 4 0
-88 19 0
88 -4 -19 0
-89 5 0
-89 19 0
89 -5 -19 0
-90 6 0
-90 19 0
90 -6 -19 0
-91 7 0
-91 19 0
91 -7 -19 0
-92 8 0
-92 19 0
92 -8 -19 0
-93 9 0
-93 19 0
93 -9 -19 0
-94 10 0
-94 19 0
94 -10 -19 0
-95 11 0
-95 19 0
95 -11 -19 0
-96 12 0
-96 19 0
96 -12 -19 0
-97 13 0
-97 19 0
97 -13 -19 0
-98 14 0
-98 19 0
98 -14 -19 0
-99 1 0
-99 20 0
99 -1 -20 0
-100 2 0
-100 20 0
100 -2 -20 0
-101 3 0
-101 20 0
101 -3 -20 0
-102 4 0
-102 20 0
102 -4 -20 0
-103 5 0
-103 20 0
103 -5 -20 0
-104 6 0
-104 20 0
104 -6 -20 0
-105 7 0
-105 20 0
105 -7 -20 0
-106 8 0
-106 20 0
106 -8 -20 0
-107 9 0
-107 20 0
107 -9 -20 0
-108 10 0
-108 20 0
108 -10 -20 0
-109 11 0
-109 20 0
109 -11 -20 0
-110 12 0
-110 20 0
110 -12 -20 0
-111 13 0
-111 20 0
111 -13 -20 0
-112 14 0
-112 20 0
112 -14 -20 0
-113 1 0
-113 21 0
113 -1 -21 0
-114 2 0
-114 21 0
114 -2 -21 0
-115 3 0
-115 21 0
115 -3 -21 0
-116 4 0
-116 21 0
116 -4 -21 0
-117 5 0
-117 21 0
117 -5 -21 0
-118 6 0
-118 21 0
118 -6 -21 0
-119 7 0
-119 21 0
119 -7 -21 0
-120 8 0
-120 21 0
120 -8 -21 0
-121 9 0
-121 21 0
121 -9 -21 0
-122 10 0
-122 21 0
122 -10 -21 0
-123 11 0
-123 21 0
123 -11 -21 0
-124 12 0
-124 21 0
124 -12 -21 0
-125 13 0
-125 21 0
125 -13 -21 0
-126 14 0
-126 21 0
126 -14 -21 0
-127 1 0
-127 22 0
127 -1 -22 0
-128 2 0
-128 22 0
128 -2 -22 0
-129 3 0
-129 22 0
129 -3 -22 0
-130 4 0
-130 22 0
130 -4 -22 0
-131 5 0
-131 22 0
131 -5 -22 0
-132 6 0
-132 22 0
132 -6 -22 0
-133 7 0
-133 22 0
133 -7 -22 0
-134 8 0
-134 22 0
134 -8 -22 0
-135 9 0
-135 22 0
135 -9 -22 0
-136 10 0
-136 22 0
136 -10 -22 0
-137 11 0
-137 22 0
137 -11 -22 0
-138 12 0
-138 22 0
138 -12 -22 0
-139 13 0
-139 22 0
139 -13 -22 0
-140 14 0
-140 22 0
140 -14 -22 0
-141 1 0
-141 23 0
141 -1 -23 0
-142 2 0
-142 23 0
142 -2 -23 0
-143 3 0
-143 23 0
143 -3 -23 0
-144 4 0
-144 23 0
144 -4 -23 0
-145 5 0
-145 23 0
145 -5 -23 0
-146 6 0
-146 23 0
146 -6 -23 0
-147 7 0
-147 23 0
147 -7 -23 0
-148 8 0
-148 23 0
148 -8 -23 0
-149 9 0
-149 23 0
149 -9 -23 0
-150 10 0
-150 23 0
150 -10 -23 0
-151 11 0
-151 23 0
151 -11 -23 0
-152 12 0
-152 23 0
152 -12 -23 0
-153 13 0
-153 23 0
153 -13 -23 0
-154 14 0
-154 23 0
154 -14 -23 0
-155 1 0
-155 24 0
155 -1 -24 0
-156 2 0
-156 24 0
156 -2 -24 0
-157 3 0
-157 24 0
157 -3 -24 0
-158 4 0
-158 24 0
158 -4 -24 0
-159 5 0
-159 24 0
159 -5 -24 0
-160 6 0
-160 24 0
160 -6 -24 0
-161 7 0
-161 24 0
161 -7 -24 0
-162 8 0
-162 24 0
162 -8 -24 0
-163 9 0
-163 24 0
163 -9 -24 0
-164 10 0
-164 24 0
164 -10 -24 0
-165 11 0
-165 24 0
165 -11 -24 0
-166 12 0
-166 24 0
166 -12 -24 0
-167 13 0
-167 24 0
167 -13 -24 0
-168 14 0
-168 24 0
168 -14 -24 0
-169 1 0
-169 25 0
169 -1 -25 0
-170 2 0
-170 25 0
170 -2 -25 0
-171 3 0
-171 25 0
171 -3 -25 0
-172 4 0
-172 25 0
172 -4 -25 0
-173 5 0
-173 25 0
173 -5 -25 0
-174 6 0
-174 25 0
174 -6 -25 0
-175 7 0
-175 25 0
175 -7 -25 0
-176 8 0
-176 25 0
176 -8 -25 0
-177 9 0
-177 25 0
177 -9 -25 0
-178 10 0
-178 25 0
178 -10 -25 0
-179 11 0
-179 25 0
179 -11 -25 0
-180 12 0
-180 25 0
180 -12 -25 0
-181 13 0
-181 25 0
181 -13 -25 0
-182 14 0
-182 25 0
182 -14 -25 0
-183 1 0
-183 26 0
183 -1 -26 0
-184 2 0
-184 26 0
184 -2 -26 0
-185 3 0
-185 26 0
185 -3 -26 0
-186 4 0
-186 26 0
186 -4 -26 0
-187 5 0
-187 26 0
187 -5 -26 0
-188 6 0
-188 26 0
188 -6 -26 0
-189 7 0
-189 26 0
189 -7 -26 0
-190 8 0
-190 26 0
190 -8 -26 0
-191 9 0
-191 26 0
191 -9 -26 0
-192 10 0
-192 26 0
192 -10 -26 0
-193 11 0
-193 26 0
193 -11 -26 0
-194 12 0
-194 26 0
194 -12 -26 0
-195 13 0
-195 26 0
195 -13 -26 0
-196 14 0
-196 26 0
196 -14 -26 0
-197 1 0
-197 27 0
197 -1 -27 0
-198 2 0
-198 27 0
198 -2 -27 0
-199 3 0
-199 27 0
199 -3 -27 0
-200 4 0
-200 27 0
200 -4 -27 0
-201 5 0
-201 27 0
201 -5 -27 0
-202 6 0
-202 27 0
202 -6 -27 0
-203 7 0
-203 27 0
203 -7 -27 0
-204 8 0
-204 27 0
204 -8 -27 0
-205 9 0
-205 27 0
205 -9 -27 0
-206 10 0
-206 27 0
206 -10 -27 0
-207 11 0
-207 27 0
207 -11 -27 0
-208 12 0
-208 27 0
208 -12 -27 0
-209 13 0
-209 27 0
209 -13 -27 0
-210 14 0
-210 27 0
210 -14 -27 0
-211 1 0
-211 28 0
211 -1 -28 0
-212 2 0
-212 28 0
212 -2 -28 0
-213 3 0
-213 28 0
213 -3 -28 0
-214 4 0
-214 28 0
214 -4 -28 0
-215 5 0
-215 28 0
215 -5 -28 0
-216 6 0
-216 28 0
216 -6 -28 0
-217 7 0
-217 28 0
217 -7 -28 0
-218 8 0
-218 28 0
218 -8 -28 0
-219 9 0
-219 28 0
219 -9 -28 0
-220 10 0
-220 28 0
220 -10 -28 0
-221 11 0
-221 28 0
221 -11 -28 0
-222 12 0
-222 28 0
222 -12 -28 0
-223 13 0
-223 28 0
223 -13 -28 0
-224 14 0
-224 28 0
224 -14 -28 0
-225 30 43 0
-225 -30 -43 0
225 -30 43 0
225 30 -43 0
-226 30 0
-226 43 0
226 -30 -43 0
-31 -44 -226 227 0
-31 -44 226 -227 0
-31 44 -226 -227 0
-31 44 226 227 0
31 -44 -226 -227 0
31 -44 226 227 0
31 44 -226 227 0
31 44 226 -227 0
-31 -44 228 0
-31 -226 228 0
-44 -226 228 0
31 44 -228 0
31 226 -228 0
44 226 -228 0
-32 -45 -228 229 0
-32 -45 228 -229 0
-32 45 -228 -229 0
-32 45 228 229 0
32 -45 -228 -229 0
32 -45 228 229 0
32 45 -228 229 0
32 45 228 -229 0
-32 -45 230 0
-32 -228 230 0
-45 -228 230 0
32 45 -230 0
32 228 -230 0
45 228 -230 0
-33 -46 -230 231 0
-33 -46 230 -231 0
-33 46 -230 -231 0
-33 46 230 231 0
33 -46 -230 -231 0
33 -46 230 231 0
33 46 -230 231 0
33 46 230 -231 0
-33 -46 232 0
-33 -230 232 0
-46 -230 232 0
33 46 -232 0
33 230 -232 0
46 230 -232 0
-34 -47 -232 233 0
-34 -47 232 -233 0
-34 47 -232 -233 0
-34 47 232 233 0
34 -47 -232 -233 0
34 -47 232 233 0
34 47 -232 233 0
34 47 232 -233 0
-34 -47 234 0
-34 -232 234 0
-47 -232 234 0
34 47 -234 0
34 232 -234 0
47 232 -234 0
-35 -48 -234 235 0
-35 -48 234 -235 0
-35 48 -234 -235 0
-35 48 234 235 0
35 -48 -234 -235 0
35 -48 234 235 0
35 48 -234 235 0
35 48 234 -235 0
-35 -48 236 0
-35 -234 236 0
-48 -234 236 0
35 48 -236 0
35 234 -236 0
48 234 -236 0
-36 -49 -236 237 0
-36 -49 236 -237 0
-36 49 -236 -237 0
-36 49 236 237 0
36 -49 -236 -237 0
36 -49 236 237 0
36 49 -236 237 0
36 49 236 -237 0
-36 -49 238 0
-36 -236 238 0
-49 -236 238 0
36 49 -238 0
36 236 -238 0
49 236 -238 0
-37 -50 -238 239 0
-37 -50 238 -239 0
-37 50 -238 -239 0
-37 50 238 239 0
37 -50 -238 -239 0
37 -50 238 239 0
37 50 -238 239 0
37 50 238 -239 0
-37 -50 240 0
-37 -238 240 0
-50 -238 240 0
37 50 -240 0
37 238 -240 0
50 238 -240 0
-38 -51 -240 241 0
-38 -51 240 -241 0
-38 51 -240 -241 0
-38 51 240 241 0
38 -51 -240 -241 0
38 -51 240 241 0
38 51 -240 241 0
38 51 240 -241 0
-38 -51 242 0
-38 -240 242 0
-51 -240 242 0
38 51 -242 0
38 240 -242 0
51 240 -242 0
-39 -52 -242 243 0
-39 -52 242 -243 0
-39 52 -242 -243 0
-39 52 242 243 0
39 -52 -242 -243 0
39 -52 242 243 0
39 52 -242 243 0
39 52 242 -243 0
-39 -52 244 0
-39 -242 244 0
-52 -242 244 0
39 52 -244 0
39 242 -244 0
52 242 -244 0
-40 -53 -244 245 0
-40 -53 244 -245 0
-40 53 -244 -245 0
-40 53 244 245 0
40 -53 -244 -245 0
40 -53 244 245 0
40 53 -244 245 0
40 53 244 -245 0
-40 -53 246 0
-40 -244 246 0
-53 -244 246 0
40 53 -246 0
40 244 -246 0
53 244 -246 0
-41 -54 -246 247 0
-41 -54 246 -247 0
-41 54 -246 -247 0
-41 54 246 247 0
41 -54 -246 -247 0
41 -54 246 247 0
41 54 -246 247 0
41 54 246 -247 0
-41 -54 248 0
-41 -246 248 0
-54 -246 248 0
41 54 -248 0
41 246 -248 0
54 246 -248 0
-42 -55 -248 249 0
-42 -55 248 -249 0
-42 55 -248 -249 0
-42 55 248 249 0
42 -55 -248 -249 0
42 -55 248 249 0
42 55 -248 249 0
42 55 248 -249 0
-42 -55 250 0
-42 -248 250 0
-55 -248 250 0
42 55 -250 0
42 248 -250 0
55 248 -250 0
-251 56 250 0
-251 -56 -250 0
251 -56 250 0
251 56 -250 0
-252 56 0
-252 250 0
252 -56 -250 0
-253 227 57 0
-253 -227 -57 0
253 -227 57 0
253 227 -57 0
-254 227 0
-254 57 0
254 -227 -57 0
-229 -58 -254 255 0
-229 -58 254 -255 0
-229 58 -254 -255 0
-229 58 254 255 0
229 -58 -254 -255 0
229 -58 254 255 0
229 58 -254 255 0
229 58 254 -255 0
-229 -58 256 0
-229 -254 256 0
-58 -254 256 0
229 58 -256 0
229 254 -256 0
58 254 -256 0
-231 -59 -256 257 0
-231 -59 256 -257 0
-231 59 -256 -257 0
-231 59 256 257 0
231 -59 -256 -257 0
231 -59 256 257 0
231 59 -256 257 0
231 59 256 -257 0
-231 -59 258 0
-231 -256 258 0
-59 -256 258 0
231 59 -258 0
231 256 -258 0
59 256 -258 0
-233 -60 -258 259 0
-233 -60 258 -259 0
-233 60 -258 -259 0
-233 60 258 259 0
233 -60 -258 -259 0
233 -60 258 259 0
233 60 -258 259 0
233 60 258 -259 0
-233 -60 260 0
-233 -258 260 0
-60 -258 260 0
233 60 -260 0
233 258 -260 0
60 258 -260 0
-235 -61 -260 261 0
-235 -61 260 -261 0
-235 61 -260 -261 0
-235 61 260 261 0
235 -61 -260 -261 0
235 -61 260 261 0
235 61 -260 261 0
235 61 260 -261 0
-235 -61 262 0
-235 -260 262 0
-61 -260 262 0
235 61 -262 0
235 260 -262 0
61 260 -262 0
-237 -62 -262 263 0
-237 -62 262 -263 0
-237 62 -262 -263 0
-237 62 262 263 0
237 -62 -262 -263 0
237 -62 262 263 0
237 62 -262 263 0
237 62 262 -263 0
-237 -62 264 0
-237 -262 264 0
-62 -262 264 0
237 62 -264 0
237 262 -264 0
62 262 -264 0
-239 -63 -264 265 0
-239 -63 264 -265 0
-239 63 -264 -265 0
-239 63 264 265 0
239 -63 -264 -265 0
239 -63 264 265 0
239 63 -264 265 0
239 63 264 -265 0
-239 -63 266 0
-239 -264 266 0
-63 -264 266 0
239 63 -266 0
239 264 -266 0
63 264 -266 0
-241 -64 -266 267 0
-241 -64 266 -267 0
-241 64 -266 -267 0
-241 64 266 267 0
241 -64 -266 -267 0
241 -64 266 267 0
241 64 -266 267 0
241 64 266 -267 0
-241 -64 268 0
-241 -266 268 0
-64 -266 268 0
241 64 -268 0
241 266 -268 0
64 266 -268 0
-243 -65 -268 269 0
-243 -65 268 -269 0
-243 65 -268 -269 0
-243 65 268 269 0
243 -65 -268 -269 0
243 -65 268 269 0
243 65 -268 269 0
243 65 268 -269 0
-243 -65 270 0
-243 -268 270 0
-65 -268 270 0
243 65 -270 0
243 268 -270 0
65 268 -270 0
-245 -66 -270 271 0
-245 -66 270 -271 0
-245 66 -270 -271 0
-245 66 270 271 0
245 -66 -270 -271 0
245 -66 270 271 0
245 66 -270 271 0
245 66 270 -271 0
-245 -66 272 0
-245 -270 272 0
-66 -270 272 0
245 66 -272 0
245 270 -272 0
66 270 -272 0
-247 -67 -272 273 0
-247 -67 272 -273 0
-247 67 -272 -273 0
-247 67 272 273 0
247 -67 -272 -273 0
247 -67 272 273 0
247 67 -272 273 0
247 67 272 -273 0
-247 -67 274 0
-247 -272 274 0
-67 -272 274 0
247 67 -274 0
247 272 -274 0
67 272 -274 0
-249 -68 -274 275 0
-249 -68 274 -275 0
-249 68 -274 -275 0
-249 68 274 275 0
249 -68 -274 -275 0
249 -68 274 275 0
249 68 -274 275 0
249 68 274 -275 0
-249 -68 276 0
-249 -274 276 0
-68 -274 276 0
249 68 -276 0
249 274 -276 0
68 274 -276 0
-251 -69 -276 277 0
-251 -69 276 -277 0
-251 69 -276 -277 0
-251 69 276 277 0
251 -69 -276 -277 0
251 -69 276 277 0
251 69 -276 277 0
251 69 276 -277 0
-251 -69 278 0
-251 -276 278 0
-69 -276 278 0
251 69 -278 0
251 276 -278 0
69 276 -278 0
-252 -70 -278 279 0
-252 -70 278 -279 0
-252 70 -278 -279 0
-252 70 278 279 0
252 -70 -278 -279 0
252 -70 278 279 0
252 70 -278 279 0
252 70 278 -279 0
-252 -70 280 0
-252 -278 280 0
-70 -278 280 0
252 70 -280 0
252 278 -280 0
70 278 -280 0
-281 255 71 0
-281 -255 -71 0
281 -255 71 0
281 255 -71 0
-282 255 0
-282 71 0
282 -255 -71 0
-257 -72 -282 283 0
-257 -72 282 -283 0
-257 72 -282 -283 0
-257 72 282 283 0
257 -72 -282 -283 0
257 -72 282 283 0
257 72 -282 283 0
257 72 282 -283 0
-257 -72 284 0
-257 -282 284 0
-72 -282 284 0
257 72 -284 0
257 282 -284 0
72 282 -284 0
-259 -73 -284 285 0
-259 -73 284 -285 0
-259 73 -284 -285 0
-259 73 284 285 0
259 -73 -284 -285 0
259 -73 284 285 0
259 73 -284 285 0
259 73 284 -285 0
-259 -73 286 0
-259 -284 286 0
-73 -284 286 0
259 73 -286 0
259 284 -286 0
73 284 -286 0
-261 -74 -286 287 0
-261 -74 286 -287 0
-261 74 -286 -287 0
-261 74 286 287 0
261 -74 -286 -287 0
261 -74 286 287 0
261 74 -286 287 0
261 74 286 -287 0
-261 -74 288 0
-261 -286 288 0
-74 -286 288 0
261 74 -288 0
261 286 -288 0
74 286 -288 0
-263 -75 -288 289 0
-263 -75 288 -289 0
-263 75 -288 -289 0
-263 75 288 289 0
263 -75 -288 -289 0
263 -75 288 289 0
263 75 -288 289 0
263 75 288 -289 0
-263 -75 290 0
-263 -288 290 0
-75 -288 290 0
263 75 -290 0
263 288 -290 0
75 288 -290 0
-265 -76 -290 291 0
-265 -76 290 -291 0
-265 76 -290 -291 0
-265 76 290 291 0
265 -76 -290 -291 0
265 -76 290 291 0
265 76 -290 291 0
265 76 290 -291 0
-265 -76 292 0
-265 -290 292 0
-76 -290 292 0
265 76 -292 0
265 290 -292 0
76 290 -292 0
-267 -77 -292 293 0
-267 -77 292 -293 0
-267 77 -292 -293 0
-267 77 292 293 0
267 -77 -292 -293 0
267 -77 292 293 0
267 77 -292 293 0
267 77 292 -293 0
-267 -77 294 0
-267 -292 294 0
-77 -292 294 0
267 77 -294 0
267 292 -294 0
77 292 -294 0
-269 -78 -294 295 0
-269 -78 294 -295 0
-269 78 -294 -295 0
-269 78 294 295 0
269 -78 -294 -295 0
269 -78 294 295 0
269 78 -294 295 0
269 78 294 -295 0
-269 -78 296 0
-269 -294 296 0
-78 -294 296 0
269 78 -296 0
269 294 -296 0
78 294 -296 0
-271 -79 -296 297 0
-271 -79 296 -297 0
-271 79 -296 -297 0
-271 79 296 297 0
271 -79 -296 -297 0
271 -79 296 297 0
271 79 -296 297 0
271 79 296 -297 0
-271 -79 298 0
-271 -296 298 0
-79 -296 298 0
271 79 -298 0
271 296 -298 0
79 296 -298 0
-273 -80 -298 299 0
-273 -80 298 -299 0
-273 80 -298 -299 0
-273 80 298 299 0
273 -80 -298 -299 0
273 -80 298 299 0
273 80 -298 299 0
273 80 298 -299 0
-273 -80 300 0
-273 -298 300 0
-80 -298 300 0
273 80 -300 0
273 298 -300 0
80 298 -300 0
-275 -81 -300 301 0
-275 -81 300 -301 0
-275 81 -300 -301 0
-275 81 300 301 0
275 -81 -300 -301 0
275 -81 300 301 0
275 81 -300 301 0
275 81 300 -301 0
-275 -81 302 0
-275 -300 302 0
-81 -300 302 0
275 81 -302 0
275 300 -302 0
81 300 -302 0
-277 -82 -302 303 0
-277 -82 302 -303 0
-277 82 -302 -303 0
-277 82 302 303 0
277 -82 -302 -303 0
277 -82 302 303 0
277 82 -302 303 0
277 82 302 -303 0
-277 -82 304 0
-277 -302 304 0
-82 -302 304 0
277 82 -304 0
277 302 -304 0
82 302 -304 0
-279 -83 -304 305 0
-279 -83 304 -305 0
-279 83 -304 -305 0
-279 83 304 305 0
279 -83 -304 -305 0
279 -83 304 305 0
279 83 -304 305 0
279 83 304 -305 0
-279 -83 306 0
-279 -304 306 0
-83 -304 306 0
279 83 -306 0
279 304 -306 0
83 304 -306 0
-280 -84 -306 307 0
-280 -84 306 -307 0
-280 84 -306 -307 0
-280 84 306 307 0
280 -84 -306 -307 0
280 -84 306 307 0
280 84 -306 307 0
280 84 306 -307 0
-280 -84 308 0
-280 -306 308 0
-84 -306 308 0
280 84 -308 0
280 306 -308 0
84 306 -308 0
-309 283 85 0
-309 -283 -85 0
309 -283 85 0
309 283 -85 0
-310 283 0
-310 85 0
310 -283 -85 0
-285 -86 -310 311 0
-285 -86 310 -311 0
-285 86 -310 -311 0
-285 86 310 311 0
285 -86 -310 -311 0
285 -86 310 311 0
285 86 -310 311 0
285 86 310 -311 0
-285 -86 312 0
-285 -310 312 0
-86 -310 312 0
285 86 -312 0
285 310 -312 0
86 310 -312 0
-287 -87 -312 313 0
-287 -87 312 -313 0
-287 87 -312 -313 0
-287 87 312 313 0
287 -87 -312 -313 0
287 -87 312 313 0
287 87 -312 313 0
287 87 312 -313 0
-287 -87 314 0
-287 -312 314 0
-87 -312 314 0
287 87 -314 0
287 312 -314 0
87 312 -314 0
-289 -88 -314 315 0
-289 -88 314 -315 0
-289 88 -314 -315 0
-289 88 314 315 0
289 -88 -314 -315 0
289 -88 314 315 0
289 88 -314 315 0
289 88 314 -315 0
-289 -88 316 0
-289 -314 316 0
-88 -314 316 0
289 88 -316 0
289 314 -316 0
88 314 -316 0
-291 -89 -316 317 0
-291 -89 316 -317 0
-291 89 -316 -317 0
-291 89 316 317 0
291 -89 -316 -317 0
291 -89 316 317 0
291 89 -316 317 0
291 89 316 -317 0
-291 -89 318 0
-291 -316 318 0
-89 -316 318 0
291 89 -318 0
291 316 -318 0
89 316 -318 0
-293 -90 -318 319 0
-293 -90 318 -319 0
-293 90 -318 -319 0
-293 90 318 319 0
293 -90 -318 -319 0
293 -90 318 319 0
293 90 -318 319 0
293 90 318 -319 0
-293 -90 320 0
-293 -318 320 0
-90 -318 320 0
293 90 -320 0
293 318 -320 0
90 318 -320 0
-295 -91 -320 321 0
-295 -91 320 -321 0
-295 91 -320 -321 0
-295 91 320 321 0
295 -91 -320 -321 0
295 -91 320 321 0
295 91 -320 321 0
295 91 320 -321 0
-295 -91 322 0
-295 -320 322 0
-91 -320 322 0
295 91 -322 0
295 320 -322 0
91 320 -322 0
-297 -92 -322 323 0
-297 -92 322 -323 0
-297 92 -322 -323 0
-297 92 322 323 0
297 -92 -322 -323 0
297 -92 322 323 0
297 92 -322 323 0
297 92 322 -323 0
-297 -92 324 0
-297 -322 324 0
-92 -322 324 0
297 92 -324 0
297 322 -324 0
92 322 -324 0
-299 -93 -324 325 0
-299 -93 324 -325 0
-299 93 -324 -325 0
-299 93 324 325 0
299 -93 -324 -325 0
299 -93 324 325 0
299 93 -324 325 0
299 93 324 -325 0
-299 -93 326 0
-299 -324 326 0
-93 -324 326 0
299 93 -326 0
299 324 -326 0
93 324 -326 0
-301 -94 -326 327 0
-301 -94 326 -327 0
-301 94 -326 -327 0
-301 94 326 327 0
301 -94 -326 -327 0
301 -94 326 327 0
301 94 -326 327 0
301 94 326 -327 0
-301 -94 328 0
-301 -326 328 0
-94 -326 328 0
301 94 -328 0
301 326 -328 0
94 326 -328 0
-303 -95 -328 329 0
-303 -95 328 -329 0
-303 95 -328 -329 0
-303 95 328 329 0
303 -95 -328 -329 0
303 -95 328 329 0
303 95 -328 329 0
303 95 328 -329 0
-303 -95 330 0
-303 -328 330 0
-95 -328 330 0
303 95 -330 0
303 328 -330 0
95 328 -330 0
-305 -96 -330 331 0
-305 -96 330 -331 0
-305 96 -330 -331 0
-305 96 330 331 0
305 -96 -330 -331 0
305 -96 330 331 0
305 96 -330 331 0
305 96 330 -331 0
-305 -96 332 0
-305 -330 332 0
-96 -330 332 0
305 96 -332 0
305 330 -332 0
96 330 -332 0
-307 -97 -332 333 0
-307 -97 332 -333 0
-307 97 -332 -333 0
-307 97 332 333 0
307 -97 -332 -333 0
307 -97 332 333 0
307 97 -332 333 0
307 97 332 -333 0
-307 -97 334 0
-307 -332 334 0
-97 -332 334 0
307 97 -334 0
307 332 -334 0
97 332 -334 0
-308 -98 -334 335 0
-308 -98 334 -335 0
-308 98 -334 -335 0
-308 98 334 335 0
308 -98 -334 -335 0
308 -98 334 335 0
308 98 -334 335 0
308 98 334 -335 0
-308 -98 336 0
-308 -334 336 0
-98 -334 336 0
308 98 -336 0
308 334 -336 0
98 334 -336 0
-337 311 99 0
-337 -311 -99 0
337 -311 99 0
337 311 -99 0
-338 311 0
-338 99 0
338 -311 -99 0
-313 -100 -338 339 0
-313 -100 338 -339 0
-313 100 -338 -339 0
-313 100 338 339 0
313 -100 -338 -339 0
313 -100 338 339 0
313 100 -338 339 0
313 100 338 -339 0
-313 -100 340 0
-313 -338 340 0
-100 -338 340 0
313 100 -340 0
313 338 -340 0
100 338 -340 0
-315 -101 -340 341 0
-315 -101 340 -341 0
-315 101 -340 -341 0
-315 101 340 341 0
315 -101 -340 -341 0
315 -101 340 341 0
315 101 -340 341 0
315 101 340 -341 0
-315 -101 342 0
-315 -340 342 0
-101 -340 342 0
315 101 -342 0
315 340 -342 0
101 340 -342 0
-317 -102 -342 343 0
-317 -102 342 -343 0
-317 102 -342 -343 0
-317 102 342 343 0
317 -102 -342 -343 0
317 -102 342 343 0
317 102 -342 343 0
317 102 342 -343 0
-317 -102 344 0
-317 -342 344 0
-102 -342 344 0
317 102 -344 0
317 342 -344 0
102 342 -344 0
-319 -103 -344 345 0
-319 -103 344 -345 0
-319 103 -344 -345 0
-319 103 344 345 0
319 -103 -344 -345 0
319 -103 344 345 0
319 103 -344 345 0
319 103 344 -345 0
-319 -103 346 0
-319 -344 346 0
-103 -344 346 0
319 103 -346 0
319 344 -346 0
103 344 -346 0
-321 -104 -346 347 0
-321 -104 346 -347 0
-321 104 -346 -347 0
-321 104 346 347 0
321 -104 -346 -347 0
321 -104 346 347 0
321 104 -346 347 0
321 104 346 -347 0
-321 -104 348 0
-321 -346 348 0
-104 -346 348 0
321 104 -348 0
321 346 -348 0
104 346 -348 0
-323 -105 -348 349 0
-323 -105 348 -349 0
-323 105 -348 -349 0
-323 105 348 349 0
323 -105 -348 -349 0
323 -105 348 349 0
323 105 -348 349 0
323 105 348 -349 0
-323 -105 350 0
-323 -348 350 0
-105 -348 350 0
323 105 -350 0
323 348 -350 0
105 348 -350 0
-325 -106 -350 351 0
-325 -106 350 -351 0
-325 106 -350 -351 0
-325 106 350 351 0
325 -106 -350 -351 0
325 -106 350 351 0
325 106 -350 351 0
325 106 350 -351 0
-325 -106 352 0
-325 -350 352 0
-106 -350 352 0
325 106 -352 0
325 350 -352 0
106 350 -352 0
-327 -107 -352 353 0
-327 -107 352 -353 0
-327 107 -352 -353 0
-327 107 352 353 0
327 -107 -352 -353 0
327 -107 352 353 0
327 107 -352 353 0
327 107 352 -353 0
-327 -107 354 0
-327 -352 354 0
-107 -352 354 0
327 107 -354 0
327 352 -354 0
107 352 -354 0
-329 -108 -354 355 0
-329 -108 354 -355 0
-329 108 -354 -355 0
-329 108 354 355 0
329 -108 -354 -355 0
329 -108 354 355 0
329 108 -354 355 0
329 108 354 -355 0
-329 -108 356 0
-329 -354 356 0
-108 -354 356 0
329 108 -356 0
329 354 -356 0
108 354 -356 0
-331 -109 -356 357 0
-331 -109 356 -357 0
-331 109 -356 -357 0
-331 109 356 357 0
331 -109 -356 -357 0
331 -109 356 357 0
331 109 -356 357 0
331 109 356 -357 0
-331 -109 358 0
-331 -356 358 0
-109 -356 358 0
331 109 -358 0
331 356 -358 0
109 356 -358 0
-333 -110 -358 359 0
-333 -110 358 -359 0
-333 110 -358 -359 0
-333 110 358 359 0
333 -110 -358 -359 0
333 -110 358 359 0
333 110 -358 359 0
333 110 358 -359 0
-333 -110 360 0
-333 -358 360 0
-110 -358 360 0
333 110 -360 0
333 358 -360 0
110 358 -360 0
-335 -111 -360 361 0
-335 -111 360 -361 0
-335 111 -360 -361 0
-335 111 360 361 0
335 -111 -360 -361 0
335 -111 360 361 0
335 111 -360 361 0
335 111 360 -361 0
-335 -111 362 0
-335 -360 362 0
-111 -360 362 0
335 111 -362 0
335 360 -362 0
111 360 -362 0
-336 -112 -362 363 0
-336 -112 362 -363 0
-336 112 -362 -363 0
-336 112 362 363 0
336 -112 -362 -363 0
336 -112 362 363 0
336 112 -362 363 0
336 112 362 -363 0
-336 -112 364 0
-336 -362 364 0
-112 -362 364 0
336 112 -364 0
336 362 -364 0
112 362 -364 0
-365 339 113 0
-365 -339 -113 0
365 -339 113 0
365 339 -113 0
-366 339 0
-366 113 0
366 -339 -113 0
-341 -114 -366 367 0
-341 -114 366 -367 0
-341 114 -366 -367 0
-341 114 366 367 0
341 -114 -366 -367 0
341 -114 366 367 0
341 114 -366 367 0
341 114 366 -367 0
-341 -114 368 0
-341 -366 368 0
-114 -366 368 0
341 114 -368 0
341 366 -368 0
114 366 -368 0
-343 -115 -368 369 0
-343 -115 368 -369 0
-343 115 -368 -369 0
-343 115 368 369 0
343 -115 -368 -369 0
343 -115 368 369 0
343 115 -368 369 0
343 115 368 -369 0
-343 -115 370 0
-343 -368 370 0
-115 -368 370 0
343 115 -370 0
343 368 -370 0
115 368 -370 0
-345 -116 -370 371 0
-345 -116 370 -371 0
-345 116 -370 -371 0
-345 116 370 371 0
345 -116 -370 -371 0
345 -116 370 371 0
345 116 -370 371 0
345 116 370 -371 0
-345 -116 372 0
-345 -370 372 0
-116 -370 372 0
345 116 -372 0
345 370 -372 0
116 370 -372 0
-347 -117 -372 373 0
-347 -117 372 -373 0
-347 117 -372 -373 0
-347 117 372 373 0
347 -117 -372 -373 0
347 -117 372 373 0
347 117 -372 373 0
347 117 372 -373 0
-347 -117 374 0
-347 -372 374 0
-117 -372 374 0
347 117 -374 0
347 372 -374 0
117 372 -374 0
-349 -118 -374 375 0
-349 -118 374 -375 0
-349 118 -374 -375 0
-349 118 374 375 0
349 -118 -374 -375 0
349 -118 374 375 0
349 118 -374 375 0
349 118 374 -375 0
-349 -118 376 0
-349 -374 376 0
-118 -374 376 0
349 118 -376 0
349 374 -376 0
118 374 -376 0
-351 -119 -376 377 0
-351 -119 376 -377 0
-351 119 -376 -377 0
-351 119 376 377 0
351 -119 -376 -377 0
351 -119 376 377 0
351 119 -376 377 0
351 119 376 -377 0
-351 -119 378 0
-351 -376 378 0
-119 -376 378 0
351 119 -378 0
351 376 -378 0
119 376 -378 0
-353 -120 -378 379 0
-353 -120 378 -379 0
-353 120 -378 -379 0
-353 120 378 379 0
353 -120 -378 -379 0
353 -120 378 379 0
353 120 -378 379 0
353 120 378 -379 0
-353 -120 380 0
-353 -378 380 0
-120 -378 380 0
353 120 -380 0
353 378 -380 0
120 378 -380 0
-355 -121 -380 381 0
-355 -121 380 -381 0
-355 121 -380 -381 0
-355 121 380 381 0
355 -121 -380 -381 0
355 -121 380 381 0
355 121 -380 381 0
355 121 380 -381 0
-355 -121 382 0
-355 -380 382 0
-121 -380 382 0
355 121 -382 0
355 380 -382 0
121 380 -382 0
-357 -122 -382 383 0
-357 -122 382 -383 0
-357 122 -382 -383 0
-357 122 382 383 0
357 -122 -382 -383 0
357 -122 382 383 0
357 122 -382 383 0
357 122 382 -383 0
-357 -122 384 0
-357 -382 384 0
-122 -382 384 0
357 122 -384 0
357 382 -384 0
122 382 -384 0
-359 -123 -384 385 0
-359 -123 384 -385 0
-359 123 -384 -385 0
-359 123 384 385 0
359 -123 -384 -385 0
359 -123 384 385 0
359 123 -384 385 0
359 123 384 -385 0
-359 -123 386 0
-359 -384 386 0
-123 -384 386 0
359 123 -386 0
359 384 -386 0
123 384 -386 0
-361 -124 -386 387 0
-361 -124 386 -387 0
-361 124 -386 -387 0
-361 124 386 387 0
361 -124 -386 -387 0
361 -124 386 387 0
361 124 -386 387 0
361 124 386 -387 0
-361 -124 388 0
-361 -386 388 0
-124 -386 388 0
361 124 -388 0
361 386 -388 0
124 386 -388 0
-363 -125 -388 389 0
-363 -125 388 -389 0
-363 125 -388 -389 0
-363 125 388 389 0
363 -125 -388 -389 0
363 -125 388 389 0
363 125 -388 389 0
363 125 388 -389 0
-363 -125 390 0
-363 -388 390 0
-125 -388 390 0
363 125 -390 0
363 388 -390 0
125 388 -390 0
-364 -126 -390 391 0
-364 -126 390 -391 0
-364 126 -390 -391 0
-364 126 390 391 0
364 -126 -390 -391 0
364 -126 390 391 0
364 126 -390 391 0
364 126 390 -391 0
-364 -126 392 0
-364 -390 392 0
-126 -390 392 0
364 126 -392 0
364 390 -392 0
126 390 -392 0
-393 367 127 0
-393 -367 -127 0
393 -367 127 0
393 367 -127 0
-394 367 0
-394 127 0
394 -367 -127 0
-369 -128 -394 395 0
-369 -128 394 -395 0
-369 128 -394 -395 0
-369 128 394 395 0
369 -128 -394 -395 0
369 -128 394 395 0
369 128 -394 395 0
369 128 394 -395 0
-369 -128 396 0
-369 -394 396 0
-128 -394 396 0
369 128 -396 0
369 394 -396 0
128 394 -396 0
-371 -129 -396 397 0
-371 -129 396 -397 0
-371 129 -396 -397 0
-371 129 396 397 0
371 -129 -396 -397 0
371 -129 396 397 0
371 129 -396 397 0
371 129 396 -397 0
-371 -129 398 0
-371 -396 398 0
-129 -396 398 0
371 129 -398 0
371 396 -398 0
129 396 -398 0
-373 -130 -398 399 0
-373 -130 398 -399 0
-373 130 -398 -399 0
-373 130 398 399 0
373 -130 -398 -399 0
373 -130 398 399 0
373 130 -398 399 0
373 130 398 -399 0
-373 -130 400 0
-373 -398 400 0
-130 -398 400 0
373 130 -400 0
373 398 -400 0
130 398 -400 0
-375 -131 -400 401 0
-375 -131 400 -401 0
-375 131 -400 -401 0
-375 131 400 401 0
375 -131 -400 -401 0
375 -131 400 401 0
375 131 -400 401 0
375 131 400 -401 0
-375 -131 402 0
-375 -400 402 0
-131 -400 402 0
375 131 -402 0
375 400 -402 0
131 400 -402 0
-377 -132 -402 403 0
-377 -132 402 -403 0
-377 132 -402 -403 0
-377 132 402 403 0
377 -132 -402 -403 0
377 -132 402 403 0
377 132 -402 403 0
377 132 402 -403 0
-377 -132 404 0
-377 -402 404 0
-132 -402 404 0
377 132 -404 0
377 402 -404 0
132 402 -404 0
-379 -133 -404 405 0
-379 -133 404 -405 0
-379 133 -404 -405 0
-379 133 404 405 0
379 -133 -404 -405 0
379 -133 404 405 0
379 133 -404 405 0
379 133 404 -405 0
-379 -133 406 0
-379 -404 406 0
-133 -404 406 0
379 133 -406 0
379 404 -406 0
133 404 -406 0
-381 -134 -406 407 0
-381 -134 406 -407 0
-381 134 -406 -407 0
-381 134 406 407 0
381 -134 -406 -407 0
381 -134 406 407 0
381 134 -406 407 0
381 134 406 -407 0
-381 -134 408 0
-381 -406 408 0
-134 -406 408 0
381 134 -408 0
381 406 -408 0
134 406 -408 0
-383 -135 -408 409 0
-383 -135 408 -409 0
-383 135 -408 -409 0
-383 135 408 409 0
383 -135 -408 -409 0
383 -135 408 409 0
383 135 -408 409 0
383 135 408 -409 0
-383 -135 410 0
-383 -408 410 0
-135 -408 410 0
383 135 -410 0
383 408 -410 0
135 408 -410 0
-385 -136 -410 411 0
-385 -136 410 -411 0
-385 136 -410 -411 0
-385 136 410 411 0
385 -136 -410 -411 0
385 -136 410 411 0
385 136 -410 411 0
385 136 410 -411 0
-385 -136 412 0
-385 -410 412 0
-136 -410 412 0
385 136 -412 0
385 410 -412 0
136 410 -412 0
-387 -137 -412 413 0
-387 -137 412 -413 0
-387 137 -412 -413 0
-387 137 412 413 0
387 -137 -412 -413 0
387 -137 412 413 0
387 137 -412 413 0
387 137 412 -413 0
-387 -137 414 0
-387 -412 414 0
-137 -412 414 0
387 137 -414 0
387 412 -414 0
137 412 -414 0
-389 -138 -414 415 0
-389 -138 414 -415 0
-389 138 -414 -415 0
-389 138 414 415 0
389 -138 -414 -415 0
389 -138 414 415 0
389 138 -414 415 0
389 138 414 -415 0
-389 -138 416 0
-389 -414 416 0
-138 -414 416 0
389 138 -416 0
389 414 -416 0
138 414 -416 0
-391 -139 -416 417 0
-391 -139 416 -417 0
-391 139 -416 -417 0
-391 139 416 417 0
391 -139 -416 -417 0
391 -139 416 417 0
391 139 -416 417 0
391 139 416 -417 0
-391 -139 418 0
-391 -416 418 0
-139 -416 418 0
391 139 -418 0
391 416 -418 0
139 416 -418 0
-392 -140 -418 419 0
-392 -140 418 -419 0
-392 140 -418 -419 0
-392 140 418 419 0
392 -140 -418 -419 0
392 -140 418 419 0
392 140 -418 419 0
392 140 418 -419 0
-392 -140 420 0
-392 -418 420 0
-140 -418 420 0
392 140 -420 0
392 418 -420 0
140 418 -420 0
-421 395 141 0
-421 -395 -141 0
421 -395 141 0
421 395 -141 0
-422 395 0
-422 141 0
422 -395 -141 0
-397 -142 -422 423 0
-397 -142 422 -423 0
-397 142 -422 -423 0
-397 142 422 423 0
397 -142 -422 -423 0
397 -142 422 423 0
397 142 -422 423 0
397 142 422 -423 0
-397 -142 424 0
-397 -422 424 0
-142 -422 424 0
397 142 -424 0
397 422 -424 0
142 422 -424 0
-399 -143 -424 425 0
-399 -143 424 -425 0
-399 143 -424 -425 0
-399 143 424 425 0
399 -143 -424 -425 0
399 -143 424 425 0
399 143 -424 425 0
399 143 424 -425 0
-399 -143 426 0
-399 -424 426 0
-143 -424 426 0
399 143 -426 0
399 424 -426 0
143 424 -426 0
-401 -144 -426 427 0
-401 -144 426 -427 0
-401 144 -426 -427 0
-401 144 426 427 0
401 -144 -426 -427 0
401 -144 426 427 0
401 144 -426 427 0
401 144 426 -427 0
-401 -144 428 0
-401 -426 428 0
-144 -426 428 0
401 144 -428 0
401 426 -428 0
144 426 -428 0
-403 -145 -428 429 0
-403 -145 428 -429 0
-403 145 -428 -429 0
-403 145 428 429 0
403 -145 -428 -429 0
403 -145 428 429 0
403 145 -428 429 0
403 145 428 -429 0
-403 -145 430 0
-403 -428 430 0
-145 -428 430 0
403 145 -430 0
403 428 -430 0
145 428 -430 0
-405 -146 -430 431 0
-405 -146 430 -431 0
-405 146 -430 -431 0
-405 146 430 431 0
405 -146 -430 -431 0
405 -146 430 431 0
405 146 -430 431 0
405 146 430 -431 0
-405 -146 432 0
-405 -430 432 0
-146 -430 432 0
405 146 -432 0
405 430 -432 0
146 430 -432 0
-407 -147 -432 433 0
-407 -147 432 -433 0
-407 147 -432 -433 0
-407 147 432 433 0
407 -147 -432 -433 0
407 -147 432 433 0
407 147 -432 433 0
407 147 432 -433 0
-407 -147 434 0
-407 -432 434 0
-147 -432 434 0
407 147 -434 0
407 432 -434 0
147 432 -434 0
-409 -148 -434 435 0
-409 -148 434 -435 0
-409 148 -434 -435 0
-409 148 434 435 0
409 -148 -434 -435 0
409 -148 434 435 0
409 148 -434 435 0
409 148 434 -435 0
-409 -148 436 0
-409 -434 436 0
-148 -434 436 0
409 148 -436 0
409 434 -436 0
148 434 -436 0
-411 -149 -436 437 0
-411 -149 436 -437 0
-411 149 -436 -437 0
-411 149 436 437 0
411 -149 -436 -437 0
411 -149 436 437 0
411 149 -436 437 0
411 149 436 -437 0
-411 -149 438 0
-411 -436 438 0
-149 -436 438 0
411 149 -438 0
411 436 -438 0
149 436 -438 0
-413 -150 -438 439 0
-413 -150 438 -439 0
-413 150 -438 -439 0
-413 150 438 439 0
413 -150 -438 -439 0
413 -150 438 439 0
413 150 -438 439 0
413 150 438 -439 0
-413 -150 440 0
-413 -438 440 0
-150 -438 440 0
413 150 -440 0
413 438 -440 0
150 438 -440 0
-415 -151 -440 441 0
-415 -151 440 -441 0
-415 151 -440 -441 0
-415 151 440 441 0
415 -151 -440 -441 0
415 -151 440 441 0
415 151 -440 441 0
415 151 440 -441 0
-415 -151 442 0
-415 -440 442 0
-151 -440 442 0
415 151 -442 0
415 440 -442 0
151 440 -442 0
-417 -152 -442 443 0
-417 -152 442 -443 0
-417 152 -442 -443 0
-417 152 442 443 0
417 -152 -442 -443 0
417 -152 442 443 0
417 152 -442 443 0
417 152 442 -443 0
-417 -152 444 0
-417 -442 444 0
-152 -442 444 0
417 152 -444 0
417 442 -444 0
152 442 -444 0
-419 -153 -444 445 0
-419 -153 444 -445 0
-419 153 -444 -445 0
-419 153 444 445 0
419 -153 -444 -445 0
419 -153 444 445 0
419 153 -444 445 0
419 153 444 -445 0
-419 -153 446 0
-419 -444 446 0
-153 -444 446 0
419 153 -446 0
419 444 -446 0
153 444 -446 0
-420 -154 -446 447 0
-420 -154 446 -447 0
-420 154 -446 -447 0
-420 154 446 447 0
420 -154 -446 -447 0
420 -154 446 447 0
420 154 -446 447 0
420 154 446 -447 0
-420 -154 448 0
-420 -446 448 0
-154 -446 448 0
420 154 -448 0
420 446 -448 0
154 446 -448 0
-449 423 155 0
-449 -423 -155 0
449 -423 155 0
449 423 -155 0
-450 423 0
-450 155 0
450 -423 -155 0
-425 -156 -450 451 0
-425 -156 450 -451 0
-425 156 -450 -451 0
-425 156 450 451 0
425 -156 -450 -451 0
425 -156 450 451 0
425 156 -450 451 0
425 156 450 -451 0
-425 -156 452 0
-425 -450 452 0
-156 -450 452 0
425 156 -452 0
425 450 -452 0
156 450 -452 0
-427 -157 -452 453 0
-427 -157 452 -453 0
-427 157 -452 -453 0
-427 157 452 453 0
427 -157 -452 -453 0
427 -157 452 453 0
427 157 -452 453 0
427 157 452 -453 0
-427 -157 454 0
-427 -452 454 0
-157 -452 454 0
427 157 -454 0
427 452 -454 0
157 452 -454 0
-429 -158 -454 455 0
-429 -158 454 -455 0
-429 158 -454 -455 0
-429 158 454 455 0
429 -158 -454 -455 0
429 -158 454 455 0
429 158 -454 455 0
429 158 454 -455 0
-429 -158 456 0
-429 -454 456 0
-158 -454 456 0
429 158 -456 0
429 454 -456 0
158 454 -456 0
-431 -159 -456 457 0
-431 -159 456 -457 0
-431 159 -456 -457 0
-431 159 456 457 0
431 -159 -456 -457 0
431 -159 456 457 0
431 159 -456 457 0
431 159 456 -457 0
-431 -159 458 0
-431 -456 458 0
-159 -456 458 0
431 159 -458 0
431 456 -458 0
159 456 -458 0
-433 -160 -458 459 0
-433 -160 458 -459 0
-433 160 -458 -459 0
-433 160 458 459 0
433 -160 -458 -459 0
433 -160 458 459 0
433 160 -458 459 0
433 160 458 -459 0
-433 -160 460 0
-433 -458 460 0
-160 -458 460 0
433 160 -460 0
433 458 -460 0
160 458 -460 0
-435 -161 -460 461 0
-435 -161 460 -461 0
-435 161 -460 -461 0
-435 161 460 461 0
435 -161 -460 -461 0
435 -161 460 461 0
435 161 -460 461 0
435 161 460 -461 0
-435 -161 462 0
-435 -460 462 0
-161 -460 462 0
435 161 -462 0
435 460 -462 0
161 460 -462 0
-437 -162 -462 463 0
-437 -162 462 -463 0
-437 162 -462 -463 0
-437 162 462 463 0
437 -162 -462 -463 0
437 -162 462 463 0
437 162 -462 463 0
437 162 462 -463 0
-437 -162 464 0
-437 -462 464 0
-162 -462 464 0
437 162 -464 0
437 462 -464 0
162 462 -464 0
-439 -163 -464 465 0
-439 -163 464 -465 0
-439 163 -464 -465 0
-439 163 464 465 0
439 -163 -464 -465 0
439 -163 464 465 0
439 163 -464 465 0
439 163 464 -465 0
-439 -163 466 0
-439 -464 466 0
-163 -464 466 0
439 163 -466 0
439 464 -466 0
163 464 -466 0
-441 -164 -466 467 0
-441 -164 466 -467 0
-441 164 -466 -467 0
-441 164 466 467 0
441 -164 -466 -467 0
441 -164 466 467 0
441 164 -466 467 0
441 164 466 -467 0
-441 -164 468 0
-441 -466 468 0
-164 -466 468 0
441 164 -468 0
441 466 -468 0
164 466 -468 0
-443 -165 -468 469 0
-443 -165 468 -469 0
-443 165 -468 -469 0
-443 165 468 469 0
443 -165 -468 -469 0
443 -165 468 469 0
443 165 -468 469 0
443 165 468 -469 0
-443 -165 470 0
-443 -468 470 0
-165 -468 470 0
443 165 -470 0
443 468 -470 0
165 468 -470 0
-445 -166 -470 471 0
-445 -166 470 -471 0
-445 166 -470 -471 0
-445 166 470 471 0
445 -166 -470 -471 0
445 -166 470 471 0
445 166 -470 471 0
445 166 470 -471 0
-445 -166 472 0
-445 -470 472 0
-166 -470 472 0
445 166 -472 0
445 470 -472 0
166 470 -472 0
-447 -167 -472 473 0
-447 -167 472 -473 0
-447 167 -472 -473 0
-447 167 472 473 0
447 -167 -472 -473 0
447 -167 472 473 0
447 167 -472 473 0
447 167 472 -473 0
-447 -167 474 0
-447 -472 474 0
-167 -472 474 0
447 167 -474 0
447 472 -474 0
167 472 -474 0
-448 -168 -474 475 0
-448 -168 474 -475 0
-448 168 -474 -475 0
-448 168 474 475 0
448 -168 -474 -475 0
448 -168 474 475 0
448 168 -474 475 0
448 168 474 -475 0
-448 -168 476 0
-448 -474 476 0
-168 -474 476 0
448 168 -476 0
448 474 -476 0
168 474 -476 0
-477 451 169 0
-477 -451 -169 0
477 -451 169 0
477 451 -169 0
-478 451 0
-478 169 0
478 -451 -169 0
-453 -170 -478 479 0
-453 -170 478 -479 0
-453 170 -478 -479 0
-453 170 478 479 0
453 -170 -478 -479 0
453 -170 478 479 0
453 170 -478 479 0
453 170 478 -479 0
-453 -170 480 0
-453 -478 480 0
-170 -478 480 0
453 170 -480 0
453 478 -480 0
170 478 -480 0
-455 -171 -480 481 0
-455 -171 480 -481 0
-455 171 -480 -481 0
-455 171 480 481 0
455 -171 -480 -481 0
455 -171 480 481 0
455 171 -480 481 0
455 171 480 -481 0
-455 -171 482 0
-455 -480 482 0
-171 -480 482 0
455 171 -482 0
455 480 -482 0
171 480 -482 0
-457 -172 -482 483 0
-457 -172 482 -483 0
-457 172 -482 -483 0
-457 172 482 483 0
457 -172 -482 -483 0
457 -172 482 483 0
457 172 -482 483 0
457 172 482 -483 0
-457 -172 484 0
-457 -482 484 0
-172 -482 484 0
457 172 -484 0
457 482 -484 0
172 482 -484 0
-459 -173 -484 485 0
-459 -173 484 -485 0
-459 173 -484 -485 0
-459 173 484 485 0
459 -173 -484 -485 0
459 -173 484 485 0
459 173 -484 485 0
459 173 484 -485 0
-459 -173 486 0
-459 -484 486 0
-173 -484 486 0
459 173 -486 0
459 484 -486 0
173 484 -486 0
-461 -174 -486 487 0
-461 -174 486 -487 0
-461 174 -486 -487 0
-461 174 486 487 0
461 -174 -486 -487 0
461 -174 486 487 0
461 174 -486 487 0
461 174 486 -487 0
-461 -174 488 0
-461 -486 488 0
-174 -486 488 0
461 174 -488 0
461 486 -488 0
174 486 -488 0
-463 -175 -488 489 0
-463 -175 488 -489 0
-463 175 -488 -489 0
-463 175 488 489 0
463 -175 -488 -489 0
463 -175 488 489 0
463 175 -488 489 0
463 175 488 -489 0
-463 -175 490 0
-463 -488 490 0
-175 -488 490 0
463 175 -490 0
463 488 -490 0
175 488 -490 0
-465 -176 -490 491 0
-465 -176 490 -491 0
-465 176 -490 -491 0
-465 176 490 491 0
465 -176 -490 -491 0
465 -176 490 491 0
465 176 -490 491 0
465 176 490 -491 0
-465 -176 492 0
-465 -490 492 0
-176 -490 492 0
465 176 -492 0
465 490 -492 0
176 490 -492 0
-467 -177 -492 493 0
-467 -177 492 -493 0
-467 177 -492 -493 0
-467 177 492 493 0
467 -177 -492 -493 0
467 -177 492 493 0
467 177 -492 493 0
467 177 492 -493 0
-467 -177 494 0
-467 -492 494 0
-177 -492 494 0
467 177 -494 0
467 492 -494 0
177 492 -494 0
-469 -178 -494 495 0
-469 -178 494 -495 0
-469 178 -494 -495 0
-469 178 494 495 0
469 -178 -494 -495 0
469 -178 494 495 0
469 178 -494 495 0
469 178 494 -495 0
-469 -178 496 0
-469 -494 496 0
-178 -494 496 0
469 178 -496 0
469 494 -496 0
178 494 -496 0
-471 -179 -496 497 0
-471 -179 496 -497 0
-471 179 -496 -497 0
-471 179 496 497 0
471 -179 -496 -497 0
471 -179 496 497 0
471 179 -496 497 0
471 179 496 -497 0
-471 -179 498 0
-471 -496 498 0
-179 -496 498 0
471 179 -498 0
471 496 -498 0
179 496 -498 0
-473 -180 -498 499 0
-473 -180 498 -499 0
-473 180 -498 -499 0
-473 180 498 499 0
473 -180 -498 -499 0
473 -180 498 499 0
473 180 -498 499 0
473 180 498 -499 0
-473 -180 500 0
-473 -498 500 0
-180 -498 500 0
473 180 -500 0
473 498 -500 0
180 498 -500 0
-475 -181 -500 501 0
-475 -181 500 -501 0
-475 181 -500 -501 0
-475 181 500 501 0
475 -181 -500 -501 0
475 -181 500 501 0
475 181 -500 501 0
475 181 500 -501 0
-475 -181 502 0
-475 -500 502 0
-181 -500 502 0
475 181 -502 0
475 500 -502 0
181 500 -502 0
-476 -182 -502 503 0
-476 -182 502 -503 0
-476 182 -502 -503 0
-476 182 502 503 0
476 -182 -502 -503 0
476 -182 502 503 0
476 182 -502 503 0
476 182 502 -503 0
-476 -182 504 0
-476 -502 504 0
-182 -502 504 0
476 182 -504 0
476 502 -504 0
182 502 -504 0
-505 479 183 0
-505 -479 -183 0
505 -479 183 0
505 479 -183 0
-506 479 0
-506 183 0
506 -479 -183 0
-481 -184 -506 507 0
-481 -184 506 -507 0
-481 184 -506 -507 0
-481 184 506 507 0
481 -184 -506 -507 0
481 -184 506 507 0
481 184 -506 507 0
481 184 506 -507 0
-481 -184 508 0
-481 -506 508 0
-184 -506 508 0
481 184 -508 0
481 506 -508 0
184 506 -508 0
-483 -185 -508 509 0
-483 -185 508 -509 0
-483 185 -508 -509 0
-483 185 508 509 0
483 -185 -508 -509 0
483 -185 508 509 0
483 185 -508 509 0
483 185 508 -509 0
-483 -185 510 0
-483 -508 510 0
-185 -508 510 0
483 185 -510 0
483 508 -510 0
185 508 -510 0
-485 -186 -510 511 0
-485 -186 510 -511 0
-485 186 -510 -511 0
-485 186 510 511 0
485 -186 -510 -511 0
485 -186 510 511 0
485 186 -510 511 0
485 186 510 -511 0
-485 -186 512 0
-485 -510 512 0
-186 -510 512 0
485 186 -512 0
485 510 -512 0
186 510 -512 0
-487 -187 -512 513 0
-487 -187 512 -513 0
-487 187 -512 -513 0
-487 187 512 513 0
487 -187 -512 -513 0
487 -187 512 513 0
487 187 -512 513 0
487 187 512 -513 0
-487 -187 514 0
-487 -512 514 0
-187 -512 514 0
487 187 -514 0
487 512 -514 0
187 512 -514 0
-489 -188 -514 515 0
-489 -188 514 -515 0
-489 188 -514 -515 0
-489 188 514 515 0
489 -188 -514 -515 0
489 -188 514 515 0
489 188 -514 515 0
489 188 514 -515 0
-489 -188 516 0
-489 -514 516 0
-188 -514 516 0
489 188 -516 0
489 514 -516 0
188 514 -516 0
-491 -189 -516 517 0
-491 -189 516 -517 0
-491 189 -516 -517 0
-491 189 516 517 0
491 -189 -516 -517 0
491 -189 516 517 0
491 189 -516 517 0
491 189 516 -517 0
-491 -189 518 0
-491 -516 518 0
-189 -516 518 0
491 189 -518 0
491 516 -518 0
189 516 -518 0
-493 -190 -518 519 0
-493 -190 518 -519 0
-493 190 -518 -519 0
-493 190 518 519 0
493 -190 -518 -519 0
493 -190 518 519 0
493 190 -518 519 0
493 190 518 -519 0
-493 -190 520 0
-493 -518 520 0
-190 -518 520 0
493 190 -520 0
493 518 -520 0
190 518 -520 0
-495 -191 -520 521 0
-495 -191 520 -521 0
-495 191 -520 -521 0
-495 191 520 521 0
495 -191 -520 -521 0
495 -191 520 521 0
495 191 -520 521 0
495 191 520 -521 0
-495 -191 522 0
-495 -520 522 0
-191 -520 522 0
495 191 -522 0
495 520 -522 0
191 520 -522 0
-497 -192 -522 523 0
-497 -192 522 -523 0
-497 192 -522 -523 0
-497 192 522 523 0
497 -192 -522 -523 0
497 -192 522 523 0
497 192 -522 523 0
497 192 522 -523 0
-497 -192 524 0
-497 -522 524 0
-192 -522 524 0
497 192 -524 0
497 522 -524 0
192 522 -524 0
-499 -193 -524 525 0
-499 -193 524 -525 0
-499 193 -524 -525 0
-499 193 524 525 0
499 -193 -524 -525 0
499 -193 524 525 0
499 193 -524 525 0
499 193 524 -525 0
-499 -193 526 0
-499 -524 526 0
-193 -524 526 0
499 193 -526 0
499 524 -526 0
193 524 -526 0
-501 -194 -526 527 0
-501 -194 526 -527 0
-501 194 -526 -527 0
-501 194 526 527 0
501 -194 -526 -527 0
501 -194 526 527 0
501 194 -526 527 0
501 194 526 -527 0
-501 -194 528 0
-501 -526 528 0
-194 -526 528 0
501 194 -528 0
501 526 -528 0
194 526 -528 0
-503 -195 -528 529 0
-503 -195 528 -529 0
-503 195 -528 -529 0
-503 195 528 529 0
503 -195 -528 -529 0
503 -195 528 529 0
503 195 -528 529 0
503 195 528 -529 0
-503 -195 530 0
-503 -528 530 0
-195 -528 530 0
503 195 -530 0
503 528 -530 0
195 528 -530 0
-504 -196 -530 531 0
-504 -196 530 -531 0
-504 196 -530 -531 0
-504 196 530 531 0
504 -196 -530 -531 0
504 -196 530 531 0
504 196 -530 531 0
504 196 530 -531 0
-504 -196 532 0
-504 -530 532 0
-196 -530 532 0
504 196 -532 0
504 530 -532 0
196 530 -532 0
-533 507 197 0
-533 -507 -197 0
533 -507 197 0
533 507 -197 0
-534 507 0
-534 197 0
534 -507 -197 0
-509 -198 -534 535 0
-509 -198 534 -535 0
-509 198 -534 -535 0
-509 198 534 535 0
509 -198 -534 -535 0
509 -198 534 535 0
509 198 -534 535 0
509 198 534 -535 0
-509 -198 536 0
-509 -534 536 0
-198 -534 536 0
509 198 -536 0
509 534 -536 0
198 534 -536 0
-511 -199 -536 537 0
-511 -199 536 -537 0
-511 199 -536 -537 0
-511 199 536 537 0
511 -199 -536 -537 0
511 -199 536 537 0
511 199 -536 537 0
511 199 536 -537 0
-511 -199 538 0
-511 -536 538 0
-199 -536 538 0
511 199 -538 0
511 536 -538 0
199 536 -538 0
-513 -200 -538 539 0
-513 -200 538 -539 0
-513 200 -538 -539 0
-513 200 538 539 0
513 -200 -538 -539 0
513 -200 538 539 0
513 200 -538 539 0
513 200 538 -539 0
-513 -200 540 0
-513 -538 540 0
-200 -538 540 0
513 200 -540 0
513 538 -540 0
200 538 -540 0
-515 -201 -540 541 0
-515 -201 540 -541 0
-515 201 -540 -541 0
-515 201 540 541 0
515 -201 -540 -541 0
515 -201 540 541 0
515 201 -540 541 0
515 201 540 -541 0
-515 -201 542 0
-515 -540 542 0
-201 -540 542 0
515 201 -542 0
515 540 -542 0
201 540 -542 0
-517 -202 -542 543 0
-517 -202 542 -543 0
-517 202 -542 -543 0
-517 202 542 543 0
517 -202 -542 -543 0
517 -202 542 543 0
517 202 -542 543 0
517 202 542 -543 0
-517 -202 544 0
-517 -542 544 0
-202 -542 544 0
517 202 -544 0
517 542 -544 0
202 542 -544 0
-519 -203 -544 545 0
-519 -203 544 -545 0
-519 203 -544 -545 0
-519 203 544 545 0
519 -203 -544 -545 0
519 -203 544 545 0
519 203 -544 545 0
519 203 544 -545 0
-519 -203 546 0
-519 -544 546 0
-203 -544 546 0
519 203 -546 0
519 544 -546 0
203 544 -546 0
-521 -204 -546 547 0
-521 -204 546 -547 0
-521 204 -546 -547 0
-521 204 546 547 0
521 -204 -546 -547 0
521 -204 546 547 0
521 204 -546 547 0
521 204 546 -547 0
-521 -204 548 0
-521 -546 548 0
-204 -546 548 0
521 204 -548 0
521 546 -548 0
204 546 -548 0
-523 -205 -548 549 0
-523 -205 548 -549 0
-523 205 -548 -549 0
-523 205 548 549 0
523 -205 -548 -549 0
523 -205 548 549 0
523 205 -548 549 0
523 205 548 -549 0
-523 -205 550 0
-523 -548 550 0
-205 -548 550 0
523 205 -550 0
523 548 -550 0
205 548 -550 0
-525 -206 -550 551 0
-525 -206 550 -551 0
-525 206 -550 -551 0
-525 206 550 551 0
525 -206 -550 -551 0
525 -206 550 551 0
525 206 -550 551 0
525 206 550 -551 0
-525 -206 552 0
-525 -550 552 0
-206 -550 552 0
525 206 -552 0
525 550 -552 0
206 550 -552 0
-527 -207 -552 553 0
-527 -207 552 -553 0
-527 207 -552 -553 0
-527 207 552 553 0
527 -207 -552 -553 0
527 -207 552 553 0
527 207 -552 553 0
527 207 552 -553 0
-527 -207 554 0
-527 -552 554 0
-207 -552 554 0
527 207 -554 0
527 552 -554 0
207 552 -554 0
-529 -208 -554 555 0
-529 -208 554 -555 0
-529 208 -554 -555 0
-529 208 554 555 0
529 -208 -554 -555 0
529 -208 554 555 0
529 208 -554 555 0
529 208 554 -555 0
-529 -208 556 0
-529 -554 556 0
-208 -554 556 0
529 208 -556 0
529 554 -556 0
208 554 -556 0
-531 -209 -556 557 0
-531 -209 556 -557 0
-531 209 -556 -557 0
-531 209 556 557 0
531 -209 -556 -557 0
531 -209 556 557 0
531 209 -556 557 0
531 209 556 -557 0
-531 -209 558 0
-531 -556 558 0
-209 -556 558 0
531 209 -558 0
531 556 -558 0
209 556 -558 0
-532 -210 -558 559 0
-532 -210 558 -559 0
-532 210 -558 -559 0
-532 210 558 559 0
532 -210 -558 -559 0
532 -210 558 559 0
532 210 -558 559 0
532 210 558 -559 0
-532 -210 560 0
-532 -558 560 0
-210 -558 560 0
532 210 -560 0
532 558 -560 0
210 558 -560 0
-561 535 211 0
-561 -535 -211 0
561 -535 211 0
561 535 -211 0
-562 535 0
-562 211 0
562 -535 -211 0
-537 -212 -562 563 0
-537 -212 562 -563 0
-537 212 -562 -563 0
-537 212 562 563 0
537 -212 -562 -563 0
537 -212 562 563 0
537 212 -562 563 0
537 212 562 -563 0
-537 -212 564 0
-537 -562 564 0
-212 -562 564 0
537 212 -564 0
537 562 -564 0
212 562 -564 0
-539 -213 -564 565 0
-539 -213 564 -565 0
-539 213 -564 -565 0
-539 213 564 565 0
539 -213 -564 -565 0
539 -213 564 565 0
539 213 -564 565 0
539 213 564 -565 0
-539 -213 566 0
-539 -564 566 0
-213 -564 566 0
539 213 -566 0
539 564 -566 0
213 564 -566 0
-541 -214 -566 567 0
-541 -214 566 -567 0
-541 214 -566 -567 0
-541 214 566 567 0
541 -214 -566 -567 0
541 -214 566 567 0
541 214 -566 567 0
541 214 566 -567 0
-541 -214 568 0
-541 -566 568 0
-214 -566 568 0
541 214 -568 0
541 566 -568 0
214 566 -568 0
-543 -215 -568 569 0
-543 -215 568 -569 0
-543 215 -568 -569 0
-543 215 568 569 0
543 -215 -568 -569 0
543 -215 568 569 0
543 215 -568 569 0
543 215 568 -569 0
-543 -215 570 0
-543 -568 570 0
-215 -568 570 0
543 215 -570 0
543 568 -570 0
215 568 -570 0
-545 -216 -570 571 0
-545 -216 570 -571 0
-545 216 -570 -571 0
-545 216 570 571 0
545 -216 -570 -571 0
545 -216 570 571 0
545 216 -570 571 0
545 216 570 -571 0
-545 -216 572 0
-545 -570 572 0
-216 -570 572 0
545 216 -572 0
545 570 -572 0
216 570 -572 0
-547 -217 -572 573 0
-547 -217 572 -573 0
-547 217 -572 -573 0
-547 217 572 573 0
547 -217 -572 -573 0
547 -217 572 573 0
547 217 -572 573 0
547 217 572 -573 0
-547 -217 574 0
-547 -572 574 0
-217 -572 574 0
547 217 -574 0
547 572 -574 0
217 572 -574 0
-549 -218 -574 575 0
-549 -218 574 -575 0
-549 218 -574 -575 0
-549 218 574 575 0
549 -218 -574 -575 0
549 -218 574 575 0
549 218 -574 575 0
549 218 574 -575 0
-549 -218 576 0
-549 -574 576 0
-218 -574 576 0
549 218 -576 0
549 574 -576 0
218 574 -576 0
-551 -219 -576 577 0
-551 -219 576 -577 0
-551 219 -576 -577 0
-551 219 576 577 0
551 -219 -576 -577 0
551 -219 576 577 0
551 219 -576 577 0
551 219 576 -577 0
-551 -219 578 0
-551 -576 578 0
-219 -576 578 0
551 219 -578 0
551 576 -578 0
219 576 -578 0
-553 -220 -578 579 0
-553 -220 578 -579 0
-553 220 -578 -579 0
-553 220 578 579 0
553 -220 -578 -579 0
553 -220 578 579 0
553 220 -578 579 0
553 220 578 -579 0
-553 -220 580 0
-553 -578 580 0
-220 -578 580 0
553 220 -580 0
553 578 -580 0
220 578 -580 0
-555 -221 -580 581 0
-555 -221 580 -581 0
-555 221 -580 -581 0
-555 221 580 581 0
555 -221 -580 -581 0
555 -221 580 581 0
555 221 -580 581 0
555 221 580 -581 0
-555 -221 582 0
-555 -580 582 0
-221 -580 582 0
555 221 -582 0
555 580 -582 0
221 580 -582 0
-557 -222 -582 583 0
-557 -222 582 -583 0
-557 222 -582 -583 0
-557 222 582 583 0
557 -222 -582 -583 0
557 -222 582 583 0
557 222 -582 583 0
557 222 582 -583 0
-557 -222 584 0
-557 -582 584 0
-222 -582 584 0
557 222 -584 0
557 582 -584 0
222 582 -584 0
-559 -223 -584 585 0
-559 -223 584 -585 0
-559 223 -584 -585 0
-559 223 584 585 0
559 -223 -584 -585 0
559 -223 584 585 0
559 223 -584 585 0
559 223 584 -585 0
-559 -223 586 0
-559 -584 586 0
-223 -584 586 0
559 223 -586 0
559 584 -586 0
223 584 -586 0
-560 -224 -586 587 0
-560 -224 586 -587 0
-560 224 -586 -587 0
-560 224 586 587 0
560 -224 -586 -587 0
560 -224 586 587 0
560 224 -586 587 0
560 224 586 -587 0
-560 -224 588 0
-560 -586 588 0
-224 -586 588 0
560 224 -588 0
560 586 -588 0
224 586 -588 0
29 0
-225 0
253 0
281 0
-309 0
-337 0
365 0
-393 0
-421 0
449 0
477 0
505 0
-533 0
-561 0
563 0
-565 0
567 0
-569 0
571 0
573 0
575 0
577 0
579 0
581 0
583 0
-585 0
587 0
588 0
