c F2 random 3-CNF cnfgen RandomKCNF(3,350,1750,seed=3) m/n=5.0
p cnf 350 1750
122 -279 -304 0
34 -298 -321 0
-99 -120 -283 0
78 -119 328 0
33 -82 344 0
-138 -243 -305 0
-69 228 296 0
-70 -112 -254 0
-198 -216 260 0
-15 173 -350 0
278 292 -293 0
-33 -64 146 0
35 177 -211 0
61 213 -219 0
-170 283 301 0
4 40 159 0
-150 209 313 0
161 -174 -185 0
198 -236 -267 0
-122 -155 -325 0
-6 -174 281 0
193 302 -316 0
-181 -239 -348 0
12 -32 -302 0
-153 234 -322 0
-95 -161 -190 0
14 -54 292 0
-123 138 -335 0
-50 -53 333 0
-41 87 -225 0
62 116 -139 0
-94 143 -295 0
-67 -216 -302 0
-178 -214 -325 0
19 80 -212 0
223 262 -319 0
-148 266 340 0
62 147 302 0
102 221 -263 0
-62 88 258 0
212 269 -275 0
-65 130 -277 0
63 102 114 0
-4 -66 141 0
-128 138 -139 0
1 29 166 0
26 36 -248 0
-37 -81 -162 0
-156 185 -301 0
64 -66 220 0
-22 -92 -291 0
-23 319 -326 0
-162 -255 -322 0
-10 112 -126 0
67 -115 -219 0
-63 135 -287 0
56 164 -342 0
74 121 200 0
92 -193 338 0
-14 -59 -345 0
19 46 289 0
-32 282 284 0
93 -124 -331 0
-130 -189 -307 0
43 -193 257 0
-213 292 -297 0
-50 -77 -84 0
-70 96 301 0
162 -264 -300 0
137 -300 305 0
138 196 -246 0
123 -165 -248 0
106 -240 307 0
24 205 240 0
112 -124 131 0
96 -319 346 0
-24 94 161 0
-48 61 -136 0
-232 298 346 0
-170 -172 224 0
-108 -300 330 0
-62 164 -279 0
-58 225 -271 0
-189 -231 348 0
174 -290 -345 0
31 151 348 0
190 233 336 0
-170 -331 333 0
160 235 247 0
-93 -279 284 0
137 139 197 0
139 -246 -259 0
207 -230 -278 0
58 78 139 0
-95 -97 291 0
-75 304 312 0
-92 -104 -292 0
-16 -209 -228 0
-255 -271 325 0
98 308 325 0
-89 252 269 0
-19 109 -272 0
-70 79 337 0
14 185 -317 0
-10 -174 -276 0
42 69 -308 0
-33 103 -106 0
-22 56 162 0
-83 201 -255 0
-107 251 -333 0
206 -225 235 0
-132 -188 -190 0
-2 -108 115 0
100 236 274 0
88 207 300 0
-57 -87 312 0
-12 -31 -207 0
-17 27 -123 0
14 113 -253 0
-85 98 -243 0
-27 -64 -305 0
-128 154 -251 0
163 177 -323 0
46 304 317 0
10 47 -349 0
-28 97 -336 0
175 -180 -246 0
202 -311 324 0
-59 -212 -260 0
-90 198 -284 0
-118 -213 -225 0
-87 -138 260 0
-12 79 88 0
122 164 -308 0
-171 239 332 0
-54 -100 205 0
42 231 333 0
74 79 331 0
-107 -113 148 0
91 240 319 0
13 -52 307 0
56 205 -239 0
-178 207 -343 0
195 228 305 0
154 -238 -330 0
-37 -99 249 0
110 -266 311 0
-121 172 -221 0
85 112 -166 0
189 -215 -275 0
209 -241 301 0
15 -50 95 0
21 242 -328 0
-20 -222 252 0
-53 -74 -148 0
40 -106 -228 0
191 -193 -325 0
238 -243 -270 0
-16 -147 -238 0
6 125 267 0
11 85 275 0
182 -186 239 0
-7 -123 142 0
-49 -280 -309 0
-127 -256 -345 0
16 23 220 0
-70 212 -261 0
9 -24 87 0
-236 -240 267 0
38 94 -151 0
-181 -228 -233 0
-80 145 272 0
-119 -211 249 0
163 -295 307 0
-53 138 -144 0
-18 250 -264 0
-93 -178 -335 0
26 -110 -139 0
-201 285 313 0
129 -212 214 0
41 103 270 0
-36 -145 -221 0
138 149 280 0
74 87 -250 0
204 332 -346 0
28 -93 321 0
67 76 333 0
-55 196 222 0
54 68 -144 0
65 181 197 0
73 190 -245 0
-54 -249 280 0
-177 -227 -272 0
-77 -227 274 0
-92 152 -305 0
67 104 -137 0
59 92 315 0
-192 207 -292 0
-226 277 298 0
-166 -234 -260 0
-175 -177 -308 0
64 -94 309 0
-137 145 -223 0
-91 172 273 0
-214 218 282 0
109 -196 197 0
29 -253 -281 0
-7 -186 -287 0
191 -205 225 0
-1 113 166 0
-42 -72 -108 0
-15 -16 -101 0
110 -174 226 0
-72 158 244 0
-44 89 -307 0
4 -196 -251 0
-72 -105 -200 0
50 147 -328 0
-5 -34 -165 0
-49 -324 338 0
-104 166 332 0
14 266 329 0
-119 -241 -276 0
234 271 -339 0
-69 -176 -302 0
-105 270 -300 0
-100 160 323 0
-54 62 -234 0
-20 96 -168 0
-30 -122 -349 0
-91 -115 -146 0
28 57 -175 0
89 227 -290 0
-108 111 344 0
-202 272 -307 0
29 -192 -227 0
-10 -91 -297 0
-114 -200 -257 0
92 -248 -317 0
74 -165 299 0
153 -245 -323 0
-22 253 299 0
-156 -283 -304 0
-6 -150 -334 0
190 246 -291 0
97 -198 289 0
-89 -164 249 0
-210 284 296 0
104 247 311 0
52 -276 -283 0
-34 -141 -204 0
61 118 -134 0
-76 -191 223 0
136 262 293 0
133 176 178 0
-43 116 -235 0
-22 -73 85 0
-191 -220 -226 0
-140 152 279 0
17 88 221 0
-107 -259 330 0
-286 289 322 0
-38 -82 -112 0
-60 77 -279 0
45 71 320 0
-4 -43 -323 0
2 -91 -135 0
-4 -17 -88 0
-23 53 -109 0
168 -322 -342 0
3 122 177 0
-50 -201 213 0
280 -306 342 0
-13 14 208 0
-233 -262 292 0
-219 268 301 0
232 -257 272 0
-65 225 266 0
152 188 -270 0
-35 127 246 0
12 243 -319 0
-7 -25 -177 0
154 -157 252 0
23 208 333 0
43 82 201 0
155 -263 346 0
186 -256 -347 0
-201 -223 287 0
-157 -166 -247 0
-50 -106 -184 0
104 173 245 0
-124 206 -313 0
-51 -92 -335 0
-216 -290 -296 0
-21 -187 -202 0
71 113 270 0
-54 -212 -329 0
-194 258 -286 0
30 203 331 0
-50 71 290 0
-54 110 -305 0
75 -81 -223 0
162 -227 321 0
-163 176 303 0
44 -102 145 0
114 -118 -171 0
-107 111 -278 0
75 -123 -143 0
-80 105 149 0
-60 -286 -321 0
-29 -203 274 0
-105 160 231 0
177 -205 216 0
63 295 -312 0
87 -177 308 0
59 -163 -311 0
-11 -149 -285 0
1 87 -248 0
143 -196 -246 0
186 -188 -243 0
-254 275 -289 0
38 96 157 0
90 -134 161 0
8 -114 171 0
-55 -258 -329 0
-5 236 347 0
44 47 -341 0
43 171 340 0
20 -64 -226 0
156 165 318 0
112 -223 -301 0
-211 266 -268 0
40 145 -323 0
-124 -200 -225 0
-88 152 177 0
-156 -198 -305 0
-52 111 -321 0
-29 -226 -333 0
252 -268 274 0
-38 227 249 0
-69 135 288 0
-103 122 -321 0
99 189 -338 0
155 -226 -251 0
-92 -236 -321 0
33 124 -176 0
38 178 275 0
81 168 -243 0
123 244 298 0
-73 164 -348 0
179 -193 -297 0
-30 -208 344 0
-42 -317 -332 0
5 64 -187 0
23 203 -217 0
22 -136 -189 0
-11 120 -212 0
148 182 -190 0
1 -126 -333 0
-71 -100 292 0
-131 196 208 0
55 -194 -335 0
-133 -156 340 0
177 -265 -330 0
100 -143 309 0
111 -268 -334 0
127 230 333 0
212 -297 -337 0
65 -183 318 0
-198 243 345 0
246 301 -347 0
-7 290 -345 0
-60 -222 -320 0
-155 182 -326 0
-37 -100 350 0
35 -136 -279 0
-127 -297 328 0
1 39 294 0
-55 103 335 0
-87 203 258 0
-107 166 196 0
-24 35 46 0
-45 95 -228 0
79 257 338 0
-143 249 330 0
-154 319 346 0
82 -318 321 0
56 -89 122 0
-13 218 -286 0
128 236 -258 0
296 310 -321 0
-51 65 -240 0
-59 121 279 0
16 40 -243 0
-171 -241 311 0
56 184 -304 0
19 -35 162 0
-14 145 -318 0
-26 129 -197 0
-35 -105 -333 0
80 132 -200 0
-47 -261 344 0
-270 281 315 0
-114 -266 -298 0
74 79 322 0
-191 -233 -260 0
-155 -263 -288 0
-41 310 316 0
-198 -217 -313 0
-50 119 233 0
195 -254 -300 0
-11 148 300 0
22 -97 -304 0
-199 -267 314 0
-3 -79 193 0
91 -126 350 0
-181 292 -347 0
-26 -186 -328 0
2 -105 194 0
-43 128 -165 0
-4 204 -323 0
-70 232 286 0
49 223 257 0
-10 -127 166 0
-39 116 -212 0
125 -196 335 0
-184 191 286 0
44 -176 227 0
-48 -67 -241 0
51 204 258 0
-38 -124 289 0
88 89 321 0
166 176 326 0
-6 -126 205 0
-190 -191 -233 0
226 -291 295 0
134 -248 -297 0
-55 102 -188 0
94 174 -347 0
32 141 -313 0
-92 134 190 0
162 -187 -268 0
42 214 -218 0
56 -71 -292 0
133 -145 -165 0
-9 40 61 0
-83 260 -309 0
169 -220 320 0
-6 -193 -259 0
10 81 181 0
65 -111 312 0
-210 227 267 0
-168 -259 327 0
-109 -124 300 0
176 -237 255 0
-13 -129 -180 0
51 -192 305 0
-49 -150 -271 0
-44 -251 264 0
142 -184 220 0
-105 123 244 0
-12 -251 -285 0
-140 -193 309 0
218 258 264 0
78 161 -179 0
-205 -258 -267 0
4 -111 259 0
-162 -303 333 0
-64 68 297 0
67 315 -326 0
156 -250 -335 0
181 -182 -326 0
-66 147 -321 0
-185 238 308 0
-8 -220 -344 0
-150 183 -239 0
26 62 -82 0
-192 -231 272 0
-1 -105 -159 0
-119 -165 309 0
254 327 349 0
-35 -67 135 0
-64 -242 -261 0
-24 122 -149 0
39 -123 193 0
26 -198 -344 0
171 -220 323 0
-7 -140 311 0
-49 287 -349 0
-40 -131 284 0
-2 -159 -165 0
-71 -155 306 0
58 -234 271 0
-44 191 -304 0
79 97 -272 0
60 277 -312 0
-214 -308 333 0
-39 -206 293 0
112 198 -243 0
-22 -32 190 0
107 -239 -269 0
-179 -186 -283 0
-96 -133 -193 0
10 38 226 0
-132 192 251 0
-245 -247 300 0
-5 -97 -123 0
-78 -162 297 0
-1 86 136 0
-93 200 -311 0
20 21 -133 0
56 -279 -295 0
-55 -109 242 0
21 -82 103 0
53 -326 -329 0
14 141 -244 0
-227 -341 -345 0
-189 -264 328 0
205 -234 292 0
12 104 -138 0
-72 125 248 0
89 -146 -315 0
104 -202 280 0
-40 -133 -233 0
175 -252 271 0
43 46 -117 0
51 111 -123 0
-39 92 -145 0
21 -25 -189 0
-173 -278 318 0
-13 282 -347 0
43 90 207 0
42 139 -187 0
121 199 -301 0
-104 227 306 0
-139 -333 342 0
92 -162 283 0
-60 -219 343 0
113 118 242 0
-117 -143 -208 0
14 -120 -148 0
-217 -264 273 0
205 -231 331 0
-26 180 -342 0
58 59 -238 0
-15 -98 112 0
11 -78 -200 0
-90 -176 225 0
96 133 -326 0
-182 -290 -341 0
-195 -333 341 0
-20 -194 242 0
87 230 307 0
-73 114 -151 0
-96 -146 308 0
-86 -169 219 0
-216 -241 285 0
20 -92 -212 0
61 114 -151 0
-41 -201 330 0
-22 -100 271 0
133 251 281 0
42 -220 -275 0
-72 145 335 0
-70 128 254 0
-181 297 -304 0
49 233 -326 0
109 286 343 0
-2 -37 183 0
-77 91 -126 0
146 258 290 0
32 56 -212 0
78 120 -231 0
13 24 223 0
-16 192 347 0
226 254 -311 0
-26 92 -344 0
-26 -96 258 0
-148 -243 -346 0
-13 -279 -290 0
-232 -260 301 0
189 -313 346 0
-86 -138 -242 0
4 220 254 0
-192 284 310 0
83 125 275 0
93 -148 301 0
58 278 343 0
-84 -89 330 0
-47 62 -305 0
-71 -152 -260 0
203 227 -328 0
16 -37 91 0
62 -259 -348 0
46 -189 255 0
17 -91 -213 0
-41 89 -216 0
180 -294 -310 0
186 219 256 0
-83 218 -228 0
75 -183 -286 0
-15 -153 -230 0
137 -176 222 0
-6 -49 230 0
-4 131 -257 0
-13 163 233 0
132 147 -280 0
80 -190 349 0
94 -99 331 0
-43 274 341 0
-19 -139 165 0
-106 -140 335 0
156 248 -260 0
236 -267 -335 0
53 -236 -237 0
-190 -233 -306 0
120 188 307 0
-3 244 -338 0
18 27 -124 0
180 -183 -262 0
75 -193 223 0
-119 221 -330 0
-33 -159 238 0
-28 -77 -234 0
-30 98 -340 0
94 -128 217 0
-123 -135 271 0
-4 10 123 0
21 262 -316 0
-122 223 284 0
59 116 143 0
32 219 -266 0
1 29 216 0
39 -256 287 0
-16 213 -254 0
48 -268 312 0
165 -321 345 0
108 -149 -155 0
-166 173 260 0
42 -80 209 0
22 -94 108 0
66 -298 -323 0
-63 -196 -343 0
-39 -150 -333 0
6 77 223 0
-132 171 197 0
12 -26 92 0
43 -218 -297 0
-226 256 -291 0
86 155 301 0
91 -146 -215 0
-81 -151 171 0
251 -262 326 0
-110 -180 250 0
-49 -87 233 0
63 200 -339 0
37 63 -236 0
-30 -97 -153 0
50 216 277 0
147 -206 -329 0
34 -73 292 0
14 32 -98 0
-118 -202 315 0
93 -143 -181 0
194 -253 -265 0
40 -166 281 0
-12 -151 -205 0
142 -216 -275 0
128 -142 -332 0
-66 278 346 0
193 -269 330 0
-171 -193 -239 0
-215 -313 -314 0
-52 116 -210 0
119 266 331 0
-47 -61 254 0
144 -259 335 0
141 -164 219 0
-11 141 313 0
-147 165 188 0
-97 141 200 0
246 -250 -298 0
244 319 332 0
182 -280 -303 0
-23 -74 341 0
-5 -25 -81 0
113 -115 -319 0
149 193 -219 0
-9 -20 285 0
-152 204 -226 0
-123 309 337 0
-131 -266 -293 0
-44 111 -299 0
-179 285 317 0
-29 147 -309 0
103 174 186 0
-123 236 -293 0
189 -233 238 0
90 148 -292 0
99 -123 276 0
-10 50 272 0
6 -19 -233 0
81 -182 -196 0
-97 -103 -106 0
34 -119 206 0
-78 202 245 0
113 211 -319 0
-24 314 323 0
-6 -41 -133 0
-238 -315 -333 0
97 -122 183 0
-238 -240 327 0
55 -139 153 0
161 176 247 0
48 59 -200 0
7 132 -264 0
96 -153 282 0
-248 319 -345 0
57 -194 -289 0
-114 171 313 0
49 -179 -281 0
-92 -165 336 0
7 -64 -89 0
-96 164 212 0
169 242 -331 0
-4 -78 -299 0
14 -270 -285 0
44 125 333 0
85 -160 -172 0
-191 300 -318 0
116 -334 343 0
10 -38 349 0
-113 296 -312 0
-7 9 -29 0
-80 118 281 0
-70 -144 297 0
-93 -100 139 0
55 -109 -326 0
-18 223 -271 0
-11 -77 -155 0
-131 -263 -315 0
-35 43 -71 0
26 209 316 0
-49 -118 -155 0
101 117 -318 0
-262 276 -330 0
51 -110 271 0
3 -222 255 0
6 -72 200 0
-70 -125 248 0
-44 106 -245 0
-32 -162 219 0
17 174 -200 0
-195 -198 -344 0
46 -159 -321 0
-46 -210 329 0
198 204 -212 0
-36 -59 -201 0
-26 97 -300 0
15 -152 249 0
-102 234 271 0
192 -255 -326 0
-4 198 -345 0
-7 84 234 0
49 -216 -266 0
58 206 -343 0
-32 189 -290 0
11 126 -221 0
32 99 312 0
74 -158 -272 0
133 -280 -285 0
-32 196 215 0
-20 -66 236 0
133 278 287 0
-147 -269 -280 0
119 -282 -348 0
1 -80 250 0
35 122 281 0
-90 -260 -322 0
-51 -245 -323 0
155 -183 -217 0
-29 34 -242 0
153 -202 258 0
-82 -114 197 0
-119 164 -249 0
98 -174 274 0
271 -294 -317 0
-67 105 168 0
-22 -110 -136 0
48 131 -170 0
-141 297 327 0
-49 -62 -260 0
36 57 -236 0
-10 -135 254 0
-67 -261 -325 0
-129 257 274 0
145 146 291 0
-48 -110 -195 0
-118 -268 332 0
-83 226 266 0
124 151 315 0
5 12 -128 0
-131 -303 325 0
-125 -201 -209 0
97 163 191 0
-46 -86 228 0
20 -145 -149 0
21 -165 302 0
-152 -176 251 0
63 207 263 0
46 -132 154 0
6 -127 -257 0
-106 113 -231 0
57 159 214 0
-171 -241 273 0
38 135 -176 0
57 243 -337 0
6 -193 -340 0
178 -222 -249 0
-172 184 255 0
57 99 -219 0
114 -287 345 0
-53 262 -342 0
21 71 180 0
-74 94 -190 0
186 249 311 0
66 234 243 0
162 -196 210 0
168 289 312 0
168 210 340 0
261 -269 -341 0
-130 161 342 0
-26 120 194 0
18 -235 -276 0
-56 -310 339 0
-97 110 -319 0
173 -192 250 0
-14 64 -309 0
194 278 344 0
-68 255 -347 0
-128 -172 -244 0
56 131 -289 0
-77 180 -334 0
-28 -63 130 0
-61 -226 -348 0
-159 -162 -226 0
-76 -186 -344 0
81 -117 325 0
-162 -328 338 0
63 124 253 0
217 245 -262 0
100 -220 -265 0
-123 -186 343 0
-122 -123 -167 0
144 170 -211 0
225 -291 -332 0
-66 -84 270 0
-4 85 283 0
85 104 163 0
7 -96 -196 0
7 -20 -262 0
-135 -182 249 0
12 110 276 0
-50 89 200 0
40 -271 348 0
97 -133 -254 0
-40 -100 -332 0
51 -170 240 0
164 204 -219 0
54 -220 302 0
22 -43 -253 0
-17 84 115 0
139 239 -305 0
-65 -162 243 0
-1 145 321 0
13 157 -211 0
200 252 261 0
228 303 333 0
-133 255 288 0
-48 171 -181 0
-36 129 -185 0
-57 246 -256 0
211 315 -327 0
-95 -143 -168 0
13 98 -200 0
-107 255 263 0
-124 207 210 0
-139 259 -262 0
34 135 246 0
-126 -238 -295 0
91 233 -274 0
-30 -244 320 0
-113 -203 293 0
55 126 -336 0
50 -60 242 0
-179 -282 294 0
13 94 124 0
69 81 -261 0
5 88 -311 0
-192 -214 -232 0
109 -120 192 0
156 -185 299 0
-149 217 -288 0
-132 185 -293 0
-104 114 -292 0
-162 -168 194 0
-24 -167 -280 0
128 134 152 0
-106 -123 346 0
-19 119 -133 0
-280 282 301 0
92 -111 292 0
-91 179 186 0
125 -257 -269 0
-155 -191 -335 0
-92 224 -285 0
27 -87 -278 0
21 -100 -151 0
44 -120 -137 0
82 105 314 0
59 289 -331 0
-5 -67 -164 0
125 151 -247 0
-28 -152 304 0
-23 227 274 0
-29 -297 -305 0
-185 252 257 0
143 144 332 0
13 39 -235 0
7 99 348 0
-71 -72 164 0
63 203 231 0
-10 103 -320 0
47 -80 -140 0
46 169 -214 0
-71 -224 252 0
4 -115 -173 0
-117 182 -258 0
1 47 339 0
235 245 -325 0
51 89 -302 0
-88 -252 -296 0
-38 -169 -203 0
-127 -196 218 0
-15 213 -217 0
-144 -280 321 0
-6 -77 251 0
137 -181 195 0
-99 144 -241 0
-14 -58 -258 0
114 311 344 0
-232 321 350 0
-56 95 -200 0
58 -129 -179 0
-37 217 256 0
-80 143 242 0
-140 -281 -322 0
22 236 239 0
-48 -111 -252 0
-177 -210 -217 0
-25 233 -331 0
27 62 233 0
-89 183 -207 0
137 -142 243 0
260 273 -331 0
57 -113 254 0
80 182 250 0
74 160 250 0
145 148 -189 0
167 270 -317 0
-207 245 258 0
100 119 332 0
83 285 -303 0
-15 -223 -233 0
33 36 -303 0
22 119 338 0
213 -314 -338 0
120 168 -332 0
47 281 -288 0
27 150 343 0
-153 -237 247 0
105 -283 -333 0
19 59 171 0
141 145 -318 0
-70 -191 -233 0
207 -238 -251 0
92 276 -281 0
94 -292 -344 0
-11 -164 183 0
-26 -118 236 0
-23 -58 -167 0
15 -29 169 0
64 129 343 0
79 97 348 0
25 28 138 0
9 -212 -330 0
62 206 241 0
-45 -123 260 0
-117 -212 -312 0
131 -211 -249 0
44 -89 216 0
-129 -190 279 0
72 97 277 0
58 -108 169 0
87 -199 252 0
-33 -178 -188 0
94 -141 335 0
-97 199 243 0
-236 -259 297 0
-44 54 -289 0
64 -158 167 0
119 154 176 0
-12 -119 -169 0
17 -211 260 0
-138 -291 -316 0
-119 -237 299 0
21 178 203 0
-96 167 -180 0
-115 -270 272 0
35 -195 246 0
131 -135 -237 0
-144 178 -272 0
5 -135 -262 0
50 85 -258 0
-43 289 -347 0
-68 169 274 0
106 -191 262 0
106 -192 -315 0
32 -138 -204 0
103 152 -305 0
36 -56 318 0
15 65 186 0
-90 -100 231 0
-220 251 -332 0
-163 287 -322 0
-243 270 333 0
144 -178 284 0
-91 158 314 0
-48 -72 -259 0
85 -169 220 0
10 -37 -332 0
-2 4 303 0
13 -54 -188 0
-174 295 -302 0
-48 -125 -222 0
202 -216 -257 0
-195 -245 -284 0
185 -249 -290 0
58 221 -295 0
-257 -278 -320 0
-151 160 -270 0
-20 -177 281 0
-45 -144 293 0
53 77 -110 0
72 177 -350 0
-205 -222 -283 0
78 94 -260 0
-11 268 301 0
-135 189 -326 0
152 -190 -255 0
-199 255 -282 0
183 189 326 0
-139 -275 -318 0
178 -192 -342 0
98 197 243 0
-227 254 -347 0
17 -145 -320 0
-50 118 242 0
-73 103 -312 0
-83 -278 342 0
-50 -285 330 0
125 -187 261 0
-110 156 -258 0
-88 -177 -189 0
195 216 -243 0
3 9 -345 0
-151 -247 275 0
59 200 -224 0
-113 -237 345 0
80 168 281 0
12 224 296 0
-181 218 -257 0
42 229 -231 0
91 -107 220 0
-1 42 -326 0
117 137 -174 0
6 18 199 0
-77 -158 -284 0
-200 207 255 0
-87 236 323 0
-68 188 -239 0
-6 -172 -208 0
8 -297 327 0
-141 170 206 0
-188 -219 230 0
93 209 -303 0
-70 148 -314 0
9 -170 -323 0
17 -30 -329 0
172 -199 203 0
-28 -108 220 0
-118 156 -212 0
26 -164 289 0
-52 66 -170 0
-33 -54 66 0
-10 41 133 0
185 211 218 0
-46 232 -236 0
-6 -28 308 0
168 -222 330 0
-210 261 -327 0
20 -131 249 0
202 -238 -324 0
-33 -124 170 0
11 203 -232 0
8 -181 -303 0
8 -141 -213 0
14 216 230 0
-106 111 -287 0
23 -84 -255 0
49 109 -120 0
10 -69 -211 0
-63 -106 217 0
89 -103 236 0
46 86 235 0
-90 219 -315 0
-14 121 292 0
165 264 -322 0
2 -117 -228 0
-41 -123 -157 0
184 221 231 0
118 -162 327 0
-31 282 323 0
13 -214 -328 0
-111 -259 -340 0
-65 142 278 0
-6 -8 -113 0
-65 168 -260 0
-79 -150 -350 0
-100 -269 -308 0
16 273 -302 0
124 196 345 0
-61 -133 285 0
116 149 297 0
-122 135 217 0
-191 -251 -253 0
-49 -166 281 0
215 254 -316 0
-56 175 -323 0
-121 -254 -295 0
-107 -155 304 0
223 311 -328 0
-7 -159 314 0
-61 65 241 0
97 142 -284 0
71 100 -172 0
65 -147 -270 0
-152 175 288 0
107 -179 239 0
93 146 -268 0
-143 187 -320 0
-162 -307 -316 0
-20 26 -267 0
151 176 -290 0
16 -26 -64 0
-37 -76 -302 0
34 216 -341 0
21 -83 -138 0
-206 230 -251 0
-181 276 -289 0
-14 92 179 0
-130 -290 306 0
56 -175 228 0
-8 -77 -82 0
-105 256 325 0
-45 -104 -269 0
43 -153 -286 0
-48 -150 215 0
-126 224 242 0
-1 336 343 0
-32 -58 -194 0
26 -168 339 0
154 -237 287 0
-104 -220 -262 0
40 -64 -269 0
28 -146 -154 0
2 -82 243 0
39 -90 216 0
-22 -55 -270 0
-156 178 340 0
96 327 332 0
-54 -121 271 0
35 -184 -304 0
110 -111 281 0
61 -81 -321 0
-117 225 323 0
14 148 284 0
-54 -173 -178 0
-6 -115 -205 0
-148 230 321 0
-65 -248 302 0
56 -85 215 0
175 -249 -250 0
-27 65 159 0
67 110 282 0
46 -99 -183 0
150 227 -240 0
180 -262 -270 0
117 127 186 0
121 207 -208 0
-111 141 311 0
-120 300 308 0
-2 64 158 0
45 -326 -330 0
47 -128 -191 0
-10 -15 -198 0
-25 -263 -289 0
-47 126 269 0
-179 269 276 0
210 290 309 0
-10 -260 294 0
-50 130 157 0
133 202 261 0
33 -54 -292 0
-45 77 -160 0
7 -178 -345 0
224 -288 -302 0
92 179 305 0
5 54 -278 0
-90 -195 304 0
-107 -161 180 0
240 268 346 0
-192 -222 -322 0
-45 -154 311 0
-168 179 -333 0
108 -190 317 0
-117 222 247 0
-177 -201 -344 0
-136 -147 -340 0
31 -178 207 0
-142 -215 227 0
50 225 346 0
-92 101 260 0
-28 116 304 0
-16 -293 -313 0
93 231 -338 0
-74 -127 328 0
-193 -260 -298 0
172 231 263 0
-27 294 324 0
-20 -207 266 0
111 -115 -311 0
72 -84 -267 0
175 -276 296 0
-107 277 312 0
-30 -108 299 0
100 -103 -314 0
-126 148 206 0
16 -29 103 0
89 168 198 0
-75 -231 304 0
126 -156 255 0
-114 -211 -311 0
26 123 269 0
-326 -343 -346 0
-156 -273 274 0
80 291 -318 0
13 136 265 0
20 219 262 0
-93 164 -190 0
-199 -295 331 0
-121 194 -310 0
-77 -193 266 0
114 148 -155 0
191 -256 299 0
-173 -218 -322 0
22 -42 281 0
60 -88 260 0
21 -32 133 0
194 -228 -346 0
41 -137 189 0
155 -268 298 0
-187 -249 -286 0
55 -87 -218 0
2 -149 -245 0
146 -201 289 0
88 -145 194 0
-20 -49 -311 0
19 119 -317 0
-112 207 219 0
68 -81 317 0
89 -117 347 0
-68 213 218 0
125 166 181 0
29 74 -257 0
41 265 317 0
107 -149 -288 0
-23 100 -170 0
176 -229 337 0
-30 -87 152 0
39 192 -319 0
19 -215 246 0
126 -238 -321 0
90 -236 -238 0
161 -267 348 0
10 176 -302 0
-190 261 296 0
-64 -147 194 0
-64 294 -348 0
196 237 -282 0
-37 52 -218 0
74 110 307 0
-65 109 175 0
-17 -112 228 0
213 253 327 0
94 -231 307 0
-237 266 -331 0
-112 177 -258 0
20 44 -123 0
-6 137 211 0
-69 -257 329 0
147 185 -299 0
39 68 150 0
72 233 -279 0
-98 -109 151 0
15 151 -163 0
86 119 -333 0
169 -176 -293 0
-105 174 -199 0
-70 131 344 0
31 -103 185 0
157 215 293 0
-190 -205 -247 0
192 -308 328 0
-27 -239 -337 0
-66 -189 -285 0
-133 206 -297 0
-2 198 -340 0
9 43 219 0
4 149 -349 0
61 106 -268 0
-54 -181 -284 0
115 -264 -293 0
69 -137 -171 0
-136 231 250 0
185 245 315 0
209 -223 323 0
-97 307 -344 0
24 -62 200 0
-122 198 -290 0
229 310 -346 0
-11 -56 -98 0
-184 237 -306 0
165 195 207 0
19 38 -240 0
12 -122 199 0
-168 -203 216 0
155 157 -173 0
-182 231 -256 0
168 -181 223 0
-102 -198 224 0
-119 142 273 0
-32 -102 -280 0
-186 299 345 0
215 221 -259 0
-135 -155 -167 0
60 -180 -244 0
-177 303 315 0
39 -235 -276 0
32 88 155 0
25 -218 283 0
-121 -221 -328 0
20 -202 251 0
93 -150 -349 0
194 211 345 0
105 298 348 0
-182 190 297 0
-1 -22 -333 0
-66 117 -309 0
47 -151 282 0
25 -189 -317 0
-22 84 -184 0
-166 -211 -275 0
70 81 127 0
-45 -141 265 0
105 -225 318 0
-70 -235 238 0
234 -251 339 0
196 219 274 0
146 290 -298 0
25 -98 -157 0
58 126 -184 0
76 129 -323 0
96 -195 -325 0
-109 111 124 0
85 284 290 0
77 139 -255 0
-75 -135 -210 0
94 220 -303 0
-160 179 -321 0
-42 144 -326 0
44 187 190 0
32 96 322 0
28 -288 -343 0
-98 -170 336 0
-263 288 290 0
-13 -113 -267 0
-28 -184 -324 0
-167 201 210 0
-9 -39 86 0
-123 261 -327 0
123 -196 318 0
-66 -121 -242 0
76 218 -321 0
65 107 -236 0
5 -93 -309 0
177 280 290 0
2 -205 277 0
-156 -232 340 0
241 313 -331 0
22 93 -200 0
-50 91 -159 0
-45 172 192 0
21 -310 -328 0
-5 -165 -336 0
225 260 340 0
-2 -66 93 0
-94 -201 -259 0
-97 119 145 0
65 -99 -279 0
-88 301 -323 0
-36 -159 -312 0
26 48 -66 0
58 -87 -148 0
-17 70 297 0
220 -261 -317 0
73 -288 323 0
-22 -178 293 0
10 -75 218 0
-10 -208 231 0
53 -242 326 0
-172 -210 -293 0
183 -227 -294 0
-31 -54 320 0
179 -248 -271 0
-153 -181 -206 0
10 -222 348 0
-139 160 236 0
-18 21 -45 0
64 -141 295 0
-115 -203 -250 0
47 -326 337 0
294 -304 324 0
-83 325 -338 0
161 200 304 0
189 -227 336 0
5 -280 300 0
-14 -125 289 0
-77 -217 280 0
28 201 -319 0
128 -256 260 0
-73 154 -246 0
-30 -34 -201 0
-49 87 210 0
187 249 -257 0
-1 -169 -208 0
-55 -283 -301 0
-8 -27 296 0
-135 335 -336 0
172 -267 -316 0
116 120 -169 0
-38 -235 -350 0
106 -170 183 0
285 290 -311 0
-174 -310 -333 0
-89 116 -193 0
119 -147 -178 0
-26 -66 -344 0
141 160 296 0
-64 -166 260 0
71 197 -308 0
37 135 -207 0
-64 -215 -249 0
40 -127 -177 0
78 149 -254 0
-131 -159 169 0
30 -114 262 0
-176 237 -267 0
110 -120 138 0
-41 -44 120 0
-3 154 337 0
-73 76 -168 0
69 275 317 0
-34 -101 -330 0
29 -224 349 0
-37 78 -166 0
-178 -190 -260 0
68 -188 278 0
-55 -64 149 0
-79 219 -280 0
148 -154 -306 0
-57 -59 -112 0
65 -166 -182 0
74 -267 313 0
-6 273 309 0
75 -159 309 0
-18 49 180 0
-129 -188 289 0
101 147 -226 0
-132 -154 221 0
-47 -272 280 0
-28 230 -271 0
202 -282 332 0
16 28 157 0
-118 173 334 0
169 -201 -255 0
-269 -341 -343 0
57 167 -305 0
-120 168 234 0
222 -284 -289 0
-62 87 -224 0
-13 -47 231 0
-80 -127 346 0
124 -158 -320 0
13 92 -167 0
-2 66 -336 0
-65 123 319 0
-75 -246 274 0
69 -149 266 0
158 -250 -331 0
3 242 274 0
25 -231 302 0
55 -321 -339 0
-43 -292 326 0
-9 -285 299 0
-79 220 -255 0
-207 267 334 0
145 248 258 0
-120 -152 280 0
20 -55 -152 0
163 -213 274 0
-34 -223 312 0
98 119 -336 0
139 140 238 0
-49 -152 -177 0
-281 299 318 0
196 265 -350 0
120 -223 -257 0
-5 -116 210 0
-33 -78 310 0
-19 34 219 0
-149 207 226 0
-9 52 -211 0
82 100 293 0
33 -42 -94 0
-55 -175 -195 0
-165 173 -182 0
-63 96 124 0
11 32 75 0
-70 -224 -309 0
149 311 339 0
-55 -178 304 0
-132 -150 -238 0
13 -261 344 0
108 202 324 0
-3 276 325 0
-44 104 161 0
-180 303 -334 0
140 -220 -348 0
169 -267 -317 0
-74 180 -225 0
141 189 284 0
43 51 77 0
-118 119 -289 0
-14 68 180 0
167 176 -197 0
132 339 344 0
-233 -256 298 0
16 -33 -207 0
-27 -87 -215 0
67 175 -312 0
72 93 -131 0
-64 180 -197 0
97 176 -294 0
69 110 123 0
26 -101 -249 0
140 158 -252 0
-171 240 279 0
-63 180 329 0
-56 171 243 0
35 121 -172 0
-61 89 -326 0
-41 194 222 0
-118 126 220 0
55 90 280 0
-64 -302 335 0
62 -248 329 0
-96 99 -158 0
-67 -229 -230 0
62 280 -286 0
-128 -235 265 0
-98 192 308 0
-111 -112 -256 0
141 199 300 0
77 -259 262 0
-139 246 -289 0
-15 -128 -157 0
40 -186 -210 0
-272 -286 297 0
66 232 -263 0
-25 160 -290 0
81 172 -336 0
105 197 -342 0
109 149 -255 0
101 -240 -338 0
-52 57 269 0
-186 -230 -343 0
23 -159 249 0
189 217 330 0
90 240 294 0
138 -312 321 0
115 -280 305 0
-56 114 152 0
104 128 -168 0
-69 -112 180 0
139 276 340 0
-204 -329 -340 0
-201 -212 -282 0
-104 118 -261 0
-37 -203 -206 0
3 208 258 0
60 -132 -250 0
33 220 -267 0
-45 -255 307 0
-208 -233 -288 0
-221 262 -309 0
-21 -211 -220 0
-40 -151 218 0
-85 -132 -264 0
73 130 175 0
50 -275 -339 0
-90 -253 -321 0
17 -139 331 0
-127 180 253 0
7 -252 -270 0
-118 -127 -204 0
-28 126 329 0
-120 -137 231 0
10 -35 94 0
-102 -295 -319 0
17 -92 -284 0
286 316 337 0
79 -116 292 0
126 -273 274 0
84 -229 -342 0
-32 -144 215 0
256 -273 -291 0
-29 -196 -271 0
1 -231 -346 0
-29 -75 -195 0
-49 -191 227 0
82 186 -341 0
84 236 299 0
41 -133 329 0
-10 -161 -192 0
224 -261 298 0
177 280 288 0
156 -187 190 0
-95 -113 -124 0
-23 190 -225 0
65 -96 320 0
-112 166 310 0
-114 -115 -161 0
169 303 -313 0
-49 255 263 0
63 241 -254 0
49 183 281 0
-159 -169 -174 0
164 -220 -315 0
-180 261 346 0
172 202 282 0
57 165 -338 0
-46 60 93 0
182 221 324 0
57 66 -71 0
56 -195 240 0
-59 67 -312 0
-27 61 231 0
-117 -198 342 0
-255 -267 299 0
89 -172 264 0
74 -135 -173 0
-187 -247 -282 0
124 186 288 0
116 180 282 0
77 113 -272 0
11 50 -218 0
-128 -148 -186 0
13 -230 -290 0
71 134 -138 0
-101 -197 318 0
-115 155 270 0
47 138 -307 0
92 178 280 0
93 -245 -301 0
-31 -212 -260 0
93 -337 -339 0
-86 158 344 0
140 163 -279 0
29 -175 -325 0
18 209 242 0
116 139 207 0
43 -73 256 0
133 -143 -258 0
42 138 -320 0
-186 -284 -322 0
97 179 -277 0
-136 -166 -205 0
55 183 -318 0
33 187 -233 0
-38 -169 285 0
46 93 328 0
-70 89 114 0
12 78 -273 0
-31 -280 306 0
22 -221 239 0
-22 -125 -297 0
-42 57 63 0
49 94 -142 0
-41 136 181 0
77 -254 -305 0
-162 -330 348 0
-62 -143 347 0
-29 270 -274 0
3 113 156 0
-99 117 -259 0
95 158 -163 0
68 131 -216 0
7 178 -316 0
154 163 -273 0
274 -289 -342 0
156 171 -348 0
83 -244 253 0
50 -336 344 0
-4 142 -279 0
-39 -247 322 0
-85 201 -256 0
-12 -94 332 0
73 137 234 0
-15 -114 250 0
