c F2 random 3-CNF cnfgen RandomKCNF(3,400,2000,seed=5) m/n=5.0
p cnf 400 2000
-131 319 -380 0
128 333 398 0
-127 191 241 0
-7 -111 375 0
82 200 -393 0
1 65 68 0
-85 86 149 0
-94 -101 354 0
85 -185 213 0
155 -170 309 0
-157 -159 182 0
242 247 -361 0
-12 184 -384 0
188 -193 297 0
93 320 363 0
-177 -237 -263 0
-56 -302 384 0
-47 -107 222 0
142 -175 -360 0
41 -91 -157 0
25 -83 369 0
-122 -305 -380 0
75 216 -334 0
67 -107 172 0
87 191 -223 0
73 -151 -233 0
-163 -353 -374 0
76 -207 241 0
174 256 -322 0
-140 264 -281 0
301 -340 -356 0
-287 -343 -361 0
-354 -367 395 0
-6 -243 -298 0
-148 -238 -257 0
-177 -330 378 0
-187 231 353 0
-102 186 -245 0
-88 -316 -400 0
15 -101 369 0
113 352 -389 0
28 85 -116 0
93 -100 -248 0
180 195 340 0
-1 -192 -368 0
-59 210 -353 0
-49 -152 -280 0
-67 -210 215 0
-81 196 306 0
47 -180 312 0
167 -290 -315 0
-116 -220 -222 0
195 -197 -363 0
129 -213 -255 0
-74 147 252 0
228 -319 338 0
-7 -70 201 0
-19 -126 243 0
-147 -151 370 0
-9 -65 -390 0
152 -315 -375 0
185 350 382 0
130 234 284 0
-219 -220 -399 0
201 -350 -369 0
34 -156 -389 0
-242 332 400 0
-245 -282 356 0
218 278 300 0
33 -44 -137 0
-36 208 360 0
63 113 -315 0
77 225 -362 0
35 83 319 0
195 -339 382 0
-61 293 295 0
-47 -162 -222 0
29 -192 336 0
-292 324 -348 0
-33 -121 283 0
-121 191 233 0
-10 336 366 0
-47 64 -260 0
166 237 -246 0
28 78 220 0
109 -252 -341 0
-121 -149 -171 0
-70 -184 -371 0
19 265 -304 0
19 33 50 0
-21 -101 251 0
-154 -219 -241 0
52 99 237 0
192 -198 241 0
-83 143 385 0
-17 -177 247 0
-12 -345 353 0
-61 -167 343 0
18 84 374 0
-41 -317 -337 0
-95 186 -240 0
84 124 398 0
-221 312 -331 0
-32 232 399 0
-18 266 281 0
-48 122 252 0
-26 255 330 0
-131 209 229 0
-92 100 357 0
44 56 161 0
110 -320 -374 0
-217 250 293 0
-158 353 388 0
72 -160 -248 0
67 -68 161 0
44 -220 357 0
128 253 -359 0
-37 -51 -192 0
285 -386 394 0
15 227 295 0
138 -219 360 0
34 157 -165 0
-166 255 347 0
278 379 392 0
-26 -67 183 0
119 -220 271 0
7 170 184 0
138 272 -311 0
220 -223 -392 0
-117 229 -237 0
25 -343 -393 0
1 -54 306 0
1 -17 -107 0
111 -202 238 0
-156 265 -288 0
128 -181 -340 0
-74 -123 179 0
49 -87 204 0
-166 245 387 0
6 193 -353 0
12 -163 -348 0
-244 -257 280 0
-76 214 275 0
40 146 -147 0
-298 -313 389 0
121 141 367 0
154 -180 344 0
-62 -123 176 0
194 200 -344 0
-56 166 198 0
-109 151 157 0
40 212 324 0
-290 -292 321 0
218 -248 -271 0
-44 144 -310 0
-16 60 -77 0
98 -167 305 0
32 -71 249 0
197 -240 331 0
1 100 345 0
78 -172 -189 0
94 -366 395 0
-34 -101 106 0
235 349 -381 0
193 239 -279 0
-2 -68 -351 0
-37 252 381 0
182 -246 -385 0
73 149 -256 0
-33 173 209 0
122 139 -216 0
-50 245 -284 0
-48 126 232 0
-3 73 393 0
-129 235 288 0
100 -112 227 0
-143 307 352 0
-82 202 395 0
-13 -216 -395 0
-8 86 -388 0
98 -217 400 0
-98 202 -216 0
2 147 -187 0
-38 40 -352 0
77 -101 -332 0
-70 235 307 0
16 187 -317 0
-44 -68 137 0
78 -151 266 0
-55 -205 -330 0
-245 281 298 0
9 -135 280 0
122 247 341 0
109 215 -395 0
29 -123 -257 0
-11 -286 -398 0
-53 -64 -336 0
86 -155 194 0
-109 271 -377 0
192 -210 -283 0
2 -33 254 0
31 -46 380 0
-135 -175 192 0
-64 135 -380 0
86 -199 -322 0
71 -91 305 0
-5 23 234 0
-61 -211 302 0
57 275 357 0
-35 236 -367 0
-62 -208 -387 0
-1 -153 -154 0
80 -195 -336 0
106 235 -314 0
-41 -218 328 0
72 -101 -252 0
-9 -75 223 0
123 -285 -340 0
151 161 -316 0
-184 -218 265 0
60 -354 395 0
53 146 -324 0
-89 172 -326 0
50 -160 -169 0
33 -210 211 0
-21 49 -93 0
-37 116 -214 0
-56 -334 349 0
53 195 239 0
49 -276 -315 0
-59 -140 157 0
-69 108 264 0
167 271 -365 0
-28 -239 -329 0
-86 -146 -382 0
207 364 389 0
235 -356 374 0
69 -86 -128 0
238 -318 347 0
-129 153 298 0
-13 -106 -392 0
-145 267 -310 0
-69 -216 -269 0
66 149 396 0
-82 -160 -250 0
-237 -303 346 0
82 -254 -296 0
23 -117 192 0
87 104 -378 0
-53 198 -334 0
6 105 -337 0
157 223 -299 0
-283 286 -306 0
-2 76 -272 0
8 98 393 0
-225 -235 241 0
-13 358 394 0
228 258 -334 0
-52 103 274 0
2 -113 203 0
-97 -154 374 0
59 197 396 0
-76 207 -231 0
234 -269 394 0
-120 214 217 0
129 168 299 0
-49 -188 325 0
94 148 -322 0
-4 -54 381 0
78 189 -250 0
-136 -245 -388 0
-88 202 219 0
56 -151 246 0
-43 336 341 0
167 -209 -374 0
-22 394 399 0
329 349 -392 0
-111 -241 263 0
-143 218 316 0
-47 149 -303 0
50 -150 -212 0
-46 108 -176 0
-51 167 -255 0
30 -305 -359 0
-136 236 -258 0
-101 -212 337 0
-33 68 -225 0
187 216 309 0
-74 229 376 0
302 359 387 0
-150 -151 321 0
-18 222 -234 0
-262 -271 -356 0
-20 -91 188 0
-57 -140 225 0
-200 206 231 0
-278 -373 -383 0
89 -93 -211 0
100 -131 -318 0
61 147 194 0
-125 208 338 0
157 -284 -399 0
84 178 314 0
-17 140 256 0
115 -161 -170 0
9 17 358 0
62 160 356 0
-300 -379 -396 0
-87 -211 398 0
-90 124 -201 0
29 -119 241 0
-19 145 -249 0
62 76 -380 0
-124 189 315 0
-165 -268 -304 0
-111 -138 325 0
5 304 352 0
46 155 289 0
197 -332 341 0
87 -106 389 0
-157 225 323 0
239 -280 -302 0
8 155 268 0
-160 -195 -336 0
69 100 229 0
93 151 -256 0
-83 -142 367 0
160 181 328 0
-118 -144 -310 0
-35 203 -246 0
245 -342 370 0
-104 -259 396 0
189 -221 316 0
290 -315 318 0
214 -246 -252 0
227 252 -324 0
113 364 366 0
-229 334 398 0
8 250 358 0
-34 219 390 0
-11 -171 388 0
-84 -253 263 0
164 -301 395 0
-98 -105 -281 0
-118 124 -343 0
-120 -169 245 0
-1 187 224 0
122 -147 162 0
-54 -151 323 0
-269 273 323 0
-52 -54 342 0
-114 163 278 0
-218 221 334 0
-133 270 367 0
-4 158 161 0
-156 187 -284 0
-4 -219 -267 0
-51 244 379 0
54 -57 217 0
-243 267 345 0
13 -16 -364 0
-6 240 -346 0
108 -133 -253 0
36 -130 -137 0
24 240 344 0
120 218 -265 0
-33 121 352 0
229 -252 332 0
-59 -186 248 0
-166 237 343 0
-144 -264 338 0
-178 191 381 0
-196 -211 -265 0
113 211 -306 0
23 -49 -398 0
-59 344 -370 0
58 -113 -203 0
-81 -117 -179 0
160 168 253 0
168 236 -388 0
-46 153 -184 0
250 -258 358 0
139 202 225 0
81 -214 -387 0
-12 -14 395 0
113 -270 -359 0
-105 313 358 0
-148 -248 -310 0
-136 162 -368 0
203 -242 337 0
43 -56 299 0
-69 185 -255 0
-165 191 308 0
295 -302 364 0
-35 179 375 0
27 199 -392 0
-40 111 -389 0
2 52 -383 0
-255 259 298 0
-72 -249 281 0
-72 -322 334 0
17 -199 350 0
-184 -302 -352 0
-117 -168 -216 0
14 62 -370 0
-72 168 -169 0
39 140 200 0
37 264 345 0
-224 -256 387 0
98 189 -307 0
-18 -137 375 0
65 165 313 0
101 226 -323 0
-132 253 -254 0
-40 287 346 0
33 -296 327 0
5 -59 243 0
-122 193 359 0
58 -364 -392 0
-114 139 187 0
91 -99 -101 0
-9 140 351 0
-10 114 280 0
-89 135 -197 0
-103 135 -186 0
86 -251 371 0
-85 -268 349 0
39 59 -225 0
-186 379 -396 0
117 -242 338 0
-83 133 -277 0
-16 -24 138 0
57 -190 -299 0
261 -352 -353 0
199 -254 -362 0
109 131 -219 0
-174 189 220 0
-66 129 397 0
-41 86 99 0
-286 -310 -333 0
-61 -146 -195 0
43 126 -323 0
-120 -128 258 0
-181 216 -236 0
-41 177 -356 0
-34 337 -352 0
-15 91 277 0
-34 -227 256 0
123 -226 323 0
-52 -209 242 0
133 288 342 0
75 -349 -360 0
232 252 -327 0
20 -74 270 0
1 -151 398 0
-68 227 326 0
171 233 368 0
-99 -226 -367 0
-39 75 300 0
-42 -46 -54 0
-116 -120 -391 0
-36 -203 239 0
5 -70 -241 0
-37 -301 312 0
-44 239 -281 0
110 -201 -223 0
-103 116 -296 0
-221 279 -328 0
-183 -358 -374 0
-27 98 -344 0
88 -153 -296 0
-65 72 -173 0
-126 -127 203 0
-108 270 336 0
-260 -310 365 0
-46 141 -344 0
107 -355 -385 0
-78 189 265 0
145 159 226 0
42 54 -297 0
-223 -306 -372 0
-21 204 209 0
-104 195 260 0
46 -75 292 0
-383 -391 -396 0
32 -93 228 0
126 -178 293 0
-124 -293 329 0
113 -116 302 0
167 218 276 0
-155 -305 321 0
-138 -315 -323 0
5 25 330 0
97 137 252 0
-96 -101 170 0
63 -91 -180 0
84 214 -337 0
128 137 209 0
307 350 -357 0
-108 201 223 0
-231 310 -330 0
-141 -360 382 0
-29 -273 -396 0
48 -60 -370 0
37 -111 149 0
-90 122 258 0
12 -42 -354 0
62 -153 -215 0
29 278 -319 0
191 -365 -373 0
162 183 -313 0
81 220 -341 0
-132 -167 -232 0
-134 -261 353 0
139 -344 391 0
-17 -249 -328 0
-189 -234 -325 0
-152 285 -362 0
190 253 338 0
-143 236 -326 0
58 -78 101 0
163 -165 -373 0
-108 121 352 0
-272 -284 -347 0
22 241 -293 0
-39 -326 383 0
50 243 -279 0
-26 328 -381 0
18 57 -101 0
-41 208 -394 0
124 -296 351 0
-100 122 -195 0
198 291 -388 0
260 -316 -350 0
-42 -97 -256 0
-129 162 266 0
-57 279 302 0
59 296 -318 0
-14 376 -396 0
-15 -136 -290 0
-133 272 366 0
-146 -148 284 0
71 -242 292 0
-143 -290 -361 0
-32 278 -390 0
36 239 -359 0
-45 -198 396 0
20 -329 -378 0
-185 261 270 0
100 148 -187 0
-36 -90 396 0
30 42 -187 0
43 -69 -70 0
28 -107 -116 0
-37 373 398 0
73 87 -274 0
146 -379 387 0
-94 221 -252 0
-240 273 359 0
21 -123 268 0
23 93 -154 0
20 61 -159 0
-37 211 383 0
210 -350 384 0
263 347 -382 0
-109 -238 -321 0
143 -292 365 0
-103 119 245 0
27 -135 -295 0
74 -170 -189 0
76 -291 320 0
-20 -89 -215 0
223 -230 301 0
77 94 -386 0
25 -145 160 0
9 76 -353 0
16 67 -180 0
12 131 367 0
4 -63 -135 0
-25 -128 170 0
-224 344 -365 0
88 97 -287 0
-151 -204 -301 0
-93 173 371 0
-106 -239 394 0
25 -313 378 0
-48 -148 310 0
-33 -41 166 0
45 -229 323 0
97 -112 -374 0
91 -173 -284 0
68 -314 340 0
-257 -292 -397 0
169 -246 -388 0
268 -317 371 0
-43 290 -369 0
-16 -63 72 0
6 254 -378 0
-57 -171 356 0
-276 284 344 0
-24 234 323 0
-91 134 240 0
-6 101 279 0
-55 100 -342 0
21 36 389 0
-243 328 345 0
-77 -261 324 0
-209 234 372 0
114 -169 359 0
105 -177 292 0
-113 180 -365 0
-8 -20 -314 0
136 228 -236 0
-46 191 -298 0
-5 -154 -374 0
12 135 -313 0
-162 -172 315 0
-84 -175 257 0
-38 67 152 0
183 -244 339 0
-104 256 -364 0
83 121 -181 0
-47 79 -359 0
-178 316 329 0
59 -101 353 0
-125 229 231 0
240 259 -312 0
98 126 -217 0
-128 304 -311 0
177 -309 345 0
228 229 -292 0
-31 79 -134 0
57 264 -287 0
-138 294 -303 0
52 144 367 0
58 -153 -319 0
274 -321 330 0
-105 127 -318 0
57 96 -354 0
-20 185 339 0
-109 -129 -144 0
-50 204 -335 0
73 142 272 0
-123 -152 225 0
-166 -203 301 0
55 199 -384 0
-62 -105 -308 0
70 -104 -227 0
-13 -218 317 0
-271 305 -378 0
138 207 -384 0
293 322 381 0
-107 -195 328 0
-84 -228 245 0
183 278 -302 0
50 130 -363 0
-9 -16 -68 0
299 -321 378 0
-82 -110 376 0
76 187 -383 0
63 69 386 0
-81 -319 329 0
162 -243 -268 0
2 -10 -331 0
-58 -91 -189 0
60 -205 -321 0
268 341 383 0
100 133 328 0
56 -106 301 0
84 145 -288 0
12 53 155 0
-16 -131 372 0
-190 -266 -345 0
125 381 387 0
72 107 290 0
-200 312 346 0
-55 -173 -369 0
21 -56 -134 0
241 274 -300 0
-121 175 328 0
-5 -29 -104 0
-25 170 259 0
-70 -274 -342 0
80 279 315 0
89 167 262 0
79 243 316 0
34 337 369 0
-124 -140 400 0
92 195 -277 0
-41 62 148 0
10 302 339 0
-171 -213 -330 0
-30 -70 147 0
54 -212 265 0
-42 300 -381 0
235 376 383 0
14 -218 -329 0
91 339 348 0
55 87 -397 0
224 -226 314 0
113 -129 264 0
88 147 383 0
-72 -172 276 0
35 38 358 0
-61 -211 215 0
118 203 399 0
14 -43 331 0
55 219 359 0
-57 200 -337 0
-274 291 -293 0
-44 311 -359 0
101 -196 -342 0
-43 -156 -331 0
66 -356 -396 0
15 -51 -317 0
255 -313 -350 0
114 -163 -212 0
172 -296 318 0
-13 88 225 0
110 -154 370 0
-12 -56 57 0
105 219 393 0
-113 -222 -283 0
18 161 251 0
-22 108 120 0
42 160 -161 0
-43 57 -267 0
-221 -282 -378 0
-10 326 347 0
72 -379 -387 0
82 -255 -390 0
-47 364 366 0
43 -287 397 0
43 -89 -295 0
38 63 271 0
133 233 320 0
-28 65 -140 0
-171 -188 290 0
-109 -215 -383 0
-176 -314 338 0
-1 130 -229 0
-259 329 373 0
-104 -233 -313 0
334 392 -393 0
-3 -313 -381 0
87 -123 -182 0
142 255 -303 0
322 335 -393 0
42 57 -396 0
38 122 -240 0
-84 167 -265 0
-71 -167 281 0
-82 -252 -379 0
-51 -75 -287 0
-171 361 373 0
-296 -323 -343 0
-54 -223 353 0
86 164 167 0
-87 -179 -200 0
-38 -82 219 0
1 -11 323 0
137 231 -383 0
174 374 375 0
-138 -175 395 0
-165 -288 372 0
109 230 -395 0
105 226 394 0
-46 48 -277 0
-111 -176 367 0
87 -320 349 0
-99 286 -323 0
-46 342 363 0
63 -160 -228 0
-113 -255 -297 0
-30 -83 366 0
38 -217 378 0
37 -110 -130 0
-199 -277 329 0
36 293 -336 0
-15 163 231 0
213 222 -319 0
88 -313 -396 0
7 147 303 0
-93 175 -361 0
-48 -64 285 0
-256 -274 -365 0
14 356 -379 0
-45 153 372 0
-83 -379 -395 0
-251 -306 -390 0
-222 326 400 0
104 -139 182 0
58 303 392 0
-128 -142 376 0
-55 -100 -379 0
121 195 -311 0
-190 311 -382 0
-147 -160 -337 0
-107 -194 372 0
37 241 308 0
39 -210 -306 0
85 -301 313 0
-126 259 366 0
-51 98 -252 0
-41 -130 -377 0
-35 134 -381 0
271 -283 -358 0
122 194 -315 0
-7 -162 -214 0
-14 80 103 0
-371 -389 -395 0
105 119 -150 0
210 263 -266 0
-54 -225 -239 0
-80 -209 278 0
69 258 381 0
59 197 -199 0
-201 -267 -388 0
-26 271 362 0
-31 247 -255 0
-6 -51 -185 0
75 -224 -360 0
6 20 112 0
85 346 347 0
33 -290 382 0
155 -189 244 0
17 86 -145 0
-42 -261 372 0
90 -234 281 0
-139 -251 -261 0
-79 -279 -385 0
146 188 222 0
35 -41 273 0
-9 -23 281 0
107 312 395 0
15 103 -161 0
81 -216 357 0
-311 350 398 0
-71 126 163 0
257 299 -334 0
22 124 344 0
12 -204 271 0
-154 -221 362 0
44 207 379 0
247 307 394 0
4 26 -284 0
-72 166 300 0
51 236 267 0
-226 -284 342 0
-11 79 -365 0
91 175 327 0
-87 -226 271 0
-113 246 -299 0
-236 394 397 0
-83 -197 -370 0
240 -242 389 0
-130 159 -267 0
72 -286 299 0
238 261 381 0
120 -373 400 0
-158 250 -358 0
53 70 -278 0
-109 135 291 0
-112 -271 -294 0
7 -126 209 0
-226 -260 343 0
-102 166 -335 0
-11 126 -308 0
-73 -75 -267 0
-138 220 -384 0
16 64 280 0
-180 -267 -366 0
-168 181 -388 0
257 -353 -398 0
238 290 -323 0
30 -114 -202 0
136 164 -316 0
-157 278 395 0
-59 134 223 0
-138 -194 326 0
22 28 -195 0
-56 160 197 0
70 -104 381 0
-180 319 -396 0
-85 245 -322 0
-10 -29 -202 0
59 -192 397 0
-16 -305 -310 0
-36 -114 165 0
-30 213 315 0
96 118 363 0
300 -315 359 0
8 -351 388 0
-190 273 372 0
-72 373 -396 0
-219 -220 344 0
61 -176 177 0
-31 152 -333 0
-174 -183 319 0
118 -246 -314 0
-162 -211 378 0
-188 -259 -270 0
15 287 400 0
243 -258 -383 0
99 -303 327 0
-224 -291 -367 0
-26 256 317 0
36 296 325 0
54 206 -310 0
-123 143 -195 0
-151 262 -328 0
13 37 -300 0
-14 256 -259 0
-6 89 392 0
159 -304 -353 0
-117 -142 156 0
-70 -108 320 0
-91 -202 343 0
-29 -185 -394 0
247 -284 392 0
88 -101 -366 0
-18 -202 313 0
-97 120 -337 0
-156 275 377 0
17 -261 308 0
156 -208 287 0
108 202 377 0
-110 116 -354 0
-60 299 303 0
-133 -185 -274 0
116 -138 -204 0
68 -206 -370 0
263 -286 335 0
-15 184 -279 0
-18 -306 346 0
-40 87 -225 0
155 203 226 0
166 190 -368 0
104 -199 -323 0
-13 192 226 0
-56 -207 382 0
-10 30 -373 0
-57 -78 -374 0
21 62 393 0
-118 -173 -338 0
-10 -214 -360 0
6 28 346 0
-10 -142 398 0
-167 -226 -250 0
-30 -120 313 0
-26 -66 -101 0
-104 281 351 0
-108 -177 -265 0
40 -55 -112 0
-114 196 327 0
-15 35 -164 0
59 -176 -277 0
17 -109 -334 0
279 378 389 0
-131 -157 234 0
-100 -186 -273 0
36 184 -330 0
-123 159 -260 0
-22 114 306 0
63 69 141 0
158 -243 356 0
213 -263 321 0
17 -311 351 0
143 -269 346 0
9 -143 -294 0
27 -127 -149 0
-94 -219 389 0
60 241 -248 0
68 100 189 0
270 -280 365 0
-23 146 -298 0
-28 -282 -313 0
-53 -192 198 0
-93 -117 338 0
-15 -126 -270 0
83 199 208 0
-146 182 314 0
63 -244 282 0
172 -183 256 0
72 -164 238 0
34 77 345 0
108 -309 375 0
-14 336 -386 0
25 -376 -382 0
4 -155 317 0
89 -355 383 0
128 253 395 0
-13 155 -313 0
-63 -213 -245 0
-25 -277 -395 0
-109 136 -167 0
-84 242 -364 0
-144 -241 350 0
7 276 400 0
190 -363 393 0
69 273 363 0
-98 313 352 0
28 -218 -289 0
243 -261 333 0
8 85 121 0
21 181 -298 0
-53 68 -366 0
-79 127 254 0
49 -100 -115 0
-155 333 -335 0
31 -98 381 0
-7 134 255 0
-7 -234 -385 0
96 -162 197 0
57 -83 -291 0
203 216 327 0
-230 -307 -391 0
-41 157 -304 0
242 372 381 0
54 -113 309 0
66 -102 -239 0
146 -306 373 0
-176 -213 380 0
-66 -195 258 0
212 284 310 0
-216 -297 -302 0
21 -187 -237 0
43 263 -330 0
-135 191 245 0
11 352 354 0
-109 -124 -129 0
225 314 375 0
-282 -318 328 0
191 -315 -348 0
-158 -301 380 0
184 -239 399 0
-9 149 -388 0
-55 -266 326 0
-2 111 -246 0
-26 -106 324 0
-75 339 -387 0
-168 251 302 0
-98 219 315 0
-126 207 303 0
99 129 -200 0
101 -116 146 0
-63 270 -277 0
-313 384 385 0
-279 298 -320 0
50 51 -316 0
4 -80 -383 0
34 44 186 0
89 -234 263 0
-18 69 190 0
-15 -28 -248 0
-26 246 -308 0
-1 155 349 0
-183 -302 344 0
20 91 195 0
-35 -108 -124 0
-83 -157 -221 0
142 -196 -276 0
20 -175 324 0
90 290 313 0
-308 -346 395 0
118 -143 -390 0
45 194 -243 0
-182 -236 358 0
1 -57 -324 0
-36 -37 153 0
192 -224 -294 0
-94 97 -312 0
219 -320 -356 0
167 309 322 0
258 276 328 0
245 -291 393 0
-60 228 -261 0
9 217 -231 0
-123 199 269 0
-67 87 220 0
67 105 -332 0
-60 -105 -168 0
-29 201 -259 0
-163 -279 -341 0
-32 43 387 0
44 -279 -373 0
20 -24 131 0
12 -355 -359 0
-65 -91 -396 0
-187 278 343 0
222 -263 264 0
-24 155 318 0
-103 -194 -298 0
-103 -148 204 0
-23 69 366 0
-181 189 390 0
107 -282 -313 0
-4 -238 278 0
-6 102 214 0
-77 -350 -394 0
-79 -81 -258 0
64 -139 -316 0
-55 93 156 0
-26 -45 -359 0
283 295 363 0
-89 204 -386 0
-80 102 -198 0
-174 236 399 0
-17 27 220 0
-77 279 -333 0
27 299 -370 0
-28 -136 -152 0
-209 299 -308 0
-153 176 245 0
13 76 -276 0
-27 -192 -218 0
232 283 -305 0
-177 301 -366 0
-262 274 364 0
-214 -226 -272 0
18 -70 230 0
33 -195 -201 0
193 238 -240 0
216 -281 300 0
35 -74 -333 0
120 231 296 0
-4 55 195 0
329 -331 -387 0
66 78 -100 0
12 -73 -347 0
-136 -257 -376 0
182 -252 -386 0
-153 331 355 0
290 -353 380 0
131 229 316 0
78 -263 -369 0
26 -75 -354 0
164 166 -228 0
-154 279 -291 0
-53 -278 -333 0
-252 -278 -282 0
9 -160 -213 0
85 -151 187 0
31 -112 -293 0
-241 -318 -380 0
27 -48 -337 0
225 -315 360 0
-63 -153 286 0
-23 -230 315 0
13 78 213 0
-283 -370 -400 0
46 88 209 0
-87 -317 -340 0
-113 195 -276 0
64 339 -396 0
82 268 319 0
-169 -258 336 0
-78 -150 -200 0
-9 10 85 0
58 109 -371 0
-203 292 358 0
69 -133 328 0
-56 -88 139 0
130 -152 335 0
43 -350 367 0
-66 310 386 0
-152 -233 278 0
97 -279 -315 0
41 64 239 0
252 308 -359 0
-209 -234 258 0
264 -297 -359 0
7 262 281 0
-87 220 334 0
1 -225 -294 0
36 -76 78 0
-25 273 -382 0
118 179 -232 0
-94 349 371 0
127 263 327 0
79 -319 345 0
-16 175 366 0
-206 -289 355 0
161 213 353 0
-56 -184 -284 0
141 -239 284 0
-6 142 374 0
-340 346 374 0
97 -245 290 0
-142 -187 249 0
115 -142 265 0
13 102 -193 0
-88 -146 -205 0
-176 -197 -336 0
38 -44 394 0
-126 215 -240 0
-276 -319 -341 0
150 284 -321 0
113 -165 -358 0
-60 74 232 0
39 -118 351 0
-324 373 -392 0
-127 182 381 0
26 207 370 0
-221 306 -358 0
130 152 262 0
93 -160 171 0
15 -342 354 0
147 -153 395 0
-85 270 -387 0
-42 76 -111 0
339 386 398 0
44 45 -167 0
-78 91 -329 0
-26 -36 90 0
-81 122 -247 0
230 -241 -281 0
-190 336 364 0
-17 -25 56 0
-152 -364 394 0
-78 -106 308 0
-103 -212 298 0
-85 -118 -396 0
-103 191 -296 0
8 73 231 0
41 -296 -383 0
64 -79 -309 0
176 212 -238 0
-84 241 -369 0
47 -103 339 0
225 279 -282 0
-279 -348 364 0
-29 170 -295 0
132 -164 -294 0
107 -157 286 0
105 151 -238 0
23 155 -244 0
13 41 -367 0
84 211 -244 0
78 338 351 0
-175 -271 351 0
-88 -282 -388 0
232 -291 -298 0
-11 -119 220 0
-99 212 -234 0
80 217 -320 0
-23 240 -337 0
75 193 -222 0
43 -82 -372 0
110 -133 186 0
96 -242 -313 0
213 -291 330 0
-47 -149 -234 0
219 321 325 0
209 328 -350 0
-56 -155 -338 0
148 -185 -398 0
72 -182 -210 0
-44 96 244 0
-291 295 -313 0
62 198 -353 0
198 389 394 0
-242 280 -286 0
209 -248 -267 0
59 247 323 0
-61 241 -253 0
-120 201 371 0
-44 131 -288 0
132 204 363 0
-142 -169 226 0
-21 -176 393 0
76 185 341 0
-74 269 -298 0
128 -181 -260 0
115 263 291 0
-129 140 -307 0
87 111 -289 0
-185 -379 387 0
82 317 -357 0
-107 345 -400 0
-8 -71 -183 0
23 106 -315 0
-232 -280 -294 0
-16 33 -243 0
150 -174 313 0
-48 139 -213 0
-74 225 398 0
-133 -223 -290 0
125 -228 230 0
-104 -256 344 0
-50 54 215 0
68 265 277 0
53 -266 -294 0
-210 -257 273 0
-33 -169 -292 0
96 -169 191 0
-69 149 -274 0
83 130 228 0
20 54 -151 0
-197 -322 367 0
98 -250 388 0
25 -90 -169 0
-46 76 197 0
-81 -84 262 0
53 89 101 0
142 -262 328 0
100 166 265 0
15 -83 343 0
-309 -373 400 0
-192 203 396 0
-40 -181 -393 0
100 101 103 0
-49 -97 277 0
-174 -284 -394 0
15 -232 -387 0
-5 276 353 0
-2 -143 -295 0
-22 38 343 0
-312 -344 -352 0
-178 179 -242 0
-103 -212 222 0
-200 225 233 0
-24 140 -241 0
-182 -338 363 0
-30 51 -350 0
176 -345 396 0
16 -94 -388 0
-15 89 -351 0
-42 -270 316 0
-188 -192 -334 0
72 286 311 0
-27 -136 -227 0
-308 -326 399 0
-69 -223 373 0
-21 36 -78 0
94 307 -349 0
-20 -227 343 0
34 -85 374 0
79 -259 -385 0
-9 -70 204 0
82 168 -276 0
-42 -124 125 0
-26 -318 -357 0
111 -134 -223 0
281 368 397 0
28 -73 194 0
-205 -342 366 0
-161 -353 369 0
-47 -203 -333 0
-10 -271 376 0
-346 -354 394 0
-26 29 371 0
34 -136 -377 0
-3 -7 117 0
-66 79 97 0
261 -321 372 0
113 -171 -382 0
-100 251 266 0
-162 -212 290 0
-133 -240 -318 0
35 122 -165 0
89 -192 380 0
-112 -153 -378 0
5 -113 378 0
136 -241 345 0
67 -93 -370 0
39 -116 -378 0
-73 364 -387 0
-123 187 347 0
-73 -269 -314 0
-201 -311 -389 0
58 290 307 0
-15 271 -284 0
-37 58 162 0
4 -312 -360 0
225 -252 -352 0
8 13 214 0
59 271 -398 0
-139 -250 -308 0
300 -374 394 0
-5 -48 114 0
37 -119 -131 0
49 343 382 0
-157 -240 252 0
5 83 -146 0
62 104 -148 0
44 142 -167 0
-105 -274 391 0
-326 347 354 0
-8 -87 -205 0
-87 -330 335 0
-105 297 315 0
-77 -209 -360 0
44 -157 -359 0
-43 254 365 0
30 -305 340 0
116 -138 -381 0
-141 -313 366 0
12 -234 274 0
127 -382 389 0
-18 -172 268 0
-93 -185 -216 0
171 -192 200 0
-24 29 -160 0
-117 -171 192 0
41 221 -315 0
-230 251 -364 0
173 -252 329 0
-7 -97 -304 0
-89 203 328 0
-87 -127 -308 0
25 184 243 0
29 -103 107 0
-94 130 -326 0
132 -364 368 0
78 -370 -397 0
83 92 -139 0
13 57 350 0
-11 -145 -359 0
18 247 -395 0
265 302 304 0
67 86 -160 0
273 312 -316 0
-98 280 -307 0
-44 50 140 0
13 53 103 0
-279 -285 -363 0
-190 -232 360 0
15 183 -317 0
127 311 -357 0
-6 -274 -329 0
-162 -229 381 0
44 162 386 0
-96 253 -356 0
-51 106 -388 0
175 322 -354 0
145 -240 -250 0
-154 338 -392 0
-179 243 -389 0
79 -298 307 0
-44 243 -310 0
29 -145 246 0
-31 131 265 0
-4 153 -211 0
-50 120 218 0
-162 298 400 0
11 17 166 0
116 260 -385 0
96 173 311 0
-209 248 -311 0
20 234 242 0
48 -117 -268 0
-45 -159 372 0
14 92 154 0
-97 134 376 0
-259 309 -331 0
179 -332 -396 0
29 -125 306 0
30 -55 103 0
45 -144 -334 0
4 90 218 0
-173 -188 337 0
-128 -369 396 0
64 -266 267 0
66 -233 -320 0
177 -182 355 0
346 356 -378 0
68 -99 -396 0
248 -273 -386 0
-174 -360 398 0
66 174 267 0
141 -250 298 0
-103 -213 -361 0
4 -237 252 0
67 -124 162 0
-229 237 331 0
-215 -253 266 0
30 273 281 0
29 -213 389 0
65 125 -237 0
142 178 358 0
91 270 387 0
-292 -354 -398 0
-20 229 264 0
159 202 261 0
-19 -30 -284 0
-20 138 382 0
-160 -267 -374 0
87 285 287 0
-157 309 316 0
-164 -188 -377 0
-8 347 -353 0
2 -12 -347 0
-163 280 -291 0
9 62 201 0
172 -295 302 0
-164 -204 -215 0
122 -218 359 0
212 -228 324 0
7 105 -325 0
36 89 267 0
69 220 279 0
-48 -123 -189 0
78 217 -301 0
-183 -339 -373 0
78 102 -193 0
161 -258 -355 0
-64 173 381 0
35 -110 142 0
80 275 -354 0
41 44 -346 0
106 -235 283 0
3 38 -150 0
-30 -123 340 0
-40 -177 313 0
53 64 -78 0
71 -224 -253 0
57 -252 379 0
18 -320 -367 0
-114 255 363 0
-121 -221 -317 0
-93 190 -304 0
-78 -216 -392 0
-25 -44 68 0
-43 -91 -214 0
184 -207 -276 0
47 -310 -328 0
143 -278 280 0
13 114 225 0
-95 -292 -309 0
-21 -153 250 0
-27 93 145 0
-18 -48 110 0
9 156 -339 0
69 164 -322 0
-27 160 -162 0
167 -190 282 0
92 186 -385 0
222 -289 367 0
97 -223 -274 0
-48 -202 -338 0
38 -105 327 0
167 -360 376 0
143 162 308 0
118 122 244 0
131 140 -152 0
61 -218 381 0
43 -119 336 0
83 -110 -376 0
-261 -306 326 0
253 261 368 0
-22 -278 -337 0
78 -261 289 0
-33 195 -360 0
190 -225 342 0
-142 -187 322 0
-164 294 394 0
43 251 256 0
126 -259 -301 0
295 -339 -390 0
121 164 -290 0
272 -316 395 0
34 -106 -195 0
-72 -90 277 0
-183 -219 369 0
-144 -309 362 0
45 171 -314 0
148 261 281 0
-16 -270 -368 0
192 -251 -335 0
108 -138 -232 0
-195 252 383 0
65 -182 -238 0
4 87 273 0
-132 185 -206 0
-75 -247 379 0
11 -50 -301 0
8 62 258 0
-148 -159 -200 0
30 -34 390 0
-124 214 369 0
-73 249 -363 0
-3 -164 -203 0
157 258 -261 0
-67 325 380 0
56 -74 -131 0
-5 23 -334 0
-48 88 -234 0
115 -133 -238 0
-111 264 346 0
219 251 394 0
110 140 -319 0
168 -197 -383 0
-4 -87 137 0
-101 143 -262 0
-123 191 -390 0
13 -166 -251 0
-150 167 299 0
20 145 207 0
-28 294 -383 0
-72 172 -282 0
45 209 -233 0
56 97 -157 0
153 212 -235 0
-15 -211 -264 0
-243 370 -398 0
64 138 150 0
-292 -354 -384 0
-176 -198 345 0
111 313 398 0
42 145 -352 0
-25 -82 -219 0
-7 -301 302 0
34 -59 81 0
-57 -209 287 0
-38 150 -332 0
19 80 -274 0
-6 -280 395 0
-112 -248 365 0
-86 365 -396 0
41 116 286 0
30 50 -301 0
98 176 -185 0
244 328 -399 0
-98 -192 -264 0
-204 328 346 0
94 141 -190 0
194 -196 -330 0
95 217 285 0
15 310 399 0
145 217 -262 0
166 -189 281 0
-94 239 364 0
-135 -147 -391 0
-21 -22 -224 0
-75 296 360 0
-3 124 -136 0
-14 281 -309 0
167 229 -356 0
84 -106 -124 0
-195 -278 -356 0
93 179 399 0
-181 -209 304 0
215 264 -343 0
-21 28 -46 0
-16 -212 397 0
56 113 299 0
-30 52 -109 0
-151 285 320 0
185 -358 366 0
35 -293 -315 0
-131 -166 244 0
-113 -179 247 0
82 -264 -265 0
127 -371 396 0
2 27 226 0
-155 281 -289 0
-79 -118 -224 0
15 68 333 0
147 -196 342 0
139 184 300 0
-211 -228 231 0
-64 243 -285 0
20 -144 197 0
130 -273 -282 0
-91 -248 329 0
-97 -307 -342 0
218 261 -345 0
26 -45 -374 0
17 207 -380 0
25 207 276 0
-55 234 307 0
-46 59 376 0
52 204 -214 0
-45 -206 -375 0
-40 139 -302 0
-149 289 309 0
-204 249 261 0
-168 191 -260 0
-310 313 -347 0
-182 -352 391 0
233 359 366 0
-139 311 376 0
5 -38 -43 0
-47 112 175 0
99 210 216 0
-22 111 -169 0
148 362 -366 0
14 -75 323 0
9 177 -382 0
-113 167 -190 0
-149 360 -393 0
-115 203 -272 0
102 119 -340 0
176 178 -352 0
90 380 -397 0
112 202 -266 0
-239 272 367 0
60 290 394 0
106 -213 -347 0
-25 -107 -365 0
78 -328 332 0
-114 119 -205 0
321 362 390 0
-16 40 211 0
266 -313 379 0
40 -67 379 0
-139 168 201 0
81 134 365 0
19 154 -283 0
-140 -176 -334 0
90 -256 295 0
259 285 -385 0
158 243 283 0
-7 -101 -102 0
-301 343 393 0
144 -312 326 0
213 313 -395 0
195 -199 -321 0
167 -230 -353 0
-162 315 -348 0
-43 -300 -374 0
-26 112 206 0
170 -258 -366 0
-84 -146 -251 0
-63 111 -237 0
86 201 -295 0
1 313 -333 0
22 -349 350 0
179 -206 -293 0
8 134 195 0
-176 -254 368 0
13 -36 -312 0
248 -330 353 0
-226 292 -394 0
-83 -186 338 0
14 -27 -118 0
55 -81 -383 0
117 -297 327 0
-54 -147 325 0
204 -317 319 0
225 245 -366 0
-7 -222 -366 0
28 301 -343 0
-142 178 -391 0
27 -78 248 0
128 -320 321 0
41 378 -386 0
-354 357 368 0
-35 -212 -391 0
120 227 394 0
-200 -252 390 0
261 329 334 0
167 330 -373 0
213 -341 -366 0
118 -198 -358 0
-274 -331 360 0
61 -100 333 0
-102 170 -202 0
92 112 -326 0
150 213 310 0
49 -214 322 0
-273 -307 -330 0
-232 288 -323 0
100 -147 395 0
-7 95 118 0
17 -178 238 0
106 188 291 0
-60 -113 -245 0
151 -181 343 0
-9 -162 -334 0
155 269 -330 0
-99 231 -361 0
-80 259 278 0
-120 190 -365 0
271 -301 -377 0
140 167 -270 0
-18 121 -275 0
-15 117 -256 0
-28 -63 397 0
76 87 -396 0
-55 -213 -380 0
-118 311 -397 0
157 198 -369 0
49 -175 -273 0
-50 298 379 0
-30 -113 378 0
-306 -330 -368 0
-139 -154 293 0
223 -236 303 0
135 391 -398 0
44 229 -356 0
-71 -141 -323 0
22 -196 289 0
56 -72 -381 0
-293 300 -367 0
-13 -27 -358 0
-52 120 358 0
219 -276 384 0
147 176 -383 0
-8 253 328 0
-98 -108 268 0
27 -38 115 0
-31 161 -287 0
-9 -163 333 0
-24 86 381 0
-73 240 358 0
97 -344 -365 0
-72 103 -209 0
102 -251 -304 0
11 250 394 0
233 -315 367 0
193 291 357 0
3 -7 163 0
-8 119 217 0
-258 -265 336 0
90 287 -385 0
-196 -293 -391 0
-9 67 160 0
-133 168 -366 0
-3 -60 209 0
-52 185 -247 0
-36 -40 -362 0
-102 -323 -400 0
-230 -248 390 0
2 86 298 0
-11 -91 -115 0
68 263 -390 0
-219 303 372 0
83 187 326 0
-170 192 -203 0
-110 -201 211 0
-199 221 274 0
-68 111 253 0
69 -219 -228 0
136 -366 -399 0
160 -288 370 0
60 -345 -386 0
154 158 -278 0
86 -118 -197 0
38 122 -309 0
6 254 -321 0
76 178 -400 0
24 121 -359 0
-23 310 -332 0
-127 283 -305 0
177 282 -283 0
-95 202 332 0
167 -248 298 0
-48 -189 295 0
188 -190 287 0
-218 336 387 0
59 122 281 0
-261 -319 390 0
68 -284 305 0
209 -279 -374 0
58 227 247 0
-230 -285 -286 0
87 -116 275 0
42 98 -273 0
-57 110 228 0
247 264 390 0
-103 122 -365 0
-73 -341 -382 0
229 232 -260 0
123 -154 311 0
-154 -362 399 0
-125 -181 326 0
28 255 -336 0
-76 99 -385 0
-144 -162 -236 0
-44 -55 -311 0
204 -349 356 0
148 -231 -287 0
-116 153 274 0
-28 157 -222 0
37 -229 400 0
-113 162 262 0
-2 22 84 0
75 181 -318 0
29 63 -270 0
122 155 -182 0
42 -186 394 0
79 225 286 0
134 -287 -364 0
-36 -114 222 0
143 -287 -329 0
44 -158 184 0
11 195 207 0
-120 242 -300 0
-8 96 -124 0
141 157 384 0
-63 -209 -330 0
-23 -180 385 0
-1 -17 -286 0
-25 259 -314 0
85 228 -350 0
141 -154 286 0
-46 235 274 0
-84 214 301 0
55 -229 358 0
51 117 -159 0
14 -65 -202 0
66 272 313 0
14 147 168 0
165 -182 378 0
47 230 276 0
-131 168 234 0
-51 -160 -266 0
92 201 388 0
-51 -326 -384 0
50 -192 397 0
81 -158 -272 0
167 -294 -391 0
-14 -74 121 0
46 142 188 0
191 283 385 0
242 314 -391 0
77 96 342 0
100 209 379 0
40 -53 -337 0
-82 378 -386 0
-215 222 305 0
-17 123 -162 0
24 -80 242 0
138 143 286 0
-39 68 75 0
116 288 337 0
-127 -212 -251 0
-134 -199 400 0
-14 210 243 0
265 289 -303 0
65 224 290 0
230 259 277 0
63 249 -355 0
-126 -152 328 0
-174 356 -400 0
-73 145 -389 0
182 -200 -384 0
337 351 -392 0
71 126 292 0
-172 -323 -359 0
272 301 -372 0
-53 183 367 0
-24 -43 296 0
-214 -341 -344 0
176 326 -398 0
-24 -33 -293 0
-90 300 335 0
26 -140 256 0
185 198 257 0
-120 -122 -146 0
228 -362 -367 0
-17 81 141 0
54 -121 -301 0
-77 -165 -192 0
169 -177 -212 0
-101 -181 -396 0
49 -79 101 0
155 -301 -357 0
-45 -152 263 0
-38 40 -379 0
-99 213 -391 0
-60 -66 269 0
208 -209 -316 0
63 -104 -150 0
-83 111 -131 0
-72 135 187 0
290 361 -377 0
126 184 349 0
-193 204 -341 0
17 125 -132 0
-61 142 361 0
-44 182 189 0
-65 -79 320 0
111 -121 316 0
72 141 -259 0
104 359 -360 0
21 104 381 0
74 -163 248 0
-173 303 -345 0
-123 330 386 0
-189 -289 347 0
269 -335 -392 0
117 299 -355 0
-72 -130 -389 0
111 310 -312 0
-88 -151 289 0
21 -65 269 0
-208 349 366 0
-250 347 -367 0
-42 -114 191 0
-124 195 -352 0
-8 115 275 0
-48 -117 -274 0
-155 -256 274 0
86 -306 -333 0
-19 -95 -161 0
-110 -145 -347 0
40 64 -398 0
