c F2 random 3-CNF cnfgen RandomKCNF(3,250,1250,seed=8) m/n=5.0
p cnf 250 1250
-59 95 247 0
12 22 181 0
-8 -103 -165 0
100 -127 147 0
60 -125 -195 0
-122 231 -234 0
-17 -25 209 0
15 87 -170 0
133 167 232 0
-10 139 243 0
-149 -221 -243 0
-92 143 219 0
-25 -154 -196 0
-51 129 -160 0
73 131 -136 0
-4 -63 233 0
-9 -69 -109 0
-181 214 -229 0
30 43 239 0
-4 -30 77 0
112 146 -232 0
-105 115 145 0
25 74 184 0
-134 135 -196 0
39 155 182 0
-36 88 -234 0
-84 90 -248 0
16 54 225 0
-87 111 249 0
-52 -58 155 0
-28 32 -98 0
-24 -132 -186 0
14 58 -117 0
28 29 -55 0
111 136 213 0
83 99 -135 0
76 -157 -233 0
58 -76 -162 0
-190 -207 -242 0
76 201 -230 0
-95 97 -246 0
-99 -102 -157 0
51 -126 211 0
-18 -128 188 0
-160 -212 -213 0
-130 -206 -212 0
63 -93 248 0
60 -208 -209 0
28 -200 204 0
-44 168 200 0
-6 49 157 0
-118 119 223 0
92 -156 222 0
22 -214 236 0
60 -186 209 0
-76 92 191 0
-157 -185 235 0
-41 66 -229 0
17 187 201 0
-46 76 237 0
14 15 -243 0
-63 76 226 0
36 192 -239 0
45 56 -105 0
-16 -178 -228 0
-112 -209 -240 0
189 -200 -217 0
122 -175 -243 0
-130 163 -249 0
-35 -197 212 0
9 -75 -101 0
89 97 179 0
-21 48 -212 0
145 -149 162 0
-154 -168 184 0
82 -167 243 0
-61 -123 -166 0
-110 193 207 0
-170 182 238 0
-60 -131 -246 0
-45 122 -144 0
-6 -201 -202 0
-76 -117 -216 0
115 -162 -169 0
35 -88 -149 0
-93 121 147 0
38 130 -201 0
-38 -56 163 0
4 -30 245 0
8 81 82 0
-78 148 164 0
-55 85 -209 0
61 217 234 0
-124 194 -235 0
20 -38 -130 0
-13 65 169 0
-17 -73 198 0
-15 -58 -102 0
71 -134 155 0
178 180 181 0
-168 198 -207 0
62 -168 -233 0
-130 -212 -229 0
36 -158 159 0
-57 133 204 0
57 -109 242 0
69 -145 -199 0
37 -147 170 0
-81 -103 236 0
-31 -99 174 0
87 125 141 0
-156 -181 -242 0
27 149 225 0
21 71 114 0
20 -162 -236 0
-81 99 -182 0
71 -189 -204 0
64 -150 -196 0
122 134 225 0
-85 -189 235 0
-47 115 -142 0
-15 -91 136 0
-64 -142 -234 0
-49 180 242 0
75 162 -218 0
26 32 -141 0
61 -83 146 0
-8 -98 197 0
126 133 -135 0
-66 95 187 0
-50 -125 224 0
34 -177 217 0
-100 -115 230 0
-98 121 201 0
-47 61 -185 0
144 156 215 0
-86 209 228 0
-82 -130 144 0
57 97 235 0
17 57 -218 0
-74 224 -238 0
74 -182 -246 0
-112 -128 236 0
12 80 -231 0
109 -167 -181 0
11 161 -167 0
14 241 245 0
-36 -64 -82 0
22 62 -215 0
-26 161 236 0
-6 -29 196 0
58 -69 -129 0
98 -132 -196 0
-6 41 178 0
-157 160 -206 0
140 154 228 0
11 -179 -185 0
-114 -186 -247 0
175 -183 -229 0
114 -158 178 0
67 -137 -246 0
-30 130 227 0
-120 149 178 0
1 -33 -178 0
144 -162 236 0
-117 -126 -194 0
126 -192 -216 0
-109 -213 228 0
137 213 245 0
82 -100 -107 0
-3 129 -205 0
-67 -101 138 0
59 -125 160 0
42 188 223 0
-167 172 244 0
-33 67 170 0
-21 124 -177 0
167 199 223 0
-29 -89 -165 0
36 202 -245 0
-3 -7 -227 0
59 -104 -171 0
-77 86 -234 0
18 110 -247 0
-50 136 -190 0
-61 -76 -79 0
-1 3 16 0
27 -59 140 0
-47 114 244 0
67 -74 142 0
-70 -95 130 0
16 -19 -62 0
-13 -30 -217 0
174 186 -238 0
-108 -176 -217 0
125 -131 -174 0
-84 -98 -108 0
1 115 -190 0
20 137 162 0
3 -28 -225 0
-23 -53 -76 0
-40 -125 -223 0
-47 -75 227 0
31 179 -187 0
56 141 147 0
-46 -67 237 0
-64 -150 -236 0
-158 224 232 0
-1 157 200 0
91 -116 -192 0
-10 19 -25 0
-16 84 108 0
-36 148 -247 0
-34 -68 -121 0
-82 -149 212 0
-42 -55 187 0
24 77 -80 0
-35 -67 150 0
-51 -162 -226 0
11 -72 186 0
21 120 202 0
30 33 -69 0
-40 -128 -244 0
-7 -53 -103 0
-6 -59 -105 0
21 113 -241 0
136 -198 247 0
86 178 -214 0
65 178 244 0
-83 134 201 0
12 -90 240 0
-33 161 -184 0
-33 90 -201 0
-18 -53 -151 0
42 -133 -192 0
-58 143 -182 0
92 232 237 0
110 166 191 0
-36 47 -175 0
31 83 -148 0
34 73 -233 0
-45 -156 -248 0
-106 -124 165 0
122 -142 -211 0
36 105 -138 0
-60 -103 167 0
13 36 -188 0
9 95 -155 0
13 52 94 0
-132 -156 165 0
44 -97 180 0
-135 232 -244 0
-14 56 155 0
-174 206 -227 0
159 -193 -199 0
-21 -28 -163 0
173 183 -228 0
-2 -42 231 0
-121 -146 225 0
-177 -181 222 0
-46 135 -147 0
-39 40 59 0
-7 -144 -206 0
-131 189 -249 0
-55 -81 -162 0
124 173 -237 0
-77 193 -226 0
75 190 208 0
-48 80 105 0
-48 -157 173 0
45 101 249 0
64 107 -136 0
-49 195 -199 0
72 -207 -234 0
-72 -143 168 0
-8 12 -144 0
60 83 -224 0
40 180 -194 0
42 55 -183 0
88 119 -219 0
-18 156 -183 0
-31 177 -222 0
-95 -143 248 0
71 177 185 0
48 -79 151 0
-130 -167 -174 0
24 29 38 0
59 -193 -243 0
-16 154 -228 0
-136 -157 -200 0
-88 97 163 0
11 55 207 0
8 130 144 0
51 -136 -218 0
-20 132 -169 0
-21 141 -183 0
72 -109 -201 0
-186 199 -240 0
-61 186 -189 0
28 -237 238 0
-5 102 205 0
55 220 242 0
-58 87 136 0
-37 -80 -209 0
-20 -23 95 0
37 68 102 0
6 -25 193 0
86 155 -164 0
46 66 190 0
-68 -87 -89 0
-129 180 192 0
-53 61 -96 0
62 98 148 0
101 109 187 0
-213 -222 245 0
52 172 -193 0
84 -182 205 0
-26 38 141 0
-101 -144 -196 0
41 88 -236 0
-22 -138 -245 0
21 -94 -172 0
-80 84 -240 0
80 -127 -219 0
33 62 -141 0
-139 -187 202 0
107 152 232 0
-126 246 249 0
129 131 223 0
70 98 115 0
128 148 216 0
-17 -164 226 0
9 -84 -173 0
76 -186 207 0
17 -24 -148 0
-144 -176 240 0
148 204 241 0
-61 -108 137 0
-31 -175 192 0
157 -203 248 0
38 149 175 0
-14 -83 178 0
-32 62 -205 0
-81 -145 165 0
-36 47 136 0
-39 -142 170 0
35 76 -181 0
70 130 -238 0
-11 105 -191 0
-71 -194 -247 0
-125 132 176 0
-41 154 -225 0
-1 162 -169 0
-200 204 -241 0
17 73 -131 0
-36 133 -158 0
-49 -57 -114 0
3 -10 227 0
69 87 -138 0
74 -165 -190 0
-67 85 218 0
39 -205 233 0
-6 -35 138 0
-48 -96 223 0
12 -22 -201 0
-29 -115 -178 0
56 126 -228 0
-42 78 -102 0
-54 81 119 0
-18 -92 -158 0
-18 117 139 0
155 -228 249 0
17 -133 -234 0
-127 167 -229 0
-76 -139 -145 0
-38 -80 -230 0
-140 176 208 0
35 -68 210 0
74 -168 -236 0
-57 105 214 0
-69 -105 121 0
-67 -187 -201 0
48 -126 132 0
24 91 93 0
43 -67 -209 0
-20 71 -91 0
13 -134 228 0
39 -164 -227 0
-16 -145 208 0
126 -184 -232 0
106 117 176 0
93 229 -247 0
147 -229 -233 0
-24 -145 -160 0
-92 127 151 0
-59 -111 169 0
45 -112 228 0
158 -192 -216 0
-63 193 247 0
62 95 -118 0
-93 -114 -145 0
-65 190 244 0
-22 55 188 0
147 172 -245 0
99 -184 -197 0
21 147 -201 0
48 -101 139 0
120 222 -231 0
-59 78 -88 0
50 -165 215 0
74 -83 246 0
-144 -194 -206 0
21 -222 -225 0
138 139 -187 0
6 138 -189 0
70 144 -204 0
-19 -227 -243 0
-67 -163 -188 0
-61 -160 -201 0
-30 51 125 0
5 -35 -222 0
-16 36 -170 0
111 236 242 0
125 140 -150 0
94 -154 187 0
-61 206 -224 0
19 -140 144 0
44 -70 -116 0
14 43 76 0
-24 94 -197 0
78 -136 -141 0
-30 -62 240 0
-27 123 -203 0
171 194 -204 0
37 -143 -210 0
-20 105 133 0
29 -113 164 0
118 -142 -184 0
-34 -163 -186 0
-9 89 -90 0
-36 -92 220 0
-110 -197 245 0
59 -207 -220 0
-37 48 -96 0
-43 -78 204 0
-2 36 -103 0
25 127 132 0
75 89 166 0
-49 -60 -112 0
-50 -162 186 0
-37 -65 -234 0
31 96 152 0
-73 81 -190 0
-14 60 -220 0
-22 112 -225 0
1 -129 187 0
62 123 -205 0
119 -192 -250 0
-67 135 218 0
72 106 -148 0
39 148 245 0
36 -76 -152 0
-27 -33 92 0
-43 95 245 0
-49 160 -172 0
42 -58 240 0
59 -161 185 0
-4 190 221 0
39 -61 -160 0
67 -167 199 0
29 54 140 0
-39 -142 -217 0
107 -237 239 0
52 53 -139 0
101 -172 190 0
21 171 213 0
-90 -118 119 0
-153 227 250 0
-53 -125 -190 0
-52 65 -143 0
177 217 -239 0
-95 121 -172 0
89 125 -196 0
22 -225 227 0
21 51 -124 0
52 -218 247 0
34 -36 -115 0
129 137 -194 0
-165 217 -250 0
6 -40 117 0
-46 53 -219 0
-77 -185 -245 0
24 -137 227 0
54 136 191 0
47 -84 -117 0
-61 -145 179 0
75 -76 90 0
1 -189 195 0
-103 126 244 0
56 -140 -210 0
-87 135 205 0
5 -6 -246 0
-33 -99 -236 0
57 180 -236 0
-127 -134 -156 0
-154 -238 -239 0
49 164 -188 0
-87 112 147 0
-28 110 236 0
101 -158 -163 0
160 188 -241 0
-39 -68 -238 0
-29 154 235 0
67 -100 117 0
-98 128 170 0
-12 -175 -199 0
24 85 97 0
-59 -97 173 0
-10 80 -133 0
59 83 -129 0
-6 48 165 0
8 -207 -216 0
-75 174 243 0
41 -82 214 0
-98 -182 191 0
-24 -85 104 0
-80 209 241 0
-43 -57 -228 0
20 73 -169 0
93 196 -239 0
26 76 249 0
6 -115 240 0
-39 -156 -250 0
-79 -84 -204 0
15 -40 -113 0
163 -226 248 0
134 141 214 0
68 154 236 0
154 -170 248 0
103 -157 162 0
50 -97 -137 0
-18 -71 209 0
-62 77 167 0
-2 -34 106 0
136 -166 -201 0
48 -187 206 0
128 137 -187 0
-11 146 -201 0
35 -108 235 0
95 -120 232 0
99 223 -246 0
9 -109 -163 0
2 44 -139 0
9 -212 -248 0
-85 159 -180 0
-3 -93 117 0
-198 218 226 0
-181 -193 -232 0
-23 -102 224 0
171 229 -248 0
-22 35 209 0
-138 139 186 0
162 211 -241 0
54 106 157 0
66 132 227 0
-37 52 226 0
-1 48 97 0
31 232 -248 0
30 -138 -173 0
1 -144 -236 0
-96 -129 -200 0
31 135 232 0
109 -166 250 0
-163 222 -245 0
-63 189 210 0
24 -174 189 0
20 119 194 0
-83 -215 242 0
145 -160 -207 0
-64 -69 176 0
-69 74 89 0
152 -187 218 0
-10 82 -210 0
11 102 -160 0
147 -204 213 0
127 239 -250 0
44 -126 147 0
-42 157 182 0
28 208 212 0
-35 -85 -246 0
-33 194 217 0
-60 95 167 0
27 -142 215 0
1 112 225 0
-26 78 112 0
54 -115 142 0
1 18 175 0
-51 -133 -209 0
-123 176 -220 0
10 105 -155 0
-147 183 243 0
-137 -169 192 0
49 -116 -188 0
17 -126 169 0
-8 67 -250 0
50 -83 207 0
-28 172 237 0
2 -137 160 0
44 108 239 0
-73 -195 249 0
78 -114 151 0
12 29 -174 0
114 -164 223 0
41 -112 -122 0
73 -134 -145 0
130 170 -182 0
-53 -83 235 0
1 -173 -178 0
46 -140 -214 0
-4 -143 -219 0
-114 -138 -143 0
72 120 136 0
44 61 -231 0
-69 -102 -240 0
118 131 194 0
35 38 151 0
-52 -75 192 0
20 -186 -213 0
-35 89 199 0
96 193 214 0
31 113 -210 0
-24 96 192 0
-68 -112 167 0
-4 137 183 0
32 66 172 0
26 -111 -167 0
-27 -54 -219 0
46 153 -236 0
16 166 -244 0
42 -110 131 0
113 -168 -175 0
-3 -52 108 0
4 76 208 0
-25 -63 -242 0
-64 134 231 0
-21 141 220 0
126 156 -200 0
-77 186 231 0
17 -37 -38 0
-48 56 -237 0
-7 -123 -214 0
43 -113 -191 0
1 -135 -179 0
-82 -111 118 0
29 -75 -245 0
63 94 -172 0
12 37 -182 0
-171 203 241 0
-53 125 203 0
126 145 -184 0
33 -58 165 0
17 163 -214 0
-21 25 75 0
-133 -136 -193 0
119 128 159 0
100 -113 -245 0
32 97 248 0
122 140 -236 0
-30 170 -179 0
-51 84 -144 0
35 97 -113 0
157 207 -248 0
-97 -122 159 0
145 165 -234 0
-3 159 210 0
-117 -118 249 0
51 -62 -205 0
-98 -168 227 0
20 -25 214 0
-28 176 206 0
16 -46 -58 0
35 66 -247 0
-34 -86 -244 0
97 -169 -201 0
28 -93 -168 0
139 211 -250 0
72 81 -116 0
-3 101 124 0
-146 181 -231 0
43 85 136 0
4 -104 -194 0
12 -161 239 0
12 -53 244 0
126 194 209 0
181 202 225 0
-1 -84 85 0
-92 191 193 0
-67 154 184 0
-35 -54 -249 0
4 -26 -54 0
154 165 246 0
-161 -162 202 0
-91 133 -139 0
79 139 156 0
-189 -192 -232 0
-41 134 -205 0
14 138 -215 0
57 100 244 0
16 -189 193 0
-55 -113 123 0
-136 -185 -190 0
-154 -213 -243 0
-17 47 -209 0
-181 -206 217 0
-5 -112 -123 0
-10 -78 183 0
45 -105 -109 0
12 -115 142 0
-54 -90 138 0
-84 170 204 0
56 78 -100 0
42 -44 -69 0
16 -100 162 0
-51 62 -115 0
-100 183 236 0
6 60 -153 0
-9 68 -119 0
6 -127 159 0
82 165 248 0
52 -134 -188 0
21 -135 231 0
-3 -138 -181 0
-89 187 238 0
76 -101 -173 0
147 159 210 0
-21 115 -204 0
-109 -183 224 0
-145 -180 209 0
-87 -103 -185 0
74 170 192 0
-21 -23 -193 0
9 126 -191 0
20 34 -197 0
-158 -194 -204 0
4 30 -168 0
142 231 237 0
-6 118 189 0
11 -147 192 0
111 -235 -237 0
22 -80 94 0
81 -96 -133 0
-21 176 -236 0
64 141 177 0
-29 -33 -56 0
-21 24 210 0
-22 -90 -150 0
84 110 122 0
-180 -232 -244 0
-32 47 146 0
6 -32 108 0
-82 135 241 0
64 77 -174 0
6 137 -199 0
-17 139 235 0
-99 -187 -191 0
34 -54 108 0
-25 -115 -228 0
-43 150 -186 0
-1 -17 222 0
-22 101 222 0
64 136 -156 0
-101 189 -194 0
77 -121 210 0
91 -97 -175 0
84 -129 179 0
116 195 197 0
-71 210 -221 0
-59 -167 237 0
196 221 250 0
-63 177 212 0
6 -150 -227 0
-83 152 -216 0
-21 144 -249 0
-9 38 125 0
-45 215 233 0
-12 -33 -47 0
20 67 236 0
-22 45 188 0
15 -146 187 0
-41 -94 227 0
-47 56 -174 0
82 -128 129 0
-20 -119 -148 0
90 103 168 0
35 54 112 0
-2 -25 55 0
89 -209 -248 0
68 -75 217 0
-13 177 -232 0
-84 183 -201 0
-174 181 -247 0
-39 -166 230 0
-11 152 -153 0
-27 -38 92 0
48 118 165 0
-87 -230 -245 0
45 120 -123 0
37 -140 -199 0
-51 -110 133 0
-13 90 132 0
-24 -173 193 0
221 -235 -242 0
-19 -88 -170 0
-32 -45 -64 0
8 53 -115 0
134 -185 -228 0
60 97 172 0
-111 160 224 0
20 -58 62 0
105 122 156 0
-30 -37 -105 0
28 -66 -227 0
150 174 -211 0
-148 -156 216 0
158 -173 214 0
50 -82 -174 0
50 -174 -229 0
166 220 224 0
104 -106 -247 0
-12 120 -178 0
20 119 -146 0
-10 85 225 0
50 -96 -103 0
-4 -94 -241 0
-99 -160 250 0
-41 -64 84 0
-63 71 -220 0
-39 -96 -244 0
53 144 225 0
-7 -102 -231 0
51 -155 -183 0
-22 137 -249 0
19 110 -132 0
-52 -119 176 0
107 142 160 0
198 -212 232 0
-8 56 105 0
-53 170 234 0
92 -106 -218 0
203 -208 -246 0
103 -166 -232 0
-71 -79 239 0
-27 -95 -124 0
34 136 -194 0
-14 -185 229 0
95 -182 -194 0
169 -193 203 0
85 186 -188 0
-18 -136 -226 0
-94 95 -239 0
85 -148 231 0
121 127 186 0
-54 109 123 0
69 -80 131 0
2 -74 141 0
-71 230 -238 0
59 -108 -161 0
37 51 -108 0
27 42 -227 0
-181 213 -229 0
16 -126 -201 0
-57 -69 97 0
88 97 -234 0
-41 154 201 0
-41 -48 -122 0
25 169 206 0
2 -145 -220 0
-181 -186 -224 0
89 157 -181 0
46 63 -157 0
-8 187 -226 0
-3 -36 165 0
38 77 180 0
11 165 -172 0
28 -37 -154 0
-50 -115 161 0
6 227 -247 0
-8 19 -57 0
13 -76 -89 0
30 -92 -167 0
156 197 208 0
15 199 223 0
-33 -190 241 0
131 -145 147 0
-49 -79 100 0
4 36 -128 0
72 200 204 0
51 100 -101 0
-30 -87 179 0
40 103 -209 0
170 -229 249 0
93 133 182 0
-23 -123 -192 0
-49 77 -144 0
60 84 176 0
102 210 233 0
130 -132 -245 0
-42 151 219 0
-9 -137 192 0
-3 -120 -247 0
-4 91 -105 0
-8 157 197 0
98 -179 245 0
-47 -161 -166 0
-23 -33 51 0
-11 -20 -172 0
-29 92 -153 0
-80 -120 147 0
90 115 -179 0
-185 -196 -198 0
-67 -155 -160 0
24 69 -118 0
17 36 39 0
-52 -68 212 0
112 -115 143 0
41 49 199 0
-49 105 -132 0
10 97 -205 0
-15 -93 -119 0
-174 218 222 0
-24 -33 209 0
-38 -76 -118 0
75 -124 -198 0
101 -103 210 0
32 107 -117 0
107 -138 -219 0
152 -182 -229 0
-13 108 227 0
42 -207 -213 0
-58 160 199 0
-118 213 240 0
4 -32 94 0
120 209 236 0
20 43 158 0
-77 -92 210 0
-88 154 190 0
47 91 -224 0
26 108 -196 0
12 38 89 0
-37 142 145 0
-38 -123 -131 0
-14 34 -58 0
17 88 -226 0
12 -139 147 0
149 172 -196 0
-97 -124 -248 0
-44 -107 170 0
-31 -67 -200 0
44 -48 73 0
-107 124 -173 0
145 147 148 0
-127 167 -225 0
8 44 -108 0
-7 160 170 0
5 -20 31 0
-3 -14 16 0
-188 219 224 0
-32 -231 238 0
-66 74 158 0
-84 110 245 0
-47 -102 -201 0
145 188 -208 0
-24 89 -92 0
-6 67 148 0
-2 -78 98 0
19 89 -116 0
11 100 -104 0
1 43 -228 0
-2 -95 -171 0
26 -70 -179 0
-11 97 -201 0
-99 196 -223 0
-55 87 -191 0
5 -146 -214 0
-92 -100 -219 0
-50 -76 213 0
32 -122 234 0
84 -121 -165 0
-141 -181 244 0
-59 64 175 0
26 -70 -213 0
-77 167 250 0
89 115 167 0
-106 -199 -211 0
-102 147 -250 0
75 115 -226 0
-99 108 -192 0
20 -66 -70 0
-70 222 -223 0
44 138 -191 0
-12 -34 -166 0
88 209 -218 0
-100 175 247 0
90 141 223 0
-80 130 -141 0
5 -51 -128 0
62 85 143 0
-86 117 247 0
12 -107 108 0
-33 51 170 0
-11 177 -248 0
3 123 -153 0
-43 -84 -243 0
-15 38 148 0
25 -172 222 0
-48 69 -224 0
53 96 -211 0
183 -225 246 0
48 61 -237 0
-8 -100 -235 0
15 -51 61 0
72 -123 -183 0
-24 168 217 0
-42 157 248 0
-45 -186 -206 0
65 -126 -204 0
107 174 -219 0
6 -11 -118 0
17 65 -205 0
93 -201 -244 0
115 201 -202 0
-161 -183 216 0
-78 -225 -233 0
-23 -176 205 0
-153 -169 -208 0
40 134 179 0
75 -103 -201 0
-46 159 -247 0
10 194 233 0
-28 190 248 0
-15 190 194 0
179 -230 -231 0
100 -176 199 0
-56 80 -83 0
120 -133 -202 0
24 84 -98 0
4 9 23 0
-55 -64 212 0
-66 88 -99 0
-55 -90 -146 0
-21 -44 182 0
16 -34 82 0
-97 128 -207 0
18 29 168 0
-16 59 -152 0
3 116 143 0
-27 -132 224 0
80 160 -183 0
12 -28 57 0
-87 89 -138 0
23 212 239 0
10 -61 -208 0
112 -136 233 0
-179 -188 189 0
16 72 110 0
-88 184 214 0
-50 145 202 0
91 -104 153 0
-52 -86 247 0
-61 160 -246 0
-7 82 209 0
11 -49 242 0
94 133 171 0
-55 145 162 0
13 -115 -149 0
-3 -163 196 0
-9 118 245 0
105 118 -203 0
-53 55 -135 0
-94 168 222 0
35 120 186 0
-121 -145 -179 0
8 143 -166 0
128 -197 231 0
-83 -118 233 0
-2 166 -173 0
81 -86 199 0
-25 45 -74 0
-28 -70 -200 0
42 -151 194 0
-25 111 220 0
-63 185 214 0
39 -189 -232 0
-174 -181 -205 0
-33 -85 99 0
-6 30 -118 0
-141 143 212 0
63 -65 -105 0
54 -84 -119 0
40 154 237 0
-125 210 -225 0
-29 -63 173 0
73 167 218 0
30 103 173 0
44 97 -158 0
-100 -132 211 0
-13 -93 179 0
7 -163 228 0
153 219 226 0
68 154 224 0
-94 -144 207 0
5 -172 -188 0
102 -122 213 0
-12 24 120 0
-55 98 171 0
-33 -87 173 0
-14 104 237 0
-1 172 -246 0
71 152 -210 0
50 -134 -198 0
-62 -99 115 0
-84 -127 242 0
-4 -16 222 0
-89 182 -229 0
99 122 159 0
51 116 -142 0
-74 198 200 0
30 133 152 0
-30 -168 189 0
39 -112 176 0
4 -37 -60 0
13 40 215 0
-38 128 -141 0
-107 156 -197 0
-30 -83 217 0
-71 191 -221 0
-77 92 137 0
25 -40 47 0
11 -39 -86 0
-190 235 242 0
-68 125 171 0
-54 -148 205 0
91 97 -138 0
65 -69 111 0
156 -199 -208 0
7 -203 -242 0
-43 -83 -89 0
8 68 136 0
-30 -48 -194 0
18 -183 219 0
-58 94 204 0
44 -98 223 0
47 101 -245 0
53 -122 184 0
51 -221 -231 0
52 66 -174 0
26 -51 -66 0
73 -116 212 0
96 97 142 0
10 -202 -203 0
102 -125 -197 0
40 104 247 0
-71 93 214 0
-26 34 -155 0
-77 159 250 0
-46 149 -177 0
38 -153 189 0
143 200 -202 0
32 -184 -215 0
170 210 -225 0
-18 -73 194 0
-86 163 207 0
28 -82 -231 0
-104 -140 -160 0
2 -29 139 0
28 -82 -104 0
74 -183 -218 0
-88 -221 -244 0
82 -157 216 0
51 105 200 0
-169 217 221 0
98 122 -135 0
22 -178 197 0
54 58 -113 0
42 -172 187 0
16 68 -225 0
-75 -84 -248 0
-178 242 245 0
109 143 -225 0
-81 -103 -156 0
27 -85 91 0
17 -72 234 0
-2 -106 -164 0
1 58 -61 0
49 -75 -78 0
64 -199 -238 0
30 224 -245 0
47 -55 -239 0
69 -145 -176 0
-25 116 -232 0
66 114 158 0
167 206 215 0
-30 41 122 0
-25 58 216 0
124 -200 246 0
32 161 194 0
-10 180 -249 0
94 102 -247 0
36 60 203 0
53 -58 -195 0
-13 -100 -176 0
-33 -66 -78 0
29 -33 150 0
-151 217 -224 0
59 82 110 0
146 -147 -227 0
-81 142 -152 0
41 -100 198 0
-139 -243 -246 0
8 36 223 0
-134 135 -204 0
-170 -212 249 0
-20 121 -234 0
-20 106 219 0
114 120 -236 0
-129 193 218 0
48 147 -182 0
-4 -48 238 0
-136 -181 210 0
-29 -62 77 0
-14 46 181 0
-26 -32 -113 0
-121 175 209 0
-65 165 -169 0
68 -202 224 0
19 -180 209 0
48 -72 240 0
84 124 150 0
-14 38 76 0
-7 -205 -247 0
-83 146 -227 0
30 -90 -168 0
-25 48 -145 0
33 -82 176 0
-35 -105 240 0
16 112 225 0
32 -176 193 0
-11 15 -107 0
77 113 156 0
12 -101 149 0
