c F2 random 3-CNF cnfgen RandomKCNF(3,300,1500,seed=5) m/n=5.0
p cnf 300 1500
131 -184 272 0
-27 -58 81 0
53 195 279 0
-94 144 209 0
65 72 228 0
85 -108 -111 0
102 105 -277 0
-12 153 185 0
-34 136 -170 0
-34 -159 -182 0
95 242 -247 0
12 -184 -207 0
-5 193 297 0
-61 -101 -126 0
129 -237 -269 0
19 -47 -222 0
76 -142 -175 0
41 -91 -157 0
-25 42 83 0
-129 177 234 0
17 172 253 0
-55 -87 212 0
31 -151 216 0
-233 -250 -268 0
150 207 -241 0
-92 256 273 0
-140 252 -264 0
-18 -157 -187 0
92 -151 -175 0
-141 -167 -238 0
-141 177 -210 0
172 187 266 0
145 -186 245 0
-216 -265 298 0
82 101 226 0
22 116 242 0
-57 93 163 0
-180 213 239 0
-1 -122 -192 0
-59 210 -281 0
-49 -152 -280 0
-67 -210 215 0
-81 196 289 0
-1 47 -180 0
-73 -277 -290 0
-116 -222 -253 0
-82 -134 -197 0
-11 -164 -213 0
13 -74 245 0
-21 70 -151 0
141 -273 287 0
126 -138 -251 0
244 253 266 0
-145 -154 274 0
180 185 238 0
130 234 284 0
-219 -220 -295 0
-101 152 -201 0
-2 -222 -299 0
-74 -85 245 0
218 278 300 0
33 -44 -137 0
36 208 250 0
-57 -69 113 0
94 95 212 0
-23 56 -285 0
30 -293 295 0
-6 -47 -222 0
29 -181 192 0
149 -259 292 0
-121 131 283 0
191 200 233 0
44 175 294 0
-123 -233 -260 0
56 -166 272 0
78 115 -220 0
-72 109 -193 0
-171 179 -198 0
152 186 222 0
33 50 203 0
-21 -101 -104 0
-1 -219 -241 0
52 237 239 0
-37 192 -198 0
-57 83 143 0
-17 -177 247 0
12 234 -242 0
123 150 233 0
13 -119 -295 0
-95 -160 240 0
84 124 240 0
-4 139 -221 0
24 -87 211 0
37 -122 252 0
-26 125 255 0
-131 209 229 0
-92 100 261 0
44 56 161 0
-9 -110 -226 0
193 268 -293 0
115 230 -284 0
-45 -135 248 0
-42 67 275 0
-126 220 -296 0
-25 -103 128 0
-37 161 -216 0
-15 68 295 0
25 -138 219 0
34 157 -165 0
147 166 255 0
15 -26 -63 0
-9 119 -133 0
104 170 184 0
49 138 -272 0
-61 -220 -223 0
117 -223 237 0
-83 243 273 0
27 65 215 0
-121 -247 -296 0
104 -111 -142 0
124 181 -188 0
74 179 -206 0
20 -49 196 0
-103 -145 166 0
6 102 -193 0
-12 -14 -163 0
205 231 -280 0
11 -186 -268 0
-14 -40 -45 0
8 121 141 0
154 -180 288 0
-62 -123 176 0
92 -194 -200 0
-56 166 284 0
-109 151 157 0
40 95 -212 0
-119 214 -218 0
-44 144 -215 0
-16 60 -77 0
-53 98 167 0
71 -249 266 0
-118 197 240 0
58 -81 100 0
-54 -189 295 0
-53 282 298 0
-101 106 -166 0
-43 -126 207 0
61 -68 -192 0
-37 176 252 0
-101 -182 246 0
46 -149 -256 0
-33 173 266 0
122 139 -216 0
-50 245 -284 0
-48 126 232 0
3 73 -185 0
197 235 288 0
-7 100 -227 0
12 241 -261 0
19 223 -257 0
194 212 -222 0
-76 98 -156 0
111 -202 216 0
147 187 241 0
-38 40 -235 0
-10 -77 -101 0
70 -122 240 0
8 -95 220 0
110 -172 191 0
-55 -57 -146 0
-189 245 281 0
9 -135 280 0
29 122 247 0
120 -215 259 0
-20 -123 257 0
-153 226 286 0
-190 -272 -292 0
-40 86 155 0
-51 -200 -271 0
71 -180 234 0
-107 290 291 0
46 -60 -176 0
135 142 -248 0
-13 129 130 0
91 135 -225 0
-5 64 -288 0
14 -21 -211 0
114 275 296 0
-22 35 -236 0
-62 -157 -208 0
-1 -154 -166 0
-80 111 -135 0
46 -77 -181 0
90 203 -266 0
-87 229 258 0
-138 223 289 0
-87 -215 -283 0
-56 -101 -133 0
45 -60 250 0
53 146 -299 0
89 -134 -172 0
-33 -50 -160 0
-33 34 210 0
-21 49 -260 0
-37 116 -214 0
-56 166 -262 0
53 88 195 0
-43 195 -278 0
-157 233 283 0
69 196 -264 0
-37 72 -271 0
-157 -227 284 0
-132 234 241 0
-53 104 235 0
-46 -86 -128 0
-54 -84 -247 0
27 278 285 0
-173 -247 -296 0
-30 -69 -148 0
66 149 190 0
-82 -160 -250 0
-175 237 269 0
-1 -254 -296 0
23 -117 275 0
87 -88 104 0
-118 198 214 0
-35 -121 -298 0
-49 115 -191 0
-2 76 -272 0
8 -55 -98 0
149 241 -245 0
11 105 -228 0
-52 103 274 0
2 -113 203 0
-97 154 200 0
97 -112 -197 0
-14 -76 210 0
-48 -120 -137 0
-98 104 168 0
83 -188 -274 0
74 94 -148 0
-4 -54 282 0
78 189 -250 0
-136 -245 -293 0
-88 202 219 0
56 -151 246 0
43 -49 -161 0
90 -165 180 0
43 -44 -266 0
111 -156 -227 0
37 -231 294 0
-38 -155 193 0
82 -178 218 0
-54 183 -237 0
19 168 -232 0
-136 159 -236 0
-101 208 212 0
33 -166 -225 0
56 -90 216 0
22 157 291 0
-42 -150 151 0
-18 222 -234 0
-262 -271 -289 0
-20 -91 188 0
-57 -140 225 0
-200 206 231 0
-183 235 278 0
-5 -206 211 0
-80 224 -265 0
19 -100 194 0
256 258 -298 0
-51 173 174 0
24 -101 -256 0
24 -105 -270 0
114 189 234 0
56 99 160 0
-57 -180 -300 0
87 -139 157 0
-6 -124 252 0
-29 112 -286 0
19 -134 249 0
-42 -62 127 0
-1 -4 -250 0
-111 -138 163 0
5 102 -300 0
46 -117 122 0
71 106 -145 0
-114 157 225 0
-49 -239 280 0
8 155 -287 0
-143 195 241 0
229 281 287 0
93 151 -256 0
-83 142 -205 0
58 125 -160 0
132 -194 -227 0
-77 208 -249 0
-23 -104 259 0
-84 189 221 0
-117 -145 214 0
-240 247 252 0
76 113 -166 0
6 240 -277 0
24 -58 -72 0
-11 -62 -95 0
-84 -115 253 0
5 164 256 0
-130 143 281 0
-35 -228 292 0
133 -169 -213 0
1 62 -162 0
121 -147 182 0
130 -246 287 0
-52 -54 74 0
-114 163 278 0
197 218 -221 0
45 201 -270 0
158 239 -287 0
143 -156 -284 0
-4 -233 -267 0
51 158 -267 0
54 -57 299 0
188 243 267 0
-13 62 -208 0
-120 -173 -288 0
-108 -117 250 0
-44 -137 297 0
28 89 -240 0
-77 107 265 0
93 -220 -268 0
69 -228 -294 0
59 -153 -240 0
-38 -125 -185 0
-20 -178 266 0
-116 -196 -265 0
113 211 -216 0
-23 -49 101 0
100 -190 220 0
-19 194 -289 0
-81 -171 -212 0
88 -119 -168 0
-45 -114 255 0
-76 155 -169 0
-102 202 225 0
55 -81 -214 0
-12 -14 287 0
-95 -113 270 0
-71 -83 -203 0
-136 -165 233 0
146 -203 242 0
43 -56 299 0
-69 185 -255 0
-165 191 295 0
59 255 -295 0
66 -120 145 0
40 -68 230 0
2 52 -140 0
-255 259 298 0
-72 -249 281 0
72 137 -209 0
-20 -88 -213 0
-117 -216 -251 0
14 62 -219 0
-72 168 -169 0
39 140 200 0
37 75 -264 0
177 -196 224 0
-44 99 -159 0
113 165 199 0
101 104 -226 0
-132 253 -254 0
40 163 287 0
12 167 -289 0
-5 122 276 0
59 180 193 0
139 -164 -241 0
99 108 121 0
-9 -199 243 0
-8 10 114 0
-89 135 -197 0
-103 135 -186 0
-86 128 251 0
-149 268 282 0
39 -63 -225 0
29 -137 226 0
90 -238 -277 0
16 -104 -220 0
117 190 -214 0
166 -261 -296 0
199 -254 -283 0
109 131 -219 0
-174 189 220 0
66 129 133 0
41 86 -191 0
137 -217 -297 0
201 224 227 0
108 189 -296 0
-84 -194 -236 0
70 -143 177 0
34 -197 201 0
15 255 -277 0
-34 170 256 0
-5 226 -284 0
-52 179 -209 0
94 125 -127 0
217 232 -252 0
20 -74 270 0
-1 107 151 0
79 -131 -227 0
33 -82 277 0
183 236 -256 0
33 46 -76 0
116 -220 -238 0
-36 -203 -252 0
5 126 -241 0
-37 177 -230 0
-44 281 -285 0
110 -201 -223 0
-103 116 -296 0
-221 279 -280 0
-136 183 185 0
-69 193 199 0
65 -161 -169 0
123 173 -203 0
68 -255 270 0
-74 154 260 0
-78 141 174 0
-78 -176 241 0
-88 145 159 0
54 89 297 0
-174 -223 -232 0
21 143 209 0
178 195 260 0
-46 104 -292 0
-32 151 198 0
65 149 -178 0
-88 -124 293 0
-73 113 -116 0
218 270 276 0
155 -234 -252 0
25 157 251 0
-97 102 252 0
101 -119 -170 0
13 91 -180 0
84 203 -214 0
128 137 209 0
-69 110 -288 0
78 -223 -238 0
-6 -141 144 0
-29 -273 -281 0
-48 -60 -75 0
-24 37 111 0
90 170 258 0
-29 -42 -183 0
-2 62 220 0
15 -153 -191 0
61 -162 183 0
-101 -102 -220 0
-211 -232 -246 0
-99 156 -260 0
-17 -99 -249 0
-189 -234 -258 0
152 -179 -285 0
8 -23 -190 0
51 160 206 0
-71 -98 223 0
108 -206 240 0
-14 -283 -297 0
22 241 -293 0
39 171 -191 0
-85 102 -272 0
122 180 260 0
17 -85 -241 0
64 176 -296 0
-92 -100 122 0
198 235 -291 0
-31 196 260 0
-150 -221 -256 0
34 248 -291 0
60 78 296 0
14 -157 -212 0
-15 -131 -174 0
-56 -69 -284 0
-15 71 -157 0
-93 -143 -290 0
32 -207 278 0
-21 -86 239 0
40 152 -173 0
-177 185 261 0
100 148 -187 0
-36 90 175 0
42 -57 187 0
-43 -70 86 0
-16 -28 107 0
68 252 284 0
-36 88 -154 0
-94 -123 252 0
-198 -273 280 0
21 86 -268 0
-23 36 268 0
62 -201 289 0
9 -111 -205 0
54 -257 283 0
150 258 270 0
-109 -143 -238 0
143 -275 292 0
-103 119 245 0
27 -135 -295 0
74 -170 -189 0
-27 76 -291 0
-20 -89 -151 0
72 223 253 0
-117 -124 280 0
54 145 212 0
53 119 -162 0
-14 -80 289 0
23 -110 261 0
-63 -91 275 0
-25 170 -173 0
-42 175 288 0
22 -287 -295 0
-204 -286 -297 0
-93 173 281 0
-106 239 247 0
-21 55 -240 0
33 -40 -197 0
-15 45 -148 0
97 114 -293 0
173 202 -284 0
68 -140 259 0
-159 -257 -292 0
169 -246 -260 0
11 203 -268 0
6 16 -228 0
91 208 254 0
-57 -143 -287 0
-47 276 284 0
24 200 -234 0
91 134 247 0
6 129 279 0
-7 55 248 0
55 -107 -297 0
-77 -96 122 0
207 209 -234 0
-52 114 -258 0
-8 105 274 0
-46 132 180 0
-246 -250 -294 0
6 -236 261 0
-191 266 -298 0
-5 -154 205 0
72 -135 -270 0
162 213 -239 0
55 181 -220 0
16 -136 -278 0
74 -162 260 0
-85 172 -264 0
-28 55 83 0
-43 -136 158 0
15 266 280 0
-79 213 -231 0
-9 121 259 0
98 217 250 0
128 -197 -226 0
-61 -63 132 0
29 -79 -203 0
39 57 -153 0
138 -221 294 0
37 144 298 0
-46 153 -187 0
-88 105 -127 0
23 -57 96 0
33 -185 -217 0
-109 -169 197 0
229 -291 297 0
94 142 -272 0
-123 152 -195 0
130 186 -203 0
15 18 -221 0
-70 165 171 0
132 -203 -218 0
59 -171 -271 0
-62 122 138 0
-66 -107 195 0
-84 -228 245 0
115 -183 -278 0
11 -50 293 0
-16 -68 -273 0
34 192 299 0
135 205 -275 0
3 102 134 0
48 -58 -267 0
-14 162 -268 0
2 -10 -196 0
-58 -91 -189 0
-60 -99 205 0
69 106 133 0
56 -106 127 0
84 145 -288 0
12 53 155 0
-16 131 -177 0
153 213 231 0
72 119 290 0
54 200 -256 0
-55 186 235 0
-25 -134 158 0
-38 135 -277 0
97 104 -124 0
130 -176 -290 0
-20 -70 -86 0
80 274 279 0
89 167 262 0
62 79 243 0
11 109 -290 0
200 225 -293 0
100 102 -149 0
6 203 269 0
-53 -120 -171 0
30 -147 -221 0
-54 116 -265 0
-42 54 -300 0
42 235 289 0
-90 178 218 0
55 59 91 0
191 -224 226 0
113 -129 264 0
8 88 147 0
-172 197 276 0
19 35 -259 0
-61 171 215 0
34 203 299 0
22 43 -229 0
4 -52 -122 0
-15 160 -291 0
44 -200 -257 0
-51 101 -191 0
147 149 -212 0
15 138 -263 0
-50 -177 255 0
163 -212 -268 0
-10 172 -296 0
13 88 -193 0
33 110 244 0
56 -150 251 0
78 125 -264 0
-269 -280 -283 0
18 161 251 0
-22 108 120 0
42 160 -161 0
-43 57 -267 0
-221 -248 282 0
24 229 264 0
139 226 -255 0
47 142 184 0
60 168 287 0
-45 215 263 0
-40 -59 96 0
32 40 -140 0
-87 -163 -290 0
137 257 -278 0
-198 -231 -237 0
77 -130 229 0
132 189 -259 0
-104 -183 264 0
-3 -7 -130 0
87 -123 -182 0
34 -142 255 0
54 57 247 0
122 226 240 0
-84 -161 265 0
-71 -154 -281 0
-82 -99 -252 0
-51 -75 -287 0
161 171 -286 0
-54 -225 -245 0
-40 86 167 0
-16 -87 -267 0
168 219 -256 0
11 28 -174 0
80 137 -231 0
79 -98 -174 0
149 -219 -264 0
40 -181 267 0
-15 105 181 0
48 -103 277 0
176 -205 -292 0
77 -87 281 0
99 -224 286 0
47 150 -267 0
-116 -160 -278 0
-113 169 172 0
193 -255 279 0
57 -97 218 0
-33 -215 -253 0
36 101 -293 0
-15 163 231 0
113 -213 222 0
-45 219 247 0
-65 -69 93 0
64 -250 -285 0
-126 -256 -291 0
-14 -58 97 0
31 -34 -183 0
-210 -251 -256 0
13 -190 -293 0
75 104 152 0
-17 65 -257 0
96 -100 -149 0
121 195 -232 0
-90 -190 -216 0
-161 230 -251 0
221 280 -298 0
1 -14 44 0
85 -129 175 0
126 216 259 0
-51 -90 252 0
207 -229 -246 0
20 -203 -283 0
3 -122 -194 0
-7 -214 -270 0
-14 80 103 0
166 188 -251 0
-4 -98 270 0
21 -181 -239 0
194 -209 -233 0
23 69 280 0
59 197 -199 0
-201 -267 -282 0
26 159 271 0
167 -247 -255 0
-6 -51 -278 0
-59 -75 224 0
20 22 112 0
12 -25 33 0
155 -189 244 0
17 86 -145 0
-42 -261 295 0
90 -234 281 0
-139 -251 -261 0
-79 -144 -279 0
101 146 222 0
-35 65 273 0
-9 136 281 0
43 -86 300 0
-15 25 -44 0
-48 80 185 0
-71 126 163 0
46 -257 299 0
22 -68 122 0
-30 -59 -172 0
-18 44 203 0
22 65 247 0
26 282 -284 0
-72 166 300 0
51 236 267 0
-190 226 284 0
-11 31 -200 0
21 -80 -105 0
-66 224 -299 0
9 170 236 0
-139 -175 -197 0
-18 -36 -218 0
45 -72 145 0
34 238 261 0
-89 -117 -146 0
53 77 148 0
-109 -173 291 0
106 -271 -294 0
126 209 -210 0
-53 -226 260 0
102 -166 243 0
-11 116 254 0
-134 -153 -277 0
-4 187 281 0
-8 -103 -105 0
-168 181 -225 0
-66 -185 257 0
-95 114 146 0
-129 164 251 0
-157 234 278 0
-59 134 223 0
-138 194 -207 0
12 -22 -28 0
56 160 168 0
-103 104 -264 0
-120 153 -235 0
-126 229 293 0
-187 200 206 0
-16 -127 -186 0
-36 -114 165 0
30 183 213 0
2 101 -118 0
8 -83 270 0
190 229 273 0
-53 -218 -236 0
75 -176 247 0
53 -149 152 0
-174 -183 245 0
-76 -118 -246 0
141 -162 -250 0
183 255 287 0
127 -243 -258 0
47 -99 -144 0
-26 -154 205 0
36 50 296 0
52 -54 206 0
134 -143 -195 0
-20 256 290 0
-62 106 -232 0
89 -110 198 0
-7 -97 159 0
-142 -156 289 0
-70 108 -176 0
91 147 -200 0
-183 -228 257 0
25 148 281 0
-18 -184 -218 0
-23 97 -120 0
147 156 275 0
-71 -90 183 0
119 202 238 0
110 -116 162 0
247 282 -299 0
-144 -185 274 0
-59 -138 204 0
-56 141 -206 0
-15 116 -184 0
18 -173 205 0
87 -254 -299 0
88 155 -226 0
-107 128 -166 0
84 -171 -208 0
60 -91 -213 0
30 -124 253 0
-57 -78 -186 0
21 62 101 0
-167 173 -201 0
-177 215 299 0
34 -36 -56 0
-72 -204 -226 0
30 -151 -198 0
66 -94 -101 0
-104 151 281 0
-108 -177 -265 0
40 -55 -112 0
114 196 -204 0
15 -35 -183 0
-59 69 184 0
25 161 241 0
-131 -157 234 0
-100 -186 -273 0
36 -111 184 0
-29 159 187 0
-28 113 171 0
-41 -61 111 0
-82 159 -263 0
-17 51 -57 0
118 -253 269 0
-41 -192 294 0
-27 -50 132 0
-121 -245 256 0
51 107 -180 0
46 -62 122 0
-23 146 -298 0
-28 -246 282 0
-169 192 198 0
117 172 228 0
-186 -261 -262 0
33 83 -208 0
61 139 -146 0
66 -150 -282 0
113 -174 -183 0
72 84 238 0
9 123 278 0
-14 88 -251 0
-12 -25 238 0
110 196 284 0
-100 247 292 0
102 -106 155 0
-63 -140 -245 0
-25 -184 -277 0
-109 136 -167 0
84 -208 -242 0
144 182 185 0
51 -66 190 0
24 69 273 0
11 -65 174 0
-200 250 -277 0
8 58 121 0
66 181 293 0
53 -249 289 0
-79 -127 243 0
49 57 -115 0
155 -208 220 0
-33 98 259 0
134 201 255 0
-133 -185 -234 0
-14 96 287 0
-44 -57 -206 0
-60 -97 -110 0
-41 -169 282 0
42 240 242 0
15 113 175 0
-3 -144 239 0
-125 -168 -285 0
208 -282 299 0
145 -252 258 0
-82 -95 -297 0
182 187 -237 0
43 163 -299 0
-135 191 245 0
11 35 90 0
-129 -216 244 0
-20 -56 282 0
-60 -179 -191 0
-97 -211 288 0
60 -149 240 0
-55 -174 266 0
-2 111 -246 0
-26 106 243 0
-105 -159 -175 0
11 -32 -287 0
40 -88 -292 0
-43 107 129 0
86 146 168 0
103 -205 277 0
62 -215 255 0
50 51 -196 0
-4 -80 -98 0
34 44 65 0
-97 234 263 0
-69 190 297 0
-15 -28 -248 0
26 -236 246 0
113 -155 -198 0
20 52 -146 0
32 47 88 0
-136 -167 168 0
-170 -225 237 0
150 175 -210 0
90 99 290 0
148 170 -300 0
-48 154 -194 0
75 -270 -275 0
-234 236 298 0
-1 113 196 0
-153 -274 291 0
192 -224 -294 0
-94 97 -276 0
-20 -184 219 0
60 124 261 0
-2 245 -291 0
60 -167 -293 0
9 -123 231 0
47 136 -199 0
87 241 271 0
-67 84 -98 0
-105 -262 -279 0
-29 201 -259 0
-149 -163 279 0
-32 273 286 0
-44 -127 279 0
-20 23 131 0
95 174 -191 0
-183 187 197 0
222 -263 264 0
24 155 -240 0
-103 -213 -298 0
-103 204 222 0
69 -125 -237 0
9 96 -199 0
-4 -251 -278 0
6 -116 214 0
-72 -77 227 0
-81 -178 -258 0
-16 -64 -271 0
55 93 134 0
-45 132 215 0
-89 111 -204 0
-80 102 -198 0
174 213 236 0
-17 220 291 0
77 -191 279 0
-16 -121 291 0
-136 -202 -262 0
-59 -142 -299 0
110 176 227 0
-5 -47 276 0
-192 -235 243 0
-116 177 -247 0
240 262 -274 0
-210 -214 272 0
-24 70 230 0
-82 -195 -201 0
75 -238 -240 0
-28 264 281 0
-74 -113 204 0
2 52 -87 0
39 -105 -232 0
66 78 -100 0
-12 -73 -115 0
-207 -221 -263 0
-86 -158 165 0
-55 70 -290 0
89 106 229 0
75 160 -197 0
-166 228 244 0
-191 -279 291 0
-53 -214 -278 0
-252 -278 -282 0
9 -160 -213 0
85 -151 187 0
31 -112 -293 0
-241 244 253 0
-118 181 -186 0
-33 -63 153 0
-23 169 -230 0
13 68 -78 0
170 175 209 0
-87 -120 -124 0
-113 195 -276 0
-46 64 71 0
-97 -117 169 0
-78 -150 -200 0
-9 10 85 0
58 109 -286 0
137 203 -292 0
-69 108 -296 0
-56 88 -236 0
-94 130 291 0
58 179 -299 0
-54 -80 -233 0
97 -101 -279 0
41 64 239 0
-17 -30 -252 0
128 -148 -222 0
7 262 281 0
87 136 220 0
-118 -225 294 0
-36 64 78 0
-4 -141 -273 0
76 -118 265 0
242 261 293 0
49 115 263 0
-16 -127 158 0
-45 -206 289 0
71 161 -213 0
-56 -155 -237 0
56 -130 281 0
-78 127 179 0
97 -245 290 0
-142 -187 249 0
115 -142 265 0
13 102 -193 0
-88 -146 -205 0
-176 -178 197 0
38 -107 -133 0
-119 -126 -162 0
150 164 -284 0
-86 -113 165 0
-74 232 262 0
-39 118 -127 0
-120 -261 293 0
39 -209 274 0
-3 -114 127 0
130 152 200 0
93 -160 171 0
15 -58 -183 0
6 -127 207 0
42 -76 195 0
38 -89 137 0
45 -67 271 0
-91 110 181 0
36 153 207 0
-11 -232 -247 0
-18 -141 -261 0
17 36 -54 0
-83 -152 162 0
-78 106 232 0
-212 237 298 0
-85 147 -157 0
151 -278 296 0
64 73 231 0
-61 -267 296 0
-11 -79 -209 0
-6 -119 176 0
69 193 251 0
-42 130 282 0
-163 232 279 0
-83 -170 -187 0
-116 179 -294 0
64 -144 286 0
95 -238 -294 0
11 -23 244 0
-1 -13 -32 0
84 -128 293 0
-9 -12 -36 0
-45 -88 -282 0
232 -291 -298 0
-11 -119 220 0
-99 212 -234 0
16 -80 -217 0
-23 -135 245 0
-20 103 292 0
96 -202 -217 0
80 -97 228 0
213 -230 256 0
-47 -149 -234 0
23 -38 219 0
-11 -56 -199 0
148 -160 -185 0
72 -182 -210 0
-44 96 244 0
228 -291 -295 0
-30 -56 62 0
43 -276 -298 0
-40 -252 267 0
182 194 247 0
-17 -61 253 0
-120 193 201 0
-44 131 -288 0
114 132 -204 0
-142 200 226 0
176 196 -225 0
17 -66 118 0
-128 248 -260 0
115 207 263 0
129 -136 140 0
87 273 -289 0
130 185 238 0
-72 107 -213 0
-8 -71 -183 0
23 -74 -106 0
-197 -264 280 0
33 -129 -243 0
174 -276 300 0
-48 139 -213 0
74 180 -225 0
-136 -223 -290 0
-77 125 -228 0
104 155 -214 0
54 124 168 0
52 55 -294 0
-178 -210 257 0
-33 -169 -292 0
96 -169 191 0
-69 149 -274 0
83 130 228 0
20 54 -151 0
-197 198 -277 0
83 -98 176 0
-90 -107 281 0
-46 197 291 0
-81 -84 262 0
53 89 101 0
-112 142 -262 0
66 100 265 0
83 -111 -173 0
-4 192 203 0
-40 -145 181 0
79 101 103 0
-49 -265 277 0
-168 -174 284 0
-87 150 -232 0
60 -73 -295 0
194 236 -263 0
-91 -110 -248 0
178 -179 -207 0
-103 136 -212 0
156 225 -233 0
24 -140 -203 0
156 231 269 0
-3 205 -255 0
16 -94 -107 0
15 -89 208 0
145 -181 -270 0
177 188 214 0
-23 -27 -136 0
138 -160 198 0
81 200 218 0
62 153 180 0
-20 -174 227 0
-34 85 103 0
19 -142 234 0
96 -165 248 0
30 42 -175 0
-26 -103 -159 0
111 -134 -223 0
98 281 -295 0
-28 39 -73 0
-97 -206 -213 0
-14 -47 -203 0
-10 -270 271 0
81 147 -251 0
63 126 -136 0
7 -117 -175 0
45 97 -262 0
15 -25 261 0
-96 -113 171 0
13 -211 -251 0
-210 290 -293 0
-133 231 -232 0
35 -37 165 0
123 -166 192 0
-249 -259 297 0
105 -113 -224 0
40 46 228 0
39 220 -223 0
73 -185 -210 0
123 211 279 0
-232 -241 -290 0
180 181 290 0
-15 33 -271 0
-37 58 162 0
-4 -58 -188 0
127 191 -217 0
40 68 93 0
-139 -224 -250 0
-30 267 300 0
-5 114 -206 0
-37 -55 119 0
9 -15 -263 0
133 -207 252 0
-5 62 122 0
-79 -127 -148 0
-22 44 -66 0
105 172 217 0
-87 -205 255 0
79 -152 154 0
-22 -77 -289 0
-44 170 -278 0
-43 253 254 0
-8 30 -258 0
-116 -119 -244 0
-12 18 -227 0
-84 103 -127 0
-18 174 -268 0
-93 -151 -185 0
-13 171 200 0
29 -160 -180 0
-117 162 192 0
-107 -128 -221 0
-114 -249 -265 0
80 120 -188 0
133 -217 -291 0
76 120 -289 0
-213 233 -298 0
20 75 288 0
103 -126 254 0
-17 166 -192 0
-50 78 239 0
-28 62 139 0
36 -76 -81 0
-18 179 221 0
50 246 265 0
79 -86 160 0
9 -156 260 0
-44 -50 142 0
53 54 103 0
-28 -279 -285 0
-190 232 239 0
-33 91 183 0
82 -148 -298 0
-162 -229 243 0
27 44 -162 0
96 -145 300 0
-30 -106 184 0
-75 -145 178 0
-154 205 -255 0
179 -231 243 0
88 -181 298 0
124 -144 -178 0
2 -126 -137 0
31 260 -300 0
211 -213 -284 0
50 120 -144 0
18 52 -212 0
3 24 289 0
-72 275 -296 0
59 -73 -276 0
-51 -154 287 0
95 98 242 0
-119 212 -268 0
118 140 -243 0
-27 30 -121 0
-57 68 -259 0
-2 -179 272 0
29 83 143 0
1 55 -144 0
-50 -273 295 0
4 114 -218 0
-173 174 298 0
186 255 262 0
-108 136 260 0
-130 182 -229 0
-47 87 98 0
-111 -237 259 0
-172 -174 178 0
66 174 267 0
141 -250 298 0
-103 -132 -213 0
-4 41 237 0
67 -162 290 0
229 237 -252 0
223 252 253 0
96 268 -290 0
9 28 -139 0
-32 -43 -258 0
79 269 281 0
84 270 -277 0
148 -229 233 0
-21 159 261 0
14 -19 -284 0
-20 132 138 0
-134 -160 267 0
57 285 -287 0
-37 -93 -255 0
-8 177 -243 0
-2 -12 -102 0
-7 -161 280 0
62 266 295 0
172 -274 295 0
-164 -204 -215 0
-38 122 -218 0
-18 228 280 0
7 -119 271 0
36 267 290 0
69 220 279 0
-48 -123 -189 0
49 -78 -217 0
136 -184 205 0
-58 -86 296 0
146 -173 177 0
54 142 260 0
80 125 -171 0
12 -41 -44 0
106 108 194 0
115 -150 299 0
30 -208 214 0
13 243 251 0
107 -111 -133 0
-119 -282 -290 0
57 67 138 0
222 -234 -267 0
-26 113 -282 0
-93 -172 245 0
-78 -151 -216 0
-25 -44 68 0
-43 -91 -214 0
184 -207 -276 0
-40 -47 189 0
-72 114 241 0
17 -84 -292 0
-21 -222 -250 0
93 -96 145 0
11 -18 -48 0
9 126 -156 0
69 -82 -164 0
-27 160 -267 0
167 -190 282 0
69 -92 -186 0
-119 289 -297 0
-97 113 -243 0
-204 219 300 0
-21 105 -156 0
4 143 162 0
118 122 244 0
131 140 -152 0
61 218 238 0
81 111 132 0
-131 -282 -299 0
74 253 261 0
-22 -265 -278 0
78 -261 289 0
33 -186 -195 0
69 -180 -225 0
203 -248 -290 0
66 -88 -284 0
50 63 291 0
147 -179 -295 0
121 164 -290 0
86 133 272 0
-40 129 195 0
-108 -152 -213 0
-103 -135 -276 0
45 83 -171 0
148 261 281 0
-16 -233 -270 0
-110 179 -192 0
-118 -138 -236 0
-48 100 -148 0
-72 169 294 0
86 -128 -273 0
-26 -206 226 0
189 227 264 0
115 163 240 0
-50 -118 -159 0
34 230 -237 0
-71 124 214 0
-73 249 -271 0
-3 -164 -203 0
157 258 -261 0
67 121 -238 0
-56 61 148 0
-40 -149 282 0
-48 -74 197 0
-119 133 -236 0
-69 95 251 0
87 110 -140 0
-45 -168 197 0
-87 -137 275 0
-101 143 -262 0
123 -163 -191 0
-13 -113 -251 0
145 150 -299 0
20 94 207 0
71 -167 -218 0
-108 151 233 0
97 -104 155 0
-36 -195 212 0
-27 225 -264 0
-218 243 -255 0
64 138 150 0
-177 -237 -292 0
124 165 208 0
42 63 -145 0
-25 -82 -219 0
7 169 178 0
-59 81 125 0
-129 209 287 0
-150 262 -292 0
19 80 -274 0
-6 211 280 0
-157 248 291 0
-19 180 281 0
5 106 286 0
7 -122 -197 0
-30 36 221 0
-98 -241 -264 0
-204 228 258 0
94 141 -190 0
-76 -194 196 0
114 217 285 0
45 -52 -299 0
-62 -106 -293 0
73 -153 281 0
-4 -120 -200 0
22 -226 -241 0
180 -230 296 0
-3 -19 124 0
-14 247 -281 0
105 -167 229 0
-25 -84 -124 0
-244 247 252 0
-46 -59 -181 0
61 215 -264 0
-21 28 -46 0
-16 212 231 0
56 94 299 0
30 -52 -181 0
62 -138 285 0
35 -111 -173 0
-131 -166 244 0
-113 -179 247 0
82 -264 -265 0
127 -272 298 0
2 27 226 0
-155 281 -289 0
-79 -118 -224 0
15 68 278 0
-113 147 -196 0
14 139 -300 0
-195 211 231 0
142 -243 -285 0
-20 51 -197 0
-88 -273 -282 0
91 138 -222 0
132 164 -218 0
-26 -45 -105 0
17 -33 -267 0
25 49 -276 0
55 133 283 0
46 87 -239 0
8 -214 -266 0
-45 -154 179 0
144 -274 -294 0
110 -191 -289 0
-10 -117 -147 0
107 -171 -216 0
-27 146 167 0
44 139 224 0
-5 -38 42 0
-112 175 292 0
99 210 216 0
-22 111 -169 0
-54 84 148 0
-115 279 -281 0
-9 -65 69 0
-100 -167 -200 0
-37 250 -272 0
