c F2 random 3-CNF cnfgen RandomKCNF(3,300,1500,seed=6) m/n=5.0
p cnf 300 1500
-42 249 294 0
-75 192 -241 0
102 212 -251 0
46 -172 -218 0
49 -129 228 0
-24 103 185 0
-126 -186 221 0
46 257 -269 0
-101 160 195 0
7 108 268 0
-157 -171 -286 0
65 149 -251 0
50 204 -226 0
-40 -195 -229 0
-44 -99 -210 0
10 -12 -89 0
-97 -132 -258 0
-211 -216 -249 0
-73 -194 -252 0
-84 -166 -188 0
-81 204 -250 0
16 -30 -94 0
32 -99 255 0
217 -252 269 0
52 186 -190 0
20 50 -74 0
16 36 237 0
136 232 256 0
-226 -229 246 0
-147 150 187 0
-142 -144 -258 0
17 191 228 0
-17 -89 275 0
-27 108 222 0
59 -205 -281 0
-38 39 66 0
-77 95 -270 0
114 -115 289 0
124 -163 288 0
-167 196 -270 0
70 -272 -283 0
77 -85 95 0
-7 21 32 0
52 189 277 0
-116 209 -290 0
31 -40 294 0
26 -58 -92 0
119 131 -228 0
-7 131 270 0
60 186 -188 0
-27 175 224 0
-6 35 -173 0
45 136 140 0
94 -215 -280 0
-246 -265 289 0
-17 99 154 0
2 56 295 0
-202 243 -249 0
-6 -80 -235 0
-69 -147 164 0
3 -91 157 0
-46 100 195 0
-26 -267 -269 0
-35 140 200 0
57 80 259 0
-64 111 180 0
90 -95 -116 0
57 -70 234 0
-35 135 171 0
-16 234 246 0
-52 141 -197 0
-73 -76 190 0
-54 -78 273 0
-66 246 -283 0
62 -102 -205 0
-131 -178 -278 0
24 257 -285 0
131 275 -286 0
-8 108 293 0
-30 -140 143 0
-2 47 -88 0
-94 -114 -245 0
45 63 -221 0
-29 -113 -138 0
-154 185 -219 0
-32 84 143 0
-32 58 225 0
1 -135 -181 0
178 199 -207 0
-132 229 254 0
-27 264 278 0
-7 55 151 0
-16 132 205 0
70 90 142 0
-112 -168 -215 0
99 166 233 0
-72 -115 -201 0
99 -116 292 0
62 -204 -296 0
-130 -224 -256 0
191 -269 299 0
149 157 -242 0
-83 -188 -295 0
-37 222 233 0
34 223 -247 0
-83 92 -186 0
16 -59 -178 0
-2 -185 -198 0
90 181 253 0
-4 16 -23 0
168 241 -248 0
57 74 -109 0
-113 -183 214 0
98 144 190 0
-24 206 271 0
42 -61 -99 0
96 108 -226 0
-110 278 291 0
-15 54 150 0
-212 279 -286 0
71 -88 -277 0
-17 154 206 0
-120 153 -221 0
-184 -186 -208 0
79 -132 147 0
4 77 -283 0
-7 109 238 0
-64 -200 251 0
-2 149 -277 0
-45 165 272 0
107 125 -157 0
14 -162 -181 0
28 31 289 0
87 -132 -150 0
115 147 289 0
232 286 295 0
-21 -184 -284 0
-123 -142 -266 0
196 229 287 0
201 -218 -261 0
52 89 297 0
106 -125 255 0
18 -23 -202 0
61 103 247 0
126 -181 -243 0
-122 213 287 0
25 -205 -238 0
-55 276 -291 0
-141 -157 -188 0
103 -179 -230 0
42 120 179 0
-8 81 -259 0
23 65 -99 0
88 109 114 0
37 -166 204 0
-76 223 -230 0
-1 -154 241 0
1 109 153 0
183 191 -291 0
57 -166 209 0
220 -235 -298 0
-7 124 213 0
8 -12 17 0
-28 -79 -226 0
-113 -127 128 0
-27 46 -124 0
-197 250 276 0
76 126 -141 0
-13 179 -196 0
59 109 162 0
-43 80 -92 0
-7 227 257 0
-5 -172 -281 0
-35 128 -215 0
9 74 239 0
36 47 86 0
47 -128 253 0
-12 56 241 0
-57 245 -287 0
52 -110 222 0
-62 63 268 0
33 -194 -206 0
14 82 120 0
-71 156 -224 0
39 -144 -280 0
-111 -191 -283 0
61 -152 -197 0
-11 -90 170 0
-111 147 218 0
-1 16 -246 0
-122 -218 -286 0
102 107 275 0
109 -235 -261 0
119 142 242 0
-23 -102 149 0
-50 -94 156 0
24 116 254 0
-142 218 219 0
55 -228 -238 0
-24 222 -286 0
-83 -104 -247 0
262 -282 291 0
-24 -130 -171 0
-70 120 145 0
-34 -37 200 0
27 82 -145 0
-4 -28 -290 0
-23 144 270 0
11 -117 142 0
-67 96 234 0
77 247 256 0
61 82 215 0
79 -201 289 0
30 -45 144 0
-76 135 -276 0
99 -119 -256 0
2 -202 -253 0
-10 128 -224 0
24 -32 -190 0
173 231 248 0
-169 235 -240 0
-245 258 -290 0
-75 174 197 0
32 69 -243 0
-6 137 -155 0
-75 156 -180 0
42 106 -249 0
28 97 -107 0
-99 -157 280 0
35 -86 -180 0
-31 81 -112 0
-47 107 117 0
-45 159 174 0
-57 91 272 0
7 87 231 0
-37 212 -239 0
86 -181 235 0
-155 165 -175 0
-50 185 -249 0
-62 104 124 0
110 -200 294 0
-31 47 229 0
21 -69 263 0
-2 100 272 0
-2 84 -256 0
-2 -118 -127 0
-40 121 273 0
-103 -139 -225 0
175 180 293 0
121 -143 -271 0
-101 137 258 0
-115 -130 -132 0
33 80 -282 0
-82 -259 263 0
75 213 -239 0
7 -174 -262 0
50 -153 -262 0
-40 150 180 0
62 -174 290 0
-106 182 -194 0
126 140 -273 0
70 -88 185 0
-49 -117 169 0
52 98 214 0
209 -210 216 0
-47 106 -201 0
-30 -140 262 0
148 -219 -227 0
37 139 -171 0
-158 -282 300 0
-224 240 -254 0
21 -131 -297 0
1 -156 -235 0
26 54 -185 0
-122 195 -228 0
-118 176 -286 0
-7 -188 -208 0
65 -222 228 0
62 91 269 0
-70 -154 217 0
103 -137 286 0
3 269 -283 0
-45 97 294 0
131 -196 242 0
194 196 252 0
-29 78 159 0
-156 -180 227 0
36 -81 88 0
-21 -65 -184 0
8 -32 79 0
59 123 246 0
-21 68 98 0
23 -73 -249 0
-75 133 -257 0
-56 74 206 0
-43 126 -153 0
-62 -70 171 0
91 -216 238 0
53 -249 278 0
10 124 -168 0
-62 67 -135 0
145 254 -258 0
29 45 202 0
-45 144 -219 0
22 -162 294 0
-122 -153 178 0
-11 -148 -266 0
-195 201 -218 0
21 61 85 0
116 150 165 0
5 -19 -132 0
114 -120 278 0
20 -50 -68 0
-30 94 -296 0
-23 -56 -59 0
-61 156 -163 0
38 -50 145 0
-67 117 -218 0
-142 -164 -239 0
-42 193 210 0
-46 -101 -157 0
17 46 289 0
-114 -116 121 0
126 -209 -280 0
2 234 283 0
-41 92 273 0
-128 213 -280 0
-55 -92 -219 0
125 156 -198 0
-53 103 -111 0
237 -249 271 0
42 100 -203 0
67 223 -234 0
-68 98 170 0
194 -239 295 0
-23 162 295 0
9 46 -89 0
-164 -229 267 0
36 -45 -249 0
-144 -175 205 0
51 -70 132 0
39 -58 -266 0
59 -258 270 0
157 -207 -299 0
23 -203 -205 0
-180 -247 296 0
2 -61 -300 0
-44 108 -146 0
60 -229 298 0
58 -126 227 0
225 -237 264 0
-97 214 280 0
-22 -128 183 0
158 228 256 0
-1 69 283 0
87 118 165 0
86 -116 146 0
-106 120 167 0
32 -149 -248 0
-171 -239 -274 0
52 -230 -299 0
98 205 -212 0
16 -99 284 0
-106 -240 282 0
-115 248 289 0
17 -59 -115 0
-50 231 -262 0
-94 -137 -224 0
50 234 291 0
-44 -109 -281 0
-91 -270 273 0
-41 47 -233 0
63 -214 293 0
-79 172 -220 0
12 79 182 0
-36 -258 -298 0
-68 -223 263 0
-202 -237 -275 0
-94 -182 -194 0
-123 218 283 0
-215 -222 -276 0
-168 -189 287 0
57 -127 -284 0
203 211 -223 0
24 -126 226 0
61 -162 278 0
151 153 -162 0
-58 -116 197 0
-3 -100 -253 0
-12 36 -277 0
24 70 -271 0
5 -134 189 0
-50 -247 -292 0
-30 189 -291 0
63 -101 -169 0
-42 -47 264 0
-159 275 -291 0
-41 95 104 0
-70 141 214 0
-134 182 -208 0
-154 -258 295 0
-101 -118 120 0
-33 -79 -190 0
-211 -222 -242 0
-72 215 254 0
18 -174 246 0
49 -189 286 0
69 104 296 0
60 139 250 0
21 96 254 0
-20 -87 253 0
-39 -107 122 0
67 212 280 0
-23 -136 243 0
-61 154 254 0
13 -19 294 0
-26 108 -125 0
14 -129 -287 0
186 228 277 0
-23 -108 -262 0
-145 252 -257 0
-45 -126 -145 0
52 -127 181 0
146 -170 261 0
20 248 293 0
184 186 210 0
238 -260 277 0
256 -267 -277 0
29 -122 -148 0
55 -76 257 0
89 175 -253 0
221 -247 253 0
-11 26 226 0
-11 -64 -86 0
123 -186 298 0
88 91 104 0
-58 -137 157 0
-10 46 160 0
-28 109 -235 0
60 -148 298 0
-189 -229 280 0
-107 113 193 0
117 -153 -249 0
-122 157 277 0
8 -78 -152 0
83 -144 -255 0
-209 -294 -295 0
55 178 233 0
-14 45 -106 0
-151 -271 279 0
-198 232 -269 0
146 -175 282 0
125 -152 227 0
49 -223 -261 0
-141 -146 -188 0
19 -20 -277 0
26 38 -63 0
110 -208 230 0
-46 -112 139 0
-60 124 -243 0
7 124 -191 0
94 -207 -227 0
131 -141 221 0
-55 177 -273 0
-39 141 162 0
-11 45 172 0
120 175 206 0
-96 193 -277 0
-145 182 -184 0
-242 -255 -294 0
-22 224 -242 0
-3 -39 267 0
-95 132 -140 0
23 -229 -259 0
-165 210 -238 0
13 -112 -168 0
-2 168 247 0
-27 -87 265 0
7 -12 130 0
55 -168 176 0
49 219 233 0
-87 -146 276 0
67 -78 -209 0
94 -160 300 0
159 238 -257 0
-45 116 160 0
157 212 -229 0
18 39 101 0
-54 -162 258 0
35 80 281 0
104 -275 -278 0
109 111 290 0
-35 109 187 0
-162 -202 -294 0
-5 -67 231 0
-126 -216 -271 0
15 -25 200 0
-6 -110 186 0
71 79 182 0
-90 125 -167 0
-124 246 277 0
40 69 238 0
-132 215 -246 0
-73 180 -251 0
-18 -69 -176 0
14 -122 -151 0
79 148 -244 0
-7 -54 -78 0
15 180 277 0
64 112 -291 0
-62 221 -284 0
197 232 -241 0
-38 -120 137 0
11 99 116 0
-37 89 -241 0
-87 110 299 0
105 240 299 0
6 -45 -284 0
-40 157 280 0
15 117 -241 0
-42 66 217 0
-30 -197 252 0
101 230 -243 0
-137 173 -223 0
-211 -265 267 0
32 170 252 0
5 -54 97 0
-33 -49 142 0
-36 107 129 0
-32 -121 -174 0
-47 -48 57 0
77 288 -290 0
8 138 -275 0
111 191 261 0
50 72 265 0
-16 92 -239 0
-221 -228 283 0
90 149 188 0
-81 -168 -198 0
-143 -222 -282 0
119 -233 -251 0
9 67 179 0
48 122 -226 0
188 205 -259 0
-23 172 255 0
32 81 -166 0
4 -54 61 0
-16 -152 232 0
65 -123 -146 0
-22 -62 181 0
-29 104 193 0
-86 -173 274 0
1 -82 -85 0
157 -242 254 0
13 -71 133 0
42 287 -293 0
-4 -46 82 0
-128 180 269 0
-17 229 -273 0
-28 140 -196 0
41 103 -148 0
-28 -32 273 0
51 196 -235 0
-71 -203 -206 0
-53 151 270 0
-114 118 -255 0
39 128 243 0
32 262 296 0
-130 227 -264 0
103 112 -140 0
6 -61 281 0
74 -97 121 0
-232 265 -291 0
-134 161 -279 0
107 171 276 0
-131 -193 225 0
44 117 -245 0
-77 -78 -100 0
138 -276 -281 0
69 216 -295 0
-6 18 -228 0
-135 227 -280 0
-58 239 253 0
-19 -75 -190 0
-8 162 289 0
63 163 262 0
-145 -192 202 0
-95 100 -116 0
82 107 122 0
-94 -153 288 0
-45 174 187 0
-114 -139 -300 0
-140 -178 296 0
84 171 -218 0
12 142 177 0
-37 -245 -267 0
-15 56 98 0
-2 21 -160 0
95 168 -280 0
-118 158 -251 0
12 -60 -198 0
-131 -239 -289 0
47 74 -290 0
-153 -168 -298 0
139 -187 277 0
-187 -249 273 0
-221 -249 265 0
-50 -250 280 0
57 61 106 0
-49 123 -210 0
107 -110 150 0
-121 252 -291 0
-70 -160 -288 0
51 90 207 0
-37 -197 -290 0
13 -42 -54 0
-55 -56 -73 0
11 55 229 0
196 -198 255 0
-15 -107 233 0
147 -148 -155 0
84 95 241 0
-93 -97 -254 0
-28 -67 -133 0
-4 21 272 0
-77 -172 -275 0
-106 -138 -208 0
123 144 164 0
12 -70 -265 0
74 -161 -219 0
20 -30 -287 0
-89 111 -176 0
36 166 -263 0
183 -207 -256 0
63 -120 -171 0
52 139 189 0
75 -201 -272 0
-152 -157 243 0
-52 -123 283 0
-232 -252 -273 0
138 164 -254 0
-153 189 -247 0
74 195 273 0
10 34 -98 0
155 183 -236 0
81 85 -202 0
50 117 -268 0
42 -216 -279 0
-7 32 109 0
-9 109 -195 0
162 -224 -294 0
-75 -252 -293 0
5 105 -154 0
-41 236 257 0
4 -189 -299 0
7 -170 195 0
-42 -113 -170 0
1 34 -59 0
-26 94 115 0
-9 45 217 0
-35 -42 -197 0
-1 64 139 0
149 -244 -249 0
-159 217 278 0
20 81 285 0
-25 -51 67 0
-123 157 191 0
-155 -230 288 0
-206 224 255 0
73 85 210 0
-76 -211 -293 0
56 135 -242 0
23 34 197 0
-46 122 246 0
176 197 289 0
2 78 -268 0
-36 39 250 0
38 -218 -273 0
68 130 199 0
-135 176 -249 0
-5 54 240 0
5 183 295 0
9 -115 -262 0
9 41 159 0
31 -135 207 0
-22 162 221 0
-33 -81 226 0
32 -61 184 0
-78 -247 -261 0
45 54 249 0
126 -233 -262 0
-139 172 191 0
14 209 -260 0
-77 -205 -209 0
-76 -243 -268 0
-20 -79 -131 0
-32 43 -182 0
38 -157 -240 0
-4 -41 -113 0
93 -99 217 0
-21 -53 -143 0
13 18 159 0
-1 93 193 0
20 256 279 0
-150 178 -238 0
28 -143 -282 0
104 167 -235 0
-26 -57 199 0
50 95 -158 0
-16 40 -79 0
92 110 -112 0
-32 221 251 0
122 163 -265 0
-96 -247 295 0
-25 259 -269 0
-199 -212 -266 0
51 83 -181 0
-11 -226 263 0
-148 -249 250 0
141 -169 201 0
-182 238 -243 0
-233 235 279 0
-88 269 274 0
70 -157 -271 0
71 206 279 0
-45 81 -166 0
66 -257 284 0
-49 -93 -98 0
3 254 -267 0
-117 -204 -233 0
-52 103 -289 0
40 -276 293 0
1 26 -47 0
-160 184 -217 0
80 -156 288 0
60 84 -141 0
-24 -25 108 0
-170 220 -264 0
-46 -138 -294 0
10 -86 200 0
-98 -243 255 0
18 -38 -176 0
27 -121 -240 0
-17 77 103 0
109 112 -245 0
25 186 211 0
150 -167 275 0
-70 253 255 0
-7 -200 -216 0
-166 -252 -253 0
21 122 152 0
-28 34 -169 0
6 31 90 0
-20 37 -189 0
5 -72 126 0
18 -39 -76 0
94 147 -296 0
11 -191 292 0
-71 77 168 0
8 -121 205 0
22 -220 269 0
6 141 159 0
36 198 229 0
-50 -136 -288 0
63 100 283 0
26 -81 278 0
198 -228 -240 0
166 -175 -207 0
24 -103 226 0
65 -128 191 0
-80 -138 -286 0
16 -46 179 0
-48 -127 -262 0
90 -103 -136 0
-35 -36 -256 0
17 -203 -246 0
-102 230 -298 0
-120 215 227 0
-52 167 -173 0
-2 4 -213 0
-38 -108 -222 0
-98 207 233 0
69 -84 -289 0
14 66 84 0
-108 -141 -197 0
-36 -150 -154 0
40 137 203 0
-10 250 287 0
-100 244 245 0
140 195 290 0
15 256 -290 0
-2 -151 184 0
133 275 -276 0
-66 177 -230 0
85 -294 -296 0
-76 -208 -229 0
-85 -188 -275 0
-17 48 -182 0
31 -104 -205 0
14 -144 159 0
-221 259 -270 0
52 264 292 0
13 -120 -208 0
63 -84 -269 0
-129 135 -288 0
-98 -171 197 0
73 159 -217 0
-200 -218 249 0
10 -16 -88 0
-30 90 242 0
-31 85 -174 0
260 -262 295 0
97 -154 -201 0
46 222 -267 0
-5 -150 -210 0
-32 -206 276 0
126 268 271 0
58 113 174 0
-81 -198 213 0
-71 72 -282 0
-111 189 227 0
-8 54 95 0
30 -132 -194 0
-135 206 266 0
67 -72 262 0
-152 -168 -223 0
-1 38 -173 0
88 178 280 0
132 -135 -190 0
-133 167 217 0
45 179 -283 0
4 250 299 0
-63 -85 -89 0
67 -248 -275 0
-102 -136 -216 0
15 71 -195 0
39 -163 -244 0
-12 -155 281 0
-42 -149 150 0
-159 167 204 0
-208 -214 239 0
-96 184 -254 0
-107 -115 225 0
58 -82 -160 0
54 -93 -164 0
-9 -13 247 0
-22 -124 -144 0
162 192 -265 0
121 189 -289 0
-11 -57 -254 0
151 -164 289 0
-177 204 -272 0
51 -105 277 0
-40 99 -152 0
3 -151 260 0
118 -122 -196 0
-54 146 -237 0
260 -263 -274 0
-13 27 280 0
36 48 -127 0
-62 -187 -250 0
139 174 298 0
-109 -123 164 0
-80 118 235 0
4 -232 -253 0
-160 -182 267 0
-8 -51 -107 0
88 177 287 0
69 -163 -226 0
-85 -105 156 0
8 179 -192 0
35 -57 172 0
51 -257 -258 0
64 94 -207 0
-201 -216 240 0
105 -165 -248 0
32 -53 184 0
-10 291 -294 0
-3 -201 -241 0
-35 245 -275 0
93 -226 229 0
84 201 256 0
-78 -79 -175 0
205 -208 -299 0
-107 110 -196 0
-51 -100 -180 0
19 -268 299 0
99 231 235 0
69 125 129 0
-51 -195 285 0
-31 103 242 0
-34 180 285 0
-19 138 -148 0
-51 -171 -265 0
-4 -216 -265 0
56 -165 -199 0
1 27 -112 0
65 118 231 0
-26 44 -201 0
-90 143 254 0
108 -200 -234 0
-19 111 172 0
147 264 -299 0
-19 58 -235 0
10 -92 -153 0
84 -179 -214 0
-194 -237 246 0
27 67 146 0
88 114 -218 0
53 -80 -286 0
-146 203 246 0
88 149 209 0
-2 78 -279 0
21 -64 135 0
62 -63 -280 0
-7 -94 -184 0
60 -173 -214 0
150 174 -251 0
-154 183 219 0
-1 -197 209 0
152 -218 -249 0
8 -87 292 0
-39 202 244 0
-168 -246 -250 0
30 246 274 0
-14 -99 -230 0
-62 -153 -283 0
-33 -133 -268 0
15 -24 116 0
-28 -180 230 0
13 163 -218 0
57 203 -229 0
-8 -206 293 0
-256 -289 294 0
-53 -74 278 0
41 -252 275 0
41 88 199 0
14 -21 119 0
-163 -210 220 0
-45 -112 -115 0
168 -228 -284 0
-71 -88 -109 0
18 -95 -221 0
-40 236 -290 0
29 -114 299 0
-90 -183 249 0
23 -63 230 0
-255 284 285 0
94 140 252 0
5 -180 -254 0
64 118 -188 0
171 183 237 0
21 75 262 0
93 -180 -203 0
-19 84 97 0
-132 -246 262 0
-65 -110 -134 0
207 231 -255 0
1 -135 -152 0
-13 -108 139 0
-59 -94 -282 0
120 191 -240 0
-77 133 273 0
-118 -272 -280 0
-177 -193 -233 0
43 -77 -244 0
-6 204 211 0
-15 269 -280 0
-156 234 288 0
-45 55 -187 0
119 151 201 0
-2 -90 238 0
-77 166 -228 0
-189 216 257 0
-80 223 242 0
75 -146 -210 0
-187 -276 -300 0
-3 247 284 0
85 238 -281 0
-8 95 156 0
-61 -160 227 0
8 -107 289 0
-52 171 -241 0
-260 -262 272 0
80 88 -198 0
71 -150 -234 0
55 123 -151 0
23 33 90 0
5 -47 -247 0
36 -41 131 0
-226 -231 248 0
69 -145 187 0
144 184 -253 0
29 163 -250 0
-69 -138 267 0
-90 -123 268 0
7 64 -109 0
-52 145 -146 0
-71 149 -299 0
4 172 -252 0
19 71 -108 0
-57 196 264 0
212 221 297 0
37 -54 -253 0
-10 -211 -212 0
-124 -155 218 0
-69 125 -141 0
-57 -138 -265 0
99 -120 121 0
10 -20 -226 0
32 280 -287 0
-34 38 115 0
-27 -131 188 0
-134 -163 -238 0
77 149 -192 0
-43 -67 167 0
161 173 200 0
45 52 -276 0
159 259 264 0
8 53 73 0
55 -256 -299 0
-64 -226 229 0
-34 -36 -77 0
-26 103 -169 0
176 195 229 0
122 -274 -288 0
-14 -179 -219 0
45 -105 -287 0
-73 -185 186 0
-55 163 195 0
-37 -69 265 0
-189 -226 -234 0
-48 -168 228 0
-26 -153 196 0
-216 239 -243 0
-149 189 -213 0
139 172 -223 0
-96 135 237 0
-63 -176 -209 0
-220 -282 293 0
-92 -255 -286 0
52 -112 228 0
-77 -132 264 0
-186 -211 -216 0
21 95 -106 0
-63 -69 -220 0
-87 -132 -245 0
-30 47 -137 0
-83 225 267 0
-59 -116 150 0
-146 167 -266 0
-61 101 104 0
-106 -144 218 0
-25 -121 250 0
54 -197 -228 0
51 166 167 0
53 -149 -246 0
-53 -148 213 0
-80 -240 251 0
-84 104 -241 0
-144 -157 206 0
207 252 -298 0
-61 174 232 0
-4 115 -241 0
-86 216 -281 0
110 183 -253 0
-156 245 -295 0
63 73 -270 0
-105 -237 -243 0
-41 106 214 0
39 -154 -162 0
-146 -171 296 0
-23 34 -145 0
-42 -153 -199 0
174 190 261 0
-112 129 254 0
27 -112 256 0
58 193 -194 0
-118 -161 -250 0
177 -186 -220 0
-8 -50 106 0
63 128 -167 0
123 152 -161 0
221 240 -281 0
171 289 300 0
12 266 267 0
72 215 231 0
-35 37 -172 0
15 -57 -85 0
42 -111 -248 0
41 98 212 0
159 233 -278 0
-183 201 -242 0
33 -131 297 0
-35 41 208 0
151 157 -261 0
158 -178 196 0
91 166 210 0
11 -117 -165 0
124 279 -294 0
43 194 -207 0
32 -80 -233 0
93 -131 -153 0
-59 100 262 0
-133 -147 291 0
-183 -198 -231 0
-32 -112 -227 0
-144 -155 202 0
-51 -139 -265 0
-119 231 255 0
115 -225 -291 0
-16 -176 -187 0
-25 -92 -297 0
26 -123 -239 0
217 259 -282 0
-195 223 274 0
77 -133 255 0
-1 -96 -99 0
164 -165 -298 0
-49 -159 -244 0
87 164 201 0
17 -73 -246 0
-14 83 -272 0
250 287 292 0
24 -159 279 0
87 -163 240 0
-170 221 -268 0
-40 145 -202 0
-63 160 180 0
-228 -250 -252 0
-195 -230 -261 0
-147 -159 243 0
-172 192 -200 0
-8 155 -208 0
154 -195 -226 0
20 164 217 0
39 235 -295 0
-30 45 74 0
78 -183 193 0
-32 85 121 0
-113 146 233 0
-42 74 -142 0
-6 174 -292 0
55 109 248 0
121 123 285 0
-10 -111 -134 0
195 -258 282 0
-86 -156 -248 0
-154 177 -264 0
-27 -137 -197 0
-101 -230 -237 0
-56 -152 193 0
-139 -155 -255 0
-2 33 61 0
167 -211 224 0
68 95 127 0
136 199 -296 0
-122 -126 -262 0
-33 -60 290 0
27 -113 206 0
-135 -140 -244 0
-248 -254 -295 0
122 124 -236 0
54 -165 300 0
-22 -201 -235 0
-34 177 181 0
-4 -9 285 0
70 145 203 0
137 -198 280 0
-138 255 258 0
38 156 197 0
68 186 -242 0
-117 189 -214 0
-89 203 -239 0
10 182 -231 0
170 172 182 0
-102 -125 221 0
-35 53 -124 0
-169 -177 292 0
-10 147 261 0
-38 237 -272 0
79 -139 -179 0
42 172 281 0
-35 -93 165 0
-38 245 -296 0
-28 -69 275 0
30 -177 -226 0
33 -47 -111 0
11 216 -233 0
-22 -177 228 0
-79 135 -257 0
137 143 204 0
145 -216 -254 0
36 -259 -299 0
65 -84 151 0
-16 127 -130 0
68 -157 269 0
-66 -83 -243 0
80 172 272 0
-182 281 -285 0
-111 194 268 0
-25 -31 -134 0
-115 132 155 0
22 23 -35 0
131 147 -295 0
139 251 -290 0
84 -284 -285 0
35 -85 -190 0
39 230 -300 0
22 76 121 0
52 -160 168 0
120 -200 295 0
55 -245 289 0
-3 -211 -262 0
-125 -276 -280 0
-125 214 -215 0
-7 60 72 0
26 67 92 0
69 177 275 0
-14 -79 130 0
-26 152 189 0
77 110 -209 0
-23 66 -261 0
133 -232 -254 0
-45 65 114 0
-199 -233 247 0
-117 184 -202 0
211 -219 224 0
-35 141 -257 0
107 234 -284 0
122 -133 -155 0
-65 -75 84 0
-71 87 -229 0
207 214 -263 0
-10 200 242 0
35 -236 237 0
13 88 -224 0
2 10 -251 0
-17 -25 -119 0
2 170 242 0
-72 -121 153 0
-54 -216 -241 0
-182 209 -251 0
-46 178 276 0
27 130 -162 0
-24 -74 -156 0
6 -59 -206 0
-138 200 -299 0
138 -219 -283 0
-211 227 -272 0
-87 142 270 0
57 132 -214 0
-157 174 -266 0
3 62 -109 0
21 -114 267 0
-183 274 -279 0
86 153 -198 0
62 -188 -270 0
-18 -131 144 0
-64 156 -190 0
-19 -74 187 0
-40 -201 210 0
-57 -202 245 0
15 282 293 0
-7 163 -198 0
6 -30 -165 0
1 57 -210 0
43 -288 -294 0
-71 100 131 0
26 176 -194 0
-26 103 -194 0
81 -227 241 0
157 200 249 0
149 -154 242 0
30 142 286 0
37 169 -291 0
-25 216 -251 0
-72 -174 216 0
-107 -174 223 0
-44 -179 289 0
140 -159 -293 0
-15 -94 -228 0
66 150 203 0
-122 238 297 0
-137 267 291 0
-41 -192 -199 0
-43 -60 284 0
74 -97 -217 0
46 135 278 0
149 223 262 0
117 238 260 0
-18 -39 -204 0
-106 -119 133 0
97 251 279 0
13 53 263 0
-14 -42 142 0
-33 61 129 0
52 -209 250 0
-95 185 285 0
5 -34 -130 0
41 -219 -291 0
-61 110 -146 0
-12 -21 -25 0
147 167 224 0
144 -164 -188 0
-48 -254 -288 0
-65 -82 -236 0
-86 -115 222 0
-5 -86 206 0
40 -61 115 0
-172 -263 270 0
95 -242 287 0
5 -189 -215 0
26 90 295 0
-24 141 -167 0
-55 -158 -253 0
-25 280 292 0
-85 -193 200 0
81 129 229 0
17 129 165 0
14 70 98 0
-40 -134 -151 0
-10 -237 269 0
6 136 -279 0
61 -151 246 0
-65 -114 295 0
40 -87 241 0
88 290 -295 0
33 48 -164 0
73 190 268 0
21 107 -174 0
-171 -178 233 0
46 66 222 0
-205 210 -218 0
-89 106 -114 0
-166 198 229 0
106 -170 -196 0
24 -133 184 0
-14 -161 276 0
80 93 144 0
-18 -83 -273 0
20 -130 -219 0
-179 -191 -252 0
-145 189 251 0
64 -132 205 0
-117 183 266 0
-172 256 277 0
34 -148 175 0
-64 119 -210 0
4 -37 -176 0
70 138 -169 0
121 123 155 0
-122 184 -246 0
-17 -131 -187 0
-39 91 -150 0
-91 -158 -220 0
2 -243 299 0
73 -253 282 0
82 -113 -132 0
-63 -152 -215 0
-54 60 69 0
136 189 -259 0
-26 -167 -209 0
18 -120 -177 0
55 -162 -253 0
-124 196 -300 0
117 -144 250 0
55 171 189 0
-17 -133 -299 0
-152 251 277 0
-28 -29 184 0
-132 188 -273 0
54 111 138 0
237 -256 -285 0
-9 -52 57 0
146 178 -239 0
-10 11 289 0
185 249 -267 0
47 -140 -221 0
5 139 298 0
21 -57 -272 0
-52 -173 -299 0
49 99 119 0
88 -91 -259 0
79 122 -173 0
-74 140 296 0
50 -157 -282 0
-110 206 262 0
163 -251 -289 0
-71 88 179 0
-69 176 -277 0
132 -218 257 0
-157 164 -207 0
8 -191 269 0
-73 -79 -297 0
50 -72 167 0
161 -200 -268 0
-90 156 222 0
73 -96 -181 0
-105 -234 284 0
10 -124 -190 0
-28 57 221 0
-8 -129 213 0
25 119 -241 0
120 238 -256 0
63 90 -250 0
30 -170 176 0
-28 71 85 0
-51 -130 191 0
11 -146 -212 0
-74 81 -214 0
9 -69 276 0
21 -31 190 0
-8 109 146 0
-7 -80 -217 0
-66 77 284 0
-30 116 196 0
-241 260 261 0
-83 -178 262 0
-198 -203 -264 0
-55 163 -236 0
162 228 239 0
-37 44 167 0
65 -69 88 0
-43 160 -294 0
-100 215 237 0
-103 135 -177 0
51 -120 151 0
56 114 284 0
1 -122 -249 0
131 166 238 0
44 66 -211 0
-26 -204 -220 0
27 98 -204 0
5 146 264 0
-17 -153 161 0
51 -136 -286 0
-61 220 -288 0
171 271 283 0
-82 265 296 0
8 53 -65 0
29 -275 -297 0
33 -50 -231 0
133 -232 -246 0
105 292 294 0
56 129 218 0
83 -156 -227 0
84 236 288 0
49 -104 105 0
51 -74 -176 0
105 185 -298 0
-221 224 246 0
78 -119 194 0
-62 180 211 0
99 -131 -187 0
97 235 258 0
-98 -107 -212 0
128 160 -191 0
150 -220 236 0
49 -106 -186 0
67 79 -254 0
109 -184 -267 0
-113 -144 220 0
7 -56 270 0
-220 -222 229 0
-2 55 -245 0
60 -94 226 0
45 180 -207 0
82 -177 -267 0
-113 -242 -294 0
14 107 171 0
13 27 232 0
-171 -236 267 0
-47 73 153 0
-73 133 248 0
60 142 -262 0
-90 -242 295 0
22 -264 268 0
-41 116 -158 0
-76 -86 249 0
-13 236 -260 0
29 206 264 0
-59 -134 244 0
-59 197 -200 0
-68 161 271 0
105 -192 -274 0
107 138 182 0
-187 -196 229 0
91 -93 -157 0
10 -188 -228 0
113 169 206 0
-57 165 -203 0
-98 -152 264 0
-23 -51 -234 0
20 -55 70 0
-7 -48 221 0
81 128 258 0
-44 96 232 0
-105 -244 286 0
-119 -129 229 0
