c F2 random 3-CNF cnfgen RandomKCNF(3,400,2000,seed=8) m/n=5.0
p cnf 400 2000
117 190 193 0
44 -71 127 0
-233 -236 250 0
46 207 -249 0
-209 243 -267 0
-33 50 198 0
121 -174 354 0
73 298 -311 0
-76 -100 -360 0
183 219 286 0
-161 -273 354 0
-77 159 183 0
-7 -125 177 0
-18 -137 -217 0
-90 214 362 0
14 -104 340 0
-7 195 -392 0
-72 -119 -210 0
-36 42 302 0
-44 55 -340 0
77 310 363 0
72 -175 -198 0
-2 167 188 0
17 317 -389 0
62 221 227 0
-80 243 255 0
232 -298 370 0
-242 -289 -367 0
27 -102 116 0
56 109 -372 0
48 222 -271 0
197 270 -381 0
-41 -152 314 0
-41 -152 -324 0
-155 -265 321 0
-101 -190 249 0
-149 -204 -314 0
-101 219 -345 0
-36 -84 256 0
-141 -150 -320 0
-126 211 324 0
235 259 383 0
189 255 -400 0
-44 88 336 0
-12 98 313 0
-236 237 343 0
184 -311 335 0
-43 71 335 0
-19 308 -372 0
168 184 -381 0
-81 -82 223 0
34 221 373 0
91 151 173 0
30 285 -377 0
-125 152 377 0
68 -71 384 0
87 -90 209 0
-230 -300 -356 0
-297 -352 -378 0
271 -377 -400 0
-66 -244 -349 0
-112 270 -292 0
-64 -244 332 0
-18 -191 -260 0
15 319 358 0
95 -230 297 0
-21 -191 258 0
-53 164 333 0
-187 -245 -296 0
192 322 -381 0
-17 -32 -120 0
-89 244 -288 0
-12 -226 -380 0
-149 -152 207 0
-225 256 335 0
-186 -308 -368 0
105 197 294 0
-46 281 341 0
130 206 326 0
19 -227 -368 0
3 15 -377 0
6 160 -328 0
48 163 213 0
-104 -262 265 0
76 218 -260 0
224 -306 -337 0
102 -340 356 0
162 250 395 0
-159 -204 -355 0
12 208 309 0
-58 336 -396 0
-43 -123 -335 0
187 238 -314 0
-50 114 266 0
114 -218 371 0
137 -289 -397 0
73 -293 339 0
-162 183 205 0
-198 -341 348 0
174 250 281 0
-311 -353 -361 0
53 298 314 0
42 142 228 0
-31 -39 -324 0
161 -250 -363 0
-31 245 322 0
-261 -264 -393 0
61 -82 -343 0
205 -280 291 0
-82 -153 384 0
-205 311 348 0
-283 -353 -366 0
98 245 -360 0
35 93 203 0
-95 249 368 0
-128 225 -394 0
-62 157 270 0
-189 -228 373 0
-54 -99 250 0
-15 67 -354 0
-171 230 -344 0
-241 325 347 0
-94 121 -369 0
288 311 342 0
45 -171 -187 0
70 -154 371 0
55 79 304 0
-76 -254 330 0
148 -226 -364 0
-172 224 -255 0
23 297 -348 0
218 -333 -361 0
22 322 -334 0
9 27 -258 0
-71 -128 186 0
97 -124 329 0
16 215 322 0
162 -209 391 0
-30 168 -183 0
-322 325 389 0
139 356 -375 0
73 155 284 0
22 -357 -370 0
-228 -343 -371 0
-70 -350 -365 0
-118 315 -356 0
293 -343 -390 0
60 140 -259 0
206 321 356 0
66 -287 -321 0
-113 287 -324 0
-152 -233 -387 0
-49 -199 -383 0
193 280 309 0
-82 -199 288 0
135 -173 282 0
-201 -215 -275 0
32 249 -319 0
83 87 375 0
195 334 344 0
133 151 -340 0
-41 51 187 0
26 -337 -365 0
141 180 375 0
5 -208 -387 0
117 -189 -207 0
-154 172 -281 0
36 -39 220 0
208 -271 -379 0
-121 -158 166 0
1 5 219 0
-41 54 280 0
227 253 -365 0
-26 148 -283 0
-158 189 259 0
-32 -37 117 0
-59 -223 283 0
-71 -359 -388 0
-193 250 -251 0
-167 -175 -195 0
1 230 -242 0
39 274 323 0
5 -56 -312 0
-45 -106 -151 0
-80 -250 -317 0
-94 150 207 0
-10 113 371 0
51 -72 -315 0
92 -230 -299 0
210 214 315 0
233 355 -400 0
-62 -232 384 0
19 -37 -146 0
32 172 215 0
-67 243 -326 0
-241 -265 -384 0
-149 164 297 0
-84 201 373 0
22 -153 -160 0
-70 -299 319 0
-101 -288 -324 0
22 -144 372 0
41 239 314 0
60 65 -137 0
-80 -256 -352 0
-14 -106 -205 0
-11 -118 -209 0
41 -63 226 0
112 163 -171 0
130 339 355 0
165 240 -268 0
23 78 -253 0
-83 324 -366 0
-22 188 281 0
-248 252 301 0
-300 -305 358 0
-285 346 -364 0
59 -78 184 0
21 110 -349 0
-62 89 152 0
68 146 -253 0
-90 -213 -311 0
-212 -319 329 0
-80 -244 -283 0
31 -71 -276 0
-120 205 334 0
72 -76 276 0
35 -190 309 0
26 188 327 0
-263 -312 329 0
87 -194 360 0
-50 180 270 0
34 -212 309 0
178 -317 -398 0
-42 -55 -326 0
346 361 -365 0
-3 83 -159 0
-57 -195 245 0
-91 269 -293 0
-78 80 117 0
-13 -254 -287 0
-83 232 -323 0
-187 243 346 0
-133 153 -385 0
149 274 380 0
-95 159 210 0
-96 -314 345 0
51 90 201 0
81 -213 271 0
-15 141 -175 0
-144 -241 378 0
-16 24 -287 0
119 166 -360 0
79 360 -387 0
84 110 -365 0
176 237 -384 0
-36 311 -365 0
61 -209 -353 0
160 -240 295 0
56 -287 391 0
36 -132 -397 0
57 75 218 0
259 352 372 0
-245 278 -304 0
-115 -207 -286 0
-176 193 326 0
21 110 339 0
16 259 288 0
-78 -101 271 0
186 -264 337 0
221 -279 -285 0
-69 -218 -261 0
31 -152 295 0
56 -246 394 0
-10 203 377 0
110 317 333 0
-116 173 271 0
-73 -159 171 0
-39 134 -190 0
73 110 203 0
49 -293 307 0
172 310 -328 0
92 131 379 0
-135 -174 -177 0
-258 359 383 0
-105 122 -192 0
124 195 295 0
201 217 374 0
-256 385 393 0
-1 -13 344 0
43 -75 154 0
-1 -202 -288 0
81 -114 175 0
-232 -275 -295 0
-42 -49 -354 0
159 -169 -391 0
-117 145 254 0
-55 -122 -282 0
108 214 303 0
-251 303 357 0
98 257 -261 0
195 229 356 0
256 259 296 0
-34 153 328 0
168 -299 -346 0
-40 151 372 0
-47 -107 -296 0
41 216 334 0
-122 -216 274 0
-61 -349 383 0
11 204 313 0
22 -26 -291 0
31 -124 137 0
-149 -161 289 0
-72 93 272 0
-78 -283 339 0
69 152 -362 0
140 260 -369 0
-22 210 -381 0
-142 -259 -387 0
-250 263 351 0
-82 307 -322 0
-2 323 -337 0
199 -270 399 0
55 -145 262 0
230 -341 394 0
-97 -227 -305 0
6 -20 381 0
137 173 -275 0
147 -330 -379 0
134 169 246 0
-76 277 371 0
-11 129 -276 0
-96 256 360 0
-43 62 -143 0
-133 -221 381 0
14 -297 393 0
137 -156 -203 0
107 237 -245 0
-36 -254 -315 0
36 176 277 0
211 282 365 0
-234 -323 -390 0
-97 -360 -383 0
-246 -270 315 0
-138 -312 -337 0
-14 33 -70 0
61 -147 -335 0
-113 209 303 0
-137 -209 241 0
-134 -312 -373 0
96 -251 263 0
48 181 185 0
-17 -85 133 0
141 -145 181 0
77 138 267 0
225 -233 -289 0
37 -251 -367 0
212 233 351 0
46 -185 328 0
-290 -307 360 0
-223 -289 -320 0
167 254 -302 0
-117 155 337 0
101 169 -223 0
-126 189 385 0
123 190 -236 0
-186 -228 -289 0
129 195 379 0
-43 328 375 0
290 294 -344 0
197 -367 -394 0
41 -57 294 0
201 -329 358 0
87 -239 372 0
156 -176 245 0
68 -185 -330 0
-12 289 -377 0
41 -194 -249 0
275 277 -373 0
11 276 -378 0
107 -139 288 0
-142 -240 -252 0
-122 -226 -320 0
-60 101 250 0
-9 -70 93 0
71 -224 -340 0
56 -96 258 0
126 -170 188 0
122 -184 376 0
81 215 -262 0
-113 140 -147 0
27 67 -113 0
-312 334 -395 0
156 -272 -282 0
-60 123 -206 0
-54 103 233 0
-322 388 400 0
-40 -173 224 0
-57 122 -328 0
-16 283 -368 0
137 -325 -372 0
-180 245 -280 0
78 -166 -184 0
-39 -219 393 0
-94 -118 242 0
73 -161 -191 0
85 215 256 0
205 -213 -347 0
50 85 -264 0
23 178 -332 0
-98 -120 -395 0
-99 -323 371 0
-74 -130 -281 0
61 192 303 0
-146 161 -379 0
27 -120 178 0
156 -223 387 0
60 223 -373 0
99 -272 -377 0
-60 -140 198 0
-105 211 289 0
78 181 296 0
72 -151 -304 0
-54 -65 184 0
86 190 193 0
37 150 206 0
240 315 381 0
9 -197 379 0
78 -118 -122 0
134 -334 397 0
58 108 279 0
-77 -180 -284 0
-91 266 289 0
-70 -106 124 0
42 95 169 0
-179 -236 238 0
223 305 -310 0
-105 139 -174 0
147 -282 334 0
-95 -173 -344 0
-32 177 234 0
-37 43 -180 0
41 101 -339 0
103 -288 382 0
67 -71 -230 0
257 274 -388 0
220 -281 330 0
-79 83 233 0
-82 -91 -234 0
48 -153 248 0
107 271 381 0
94 -167 -233 0
-121 -290 357 0
150 -151 179 0
1 -378 389 0
133 205 251 0
-71 -280 -373 0
99 193 269 0
-50 235 -386 0
145 170 250 0
-211 -276 -313 0
-143 -234 307 0
-4 -89 -375 0
-34 65 -253 0
-50 93 -360 0
130 310 -375 0
-77 -136 -327 0
-57 308 339 0
134 -199 233 0
-195 256 340 0
-24 -349 -397 0
47 169 193 0
-117 -194 345 0
-19 160 -266 0
117 165 -257 0
-11 95 330 0
-16 -103 -297 0
97 145 -330 0
1 -252 -330 0
-21 -48 -142 0
-21 -142 313 0
-56 -86 -114 0
40 146 -337 0
91 -186 391 0
106 152 -359 0
-12 38 298 0
-260 -311 -336 0
-157 -167 231 0
-30 -92 225 0
202 295 396 0
-4 286 308 0
123 -308 339 0
206 -313 323 0
99 -194 -274 0
-36 -142 342 0
-123 154 333 0
-3 -68 212 0
-56 -271 332 0
308 -328 349 0
255 274 -374 0
22 -253 -292 0
-13 69 -328 0
-58 240 -338 0
274 319 -391 0
18 -218 -326 0
4 88 -278 0
-17 -28 -263 0
201 -318 -360 0
-5 234 -249 0
-101 -120 -385 0
-46 188 204 0
-52 316 364 0
97 -241 331 0
23 323 -394 0
108 212 313 0
113 132 264 0
67 -104 203 0
1 128 159 0
-6 328 350 0
-154 299 382 0
-291 -379 -396 0
-234 -258 399 0
118 -128 393 0
229 -331 354 0
220 -294 377 0
73 377 -387 0
37 40 237 0
151 166 -242 0
-132 286 -308 0
-84 -147 -163 0
70 -102 341 0
19 -164 210 0
4 -204 362 0
147 -266 345 0
-14 130 361 0
236 338 -376 0
332 379 386 0
11 -86 352 0
173 -232 377 0
-7 -120 334 0
53 -85 283 0
1 224 367 0
-51 156 223 0
108 -229 283 0
1 36 350 0
-102 -173 -266 0
-8 220 -338 0
-58 -105 355 0
-102 -338 383 0
98 -231 -376 0
34 -252 338 0
16 -133 134 0
-29 165 333 0
237 344 394 0
-92 273 389 0
23 215 -268 0
-67 -166 206 0
24 66 161 0
144 -227 327 0
81 -224 -244 0
145 -267 -289 0
260 340 -364 0
-105 -166 331 0
1 -346 -355 0
-91 -99 280 0
-181 -223 -389 0
-234 -253 273 0
22 298 347 0
-52 -89 -174 0
-248 253 308 0
18 70 301 0
-103 -115 149 0
-23 -40 -371 0
70 167 -398 0
43 -118 385 0
15 -301 348 0
27 -191 -216 0
-173 284 302 0
208 359 -374 0
64 343 -369 0
-21 -51 333 0
-108 -229 367 0
4 -306 320 0
-93 103 -328 0
-30 40 -151 0
-5 226 -271 0
137 349 -371 0
10 75 -96 0
133 -145 268 0
-42 66 282 0
251 312 -400 0
154 182 372 0
-33 -74 100 0
112 -241 387 0
-137 178 -245 0
64 207 -236 0
-163 -217 -310 0
193 320 -400 0
-65 -143 319 0
104 -278 344 0
23 326 -364 0
183 292 -342 0
106 156 -334 0
3 -293 367 0
-58 116 329 0
-61 127 154 0
15 -204 -260 0
192 238 255 0
-31 -199 -225 0
30 64 -285 0
-11 57 -387 0
-10 -296 362 0
217 -266 -347 0
70 194 -264 0
-22 -110 -314 0
-161 318 375 0
-5 43 249 0
-234 -236 354 0
-40 -102 -123 0
129 254 366 0
91 230 -327 0
31 94 118 0
-70 190 217 0
-68 -171 -184 0
193 -194 -337 0
55 -186 -336 0
113 -277 -338 0
26 -143 -231 0
6 192 -248 0
83 169 202 0
123 -313 388 0
153 214 -322 0
17 -23 105 0
251 284 387 0
11 -30 362 0
164 -170 -187 0
-78 -84 308 0
-70 -108 -111 0
8 -51 -107 0
307 320 330 0
-303 -322 323 0
-182 266 -278 0
158 278 311 0
-368 -378 -384 0
-81 267 -341 0
7 -28 -276 0
68 113 381 0
335 -378 385 0
-109 -226 246 0
-272 -370 -379 0
-214 -307 339 0
-34 312 -328 0
-227 362 -363 0
-10 -220 -245 0
-20 212 -337 0
-6 -90 -217 0
-23 89 283 0
-179 -275 339 0
-167 293 339 0
111 155 -200 0
83 -87 -138 0
31 -200 324 0
-102 124 -229 0
140 199 365 0
41 -119 -305 0
-18 238 -267 0
11 -253 317 0
163 330 395 0
103 -267 -375 0
-41 68 270 0
-276 -362 -400 0
177 180 -374 0
-53 -152 345 0
315 340 356 0
-20 -205 -229 0
141 -344 -381 0
-68 -262 -310 0
-131 189 340 0
-11 -41 -45 0
17 252 -382 0
39 67 -393 0
-157 -316 387 0
-57 59 116 0
67 -278 -337 0
111 120 -319 0
72 -222 -287 0
44 -160 187 0
161 -191 -265 0
41 -219 351 0
76 321 389 0
-65 -111 -259 0
41 48 134 0
-179 -187 -300 0
103 167 -219 0
94 -202 244 0
-12 52 -63 0
-11 164 269 0
128 153 -348 0
11 274 -398 0
-33 278 348 0
-197 -374 -381 0
67 -107 216 0
-50 -140 230 0
-78 214 299 0
-157 267 275 0
194 201 258 0
87 -296 -326 0
185 -378 -387 0
67 -154 -166 0
-117 154 -199 0
41 232 389 0
-81 142 -237 0
40 197 391 0
-125 353 373 0
-11 -107 -299 0
144 -295 333 0
-288 348 -377 0
-18 76 250 0
90 183 289 0
-65 -93 -334 0
40 50 133 0
89 207 375 0
25 140 -301 0
28 178 -214 0
-1 -349 -382 0
48 -69 -141 0
-136 -347 -377 0
1 273 -335 0
70 108 323 0
-3 -49 275 0
-39 -177 -271 0
-78 149 311 0
-73 -239 -354 0
-103 242 -361 0
-78 -264 331 0
-22 304 -306 0
-54 -75 183 0
96 235 330 0
-173 -185 -357 0
86 -90 240 0
-101 -224 314 0
195 212 -297 0
9 -125 -226 0
-10 88 -159 0
-168 230 394 0
-128 -187 304 0
105 230 -345 0
268 -275 -369 0
120 193 344 0
202 221 320 0
-35 40 -124 0
36 210 -311 0
-59 -73 -239 0
-56 59 256 0
-191 -296 301 0
-57 315 -346 0
99 -311 -347 0
-76 -99 347 0
-76 -116 398 0
-199 247 -356 0
-15 -285 364 0
-60 64 -268 0
-27 -80 199 0
-67 143 -286 0
-367 -393 -395 0
-197 250 319 0
-127 -167 397 0
126 -141 187 0
-192 -281 -384 0
106 287 317 0
-13 -168 203 0
-43 -309 365 0
68 -178 234 0
-20 162 -351 0
198 -321 388 0
1 -3 396 0
-16 112 209 0
106 142 -340 0
-49 -183 263 0
-231 234 -304 0
-141 -158 200 0
-53 -190 -247 0
271 272 387 0
205 -295 -370 0
-50 342 -364 0
173 -337 385 0
170 372 -376 0
-36 -272 -349 0
188 -189 -190 0
128 -151 -296 0
95 298 -313 0
-107 217 309 0
-159 160 -261 0
-92 302 308 0
237 -269 -297 0
-80 -373 383 0
-57 184 322 0
-64 107 215 0
-66 -122 376 0
32 -169 -252 0
-113 -138 193 0
176 193 -274 0
-82 269 308 0
-81 -96 -243 0
50 319 338 0
-4 -123 -290 0
-229 -296 321 0
18 210 317 0
87 -186 374 0
6 -200 -351 0
-23 76 360 0
59 329 372 0
55 -73 -233 0
-99 -230 322 0
11 304 -318 0
-16 38 -113 0
26 -151 -177 0
59 -183 -334 0
80 312 393 0
124 390 398 0
63 -155 244 0
-98 -157 199 0
8 72 -256 0
94 143 -399 0
26 -102 -201 0
-59 242 267 0
-87 96 -205 0
-88 266 345 0
65 -246 -383 0
153 -246 288 0
119 167 169 0
33 78 -204 0
-83 147 301 0
-18 -274 383 0
-6 -240 -301 0
-7 181 -210 0
-15 314 394 0
-55 196 358 0
-184 196 377 0
-66 207 364 0
-39 -277 -296 0
-57 184 -305 0
-160 -240 294 0
179 229 -358 0
-369 -391 -396 0
-133 -310 -320 0
48 138 -236 0
34 72 78 0
-103 -136 307 0
224 -229 286 0
81 97 397 0
-97 209 -264 0
19 194 -354 0
-29 -185 -238 0
-259 289 348 0
-47 -66 350 0
-75 -151 -235 0
149 -248 -396 0
-3 202 -206 0
63 -82 -213 0
-5 251 -276 0
-25 215 245 0
-20 83 -201 0
-41 -89 271 0
46 -272 310 0
24 -192 291 0
40 111 372 0
-25 -39 -372 0
149 -279 -398 0
-24 55 94 0
-51 172 392 0
-257 343 391 0
59 178 335 0
147 284 -289 0
-75 -370 -395 0
-28 67 -115 0
33 175 -316 0
24 -277 293 0
298 344 -392 0
-193 -229 248 0
149 213 -242 0
-188 -335 361 0
-12 87 -146 0
206 -213 346 0
41 -325 -346 0
-86 218 345 0
-31 45 -289 0
267 299 395 0
-39 62 96 0
-6 31 -138 0
83 -90 -390 0
-95 -316 -364 0
-94 -112 168 0
-15 -94 -203 0
106 -290 375 0
177 -184 -211 0
11 165 -331 0
-3 -196 397 0
38 178 -231 0
21 200 -207 0
2 -6 86 0
-164 -190 -341 0
-51 -96 -393 0
22 -200 -257 0
141 -328 345 0
-110 174 244 0
-200 -229 -250 0
-99 -152 217 0
-35 63 -244 0
-63 -168 -367 0
112 142 -260 0
-49 51 -123 0
-129 153 334 0
178 230 334 0
-211 -299 -398 0
132 -203 -294 0
48 -150 -389 0
-86 -146 -197 0
-10 -40 -192 0
50 197 275 0
166 332 -385 0
-198 239 381 0
-130 -375 380 0
60 180 281 0
-160 259 -281 0
9 -101 -256 0
124 170 285 0
172 234 -243 0
-24 48 215 0
101 201 353 0
-8 231 248 0
-92 -270 320 0
149 182 -244 0
39 51 -310 0
-14 95 -138 0
105 -121 192 0
185 296 352 0
-53 -92 257 0
221 247 252 0
-64 -108 202 0
154 -182 287 0
114 -314 398 0
-31 -90 -371 0
-66 -130 -252 0
100 -301 -348 0
12 -21 -366 0
33 130 -380 0
-109 -185 -287 0
20 -306 -309 0
-48 -177 -347 0
-273 292 -391 0
-49 -222 -305 0
80 268 358 0
150 -206 -392 0
-91 317 -376 0
20 82 388 0
49 142 -380 0
47 -50 -358 0
200 -351 397 0
-112 159 -166 0
240 -266 -281 0
48 167 -195 0
8 17 45 0
-109 128 -220 0
131 -176 245 0
-179 -298 -321 0
-42 -87 363 0
31 -68 164 0
179 -193 255 0
7 35 118 0
229 -303 304 0
61 232 339 0
-206 266 -290 0
114 -320 366 0
56 -114 326 0
-173 174 -177 0
46 267 337 0
-20 -32 -121 0
224 -272 307 0
-358 -376 378 0
31 143 220 0
175 176 367 0
208 289 -304 0
208 -306 380 0
-104 -171 355 0
122 -200 320 0
163 200 319 0
89 -97 159 0
21 -57 273 0
6 -26 -229 0
-6 -326 391 0
-18 236 266 0
209 235 -371 0
-106 109 -269 0
148 188 -336 0
41 -70 -82 0
216 286 331 0
187 -255 394 0
-165 236 256 0
-63 -187 197 0
151 306 -400 0
50 -142 -283 0
-55 -289 -400 0
84 -301 388 0
50 129 222 0
55 142 369 0
-137 -183 -325 0
-65 -170 197 0
-12 60 -235 0
-282 286 380 0
125 -129 -209 0
108 -167 -237 0
80 273 308 0
159 -250 390 0
-126 153 -303 0
6 -76 333 0
53 335 345 0
91 -194 -260 0
78 -135 -178 0
14 -82 160 0
275 306 380 0
124 135 -308 0
-169 264 287 0
269 -357 -360 0
-101 204 -243 0
24 48 205 0
196 225 342 0
-174 253 346 0
27 207 -225 0
-2 -301 353 0
108 170 -400 0
-124 -224 -230 0
-96 -167 254 0
-7 -31 354 0
134 -177 -363 0
101 244 318 0
67 -232 -317 0
135 348 400 0
265 304 330 0
-60 -335 377 0
78 -223 352 0
7 -73 -120 0
19 26 -80 0
75 -176 -282 0
237 -311 393 0
-166 241 -314 0
216 -358 -381 0
183 198 268 0
50 -93 378 0
22 -77 -171 0
153 310 -380 0
19 135 -178 0
-112 167 181 0
-289 -348 -366 0
75 220 -221 0
14 -160 -314 0
-86 -165 -178 0
15 135 271 0
-60 -96 -387 0
35 -366 377 0
116 187 211 0
-49 195 284 0
7 -202 278 0
36 240 243 0
-170 254 348 0
-52 109 168 0
-157 -368 -390 0
-55 -85 196 0
10 -19 -39 0
204 -250 -394 0
79 207 338 0
-142 185 334 0
-51 67 -310 0
-153 260 317 0
-91 298 -353 0
75 -305 377 0
286 313 -399 0
-63 167 367 0
-36 -183 -388 0
269 -362 -378 0
259 359 -383 0
-4 -56 -263 0
-234 243 270 0
54 -122 -154 0
-68 216 -223 0
-175 -185 -370 0
-75 164 -314 0
1 102 -400 0
29 -274 -350 0
269 286 -353 0
44 -356 394 0
107 116 -226 0
83 -343 373 0
19 -31 -136 0
-167 -336 -373 0
-301 344 355 0
218 286 -337 0
-161 -205 -312 0
53 -169 182 0
-33 75 -143 0
-4 -157 328 0
2 -82 -122 0
97 -150 -156 0
-53 -127 398 0
-15 123 339 0
-31 -268 -385 0
-127 -314 382 0
-231 279 -300 0
131 228 316 0
70 333 354 0
-81 243 350 0
-49 115 332 0
-2 247 399 0
81 271 357 0
-100 -250 -332 0
121 122 161 0
35 69 370 0
-151 252 -351 0
155 -159 -170 0
161 216 340 0
-15 133 -363 0
117 163 219 0
-43 -291 -293 0
-113 -166 338 0
-11 -121 -170 0
16 71 307 0
200 -268 -269 0
-118 147 -369 0
-39 -96 180 0
-58 240 274 0
-247 257 386 0
96 293 -364 0
-7 95 -168 0
103 -124 -211 0
27 -118 192 0
53 -64 -226 0
-201 242 349 0
-130 329 -338 0
-5 136 274 0
-26 359 394 0
73 -144 -212 0
26 127 -369 0
28 56 -204 0
-166 181 -242 0
59 -180 -336 0
-49 96 -290 0
65 -163 351 0
-70 -210 389 0
32 109 223 0
-91 352 386 0
29 -211 -214 0
56 154 -311 0
23 120 -252 0
103 -223 267 0
-84 -279 -284 0
-225 -363 386 0
-27 -36 -226 0
-21 -33 -198 0
-98 133 383 0
-50 -152 -272 0
-30 -35 -47 0
135 248 293 0
21 -194 304 0
-150 -258 302 0
-175 324 -356 0
-19 88 -168 0
1 -140 -146 0
4 -93 -191 0
4 255 -300 0
-92 -193 270 0
157 -222 -400 0
99 -129 -189 0
18 -47 78 0
-61 178 -232 0
54 335 -339 0
-7 62 -154 0
53 193 286 0
-101 299 399 0
32 -149 -294 0
-286 -323 -357 0
158 188 331 0
35 83 -140 0
118 -189 -386 0
139 -170 -305 0
1 352 359 0
-65 133 377 0
238 -287 307 0
25 282 330 0
95 228 -261 0
-70 124 135 0
269 378 -393 0
-79 220 -394 0
138 -168 220 0
13 304 -387 0
8 211 -220 0
-48 226 -339 0
-123 -141 247 0
107 -152 344 0
-105 -256 -322 0
-105 261 -284 0
-21 -306 318 0
-76 127 -216 0
-74 190 302 0
-4 43 171 0
277 -316 342 0
-140 202 -253 0
-32 95 277 0
-46 -76 -334 0
15 -117 -231 0
-13 234 396 0
204 -211 324 0
-63 -68 107 0
-82 305 -338 0
130 -168 385 0
-51 -176 -295 0
293 352 -382 0
62 -126 -289 0
161 -310 -321 0
72 -319 -399 0
-13 -176 383 0
161 -215 358 0
165 -259 -369 0
20 128 146 0
-100 134 -348 0
-36 -182 312 0
158 -308 386 0
-91 150 -158 0
-15 -66 -352 0
194 -333 -387 0
-205 -220 243 0
-155 -273 -297 0
8 39 -117 0
-13 -187 -223 0
-67 277 -317 0
33 54 -356 0
8 152 247 0
84 -109 -309 0
24 116 -281 0
31 217 -321 0
115 -164 183 0
25 -162 246 0
223 -260 -350 0
117 -256 -383 0
20 -105 195 0
-205 236 -336 0
-16 33 -70 0
13 164 248 0
63 126 -266 0
-21 -126 -135 0
-10 -45 137 0
-72 345 389 0
98 -138 236 0
42 324 347 0
-13 170 -277 0
-19 47 150 0
79 -201 -328 0
111 324 -383 0
-253 -324 -350 0
159 -165 -311 0
-83 207 246 0
-1 -34 -106 0
111 -145 -265 0
-131 234 286 0
-58 -65 -132 0
-92 155 368 0
-305 337 350 0
-191 -310 -346 0
92 337 -400 0
-21 -97 -120 0
-157 -362 -371 0
97 -301 362 0
-196 -262 351 0
-64 -118 -163 0
178 197 303 0
115 195 251 0
133 260 -372 0
299 313 -354 0
-229 -277 385 0
4 -15 216 0
-138 169 293 0
-34 -191 302 0
-367 389 -399 0
-24 41 292 0
-42 147 175 0
20 -47 -241 0
84 260 -378 0
-19 -34 -39 0
-12 -253 -300 0
60 -229 -282 0
316 -322 -399 0
122 -356 -374 0
6 333 -364 0
156 -170 361 0
-50 126 -326 0
-44 73 241 0
-89 -228 -341 0
110 121 -294 0
-10 191 328 0
-16 32 -98 0
13 -83 381 0
-68 197 372 0
-68 -248 -325 0
121 130 -271 0
-177 -260 -362 0
14 219 379 0
72 -356 -367 0
-153 193 279 0
-242 305 -344 0
-99 107 240 0
-94 -272 400 0
-150 330 392 0
30 -227 394 0
147 -260 291 0
143 -175 -348 0
5 92 -118 0
-37 -135 340 0
83 218 338 0
13 132 235 0
116 330 371 0
-156 -291 320 0
-26 -118 -288 0
11 -74 -113 0
2 268 -356 0
-71 -92 -209 0
-172 317 -338 0
-188 -277 -356 0
-247 300 -317 0
-209 293 354 0
21 49 232 0
18 -353 -373 0
-93 -233 -372 0
-122 -251 342 0
104 181 -288 0
76 -159 374 0
262 276 353 0
-85 -180 389 0
-70 234 261 0
31 217 -356 0
-134 -284 384 0
136 -289 -397 0
-24 -132 -327 0
116 330 -374 0
-109 329 -346 0
48 342 369 0
-188 196 229 0
-25 -78 254 0
184 233 269 0
163 253 399 0
36 51 -110 0
110 195 256 0
-218 251 286 0
-23 -88 90 0
-222 285 357 0
166 -238 -256 0
153 -238 -283 0
-104 -258 -339 0
-63 -140 -231 0
41 -124 -183 0
-280 321 387 0
-157 -217 -306 0
-71 165 278 0
67 -192 221 0
16 154 391 0
142 155 -199 0
-99 162 -323 0
-7 -107 -232 0
173 -256 -342 0
47 70 275 0
-235 263 295 0
99 -231 -387 0
-113 127 -338 0
-241 -320 355 0
32 -136 311 0
-94 320 -376 0
152 -217 -316 0
-24 -237 -256 0
31 238 -395 0
-14 45 -236 0
-73 -365 -368 0
138 302 -361 0
-45 -117 -359 0
-222 -262 -389 0
10 -132 193 0
-101 292 -333 0
45 212 227 0
141 -222 -285 0
-11 150 -297 0
-170 -312 -383 0
-63 -106 -262 0
41 165 -306 0
204 -259 349 0
-21 93 -178 0
6 -163 -169 0
-166 201 294 0
-174 -296 -312 0
-244 280 302 0
101 -258 -309 0
-54 -128 396 0
80 -280 -358 0
237 -356 394 0
-4 -35 234 0
-119 -150 -396 0
-93 -131 -137 0
115 -279 280 0
-76 -309 369 0
-148 235 237 0
-133 -211 -297 0
246 290 -384 0
-164 -173 374 0
-168 171 374 0
-102 268 -358 0
-69 264 -341 0
74 255 360 0
56 158 -281 0
177 -283 -389 0
-171 -212 -284 0
8 -245 320 0
49 50 -222 0
185 232 -307 0
-8 15 -245 0
-9 -144 243 0
-71 274 -320 0
73 114 124 0
-142 -328 333 0
14 -238 -400 0
-176 -233 -305 0
66 285 364 0
186 -252 304 0
-64 212 282 0
-88 173 -274 0
-194 -215 388 0
-17 -222 -284 0
15 -345 381 0
-134 -178 338 0
-172 -301 309 0
19 101 356 0
-68 -224 -249 0
-21 -22 -269 0
-84 224 -328 0
242 314 335 0
221 -302 -330 0
-37 -151 248 0
-202 245 328 0
-121 346 365 0
-342 368 393 0
-57 -304 361 0
-33 -278 393 0
11 -173 -196 0
-246 292 -358 0
-6 98 -361 0
62 -149 285 0
106 219 -306 0
20 178 -223 0
34 -216 269 0
-276 -325 -380 0
-4 -32 -117 0
54 90 127 0
85 222 -315 0
26 -49 347 0
-231 344 -351 0
22 -127 -311 0
-106 151 196 0
241 248 -396 0
-168 218 242 0
-6 257 281 0
32 -83 -348 0
237 286 -333 0
18 -88 236 0
-44 76 -400 0
316 -320 357 0
225 -278 328 0
143 -231 -392 0
-126 223 254 0
-30 68 78 0
-95 -102 -148 0
53 96 139 0
10 -182 -287 0
-25 82 243 0
-61 -66 -105 0
230 277 -369 0
150 180 336 0
6 77 -398 0
-312 -314 -365 0
-150 -195 308 0
39 -61 -185 0
-243 244 284 0
-157 -326 -397 0
5 -63 200 0
-69 267 295 0
65 -152 329 0
180 223 -330 0
-51 306 387 0
-110 132 -395 0
31 -132 -378 0
-26 -258 361 0
-281 -326 372 0
-72 196 372 0
-173 191 205 0
83 -320 321 0
-67 -85 -388 0
6 84 278 0
-176 229 -230 0
57 -218 314 0
-7 280 -377 0
-80 122 175 0
-92 -103 -117 0
-40 -143 153 0
162 -212 359 0
59 -260 -356 0
282 -358 -377 0
39 275 -365 0
-163 174 -259 0
132 -156 -241 0
-79 -98 250 0
106 -209 297 0
43 115 128 0
13 63 233 0
-13 100 291 0
11 -328 -348 0
-21 -209 -226 0
-9 -203 396 0
87 -141 323 0
-209 381 -386 0
-167 -281 301 0
-123 152 -294 0
-3 61 92 0
12 -113 -348 0
99 -277 -352 0
141 -150 301 0
-10 -240 342 0
73 -87 -240 0
29 82 -364 0
-134 135 348 0
-314 322 371 0
98 193 -377 0
-22 45 298 0
259 277 330 0
-136 214 -335 0
-26 -281 -378 0
84 235 -314 0
98 286 -349 0
-159 263 340 0
-116 -244 -344 0
-79 364 385 0
60 82 373 0
121 -326 -371 0
112 133 -179 0
29 -137 340 0
-116 284 -370 0
121 -140 232 0
10 279 -319 0
62 161 -264 0
230 300 -303 0
-227 -232 -240 0
-76 -237 -399 0
218 281 -310 0
28 193 355 0
-234 -327 351 0
-13 299 394 0
24 62 80 0
-83 307 355 0
56 64 345 0
-55 125 257 0
-21 -216 -251 0
5 -340 341 0
-138 -166 -295 0
190 -210 -258 0
-90 -325 -370 0
165 177 -312 0
-81 231 -330 0
-2 131 -270 0
140 308 346 0
67 -86 -236 0
71 152 -158 0
-53 -66 -390 0
-136 203 333 0
-260 346 370 0
175 -250 350 0
-89 100 330 0
70 -254 351 0
278 -347 399 0
87 170 363 0
45 -110 272 0
4 -31 -124 0
-165 -246 389 0
-47 295 325 0
-66 -153 356 0
92 -153 377 0
40 323 -375 0
-28 -331 -346 0
-115 382 -388 0
-230 345 370 0
42 -54 256 0
136 181 327 0
-20 -143 156 0
34 -102 134 0
67 166 174 0
-67 -323 384 0
-137 -200 285 0
56 80 130 0
-4 -62 238 0
-179 255 396 0
255 279 384 0
13 -53 -283 0
21 147 -271 0
174 317 359 0
7 232 -280 0
42 -49 181 0
-72 78 -144 0
-92 252 -284 0
154 284 292 0
-202 -306 -353 0
41 164 -349 0
-63 79 -142 0
-112 -160 -283 0
-89 297 -369 0
-38 -219 253 0
59 -99 -288 0
-23 94 -174 0
92 -141 -271 0
-208 -266 308 0
-171 237 304 0
-9 -122 -182 0
50 65 400 0
20 -195 313 0
-119 287 -349 0
-118 -132 355 0
-34 -202 -222 0
59 -271 -314 0
-184 -319 399 0
-27 -55 234 0
-79 103 364 0
99 237 -271 0
-63 128 -380 0
5 94 -254 0
73 -139 358 0
-7 11 -260 0
-38 323 -378 0
188 322 398 0
3 74 395 0
74 159 -208 0
-111 -203 376 0
242 369 -373 0
72 101 373 0
107 -303 -388 0
42 -205 249 0
83 99 -328 0
294 370 -378 0
27 212 310 0
-104 -334 -351 0
223 -264 -328 0
-92 257 -347 0
-248 255 309 0
-96 148 -177 0
19 178 -309 0
36 -176 -285 0
-39 -177 -303 0
96 -156 206 0
-218 271 -318 0
-52 -192 244 0
127 230 -319 0
-61 104 294 0
146 324 365 0
133 144 364 0
122 275 -396 0
138 -145 -156 0
-122 125 367 0
148 -183 273 0
2 -35 -110 0
-40 -55 -361 0
-15 118 -335 0
-76 130 399 0
-81 223 295 0
258 -343 349 0
80 -164 -342 0
-73 -131 190 0
-24 241 361 0
-13 -84 243 0
2 151 321 0
-116 -200 230 0
-6 210 -239 0
-261 -333 -374 0
24 118 -390 0
175 186 304 0
-147 153 -297 0
-29 -370 -391 0
203 -256 -352 0
-176 -384 392 0
-43 288 388 0
-75 265 330 0
149 367 381 0
45 359 -367 0
81 -168 377 0
-44 334 355 0
-86 -174 234 0
40 -222 -279 0
150 267 -328 0
-94 170 -183 0
-234 296 -314 0
57 -111 -248 0
142 214 -293 0
196 203 -273 0
-155 182 291 0
-52 140 223 0
-57 -316 375 0
-153 -246 -343 0
8 -80 -99 0
-157 -208 -228 0
133 141 -284 0
-75 282 -394 0
-97 -196 237 0
-128 160 -327 0
-277 -300 -328 0
1 43 -251 0
230 301 314 0
179 -205 -289 0
-139 -150 -233 0
154 206 246 0
121 319 330 0
13 -104 286 0
116 -155 309 0
-119 -232 -298 0
-80 -212 -218 0
-57 269 341 0
247 324 -343 0
-173 192 355 0
-58 147 -323 0
92 177 -377 0
-213 223 -275 0
3 33 -81 0
137 172 371 0
-319 326 -379 0
-67 267 277 0
-15 -243 -357 0
11 -233 -397 0
-33 -159 -362 0
-238 252 347 0
-25 -129 394 0
259 -317 -359 0
136 167 -388 0
64 126 -329 0
-95 -230 231 0
149 285 328 0
86 243 258 0
-70 -186 -311 0
-113 288 341 0
235 -241 400 0
-89 152 -176 0
151 -242 -266 0
218 221 -271 0
49 -86 -267 0
8 84 220 0
37 -177 324 0
15 40 -270 0
-60 68 -261 0
-71 179 -241 0
42 73 -302 0
-118 -180 259 0
235 281 -300 0
-26 221 338 0
6 -12 -148 0
-274 287 384 0
69 -346 -380 0
-284 -384 389 0
-24 -85 -242 0
-125 -211 244 0
-127 -232 -240 0
24 -83 164 0
74 222 281 0
59 88 -333 0
-52 98 -158 0
-25 239 295 0
-73 -95 -147 0
-175 -205 -387 0
160 237 -283 0
-34 -61 194 0
85 -191 224 0
186 219 -360 0
-68 276 -323 0
-23 -84 255 0
-31 -164 324 0
-48 -58 182 0
117 -169 -351 0
-101 -106 325 0
32 298 300 0
125 -289 292 0
117 -126 -382 0
119 -350 -353 0
165 -301 -319 0
-113 -271 390 0
30 153 239 0
-80 -96 -250 0
-205 248 -376 0
-5 142 230 0
-34 -185 353 0
-40 -47 -90 0
138 -183 363 0
42 270 -383 0
91 158 400 0
-75 199 382 0
-33 -98 -305 0
123 299 -393 0
45 -217 315 0
-172 273 287 0
206 -344 -373 0
32 92 -363 0
63 -250 -321 0
-72 181 217 0
55 -138 -292 0
-40 -69 163 0
4 -336 -385 0
11 -177 -250 0
63 107 -116 0
21 -216 -249 0
83 108 -296 0
229 -263 -292 0
27 -108 332 0
-238 -334 -362 0
266 325 342 0
-139 -175 -372 0
86 -140 194 0
-66 -344 -394 0
-21 194 247 0
-123 -189 -270 0
88 164 257 0
-112 -216 312 0
60 188 -287 0
168 -177 383 0
-38 -61 344 0
-87 -159 241 0
-21 -61 131 0
60 142 -400 0
105 284 384 0
-196 320 398 0
34 87 302 0
-72 -160 -306 0
3 -76 234 0
-12 139 154 0
-20 147 -388 0
201 243 -255 0
60 -191 -256 0
-8 -137 251 0
89 139 218 0
-52 -235 -261 0
29 58 82 0
51 -96 -281 0
-30 160 398 0
-41 -238 -281 0
155 -241 -365 0
-32 113 307 0
61 103 324 0
43 233 -335 0
-352 379 -388 0
-72 312 -375 0
110 -190 256 0
3 -65 -137 0
177 -181 -195 0
248 -280 320 0
-197 281 -293 0
-89 346 388 0
-161 194 -378 0
49 321 323 0
176 234 -308 0
-51 -60 254 0
-16 312 -383 0
92 150 -265 0
44 158 -366 0
-14 189 -205 0
-297 327 -354 0
45 298 338 0
69 84 387 0
86 -283 322 0
-70 73 121 0
205 -242 245 0
-61 -306 362 0
107 248 -334 0
-35 166 -194 0
110 135 -247 0
-137 -304 400 0
-47 270 -308 0
-42 -98 -234 0
200 -232 -296 0
43 215 221 0
-185 -239 -280 0
278 -321 -323 0
-9 232 -294 0
-189 -237 238 0
157 282 314 0
18 37 77 0
-4 179 -225 0
-193 -303 348 0
-201 -205 310 0
-24 100 343 0
73 205 245 0
-35 -116 242 0
-161 298 379 0
-49 -288 -306 0
-33 209 248 0
130 263 303 0
44 97 -232 0
63 139 -213 0
-52 167 -388 0
-26 50 -191 0
83 163 331 0
164 -265 -349 0
105 350 365 0
35 -53 -190 0
259 -271 291 0
26 -31 -54 0
-78 -184 -306 0
34 104 -107 0
-60 -174 241 0
92 -264 -310 0
-1 -161 -317 0
-316 340 -383 0
-34 138 -140 0
-193 -341 -380 0
21 -217 -353 0
97 265 -389 0
-91 -219 221 0
62 -176 299 0
-4 153 -168 0
-48 245 372 0
-23 -242 -396 0
-20 -132 249 0
86 132 -292 0
-289 -298 383 0
-66 146 -196 0
-98 124 -362 0
74 -144 -347 0
-9 -212 214 0
-6 262 -324 0
-121 350 -371 0
-221 264 293 0
25 295 -349 0
156 201 214 0
-87 338 348 0
154 313 354 0
64 -326 -373 0
-90 175 292 0
-29 -307 -373 0
-12 -231 -285 0
131 225 -378 0
-109 -372 381 0
-215 305 -372 0
16 112 222 0
169 249 -297 0
233 316 -363 0
21 -136 210 0
136 195 -376 0
-42 257 323 0
-84 356 388 0
-38 347 -361 0
97 -112 190 0
-168 -342 385 0
34 237 -280 0
85 -241 309 0
310 -368 372 0
-50 94 -395 0
381 -385 -386 0
-55 -129 269 0
62 -262 398 0
-113 223 -288 0
22 -224 259 0
183 194 -261 0
4 98 235 0
-253 291 -370 0
140 -166 -380 0
-198 -260 -327 0
162 -255 380 0
-72 -229 -295 0
20 -213 -339 0
-252 304 362 0
-89 184 236 0
-307 321 366 0
-224 -284 -400 0
-121 195 -358 0
279 -337 376 0
121 -269 277 0
69 -103 -199 0
13 -124 396 0
50 61 -393 0
101 246 -280 0
-148 -190 278 0
-54 -243 -400 0
-171 252 -368 0
105 237 364 0
29 -45 -145 0
-33 106 234 0
154 -232 -388 0
-123 -271 290 0
127 -297 322 0
165 -173 240 0
-94 98 -391 0
201 -265 274 0
27 -48 -277 0
21 -45 273 0
158 177 -192 0
-70 215 330 0
