c F2 random 3-CNF cnfgen RandomKCNF(3,100,500,seed=8) m/n=5.0
p cnf 100 500
30 48 49 0
11 -18 32 0
-50 59 -63 0
12 -30 -63 0
49 -61 93 0
-9 50 80 0
31 -44 89 0
19 75 -78 0
-19 -25 -90 0
46 55 72 0
-41 -69 89 0
-20 40 46 0
-2 -32 45 0
-5 -35 -55 0
-23 54 91 0
4 -26 85 0
-2 49 -98 0
-18 -30 -53 0
-9 11 76 0
-11 14 -85 0
20 78 91 0
18 -44 -50 0
-1 42 47 0
5 80 -98 0
16 56 57 0
-20 61 64 0
58 -75 93 0
-61 -73 -92 0
7 -26 29 0
14 28 -93 0
12 56 -68 0
50 68 -96 0
-11 -38 79 0
-11 -38 -81 0
-39 -67 81 0
-26 -48 63 0
-38 -51 -79 0
-26 55 -87 0
-9 -21 64 0
-36 -38 -80 0
-32 53 81 0
59 65 96 0
48 64 -100 0
-11 22 84 0
-3 25 79 0
-59 60 86 0
46 -78 84 0
-11 18 84 0
-5 77 -93 0
42 46 -96 0
-21 33 -56 0
9 13 -94 0
23 44 96 0
8 72 -95 0
-32 38 95 0
17 -18 96 0
22 -23 53 0
-58 -75 -89 0
-75 -88 -95 0
68 -95 -100 0
-17 -61 -88 0
-28 68 -73 0
-16 -61 83 0
-5 -48 -65 0
4 80 90 0
24 -58 75 0
-6 -48 65 0
-14 41 84 0
-47 -62 -74 0
48 81 -96 0
-5 -8 -30 0
-23 61 -72 0
-3 -57 -95 0
-38 52 -64 0
44 57 -84 0
-77 -86 -92 0
27 50 74 0
-12 71 86 0
33 52 82 0
5 -57 -92 0
1 4 -95 0
2 40 -82 0
12 41 54 0
-26 -66 67 0
19 55 -65 0
56 -77 -85 0
26 -85 89 0
41 63 99 0
-40 -51 -89 0
3 52 78 0
-15 84 -99 0
-11 -31 -84 0
47 60 -79 0
-13 29 67 0
29 -55 93 0
35 -73 -100 0
19 -74 85 0
-41 46 52 0
-50 -86 87 0
44 63 71 0
-78 -89 -91 0
14 75 79 0
11 36 57 0
-8 -10 -81 0
41 -63 -91 0
-8 62 81 0
-66 -84 -99 0
16 -21 -86 0
52 -70 73 0
-21 -39 96 0
-52 78 87 0
-71 -89 -92 0
25 62 -90 0
9 24 51 0
-24 63 92 0
-32 57 -99 0
-16 40 68 0
-48 -57 94 0
-14 -25 63 0
-4 17 -89 0
-43 58 -86 0
-61 82 87 0
-24 31 -93 0
72 78 86 0
12 -43 -47 0
18 -39 93 0
14 20 76 0
-19 -64 83 0
37 -57 -91 0
-43 56 -64 0
6 75 -87 0
55 -84 -91 0
6 81 -84 0
3 7 -65 0
-18 -32 47 0
25 -31 83 0
4 54 81 0
41 -53 98 0
-8 42 -46 0
-81 82 98 0
35 89 -94 0
19 39 71 0
6 -90 -93 0
-57 -86 -93 0
-18 -88 -92 0
-30 79 -89 0
74 -86 -98 0
15 35 -65 0
52 81 89 0
17 -72 -81 0
-29 72 -81 0
-38 -59 -97 0
-13 -50 -96 0
49 70 78 0
-21 -50 72 0
34 -44 71 0
-51 -54 -69 0
8 63 -80 0
21 22 94 0
49 84 86 0
34 38 -85 0
-11 13 47 0
7 -85 -92 0
36 45 94 0
2 -52 -97 0
30 -48 -52 0
-39 43 -71 0
9 -10 55 0
52 -68 -95 0
-31 -40 42 0
1 2 55 0
-11 14 70 0
57 64 -92 0
-7 37 -71 0
-40 48 65 0
-8 -10 30 0
-15 -56 71 0
-18 -90 -97 0
-49 63 -87 0
-42 -44 -49 0
1 58 -61 0
10 69 81 0
2 -14 -78 0
-12 -27 -38 0
-20 -63 -80 0
-24 38 52 0
-3 29 93 0
13 -18 -79 0
23 -58 -75 0
53 54 79 0
59 89 -100 0
-16 -58 96 0
5 -10 -37 0
8 43 54 0
-17 61 -82 0
-61 -67 -96 0
-38 41 75 0
-21 51 94 0
6 -39 -40 0
-18 -75 80 0
-26 -72 -81 0
6 -36 93 0
11 60 79 0
15 17 -35 0
-20 -64 -88 0
-4 -27 -52 0
-3 -30 -53 0
11 -16 57 0
28 41 -43 0
33 85 89 0
42 60 -67 0
6 20 -64 0
-21 81 -92 0
-6 47 71 0
-62 63 76 0
-75 -77 90 0
-72 87 -91 0
15 -20 46 0
6 28 -88 0
-16 23 38 0
17 37 -64 0
-23 -54 -78 0
-53 -80 83 0
-20 -61 -71 0
8 -18 -69 0
-30 52 84 0
18 -19 69 0
9 -48 78 0
7 47 82 0
-66 -78 83 0
22 -49 90 0
-13 45 68 0
9 -53 78 0
45 -80 -100 0
-11 -14 -82 0
87 91 -92 0
-1 21 -40 0
-15 -49 62 0
-23 68 -74 0
-20 30 74 0
-4 -64 -72 0
-21 58 -81 0
-47 61 87 0
-34 39 -97 0
38 69 95 0
-24 40 53 0
-24 -79 87 0
13 23 51 0
21 -54 68 0
-4 36 -44 0
-36 -61 95 0
-4 6 -72 0
30 42 -90 0
20 90 -97 0
21 28 -92 0
44 60 -96 0
-9 78 -92 0
16 -53 -89 0
40 -60 74 0
14 -72 98 0
9 -33 -100 0
15 19 55 0
65 88 93 0
-62 70 -76 0
-29 -52 -72 0
-44 49 82 0
6 28 85 0
4 65 72 0
-20 -26 68 0
47 -66 85 0
56 -70 -72 0
-18 -55 -66 0
8 -38 74 0
14 -62 99 0
-3 51 95 0
28 80 84 0
-29 44 68 0
-19 -40 43 0
-10 34 -48 0
19 28 51 0
13 -74 77 0
43 78 -82 0
23 33 95 0
-34 -44 -45 0
-65 90 96 0
-27 31 -48 0
31 49 74 0
51 55 94 0
-64 97 99 0
-1 -4 86 0
11 -19 39 0
-1 -51 -72 0
21 -29 44 0
-58 -69 -74 0
-11 -13 -89 0
40 -43 -98 0
-30 37 64 0
-14 -31 -71 0
27 54 76 0
-63 76 90 0
25 65 -66 0
49 58 89 0
64 65 74 0
-9 39 82 0
42 -75 -87 0
-10 38 93 0
-12 -27 -74 0
11 54 84 0
-31 -54 69 0
-16 -88 96 0
3 51 79 0
6 -7 -73 0
8 -31 35 0
-38 -41 73 0
-18 24 68 0
-20 -71 85 0
18 38 -91 0
35 65 -93 0
-6 53 -96 0
-36 -65 -97 0
-63 66 88 0
-21 77 -81 0
-1 81 -85 0
50 -68 100 0
14 -37 66 0
58 -86 99 0
-25 -57 -77 0
2 -5 96 0
35 44 -69 0
37 -83 -95 0
34 43 62 0
-19 70 93 0
-3 33 -69 0
-24 64 90 0
-11 16 -36 0
-34 -56 96 0
4 -75 99 0
35 -39 -51 0
27 60 -62 0
-9 -64 -79 0
9 44 70 0
53 71 92 0
-59 -81 -98 0
-25 -90 -96 0
-62 -68 79 0
-35 -78 -85 0
-4 9 -18 0
16 -37 -84 0
-29 53 76 0
-35 -53 61 0
-34 -78 -94 0
24 -63 66 0
12 46 47 0
-5 -22 34 0
36 -37 46 0
20 35 67 0
57 -59 -73 0
10 -63 -92 0
53 59 88 0
12 -47 82 0
-73 -77 90 0
-56 -73 -80 0
42 64 -76 0
-30 39 85 0
26 43 -56 0
-32 48 97 0
31 48 -59 0
-47 -57 -73 0
33 49 95 0
-11 82 94 0
73 74 -86 0
50 -92 -99 0
11 -15 74 0
51 -83 90 0
22 -60 93 0
39 -44 62 0
17 -47 -83 0
-3 73 -95 0
11 -49 -63 0
69 70 -94 0
3 69 -95 0
27 -35 72 0
-36 -60 -63 0
-31 -57 -80 0
-15 26 63 0
-3 -18 24 0
18 -56 -85 0
14 -24 65 0
32 -43 47 0
31 -46 94 0
21 54 -66 0
-29 35 -37 0
7 17 -29 0
-78 84 -99 0
39 -68 -71 0
-15 31 -52 0
-14 26 59 0
-81 97 100 0
-10 -44 56 0
-15 31 -82 0
-4 71 -92 0
35 -82 -93 0
-45 62 -70 0
20 -42 -46 0
-10 -55 99 0
-24 -30 61 0
19 -41 -48 0
22 54 64 0
52 -54 -87 0
13 22 -66 0
6 45 -83 0
-25 -30 -99 0
-25 -81 93 0
-19 -33 -71 0
16 48 76 0
-37 41 -95 0
7 -30 45 0
39 -56 97 0
15 56 -94 0
25 -68 -95 0
-15 -35 50 0
-27 53 73 0
20 46 74 0
18 -38 -76 0
-14 -17 46 0
22 48 49 0
10 38 52 0
60 79 96 0
3 -50 95 0
20 -30 -31 0
34 -84 100 0
15 27 70 0
-20 -45 -71 0
-23 67 73 0
-18 -27 31 0
11 24 43 0
-45 -59 60 0
56 77 -78 0
-27 35 -44 0
37 -71 84 0
-24 -44 -86 0
-8 45 59 0
-10 11 -45 0
11 26 -85 0
26 -72 96 0
17 -18 -58 0
65 69 -97 0
55 -71 83 0
-20 21 59 0
-21 -23 -59 0
12 -39 62 0
27 68 96 0
24 -42 -59 0
-31 -73 90 0
-3 38 45 0
-26 95 -98 0
34 63 96 0
-18 -70 -94 0
25 49 68 0
-13 59 -97 0
37 43 63 0
-53 -69 -79 0
-36 -59 77 0
-1 -23 -94 0
-9 17 -64 0
-13 24 -90 0
33 78 -94 0
-20 -34 -82 0
-15 77 85 0
34 -50 59 0
-49 64 85 0
-6 -88 -100 0
12 43 49 0
-30 -49 87 0
-5 40 -67 0
30 42 -65 0
-3 24 83 0
-4 -26 -75 0
25 37 -83 0
1 -63 -83 0
-6 -12 -36 0
-6 -36 79 0
-14 -22 -29 0
10 37 -85 0
23 -47 98 0
27 38 -90 0
-3 10 75 0
-65 -78 -84 0
-40 -42 58 0
-8 -23 57 0
51 74 99 0
-1 72 77 0
31 -77 85 0
52 -79 81 0
25 -49 -69 0
-9 -36 86 0
-31 39 84 0
-1 -17 53 0
-14 -68 83 0
77 -82 88 0
