c F2 random 3-CNF cnfgen RandomKCNF(3,300,1500,seed=8) m/n=5.0
p cnf 300 1500
117 190 193 0
44 -71 127 0
-233 -236 250 0
46 207 -249 0
-209 243 -267 0
-33 50 198 0
-45 121 174 0
-20 33 277 0
-234 -297 -300 0
70 -82 -219 0
-102 254 -258 0
146 262 -271 0
-7 125 -152 0
-18 -131 -217 0
60 90 203 0
60 -83 -154 0
88 224 -292 0
-209 229 289 0
18 49 -148 0
79 250 259 0
-9 72 -175 0
167 -180 188 0
17 32 -297 0
62 221 227 0
-80 243 255 0
-65 232 -298 0
-185 202 289 0
26 102 229 0
-3 12 187 0
-118 166 257 0
-41 -149 152 0
-41 -152 -281 0
-155 183 265 0
-190 194 -249 0
-197 -204 -269 0
101 -251 271 0
-36 139 -256 0
-141 -150 -259 0
-126 127 186 0
-101 189 269 0
-44 88 199 0
12 98 -136 0
145 236 -290 0
20 34 -164 0
-19 39 -119 0
34 -168 -184 0
-81 82 -131 0
34 52 -274 0
91 102 173 0
-88 -91 285 0
57 246 257 0
-112 116 168 0
-32 -70 -226 0
-191 -224 297 0
137 -159 -244 0
-260 263 -274 0
70 -244 -251 0
-17 -18 -191 0
8 15 -74 0
66 -218 297 0
-55 184 -189 0
-87 -121 -245 0
20 -192 220 0
-17 -120 -262 0
-89 244 -288 0
-12 -148 -226 0
-149 207 -255 0
70 -175 -225 0
-186 241 294 0
18 -75 259 0
76 130 206 0
-19 -109 227 0
-3 -9 66 0
-23 110 -169 0
1 -50 -121 0
58 218 260 0
-26 -178 224 0
-15 -33 146 0
-29 -116 -204 0
-12 142 268 0
58 -97 254 0
-43 -178 -223 0
71 85 -241 0
83 -123 285 0
-66 173 -289 0
73 -166 293 0
-162 183 205 0
198 -211 -229 0
9 -103 -281 0
53 248 298 0
42 142 228 0
-31 -39 -172 0
-82 250 -252 0
127 -240 -300 0
82 243 -268 0
-151 280 -291 0
94 -153 -284 0
-29 205 271 0
-225 242 -283 0
-33 34 281 0
52 203 281 0
166 249 -292 0
-16 -128 195 0
252 265 -270 0
131 169 189 0
-218 250 291 0
-15 -65 -181 0
-57 -218 -267 0
38 -65 94 0
77 142 -288 0
-45 -85 -187 0
70 113 193 0
34 -82 -114 0
-46 -199 279 0
-197 -227 -255 0
23 120 -159 0
-7 133 218 0
34 250 280 0
52 -71 -164 0
184 258 276 0
123 -144 261 0
-12 -58 99 0
116 -138 -257 0
195 -263 -271 0
11 82 -139 0
73 155 284 0
-22 -68 -266 0
134 -155 -178 0
-118 228 -268 0
-1 148 -293 0
-1 -8 298 0
1 -8 -66 0
113 -193 -287 0
-152 -208 266 0
-166 -199 -272 0
32 102 -273 0
-125 -163 213 0
-121 -154 -215 0
32 171 -249 0
83 87 -119 0
118 268 -293 0
-18 78 -151 0
-51 263 272 0
-26 -58 -178 0
32 -71 293 0
-13 -225 240 0
-29 -185 -240 0
69 138 220 0
-99 169 -271 0
-121 -151 -158 0
-1 5 31 0
54 -117 280 0
94 227 -253 0
-26 148 -283 0
-158 189 259 0
-32 -37 117 0
-59 -223 283 0
-71 -161 -215 0
249 -250 -262 0
-167 -195 -215 0
1 -127 230 0
26 274 296 0
-56 -111 -269 0
-45 -106 -148 0
-80 -180 231 0
15 153 207 0
111 210 282 0
-91 133 236 0
-157 196 210 0
1 -56 -233 0
62 142 222 0
-95 146 -212 0
22 172 -257 0
-67 -135 -231 0
-163 -164 297 0
-84 109 201 0
22 -153 -160 0
-70 228 299 0
-162 212 -288 0
-103 264 -290 0
41 46 107 0
108 -137 285 0
-177 -256 292 0
-14 -205 223 0
-118 -191 209 0
-22 63 -226 0
65 -112 -171 0
-10 -43 83 0
18 180 -271 0
65 -96 196 0
-22 179 188 0
170 248 -252 0
-115 254 -285 0
59 -78 184 0
21 -93 110 0
-62 152 295 0
68 146 -253 0
-90 -160 -213 0
-34 161 -177 0
207 210 276 0
-120 -206 225 0
25 -72 76 0
35 -190 263 0
26 188 273 0
157 182 -263 0
-34 90 -179 0
28 112 -212 0
-70 -82 178 0
-55 -131 276 0
-78 273 292 0
-10 -137 -159 0
57 129 -227 0
7 80 -133 0
34 -39 -287 0
196 -247 -262 0
-110 -222 -270 0
-3 -76 133 0
149 150 274 0
-95 159 210 0
96 207 -243 0
35 -51 121 0
-70 98 -226 0
-20 -144 -170 0
24 -95 188 0
119 151 -166 0
11 -79 257 0
-65 -110 -123 0
10 -46 237 0
61 -150 -209 0
160 -240 295 0
-56 114 287 0
-99 -132 -259 0
47 57 75 0
-7 -118 278 0
-115 -156 -286 0
-193 -213 273 0
21 34 110 0
16 259 288 0
-78 -101 271 0
186 -264 277 0
221 -279 -285 0
-69 -218 -261 0
31 -152 295 0
-56 127 246 0
45 203 235 0
45 -113 173 0
-73 -105 -159 0
-39 -46 190 0
73 135 203 0
11 -49 293 0
-9 -55 172 0
6 -75 -291 0
-177 -218 -279 0
44 46 -192 0
22 -183 295 0
-19 36 201 0
47 176 256 0
1 -167 238 0
-51 75 282 0
-161 -202 288 0
-61 114 -175 0
-237 245 295 0
-162 -167 191 0
-159 212 -288 0
65 124 -250 0
-132 267 -277 0
-17 -108 115 0
124 257 261 0
140 195 229 0
256 259 296 0
34 153 -190 0
-107 -138 299 0
99 148 260 0
-195 -252 287 0
275 292 295 0
-122 -216 274 0
61 191 -241 0
76 95 279 0
-27 166 247 0
-50 -64 -235 0
29 -72 242 0
-78 -100 283 0
69 -80 -152 0
-13 -73 260 0
-22 -228 -259 0
-142 -233 263 0
10 -82 155 0
256 -289 -297 0
-64 270 -289 0
-1 55 -273 0
-36 113 -214 0
6 210 -265 0
91 137 -173 0
-72 -136 -147 0
3 9 -246 0
8 -69 -276 0
-1 -96 192 0
-23 -43 62 0
-133 -221 230 0
-14 62 -297 0
-11 -137 156 0
2 -237 245 0
-131 -254 297 0
69 176 -277 0
15 -33 -266 0
-97 -249 -253 0
-203 246 -270 0
-131 144 272 0
-24 70 -135 0
62 -149 -199 0
-59 -85 -209 0
-60 -130 -134 0
96 -251 263 0
48 181 185 0
-17 -85 133 0
141 -145 181 0
77 138 267 0
225 -233 -289 0
-26 -37 -251 0
91 -119 212 0
8 -182 -293 0
-47 -223 -289 0
39 -167 254 0
-155 286 288 0
101 169 -223 0
126 184 -189 0
30 -123 -236 0
-186 -242 -289 0
3 66 -195 0
60 79 -294 0
-121 183 197 0
42 -180 277 0
10 176 -239 0
-117 156 -176 0
68 -100 -185 0
12 -207 -289 0
-41 -66 249 0
80 131 276 0
139 143 -288 0
-37 -240 -252 0
-122 -186 -226 0
-60 101 250 0
-9 -70 93 0
-71 -100 224 0
-96 128 300 0
-91 170 188 0
14 184 -247 0
-16 88 -231 0
85 152 241 0
-46 48 -188 0
156 -272 -282 0
-60 123 -206 0
-54 103 233 0
74 -154 -286 0
-40 210 266 0
-57 95 -226 0
35 -137 -157 0
-180 245 -280 0
78 -166 -184 0
-39 147 219 0
-94 202 -242 0
-2 -73 161 0
122 215 -256 0
-111 -213 271 0
46 -85 -264 0
-23 75 109 0
-167 224 -281 0
-74 -94 -169 0
61 192 208 0
146 -158 161 0
-77 120 -178 0
120 156 -158 0
37 124 -245 0
-60 -198 -237 0
-39 -105 289 0
-67 291 293 0
21 56 -151 0
54 -174 -184 0
-86 90 190 0
-37 98 150 0
98 240 299 0
-8 9 197 0
-73 -78 -122 0
45 67 158 0
41 -128 -284 0
-91 214 237 0
-70 -106 124 0
42 95 169 0
-179 -236 238 0
-7 47 -223 0
139 -183 -286 0
86 -107 -157 0
-189 274 -286 0
29 -177 249 0
-37 96 167 0
-10 11 286 0
76 186 230 0
141 196 -257 0
-88 220 281 0
83 193 233 0
-82 -234 -262 0
48 -153 248 0
85 107 271 0
167 -233 -274 0
-121 167 -290 0
-9 150 179 0
-88 -102 -206 0
41 117 -284 0
-173 241 269 0
-9 -12 50 0
-145 170 198 0
-15 -211 -276 0
-143 185 234 0
-89 -200 223 0
-34 55 219 0
-15 178 202 0
-77 -136 -226 0
57 -61 -136 0
84 -145 -233 0
4 -33 -238 0
-47 193 200 0
-116 -117 194 0
-19 160 -266 0
117 165 -257 0
11 95 193 0
-103 -225 -297 0
4 -97 293 0
-32 -195 252 0
-48 -170 208 0
82 160 218 0
-132 -149 266 0
-83 124 177 0
52 152 153 0
12 -229 298 0
-77 -131 -260 0
-167 -231 295 0
-30 -92 225 0
93 202 295 0
19 52 -135 0
-52 118 206 0
194 -259 -274 0
-36 142 -247 0
123 125 -186 0
68 176 -243 0
-4 95 -189 0
-64 91 -284 0
93 200 -215 0
120 -189 240 0
79 -198 -274 0
-18 -115 292 0
84 88 -135 0
170 -201 -210 0
-5 234 -249 0
-101 -120 -243 0
-46 188 280 0
44 -52 132 0
-111 276 277 0
6 -30 182 0
-63 120 294 0
-74 82 104 0
-1 95 193 0
-6 62 68 0
154 241 -299 0
-145 -191 -258 0
62 128 -269 0
95 -229 297 0
-125 220 294 0
47 -99 183 0
47 -108 -295 0
77 -242 -290 0
-128 137 -252 0
137 175 177 0
-2 -19 182 0
22 204 -205 0
117 -147 294 0
-14 130 293 0
-11 84 236 0
11 -56 86 0
-66 173 232 0
-120 189 278 0
-53 67 283 0
74 -98 -224 0
-51 75 230 0
1 86 176 0
-84 -102 -266 0
-8 220 -245 0
-58 105 190 0
130 -203 273 0
93 -144 171 0
-16 -93 133 0
100 -148 165 0
44 55 237 0
-87 109 192 0
-116 146 -206 0
-66 156 299 0
-22 -57 111 0
-86 -147 291 0
-122 -222 265 0
213 226 -260 0
-105 164 166 0
-72 216 266 0
173 -202 -286 0
-178 -275 -286 0
-234 240 273 0
88 117 -122 0
-137 -195 -203 0
77 257 261 0
3 75 -87 0
51 148 -215 0
-70 177 199 0
43 -118 192 0
15 -88 -168 0
-27 -120 -135 0
-8 87 274 0
45 -64 131 0
21 196 -239 0
-243 292 299 0
31 110 -249 0
83 -220 261 0
-14 177 -226 0
104 137 -157 0
10 75 -96 0
133 -145 268 0
-42 66 282 0
-21 -251 253 0
33 -74 -76 0
96 -112 241 0
-137 178 -245 0
64 207 -236 0
-163 -217 -236 0
6 -57 -150 0
104 -126 188 0
-23 -46 86 0
-17 106 250 0
3 -252 290 0
58 116 154 0
61 150 -154 0
15 -260 -279 0
192 238 255 0
-31 -199 -225 0
30 64 -285 0
11 -57 212 0
-200 287 -296 0
-97 249 -266 0
-40 83 264 0
-194 -230 244 0
-43 111 -289 0
-6 -236 -270 0
46 -102 -123 0
129 195 254 0
67 -91 230 0
31 92 -118 0
70 132 -190 0
-68 -171 -242 0
-78 -193 289 0
-62 186 243 0
-162 198 231 0
-6 -171 202 0
34 -193 -291 0
61 86 272 0
-109 153 208 0
17 180 284 0
55 146 251 0
-11 30 -84 0
-124 -164 187 0
84 133 224 0
-70 -245 258 0
-8 -91 107 0
58 -272 -297 0
-35 -266 278 0
149 158 278 0
155 -214 254 0
28 170 -276 0
68 113 200 0
-8 77 -218 0
-29 -207 -252 0
189 214 -239 0
-112 130 -227 0
-10 -220 -245 0
-20 212 -263 0
-6 -90 -217 0
-23 89 283 0
-171 179 -275 0
11 217 -293 0
19 -155 297 0
87 -138 -275 0
-20 31 -200 0
102 -124 -165 0
52 56 140 0
68 -136 -153 0
5 246 -253 0
18 99 163 0
-58 223 271 0
104 -215 -287 0
147 177 -180 0
-53 152 167 0
-21 42 -229 0
141 -218 -233 0
-68 -173 -262 0
25 131 147 0
-45 -179 -296 0
-17 83 105 0
-39 -59 -195 0
7 -57 59 0
67 -80 -278 0
21 -111 120 0
-8 -204 -222 0
-44 54 -296 0
-119 -161 265 0
-30 219 259 0
62 110 286 0
-241 -259 280 0
41 134 261 0
-179 -187 -300 0
103 167 -219 0
94 -202 244 0
-12 52 -63 0
-11 164 269 0
77 -128 153 0
-6 67 -274 0
-36 -85 -197 0
67 -107 216 0
-50 -140 230 0
-78 214 299 0
-157 267 275 0
194 201 258 0
-87 -93 -296 0
-85 176 -242 0
33 -181 -194 0
167 -258 287 0
5 -111 -232 0
-81 -118 168 0
60 119 -260 0
37 107 -299 0
-141 166 -272 0
42 -145 288 0
18 135 250 0
183 289 292 0
-65 -93 230 0
50 71 133 0
79 207 287 0
-32 -81 -140 0
-28 94 -111 0
163 -256 257 0
-40 -238 -295 0
1 180 -205 0
70 83 108 0
-3 210 -275 0
-39 -147 -271 0
17 -78 154 0
167 -174 -176 0
62 -133 -281 0
22 -73 168 0
-54 183 253 0
7 -38 -235 0
-199 237 -284 0
50 86 -158 0
159 -219 -266 0
-25 -38 297 0
-47 125 174 0
-37 -159 -246 0
63 171 -271 0
184 204 -278 0
3 -51 -167 0
39 120 -193 0
7 111 202 0
-25 -35 179 0
-78 93 263 0
-182 -239 282 0
59 182 -256 0
188 227 -296 0
13 -99 -163 0
-76 99 233 0
76 -207 -212 0
24 -240 -241 0
39 -60 268 0
80 -169 -199 0
-67 99 -143 0
-139 -146 -247 0
-42 -81 -127 0
-120 126 -141 0
-77 -192 -281 0
106 278 287 0
-13 -168 203 0
43 -155 159 0
38 219 -234 0
-104 136 -237 0
1 -3 13 0
-16 112 209 0
91 -106 -142 0
-49 232 -263 0
-24 -206 -234 0
-141 178 -298 0
-53 -162 190 0
-11 92 -295 0
50 -190 -228 0
-18 67 249 0
159 -267 -272 0
-190 -250 269 0
156 -170 296 0
95 241 -253 0
107 165 -217 0
138 -159 261 0
3 -148 281 0
-80 -141 201 0
57 171 -184 0
64 107 251 0
-66 202 -289 0
-32 -124 -252 0
-113 181 -193 0
20 -176 274 0
252 269 277 0
-81 -243 255 0
17 45 -90 0
-175 -240 -257 0
18 113 210 0
-16 87 -186 0
-6 71 157 0
1 103 153 0
9 233 285 0
132 -224 -230 0
11 -23 36 0
38 -113 -165 0
26 -177 -284 0
59 -183 -258 0
37 80 113 0
-46 65 244 0
13 -157 -221 0
8 -102 145 0
72 143 252 0
102 200 -201 0
-59 174 242 0
-87 96 -205 0
88 185 266 0
-45 -246 -271 0
-97 153 -288 0
119 167 271 0
33 78 -204 0
83 147 230 0
152 -190 294 0
-143 -173 217 0
32 -156 240 0
-14 55 196 0
184 196 212 0
67 207 -253 0
184 -239 244 0
-149 -240 -294 0
22 179 -229 0
-135 -155 -216 0
138 236 243 0
72 78 193 0
-55 -103 136 0
224 -229 286 0
81 88 -97 0
-97 -118 215 0
-73 -111 181 0
-131 -237 280 0
-47 -53 66 0
-75 -151 -235 0
-51 -149 -248 0
-3 123 -202 0
-80 -82 270 0
-35 -219 251 0
120 158 215 0
-116 201 242 0
63 235 -250 0
8 -24 192 0
39 40 111 0
-39 -153 184 0
55 176 -189 0
31 -91 172 0
95 202 -257 0
59 -68 286 0
8 -245 -262 0
28 -115 156 0
175 229 257 0
24 -150 277 0
-23 -104 -298 0
-227 229 -281 0
149 242 -259 0
-129 188 267 0
12 -139 -146 0
33 144 206 0
-86 -228 254 0
45 -88 289 0
252 267 299 0
-39 62 96 0
-6 31 -138 0
-64 -83 90 0
132 148 -176 0
174 219 -282 0
-94 -234 270 0
-47 -56 -149 0
-2 208 -296 0
27 -49 -156 0
-38 -62 140 0
74 -207 255 0
105 200 291 0
-3 -87 -210 0
51 -139 -189 0
22 -194 -200 0
114 -141 -205 0
-110 260 271 0
-200 -229 -250 0
-99 -152 217 0
-35 63 -244 0
-63 -168 -244 0
-112 118 128 0
-42 -51 -140 0
-90 -126 168 0
-4 -128 -211 0
132 -203 -294 0
-48 -117 -150 0
-86 -132 146 0
-10 -192 220 0
88 197 -275 0
-23 -68 -175 0
-62 -103 130 0
60 180 281 0
-160 259 -281 0
9 -101 -256 0
124 170 285 0
172 234 -243 0
-24 48 215 0
73 101 -201 0
8 231 245 0
-85 -166 -167 0
-30 75 295 0
50 -275 279 0
95 -138 168 0
-73 121 -192 0
10 95 -122 0
-15 -199 252 0
-30 101 -108 0
-62 182 -245 0
-84 114 262 0
-90 -233 -237 0
-66 230 253 0
12 161 -235 0
33 130 -221 0
-109 -185 -287 0
-20 -111 209 0
-155 -229 275 0
-49 -222 -224 0
34 80 -268 0
-84 188 -206 0
15 20 187 0
49 55 -142 0
-47 -50 -88 0
-46 -107 173 0
-18 150 -255 0
150 167 195 0
17 45 139 0
-55 -109 128 0
-131 176 -197 0
-110 -179 -291 0
-42 87 170 0
-68 87 -164 0
-68 179 193 0
4 7 -118 0
18 -251 297 0
12 -122 -285 0
48 159 -284 0
24 -56 114 0
-173 174 -177 0
46 70 267 0
-32 -121 -284 0
-116 224 -272 0
-2 -137 279 0
2 -10 -264 0
64 -68 290 0
12 -181 208 0
-104 149 171 0
39 -197 -200 0
22 49 -89 0
58 188 266 0
109 173 290 0
229 -269 -298 0
6 223 -231 0
67 -133 -266 0
9 125 -255 0
-99 138 188 0
70 82 -239 0
-141 216 290 0
-93 -258 271 0
-83 -165 -236 0
116 -274 291 0
162 -171 187 0
-50 90 -148 0
-55 -140 -289 0
84 122 -175 0
75 -116 129 0
-6 -62 -78 0
-170 188 -214 0
47 213 -235 0
-117 194 294 0
125 -129 -209 0
108 -167 -237 0
80 273 280 0
-10 159 250 0
-86 153 165 0
53 60 205 0
88 -91 -194 0
78 -135 -178 0
14 -82 160 0
89 -116 275 0
-42 -76 -299 0
9 -114 -269 0
-101 204 -243 0
24 48 205 0
42 196 -225 0
59 -184 -253 0
-1 27 -57 0
-108 124 141 0
-124 -224 -249 0
-96 -233 -288 0
20 -31 -211 0
93 -134 -177 0
38 101 -244 0
-18 -67 160 0
59 84 265 0
60 -176 223 0
69 94 215 0
-119 255 292 0
-19 26 -114 0
-29 173 -214 0
-60 166 -241 0
-2 -135 -216 0
28 282 299 0
31 93 172 0
-14 -171 -259 0
-61 -66 249 0
-78 -107 296 0
181 194 -276 0
130 -138 221 0
110 160 -201 0
-165 218 -279 0
-180 270 -286 0
26 269 271 0
-96 188 246 0
-116 -127 136 0
10 -267 281 0
-2 93 178 0
106 -230 243 0
-77 -102 -270 0
-92 104 -109 0
-36 -102 -157 0
-55 -85 196 0
10 -19 -39 0
-115 -204 250 0
47 -86 -207 0
14 57 -198 0
-67 153 217 0
91 -189 298 0
50 228 291 0
63 -188 -295 0
-46 59 -296 0
144 -153 -269 0
-53 110 259 0
-175 -249 -263 0
-261 276 291 0
54 -122 -154 0
-68 216 -223 0
-175 -185 -222 0
75 -130 282 0
-1 7 67 0
195 243 -269 0
35 -44 214 0
-25 52 116 0
188 -270 284 0
-19 -35 -261 0
-185 -223 271 0
10 218 -286 0
-161 -194 205 0
-52 169 -182 0
33 -75 243 0
-157 247 296 0
-78 -82 -122 0
-71 -97 150 0
53 190 226 0
94 210 -260 0
137 -182 -289 0
-49 231 -300 0
113 131 228 0
30 -59 -103 0
124 125 -260 0
103 -127 247 0
64 81 271 0
-100 -250 -259 0
121 122 161 0
35 69 -106 0
-26 -151 -200 0
-65 -131 -155 0
57 -65 299 0
-92 191 -193 0
7 -84 -101 0
161 -166 -283 0
81 -121 -170 0
16 71 162 0
200 -268 -269 0
118 -147 241 0
-39 180 211 0
71 -228 -240 0
8 11 293 0
-7 -95 136 0
137 211 272 0
-154 218 260 0
13 -91 171 0
-51 -160 -287 0
64 -150 -290 0
-52 -289 294 0
139 286 295 0
-67 95 -237 0
-29 167 300 0
51 -75 151 0
-13 -16 -246 0
-3 133 -291 0
78 156 -184 0
-21 65 -231 0
-37 -70 210 0
32 109 223 0
91 248 284 0
-16 -211 -214 0
-51 56 128 0
-10 -103 252 0
98 -125 -162 0
-193 194 -225 0
-27 -36 242 0
-21 -198 -237 0
26 98 -135 0
-207 224 272 0
-47 -208 -245 0
-71 112 128 0
-115 -138 -258 0
56 -175 254 0
19 -142 -168 0
-1 -64 -146 0
-4 -93 117 0
56 -255 -300 0
-92 172 -291 0
-115 -175 -222 0
-61 99 236 0
47 -78 139 0
-65 232 247 0
7 -80 -160 0
-34 53 222 0
-83 101 299 0
32 -149 -294 0
-272 -281 -286 0
127 158 188 0
15 -35 -140 0
-95 -118 -194 0
48 174 176 0
-65 -100 264 0
7 -238 287 0
25 64 282 0
-29 58 -228 0
70 131 281 0
-44 -79 185 0
-138 168 -237 0
13 -51 -74 0
8 -37 220 0
-226 273 -284 0
-123 -141 247 0
-14 107 -152 0
-105 135 -186 0
-21 -91 140 0
-76 127 -216 0
74 134 -190 0
4 43 248 0
-71 -140 -220 0
95 -97 133 0
-46 -57 -76 0
15 -117 -231 0
13 175 -234 0
-115 204 296 0
-63 107 216 0
-106 -235 240 0
-51 -115 -160 0
116 -215 293 0
-24 -126 236 0
72 -131 -218 0
-13 176 -194 0
-110 215 -263 0
-127 178 -259 0
47 53 -128 0
-28 157 -194 0
86 -158 256 0
-91 150 -158 0
-15 -66 -274 0
-90 -194 -241 0
208 -231 -243 0
197 207 258 0
44 -99 -132 0
-197 223 -294 0
54 83 181 0
148 152 247 0
84 -109 -128 0
24 116 -281 0
8 -31 217 0
-3 164 183 0
-31 162 -246 0
-13 217 255 0
195 233 243 0
-44 -254 -285 0
33 111 -190 0
-13 -97 155 0
69 99 274 0
110 -126 -218 0
-45 233 -255 0
-72 73 170 0
98 -138 236 0
42 54 -65 0
171 -275 -277 0
19 47 177 0
-65 201 203 0
-108 -244 -253 0
-78 -159 165 0
-207 246 279 0
-1 -34 -106 0
111 -145 -265 0
-131 234 286 0
-58 -65 -132 0
92 147 -155 0
-4 -75 -191 0
-86 92 113 0
-21 -165 -199 0
-207 274 300 0
-113 -231 -262 0
82 -118 -163 0
178 197 214 0
115 195 251 0
93 -133 260 0
-53 -170 229 0
4 -15 216 0
-138 169 293 0
-34 191 -196 0
52 156 -292 0
-21 -42 -75 0
12 51 241 0
136 213 258 0
19 -39 -166 0
-12 -149 -253 0
60 -229 -282 0
-60 241 269 0
6 142 -210 0
-16 156 170 0
-35 -50 254 0
73 130 289 0
-180 -228 273 0
56 -121 -294 0
10 107 140 0
-45 98 130 0
4 -24 -209 0
12 -125 -248 0
130 198 271 0
-177 -250 -260 0
14 18 219 0
-92 -141 -183 0
-82 117 -242 0
-99 107 240 0
-94 197 -272 0
62 -170 298 0
84 -237 289 0
-123 171 -175 0
118 191 298 0
-33 265 -299 0
-111 187 239 0
-13 -62 113 0
46 114 116 0
-156 190 291 0
-26 -203 277 0
-74 -113 121 0
-119 127 -268 0
-71 -158 -260 0
-108 -142 -284 0
-163 -261 -296 0
-32 -221 293 0
21 38 232 0
-18 -72 93 0
-187 -233 281 0
190 -227 251 0
-48 64 -273 0
28 37 129 0
-85 -180 269 0
-70 234 261 0
31 -65 -217 0
181 -198 290 0
-170 238 -271 0
255 256 300 0
109 -141 256 0
2 -110 -268 0
168 188 -258 0
-25 78 -194 0
72 233 -277 0
10 43 163 0
-14 36 -103 0
8 -62 -195 0
-286 295 300 0
-23 -88 90 0
169 222 -285 0
-41 -238 -256 0
-63 -153 283 0
-160 -178 240 0
137 -149 217 0
-65 161 183 0
-151 -157 -217 0
71 224 -269 0
-62 67 221 0
22 -119 -154 0
7 -199 299 0
-65 154 -162 0
-7 -161 -200 0
17 201 219 0
-78 -90 257 0
55 -99 -231 0
113 -127 -165 0
-144 262 -296 0
32 44 -248 0
-91 -231 282 0
-149 223 -237 0
-31 206 207 0
14 -236 241 0
-73 -136 -195 0
40 72 -132 0
-169 -172 -258 0
-10 193 -246 0
-4 101 -292 0
45 212 227 0
141 -222 -285 0
-11 150 -297 0
-141 170 198 0
-229 247 -295 0
-124 -125 260 0
21 -97 -138 0
-6 -90 231 0
-169 -174 -269 0
-52 -122 -174 0
242 244 280 0
-122 -258 294 0
-128 162 274 0
-16 -225 265 0
-35 47 -204 0
-105 -119 -159 0
-93 -131 -201 0
115 -216 280 0
-76 228 -279 0
139 148 -235 0
-166 -211 -297 0
34 -285 -290 0
-164 225 -289 0
104 -106 168 0
-69 233 -264 0
29 74 -255 0
31 -56 -281 0
-92 -184 -283 0
-152 241 -277 0
47 224 -285 0
50 -110 -279 0
-59 123 185 0
203 -245 265 0
-144 -243 287 0
71 -232 274 0
73 94 -114 0
-105 137 195 0
-203 -227 -233 0
66 161 285 0
-120 186 252 0
83 212 -246 0
-114 -189 -274 0
-115 141 -249 0
221 239 -268 0
-99 -134 178 0
172 196 233 0
-39 47 -117 0
178 234 -252 0
208 -224 233 0
122 175 -242 0
-76 -186 -266 0
37 -164 -246 0
102 190 -275 0
31 37 235 0
-242 260 267 0
135 -219 -278 0
-11 -108 -209 0
6 -33 221 0
62 -132 149 0
81 -106 -219 0
12 -20 178 0
-39 216 -275 0
32 153 -216 0
127 185 239 0
10 30 222 0
26 -49 216 0
-10 154 231 0
-126 -179 256 0
121 -206 -263 0
-50 -126 -189 0
13 -66 209 0
32 -83 -91 0
237 264 -286 0
18 -88 236 0
44 -76 135 0
-21 135 -278 0
-92 231 -268 0
-126 -185 254 0
30 -63 78 0
-95 -97 -102 0
53 139 179 0
73 182 -287 0
-25 -82 173 0
61 -76 -105 0
178 230 -277 0
45 150 180 0
-6 -88 -116 0
-150 -195 208 0
39 -61 -185 0
-243 244 284 0
-157 -204 -272 0
-5 13 63 0
21 -122 178 0
-21 180 207 0
51 222 -238 0
-64 110 -233 0
103 -154 -240 0
-61 184 -281 0
25 -72 -183 0
78 144 191 0
85 -114 -244 0
6 177 278 0
-57 -229 230 0
57 -182 218 0
7 -195 280 0
122 175 196 0
-92 -103 -256 0
-40 153 -245 0
26 162 251 0
192 -215 -295 0
39 -44 -275 0
174 -211 -259 0
-47 -132 241 0
-79 163 250 0
-66 209 297 0
43 51 128 0
63 125 233 0
-13 282 291 0
-11 -31 -299 0
-21 -217 -226 0
9 187 -201 0
-12 -43 162 0
-167 -226 281 0
-123 152 -294 0
-3 61 92 0
-12 -103 113 0
-78 -260 -277 0
103 -141 193 0
99 -135 238 0
67 215 220 0
-75 -134 166 0
118 169 287 0
65 -193 261 0
45 251 298 0
-8 -109 136 0
-26 -203 -281 0
74 -84 235 0
-93 -95 -286 0
66 -81 -244 0
79 145 194 0
40 60 -124 0
133 179 189 0
137 149 -298 0
-40 116 -284 0
121 -140 232 0
10 -76 279 0
89 -161 -264 0
-17 -29 -300 0
-153 193 -240 0
-208 -230 275 0
-28 32 141 0
-44 -234 264 0
13 176 299 0
62 80 101 0
6 87 195 0
7 116 -294 0
82 -87 -216 0
171 222 -271 0
-9 -138 -166 0
190 -210 -258 0
-90 -166 -193 0
17 -30 -184 0
56 -131 241 0
140 150 295 0
67 -86 -236 0
71 152 -158 0
-53 -66 -181 0
150 203 -270 0
-9 76 -250 0
-89 100 114 0
-70 110 254 0
-55 87 226 0
45 75 -272 0
31 45 -124 0
-165 -234 246 0
47 203 -295 0
66 -145 201 0
97 105 157 0
-28 -140 180 0
202 -265 -266 0
28 100 -149 0
88 -224 -278 0
-3 -24 112 0
-116 190 201 0
121 156 -293 0
71 174 265 0
-78 -216 -234 0
11 -80 180 0
38 51 -238 0
-54 -240 -262 0
-9 109 259 0
13 -35 -53 0
21 147 -271 0
77 -116 174 0
-10 -31 280 0
-42 107 265 0
78 -144 189 0
249 -252 -284 0
56 284 -292 0
-243 -295 296 0
-88 93 164 0
142 -196 287 0
-160 -237 274 0
-87 -129 242 0
55 177 252 0
-23 202 -203 0
-55 92 -189 0
-182 -208 266 0
171 220 237 0
-122 -182 232 0
50 60 -64 0
12 211 -292 0
103 -132 -226 0
58 -202 -222 0
59 -250 -271 0
132 184 216 0
130 234 238 0
-9 71 232 0
56 -63 203 0
94 164 254 0
73 -139 194 0
-7 11 -260 0
-37 -38 156 0
3 59 85 0
121 -208 265 0
94 -179 -203 0
71 -101 242 0
1 101 296 0
-19 -135 199 0
3 84 216 0
92 192 -294 0
9 27 212 0
-232 -254 276 0
130 -144 257 0
-165 248 255 0
-96 148 -177 0
19 -112 178 0
-96 -176 -285 0
-39 204 -220 0
110 -135 -156 0
-52 -73 -219 0
36 230 250 0
104 -183 294 0
14 78 -146 0
113 144 262 0
-92 -101 -277 0
-121 -145 292 0
96 -125 -231 0
5 50 247 0
-92 129 300 0
153 190 -191 0
-120 169 -289 0
35 -81 -295 0
22 -102 258 0
-50 -80 -164 0
-73 131 166 0
204 241 -277 0
-13 84 204 0
122 151 269 0
-200 203 230 0
210 -239 -254 0
161 234 260 0
-107 154 175 0
-125 -281 -297 0
-29 -93 -148 0
-44 -203 -256 0
22 -157 232 0
-15 75 265 0
63 68 149 0
5 168 -195 0
25 44 134 0
-174 207 -234 0
