c F2 random 3-CNF cnfgen RandomKCNF(3,350,1750,seed=6) m/n=5.0
p cnf 350 1750
-42 249 294 0
-75 -301 -340 0
12 -140 251 0
-99 284 -289 0
-48 -172 -186 0
-49 101 326 0
-103 -302 336 0
264 -295 331 0
-156 221 309 0
257 269 -348 0
-101 160 195 0
108 268 306 0
-9 -171 -332 0
149 -200 271 0
-95 217 -305 0
-46 -126 -309 0
-40 -219 -265 0
-44 -99 -349 0
10 -12 -89 0
-97 -132 -258 0
-211 -216 -314 0
246 -252 -337 0
-157 -240 325 0
-193 -309 -318 0
81 -149 250 0
16 -94 -313 0
32 255 -302 0
-8 217 -315 0
-52 119 190 0
74 163 311 0
-24 245 331 0
66 283 -316 0
232 256 335 0
-226 -229 246 0
-147 150 187 0
-142 -144 -258 0
17 191 228 0
-17 -89 275 0
-27 108 222 0
59 -205 -347 0
39 -66 328 0
77 -96 270 0
199 260 292 0
84 163 -215 0
-97 167 -196 0
272 283 -339 0
95 140 342 0
32 39 -197 0
31 -59 334 0
-31 116 -278 0
40 48 -242 0
58 62 -92 0
-131 147 334 0
275 -331 335 0
131 170 -270 0
60 -116 -188 0
27 177 224 0
35 -173 -249 0
-45 303 347 0
65 215 -280 0
-220 -289 -305 0
17 -71 154 0
56 91 295 0
-78 -202 -304 0
111 -199 330 0
-129 173 -214 0
-190 302 348 0
-43 91 157 0
100 195 211 0
-250 -267 -269 0
140 -333 340 0
22 57 302 0
45 -64 -341 0
82 90 126 0
235 246 -319 0
101 -191 -293 0
1 35 -141 0
163 234 -323 0
-52 197 -320 0
-73 -76 190 0
-54 -78 273 0
-66 -283 348 0
62 205 -245 0
-131 -170 -278 0
24 232 -285 0
131 275 -286 0
-8 108 293 0
-30 -140 143 0
2 -88 305 0
94 -180 -245 0
184 281 -319 0
28 -300 -317 0
-29 -113 -327 0
-154 -185 328 0
213 -280 330 0
163 259 333 0
32 221 -225 0
-1 -33 -181 0
199 207 -304 0
-132 229 254 0
-27 264 278 0
151 329 -334 0
61 -70 -287 0
-36 109 251 0
13 -51 -79 0
-244 -294 -314 0
99 233 315 0
72 -201 -343 0
141 289 332 0
125 204 -209 0
-187 -256 -331 0
-156 185 -269 0
-93 -302 -328 0
54 -124 -236 0
168 -240 -347 0
7 -56 -249 0
31 -327 -328 0
83 -92 246 0
16 -178 -334 0
-2 -185 -198 0
90 181 253 0
-4 16 -23 0
168 241 -248 0
57 74 -109 0
-113 -183 214 0
144 190 327 0
103 -206 271 0
40 42 328 0
-247 266 -292 0
-5 108 -113 0
4 -77 308 0
111 -208 -263 0
46 222 305 0
-145 -216 323 0
-101 111 -225 0
-25 -186 -334 0
-184 -208 221 0
-306 310 -335 0
89 257 323 0
-115 131 274 0
30 -157 -280 0
64 -166 180 0
-67 -139 299 0
-272 307 329 0
125 157 320 0
-14 -221 315 0
196 209 296 0
287 311 -336 0
-87 -91 -132 0
82 115 -289 0
29 -42 -59 0
142 -208 -229 0
-168 229 327 0
-48 218 -339 0
171 297 314 0
-51 97 106 0
96 184 -327 0
4 145 -227 0
-2 -8 82 0
-75 194 -227 0
-60 -111 327 0
-111 152 -290 0
-116 -169 -325 0
-206 -222 -327 0
-60 -103 301 0
120 179 262 0
-8 81 -259 0
23 65 -99 0
88 109 114 0
166 204 -334 0
-81 282 -338 0
-27 -143 -289 0
311 -325 -329 0
-1 76 109 0
-2 -291 322 0
-103 -178 281 0
-62 -99 130 0
170 186 -343 0
63 89 134 0
-7 39 163 0
141 142 153 0
-170 272 295 0
46 -124 -239 0
68 171 -197 0
-22 113 -126 0
172 -179 324 0
59 85 162 0
43 -92 247 0
227 233 -286 0
-5 -161 281 0
35 -204 215 0
9 29 239 0
36 86 -111 0
47 -128 326 0
56 -241 319 0
-57 -95 287 0
168 305 -309 0
21 173 282 0
-53 64 -180 0
-68 150 275 0
6 92 -120 0
-224 299 -325 0
39 -144 -280 0
-111 -191 -283 0
-61 197 -348 0
-11 -90 -210 0
7 -147 218 0
1 -116 246 0
-122 -218 -229 0
102 107 275 0
-261 312 328 0
-189 253 -334 0
44 79 -125 0
105 -160 208 0
-255 278 -336 0
24 116 263 0
-142 218 219 0
-55 238 -316 0
232 -264 -286 0
99 -146 347 0
146 -155 159 0
-24 -130 -171 0
-70 120 145 0
-34 -37 -343 0
-44 82 330 0
6 215 -335 0
-149 257 -276 0
8 201 -288 0
-4 11 304 0
-67 234 347 0
77 247 256 0
61 215 303 0
99 201 -295 0
-30 54 310 0
-119 153 -265 0
57 154 256 0
158 -176 -309 0
94 -196 221 0
218 -274 332 0
-24 -69 -190 0
87 173 -231 0
169 -183 -235 0
-98 216 -282 0
-197 335 341 0
32 69 -243 0
-6 -155 342 0
194 -289 -314 0
-37 180 -296 0
-42 74 111 0
28 346 -348 0
-99 -157 280 0
35 -86 -180 0
-31 81 -112 0
-47 107 117 0
-45 159 174 0
-57 91 272 0
7 87 231 0
-37 212 -239 0
-86 181 -318 0
-39 -175 -348 0
46 -218 -309 0
-118 225 319 0
-104 294 330 0
200 301 -342 0
20 -47 -323 0
36 57 333 0
2 -153 335 0
2 -47 -304 0
26 127 -138 0
208 234 -273 0
15 -318 -324 0
-103 -148 -260 0
175 293 335 0
121 -143 -349 0
-101 137 258 0
-115 -130 -132 0
33 80 -282 0
-82 -259 263 0
75 213 -239 0
7 -174 -262 0
50 -153 -262 0
-40 150 180 0
174 290 -348 0
20 -182 194 0
-126 211 272 0
88 185 -199 0
7 -117 -325 0
205 277 -326 0
52 83 -281 0
-41 209 210 0
-47 201 -323 0
-30 -140 262 0
-219 227 -327 0
-37 171 236 0
-158 -242 282 0
-224 240 -254 0
131 297 -340 0
-1 144 -235 0
-26 159 331 0
48 -158 -320 0
-47 -252 331 0
82 -172 -189 0
-167 -169 188 0
28 86 129 0
46 -270 -298 0
70 -167 227 0
-81 286 306 0
95 110 -256 0
-112 -128 -286 0
-71 -92 -140 0
50 114 280 0
4 -159 -175 0
-156 242 302 0
-81 88 127 0
-65 -132 184 0
8 -32 306 0
246 306 342 0
77 98 -117 0
85 -94 288 0
124 -228 -248 0
-74 113 -210 0
50 110 -348 0
74 161 -244 0
79 -140 -166 0
88 -157 326 0
-55 62 253 0
13 -302 -304 0
-62 67 -322 0
145 254 -258 0
29 45 202 0
-45 144 -219 0
22 -162 294 0
-178 303 -306 0
28 -157 -299 0
-211 -228 -345 0
187 -268 288 0
61 85 119 0
98 150 165 0
132 301 -314 0
114 176 -278 0
7 264 334 0
30 143 -216 0
112 228 310 0
-194 -305 -314 0
-61 -317 334 0
-38 179 348 0
67 166 -349 0
-26 -130 -133 0
-155 -281 -309 0
42 193 206 0
-46 -157 231 0
17 78 289 0
-114 121 -165 0
126 -280 -340 0
2 234 283 0
-41 92 273 0
-128 213 -280 0
-55 -92 -341 0
-193 198 323 0
4 53 -150 0
-79 -167 306 0
93 -183 203 0
-87 105 -289 0
108 -234 329 0
68 133 -170 0
194 -295 323 0
-23 162 343 0
46 89 344 0
-164 -237 -267 0
25 -45 303 0
-134 -342 -348 0
-158 175 -337 0
-15 51 70 0
39 -266 -277 0
59 -258 330 0
-157 299 -318 0
203 205 -207 0
-182 -270 -323 0
30 61 -221 0
108 -146 187 0
60 -148 229 0
58 -126 227 0
225 -237 264 0
-97 214 280 0
-22 -128 183 0
158 228 256 0
69 -283 333 0
27 87 165 0
-84 86 -116 0
75 167 -278 0
-2 -70 271 0
-68 -150 -219 0
-184 -276 347 0
-9 -191 -294 0
-16 98 110 0
55 251 -284 0
191 -236 337 0
125 218 287 0
-37 -115 -341 0
-50 262 -341 0
-94 -137 -336 0
-50 134 291 0
5 -109 -281 0
-91 -246 270 0
41 -233 323 0
63 -197 214 0
-79 172 -220 0
12 79 182 0
-36 -298 -346 0
-68 -223 263 0
-202 -237 -275 0
-94 -182 -194 0
-123 218 283 0
-215 -276 -348 0
-129 -168 189 0
57 284 -307 0
-183 -211 338 0
35 160 226 0
-111 137 335 0
-32 -221 -330 0
3 53 -175 0
-155 312 -327 0
-3 -100 251 0
-36 277 -332 0
24 70 -271 0
-134 328 345 0
76 -178 -247 0
-272 -285 288 0
-31 -238 258 0
101 -317 -321 0
-42 -47 264 0
-159 275 -291 0
-41 95 104 0
-70 141 214 0
-134 182 -208 0
-154 -258 295 0
-101 -118 120 0
79 -190 -333 0
-242 -246 -273 0
186 -238 -296 0
70 -92 -203 0
15 -54 243 0
58 239 318 0
38 -116 139 0
-5 41 348 0
23 36 -267 0
-20 212 321 0
-39 122 256 0
103 212 -280 0
-23 -243 309 0
-61 154 254 0
13 -19 294 0
-26 108 -125 0
-14 287 -347 0
-186 206 277 0
13 -23 -337 0
-230 -252 257 0
45 -145 -220 0
52 -161 343 0
-48 -166 336 0
152 -300 343 0
30 -100 -264 0
95 210 -316 0
47 -161 305 0
29 -196 226 0
191 226 305 0
-40 -89 -211 0
-49 -107 -253 0
68 117 -149 0
143 260 276 0
-64 -86 204 0
186 -298 344 0
88 91 104 0
-58 -137 157 0
-10 -46 334 0
14 -28 235 0
148 189 -303 0
-42 -229 -280 0
-60 -107 113 0
-24 249 343 0
-210 -341 347 0
10 206 -277 0
-78 -194 307 0
-60 -229 -255 0
160 -168 178 0
27 79 311 0
-56 -183 -294 0
252 -259 -281 0
-68 -192 205 0
-24 172 227 0
244 334 -347 0
-33 -200 -337 0
-141 -286 -299 0
19 -20 -335 0
26 38 -63 0
110 -208 230 0
-46 -112 139 0
-60 -124 339 0
7 -189 349 0
-9 -224 292 0
-7 -137 -161 0
78 -198 304 0
156 -273 320 0
-141 -316 342 0
11 -28 -338 0
-21 -61 120 0
-67 -96 99 0
-145 -211 -335 0
-95 -234 -341 0
193 -219 -334 0
6 152 -180 0
102 -141 -264 0
152 -333 350 0
229 -315 -345 0
-165 210 -238 0
13 168 -321 0
-270 -325 345 0
181 247 281 0
-27 155 265 0
-12 14 -130 0
55 -168 323 0
219 233 344 0
124 -276 -314 0
1 -78 213 0
160 162 -166 0
-37 238 257 0
116 -160 191 0
-64 212 229 0
18 39 227 0
61 -162 -258 0
75 281 330 0
12 103 -278 0
109 231 290 0
35 -90 -339 0
-110 -112 -294 0
-217 277 298 0
142 -159 231 0
-194 212 -291 0
-25 51 -336 0
-6 110 -238 0
71 79 330 0
125 -167 348 0
162 -246 322 0
40 120 238 0
-112 -132 246 0
-73 -140 -332 0
101 -172 271 0
-195 -207 312 0
-14 -98 130 0
104 -148 263 0
-54 -78 -140 0
15 116 277 0
112 291 -337 0
-62 221 -284 0
-232 241 333 0
251 316 -322 0
3 142 191 0
27 82 -296 0
-89 263 -341 0
87 -299 350 0
79 105 240 0
45 284 -346 0
157 -244 280 0
282 313 326 0
241 280 -347 0
42 -302 -311 0
-74 114 -252 0
74 -218 230 0
-40 -148 -223 0
-13 -247 -267 0
-32 98 252 0
54 94 -97 0
33 -65 -142 0
-36 -94 107 0
-1 121 -308 0
131 223 339 0
208 224 340 0
-5 220 275 0
-17 111 139 0
48 50 265 0
-16 67 -291 0
-46 -197 -308 0
-15 214 -335 0
10 272 -287 0
-81 -168 -178 0
-222 -291 -323 0
-119 251 -333 0
-9 67 231 0
-75 122 340 0
268 -287 -335 0
82 -188 -259 0
-23 255 329 0
32 81 -166 0
4 54 -316 0
114 -152 -258 0
26 -123 144 0
-146 252 334 0
182 -244 272 0
-104 266 303 0
-86 -173 274 0
1 82 -337 0
-157 -247 331 0
32 130 133 0
215 315 323 0
25 206 337 0
179 207 -270 0
81 -179 269 0
183 -273 -274 0
28 -140 171 0
103 -109 148 0
-28 -273 345 0
51 196 -235 0
-71 -206 -346 0
-53 151 232 0
-114 118 -255 0
39 128 243 0
262 296 331 0
-63 -227 264 0
-103 112 195 0
61 195 -281 0
74 97 -111 0
-35 232 -291 0
-134 161 -279 0
107 171 276 0
-131 -193 225 0
44 117 -245 0
-77 -78 -100 0
138 -276 -281 0
69 216 -295 0
-6 18 -228 0
-135 227 -280 0
-58 239 253 0
-19 -75 -190 0
-8 162 289 0
63 163 262 0
-145 -192 202 0
-95 100 -116 0
82 122 315 0
-16 -94 153 0
-45 174 187 0
-114 -300 -328 0
-140 -231 -296 0
-15 171 267 0
-65 150 177 0
-37 -64 -99 0
15 -56 162 0
2 -160 333 0
-95 176 280 0
158 -251 256 0
60 -167 306 0
-131 -189 -209 0
255 278 297 0
-16 -289 -335 0
-162 -168 -348 0
51 -218 -317 0
-243 273 -327 0
-185 221 -265 0
-50 -280 322 0
61 106 303 0
103 269 -339 0
137 -297 349 0
107 -150 308 0
-121 252 -291 0
-70 -160 -303 0
51 90 207 0
197 -290 -323 0
42 54 -215 0
55 226 -320 0
-11 138 201 0
-5 -40 255 0
127 247 -327 0
15 -147 -228 0
-21 -155 242 0
95 114 -300 0
-93 -97 -345 0
28 -133 -332 0
4 -151 272 0
128 -172 -275 0
-201 208 -310 0
-164 223 225 0
5 40 333 0
-150 -271 -272 0
-74 -75 300 0
-20 -27 287 0
-89 -322 338 0
-36 251 326 0
-201 -260 -339 0
-67 156 286 0
-38 -171 -196 0
52 139 340 0
75 -201 -272 0
-243 -319 -350 0
87 138 -299 0
-12 -246 -252 0
-216 -326 -344 0
50 -267 -339 0
-153 247 -308 0
74 195 273 0
10 34 -98 0
-183 236 315 0
85 202 229 0
50 177 268 0
42 -216 -247 0
-7 32 109 0
109 -195 307 0
-219 224 -294 0
162 -252 -326 0
5 154 216 0
-41 203 236 0
-4 328 -330 0
-7 163 -170 0
42 -100 -276 0
199 200 333 0
37 88 163 0
-93 120 230 0
103 225 -343 0
-35 -140 156 0
64 -105 -133 0
-76 -149 -301 0
217 248 278 0
18 20 285 0
-51 67 -241 0
123 191 -214 0
-230 -288 290 0
-206 224 255 0
73 85 210 0
-76 -211 -293 0
56 135 -242 0
23 197 336 0
-46 99 -265 0
-18 -49 289 0
84 123 260 0
75 219 -250 0
-12 64 282 0
-150 232 -264 0
-43 -88 -89 0
-5 147 -300 0
5 63 -197 0
44 53 295 0
-93 199 -347 0
41 312 349 0
31 -135 207 0
-22 -162 333 0
43 226 -336 0
21 -215 342 0
22 -205 329 0
-140 -174 336 0
45 55 264 0
-50 -233 -279 0
139 157 -172 0
14 -52 -341 0
-77 -200 -205 0
-76 -268 -295 0
-20 -79 -131 0
-32 43 -182 0
38 -157 -240 0
-4 -41 -113 0
99 217 -330 0
21 -34 -325 0
-18 191 227 0
-48 75 -93 0
29 -34 333 0
-80 -105 -150 0
115 143 -217 0
-104 -233 296 0
30 -202 283 0
127 191 -241 0
-1 124 303 0
79 -150 338 0
92 112 -311 0
-32 -251 309 0
93 -320 321 0
-82 -96 -192 0
-25 259 -347 0
-199 -212 -266 0
51 181 304 0
-11 -167 -263 0
-11 -148 -249 0
-88 -169 314 0
-22 -245 -325 0
-2 -132 -185 0
24 -52 269 0
65 157 -302 0
172 206 279 0
-81 96 -292 0
-57 329 343 0
93 125 -212 0
-218 254 304 0
-34 190 -204 0
-217 273 312 0
79 150 -246 0
9 26 47 0
-184 -194 217 0
-80 166 -340 0
52 60 141 0
24 -25 -240 0
-20 -220 315 0
-46 -138 -240 0
10 -86 200 0
-98 -243 255 0
18 -38 -176 0
27 -121 -240 0
-17 77 103 0
112 245 343 0
186 -250 261 0
-18 -109 280 0
-10 188 -253 0
-16 101 -343 0
-163 -204 -333 0
-166 -226 337 0
93 122 152 0
169 -322 337 0
31 90 147 0
-26 37 -302 0
76 126 183 0
39 90 242 0
213 -255 294 0
-16 224 276 0
-61 77 -227 0
-46 67 324 0
103 -127 236 0
216 -262 -332 0
6 55 299 0
46 198 -229 0
-50 -215 288 0
63 106 283 0
-26 66 -335 0
-5 -198 -228 0
-109 -166 207 0
103 -226 319 0
65 -128 191 0
-80 -138 -286 0
16 -46 179 0
-48 -127 -262 0
103 136 -346 0
-36 168 -257 0
-139 -274 326 0
-17 -129 246 0
223 -284 -302 0
120 175 -215 0
52 -167 231 0
4 -183 -213 0
-38 -108 -247 0
-98 -309 332 0
69 -84 -127 0
14 66 310 0
-6 -108 -197 0
-36 -147 -150 0
-129 203 308 0
53 -114 250 0
-100 -105 244 0
113 140 195 0
256 290 313 0
-2 -233 -337 0
158 -283 337 0
-61 -66 -174 0
18 209 -264 0
-76 -186 -229 0
188 -208 -309 0
17 -167 182 0
-31 104 -241 0
-204 295 -324 0
90 -151 -299 0
-88 268 283 0
70 -73 330 0
43 215 244 0
-163 -187 -314 0
-15 155 -171 0
109 -180 217 0
-70 -140 -343 0
158 215 343 0
-16 -32 -293 0
-30 90 262 0
-31 85 -174 0
260 -295 321 0
97 -154 -201 0
46 222 -267 0
-5 -150 -210 0
206 -276 -350 0
97 268 271 0
36 -272 309 0
11 -55 -281 0
81 202 211 0
249 -315 345 0
161 189 227 0
-8 54 340 0
30 -132 -194 0
-135 206 266 0
72 262 -311 0
-35 -152 -168 0
-1 216 -321 0
-85 88 199 0
-122 -190 304 0
-147 -203 -293 0
153 300 -329 0
45 272 -283 0
4 250 299 0
-63 -85 -89 0
-67 275 -343 0
-102 -136 -246 0
-15 71 184 0
163 -165 348 0
146 -194 -337 0
99 -149 -181 0
-59 -157 -257 0
146 273 -315 0
-131 214 239 0
149 -184 254 0
-115 137 -225 0
58 -82 -315 0
54 -93 -164 0
-9 -13 247 0
-22 -124 -144 0
162 192 -265 0
121 189 -289 0
-11 -57 -254 0
-151 289 -319 0
263 -289 -313 0
211 -272 278 0
277 345 -348 0
75 -339 349 0
-98 149 -269 0
44 -131 260 0
-24 -122 -339 0
-54 237 -348 0
260 -263 -274 0
-13 27 280 0
36 48 -127 0
-62 -250 -347 0
-202 -285 298 0
98 -305 345 0
-123 -305 326 0
-80 118 235 0
4 -232 -253 0
-160 -182 267 0
-8 -51 -107 0
88 177 287 0
69 -163 -226 0
-85 -105 156 0
8 179 -192 0
35 172 -330 0
110 257 -326 0
94 207 222 0
-216 -229 -240 0
12 -165 300 0
-193 203 304 0
2 146 -312 0
90 -181 -201 0
-193 209 -270 0
-33 -134 274 0
-18 -111 205 0
4 23 -79 0
-138 -160 199 0
-107 173 -240 0
-120 279 344 0
-180 -220 307 0
313 -323 327 0
-99 231 349 0
19 125 129 0
38 -195 -285 0
83 -103 -281 0
114 283 -295 0
59 -85 -171 0
-49 -158 275 0
139 -223 -226 0
-175 -285 306 0
-76 -165 305 0
1 -78 -112 0
65 118 319 0
-26 -44 316 0
-90 -143 171 0
124 200 -234 0
172 237 -342 0
58 -296 338 0
99 -160 287 0
-24 197 304 0
-111 -153 -288 0
214 345 -350 0
-217 -237 -303 0
44 149 -349 0
17 -19 66 0
-7 29 347 0
-20 -244 -267 0
203 240 -315 0
88 149 281 0
279 305 -323 0
90 222 -266 0
108 109 178 0
162 219 339 0
-138 -184 243 0
-23 -214 -343 0
109 -174 -251 0
-154 219 295 0
-1 -197 209 0
-218 249 -302 0
245 322 341 0
-108 184 -313 0
-11 -18 -139 0
136 -247 248 0
36 -39 262 0
-131 149 -274 0
-140 -160 339 0
-136 167 316 0
24 -95 -156 0
-28 209 327 0
39 -163 218 0
123 -203 229 0
-206 216 -301 0
-257 -289 305 0
-53 -74 278 0
41 252 -311 0
41 -115 340 0
77 119 125 0
-119 -210 -247 0
34 115 -219 0
-236 -237 308 0
109 164 -183 0
95 -147 225 0
236 -240 251 0
114 188 -299 0
-90 -102 -183 0
92 230 321 0
-93 205 255 0
-94 252 339 0
-96 180 323 0
118 -165 176 0
-67 -183 246 0
73 82 262 0
62 -114 203 0
-205 260 276 0
19 141 -283 0
-245 246 -262 0
-65 -110 -190 0
81 -207 -255 0
1 -135 -320 0
-13 -108 139 0
-59 -94 -282 0
191 240 337 0
133 -177 317 0
-5 -118 -276 0
-177 -233 -313 0
43 196 -244 0
204 -211 254 0
-15 19 -269 0
-234 -288 342 0
55 -128 187 0
139 151 201 0
2 -62 -301 0
-13 166 -200 0
-21 -273 -288 0
219 261 -316 0
80 223 -228 0
-4 -75 -210 0
-154 -202 276 0
76 -150 279 0
-82 107 281 0
156 237 -344 0
-61 227 234 0
-58 107 289 0
-171 241 -331 0
-260 -272 344 0
80 88 -198 0
71 -150 -234 0
55 123 -151 0
23 90 319 0
47 64 -247 0
131 142 320 0
-85 -226 -234 0
-69 -89 161 0
-8 -249 253 0
-62 -263 325 0
106 -250 308 0
-138 219 267 0
-90 -268 323 0
64 109 325 0
-52 -197 -304 0
50 -144 -299 0
-4 -10 130 0
20 71 213 0
-30 205 -264 0
-20 -102 299 0
1 105 253 0
-140 275 -278 0
-181 -211 248 0
192 218 -229 0
-68 -69 251 0
-256 -265 302 0
-37 99 121 0
10 -226 -324 0
32 280 -287 0
38 -115 311 0
-27 -64 -314 0
-125 -142 -298 0
-133 147 -163 0
-54 -103 273 0
43 -151 -221 0
81 82 200 0
57 -276 -323 0
24 259 264 0
8 21 73 0
-100 148 -256 0
-168 226 317 0
-34 -36 -228 0
-26 103 -346 0
-195 229 332 0
34 -122 -288 0
14 -219 -307 0
225 228 346 0
-73 -239 -245 0
189 -275 -311 0
55 255 306 0
-37 225 -265 0
-226 -234 -338 0
-48 -168 228 0
-26 -153 196 0
-216 239 -243 0
-149 189 -213 0
-139 172 320 0
135 -181 -268 0
33 -45 -279 0
-145 -175 -255 0
-10 -92 -255 0
-52 112 -303 0
-34 -77 -264 0
-69 -186 -216 0
21 95 197 0
69 -220 -234 0
142 -245 -306 0
-141 227 313 0
132 -290 -347 0
83 155 267 0
-59 -150 324 0
-146 167 -266 0
-61 101 104 0
-106 -144 -321 0
28 320 -332 0
77 -148 -202 0
12 -178 -179 0
-11 -99 108 0
-93 -288 -296 0
-53 168 -213 0
-80 202 -251 0
84 -104 -256 0
-157 -206 301 0
207 252 -298 0
-61 174 232 0
-115 301 -350 0
-17 209 -281 0
7 -256 -326 0
-40 -72 -345 0
103 156 175 0
-103 -105 -256 0
145 166 -329 0
-62 101 -176 0
-35 -165 -233 0
139 -296 302 0
-23 -93 198 0
-146 -153 -219 0
13 -83 337 0
78 -129 167 0
93 -112 -198 0
-8 58 -85 0
-172 -216 -250 0
-47 -220 267 0
-50 106 -137 0
63 -124 -128 0
152 319 339 0
-266 -283 -336 0
12 -240 -281 0
271 289 300 0
12 266 267 0
-72 231 318 0
54 -298 302 0
-78 213 284 0
-15 -33 334 0
-58 -111 248 0
41 212 260 0
159 233 -331 0
-183 -242 342 0
-248 318 330 0
-54 -212 336 0
41 164 -337 0
157 261 -320 0
-158 196 -301 0
-38 91 210 0
119 165 313 0
203 208 305 0
-43 194 222 0
32 156 -233 0
-93 131 -224 0
168 279 -337 0
-57 -76 -281 0
-87 -144 -183 0
-32 228 -250 0
-172 -181 -308 0
88 -164 -246 0
-119 -159 -246 0
1 71 -225 0
-16 -183 -187 0
25 -207 -297 0
26 228 -239 0
-212 282 294 0
-190 195 223 0
133 255 -334 0
96 107 -321 0
-232 -249 298 0
-49 -188 -315 0
-87 -149 167 0
-42 49 73 0
192 235 -349 0
-75 -305 334 0
22 -24 93 0
82 -163 177 0
-95 -197 -273 0
-3 194 -202 0
-125 180 -205 0
-79 -120 -228 0
-235 -239 -267 0
-147 -200 -254 0
-98 -165 -200 0
-104 -137 310 0
-69 -139 -205 0
-42 -278 313 0
164 217 314 0
235 295 314 0
30 -74 231 0
-50 262 -287 0
8 192 323 0
-85 279 305 0
-113 146 233 0
-42 74 -142 0
-6 174 -292 0
55 109 248 0
121 123 285 0
-10 -111 -134 0
195 -258 282 0
-86 -248 -328 0
-154 -214 264 0
-27 -137 -212 0
-101 -209 -230 0
-56 -152 -245 0
-94 -139 -255 0
33 -61 219 0
-41 167 -224 0
67 68 95 0
104 136 -199 0
-122 -126 -344 0
-33 -60 290 0
27 -113 206 0
-135 -140 -244 0
-295 -308 -345 0
-240 328 -342 0
-76 114 -122 0
106 -149 270 0
-235 -241 248 0
125 144 181 0
160 -190 -285 0
18 70 -285 0
84 -198 -221 0
23 -174 -299 0
38 197 347 0
68 186 -242 0
-117 189 -214 0
-89 203 -239 0
10 182 -231 0
170 172 182 0
-102 -125 221 0
35 -124 332 0
-168 -169 -292 0
17 -147 261 0
-38 -86 272 0
-139 166 308 0
-170 235 260 0
88 105 -302 0
-126 129 -255 0
99 195 -325 0
-30 114 -177 0
47 111 -187 0
-11 207 233 0
-177 249 -337 0
-79 -92 207 0
-137 143 179 0
-49 -216 261 0
-165 281 285 0
-65 129 183 0
52 -130 318 0
15 -162 211 0
-16 178 345 0
-146 -149 303 0
63 272 -347 0
-281 285 -315 0
-111 194 268 0
-25 -31 -336 0
132 -155 251 0
22 23 47 0
-131 163 295 0
-137 251 290 0
188 284 -285 0
35 166 -190 0
-39 178 300 0
76 121 186 0
73 -160 308 0
55 -252 295 0
86 -205 309 0
28 -211 -253 0
-125 -172 -280 0
-125 214 -215 0
7 -60 306 0
55 67 92 0
-26 69 275 0
41 -287 329 0
-8 -155 167 0
104 252 -347 0
77 -105 318 0
-66 261 -343 0
133 -232 -254 0
-45 65 114 0
-199 -233 247 0
-117 184 -202 0
211 -219 224 0
-35 141 -257 0
107 234 -284 0
122 -133 -155 0
-65 -75 84 0
71 -229 313 0
-254 -263 297 0
-13 -185 290 0
-34 48 -159 0
17 -178 263 0
-13 -21 25 0
-10 76 94 0
-119 -164 307 0
126 170 -242 0
-72 121 -198 0
-54 -216 -331 0
-209 -251 313 0
-46 177 178 0
-162 329 332 0
128 244 -336 0
-151 230 340 0
-16 -206 -320 0
179 -200 -310 0
-38 -219 -312 0
-211 272 -301 0
-87 142 322 0
57 132 -214 0
-157 174 -266 0
3 62 -109 0
21 267 -302 0
-37 -274 279 0
-86 -154 343 0
-3 196 270 0
-140 -223 332 0
39 -147 -159 0
-114 185 269 0
-187 203 -264 0
-40 -306 -323 0
-57 -116 -245 0
109 282 311 0
93 -163 198 0
6 165 -248 0
-1 57 212 0
43 -141 -288 0
-71 306 -336 0
-13 27 194 0
99 194 -233 0
289 -326 342 0
227 -241 327 0
-157 -322 344 0
-5 -28 -348 0
79 -101 176 0
87 -111 257 0
-76 278 -293 0
-61 -183 216 0
-153 174 332 0
-174 181 -223 0
44 -209 -242 0
-57 -293 312 0
-94 -212 -228 0
60 66 150 0
77 -226 -238 0
-33 81 -199 0
60 -139 -218 0
21 -74 304 0
-155 242 263 0
-28 -127 280 0
-24 106 260 0
51 124 -204 0
133 144 -190 0
122 -168 310 0
30 53 90 0
14 -30 -142 0
-46 61 -307 0
56 -301 -307 0
-52 73 305 0
80 148 -185 0
-5 -48 -267 0
-41 -85 -350 0
61 -110 157 0
-12 -25 -230 0
65 147 -167 0
164 -188 -302 0
-48 -254 -288 0
-65 -82 -236 0
-86 -115 -331 0
102 206 -320 0
40 111 226 0
-94 -254 -263 0
84 -95 242 0
189 215 -318 0
26 90 163 0
-24 -141 310 0
-158 186 -318 0
148 -241 292 0
-68 -85 -200 0
-81 97 129 0
73 129 165 0
37 70 98 0
-40 -41 -319 0
-184 219 -331 0
-3 225 279 0
-3 -61 156 0
86 139 276 0
-9 132 170 0
75 81 254 0
-33 48 137 0
73 184 190 0
21 107 -174 0
-171 -178 233 0
-66 320 325 0
120 -277 -336 0
192 -205 333 0
89 -106 -209 0
143 166 -229 0
-9 -106 -196 0
-24 106 133 0
-161 -276 333 0
80 93 144 0
-18 -83 -339 0
20 -130 -219 0
-179 -191 -252 0
-145 -251 329 0
-7 64 -132 0
-71 266 -310 0
-95 -256 295 0
53 148 -175 0
48 -64 210 0
4 176 -231 0
-70 -204 341 0
125 -137 335 0
12 -124 301 0
-38 184 -229 0
-131 -145 284 0
-39 150 -313 0
-91 -220 -313 0
152 243 -299 0
21 253 -282 0
36 132 313 0
152 -206 -244 0
-234 299 341 0
54 -67 -241 0
-37 -109 139 0
-168 -287 -332 0
-18 -88 120 0
162 -253 -273 0
-124 196 -300 0
-117 144 -331 0
87 -274 -286 0
-39 56 -60 0
-233 -239 -349 0
36 63 -184 0
-54 -244 -295 0
-32 111 233 0
103 -290 -343 0
-6 210 287 0
-57 223 -316 0
-178 314 336 0
-294 300 333 0
10 -152 -289 0
-24 -41 236 0
-25 -329 -346 0
5 298 339 0
21 272 -339 0
173 -189 -267 0
49 194 314 0
51 107 259 0
79 -165 182 0
46 -131 140 0
-21 50 -282 0
-110 -250 262 0
-89 163 -258 0
215 -291 303 0
-4 127 -171 0
-88 -266 -350 0
-43 -76 -168 0
-21 248 -294 0
-76 269 337 0
-79 -297 -349 0
-50 72 -335 0
-41 200 -268 0
182 -222 -271 0
39 283 303 0
-84 -142 181 0
140 181 -301 0
-3 -124 -307 0
28 57 203 0
-129 213 -224 0
25 119 -313 0
-120 238 316 0
-63 90 214 0
-30 -188 330 0
18 135 341 0
63 -191 -282 0
-51 231 306 0
-212 313 -321 0
161 214 -333 0
9 85 -211 0
-108 310 342 0
27 74 -254 0
229 293 298 0
-80 -217 234 0
-77 284 315 0
-30 116 196 0
-241 260 261 0
178 -262 -348 0
-44 -203 -264 0
163 -213 236 0
-192 -239 267 0
23 80 -312 0
37 152 271 0
-65 110 262 0
-160 294 -314 0
-100 -215 308 0
19 -135 177 0
120 151 -171 0
70 284 302 0
-35 122 126 0
-166 -226 227 0
14 36 -319 0
101 -303 -346 0
-26 -220 -331 0
27 98 -204 0
5 146 264 0
-17 -153 -342 0
-107 303 347 0
-61 -168 189 0
-245 271 283 0
-82 128 324 0
8 53 -65 0
29 -275 -297 0
33 -50 -231 0
-133 246 -318 0
105 211 292 0
129 218 346 0
-115 227 338 0
-190 -307 341 0
5 65 68 0
-119 263 -342 0
-31 -51 -74 0
61 -105 -298 0
-224 246 310 0
-119 307 347 0
-102 167 -180 0
-22 -99 124 0
137 -190 283 0
13 -32 334 0
-167 -238 -336 0
-67 -76 -128 0
110 179 236 0
-62 -186 284 0
53 -79 254 0
-108 -184 -267 0
-113 -220 297 0
7 -56 319 0
-220 -222 -314 0
44 -55 245 0
94 226 -229 0
-45 -84 293 0
-103 152 267 0
157 -235 -337 0
-191 258 -344 0
107 117 326 0
13 232 280 0
-171 -236 267 0
-47 73 153 0
-73 133 248 0
60 142 -321 0
-90 -242 295 0
22 -264 268 0
-41 116 -158 0
86 -249 -306 0
263 -300 322 0
205 -263 -270 0
29 -55 -82 0
-59 179 -346 0
-59 197 -320 0
-68 161 271 0
105 -192 -274 0
107 138 182 0
-187 -196 229 0
-91 93 -314 0
-10 177 -188 0
-169 248 267 0
-10 128 -203 0
109 -138 -152 0
-23 -51 -76 0
20 55 -238 0
7 -20 -306 0
19 255 344 0
-18 96 -118 0
-71 106 -286 0
-70 -119 -201 0
52 -104 159 0
-91 -200 255 0
26 101 332 0
-65 -185 251 0
-45 254 327 0
-110 -240 242 0
-201 -211 308 0
-223 -224 249 0
60 -129 280 0
109 -133 -239 0
21 224 266 0
68 341 344 0
119 -128 -320 0
-21 64 -299 0
242 290 -339 0
99 -111 147 0
8 -230 237 0
-1 -36 -88 0
-17 24 283 0
24 -27 349 0
3 -223 -229 0
-221 -236 -254 0
-10 -210 226 0
-95 -335 -339 0
-50 -66 68 0
51 90 192 0
62 158 259 0
119 150 -216 0
33 36 -134 0
71 148 316 0
-18 -147 340 0
45 -61 191 0
-44 -170 -217 0
-89 204 326 0
-192 251 339 0
-81 98 -341 0
-104 -142 -221 0
-10 150 -243 0
-168 196 -275 0
78 172 229 0
43 214 260 0
-126 -167 -239 0
99 -160 -335 0
-7 97 -304 0
-111 -171 -295 0
-115 155 -306 0
81 -187 -267 0
-4 -208 238 0
50 -267 -293 0
-209 -301 -349 0
76 181 198 0
244 -289 345 0
20 247 -333 0
50 77 302 0
-119 -309 -314 0
-32 -71 -120 0
-70 211 343 0
-26 153 316 0
27 253 298 0
50 225 -229 0
-238 294 -343 0
-212 229 323 0
1 -53 -225 0
11 250 -257 0
-42 265 -318 0
-78 111 -269 0
-107 222 -259 0
51 -55 -123 0
-291 326 348 0
35 195 -282 0
132 -286 298 0
-7 76 -299 0
67 -168 307 0
-96 315 342 0
-14 -281 304 0
-46 -58 -287 0
-242 -265 335 0
-30 218 272 0
-219 -243 -245 0
-97 203 292 0
92 -141 -206 0
84 -175 336 0
-203 -283 346 0
-87 236 331 0
-239 256 328 0
65 109 121 0
111 -331 342 0
-30 209 217 0
31 -245 -292 0
-8 -300 310 0
64 181 210 0
181 250 285 0
209 -261 311 0
-166 -190 -228 0
-133 252 -345 0
-107 -207 270 0
28 88 -258 0
81 290 333 0
107 192 -326 0
-16 164 328 0
24 -217 257 0
-170 249 -342 0
-115 -225 292 0
44 140 -149 0
4 224 234 0
-82 -171 -321 0
46 -131 -137 0
1 266 336 0
-3 202 -322 0
-101 110 239 0
62 -174 327 0
-78 97 173 0
-69 82 -339 0
-26 293 -320 0
179 259 296 0
248 263 -288 0
-1 32 -274 0
16 36 -185 0
-155 -175 -303 0
55 234 288 0
-18 150 330 0
196 -228 340 0
-8 206 311 0
-86 153 223 0
53 189 -344 0
36 185 -247 0
114 140 212 0
39 107 -177 0
22 -216 -278 0
-22 58 213 0
-6 -211 -278 0
145 -271 -345 0
180 -241 269 0
18 -210 -298 0
-202 -204 -346 0
136 156 318 0
-124 -175 -261 0
-60 76 -160 0
