c F2 random 3-CNF cnfgen RandomKCNF(3,250,1250,seed=2) m/n=5.0
p cnf 250 1250
221 243 245 0
-44 -93 214 0
10 -149 -156 0
-186 -206 -221 0
10 -223 -231 0
-82 -233 239 0
46 61 144 0
-35 45 -84 0
-107 -189 -204 0
115 -220 -247 0
-64 -136 -168 0
-129 -132 -213 0
-90 -146 186 0
84 -209 -241 0
-78 -80 246 0
94 -126 132 0
49 209 233 0
59 70 -152 0
54 -63 212 0
15 45 93 0
18 30 245 0
33 66 96 0
12 99 151 0
2 -89 -241 0
-8 79 -126 0
103 -194 221 0
-24 170 176 0
115 -202 -224 0
-37 -84 -132 0
108 156 249 0
9 34 65 0
60 117 163 0
-19 114 183 0
-160 -203 -205 0
72 135 193 0
42 99 105 0
6 26 27 0
-7 -56 -134 0
98 138 -165 0
6 -109 131 0
-25 -170 236 0
133 -236 -246 0
-96 177 -239 0
26 27 -79 0
-16 -106 164 0
151 158 -228 0
7 79 -96 0
-30 -50 -147 0
-36 89 -193 0
-21 -32 158 0
-7 27 -178 0
-75 92 -246 0
-69 -124 -135 0
-76 175 215 0
-67 126 153 0
19 -46 92 0
23 205 -234 0
-60 -100 182 0
29 -74 135 0
-64 85 133 0
119 -181 -243 0
147 -196 -201 0
-8 185 -208 0
-14 -124 -131 0
-182 -188 -240 0
85 141 247 0
-104 171 -209 0
-119 135 183 0
5 -104 242 0
-26 227 -249 0
151 -191 236 0
-3 -157 -174 0
-45 132 145 0
-1 90 -232 0
-86 -173 -237 0
-8 21 -158 0
66 161 173 0
-98 119 128 0
73 -120 143 0
-98 138 -218 0
-35 -128 167 0
-67 -81 -212 0
101 165 -168 0
136 153 -218 0
-11 60 -244 0
16 -29 -246 0
55 -82 -92 0
-43 -93 -128 0
-35 230 -236 0
26 -41 84 0
-174 193 -217 0
35 -36 -204 0
-103 -207 -211 0
-103 191 -193 0
79 -102 -124 0
23 -113 -123 0
8 -33 248 0
-20 92 -235 0
-61 -212 -214 0
-39 -164 231 0
25 128 -238 0
-37 -65 108 0
49 64 -88 0
96 166 241 0
-17 -111 218 0
83 -134 -148 0
-14 -59 -101 0
140 -160 -215 0
117 -178 -216 0
12 -116 135 0
31 236 -240 0
79 -118 205 0
57 90 172 0
-24 -110 172 0
122 220 -231 0
8 36 144 0
52 -140 236 0
36 96 126 0
28 64 120 0
-87 98 161 0
39 210 -214 0
-52 77 -88 0
-34 81 102 0
-70 -73 122 0
36 108 180 0
50 55 101 0
-68 180 191 0
-37 154 214 0
28 36 -163 0
75 162 -247 0
71 -180 -210 0
-9 -171 185 0
-163 180 188 0
-67 86 -108 0
33 -178 -198 0
-89 -99 249 0
114 -122 -149 0
-19 -44 80 0
158 -168 197 0
-138 211 215 0
8 -202 223 0
-66 -82 137 0
108 -121 214 0
-39 42 -55 0
72 -166 -235 0
202 206 -235 0
218 220 -247 0
-152 -158 180 0
55 -144 165 0
-36 -160 242 0
-101 -117 -249 0
56 62 73 0
140 155 -243 0
103 -111 182 0
-93 94 -131 0
-57 180 189 0
11 34 -123 0
13 -62 138 0
139 143 -165 0
-9 -36 -182 0
-13 -143 242 0
-28 -93 -156 0
-123 207 230 0
12 -88 112 0
-20 -170 -221 0
47 62 203 0
-152 195 -248 0
6 223 232 0
-17 104 233 0
60 63 141 0
-21 104 178 0
-133 -135 136 0
-34 -40 110 0
147 -246 -250 0
-154 211 -244 0
-33 153 219 0
48 -65 -181 0
114 -119 -121 0
-57 69 -199 0
-8 -160 214 0
-141 -233 -250 0
-64 -120 -183 0
64 -170 -233 0
-194 -240 244 0
130 -176 230 0
-111 119 -154 0
-116 -158 242 0
38 -60 -171 0
128 -182 -185 0
-81 -147 -234 0
81 -171 172 0
26 53 -117 0
-82 83 -155 0
-21 -135 201 0
25 -114 227 0
36 78 -127 0
104 -123 167 0
-58 157 -190 0
-78 -200 -213 0
22 -72 196 0
93 96 217 0
54 -120 -151 0
53 131 -151 0
-122 190 197 0
156 -180 187 0
35 188 203 0
22 117 -160 0
102 158 -215 0
30 -79 -225 0
-20 32 98 0
-198 207 -226 0
38 -124 -223 0
7 141 -235 0
-33 -48 234 0
-11 -179 220 0
-40 -59 219 0
40 49 -218 0
-27 31 70 0
-34 90 -246 0
6 -142 195 0
19 185 -221 0
-92 -107 -174 0
17 161 228 0
24 -211 230 0
77 199 243 0
147 -186 200 0
-48 171 -225 0
-10 -167 -169 0
89 144 168 0
-33 176 -244 0
189 -196 197 0
23 132 214 0
81 138 243 0
-117 -173 174 0
-13 60 -81 0
-5 -30 145 0
59 87 109 0
34 -239 246 0
-27 -77 166 0
1 29 109 0
-1 -50 112 0
-45 -69 219 0
-133 -243 -248 0
-124 -128 -222 0
-45 -168 -207 0
-109 135 148 0
-66 106 -238 0
72 135 -164 0
28 189 -209 0
33 -131 249 0
-19 79 222 0
96 174 189 0
-9 -112 144 0
42 103 187 0
-66 -129 230 0
-7 159 166 0
-50 -126 201 0
-48 86 120 0
-66 -95 -250 0
13 -83 185 0
-47 99 -177 0
19 76 -178 0
17 214 230 0
-55 -94 -250 0
2 27 215 0
136 185 217 0
31 66 -76 0
-28 71 -231 0
3 -56 61 0
27 71 148 0
56 172 210 0
32 44 -245 0
22 85 177 0
28 93 126 0
1 73 -100 0
-75 96 -168 0
23 -122 -250 0
-160 -233 247 0
48 138 244 0
21 -119 156 0
-39 -49 97 0
52 -111 -242 0
36 -79 -112 0
84 207 237 0
30 -54 76 0
53 63 215 0
-29 100 107 0
32 45 234 0
-72 183 230 0
78 153 198 0
8 175 -248 0
5 120 -165 0
-19 62 173 0
-22 -50 -246 0
30 -70 -153 0
57 -58 -151 0
-29 101 -125 0
11 -110 118 0
-169 -201 208 0
-74 78 116 0
63 177 -226 0
-33 -138 180 0
35 174 176 0
-10 212 233 0
90 -128 173 0
27 74 107 0
15 69 -198 0
-135 -192 226 0
10 -80 105 0
117 119 -135 0
38 158 242 0
86 -186 -201 0
83 154 250 0
-37 -150 235 0
207 218 229 0
-4 -16 93 0
-13 153 -181 0
42 133 -136 0
-65 -208 -216 0
120 -187 202 0
1 -158 -218 0
-108 -118 157 0
5 -8 66 0
56 -211 -243 0
87 233 -236 0
77 173 -186 0
-68 -126 -132 0
-133 -151 -196 0
21 22 -102 0
101 -124 -197 0
-116 -159 217 0
-128 -141 213 0
22 156 -213 0
7 -75 -183 0
-64 -102 -180 0
-1 70 -101 0
2 6 -51 0
72 -146 -201 0
6 33 151 0
-31 -106 169 0
52 -71 -104 0
-19 54 -88 0
-103 123 -181 0
-61 -118 162 0
-122 175 -222 0
-65 -136 233 0
-147 236 244 0
25 -48 -215 0
58 137 207 0
-66 -129 136 0
49 -59 -219 0
-117 -123 195 0
-8 -114 117 0
-60 -226 -236 0
-35 -114 -230 0
171 175 -228 0
175 -178 -209 0
-56 139 -206 0
61 149 -155 0
2 140 224 0
88 -142 166 0
-152 -154 -194 0
40 -150 242 0
98 190 202 0
31 -117 172 0
14 -21 -79 0
25 179 -248 0
50 -108 146 0
19 -36 217 0
-56 -92 -177 0
-47 115 234 0
-38 135 140 0
-57 -63 -213 0
36 -80 -176 0
-36 80 246 0
-136 -179 241 0
-105 -180 250 0
-23 120 128 0
-64 -90 -190 0
-65 -152 -153 0
34 180 190 0
27 55 -164 0
-20 103 -140 0
34 97 -198 0
39 -106 155 0
27 29 48 0
11 -30 88 0
130 -188 231 0
73 135 184 0
-62 189 -220 0
78 125 180 0
-8 21 -90 0
-31 -59 99 0
63 119 204 0
-7 -113 -123 0
80 -115 -197 0
18 79 -226 0
31 -82 192 0
53 -148 -236 0
168 205 -250 0
32 158 211 0
-2 225 227 0
90 -99 -209 0
118 167 204 0
-65 103 -185 0
-21 74 88 0
-19 88 132 0
-75 93 165 0
91 -150 -172 0
38 -68 234 0
99 -103 -224 0
-82 -245 -248 0
-10 79 102 0
-199 208 232 0
-31 -170 -211 0
-6 161 210 0
-3 -33 52 0
63 186 -210 0
152 207 -213 0
-56 -216 229 0
14 -39 -126 0
5 -153 -229 0
98 -113 -129 0
4 -57 -65 0
5 -131 156 0
117 -165 -198 0
-41 -82 -114 0
-40 -140 184 0
-70 -82 166 0
21 -214 -236 0
94 -127 -144 0
-31 -74 173 0
156 -224 249 0
-7 193 -250 0
-52 -117 -248 0
-96 104 -247 0
62 -123 190 0
29 -101 -226 0
-42 -152 226 0
-100 107 -162 0
-28 -63 143 0
-12 188 -234 0
-76 -215 233 0
39 -149 -195 0
196 216 -220 0
121 139 221 0
-78 -110 112 0
-137 161 189 0
50 -169 201 0
48 -105 -160 0
-123 -140 158 0
52 -187 231 0
-35 -133 -150 0
44 -93 -185 0
-16 106 -107 0
93 -132 144 0
88 -180 245 0
211 228 249 0
69 113 -119 0
-1 -125 146 0
-50 76 244 0
-100 186 -192 0
-7 -79 -95 0
-90 169 -213 0
-43 76 -114 0
-36 -104 186 0
-52 188 209 0
18 156 172 0
6 52 -186 0
22 -92 144 0
-105 215 -238 0
-15 42 -181 0
104 111 -112 0
-127 193 -249 0
57 100 -187 0
30 125 237 0
48 126 -168 0
16 -89 163 0
51 74 -214 0
-122 135 -153 0
24 41 -191 0
113 -203 214 0
-18 -208 -216 0
39 -134 138 0
91 -221 -241 0
21 152 -235 0
113 150 -198 0
-47 -53 71 0
-77 126 -184 0
-73 74 -239 0
-70 199 -226 0
-24 -49 183 0
67 -95 -134 0
24 -36 63 0
41 -196 -240 0
96 -148 -229 0
18 -237 247 0
-62 -106 -216 0
166 -200 -204 0
154 -194 243 0
-13 82 -179 0
13 -73 -113 0
168 209 249 0
55 135 -238 0
-78 140 175 0
-45 -84 -188 0
92 126 -156 0
-110 218 -247 0
154 -217 -234 0
-57 -174 -194 0
-87 138 -232 0
-110 175 -203 0
53 103 210 0
127 -180 -207 0
-99 152 232 0
30 64 86 0
-64 183 200 0
154 222 228 0
118 149 -192 0
93 -210 221 0
-146 163 207 0
87 101 142 0
-58 -79 -164 0
60 -96 105 0
20 -32 -240 0
43 -105 113 0
110 -127 228 0
76 206 247 0
-62 -133 205 0
-213 -217 -249 0
56 106 -112 0
-4 75 -88 0
38 -117 215 0
-52 105 115 0
-49 -180 -214 0
-136 181 208 0
13 -216 244 0
-99 -148 -243 0
-59 -88 -188 0
-45 116 188 0
-78 116 -240 0
26 133 -226 0
-83 -105 248 0
25 -139 231 0
-77 -190 -211 0
58 -119 -208 0
30 148 -217 0
72 -141 -231 0
21 76 149 0
-31 160 -232 0
164 -173 -191 0
-129 153 -177 0
-39 -172 -224 0
-50 -222 -239 0
25 104 -106 0
9 -53 73 0
-139 215 -219 0
-56 91 -141 0
-85 -109 -173 0
5 112 -207 0
-1 -155 -172 0
121 -127 -166 0
131 -147 181 0
-36 -165 -211 0
12 74 -141 0
130 209 239 0
44 170 171 0
-65 137 -168 0
-19 -26 67 0
30 109 240 0
125 -214 -218 0
101 125 -177 0
-11 -90 -186 0
-1 8 183 0
-114 126 207 0
-15 21 -185 0
70 -121 159 0
64 176 192 0
-10 17 -136 0
155 185 -218 0
19 -130 -154 0
-36 56 -126 0
-23 62 -159 0
38 76 181 0
-32 40 118 0
50 -152 154 0
-40 -58 -81 0
-22 212 239 0
-26 -65 -84 0
-19 78 -92 0
-30 -93 -196 0
-24 151 208 0
4 -66 231 0
-33 82 -94 0
42 208 -230 0
52 -185 196 0
-130 -209 -216 0
-75 -184 -216 0
-107 -122 223 0
19 32 -87 0
34 44 93 0
5 -26 54 0
-33 -131 132 0
100 -138 -236 0
18 94 -140 0
5 -21 108 0
-93 -143 -250 0
20 77 166 0
17 111 -201 0
-116 164 237 0
31 45 112 0
-27 74 -113 0
96 -118 236 0
4 -73 -176 0
7 124 177 0
-15 -108 112 0
-20 -30 -73 0
-113 185 220 0
23 -185 -197 0
2 -177 -250 0
122 205 214 0
139 -160 -177 0
-48 -98 -118 0
-94 151 -194 0
-2 180 -230 0
14 -53 -161 0
186 227 236 0
13 -73 206 0
39 -141 -199 0
175 187 -217 0
-7 -192 203 0
33 -139 176 0
-36 -79 -86 0
66 137 -240 0
-220 -221 223 0
-192 -217 249 0
23 61 194 0
-28 71 102 0
25 -40 63 0
-132 -150 156 0
-67 -80 -236 0
103 -117 -146 0
-18 109 181 0
-59 150 167 0
65 135 -202 0
-78 -110 239 0
-34 -80 -242 0
175 191 206 0
-61 -106 109 0
-74 130 181 0
36 -187 -209 0
-85 -137 168 0
-87 -101 119 0
22 158 213 0
-36 46 -122 0
-13 159 185 0
-36 122 -156 0
-77 119 -140 0
1 -111 183 0
187 206 207 0
-41 -198 230 0
47 52 153 0
-129 -133 -209 0
-34 -137 197 0
93 179 209 0
-19 -62 -182 0
-15 -24 -116 0
-20 -123 -145 0
46 141 173 0
66 -164 -207 0
-55 -86 -210 0
-55 -120 185 0
-25 42 -148 0
82 125 -190 0
127 144 -227 0
50 160 201 0
-10 -176 -196 0
-22 -147 -242 0
-12 -99 164 0
26 -29 165 0
-150 -185 -212 0
-120 -192 -249 0
-19 -159 243 0
-115 161 -235 0
58 192 -247 0
-147 199 241 0
53 182 -218 0
-6 45 -121 0
71 -141 -160 0
95 -153 -218 0
94 175 177 0
57 -125 -187 0
2 -108 113 0
-122 145 163 0
31 209 -232 0
-27 -53 234 0
78 112 209 0
-4 119 -209 0
-168 -180 -182 0
-24 68 177 0
61 84 91 0
58 -105 -136 0
-5 -187 199 0
-10 41 218 0
-5 -47 -188 0
-20 180 -221 0
-7 20 -187 0
-37 46 -63 0
22 -28 -184 0
80 -135 -246 0
110 -162 193 0
7 220 234 0
-102 120 -205 0
73 137 -194 0
10 -12 -86 0
187 214 -234 0
-16 79 194 0
-63 -226 -235 0
38 -180 244 0
5 -65 -148 0
-54 164 -229 0
-203 207 -244 0
-126 -178 -217 0
-104 182 -191 0
5 220 225 0
-22 94 -179 0
-7 -19 213 0
101 125 193 0
8 95 -243 0
21 -44 -206 0
-18 229 -238 0
36 -93 -227 0
16 190 -210 0
36 166 -170 0
-135 -171 244 0
-131 162 -239 0
-17 -172 -196 0
-36 103 -169 0
71 -94 -229 0
-128 202 211 0
-13 167 248 0
-106 118 173 0
23 -24 -188 0
-45 209 -232 0
-69 73 75 0
-115 -143 -245 0
-31 75 166 0
-1 -60 112 0
11 105 -235 0
-42 -94 -188 0
34 49 78 0
-29 -199 -216 0
70 -154 215 0
21 -197 211 0
-15 -117 182 0
-1 -83 -95 0
-18 55 -98 0
61 -109 153 0
-206 -232 -250 0
-103 -113 -205 0
4 75 167 0
-39 -88 168 0
-4 -30 -234 0
-4 201 -215 0
-159 182 -201 0
-36 -129 -159 0
-25 173 -189 0
32 -136 -222 0
-18 24 -195 0
-83 102 127 0
21 -128 -205 0
-52 144 -165 0
-86 -90 233 0
-191 202 246 0
-124 127 143 0
1 -66 212 0
-45 61 120 0
-67 -210 215 0
91 -111 220 0
72 -183 239 0
195 225 248 0
-34 -60 241 0
-1 -40 -183 0
-103 104 134 0
-30 73 197 0
71 -175 -244 0
32 -133 234 0
-75 238 247 0
-39 190 223 0
-155 206 248 0
-18 -23 86 0
36 96 -199 0
139 -190 -197 0
-73 163 -212 0
16 61 -165 0
80 -158 186 0
-121 -127 -210 0
-67 -72 -189 0
-52 160 191 0
13 -111 124 0
-57 102 192 0
155 180 -237 0
42 83 -159 0
59 207 -235 0
-103 105 109 0
-26 165 169 0
-38 98 -107 0
-120 -163 190 0
51 62 154 0
-35 100 174 0
-63 196 234 0
168 184 190 0
-79 -170 179 0
-45 -73 -103 0
34 74 -105 0
-52 -137 -219 0
136 -234 243 0
16 -130 222 0
-61 -158 -225 0
54 -77 -198 0
21 -67 207 0
14 -85 -195 0
38 -99 103 0
-27 -48 -233 0
-1 -137 -191 0
-45 -71 217 0
67 -170 -183 0
-46 -103 -238 0
-26 -135 -148 0
-163 189 203 0
-138 -158 194 0
4 72 176 0
-44 127 179 0
40 154 -222 0
100 -140 247 0
42 -113 146 0
165 205 -239 0
-8 -69 -88 0
36 119 193 0
33 102 182 0
68 -110 157 0
-19 45 -87 0
139 143 -234 0
11 51 -171 0
-82 154 166 0
56 -118 -182 0
65 -83 204 0
59 119 186 0
-78 -94 127 0
7 9 214 0
80 -164 -172 0
-73 88 145 0
87 93 -122 0
-142 -233 -248 0
-57 -124 182 0
-28 129 -150 0
-9 43 233 0
54 -227 -240 0
76 92 224 0
57 78 234 0
70 -72 -153 0
-18 -25 -181 0
-48 -55 -242 0
-102 -176 -178 0
-47 -145 -162 0
-120 -121 182 0
116 197 -204 0
-16 -168 191 0
137 165 -217 0
33 -70 158 0
96 135 208 0
-106 -113 122 0
37 -52 -76 0
-77 134 -148 0
-142 157 -211 0
25 -124 -212 0
-52 -187 212 0
20 -66 -201 0
63 -101 187 0
12 123 -127 0
50 189 -190 0
-62 172 203 0
52 -124 192 0
-12 84 -112 0
18 -89 -101 0
-44 -46 -77 0
-19 154 -155 0
-29 132 -217 0
-44 -195 215 0
-167 -182 -217 0
8 121 -128 0
39 101 137 0
26 -157 232 0
-71 78 -189 0
-20 38 -138 0
31 56 137 0
-119 -189 -225 0
21 62 -81 0
66 100 -115 0
-74 -82 -92 0
-158 -200 -211 0
43 80 -204 0
-18 25 238 0
-103 -168 -198 0
186 -210 246 0
84 191 -203 0
-8 65 78 0
-21 -115 -194 0
-90 151 -235 0
27 -109 -233 0
18 -68 -145 0
-1 218 -242 0
-127 -153 233 0
-105 -187 195 0
75 89 -233 0
-122 -158 248 0
61 -71 -220 0
-58 125 -140 0
25 -101 113 0
-31 228 -247 0
-32 -129 186 0
-22 -120 182 0
-205 -245 -247 0
-56 -96 201 0
80 -174 233 0
17 -214 245 0
14 108 -131 0
131 -222 226 0
-121 134 184 0
29 160 -201 0
12 41 -182 0
-2 -32 155 0
-1 227 -236 0
-16 -51 160 0
-44 -206 -234 0
-108 145 205 0
-11 -40 180 0
34 -40 250 0
-36 -122 139 0
35 99 -234 0
28 -46 -73 0
97 -117 -236 0
-8 -37 250 0
6 -14 186 0
15 84 101 0
-6 176 -233 0
5 -33 -113 0
10 -125 -220 0
-166 -171 -203 0
96 -174 246 0
12 -54 85 0
75 92 123 0
172 -197 214 0
-1 72 243 0
-50 137 -210 0
28 182 -232 0
34 36 -181 0
29 -56 -119 0
-97 -153 -225 0
94 110 -154 0
57 -141 -223 0
149 160 -186 0
-141 167 237 0
-136 -147 149 0
11 -22 -83 0
58 -86 -191 0
76 103 118 0
40 62 137 0
-143 -227 -238 0
10 -22 35 0
9 -101 -198 0
-29 56 122 0
26 -113 -170 0
-55 162 -209 0
24 27 48 0
-101 108 117 0
-13 71 -124 0
-132 -185 222 0
166 191 -193 0
-12 -81 -111 0
25 51 195 0
-32 149 -170 0
1 -79 204 0
-3 157 163 0
-34 -40 246 0
-177 186 222 0
14 -92 -113 0
73 -131 144 0
79 241 -242 0
35 -110 157 0
1 -22 -235 0
-43 52 70 0
21 102 -131 0
98 -169 -177 0
-10 83 85 0
67 -91 166 0
127 200 -245 0
62 -72 161 0
-52 80 -214 0
86 183 216 0
189 200 -250 0
16 -108 -184 0
19 130 -162 0
12 -127 160 0
80 142 -191 0
-38 150 249 0
34 126 163 0
99 -156 167 0
-50 -180 -245 0
38 200 202 0
12 203 -215 0
-102 111 137 0
-9 -85 113 0
-79 -184 -240 0
-48 -52 -250 0
26 179 -181 0
133 -223 240 0
-11 43 100 0
-8 59 213 0
-99 -106 -116 0
-9 227 242 0
73 115 199 0
-70 128 -194 0
-180 -190 -199 0
-105 133 -146 0
-23 -116 -190 0
-84 148 -185 0
-64 -156 -247 0
71 107 141 0
-66 -135 -229 0
-5 132 -203 0
7 35 -87 0
31 -165 189 0
-80 192 -218 0
108 -120 -167 0
-67 -135 182 0
44 -66 118 0
-27 -28 186 0
-54 66 148 0
52 67 -68 0
226 -230 237 0
-84 93 -149 0
3 147 -212 0
-1 78 79 0
-86 96 -201 0
-41 165 180 0
-41 92 126 0
-129 193 -220 0
17 100 -246 0
-101 117 -142 0
17 193 -247 0
-74 199 -239 0
-84 143 164 0
56 112 188 0
-80 116 177 0
85 117 240 0
-29 -165 -245 0
-73 -104 232 0
-3 47 99 0
-29 111 216 0
-141 -244 -248 0
87 110 -146 0
-53 194 249 0
12 -118 144 0
-4 -94 -233 0
202 -203 238 0
61 97 180 0
-77 -151 -178 0
32 -120 205 0
22 -108 -163 0
-41 186 -209 0
-52 -143 -204 0
171 178 246 0
36 -57 162 0
-30 59 -96 0
-20 125 -127 0
183 -213 -227 0
2 -47 -212 0
-100 107 -237 0
-67 -135 246 0
47 74 -243 0
107 123 -146 0
-161 220 234 0
-119 134 -164 0
21 92 232 0
5 -69 235 0
12 -91 188 0
166 -215 -223 0
19 -34 218 0
-4 96 -216 0
-51 -52 241 0
18 -122 244 0
19 32 -51 0
-46 112 189 0
-180 -214 243 0
-25 -121 -162 0
-41 53 177 0
66 96 110 0
84 132 -225 0
-5 -52 -116 0
-41 -168 -215 0
-17 -115 222 0
72 110 -188 0
31 -50 -101 0
7 119 -200 0
173 -225 -227 0
14 -83 157 0
-68 117 192 0
2 -6 223 0
25 101 -143 0
90 127 130 0
-44 -116 142 0
24 166 -181 0
-24 -52 90 0
13 -231 -245 0
-159 -169 -230 0
47 85 -115 0
-113 -151 171 0
33 109 -189 0
7 136 246 0
46 236 -242 0
14 75 77 0
44 204 -234 0
169 -170 -220 0
150 -205 -228 0
19 -118 135 0
49 192 -209 0
71 -153 178 0
-34 -170 -204 0
50 -110 -243 0
77 124 -215 0
120 -122 -146 0
-9 123 -207 0
71 124 -125 0
8 -31 -51 0
-143 -175 -209 0
-8 152 -190 0
-61 155 206 0
4 -62 -88 0
27 52 129 0
73 153 -201 0
79 -168 -237 0
25 -80 213 0
-23 140 170 0
-103 -162 188 0
138 170 -178 0
43 -188 -209 0
-121 146 -220 0
35 137 246 0
-47 -134 237 0
149 178 192 0
-23 -62 132 0
-81 -182 193 0
-12 53 -208 0
-156 186 222 0
163 -193 219 0
-36 -54 -130 0
-24 -111 -156 0
-201 235 247 0
1 -98 -197 0
-90 210 220 0
-15 -154 247 0
-11 70 194 0
65 -201 -250 0
-107 -121 -225 0
98 -203 222 0
-27 -65 138 0
-38 137 -145 0
-21 -98 -184 0
-19 39 103 0
-90 -107 110 0
-12 -199 -247 0
-57 -213 -236 0
-153 -180 -185 0
31 -69 -248 0
80 186 218 0
3 -41 -245 0
-168 200 -232 0
-58 -163 -195 0
-139 146 183 0
99 -105 -158 0
-52 95 136 0
23 42 -225 0
-88 -128 195 0
6 85 -240 0
-124 -156 201 0
-89 124 176 0
-88 108 109 0
-36 94 144 0
73 -96 232 0
-59 -61 -231 0
-136 153 161 0
25 -51 99 0
1 -41 141 0
5 39 -249 0
-65 -122 124 0
181 237 -250 0
-52 -91 109 0
66 142 181 0
86 115 242 0
-73 -102 -125 0
-6 -112 -153 0
4 -22 -136 0
-26 85 180 0
-50 74 -182 0
56 -58 230 0
64 97 -105 0
-196 200 -240 0
107 -128 -194 0
22 149 -209 0
94 182 -209 0
50 -62 -180 0
-4 187 -195 0
50 -201 -222 0
-28 -146 225 0
-26 -98 196 0
155 -202 206 0
1 -86 -169 0
-2 -185 -191 0
125 -172 242 0
-120 -151 208 0
145 -161 -216 0
-42 98 -220 0
33 159 228 0
35 36 156 0
36 -59 187 0
47 -91 229 0
75 -120 226 0
-158 174 238 0
37 182 -234 0
-15 52 -250 0
70 231 235 0
-24 -78 -159 0
200 -217 238 0
48 186 244 0
-55 150 224 0
83 -131 144 0
-84 202 -213 0
36 177 208 0
41 -123 -148 0
-4 38 237 0
-210 -232 -241 0
-4 -147 155 0
-121 136 199 0
-65 134 -196 0
-19 -51 83 0
-52 72 -216 0
23 -108 -233 0
-2 -36 101 0
-62 -111 198 0
