c F2 random 3-CNF cnfgen RandomKCNF(3,150,750,seed=9) m/n=5.0
p cnf 150 750
69 96 119 0
87 -119 129 0
-44 98 116 0
14 29 -61 0
27 -53 75 0
-54 -69 102 0
2 -52 -106 0
-7 36 61 0
32 -51 149 0
22 35 -139 0
51 -108 138 0
24 38 149 0
-39 70 143 0
42 -61 104 0
-29 -89 150 0
51 -103 -148 0
1 29 -111 0
-23 -70 84 0
-7 -15 -133 0
64 -89 145 0
-25 -103 131 0
44 67 75 0
31 43 68 0
-16 -54 116 0
-37 -73 91 0
23 76 -143 0
-37 116 -144 0
26 -90 127 0
22 42 45 0
-46 117 122 0
68 124 -141 0
80 -135 140 0
27 -36 -58 0
14 -16 126 0
-60 96 118 0
-13 22 105 0
9 47 49 0
-91 121 141 0
22 -83 -86 0
39 99 -123 0
34 60 116 0
14 29 -31 0
7 -27 120 0
2 61 -66 0
-6 27 -65 0
57 -81 122 0
-10 -48 77 0
-8 -25 78 0
-83 -107 -126 0
-21 -54 -71 0
-113 117 -146 0
16 84 -103 0
7 -49 140 0
-22 87 -115 0
-5 -20 142 0
83 -129 132 0
53 73 137 0
11 -24 81 0
-25 -104 131 0
70 -92 -131 0
46 47 -146 0
-6 72 -123 0
-37 -73 133 0
-38 46 -85 0
7 89 -149 0
35 -54 88 0
-52 132 146 0
91 -96 -128 0
49 112 119 0
-64 67 91 0
58 86 139 0
-52 87 -149 0
10 -77 102 0
-11 117 119 0
-52 134 -148 0
-9 -36 -102 0
-25 -47 -132 0
89 96 138 0
80 119 136 0
-32 -51 -119 0
-3 -46 -58 0
83 90 144 0
13 23 -54 0
91 92 -113 0
16 46 -110 0
-50 90 94 0
-71 -81 -140 0
109 112 -137 0
-58 -67 -106 0
17 105 131 0
83 -109 -127 0
21 -67 100 0
8 62 75 0
-27 -52 113 0
19 -79 135 0
-51 -79 -122 0
-15 119 130 0
-19 87 105 0
-106 126 138 0
73 -113 150 0
-2 -71 -85 0
-42 -45 -82 0
21 -73 -84 0
16 -101 -122 0
-60 -76 116 0
31 43 54 0
-3 74 -124 0
-23 41 44 0
-41 65 96 0
51 -127 -145 0
63 -104 -120 0
-6 39 -48 0
-28 -32 -128 0
35 -57 87 0
-1 -22 -28 0
57 -115 -140 0
-41 88 -150 0
-42 53 69 0
39 61 145 0
-33 -104 108 0
39 72 107 0
67 -123 136 0
73 146 149 0
-43 -123 144 0
5 43 87 0
-2 3 103 0
49 -77 78 0
24 53 132 0
10 -82 -118 0
-26 69 141 0
11 -21 94 0
61 68 146 0
2 90 110 0
-37 -118 -145 0
-51 -58 -127 0
16 121 -147 0
-29 -41 121 0
25 86 120 0
-18 66 -95 0
-55 106 -113 0
-81 102 132 0
-12 13 -18 0
-5 93 -107 0
-13 -15 66 0
7 69 -102 0
-15 27 -84 0
-21 76 133 0
41 106 -122 0
-92 102 -110 0
-5 88 124 0
-32 91 -98 0
-50 -108 124 0
-30 94 -145 0
80 -119 146 0
-83 -111 130 0
-15 -16 20 0
26 -57 149 0
15 -89 147 0
4 33 129 0
-16 57 -101 0
-14 62 70 0
72 94 -95 0
1 21 79 0
57 -80 -131 0
27 99 -117 0
4 19 139 0
-21 28 88 0
14 -42 141 0
1 68 139 0
49 61 116 0
-84 128 135 0
7 24 -73 0
81 -99 144 0
5 31 97 0
17 41 -63 0
20 50 -121 0
-78 -86 127 0
-28 85 -89 0
-34 -40 -118 0
39 -56 -150 0
6 -41 138 0
20 62 110 0
55 106 -118 0
23 38 -82 0
-112 -127 -139 0
-34 -78 143 0
38 106 135 0
7 40 119 0
70 -136 137 0
-39 61 110 0
3 -27 -129 0
9 -40 64 0
3 -80 103 0
-49 63 -98 0
-32 -115 -126 0
-91 129 -141 0
38 -70 -108 0
9 -25 -102 0
5 71 -147 0
2 112 -134 0
-63 118 130 0
-64 -116 150 0
-19 -44 -87 0
-103 -104 130 0
-74 132 143 0
18 -43 -127 0
7 -49 85 0
27 78 87 0
-116 -119 139 0
-3 71 90 0
-47 -69 119 0
28 -57 -108 0
-11 -13 -82 0
17 24 -109 0
-30 78 83 0
62 -104 -108 0
18 -67 138 0
-78 95 129 0
-49 -75 112 0
-27 -41 -62 0
114 121 -147 0
39 42 -73 0
8 106 122 0
62 70 80 0
-12 79 97 0
-16 68 102 0
-40 142 143 0
61 72 -116 0
-113 127 139 0
-34 91 124 0
93 120 123 0
-20 -107 137 0
31 114 -148 0
-15 -23 -142 0
103 -123 141 0
45 -71 -150 0
-4 26 -55 0
5 125 -148 0
-41 -88 -99 0
-20 -121 -134 0
58 -89 -99 0
21 -93 -121 0
40 44 70 0
23 64 -100 0
51 85 132 0
23 -83 97 0
27 -57 -136 0
-14 -83 -150 0
-36 -140 147 0
39 89 113 0
-10 69 134 0
10 57 88 0
27 -55 60 0
30 -95 101 0
29 -94 -121 0
59 -96 123 0
-8 -69 70 0
-57 -94 149 0
56 -85 127 0
94 -127 -137 0
-17 71 -104 0
10 129 134 0
19 41 -80 0
80 117 -132 0
-49 91 123 0
9 64 -130 0
-99 -113 147 0
7 60 -72 0
35 65 140 0
-94 110 135 0
-124 -141 -149 0
-63 94 -134 0
87 -93 -102 0
49 75 -77 0
-44 -58 145 0
18 79 108 0
-30 -91 -147 0
-1 124 -143 0
113 -117 -120 0
70 -82 108 0
104 123 124 0
-59 60 -79 0
71 108 119 0
33 -80 141 0
11 -74 -136 0
43 -106 135 0
-41 84 -97 0
-6 -120 122 0
-46 64 -78 0
34 136 145 0
76 81 -96 0
-73 97 98 0
33 82 -137 0
-33 -60 -103 0
-128 141 -147 0
90 92 -95 0
-4 -108 116 0
-10 15 49 0
-19 110 -115 0
3 124 -133 0
-8 -65 -100 0
14 44 -143 0
-55 56 87 0
-18 -89 129 0
-34 -49 -127 0
-35 47 -82 0
11 104 -115 0
79 -101 119 0
-93 -144 -145 0
-104 -118 123 0
-16 91 124 0
22 34 -144 0
-67 -91 -125 0
-55 -127 -136 0
22 31 110 0
80 85 -88 0
-16 -78 115 0
-24 63 69 0
-14 15 64 0
64 -74 94 0
-53 66 132 0
38 100 146 0
-113 123 -127 0
77 -93 127 0
-56 -143 -144 0
-9 30 120 0
-51 85 -124 0
-3 14 -22 0
-26 116 133 0
77 105 126 0
-26 35 -136 0
-116 -134 -140 0
-30 75 134 0
17 -116 -145 0
99 -118 -135 0
12 -120 -131 0
-7 25 -48 0
-45 106 148 0
63 65 115 0
1 -68 79 0
6 -36 78 0
4 76 -97 0
80 -89 -120 0
-112 -137 -141 0
21 -39 -89 0
24 -110 134 0
-102 107 111 0
29 60 102 0
24 -29 -142 0
59 -74 -129 0
10 -15 -32 0
62 -119 -130 0
-18 -72 -133 0
87 -101 109 0
-43 92 -114 0
-11 64 -81 0
45 99 145 0
2 18 -75 0
7 -105 114 0
-18 -60 -108 0
100 106 -124 0
-10 24 -138 0
-57 84 -104 0
34 82 142 0
27 47 149 0
-63 73 -128 0
-16 -101 -120 0
-41 132 -147 0
60 -73 87 0
44 -96 -99 0
-6 -38 137 0
-6 -18 125 0
-42 -86 -120 0
7 -78 133 0
-19 -77 89 0
-34 74 -141 0
117 -138 -140 0
-21 56 -114 0
7 48 -100 0
-7 26 -148 0
4 24 -129 0
-11 -31 83 0
65 -73 -87 0
33 -95 -150 0
-30 77 -115 0
3 -60 142 0
-100 121 -149 0
-10 -31 143 0
90 126 -127 0
40 -44 -94 0
-32 -109 -132 0
-19 -38 72 0
21 49 -68 0
48 70 97 0
9 44 66 0
130 -143 -149 0
1 18 -146 0
14 -114 -140 0
43 82 -137 0
25 29 45 0
84 -130 -144 0
-17 -45 135 0
-22 78 138 0
-16 44 -56 0
48 -86 -106 0
48 -68 100 0
17 -71 139 0
26 -85 86 0
3 31 80 0
-34 -38 105 0
-60 68 -141 0
5 -17 27 0
92 116 -133 0
13 -36 -134 0
-48 -79 -124 0
-66 -68 140 0
7 -71 -148 0
-5 70 78 0
126 132 -134 0
-26 -84 -93 0
1 2 146 0
-69 -70 -143 0
-55 77 -97 0
49 86 109 0
-13 41 -90 0
11 -94 -106 0
-84 -108 131 0
7 26 -146 0
31 55 112 0
-60 61 -136 0
-6 -36 88 0
48 -101 -115 0
17 -66 -132 0
-40 -48 118 0
-36 78 81 0
-21 44 93 0
12 -38 104 0
38 118 -127 0
19 -38 58 0
-10 95 -140 0
14 32 -33 0
63 -80 83 0
-9 12 -80 0
-99 107 137 0
3 29 47 0
40 62 -88 0
-12 65 -133 0
-15 -21 -117 0
-49 77 -94 0
-115 -136 -147 0
88 104 106 0
-34 62 -131 0
24 -87 -104 0
29 -128 -141 0
-5 -116 150 0
-65 86 117 0
-8 30 141 0
-47 60 -63 0
51 -79 -139 0
2 -45 149 0
63 94 114 0
-52 -130 -134 0
47 -94 -95 0
-97 99 -136 0
-79 86 -119 0
-40 115 132 0
-16 45 59 0
-37 66 113 0
15 76 97 0
40 83 -97 0
39 74 -146 0
-10 -17 75 0
-54 122 -134 0
3 65 100 0
20 -25 -141 0
101 106 -138 0
21 -82 -119 0
-73 -81 103 0
55 -72 102 0
10 -55 127 0
-28 59 -116 0
-50 96 -112 0
-14 -44 -126 0
21 -142 143 0
18 -123 144 0
3 7 30 0
-22 -27 -29 0
46 98 -145 0
-9 26 91 0
-42 -69 90 0
-40 -117 135 0
-59 65 -127 0
81 108 -117 0
-71 -130 -143 0
39 -46 -92 0
-24 107 -113 0
19 -25 52 0
40 -81 -128 0
19 128 -129 0
37 -122 130 0
-74 106 -128 0
-7 59 100 0
36 60 -111 0
84 89 -122 0
-51 -91 148 0
11 106 -146 0
30 -84 -129 0
-13 -14 147 0
-38 -70 -126 0
-52 -75 133 0
70 -79 -148 0
-19 -77 -108 0
63 -122 -136 0
-56 97 120 0
-33 45 -113 0
-12 -98 -134 0
-11 29 -124 0
-4 38 -146 0
18 113 -121 0
12 40 134 0
-17 -60 85 0
7 -31 -79 0
-11 -49 99 0
-43 54 72 0
-15 97 134 0
25 69 -140 0
11 -40 -54 0
45 -46 123 0
-26 38 -150 0
51 -56 116 0
20 -56 66 0
-1 35 110 0
-37 88 -93 0
64 -134 -140 0
-3 45 -88 0
-99 104 -130 0
122 -147 148 0
-42 -64 -68 0
-74 -95 -97 0
13 -79 143 0
51 -60 69 0
-59 -126 -141 0
-90 130 -134 0
-20 74 141 0
25 -130 136 0
-10 -23 73 0
2 -18 -130 0
-43 -123 -137 0
-15 44 89 0
-1 -21 119 0
131 -134 -139 0
-129 -132 148 0
-9 87 148 0
72 74 -92 0
12 -130 138 0
-8 117 -122 0
23 29 129 0
-46 -99 145 0
33 -61 -148 0
-1 -83 -120 0
-8 49 52 0
-14 44 -66 0
51 -110 115 0
-16 -56 68 0
26 -59 101 0
67 -86 -119 0
42 -105 134 0
21 60 -140 0
-6 -43 63 0
-22 -78 -89 0
4 -91 106 0
24 -30 138 0
56 87 98 0
-107 -110 -145 0
64 -67 -98 0
57 -68 -121 0
-71 -106 107 0
13 104 -112 0
-29 32 -60 0
-32 65 -124 0
-18 -111 -147 0
38 63 -120 0
16 -22 138 0
78 -95 111 0
-15 136 -148 0
-10 50 71 0
-14 -31 120 0
34 87 -89 0
67 -100 -146 0
-9 24 -108 0
-47 -127 -142 0
-72 -118 145 0
51 -53 -64 0
-51 54 120 0
-41 77 124 0
20 31 -150 0
-7 10 18 0
2 -6 74 0
34 39 118 0
-13 -50 -126 0
40 76 -124 0
-38 -78 -93 0
-14 47 -69 0
-42 60 65 0
-4 -26 -38 0
95 -105 -108 0
-34 95 130 0
-16 -127 147 0
-93 -122 133 0
34 -104 147 0
10 91 117 0
-86 -99 122 0
77 -93 -119 0
-27 115 -141 0
-34 -90 145 0
19 65 134 0
11 63 74 0
71 92 -116 0
110 -113 133 0
2 -6 81 0
39 59 118 0
-2 -42 -145 0
13 -79 150 0
-8 -49 -75 0
-19 110 134 0
-83 -101 -107 0
50 56 -109 0
52 -66 103 0
65 -82 127 0
-17 78 -89 0
-52 55 58 0
-44 81 -86 0
33 -91 -139 0
-47 -105 127 0
-12 71 101 0
35 -63 149 0
56 81 133 0
-58 66 81 0
-36 138 -143 0
32 104 125 0
-3 16 -113 0
-7 -31 -62 0
63 103 -113 0
-13 44 -86 0
-38 -66 -143 0
60 -105 138 0
-7 -19 -108 0
44 100 149 0
24 -27 37 0
43 -87 -129 0
-5 118 131 0
46 -87 95 0
79 -107 139 0
-12 60 97 0
38 116 -122 0
-12 -89 115 0
-68 -90 -145 0
-35 57 -69 0
29 -71 118 0
20 36 131 0
-43 -85 -89 0
-105 110 -114 0
8 58 94 0
11 -103 121 0
20 119 121 0
3 49 53 0
-61 88 113 0
93 106 128 0
103 -134 149 0
-36 69 -129 0
18 39 -65 0
-27 38 -138 0
-13 -131 -147 0
12 -41 75 0
31 35 81 0
-60 -103 125 0
40 -49 -63 0
-83 -106 109 0
-16 -97 111 0
-1 37 -52 0
8 122 131 0
-92 139 148 0
-3 -43 -63 0
-4 -77 141 0
-36 -51 -66 0
9 -85 119 0
-5 29 -125 0
-18 -47 -67 0
-85 -97 135 0
-10 -98 -120 0
2 91 97 0
75 -132 142 0
6 -11 45 0
-41 79 -111 0
23 84 -90 0
-1 77 -142 0
-46 -89 94 0
35 85 97 0
-6 76 -104 0
2 87 144 0
11 -24 31 0
41 42 -147 0
-30 -50 79 0
-12 -93 140 0
-63 69 -97 0
52 -96 -141 0
36 55 -56 0
-101 -105 -149 0
-39 -68 121 0
10 -28 -82 0
42 -55 64 0
106 123 133 0
-11 -70 139 0
44 74 132 0
23 64 107 0
50 -60 86 0
50 -78 -117 0
22 -40 71 0
64 133 -143 0
32 -34 125 0
-7 -27 -63 0
66 -71 -134 0
-34 65 122 0
34 45 -134 0
101 -129 -144 0
9 35 84 0
-1 -19 -79 0
-60 102 114 0
-14 -20 69 0
22 -109 150 0
-59 -76 -141 0
-50 -121 -138 0
2 53 -101 0
-85 -114 124 0
-61 110 -112 0
-29 -48 -105 0
53 -75 -104 0
2 40 144 0
19 -43 -86 0
-29 -113 132 0
-69 113 -145 0
12 -34 -95 0
47 -95 129 0
95 -97 -128 0
9 50 -101 0
58 -84 -134 0
-83 -134 147 0
-7 44 125 0
66 -77 -82 0
72 -100 -149 0
