c F2 random 3-CNF cnfgen RandomKCNF(3,300,1500,seed=7) m/n=5.0
p cnf 300 1500
78 166 203 0
30 188 299 0
36 215 -223 0
31 64 -290 0
24 -26 -114 0
-61 74 277 0
-97 293 298 0
-31 -106 -289 0
-233 -239 300 0
-42 -93 -125 0
38 -148 230 0
-78 176 251 0
-161 -286 -294 0
36 -234 -297 0
-32 -34 -159 0
-12 178 237 0
-31 112 253 0
201 204 -255 0
143 -206 -282 0
184 195 213 0
78 91 -119 0
94 135 -145 0
-190 274 290 0
-201 -234 -287 0
54 206 247 0
84 -107 226 0
1 53 -291 0
-14 37 -107 0
178 187 -243 0
-239 246 248 0
-53 136 176 0
106 186 -271 0
-47 134 -266 0
-115 273 278 0
117 -123 -206 0
-15 144 -242 0
179 187 229 0
-101 117 -241 0
1 177 -246 0
-92 -103 245 0
203 206 238 0
-15 66 -78 0
80 180 281 0
-53 72 270 0
-15 109 -129 0
133 215 -279 0
-235 265 299 0
-10 262 269 0
-73 77 89 0
-167 266 272 0
98 128 -142 0
-15 -33 288 0
-142 232 -261 0
104 -230 287 0
162 201 -227 0
38 109 -156 0
-71 74 130 0
84 204 -250 0
-174 207 -264 0
48 -164 -188 0
-10 -197 226 0
54 -58 -118 0
21 -93 -139 0
-77 -208 275 0
-30 94 -143 0
9 46 134 0
63 -136 -233 0
23 67 138 0
26 -93 -135 0
-106 149 -272 0
10 129 178 0
-98 259 -283 0
-55 -222 254 0
102 -118 -176 0
8 -28 -67 0
-29 -44 84 0
24 151 -236 0
-2 -135 -229 0
18 -126 159 0
1 -172 -196 0
103 128 -258 0
46 -74 205 0
120 154 -156 0
-77 167 254 0
220 259 263 0
16 -22 44 0
193 232 286 0
-2 136 251 0
-34 243 -270 0
-106 -119 -121 0
40 148 246 0
-76 131 170 0
-32 247 249 0
-149 -251 -265 0
61 -239 282 0
-9 149 -243 0
108 138 199 0
-73 135 -269 0
-58 -119 -187 0
-2 -13 -82 0
-73 -155 -214 0
-1 -62 -170 0
-7 -62 -101 0
34 -200 -202 0
25 141 -144 0
-77 -128 137 0
-15 192 220 0
26 -211 -231 0
26 -66 -282 0
-145 -153 -176 0
-123 155 248 0
-39 83 -107 0
171 219 231 0
47 -90 176 0
133 189 -292 0
197 -212 -269 0
-32 -174 256 0
111 -258 271 0
-197 -205 229 0
-17 -66 218 0
-38 -201 271 0
56 80 -115 0
21 44 283 0
20 -156 -292 0
-37 51 -58 0
1 -115 -134 0
-125 143 162 0
15 158 211 0
-42 216 -256 0
117 -190 -253 0
102 -186 203 0
-103 106 254 0
-114 136 -239 0
-96 115 249 0
28 110 -202 0
-27 -31 -95 0
-41 58 85 0
-17 -240 -269 0
87 170 227 0
-42 144 180 0
-159 183 195 0
-101 191 -243 0
-16 187 -243 0
-18 21 193 0
-33 -100 -132 0
-23 -135 -172 0
2 13 -34 0
-129 -198 239 0
-5 94 255 0
-164 168 236 0
-82 127 201 0
-247 279 -283 0
37 54 136 0
216 229 256 0
121 -214 -236 0
-138 -144 -291 0
102 127 225 0
79 -145 297 0
126 129 -203 0
-3 19 -53 0
21 151 192 0
98 -100 299 0
4 -134 230 0
20 175 189 0
20 -105 -131 0
95 160 191 0
248 -254 281 0
80 203 -282 0
-139 -146 210 0
-160 -183 291 0
-101 187 201 0
81 217 -223 0
187 236 296 0
-27 73 -283 0
-75 -88 259 0
35 -88 -267 0
65 -102 -155 0
28 45 -199 0
94 101 -243 0
-81 197 266 0
22 -99 127 0
-200 -234 -282 0
-128 -218 -299 0
92 225 -258 0
-121 229 -239 0
35 -55 -205 0
47 188 227 0
43 161 -262 0
14 34 70 0
85 148 -252 0
-82 -130 166 0
131 -246 258 0
19 164 -191 0
-83 143 -168 0
-25 -59 272 0
-130 -202 -275 0
-75 -189 296 0
91 -118 -227 0
159 161 300 0
-77 -149 222 0
68 117 251 0
-2 182 -291 0
-115 212 274 0
82 188 244 0
50 77 -231 0
6 -136 -206 0
128 253 266 0
-13 32 273 0
30 54 82 0
-103 212 -266 0
-25 33 -154 0
-42 224 239 0
54 119 -134 0
-27 -135 -137 0
44 112 -260 0
-82 104 -121 0
-123 -169 195 0
-14 120 -224 0
40 290 300 0
14 -55 58 0
15 16 22 0
24 34 -187 0
55 106 127 0
-18 45 148 0
-51 -105 -151 0
-11 -134 180 0
-165 -189 258 0
16 -212 -224 0
25 276 -290 0
1 -88 224 0
3 -179 252 0
-178 254 -264 0
110 119 256 0
-54 -252 288 0
-45 203 -206 0
-106 135 -156 0
65 -120 -236 0
-80 231 -268 0
132 225 -297 0
122 -237 -260 0
-80 127 168 0
97 133 168 0
78 -101 -197 0
101 141 -223 0
106 199 -238 0
-114 -224 257 0
73 132 -208 0
118 216 294 0
-161 222 -233 0
-81 -125 -205 0
11 -210 234 0
55 -200 251 0
-83 103 -266 0
105 -244 -278 0
108 -211 234 0
-29 -130 -183 0
-7 -32 -39 0
56 -136 -298 0
-113 201 270 0
-36 67 99 0
-181 212 -240 0
-118 -137 -182 0
-2 -96 247 0
-155 -165 246 0
-79 156 186 0
-72 167 290 0
-37 108 151 0
-96 120 232 0
86 -207 274 0
110 -254 272 0
-61 136 285 0
243 -253 -286 0
-74 127 252 0
-83 -165 -240 0
192 215 -219 0
-11 15 -24 0
18 -74 249 0
-49 -174 188 0
-146 -176 223 0
-149 -150 -182 0
-140 258 -260 0
-61 -99 170 0
-21 45 -205 0
4 56 -154 0
-31 257 279 0
21 109 235 0
19 -52 216 0
-133 159 -288 0
-11 18 -164 0
21 -268 -291 0
-8 35 -229 0
53 -212 281 0
8 78 219 0
46 -63 112 0
-125 142 292 0
-44 -75 -188 0
17 27 131 0
-41 160 -200 0
-31 -162 189 0
60 -75 -186 0
-140 -198 -232 0
8 -32 -171 0
-127 193 -199 0
-1 -146 -165 0
22 81 -148 0
178 -256 -281 0
103 -120 -159 0
-5 -106 131 0
33 -182 -275 0
165 245 268 0
-48 -93 -99 0
77 207 -265 0
-55 191 192 0
-16 162 177 0
-18 105 -290 0
-50 144 -219 0
20 -103 174 0
-15 -18 -27 0
33 -62 -204 0
-46 120 -290 0
82 121 190 0
31 132 -181 0
29 248 -263 0
-3 102 -153 0
-132 166 -191 0
-87 195 247 0
7 100 240 0
-40 72 -192 0
-12 -39 232 0
60 -188 245 0
30 -93 232 0
137 211 215 0
-139 152 -293 0
-56 -163 252 0
30 -79 -263 0
-62 -104 -132 0
-50 -122 -123 0
30 84 -151 0
175 -260 262 0
-96 -147 270 0
112 142 210 0
90 118 268 0
90 141 254 0
104 158 -299 0
-29 -178 -266 0
-8 47 -210 0
-96 128 289 0
-3 -191 295 0
-62 -126 183 0
-56 150 254 0
11 46 125 0
53 129 160 0
-10 100 -134 0
49 53 -180 0
-64 239 253 0
63 71 208 0
204 237 -294 0
-19 216 -270 0
-124 -174 -206 0
-28 206 -288 0
-6 128 217 0
36 167 222 0
-72 204 216 0
18 137 -140 0
-7 63 267 0
-58 148 157 0
31 -138 264 0
64 -226 -262 0
141 148 -296 0
-114 233 -292 0
-156 -236 -281 0
16 125 -171 0
-7 203 300 0
-166 -167 -286 0
30 111 152 0
-32 -179 -226 0
56 -116 -267 0
-72 104 -181 0
66 138 -212 0
-61 -282 300 0
-57 -144 -214 0
-148 -150 -181 0
-4 -165 -256 0
95 -156 -275 0
-46 -119 298 0
105 167 219 0
-132 -255 -290 0
-200 -221 265 0
6 180 232 0
-192 210 257 0
-206 -216 250 0
-88 163 -186 0
-57 -90 -263 0
81 149 -269 0
31 -94 290 0
-2 6 -211 0
8 51 204 0
-255 284 291 0
63 75 211 0
-39 -52 -88 0
-7 32 297 0
87 -142 182 0
33 -179 -299 0
-11 28 -113 0
28 123 128 0
-4 -89 -162 0
35 -130 254 0
-159 205 212 0
-45 -88 89 0
-4 149 -203 0
-172 198 274 0
180 -217 284 0
146 -177 240 0
13 143 175 0
48 -101 -139 0
-82 123 -189 0
-107 -193 298 0
-68 -117 -232 0
127 207 274 0
-47 -263 278 0
75 -160 291 0
91 119 165 0
-186 257 288 0
-46 116 -160 0
-145 183 -207 0
-16 -91 188 0
-128 206 237 0
59 139 -150 0
21 -83 221 0
-21 195 283 0
-255 -267 -292 0
1 58 147 0
20 -57 164 0
-114 202 -214 0
-175 218 227 0
-66 220 263 0
90 134 -287 0
-31 -87 -128 0
48 104 -160 0
122 -124 248 0
69 154 -180 0
61 218 -281 0
-59 106 -208 0
23 -106 -250 0
-57 101 159 0
-167 -228 240 0
24 -37 -286 0
-43 170 -289 0
-98 223 -251 0
47 129 147 0
13 -15 -203 0
87 -96 -270 0
-95 183 -195 0
-70 190 283 0
-22 55 291 0
217 -254 256 0
73 -84 -117 0
-21 46 226 0
-2 17 -191 0
-29 -37 264 0
5 -91 -225 0
-3 227 -289 0
-44 -166 278 0
-31 -42 -206 0
-71 -189 247 0
97 114 -230 0
-214 285 -298 0
59 134 203 0
-58 114 281 0
129 -251 272 0
58 -278 294 0
69 226 -258 0
88 -201 279 0
-30 71 192 0
8 -22 -191 0
62 70 219 0
-87 182 -188 0
-63 -123 191 0
-52 181 183 0
125 -131 182 0
59 -226 298 0
38 -95 -133 0
-74 -129 276 0
-13 -78 176 0
-19 -39 94 0
118 -202 -230 0
111 160 271 0
-87 -185 -240 0
-4 -161 -182 0
-11 117 128 0
-74 140 -197 0
183 292 294 0
103 -219 -293 0
-37 -73 -122 0
-126 -180 261 0
-166 173 247 0
70 78 -179 0
-203 208 229 0
-74 -155 158 0
41 -98 -299 0
183 -220 -240 0
90 132 -142 0
11 -112 -122 0
103 145 257 0
25 30 -67 0
-3 70 -97 0
-15 109 -165 0
90 -173 208 0
-45 -172 -254 0
-7 14 -163 0
48 81 169 0
-47 -74 -272 0
177 -276 285 0
-17 -133 -245 0
-186 268 -272 0
5 -244 286 0
47 117 206 0
31 257 -279 0
77 91 -188 0
125 -227 -256 0
109 166 236 0
34 180 -206 0
115 -193 210 0
124 -135 223 0
-143 -167 218 0
-81 245 -292 0
46 -145 170 0
83 164 232 0
24 -185 225 0
13 58 153 0
-78 155 258 0
-47 -204 -238 0
17 172 300 0
20 -70 259 0
11 25 163 0
-70 250 270 0
76 -115 -277 0
40 111 -179 0
-8 91 136 0
-25 -101 -261 0
-6 -22 -167 0
-138 -205 -211 0
-78 -197 199 0
-3 -123 257 0
45 60 -102 0
-167 -227 286 0
-241 -243 262 0
-33 -182 -194 0
-37 -115 -279 0
179 245 268 0
187 269 -271 0
-79 89 123 0
-165 186 -196 0
79 -129 -193 0
-155 267 -268 0
149 -203 -229 0
77 90 -265 0
-122 -251 -267 0
10 130 -285 0
-30 -92 -157 0
124 -136 225 0
-66 -104 217 0
188 -193 -227 0
132 -181 221 0
99 191 -298 0
-37 -41 -229 0
-14 -56 -255 0
91 -213 -243 0
70 252 263 0
-21 -206 -278 0
47 61 236 0
46 -53 255 0
103 -172 248 0
-26 -75 209 0
-4 -96 266 0
-131 -161 -197 0
27 -156 -158 0
132 157 277 0
-107 -192 275 0
-103 175 -188 0
-5 -35 273 0
-113 141 225 0
208 228 233 0
64 93 223 0
8 -93 255 0
109 151 274 0
52 239 265 0
-26 -115 -213 0
30 69 -80 0
-120 151 -299 0
133 167 281 0
-17 168 -201 0
48 -115 280 0
-95 171 221 0
63 -108 -181 0
10 179 -255 0
144 156 299 0
-117 139 241 0
1 -100 177 0
-89 -171 180 0
92 -169 187 0
49 233 -287 0
18 19 -237 0
-68 213 -296 0
84 -87 185 0
-77 156 246 0
-60 -79 123 0
126 167 -240 0
-102 146 188 0
123 257 274 0
28 55 251 0
79 -88 -136 0
57 150 266 0
120 125 263 0
22 51 -173 0
44 176 -237 0
17 209 211 0
-78 86 262 0
102 113 -170 0
-20 255 270 0
-26 102 -188 0
-84 253 -299 0
28 -156 -239 0
154 263 -273 0
-102 119 -123 0
-26 -201 -295 0
-45 -117 -208 0
3 154 -251 0
-154 211 -215 0
-43 -110 -280 0
17 -150 172 0
209 227 276 0
-22 -95 -193 0
78 -86 -186 0
158 164 -256 0
1 5 270 0
-129 233 -290 0
70 -130 -214 0
-137 -152 186 0
187 253 256 0
-194 230 -286 0
18 167 -248 0
74 -97 296 0
124 -144 -150 0
-44 -195 -253 0
83 -254 295 0
32 -103 265 0
-28 -153 160 0
140 -159 -244 0
-56 -134 -207 0
137 198 -242 0
-82 210 257 0
-143 241 -275 0
-186 201 -203 0
-7 -22 -231 0
36 -125 136 0
85 -91 -158 0
-175 -201 -205 0
-74 -96 273 0
-34 110 174 0
-121 -294 296 0
68 141 294 0
64 -145 -257 0
68 -141 197 0
-49 115 -159 0
12 -37 265 0
-2 -72 235 0
17 -229 285 0
-115 -151 248 0
-107 112 285 0
-15 -89 -259 0
33 -46 -141 0
116 -210 -263 0
37 -129 -245 0
98 175 -233 0
85 100 -145 0
101 -102 136 0
9 -33 182 0
-136 276 -286 0
54 157 -182 0
16 -216 233 0
-79 187 -242 0
66 -164 -244 0
108 129 -182 0
197 -224 266 0
7 -57 71 0
5 45 238 0
-166 -174 287 0
-4 -105 125 0
-51 -65 -103 0
-28 35 -292 0
123 241 -242 0
33 123 -196 0
20 115 290 0
1 -20 239 0
-23 -113 285 0
-10 79 240 0
74 -96 271 0
2 196 262 0
258 276 -288 0
4 204 235 0
107 235 -260 0
-45 57 280 0
-46 -52 -123 0
-76 -152 159 0
4 39 41 0
-198 234 267 0
12 -16 31 0
-93 151 -227 0
-15 -154 179 0
-84 -227 243 0
7 -212 276 0
169 183 -279 0
41 83 -273 0
173 188 -218 0
83 109 -272 0
46 -109 266 0
61 -134 221 0
-128 -146 201 0
47 108 133 0
40 156 201 0
38 39 -186 0
141 231 -262 0
156 -203 210 0
166 176 -236 0
-55 -107 -116 0
6 38 -98 0
24 -93 135 0
30 131 197 0
-8 34 -152 0
91 -187 -278 0
86 188 190 0
16 147 195 0
-124 -188 197 0
-26 51 -194 0
-16 225 242 0
236 -252 285 0
89 -246 -249 0
32 -61 -98 0
-123 228 241 0
114 -248 261 0
31 222 269 0
109 162 -262 0
136 236 -240 0
-51 -106 163 0
-62 244 247 0
13 241 -264 0
-72 -75 187 0
94 -117 189 0
-19 -112 231 0
99 156 -161 0
-7 -13 85 0
-34 192 245 0
-99 -104 -241 0
-17 116 -165 0
-12 212 292 0
-1 -80 -133 0
71 -124 -134 0
71 -77 268 0
86 120 -217 0
130 210 -292 0
-27 49 209 0
37 148 -149 0
-38 193 -272 0
-125 256 -272 0
-39 130 -293 0
-122 188 211 0
109 -168 -242 0
-93 175 -239 0
-46 -107 278 0
-120 -185 -190 0
-66 111 114 0
-70 208 -262 0
-171 -233 -299 0
90 162 -247 0
60 150 190 0
131 155 -190 0
-8 -24 102 0
3 36 89 0
-89 90 118 0
13 43 59 0
-38 -172 -241 0
-133 214 246 0
47 84 -136 0
-68 169 175 0
-27 -79 -287 0
9 -118 160 0
-34 -78 98 0
-48 242 290 0
99 -111 299 0
-133 217 257 0
-13 114 -118 0
-95 -99 105 0
-32 -81 -116 0
-162 204 -268 0
-26 46 151 0
90 126 -237 0
-62 -260 -267 0
-36 -39 -55 0
35 -130 -263 0
-191 -215 245 0
-45 54 234 0
-33 67 -286 0
36 175 -224 0
-17 27 49 0
-37 84 162 0
-89 -199 219 0
125 235 -283 0
116 -198 -243 0
67 -104 202 0
127 -174 -263 0
77 -161 165 0
1 -29 215 0
-20 21 -131 0
-137 -155 -188 0
57 146 -194 0
27 126 -291 0
-130 -167 -259 0
-69 123 -277 0
72 -89 -164 0
-110 -237 241 0
-33 52 61 0
37 -117 190 0
-102 -206 -237 0
-159 -241 -296 0
55 -181 -294 0
7 117 -214 0
64 -186 -278 0
13 68 -220 0
52 183 264 0
-81 188 -222 0
-104 155 -168 0
6 -257 280 0
9 -94 283 0
29 107 -259 0
80 110 -287 0
-16 -70 218 0
-111 216 263 0
3 -85 175 0
90 119 265 0
-111 140 -237 0
1 -45 227 0
88 -164 -236 0
102 -117 -126 0
156 159 -224 0
-44 73 -99 0
-95 -214 -246 0
142 -242 266 0
87 -120 -257 0
-36 -52 -207 0
-78 181 201 0
-182 -245 -261 0
3 -81 -284 0
-113 168 -293 0
60 94 -147 0
-226 -246 254 0
-180 -273 282 0
-131 171 -199 0
35 -186 -199 0
-83 148 254 0
31 99 -108 0
-30 -113 117 0
55 74 -283 0
-21 -99 255 0
65 92 155 0
20 -64 83 0
58 83 238 0
102 -184 -185 0
-130 201 -210 0
13 85 -90 0
31 -229 272 0
-12 -225 232 0
25 -265 288 0
3 -81 -197 0
-97 -195 -292 0
-83 162 -297 0
-3 -109 -297 0
-82 -173 294 0
-24 77 -252 0
151 219 260 0
53 -142 -193 0
-42 132 230 0
110 -154 -253 0
-106 -190 -261 0
163 206 243 0
28 -152 -277 0
128 -133 -260 0
14 42 -45 0
-42 149 241 0
-62 -96 257 0
84 -115 -243 0
-32 83 -114 0
109 -228 -273 0
31 -161 -197 0
101 133 -272 0
-71 -86 -208 0
138 -189 -289 0
-49 -84 176 0
-72 -256 -299 0
-92 281 -296 0
-64 -105 -235 0
186 247 -289 0
-97 98 154 0
6 108 216 0
57 122 147 0
26 -137 -219 0
-5 -264 292 0
7 104 294 0
-63 -108 -137 0
14 -35 218 0
12 187 -220 0
-83 -198 273 0
131 184 190 0
57 77 -78 0
258 -291 -295 0
8 238 -279 0
3 -72 122 0
-48 -199 -245 0
-22 26 114 0
-36 93 -102 0
-41 -46 174 0
126 229 -263 0
-55 167 222 0
63 -81 255 0
25 -53 172 0
-108 -118 222 0
2 -123 240 0
-45 -102 -209 0
128 137 -170 0
36 214 221 0
-30 99 -279 0
130 251 -258 0
150 -230 289 0
-35 73 248 0
24 95 -297 0
-28 -114 123 0
142 -188 -209 0
2 -68 92 0
60 -80 134 0
2 -79 114 0
-157 163 -287 0
-105 248 -266 0
182 -262 287 0
-12 215 258 0
142 -151 -273 0
-128 -244 -265 0
-17 -132 206 0
-157 -184 232 0
-107 -120 -185 0
9 -140 -281 0
-17 210 -224 0
56 -173 242 0
-101 139 190 0
-174 -216 225 0
79 -94 -161 0
32 126 170 0
99 -218 219 0
-58 -140 226 0
-96 200 -201 0
59 165 171 0
11 -106 297 0
-103 -120 124 0
19 -167 293 0
-109 -122 -226 0
-8 -60 117 0
125 -171 217 0
-156 -267 -282 0
-7 -28 240 0
-90 241 281 0
-47 -134 226 0
2 35 -48 0
-3 -211 -222 0
87 -189 265 0
149 191 -278 0
-172 -184 287 0
-59 188 -190 0
-59 83 -174 0
2 114 -206 0
133 185 -208 0
30 -85 192 0
-22 -165 206 0
35 89 -278 0
-70 -88 257 0
-57 -69 -248 0
103 -280 -293 0
-65 -187 291 0
31 42 -55 0
36 91 267 0
45 226 233 0
14 -161 -174 0
12 34 37 0
143 150 -154 0
3 -144 284 0
-47 158 -283 0
-193 238 278 0
139 144 -262 0
24 115 -203 0
-189 -237 262 0
108 -183 -206 0
81 -208 269 0
108 242 -260 0
-49 -136 293 0
145 -193 -247 0
1 131 155 0
-49 -150 -223 0
-52 80 97 0
-114 -163 223 0
52 94 -296 0
-99 226 276 0
20 -103 228 0
117 -157 -294 0
34 -54 246 0
52 130 282 0
-44 -106 128 0
-94 135 -251 0
115 -191 237 0
-5 59 -115 0
12 -116 252 0
-161 199 -211 0
-38 -214 -263 0
-92 141 209 0
111 237 287 0
5 -189 -221 0
81 -99 -241 0
74 -105 202 0
167 -196 227 0
-25 41 -66 0
84 157 280 0
13 -154 -189 0
-61 -63 -268 0
-55 197 -228 0
-103 -165 -246 0
-22 57 230 0
-142 200 226 0
77 140 218 0
-18 -42 -214 0
-33 -53 56 0
-65 187 193 0
14 78 258 0
100 266 -284 0
129 -214 226 0
-50 -279 289 0
52 58 -220 0
-96 149 -255 0
-167 -234 300 0
-49 254 -265 0
-59 -163 -261 0
-127 212 -263 0
105 132 239 0
-41 -90 132 0
90 -205 237 0
-95 244 271 0
-101 -201 -218 0
-205 264 -292 0
-73 173 263 0
39 -124 -286 0
-171 -236 244 0
88 91 280 0
53 173 245 0
148 -155 169 0
7 -203 -223 0
7 193 226 0
124 130 -207 0
215 259 -298 0
-30 110 147 0
11 -249 282 0
-137 -237 277 0
-47 -98 294 0
149 -167 291 0
-20 -131 -171 0
-229 -231 -269 0
57 59 90 0
-70 108 -253 0
24 229 247 0
-35 39 229 0
211 -247 259 0
26 -71 -211 0
203 213 -252 0
20 -104 221 0
-14 -29 -49 0
-51 -192 300 0
134 -197 -210 0
-51 54 -252 0
13 -222 -259 0
24 -142 216 0
-180 240 -296 0
27 -158 170 0
221 -236 -283 0
24 149 -274 0
16 -31 126 0
-116 196 271 0
-127 -225 265 0
-90 -230 286 0
139 253 271 0
1 -204 -281 0
37 -80 195 0
63 -236 298 0
79 111 158 0
-50 -94 133 0
95 -161 -202 0
94 -129 278 0
11 -63 125 0
-51 -157 166 0
-48 -55 227 0
38 83 -107 0
-43 65 -127 0
-16 -60 231 0
-124 -178 224 0
-35 -150 -198 0
-61 -110 -224 0
-97 156 247 0
-33 -231 -291 0
133 203 254 0
98 -222 -262 0
64 -176 193 0
158 -211 -264 0
-148 229 240 0
-9 131 -257 0
192 -255 275 0
101 211 240 0
-104 -159 -193 0
188 200 222 0
-59 -158 -266 0
88 -215 -293 0
-129 -162 198 0
256 262 289 0
29 153 178 0
-153 227 256 0
34 -89 107 0
155 186 -271 0
64 115 -220 0
-18 -167 -207 0
-96 120 137 0
-69 178 233 0
141 156 -186 0
119 164 -197 0
-155 191 221 0
-107 -153 -180 0
6 -43 -295 0
107 -223 255 0
-112 168 -241 0
71 -150 -227 0
-95 -102 160 0
50 152 179 0
-60 147 212 0
-129 -156 -264 0
-146 176 288 0
118 -165 -170 0
-13 159 -176 0
71 -109 -188 0
-62 -93 261 0
-229 -256 297 0
135 -176 -216 0
-69 126 169 0
18 101 -127 0
180 192 256 0
218 244 -266 0
-22 44 -141 0
77 263 271 0
65 -156 -193 0
-41 174 -246 0
11 251 252 0
-52 115 236 0
-98 163 -287 0
-23 -54 -277 0
-139 176 242 0
41 -91 -251 0
33 43 97 0
-225 -250 270 0
139 -211 290 0
107 108 237 0
-68 -139 -299 0
2 215 -223 0
22 -208 -300 0
-75 90 -263 0
44 137 -143 0
51 187 292 0
9 -48 169 0
25 64 215 0
-109 -245 248 0
-74 238 285 0
-107 177 285 0
-55 61 226 0
-4 138 253 0
169 -216 219 0
-186 266 -288 0
134 -153 191 0
-59 -166 203 0
19 62 188 0
-27 147 239 0
-124 -131 -230 0
-60 96 -120 0
-31 75 236 0
228 243 297 0
128 210 -216 0
-112 176 -294 0
94 -170 266 0
57 -129 211 0
64 165 -230 0
-77 -264 -275 0
-80 -151 229 0
85 99 -228 0
-89 -157 -203 0
-25 -80 187 0
-106 -171 269 0
66 185 236 0
136 -173 279 0
36 47 -134 0
168 -256 -282 0
28 178 290 0
85 -133 290 0
-124 -251 279 0
-61 -132 -157 0
-52 -102 -166 0
23 -45 -120 0
-96 -224 295 0
-85 262 265 0
16 -90 -284 0
-70 215 284 0
-10 45 191 0
-31 -66 95 0
81 -210 -260 0
69 -90 -230 0
-65 93 -156 0
-123 207 -283 0
49 -234 275 0
-78 165 169 0
-52 -93 216 0
-64 -75 -141 0
79 -234 -236 0
-52 165 -263 0
-183 -207 -272 0
37 71 -157 0
21 -145 271 0
53 -69 128 0
27 116 122 0
77 -194 -273 0
-3 -119 -143 0
18 -187 224 0
170 -271 289 0
-5 -173 245 0
-24 64 253 0
165 -205 -292 0
-41 -228 -276 0
112 -221 250 0
-65 177 261 0
114 -124 -175 0
-8 -29 -147 0
-87 -154 -294 0
21 -147 -206 0
-15 96 260 0
-57 139 -190 0
-58 -179 -199 0
73 91 -157 0
113 161 -278 0
-111 -210 -274 0
-14 -39 274 0
-196 285 -296 0
-13 152 -214 0
26 -31 298 0
-37 -174 273 0
-40 74 235 0
-141 -266 -273 0
210 287 294 0
275 278 -295 0
-95 -176 -210 0
2 48 -99 0
3 -90 -227 0
-10 31 221 0
55 108 231 0
-51 115 -118 0
162 -223 -244 0
-81 166 195 0
-50 232 288 0
66 -124 -190 0
-71 -194 242 0
148 238 -282 0
115 -122 -191 0
224 254 258 0
34 -170 177 0
-93 237 -244 0
-19 37 297 0
-65 -104 -270 0
-99 108 184 0
128 165 -257 0
-8 -13 -56 0
9 183 232 0
-161 -238 293 0
148 175 179 0
-3 227 -269 0
47 -62 138 0
-121 265 273 0
-1 167 266 0
43 91 -120 0
-31 -175 201 0
-102 255 257 0
-106 173 -212 0
22 -174 -199 0
40 -47 50 0
25 45 249 0
-65 -117 271 0
-77 -138 177 0
-136 230 -261 0
-112 -117 -277 0
1 65 278 0
-11 68 83 0
-133 188 -278 0
-2 125 -134 0
-135 168 185 0
159 253 259 0
-106 235 242 0
233 257 -288 0
-95 98 278 0
101 153 294 0
60 -178 -228 0
102 -134 208 0
130 -196 211 0
70 84 143 0
87 253 274 0
-40 -76 -201 0
33 45 113 0
42 -290 295 0
-175 -216 -272 0
84 -277 287 0
-85 -111 292 0
114 -221 -241 0
-138 -155 -212 0
-23 229 -255 0
-84 158 -273 0
37 -39 -248 0
-179 -245 -257 0
10 -69 -235 0
-77 -164 -181 0
3 -68 77 0
170 -198 205 0
19 121 -172 0
-192 -214 -251 0
104 142 -265 0
92 139 -250 0
-39 213 259 0
52 -183 253 0
132 -189 245 0
-26 84 104 0
137 240 -246 0
-121 135 -261 0
26 85 -129 0
5 69 -241 0
-27 -147 159 0
-118 131 -199 0
59 -71 127 0
-54 -161 234 0
-79 96 -144 0
-34 43 49 0
54 -117 121 0
-39 199 267 0
65 -265 -277 0
45 -48 168 0
-27 121 -173 0
64 -181 243 0
67 110 111 0
-6 -40 90 0
49 58 173 0
101 216 260 0
26 92 -114 0
-129 -194 -280 0
17 -123 298 0
-189 -223 238 0
-27 165 299 0
-11 -134 -260 0
-48 59 148 0
-115 198 -273 0
-70 -130 169 0
13 -37 -159 0
135 -153 -227 0
46 118 236 0
-17 -132 -265 0
216 -241 -284 0
-17 -28 238 0
102 165 -182 0
83 -128 184 0
53 192 -196 0
10 232 -267 0
46 64 280 0
-138 211 238 0
4 184 -298 0
54 -168 295 0
24 111 238 0
-194 -278 298 0
89 -165 -277 0
-114 -131 -154 0
117 158 -277 0
187 -195 -248 0
31 137 157 0
77 -165 -249 0
107 268 -299 0
66 -150 -159 0
66 -197 -283 0
21 -132 261 0
-124 145 251 0
137 -151 278 0
186 -190 -211 0
-223 262 280 0
38 -75 -184 0
32 -115 -175 0
54 -104 -264 0
39 -257 277 0
27 142 187 0
-159 -200 -218 0
5 -109 286 0
-97 187 257 0
-32 107 296 0
70 -182 190 0
-36 167 -174 0
31 247 -276 0
40 -168 -297 0
36 -188 -273 0
-142 270 284 0
75 -260 -272 0
23 31 209 0
134 -216 -258 0
-168 207 215 0
68 -180 281 0
-93 -178 187 0
163 -274 -275 0
150 -170 -211 0
-44 216 -220 0
76 -95 179 0
-94 120 -126 0
-38 -43 253 0
187 192 244 0
-33 -192 -205 0
11 66 -108 0
86 222 234 0
-138 -147 192 0
-75 -218 298 0
-63 -144 220 0
-39 80 108 0
80 -250 268 0
100 157 263 0
17 -71 -262 0
-58 -243 264 0
216 -259 -283 0
-23 96 146 0
18 69 -277 0
12 -85 114 0
7 210 -251 0
-43 63 -111 0
22 -113 -234 0
-43 -219 295 0
189 -204 -257 0
-32 61 -75 0
-203 -233 299 0
-7 17 124 0
19 46 -116 0
-14 211 -284 0
96 211 -237 0
-48 -248 279 0
48 -270 -277 0
-75 104 246 0
-124 -172 -264 0
-7 -201 255 0
-223 -241 248 0
-110 148 179 0
-33 48 106 0
-22 -74 265 0
97 157 228 0
-6 -46 267 0
94 211 271 0
33 -214 -272 0
-11 262 -287 0
39 136 -243 0
-6 83 161 0
18 38 103 0
4 -64 -136 0
44 -242 -259 0
58 253 -262 0
34 121 290 0
64 -113 165 0
-35 167 -189 0
147 -181 -260 0
72 116 -154 0
-4 -43 169 0
-80 -133 262 0
-83 119 -239 0
5 -137 -284 0
-149 261 285 0
-67 156 -255 0
11 37 131 0
166 -202 -239 0
261 -266 -276 0
82 142 174 0
152 -224 -228 0
-32 -40 147 0
17 -153 -211 0
-191 231 272 0
-3 45 136 0
-99 128 287 0
-44 126 298 0
167 225 289 0
41 124 244 0
