c F2 random 3-CNF cnfgen RandomKCNF(3,300,1500,seed=1) m/n=5.0
p cnf 300 1500
-33 69 -292 0
195 231 -242 0
15 -200 -222 0
53 118 163 0
5 -196 278 0
-114 225 -271 0
-113 119 -236 0
-52 96 -285 0
217 -257 -260 0
202 -256 259 0
-89 -207 213 0
56 -225 -261 0
16 -241 -251 0
87 88 258 0
-119 -277 -281 0
138 -236 281 0
-106 266 -288 0
187 -284 -292 0
178 -183 -213 0
15 91 -118 0
17 -37 43 0
128 138 -144 0
36 -86 149 0
-140 -151 -233 0
-13 -59 -160 0
-56 97 -133 0
-10 11 116 0
-83 229 -260 0
-16 -115 -269 0
31 65 -153 0
-37 40 -159 0
67 130 290 0
88 -236 292 0
-51 106 -178 0
-54 152 -200 0
10 145 -206 0
-70 174 -289 0
-50 -195 281 0
21 34 44 0
-110 -138 -276 0
-59 174 -175 0
70 -283 297 0
38 195 -209 0
40 59 -194 0
152 -187 -289 0
24 56 152 0
21 59 -212 0
60 83 231 0
-53 -194 -223 0
-52 107 162 0
-6 -152 -164 0
-33 163 -205 0
-111 -241 278 0
107 158 -278 0
-42 46 -144 0
117 -158 200 0
156 -163 297 0
48 279 297 0
-38 125 206 0
-6 -12 -149 0
-52 79 257 0
-73 -77 92 0
65 151 264 0
106 -162 -284 0
25 -81 276 0
-221 -229 -282 0
6 -174 -203 0
13 214 -293 0
65 -71 -297 0
204 206 289 0
-4 -91 249 0
-123 161 -254 0
141 173 287 0
82 -189 -262 0
154 -191 283 0
-64 264 293 0
112 -129 -219 0
179 197 264 0
52 131 137 0
-124 -196 228 0
-65 167 225 0
210 -221 -274 0
128 194 -287 0
11 -16 297 0
76 -89 -146 0
129 -229 -300 0
-63 107 -216 0
13 -56 61 0
-39 -192 -257 0
1 -166 -271 0
-157 -180 -277 0
58 194 -196 0
-102 -237 262 0
-102 231 -272 0
-208 219 -297 0
-11 127 -149 0
38 -92 -139 0
156 -211 -279 0
87 -240 249 0
36 -182 217 0
83 -85 -260 0
107 156 -271 0
-36 -39 138 0
-87 -153 285 0
201 -205 -288 0
114 133 -169 0
-128 163 222 0
85 -228 -297 0
71 -84 -270 0
124 159 -206 0
-35 -55 -117 0
24 52 96 0
-18 -254 -271 0
49 -61 89 0
194 231 254 0
-146 237 -281 0
133 170 255 0
-3 -8 -24 0
-101 148 298 0
8 16 -199 0
-41 -67 131 0
19 32 -275 0
47 61 -222 0
-67 -99 -143 0
125 134 138 0
180 -220 -287 0
-103 275 -276 0
38 91 129 0
23 105 -220 0
-51 190 257 0
17 -227 -273 0
13 -139 -269 0
-18 44 -155 0
-67 134 -161 0
49 -126 -218 0
-201 261 300 0
230 -269 287 0
-103 190 -200 0
65 177 -295 0
-161 -214 -274 0
140 167 267 0
163 -167 -168 0
-187 233 246 0
-25 -69 269 0
-174 -186 -294 0
175 238 273 0
114 129 289 0
-26 51 211 0
35 134 293 0
89 -222 -262 0
-103 113 -146 0
188 -232 279 0
104 -132 -209 0
-40 207 -262 0
-4 98 235 0
-155 -162 -263 0
-158 232 -298 0
-72 84 -282 0
-19 -189 -290 0
-3 -10 -47 0
-140 -191 -247 0
60 -182 248 0
-10 89 -134 0
-133 -212 -264 0
172 -222 -249 0
33 47 218 0
-14 53 -118 0
51 96 -205 0
-27 -112 282 0
53 -215 -284 0
25 92 -246 0
-64 -151 230 0
-55 77 246 0
-132 -214 267 0
53 -173 -249 0
-29 226 277 0
139 -141 261 0
-67 100 132 0
-139 -144 -212 0
-110 -252 256 0
-91 93 174 0
167 259 -271 0
169 246 253 0
46 116 132 0
-103 -116 -289 0
3 11 157 0
-138 144 175 0
72 -169 178 0
22 178 294 0
-128 154 -163 0
-16 -41 72 0
49 -141 169 0
-65 139 -181 0
-215 -275 289 0
69 155 282 0
-111 124 -223 0
-139 -272 276 0
54 -192 207 0
68 158 229 0
-111 -172 248 0
-80 196 226 0
5 139 -152 0
52 -236 -288 0
-142 -190 210 0
20 51 242 0
-72 -261 -272 0
123 -126 243 0
-21 -60 -161 0
-29 -213 -223 0
122 175 -226 0
-59 -89 263 0
12 -246 299 0
52 -117 -204 0
-126 -237 242 0
205 -222 -226 0
-7 -65 77 0
-14 -39 -94 0
79 -80 269 0
-117 204 238 0
-82 92 217 0
83 -275 286 0
112 219 263 0
40 -259 -275 0
-25 61 291 0
24 246 266 0
-143 160 239 0
-163 -274 288 0
-103 -200 -203 0
-78 133 291 0
-74 -173 -185 0
-143 179 197 0
67 116 130 0
123 -220 -279 0
40 43 101 0
196 208 214 0
-72 124 -196 0
-92 116 -183 0
150 -252 275 0
12 -149 -238 0
-27 30 131 0
53 58 -223 0
63 -109 197 0
-62 -104 289 0
20 -86 -138 0
-140 205 216 0
-9 96 -287 0
-110 202 276 0
-22 40 217 0
-98 -258 261 0
-34 120 -185 0
-23 -76 91 0
-34 257 -299 0
-155 -263 -294 0
-26 241 -283 0
-77 156 -163 0
201 213 267 0
8 -272 -294 0
-18 189 -283 0
-43 229 277 0
110 167 185 0
-163 -207 -261 0
20 134 -189 0
146 204 282 0
43 -137 -212 0
-51 -108 121 0
105 -155 -263 0
69 -152 -265 0
-15 20 162 0
95 218 270 0
-63 -67 260 0
-29 -185 234 0
5 8 -251 0
5 21 283 0
18 -103 -271 0
-125 -252 -260 0
38 -93 -100 0
-12 187 243 0
-222 -296 299 0
-100 -216 -264 0
-85 -138 -242 0
8 -131 -159 0
-119 183 -261 0
-75 172 197 0
5 -131 -183 0
-8 167 174 0
42 62 -169 0
120 175 -210 0
-151 -155 194 0
102 119 209 0
125 195 -203 0
-1 -158 185 0
-16 -75 -190 0
-58 -163 -299 0
-6 45 160 0
136 191 224 0
84 -262 264 0
2 -35 112 0
5 -29 -34 0
5 -10 287 0
-137 152 298 0
31 -108 201 0
168 170 209 0
48 95 259 0
-31 51 156 0
77 -119 -227 0
30 46 227 0
30 62 104 0
-113 130 147 0
-100 -129 -167 0
-46 196 -198 0
59 92 -176 0
-142 -156 -273 0
-181 -187 -234 0
9 -190 262 0
65 155 -291 0
70 -78 83 0
-88 -162 -183 0
-40 -79 220 0
36 -80 162 0
-24 -99 -183 0
-62 95 -176 0
-32 -108 -127 0
26 -126 185 0
50 -70 -101 0
73 -84 -117 0
-225 263 -298 0
-38 101 222 0
69 73 -107 0
-26 95 186 0
45 -109 226 0
-10 -112 295 0
-27 188 -256 0
-35 -164 262 0
174 -213 247 0
-10 93 -166 0
-130 -135 157 0
84 149 -151 0
-112 -143 -221 0
89 -132 166 0
183 -204 -268 0
77 125 247 0
-20 -37 -266 0
-88 -267 289 0
-198 283 -288 0
-27 181 -189 0
46 183 227 0
-24 187 -227 0
5 245 -295 0
-84 -107 261 0
71 -135 162 0
93 -158 -272 0
-235 262 -283 0
80 -106 145 0
195 -218 -263 0
187 227 274 0
-50 55 -276 0
-94 204 244 0
-200 -231 251 0
15 93 140 0
-164 227 -229 0
-28 -143 -240 0
-50 -85 -260 0
77 -164 259 0
-100 111 116 0
-27 53 -218 0
-144 165 -287 0
-155 -229 -250 0
-52 90 -149 0
55 -79 -235 0
-175 -254 -287 0
202 249 275 0
103 -126 275 0
-16 -169 -215 0
108 -148 -210 0
-5 -90 197 0
-34 120 -164 0
-3 50 -223 0
58 -79 274 0
-167 193 224 0
82 85 276 0
227 -268 300 0
71 -163 171 0
-116 121 255 0
69 241 -273 0
71 -144 -179 0
16 237 271 0
-3 22 156 0
-55 57 -205 0
-248 268 -296 0
-179 -191 -197 0
101 106 282 0
-11 -123 -124 0
28 49 291 0
143 213 -221 0
176 -213 300 0
187 -268 300 0
64 126 -224 0
67 -78 148 0
35 -221 248 0
-66 202 -276 0
163 225 245 0
-50 54 190 0
-2 45 57 0
-32 -158 -250 0
-15 -21 142 0
-138 165 -245 0
-89 -225 264 0
-165 -204 -262 0
9 113 -157 0
-60 -133 185 0
-55 71 -257 0
-167 241 292 0
104 -138 -276 0
7 -137 257 0
-51 165 -294 0
23 176 272 0
-22 60 61 0
77 117 -274 0
137 -223 289 0
30 -36 -136 0
217 224 244 0
-18 -213 220 0
92 -116 118 0
112 -165 229 0
-55 196 -267 0
135 150 -160 0
18 196 235 0
-51 152 -253 0
-51 125 128 0
-184 -222 255 0
73 205 -218 0
49 -199 -221 0
136 -217 261 0
133 276 -288 0
-49 136 233 0
-15 195 -209 0
120 -252 261 0
44 -128 211 0
21 151 178 0
-24 -158 300 0
-184 241 -276 0
128 168 270 0
-157 -160 275 0
118 130 247 0
44 133 205 0
-38 162 284 0
-20 111 -229 0
-113 -149 262 0
36 -37 -119 0
-6 86 235 0
8 -125 -158 0
-136 137 179 0
6 22 -226 0
59 156 232 0
16 -70 100 0
117 244 287 0
9 -33 71 0
134 -265 277 0
-144 -181 -279 0
-271 -272 274 0
-93 246 289 0
14 -265 270 0
113 -164 -204 0
18 -34 -258 0
23 140 -279 0
154 -195 266 0
267 274 275 0
85 -108 -246 0
8 -51 -78 0
-90 112 -290 0
-33 -66 -115 0
189 -222 -263 0
183 -198 207 0
39 -93 -177 0
32 -57 -236 0
47 -172 -263 0
-67 -86 -293 0
125 -197 251 0
13 -133 147 0
42 -113 -151 0
205 -232 242 0
-10 18 -31 0
-91 -160 276 0
122 -176 233 0
12 -226 263 0
-42 92 119 0
3 164 -233 0
-114 132 266 0
-194 -205 -211 0
13 -173 -290 0
83 -221 -279 0
-147 -178 -247 0
123 -147 184 0
38 -135 -200 0
-9 82 252 0
58 78 197 0
-49 240 282 0
-27 139 -271 0
-57 -174 -225 0
-43 -118 -149 0
137 221 224 0
170 -181 193 0
59 -75 273 0
83 -184 271 0
-71 -205 218 0
-13 39 273 0
-110 -203 -228 0
42 175 -247 0
5 47 91 0
-100 -143 -236 0
-54 -197 286 0
37 -69 161 0
-9 -149 177 0
162 -201 273 0
64 208 -217 0
90 179 -208 0
-86 -211 -265 0
-18 201 -277 0
88 202 -233 0
134 -201 251 0
138 -141 199 0
55 -62 240 0
22 116 122 0
20 -59 -297 0
59 -76 178 0
-82 275 -294 0
204 -263 290 0
-8 26 -295 0
-1 -25 -45 0
61 -197 235 0
-13 -257 261 0
80 -141 -221 0
73 109 169 0
-66 -184 -248 0
58 -129 -226 0
102 -107 -118 0
1 -132 -252 0
47 142 265 0
73 -208 219 0
-83 -111 -140 0
77 129 -291 0
-9 247 275 0
103 -118 -133 0
55 -98 -190 0
-169 -211 -294 0
-39 142 -181 0
15 145 178 0
-116 -225 -275 0
3 35 -204 0
-51 202 -253 0
111 -159 -286 0
-72 -129 264 0
-171 224 -267 0
-21 -160 -258 0
-82 -136 149 0
-133 199 -227 0
21 -48 299 0
-21 157 -268 0
6 -67 -177 0
43 -124 267 0
-14 87 -228 0
23 -85 -149 0
-58 -195 278 0
-118 171 215 0
92 -173 208 0
-112 203 -215 0
17 -44 -134 0
-52 157 -223 0
90 131 281 0
-6 205 -283 0
50 132 175 0
90 194 -296 0
-3 10 271 0
98 203 213 0
-232 -277 279 0
131 -199 -260 0
-76 137 186 0
12 -54 275 0
84 113 -165 0
-109 -132 135 0
-17 -79 -255 0
-102 -183 -208 0
-79 248 -298 0
32 -37 134 0
-21 -158 233 0
-217 -221 254 0
149 201 222 0
-173 -188 292 0
27 193 223 0
89 197 245 0
-166 178 -259 0
95 248 289 0
62 68 -141 0
-28 110 147 0
-35 81 215 0
83 -99 -214 0
33 89 256 0
78 -97 126 0
-41 -191 294 0
222 241 291 0
189 -220 -223 0
94 171 -291 0
-83 -238 239 0
-103 -235 280 0
66 113 145 0
-110 -218 263 0
-28 -105 193 0
-7 -220 234 0
54 -87 259 0
-9 -254 -264 0
15 200 224 0
19 -103 162 0
-74 -75 232 0
-37 -64 -263 0
-20 108 -272 0
87 -102 -122 0
245 260 -295 0
6 -64 292 0
92 -234 271 0
-23 -72 -279 0
98 -205 -238 0
-6 -109 146 0
-49 208 -229 0
113 169 171 0
-10 94 -237 0
34 140 270 0
-139 178 -212 0
57 157 -215 0
6 136 -291 0
40 77 180 0
72 170 206 0
-18 -60 -66 0
4 -5 -75 0
-69 -159 -204 0
-150 180 -230 0
5 -118 160 0
4 41 238 0
-114 199 201 0
-47 83 170 0
-105 -119 285 0
183 221 293 0
95 -182 -253 0
-33 -35 -112 0
-168 189 298 0
-178 -211 270 0
5 -169 -230 0
72 99 -143 0
30 57 -137 0
-127 240 292 0
-185 -253 258 0
67 -224 -290 0
33 186 273 0
10 98 -178 0
85 213 286 0
30 262 273 0
73 -137 -279 0
-49 -71 131 0
32 -235 -281 0
-154 -158 -200 0
6 -62 300 0
5 -64 107 0
-109 -110 -175 0
239 -286 -294 0
-16 -38 43 0
-95 -152 -213 0
114 -127 -253 0
181 243 253 0
-111 199 229 0
192 198 218 0
-24 -109 -299 0
-11 -69 -244 0
-112 187 -224 0
-139 -243 -296 0
-34 -57 -228 0
-117 261 266 0
-81 128 -131 0
70 116 204 0
-113 -195 -240 0
5 -77 -146 0
155 215 284 0
-85 250 266 0
158 -163 -184 0
17 -146 -177 0
-87 147 262 0
-66 -68 -197 0
-14 86 150 0
216 -238 277 0
64 -292 295 0
110 -182 -256 0
97 164 -278 0
129 -222 -242 0
152 265 -283 0
79 -102 -180 0
52 -57 170 0
42 -83 170 0
-237 -252 -290 0
244 268 269 0
90 91 158 0
71 -125 -235 0
-202 -218 -279 0
-65 102 -245 0
72 -112 -226 0
32 -116 -178 0
-34 79 170 0
1 16 -39 0
-32 -107 -221 0
82 -103 210 0
171 217 231 0
76 109 209 0
-13 -234 -264 0
27 -79 232 0
-13 76 162 0
-132 254 293 0
16 68 147 0
56 125 -236 0
49 -88 139 0
153 -193 280 0
-62 153 274 0
51 -205 -226 0
-4 -151 241 0
108 245 281 0
-102 187 222 0
59 126 186 0
-170 -209 -222 0
21 -191 230 0
56 -213 266 0
-3 102 -115 0
120 159 -192 0
59 -93 157 0
-200 252 290 0
32 43 180 0
-72 -194 219 0
-20 -234 -281 0
6 -169 -192 0
-30 -140 262 0
-163 220 252 0
-22 206 -262 0
-58 -86 -104 0
48 -67 133 0
9 -218 233 0
-19 -73 211 0
-55 -151 199 0
211 -219 273 0
133 150 167 0
50 -112 -162 0
-41 74 -267 0
-77 -188 -236 0
40 256 285 0
106 187 246 0
-24 -39 -218 0
-159 -185 -190 0
-167 189 225 0
-129 -130 245 0
-151 -253 272 0
75 229 -243 0
-36 284 -289 0
139 156 -210 0
-42 -135 -184 0
-24 130 -219 0
76 106 -196 0
-74 241 -267 0
-32 -80 -97 0
-19 149 250 0
-14 -164 295 0
-154 -180 -222 0
-18 62 191 0
9 -133 -172 0
-144 151 -280 0
-30 -54 194 0
-70 121 239 0
-88 145 249 0
-32 -142 -233 0
187 217 -219 0
-29 -54 -167 0
-36 -73 -104 0
164 -239 -240 0
59 -280 293 0
-50 75 196 0
2 58 -287 0
-64 -287 -299 0
-39 -212 -231 0
-69 -204 -279 0
55 -143 171 0
19 -49 -86 0
-22 83 -216 0
206 -282 290 0
-15 -70 -123 0
66 72 148 0
16 -102 -122 0
187 -220 241 0
-14 137 195 0
-67 -132 -220 0
-47 -63 -180 0
-216 -225 260 0
25 166 250 0
-40 92 180 0
39 -75 -236 0
96 -120 -187 0
-233 279 284 0
77 156 241 0
37 -132 -157 0
93 -204 -233 0
2 -119 277 0
-77 -145 -198 0
-2 74 97 0
-19 30 236 0
40 77 -104 0
-81 88 -226 0
147 184 258 0
59 -232 252 0
-78 -137 157 0
3 10 -190 0
18 -22 82 0
-16 -150 247 0
90 -103 180 0
-100 -185 -237 0
41 120 127 0
160 190 -268 0
-128 146 285 0
109 209 238 0
38 196 -223 0
-132 -262 294 0
-56 -185 233 0
-77 138 171 0
137 165 207 0
167 192 -241 0
69 -233 -256 0
-61 80 -146 0
-63 101 -161 0
69 -263 273 0
-72 -198 202 0
48 -119 -268 0
130 -163 194 0
196 202 -268 0
-51 -59 209 0
42 250 -289 0
-176 183 -198 0
71 114 206 0
76 174 291 0
-27 -216 -263 0
-117 180 224 0
-66 183 -240 0
-194 215 -264 0
77 -135 -240 0
-122 -180 239 0
51 -75 -124 0
-95 -115 -290 0
-20 -94 -200 0
-134 155 261 0
-54 138 -286 0
103 -286 300 0
-201 -214 -260 0
48 -115 212 0
184 264 292 0
126 166 227 0
-44 68 226 0
-65 -74 -254 0
6 129 -151 0
18 120 -277 0
-22 68 -171 0
-106 -158 168 0
3 -130 195 0
194 -291 296 0
-33 -47 -125 0
-17 -74 -259 0
60 -77 281 0
74 -232 -255 0
-140 -227 235 0
12 111 -282 0
50 222 286 0
103 123 170 0
-32 -129 -154 0
-1 106 191 0
2 -94 -196 0
97 -112 209 0
195 213 293 0
-30 52 -107 0
87 95 -185 0
-46 -94 -230 0
125 227 294 0
-123 138 -221 0
-104 -211 251 0
114 -120 277 0
-38 -214 -279 0
-31 49 104 0
-222 -262 270 0
-151 -193 261 0
127 216 278 0
44 -131 -216 0
-18 -177 -202 0
28 105 147 0
-152 -173 -277 0
133 -161 -192 0
20 169 297 0
-74 -127 -181 0
7 -162 214 0
-106 108 -198 0
-58 71 -109 0
-126 240 265 0
-3 29 -181 0
97 -104 197 0
-92 -144 246 0
-6 -80 99 0
-13 95 -193 0
71 -88 -153 0
100 109 -261 0
168 -183 197 0
-79 -81 253 0
-21 -237 -247 0
112 264 -277 0
-33 -123 -132 0
-9 227 252 0
-96 -199 218 0
-14 -125 -205 0
41 -159 228 0
-28 70 186 0
-8 -18 -245 0
91 125 -208 0
13 118 -156 0
-144 147 -254 0
-72 -144 161 0
-101 131 153 0
57 -161 -234 0
-22 -72 -130 0
-27 -92 205 0
-84 -118 246 0
47 -160 -236 0
-16 33 72 0
-23 -155 -276 0
-179 -283 292 0
-93 -114 -219 0
-34 125 -133 0
84 245 247 0
-268 -293 298 0
87 -116 -285 0
95 103 239 0
-9 -40 199 0
3 83 219 0
-58 190 -202 0
-49 163 -268 0
121 -207 -288 0
-10 177 -264 0
190 207 -255 0
-75 81 220 0
161 -212 -252 0
42 186 197 0
-26 136 159 0
-66 71 123 0
-102 210 -228 0
13 94 236 0
73 150 213 0
-263 -269 -277 0
226 -239 287 0
23 118 154 0
92 202 208 0
-60 -79 -250 0
11 247 -250 0
89 -241 260 0
134 155 -267 0
41 76 257 0
1 -32 -274 0
25 -269 -274 0
-10 -142 291 0
33 90 -178 0
100 -115 292 0
179 252 -269 0
46 -50 -154 0
-148 -295 -298 0
-77 -237 273 0
-18 147 -291 0
135 -166 -299 0
114 -125 200 0
-22 121 -130 0
54 -68 -196 0
-42 209 -237 0
-102 202 290 0
10 -29 194 0
-178 229 264 0
-103 -110 -226 0
-83 141 143 0
246 271 -293 0
62 231 -259 0
194 268 -298 0
-45 -58 -118 0
11 -171 197 0
230 -257 -290 0
210 277 -296 0
61 137 -194 0
-39 201 -241 0
-22 -134 -204 0
8 125 -276 0
-55 108 -207 0
-14 208 223 0
67 215 -250 0
41 -146 281 0
82 -153 -240 0
-17 168 -269 0
-45 -84 -197 0
-12 18 -216 0
93 103 176 0
-21 -49 -80 0
-11 -243 294 0
73 -270 -282 0
-5 -115 -286 0
-68 112 286 0
58 -153 -291 0
-83 255 -270 0
37 167 -261 0
-30 -68 83 0
-22 -128 -156 0
-28 -89 -287 0
-82 -143 158 0
125 -187 220 0
-34 188 -274 0
7 198 266 0
92 237 -294 0
-35 71 -263 0
-49 140 -264 0
62 -69 78 0
94 115 148 0
-4 7 -111 0
-77 -153 174 0
-5 -100 174 0
-12 -85 257 0
34 43 111 0
185 267 -280 0
-17 51 -90 0
118 -123 259 0
84 -221 -281 0
104 152 276 0
157 169 -285 0
146 163 280 0
26 -163 245 0
208 -226 253 0
-90 99 132 0
-10 -98 198 0
-76 245 -287 0
203 206 -262 0
-101 -120 -182 0
20 -98 -281 0
-81 -128 -220 0
-55 -185 -218 0
-51 -91 115 0
-44 -53 206 0
-184 252 294 0
-122 -198 251 0
51 84 -202 0
90 93 149 0
81 148 -215 0
-63 -98 281 0
21 -98 160 0
-57 -99 217 0
-2 -156 -258 0
33 -163 -173 0
82 -226 -237 0
48 -63 -227 0
151 -153 211 0
-54 111 -277 0
68 -122 274 0
30 129 229 0
48 87 182 0
23 -259 -265 0
31 123 -278 0
-17 -91 -219 0
-16 -175 -236 0
-84 182 -243 0
25 -133 292 0
-101 200 244 0
-31 -85 264 0
-24 102 -291 0
-3 -73 116 0
53 163 200 0
-22 -180 -181 0
83 151 259 0
1 224 -292 0
4 -50 -224 0
96 -201 -294 0
59 -61 288 0
183 197 -285 0
-30 -137 297 0
25 -160 235 0
-42 63 -220 0
-87 -183 -287 0
151 237 240 0
32 -68 -142 0
-90 107 149 0
47 95 -272 0
-87 -110 216 0
-119 213 286 0
30 88 150 0
3 219 266 0
217 -226 -276 0
-116 254 -289 0
13 -151 270 0
48 -183 -190 0
-18 -29 -283 0
-126 144 251 0
195 -210 -241 0
114 -223 -234 0
69 97 -103 0
-49 180 -181 0
-10 -131 -159 0
-7 -43 175 0
119 191 198 0
62 99 114 0
22 176 -212 0
18 32 111 0
33 -181 -193 0
-88 -150 159 0
62 -113 -194 0
181 183 270 0
-174 223 -270 0
-147 198 266 0
52 -78 -275 0
-135 -217 -258 0
-29 230 233 0
93 153 257 0
-186 188 -230 0
-53 67 -251 0
20 -29 -61 0
48 208 261 0
6 156 235 0
-67 284 298 0
-29 81 -182 0
-18 48 -232 0
20 31 137 0
-61 145 270 0
-55 77 245 0
68 -119 -169 0
6 -179 290 0
-8 190 280 0
-86 -252 -283 0
-177 242 256 0
51 118 167 0
-114 181 214 0
-143 222 297 0
-92 -169 179 0
90 215 242 0
42 94 102 0
-32 -132 -232 0
64 122 232 0
-16 -90 -112 0
-92 99 -170 0
-45 186 187 0
143 183 184 0
-167 -189 218 0
-19 108 -283 0
-30 125 -130 0
-76 221 -289 0
37 227 245 0
16 -102 274 0
-200 -211 -299 0
-145 225 264 0
153 -276 -278 0
17 -95 204 0
80 202 298 0
-99 -202 -287 0
90 -141 209 0
-148 150 257 0
20 139 239 0
-35 -70 -255 0
28 116 -213 0
23 80 233 0
-10 65 -110 0
171 -185 -189 0
-31 -174 273 0
-8 14 48 0
200 -211 -270 0
23 111 -236 0
-33 -172 216 0
68 105 -138 0
28 211 291 0
6 34 236 0
2 -17 273 0
171 191 250 0
-43 85 112 0
-39 -67 -107 0
73 -89 127 0
191 271 274 0
-4 -143 286 0
-58 172 -181 0
-152 -250 261 0
-25 -33 -34 0
169 191 -296 0
-116 -214 -259 0
22 89 -160 0
-63 179 -244 0
-63 85 -196 0
-64 176 289 0
125 -254 -283 0
23 -32 -86 0
-126 157 284 0
-18 -91 -97 0
83 108 208 0
-74 145 -238 0
145 278 294 0
17 73 -145 0
27 -180 230 0
81 184 -279 0
-25 172 -191 0
27 214 239 0
9 -15 23 0
23 -26 231 0
92 -99 287 0
-52 70 -291 0
-12 256 278 0
-164 -233 -294 0
-56 -64 74 0
-11 36 198 0
144 -152 -156 0
32 -77 -291 0
-19 60 -125 0
-4 -12 -124 0
3 -110 220 0
67 139 -278 0
-25 49 254 0
94 129 -251 0
-37 94 -173 0
-132 153 -192 0
15 91 -268 0
40 -63 152 0
-55 89 -186 0
-34 -267 280 0
-58 -240 -270 0
-195 239 -243 0
6 -36 -171 0
-16 44 199 0
1 -231 -259 0
40 -209 -260 0
201 220 252 0
-80 208 -280 0
71 176 -281 0
10 -20 -160 0
-81 -129 -211 0
96 130 269 0
62 104 -130 0
59 277 -285 0
-21 85 -216 0
76 88 -189 0
81 -110 -168 0
-139 266 300 0
-34 128 -290 0
11 49 87 0
-13 -238 -256 0
142 196 -246 0
101 194 223 0
-52 -106 149 0
114 180 184 0
101 121 -156 0
110 -187 -194 0
150 170 171 0
11 14 -85 0
-55 95 159 0
-35 82 -112 0
-118 -135 178 0
-57 103 -234 0
-107 161 -194 0
-3 -205 -240 0
-29 -173 -227 0
-31 148 258 0
84 -155 231 0
155 201 -278 0
-8 136 -150 0
24 283 -292 0
-111 -166 -203 0
-83 -135 203 0
121 -209 229 0
1 98 181 0
28 -98 242 0
106 -131 259 0
92 131 294 0
31 -111 284 0
89 207 -297 0
14 -111 -260 0
38 -88 -139 0
287 299 -300 0
-51 150 295 0
7 107 144 0
-163 205 -256 0
-39 130 239 0
6 171 245 0
50 -119 -203 0
-50 53 142 0
80 -245 -276 0
-7 -16 -170 0
-27 163 226 0
124 144 -186 0
-203 -278 -300 0
-73 108 250 0
8 42 -88 0
38 -271 292 0
-39 94 214 0
187 -207 247 0
122 168 -200 0
-106 226 -297 0
-28 84 101 0
-177 205 245 0
-8 42 -80 0
64 138 -202 0
-87 -102 -219 0
-126 194 267 0
-99 -191 -208 0
90 -201 -232 0
-188 192 -297 0
28 -64 172 0
-147 285 -299 0
16 189 -191 0
229 241 -277 0
-9 -114 -220 0
41 -142 285 0
3 20 273 0
105 170 256 0
49 -144 -154 0
-32 169 -217 0
82 -114 -290 0
-51 144 147 0
-86 -220 -270 0
86 -119 211 0
77 112 148 0
6 -60 -157 0
27 -29 -64 0
-82 123 150 0
-129 -214 269 0
17 67 263 0
130 266 -280 0
96 -247 280 0
-89 109 290 0
-24 107 -264 0
94 136 235 0
19 147 -256 0
123 -178 190 0
-84 -143 174 0
-40 -89 110 0
-7 -204 -238 0
5 130 -253 0
192 -206 209 0
-16 46 -156 0
-3 -104 207 0
-72 108 -115 0
-19 170 -198 0
9 14 218 0
10 208 228 0
-98 -214 289 0
49 -101 -113 0
-136 -168 218 0
-39 113 -233 0
-97 -184 294 0
-166 -180 284 0
98 194 -230 0
3 -225 246 0
-37 200 -262 0
165 -198 244 0
-127 194 -292 0
177 238 -259 0
-10 -17 256 0
-105 -191 -218 0
33 218 256 0
52 185 -218 0
182 190 299 0
127 132 282 0
224 -252 289 0
-39 44 -220 0
121 -182 294 0
15 -58 -232 0
-53 104 146 0
-38 -175 -213 0
-115 -222 287 0
204 205 -295 0
-180 -181 203 0
73 106 111 0
-129 176 250 0
73 130 -281 0
-165 214 -268 0
117 -161 259 0
-71 203 279 0
18 -188 -209 0
-152 -259 -279 0
41 130 -250 0
28 -34 -185 0
72 -111 -220 0
-3 -109 -116 0
-208 -241 250 0
-230 233 -239 0
-88 -90 224 0
57 -111 192 0
-47 50 167 0
-67 125 -171 0
126 201 -261 0
-60 -144 -256 0
-32 -50 -177 0
103 -196 220 0
-145 -228 288 0
169 -189 -197 0
66 129 -280 0
2 64 72 0
-67 -72 -196 0
9 -50 200 0
-44 -69 261 0
-52 171 295 0
-99 185 269 0
9 -13 285 0
-89 214 282 0
12 97 289 0
25 159 185 0
1 -26 120 0
-3 -73 262 0
-76 -131 -256 0
-121 -214 -238 0
-4 97 254 0
24 -172 239 0
66 222 -230 0
-153 -248 -283 0
-115 -126 -268 0
-164 -293 296 0
-43 85 254 0
-187 227 245 0
-75 114 182 0
99 -105 106 0
170 -211 236 0
-65 119 215 0
51 -64 299 0
43 46 -280 0
-98 -143 -177 0
-240 253 -294 0
-33 -175 -234 0
35 -155 170 0
-76 93 96 0
-88 150 -207 0
59 186 195 0
41 -109 -196 0
60 71 198 0
113 -239 -272 0
116 201 248 0
-26 -89 120 0
72 -214 -242 0
-108 176 -277 0
-12 149 187 0
-26 119 -287 0
36 151 282 0
3 165 291 0
87 101 115 0
-128 147 293 0
65 -194 -300 0
60 80 258 0
119 -241 248 0
65 -229 -255 0
16 58 -85 0
22 -143 -195 0
-42 68 222 0
1 12 138 0
137 242 -294 0
-9 191 -200 0
1 152 -154 0
64 114 -184 0
24 193 -296 0
70 -202 -246 0
96 -126 -144 0
36 -100 203 0
27 39 225 0
98 -201 -222 0
146 -197 297 0
-17 -129 -168 0
45 167 290 0
-30 -94 252 0
-63 228 -250 0
-86 -115 221 0
168 206 241 0
30 -136 294 0
19 -101 281 0
2 -14 272 0
24 26 123 0
125 218 -232 0
-30 -269 282 0
-5 -113 184 0
-87 -144 241 0
-4 -269 299 0
-67 84 -143 0
-39 100 197 0
-26 72 80 0
-72 89 291 0
57 130 186 0
-25 28 123 0
-17 90 235 0
21 -41 -93 0
139 231 247 0
-160 212 -283 0
225 -247 296 0
-34 90 -91 0
3 -51 176 0
-67 103 -270 0
82 -213 -227 0
136 -156 192 0
85 -182 296 0
135 270 -271 0
-106 -129 139 0
3 -159 -189 0
75 146 182 0
46 54 -295 0
-29 -113 -190 0
-7 -200 -225 0
