c F2 random 3-CNF cnfgen RandomKCNF(3,300,1500,seed=4) m/n=5.0
p cnf 300 1500
-53 -121 156 0
-11 -35 47 0
-114 -267 275 0
55 -110 -135 0
-85 -100 159 0
173 199 260 0
-46 144 -243 0
160 -261 -294 0
148 221 -232 0
23 -42 -133 0
-242 266 274 0
-35 -104 212 0
165 -183 224 0
32 118 -143 0
91 149 -236 0
43 -147 -168 0
79 -165 211 0
-70 -150 228 0
-5 170 -294 0
-87 186 -187 0
59 107 218 0
-21 77 -87 0
-19 -63 271 0
-104 -124 -245 0
-19 113 -216 0
97 111 -256 0
125 130 -270 0
73 -134 167 0
-21 -207 292 0
108 -221 -294 0
162 -216 -242 0
-39 201 255 0
66 138 -203 0
-207 242 292 0
-7 81 -109 0
114 196 282 0
-170 242 288 0
-18 58 251 0
41 -186 -268 0
-39 -44 279 0
-120 -160 199 0
-40 -59 -188 0
-35 -101 155 0
86 191 286 0
-168 174 254 0
3 -62 -160 0
39 -267 -270 0
93 118 -183 0
-240 -279 -291 0
-73 -129 201 0
43 -74 -222 0
102 180 -295 0
-92 169 -191 0
11 -12 269 0
-82 94 300 0
-89 -114 246 0
-114 159 -251 0
-232 -272 -276 0
146 -211 225 0
-235 -277 -288 0
15 -80 -262 0
-47 133 -160 0
34 -77 123 0
-25 84 204 0
50 -81 106 0
-32 63 139 0
-42 67 213 0
79 -211 -258 0
35 193 -260 0
-201 -264 -276 0
-32 88 -199 0
10 79 156 0
8 -119 284 0
173 195 232 0
-157 183 244 0
-131 -158 297 0
54 -121 -162 0
42 -91 181 0
-20 37 -103 0
60 260 261 0
10 -18 141 0
-110 -128 -185 0
-18 -89 207 0
-153 261 -262 0
90 -110 -165 0
-142 -170 209 0
132 144 -262 0
-68 135 148 0
48 -109 130 0
5 175 234 0
49 -126 -266 0
78 291 298 0
93 -106 -135 0
84 88 187 0
-30 83 135 0
-71 -201 -246 0
19 208 221 0
113 -152 184 0
177 187 197 0
95 179 274 0
-61 -98 152 0
84 -157 -202 0
-3 180 -183 0
16 -109 -215 0
-28 41 286 0
93 124 -171 0
119 224 300 0
-94 -120 -147 0
-88 -177 -279 0
17 -276 279 0
62 242 254 0
72 -74 283 0
25 -77 279 0
144 -152 -244 0
-32 -72 272 0
-2 178 272 0
41 -218 222 0
89 101 104 0
-2 150 267 0
87 174 268 0
34 72 -224 0
142 174 263 0
-3 -23 -81 0
-79 -184 269 0
88 232 -248 0
171 -232 294 0
-108 -154 -162 0
85 162 -189 0
91 -100 226 0
3 24 267 0
-126 191 -202 0
149 -222 260 0
-29 50 -95 0
23 -84 -223 0
68 -179 -261 0
50 -194 -294 0
222 -284 294 0
45 199 230 0
52 -65 -147 0
-163 -179 -209 0
53 -175 -193 0
117 -189 -295 0
64 172 274 0
-119 -246 -266 0
-64 214 -273 0
144 184 -241 0
-79 136 -185 0
179 -198 -245 0
91 -96 -275 0
2 -24 68 0
162 -168 231 0
19 33 226 0
33 243 275 0
3 100 263 0
-168 -248 -257 0
68 -174 -296 0
30 -50 173 0
-26 -106 -128 0
-36 -44 -76 0
56 74 -88 0
-242 -270 -273 0
127 -129 -139 0
147 171 289 0
83 200 279 0
37 -277 288 0
42 236 -259 0
97 -101 -136 0
139 140 -271 0
-84 186 -252 0
-85 87 126 0
-97 239 276 0
-187 -264 -297 0
-40 -168 -236 0
-58 -79 -131 0
44 -138 192 0
82 -197 -261 0
17 92 -164 0
-86 -98 -273 0
-140 171 199 0
29 283 -294 0
30 -132 171 0
191 -206 -215 0
188 -204 296 0
-71 209 -242 0
186 189 272 0
79 -156 264 0
-2 -103 -144 0
15 86 -256 0
141 -232 -285 0
88 -225 -278 0
-131 134 199 0
136 219 289 0
-51 142 -254 0
-224 240 -268 0
-90 -147 264 0
226 -266 -269 0
-134 240 -273 0
-192 237 281 0
-39 -120 -189 0
148 -214 259 0
145 -161 -200 0
104 -110 246 0
9 -33 -132 0
72 169 -188 0
-83 178 -190 0
-56 -261 -286 0
-65 96 -164 0
86 238 -293 0
67 -98 209 0
124 172 -279 0
-21 -52 220 0
50 148 225 0
48 162 272 0
-37 91 295 0
-140 -162 174 0
-57 -162 -257 0
-3 -30 268 0
-34 185 -269 0
-35 -213 -248 0
23 166 -290 0
-147 182 -297 0
-76 -111 215 0
110 -135 216 0
-40 60 -93 0
51 118 292 0
35 -86 137 0
42 -153 -289 0
-147 233 267 0
-198 -228 -234 0
99 -140 183 0
-99 -250 284 0
-113 189 -253 0
13 78 -282 0
204 -240 268 0
-33 78 97 0
-60 87 242 0
-75 -108 -262 0
11 -170 -195 0
-70 81 219 0
-50 -122 -134 0
96 -100 162 0
-145 233 -234 0
-149 223 -249 0
14 -66 -205 0
67 -168 -216 0
108 -247 280 0
74 -103 179 0
-70 138 216 0
6 -54 60 0
-67 107 153 0
-81 190 -289 0
148 -210 297 0
200 241 -269 0
139 251 290 0
34 -122 176 0
-209 228 -244 0
67 228 251 0
-50 -115 -202 0
-30 51 190 0
-173 244 254 0
-80 -179 -215 0
-201 214 261 0
52 -105 -230 0
26 -235 -263 0
-102 194 271 0
71 198 -270 0
27 -150 -254 0
-153 223 270 0
-13 90 122 0
-33 -247 -267 0
28 109 299 0
21 125 165 0
66 -176 -299 0
-28 -145 250 0
138 189 254 0
91 176 261 0
-22 -42 -78 0
-72 94 -280 0
-100 131 166 0
6 -60 206 0
34 -97 99 0
-144 -162 207 0
193 -222 260 0
66 -194 -255 0
73 222 -231 0
-34 41 188 0
-52 187 -191 0
-129 132 136 0
109 -260 296 0
74 -135 298 0
34 67 146 0
29 106 201 0
-80 -168 193 0
-25 78 -134 0
-25 275 -297 0
91 134 -218 0
197 241 -248 0
-19 -94 -205 0
93 177 -276 0
3 80 136 0
-160 250 -258 0
-81 166 -291 0
95 -259 -289 0
67 -84 291 0
-35 188 289 0
-168 172 213 0
-30 93 -172 0
-74 183 -286 0
51 70 115 0
-1 170 282 0
23 120 146 0
-27 79 -242 0
-214 277 286 0
132 -159 -272 0
-52 -174 232 0
7 -27 -227 0
103 -181 -185 0
87 141 -174 0
-52 -111 -232 0
-228 -247 -295 0
-10 157 -186 0
-26 64 -201 0
156 231 235 0
139 145 184 0
2 59 -177 0
113 -202 298 0
24 94 -256 0
33 134 -138 0
-140 -226 299 0
-67 228 -262 0
28 -165 -259 0
-213 -243 257 0
20 -226 -269 0
66 -286 -299 0
24 183 298 0
142 181 -292 0
31 92 -282 0
-35 204 253 0
-35 -50 101 0
-45 -83 212 0
8 56 -76 0
151 175 257 0
-5 198 -241 0
14 43 95 0
5 -71 259 0
-52 89 -168 0
41 -149 276 0
41 -154 176 0
-44 58 278 0
-40 195 265 0
113 -139 -202 0
-63 -145 -230 0
95 114 218 0
14 96 109 0
29 -158 -283 0
-122 -126 -135 0
187 192 248 0
136 224 -296 0
-185 -230 -288 0
-33 -79 157 0
30 62 221 0
-126 -255 283 0
26 96 166 0
-223 260 275 0
2 191 -222 0
-5 -16 141 0
-57 65 109 0
51 -205 282 0
73 110 -179 0
31 -49 256 0
-85 129 -286 0
84 -132 -268 0
2 81 171 0
-1 -158 -292 0
173 -192 -225 0
-71 -141 -237 0
39 166 -267 0
-26 -120 167 0
-26 49 -74 0
-51 116 179 0
-51 -113 222 0
51 246 281 0
-48 101 -111 0
-106 -220 232 0
33 -192 -245 0
-69 -195 291 0
-65 -66 -156 0
24 153 238 0
-19 181 -195 0
-74 118 -223 0
12 57 259 0
-9 56 -97 0
-131 -202 240 0
-231 233 -281 0
216 -244 -300 0
161 238 242 0
-77 -80 135 0
-3 -4 175 0
20 -174 287 0
76 -88 -160 0
-33 -111 163 0
1 -128 146 0
-133 203 -253 0
-101 -174 -204 0
63 -133 292 0
-35 -133 -166 0
-136 230 -270 0
-89 -193 201 0
14 -106 170 0
13 248 288 0
244 262 291 0
-92 208 283 0
-75 -148 -192 0
92 -219 -269 0
-168 174 253 0
-97 155 -218 0
62 110 -274 0
-4 -231 265 0
143 -216 272 0
-66 73 80 0
-109 144 -247 0
147 -214 -273 0
-1 -47 -153 0
-25 123 -298 0
-38 -111 -140 0
40 -148 -189 0
-38 -124 -233 0
-126 -237 288 0
-62 -79 215 0
-27 199 273 0
-2 51 -73 0
-67 90 293 0
-36 -49 -207 0
-22 -134 174 0
168 -226 -257 0
101 218 -269 0
-141 144 -255 0
58 -107 -176 0
19 -105 284 0
-85 -110 153 0
65 279 -289 0
123 146 -151 0
177 286 -294 0
-141 -205 214 0
60 209 260 0
124 -281 -294 0
-44 54 -92 0
21 92 -172 0
84 135 -165 0
-237 -294 -295 0
-9 27 -102 0
-11 -92 273 0
-191 -256 -257 0
38 132 -267 0
-127 144 293 0
83 -125 193 0
90 136 259 0
88 -130 266 0
46 158 -176 0
-86 100 -104 0
-76 -96 -291 0
-51 -135 252 0
157 250 292 0
-118 121 -126 0
159 168 -233 0
-40 48 -134 0
199 -205 239 0
-97 -124 -204 0
32 203 -262 0
-21 64 -188 0
-75 -160 258 0
146 -150 238 0
27 128 225 0
91 114 -160 0
-27 70 -144 0
210 -266 -299 0
114 -157 -250 0
4 -14 85 0
-29 110 125 0
68 117 201 0
41 -230 233 0
28 56 -300 0
-113 236 269 0
-218 231 290 0
-58 83 -110 0
99 162 230 0
58 -81 -274 0
58 75 83 0
48 169 -180 0
-86 -183 189 0
-28 -235 -271 0
55 217 292 0
-153 -163 258 0
-37 211 -239 0
-130 221 247 0
34 -153 278 0
8 68 136 0
1 218 -246 0
28 71 -220 0
33 254 259 0
-8 -133 259 0
38 69 198 0
123 243 -250 0
189 216 231 0
-39 -104 119 0
34 241 -264 0
18 69 -235 0
-53 66 181 0
13 -148 164 0
-34 60 -287 0
-189 199 -258 0
-89 126 241 0
-117 -143 -286 0
-127 -237 271 0
120 163 -296 0
15 95 117 0
-11 216 282 0
33 36 242 0
177 251 261 0
15 208 -259 0
111 -161 242 0
-64 232 288 0
-47 -53 274 0
124 -157 225 0
-2 -14 24 0
116 -239 279 0
-16 105 122 0
-27 -194 -232 0
-75 101 -224 0
96 -239 -257 0
-147 -160 278 0
-21 63 -215 0
62 -88 -175 0
126 -153 169 0
79 -178 -215 0
-164 261 -266 0
127 -144 -299 0
72 -134 -218 0
-17 28 -37 0
-106 182 202 0
30 -61 90 0
-74 229 242 0
163 165 276 0
-115 -215 239 0
-144 159 270 0
20 -237 286 0
-44 -136 -298 0
-18 51 164 0
163 204 -279 0
-21 22 -86 0
-32 96 104 0
25 -241 -289 0
-20 -122 227 0
-5 -79 -241 0
42 74 -197 0
58 141 -239 0
-90 -203 252 0
-59 95 -212 0
-34 125 -238 0
-4 193 282 0
36 -125 204 0
4 139 -156 0
-99 137 -299 0
-143 -189 -206 0
-17 72 235 0
57 161 -281 0
-31 -95 265 0
-55 -202 262 0
-29 -116 -264 0
18 104 147 0
-25 164 -238 0
148 -173 -204 0
-139 -182 197 0
52 -114 -147 0
-14 -167 285 0
51 208 -247 0
-106 -205 -212 0
-49 87 252 0
108 144 230 0
-114 192 -195 0
-46 90 -241 0
184 199 -251 0
-71 175 -291 0
156 -272 274 0
-66 -160 191 0
-68 -89 234 0
51 -172 -255 0
143 156 169 0
217 -279 298 0
-19 102 111 0
54 119 192 0
-86 127 257 0
-38 -50 114 0
-21 278 283 0
78 -86 164 0
58 -67 -114 0
-8 50 -213 0
160 -208 289 0
-111 -191 223 0
-71 -128 132 0
157 182 232 0
-57 -103 -249 0
11 -149 283 0
-136 225 229 0
-52 90 97 0
7 -251 273 0
181 186 296 0
134 -140 170 0
95 151 -264 0
80 -95 -212 0
-77 -166 170 0
-45 125 151 0
-104 186 -281 0
27 -156 232 0
147 -217 -278 0
-162 229 251 0
31 -155 -283 0
38 -52 166 0
15 -116 249 0
-92 -220 270 0
-187 289 -296 0
-54 -222 247 0
13 181 -289 0
129 -165 203 0
-39 -210 216 0
-98 -217 -223 0
16 -93 -198 0
-54 -73 -248 0
-87 112 264 0
-92 105 241 0
-119 192 288 0
-58 253 255 0
-81 88 168 0
45 134 203 0
2 -79 165 0
125 200 214 0
-77 -186 -223 0
74 -129 -269 0
-153 187 -279 0
182 -188 -209 0
-102 281 -293 0
-82 -140 174 0
-5 111 157 0
-4 -143 -204 0
-22 195 244 0
54 67 -145 0
47 -189 -251 0
42 47 143 0
-251 -292 -297 0
-95 -162 -256 0
58 62 -287 0
37 103 187 0
26 135 -283 0
-67 197 232 0
51 173 -197 0
-44 -123 173 0
63 -176 -272 0
97 -199 -278 0
-179 -270 -287 0
-136 155 -182 0
-39 -89 -185 0
-127 -155 182 0
-88 -104 -258 0
-110 -199 -217 0
101 159 -249 0
198 220 281 0
57 203 226 0
-181 -218 231 0
73 162 219 0
-5 274 -297 0
-142 -190 289 0
-91 -148 -297 0
122 244 -287 0
169 -257 -274 0
86 -216 -259 0
-64 -67 -297 0
-37 -246 272 0
19 -47 -111 0
78 -166 -296 0
-59 104 -228 0
-59 93 171 0
90 177 -215 0
23 -57 73 0
163 221 225 0
-52 64 196 0
197 -240 260 0
-201 238 -252 0
-224 242 264 0
11 23 -150 0
-10 -135 159 0
150 220 -242 0
49 -246 253 0
-106 169 -219 0
-197 -281 286 0
-65 -98 -279 0
-23 -166 -258 0
-21 37 -157 0
31 -128 211 0
-19 -37 -49 0
-3 -60 -89 0
-68 179 292 0
-203 245 269 0
77 248 292 0
-2 12 33 0
-130 -143 175 0
103 165 225 0
88 -128 -222 0
19 -47 297 0
-24 -68 -103 0
46 -82 -84 0
82 127 -235 0
47 -174 -219 0
4 40 167 0
81 -172 -287 0
-134 210 211 0
-63 -82 204 0
-2 -15 228 0
-60 -121 292 0
-16 -146 295 0
37 -63 -287 0
152 209 286 0
39 79 184 0
172 -211 -250 0
-156 197 -226 0
-68 -85 -142 0
-30 202 -261 0
27 51 -201 0
-30 51 281 0
-70 -155 -239 0
-35 -137 -278 0
-59 -94 130 0
94 -185 201 0
-13 -147 195 0
123 230 -244 0
-38 -43 237 0
-108 144 271 0
-87 98 274 0
-67 -69 -216 0
28 -58 123 0
76 87 178 0
9 144 246 0
-222 -279 -290 0
22 75 80 0
-42 -75 175 0
126 -279 285 0
-131 -139 226 0
-22 -164 287 0
-35 -68 -242 0
19 118 -155 0
-100 -113 222 0
54 -185 -281 0
145 -202 243 0
53 -138 272 0
156 -185 186 0
121 193 -266 0
40 -72 -234 0
62 -80 -192 0
109 123 -175 0
23 74 -225 0
-84 -99 -268 0
37 41 -154 0
-33 124 -126 0
1 -215 -231 0
10 -157 191 0
83 -116 198 0
-143 190 -237 0
-120 129 -165 0
-50 -52 -267 0
-49 -167 290 0
166 -186 267 0
17 -58 149 0
-56 156 -279 0
83 105 -172 0
3 -152 -159 0
-17 -35 172 0
154 -175 -293 0
3 117 268 0
156 250 260 0
-4 -97 -107 0
49 -75 -289 0
25 155 -266 0
169 206 -242 0
-46 222 -243 0
-73 84 232 0
-216 238 257 0
-13 -166 296 0
37 -233 -274 0
87 241 -283 0
55 220 -284 0
70 85 124 0
168 214 -252 0
74 130 -277 0
2 -239 -269 0
57 -179 -230 0
7 -24 117 0
197 -273 -298 0
10 64 -137 0
189 201 -228 0
23 -257 -267 0
-61 171 -267 0
104 217 289 0
-58 -143 198 0
-211 250 257 0
-10 200 -235 0
-33 236 -279 0
-6 37 -61 0
45 -199 -266 0
-139 156 -226 0
-181 202 -259 0
-10 51 168 0
-173 -197 275 0
22 -290 -293 0
-60 -147 254 0
-76 -84 155 0
-3 -138 175 0
37 -222 -277 0
132 165 -173 0
136 180 -277 0
-148 163 261 0
8 -77 -264 0
-39 80 -159 0
106 252 263 0
-27 -48 74 0
-119 -214 220 0
177 -206 -259 0
-168 194 -249 0
5 52 -80 0
32 106 -267 0
167 210 254 0
-72 -213 -277 0
42 92 -141 0
5 -95 244 0
-37 140 -154 0
142 -160 -252 0
13 63 -169 0
58 -189 -258 0
4 -85 -88 0
-20 -209 246 0
-67 200 -247 0
93 -169 252 0
-205 254 273 0
171 -245 274 0
-102 -126 -147 0
-56 168 -194 0
-128 -156 175 0
-74 -79 -231 0
53 -195 235 0
35 126 -177 0
-11 228 -236 0
-206 -284 300 0
71 84 286 0
154 160 187 0
127 252 291 0
78 -135 233 0
99 -252 -297 0
160 -208 -214 0
-8 -28 181 0
-66 78 261 0
-140 -245 -268 0
-106 234 -244 0
-19 44 -267 0
-12 79 254 0
-24 -100 -102 0
79 -136 -194 0
-25 -39 -146 0
191 268 298 0
78 -142 -280 0
19 33 -78 0
7 -228 259 0
-13 118 -171 0
151 -177 -219 0
87 159 -223 0
40 72 -229 0
60 -162 -194 0
-89 -139 -147 0
71 218 269 0
-76 -102 -200 0
148 -208 -264 0
-55 -195 -265 0
-1 -202 -275 0
-139 153 297 0
-115 -200 213 0
-27 48 -271 0
-127 -226 -282 0
121 134 -243 0
35 211 294 0
20 -112 -267 0
-52 175 286 0
152 155 166 0
-107 -164 -208 0
-104 118 197 0
32 176 192 0
-99 239 275 0
-139 -229 231 0
32 153 -173 0
34 -84 -145 0
17 34 188 0
-4 -35 -62 0
43 51 -198 0
63 204 272 0
-48 172 238 0
151 240 250 0
111 -245 -271 0
-71 -78 -276 0
5 -278 280 0
156 -202 -231 0
171 218 241 0
-124 210 -223 0
21 22 83 0
168 -215 -264 0
-106 -185 189 0
29 -141 -287 0
134 148 -298 0
-58 84 -286 0
-97 156 183 0
-7 49 212 0
-78 -111 -211 0
-55 164 298 0
2 52 -121 0
-84 -94 -131 0
-54 -224 -239 0
-26 -57 -227 0
16 -132 209 0
-132 210 252 0
-46 142 194 0
134 -190 -285 0
-61 -64 -281 0
74 -166 210 0
-120 156 195 0
-1 128 157 0
28 -156 187 0
-44 -65 -278 0
-95 -107 -213 0
39 -187 -278 0
-12 99 245 0
4 -135 276 0
-238 255 -282 0
-66 -117 292 0
127 -263 277 0
94 -125 176 0
-194 -219 231 0
-85 153 -283 0
-72 73 -97 0
-16 -57 -122 0
4 -72 217 0
-64 100 204 0
98 220 259 0
53 -144 165 0
114 143 -267 0
-38 143 -200 0
-43 -73 87 0
140 -205 -214 0
-103 146 206 0
41 87 248 0
14 246 -265 0
21 -131 -278 0
52 197 288 0
-74 218 257 0
-142 225 240 0
-114 -193 225 0
65 -138 225 0
-75 120 211 0
-16 93 240 0
-28 -42 -172 0
20 -180 296 0
-47 198 -286 0
151 -230 -254 0
51 -219 -274 0
22 -33 167 0
-51 -62 -174 0
62 158 292 0
94 134 193 0
7 -94 -183 0
-86 -145 -239 0
30 177 -209 0
-8 17 222 0
92 -268 -276 0
-30 -114 -191 0
-189 -247 -285 0
112 -185 -267 0
-11 -57 -181 0
28 -177 -195 0
129 141 274 0
-22 49 128 0
187 208 -258 0
50 69 -290 0
52 94 -127 0
-5 119 -157 0
34 100 -130 0
-81 197 -270 0
-80 148 274 0
-72 138 267 0
-14 -197 -291 0
167 260 -293 0
-193 -291 -299 0
63 -202 -238 0
-25 28 -40 0
60 170 -247 0
-71 -114 -261 0
55 -233 300 0
-31 122 -287 0
-48 147 -168 0
64 -129 182 0
15 -27 121 0
-54 -124 -154 0
-10 32 -112 0
49 87 -159 0
116 -146 154 0
19 -26 -267 0
-62 65 255 0
-90 188 -227 0
170 251 -265 0
-76 -189 -250 0
-203 -238 259 0
-10 86 -95 0
-7 137 -264 0
177 -224 225 0
36 -44 -253 0
-38 -104 222 0
-154 221 -266 0
-9 -29 209 0
32 155 -268 0
-71 128 150 0
-1 -32 244 0
25 89 147 0
64 83 184 0
-16 124 154 0
-129 207 251 0
61 -76 -90 0
79 242 247 0
-92 -142 -271 0
-62 -241 -249 0
26 -78 143 0
-105 177 -220 0
85 -88 -162 0
-147 201 252 0
-101 -180 -209 0
-71 146 171 0
57 -68 272 0
-67 -89 262 0
181 -259 -267 0
-173 -217 -295 0
72 -130 -238 0
-94 106 -280 0
-115 135 -255 0
154 -161 -234 0
-223 242 256 0
-102 -237 -257 0
-131 260 -277 0
42 -100 283 0
9 -73 -232 0
-75 -262 -299 0
76 -142 -185 0
-34 63 218 0
54 98 239 0
-12 69 74 0
-75 -226 -253 0
124 241 -282 0
32 126 -168 0
8 -141 -211 0
-27 66 180 0
57 -91 132 0
195 -246 -279 0
10 -33 -168 0
17 31 -147 0
-4 -254 -267 0
59 -207 -267 0
-123 -147 183 0
31 272 -288 0
-44 53 -184 0
46 103 252 0
114 -132 256 0
116 219 251 0
-28 -93 204 0
-32 -61 -185 0
-17 -140 -210 0
46 -130 284 0
143 274 299 0
98 124 -179 0
-222 -255 267 0
-32 -99 103 0
100 212 260 0
-17 -79 -201 0
-160 -240 247 0
-12 -65 -70 0
-8 122 299 0
-19 34 -103 0
-85 -125 225 0
131 133 134 0
-55 -231 249 0
-16 -250 -297 0
-182 214 -268 0
-31 170 -276 0
259 262 269 0
41 -114 203 0
-73 -89 215 0
-147 241 243 0
38 -86 282 0
36 100 204 0
39 68 -234 0
22 103 -249 0
-8 217 264 0
-84 110 -121 0
32 -74 -284 0
-18 58 -231 0
114 -141 -260 0
15 -144 237 0
-7 -146 -187 0
-85 104 241 0
29 -73 -74 0
-31 51 296 0
-96 276 279 0
-92 -108 -244 0
112 -269 275 0
24 195 287 0
-9 207 294 0
27 -83 180 0
31 -130 -232 0
208 259 -281 0
43 79 -207 0
1 -86 -168 0
-13 149 228 0
-1 -47 -86 0
66 90 236 0
-16 88 -256 0
16 -115 145 0
70 99 -132 0
-5 216 -300 0
-92 -239 251 0
-48 64 173 0
8 -81 179 0
101 -272 284 0
17 106 -142 0
76 92 221 0
-205 -208 -288 0
-195 -198 -244 0
-13 -227 285 0
-91 134 -190 0
11 -227 -298 0
-108 145 -234 0
-58 96 271 0
-243 271 -284 0
157 169 -214 0
27 -64 -276 0
56 108 277 0
19 25 112 0
69 131 173 0
-137 175 -263 0
21 29 196 0
-108 214 265 0
246 280 -289 0
-5 -233 -296 0
92 -124 -174 0
5 55 300 0
2 28 -45 0
113 -171 -263 0
10 -103 -298 0
45 69 127 0
23 59 -116 0
115 249 255 0
-55 -156 -237 0
-78 -105 169 0
96 -126 -284 0
-79 -127 -276 0
-52 90 208 0
61 -66 151 0
107 126 127 0
119 -156 240 0
41 104 250 0
37 151 -197 0
8 54 -103 0
-9 28 -36 0
-91 291 -300 0
50 -122 -218 0
-118 -147 -230 0
-89 142 296 0
17 -93 -284 0
-14 243 251 0
-89 189 213 0
-24 -127 -133 0
-20 -240 -265 0
131 232 -253 0
68 143 279 0
-31 240 252 0
68 221 -288 0
-30 127 216 0
184 -266 292 0
71 -252 253 0
154 184 -186 0
-86 -225 278 0
-87 140 -272 0
-27 -49 103 0
-88 128 -172 0
-65 -109 -235 0
-114 -115 -188 0
-41 -268 269 0
-150 -167 184 0
-123 -168 -210 0
-7 10 -242 0
70 101 -293 0
16 233 247 0
146 279 285 0
-32 -62 241 0
30 140 -233 0
-23 84 -91 0
-77 89 116 0
2 176 204 0
-122 183 -210 0
37 211 214 0
24 -134 167 0
67 -203 260 0
142 232 297 0
38 -88 -201 0
39 -187 -253 0
81 -141 -289 0
27 -158 -267 0
104 -224 -227 0
-70 -125 -200 0
-11 138 -151 0
-140 173 242 0
-11 60 133 0
110 129 -210 0
84 90 230 0
-138 -188 -290 0
-116 -168 -244 0
-12 20 -128 0
-156 -282 289 0
107 181 198 0
-54 220 -292 0
-152 -209 -291 0
-39 148 -291 0
-4 -31 229 0
-4 44 133 0
42 -151 -195 0
-193 -239 247 0
105 -150 171 0
9 -54 -123 0
-164 -255 -294 0
87 132 220 0
-11 188 -279 0
100 -118 197 0
-4 -22 -207 0
102 -169 -242 0
48 -130 247 0
120 215 265 0
76 -157 242 0
-201 246 291 0
-86 92 223 0
57 128 210 0
47 154 -252 0
-16 -149 266 0
17 -112 128 0
36 186 -205 0
103 206 279 0
-6 -26 219 0
-28 -51 150 0
17 157 -170 0
-211 232 276 0
-96 197 275 0
207 -240 252 0
162 -248 270 0
38 192 246 0
-13 158 236 0
-106 -145 296 0
35 236 251 0
-138 -245 260 0
-35 271 291 0
-91 -157 -162 0
-13 -131 -231 0
79 -112 170 0
-173 -220 -255 0
-53 -108 186 0
-26 -191 229 0
90 -149 296 0
76 189 -219 0
53 -58 -72 0
-182 198 242 0
-68 113 -128 0
101 148 -159 0
122 160 211 0
-176 -242 273 0
-64 -208 -230 0
-99 200 249 0
94 133 -188 0
210 253 -292 0
29 -36 124 0
-27 36 -51 0
-61 125 218 0
33 -94 185 0
-16 138 -175 0
99 -181 290 0
-5 162 -176 0
-214 229 258 0
85 -263 -298 0
-102 -174 271 0
101 -138 229 0
23 174 230 0
-181 198 275 0
-107 -166 222 0
-69 136 -263 0
152 -197 239 0
-58 -140 270 0
87 -96 119 0
-97 197 -241 0
-48 201 -256 0
97 241 247 0
141 -214 -296 0
-60 61 -214 0
47 245 -248 0
-112 -185 -247 0
-34 -67 -270 0
37 106 278 0
176 -193 266 0
-43 -188 -245 0
-90 -231 263 0
-183 -235 -236 0
-14 -93 -98 0
54 271 284 0
-129 -250 -266 0
6 34 -164 0
-231 -245 282 0
-159 -229 -273 0
-28 -69 -186 0
172 273 -282 0
163 -212 -263 0
22 94 -260 0
-21 -45 -126 0
96 -113 261 0
-15 -100 139 0
-3 -108 179 0
-106 -145 155 0
153 -173 -174 0
14 -45 94 0
140 207 -269 0
25 235 292 0
62 97 -173 0
-14 237 274 0
57 -116 -263 0
63 149 214 0
-76 199 261 0
-24 -88 -144 0
20 172 -217 0
73 239 -267 0
-9 -160 -200 0
36 62 199 0
-171 178 -227 0
-54 -237 239 0
-10 -82 294 0
-46 151 244 0
-117 140 -221 0
26 182 -293 0
-16 24 -155 0
277 -279 298 0
22 -141 -281 0
-14 -82 161 0
-106 -158 -191 0
5 131 234 0
-16 142 -262 0
166 191 -241 0
-67 -111 -281 0
257 -277 -298 0
-28 223 -281 0
-55 -114 162 0
-53 94 149 0
19 191 -282 0
-156 -157 -284 0
12 -48 -292 0
-235 253 -274 0
86 -235 252 0
50 75 152 0
-33 279 298 0
-44 139 -180 0
16 -141 280 0
-31 74 -231 0
65 80 -300 0
-181 291 294 0
19 -136 156 0
4 17 -180 0
-88 111 161 0
31 104 -200 0
9 120 267 0
-85 -203 -215 0
67 -157 212 0
26 -85 -148 0
-146 -176 243 0
-64 124 141 0
-136 197 -261 0
-188 220 223 0
66 -110 -239 0
-15 -38 -257 0
-34 37 237 0
-70 -100 206 0
4 118 -168 0
19 71 177 0
105 147 -222 0
-29 -120 130 0
140 265 281 0
-99 -213 215 0
-54 164 189 0
171 -185 230 0
169 230 294 0
93 145 -249 0
3 151 168 0
64 -244 -295 0
3 75 -119 0
-75 -120 230 0
-34 -60 -255 0
-77 256 -296 0
-137 -224 288 0
-159 162 246 0
29 -145 168 0
-144 -172 -281 0
12 213 -218 0
87 247 -292 0
61 125 139 0
-87 210 278 0
-83 141 -225 0
-31 -49 253 0
-121 -138 -183 0
26 -92 94 0
66 120 202 0
-152 -195 -278 0
11 -76 272 0
-150 -197 291 0
146 217 -283 0
-116 191 269 0
51 136 -232 0
-152 -202 282 0
43 44 -83 0
108 155 -199 0
-61 85 -123 0
-70 -85 183 0
102 -127 222 0
-114 -122 239 0
6 -111 220 0
-3 -10 41 0
54 -81 271 0
-147 149 -295 0
106 -110 176 0
-2 -85 -191 0
25 152 195 0
13 -81 -254 0
28 49 219 0
-14 66 -202 0
4 -56 -200 0
-18 -206 -241 0
154 167 -169 0
-197 259 293 0
-46 -117 -185 0
-153 -200 -249 0
-1 -128 -140 0
-2 -103 -211 0
55 -181 296 0
9 37 240 0
150 -158 -295 0
27 67 -270 0
24 71 285 0
79 -223 -236 0
-11 -132 193 0
-167 -202 248 0
-44 186 209 0
-132 -179 -238 0
98 126 -288 0
-20 -195 207 0
-29 -147 -148 0
106 -208 -218 0
-92 236 242 0
-152 -265 -296 0
-69 -104 189 0
45 -124 137 0
30 176 -259 0
-1 67 263 0
-109 -211 233 0
-48 -137 -229 0
42 160 248 0
-33 -152 -220 0
131 -151 -217 0
16 -60 241 0
25 57 -251 0
-132 215 269 0
101 192 -232 0
18 266 -287 0
54 60 177 0
33 -128 -220 0
-59 -230 -255 0
-127 -292 -294 0
-60 -63 -199 0
38 52 -240 0
-7 93 116 0
-11 130 -292 0
9 -51 -215 0
137 -148 -291 0
46 91 -187 0
191 262 271 0
-32 -141 223 0
81 -265 274 0
3 -279 294 0
-50 -114 144 0
-45 -51 105 0
103 -111 122 0
