c F2 random 3-CNF cnfgen RandomKCNF(3,300,1500,seed=9) m/n=5.0
p cnf 300 1500
137 192 238 0
174 -238 258 0
-87 195 232 0
27 57 -122 0
53 -105 150 0
-108 -137 204 0
3 -103 -211 0
-13 72 122 0
63 -102 297 0
43 69 -277 0
102 -216 276 0
48 75 297 0
-77 139 285 0
83 -122 207 0
-57 -178 300 0
102 -206 -295 0
1 58 -222 0
-46 -139 167 0
-14 -29 -265 0
128 -178 290 0
-50 -206 262 0
88 133 149 0
62 85 135 0
-32 -107 231 0
-73 -146 182 0
45 152 -285 0
-73 232 -288 0
51 -179 254 0
44 84 89 0
-91 234 243 0
135 247 -281 0
159 -269 279 0
53 -71 -115 0
28 -31 251 0
-119 191 235 0
-25 44 210 0
18 93 97 0
-182 241 281 0
44 -165 -171 0
77 198 -245 0
67 119 232 0
27 57 -62 0
13 -54 240 0
3 121 -132 0
-12 53 -130 0
113 -162 244 0
-20 -96 154 0
-16 -49 155 0
-165 -214 -252 0
-41 -107 -142 0
-226 234 -292 0
31 167 -206 0
14 -97 279 0
-44 173 -229 0
-10 -39 283 0
166 -258 264 0
106 146 274 0
22 -47 162 0
-50 -207 261 0
-183 184 -261 0
94 198 291 0
-11 -143 157 0
-74 -140 146 0
-76 92 -170 0
14 177 -297 0
69 -108 175 0
-104 264 292 0
182 -191 -255 0
98 224 238 0
-127 134 182 0
115 172 277 0
-103 174 -298 0
19 -153 203 0
-22 233 238 0
-103 268 -295 0
-17 -72 -204 0
-49 -93 -263 0
178 192 275 0
160 238 271 0
-64 -102 -238 0
-6 -92 -116 0
166 179 287 0
25 46 -108 0
181 184 -225 0
31 91 -219 0
-99 179 187 0
-142 -161 -280 0
217 224 -273 0
-115 -133 -212 0
34 209 261 0
166 -217 -254 0
41 -133 200 0
16 124 150 0
-53 -103 226 0
-38 269 -270 0
-94 -102 -157 0
-161 259 -260 0
-42 46 -209 0
-77 -84 -273 0
60 -261 -296 0
-41 292 -299 0
-4 -169 -262 0
-83 -90 -163 0
42 -146 -167 0
31 -202 -243 0
-120 -151 232 0
61 85 108 0
-5 148 -247 0
-45 82 88 0
-82 129 191 0
101 -253 -289 0
126 -207 -239 0
-11 78 -95 0
-55 -63 -256 0
69 -114 173 0
-1 -44 -56 0
113 -230 -279 0
-81 175 -299 0
-83 106 137 0
78 122 290 0
-66 -207 215 0
77 144 213 0
134 -245 272 0
145 291 297 0
-85 -246 287 0
10 85 173 0
-4 5 205 0
98 -154 156 0
48 105 263 0
20 -164 -236 0
-51 137 282 0
21 -41 187 0
122 135 291 0
3 179 219 0
-73 -235 -290 0
-101 -115 -254 0
32 242 -294 0
-58 -82 242 0
49 172 239 0
-36 132 -189 0
-110 212 -226 0
-162 203 264 0
-23 25 -36 0
-10 186 -213 0
-25 -29 131 0
14 138 -204 0
-29 54 -167 0
-41 151 265 0
81 212 -243 0
-183 204 -220 0
-9 175 248 0
-63 182 -196 0
-100 -216 248 0
-59 188 -290 0
159 -238 292 0
-166 -221 260 0
-30 -31 39 0
52 -114 297 0
30 -177 294 0
7 66 257 0
-32 114 -202 0
-28 124 139 0
144 187 -190 0
2 42 157 0
113 -160 -262 0
54 197 -234 0
8 38 278 0
-42 55 175 0
27 -83 281 0
2 136 277 0
98 122 232 0
-167 255 269 0
14 47 -146 0
162 -198 287 0
10 61 193 0
34 82 -125 0
39 99 -242 0
-156 -171 254 0
-55 170 -178 0
-67 -80 -235 0
78 -111 -299 0
11 -81 276 0
39 124 220 0
110 212 -235 0
46 76 -163 0
-224 -254 -277 0
-68 -156 285 0
75 211 270 0
13 79 237 0
139 -272 273 0
-78 121 219 0
5 -53 -257 0
17 18 -127 0
38 159 -206 0
47 -97 195 0
-64 -165 -251 0
-175 -257 282 0
-75 139 -169 0
-18 49 -141 0
9 141 -182 0
4 224 -268 0
-126 235 260 0
-127 -232 299 0
-37 -88 -173 0
-206 -208 259 0
-148 263 286 0
35 -85 -254 0
14 -97 169 0
54 156 173 0
-231 -237 277 0
-6 142 179 0
-94 -138 237 0
55 -114 -216 0
-21 -26 -164 0
33 48 -218 0
-59 156 165 0
123 -208 -215 0
35 -134 275 0
-155 189 257 0
-97 -149 223 0
-54 -82 -123 0
228 242 -293 0
78 84 -145 0
16 212 243 0
123 140 160 0
-23 157 193 0
-31 136 203 0
-79 283 286 0
122 144 -231 0
-226 253 277 0
-68 182 247 0
185 240 245 0
-40 -213 273 0
62 228 -295 0
-29 -46 -284 0
206 -245 282 0
90 -142 -300 0
-8 51 -110 0
9 250 -295 0
-82 -175 -198 0
-40 -241 -268 0
115 -178 -197 0
42 -186 -241 0
79 87 139 0
46 127 -200 0
101 170 263 0
46 -166 193 0
53 -114 -272 0
-28 -165 -299 0
-71 -279 294 0
78 177 226 0
-19 137 267 0
19 113 175 0
53 -109 119 0
60 -189 202 0
57 -187 -242 0
118 -191 245 0
-16 -138 140 0
-114 -187 297 0
111 -170 254 0
187 -253 -273 0
-34 141 -208 0
19 258 268 0
37 81 -159 0
159 233 -264 0
-98 182 246 0
17 128 -260 0
-197 -225 294 0
14 119 -143 0
70 129 279 0
-187 219 269 0
-247 -281 -298 0
-126 188 -267 0
173 -186 -204 0
98 150 -154 0
-87 -115 290 0
36 157 215 0
-59 -182 -293 0
-1 247 -285 0
226 -233 -239 0
139 -163 215 0
208 245 247 0
-117 119 -158 0
141 216 237 0
66 -159 282 0
21 -147 -272 0
85 -212 269 0
-82 168 -194 0
-11 -240 243 0
-91 127 -155 0
68 271 289 0
152 161 -192 0
-146 193 195 0
65 163 -273 0
-65 -119 -206 0
-256 282 -294 0
180 183 -189 0
-7 -215 232 0
-19 30 98 0
-38 219 -229 0
6 248 -265 0
-16 -130 -200 0
28 88 -286 0
-109 112 174 0
-36 -178 257 0
-68 -98 -254 0
-70 93 -163 0
21 208 -230 0
158 -202 238 0
-186 -287 -289 0
-207 -235 246 0
-31 181 247 0
44 68 -287 0
-133 -182 -250 0
-109 -253 -272 0
44 61 219 0
160 170 -176 0
-32 -156 229 0
-48 126 137 0
-27 30 127 0
127 -147 187 0
-106 131 263 0
76 200 292 0
-226 246 -253 0
154 -185 254 0
-112 -286 -287 0
-18 59 240 0
-102 169 -248 0
-6 27 -44 0
-52 232 266 0
154 209 251 0
-52 69 -272 0
-232 -268 -280 0
-60 149 267 0
33 -232 -290 0
197 -235 -270 0
24 -240 -261 0
-14 50 -96 0
-89 211 296 0
126 129 229 0
1 -136 158 0
11 -72 156 0
8 151 -194 0
159 -177 -239 0
-224 -273 -282 0
42 -77 -178 0
47 -220 267 0
-203 213 221 0
58 120 204 0
48 -58 -284 0
118 -148 -258 0
19 -29 -63 0
124 -237 -260 0
-35 -143 -266 0
173 -202 218 0
-85 183 -227 0
-21 128 -161 0
89 198 290 0
3 36 -149 0
14 -209 227 0
-35 -119 -215 0
199 211 -248 0
-20 48 -276 0
-113 167 -207 0
67 163 283 0
53 94 298 0
-125 145 -255 0
-31 -201 -239 0
-82 264 -294 0
120 -146 173 0
88 -191 -198 0
-12 -75 274 0
-12 -36 249 0
-83 -171 -240 0
13 -156 265 0
-37 -153 177 0
-67 147 -282 0
234 -275 -280 0
-41 112 -227 0
14 96 -199 0
-13 51 -295 0
7 48 -258 0
-21 -62 165 0
129 -146 -173 0
65 -189 -300 0
-59 154 -229 0
6 -120 284 0
-200 242 -297 0
-20 -61 285 0
179 252 -253 0
79 -88 -188 0
-63 -217 -264 0
-38 -75 143 0
42 98 -135 0
96 140 194 0
17 88 131 0
259 -286 -298 0
2 35 -292 0
28 -228 -280 0
86 163 -274 0
50 57 89 0
168 -260 -287 0
-33 -90 270 0
-44 156 276 0
-32 88 -111 0
95 -172 -211 0
95 -136 200 0
34 -142 278 0
51 -169 172 0
6 62 160 0
-67 -76 209 0
-119 135 -281 0
9 -33 53 0
184 231 -265 0
25 -71 -268 0
-96 -158 -247 0
-132 -135 280 0
14 -142 -296 0
-9 139 155 0
251 264 -267 0
-52 -167 -186 0
2 4 292 0
-137 -140 -286 0
-110 154 -193 0
97 172 217 0
-25 81 -180 0
22 -188 -212 0
-168 -216 262 0
13 52 -292 0
61 110 223 0
-120 121 -272 0
-11 -71 176 0
-95 96 -230 0
-34 137 -263 0
-79 141 284 0
-36 191 -230 0
64 120 -227 0
-23 100 -206 0
-1 76 -278 0
75 -110 235 0
76 -115 285 0
-19 189 -279 0
28 64 -65 0
126 -160 166 0
-18 23 -159 0
-197 213 274 0
6 57 94 0
79 124 -175 0
-23 130 -265 0
-29 -42 -234 0
-98 154 -188 0
-229 -271 -293 0
175 208 211 0
-68 124 -261 0
47 -174 -207 0
58 -256 -282 0
-9 -232 300 0
-130 171 233 0
-15 59 281 0
-93 119 -125 0
101 -158 -277 0
3 -89 298 0
126 188 227 0
-104 -260 -267 0
93 -187 -190 0
-193 197 -272 0
-157 172 -237 0
-79 230 263 0
-32 89 118 0
-74 132 225 0
30 151 193 0
80 165 -193 0
77 147 -291 0
-19 -33 150 0
-107 244 -267 0
5 129 199 0
40 -50 -282 0
201 212 -275 0
41 -163 -238 0
-146 -162 205 0
110 -143 204 0
20 -109 254 0
-56 117 -231 0
-100 191 -224 0
-28 -88 -251 0
42 -283 286 0
35 -246 287 0
5 13 60 0
-44 -54 -58 0
91 195 -290 0
-17 51 181 0
-84 -138 179 0
-80 -233 269 0
-117 130 -254 0
161 215 -233 0
-142 -259 -285 0
78 -92 -183 0
-48 214 -226 0
37 -49 103 0
80 -162 -256 0
38 256 -258 0
73 -243 259 0
-148 212 -255 0
-13 117 200 0
71 120 -222 0
168 178 -243 0
-102 -181 295 0
22 211 -292 0
60 -168 -258 0
-26 -27 294 0
-75 -140 -252 0
-104 -149 265 0
140 -158 -295 0
-37 -154 -215 0
125 -244 -272 0
-111 194 240 0
-66 90 -225 0
-24 -196 -267 0
-21 58 -248 0
-8 75 -292 0
36 225 -241 0
23 80 268 0
-34 -120 169 0
14 -61 -158 0
-22 -97 198 0
-85 108 144 0
-30 193 267 0
50 137 -138 0
21 -79 -107 0
89 -91 246 0
-52 76 -299 0
102 -112 231 0
40 -111 131 0
-2 69 219 0
-73 175 -185 0
128 -268 -279 0
-5 89 -175 0
-198 207 -260 0
243 -293 296 0
-84 -127 -136 0
-148 -189 -193 0
26 -157 286 0
101 -119 137 0
-117 -252 -281 0
-179 259 -267 0
-40 148 282 0
50 -259 272 0
-19 -46 145 0
4 -36 -259 0
-85 -245 -273 0
-30 88 177 0
-2 -42 237 0
261 -268 -278 0
-257 -263 295 0
-18 173 295 0
143 147 -183 0
24 -259 276 0
-16 234 -244 0
45 57 257 0
-92 -197 289 0
65 -122 -296 0
-2 -165 -239 0
-15 97 103 0
-28 88 -132 0
101 -219 229 0
-32 -111 135 0
51 -118 202 0
134 -172 -237 0
84 -209 268 0
42 119 -280 0
-12 -85 125 0
-43 -155 -177 0
7 -181 211 0
48 -59 276 0
111 173 196 0
-214 -220 -290 0
128 -134 -196 0
114 -136 -241 0
-141 -212 213 0
25 208 -223 0
-58 64 -120 0
-63 130 -247 0
-36 -222 -294 0
76 126 -239 0
31 -44 275 0
155 -190 222 0
-29 271 -296 0
-20 99 142 0
-28 -62 240 0
67 173 -178 0
133 -199 -292 0
-17 48 -215 0
-94 -254 -283 0
-143 -236 290 0
101 -105 -127 0
-102 107 240 0
-82 154 247 0
39 61 -300 0
-13 20 36 0
4 -11 148 0
67 78 235 0
-25 -100 -251 0
79 151 -247 0
-75 -156 -185 0
-28 94 -138 0
-84 119 129 0
-7 -52 -75 0
190 -210 -215 0
-68 189 260 0
-32 -253 294 0
-185 -243 266 0
67 -207 294 0
19 182 234 0
-171 -197 243 0
153 -185 -237 0
-54 230 -282 0
-68 -179 289 0
37 129 268 0
22 125 148 0
142 183 -231 0
219 -225 266 0
4 -11 161 0
78 117 235 0
-4 -84 -289 0
25 -157 299 0
-15 -97 -150 0
-38 219 267 0
-166 -201 -213 0
100 111 -218 0
103 -131 205 0
130 -163 254 0
-34 156 -178 0
-103 109 116 0
-88 161 -171 0
66 -182 -278 0
-93 -210 253 0
-23 142 201 0
69 -126 297 0
112 162 266 0
-115 131 162 0
-71 276 -286 0
63 208 249 0
-5 32 -226 0
-13 -62 -123 0
126 205 -226 0
-26 88 -171 0
-76 -132 -286 0
120 -210 275 0
-14 -38 -215 0
88 199 297 0
47 -53 73 0
85 -173 -257 0
-9 235 262 0
92 -174 190 0
157 -213 278 0
-23 119 194 0
76 232 -243 0
-24 -178 230 0
-135 -179 -290 0
-69 113 -138 0
57 -141 236 0
40 72 261 0
-85 -169 -178 0
-210 220 -228 0
15 115 188 0
21 -206 242 0
40 237 241 0
5 97 106 0
-122 176 226 0
186 212 256 0
205 -268 297 0
-72 137 -258 0
36 78 -129 0
-53 75 -276 0
-26 -262 -293 0
24 -81 150 0
62 70 161 0
-120 -205 249 0
79 -97 -126 0
-165 -212 217 0
-31 -194 221 0
-2 74 -103 0
15 244 261 0
-184 277 295 0
-6 -86 -125 0
-8 -153 281 0
71 -72 -132 0
152 170 -237 0
57 -93 -294 0
62 133 -141 0
-200 -242 -269 0
100 -161 -196 0
140 -181 220 0
-15 41 -283 0
11 21 -82 0
-6 -82 221 0
168 179 217 0
-2 -250 283 0
-91 -193 -298 0
75 -194 235 0
-12 -20 -82 0
-33 145 288 0
62 94 97 0
15 237 265 0
-60 113 -194 0
94 -186 -229 0
-71 -126 138 0
-103 248 -281 0
109 112 185 0
-209 -231 -300 0
-77 -242 -256 0
-19 55 -105 0
109 127 -254 0
-122 212 266 0
-21 -124 140 0
88 148 264 0
46 127 214 0
100 -120 171 0
100 -155 -233 0
43 -80 142 0
127 265 -285 0
63 -67 250 0
-13 -54 -126 0
131 -141 -267 0
-67 130 243 0
67 90 -267 0
201 -258 -287 0
17 69 168 0
-1 -37 -157 0
-119 203 227 0
-27 -28 -39 0
109 218 -300 0
-22 -117 -152 0
-99 -242 -275 0
3 106 -201 0
-170 -227 247 0
-121 219 -223 0
-58 -95 -209 0
105 -150 -207 0
4 80 287 0
37 -85 -171 0
-57 -226 263 0
-137 226 -289 0
24 -67 -189 0
93 -190 258 0
190 -194 -255 0
18 100 -202 0
116 -168 -267 0
-166 -268 294 0
-13 87 250 0
131 -154 -164 0
143 -199 -297 0
40 -64 142 0
127 168 -239 0
85 100 -139 0
121 -129 -238 0
83 202 -253 0
214 278 -290 0
92 212 218 0
55 71 175 0
-160 -204 249 0
12 -218 291 0
8 -185 -284 0
18 184 -221 0
60 166 201 0
104 208 -229 0
-16 91 -182 0
-119 243 288 0
-189 -210 -242 0
83 95 280 0
-123 -129 237 0
25 -134 -200 0
95 107 265 0
178 268 -287 0
76 -217 -293 0
-50 62 256 0
-209 -252 257 0
-41 -133 233 0
99 199 -296 0
-78 185 214 0
-3 82 -160 0
31 -65 246 0
10 89 -286 0
-58 177 297 0
-117 172 217 0
3 -168 277 0
-49 -79 -286 0
49 62 -141 0
-165 206 -238 0
91 114 255 0
78 141 -224 0
47 -152 216 0
143 239 -298 0
2 76 126 0
-138 171 205 0
-157 188 -292 0
161 -181 -298 0
-45 71 233 0
-20 -202 -226 0
63 102 137 0
-7 88 -158 0
44 88 185 0
34 246 253 0
190 199 229 0
7 -160 275 0
-89 138 184 0
128 166 193 0
77 139 237 0
-178 -194 233 0
-72 141 227 0
154 167 -216 0
146 -149 -154 0
157 -286 291 0
-26 -48 274 0
-34 -66 -154 0
6 45 -249 0
-88 291 297 0
38 -121 -166 0
-94 -189 292 0
135 -219 226 0
98 106 272 0
73 -229 275 0
262 277 288 0
28 -93 -251 0
-106 -221 -225 0
13 -284 294 0
-18 -91 252 0
-83 -160 -288 0
55 69 111 0
45 49 -217 0
-2 -170 -289 0
-45 -93 -289 0
-15 -21 123 0
235 288 -289 0
-84 -178 -189 0
269 -270 -281 0
173 -216 -295 0
247 -257 -284 0
-189 -260 -269 0
-19 -166 -265 0
-38 174 -249 0
177 183 -197 0
198 209 244 0
-61 -170 -176 0
-54 166 -182 0
-41 -67 -300 0
29 36 -118 0
-47 81 118 0
22 193 -223 0
60 183 -219 0
19 -32 -44 0
-83 250 297 0
27 43 -81 0
31 53 -150 0
-64 79 -224 0
49 183 -214 0
-130 259 286 0
38 264 292 0
-82 -241 -298 0
-44 126 278 0
-174 208 -230 0
-34 169 -206 0
28 180 269 0
54 -74 189 0
6 35 -281 0
37 145 -293 0
236 237 260 0
-61 -79 -177 0
-192 277 -281 0
-28 -160 -274 0
103 -263 275 0
-154 -249 -286 0
-36 175 222 0
-179 -253 278 0
-129 140 291 0
-201 -230 -267 0
-39 93 131 0
-59 176 247 0
156 -212 236 0
56 82 197 0
-37 136 -200 0
-142 204 214 0
79 -271 -296 0
102 173 286 0
-179 189 -191 0
-83 174 -223 0
-30 -127 -252 0
109 169 -179 0
-97 -181 -189 0
-19 -155 285 0
25 -128 -146 0
-119 207 -249 0
-28 -214 239 0
87 -123 157 0
-5 59 -258 0
-12 83 -209 0
-27 172 283 0
-21 88 -287 0
-133 -170 -292 0
3 137 198 0
83 87 297 0
16 24 57 0
238 -267 295 0
46 77 108 0
87 197 300 0
145 -162 207 0
-76 -86 268 0
58 -128 -134 0
67 -197 -293 0
118 141 159 0
27 40 -96 0
-52 -111 241 0
-5 -83 201 0
244 252 271 0
-145 -152 228 0
80 152 166 0
-124 171 175 0
40 68 -199 0
75 91 -115 0
-148 -257 -281 0
139 154 269 0
-48 52 -62 0
-184 -228 -282 0
-179 199 -235 0
-150 229 -262 0
-99 139 -290 0
53 97 191 0
-20 -138 262 0
73 -270 -272 0
-116 197 -222 0
168 -271 -280 0
-10 19 -298 0
30 -118 -151 0
-179 -195 -256 0
107 -174 278 0
21 -248 284 0
-136 -249 -275 0
94 -118 264 0
-12 -123 130 0
87 -94 -237 0
-50 145 -254 0
-98 -195 271 0
-227 285 290 0
184 216 270 0
161 -176 -178 0
-143 -147 198 0
148 164 190 0
8 37 157 0
35 197 -258 0
125 272 -278 0
50 143 -260 0
-3 -190 276 0
-197 -211 -243 0
72 -101 -241 0
-64 94 234 0
53 -109 126 0
24 -174 218 0
-47 69 -296 0
-2 -37 -53 0
101 204 -274 0
76 -151 165 0
3 -19 99 0
84 135 -237 0
-85 121 150 0
17 41 -42 0
52 -63 -167 0
-4 -70 -183 0
60 211 226 0
30 -36 -217 0
1 49 211 0
-76 -85 -86 0
145 207 -252 0
-122 -254 -279 0
4 -158 184 0
151 -243 -253 0
-51 177 -216 0
43 117 184 0
107 -113 -129 0
143 -170 -171 0
47 104 287 0
-69 -236 237 0
-30 61 -259 0
2 26 -116 0
-81 186 289 0
16 -222 -223 0
38 -83 268 0
-57 -81 -209 0
35 -43 -108 0
48 210 -237 0
-73 250 279 0
-100 239 -295 0
-62 -175 289 0
-33 -181 -183 0
44 59 -199 0
2 242 -297 0
-119 -172 258 0
71 204 -260 0
-79 145 160 0
14 171 -256 0
-206 -266 -293 0
-25 214 268 0
39 204 253 0
120 -271 -286 0
30 123 233 0
93 134 -210 0
-60 142 153 0
-172 -255 256 0
-55 99 219 0
127 179 264 0
54 -172 -220 0
-193 250 -300 0
15 242 284 0
26 -43 -250 0
31 78 -290 0
-59 60 299 0
-19 172 -236 0
22 99 269 0
-85 205 249 0
77 -120 231 0
-81 113 133 0
87 95 -253 0
17 81 -189 0
49 -172 -255 0
-101 269 289 0
80 251 -254 0
-28 30 264 0
-50 200 -259 0
-66 79 240 0
-107 -113 -273 0
-1 25 263 0
195 -262 282 0
-86 169 -195 0
168 -180 -248 0
-50 -132 -281 0
-3 -98 195 0
-30 -182 270 0
-186 -248 -284 0
134 -213 268 0
-8 -230 -238 0
-30 73 290 0
-203 -236 300 0
18 92 178 0
-96 108 -198 0
-56 80 203 0
80 -144 -241 0
-15 102 -292 0
-24 -29 -30 0
22 123 -232 0
42 216 -219 0
-9 -12 227 0
-14 223 -225 0
24 133 274 0
50 -77 190 0
55 -138 -189 0
39 115 -199 0
-183 -240 -246 0
-91 137 -195 0
-72 257 296 0
29 -83 -281 0
51 -54 -187 0
-76 -91 -113 0
20 87 -141 0
-47 70 201 0
85 -134 183 0
241 -274 286 0
-19 43 186 0
-36 124 -277 0
81 163 294 0
-205 241 -245 0
-40 -56 260 0
-49 77 160 0
109 123 -231 0
-153 171 229 0
95 -131 -175 0
-37 83 180 0
-108 -143 -180 0
68 104 -142 0
91 -122 -291 0
237 270 288 0
31 230 294 0
-76 91 179 0
-35 254 -261 0
52 -106 -250 0
-16 -34 281 0
-121 256 -270 0
70 -110 210 0
-18 109 222 0
-87 118 -161 0
-39 150 193 0
-49 84 100 0
201 -294 -300 0
139 -156 265 0
-7 -75 252 0
45 -219 -225 0
23 106 161 0
-150 251 293 0
-58 220 -241 0
-82 -123 -213 0
-31 -158 -196 0
92 -283 291 0
167 225 294 0
13 -124 -197 0
40 -185 206 0
64 219 238 0
11 73 179 0
18 43 -163 0
-52 101 -219 0
-118 193 299 0
84 113 -203 0
-40 -121 -200 0
127 -168 288 0
2 -20 98 0
-15 77 -279 0
-38 268 297 0
-36 -127 294 0
-113 156 195 0
-75 -107 -266 0
-7 32 50 0
-26 -118 -250 0
-159 -204 -252 0
-105 117 -288 0
-178 247 -297 0
125 -233 -264 0
4 243 283 0
-51 -137 261 0
-12 -236 -261 0
152 -234 -237 0
-20 212 -279 0
-215 253 298 0
-82 -156 -246 0
6 -19 -253 0
5 192 -297 0
-66 129 -166 0
17 -35 -223 0
-124 -219 292 0
-56 -66 -101 0
23 -182 276 0
-3 -85 -165 0
46 164 -212 0
176 212 296 0
-5 -147 265 0
-47 51 282 0
-11 79 -148 0
-2 -64 -86 0
-51 89 174 0
16 -74 -192 0
32 110 -239 0
57 -249 -253 0
80 122 -281 0
90 244 247 0
17 127 251 0
30 -43 60 0
78 -124 -231 0
-69 99 261 0
39 -78 -283 0
59 147 175 0
-99 256 -294 0
82 142 -216 0
75 89 232 0
-57 203 278 0
100 -148 290 0
-66 123 238 0
19 -172 186 0
73 80 234 0
-165 -263 290 0
17 -186 -269 0
152 -182 -193 0
93 118 281 0
186 191 -250 0
-15 131 293 0
97 -160 -208 0
46 -120 -129 0
133 135 253 0
5 -73 -220 0
-40 117 290 0
-88 175 259 0
-6 69 -217 0
45 -98 144 0
-106 129 -144 0
-15 184 -229 0
-33 -74 275 0
17 -140 -146 0
16 40 280 0
-27 48 246 0
70 82 -136 0
90 205 226 0
57 -83 -296 0
106 139 -290 0
-65 113 -141 0
14 -128 -297 0
81 109 -270 0
-43 -228 -282 0
25 91 -200 0
42 -150 276 0
177 -183 -217 0
2 -162 -286 0
46 -179 -257 0
32 -49 218 0
-51 136 173 0
-101 137 182 0
-62 167 273 0
-137 -143 -278 0
202 -217 237 0
20 77 -244 0
-69 -257 280 0
8 -15 119 0
-126 131 -159 0
-26 -149 -225 0
148 -183 264 0
23 -105 -211 0
2 141 -194 0
-133 -140 -243 0
-112 -141 -255 0
49 -103 111 0
-117 -249 -281 0
91 161 232 0
96 -136 -293 0
42 -82 -84 0
14 -24 -284 0
-15 140 155 0
78 104 -257 0
-47 113 -221 0
71 -90 -228 0
-7 -260 -282 0
-95 -247 -264 0
56 174 222 0
-13 -211 -263 0
30 58 267 0
140 -241 -286 0
71 -93 226 0
143 -271 -290 0
38 -107 111 0
38 133 176 0
3 93 165 0
-73 -125 291 0
202 -232 -248 0
40 152 -286 0
171 192 214 0
196 260 -282 0
231 -247 273 0
-62 -90 -194 0
41 -123 236 0
260 -274 291 0
75 214 -255 0
6 24 -138 0
-40 43 -247 0
-127 186 243 0
51 90 -250 0
108 167 -241 0
98 -160 219 0
79 152 249 0
89 -113 -158 0
-172 180 -267 0
13 31 42 0
94 -155 215 0
100 -202 263 0
165 197 -282 0
-18 152 -254 0
5 257 -259 0
-45 127 221 0
-34 -89 209 0
-140 189 -194 0
99 146 -288 0
79 273 282 0
160 186 -241 0
55 67 69 0
-107 -181 293 0
66 147 263 0
141 145 156 0
42 -47 -169 0
-150 -167 203 0
-110 236 247 0
43 -78 253 0
47 67 -77 0
70 154 243 0
73 198 201 0
-56 -153 -266 0
10 -72 160 0
-71 -140 -278 0
13 124 -175 0
-40 59 96 0
-4 226 274 0
222 247 -256 0
-23 120 -220 0
62 -70 -242 0
-39 -256 291 0
-11 -15 -290 0
160 -277 -295 0
96 -215 -281 0
-58 147 231 0
-22 48 101 0
126 197 -227 0
-218 287 298 0
-31 87 270 0
196 -215 -253 0
5 -53 -295 0
-55 -102 -123 0
-94 98 -292 0
-42 67 249 0
-4 53 -98 0
131 159 -211 0
67 235 -268 0
-3 -16 -147 0
5 116 247 0
31 -243 269 0
-109 251 259 0
32 175 -180 0
31 122 285 0
200 -210 -234 0
103 -172 -267 0
135 139 -203 0
-27 99 -244 0
-35 -166 193 0
-23 115 216 0
-142 -222 -270 0
-30 33 215 0
15 -19 -128 0
18 -47 225 0
-50 123 227 0
-7 110 270 0
-45 57 287 0
57 71 230 0
9 -125 132 0
6 122 -123 0
-204 212 280 0
-193 -207 -298 0
-9 57 195 0
-103 -139 215 0
-191 222 277 0
-81 -85 294 0
-10 -89 153 0
-54 171 208 0
166 -252 -259 0
-38 133 -298 0
-43 -54 -158 0
134 169 272 0
38 -251 -255 0
182 -197 244 0
-100 166 -232 0
-81 -106 -158 0
1 -186 257 0
-47 -58 275 0
-49 -127 219 0
-10 229 -230 0
31 -65 -255 0
46 -50 -242 0
100 174 -182 0
-130 -240 -260 0
152 208 -269 0
-2 187 189 0
-124 258 296 0
14 -104 -125 0
-76 148 226 0
15 39 163 0
-231 237 -299 0
35 -176 -294 0
104 130 208 0
34 86 196 0
-55 57 -150 0
14 80 285 0
-128 162 -247 0
-50 296 -299 0
-54 119 281 0
81 171 -269 0
24 -60 190 0
5 74 -122 0
-128 -215 -279 0
92 -246 -266 0
60 111 -158 0
-137 223 267 0
-110 -159 -195 0
-112 217 -222 0
47 56 -176 0
-1 -82 163 0
-160 176 273 0
22 132 -281 0
-6 8 -274 0
102 265 270 0
-51 207 -227 0
-101 -189 236 0
-1 -87 -146 0
-49 -144 -244 0
-196 -205 -296 0
-69 -110 -138 0
-41 253 285 0
-68 191 -245 0
30 83 -191 0
13 -112 -199 0
-219 -224 -233 0
-69 -223 248 0
-89 -207 -226 0
8 32 294 0
-47 -109 286 0
-154 -197 -287 0
-113 -187 -216 0
178 -190 -192 0
138 185 204 0
135 -206 -284 0
2 -65 272 0
161 -225 272 0
-62 -146 -213 0
-43 -157 297 0
-56 -194 286 0
-8 48 -75 0
-54 -123 247 0
182 -260 293 0
-20 -111 291 0
174 183 201 0
31 -49 -148 0
-167 169 -175 0
23 -76 -265 0
-175 -189 -265 0
-220 -277 -297 0
33 211 251 0
216 237 -279 0
-34 -74 138 0
10 -249 268 0
26 -59 274 0
-70 -96 -144 0
44 279 -292 0
-46 -129 264 0
25 96 135 0
5 -93 238 0
57 122 224 0
72 -93 253 0
109 183 -265 0
7 -180 -239 0
-70 137 -142 0
-16 26 188 0
77 -171 -190 0
115 -194 260 0
214 -226 235 0
-39 159 -289 0
-28 93 -158 0
22 101 -183 0
36 63 242 0
3 20 -94 0
31 -99 -201 0
-16 137 182 0
38 117 -249 0
27 37 137 0
83 150 -177 0
200 243 296 0
86 200 -209 0
-49 -68 97 0
73 87 -156 0
164 192 282 0
-109 -131 300 0
-109 194 206 0
-103 -116 148 0
44 -163 -295 0
-91 -225 258 0
196 -213 291 0
-11 -57 182 0
-18 180 -193 0
-183 -278 -285 0
-43 112 149 0
239 -287 -291 0
-30 50 237 0
-18 -107 165 0
63 -271 287 0
5 -148 263 0
-61 -77 -141 0
57 96 -161 0
101 -193 222 0
101 -159 -269 0
209 263 267 0
-35 193 243 0
-11 30 -299 0
48 -67 -180 0
155 189 233 0
-151 -174 -206 0
-156 -234 -235 0
-59 81 87 0
62 -188 300 0
-24 73 188 0
-33 -116 220 0
-47 212 233 0
3 -200 -264 0
38 -165 272 0
4 -12 -256 0
36 142 -212 0
203 -225 -293 0
116 121 -135 0
6 236 -284 0
51 -253 272 0
38 -157 300 0
-92 -229 -285 0
12 65 173 0
48 214 -287 0
-98 158 -275 0
47 148 218 0
-108 165 -260 0
-86 -92 -293 0
-88 112 200 0
141 171 204 0
46 195 244 0
-185 188 -219 0
-203 -205 -287 0
83 224 -226 0
