c F2 random 3-CNF cnfgen RandomKCNF(3,200,1000,seed=3) m/n=5.0
p cnf 200 1000
61 -140 -152 0
17 -149 -161 0
-50 -60 -142 0
39 -60 164 0
17 172 -199 0
-8 -69 -200 0
-102 148 -187 0
-10 25 -35 0
-112 -173 -200 0
-90 137 -147 0
8 -72 175 0
-55 -168 183 0
-17 124 -164 0
18 -39 -106 0
31 107 -197 0
-85 151 184 0
2 20 80 0
-75 105 157 0
81 -87 -93 0
99 -118 -134 0
163 -184 -185 0
-67 78 -134 0
-6 81 149 0
-86 -161 -163 0
-72 156 181 0
-6 -95 -174 0
82 -152 154 0
-81 -95 -195 0
7 -27 198 0
-62 69 -168 0
25 -167 -179 0
58 113 -173 0
-56 -167 190 0
9 -31 136 0
72 -88 165 0
-75 -108 -133 0
-75 -107 163 0
40 -52 -106 0
57 -144 -184 0
59 -88 140 0
9 -12 63 0
4 124 -191 0
-6 62 170 0
-33 65 -88 0
32 51 57 0
-2 -33 71 0
-64 -70 194 0
83 122 199 0
12 -13 32 0
-23 -132 183 0
-19 -81 -90 0
-49 -68 93 0
-1 33 143 0
-11 96 -118 0
-14 -96 -161 0
108 118 178 0
70 -138 178 0
-8 -34 -110 0
32 -119 177 0
82 145 -188 0
-37 61 199 0
-26 145 169 0
7 -32 -88 0
23 77 149 0
26 -142 192 0
20 -47 -62 0
-65 -95 -154 0
22 -97 129 0
-107 146 -177 0
-25 -39 -42 0
48 -151 185 0
-38 132 -150 0
-106 172 -181 0
-6 69 123 0
-62 -93 146 0
108 -123 179 0
-19 124 -185 0
59 61 -166 0
-49 62 199 0
160 -173 181 0
-12 47 81 0
-24 31 -68 0
-116 149 188 0
-85 -86 112 0
-54 -150 165 0
-31 82 -140 0
-29 113 -136 0
-95 -174 -198 0
28 -87 -194 0
16 76 184 0
95 117 168 0
-85 -166 185 0
80 118 124 0
-47 -184 194 0
69 70 99 0
70 -123 -130 0
104 -115 -139 0
29 39 70 0
-48 -49 179 0
-38 152 156 0
-46 -52 -146 0
-8 -105 -114 0
-128 -136 163 0
49 154 187 0
-45 126 135 0
-10 55 -136 0
-35 40 169 0
7 93 -159 0
-5 -87 -138 0
21 35 -178 0
-17 52 -53 0
-11 28 81 0
-42 -101 181 0
-54 -109 138 0
-118 -119 194 0
-10 -117 -185 0
-93 115 136 0
54 -67 95 0
6 -41 54 0
8 36 -163 0
16 -48 -126 0
9 82 -105 0
11 102 127 0
25 100 -122 0
30 89 -160 0
-71 77 -120 0
-8 -87 162 0
15 112 175 0
8 24 175 0
-14 49 -124 0
88 -90 -123 0
-156 162 -193 0
-30 -48 -106 0
-45 -188 190 0
93 -107 -113 0
-44 -69 89 0
40 -44 182 0
174 -178 195 0
15 -154 -165 0
-86 166 188 0
-27 -50 103 0
21 116 167 0
37 40 166 0
-54 -57 74 0
46 120 160 0
7 -26 154 0
28 103 -120 0
-172 -180 -195 0
-29 -75 200 0
-2 -30 139 0
-50 88 -89 0
18 109 -166 0
-16 -61 86 0
56 65 83 0
-119 -157 189 0
-105 -124 160 0
5 48 75 0
76 -129 133 0
-50 -54 -191 0
10 -89 120 0
-27 -77 114 0
-40 -53 -125 0
-42 -80 111 0
-8 -74 -93 0
63 77 192 0
39 136 162 0
-1 -53 -198 0
9 126 142 0
71 87 -111 0
-64 -68 -80 0
-8 12 87 0
64 -145 -195 0
35 72 142 0
5 -125 -165 0
-134 -171 194 0
19 47 -76 0
-91 -114 -199 0
73 -116 136 0
-10 106 -134 0
70 -150 157 0
-33 72 -125 0
20 -96 -172 0
50 -80 -89 0
13 70 -81 0
-82 101 157 0
65 -106 107 0
21 52 189 0
-18 -73 -178 0
69 75 119 0
37 44 -125 0
102 166 -173 0
14 -47 195 0
34 38 167 0
-28 -98 200 0
7 27 72 0
-33 76 99 0
-2 37 95 0
91 -125 -140 0
-6 -89 -190 0
79 -114 -138 0
-52 153 -194 0
43 69 82 0
15 105 155 0
-32 -41 104 0
-119 -139 149 0
-56 -152 -154 0
-82 -152 -164 0
70 74 77 0
88 -187 -188 0
-34 -69 116 0
-134 136 159 0
-107 109 141 0
55 -98 99 0
15 -127 -141 0
93 -144 -183 0
-95 -103 130 0
-38 127 150 0
17 95 158 0
-54 83 112 0
-8 -138 -188 0
-55 113 -185 0
-36 -58 122 0
31 -45 154 0
-2 90 -98 0
36 -71 -100 0
25 74 -112 0
83 191 -193 0
109 -123 -162 0
58 -83 150 0
14 133 165 0
-47 -60 -121 0
117 136 -170 0
-35 -88 -151 0
150 -185 197 0
80 -111 185 0
27 -48 117 0
48 -81 -194 0
64 99 -175 0
58 -94 -100 0
-14 68 89 0
57 78 114 0
54 -124 180 0
-45 -176 193 0
-78 114 161 0
118 126 -138 0
-108 134 -176 0
-89 -125 129 0
-30 108 -184 0
28 -90 -136 0
-39 -139 -162 0
11 89 -150 0
-74 -150 -174 0
-3 -109 -174 0
47 -95 146 0
99 -145 183 0
82 -125 -186 0
-51 105 142 0
124 156 180 0
26 -31 -142 0
-17 -71 -102 0
31 59 -67 0
-38 -96 112 0
68 147 200 0
-67 89 188 0
35 181 -193 0
30 84 86 0
69 -126 -171 0
-110 -130 -191 0
-70 76 140 0
9 44 111 0
-54 -130 187 0
-143 145 161 0
41 -56 -190 0
39 -74 190 0
23 36 67 0
-2 -22 -179 0
46 68 -180 0
107 175 179 0
-87 -133 186 0
12 -55 -100 0
-58 113 161 0
56 -59 -89 0
25 81 -102 0
7 -25 104 0
-51 -117 146 0
-110 134 151 0
116 -129 136 0
-33 113 133 0
76 94 -135 0
-18 64 123 0
6 122 -160 0
-4 -13 -89 0
-77 126 -200 0
-23 145 161 0
50 61 -175 0
136 192 197 0
78 -132 173 0
93 -128 -174 0
-101 -112 144 0
-79 -83 -124 0
-25 -53 -92 0
-52 123 193 0
-13 150 -157 0
26 -47 -82 0
-108 -111 -145 0
-11 -94 -188 0
57 70 135 0
-8 156 -197 0
-97 123 -129 0
15 102 166 0
145 176 -183 0
30 132 199 0
-33 -76 141 0
-41 -56 -177 0
114 -132 161 0
-82 88 152 0
22 -51 73 0
57 -59 -86 0
56 -139 199 0
77 130 -165 0
-19 65 -150 0
40 56 -89 0
-15 -65 -110 0
52 -116 -135 0
-23 -28 -171 0
152 -168 200 0
32 148 -156 0
44 -89 154 0
30 -82 -200 0
-6 -75 -143 0
44 124 197 0
-72 95 -123 0
-93 97 -122 0
-123 127 -145 0
19 79 184 0
-45 -169 189 0
2 -93 139 0
14 98 -157 0
90 -125 -191 0
141 167 190 0
22 -52 171 0
8 86 -170 0
10 -32 -131 0
-78 159 191 0
138 166 -180 0
-33 -90 -180 0
-35 -159 187 0
-43 -60 -195 0
-62 -134 -179 0
89 -193 -197 0
-19 -48 -99 0
56 -111 131 0
-94 154 -188 0
-136 -155 -170 0
-50 190 199 0
102 114 -125 0
-35 144 183 0
-52 61 -161 0
50 95 -169 0
78 -113 -126 0
-46 -118 -161 0
17 62 -88 0
19 89 138 0
41 84 -122 0
62 122 149 0
-37 82 -174 0
90 -97 -149 0
104 -172 -180 0
6 -166 -179 0
32 79 94 0
-12 -105 191 0
20 -112 -176 0
-48 -110 172 0
-60 154 -179 0
-91 95 178 0
1 94 -189 0
-36 -50 68 0
-66 -104 193 0
53 97 -168 0
-67 -78 92 0
89 -133 -165 0
72 155 -195 0
55 167 -168 0
68 115 151 0
-5 132 -147 0
80 92 -159 0
-45 -122 197 0
-42 151 174 0
-4 91 -145 0
-30 -111 -160 0
-78 91 -163 0
-19 -50 175 0
18 -68 -140 0
-64 -164 195 0
1 20 147 0
-28 52 168 0
-44 102 129 0
-54 83 98 0
12 -23 181 0
47 -48 114 0
125 129 169 0
-58 -125 165 0
-60 77 160 0
41 -159 161 0
28 61 -198 0
-55 143 -179 0
-23 64 113 0
104 148 -161 0
-26 33 -120 0
-30 61 140 0
8 20 -122 0
-86 -121 156 0
28 92 -152 0
10 -18 81 0
-7 73 -176 0
-13 -99 183 0
53 -91 -141 0
-140 161 -192 0
22 -66 177 0
-19 79 100 0
-57 -133 -186 0
37 40 178 0
-96 -117 -130 0
-78 -132 -144 0
-21 155 183 0
-99 -109 -157 0
-25 60 117 0
-98 150 -184 0
-6 -77 189 0
36 49 -152 0
-100 -106 134 0
-2 -40 -194 0
27 -46 63 0
-91 146 -174 0
-13 -93 -164 0
-1 53 -193 0
-2 -22 64 0
102 -123 162 0
78 -116 143 0
40 112 194 0
5 -30 -64 0
-12 115 142 0
29 -88 122 0
-44 -81 92 0
-22 46 -114 0
-24 -34 -58 0
75 -129 134 0
19 -27 -50 0
45 52 165 0
-51 88 163 0
45 103 -171 0
-13 -80 -96 0
-78 87 -138 0
-50 -181 184 0
79 -115 146 0
-30 122 -131 0
-13 39 -170 0
-1 -61 78 0
114 155 -174 0
94 -134 -153 0
-21 109 182 0
66 146 200 0
-67 -113 125 0
74 103 190 0
23 110 -170 0
-62 70 -85 0
-3 -62 -97 0
5 41 91 0
33 -56 156 0
-105 114 177 0
-84 -130 197 0
-55 -62 150 0
-119 128 -191 0
23 -90 -194 0
-81 113 137 0
66 141 -148 0
-76 114 -115 0
-14 -76 92 0
40 -88 167 0
17 96 -143 0
-73 -109 -154 0
95 -117 182 0
47 -64 -150 0
-17 -50 -73 0
56 83 -181 0
-23 -81 152 0
34 -149 179 0
34 45 -158 0
78 -125 -168 0
91 -163 -176 0
-33 74 -161 0
-93 119 154 0
-4 -110 -172 0
-75 92 -120 0
13 31 -41 0
-96 -116 136 0
97 -145 -192 0
-52 92 199 0
34 -55 -129 0
-35 77 -169 0
-97 -168 180 0
-12 24 125 0
-6 97 -191 0
13 -172 -182 0
86 -110 162 0
-4 -70 156 0
-25 144 -175 0
-20 -66 142 0
-1 -80 -83 0
-36 -153 -191 0
-64 157 186 0
91 -131 146 0
92 -146 164 0
6 -40 136 0
15 -154 -178 0
-90 154 -167 0
-20 105 191 0
52 -99 -122 0
11 -193 -200 0
-28 54 -135 0
-83 -142 -150 0
-112 132 -170 0
-67 -191 -193 0
5 19 113 0
-66 96 126 0
-123 -124 150 0
-3 -49 -62 0
-39 -149 -180 0
43 -51 68 0
-19 -47 156 0
10 -102 182 0
157 -178 180 0
-20 73 -156 0
-28 121 176 0
-11 41 56 0
8 -99 -113 0
-38 -58 -164 0
-71 -117 -188 0
14 -103 117 0
6 69 194 0
-36 68 -177 0
32 -137 167 0
-6 -130 153 0
-6 101 -131 0
-20 -116 -117 0
-56 126 136 0
22 23 -187 0
26 56 -62 0
-20 46 -73 0
11 -13 -95 0
-87 -139 159 0
-7 141 -174 0
22 45 104 0
21 70 -94 0
61 100 -151 0
-52 -194 195 0
-63 -70 177 0
46 -81 142 0
110 -172 -184 0
41 179 -193 0
11 52 -130 0
-72 79 85 0
-51 -74 -178 0
82 -140 -175 0
50 -92 166 0
-18 -77 171 0
29 -56 177 0
-8 -56 186 0
6 -39 -100 0
-45 -88 -192 0
57 -173 176 0
-45 -91 -128 0
-98 -167 191 0
-10 -97 121 0
44 115 154 0
57 -76 196 0
-48 -79 -194 0
-17 -43 -85 0
-9 -108 121 0
-10 46 -192 0
-104 163 194 0
32 -138 182 0
-101 107 165 0
-11 -154 157 0
67 126 141 0
21 -110 -138 0
-36 73 168 0
-35 64 127 0
-91 149 -177 0
25 117 -177 0
55 172 177 0
-1 -19 92 0
-39 46 -63 0
73 129 145 0
16 -180 185 0
17 127 -140 0
-26 -34 196 0
7 -12 146 0
2 -67 -174 0
30 -153 156 0
46 -103 177 0
-48 65 -190 0
-95 -122 151 0
-102 -110 -121 0
19 -95 173 0
-43 -121 -182 0
-94 127 131 0
-17 50 96 0
42 63 138 0
47 -74 151 0
29 139 172 0
-42 -45 165 0
153 183 -184 0
-62 108 -193 0
-120 -132 -184 0
-30 57 164 0
19 34 124 0
114 -122 -139 0
11 -19 112 0
46 92 -106 0
-21 92 -103 0
-86 93 128 0
-42 -48 109 0
-38 101 -168 0
77 -94 -115 0
-173 -191 -200 0
22 -88 116 0
25 -89 108 0
-55 70 -191 0
68 117 -196 0
7 -74 140 0
8 73 95 0
-8 152 192 0
85 146 164 0
-70 -83 182 0
-53 -168 -182 0
48 78 -124 0
118 -134 -168 0
27 -118 -119 0
-95 -117 -153 0
60 94 154 0
-2 122 -169 0
9 14 -62 0
-90 131 -180 0
73 97 -112 0
4 -165 -171 0
-8 -173 -184 0
-17 102 146 0
-39 -117 123 0
49 -84 142 0
64 -109 192 0
-62 -68 136 0
-2 5 62 0
11 158 -194 0
-61 112 142 0
-30 58 185 0
34 -129 145 0
60 92 108 0
-10 20 -62 0
32 -107 127 0
24 -122 143 0
83 -161 173 0
54 -75 -78 0
-83 87 130 0
40 105 -179 0
9 166 169 0
-62 182 197 0
-45 92 -162 0
-84 99 -115 0
-65 169 194 0
18 112 -192 0
86 99 127 0
-6 8 46 0
-18 -109 -149 0
81 -128 -139 0
7 43 -137 0
-46 -47 -108 0
-41 -86 193 0
126 -131 163 0
-55 -90 125 0
-25 -44 117 0
170 -182 185 0
-32 37 105 0
21 -49 -84 0
97 108 110 0
-50 103 -185 0
37 75 -146 0
7 16 46 0
66 -101 -158 0
-32 91 146 0
-103 -124 198 0
80 83 -103 0
-15 175 -198 0
-79 -96 -194 0
-20 67 124 0
-79 132 -195 0
-36 51 -165 0
-3 -177 -187 0
-71 -96 -178 0
87 105 -116 0
-48 136 198 0
-39 56 137 0
97 -126 193 0
-38 -122 -172 0
37 -41 -66 0
-30 -60 -170 0
61 122 -200 0
29 -71 -81 0
-19 -98 187 0
-38 52 -193 0
37 -85 -171 0
13 -41 -47 0
57 -58 -88 0
75 97 -110 0
-5 -10 143 0
-76 102 -113 0
-62 155 169 0
-66 -147 -182 0
-22 56 -191 0
-90 143 159 0
-15 74 -155 0
52 87 93 0
118 -147 197 0
-95 99 -119 0
6 74 146 0
50 -62 87 0
25 -136 196 0
21 117 187 0
-68 151 -199 0
-23 -91 200 0
-49 -52 -121 0
-17 38 -60 0
39 91 123 0
31 -106 160 0
-157 162 177 0
-3 -21 -187 0
-99 -158 -167 0
61 78 -92 0
-36 -146 -164 0
107 -189 -192 0
28 -49 -70 0
1 81 140 0
30 -39 100 0
66 132 -169 0
77 141 -199 0
-10 124 -173 0
29 -97 -145 0
-57 86 191 0
-25 141 -190 0
114 -168 -181 0
35 75 140 0
30 -83 -85 0
63 -107 -166 0
39 -166 196 0
-2 -114 150 0
143 -149 -167 0
22 63 167 0
43 -80 -86 0
-96 150 -159 0
167 172 -181 0
5 -7 19 0
-57 148 -156 0
-4 5 -15 0
-40 59 141 0
-35 -176 -198 0
179 183 -187 0
47 75 85 0
-34 -109 181 0
-54 109 136 0
-78 -105 -199 0
-88 -142 158 0
-18 36 -150 0
13 105 158 0
-25 -59 -78 0
51 59 -159 0
-138 165 -191 0
26 -55 136 0
2 -111 128 0
3 -36 100 0
-35 -63 124 0
53 -123 200 0
-81 111 -176 0
54 -89 100 0
-46 -118 -187 0
69 76 -80 0
105 -121 -165 0
-34 102 106 0
18 -101 -103 0
49 -74 193 0
-104 125 199 0
-57 127 -175 0
-41 -59 163 0
-73 98 -163 0
-33 145 183 0
16 -110 117 0
-26 -134 184 0
103 184 -200 0
-16 95 -145 0
-6 63 198 0
50 66 156 0
38 79 -136 0
-79 143 -181 0
-16 -91 98 0
10 -42 -118 0
54 67 144 0
-74 -135 -140 0
60 -141 -178 0
1 -40 125 0
61 141 193 0
-5 -45 -130 0
-26 -123 -162 0
78 -92 -109 0
-15 17 -121 0
77 -101 129 0
-41 -57 99 0
-60 82 -125 0
49 -87 137 0
136 -147 -159 0
-34 -53 183 0
-11 -13 -55 0
-94 138 -157 0
-4 -51 -198 0
7 -25 -38 0
-29 111 199 0
-5 -24 -88 0
30 -82 -163 0
-92 -129 132 0
-54 -146 185 0
38 -58 143 0
-108 109 -169 0
58 -86 -147 0
35 -181 187 0
55 59 158 0
6 -18 -194 0
-93 152 163 0
-101 -105 -187 0
-82 96 199 0
-29 30 -43 0
42 -73 94 0
-69 137 -147 0
-54 151 -180 0
-76 109 126 0
104 132 160 0
23 -66 77 0
3 129 -186 0
57 -83 -198 0
14 -77 107 0
24 -145 -159 0
123 -128 137 0
29 -68 197 0
15 -122 198 0
-9 -78 -97 0
-54 -111 -179 0
-86 92 181 0
-29 50 190 0
57 -86 173 0
-27 131 -171 0
11 36 90 0
-37 -47 198 0
-93 99 136 0
30 -117 192 0
135 138 -186 0
81 -98 163 0
84 145 156 0
-84 170 181 0
33 -131 -171 0
-65 81 171 0
-13 60 97 0
9 -118 -138 0
-28 -170 200 0
55 -160 181 0
-87 -90 192 0
53 81 -164 0
-12 94 139 0
-34 -54 174 0
74 -86 -122 0
28 66 -90 0
-39 90 -167 0
-14 -32 65 0
-31 -113 -174 0
-81 -177 -178 0
93 -97 -111 0
59 75 -163 0
-29 -169 -182 0
-22 32 62 0
-31 109 131 0
80 110 -130 0
-62 -80 -172 0
9 84 -196 0
-85 -86 116 0
-12 75 -140 0
84 170 -186 0
72 167 196 0
63 84 161 0
12 44 82 0
-50 -98 192 0
10 -131 -167 0
-68 -91 125 0
6 55 138 0
45 -100 191 0
43 155 -197 0
-15 49 -127 0
50 -65 -166 0
85 116 -120 0
-63 102 110 0
109 110 -151 0
-11 22 -39 0
9 -42 108 0
186 -189 -197 0
33 -170 -190 0
-33 -122 196 0
-1 73 161 0
7 79 -106 0
100 126 131 0
114 152 167 0
-67 128 144 0
-24 86 -91 0
-18 65 -93 0
-29 123 -128 0
106 158 -164 0
72 -176 -187 0
7 -92 108 0
-54 -56 76 0
-16 104 -144 0
-21 35 -70 0
123 -177 189 0
18 -24 -133 0
90 -120 176 0
-12 141 -149 0
13 -70 -108 0
7 82 198 0
56 74 121 0
-40 -111 -147 0
47 59 62 0
37 193 195 0
-42 138 182 0
-2 -25 -200 0
-66 82 -107 0
-60 64 -140 0
-4 93 -150 0
-75 150 -167 0
-66 93 -147 0
-52 57 -146 0
-81 -84 97 0
-12 -84 -140 0
76 -184 191 0
15 28 -154 0
-6 60 -118 0
-36 111 177 0
46 -56 146 0
-90 187 -195 0
8 48 -135 0
-96 -107 -137 0
85 -112 143 0
14 114 -185 0
76 104 171 0
-69 98 180 0
-47 94 143 0
55 157 186 0
14 -145 -166 0
-3 -34 -165 0
63 76 -124 0
-14 -181 -198 0
-1 137 -174 0
-15 -30 -59 0
-93 126 129 0
-72 166 193 0
-7 20 34 0
50 89 174 0
14 -36 -193 0
-47 106 -171 0
14 55 146 0
91 -160 164 0
40 -70 -135 0
23 85 -107 0
-36 -112 126 0
-2 58 -184 0
79 -91 184 0
24 91 170 0
-46 -163 185 0
8 76 141 0
-44 -54 -122 0
-19 -102 -114 0
-133 -138 172 0
85 -88 98 0
-58 -109 -112 0
-3 64 -73 0
-42 69 -98 0
-44 -50 72 0
29 -96 -129 0
57 103 132 0
-116 175 187 0
-28 48 -100 0
29 -65 -90 0
-19 -184 -189 0
1 176 -178 0
72 102 -198 0
-102 -160 -183 0
11 120 182 0
-24 -56 -177 0
