c F2 random 3-CNF cnfgen RandomKCNF(3,100,500,seed=7) m/n=5.0
p cnf 100 500
20 42 51 0
8 47 75 0
9 54 -56 0
8 16 -73 0
6 -7 -29 0
-16 19 70 0
74 -75 82 0
9 71 -92 0
-55 -69 -88 0
32 39 47 0
-39 -68 -74 0
10 -37 78 0
-20 -44 97 0
-10 -86 -98 0
-64 75 77 0
35 61 -90 0
-74 -83 -88 0
-3 -45 86 0
15 64 -79 0
-17 -32 -95 0
-11 -22 58 0
-36 -56 -71 0
11 20 30 0
-2 30 -85 0
-1 -19 -37 0
17 -66 -89 0
-14 -51 52 0
-9 25 27 0
7 44 77 0
13 47 69 0
-20 -49 -79 0
-15 -16 -61 0
11 40 -62 0
34 62 95 0
19 -47 68 0
-34 67 -90 0
-29 69 99 0
31 52 -95 0
4 -46 -94 0
-25 -34 -89 0
11 29 -47 0
-26 27 -44 0
45 83 -84 0
-26 92 -97 0
-12 -43 -82 0
11 93 96 0
-4 20 -76 0
20 45 85 0
14 -84 93 0
4 -28 33 0
-42 -76 98 0
-8 -46 95 0
20 -68 69 0
1 78 100 0
61 80 -93 0
-67 68 88 0
25 32 -36 0
4 -72 -98 0
65 -78 -79 0
62 -66 69 0
18 -54 -58 0
10 -41 86 0
28 39 -86 0
-18 19 33 0
21 51 -63 0
-44 52 -66 0
-12 41 -93 0
57 -59 -71 0
38 67 80 0
-11 14 34 0
-17 -35 -97 0
-20 -66 69 0
8 -36 89 0
3 -35 82 0
-9 29 -78 0
-2 -44 71 0
6 68 91 0
7 -24 -34 0
-27 -68 98 0
-3 35 45 0
3 -65 94 0
-14 -58 -85 0
40 65 -89 0
26 -91 -94 0
2 -7 -17 0
-8 -11 21 0
-6 38 89 0
-1 -35 -58 0
32 -42 71 0
-1 -24 46 0
36 61 65 0
-12 19 -34 0
3 39 81 0
-77 -85 -92 0
20 37 -93 0
65 90 94 0
4 -6 11 0
49 58 72 0
-1 34 63 0
-9 -68 85 0
31 34 -94 0
-10 -49 64 0
79 81 83 0
-33 43 84 0
-8 62 63 0
-38 -63 -87 0
16 -60 99 0
-3 38 -61 0
27 35 50 0
-19 -68 96 0
-66 78 -81 0
-30 63 64 0
-1 -63 -88 0
-19 -54 -94 0
-1 -16 -43 0
16 -26 -92 0
-9 48 -51 0
36 -55 97 0
7 37 -85 0
41 -56 -66 0
-4 81 98 0
-7 53 -94 0
7 63 -71 0
-37 -44 -54 0
-31 -52 -84 0
16 22 83 0
64 -65 -71 0
55 58 98 0
12 -23 44 0
34 48 -73 0
50 -53 -96 0
-8 -44 -97 0
17 65 -88 0
-32 -50 -52 0
-3 -5 -17 0
-1 -10 51 0
14 20 -29 0
11 71 100 0
-5 30 -73 0
56 68 82 0
39 -68 -75 0
1 -29 -77 0
36 -41 83 0
-4 -32 71 0
-3 25 -64 0
-30 55 -86 0
-5 -44 -90 0
1 26 -38 0
26 40 -99 0
-29 34 -98 0
-24 -29 79 0
19 51 77 0
19 54 77 0
-51 58 92 0
22 -25 43 0
-40 -86 -93 0
14 22 -57 0
11 45 -54 0
-40 46 99 0
-26 -61 91 0
-42 47 -95 0
-32 81 -99 0
5 -9 60 0
-9 -78 -96 0
-6 -43 -79 0
1 39 93 0
-14 -61 -92 0
-17 56 64 0
39 89 -95 0
41 47 -59 0
-21 32 97 0
-62 70 -71 0
10 14 34 0
-54 64 91 0
18 54 -59 0
-36 -38 -73 0
-26 34 95 0
-20 31 -32 0
9 33 51 0
5 60 -84 0
30 -48 58 0
7 16 -25 0
-23 58 66 0
-77 82 91 0
19 44 -48 0
5 77 -94 0
48 -53 87 0
-5 27 -64 0
13 51 85 0
-35 -51 -90 0
-7 -40 -54 0
3 -47 -99 0
1 -27 56 0
-12 -52 74 0
2 -7 17 0
48 74 -80 0
21 37 67 0
50 -63 97 0
6 -41 62 0
80 89 -92 0
26 61 79 0
-21 -52 67 0
20 32 93 0
-16 -42 -86 0
40 -54 -84 0
-48 58 85 0
-1 63 -80 0
-80 98 -100 0
9 -14 -52 0
12 47 57 0
11 41 -94 0
4 18 84 0
17 37 63 0
-45 79 -97 0
36 -59 -79 0
27 -34 -76 0
-5 24 -26 0
42 -49 87 0
-7 -68 99 0
-33 -69 -81 0
48 -49 -74 0
11 57 98 0
-33 -38 67 0
5 -29 -96 0
47 54 -66 0
30 79 84 0
-1 46 -73 0
-29 53 69 0
47 61 80 0
-20 32 91 0
-19 -82 -86 0
-2 -8 -83 0
1 22 32 0
24 31 52 0
2 71 -79 0
-26 67 -78 0
9 -39 81 0
-49 56 -96 0
-14 23 29 0
-16 43 -96 0
-71 -82 -87 0
11 28 -83 0
26 -31 96 0
43 -50 -77 0
61 68 -90 0
-30 74 -93 0
10 75 80 0
4 -14 15 0
4 6 90 0
-6 9 95 0
50 92 97 0
5 15 -27 0
13 17 -62 0
-41 44 -55 0
-7 -33 -37 0
37 -80 96 0
56 -67 -99 0
7 69 -91 0
1 -22 56 0
1 -45 63 0
-45 64 -76 0
-28 30 90 0
-11 82 -99 0
-13 46 -52 0
4 -48 -83 0
55 -65 70 0
17 -59 -69 0
-20 58 -67 0
-57 89 99 0
43 60 -83 0
39 91 97 0
-42 78 93 0
25 34 42 0
20 -26 -50 0
26 36 -56 0
27 50 -60 0
-29 -56 89 0
-19 33 78 0
-56 74 90 0
24 -83 -87 0
34 -41 81 0
52 -81 -92 0
-3 59 -62 0
-2 50 100 0
28 33 -70 0
13 -59 74 0
-48 -67 -82 0
-24 27 -88 0
-8 -33 -82 0
-2 -8 -10 0
14 -34 -75 0
-29 51 68 0
9 -17 100 0
-19 -46 -86 0
71 -84 -98 0
-30 -35 -91 0
24 -62 -87 0
-32 -39 -84 0
55 -80 82 0
8 -39 50 0
45 68 82 0
-10 38 84 0
-24 -30 100 0
27 52 -69 0
26 64 -89 0
15 -72 -86 0
-18 30 -61 0
-19 60 -90 0
22 70 -77 0
-60 -73 -90 0
48 54 -55 0
4 82 -83 0
-13 62 66 0
28 -54 92 0
-44 47 -85 0
-44 55 -56 0
-38 -46 -64 0
-27 45 -65 0
-25 41 92 0
-6 52 -93 0
1 14 -39 0
78 -85 99 0
81 87 90 0
59 82 86 0
5 54 -100 0
-18 -40 72 0
5 -41 54 0
64 67 -73 0
-52 74 90 0
50 -77 -88 0
-11 14 71 0
2 55 81 0
12 -16 28 0
36 -73 93 0
7 47 -100 0
-72 -81 -91 0
5 7 92 0
80 -84 -88 0
40 -77 94 0
-41 -48 74 0
15 -19 -47 0
-50 -58 -100 0
-8 36 80 0
-40 75 -77 0
49 -50 -88 0
-1 -42 -89 0
21 -76 98 0
-19 -36 74 0
-63 70 71 0
-8 -40 78 0
33 -76 -97 0
-12 69 70 0
-51 -67 -75 0
26 65 76 0
-12 -24 -90 0
52 67 100 0
-14 -48 64 0
20 -41 -77 0
3 67 78 0
63 -73 -76 0
13 -55 58 0
-24 26 44 0
-5 -7 -72 0
-9 77 82 0
33 41 -73 0
-21 24 58 0
-5 23 33 0
-7 34 66 0
19 41 -97 0
57 -76 -98 0
33 -48 -50 0
22 49 57 0
25 60 92 0
10 -48 80 0
3 -50 -81 0
30 -42 62 0
29 43 -95 0
19 -57 -71 0
20 -32 -53 0
-22 34 -43 0
15 59 62 0
37 -62 72 0
34 47 56 0
38 50 -54 0
-3 -19 82 0
-1 57 -68 0
6 -53 56 0
18 24 67 0
-11 -12 77 0
18 -27 79 0
-2 9 -89 0
-37 43 82 0
53 -62 98 0
24 47 -73 0
-1 -74 77 0
16 -46 -92 0
-8 74 -97 0
4 58 66 0
12 29 80 0
33 40 72 0
-25 90 -95 0
-31 67 -90 0
13 -23 92 0
-60 64 75 0
16 18 52 0
-60 74 86 0
-50 82 -89 0
-7 -47 100 0
-43 -56 92 0
-19 42 -67 0
-2 81 85 0
9 42 56 0
-18 51 54 0
-5 -80 83 0
13 33 -80 0
6 -31 -37 0
16 -22 83 0
60 -69 76 0
-17 -38 -66 0
-12 -32 95 0
-26 -50 -84 0
-61 62 79 0
-25 -29 43 0
-21 -31 -46 0
-28 35 37 0
-9 -21 71 0
-50 57 67 0
-20 -87 -95 0
-18 26 -87 0
35 -81 91 0
1 -53 -99 0
-20 54 -74 0
-58 -59 -89 0
-46 -51 68 0
-49 -64 96 0
-19 -39 69 0
12 -42 43 0
2 -4 -55 0
-39 -69 -100 0
46 -50 -60 0
2 9 -87 0
48 52 -65 0
-52 57 63 0
-10 41 47 0
-38 -84 89 0
38 66 -68 0
8 -24 81 0
2 -53 89 0
13 39 51 0
-23 64 99 0
16 53 78 0
4 -10 -13 0
8 -56 79 0
-31 46 92 0
13 -35 81 0
50 58 80 0
51 -75 98 0
31 32 80 0
23 -41 -76 0
-33 54 78 0
50 -87 -92 0
52 63 92 0
-22 23 46 0
-38 51 -72 0
-43 50 69 0
45 -55 71 0
37 -45 60 0
-4 36 86 0
12 -17 91 0
57 60 -72 0
-28 -46 93 0
39 61 -65 0
-17 -87 -91 0
32 52 69 0
-12 -66 87 0
73 -85 92 0
12 50 -91 0
14 -25 -85 0
-9 25 92 0
-17 -37 -92 0
52 -60 100 0
-4 -47 87 0
-85 90 -91 0
13 -46 81 0
35 78 -94 0
-6 21 -78 0
20 -49 95 0
-30 -64 -73 0
-1 15 98 0
15 -32 88 0
45 -96 -100 0
-29 79 -96 0
-44 55 57 0
55 -66 87 0
-6 72 90 0
-31 82 100 0
-22 45 46 0
18 -40 -82 0
-1 31 -91 0
18 39 -90 0
