c F2 random 3-CNF cnfgen RandomKCNF(3,350,1750,seed=2) m/n=5.0
p cnf 350 1750
-29 44 -47 0
109 129 -311 0
-202 -261 -327 0
-15 -19 -187 0
85 217 270 0
13 91 -167 0
264 -287 -346 0
-187 -269 -304 0
83 -205 -237 0
-256 -257 -264 0
-180 -286 291 0
-86 -167 -316 0
-156 -259 288 0
188 -251 263 0
31 -55 98 0
55 -268 350 0
31 108 -217 0
89 128 185 0
13 -21 -35 0
66 -81 95 0
19 -78 127 0
147 -173 -251 0
-24 -283 310 0
-48 116 243 0
-66 -230 -266 0
-74 -133 175 0
72 -286 344 0
68 -83 88 0
17 -127 261 0
42 -129 -303 0
143 217 270 0
83 197 210 0
11 52 53 0
-13 -112 -267 0
195 275 -329 0
11 -218 262 0
-49 246 340 0
-149 -188 313 0
-52 54 212 0
-31 -211 232 0
38 -302 315 0
40 -157 191 0
-60 -192 293 0
-63 177 203 0
-42 172 316 0
-13 317 -338 0
149 -184 -235 0
-245 -248 -270 0
-81 -119 -203 0
44 300 -348 0
-76 91 280 0
20 -332 -349 0
-119 -344 349 0
58 -147 269 0
-128 169 265 0
-121 207 -237 0
-16 226 -305 0
-28 -248 -262 0
-212 -242 332 0
116 -273 -319 0
-6 -161 326 0
9 -49 207 0
52 -200 286 0
71 -251 -314 0
130 -263 290 0
-2 38 -180 0
-172 -236 346 0
41 -178 -315 0
70 321 -346 0
-196 238 346 0
145 -240 286 0
-196 276 -289 0
-69 -256 333 0
-133 -156 -161 0
48 -261 266 0
-46 259 322 0
-119 235 288 0
-58 195 -346 0
-40 -172 183 0
-150 227 -255 0
-111 140 328 0
-98 122 -241 0
-70 -72 -120 0
-144 -176 -305 0
273 -319 -327 0
-90 -203 -248 0
-45 -96 245 0
15 -54 180 0
-5 224 -334 0
146 -241 -278 0
49 104 -256 0
-73 -129 216 0
97 127 -176 0
191 314 332 0
-33 221 -228 0
-60 -268 296 0
-28 -201 243 0
-262 -276 -302 0
-87 198 211 0
66 232 303 0
157 -202 235 0
113 180 343 0
-48 -219 343 0
-34 124 244 0
71 258 278 0
-4 268 280 0
1 191 252 0
56 109 -239 0
-173 319 332 0
78 -108 322 0
153 -175 221 0
154 161 -204 0
-140 -146 271 0
71 216 281 0
100 109 201 0
135 244 277 0
20 161 307 0
96 -279 -326 0
-81 107 -167 0
-18 -213 342 0
9 -140 -326 0
134 -201 276 0
-88 -230 -233 0
131 -314 -315 0
-99 -241 294 0
-88 190 310 0
-107 158 350 0
15 -102 -161 0
176 -226 -341 0
10 145 297 0
84 -193 -311 0
-43 254 331 0
117 -154 -290 0
121 209 -269 0
-71 -128 341 0
-201 -203 -234 0
111 115 124 0
-28 199 -221 0
-52 -187 262 0
114 144 -236 0
22 67 -333 0
25 -124 276 0
277 286 -329 0
-18 -72 159 0
175 -182 285 0
-179 -187 -312 0
77 261 -308 0
-5 223 325 0
-260 -277 -313 0
84 94 -123 0
93 151 345 0
113 -207 290 0
35 125 306 0
-4 41 208 0
-265 -270 271 0
-67 -80 219 0
-94 -265 -293 0
84 -254 305 0
12 -96 -129 0
227 -238 -241 0
113 -138 181 0
-13 -155 -219 0
-127 -234 239 0
-82 -274 -285 0
57 -215 259 0
-222 237 -307 0
-186 232 316 0
120 -333 -341 0
-89 -209 -256 0
-136 154 -332 0
-21 106 304 0
-6 -166 186 0
-42 -167 270 0
49 -228 309 0
72 156 -253 0
208 -245 334 0
115 -168 -314 0
-201 -291 -307 0
-44 110 -258 0
93 124 -191 0
122 137 204 0
186 208 243 0
4 249 315 0
-1 43 319 0
140 203 -316 0
-19 -60 -157 0
39 63 -237 0
33 -137 329 0
147 150 270 0
-65 -96 214 0
21 173 236 0
-180 317 326 0
-15 80 -114 0
37 -54 191 0
101 159 -217 0
38 77 -328 0
-184 -214 -347 0
33 78 321 0
-74 80 181 0
118 172 -293 0
108 -211 -333 0
-255 287 335 0
-22 65 -337 0
115 138 325 0
102 -319 339 0
-122 -258 -348 0
55 -119 161 0
10 -202 -289 0
-124 173 284 0
67 -72 86 0
-54 -154 331 0
1 57 217 0
-1 -99 223 0
-90 137 -138 0
-159 -214 -289 0
-89 -151 -202 0
-218 270 295 0
-131 212 -299 0
143 269 -328 0
-55 109 114 0
84 -200 -260 0
-48 73 264 0
22 -224 -284 0
83 120 205 0
-131 -257 283 0
-14 318 331 0
-100 -252 284 0
-95 172 240 0
-132 -189 228 0
6 165 -214 0
-69 -247 349 0
-28 89 337 0
11 -16 -188 0
-302 314 344 0
12 40 106 0
62 131 -152 0
55 -141 199 0
-84 112 -122 0
53 123 300 0
122 343 349 0
64 -103 -299 0
43 106 332 0
96 185 -252 0
2 -44 -146 0
150 -160 278 0
244 -257 -337 0
-217 305 320 0
120 310 -331 0
-42 74 311 0
-98 193 -246 0
-54 -103 -174 0
-71 -127 -302 0
1 4 -24 0
29 227 258 0
14 -17 40 0
-213 289 304 0
64 89 -103 0
138 266 -275 0
45 101 312 0
-54 -335 343 0
2 -301 330 0
60 124 143 0
142 -217 254 0
113 166 -193 0
-58 -227 249 0
-22 220 -236 0
-29 -284 330 0
-148 156 231 0
-15 61 -125 0
17 222 299 0
20 106 -131 0
-44 179 346 0
126 148 -214 0
-30 -111 -116 0
-9 20 -159 0
51 233 -237 0
75 280 316 0
-28 -172 -313 0
296 305 307 0
-73 175 300 0
-26 98 305 0
204 249 -310 0
35 84 -165 0
-130 -176 255 0
2 170 -282 0
-216 -219 -314 0
3 15 -131 0
-48 -111 -283 0
-26 57 176 0
-132 -135 -251 0
-266 -285 -302 0
41 43 -203 0
202 -248 -350 0
-137 232 -317 0
-185 273 324 0
-5 89 -347 0
-18 -218 337 0
-221 -260 -341 0
1 -136 139 0
-12 -95 102 0
173 200 348 0
53 -128 -211 0
-71 103 -141 0
37 -175 212 0
-237 -273 -328 0
-116 219 -318 0
-107 -140 326 0
-129 -136 272 0
214 294 325 0
-88 95 176 0
-39 -53 -322 0
75 97 -260 0
-246 -249 -269 0
77 -228 -234 0
-94 -119 -306 0
-69 -142 228 0
82 -190 -350 0
112 -139 278 0
39 -296 327 0
6 -103 279 0
-93 -203 -307 0
80 -299 323 0
86 94 -195 0
109 -115 176 0
50 138 223 0
100 -195 216 0
38 -71 287 0
-111 -183 244 0
-229 259 326 0
-76 270 280 0
-114 -125 210 0
-2 -159 339 0
159 170 -266 0
-19 -191 -305 0
-45 -47 256 0
-89 -128 -340 0
-165 -314 -348 0
68 216 272 0
54 109 -327 0
-39 206 -280 0
3 -67 -194 0
-77 96 309 0
58 96 108 0
-21 123 176 0
-20 171 269 0
-122 123 -282 0
156 250 267 0
-16 42 -180 0
-61 -117 197 0
37 125 238 0
-162 -225 -246 0
-68 -159 -316 0
-12 35 -49 0
12 25 -157 0
178 322 -330 0
33 63 315 0
82 -148 -303 0
-45 159 254 0
-124 130 -206 0
-42 147 176 0
-38 176 263 0
-149 186 329 0
181 -300 -344 0
76 -136 340 0
-63 -198 -206 0
131 -163 -254 0
-36 37 145 0
-62 -210 339 0
17 226 322 0
66 231 251 0
269 -323 327 0
106 -239 -273 0
40 78 -251 0
9 -140 -305 0
195 -226 -257 0
8 -113 -130 0
9 -261 312 0
-9 -233 330 0
-163 -227 -315 0
-79 -280 288 0
-140 -163 332 0
-41 -71 -350 0
-34 -254 -287 0
-62 -276 346 0
274 -310 311 0
14 -214 301 0
-147 -234 -285 0
-5 171 -208 0
-101 288 334 0
-77 -201 274 0
-202 303 -349 0
158 -213 324 0
-125 136 285 0
-14 -169 -191 0
77 -114 -298 0
-92 99 222 0
-37 -155 -223 0
-100 273 321 0
-8 100 -337 0
95 -319 -342 0
-245 -280 315 0
8 104 -243 0
-217 243 328 0
147 -201 -211 0
-101 202 -264 0
-99 268 -273 0
24 59 -302 0
49 -137 225 0
-158 249 291 0
95 -152 -230 0
273 -298 314 0
-157 -190 -213 0
-110 139 -321 0
189 -228 -321 0
-71 192 331 0
19 146 289 0
2 11 48 0
181 183 -287 0
-116 -345 349 0
29 -212 318 0
-156 207 222 0
144 -204 -254 0
-54 -106 114 0
-18 49 127 0
76 -187 325 0
127 -150 277 0
-14 130 -244 0
18 -47 -82 0
42 -72 -173 0
77 -140 276 0
-78 -181 269 0
-62 82 144 0
93 -141 -202 0
-39 154 -251 0
140 -145 -147 0
-26 242 289 0
162 -212 -307 0
-63 168 266 0
47 -280 304 0
-78 -81 209 0
171 221 -339 0
-84 -123 -212 0
-126 -329 331 0
108 -141 -269 0
126 -186 -274 0
42 188 217 0
110 -121 -269 0
-276 279 350 0
-90 -168 -286 0
183 252 -311 0
-97 177 -220 0
239 -287 -348 0
-148 173 -309 0
163 -219 349 0
5 206 -265 0
-94 -189 240 0
109 128 172 0
117 128 159 0
4 80 -235 0
186 -295 316 0
-285 292 325 0
173 201 283 0
-116 -157 -327 0
119 -192 209 0
-39 -64 -83 0
-3 86 -226 0
44 -214 219 0
46 -56 -266 0
-126 -236 -294 0
96 -112 223 0
149 -175 -207 0
75 -77 158 0
99 167 -209 0
-222 245 297 0
-26 116 -323 0
166 -186 -244 0
-296 -310 345 0
203 232 -333 0
-96 156 168 0
-61 -166 -189 0
50 -87 278 0
-145 -154 -273 0
-54 -116 321 0
-45 111 -172 0
41 132 151 0
-61 320 -333 0
-55 -328 -345 0
-36 -77 -144 0
-99 147 -241 0
-14 -36 207 0
11 -18 154 0
-111 182 -247 0
-170 -218 -346 0
10 -126 223 0
-150 -243 -330 0
60 -177 178 0
-71 -207 329 0
43 -148 282 0
26 65 324 0
-4 130 -274 0
-38 -51 133 0
59 82 -217 0
-76 -241 -294 0
-54 116 -193 0
147 239 -348 0
-51 -92 252 0
-30 42 -128 0
140 -242 318 0
125 127 273 0
-20 272 -297 0
285 290 -310 0
38 -259 -308 0
-72 112 -252 0
-46 124 -317 0
76 92 152 0
-80 235 306 0
99 -303 307 0
-79 -116 -161 0
44 -49 196 0
-167 -203 256 0
-46 183 -184 0
-253 -276 312 0
198 302 -318 0
7 99 -250 0
-187 284 -285 0
-47 68 83 0
-35 -213 -317 0
-150 -181 -319 0
39 -214 234 0
32 -259 330 0
67 99 185 0
-52 76 107 0
-257 -262 285 0
-110 -200 276 0
31 -187 -279 0
10 -41 277 0
-185 -228 -285 0
39 71 331 0
-15 -99 -222 0
15 275 322 0
10 -61 -224 0
-53 -60 -172 0
96 -135 268 0
113 -159 221 0
-29 -40 -124 0
40 -127 -139 0
-149 197 225 0
-46 89 202 0
-215 -267 297 0
41 -112 -278 0
-96 -195 -235 0
-187 302 -323 0
3 -150 259 0
-12 -27 322 0
-114 120 293 0
68 -78 -194 0
22 -296 350 0
240 256 268 0
-91 158 -196 0
-133 190 326 0
-164 178 -259 0
3 122 141 0
-56 -97 -327 0
45 49 97 0
-1 -115 160 0
-134 -159 -253 0
-61 -205 -292 0
36 246 288 0
-259 318 334 0
28 -130 -270 0
135 -220 235 0
197 222 243 0
-122 -211 217 0
-148 259 311 0
-71 -100 -300 0
176 -184 -261 0
-142 201 301 0
79 -126 315 0
-91 111 -179 0
-59 -72 112 0
-196 -237 280 0
1 -158 221 0
27 63 -260 0
70 93 212 0
-80 -258 -265 0
-68 -268 273 0
10 186 295 0
-123 -135 -294 0
-30 -48 -313 0
-40 -245 -289 0
92 281 346 0
-48 -132 -328 0
-109 -134 227 0
19 139 -202 0
-41 -203 290 0
-109 158 308 0
100 131 319 0
-19 197 -241 0
-23 -173 -209 0
58 114 -285 0
-113 -300 -311 0
-131 145 -240 0
-100 -198 321 0
115 223 -274 0
24 188 293 0
-16 328 -345 0
-57 -90 215 0
-130 233 -306 0
168 187 350 0
-113 -120 250 0
-26 216 -226 0
169 307 325 0
17 26 -246 0
-84 -181 322 0
32 -101 238 0
-232 -276 -335 0
-48 136 289 0
121 167 181 0
116 -209 -272 0
-9 -288 292 0
-20 82 285 0
-9 -93 241 0
59 148 -154 0
109 236 289 0
-59 227 267 0
-101 -145 295 0
-256 -307 322 0
13 26 146 0
183 -203 -240 0
-64 72 161 0
82 155 -160 0
31 157 194 0
141 144 -217 0
-9 58 -295 0
-312 339 -350 0
122 -163 -208 0
-163 -225 -276 0
9 61 197 0
44 -187 188 0
38 -155 -256 0
-11 22 35 0
88 185 338 0
166 -176 288 0
71 -159 -185 0
-23 31 76 0
-31 -172 273 0
-262 323 -350 0
-33 -242 -344 0
71 -231 -284 0
-112 -187 -346 0
90 219 -325 0
-57 -107 -346 0
14 45 -88 0
90 -158 -184 0
137 146 -165 0
-161 251 -285 0
99 253 -350 0
119 -147 245 0
-46 -58 270 0
-131 -177 308 0
1 67 -113 0
-188 253 -307 0
41 -57 295 0
-30 206 -233 0
-2 -165 215 0
35 -195 207 0
-94 218 -305 0
-222 -246 -302 0
154 -256 327 0
-78 -81 -335 0
-8 -59 -120 0
-8 -18 205 0
141 -258 -318 0
-49 211 -308 0
64 -257 -271 0
36 -47 -220 0
-165 254 347 0
-41 -124 256 0
-288 291 -329 0
-172 -180 350 0
-32 -76 -141 0
36 125 -132 0
89 -102 239 0
-31 133 -174 0
-53 222 -333 0
-5 264 284 0
45 -67 -77 0
-2 -80 -105 0
-205 207 268 0
59 145 -184 0
118 189 -256 0
-109 150 346 0
49 -77 131 0
35 -74 -171 0
39 71 -191 0
-98 -230 -277 0
31 73 222 0
141 -160 315 0
-241 -251 -254 0
-133 -293 -324 0
-103 307 320 0
26 -221 247 0
114 172 204 0
-83 117 253 0
118 134 -302 0
-206 210 217 0
-51 330 338 0
-76 196 -213 0
-132 240 325 0
48 124 307 0
177 200 347 0
215 313 347 0
-22 -87 -339 0
-5 -90 -145 0
-68 142 210 0
-104 -190 -274 0
271 -302 319 0
31 -259 332 0
-122 -202 315 0
-11 153 -225 0
60 -214 294 0
84 -150 -197 0
28 208 325 0
-172 211 -345 0
-89 -149 -189 0
78 -133 -339 0
-91 -137 205 0
-146 -152 295 0
-62 -276 315 0
8 29 143 0
94 178 254 0
-41 208 -262 0
-17 83 -292 0
3 325 -330 0
-16 -138 -175 0
67 72 -238 0
66 100 -270 0
-10 220 313 0
38 -131 174 0
54 145 342 0
-29 -301 -316 0
44 -75 285 0
-133 -217 311 0
-91 217 267 0
-38 -113 -253 0
17 122 213 0
-118 308 -326 0
-146 -215 265 0
-83 174 243 0
-148 -215 -284 0
-114 149 273 0
-258 260 -300 0
-17 86 291 0
-97 -107 -254 0
100 121 -304 0
-46 -48 121 0
211 253 -269 0
190 255 -288 0
-181 -204 -239 0
-94 -289 -324 0
-220 239 -242 0
11 -31 -152 0
65 274 -329 0
66 -139 315 0
191 266 270 0
-211 -225 244 0
73 -104 -152 0
-154 267 -296 0
239 -284 313 0
-40 179 -248 0
29 -192 273 0
126 -131 146 0
-94 -230 327 0
-7 26 333 0
16 -157 343 0
104 -120 247 0
-24 167 -224 0
35 -178 -201 0
-87 -91 -154 0
-38 308 -310 0
58 -206 264 0
211 -255 -285 0
139 242 256 0
-77 214 274 0
14 -51 339 0
142 -156 166 0
-32 75 181 0
106 283 -340 0
-154 158 306 0
161 311 -326 0
132 199 -230 0
-147 -164 -183 0
-186 -296 -315 0
-37 86 106 0
233 299 -345 0
189 -230 241 0
-59 -88 -167 0
16 100 -136 0
-139 -149 -268 0
-33 330 -332 0
-76 -140 348 0
73 -178 247 0
-253 -256 305 0
-157 210 -288 0
-70 -128 -149 0
-57 121 -142 0
224 -250 333 0
-49 161 -225 0
-30 61 -275 0
-63 206 257 0
232 -240 -256 0
-112 -192 253 0
-34 160 348 0
-69 311 333 0
37 -216 260 0
-38 170 241 0
57 -100 319 0
-21 82 119 0
187 214 -310 0
31 -83 -142 0
-81 -88 -334 0
187 216 290 0
-22 -306 308 0
67 -80 288 0
-71 -243 277 0
69 -101 197 0
56 -146 -328 0
-102 -194 234 0
73 151 164 0
-1 -10 151 0
40 261 293 0
61 184 -221 0
-126 149 197 0
-214 -331 -336 0
191 -193 347 0
24 -107 169 0
149 184 245 0
33 -132 343 0
117 237 -336 0
-13 311 339 0
68 91 206 0
-58 112 -192 0
-159 -297 -306 0
-205 219 307 0
114 -217 -282 0
74 -297 -319 0
-1 -76 271 0
22 -43 -166 0
-8 -116 -172 0
121 152 206 0
120 124 -273 0
182 234 277 0
55 -204 325 0
-13 210 324 0
-244 275 346 0
51 -225 -339 0
-109 317 -323 0
48 53 95 0
-201 216 234 0
-26 142 -248 0
-224 264 341 0
28 -161 -345 0
-185 200 346 0
51 91 -266 0
120 157 -215 0
-5 68 275 0
-67 80 -160 0
-8 -27 50 0
-156 174 -305 0
85 157 -258 0
70 -220 313 0
-2 -44 126 0
104 137 -139 0
41 -47 -261 0
-29 -180 -348 0
19 146 -304 0
182 -281 332 0
77 -254 -305 0
124 -306 321 0
-103 159 -283 0
85 172 273 0
-17 -308 327 0
-11 -279 309 0
-3 43 -266 0
-7 113 226 0
-75 144 300 0
67 251 325 0
198 -311 334 0
-100 -195 320 0
22 31 321 0
-13 -220 -273 0
-41 51 -280 0
129 -252 -278 0
-201 268 301 0
-161 167 339 0
25 -161 265 0
-22 86 200 0
15 118 -149 0
-198 -211 250 0
-23 -91 239 0
287 321 -337 0
-46 -139 -184 0
-230 -266 292 0
-45 -231 -233 0
156 -168 295 0
-188 -327 -333 0
142 281 305 0
-132 -216 269 0
-54 250 263 0
173 325 -343 0
62 -318 329 0
160 -166 -288 0
-36 -190 -216 0
234 -267 343 0
-83 235 284 0
-55 226 286 0
131 156 296 0
96 -133 136 0
-71 -222 -337 0
27 222 330 0
156 -208 -298 0
97 -267 -309 0
-94 151 -271 0
-25 -108 346 0
136 297 -315 0
-34 107 198 0
-198 -276 -284 0
108 203 291 0
142 -147 -218 0
173 286 317 0
24 112 -224 0
39 -149 -232 0
43 111 -274 0
-216 -256 -349 0
-102 255 291 0
119 231 -309 0
69 -173 -270 0
-210 220 292 0
-260 322 -335 0
-83 119 288 0
93 -188 -229 0
85 -240 256 0
67 -115 -305 0
-217 320 -331 0
89 -214 283 0
-38 -325 327 0
-29 135 -337 0
135 149 341 0
71 -113 324 0
-60 117 -192 0
-40 250 -253 0
-46 146 339 0
-5 -191 -335 0
-12 -155 -336 0
-37 93 200 0
-188 214 259 0
-157 301 321 0
-238 268 -328 0
41 77 184 0
-103 137 286 0
27 161 -182 0
37 -68 159 0
7 -171 192 0
-103 253 302 0
-27 244 331 0
64 101 -330 0
91 213 -223 0
-107 168 -348 0
81 -132 159 0
-23 191 219 0
45 167 -264 0
-9 -104 -231 0
-81 -335 -346 0
-34 135 -230 0
109 -144 318 0
61 -202 -257 0
13 -97 237 0
165 190 -208 0
-111 136 234 0
-4 12 49 0
20 -202 -285 0
25 179 -259 0
87 191 231 0
-24 103 -202 0
135 345 349 0
-131 -231 -318 0
93 170 -230 0
-226 -302 341 0
65 218 -285 0
14 271 334 0
-37 92 -117 0
28 150 154 0
39 -314 350 0
130 -240 -299 0
38 -235 270 0
57 -98 -283 0
7 -26 -177 0
155 219 -283 0
153 184 -248 0
240 -244 -292 0
17 -178 -245 0
46 -248 249 0
-40 -61 -102 0
-152 326 -328 0
61 -183 309 0
-33 312 343 0
8 131 212 0
-84 110 290 0
158 -189 -336 0
50 -160 272 0
-46 280 340 0
-206 226 324 0
63 -86 -157 0
199 -241 292 0
85 314 326 0
135 206 268 0
-45 -49 124 0
-161 167 345 0
-23 -121 162 0
2 -328 346 0
-72 -107 -260 0
-47 -222 -312 0
-36 123 159 0
-180 183 206 0
-30 -273 308 0
21 140 -228 0
-92 -145 -207 0
-172 200 -300 0
-28 -53 129 0
-75 273 -289 0
-42 -159 -195 0
37 78 -218 0
-180 214 253 0
-237 -258 326 0
-138 -140 -228 0
-62 -88 -137 0
46 79 120 0
-181 232 -284 0
-116 -231 -326 0
-28 -93 273 0
-208 -270 321 0
148 320 337 0
-46 -83 -115 0
-12 32 206 0
-177 -248 311 0
178 189 -247 0
166 176 217 0
127 -147 -188 0
107 226 275 0
-293 -296 -335 0
-271 306 321 0
50 -102 197 0
1 -82 281 0
9 -77 -94 0
-130 243 251 0
-122 219 -338 0
221 -249 265 0
-58 113 171 0
-125 -146 -204 0
223 -228 -320 0
228 302 342 0
166 -170 253 0
-15 100 -148 0
112 -115 116 0
128 194 -209 0
-13 -162 -310 0
27 135 216 0
157 187 -334 0
-36 -99 123 0
140 -320 321 0
-128 220 -257 0
-107 195 -339 0
78 -233 262 0
1 -172 -338 0
-4 -131 -342 0
60 -168 -344 0
59 -186 -321 0
83 -159 195 0
111 285 311 0
38 41 71 0
91 -106 198 0
-85 149 -157 0
-81 316 348 0
-5 66 74 0
-61 -235 328 0
-34 87 -266 0
-25 137 193 0
14 20 -278 0
-25 44 -288 0
-33 167 -290 0
38 -72 103 0
-71 190 321 0
-10 -79 -166 0
-8 -293 309 0
129 241 -272 0
-71 152 344 0
151 166 -238 0
178 -282 -305 0
-45 -104 -324 0
-4 72 -154 0
124 165 -212 0
-12 -236 306 0
66 74 286 0
-25 36 -257 0
1 -261 -343 0
58 -98 -222 0
179 -239 285 0
16 -192 235 0
-45 69 -245 0
16 -27 -165 0
-185 -228 321 0
-249 -294 -319 0
120 254 318 0
124 -271 322 0
173 278 296 0
241 -289 -316 0
-137 -266 324 0
-2 -176 -280 0
-112 222 292 0
-233 286 -346 0
-90 -221 227 0
39 -86 160 0
-150 -241 272 0
-40 -242 340 0
9 209 -318 0
9 -25 82 0
-182 -188 232 0
-11 60 305 0
220 -302 333 0
-198 199 317 0
-187 190 215 0
3 77 253 0
56 108 -348 0
82 -113 -180 0
-23 60 -345 0
113 132 -307 0
21 -54 -276 0
-179 295 -302 0
-57 -100 286 0
41 -54 280 0
53 181 -311 0
-34 164 225 0
123 -228 236 0
-23 253 -304 0
-61 125 -342 0
-140 142 -160 0
-124 -218 -234 0
-210 226 -291 0
214 -280 324 0
-218 271 -324 0
18 -203 -212 0
-88 -237 348 0
27 194 287 0
127 -128 -131 0
78 196 289 0
-2 -143 314 0
-191 193 -309 0
104 277 -332 0
59 -146 149 0
94 -292 -326 0
50 -112 160 0
73 252 -258 0
-169 -184 -238 0
2 33 -59 0
143 -244 250 0
143 167 -184 0
-155 222 -281 0
25 -42 -109 0
-85 258 295 0
97 -134 237 0
-20 -193 -293 0
27 -136 199 0
97 -238 252 0
-6 139 -155 0
16 234 294 0
96 -112 305 0
-114 176 240 0
188 -256 -272 0
5 173 241 0
-52 -71 -190 0
179 -227 341 0
17 223 232 0
104 193 291 0
65 152 -286 0
-116 196 349 0
-176 242 266 0
-13 -174 -217 0
-170 224 252 0
-201 232 -254 0
-10 -216 272 0
201 -249 336 0
-68 274 -311 0
51 101 165 0
116 -117 -229 0
4 -18 -126 0
122 215 239 0
-87 173 -259 0
-162 -239 -267 0
-92 -157 183 0
7 107 313 0
-109 -205 -265 0
-97 -208 -250 0
16 180 -296 0
74 -91 -260 0
-6 322 -328 0
292 -329 -346 0
71 -157 -291 0
22 32 104 0
43 -320 324 0
-130 210 -343 0
66 105 269 0
-80 -81 -138 0
-205 -271 309 0
-23 266 284 0
65 180 -330 0
-22 31 251 0
-21 251 -304 0
8 -70 -83 0
179 265 327 0
-18 -56 -113 0
36 -190 195 0
-66 77 295 0
-69 -130 -330 0
-178 -218 -272 0
62 177 305 0
66 115 285 0
-32 170 279 0
51 -53 -225 0
19 -111 -168 0
-4 263 329 0
16 99 -324 0
62 105 -284 0
-53 275 -294 0
19 -118 276 0
-95 -170 218 0
78 307 341 0
-37 140 -179 0
105 -113 -196 0
189 -216 -290 0
-61 -139 163 0
-137 -138 232 0
91 182 217 0
47 -125 165 0
-71 141 209 0
-130 149 203 0
88 235 280 0
-32 125 165 0
-44 246 275 0
-175 176 -292 0
32 34 -113 0
62 109 -168 0
-35 -170 277 0
-55 -69 -174 0
-78 -229 -252 0
-187 -232 -335 0
-272 -284 -318 0
-83 -191 -251 0
-6 72 -133 0
147 201 276 0
113 211 321 0
121 227 -345 0
-68 -165 -253 0
-127 -188 305 0
39 -249 335 0
-77 -160 -313 0
-65 -293 -305 0
27 54 302 0
31 -181 -305 0
-198 265 333 0
8 -132 -145 0
-60 -110 183 0
-128 179 226 0
-178 -248 -300 0
-211 283 313 0
-104 200 -223 0
-219 279 293 0
185 275 291 0
233 -296 334 0
115 -206 -345 0
-7 -132 133 0
171 221 -234 0
-51 -139 -330 0
55 -185 -228 0
-169 186 -252 0
-8 173 262 0
-13 -209 -226 0
-60 -93 109 0
-29 204 298 0
28 -167 324 0
62 171 -264 0
38 -172 -276 0
74 203 -329 0
166 238 322 0
-55 73 343 0
263 -327 -350 0
175 176 -196 0
-134 140 -256 0
160 -282 -291 0
62 -106 169 0
72 -136 261 0
68 -129 -261 0
-13 65 -244 0
-55 -121 162 0
-29 -31 204 0
-250 -275 323 0
-5 79 -222 0
193 -219 305 0
152 300 -334 0
-137 -179 199 0
-214 -228 343 0
-56 -141 -169 0
38 96 -185 0
-202 285 310 0
46 163 -275 0
57 -111 -315 0
177 192 -222 0
-137 -263 -336 0
-122 179 -226 0
3 50 -308 0
129 274 -336 0
54 -240 242 0
47 -201 -217 0
-75 94 -333 0
9 -19 163 0
134 220 256 0
209 248 264 0
150 162 -273 0
-37 -90 -233 0
67 -96 -170 0
-51 -94 290 0
-147 -243 298 0
9 75 -160 0
51 -55 131 0
60 326 327 0
-59 172 -204 0
58 97 135 0
-15 -63 -106 0
-21 -26 283 0
43 -95 219 0
71 259 309 0
51 70 -305 0
-75 173 286 0
190 -307 -350 0
-117 129 137 0
34 -159 223 0
33 -185 -315 0
10 -106 -209 0
159 -179 -342 0
-118 295 338 0
-48 173 -247 0
184 196 225 0
-48 191 241 0
-67 78 -263 0
85 -89 140 0
172 193 -287 0
-146 -148 264 0
-1 2 46 0
110 -240 286 0
16 196 -325 0
155 187 -195 0
-21 120 337 0
-94 -106 -313 0
-33 -47 -67 0
-4 119 -279 0
-95 -158 228 0
222 -321 339 0
-185 -187 -203 0
-57 -81 -327 0
12 -99 -342 0
-60 -180 -229 0
97 -267 -350 0
89 139 290 0
105 323 -348 0
-119 222 -314 0
134 259 327 0
-92 208 306 0
27 114 -183 0
-24 -160 211 0
-203 261 -335 0
32 56 -294 0
46 -224 229 0
136 -179 328 0
-62 85 -130 0
11 66 195 0
155 278 -341 0
-48 -52 226 0
74 -236 295 0
-30 165 314 0
131 -236 346 0
40 163 -336 0
55 118 168 0
263 -290 320 0
26 -39 260 0
-69 -128 256 0
-16 -92 -126 0
-104 174 -250 0
-180 224 -234 0
29 -71 -99 0
95 199 246 0
-25 -80 -131 0
-40 -145 283 0
-24 205 -221 0
28 -230 -299 0
-19 -132 -328 0
-105 -127 -137 0
187 263 295 0
-254 265 -280 0
188 248 252 0
98 -136 -269 0
66 -129 218 0
18 -43 -221 0
-267 294 299 0
-8 114 -162 0
210 245 -350 0
-70 -87 253 0
224 -247 257 0
24 123 -174 0
-139 -304 311 0
77 -119 260 0
-16 -55 145 0
6 27 -276 0
-44 -76 -97 0
-135 237 266 0
-108 -137 -309 0
223 -249 289 0
113 141 -257 0
-108 -197 -228 0
10 30 -98 0
-181 -213 269 0
-279 -313 -325 0
-24 -27 -59 0
23 -239 -281 0
-179 257 314 0
-47 -64 -251 0
11 -136 -197 0
-13 -61 182 0
-91 -169 -242 0
-131 -136 203 0
-80 120 -236 0
18 208 -221 0
25 -44 -130 0
-33 -119 -268 0
90 156 -206 0
-28 77 -181 0
-151 345 346 0
284 305 311 0
-3 38 -243 0
-31 -124 235 0
79 -220 -239 0
34 -113 -320 0
-207 -254 311 0
-52 -253 -298 0
12 168 -242 0
33 -230 302 0
16 -20 335 0
110 335 349 0
30 123 -129 0
79 254 268 0
-61 150 -279 0
204 -308 311 0
-152 221 262 0
71 105 -224 0
-47 -54 -331 0
77 108 -137 0
-176 -231 -296 0
-178 -234 264 0
-30 102 -131 0
16 -211 -237 0
-3 17 88 0
161 -164 -168 0
76 139 -283 0
-7 -259 -267 0
-230 330 -343 0
59 -173 303 0
-152 176 325 0
-41 -93 174 0
-14 89 242 0
-34 145 -151 0
95 98 -102 0
-141 -286 307 0
39 87 99 0
-53 180 191 0
-36 -84 224 0
63 95 126 0
28 -97 211 0
46 151 216 0
-38 134 -153 0
148 211 234 0
232 -290 -347 0
57 -96 -219 0
-3 97 159 0
-168 -206 -226 0
37 98 113 0
72 -103 167 0
59 -85 -174 0
63 130 187 0
184 283 315 0
7 -169 309 0
117 243 305 0
-165 208 -214 0
-30 -185 278 0
57 88 -147 0
61 -140 291 0
-150 271 -324 0
10 168 -348 0
19 42 -235 0
-15 -141 -310 0
105 119 180 0
42 -78 151 0
-7 48 62 0
-146 250 272 0
-121 -124 183 0
19 119 -271 0
-7 -197 -338 0
35 44 224 0
-163 243 324 0
126 -245 271 0
-71 80 245 0
6 -20 -158 0
6 -25 150 0
-39 -153 325 0
-25 -29 335 0
-130 -211 245 0
20 -196 260 0
162 -208 -264 0
199 -216 255 0
-78 163 243 0
226 231 -283 0
-102 126 -217 0
158 183 -317 0
-242 -283 292 0
-4 124 -306 0
-17 315 -335 0
152 -235 298 0
-11 77 -307 0
-101 -116 -139 0
-1 155 -313 0
-49 194 212 0
-34 -168 295 0
-4 85 311 0
203 261 -300 0
204 -316 350 0
92 -130 321 0
249 -281 -315 0
-112 -323 325 0
119 311 -342 0
-16 -18 286 0
6 168 224 0
158 -289 324 0
-129 -170 171 0
152 -311 -345 0
-73 -245 -256 0
25 -54 205 0
-15 149 -239 0
-25 268 -321 0
75 107 -197 0
-17 -157 228 0
-220 241 -243 0
-97 165 -293 0
170 175 214 0
56 -152 188 0
-30 -92 168 0
-140 -258 296 0
-78 -135 207 0
-11 92 196 0
-53 -237 324 0
-291 -327 -336 0
211 -238 -327 0
50 -289 320 0
83 -139 -349 0
10 64 347 0
-15 201 -344 0
-72 170 186 0
-14 210 267 0
115 -128 236 0
-17 -232 340 0
12 -48 -252 0
14 -245 -290 0
282 -284 291 0
-49 153 -255 0
-151 220 -264 0
-74 113 -199 0
37 44 -250 0
69 -101 206 0
76 -176 342 0
-132 201 -332 0
-15 75 -276 0
108 -296 -327 0
-40 60 252 0
99 212 -347 0
-4 -50 -161 0
105 -251 -298 0
50 140 230 0
27 68 -232 0
-95 141 -168 0
118 -204 285 0
8 -100 -275 0
-29 -147 -177 0
-132 -247 306 0
21 -84 345 0
-162 -175 -348 0
-122 156 336 0
-121 155 257 0
-52 188 259 0
-55 -244 -251 0
63 -67 -309 0
-31 -84 327 0
29 99 103 0
49 -124 -314 0
-72 113 -164 0
31 299 -323 0
-143 -180 281 0
-173 230 -307 0
135 214 255 0
123 161 -166 0
56 -114 304 0
144 215 -301 0
-41 53 146 0
-66 200 -259 0
-49 76 84 0
-100 106 -252 0
-21 134 173 0
22 -126 -325 0
-56 125 -212 0
-44 -166 -194 0
-128 -238 -274 0
-7 82 146 0
12 -217 326 0
-126 -132 301 0
15 -147 165 0
131 -230 350 0
-68 105 122 0
61 197 268 0
45 -220 326 0
135 139 287 0
46 -283 -329 0
173 259 296 0
55 136 243 0
86 249 285 0
-106 255 -321 0
10 141 298 0
237 242 272 0
-180 196 252 0
-205 264 -315 0
-21 -240 309 0
-14 -108 -265 0
46 89 209 0
76 156 -240 0
-124 -278 -341 0
78 206 -260 0
-10 -297 -341 0
57 -139 278 0
147 -172 -264 0
-66 233 305 0
26 -283 313 0
-148 -327 -333 0
-48 128 252 0
222 322 348 0
-149 291 342 0
-136 234 314 0
-43 246 -293 0
108 -130 275 0
-90 -123 -197 0
-131 161 -296 0
-154 -233 -333 0
-59 -105 205 0
61 80 86 0
-14 -111 311 0
-12 166 -330 0
-180 184 290 0
64 -271 341 0
178 -270 293 0
-113 -222 253 0
-266 313 336 0
127 223 -224 0
60 71 -129 0
-84 -252 -344 0
42 83 239 0
-1 -183 -342 0
184 195 -251 0
-116 208 -314 0
-209 -261 326 0
-39 185 -284 0
-161 -218 242 0
150 -271 -299 0
-11 -18 253 0
-302 -305 335 0
31 -238 -300 0
-183 300 331 0
-13 -309 -339 0
9 -238 254 0
-97 -102 -321 0
53 281 -341 0
317 -324 350 0
11 -285 -342 0
36 92 303 0
-137 244 -302 0
-25 29 298 0
15 32 -52 0
-27 55 99 0
-138 220 301 0
-184 231 -290 0
-24 -47 139 0
178 -200 -328 0
40 -55 -279 0
98 -102 -275 0
80 182 251 0
82 96 -262 0
-74 220 -282 0
-200 -238 286 0
-59 216 -243 0
-75 -153 167 0
-125 -234 -289 0
51 -126 232 0
122 143 -324 0
-145 217 229 0
102 189 -323 0
13 65 201 0
33 123 189 0
9 124 291 0
27 -283 292 0
133 139 190 0
2 -134 -235 0
46 -165 260 0
-17 -136 -279 0
17 138 314 0
174 281 -327 0
19 -199 -308 0
71 -95 249 0
134 146 -236 0
60 74 -322 0
19 -213 257 0
23 190 293 0
91 -202 -323 0
-113 -127 349 0
-37 -127 269 0
-193 227 347 0
-49 -190 262 0
55 -70 -158 0
112 -259 318 0
18 -31 -124 0
-18 -141 288 0
-34 -243 277 0
95 248 314 0
33 315 339 0
5 -44 220 0
69 -139 292 0
-129 303 340 0
128 147 158 0
109 299 -346 0
