c F2 random 3-CNF cnfgen RandomKCNF(3,300,1500,seed=2) m/n=5.0
p cnf 300 1500
-29 44 -47 0
19 -109 -129 0
-191 -261 279 0
-15 -187 -239 0
85 270 287 0
13 91 -167 0
-94 -264 -287 0
182 -186 -229 0
-128 -251 -272 0
-180 -233 237 0
-86 -138 -167 0
-259 -266 288 0
188 -251 263 0
31 -55 98 0
-55 70 268 0
17 -31 -217 0
13 89 128 0
-11 -13 21 0
81 -95 268 0
19 -78 127 0
147 -173 -251 0
-24 136 -283 0
48 116 -162 0
-66 -266 -300 0
-74 -133 175 0
-30 72 286 0
-50 83 88 0
120 -127 228 0
-117 -132 185 0
-19 78 197 0
45 124 263 0
54 94 -119 0
-159 233 275 0
218 223 -262 0
93 -269 -298 0
-10 -61 -266 0
10 158 -212 0
9 -102 -232 0
38 -107 238 0
40 -157 191 0
-60 -192 293 0
-63 177 203 0
42 172 201 0
-23 -241 -255 0
-73 -138 -192 0
152 203 -252 0
133 219 281 0
91 -183 280 0
-20 -45 66 0
-89 169 225 0
-50 217 -277 0
81 -87 -237 0
-75 239 -294 0
93 -202 -262 0
-130 -208 -212 0
42 -116 -273 0
-6 161 238 0
-9 111 207 0
-103 200 -286 0
-5 -71 223 0
-38 105 -240 0
-34 -249 -273 0
15 -236 258 0
70 131 -208 0
151 196 -238 0
-1 240 -286 0
-105 -227 289 0
155 -248 -276 0
-156 160 171 0
77 -201 272 0
120 -235 288 0
58 -187 -195 0
-40 172 -235 0
150 -227 237 0
82 140 -168 0
-95 98 192 0
-120 -138 -282 0
-144 -258 -298 0
-38 -189 -273 0
-90 -133 182 0
96 162 195 0
86 -180 184 0
-122 -165 -278 0
78 -162 185 0
-73 105 -170 0
-46 129 185 0
-24 123 173 0
-33 -91 221 0
165 -268 -296 0
-28 -117 -201 0
-47 -262 -279 0
-87 198 211 0
61 66 -232 0
-5 157 -235 0
13 -89 113 0
-26 173 239 0
72 247 287 0
25 -103 280 0
72 191 252 0
56 127 239 0
173 195 202 0
89 -108 -194 0
74 -219 -221 0
51 -154 -288 0
-146 251 -271 0
54 71 281 0
100 201 297 0
135 244 277 0
20 101 161 0
48 150 -238 0
142 -266 -292 0
18 -153 234 0
-110 -171 215 0
-66 -88 -221 0
131 -197 -243 0
-99 -241 294 0
88 190 -242 0
107 154 275 0
-30 -102 -161 0
-37 215 -226 0
68 295 297 0
-34 193 -229 0
-78 122 246 0
-172 201 269 0
32 134 -288 0
-62 -224 -234 0
111 146 195 0
47 269 -273 0
-119 206 -221 0
-185 262 -267 0
13 -114 144 0
-67 73 106 0
53 75 -152 0
-18 -72 159 0
175 -182 285 0
-142 -179 187 0
-14 23 -175 0
-26 -40 -274 0
84 94 -123 0
11 93 151 0
33 185 207 0
98 120 -282 0
41 144 -257 0
-65 80 -219 0
28 -191 -293 0
84 -229 254 0
12 -96 -129 0
227 -238 -241 0
113 -138 181 0
-13 -155 -219 0
-127 -234 239 0
-82 -274 -285 0
57 -215 259 0
-222 237 -267 0
-186 232 286 0
-90 -120 210 0
-136 -161 -209 0
6 161 -206 0
-6 -52 -59 0
92 -167 -208 0
49 -121 228 0
72 156 -253 0
-3 208 245 0
-85 -168 -171 0
44 -144 239 0
93 186 191 0
-122 204 240 0
-1 208 243 0
4 94 249 0
1 43 -234 0
-6 12 -203 0
-19 -187 293 0
39 -91 237 0
76 -137 -248 0
14 281 -287 0
-65 96 158 0
32 173 -236 0
56 98 158 0
61 -140 166 0
70 -180 259 0
11 -159 284 0
25 -38 -279 0
-152 184 247 0
4 -47 59 0
154 275 291 0
118 172 -293 0
-20 -108 -211 0
95 177 287 0
75 -194 216 0
45 264 293 0
67 161 -276 0
-55 208 234 0
55 177 -202 0
-124 -181 284 0
23 72 -86 0
-54 -78 154 0
1 57 217 0
-1 -99 223 0
-90 137 -138 0
-159 -214 -289 0
-89 -151 -202 0
-218 270 295 0
-131 212 -299 0
81 -143 269 0
109 114 -222 0
-37 84 158 0
96 -113 192 0
155 201 -280 0
103 -114 -294 0
-14 82 135 0
-100 -252 284 0
-95 172 240 0
-132 -189 228 0
6 165 -214 0
-69 217 247 0
28 34 215 0
-110 -188 -290 0
4 40 53 0
-15 80 152 0
11 -141 180 0
5 122 -211 0
-17 279 295 0
25 125 300 0
1 64 -88 0
43 106 170 0
96 185 -252 0
2 -44 -146 0
150 -160 278 0
-72 -244 -257 0
51 218 275 0
34 -42 237 0
-78 -98 193 0
-54 -103 -222 0
-71 -127 -224 0
1 4 -24 0
29 227 258 0
14 -17 40 0
213 218 289 0
64 -103 -116 0
59 94 155 0
-4 -16 54 0
2 117 -170 0
60 -87 -100 0
60 -140 -254 0
-102 -113 115 0
164 -202 249 0
-123 220 -236 0
-61 -138 -231 0
85 123 -125 0
-66 200 275 0
23 -31 106 0
81 -179 255 0
53 148 214 0
30 -116 -137 0
-9 -20 232 0
-51 218 233 0
75 154 280 0
-28 -140 172 0
35 -128 -292 0
26 -28 109 0
7 204 -249 0
35 84 -165 0
-130 -176 255 0
2 170 -282 0
-216 -219 235 0
9 -15 131 0
-48 -111 -283 0
-26 57 176 0
-132 -135 -251 0
-239 -266 285 0
41 203 -268 0
202 -248 -298 0
137 -232 -248 0
43 104 -216 0
-14 -18 -150 0
-127 -221 -260 0
1 -136 139 0
-12 -95 102 0
65 173 200 0
-61 -128 211 0
103 -141 -208 0
-37 108 -175 0
139 -206 -246 0
122 -140 -256 0
-15 -136 -272 0
112 214 294 0
-88 95 176 0
-39 -53 -257 0
75 97 -260 0
-246 -249 -269 0
77 -228 -234 0
-94 -119 -165 0
-69 142 188 0
190 -268 -289 0
112 -139 278 0
-8 39 296 0
-6 35 -284 0
-93 154 213 0
239 -268 299 0
-61 94 -127 0
41 115 -157 0
49 -50 223 0
-126 216 291 0
-42 71 287 0
-183 184 -244 0
142 259 279 0
125 169 285 0
148 -210 223 0
224 -236 -257 0
54 -266 -299 0
-19 209 253 0
239 243 256 0
-166 -180 -202 0
68 213 216 0
24 -54 109 0
206 -237 -280 0
-3 -13 67 0
96 154 288 0
96 108 -110 0
21 123 -173 0
20 146 269 0
-26 -123 -225 0
17 94 -267 0
-10 16 246 0
171 197 -241 0
37 264 274 0
-162 -225 -246 0
-68 -152 159 0
12 -49 217 0
12 -106 -157 0
48 73 137 0
-4 125 289 0
-45 -180 -197 0
31 -86 -299 0
-96 -174 290 0
107 147 -157 0
245 263 -281 0
149 186 -244 0
-82 -139 280 0
-13 -65 214 0
-180 -209 -264 0
-19 -157 254 0
37 72 -245 0
-135 268 -286 0
17 71 -103 0
9 126 -251 0
-77 106 -273 0
-40 78 248 0
9 -129 -140 0
195 -226 -257 0
8 -113 -130 0
-9 123 -261 0
-9 232 -285 0
-152 163 -167 0
-27 -140 -157 0
-41 -71 -87 0
-34 -254 -287 0
-62 -276 298 0
54 211 -274 0
-104 -106 -165 0
-169 191 -208 0
-101 124 246 0
-77 -201 274 0
-7 -166 -202 0
31 -55 -155 0
7 -24 -169 0
114 200 -219 0
92 -230 -289 0
32 277 -283 0
-155 166 -220 0
44 -64 100 0
95 -209 -300 0
-245 -280 289 0
8 104 -243 0
185 217 -243 0
-32 -201 211 0
185 -202 264 0
43 176 191 0
-82 -238 299 0
-1 -59 -164 0
-100 -105 269 0
97 -131 200 0
-157 -190 -213 0
110 -139 -196 0
-61 189 -238 0
15 -254 280 0
1 36 66 0
96 -104 -261 0
-43 -116 243 0
-29 83 -212 0
207 222 -223 0
-89 -144 254 0
-54 -106 275 0
-18 49 127 0
-31 76 -187 0
102 127 -148 0
-244 270 -294 0
18 -47 -82 0
42 -72 -173 0
77 -140 276 0
-78 -181 269 0
-62 82 144 0
93 -141 -202 0
-39 154 -251 0
140 -145 -147 0
-26 242 289 0
-64 -162 212 0
126 151 168 0
79 -81 -217 0
192 -275 -296 0
35 -37 235 0
-173 219 -281 0
7 141 -250 0
153 -274 298 0
-42 -146 225 0
53 79 269 0
-155 228 279 0
-90 -168 -286 0
95 -183 -252 0
-97 177 -299 0
-113 -239 -287 0
-173 275 -300 0
-13 163 -219 0
5 -112 265 0
-189 197 240 0
59 128 172 0
51 128 159 0
4 235 -298 0
-31 186 -295 0
-95 121 173 0
-84 -116 -157 0
119 -192 209 0
-39 -64 -83 0
-3 86 -226 0
44 -214 219 0
46 -56 -266 0
-126 -236 -294 0
96 -112 223 0
149 -175 -207 0
75 -77 158 0
99 167 -209 0
-222 245 297 0
26 -116 -130 0
-117 -166 -186 0
-90 175 232 0
156 -168 232 0
-4 -61 -265 0
87 129 -171 0
-127 -145 -154 0
-54 -116 270 0
-45 111 -172 0
41 132 151 0
-61 127 -225 0
140 -242 258 0
167 -197 -210 0
-50 -216 289 0
14 145 250 0
-88 154 -277 0
-111 182 -282 0
-170 -202 -218 0
-10 38 -126 0
-195 243 -254 0
178 -261 293 0
-71 182 -207 0
43 82 148 0
48 -87 -107 0
23 -38 -160 0
110 176 217 0
-22 -76 -250 0
-54 -116 250 0
147 177 -239 0
-51 -92 252 0
-30 42 -128 0
-125 140 242 0
58 125 273 0
145 -272 297 0
8 -38 -129 0
-72 112 -252 0
46 -124 -137 0
76 83 92 0
67 235 256 0
112 213 -277 0
153 -167 188 0
-51 -68 -130 0
-38 -156 231 0
-59 -185 -249 0
48 -108 198 0
99 250 -259 0
-187 284 -285 0
-47 68 83 0
-35 -213 -260 0
-150 -181 -284 0
39 -214 234 0
32 -259 280 0
67 99 185 0
-52 76 107 0
-257 -262 285 0
-110 -200 276 0
31 -187 -279 0
10 -41 277 0
-185 -228 -285 0
19 39 -71 0
-15 -99 132 0
86 -90 275 0
-8 10 -225 0
-60 139 -235 0
8 -80 -145 0
14 53 248 0
-216 224 229 0
-59 -146 -274 0
102 225 255 0
4 -188 -202 0
9 112 -243 0
-96 -183 -235 0
165 -187 188 0
-8 150 259 0
12 154 206 0
-26 45 145 0
-54 160 282 0
-13 237 256 0
-14 -91 196 0
-133 190 247 0
-164 178 -259 0
3 122 141 0
-56 -97 141 0
49 80 97 0
-1 -160 299 0
-134 -159 -253 0
-61 -205 -292 0
36 246 288 0
133 259 -287 0
-28 -34 -232 0
-48 135 -285 0
124 197 243 0
-137 211 -217 0
123 251 259 0
-132 -156 -300 0
-35 -173 -237 0
37 44 -79 0
71 -91 179 0
59 -112 -173 0
-25 -196 -263 0
119 158 -221 0
27 60 260 0
70 180 212 0
-7 -80 -258 0
-68 -268 273 0
10 186 295 0
-123 -135 -294 0
-30 -48 235 0
-245 -253 289 0
-65 82 -89 0
-109 -166 -172 0
-110 202 240 0
50 -244 -290 0
-48 -109 249 0
24 100 131 0
-19 197 -241 0
-23 -173 -209 0
58 114 -285 0
-113 -131 -300 0
131 -145 -196 0
-100 229 -286 0
40 -115 -274 0
24 60 -106 0
-11 90 -241 0
-101 -142 -281 0
-116 168 221 0
10 -113 -250 0
4 -216 226 0
169 244 290 0
17 26 -246 0
-84 181 223 0
-7 101 -238 0
-186 -212 276 0
34 -147 289 0
11 -59 167 0
52 -151 -252 0
-20 82 94 0
-9 -93 241 0
59 148 -154 0
109 236 289 0
-59 227 267 0
-101 -145 295 0
-245 256 -261 0
13 26 -87 0
-67 -183 240 0
72 161 172 0
128 -155 160 0
38 157 -194 0
75 -144 217 0
9 -130 -295 0
-107 -122 142 0
-228 -251 -297 0
-61 152 207 0
-19 -21 44 0
14 -242 -290 0
52 202 249 0
16 -125 190 0
-60 87 -166 0
-71 77 -159 0
31 226 -276 0
72 -76 -273 0
-100 136 -262 0
-33 -229 242 0
-93 -231 -284 0
-112 -174 179 0
25 114 -151 0
14 229 235 0
6 -158 246 0
-150 -155 -266 0
-1 -57 -230 0
61 149 253 0
-119 147 -223 0
22 -58 -270 0
-83 -131 177 0
1 67 -113 0
139 -188 253 0
22 -41 150 0
-63 -206 250 0
215 -217 228 0
65 -165 207 0
-76 -254 -297 0
-154 206 -226 0
65 -78 -81 0
8 -120 -243 0
8 -205 -247 0
126 -141 -280 0
-49 211 -274 0
64 -257 -271 0
36 -47 -220 0
165 252 254 0
-124 248 -256 0
-61 -172 -194 0
128 141 -298 0
186 247 -274 0
2 -52 230 0
15 -122 -209 0
-14 151 -181 0
97 -144 268 0
45 56 -77 0
80 -105 -206 0
-180 -205 268 0
-59 67 145 0
-118 142 256 0
-109 -183 270 0
77 109 -131 0
261 273 282 0
-45 171 246 0
-68 107 -191 0
-145 223 -280 0
31 -43 -122 0
-25 -27 -151 0
-139 -144 -149 0
103 178 233 0
221 -247 293 0
114 172 204 0
-83 117 253 0
101 -118 -134 0
206 210 254 0
-54 -57 137 0
-22 -182 -203 0
42 102 124 0
70 177 200 0
66 215 258 0
-87 158 207 0
-145 -157 205 0
70 -147 210 0
183 -205 213 0
-31 120 259 0
202 -214 246 0
221 -225 282 0
113 170 -214 0
-76 197 -205 0
-40 -54 -95 0
-1 -136 273 0
142 -146 190 0
169 -189 -205 0
-52 -179 -269 0
-62 -104 132 0
8 29 143 0
94 178 254 0
-41 208 -262 0
-17 83 -292 0
-3 19 -125 0
-175 178 -196 0
-32 67 97 0
-1 -63 258 0
75 -89 -229 0
25 180 -297 0
21 -63 -102 0
223 283 285 0
-3 -217 -235 0
118 -217 267 0
-38 -113 -119 0
122 213 228 0
70 -118 -160 0
-146 176 289 0
174 186 -243 0
-148 -263 -284 0
-114 149 273 0
-258 260 -300 0
-17 86 291 0
-97 -107 -254 0
100 121 -273 0
-46 -48 121 0
211 253 -269 0
190 255 -288 0
-181 -204 -239 0
-94 -235 -289 0
220 -239 255 0
-11 -32 152 0
-104 127 -274 0
-29 69 234 0
264 -292 -298 0
-177 225 271 0
-60 -73 -152 0
-101 -224 296 0
49 -248 -251 0
-104 130 273 0
-67 132 146 0
56 -202 -230 0
-7 24 26 0
-16 124 157 0
-25 104 247 0
-167 224 -295 0
35 -178 -201 0
-87 -91 -154 0
38 -152 286 0
-12 206 -264 0
-20 -255 -285 0
16 242 -256 0
77 202 274 0
-20 51 -258 0
142 -166 281 0
-32 75 181 0
59 -106 -283 0
123 -144 154 0
-122 -199 250 0
-92 -132 -147 0
-157 -220 -261 0
37 -86 159 0
49 233 -299 0
189 -230 241 0
-59 -88 -167 0
16 100 -136 0
-139 -149 -268 0
-33 53 -175 0
135 171 -289 0
2 -178 -203 0
-48 -218 -220 0
86 149 -177 0
-131 243 262 0
-6 -134 142 0
249 -280 -292 0
-5 49 201 0
-18 139 -275 0
28 -212 -262 0
-29 -205 232 0
192 -229 247 0
20 -33 188 0
27 216 -262 0
81 -170 -262 0
12 54 -57 0
23 -82 119 0
63 187 -214 0
31 -83 -142 0
-81 -88 -157 0
15 17 -187 0
67 72 -190 0
-65 -71 -277 0
69 111 -197 0
56 -91 -146 0
-102 -194 234 0
73 151 164 0
-1 -10 151 0
40 261 293 0
61 184 -221 0
-126 149 197 0
-159 -214 -241 0
-26 46 253 0
-53 -83 -171 0
25 -38 80 0
2 144 237 0
13 136 178 0
68 72 -206 0
58 -112 -238 0
-154 -194 -196 0
60 122 -217 0
74 -161 -297 0
-1 -76 271 0
22 -43 -166 0
-8 -116 -172 0
121 152 206 0
120 124 -273 0
182 234 277 0
-55 112 204 0
57 -199 -210 0
-2 50 -51 0
-109 245 -268 0
48 53 95 0
-201 216 234 0
-26 142 -248 0
158 224 264 0
-23 -161 -221 0
50 51 101 0
-120 137 215 0
68 -195 275 0
-4 -67 80 0
8 -50 -193 0
-76 156 -174 0
85 157 -258 0
-70 107 220 0
-2 126 -205 0
27 -104 137 0
-47 -122 261 0
-165 180 -192 0
92 -295 -296 0
-29 281 -295 0
-77 112 204 0
39 -152 -257 0
116 172 186 0
-17 71 228 0
37 177 -260 0
-7 24 -253 0
-17 55 -283 0
87 96 251 0
89 -198 274 0
-100 195 245 0
18 22 -23 0
-204 221 273 0
-17 -170 225 0
-157 -171 268 0
-96 161 167 0
25 -161 265 0
-22 86 200 0
15 118 -149 0
-198 -211 250 0
-23 -91 239 0
28 -286 -287 0
-46 -184 -252 0
-210 266 -292 0
-45 -200 -231 0
-73 156 -295 0
-132 213 240 0
-111 -132 -269 0
9 -250 263 0
13 173 -266 0
62 -93 -215 0
-88 177 -239 0
-134 -152 269 0
87 -131 235 0
-54 -55 286 0
-108 131 296 0
103 133 -136 0
122 -222 -260 0
27 179 222 0
156 -208 -298 0
-10 -97 -267 0
-81 94 164 0
-81 184 252 0
-107 147 -258 0
-60 -88 -276 0
-108 156 291 0
-96 147 -218 0
167 173 286 0
24 112 -224 0
39 -149 -232 0
43 111 -274 0
-207 -216 -256 0
102 198 -291 0
-17 -58 119 0
-41 -270 -282 0
173 220 -292 0
83 -106 204 0
31 -229 299 0
216 -240 246 0
67 121 -193 0
200 -217 237 0
9 214 -215 0
-82 223 -291 0
-104 -286 -289 0
7 44 261 0
118 -132 276 0
-7 -60 -150 0
40 -157 276 0
4 146 -231 0
-142 200 -214 0
-134 -258 269 0
14 -93 -147 0
3 -245 -292 0
-25 -76 268 0
41 149 184 0
10 -137 286 0
-23 27 182 0
68 159 -192 0
-7 85 -192 0
-101 103 253 0
27 238 244 0
-7 46 -64 0
119 -213 -260 0
-49 -107 -241 0
81 105 -150 0
131 219 287 0
127 -167 -264 0
-9 -104 200 0
-274 -276 -283 0
-34 135 -230 0
-69 109 -144 0
-21 -61 -257 0
-13 97 -106 0
27 -165 208 0
136 158 234 0
12 49 -174 0
-20 -123 138 0
123 -286 290 0
16 191 231 0
103 -179 -202 0
-26 -62 -117 0
-93 -211 219 0
-46 -170 226 0
65 218 -285 0
1 14 271 0
37 -117 -235 0
28 63 150 0
-1 -65 167 0
144 235 -243 0
5 98 -283 0
26 142 -177 0
-236 -268 280 0
-51 -184 206 0
-36 -135 292 0
-17 -150 251 0
-142 244 249 0
15 102 -255 0
-136 -173 286 0
61 -179 183 0
7 33 -175 0
103 131 258 0
65 -110 -146 0
-39 -131 258 0
24 129 -272 0
-47 -91 206 0
-5 63 275 0
-174 -232 292 0
69 151 273 0
-93 135 268 0
45 -49 -56 0
-41 161 167 0
-23 -121 162 0
2 50 224 0
-171 196 -233 0
153 159 -225 0
-1 -99 -183 0
-30 -72 93 0
21 140 -228 0
-92 -145 -207 0
-172 200 -300 0
-28 -53 129 0
-75 273 -289 0
-42 -159 -195 0
37 78 -218 0
-180 214 253 0
-130 237 -258 0
-138 -146 228 0
-88 -137 178 0
46 82 -120 0
181 -203 284 0
-231 -253 293 0
-93 198 -273 0
189 -249 270 0
46 84 -111 0
-175 206 256 0
-19 -80 -169 0
-24 -206 -259 0
-48 -55 -264 0
48 -52 -166 0
-62 127 -192 0
-118 -120 -121 0
19 256 -271 0
102 124 249 0
78 237 281 0
-94 -108 -285 0
227 243 251 0
-103 -218 -219 0
125 132 284 0
81 171 -229 0
-176 -204 -249 0
-12 136 156 0
-120 166 -253 0
15 -111 148 0
115 116 -255 0
-81 128 194 0
-13 -153 -162 0
27 135 216 0
10 -157 187 0
-36 99 -218 0
100 -125 -186 0
-55 -292 299 0
-52 196 239 0
52 -170 274 0
-4 -154 -179 0
60 -168 -249 0
59 -186 -290 0
83 -159 195 0
6 111 285 0
38 41 85 0
-91 94 -198 0
85 -149 240 0
6 127 173 0
-29 103 -150 0
43 -87 139 0
137 -179 193 0
14 20 -95 0
-25 44 -288 0
-33 167 -290 0
38 -72 103 0
71 190 -200 0
-10 -79 183 0
-80 -165 170 0
-14 130 -267 0
-38 -101 166 0
104 -144 -178 0
-45 -104 199 0
4 -154 217 0
31 -165 -212 0
12 192 203 0
60 68 286 0
73 189 -244 0
58 167 -222 0
-132 179 -285 0
-16 28 -235 0
32 245 -284 0
27 -86 188 0
-138 -199 -228 0
-34 -249 -294 0
106 120 254 0
50 -221 271 0
-72 118 -289 0
-137 -240 266 0
-2 -176 -280 0
-112 222 292 0
165 -233 -286 0
-90 190 -221 0
-39 86 -103 0
-241 245 -272 0
40 184 -206 0
16 30 191 0
34 -208 -261 0
137 140 182 0
-39 66 -149 0
-40 -199 258 0
-112 -187 215 0
3 62 253 0
33 56 284 0
113 180 -253 0
23 -221 283 0
113 132 -210 0
21 -54 -276 0
-179 259 -295 0
-57 -100 286 0
41 -54 280 0
53 -83 181 0
164 194 225 0
228 -236 265 0
23 -235 253 0
-114 -125 -142 0
-125 -140 -253 0
-124 -146 -222 0
131 -284 -291 0
-105 -117 130 0
-18 135 -212 0
-88 -190 -299 0
27 58 194 0
127 -128 -131 0
78 196 289 0
-2 143 -222 0
-28 193 242 0
-64 -153 -269 0
-59 68 293 0
-25 131 292 0
53 140 -160 0
-12 -124 -187 0
2 138 222 0
-52 -143 222 0
-18 -167 240 0
-2 -143 222 0
42 109 -142 0
-85 244 295 0
97 -134 237 0
-20 -193 -293 0
27 -136 199 0
97 -238 252 0
-6 139 -155 0
16 234 294 0
-30 96 -112 0
114 142 -240 0
-5 -188 272 0
16 173 -241 0
-52 -71 -269 0
-31 179 227 0
67 223 -232 0
70 72 -104 0
-30 53 -286 0
68 -132 -292 0
111 217 -297 0
-174 -206 -225 0
116 -170 -213 0
-69 208 -254 0
-77 -164 219 0
119 -170 271 0
-51 101 201 0
110 116 -229 0
4 18 -153 0
195 215 239 0
30 -173 259 0
-162 -187 -239 0
-92 -157 183 0
7 27 -107 0
-109 -265 -271 0
-97 -208 -250 0
16 180 -296 0
74 -91 -260 0
-6 102 -180 0
-259 266 -278 0
-114 158 274 0
32 58 103 0
-126 -130 184 0
105 231 269 0
-60 81 -279 0
-170 -205 238 0
-23 266 284 0
27 -65 180 0
-22 251 283 0
21 -153 251 0
-6 -70 -83 0
40 94 265 0
-56 -181 -193 0
-36 44 291 0
77 150 295 0
-130 -189 -214 0
-200 -215 272 0
43 113 266 0
11 -34 -89 0
-46 53 106 0
111 -180 187 0
171 -179 269 0
260 270 290 0
-24 120 258 0
90 -284 292 0
255 -275 294 0
7 118 -146 0
143 198 218 0
-13 -32 -37 0
-74 105 215 0
-129 156 -216 0
-61 -136 -265 0
-83 -137 -254 0
-78 165 182 0
-34 86 125 0
62 -146 -209 0
-22 -39 -130 0
56 235 280 0
69 -125 165 0
-37 44 246 0
-175 176 -292 0
32 34 -113 0
62 109 -168 0
-35 -170 277 0
-55 -69 -174 0
-78 -229 -252 0
-167 -187 -232 0
-152 191 -251 0
72 -172 -209 0
-52 -145 276 0
-49 50 113 0
15 227 268 0
243 -253 -280 0
188 -209 -245 0
20 -39 249 0
-77 -160 -297 0
-65 -232 293 0
27 108 -120 0
-43 -163 187 0
-22 132 296 0
-110 156 -208 0
-40 -128 -158 0
-12 -92 -300 0
-211 239 246 0
-104 200 -223 0
-219 279 293 0
185 275 291 0
-94 233 -296 0
-104 -115 -174 0
-7 -260 295 0
171 221 -234 0
-51 -139 -151 0
-18 -55 -228 0
186 -239 252 0
173 199 -262 0
-13 -190 226 0
-60 93 -137 0
29 251 -298 0
28 -261 300 0
62 171 -264 0
38 -172 -276 0
19 -74 -203 0
30 88 238 0
22 -127 -208 0
175 176 -196 0
-134 140 -256 0
160 -282 -291 0
62 -106 169 0
72 -136 261 0
68 -129 -261 0
-13 65 -244 0
-55 -121 162 0
-29 -31 204 0
-230 250 275 0
79 -139 -222 0
13 -193 240 0
-127 -185 -199 0
-38 -173 -214 0
53 -141 -169 0
-38 96 223 0
-202 208 285 0
46 163 -275 0
57 -111 -266 0
177 192 -222 0
-137 -187 263 0
179 -214 226 0
-3 -72 93 0
96 -135 242 0
73 -201 245 0
-241 273 286 0
220 -268 299 0
9 -163 259 0
134 220 256 0
209 248 264 0
150 162 -273 0
-37 -90 -233 0
67 -96 -170 0
-51 -94 290 0
-147 -243 298 0
9 75 -160 0
51 -55 131 0
46 60 -62 0
-41 -175 204 0
57 58 127 0
-63 184 235 0
-28 148 153 0
108 188 274 0
70 88 100 0
154 -286 -297 0
-91 96 -190 0
129 -137 181 0
-34 71 -159 0
2 -33 -185 0
10 -106 -209 0
-67 -159 179 0
91 -215 -264 0
48 -162 -275 0
32 184 -225 0
48 241 243 0
67 -232 275 0
-85 111 -140 0
17 -193 -287 0
146 149 218 0
46 69 -209 0
10 -25 197 0
-90 -187 222 0
66 -120 256 0
-94 -106 -122 0
-33 -47 -67 0
-4 119 -279 0
-95 -158 228 0
41 -197 -222 0
-143 192 203 0
129 169 210 0
154 -180 -236 0
97 -214 -267 0
89 139 290 0
54 -105 -275 0
119 -161 -259 0
2 -86 -115 0
27 -48 55 0
64 -173 -211 0
-89 -233 261 0
32 56 -132 0
46 -224 229 0
-35 136 179 0
62 -130 211 0
66 195 277 0
155 272 -278 0
-48 -52 226 0
74 -236 295 0
30 152 -165 0
79 -236 243 0
60 114 -185 0
8 -61 62 0
26 -39 260 0
-69 -128 256 0
-16 -92 -126 0
-104 174 -250 0
-180 224 -234 0
29 -71 -99 0
95 199 246 0
-25 -80 -131 0
-40 -145 283 0
-24 205 -221 0
28 -230 -299 0
-19 -132 -292 0
-105 -127 -137 0
187 263 295 0
-254 265 -280 0
188 248 252 0
98 -136 -269 0
66 -129 218 0
18 -43 -221 0
-267 294 299 0
-8 114 -162 0
90 -210 245 0
-70 192 -253 0
-17 247 267 0
98 -123 -174 0
81 179 181 0
-16 78 -148 0
5 6 131 0
76 -97 -162 0
-135 237 245 0
-108 -137 -161 0
223 -289 294 0
113 141 -257 0
-108 -197 -228 0
10 30 -98 0
-181 -213 269 0
-180 191 279 0
-27 -143 207 0
-11 -144 -281 0
27 -47 -74 0
-147 176 197 0
250 254 -271 0
-125 131 -235 0
-151 -182 -247 0
108 143 -166 0
-90 -242 -275 0
18 -87 290 0
-25 -40 130 0
-33 -170 -268 0
90 -125 156 0
77 -181 -200 0
75 216 274 0
38 -80 243 0
124 -161 -235 0
5 220 -239 0
34 -113 -190 0
-139 207 -254 0
-52 -132 -298 0
12 -19 -168 0
33 80 155 0
105 133 295 0
44 123 129 0
-79 238 268 0
-61 -68 279 0
-95 153 -204 0
133 221 262 0
16 -105 224 0
-54 -140 281 0
82 -108 -137 0
-231 -276 -296 0
-178 -234 264 0
-30 102 -131 0
16 -211 -237 0
-3 17 88 0
161 -164 -168 0
76 139 -283 0
-7 -259 -267 0
-20 -154 230 0
7 -219 -263 0
94 135 277 0
174 238 256 0
33 203 -242 0
-89 142 145 0
-86 -98 -105 0
214 263 286 0
71 87 -276 0
53 191 245 0
-36 221 224 0
63 109 126 0
-4 97 211 0
8 151 -216 0
38 -134 -142 0
46 211 -234 0
98 -216 227 0
23 -134 207 0
-36 -59 -211 0
136 166 171 0
103 272 -297 0
-72 97 103 0
-23 -59 174 0
52 130 -187 0
8 114 -291 0
15 -110 130 0
-13 -110 -165 0
85 -217 -300 0
125 129 147 0
85 140 -252 0
-112 150 -271 0
10 -36 -168 0
19 -42 66 0
-131 141 193 0
45 180 285 0
-42 127 151 0
7 62 -228 0
219 250 272 0
-124 181 183 0
-3 -47 119 0
-134 -280 282 0
35 41 -224 0
116 -184 243 0
261 -283 297 0
-71 80 245 0
6 -20 -158 0
6 -25 150 0
-39 153 158 0
29 -147 -165 0
-130 234 293 0
-64 196 -260 0
-75 -208 -264 0
-127 199 255 0
-163 243 266 0
226 231 -283 0
-102 126 -217 0
1 -158 -183 0
163 180 262 0
87 -149 195 0
152 -161 235 0
11 -77 161 0
-116 -139 182 0
-40 -155 217 0
212 239 263 0
-149 168 295 0
85 160 -278 0
-86 -90 260 0
-23 194 277 0
-48 218 -281 0
-112 190 197 0
4 10 -245 0
-6 224 252 0
12 -158 290 0
-129 -170 171 0
-89 -152 -179 0
-73 170 171 0
108 -205 216 0
-101 149 -180 0
75 -107 134 0
-68 142 -273 0
187 -198 -264 0
-37 133 -243 0
-37 -209 -210 0
24 -78 -99 0
17 152 257 0
168 -206 -219 0
-88 135 -145 0
14 172 -296 0
-48 81 -152 0
-117 -211 -291 0
-4 -211 238 0
110 -231 289 0
-71 147 274 0
-38 73 -104 0
-80 -247 270 0
-6 61 -251 0
4 27 236 0
11 -165 -232 0
12 61 -252 0
-14 172 -290 0
188 -282 291 0
-49 153 -255 0
-151 220 -264 0
-74 113 -199 0
37 44 -250 0
69 -101 206 0
-76 114 -176 0
-113 166 201 0
110 170 -250 0
60 -150 252 0
99 115 -212 0
-4 -50 -161 0
105 -251 -298 0
50 140 230 0
27 68 -232 0
-95 141 -168 0
118 -204 285 0
8 -100 -275 0
-29 -147 -177 0
-129 132 247 0
21 -57 -211 0
-194 -268 -271 0
122 136 298 0
