c F2 random 3-CNF cnfgen RandomKCNF(3,400,2000,seed=3) m/n=5.0
p cnf 400 2000
122 -279 -304 0
34 -298 -321 0
-99 -120 -283 0
78 -119 328 0
33 344 -398 0
-16 -138 -400 0
-203 296 -373 0
-19 50 -70 0
-224 -345 -399 0
-180 274 -294 0
15 -144 350 0
-109 -336 366 0
-33 247 -328 0
35 -78 -211 0
61 213 -394 0
-170 301 368 0
4 40 159 0
-150 209 313 0
161 -174 -185 0
198 -236 -267 0
325 -367 -369 0
-133 156 -267 0
-11 162 297 0
-171 -322 -325 0
-143 312 362 0
-11 -190 -347 0
164 -304 308 0
-161 -190 -389 0
14 -54 396 0
-123 138 -335 0
50 -333 -358 0
115 225 -346 0
-112 -333 380 0
18 -62 272 0
143 -175 329 0
-150 -216 -266 0
-149 -214 325 0
80 -103 -212 0
114 -287 -368 0
117 -175 279 0
18 -24 126 0
7 247 -382 0
-11 123 340 0
-65 130 -175 0
63 102 114 0
-4 -66 141 0
-128 -139 388 0
166 243 398 0
24 -26 64 0
-45 -264 365 0
-37 -162 -180 0
-98 -136 185 0
-2 66 285 0
-22 192 -236 0
-28 -191 -322 0
215 236 356 0
139 -275 356 0
-15 -67 -219 0
63 -238 354 0
164 289 -376 0
-74 121 397 0
-51 289 338 0
14 -63 -175 0
46 154 297 0
52 -284 384 0
40 -93 -124 0
-130 -189 -307 0
43 -193 257 0
-213 292 -354 0
-50 -77 -84 0
96 -301 369 0
-76 264 -300 0
-212 344 -362 0
-12 138 246 0
-123 -185 292 0
215 -246 358 0
-38 247 -370 0
118 121 -332 0
-98 124 398 0
319 -346 361 0
-24 94 161 0
-48 61 -136 0
-232 298 376 0
-170 -172 224 0
-108 -300 330 0
-62 164 -279 0
-58 225 -271 0
-189 -348 -396 0
55 -174 -387 0
31 151 368 0
190 233 336 0
-170 -331 369 0
160 235 247 0
-93 -367 387 0
137 139 197 0
139 -246 -259 0
207 -230 -278 0
58 78 139 0
-95 -97 358 0
-75 304 312 0
-92 -104 -292 0
-16 -209 -228 0
-255 -271 325 0
98 308 373 0
-89 252 269 0
-19 109 -272 0
-70 79 337 0
14 185 -317 0
-10 -174 -276 0
42 69 -356 0
-33 103 -106 0
-22 56 162 0
-83 -201 362 0
-107 -217 276 0
-235 -238 388 0
-20 -234 -369 0
-186 230 272 0
108 -133 190 0
12 -82 108 0
15 72 -326 0
31 -95 -252 0
17 163 -209 0
21 204 253 0
49 200 -243 0
60 178 -319 0
-141 154 -239 0
-16 -173 323 0
30 223 350 0
16 47 349 0
-28 97 -247 0
175 -180 -246 0
-311 324 -385 0
-59 -95 -212 0
-90 -376 379 0
186 -213 -225 0
-87 -138 177 0
79 -88 364 0
347 -355 389 0
29 -308 -329 0
-171 332 376 0
-54 -100 205 0
42 231 333 0
74 79 331 0
-107 -113 148 0
91 240 319 0
13 -52 307 0
56 205 -239 0
-343 -359 -390 0
-57 -150 399 0
-4 -60 277 0
-99 175 -178 0
35 217 -332 0
-32 -121 172 0
112 129 166 0
-238 -314 377 0
-210 -248 320 0
10 95 150 0
151 -258 266 0
-100 -107 -382 0
20 -177 240 0
-53 -154 228 0
-79 -106 -250 0
-83 -160 221 0
147 -148 -185 0
153 184 383 0
68 272 323 0
-1 -26 -105 0
18 251 283 0
142 174 -222 0
-127 -135 -160 0
-16 23 174 0
127 -289 -390 0
69 144 283 0
9 -249 -330 0
-267 -341 387 0
38 94 -151 0
-181 -228 -397 0
145 -232 272 0
-20 211 -268 0
140 -300 314 0
-65 144 -250 0
39 -191 -343 0
100 -160 -178 0
26 139 -162 0
-163 201 313 0
129 -212 214 0
41 103 378 0
-36 -145 -355 0
138 149 237 0
74 87 -250 0
204 332 -346 0
28 -93 389 0
67 76 333 0
-55 -196 399 0
14 54 144 0
-65 152 197 0
-4 73 190 0
182 -249 -280 0
-11 -177 -379 0
157 -227 -276 0
-103 305 -388 0
86 137 163 0
30 210 310 0
-63 -81 207 0
-238 -277 298 0
-112 -303 -308 0
-163 -303 -327 0
139 147 153 0
175 -374 -375 0
-67 -137 232 0
-267 271 318 0
-214 218 282 0
109 -196 197 0
29 -253 -281 0
186 -287 -365 0
-190 -205 259 0
-75 254 300 0
33 190 315 0
-108 165 223 0
-15 -276 -376 0
-110 226 -370 0
-72 -116 244 0
61 -89 307 0
-4 180 -196 0
72 -141 -200 0
50 147 -224 0
165 382 -386 0
217 -246 -324 0
116 -166 299 0
27 266 329 0
-93 -119 -241 0
234 271 -339 0
-69 -176 -302 0
300 -370 394 0
160 -222 370 0
54 -95 234 0
96 -162 -387 0
127 197 -349 0
115 -188 -200 0
-28 135 177 0
113 156 227 0
108 -248 359 0
-90 -351 385 0
-155 227 322 0
235 251 -275 0
-215 267 -352 0
-178 -249 257 0
-59 215 -368 0
56 -179 -271 0
-78 -277 -323 0
22 178 -299 0
-148 -300 -348 0
-6 -217 -348 0
93 -190 291 0
198 -289 366 0
164 -249 -372 0
-101 210 284 0
247 311 360 0
52 -62 -283 0
-34 -141 -204 0
61 118 -134 0
-76 -191 223 0
136 293 400 0
-133 178 376 0
70 361 -385 0
59 168 171 0
138 -252 -342 0
-220 -259 -382 0
-140 152 279 0
17 88 221 0
-107 -259 374 0
-286 289 322 0
82 -112 -379 0
77 -148 379 0
45 71 133 0
-4 -43 -358 0
91 135 -359 0
213 350 358 0
-173 -266 372 0
23 -109 -199 0
-115 226 322 0
111 -118 -177 0
50 162 -203 0
13 -50 208 0
-101 -233 292 0
-219 268 301 0
232 -257 272 0
-65 225 266 0
152 188 -270 0
-35 127 246 0
12 243 -319 0
-7 -25 -177 0
-154 252 -399 0
-46 289 321 0
99 122 -349 0
272 384 394 0
155 -263 346 0
186 -256 -347 0
-201 -223 287 0
-157 -166 -247 0
-50 -106 -184 0
-104 245 386 0
-25 300 -313 0
51 -93 -164 0
-216 -221 -290 0
-21 -187 -376 0
113 140 270 0
-16 311 -393 0
-194 245 -258 0
30 203 331 0
290 351 -366 0
60 263 398 0
-66 -151 282 0
-81 -111 -354 0
227 -264 321 0
-163 176 303 0
44 -102 145 0
114 -118 -171 0
111 -278 397 0
153 260 -330 0
-37 129 -300 0
80 111 -177 0
-29 -129 -219 0
103 -231 -270 0
-46 -55 -341 0
304 -336 399 0
63 295 -312 0
87 -177 308 0
59 -163 -399 0
-11 -149 -285 0
87 248 394 0
-143 190 -246 0
-186 193 -243 0
-246 254 -289 0
38 157 367 0
-89 -90 338 0
3 -186 277 0
28 195 -313 0
179 -249 -381 0
281 334 380 0
44 -104 341 0
15 171 -340 0
20 -64 -262 0
-156 318 381 0
275 331 -360 0
-66 -179 -360 0
-70 -318 374 0
-85 -120 -389 0
-124 -267 -358 0
177 -385 -393 0
-38 -95 -198 0
111 -221 262 0
-187 308 -376 0
-272 -309 -339 0
-99 380 398 0
203 227 -249 0
-69 288 366 0
-103 122 -321 0
99 189 -338 0
155 -226 -251 0
-92 -236 -321 0
33 124 -176 0
38 178 275 0
81 168 -243 0
123 244 298 0
-73 164 -348 0
179 -193 -297 0
208 -344 -360 0
12 -332 -358 0
64 157 187 0
-23 -209 381 0
40 -223 -352 0
-95 -220 344 0
-120 307 -357 0
-182 190 356 0
1 187 -378 0
-71 -100 135 0
-131 -208 385 0
106 194 -335 0
-133 -156 183 0
177 -265 -330 0
143 309 -389 0
110 334 -335 0
135 230 302 0
-10 263 -293 0
160 183 -318 0
-89 -243 394 0
-83 301 347 0
-7 182 -290 0
-60 -222 -320 0
-155 182 -326 0
-37 -100 350 0
35 -136 -279 0
-127 -328 389 0
1 39 294 0
-55 103 335 0
-87 203 258 0
-107 166 196 0
24 -46 361 0
94 -95 228 0
249 257 338 0
-116 -249 330 0
-119 154 319 0
82 -318 321 0
56 122 -395 0
-109 286 -358 0
-46 128 225 0
208 296 -321 0
-51 65 -240 0
-59 121 279 0
16 40 -243 0
-171 -241 311 0
56 184 -304 0
19 -35 162 0
-14 145 -352 0
-26 -197 366 0
105 -181 -281 0
-280 322 -383 0
43 -132 353 0
-37 157 200 0
-114 -266 -371 0
74 79 356 0
-191 -233 -260 0
-155 -263 -288 0
-41 310 365 0
-198 -217 -313 0
-50 119 233 0
-195 300 -367 0
-11 -153 378 0
71 97 -304 0
-199 -211 267 0
-3 -79 -387 0
54 -91 126 0
-181 292 -347 0
-26 -186 -328 0
-2 105 -385 0
-4 -43 128 0
204 -245 323 0
155 -232 286 0
79 223 388 0
10 -60 -127 0
-24 229 283 0
58 -175 244 0
-88 -162 184 0
-44 92 -227 0
-48 -67 -116 0
149 -258 267 0
38 -54 -99 0
89 104 330 0
-101 176 326 0
89 205 -342 0
-25 -159 -191 0
-156 173 -276 0
-100 -362 368 0
157 -229 291 0
-60 244 -262 0
-26 77 -340 0
-2 -121 156 0
228 309 -347 0
187 -268 -305 0
-42 218 364 0
131 292 400 0
-133 -225 250 0
147 205 379 0
46 219 -340 0
-124 140 -169 0
-6 -123 -193 0
10 81 181 0
65 -111 312 0
-210 227 353 0
-168 -259 394 0
-109 -124 300 0
-237 255 -382 0
45 -180 -388 0
-161 226 273 0
131 282 -296 0
-151 228 -230 0
-27 -152 184 0
80 -176 334 0
33 191 -286 0
-145 -218 -307 0
189 -233 364 0
94 -128 -300 0
-33 -99 -146 0
111 166 -361 0
-46 -162 303 0
68 -297 357 0
67 90 -315 0
156 -250 -335 0
181 -182 -326 0
-66 147 -321 0
-185 238 308 0
-8 -220 -344 0
-150 183 -239 0
26 62 -82 0
-192 -231 272 0
-1 -105 -395 0
193 -289 -384 0
-104 184 398 0
67 -109 -258 0
-69 153 -337 0
-194 -335 359 0
-24 47 249 0
-12 193 -381 0
26 -344 -363 0
171 -220 323 0
-7 -140 311 0
-49 287 -349 0
-40 -131 284 0
-2 -159 -165 0
-71 -306 -382 0
-128 313 372 0
182 -262 291 0
184 -291 328 0
12 -79 272 0
29 -307 -355 0
-180 308 -333 0
-39 209 382 0
103 -198 -243 0
22 -386 -400 0
-56 107 -269 0
-166 -283 -300 0
-224 263 -340 0
-133 -382 -385 0
10 38 226 0
-132 192 251 0
-245 -247 300 0
-5 -97 -123 0
-78 -297 -359 0
86 -101 136 0
-37 -93 311 0
20 -203 363 0
314 -355 360 0
-39 146 -311 0
-55 241 351 0
-21 82 111 0
16 -198 -225 0
-75 -115 -327 0
-141 -234 -375 0
27 -205 234 0
12 138 388 0
-72 136 -353 0
64 -273 333 0
-11 -260 306 0
-11 202 -261 0
-40 -232 -233 0
-112 252 271 0
43 46 -374 0
51 111 -123 0
-39 92 -145 0
21 -25 -189 0
-173 -278 318 0
-13 282 -347 0
43 90 207 0
42 139 -187 0
121 199 -301 0
-104 -387 390 0
-126 -139 354 0
92 -162 283 0
219 -343 -367 0
82 357 -386 0
21 104 -259 0
-143 157 169 0
-102 -148 -356 0
163 -280 -350 0
99 -184 331 0
-35 -153 342 0
58 -111 354 0
-15 -112 371 0
11 -78 -200 0
-90 -176 -383 0
114 -346 351 0
-89 -182 -256 0
-195 -333 382 0
-20 -194 242 0
87 230 307 0
114 -151 392 0
-96 -157 -388 0
-34 -86 -169 0
-18 -216 241 0
-20 92 -383 0
-208 326 387 0
63 -276 363 0
-201 213 330 0
-22 -307 314 0
133 251 281 0
42 -220 -275 0
-72 145 335 0
-70 128 254 0
-181 297 -353 0
49 233 -354 0
109 343 354 0
-2 -37 183 0
-77 91 -126 0
146 258 290 0
32 -359 370 0
34 254 -280 0
-52 -68 391 0
13 -24 291 0
4 -133 -347 0
59 -306 311 0
92 -206 354 0
-96 130 -379 0
-189 -243 302 0
-203 -219 -242 0
37 -189 346 0
-86 -242 -363 0
-187 254 262 0
-33 100 192 0
83 125 275 0
93 -148 301 0
58 278 343 0
-84 -89 330 0
305 365 -367 0
-124 215 -385 0
-239 -263 -367 0
-60 113 327 0
37 67 247 0
227 -244 -278 0
22 -37 224 0
92 184 -212 0
-41 183 -205 0
-171 186 256 0
-83 -96 218 0
-75 201 -336 0
153 -188 -230 0
-346 -381 -400 0
44 -176 231 0
49 -177 216 0
-110 139 -381 0
135 233 -391 0
13 -147 280 0
15 146 190 0
-15 304 383 0
170 292 327 0
-139 -165 363 0
-106 -335 -364 0
96 156 -248 0
236 -267 -335 0
53 -236 -237 0
-190 -233 -306 0
120 188 307 0
-3 244 -338 0
18 27 -124 0
-180 262 -359 0
146 193 -223 0
8 -330 -342 0
-16 -345 -368 0
-33 203 292 0
-77 -234 246 0
98 -167 284 0
128 -217 383 0
-123 -135 271 0
-4 10 123 0
21 316 -388 0
-122 223 284 0
-59 116 370 0
67 -257 290 0
120 183 216 0
-19 39 -124 0
63 -213 254 0
48 -243 286 0
165 -321 345 0
108 -149 -155 0
-166 173 260 0
80 209 -357 0
17 332 337 0
-124 364 393 0
-89 184 -323 0
-167 197 -229 0
-130 337 388 0
35 223 -383 0
171 197 254 0
-12 16 92 0
-36 -218 -297 0
162 -256 -278 0
13 86 -273 0
-91 -93 -215 0
-81 -171 386 0
251 -262 326 0
-110 -180 250 0
-49 -87 233 0
339 -364 369 0
-63 74 209 0
41 -97 -168 0
193 216 220 0
-100 206 -370 0
73 150 -292 0
14 32 91 0
132 -202 -315 0
-63 181 292 0
-205 -247 396 0
159 166 -205 0
-29 349 -395 0
-158 -192 -388 0
-39 134 248 0
-158 264 -389 0
-71 102 -330 0
-5 -353 -373 0
-142 -191 -355 0
174 210 -232 0
-95 272 396 0
-77 111 273 0
194 -252 385 0
-76 -244 -343 0
73 -81 -131 0
-60 -119 -339 0
121 244 -399 0
57 -141 -161 0
-38 -195 373 0
-76 103 -386 0
74 -169 -341 0
25 -81 -94 0
113 -115 -176 0
149 193 -219 0
-9 -20 285 0
-152 204 -226 0
-123 309 337 0
-131 -293 -364 0
-44 111 -381 0
-179 285 317 0
-29 147 -309 0
103 174 186 0
236 -293 394 0
-189 198 -238 0
12 148 292 0
99 -123 174 0
50 -272 392 0
41 233 373 0
-135 301 -398 0
-45 -182 400 0
-97 -103 -242 0
-34 75 -119 0
78 182 245 0
62 -211 319 0
-314 323 354 0
-6 -41 -373 0
-198 -315 -333 0
122 156 -183 0
-72 -291 -327 0
214 -378 -383 0
55 -97 -140 0
2 161 279 0
59 -78 200 0
132 264 -338 0
153 282 -397 0
-19 248 -345 0
57 -194 -289 0
-114 171 382 0
-49 281 -380 0
227 -336 -362 0
70 150 279 0
60 -165 -169 0
126 -214 -332 0
78 -331 392 0
-4 -227 299 0
285 -298 -333 0
44 125 333 0
85 -160 -172 0
-191 300 -318 0
334 343 -362 0
10 -13 38 0
-113 296 -312 0
-7 9 -29 0
-80 118 281 0
-70 -351 -396 0
357 365 -374 0
93 150 169 0
-67 -218 361 0
-108 217 271 0
-155 -209 -398 0
-175 -284 315 0
-35 71 -300 0
26 209 316 0
-49 -118 -155 0
101 117 -318 0
-276 330 -382 0
51 -110 271 0
3 -222 255 0
6 -72 200 0
-70 -125 248 0
106 -245 400 0
-162 221 -351 0
107 -177 200 0
-92 -236 -373 0
137 151 -159 0
210 -242 -329 0
-67 204 212 0
36 -201 -205 0
97 -148 386 0
-207 249 398 0
-113 254 -350 0
-82 -118 326 0
-146 195 -326 0
-66 290 365 0
32 -219 234 0
-52 -268 367 0
206 367 -399 0
-32 189 -290 0
-11 126 396 0
99 131 312 0
75 158 -272 0
-158 285 -362 0
-32 -181 196 0
20 -83 -236 0
107 133 287 0
-147 -269 -280 0
119 -282 -355 0
1 -80 250 0
122 281 386 0
-9 -90 -260 0
-51 -245 -323 0
155 -183 -217 0
-29 34 -242 0
153 -202 258 0
-82 -114 197 0
-119 164 -249 0
98 -174 274 0
271 -294 -317 0
-67 -105 366 0
-22 -25 -110 0
-187 276 -313 0
-7 -101 -396 0
14 -49 -75 0
-57 222 397 0
-10 -48 -176 0
60 -164 -325 0
-183 -257 263 0
-107 -291 369 0
75 -115 286 0
-215 217 -337 0
115 -171 -293 0
70 -362 374 0
109 117 315 0
12 -36 -387 0
-186 303 325 0
-201 -209 -373 0
-163 191 398 0
-58 60 -86 0
84 -145 188 0
-138 274 -293 0
-108 301 -359 0
-152 217 251 0
207 263 320 0
46 -132 154 0
6 257 -371 0
113 -165 -395 0
28 -153 214 0
48 -289 -317 0
245 -255 273 0
58 -135 393 0
29 -243 395 0
-17 -156 -193 0
-108 -222 -357 0
-172 184 362 0
-57 99 379 0
114 -171 345 0
-53 262 -342 0
21 71 180 0
-74 -94 395 0
-186 197 271 0
59 -234 384 0
269 276 -372 0
162 -196 326 0
168 289 312 0
-168 340 362 0
65 -261 -341 0
-130 161 342 0
-26 120 194 0
18 -235 -276 0
-56 -339 400 0
110 -319 361 0
-173 -180 383 0
106 162 -328 0
-23 188 278 0
-68 -107 347 0
148 -172 -244 0
56 131 -180 0
-77 180 -334 0
-28 -63 130 0
-61 -226 -348 0
-162 -353 -355 0
186 -194 -222 0
117 149 -325 0
-58 -338 -363 0
-43 63 124 0
-62 217 262 0
159 220 -259 0
-123 -159 -343 0
17 167 -391 0
-170 -171 231 0
-24 149 -280 0
167 340 -371 0
144 334 391 0
126 168 322 0
23 87 163 0
-99 -196 384 0
20 -262 -334 0
-135 -182 249 0
12 110 276 0
89 -200 381 0
86 310 -394 0
-30 97 -254 0
100 -130 -332 0
170 231 -240 0
-125 204 219 0
217 220 -302 0
-22 43 -77 0
17 -84 216 0
371 -378 -394 0
66 -340 -379 0
-65 -243 391 0
-1 145 321 0
13 157 -211 0
200 252 261 0
228 303 333 0
-133 255 288 0
-48 171 -181 0
-36 129 -185 0
-57 246 -256 0
211 315 -327 0
143 -351 -373 0
13 -184 215 0
-107 -111 151 0
-31 207 -288 0
-41 69 -139 0
246 -353 378 0
35 -47 -265 0
179 -240 352 0
-24 281 -298 0
25 -140 -216 0
14 164 396 0
111 147 242 0
-80 -222 -294 0
94 117 124 0
73 385 389 0
-83 276 363 0
-3 -50 -399 0
-132 163 -214 0
-120 128 -280 0
-8 185 -299 0
-149 300 -334 0
-132 185 -293 0
-104 114 -292 0
-162 -168 194 0
-24 -167 -280 0
152 -367 382 0
30 56 -307 0
-12 119 -235 0
-72 222 354 0
92 -111 292 0
-179 373 -389 0
16 95 -269 0
-191 -213 -274 0
169 -224 285 0
27 228 -369 0
151 207 342 0
-137 195 360 0
-93 187 285 0
109 314 372 0
28 -289 -331 0
-5 -67 -330 0
125 151 -247 0
-28 -361 -396 0
-1 274 -347 0
-29 -60 -117 0
-185 252 257 0
-144 332 386 0
-13 39 67 0
99 178 348 0
28 -72 -385 0
-94 212 -342 0
28 110 292 0
181 -320 327 0
80 -140 -270 0
46 169 -214 0
-71 -224 252 0
-4 115 -367 0
157 -182 367 0
47 182 339 0
-92 -325 369 0
15 151 282 0
-88 -107 -243 0
-38 -203 -227 0
-265 -276 343 0
170 -175 196 0
-116 -217 -223 0
-6 128 -146 0
-83 137 -195 0
-87 -99 144 0
58 -191 -258 0
114 205 264 0
-232 350 373 0
-56 95 -200 0
58 -129 -179 0
-37 -367 -377 0
1 351 -356 0
143 203 -396 0
-203 -320 -366 0
22 239 363 0
-48 -111 -354 0
-131 -177 -210 0
216 -233 297 0
-27 62 146 0
-89 -101 207 0
-142 -246 262 0
27 235 -387 0
57 -113 254 0
80 182 250 0
-74 250 366 0
-7 148 189 0
-239 270 317 0
-135 -207 336 0
11 119 298 0
73 285 330 0
-285 341 -349 0
-194 -233 338 0
33 -87 303 0
22 74 -338 0
293 -314 -338 0
120 168 -332 0
47 281 -367 0
-27 343 356 0
-114 -288 -339 0
138 141 315 0
137 147 171 0
-2 -114 318 0
-9 -205 392 0
-168 -229 -343 0
-49 -251 365 0
55 -276 372 0
257 -292 -344 0
-11 -164 183 0
-26 -118 236 0
-23 -58 -167 0
-15 29 -384 0
-64 80 343 0
20 97 288 0
28 55 138 0
-9 80 -330 0
-62 148 206 0
40 260 -370 0
61 -212 -253 0
-131 137 -249 0
216 239 380 0
156 -265 -293 0
-227 340 375 0
86 -97 99 0
58 -67 -221 0
29 -87 253 0
-178 -203 -372 0
94 -258 295 0
-97 199 243 0
-297 -378 -387 0
33 -54 289 0
158 -248 354 0
152 -274 316 0
176 332 333 0
-12 -119 -369 0
-159 351 392 0
-43 -134 -259 0
-119 -222 237 0
21 178 203 0
167 -180 386 0
-115 -151 270 0
35 -195 246 0
-131 135 -370 0
-144 -223 397 0
135 137 -372 0
213 324 354 0
91 -211 347 0
-68 169 226 0
106 -191 262 0
106 -192 -315 0
32 -138 -204 0
103 152 -305 0
36 368 -389 0
98 186 357 0
25 29 -346 0
-12 -180 -246 0
-119 163 -241 0
-243 270 333 0
144 -178 284 0
-91 158 390 0
-48 -72 -259 0
-85 -358 400 0
127 172 357 0
151 154 -283 0
-36 54 85 0
-174 186 -187 0
-48 -125 -222 0
202 -216 -257 0
-195 -377 -399 0
-183 185 -305 0
58 171 -221 0
-257 -278 -371 0
-151 160 -270 0
-20 -177 281 0
-45 -144 293 0
53 77 -110 0
72 177 -350 0
-205 -222 -397 0
78 94 -260 0
-11 301 392 0
-135 189 -326 0
152 -190 -255 0
-199 255 -282 0
-183 326 399 0
-28 -139 -318 0
178 -192 -342 0
98 197 243 0
-227 254 -347 0
17 -145 -320 0
-50 118 242 0
-73 103 -312 0
-83 -278 342 0
285 -330 -354 0
-50 261 328 0
-17 215 -364 0
-37 129 -189 0
-223 -256 -323 0
-32 74 342 0
-10 -36 -345 0
135 -163 275 0
71 -200 358 0
-158 237 345 0
124 168 -389 0
12 27 -338 0
184 -218 -289 0
42 231 -363 0
91 -107 220 0
-1 42 -326 0
117 137 -174 0
6 18 199 0
-77 -158 -284 0
-200 207 255 0
-87 236 323 0
-68 188 -239 0
-6 -208 -360 0
226 282 -297 0
-100 -141 206 0
-126 -219 -230 0
3 209 348 0
-342 -352 398 0
247 -266 332 0
-15 -170 323 0
17 -329 -384 0
172 -199 203 0
108 -220 -384 0
-18 -118 212 0
-26 187 -363 0
6 -66 170 0
66 197 -322 0
185 312 -332 0
10 156 -299 0
49 185 -218 0
-46 236 -392 0
-6 -28 308 0
168 -222 330 0
-210 261 -327 0
131 249 -396 0
-114 202 -277 0
-33 -124 -247 0
-19 301 306 0
-18 105 -232 0
-125 -163 210 0
-111 -269 -336 0
14 230 350 0
-106 111 -287 0
23 -84 -255 0
49 109 -120 0
10 211 -386 0
63 -169 -217 0
22 -103 320 0
118 256 -294 0
18 273 319 0
219 -233 267 0
14 163 -292 0
-24 -124 322 0
-2 -105 263 0
-123 -157 -218 0
113 184 -221 0
-69 118 327 0
-275 282 377 0
13 -214 -328 0
-111 -259 -340 0
142 -278 395 0
6 41 -301 0
145 -246 -260 0
59 -150 -200 0
231 -269 -308 0
16 228 -273 0
124 196 389 0
-61 -285 -379 0
-64 297 385 0
53 -341 -381 0
122 243 -284 0
-251 -253 -365 0
-49 -166 399 0
-215 316 389 0
175 -202 323 0
-121 -227 -254 0
155 -372 -380 0
-35 292 311 0
-7 -159 164 0
-61 65 241 0
142 284 394 0
-71 100 178 0
-175 295 320 0
-133 -203 -363 0
92 -111 239 0
-284 288 292 0
33 -146 -311 0
-187 304 -320 0
-162 -307 -316 0
-20 26 -267 0
151 176 -290 0
16 -26 -64 0
-37 -76 -302 0
34 216 -341 0
21 -83 -138 0
-206 230 -251 0
-181 276 -372 0
-14 92 179 0
-130 -290 306 0
56 -175 228 0
-8 -77 -82 0
-105 256 325 0
45 -269 -362 0
153 207 -365 0
150 -179 -354 0
210 -329 353 0
136 224 269 0
-336 343 363 0
-32 -58 -194 0
26 -168 339 0
154 -237 287 0
-104 -220 -262 0
64 269 -380 0
-224 315 -367 0
111 -201 226 0
125 143 286 0
98 130 216 0
-195 -270 -322 0
156 255 340 0
24 43 332 0
191 214 -271 0
-91 -274 304 0
-56 111 281 0
81 -321 -392 0
-117 225 323 0
14 148 284 0
-54 -173 -178 0
-6 -115 -205 0
-148 230 321 0
248 -302 -365 0
85 94 -215 0
-123 -175 386 0
27 -238 -255 0
82 95 282 0
-38 85 99 0
-181 -216 -313 0
-24 -38 362 0
-167 267 -400 0
58 64 -117 0
-80 -107 207 0
132 299 336 0
197 300 -308 0
2 64 243 0
-88 -326 330 0
-47 -60 191 0
-10 -198 232 0
-242 -263 289 0
126 149 -297 0
164 276 -352 0
24 310 373 0
-260 -294 297 0
-50 130 157 0
133 202 261 0
33 -54 -292 0
77 -160 396 0
147 -330 345 0
166 -193 -224 0
92 179 305 0
5 54 -278 0
-90 -195 304 0
-107 -161 180 0
240 346 375 0
-192 -222 -370 0
-45 -154 311 0
-168 179 -333 0
108 -190 317 0
222 -247 366 0
-103 -325 -344 0
-141 -276 -356 0
-163 -234 392 0
-78 207 -258 0
-142 -215 382 0
50 225 346 0
-92 101 260 0
-28 116 304 0
-16 -293 -313 0
93 231 -338 0
-74 -127 328 0
-193 -260 -396 0
172 231 263 0
-27 294 396 0
-20 -207 266 0
111 -115 -365 0
72 -84 -267 0
175 -276 296 0
-107 277 312 0
-30 -108 299 0
100 -103 -398 0
-126 148 206 0
368 372 377 0
42 -122 -146 0
1 -125 301 0
141 -159 285 0
100 224 -255 0
172 182 203 0
329 332 -340 0
-131 -270 -364 0
245 325 346 0
-101 -276 359 0
-81 116 123 0
-25 -60 -93 0
-72 -265 -373 0
-117 227 -396 0
-75 168 -266 0
-34 -220 388 0
-9 -69 145 0
186 -353 -399 0
-221 -278 354 0
22 -281 298 0
60 -88 260 0
-21 32 -392 0
-29 -272 346 0
-135 -220 390 0
-85 264 -367 0
-71 281 -389 0
-142 -249 -298 0
-55 -87 -104 0
-2 -47 -149 0
-127 146 -289 0
-11 88 145 0
-49 -160 328 0
119 317 -381 0
-112 207 219 0
68 317 -366 0
30 117 -273 0
-44 -68 213 0
14 166 181 0
74 102 391 0
41 204 317 0
107 -149 -288 0
23 -170 374 0
-208 229 -337 0
42 -360 369 0
158 -179 313 0
112 -113 -193 0
269 -271 370 0
126 -238 -321 0
-90 236 -393 0
161 -203 267 0
10 176 -302 0
-190 296 398 0
-64 -147 194 0
-64 294 -348 0
196 237 -282 0
218 363 -394 0
111 185 307 0
-32 55 -65 0
14 71 -333 0
-120 -160 186 0
40 327 -385 0
262 -315 395 0
-370 -381 389 0
-112 -142 389 0
243 280 307 0
-30 -101 183 0
34 146 -306 0
-123 -209 292 0
-28 -258 343 0
68 -99 103 0
75 -306 -373 0
-98 109 -218 0
15 -39 163 0
119 333 -353 0
169 -176 -293 0
-105 174 -199 0
-70 131 344 0
185 366 390 0
-122 -226 293 0
-65 -84 -300 0
-152 -330 -388 0
-55 295 -308 0
-27 -337 -358 0
-66 -189 -285 0
-133 206 -297 0
-361 363 -391 0
-63 -316 341 0
9 110 -358 0
4 -101 349 0
-61 -92 102 0
152 159 -253 0
-69 171 -189 0
-136 -175 231 0
-47 245 315 0
-39 209 -378 0
-15 97 -385 0
-24 62 -387 0
-114 -122 395 0
-243 288 310 0
-259 349 368 0
-98 -166 -239 0
-15 -206 -342 0
86 195 328 0
38 -95 -240 0
-12 82 -122 0
-168 -216 372 0
155 157 -173 0
-182 -231 384 0
-181 -197 400 0
-5 208 -289 0
167 -253 357 0
-273 371 380 0
-32 -102 -280 0
-186 299 389 0
-215 259 393 0
-135 -155 -220 0
-180 195 397 0
-152 -235 286 0
-23 276 362 0
152 200 -371 0
97 307 383 0
-51 218 374 0
-157 -221 -328 0
-20 42 -251 0
93 -349 -388 0
-211 345 397 0
105 119 363 0
-190 -297 384 0
292 323 340 0
-220 243 346 0
-89 141 -344 0
5 -196 282 0
-34 201 -317 0
84 -248 -318 0
-166 -275 -301 0
70 127 370 0
-13 -45 141 0
225 318 -388 0
102 -235 -238 0
68 -234 251 0
196 219 274 0
146 290 -298 0
25 157 -383 0
58 184 246 0
129 195 323 0
-96 132 -325 0
124 182 -269 0
119 268 342 0
104 -116 255 0
-11 270 -323 0
-159 167 -210 0
104 -286 -320 0
-160 321 -397 0
-42 144 -326 0
-44 190 370 0
32 72 371 0
28 -87 -288 0
-98 -170 336 0
-263 288 290 0
13 -267 -377 0
-28 -184 -225 0
-167 -210 385 0
12 39 -336 0
123 -237 360 0
123 -152 196 0
-66 -121 -242 0
76 218 -383 0
65 107 -236 0
5 -93 -309 0
177 280 400 0
2 -205 277 0
-156 -232 340 0
241 313 -331 0
-22 93 387 0
50 -161 -356 0
-128 205 -354 0
74 120 -191 0
165 -220 -336 0
133 225 260 0
2 -66 -380 0
-94 -126 -259 0
-97 -119 142 0
5 99 -276 0
-88 153 -323 0
-36 -159 -312 0
26 48 -66 0
58 -87 -148 0
-17 70 297 0
-261 317 -363 0
157 257 -343 0
-22 -50 178 0
75 218 -359 0
-10 -208 231 0
-53 326 -396 0
-110 -172 -293 0
-253 -294 374 0
31 -209 -225 0
-9 -315 366 0
-151 -232 -394 0
-158 -198 282 0
-73 -93 -238 0
55 195 363 0
18 -183 371 0
-6 141 -295 0
-115 -131 250 0
-36 310 372 0
67 -201 352 0
-200 244 365 0
-99 -313 336 0
101 158 -270 0
86 -125 -289 0
-77 -83 217 0
28 201 -319 0
128 -256 260 0
-73 -154 396 0
167 -395 399 0
-183 208 -261 0
49 192 -276 0
249 257 -366 0
-1 -169 -208 0
283 -301 -378 0
8 -168 -294 0
-88 -348 356 0
-138 267 -316 0
-366 -378 394 0
-86 120 -284 0
-246 253 -281 0
31 170 194 0
-265 -301 -385 0
139 193 -219 0
-49 -257 282 0
-12 -178 304 0
-66 -344 -357 0
141 160 296 0
-64 -260 -377 0
-58 71 308 0
-37 207 236 0
174 -215 -249 0
40 170 -177 0
-78 149 219 0
-159 -169 -219 0
98 262 283 0
-73 -141 -361 0
-68 110 169 0
29 170 373 0
146 -211 257 0
186 337 352 0
76 -168 239 0
116 275 358 0
-101 -165 -330 0
29 -293 394 0
-37 78 -166 0
-178 -190 -260 0
355 -383 385 0
14 -64 -186 0
46 -227 -280 0
-56 -142 306 0
-129 296 388 0
-59 -255 289 0
166 -182 -383 0
74 -267 313 0
-6 273 309 0
-75 309 -359 0
27 180 -271 0
94 -321 -331 0
-208 300 -317 0
101 226 -391 0
-132 -154 221 0
-47 -280 395 0
-28 230 -271 0
202 -282 332 0
16 157 366 0
58 -173 334 0
-93 -169 255 0
-138 -139 -341 0
57 167 -305 0
-120 168 234 0
222 -284 -289 0
87 -224 400 0
-13 -47 -145 0
80 -107 -346 0
-53 124 -320 0
-13 92 209 0
-2 66 -190 0
-65 123 319 0
246 -353 -369 0
107 149 -266 0
-30 158 -331 0
3 171 242 0
25 -231 302 0
321 339 -351 0
151 -292 -326 0
-9 -87 285 0
-79 220 -255 0
-207 267 334 0
145 248 390 0
-120 -152 280 0
20 -55 -152 0
163 -213 274 0
223 -312 -377 0
81 119 306 0
-187 -339 -398 0
87 -112 -305 0
-49 -164 -313 0
17 -308 323 0
-23 -324 370 0
-10 233 245 0
46 159 -169 0
30 -233 266 0
228 342 -351 0
149 168 207 0
52 -182 211 0
100 112 265 0
33 -94 -326 0
-55 -175 -195 0
-165 173 -182 0
96 -124 357 0
16 356 366 0
87 123 -363 0
-175 -188 309 0
35 -56 -362 0
214 -259 -297 0
-150 156 158 0
118 -134 324 0
-3 8 57 0
-44 104 161 0
-334 -375 376 0
-140 172 -348 0
-252 345 -389 0
180 -245 -290 0
-86 141 158 0
43 77 128 0
18 -118 396 0
-14 -68 249 0
-86 -259 -383 0
47 -301 -347 0
-13 -38 -64 0
55 196 -355 0
11 150 -190 0
-191 -328 -338 0
38 -67 325 0
63 -93 131 0
138 -180 -197 0
4 -97 393 0
110 123 278 0
26 -101 -249 0
140 158 -252 0
-171 240 279 0
180 -329 391 0
-56 -57 -383 0
-27 90 121 0
109 171 -300 0
-117 -200 297 0
103 119 -212 0
127 193 308 0
69 -76 -96 0
-7 62 -329 0
-92 -96 99 0
229 -230 -239 0
62 138 -377 0
-128 -235 265 0
-98 192 308 0
112 -256 -362 0
-199 223 300 0
83 259 -266 0
-114 -139 257 0
15 -144 385 0
-199 216 -317 0
-37 -210 -320 0
148 321 -336 0
52 -263 -387 0
-25 290 -329 0
81 172 -336 0
105 197 -342 0
109 149 -255 0
101 -240 -338 0
-52 57 269 0
-230 -343 -364 0
-194 249 397 0
-8 -219 399 0
281 331 357 0
69 240 -389 0
303 -374 398 0
280 305 -390 0
56 -76 152 0
107 128 168 0
-69 205 -368 0
77 132 139 0
-204 -329 -340 0
-201 -212 -282 0
118 -261 388 0
-258 -356 374 0
-137 202 -206 0
23 270 -349 0
60 -250 -349 0
33 220 -366 0
-45 -255 307 0
-208 -288 -382 0
-162 221 -309 0
211 -220 -385 0
-40 -151 218 0
-85 -132 -264 0
73 130 175 0
50 -339 -357 0
-90 -321 -374 0
-17 256 -382 0
-108 -127 180 0
-3 270 362 0
-250 -334 356 0
-118 -163 257 0
60 126 -172 0
132 200 231 0
35 51 -172 0
-228 306 325 0
28 132 232 0
79 -116 292 0
274 357 -373 0
13 229 -342 0
-32 -194 -215 0
-27 273 -291 0
-315 350 -383 0
-254 -322 399 0
-32 -231 -346 0
-29 -75 -355 0
-49 -191 227 0
82 186 -341 0
84 236 386 0
41 -133 329 0
-192 379 -390 0
-178 -317 385 0
-34 178 339 0
-118 -187 395 0
146 323 339 0
-95 -295 -383 0
-23 190 -225 0
65 -96 386 0
166 -375 388 0
-46 -114 -115 0
129 169 -313 0
-49 255 263 0
63 241 -254 0
49 183 281 0
-159 -169 -174 0
-164 315 -389 0
-180 261 367 0
172 202 384 0
57 165 -360 0
-46 60 93 0
182 221 361 0
66 71 363 0
-290 330 -340 0
240 -262 371 0
-59 67 -312 0
231 353 -368 0
67 -72 -366 0
-1 -144 -267 0
54 172 -264 0
-74 296 -301 0
268 -320 -376 0
-187 -247 -282 0
124 186 288 0
-116 282 380 0
45 113 272 0
-11 50 200 0
150 -186 -301 0
-196 204 290 0
-163 232 -302 0
-22 72 -232 0
205 -302 337 0
87 246 -270 0
101 -109 255 0
1 -113 301 0
-170 296 -376 0
129 167 -195 0
-86 158 189 0
140 163 -279 0
29 -175 -325 0
-209 353 373 0
63 -70 139 0
282 289 394 0
-73 124 -256 0
-72 -133 -258 0
25 -42 -320 0
-284 -335 -341 0
97 179 -277 0
-136 -205 -355 0
55 183 -256 0
33 187 -233 0
-38 -169 385 0
46 93 328 0
70 -89 385 0
86 273 393 0
-28 287 -372 0
202 -366 376 0
103 193 239 0
-167 186 297 0
57 142 353 0
48 -94 -142 0
41 146 181 0
254 -305 -373 0
-162 -330 348 0
-62 -143 347 0
-29 270 -274 0
3 156 386 0
90 -99 355 0
-95 -247 320 0
-33 184 216 0
18 -248 352 0
-25 163 238 0
236 -342 -371 0
156 171 -348 0
83 -244 253 0
336 363 -374 0
97 -335 -354 0
-8 -39 -182 0
72 -339 -349 0
147 -258 383 0
-94 133 -332 0
137 358 379 0
60 -114 -304 0
-102 151 -398 0
8 -310 -358 0
260 383 391 0
-22 -76 112 0
-36 -45 -257 0
254 375 -376 0
47 -73 -224 0
-30 -248 -254 0
71 91 213 0
164 -274 349 0
-185 -338 368 0
-178 -204 207 0
128 275 308 0
14 -363 -384 0
108 131 184 0
-2 4 -73 0
127 -373 -383 0
-79 -171 396 0
27 -150 -337 0
-203 -210 264 0
-20 -31 -350 0
-47 206 -217 0
83 -226 371 0
299 339 358 0
7 115 -129 0
298 299 336 0
-40 -97 267 0
-81 -207 223 0
58 289 315 0
-6 -164 367 0
-16 65 -165 0
13 -360 -366 0
83 -315 327 0
106 -217 273 0
-191 208 -261 0
9 170 230 0
74 90 -399 0
-90 114 -144 0
-22 25 248 0
229 321 -345 0
114 184 -246 0
14 -52 -107 0
-120 291 -336 0
206 212 271 0
-146 191 -275 0
-193 210 -246 0
-132 -227 -369 0
102 -207 376 0
-178 -222 -264 0
-61 -86 -261 0
-39 172 232 0
-59 -173 -382 0
104 128 -179 0
149 -158 -335 0
82 351 372 0
89 222 -323 0
-50 -251 329 0
83 117 -226 0
50 -228 240 0
-36 231 261 0
42 -184 321 0
55 -128 -315 0
-33 -249 -316 0
109 -181 -209 0
54 134 400 0
-31 44 -318 0
-71 131 292 0
8 69 388 0
148 187 310 0
95 341 -381 0
-318 361 -365 0
240 -269 -392 0
157 171 -291 0
-47 -69 -254 0
-22 135 156 0
118 -182 -372 0
-44 -258 323 0
125 149 316 0
-194 221 -300 0
-27 314 -320 0
6 -198 226 0
94 141 -196 0
10 -163 -378 0
-72 103 281 0
-80 -247 -329 0
-1 -195 -256 0
28 34 135 0
-2 19 330 0
-2 19 -37 0
-15 -100 185 0
10 27 186 0
-115 -180 211 0
-221 -355 399 0
6 135 -144 0
88 281 380 0
-206 355 375 0
79 101 337 0
43 132 309 0
17 -187 -190 0
66 -224 -317 0
190 -256 365 0
-88 114 -306 0
-132 -318 -366 0
-123 165 -302 0
99 -257 367 0
109 -368 396 0
86 -265 343 0
-15 163 -339 0
-8 -130 271 0
151 204 -383 0
-139 140 325 0
51 115 -138 0
25 -156 -237 0
-114 -359 -391 0
-189 251 354 0
-159 -242 319 0
81 202 -374 0
-209 260 338 0
30 -317 385 0
36 -168 392 0
184 -374 393 0
-119 254 274 0
-195 -312 -343 0
-12 179 -302 0
149 -198 -367 0
-21 -74 -111 0
-229 266 -310 0
136 298 367 0
131 189 376 0
-18 37 50 0
-293 -299 376 0
41 -217 -234 0
61 -145 292 0
-146 314 -321 0
-252 -301 -343 0
4 140 -202 0
218 229 -235 0
54 -178 -397 0
-228 -271 -311 0
-118 -236 -295 0
-1 26 -61 0
21 80 -299 0
-51 206 265 0
-5 -229 280 0
-91 344 -346 0
-121 -125 134 0
21 150 331 0
5 159 210 0
-7 28 99 0
-111 289 293 0
64 149 -213 0
39 190 286 0
30 213 -247 0
-161 308 388 0
-34 273 -364 0
-200 -226 -338 0
63 -105 -333 0
-62 297 378 0
-131 141 157 0
165 185 244 0
-60 177 263 0
-66 143 190 0
-64 146 330 0
76 -97 344 0
21 -28 -188 0
