c F2 random 3-CNF cnfgen RandomKCNF(3,400,2000,seed=0) m/n=5.0
p cnf 400 2000
198 -216 -389 0
-156 208 245 0
72 -145 387 0
51 -159 -374 0
-52 -182 287 0
-227 245 283 0
48 -205 -369 0
125 167 374 0
-73 123 279 0
164 -251 -261 0
-64 281 -362 0
-47 -228 306 0
95 97 -149 0
36 46 244 0
-42 -277 359 0
-111 -302 -348 0
-253 329 -339 0
-60 250 314 0
9 139 -375 0
88 171 219 0
24 113 358 0
97 -311 326 0
19 60 190 0
64 246 368 0
218 -279 318 0
-37 -114 -332 0
-32 93 258 0
-103 -201 -359 0
87 292 358 0
-83 176 -272 0
-7 -90 -341 0
-183 199 333 0
-41 235 -380 0
-70 -123 -391 0
184 -303 -345 0
213 334 384 0
82 172 -358 0
-194 345 -364 0
215 291 -360 0
33 -133 -360 0
288 310 -387 0
160 -167 240 0
43 281 -325 0
162 214 348 0
2 368 387 0
-102 -312 333 0
52 204 -244 0
60 -132 232 0
10 80 143 0
-133 -286 349 0
-312 -360 -384 0
92 -191 -276 0
-5 -71 -78 0
-48 189 368 0
-77 -84 -139 0
67 -151 281 0
25 -92 -158 0
154 169 -213 0
173 -176 243 0
219 -255 -359 0
80 -352 377 0
34 44 -102 0
-5 -51 -202 0
300 -348 366 0
113 -134 189 0
33 -59 184 0
-61 204 255 0
75 111 -320 0
186 194 -280 0
-76 -208 -289 0
256 326 344 0
-175 -362 383 0
76 -132 -269 0
241 362 368 0
34 -67 116 0
170 230 -389 0
191 196 259 0
219 -383 -387 0
199 247 312 0
-94 -155 380 0
-135 -156 -253 0
32 84 -329 0
29 -172 -374 0
73 252 -309 0
-19 -211 -314 0
25 52 242 0
-68 307 -317 0
-100 197 398 0
-240 313 -359 0
66 151 199 0
191 -201 -228 0
23 -39 -324 0
14 267 342 0
-322 -398 400 0
-75 219 290 0
-33 51 213 0
-221 229 -352 0
130 -167 370 0
63 -184 -355 0
-6 92 119 0
2 105 -107 0
13 189 354 0
-58 -233 245 0
-15 -107 -186 0
-152 284 326 0
-53 274 -298 0
-65 76 115 0
-95 -150 387 0
-11 68 308 0
-68 154 -216 0
153 182 -327 0
190 -324 -327 0
-5 -214 373 0
151 191 242 0
58 -142 -286 0
-95 216 394 0
175 -233 -268 0
-45 324 -327 0
-1 230 358 0
-59 153 -394 0
242 -362 385 0
-208 279 391 0
21 -139 -343 0
-270 -298 364 0
-130 182 383 0
-19 -37 135 0
128 272 -391 0
145 149 267 0
-211 -279 -325 0
191 227 291 0
-62 -196 357 0
-154 -287 -343 0
-112 -245 251 0
-74 154 228 0
-14 182 242 0
-42 352 -380 0
22 -60 -318 0
-73 117 373 0
-223 -236 367 0
-170 216 -332 0
-76 269 363 0
-96 -179 -228 0
113 -200 374 0
-26 301 364 0
-44 96 325 0
120 -153 -313 0
-28 -211 -235 0
131 -244 -361 0
22 -23 27 0
4 149 -336 0
-114 312 -349 0
99 174 -312 0
-166 -234 275 0
-23 98 268 0
97 -178 -269 0
-160 -197 -265 0
-23 123 365 0
-236 254 -371 0
226 236 253 0
51 -124 392 0
-40 -226 314 0
93 128 -251 0
164 -181 223 0
-152 -365 -399 0
9 119 140 0
128 -213 376 0
-264 275 380 0
140 -197 331 0
-346 361 367 0
-34 158 -266 0
147 246 322 0
-168 259 284 0
80 91 203 0
255 292 397 0
-120 197 -390 0
-14 -56 -316 0
7 -113 -159 0
161 -280 361 0
206 -310 -361 0
31 -107 197 0
176 -226 -343 0
84 -157 344 0
-78 323 -375 0
13 32 322 0
116 168 -335 0
70 -217 -340 0
73 -160 -184 0
-5 -196 210 0
-63 210 290 0
71 257 -319 0
91 122 127 0
41 -219 368 0
-21 -309 -315 0
-14 19 -321 0
-78 150 -344 0
-84 -377 -386 0
-8 -202 -253 0
-18 273 -396 0
-62 -203 -370 0
11 -27 -140 0
-107 -352 -391 0
-60 107 -290 0
79 84 170 0
-150 -177 -186 0
207 221 308 0
23 -227 292 0
-246 341 370 0
143 218 282 0
81 -328 -338 0
137 -146 -160 0
-133 -270 276 0
73 222 -362 0
-19 185 238 0
82 -186 -271 0
10 375 -377 0
95 -216 389 0
231 366 381 0
-34 -219 -226 0
-224 -388 397 0
16 -158 253 0
-198 -204 391 0
182 -239 -299 0
13 204 243 0
178 185 290 0
-57 344 -368 0
13 -162 -202 0
73 -305 -344 0
31 84 -262 0
329 362 -367 0
93 177 300 0
-104 -134 -136 0
-80 234 265 0
91 -300 324 0
99 -234 332 0
171 -336 364 0
-43 266 279 0
-54 -219 -312 0
186 194 -263 0
12 94 -376 0
-23 99 -312 0
27 -200 308 0
-28 -210 -226 0
212 233 -289 0
98 -136 199 0
14 64 -180 0
316 -335 -354 0
-284 -356 382 0
-27 206 275 0
42 -171 184 0
-79 265 321 0
81 173 193 0
82 -328 400 0
-248 321 348 0
-124 145 326 0
-84 -116 -181 0
71 198 290 0
200 352 368 0
13 166 262 0
58 294 -398 0
-14 215 224 0
-111 187 262 0
-209 290 -338 0
-126 224 -242 0
-123 247 -331 0
142 -191 270 0
-21 -142 313 0
-25 74 -274 0
202 -222 -375 0
-83 -87 175 0
146 -303 -391 0
-74 184 322 0
-91 -132 -371 0
-22 150 -325 0
138 -193 373 0
-57 68 314 0
-204 221 296 0
218 279 399 0
85 107 -117 0
-183 -320 377 0
135 -210 -396 0
-75 -273 356 0
-178 -194 -200 0
51 209 350 0
299 305 325 0
137 -353 375 0
-6 -19 -60 0
-56 -232 -347 0
82 118 398 0
-86 265 -330 0
-208 351 363 0
88 -199 226 0
-208 302 -330 0
21 -246 -318 0
-202 -283 331 0
118 -187 277 0
-36 -234 245 0
118 -136 247 0
49 71 185 0
-4 17 -208 0
-178 287 400 0
-117 -124 255 0
-5 182 254 0
157 -217 -294 0
-75 119 -389 0
-145 184 338 0
-182 206 -257 0
-184 -222 -324 0
145 -366 -393 0
-62 79 229 0
118 -174 -256 0
237 -238 -263 0
120 162 -250 0
-117 163 202 0
48 -135 209 0
-58 93 358 0
5 23 196 0
103 -310 311 0
-1 267 319 0
-117 -120 213 0
108 -196 224 0
-178 -299 -361 0
69 -306 329 0
53 140 366 0
-107 195 -294 0
62 -257 261 0
230 -241 -261 0
-66 131 -214 0
-120 -128 -233 0
13 -229 -371 0
-115 -124 -220 0
-73 -117 -226 0
77 268 -307 0
266 324 345 0
19 -172 -176 0
-97 211 348 0
-25 201 -396 0
-94 266 -278 0
-110 293 340 0
163 250 310 0
-32 69 125 0
-218 -265 -388 0
-84 -99 -351 0
-201 -225 340 0
76 113 -387 0
238 -277 363 0
11 -107 -208 0
108 277 -325 0
159 195 -279 0
-8 -105 -386 0
12 43 -382 0
79 -133 -239 0
-113 196 -197 0
-23 -46 80 0
-223 -246 270 0
60 223 311 0
61 221 -362 0
-60 -136 -197 0
98 -316 327 0
-12 -83 254 0
-51 177 -315 0
54 267 -293 0
-18 115 267 0
91 -340 356 0
-312 -358 382 0
138 179 -370 0
66 142 -161 0
158 166 362 0
-59 86 -150 0
-46 213 230 0
166 -238 304 0
-224 322 345 0
5 -138 -327 0
148 281 335 0
-29 -133 -306 0
-116 -130 -299 0
-63 217 363 0
-119 245 362 0
42 51 -158 0
-8 186 386 0
-138 -145 -256 0
-30 85 358 0
78 114 -155 0
14 -93 279 0
125 287 389 0
154 -269 397 0
-32 -86 211 0
-198 270 274 0
6 45 273 0
-203 -231 -382 0
133 203 339 0
24 108 -380 0
128 -231 364 0
-76 -180 -307 0
-257 329 353 0
-103 -246 -376 0
-72 -155 -226 0
-179 -309 -327 0
153 257 -357 0
111 136 -264 0
-133 -175 222 0
-100 132 374 0
-53 104 306 0
-89 -95 317 0
9 337 -346 0
-121 -202 256 0
60 222 299 0
-140 273 -305 0
95 -101 164 0
-259 303 314 0
28 224 310 0
159 170 -215 0
-71 -162 -337 0
139 -170 312 0
-56 -133 -263 0
-82 312 344 0
58 -300 -396 0
-52 -352 -374 0
57 183 326 0
8 312 -398 0
-14 198 247 0
201 330 360 0
-15 25 -212 0
208 -209 280 0
66 288 330 0
-148 -241 296 0
5 207 351 0
80 146 328 0
-4 171 -380 0
33 -297 385 0
-130 -170 231 0
-42 -162 -225 0
219 266 283 0
-205 262 330 0
-18 74 80 0
-138 -269 -290 0
-164 -206 303 0
-20 -258 -398 0
4 -128 263 0
189 223 393 0
21 -184 292 0
-138 -175 249 0
-121 -332 395 0
-23 379 -390 0
-148 351 357 0
233 -320 -363 0
168 -221 -297 0
-122 189 196 0
-124 -131 275 0
173 -307 320 0
74 132 -390 0
105 -246 355 0
-46 277 -364 0
140 -200 -263 0
11 162 375 0
-84 286 -310 0
-148 -257 -353 0
-345 359 381 0
-31 -82 -172 0
-213 247 281 0
42 322 -372 0
50 306 376 0
49 -160 374 0
295 -313 -396 0
82 95 303 0
-117 133 -254 0
-41 70 105 0
-9 180 -302 0
-42 359 369 0
74 -107 380 0
75 -249 276 0
-90 -234 343 0
-327 333 376 0
-140 -180 251 0
147 201 -283 0
59 303 -334 0
74 134 217 0
-136 168 -226 0
-200 370 377 0
-18 -157 336 0
105 201 -240 0
-63 260 345 0
104 -120 -124 0
36 109 -281 0
47 52 -99 0
-203 -308 329 0
177 180 394 0
111 226 266 0
122 -233 -242 0
-169 201 378 0
190 255 314 0
-10 -123 210 0
190 265 -325 0
164 -350 372 0
-103 -152 -267 0
19 -74 226 0
-97 -270 309 0
-77 -294 300 0
-60 -72 81 0
-20 154 -385 0
-51 52 332 0
16 -350 -364 0
-132 300 378 0
63 -321 348 0
7 74 116 0
35 -55 -144 0
-133 296 400 0
-31 -73 -232 0
200 -209 327 0
46 109 398 0
-6 -164 232 0
-170 364 -367 0
-49 228 -333 0
-44 157 -397 0
-14 198 -330 0
-262 -319 396 0
4 -83 -137 0
-102 -242 249 0
138 255 312 0
134 174 -363 0
159 -166 -319 0
66 329 -400 0
-242 370 -390 0
-210 219 224 0
68 232 -286 0
-122 246 -336 0
30 -152 -346 0
-64 270 286 0
-1 -48 174 0
-125 -192 343 0
8 205 231 0
-107 169 -372 0
-48 53 279 0
-57 85 351 0
133 -239 356 0
9 194 -288 0
-43 323 -394 0
-118 -197 371 0
-5 218 -328 0
-161 -178 -263 0
140 177 398 0
166 -237 -330 0
147 319 360 0
236 265 -374 0
170 309 -359 0
-212 226 240 0
-35 105 291 0
-266 -356 369 0
-12 -41 220 0
-102 -152 -316 0
-20 -33 -45 0
196 -331 -357 0
-1 -206 -284 0
-79 -205 -346 0
-190 -241 281 0
-20 -178 -218 0
-34 117 -350 0
13 174 -320 0
36 51 398 0
-6 -92 333 0
-149 204 226 0
55 -81 -246 0
-155 157 -376 0
170 237 -390 0
-113 233 -325 0
21 35 -218 0
4 151 159 0
23 -80 320 0
11 72 300 0
34 312 364 0
42 -222 -250 0
87 257 -373 0
217 262 374 0
128 -284 -374 0
-166 -271 288 0
47 -290 -356 0
-146 181 377 0
1 74 132 0
-60 251 -377 0
21 -72 -134 0
-49 103 -324 0
98 165 -326 0
-53 -205 -394 0
17 -170 327 0
-216 275 -388 0
24 -138 -382 0
-4 348 397 0
130 190 -269 0
103 -291 -313 0
-22 348 356 0
82 -169 311 0
102 281 -299 0
-231 -280 -338 0
-9 -60 395 0
-117 246 370 0
-254 -315 384 0
-79 -220 348 0
33 130 -359 0
51 -95 384 0
-132 -204 -268 0
-62 -238 -252 0
-130 146 -370 0
258 -264 -331 0
-336 375 390 0
-44 213 285 0
-200 -253 -348 0
-285 376 381 0
-108 -183 311 0
-50 85 -113 0
162 -226 -356 0
175 252 -364 0
136 -202 262 0
72 -75 259 0
-14 23 251 0
72 -239 322 0
-67 -155 183 0
52 -53 -169 0
93 -188 -298 0
110 -208 -325 0
-222 -249 343 0
-106 220 -391 0
-37 -71 -239 0
126 -176 231 0
-113 175 361 0
-275 -301 310 0
45 -162 -339 0
60 -340 -366 0
-159 168 389 0
155 333 338 0
-41 124 244 0
-46 -194 -382 0
73 340 362 0
-62 78 -324 0
42 296 -298 0
-89 -207 -272 0
-90 -321 332 0
44 -83 -371 0
-47 -170 -338 0
29 -72 179 0
-34 -65 119 0
116 -185 385 0
-103 -122 -316 0
-247 -302 327 0
-93 319 351 0
90 160 -226 0
-271 -272 -288 0
-117 -173 312 0
267 -370 378 0
1 44 288 0
29 160 165 0
118 -375 -389 0
-272 -318 333 0
21 201 -369 0
6 213 378 0
-67 -297 -326 0
-176 -232 -398 0
-137 -156 -265 0
-172 207 344 0
-240 -366 -386 0
67 -350 379 0
88 -99 320 0
-95 301 -339 0
95 128 223 0
47 360 378 0
-108 -289 331 0
50 -193 251 0
-115 -311 391 0
49 72 215 0
-137 142 -353 0
173 280 -364 0
-6 -32 97 0
170 -219 302 0
-247 253 -312 0
-31 177 366 0
142 235 287 0
-286 -291 377 0
-140 200 -240 0
13 -57 -234 0
-80 -153 311 0
-80 167 -312 0
81 -92 -296 0
274 -329 -399 0
-68 288 355 0
48 -58 125 0
-15 -169 -193 0
227 -266 -384 0
-115 222 -388 0
-110 -173 366 0
-91 367 372 0
181 -194 -377 0
-86 319 364 0
96 200 211 0
-35 -111 275 0
82 -87 -396 0
-32 110 275 0
25 305 -333 0
-103 338 387 0
-1 -191 280 0
-7 -156 298 0
-144 169 -393 0
77 181 -289 0
-5 -120 -222 0
-3 90 354 0
23 -47 -343 0
90 307 376 0
-21 202 -208 0
-14 164 -344 0
126 -306 -347 0
25 -263 -323 0
95 291 373 0
-62 -103 -151 0
-74 -93 296 0
-57 196 -388 0
-114 210 -391 0
186 319 353 0
205 249 263 0
79 -85 156 0
68 -318 -327 0
7 188 392 0
-228 -342 367 0
-128 302 -385 0
-54 -342 -356 0
30 -136 -151 0
100 120 175 0
-63 194 -351 0
14 -201 274 0
-103 131 364 0
-217 257 346 0
-63 148 -375 0
127 151 -276 0
-99 -184 219 0
-72 238 322 0
-206 -236 -393 0
73 -146 248 0
91 238 -304 0
119 -150 -321 0
16 -278 -290 0
117 189 269 0
60 -275 -310 0
-127 249 262 0
93 -175 390 0
53 162 263 0
-245 -350 -377 0
47 -107 -316 0
175 -263 -364 0
359 -371 382 0
-20 -50 -344 0
-10 -131 228 0
-181 -186 375 0
-9 -202 322 0
61 -161 280 0
-26 48 -65 0
43 -125 -290 0
-325 330 357 0
-141 236 324 0
6 232 372 0
26 -293 349 0
-115 -116 -342 0
-192 -290 378 0
67 125 380 0
22 -55 -72 0
203 -231 334 0
-65 -154 313 0
235 -291 -293 0
158 -286 -340 0
-137 -264 357 0
160 -166 -301 0
-4 56 381 0
293 342 345 0
159 237 -384 0
-122 -141 380 0
-206 -309 -382 0
-8 170 -389 0
-47 -79 -356 0
143 179 -320 0
133 239 244 0
-27 -284 -398 0
-30 185 -197 0
-23 -244 -277 0
-318 321 -389 0
11 -230 -319 0
136 -252 356 0
120 125 -178 0
194 -228 332 0
-7 236 348 0
-53 239 -357 0
30 -54 -71 0
-269 339 -397 0
-174 -247 300 0
25 -267 379 0
164 196 348 0
-16 125 288 0
-253 -277 293 0
89 -135 -229 0
-175 321 -377 0
3 31 -393 0
10 85 289 0
41 -72 -78 0
-10 148 190 0
-6 -189 302 0
-295 -347 351 0
-97 185 210 0
95 269 -308 0
287 298 -299 0
-131 135 -240 0
-50 185 -215 0
92 -173 -230 0
138 -181 340 0
-81 -103 299 0
1 188 -392 0
49 -210 -291 0
-103 320 354 0
-207 -249 -315 0
32 159 -208 0
-63 259 -319 0
-65 117 -368 0
-161 246 -395 0
15 -252 291 0
-8 147 192 0
113 -199 312 0
-65 -200 -395 0
70 -314 -368 0
-73 -159 -177 0
204 -307 364 0
-94 255 -355 0
-104 150 -270 0
78 -84 139 0
84 108 178 0
-65 -130 295 0
-32 143 -294 0
-134 172 366 0
-16 -175 -374 0
118 -301 -343 0
-43 -304 342 0
-5 -21 65 0
-172 191 265 0
99 -284 -317 0
22 -43 74 0
211 -292 356 0
47 -53 174 0
88 -337 -377 0
-6 -102 105 0
-53 -261 -386 0
120 256 261 0
136 222 329 0
-59 168 170 0
34 -156 -293 0
77 116 167 0
21 -292 -366 0
-121 281 283 0
50 -171 320 0
-104 -230 -231 0
98 232 -343 0
-135 180 221 0
-278 306 372 0
-177 312 -350 0
109 -203 -229 0
-13 18 185 0
-25 -28 -384 0
-14 170 -330 0
-23 141 378 0
179 335 346 0
277 294 -387 0
52 56 144 0
-119 -123 -284 0
-27 105 268 0
-67 202 354 0
61 -117 -392 0
132 216 -312 0
80 253 -359 0
-198 -246 -299 0
273 328 -396 0
-122 -257 274 0
-140 -223 -262 0
107 -164 -381 0
-53 100 -125 0
109 -215 -238 0
-34 -201 300 0
-62 -86 328 0
102 200 202 0
-171 -213 218 0
137 243 339 0
78 287 -316 0
-72 -218 259 0
39 138 327 0
7 -69 -368 0
155 -270 -373 0
316 334 395 0
-5 -268 335 0
-14 161 -348 0
-31 -194 222 0
57 111 -324 0
119 -142 -165 0
45 308 -362 0
-12 -245 -398 0
20 89 -366 0
361 -366 384 0
-13 -28 -118 0
-145 -314 -372 0
-35 67 330 0
-79 85 -174 0
-181 -321 371 0
-33 267 -337 0
38 -236 383 0
-95 196 -377 0
143 145 -218 0
161 280 305 0
-228 371 378 0
101 -146 369 0
-188 -263 356 0
-19 99 -320 0
-2 -22 151 0
86 -347 -355 0
-119 -138 392 0
47 168 -371 0
-143 193 389 0
-19 291 301 0
-83 95 144 0
-41 -119 203 0
-75 148 315 0
153 -196 249 0
187 235 341 0
184 -237 -338 0
51 380 -396 0
-103 -105 -254 0
-3 80 -83 0
164 321 -357 0
-99 -234 318 0
-81 -129 150 0
-36 -253 -336 0
-188 284 -351 0
-108 -215 -386 0
-75 -331 399 0
132 290 -332 0
42 -91 -336 0
-3 -93 -143 0
25 224 360 0
217 334 -395 0
108 -241 306 0
89 243 311 0
75 129 225 0
113 277 -329 0
78 170 251 0
-29 -117 327 0
52 134 -254 0
164 323 -372 0
81 -127 269 0
-52 -147 213 0
57 191 204 0
-16 -210 287 0
9 29 386 0
58 -168 -323 0
30 -239 391 0
136 139 395 0
-137 186 190 0
-150 186 210 0
113 172 -251 0
178 274 339 0
120 -317 -327 0
30 -183 321 0
-53 240 -259 0
161 -175 312 0
-162 200 217 0
-192 193 199 0
36 107 193 0
173 194 334 0
-79 -85 -187 0
-154 -174 -393 0
88 -232 379 0
-210 -277 323 0
-16 -75 361 0
-63 149 365 0
225 326 -358 0
34 122 244 0
-102 -307 332 0
144 -153 356 0
85 -177 211 0
-234 244 -338 0
-12 43 239 0
30 -270 346 0
-66 -210 245 0
17 273 294 0
92 232 237 0
-241 -249 -261 0
174 313 315 0
-230 -246 249 0
-17 -24 -391 0
121 301 -311 0
-80 100 -355 0
-55 -319 359 0
-33 190 -316 0
-54 -251 -275 0
-188 -205 -394 0
-4 107 235 0
-7 163 -193 0
-128 -323 334 0
-9 107 326 0
44 105 -155 0
151 167 -327 0
-4 68 385 0
-158 227 372 0
-175 322 352 0
-166 -207 -397 0
-91 213 -247 0
-215 -334 392 0
176 -252 -321 0
-187 324 329 0
-146 -274 -384 0
234 -332 -336 0
212 -280 -331 0
4 -182 -327 0
113 -351 368 0
112 -276 310 0
-28 -135 282 0
232 351 -374 0
129 -140 247 0
103 127 -252 0
-97 177 293 0
100 197 -390 0
-84 249 354 0
158 366 393 0
-45 -179 -231 0
-114 142 -193 0
61 -190 -202 0
137 180 270 0
48 79 -132 0
-200 287 -373 0
-13 104 -397 0
218 302 341 0
-173 213 -273 0
-89 -237 -324 0
-1 -51 -371 0
78 141 -273 0
-93 253 336 0
37 304 -347 0
-20 -62 -265 0
-58 -117 180 0
-294 -309 365 0
175 -246 276 0
22 -191 315 0
-115 -175 245 0
-174 191 -291 0
-214 -290 -380 0
-82 98 245 0
1 22 254 0
109 266 -349 0
11 -97 271 0
61 -172 216 0
57 102 269 0
5 -41 -317 0
-75 -269 298 0
143 -165 391 0
103 169 -342 0
31 195 -243 0
25 51 220 0
40 157 -341 0
-194 224 -341 0
-39 -345 -353 0
9 170 -315 0
-101 226 -355 0
-22 -117 126 0
188 201 355 0
10 162 320 0
113 -182 -307 0
-96 -103 -322 0
48 113 -302 0
-38 -95 -300 0
56 69 -106 0
25 -55 -130 0
43 69 362 0
68 -114 -232 0
53 186 -218 0
293 313 -331 0
189 272 -369 0
116 -256 -317 0
22 -165 277 0
15 -167 -252 0
92 276 -294 0
60 -358 -365 0
149 -156 -303 0
8 -47 341 0
-29 -44 77 0
33 -42 -115 0
238 -310 -312 0
14 -149 -314 0
88 -165 215 0
15 -138 395 0
-7 -306 370 0
10 -21 314 0
-115 -314 -374 0
257 -357 396 0
-18 -136 -138 0
-120 -158 -359 0
58 -194 249 0
90 -333 -351 0
-227 -269 334 0
-228 278 397 0
159 245 315 0
37 -348 -357 0
-47 -49 -258 0
-31 -159 -240 0
66 277 -341 0
124 128 -291 0
-57 -173 198 0
197 -234 303 0
-20 -119 192 0
133 -169 351 0
-101 150 269 0
-59 -235 273 0
54 157 258 0
-92 -186 276 0
100 -159 -328 0
138 149 199 0
68 117 -300 0
-83 89 -339 0
160 -284 306 0
79 -108 -113 0
152 -157 229 0
70 237 -245 0
-112 -142 -200 0
-68 -348 -359 0
109 -210 373 0
247 -296 337 0
-8 15 306 0
17 -140 -171 0
-53 195 209 0
-85 -228 -309 0
76 -274 -378 0
-60 70 -318 0
-211 348 -394 0
8 58 -253 0
66 -123 -142 0
114 257 350 0
191 -251 -279 0
-105 -230 254 0
-62 -265 -373 0
45 50 -162 0
-31 93 -274 0
14 67 122 0
-175 -179 -398 0
166 -172 -290 0
-38 -354 -400 0
49 221 383 0
188 273 290 0
-53 -287 -338 0
149 165 -245 0
-170 212 359 0
21 40 -161 0
136 -303 397 0
-71 -106 316 0
-42 -136 -382 0
-151 223 326 0
217 -332 389 0
68 -119 -271 0
-24 228 -300 0
44 -311 -312 0
168 281 285 0
141 206 314 0
213 318 329 0
50 124 380 0
22 33 333 0
-112 173 -209 0
-46 162 -302 0
-25 -27 39 0
-56 -87 192 0
219 233 337 0
-63 -82 213 0
1 366 -391 0
79 106 -169 0
-66 134 -170 0
-3 -356 -376 0
-163 254 312 0
66 253 369 0
62 117 -129 0
-151 -222 237 0
3 -105 348 0
-18 -112 -158 0
67 110 151 0
26 67 170 0
25 -61 -371 0
16 53 226 0
-5 -85 -294 0
-93 -305 309 0
62 -86 282 0
-6 18 309 0
-133 134 -231 0
-285 -310 -348 0
-113 228 -305 0
-63 103 201 0
36 -257 -348 0
-103 -105 368 0
-24 -252 -371 0
-143 200 312 0
9 -36 -89 0
224 -240 272 0
-183 -348 -394 0
130 292 -308 0
-88 -326 337 0
-42 -295 -336 0
223 -317 385 0
104 -146 269 0
-209 -380 -385 0
-312 371 -373 0
-5 31 -53 0
-113 -173 -322 0
-76 161 -190 0
-176 -328 376 0
203 212 300 0
138 -230 321 0
5 -25 -142 0
-60 321 -338 0
79 -111 250 0
-55 -135 -252 0
187 297 384 0
65 -140 207 0
213 -243 -361 0
139 -169 386 0
-51 -150 -400 0
49 239 375 0
-97 -235 298 0
-4 -70 -357 0
-290 -339 387 0
-8 297 337 0
-62 -226 228 0
-19 239 -345 0
-66 245 -303 0
-213 -277 -358 0
-161 231 291 0
-39 -55 127 0
239 303 330 0
-211 337 -393 0
-81 125 247 0
82 188 -234 0
20 -354 -398 0
90 -141 -300 0
-11 -286 365 0
-153 -190 -277 0
41 -230 -357 0
10 11 -123 0
74 153 217 0
158 -240 -377 0
-133 -186 -393 0
224 248 -296 0
50 69 -147 0
142 -145 400 0
-3 34 -101 0
-249 309 334 0
132 351 -362 0
20 27 93 0
-26 352 -372 0
-101 183 259 0
258 -356 -361 0
-28 -104 272 0
209 264 313 0
-83 -162 -319 0
149 -214 -340 0
214 -257 300 0
-6 304 -351 0
-173 -398 -400 0
272 295 391 0
-95 152 360 0
49 -98 -293 0
44 132 262 0
-44 120 -342 0
-40 106 118 0
-81 -238 261 0
-58 72 -157 0
112 -222 233 0
2 -258 287 0
46 68 398 0
106 -191 199 0
74 -365 -391 0
-81 -154 -181 0
123 -125 192 0
145 208 385 0
163 -175 341 0
70 250 331 0
190 217 236 0
247 269 346 0
32 -68 207 0
-2 245 -399 0
-26 -238 395 0
71 -249 -360 0
32 168 338 0
-43 212 396 0
-121 -172 173 0
-37 -119 201 0
1 101 -225 0
86 -265 -312 0
15 89 201 0
49 254 -306 0
-29 -141 165 0
-175 338 -395 0
-18 -31 338 0
180 242 290 0
261 -306 -315 0
-71 111 236 0
72 -114 -339 0
177 241 333 0
127 180 -360 0
-19 -96 -295 0
-55 -298 -322 0
-175 -193 206 0
-156 270 339 0
23 -143 -183 0
13 -126 197 0
-156 208 -314 0
-56 -188 289 0
260 -370 383 0
86 -162 -263 0
-126 -177 -201 0
-208 224 341 0
-44 143 -175 0
43 132 280 0
138 -167 282 0
79 185 -247 0
119 136 -341 0
-276 -291 349 0
260 -312 395 0
-236 -344 352 0
14 -112 198 0
48 -160 347 0
58 59 220 0
-99 103 275 0
141 337 -346 0
-41 109 316 0
178 -303 390 0
-10 -108 274 0
-72 206 -381 0
-39 -107 -256 0
90 -131 -379 0
21 -37 -308 0
-224 293 326 0
-26 -190 -339 0
174 -271 306 0
63 -183 -374 0
54 -161 -205 0
84 130 184 0
48 -161 -243 0
87 -220 321 0
-67 -249 -360 0
313 347 351 0
-34 -161 -361 0
207 -269 319 0
82 135 -327 0
-52 305 -398 0
-71 165 -298 0
-150 -171 -193 0
-55 -65 -234 0
91 110 -391 0
66 -265 295 0
-115 209 286 0
-137 272 319 0
142 -219 -252 0
-22 -243 -280 0
142 217 279 0
-97 -111 117 0
117 208 279 0
7 -188 -392 0
-31 75 -244 0
-75 -197 -343 0
166 291 -370 0
-88 -163 -317 0
-168 278 -382 0
-41 -334 353 0
-13 268 -356 0
-5 6 339 0
-124 -264 -308 0
-44 264 396 0
-31 36 -283 0
75 177 -321 0
-175 -220 -280 0
60 -270 -347 0
59 -184 -348 0
194 203 271 0
-208 211 329 0
-82 313 -380 0
-149 -248 316 0
89 -187 -253 0
100 -138 190 0
60 -271 -313 0
-16 -88 215 0
152 -209 -297 0
-161 -311 327 0
19 -106 -194 0
117 -260 -286 0
57 128 -391 0
66 -163 396 0
-21 -193 -238 0
-157 200 -323 0
156 241 -381 0
-151 -230 -312 0
180 -310 -373 0
74 -236 296 0
72 129 -235 0
245 263 -361 0
103 -138 325 0
-164 328 339 0
47 -196 -279 0
65 -126 286 0
-97 336 -353 0
-10 -325 386 0
-2 -152 232 0
17 215 391 0
-45 -75 -104 0
52 -56 329 0
92 -273 321 0
222 -263 -290 0
196 228 -264 0
42 151 -177 0
-51 94 -127 0
121 -281 294 0
42 346 -387 0
-200 -256 -322 0
24 -184 324 0
-70 -175 279 0
209 -228 -313 0
123 182 239 0
46 -127 -311 0
-124 346 400 0
30 253 326 0
69 -246 363 0
21 105 327 0
35 79 -276 0
-327 377 -400 0
139 -205 268 0
38 -102 249 0
-61 167 -198 0
-280 -313 373 0
137 -212 283 0
-5 -180 -327 0
-227 -292 -325 0
-14 126 259 0
-130 -158 -221 0
13 -65 124 0
-284 -288 340 0
-283 314 337 0
317 358 370 0
-78 -124 277 0
-110 -326 -336 0
-76 144 -352 0
106 126 -347 0
-114 185 302 0
269 -309 -364 0
-16 -112 -277 0
-192 -226 -285 0
-149 -277 345 0
2 -188 -376 0
-246 256 306 0
10 203 303 0
-103 -141 155 0
32 155 -266 0
172 -292 338 0
130 -255 -325 0
-23 32 -223 0
-107 330 344 0
-227 -259 376 0
-67 77 114 0
15 -36 276 0
-24 111 186 0
-159 381 388 0
92 -249 327 0
-32 -232 332 0
9 23 265 0
250 284 348 0
6 65 -227 0
-49 -122 -243 0
123 292 -389 0
-193 248 -376 0
-150 310 363 0
116 119 -240 0
35 -166 -255 0
-26 -254 338 0
-89 -287 308 0
55 -194 -209 0
-136 -220 -229 0
130 214 -362 0
10 -163 -361 0
-19 358 397 0
7 127 188 0
22 -111 -331 0
-53 215 -356 0
4 -184 -309 0
1 4 -137 0
-243 289 311 0
-189 -248 -303 0
-129 146 224 0
-3 -138 386 0
-30 336 -368 0
-127 186 255 0
-114 -210 -226 0
-10 45 306 0
-122 273 383 0
212 -252 393 0
48 -64 -79 0
-90 164 198 0
159 169 -350 0
-152 258 -303 0
-268 334 -389 0
-107 -192 304 0
2 245 321 0
150 -334 -345 0
27 -130 392 0
108 -192 274 0
193 277 384 0
-90 108 230 0
-154 -357 366 0
-38 99 288 0
-236 354 -372 0
-58 110 135 0
52 -62 207 0
60 186 -271 0
20 54 -71 0
111 -189 319 0
-214 -336 -352 0
281 291 392 0
73 208 210 0
-150 -365 -382 0
-26 -32 -322 0
14 53 207 0
-10 23 -147 0
47 -49 294 0
1 121 127 0
-108 -336 -398 0
179 -361 -373 0
-195 -248 304 0
-4 -108 112 0
-251 381 -397 0
-9 -97 167 0
-60 -124 -335 0
94 -100 163 0
198 -303 395 0
-94 -155 -301 0
-210 303 -379 0
-44 127 188 0
168 -264 -353 0
13 -291 323 0
142 151 226 0
34 62 301 0
173 288 353 0
-90 296 -387 0
-243 271 335 0
110 -151 -179 0
7 -131 168 0
72 -154 156 0
-45 -55 288 0
-120 342 347 0
8 -14 -142 0
-163 219 340 0
-213 -231 -305 0
-53 228 -356 0
-54 157 -229 0
-68 291 309 0
48 83 -265 0
-152 153 -236 0
-143 151 -221 0
10 100 -219 0
260 331 -334 0
44 272 -303 0
-51 -297 341 0
-8 45 -229 0
-109 -121 255 0
-76 78 -399 0
-79 95 168 0
-40 134 -324 0
123 -230 382 0
143 -219 -291 0
45 95 -97 0
-64 175 304 0
154 170 -272 0
96 212 -321 0
103 -157 -396 0
3 130 266 0
-95 293 362 0
-208 -232 -385 0
-268 -373 392 0
34 139 220 0
-44 -180 197 0
-22 176 -253 0
151 294 371 0
-86 -141 -283 0
118 -207 -368 0
91 -166 326 0
-115 140 -388 0
-209 226 236 0
3 109 159 0
-88 103 194 0
9 -17 -310 0
-138 306 394 0
12 43 -154 0
-33 271 359 0
-229 -246 248 0
56 297 400 0
-210 218 310 0
3 -166 224 0
-54 143 -293 0
16 -98 355 0
192 346 -357 0
-52 -202 234 0
-73 118 -140 0
113 -261 -392 0
15 -122 212 0
251 278 -379 0
186 241 268 0
-106 225 -359 0
-32 153 259 0
-37 68 249 0
-210 -253 391 0
-37 -225 370 0
39 -72 180 0
44 -75 162 0
4 -145 393 0
195 270 285 0
-33 99 -355 0
-163 301 -361 0
-155 192 -275 0
2 145 -152 0
49 113 -287 0
4 60 213 0
95 -199 -282 0
-34 101 120 0
-141 -150 -218 0
-131 -282 364 0
-50 303 382 0
-36 -172 -188 0
-93 158 -263 0
78 -244 267 0
-107 -354 361 0
-296 328 -374 0
30 43 -165 0
6 172 -176 0
181 -219 367 0
-180 293 -300 0
-56 379 -395 0
-194 -247 286 0
-13 -162 217 0
151 161 311 0
-66 302 -375 0
-174 -347 -377 0
2 -55 -395 0
216 -297 351 0
35 -296 360 0
-150 -203 364 0
185 -193 -309 0
49 -133 172 0
51 98 230 0
-29 183 380 0
-43 -276 377 0
167 293 -300 0
-53 -59 -213 0
142 294 -309 0
101 -339 341 0
15 259 391 0
-186 236 -331 0
-82 282 -374 0
-34 84 -239 0
41 -197 319 0
-58 79 293 0
-23 -64 222 0
191 213 255 0
64 -91 -235 0
70 277 -306 0
57 64 260 0
59 341 -394 0
-59 98 -187 0
-26 115 302 0
-302 -339 351 0
-92 250 260 0
-88 -353 -355 0
-126 -137 -300 0
-9 -320 374 0
100 -133 -349 0
244 369 -385 0
127 -312 373 0
198 336 -399 0
52 -87 -145 0
119 197 -213 0
-158 -164 -256 0
204 207 242 0
145 -165 -269 0
40 168 251 0
-2 128 -202 0
-52 -198 374 0
8 -357 400 0
-37 262 366 0
105 122 147 0
-12 35 -238 0
-196 -218 333 0
312 316 -330 0
112 -335 391 0
-155 240 -310 0
53 128 -209 0
158 172 349 0
124 -322 357 0
-89 -118 224 0
-39 -243 306 0
-56 -87 243 0
160 213 360 0
-9 234 325 0
78 -120 198 0
-84 100 250 0
198 -360 -390 0
131 168 -396 0
-35 341 378 0
-257 331 349 0
-40 262 -317 0
-15 -262 296 0
-110 178 337 0
36 -97 -281 0
-95 118 -202 0
-138 333 -381 0
49 191 -314 0
113 227 -303 0
97 -104 -320 0
130 -279 -280 0
-71 316 319 0
-39 -170 330 0
-17 18 240 0
277 -320 367 0
124 -242 -330 0
43 -251 270 0
-61 103 -264 0
59 -300 341 0
71 -144 -333 0
-239 269 294 0
184 243 384 0
194 -263 -265 0
-137 -175 234 0
-222 284 373 0
-66 -79 -333 0
-130 233 -393 0
168 -181 306 0
69 -112 -326 0
88 -99 -375 0
133 -178 295 0
291 362 381 0
11 -117 -241 0
-182 -223 283 0
35 144 159 0
-146 175 389 0
64 261 -382 0
-22 -201 -209 0
-56 -92 105 0
-265 -366 -386 0
-220 -269 390 0
-18 -148 210 0
60 -68 384 0
-133 272 -290 0
-107 116 159 0
-155 -315 -376 0
-204 215 282 0
66 177 380 0
-138 222 -372 0
8 -191 -375 0
-99 -171 238 0
-64 -131 -188 0
103 317 386 0
5 -133 -173 0
173 -224 268 0
-39 266 -327 0
-44 145 -167 0
84 120 130 0
-49 120 146 0
-146 210 315 0
39 204 -372 0
-95 -113 -316 0
-200 224 306 0
-35 -60 -146 0
-236 303 -324 0
-5 88 244 0
-11 -117 -352 0
-180 -259 -323 0
-22 114 379 0
-70 -162 227 0
65 242 -333 0
-26 -143 239 0
-145 262 393 0
-74 -130 -344 0
154 -255 308 0
60 68 -89 0
20 102 195 0
148 -264 274 0
43 -334 377 0
6 -160 -290 0
181 211 315 0
62 260 -273 0
15 -100 174 0
53 77 182 0
-41 -307 -330 0
161 -245 293 0
109 264 315 0
150 293 -347 0
31 315 378 0
-196 -330 358 0
18 -69 79 0
-48 235 297 0
124 190 -213 0
-67 -77 -281 0
-32 -287 -362 0
-97 -178 182 0
-189 -234 335 0
75 113 -203 0
-8 31 -220 0
24 148 327 0
46 141 334 0
71 -160 204 0
-24 89 -240 0
-16 -121 281 0
-31 59 -301 0
-131 -200 256 0
5 -254 -289 0
-154 270 -334 0
36 -264 -378 0
-54 113 150 0
-84 179 -374 0
98 246 399 0
215 -332 358 0
84 205 -331 0
30 284 -297 0
-150 157 282 0
-13 101 312 0
-269 293 -390 0
-164 -257 -365 0
189 -226 309 0
-172 188 339 0
-67 -247 -329 0
19 -90 -279 0
-42 70 234 0
35 -89 -263 0
107 -374 394 0
5 299 344 0
-66 79 96 0
294 312 -385 0
168 -212 -263 0
-75 201 343 0
133 -389 -395 0
-23 -123 157 0
97 158 -260 0
94 -120 135 0
299 304 330 0
287 332 -365 0
128 185 -281 0
-169 -278 306 0
23 36 -239 0
177 -307 338 0
39 75 346 0
250 332 398 0
126 233 296 0
89 100 348 0
-60 -81 -240 0
-76 -86 -94 0
117 156 279 0
-30 88 232 0
170 190 -224 0
-82 99 -284 0
-239 294 -349 0
15 143 183 0
-80 122 197 0
-156 -195 -306 0
252 375 -376 0
-29 50 356 0
37 -221 245 0
27 327 370 0
210 319 -353 0
141 -182 222 0
-272 289 394 0
-91 -104 270 0
211 -313 -345 0
241 306 383 0
-42 286 -324 0
168 354 -369 0
-202 352 -357 0
190 -313 -365 0
37 188 -192 0
-118 268 310 0
-75 112 365 0
57 252 -360 0
4 94 194 0
-90 241 373 0
-133 243 -393 0
214 263 314 0
191 219 328 0
-199 -227 -389 0
91 332 399 0
-82 357 -400 0
202 217 291 0
-35 -222 -318 0
83 266 -355 0
-1 93 -121 0
-257 280 294 0
65 -107 136 0
-222 246 305 0
-260 -392 396 0
154 -204 364 0
87 -118 -127 0
-119 -207 -398 0
-127 -146 336 0
-15 33 202 0
62 -174 291 0
186 -300 330 0
-22 124 -256 0
-32 258 -361 0
2 -327 -370 0
107 -234 -387 0
52 -196 281 0
-75 118 288 0
-320 371 396 0
138 145 373 0
36 -126 -195 0
-11 -16 381 0
-33 54 -293 0
-107 -168 222 0
3 218 221 0
118 147 -323 0
-57 115 -351 0
-189 -254 288 0
-15 -37 -381 0
-83 -268 -336 0
136 -154 -318 0
-93 -170 -396 0
-229 282 -352 0
152 178 -397 0
9 -89 215 0
-123 -125 -273 0
68 209 -353 0
-131 259 -266 0
128 -169 372 0
-50 322 -332 0
54 207 -373 0
-57 -219 283 0
-40 -203 218 0
-116 163 197 0
-2 -97 -163 0
-201 -262 345 0
137 167 232 0
-39 93 196 0
-157 339 377 0
25 84 326 0
151 177 -240 0
-105 -217 294 0
-265 305 315 0
-117 224 -251 0
-81 210 368 0
-260 -274 -345 0
156 -318 -357 0
16 -146 198 0
31 -240 368 0
268 368 398 0
-164 221 348 0
159 266 -314 0
96 -162 -207 0
165 -358 382 0
-150 -274 303 0
231 243 399 0
58 91 -211 0
212 -321 -385 0
32 -73 -245 0
-93 219 -370 0
47 -253 323 0
-170 -171 398 0
76 -205 -213 0
-30 -365 376 0
53 -79 208 0
7 -13 -191 0
-24 -217 -278 0
49 -51 -372 0
59 215 -221 0
-88 324 -351 0
90 -118 148 0
208 220 400 0
43 -73 -179 0
-228 -286 -396 0
8 -11 -232 0
-148 293 -342 0
-115 -124 -324 0
173 -178 -305 0
94 -165 -331 0
-204 -324 -348 0
-242 -270 -341 0
55 361 -375 0
112 118 317 0
-176 -249 -265 0
-191 -236 243 0
-13 21 213 0
-79 -202 212 0
71 -77 97 0
-55 -141 -389 0
74 -82 -123 0
131 159 -378 0
18 58 351 0
-43 115 -206 0
20 259 -393 0
-1 -73 -176 0
-329 -352 -354 0
7 261 -353 0
67 88 -203 0
122 -130 -237 0
30 -199 -228 0
11 252 371 0
38 -379 400 0
22 -41 374 0
