c F2 random 3-CNF cnfgen RandomKCNF(3,350,1750,seed=5) m/n=5.0
p cnf 350 1750
131 -184 319 0
27 -81 -333 0
127 195 279 0
111 -144 209 0
-37 72 317 0
1 3 108 0
102 149 161 0
-12 -153 197 0
-34 -75 136 0
174 -306 -348 0
157 -162 -247 0
30 -91 -132 0
-10 -215 282 0
24 93 232 0
-177 -237 -263 0
-56 189 -302 0
-47 107 -175 0
-48 -142 -280 0
41 -91 -321 0
-25 42 83 0
-129 -177 305 0
-17 -29 327 0
-67 68 289 0
77 -191 -223 0
73 -233 -318 0
-141 -163 -246 0
58 -76 -194 0
-46 -93 252 0
183 -301 -340 0
-144 -287 -343 0
92 -175 -333 0
-141 -167 -344 0
-141 -179 -330 0
-89 187 231 0
-102 186 -245 0
-88 -298 -316 0
-15 82 101 0
-22 93 324 0
-28 57 -69 0
-19 -100 -281 0
195 314 340 0
-1 -180 -192 0
59 -192 281 0
-152 -263 -280 0
-67 -210 215 0
-81 196 306 0
47 -180 312 0
167 -290 -315 0
-116 -220 -222 0
-82 -195 -197 0
-11 -129 -213 0
74 147 -245 0
21 -126 151 0
-246 273 -287 0
-19 126 -251 0
-151 253 312 0
-65 -145 154 0
180 185 238 0
130 234 284 0
-219 -220 -305 0
-101 -201 350 0
-2 -156 -222 0
-74 -85 245 0
218 278 300 0
33 -44 -137 0
36 208 250 0
113 315 -331 0
77 -94 225 0
35 110 -319 0
30 -37 144 0
-6 -47 -222 0
181 192 -336 0
-78 292 -324 0
-33 -121 283 0
-121 191 233 0
10 175 336 0
-64 260 -305 0
166 237 -246 0
28 78 220 0
109 -252 -341 0
-121 -149 -171 0
-70 -184 -332 0
19 265 -304 0
19 33 50 0
-21 -101 251 0
-154 -219 -241 0
52 99 237 0
192 -198 241 0
83 143 -147 0
-17 177 189 0
234 242 -345 0
150 233 346 0
13 103 -295 0
160 -187 -349 0
35 145 240 0
-23 -107 345 0
-32 232 237 0
-18 266 281 0
-48 122 252 0
-26 255 330 0
-131 209 229 0
-92 100 261 0
44 56 161 0
-9 -110 -320 0
193 217 -293 0
115 230 -284 0
-45 -135 248 0
-42 67 275 0
220 -296 342 0
25 -128 -253 0
-37 -51 216 0
68 -147 335 0
-10 -25 336 0
-67 196 -288 0
-71 -87 -135 0
18 33 278 0
-26 -67 183 0
119 -220 271 0
7 170 184 0
138 272 -311 0
-61 -220 -223 0
-117 237 -306 0
-25 -83 343 0
54 65 215 0
-17 -121 -296 0
-104 111 -238 0
183 -265 -288 0
-32 -128 -340 0
-74 123 251 0
-51 87 -204 0
241 245 -350 0
6 -54 263 0
-14 -163 -348 0
205 231 -280 0
11 -186 -304 0
-14 -40 -45 0
8 121 141 0
154 -180 344 0
-62 -123 176 0
194 200 -344 0
-56 166 198 0
-109 151 157 0
40 212 324 0
-290 -292 321 0
218 -248 -271 0
-44 144 -310 0
-16 60 -77 0
98 -167 305 0
32 -71 249 0
197 -240 331 0
1 100 345 0
78 -172 -189 0
94 -282 298 0
-34 -101 106 0
43 -235 -349 0
-3 61 193 0
176 -196 -254 0
-9 60 -246 0
-73 149 196 0
152 -173 209 0
-113 122 216 0
-50 -139 284 0
126 -198 -278 0
3 -43 67 0
-11 -129 288 0
-28 100 -112 0
-44 143 266 0
-82 202 257 0
-13 -212 216 0
-76 86 -174 0
-40 -111 190 0
-72 -139 241 0
64 -325 342 0
-19 38 196 0
-10 -253 332 0
-40 122 240 0
-44 95 -220 0
-78 110 -172 0
-55 -57 -330 0
-189 245 281 0
9 -135 280 0
122 247 341 0
109 -120 215 0
-20 -123 257 0
-153 226 286 0
-190 -272 -292 0
86 -155 303 0
-109 271 -318 0
192 -210 -283 0
2 -33 254 0
-31 46 -60 0
-135 142 175 0
-13 -129 135 0
-126 135 322 0
27 182 -290 0
23 254 -313 0
-61 212 272 0
33 48 -303 0
156 -269 333 0
-133 -157 -208 0
-1 -166 -265 0
-80 -111 336 0
-46 77 -235 0
-225 266 319 0
-72 -87 252 0
-75 138 223 0
-87 -215 -340 0
-56 -101 -316 0
136 250 265 0
-50 53 173 0
-89 -197 279 0
-50 169 -210 0
173 210 -211 0
21 -36 93 0
37 -214 237 0
149 -278 -290 0
39 195 239 0
59 276 -315 0
-59 -140 -224 0
21 -108 264 0
99 167 -271 0
-28 -239 -329 0
-86 -146 -322 0
51 207 -310 0
53 120 228 0
-46 -229 330 0
-54 -153 247 0
63 278 -285 0
-247 -296 -303 0
-30 -69 -148 0
66 149 190 0
-82 -160 -250 0
-237 -303 346 0
82 -254 -296 0
23 -117 192 0
87 -88 104 0
198 -214 331 0
105 -121 -337 0
115 -157 -299 0
32 134 -272 0
8 30 238 0
-89 -225 -235 0
-13 39 268 0
228 258 -334 0
-52 103 274 0
2 -113 203 0
-97 154 200 0
97 -112 -197 0
-14 -76 210 0
48 -137 -350 0
228 288 -338 0
129 299 350 0
-49 -188 325 0
94 148 -322 0
-4 -54 282 0
78 189 -250 0
-136 -245 -293 0
-88 202 219 0
56 -151 246 0
-43 336 341 0
-90 -167 209 0
159 323 347 0
-21 250 -263 0
-78 -156 218 0
-125 265 -346 0
-38 150 193 0
178 -218 321 0
-54 -183 350 0
-19 168 255 0
-136 -147 159 0
-232 262 -292 0
64 -68 -219 0
-20 157 187 0
-5 74 229 0
25 -35 -302 0
146 222 -337 0
-83 -152 -234 0
20 -237 -318 0
46 -164 -320 0
175 -190 -322 0
67 -136 -231 0
-89 93 -143 0
100 -131 -162 0
61 147 194 0
-125 208 338 0
-51 -157 -284 0
7 -24 84 0
140 244 270 0
-114 -161 170 0
17 -63 99 0
34 -127 -325 0
-87 -131 211 0
-90 124 -201 0
29 -119 241 0
-19 145 -249 0
42 -62 -76 0
124 250 -315 0
-181 -202 268 0
152 232 299 0
-3 117 289 0
106 -122 197 0
-61 87 -106 0
131 157 -323 0
-49 -280 333 0
8 155 -287 0
-143 195 241 0
229 281 287 0
93 151 -256 0
-83 142 -205 0
58 160 320 0
-144 194 -227 0
-77 -203 249 0
204 307 -314 0
-90 -170 258 0
119 -197 290 0
214 -246 -252 0
227 252 -324 0
44 -76 -113 0
6 277 -334 0
72 316 348 0
95 219 -226 0
-224 273 342 0
-253 263 -337 0
5 22 -256 0
118 -143 153 0
245 -255 -292 0
-111 133 -187 0
-62 -77 122 0
128 -151 -182 0
-61 269 273 0
-52 -54 342 0
-114 163 278 0
-218 221 334 0
133 201 270 0
-158 161 287 0
-156 187 -284 0
-4 -219 -267 0
51 158 -244 0
54 -57 299 0
-243 267 345 0
-13 -16 62 0
173 -240 -346 0
-108 -117 -133 0
-36 -44 137 0
28 240 344 0
218 265 -304 0
-33 121 268 0
229 -252 332 0
-59 -186 248 0
-166 237 343 0
-144 -264 338 0
177 178 -191 0
-191 -211 -265 0
93 -113 306 0
-49 101 -219 0
-100 113 190 0
-117 162 -194 0
-143 -160 171 0
-24 119 236 0
-184 255 -328 0
-76 169 -311 0
-102 202 225 0
55 -81 -214 0
-12 -14 344 0
113 -270 -341 0
105 203 -313 0
-148 -204 -317 0
-18 -162 -170 0
288 -312 336 0
43 -56 299 0
-69 185 -255 0
-165 191 308 0
-59 295 302 0
66 145 -179 0
57 68 -230 0
2 39 140 0
-223 -259 298 0
-72 -118 -281 0
-10 -72 334 0
17 -199 350 0
-184 -235 -302 0
-117 -168 180 0
12 -14 275 0
-168 169 -341 0
39 140 200 0
37 264 345 0
-177 224 -256 0
-44 -98 99 0
199 -212 304 0
77 303 -309 0
25 -101 -323 0
-38 253 -254 0
89 270 298 0
50 -167 289 0
-122 276 312 0
59 180 193 0
139 -164 -241 0
108 121 302 0
-64 199 -303 0
105 246 305 0
80 -219 -280 0
89 -176 -275 0
-103 186 -334 0
-86 128 251 0
-268 -282 349 0
39 59 -225 0
-29 137 -186 0
90 -120 -238 0
-104 328 337 0
138 -175 214 0
-3 240 -299 0
199 -236 -254 0
109 131 -219 0
-174 189 220 0
66 129 133 0
41 86 -191 0
-137 297 -325 0
-146 201 227 0
-67 108 296 0
-84 -137 -194 0
-70 -197 312 0
-83 171 -260 0
-59 285 287 0
255 277 -335 0
-34 -256 329 0
123 -226 323 0
-52 -209 242 0
133 288 342 0
-75 -92 -349 0
123 -232 327 0
74 90 -191 0
107 203 -320 0
-46 -79 131 0
-33 112 -277 0
39 -236 256 0
46 -54 -76 0
-116 -120 -238 0
-36 -203 239 0
5 -70 -241 0
-37 -301 312 0
-44 239 -281 0
110 -201 -223 0
-103 116 -296 0
-221 279 -328 0
-136 183 185 0
-69 -193 342 0
7 161 -169 0
-123 173 214 0
157 255 -291 0
-62 -74 346 0
-46 141 -344 0
-9 107 -241 0
-19 -88 -201 0
13 42 89 0
-22 -174 -306 0
-185 -263 304 0
50 -86 -143 0
10 75 -107 0
-71 -156 285 0
-67 93 -228 0
-102 126 293 0
-293 -306 329 0
113 -116 302 0
167 218 276 0
-155 -305 321 0
-138 -315 -323 0
5 25 330 0
97 137 252 0
-96 -101 170 0
63 -91 -180 0
84 214 -337 0
128 137 209 0
288 307 -350 0
-108 201 223 0
-231 310 -330 0
-141 158 287 0
-180 -273 281 0
-60 -75 -280 0
-24 37 111 0
90 170 258 0
-29 -42 -183 0
-2 62 220 0
15 -153 -191 0
162 183 -313 0
81 220 -341 0
-132 -167 -232 0
-134 145 -261 0
-99 109 -200 0
-185 -262 -301 0
-208 -258 -305 0
-101 -179 -327 0
-8 -23 -65 0
51 160 301 0
71 -223 -324 0
71 206 -240 0
20 -305 -328 0
-22 170 293 0
-39 -246 326 0
50 243 -279 0
-26 266 -328 0
18 57 -101 0
41 -208 225 0
97 130 298 0
-195 280 -316 0
110 -198 291 0
42 -196 -205 0
-136 -221 -266 0
-34 57 71 0
59 296 -318 0
-14 -55 157 0
-131 -174 232 0
-69 -146 -284 0
-15 71 -292 0
-93 -143 -290 0
32 -207 278 0
-21 -86 239 0
40 152 -173 0
-177 185 261 0
100 148 -187 0
-36 90 175 0
42 -57 187 0
-43 -70 86 0
-16 -28 107 0
68 252 284 0
-36 -88 329 0
-94 -123 -254 0
-80 -198 280 0
21 86 -268 0
-23 36 268 0
62 -201 289 0
9 -111 -205 0
54 -257 283 0
150 258 270 0
-109 -143 -318 0
143 -162 292 0
-103 119 245 0
27 -135 -295 0
74 -170 -189 0
76 -291 320 0
-20 -89 -215 0
223 -230 301 0
77 -94 -124 0
-25 54 145 0
-53 76 119 0
14 -180 -350 0
12 -23 110 0
-63 -91 275 0
-25 -170 329 0
175 -224 344 0
22 -88 -287 0
-204 -297 -301 0
-93 173 281 0
-106 239 247 0
21 -240 302 0
197 239 325 0
148 154 -166 0
52 229 323 0
-58 -268 -305 0
-46 -91 260 0
314 -340 347 0
-257 -292 -330 0
169 -246 -260 0
-11 268 317 0
215 -286 290 0
-63 72 -180 0
-6 26 -41 0
-196 291 -343 0
-49 55 -274 0
5 -99 -240 0
15 53 -316 0
77 112 -320 0
7 36 154 0
-60 243 328 0
-77 -261 324 0
207 209 -234 0
-52 114 -258 0
-8 105 274 0
-46 132 180 0
-246 -250 -314 0
6 -236 261 0
-191 266 -298 0
-5 -154 205 0
135 270 -313 0
-162 -172 315 0
-84 -175 257 0
-38 67 152 0
183 -244 339 0
104 -172 256 0
28 -83 181 0
-43 -79 -158 0
102 280 322 0
-42 -79 213 0
9 -198 337 0
-45 98 250 0
43 -197 304 0
137 -177 276 0
228 229 -292 0
-31 79 -134 0
57 264 -287 0
-138 294 -303 0
37 52 144 0
-46 153 -187 0
88 -105 318 0
57 96 -154 0
-20 185 339 0
-109 -129 -144 0
-50 204 -335 0
73 142 272 0
-123 -152 225 0
-166 -203 301 0
18 -55 199 0
-105 146 -165 0
-104 -105 132 0
-184 277 -317 0
-113 -265 -312 0
-62 122 319 0
66 -195 -328 0
50 -228 -245 0
-92 260 302 0
130 222 333 0
9 -68 -186 0
227 -309 321 0
-82 110 135 0
102 -187 348 0
63 106 267 0
168 -184 -280 0
14 196 212 0
-58 182 -222 0
205 213 -214 0
188 338 341 0
100 133 328 0
56 -106 301 0
84 145 -288 0
12 53 155 0
-16 131 -177 0
153 213 231 0
72 119 290 0
-54 200 346 0
-55 -173 235 0
-25 -56 -134 0
-38 -120 277 0
97 124 248 0
-176 225 -290 0
86 148 -340 0
-171 257 284 0
-58 87 284 0
123 296 -313 0
59 62 316 0
-76 -109 -124 0
-7 92 293 0
-41 -62 149 0
10 32 302 0
-171 -213 -330 0
-30 -70 147 0
54 -212 265 0
-42 300 -319 0
235 289 329 0
14 -218 -329 0
91 339 348 0
55 -87 -126 0
-91 226 314 0
-64 129 -264 0
8 88 284 0
-172 197 276 0
19 35 -259 0
-61 -215 305 0
34 118 203 0
-22 43 331 0
4 122 -219 0
-15 160 -201 0
44 -200 -311 0
-51 101 -191 0
147 149 -212 0
138 263 348 0
-177 208 -350 0
-114 163 -235 0
-245 296 -318 0
76 225 -259 0
60 107 -154 0
57 75 -339 0
-20 251 320 0
4 -125 -279 0
-210 -225 333 0
66 83 87 0
-1 30 -223 0
18 -320 330 0
-57 267 -326 0
-221 -248 282 0
24 229 264 0
-139 226 307 0
-47 184 240 0
-43 60 287 0
89 -263 -295 0
38 63 271 0
133 233 320 0
-28 65 -140 0
-171 -188 290 0
-109 -215 -237 0
-183 314 -322 0
1 -162 -229 0
34 -273 328 0
-183 -264 348 0
7 -130 -313 0
-87 123 -177 0
-142 195 303 0
140 322 -335 0
40 -42 -57 0
38 -67 122 0
167 -205 263 0
157 167 -235 0
170 226 -238 0
-132 -163 306 0
-39 -324 -343 0
-54 -223 335 0
86 164 167 0
-87 -179 -200 0
-38 -82 219 0
1 -11 323 0
94 -137 -231 0
79 -98 -275 0
-219 264 -305 0
181 252 -267 0
83 -258 304 0
58 226 270 0
46 -239 -267 0
111 176 218 0
-99 122 -163 0
46 150 342 0
-116 -160 -228 0
-113 169 172 0
-255 279 -304 0
38 97 -218 0
-33 -110 -215 0
36 101 -252 0
-15 163 231 0
213 222 -319 0
-45 -88 -313 0
7 283 312 0
93 -137 175 0
48 -171 -176 0
14 237 -349 0
45 153 183 0
-143 -165 -309 0
-146 -231 326 0
293 -333 -342 0
75 104 152 0
65 -257 336 0
149 243 317 0
-121 215 232 0
-148 190 -318 0
-147 -160 -337 0
-107 -194 290 0
37 241 308 0
39 -210 -306 0
85 -301 313 0
126 216 259 0
-51 -90 252 0
207 -229 -246 0
20 -203 -315 0
122 194 -315 0
-7 -162 -214 0
-14 80 103 0
166 188 -251 0
-4 -98 270 0
21 -181 -239 0
194 -209 -233 0
23 69 280 0
59 197 -199 0
-201 -267 -282 0
26 159 271 0
167 -247 -255 0
-6 -51 -278 0
-59 -75 224 0
20 22 112 0
12 -25 33 0
155 -189 244 0
17 86 -145 0
-42 -261 295 0
90 -234 281 0
-139 -251 -261 0
-79 -144 -279 0
101 146 222 0
35 -273 324 0
-9 -23 281 0
86 107 -312 0
15 -25 103 0
80 -185 216 0
71 -98 -331 0
61 96 -334 0
22 124 344 0
12 -204 271 0
-154 191 221 0
115 207 -269 0
2 22 42 0
5 -210 -304 0
108 110 236 0
-72 -226 342 0
11 -79 200 0
80 105 -175 0
-66 208 -224 0
9 170 236 0
-139 -175 -197 0
-18 -36 -218 0
-45 324 343 0
234 -286 326 0
103 -120 123 0
158 -162 250 0
5 -70 278 0
135 182 291 0
-129 195 -337 0
-7 34 -293 0
-260 -275 343 0
-102 166 -335 0
-11 126 -308 0
-73 -75 -267 0
138 -187 220 0
16 103 -280 0
-150 -235 -267 0
-7 240 -290 0
-222 290 323 0
-114 146 335 0
-129 164 251 0
-157 234 278 0
-59 134 223 0
-138 -194 326 0
22 28 -195 0
-56 160 197 0
70 -104 264 0
153 -180 -319 0
85 -146 -322 0
-10 -29 -187 0
-59 127 280 0
-278 -280 -304 0
-36 -114 165 0
-30 213 315 0
96 101 118 0
220 270 330 0
-67 185 190 0
-53 -72 -236 0
165 -247 344 0
177 -301 305 0
-31 152 -333 0
-174 -183 319 0
118 -246 -314 0
-141 162 -211 0
-216 -259 350 0
-24 121 -127 0
235 303 -327 0
-126 -224 -323 0
-26 256 317 0
36 296 325 0
54 206 -310 0
-123 143 -195 0
-151 262 -328 0
13 37 -300 0
-14 256 -259 0
6 89 -168 0
-7 -304 327 0
-142 -156 289 0
-70 -108 320 0
-91 -202 343 0
-29 -185 -333 0
-109 247 284 0
-18 -101 328 0
-202 233 336 0
97 -174 -337 0
69 123 -147 0
-71 -287 337 0
-119 238 347 0
110 -116 119 0
-60 214 303 0
-133 -185 -274 0
116 -138 -204 0
68 -206 -322 0
263 -286 335 0
-15 184 -279 0
-18 -306 346 0
-40 87 -225 0
155 203 226 0
107 -166 190 0
-84 -199 323 0
192 213 226 0
-180 207 326 0
-10 29 179 0
-155 218 327 0
101 115 -342 0
-167 201 -326 0
-177 215 337 0
34 -36 -56 0
-72 -204 -308 0
151 178 -198 0
66 94 -198 0
151 -191 281 0
293 -306 312 0
-140 167 346 0
-27 -40 218 0
38 -204 314 0
-15 -95 183 0
69 184 240 0
161 241 279 0
-131 -157 234 0
-100 -186 -273 0
36 184 -330 0
-123 159 -260 0
-22 114 306 0
63 69 141 0
-67 158 -243 0
274 -280 321 0
-17 51 -311 0
-118 269 -346 0
-9 -41 -294 0
-27 -50 -127 0
94 -245 -256 0
60 -107 309 0
46 68 189 0
-315 328 332 0
-146 298 -302 0
-28 -282 -313 0
-53 -192 198 0
-93 -117 338 0
-15 -126 -270 0
83 199 208 0
-146 182 314 0
63 -244 282 0
172 -183 256 0
72 -164 238 0
34 77 345 0
-99 108 309 0
205 -274 336 0
-12 -238 308 0
110 196 304 0
-100 247 292 0
102 -106 155 0
-63 -140 -245 0
-25 -184 -277 0
-109 136 -167 0
-84 242 -312 0
-144 -241 350 0
7 106 -276 0
9 13 162 0
-65 98 313 0
28 -218 -289 0
243 -261 333 0
8 85 121 0
21 181 -298 0
53 -68 185 0
79 241 254 0
-100 -104 -115 0
-48 208 333 0
33 170 -259 0
48 201 -255 0
-133 -185 232 0
-14 287 325 0
-44 -57 -335 0
60 216 -327 0
-179 -306 307 0
-81 -157 159 0
54 64 -274 0
-57 66 -102 0
-248 306 -319 0
-125 -176 -334 0
-107 282 -299 0
-22 145 284 0
-82 -216 -297 0
21 -187 -237 0
43 263 -330 0
-135 191 245 0
11 35 90 0
-129 -216 244 0
-20 -56 304 0
191 -315 -348 0
-156 158 -301 0
-35 184 -343 0
9 -211 316 0
-266 -306 326 0
-2 111 -246 0
-26 -106 324 0
75 -175 -339 0
168 189 302 0
88 210 -219 0
43 -189 -335 0
-86 -93 99 0
-101 116 347 0
223 -270 -274 0
-62 121 -298 0
50 51 -316 0
4 -80 -306 0
34 44 186 0
89 -234 263 0
-18 69 190 0
-15 -28 -248 0
-26 246 -308 0
-1 155 349 0
-183 -302 344 0
20 91 195 0
-35 -108 -124 0
-83 -157 -221 0
142 -196 -276 0
20 -175 324 0
90 290 313 0
-148 308 346 0
-48 -143 194 0
243 270 -275 0
-182 -236 298 0
1 -57 -324 0
-36 -37 153 0
192 -224 -294 0
-94 97 -312 0
-20 -219 -320 0
98 309 322 0
262 320 -345 0
2 -204 298 0
-49 -167 -293 0
9 -123 298 0
47 136 -199 0
87 241 271 0
67 -98 332 0
-105 -168 -279 0
-29 201 -259 0
-163 -279 -341 0
-32 43 286 0
44 -279 -326 0
20 -24 131 0
-12 -95 347 0
-65 -188 -313 0
227 278 -343 0
263 -264 330 0
-24 155 318 0
-103 -194 -298 0
-103 -148 204 0
23 69 -237 0
9 181 199 0
154 -251 -278 0
-116 136 281 0
72 -78 -137 0
-79 -81 -169 0
64 -139 -316 0
-55 93 156 0
-26 -45 215 0
-78 111 -309 0
101 -102 -215 0
-112 -288 -336 0
45 213 331 0
214 220 291 0
-126 191 333 0
121 -152 -153 0
-163 209 -245 0
-153 176 245 0
13 76 -276 0
-27 -192 -218 0
232 283 -305 0
-177 301 -317 0
-262 274 328 0
-214 -226 -272 0
18 -70 230 0
33 -195 -201 0
193 238 -240 0
216 -281 300 0
35 -74 -333 0
120 231 296 0
-4 55 195 0
-89 -329 331 0
66 -78 92 0
73 -323 -347 0
-136 -221 -257 0
-86 -158 -182 0
-55 70 -290 0
106 229 316 0
113 160 197 0
-166 -216 244 0
-50 -191 317 0
214 -278 -333 0
-177 -252 -278 0
9 -160 -213 0
85 -151 187 0
31 -112 -293 0
-241 -318 -340 0
27 -48 -337 0
225 -315 344 0
-63 -153 286 0
-23 -230 315 0
13 78 213 0
-172 -283 -300 0
46 88 263 0
-87 -317 -340 0
-113 195 -276 0
46 -64 339 0
40 268 -319 0
-156 258 -336 0
-78 -150 234 0
9 10 129 0
109 286 -345 0
137 203 -292 0
69 -296 328 0
-56 -88 139 0
130 -152 335 0
-43 58 350 0
136 289 -329 0
-152 208 278 0
-17 137 270 0
24 239 -273 0
-17 -30 -308 0
128 -148 -222 0
7 262 281 0
-87 220 334 0
1 -225 -294 0
36 -76 78 0
25 -141 -273 0
118 232 -347 0
-94 346 349 0
127 263 327 0
79 -319 345 0
16 151 -175 0
243 -247 -261 0
71 -108 315 0
-155 -237 -340 0
-56 323 -336 0
6 -127 179 0
-87 97 -290 0
-54 -142 -249 0
-105 115 -265 0
4 13 193 0
-88 -205 -207 0
-166 -197 -336 0
38 -44 129 0
-126 215 -240 0
-276 -319 -341 0
150 284 -321 0
-86 -113 165 0
-74 232 262 0
-39 118 -127 0
-120 -261 293 0
39 -209 349 0
-3 -114 127 0
130 152 200 0
93 -160 171 0
-15 58 -342 0
6 147 -207 0
-27 258 295 0
111 -184 285 0
38 -282 336 0
45 -67 271 0
91 -181 329 0
-26 -36 332 0
-81 122 -247 0
230 -241 -281 0
-190 289 336 0
-17 -25 56 0
152 164 226 0
232 252 -308 0
-237 298 320 0
-85 -157 332 0
-191 278 -296 0
8 73 231 0
41 -267 -296 0
64 -79 -309 0
176 212 -238 0
84 -193 241 0
47 -295 339 0
225 279 -282 0
-163 279 348 0
-83 -170 -187 0
-116 179 -294 0
64 -144 286 0
238 294 -313 0
23 155 -244 0
1 -13 -41 0
84 244 -293 0
36 78 -338 0
255 256 -271 0
-225 -311 334 0
-175 232 341 0
-123 -155 186 0
29 -167 220 0
117 -135 240 0
193 222 245 0
43 -82 -251 0
110 -133 186 0
96 -242 -313 0
213 -291 330 0
-47 -149 -234 0
219 321 325 0
209 328 -350 0
-56 -155 -338 0
-52 -148 -185 0
-72 -94 -182 0
44 96 -166 0
128 157 198 0
-143 261 290 0
-18 -280 298 0
-209 252 -267 0
182 247 323 0
17 -253 -325 0
-36 -120 193 0
-44 -111 288 0
-151 204 324 0
-103 -169 -273 0
215 275 -279 0
74 -196 225 0
66 -118 269 0
-128 248 -260 0
115 207 263 0
-129 140 -307 0
87 111 -289 0
130 185 238 0
-72 316 -329 0
-8 25 -133 0
154 205 315 0
-84 -194 -326 0
16 -155 243 0
-248 -311 313 0
52 -138 -139 0
126 -226 -310 0
42 -284 -338 0
-136 -263 -290 0
125 -228 312 0
-104 -256 344 0
-50 54 215 0
68 265 277 0
53 -266 -294 0
-210 -257 273 0
-33 -169 -292 0
96 -169 191 0
-69 149 -274 0
83 130 228 0
20 54 -151 0
-197 198 -322 0
83 -98 176 0
-90 -107 314 0
-46 197 291 0
-81 -84 262 0
53 89 101 0
142 -262 328 0
100 166 265 0
15 -83 343 0
-189 298 -309 0
155 192 -266 0
-40 -145 315 0
79 101 103 0
-49 -265 277 0
-168 -174 284 0
-87 150 -232 0
60 -73 -295 0
194 236 -263 0
-91 -110 -312 0
-178 179 -242 0
-103 -212 222 0
-200 225 233 0
-24 140 -241 0
-182 -311 338 0
-30 51 -350 0
-21 176 345 0
16 -269 -330 0
15 -89 208 0
145 -181 -270 0
177 188 214 0
-23 308 -340 0
-256 -259 -280 0
70 -138 -223 0
21 -36 81 0
94 153 -307 0
-20 -227 343 0
-34 85 103 0
-19 234 -315 0
9 165 -248 0
127 -276 280 0
-124 125 221 0
-132 -207 300 0
-107 134 174 0
22 73 -194 0
-67 -205 342 0
-161 240 -331 0
-47 -241 333 0
-161 270 -341 0
26 -81 251 0
34 -63 -136 0
-3 -7 117 0
-66 79 97 0
-66 261 321 0
-96 171 -183 0
211 346 -349 0
-162 210 -290 0
-133 -231 318 0
35 165 -311 0
-89 123 -192 0
-112 -259 -297 0
-5 105 -113 0
-40 136 345 0
-39 -93 300 0
-71 116 -157 0
-49 227 -347 0
39 279 -305 0
-232 -290 -306 0
180 181 290 0
-15 33 -271 0
-37 58 162 0
-4 -58 -312 0
-127 -252 330 0
13 40 214 0
-31 -72 -298 0
173 -202 206 0
-5 -48 114 0
37 -119 -131 0
15 49 -343 0
-133 157 -252 0
5 -83 122 0
62 -79 -148 0
22 -44 167 0
-188 258 -266 0
75 -86 294 0
-175 255 -280 0
79 -152 325 0
-22 -77 -289 0
-44 170 -278 0
253 -254 323 0
30 -35 340 0
-116 -119 -138 0
-256 280 338 0
-74 234 274 0
-103 258 -313 0
-18 174 -268 0
-93 -151 -185 0
-13 171 200 0
29 -160 -180 0
-117 162 192 0
128 -221 -315 0
-251 265 -319 0
173 -252 329 0
-7 -97 -304 0
-89 203 328 0
-87 -127 -308 0
25 184 243 0
29 -103 107 0
-94 130 -326 0
132 -336 347 0
-78 239 273 0
-28 62 139 0
36 -76 -81 0
179 -221 328 0
89 246 278 0
67 86 -160 0
273 312 -316 0
-98 280 -307 0
-44 50 140 0
13 53 103 0
-279 -285 -321 0
-190 232 239 0
33 -183 317 0
291 311 -319 0
-6 -274 -329 0
-149 162 -229 0
1 -27 44 0
145 -261 300 0
-30 -106 184 0
-75 -178 -317 0
-37 -255 -319 0
-20 -159 179 0
79 -247 307 0
-44 243 -310 0
29 -145 246 0
-31 131 265 0
-4 153 -211 0
-50 120 218 0
162 212 298 0
3 17 166 0
25 -260 296 0
73 173 -311 0
154 -209 -308 0
20 98 242 0
-117 -119 268 0
140 159 243 0
30 -121 154 0
68 -221 339 0
-147 285 -332 0
239 306 317 0
30 78 143 0
24 -144 261 0
-235 273 -295 0
4 -51 -114 0
138 174 -298 0
69 255 -262 0
108 233 -320 0
130 -177 182 0
-87 98 346 0
-111 -259 -348 0
-110 -172 -178 0
66 77 174 0
141 -250 298 0
-103 -132 -213 0
-4 41 237 0
67 -162 290 0
-229 237 331 0
-215 -253 266 0
30 273 281 0
-9 29 213 0
65 237 -258 0
142 178 323 0
91 270 312 0
-156 -292 -294 0
-20 264 274 0
159 202 261 0
-19 -30 -284 0
20 138 -203 0
-134 -267 312 0
57 285 -287 0
-37 -93 -255 0
-8 177 -243 0
2 -12 -347 0
-163 280 -291 0
9 62 201 0
172 -295 302 0
-164 -204 -215 0
-38 122 -218 0
-18 228 324 0
7 -119 325 0
36 267 290 0
69 220 279 0
-48 -123 -189 0
78 217 -301 0
-183 -205 339 0
58 -102 -193 0
-84 -177 305 0
74 -129 336 0
-110 122 328 0
-32 58 275 0
-12 17 231 0
86 194 -261 0
115 -299 312 0
-30 214 -340 0
40 243 251 0
-64 107 -111 0
-119 -253 -282 0
-57 67 349 0
-123 234 -267 0
166 282 -342 0
-121 131 -172 0
147 -265 -288 0
-78 -239 313 0
-25 68 231 0
-91 -184 -214 0
184 -276 -317 0
47 -310 -328 0
143 -278 280 0
13 114 225 0
-95 -292 -309 0
-21 -153 250 0
-27 93 145 0
-18 -48 110 0
9 156 -339 0
69 164 -322 0
-27 160 -162 0
167 -190 282 0
69 -92 -186 0
-119 289 -297 0
-97 113 -243 0
-204 219 300 0
-21 105 -156 0
-4 -308 311 0
26 -86 306 0
-24 -37 -82 0
29 -319 349 0
-61 218 301 0
-43 111 336 0
-83 -111 -282 0
-74 129 261 0
-22 -100 -278 0
78 -261 289 0
33 -186 -195 0
-69 225 -342 0
-187 -290 322 0
164 188 294 0
50 251 256 0
-54 -259 301 0
159 -234 290 0
3 -231 284 0
34 -106 -195 0
-72 -90 277 0
-183 219 -247 0
141 208 -309 0
80 -314 -348 0
36 281 297 0
-212 -233 -270 0
110 -130 -179 0
-118 -151 -236 0
48 -100 238 0
169 195 263 0
-5 -86 -185 0
-26 -318 324 0
189 227 264 0
115 163 240 0
-50 -118 -159 0
34 230 -237 0
-71 124 214 0
-73 249 -271 0
-3 -164 -203 0
157 258 -261 0
67 238 325 0
56 -131 -317 0
-5 23 -334 0
-48 88 -234 0
115 -133 -238 0
-111 264 346 0
219 251 318 0
110 140 -319 0
-45 -168 197 0
-87 -137 275 0
-101 143 -262 0
123 -163 -191 0
-13 -113 -251 0
145 150 -299 0
20 94 207 0
71 -167 -218 0
-108 151 233 0
97 -104 155 0
-36 -195 212 0
-27 225 -264 0
-218 243 -255 0
64 138 150 0
-177 -237 -292 0
124 165 208 0
63 145 313 0
82 -146 -219 0
-7 -151 302 0
34 -59 81 0
-57 -209 287 0
-38 150 -332 0
19 80 -274 0
-6 211 280 0
-157 248 291 0
180 -281 304 0
106 116 286 0
-7 30 -122 0
-30 -36 176 0
-98 -128 -241 0
-228 -328 343 0
27 141 190 0
-194 215 -330 0
95 214 217 0
15 52 -310 0
62 -217 -318 0
-73 189 -281 0
4 -94 -200 0
170 226 -241 0
152 -180 230 0
-3 -19 124 0
247 -281 309 0
167 197 -229 0
84 -106 -124 0
-195 -247 -278 0
46 -66 -93 0
-61 155 195 0
21 -46 225 0
-16 -133 212 0
56 113 299 0
-30 52 -109 0
-151 285 320 0
25 173 185 0
-137 -153 -284 0
-227 274 -298 0
-113 232 247 0
-96 -264 265 0
272 -298 333 0
2 27 226 0
-155 281 -289 0
-79 -118 -224 0
15 68 333 0
147 -196 342 0
139 184 300 0
-211 -228 231 0
-64 243 -285 0
20 -144 197 0
130 -273 -282 0
-91 -248 329 0
-97 -307 -342 0
218 261 -345 0
-26 -45 -105 0
17 -33 -328 0
25 49 -276 0
55 133 283 0
46 87 -239 0
214 266 -330 0
-45 -154 -206 0
-40 274 -302 0
-149 289 309 0
-204 249 261 0
-168 191 -260 0
-310 313 -347 0
146 -167 182 0
-16 44 139 0
5 -38 -43 0
-47 112 175 0
99 210 216 0
-22 111 -169 0
-54 84 148 0
279 -281 335 0
9 -65 -177 0
113 -167 -200 0
-37 222 -250 0
69 150 340 0
-119 -242 261 0
117 177 286 0
129 -266 341 0
-84 -265 -305 0
46 123 326 0
11 -106 -213 0
-25 -107 -267 0
78 -328 332 0
-114 119 -205 0
13 68 -321 0
16 66 -144 0
5 -40 67 0
-139 168 201 0
74 81 134 0
-104 -110 -154 0
-221 245 -294 0
7 108 -239 0
158 243 283 0
-7 -101 -102 0
162 301 -343 0
302 -312 326 0
213 312 -313 0
195 -199 -321 0
-54 -167 -230 0
87 -173 -244 0
-26 -112 207 0
117 -170 -258 0
-84 -146 -251 0
-63 111 -237 0
86 201 -295 0
1 313 -333 0
22 -349 350 0
179 -206 -293 0
8 134 195 0
-176 229 254 0
-13 -117 -312 0
114 -203 -262 0
18 -252 -289 0
74 118 177 0
173 201 287 0
130 136 -327 0
-50 -54 -299 0
-64 317 -319 0
85 225 -245 0
-7 -151 222 0
106 -301 -343 0
-50 129 -178 0
78 -301 303 0
128 -320 321 0
-41 -63 101 0
-35 -114 -212 0
120 122 -227 0
155 157 200 0
-22 269 280 0
172 -213 -341 0
-118 -121 -198 0
79 214 333 0
121 -202 -224 0
104 142 321 0
-15 -144 310 0
261 316 -328 0
49 -286 322 0
-273 -307 -330 0
-232 288 -323 0
-100 106 147 0
95 118 -181 0
-17 84 -238 0
29 106 291 0
-113 -227 -245 0
113 -179 181 0
-199 203 206 0
-99 231 -242 0
-80 259 278 0
-120 190 -297 0
-121 -271 -301 0
140 270 -291 0
-18 121 -275 0
-15 117 -256 0
-28 -63 317 0
76 87 -258 0
-55 -146 213 0
-7 -191 -263 0
7 -278 291 0
175 -273 -347 0
50 190 298 0
-113 171 -309 0
-154 -155 -202 0
-82 223 -303 0
83 135 -279 0
44 -57 229 0
-141 -286 -319 0
22 -196 289 0
-56 -72 -113 0
51 179 -290 0
120 -208 213 0
12 -219 276 0
147 176 -274 0
-8 253 328 0
-98 -108 268 0
27 -38 115 0
-31 161 -287 0
-9 -163 333 0
24 86 143 0
209 240 298 0
-79 -177 283 0
-103 -119 149 0
259 -300 -318 0
11 98 -250 0
79 -213 315 0
-3 19 124 0
-16 119 -134 0
-28 -57 336 0
90 287 -347 0
-183 -196 293 0
9 140 -160 0
-45 132 133 0
-189 209 -326 0
52 -145 247 0
-36 -234 329 0
-180 -273 -323 0
-235 248 322 0
2 75 115 0
-91 177 200 0
-108 205 219 0
83 187 326 0
-170 192 -203 0
-110 -201 211 0
-199 221 274 0
-68 111 253 0
69 -219 -228 0
-7 -133 136 0
-306 326 335 0
-94 -286 -295 0
154 278 -289 0
86 -118 -197 0
38 122 -309 0
6 254 -321 0
5 -76 178 0
-10 49 -121 0
127 -240 289 0
177 191 -283 0
-95 202 332 0
167 -248 298 0
-48 -189 295 0
188 -190 287 0
-218 262 336 0
59 122 281 0
-261 -319 326 0
68 -284 305 0
-93 -209 -279 0
7 58 -227 0
