c F2 random 3-CNF cnfgen RandomKCNF(3,300,1500,seed=3) m/n=5.0
p cnf 300 1500
-67 -122 279 0
7 133 -241 0
-244 277 282 0
78 200 268 0
-16 -22 -155 0
-203 219 -296 0
-19 50 -70 0
-155 -216 -224 0
119 -173 300 0
168 278 -293 0
-33 -64 146 0
35 177 -211 0
61 213 -219 0
143 170 -283 0
4 40 -56 0
80 -135 -150 0
-71 -185 -194 0
-53 -260 287 0
-133 -155 224 0
162 -213 297 0
-31 -171 -239 0
12 -32 -251 0
153 -164 234 0
-136 -161 190 0
-14 68 -292 0
-96 123 168 0
-115 165 171 0
-112 -173 292 0
18 -62 272 0
-44 143 -175 0
-139 -150 -266 0
-149 215 -291 0
-3 -80 103 0
-17 -234 266 0
35 62 147 0
102 221 -263 0
-62 88 258 0
212 269 -275 0
-65 130 -277 0
63 102 114 0
-4 -66 141 0
-128 138 -139 0
1 29 166 0
26 36 -248 0
-37 -81 -162 0
136 -156 -185 0
64 -66 285 0
-22 -92 -291 0
-23 -28 -221 0
215 216 236 0
-37 139 -275 0
-15 -67 167 0
-64 238 -272 0
53 -273 289 0
23 121 -200 0
13 92 175 0
-146 247 297 0
262 271 289 0
-32 282 284 0
-93 -124 -128 0
-180 189 -204 0
121 -212 -257 0
77 80 -206 0
227 248 -265 0
-76 102 -300 0
137 -212 300 0
138 196 -246 0
123 -165 -248 0
106 -240 298 0
24 205 240 0
112 -124 131 0
19 96 -131 0
47 94 217 0
-19 -136 -150 0
-4 -16 -172 0
-40 -108 249 0
-62 164 -279 0
-58 225 -271 0
-152 189 -231 0
270 -275 -290 0
31 151 290 0
64 190 -233 0
154 -216 -285 0
36 91 -160 0
-52 -137 184 0
-22 70 -246 0
171 -207 -230 0
58 78 139 0
-95 -97 291 0
75 100 204 0
129 -151 -190 0
-162 -197 -283 0
16 98 248 0
-89 252 269 0
-19 109 -272 0
70 79 240 0
120 -185 260 0
-166 169 174 0
18 41 176 0
-114 224 249 0
40 -103 -210 0
-35 243 -276 0
-12 -156 -238 0
-20 -93 -234 0
-186 230 272 0
108 -133 190 0
12 -82 108 0
15 -57 -72 0
-12 -31 -95 0
17 -27 209 0
14 204 253 0
98 -200 243 0
-27 -64 -178 0
-128 154 -251 0
48 -163 177 0
2 16 54 0
19 247 -258 0
-103 -175 245 0
157 -196 202 0
-59 -212 -260 0
-90 198 -284 0
-118 -213 -225 0
-87 -138 260 0
-12 79 88 0
29 -122 -164 0
1 171 -190 0
-54 174 -292 0
42 108 124 0
6 -58 300 0
-113 -264 288 0
41 91 240 0
52 103 -131 0
-56 -115 -205 0
-57 -150 229 0
-4 -60 277 0
-99 175 -178 0
35 217 -266 0
-32 -121 172 0
112 129 166 0
-215 238 -275 0
209 -241 248 0
15 -50 95 0
21 -100 -242 0
-20 177 -222 0
-53 -74 -228 0
-40 -79 -106 0
-83 -191 -221 0
-114 -270 -278 0
-16 -192 238 0
6 8 267 0
1 -26 -85 0
-18 186 283 0
-7 142 222 0
135 -160 -231 0
23 -134 174 0
85 -127 -289 0
69 144 283 0
-9 -31 -249 0
-88 190 266 0
-53 -72 -281 0
-131 -143 233 0
72 -162 -296 0
-119 235 -300 0
-60 282 -295 0
53 -138 223 0
230 -250 -264 0
-93 197 -204 0
-20 -110 -163 0
-19 -68 214 0
103 118 254 0
-3 -36 -145 0
138 149 237 0
74 87 -250 0
-5 73 204 0
91 98 160 0
78 -269 274 0
94 -200 222 0
-59 68 -75 0
40 -99 181 0
-33 -126 245 0
-11 -161 -243 0
-157 238 -276 0
103 -152 197 0
104 137 163 0
59 92 210 0
-192 207 -292 0
-226 277 298 0
-166 -234 -260 0
-147 -175 177 0
-64 114 -257 0
137 -223 -232 0
-91 271 273 0
-214 218 282 0
109 -196 197 0
29 -253 -281 0
-7 -186 -287 0
191 -205 225 0
-1 113 166 0
-42 -72 -108 0
-15 -16 -101 0
110 -174 226 0
-72 158 244 0
44 -89 -221 0
-4 -95 251 0
-105 -200 -262 0
43 -50 -147 0
-5 -34 167 0
170 -215 299 0
27 46 201 0
-93 -119 -241 0
117 -234 -271 0
-69 -273 -298 0
-105 270 -300 0
100 160 253 0
-62 234 -257 0
-20 96 -168 0
-30 -122 206 0
-91 -129 146 0
57 -107 -175 0
87 -89 290 0
111 -119 -187 0
-91 155 227 0
235 251 -275 0
215 -254 -267 0
178 208 -248 0
-74 174 -299 0
-76 153 -271 0
-22 192 253 0
-156 -283 -300 0
-6 -150 -217 0
93 -190 291 0
-57 198 -289 0
-89 -249 278 0
-210 284 296 0
85 104 247 0
-61 -276 -283 0
-34 -141 246 0
61 -109 -134 0
-76 135 -223 0
103 262 -293 0
55 176 178 0
116 -171 235 0
-22 85 -252 0
-220 -226 -259 0
-140 152 279 0
17 88 221 0
-107 191 -259 0
61 82 -104 0
77 -148 220 0
45 71 133 0
-4 -43 -266 0
2 -91 -135 0
-4 -17 -88 0
-23 53 -109 0
-115 168 226 0
111 -118 -177 0
50 162 -203 0
13 -50 208 0
-101 -233 292 0
158 219 -268 0
-52 257 -272 0
65 158 -266 0
63 -152 270 0
127 213 246 0
-3 30 243 0
-152 -157 -177 0
68 -157 159 0
59 99 -122 0
72 261 -272 0
-4 262 -263 0
-44 -216 -256 0
-15 -176 -239 0
132 -133 243 0
-135 216 -246 0
30 -123 300 0
93 164 -198 0
-131 -216 -221 0
-21 -187 -202 0
71 113 270 0
-54 -206 -212 0
222 -258 -286 0
30 83 287 0
71 203 263 0
110 -151 -282 0
-75 -81 -111 0
-15 227 -264 0
163 198 -283 0
-44 102 106 0
-48 -118 171 0
-107 278 -287 0
75 -123 -143 0
-80 105 149 0
-60 -233 286 0
-136 203 -274 0
105 160 -179 0
-122 177 205 0
-13 89 164 0
-25 59 -168 0
149 -172 -285 0
87 225 248 0
-143 190 -246 0
-186 193 -243 0
-246 254 -289 0
38 96 157 0
90 -134 161 0
8 -114 171 0
-55 -232 258 0
223 236 281 0
-44 54 -104 0
-15 26 108 0
-110 -168 -262 0
8 99 -275 0
-66 -179 228 0
40 145 -156 0
-124 -200 -225 0
-88 152 177 0
-156 -198 234 0
-4 -52 180 0
-129 -235 272 0
-38 -45 -153 0
85 -104 135 0
-92 103 -122 0
99 189 -265 0
155 -226 -251 0
-92 -236 -300 0
33 124 -176 0
38 178 275 0
81 168 -243 0
123 244 298 0
-73 164 -293 0
179 -193 -297 0
-30 208 238 0
-137 157 215 0
49 -93 -209 0
40 -128 -223 0
-95 179 220 0
-120 -183 -261 0
-82 117 148 0
81 135 -249 0
-85 -227 -271 0
48 -201 294 0
-108 -186 -295 0
194 -223 288 0
143 147 -165 0
110 -111 -268 0
61 127 -230 0
-17 -280 -300 0
-65 68 -270 0
134 198 -269 0
43 -100 182 0
216 -222 -286 0
-155 182 -211 0
-37 100 -130 0
-35 -121 279 0
166 209 297 0
76 101 -116 0
45 -87 -274 0
12 -54 -166 0
24 56 -114 0
94 101 -228 0
38 249 257 0
-116 143 249 0
36 154 182 0
57 122 230 0
-109 162 -285 0
-46 128 225 0
83 -208 296 0
65 -210 240 0
121 215 279 0
16 -90 -243 0
150 236 -241 0
-11 -32 294 0
35 92 -133 0
-4 216 -241 0
-80 176 281 0
-154 165 -297 0
43 -132 300 0
-37 157 200 0
-114 -266 -298 0
74 79 289 0
-191 -233 -260 0
-155 -263 -288 0
41 -55 -162 0
134 153 -238 0
84 -248 -292 0
109 -153 -225 0
38 71 -97 0
-199 -211 267 0
-3 -79 193 0
91 -126 -192 0
13 -159 -186 0
-2 105 -169 0
-4 -43 128 0
-4 204 -245 0
-70 232 286 0
49 223 257 0
-10 -127 166 0
-39 116 -212 0
-90 125 -196 0
171 191 -286 0
-44 91 176 0
-67 -241 -284 0
51 204 258 0
-38 -124 289 0
88 89 294 0
122 166 -176 0
-6 126 -144 0
-171 -190 -233 0
51 -174 -291 0
-116 229 -291 0
-55 60 -244 0
26 -77 171 0
-121 156 -190 0
-66 77 -162 0
-42 165 218 0
56 131 -292 0
-133 165 -225 0
9 -40 205 0
-75 83 -271 0
-30 169 220 0
-193 -259 -285 0
10 81 181 0
-39 65 -111 0
210 243 -267 0
-133 259 264 0
-124 -287 300 0
176 -237 255 0
-13 -129 -180 0
-16 51 192 0
-150 -151 228 0
144 -152 -264 0
115 142 -176 0
105 191 286 0
-218 -251 -285 0
140 -189 233 0
94 -128 -300 0
-33 -99 -146 0
4 -111 166 0
158 162 222 0
57 90 177 0
156 -236 -250 0
181 -182 -295 0
66 -142 -147 0
51 235 -238 0
-226 -232 -269 0
-17 184 239 0
-25 -26 -45 0
164 237 272 0
-159 -233 298 0
165 -184 205 0
98 109 -258 0
-69 153 -234 0
149 194 -240 0
39 -47 133 0
69 198 -228 0
171 -220 242 0
-7 140 184 0
184 -265 -287 0
-40 193 284 0
-159 -165 171 0
143 -155 188 0
80 -182 262 0
-106 184 291 0
-12 44 270 0
-106 -253 -285 0
122 -206 -293 0
-102 112 198 0
22 -190 -191 0
-56 107 -269 0
-166 -283 -300 0
208 -224 -263 0
-203 254 280 0
52 226 -280 0
132 140 -251 0
-247 -279 300 0
-5 -97 -123 0
-78 -162 297 0
-1 86 136 0
93 -167 200 0
21 -125 133 0
39 -146 173 0
139 241 261 0
-82 111 276 0
16 -198 -225 0
-75 -115 -186 0
-141 -189 264 0
205 -234 292 0
12 104 -138 0
-72 125 248 0
89 -146 -260 0
104 -202 280 0
-40 -133 -233 0
175 -252 271 0
43 46 -117 0
51 111 -123 0
-39 92 -145 0
21 -25 -189 0
-156 173 278 0
-2 179 205 0
-68 -73 86 0
53 -90 233 0
-21 -104 143 0
-126 139 -235 0
92 -283 292 0
-60 -219 259 0
113 118 242 0
-117 -143 -208 0
14 -120 -148 0
-217 -264 273 0
-99 205 -231 0
-26 -35 153 0
-58 73 111 0
15 144 -158 0
-24 -78 157 0
-191 225 260 0
-64 -89 -133 0
-195 -224 227 0
-20 -194 242 0
87 230 282 0
-73 114 -151 0
-96 146 -185 0
-86 162 -219 0
-216 236 285 0
-20 -84 -212 0
61 -63 114 0
131 201 213 0
149 -256 -273 0
30 113 -276 0
-17 -275 -298 0
12 72 163 0
224 254 -261 0
-46 236 -297 0
120 128 139 0
37 -85 -183 0
50 -77 91 0
146 193 290 0
32 56 -212 0
78 120 -231 0
13 24 223 0
16 133 -192 0
-59 126 226 0
46 206 -242 0
-122 -137 -148 0
229 -279 -290 0
-203 -232 260 0
68 189 -211 0
-136 -138 -289 0
4 13 -220 0
77 196 284 0
-62 100 117 0
126 252 265 0
-84 -89 121 0
47 -62 -159 0
-71 -133 -263 0
-60 113 227 0
37 67 247 0
227 -244 -278 0
22 -37 224 0
92 184 -212 0
-41 183 -205 0
-171 186 256 0
-83 -96 218 0
75 -183 -201 0
-15 -153 -230 0
137 -176 222 0
-6 -49 230 0
-4 131 -257 0
-13 163 233 0
132 147 -280 0
-15 80 190 0
15 99 -193 0
24 -57 -292 0
46 -229 -247 0
-96 156 229 0
203 -236 -267 0
53 -236 -237 0
-185 190 -233 0
-104 108 -110 0
-95 261 288 0
-6 -18 -47 0
-124 -146 154 0
87 142 -263 0
-16 -146 241 0
203 224 -292 0
-77 -246 274 0
98 -167 284 0
-11 128 217 0
135 185 210 0
10 125 204 0
-84 -122 221 0
-1 59 116 0
67 -257 290 0
120 183 216 0
-19 39 -124 0
63 -213 254 0
48 -243 286 0
57 165 -177 0
-107 -155 -216 0
127 242 -260 0
42 109 190 0
22 124 140 0
-63 -184 -213 0
-39 -150 -167 0
6 77 223 0
-132 171 197 0
12 -26 92 0
43 -218 -297 0
-226 256 -291 0
13 86 -155 0
-91 -93 -215 0
-81 -171 281 0
-73 251 -262 0
-110 149 -250 0
-49 87 148 0
-25 74 -200 0
-1 37 41 0
-153 -179 193 0
-21 -57 100 0
150 223 292 0
32 91 170 0
82 -132 -202 0
-63 181 292 0
-194 205 -247 0
166 205 -281 0
-12 -29 -151 0
-142 180 -285 0
128 -134 -142 0
66 153 -278 0
-31 266 -269 0
-142 -171 -193 0
-174 213 232 0
-95 198 272 0
-77 111 273 0
194 -252 295 0
-76 -219 244 0
-11 -73 131 0
-119 -147 165 0
-25 -97 200 0
-72 246 -298 0
123 201 -244 0
114 169 -191 0
81 94 -141 0
115 166 -176 0
-163 193 219 0
20 -187 -285 0
-6 -204 226 0
123 205 -209 0
-158 225 266 0
-8 -171 -299 0
119 -128 147 0
-103 174 243 0
116 -236 293 0
-189 198 -238 0
12 148 292 0
99 -123 174 0
-10 50 272 0
6 -19 -233 0
81 -182 -196 0
-97 -103 -106 0
34 -119 206 0
-78 202 245 0
62 -113 211 0
84 117 -172 0
-166 -250 -296 0
156 183 248 0
-72 -224 -291 0
-42 153 214 0
-87 -140 247 0
79 -113 279 0
32 -78 191 0
-21 158 259 0
-19 211 -248 0
57 -194 -289 0
114 171 173 0
-41 179 -240 0
150 248 279 0
-7 60 -165 0
126 -212 -214 0
17 78 -203 0
183 208 -270 0
44 125 234 0
85 -160 -172 0
191 -219 300 0
12 13 219 0
113 -151 296 0
9 -29 255 0
-80 118 173 0
-70 -144 297 0
-93 -100 139 0
-55 -67 -109 0
18 -217 271 0
-77 -155 -209 0
-175 -267 284 0
-35 71 -300 0
26 115 209 0
-118 -155 164 0
6 -101 -289 0
47 110 -223 0
90 -222 266 0
14 173 -277 0
29 -106 208 0
-23 238 247 0
-79 -199 221 0
-107 131 -177 0
-13 -92 -236 0
137 151 -159 0
-46 -210 242 0
198 204 -212 0
-36 -59 -201 0
-26 97 -300 0
15 -152 249 0
-102 234 271 0
192 -255 -257 0
4 -166 198 0
7 219 -234 0
-49 -52 268 0
-78 117 -206 0
-60 183 291 0
-100 123 221 0
-24 75 100 0
-158 185 -289 0
-32 -181 196 0
20 -83 -236 0
107 133 287 0
-147 -269 -280 0
-88 -119 -282 0
-1 67 80 0
25 35 281 0
-179 -251 260 0
-182 -207 -245 0
-52 179 263 0
-109 -207 -242 0
44 -163 259 0
-82 222 -288 0
119 -175 249 0
61 138 -174 0
-67 -105 225 0
-22 -25 -110 0
170 -187 276 0
-101 -240 297 0
-14 -49 -62 0
36 57 -236 0
-10 -135 254 0
-67 -242 -261 0
78 -176 -274 0
65 115 -286 0
-48 215 -217 0
115 -171 -293 0
45 70 151 0
5 116 128 0
-131 186 201 0
-182 -201 -209 0
97 163 191 0
-46 -86 228 0
20 -145 -149 0
-21 108 -165 0
-152 217 251 0
19 207 263 0
-113 132 154 0
-120 -127 281 0
106 -136 -231 0
9 57 -159 0
-241 245 -273 0
38 -58 135 0
-29 77 -243 0
-17 -156 -222 0
-108 -155 -271 0
85 184 232 0
-97 121 219 0
89 -211 262 0
-21 71 240 0
74 -104 -266 0
-65 -197 271 0
55 -59 234 0
89 -269 -276 0
-81 196 -286 0
75 -101 -289 0
51 -65 -70 0
130 161 171 0
-26 194 283 0
18 -235 -276 0
56 199 227 0
-126 -180 -233 0
84 106 -162 0
-23 188 278 0
-68 107 -255 0
-128 -172 -244 0
56 131 -289 0
77 -146 180 0
-28 130 -146 0
-61 -247 -277 0
-159 -190 -226 0
-76 158 228 0
-58 -115 -203 0
-43 63 124 0
-62 217 262 0
159 220 -259 0
-123 -159 186 0
-122 -123 -167 0
144 170 -211 0
-125 -225 291 0
-84 177 270 0
4 126 168 0
23 87 163 0
-99 164 196 0
-26 -228 -230 0
74 193 246 0
26 80 -200 0
14 -40 86 0
97 -133 -254 0
-40 -100 -191 0
-51 56 -170 0
27 -164 -204 0
54 78 179 0
-123 -253 289 0
-84 115 296 0
66 -139 -239 0
-65 243 253 0
15 -145 164 0
-77 -127 -211 0
39 -72 290 0
276 278 -289 0
207 255 288 0
171 -181 -238 0
-36 110 -185 0
-32 -153 256 0
112 -143 -206 0
13 -184 215 0
-107 -111 151 0
-31 207 -288 0
-41 69 -139 0
34 135 246 0
-126 -238 -295 0
91 233 -274 0
-30 140 244 0
-203 -293 295 0
55 -101 -126 0
-9 50 -60 0
117 202 253 0
46 68 269 0
-16 83 261 0
-3 -50 -139 0
132 -145 163 0
128 -132 -280 0
-8 -82 -150 0
-65 -185 212 0
104 -226 292 0
-162 -168 -175 0
24 -68 -167 0
-128 152 240 0
-56 -106 123 0
-19 119 -133 0
142 280 282 0
50 -92 -142 0
16 91 130 0
-152 -213 -274 0
-169 207 -285 0
27 114 -228 0
100 151 -207 0
44 -120 -137 0
82 105 109 0
-28 -43 289 0
-5 -213 -230 0
-8 75 -125 0
-1 143 -159 0
-29 -60 -117 0
-185 252 257 0
117 143 144 0
13 -26 235 0
7 25 101 0
164 -212 222 0
28 231 292 0
-95 103 181 0
-59 -140 -270 0
46 214 -285 0
-71 -224 252 0
4 -115 -173 0
-117 182 -258 0
1 47 258 0
26 -235 245 0
-29 89 -107 0
-145 253 -296 0
-166 -169 217 0
170 -175 196 0
-116 -217 -223 0
-6 128 -146 0
-83 137 -195 0
-87 -99 144 0
58 -191 -258 0
114 205 264 0
79 -156 232 0
-38 -95 -170 0
-58 94 -245 0
1 135 -217 0
143 203 -296 0
-177 -203 -258 0
22 33 36 0
-142 -252 -254 0
-217 -267 -277 0
25 -210 233 0
62 94 233 0
183 -207 -247 0
-29 137 243 0
125 203 254 0
74 -142 250 0
74 -77 250 0
-7 -47 189 0
-3 239 270 0
-135 -207 258 0
11 119 298 0
73 83 -285 0
-15 -223 -233 0
33 -36 87 0
22 -70 74 0
168 178 216 0
47 212 -285 0
27 117 -150 0
-141 153 247 0
-38 137 147 0
-2 -42 114 0
-9 205 -233 0
-162 -168 238 0
171 191 282 0
94 -248 -292 0
-11 -164 183 0
-26 -118 236 0
-23 -58 -167 0
15 -29 169 0
64 113 129 0
74 75 -79 0
1 25 -60 0
26 -148 -175 0
40 95 -99 0
61 -212 -253 0
-131 137 -249 0
89 216 -239 0
-53 -279 -294 0
112 156 277 0
12 99 169 0
-9 199 221 0
-78 253 -278 0
-191 193 203 0
123 -253 -269 0
-63 -80 -148 0
33 -54 289 0
-64 158 -248 0
108 -154 274 0
91 101 -284 0
-159 209 220 0
-43 -134 -259 0
-119 -222 237 0
21 178 203 0
-96 167 -180 0
-115 -270 272 0
35 -195 246 0
131 -135 -237 0
-144 178 -272 0
5 -135 -262 0
50 85 -258 0
43 -169 -289 0
68 175 -274 0
-106 117 -262 0
-103 106 -132 0
-74 138 -200 0
-7 15 270 0
-98 124 196 0
9 261 267 0
-100 231 -246 0
-119 -131 -220 0
-96 -198 270 0
-45 144 -284 0
21 -158 273 0
72 -115 -259 0
-85 169 -191 0
10 -37 -127 0
2 4 193 0
-13 -68 -188 0
-65 177 -295 0
-125 -227 -253 0
-128 -215 -257 0
-169 -250 -284 0
-82 216 -290 0
120 -270 -295 0
-160 -209 235 0
177 -217 -281 0
32 -144 -293 0
53 86 110 0
72 177 -232 0
-205 -222 -283 0
78 94 -260 0
11 234 -268 0
-86 -189 -231 0
-36 -152 -285 0
157 -255 -282 0
35 -120 -189 0
-167 192 -206 0
-98 135 243 0
-60 227 -254 0
17 -145 -275 0
-50 118 242 0
73 -103 208 0
198 229 -278 0
-50 193 294 0
17 -156 215 0
129 -177 -189 0
-195 243 256 0
3 9 -193 0
-151 -247 275 0
59 200 -224 0
-113 158 237 0
70 -124 168 0
-2 -23 -27 0
-9 -195 289 0
57 -95 167 0
96 158 264 0
77 -181 -205 0
2 -56 135 0
35 -62 -90 0
-144 -172 -261 0
-7 74 -255 0
-69 108 -188 0
40 -139 -287 0
-163 185 288 0
-100 -245 -280 0
-22 -126 -238 0
-3 193 238 0
111 -148 157 0
9 -170 -218 0
-17 -30 -68 0
-45 172 203 0
-28 192 -220 0
118 -156 200 0
-69 164 289 0
52 -170 262 0
-33 54 129 0
10 133 -156 0
49 185 -218 0
46 -188 236 0
-6 140 -281 0
118 -168 -247 0
-39 148 249 0
-114 -181 277 0
33 -205 -247 0
19 137 -203 0
18 -105 160 0
-163 210 213 0
-162 -166 290 0
7 70 -78 0
94 200 -288 0
51 193 215 0
11 -275 -280 0
-10 -18 69 0
-106 -217 275 0
89 -103 236 0
46 86 235 0
90 -219 233 0
14 163 -292 0
-24 124 138 0
-105 203 263 0
-157 -184 -218 0
113 184 -259 0
69 118 -190 0
-13 98 -118 0
-111 -158 -259 0
-65 142 278 0
-6 -8 -113 0
-65 168 -260 0
-79 -150 191 0
-154 -261 285 0
42 -273 300 0
114 121 -196 0
188 -245 261 0
-43 -53 72 0
55 -243 -284 0
-163 -177 251 0
-196 281 -289 0
-73 -101 254 0
-56 157 -284 0
-199 -256 295 0
145 -200 266 0
93 -159 -164 0
-61 -65 92 0
49 142 284 0
-71 100 178 0
147 175 -295 0
-175 -203 288 0
-107 111 -239 0
-5 93 268 0
-143 187 -213 0
-162 184 202 0
-44 -137 228 0
16 53 211 0
76 -133 -169 0
-34 252 284 0
-21 83 -197 0
-161 -230 251 0
-181 245 -276 0
-14 92 179 0
-130 137 290 0
-120 175 228 0
-77 -82 -299 0
105 158 256 0
-104 -156 -269 0
43 -270 -286 0
-48 -150 215 0
-126 224 242 0
1 43 146 0
-194 235 -238 0
-5 -90 151 0
-64 -104 -180 0
64 168 -269 0
-28 154 -224 0
82 201 -243 0
39 -42 286 0
22 -101 -130 0
-151 156 178 0
24 43 96 0
191 214 -271 0
-91 230 274 0
56 62 183 0
-117 -135 170 0
14 88 148 0
-54 -173 -178 0
-6 -115 -205 0
148 203 -230 0
65 181 -214 0
1 -56 -238 0
-64 238 250 0
82 159 236 0
72 85 -257 0
-46 -110 -216 0
-24 -38 240 0
167 -235 267 0
58 64 -265 0
-80 -107 207 0
67 132 -299 0
-100 115 290 0
51 126 -243 0
128 191 -198 0
-10 -15 -135 0
-25 -232 -270 0
-47 126 269 0
-179 269 276 0
24 210 290 0
-260 -294 297 0
-50 130 157 0
133 202 261 0
33 -54 -292 0
-45 77 -160 0
-7 -26 -178 0
-2 204 -288 0
16 21 98 0
70 -195 -204 0
124 -161 -180 0
110 240 268 0
-192 -222 -284 0
-45 129 -154 0
-21 150 -168 0
-31 -32 192 0
-25 -103 -255 0
-141 -208 -276 0
163 -178 213 0
219 -258 -266 0
142 160 -222 0
60 69 -120 0
28 -33 97 0
-16 -65 -293 0
50 -93 231 0
74 -178 -207 0
-231 -234 263 0
20 -110 294 0
-20 -72 -266 0
62 -111 -115 0
72 -84 -267 0
175 -276 296 0
107 219 277 0
30 201 251 0
-14 175 -224 0
35 49 197 0
42 -122 -146 0
1 -125 290 0
141 -159 285 0
100 224 -255 0
172 182 203 0
-110 -121 -220 0
10 181 245 0
136 235 265 0
20 116 219 0
-93 164 -190 0
-199 -262 295 0
121 -194 -231 0
77 -220 -254 0
-9 -69 -114 0
-16 -101 -186 0
132 245 278 0
58 88 -155 0
32 -84 263 0
-29 -250 272 0
-135 189 220 0
198 -267 293 0
-15 -253 -281 0
213 218 242 0
188 -189 245 0
-150 201 -239 0
21 145 -194 0
-20 -49 -83 0
19 -119 -127 0
112 173 219 0
81 92 175 0
44 -54 -193 0
-14 -85 194 0
31 77 102 0
3 41 204 0
107 -149 -288 0
-23 100 -170 0
-123 176 229 0
-30 152 -158 0
-39 112 -113 0
215 -269 271 0
-12 -126 -238 0
-22 -90 -238 0
-103 113 161 0
-117 -145 296 0
-64 -127 -194 0
-24 64 -294 0
196 237 -282 0
-37 52 -218 0
74 110 118 0
-109 175 279 0
-17 -112 228 0
213 253 291 0
94 -231 262 0
-237 266 -285 0
-112 177 -258 0
20 44 -123 0
-6 137 211 0
-69 130 -257 0
6 -147 -299 0
39 68 -103 0
72 -75 -279 0
-98 109 -218 0
15 -39 163 0
-85 -96 -119 0
-27 227 -293 0
-115 173 -174 0
-77 90 178 0
-3 -122 226 0
-65 -84 -300 0
-152 -256 292 0
10 -161 -239 0
-66 -219 -285 0
-206 -213 297 0
-2 138 -198 0
9 43 219 0
4 -101 149 0
-61 -92 102 0
152 159 -253 0
-69 171 -189 0
-136 -175 231 0
47 185 245 0
-55 209 223 0
104 192 -200 0
8 -114 -165 0
-32 243 288 0
11 233 -259 0
-158 -237 239 0
-132 165 207 0
19 27 240 0
122 199 -235 0
-110 -168 -203 0
-1 155 157 0
-182 -231 240 0
-168 181 -197 0
5 -224 -289 0
126 -142 167 0
-32 -53 -102 0
186 215 -299 0
-15 -104 -221 0
-167 -173 -184 0
-43 -60 -235 0
-23 56 276 0
32 -152 200 0
58 260 -294 0
51 -52 -225 0
-146 235 -294 0
42 -190 274 0
-101 -169 -286 0
17 67 119 0
-27 -190 297 0
22 -110 -292 0
-66 117 -146 0
47 -151 282 0
-25 -34 189 0
84 -184 -248 0
-166 -232 275 0
24 70 -81 0
-45 248 -265 0
34 -105 -204 0
70 -197 -201 0
-86 -116 196 0
-39 97 298 0
25 157 -229 0
58 184 246 0
76 129 -195 0
-96 -112 195 0
-109 111 265 0
85 284 290 0
77 139 -255 0
-75 -135 -210 0
94 -104 -220 0
-5 160 -178 0
-76 160 -190 0
2 39 72 0
28 -87 -122 0
-98 138 -170 0
69 100 -276 0
184 -225 -246 0
-146 -167 210 0
12 -39 -86 0
123 -180 261 0
-36 196 288 0
-121 -186 -242 0
-17 -76 88 0
65 -67 294 0
-5 -78 153 0
7 97 -205 0
-58 -156 232 0
118 -241 270 0
22 -32 200 0
91 -159 -231 0
45 172 191 0
-56 220 -243 0
133 190 225 0
-2 -66 93 0
-94 -201 -259 0
-97 119 145 0
65 -99 -279 0
-88 95 -217 0
140 236 254 0
31 -114 182 0
114 173 -178 0
-36 51 -261 0
157 257 -288 0
-22 -50 178 0
10 -75 218 0
-10 -208 231 0
-11 53 -242 0
-147 -210 -293 0
-91 183 209 0
-9 -166 175 0
-151 -153 -232 0
176 198 -222 0
-93 -139 160 0
21 -44 45 0
-64 129 -295 0
119 -203 -250 0
-36 47 199 0
-67 83 -201 0
91 161 -200 0
-33 189 270 0
-54 280 300 0
14 -135 186 0
146 -167 280 0
-33 -79 288 0
-75 107 -137 0
22 -167 219 0
-183 208 -261 0
49 192 -276 0
57 -249 257 0
-148 -169 208 0
-142 154 294 0
-88 -135 250 0
138 -172 -267 0
116 120 -169 0
-38 -235 -281 0
106 -170 183 0
46 -285 -290 0
-139 -185 281 0
116 -191 -257 0
-12 -119 178 0
-66 -242 -267 0
45 160 296 0
166 175 -244 0
-28 77 -236 0
-3 -18 174 0
170 -246 248 0
-43 195 -219 0
-101 -114 -284 0
131 145 194 0
-7 -73 -141 0
-68 110 169 0
29 120 -170 0
-95 211 -257 0
97 109 -273 0
46 231 239 0
34 -99 -283 0
29 -202 224 0
-37 78 -166 0
-178 -190 -260 0
68 -188 278 0
-55 -64 149 0
-79 219 -280 0
148 -154 -276 0
-57 -59 -112 0
65 -166 -182 0
74 -267 278 0
6 242 273 0
-25 159 -267 0
18 49 -217 0
-188 -289 300 0
101 147 -226 0
-132 -154 221 0
-47 -272 280 0
-28 230 -271 0
-46 202 282 0
28 81 -157 0
118 185 -261 0
-89 -169 -201 0
167 178 228 0
-161 234 -259 0
49 -259 278 0
230 -231 278 0
26 145 -210 0
107 131 -188 0
-53 124 -137 0
-13 92 209 0
-2 66 -190 0
65 123 -249 0
-75 193 -274 0
-69 73 -266 0
-54 -245 250 0
46 272 -274 0
25 93 221 0
151 -248 -292 0
-9 -87 285 0
-79 220 -255 0
205 207 -267 0
31 145 258 0
-152 221 280 0
-14 -20 -152 0
-99 213 -274 0
34 129 250 0
-3 -34 -279 0
87 -112 -140 0
-49 -164 195 0
82 196 -265 0
120 -223 -257 0
-5 -116 210 0
-33 78 129 0
34 219 -228 0
149 168 207 0
52 -182 211 0
100 112 265 0
-6 -33 -94 0
-55 -195 -240 0
139 -165 173 0
63 124 216 0
11 75 123 0
-175 -188 224 0
-35 -55 -56 0
-98 -259 -297 0
156 158 -212 0
108 118 202 0
3 129 276 0
44 157 -161 0
-88 -135 172 0
-229 252 -267 0
180 -245 -290 0
-86 141 158 0
43 77 128 0
18 -118 289 0
-14 -68 249 0
-86 -176 259 0
-64 255 271 0
-38 -256 -298 0
-16 33 -55 0
-27 -87 -190 0
67 175 -194 0
72 93 -131 0
-64 180 -197 0
97 176 -294 0
69 110 123 0
26 -101 -249 0
140 158 -252 0
-171 240 279 0
63 165 180 0
166 171 243 0
35 172 -288 0
61 -89 -241 0
41 194 212 0
126 193 220 0
69 90 -96 0
-7 62 -131 0
-92 -96 99 0
229 -230 -239 0
62 138 -280 0
-128 -235 265 0
98 192 -220 0
-111 -112 -228 0
80 141 300 0
