c F2 random 3-CNF cnfgen RandomKCNF(3,400,2000,seed=1) m/n=5.0
p cnf 400 2000
69 -292 392 0
-231 -254 390 0
-15 -49 250 0
137 229 -357 0
12 -14 16 0
15 -217 -372 0
120 177 -284 0
12 149 -214 0
-62 171 -381 0
-146 256 -301 0
-125 207 -381 0
-281 360 -398 0
56 -261 -340 0
-16 251 -376 0
-304 315 361 0
7 117 -258 0
-177 -264 -296 0
281 -312 338 0
266 -288 399 0
187 -247 -292 0
178 -183 -213 0
15 118 308 0
17 131 283 0
-8 232 -387 0
-57 -95 320 0
82 -86 -131 0
-165 -233 360 0
-13 -160 198 0
56 -130 133 0
10 116 204 0
-229 260 -361 0
115 -269 -333 0
219 -324 338 0
25 109 -157 0
-82 -153 381 0
5 -20 288 0
319 -361 400 0
-51 106 -178 0
-54 -200 341 0
-167 206 314 0
103 -168 -289 0
110 -137 -346 0
249 274 352 0
44 69 -87 0
-171 -308 -389 0
59 -150 175 0
283 -297 395 0
38 195 -209 0
-59 301 315 0
-42 -137 290 0
56 -142 235 0
8 -315 344 0
-21 97 123 0
86 231 349 0
-194 -223 -278 0
-52 107 162 0
-6 -152 -372 0
33 -161 -205 0
-58 -111 -129 0
-94 107 278 0
42 -144 185 0
-295 330 -334 0
22 -158 -168 0
52 126 172 0
11 -125 206 0
12 -39 -374 0
79 -241 253 0
89 261 341 0
-55 157 164 0
73 -280 370 0
92 154 222 0
-33 -130 -399 0
-225 276 -278 0
-88 133 -174 0
-10 32 293 0
-71 -133 142 0
-46 120 314 0
-163 257 271 0
-161 254 -352 0
-173 287 313 0
-37 262 391 0
-153 -160 355 0
238 360 -378 0
-80 91 129 0
-202 -254 349 0
21 -279 374 0
43 137 -378 0
-124 196 -222 0
-65 225 319 0
-221 274 -308 0
128 143 -194 0
11 -16 297 0
76 -89 -146 0
-129 300 -388 0
63 -216 252 0
13 56 -146 0
346 371 -390 0
-160 -224 294 0
-64 -227 -368 0
-174 205 -277 0
105 -196 286 0
-237 -265 308 0
231 -318 343 0
-200 -297 -348 0
300 -319 376 0
149 -328 333 0
-204 325 399 0
-6 -310 -398 0
156 -279 -351 0
87 -240 249 0
217 -303 382 0
11 227 337 0
-206 -326 353 0
-107 -122 271 0
-39 -268 358 0
-87 -153 335 0
201 -205 -288 0
169 -313 367 0
-16 -319 -339 0
128 138 390 0
228 -297 -298 0
71 -84 -270 0
159 206 385 0
157 349 368 0
165 204 253 0
12 29 -306 0
-271 -361 -371 0
61 314 355 0
-120 -205 254 0
-119 -121 146 0
-133 -232 367 0
24 41 -110 0
-164 197 -298 0
82 331 389 0
75 -199 -341 0
-41 67 237 0
32 269 -275 0
61 222 400 0
-67 256 -327 0
-169 -200 324 0
31 -126 -302 0
287 -310 -358 0
-103 276 -365 0
313 -370 381 0
31 -50 78 0
-28 -47 327 0
21 -65 161 0
-203 363 -391 0
47 -129 167 0
-30 -197 376 0
-60 134 -195 0
126 -258 -286 0
-201 261 300 0
230 -269 335 0
-103 190 -200 0
65 177 -295 0
-161 -274 -334 0
140 167 181 0
-163 167 -373 0
-144 -233 246 0
29 -69 -297 0
-126 -294 -360 0
-158 207 238 0
76 129 352 0
95 211 -393 0
-55 105 366 0
38 -112 330 0
-189 250 303 0
-121 -253 -307 0
97 -247 -279 0
-5 -104 383 0
-207 262 -316 0
-4 98 235 0
-155 -263 -383 0
-210 -266 -278 0
68 228 -260 0
5 -218 -326 0
145 206 338 0
-3 -138 -197 0
-247 -326 -384 0
60 -182 248 0
-10 89 -134 0
-133 -212 -264 0
-172 222 -398 0
206 218 367 0
77 106 -118 0
80 -246 397 0
2 46 -219 0
25 -178 334 0
136 -143 351 0
110 -330 347 0
-151 -230 343 0
55 -246 311 0
-86 -132 -267 0
-110 -279 325 0
-5 -374 388 0
-226 277 321 0
139 -141 261 0
-67 100 132 0
-139 -144 -212 0
-110 -252 256 0
91 -174 311 0
30 167 -259 0
-246 253 319 0
72 132 358 0
89 289 351 0
-258 -291 -338 0
-3 11 397 0
-115 -144 -381 0
-12 63 169 0
74 -129 395 0
-48 -53 372 0
-26 138 272 0
72 191 -205 0
-5 141 -264 0
-65 -329 371 0
-296 -318 -348 0
-113 155 324 0
57 261 308 0
141 -223 -280 0
135 -243 272 0
-36 192 -382 0
68 229 350 0
-111 -248 -347 0
-80 -82 196 0
-75 139 308 0
68 -195 330 0
-222 -307 -399 0
-208 210 311 0
20 242 399 0
-72 -272 -301 0
126 243 -358 0
60 -82 -398 0
130 -178 -373 0
-151 -184 193 0
266 313 -326 0
59 -263 -345 0
63 -364 388 0
-90 197 324 0
128 -169 -172 0
190 -253 -334 0
-62 -205 278 0
-7 77 193 0
-39 -94 -335 0
79 -80 269 0
204 -238 325 0
128 217 -279 0
39 123 -340 0
12 -263 300 0
21 265 372 0
204 239 -400 0
-46 49 287 0
-7 -11 -399 0
86 -213 -371 0
214 -257 -284 0
-103 143 -254 0
90 -144 -291 0
-74 -131 -133 0
143 240 290 0
101 116 -130 0
123 -296 -367 0
43 101 365 0
-16 -208 383 0
67 303 -306 0
-72 -104 147 0
116 -153 -364 0
-46 150 -275 0
12 -149 -319 0
30 -131 317 0
53 -68 323 0
-107 259 382 0
197 -265 339 0
-62 -104 368 0
20 138 -327 0
-141 -339 -394 0
51 253 343 0
-23 233 -386 0
173 276 374 0
-22 -348 383 0
89 -258 -305 0
101 -120 185 0
23 235 -313 0
23 -241 299 0
-205 -263 -294 0
-26 181 -241 0
-156 302 -384 0
-34 -311 -398 0
13 267 295 0
-52 171 -173 0
38 -249 -299 0
2 -257 -279 0
75 110 -298 0
-163 -216 -261 0
20 189 -312 0
-204 282 387 0
-88 137 363 0
-145 283 372 0
-51 142 -370 0
-39 -105 -279 0
-19 -69 265 0
15 162 -214 0
95 102 120 0
137 235 -370 0
-172 234 315 0
8 -17 251 0
5 118 392 0
-103 -108 271 0
-191 -252 260 0
93 -100 -305 0
187 -243 315 0
-54 -321 -338 0
38 -216 -332 0
-308 -349 379 0
-138 -269 -346 0
8 -131 -159 0
-119 183 -261 0
172 -321 -357 0
-28 57 -329 0
278 -380 -385 0
-8 167 174 0
42 169 367 0
-151 -354 400 0
14 -330 -359 0
-151 194 216 0
119 209 312 0
-125 203 366 0
-154 369 -381 0
88 228 -255 0
-176 -224 284 0
-150 -299 331 0
-45 160 386 0
-311 -330 -383 0
28 53 -119 0
25 35 -112 0
11 367 375 0
-18 174 276 0
109 -241 -287 0
-268 282 298 0
31 -108 201 0
168 170 209 0
48 259 328 0
51 -91 156 0
33 77 -227 0
30 -177 302 0
95 117 341 0
28 373 383 0
-130 147 366 0
129 -371 -392 0
-183 -233 392 0
-126 219 251 0
-38 -123 -396 0
-172 -190 -387 0
-162 181 -203 0
-66 87 155 0
86 235 331 0
41 -130 -314 0
-88 142 -243 0
-79 181 282 0
36 -162 351 0
-24 -99 -372 0
-258 -322 341 0
-17 95 193 0
-127 156 -168 0
-26 119 396 0
-50 -70 115 0
-39 -84 -117 0
244 -263 298 0
38 142 222 0
69 107 -396 0
-26 95 186 0
109 -348 357 0
85 176 -309 0
19 -246 -283 0
-70 179 -287 0
-291 -341 380 0
174 -213 247 0
166 331 -338 0
-116 -135 -161 0
7 -151 213 0
60 -221 -314 0
-335 -369 -394 0
89 -166 346 0
183 -204 -268 0
77 247 358 0
37 -41 -380 0
168 -267 -359 0
-7 198 -283 0
-27 -189 372 0
-331 340 -353 0
100 183 -389 0
-24 187 -291 0
5 245 -295 0
84 -261 -336 0
64 135 -162 0
-68 93 -380 0
-235 240 -262 0
106 145 -304 0
61 -195 -218 0
187 227 274 0
-50 55 -370 0
-94 204 244 0
-231 -251 -303 0
-89 388 398 0
32 285 -344 0
164 -172 227 0
-143 -240 -383 0
-50 -85 -260 0
77 -164 259 0
100 -116 313 0
53 -218 358 0
-165 -192 287 0
-199 -250 -367 0
-199 -298 330 0
-52 93 -251 0
-55 -64 -276 0
-287 -326 -347 0
-166 249 354 0
103 124 -275 0
-32 -318 389 0
-177 185 -186 0
-115 161 204 0
180 200 334 0
164 -197 314 0
3 -180 223 0
58 -274 376 0
-167 193 224 0
82 85 276 0
227 -268 300 0
-171 311 376 0
90 184 -399 0
18 251 -304 0
-74 108 -290 0
-34 -179 380 0
101 237 271 0
156 -357 370 0
37 -55 -395 0
-54 -229 368 0
-191 -221 -332 0
189 224 282 0
75 122 -123 0
226 234 316 0
-4 -23 -270 0
-68 -121 -356 0
-25 300 -383 0
31 179 300 0
-10 77 224 0
13 -148 242 0
221 -302 385 0
-66 -276 346 0
-195 -245 268 0
-35 108 304 0
55 101 182 0
121 -222 -263 0
-32 -294 -314 0
21 -322 -344 0
-113 -138 -225 0
29 -138 -274 0
152 -300 -303 0
-342 -355 -389 0
-113 323 386 0
-60 -76 -253 0
71 156 -278 0
-20 -229 241 0
8 -276 365 0
-7 146 -237 0
-51 -58 351 0
-256 272 313 0
29 87 316 0
157 272 285 0
-46 -112 -117 0
69 147 -315 0
-12 -30 -222 0
35 95 -224 0
182 213 262 0
31 -118 -188 0
112 -113 132 0
245 -351 -375 0
-135 360 398 0
195 -326 -354 0
13 -68 275 0
-152 320 -360 0
-51 125 128 0
-184 -255 -362 0
-13 321 -387 0
-32 -66 150 0
-104 -139 -307 0
-55 261 -393 0
13 -345 -347 0
-49 136 385 0
195 -209 362 0
-287 -393 397 0
15 -193 261 0
-21 128 -345 0
21 178 313 0
-24 -158 300 0
-241 -276 318 0
182 -270 322 0
128 -325 -396 0
-166 275 -366 0
118 130 337 0
44 133 205 0
-38 -284 319 0
20 -82 229 0
160 -359 -396 0
36 43 173 0
-238 269 366 0
222 235 277 0
-110 -125 -158 0
137 148 179 0
226 321 400 0
-162 232 339 0
57 99 345 0
306 -320 352 0
117 244 287 0
9 -33 71 0
134 -265 277 0
-144 -181 -279 0
-271 -272 274 0
-93 246 389 0
14 -265 270 0
113 -164 -204 0
34 258 -353 0
-200 279 280 0
-100 -156 362 0
98 137 292 0
85 -108 -246 0
8 -51 -78 0
-90 112 -290 0
-33 -66 -115 0
-189 263 -339 0
-134 183 -207 0
-55 93 318 0
215 -253 301 0
321 -332 -392 0
47 -172 -263 0
-67 -86 -293 0
-125 251 -374 0
62 133 -147 0
264 321 -340 0
-42 -88 -379 0
-232 327 -398 0
43 289 344 0
-19 138 -143 0
-317 349 -368 0
-116 122 176 0
-102 226 263 0
42 119 -203 0
3 233 -276 0
-114 132 345 0
-194 -310 -367 0
140 173 -227 0
215 -375 384 0
261 -279 -399 0
-147 -247 -384 0
147 -193 283 0
11 -136 -337 0
-83 -136 395 0
57 82 248 0
30 89 -197 0
-282 336 374 0
-27 139 -271 0
-57 -225 -305 0
149 200 -335 0
-179 -219 -288 0
-28 -78 -96 0
-35 304 324 0
321 369 -392 0
120 184 -361 0
-71 -88 -384 0
180 361 400 0
80 -128 -189 0
-140 -262 -302 0
42 175 -304 0
5 47 91 0
-100 -143 -369 0
-136 349 -358 0
-37 124 238 0
194 -323 -362 0
-9 -337 395 0
-162 273 -391 0
334 -352 -354 0
64 290 -377 0
-90 179 391 0
-147 265 -359 0
-151 299 -371 0
211 -277 304 0
202 233 -296 0
134 -201 251 0
-138 199 -325 0
5 -62 344 0
122 124 239 0
50 56 373 0
-76 130 213 0
200 315 -320 0
-88 181 -310 0
37 272 -323 0
45 51 -231 0
-157 -281 -303 0
-61 115 331 0
188 -229 364 0
-59 141 -192 0
73 286 318 0
184 -248 -363 0
219 -226 320 0
-152 271 368 0
-118 -124 -377 0
1 -252 -396 0
47 142 265 0
73 -208 219 0
-83 -111 -140 0
129 291 383 0
132 -247 400 0
-90 103 358 0
-189 219 353 0
-3 -174 -201 0
-132 -302 -354 0
39 -224 -315 0
145 368 396 0
88 -319 -387 0
205 217 -319 0
79 -301 -375 0
51 -210 253 0
159 -286 -336 0
-72 -129 332 0
-171 224 -267 0
-21 -160 -258 0
-82 -136 149 0
-133 -199 345 0
21 -48 197 0
157 -268 382 0
-317 321 360 0
-124 -177 320 0
-17 43 -267 0
-14 87 -382 0
85 149 -323 0
200 -278 -351 0
-26 -118 -224 0
105 -297 -308 0
92 -336 400 0
-215 328 -348 0
1 -145 399 0
-93 -130 -317 0
-28 52 -153 0
65 -107 281 0
153 -258 -291 0
50 83 132 0
-349 360 400 0
10 -208 350 0
-28 -379 400 0
-47 -82 -114 0
-99 -260 306 0
-150 318 -344 0
-186 297 372 0
12 275 -339 0
87 165 378 0
-113 -199 312 0
134 193 326 0
-224 -255 -369 0
183 -317 -399 0
136 -248 317 0
-32 37 -200 0
107 -158 -233 0
-3 -348 -353 0
-188 217 -387 0
50 149 -201 0
-188 220 -292 0
27 223 312 0
197 245 353 0
-50 -318 -355 0
-86 194 395 0
102 258 349 0
7 -141 -286 0
28 110 160 0
-81 -302 368 0
38 -99 392 0
202 251 -278 0
38 105 125 0
313 -315 359 0
-294 385 -395 0
-92 -143 271 0
65 -284 -302 0
-115 -189 228 0
-25 -27 393 0
-239 -340 369 0
-103 -235 280 0
-66 113 312 0
117 -218 -336 0
32 193 -368 0
154 -319 383 0
-167 234 389 0
-27 87 259 0
-249 -254 264 0
-305 -331 342 0
5 266 -287 0
19 -70 225 0
-74 129 259 0
-37 -197 357 0
20 -210 272 0
-87 -101 -122 0
295 314 -396 0
64 292 -395 0
46 -271 334 0
72 210 -370 0
-184 342 -382 0
-44 202 -238 0
-109 183 300 0
-208 229 -389 0
-113 -334 377 0
10 -21 -27 0
-19 137 366 0
-7 -67 -385 0
20 -198 -256 0
-118 -128 385 0
-3 78 -400 0
40 127 -307 0
-72 313 356 0
71 312 353 0
-140 143 306 0
-5 -33 -359 0
-69 -159 -351 0
-150 180 -230 0
5 -118 160 0
-4 41 305 0
-68 201 -365 0
94 112 -371 0
45 63 -178 0
230 -275 -287 0
85 -93 317 0
253 -313 -352 0
-33 -35 -112 0
-168 189 298 0
-178 -211 270 0
5 -169 -230 0
72 -343 348 0
84 159 -297 0
58 -302 327 0
28 -221 -240 0
-150 258 -382 0
67 -351 -357 0
-33 303 371 0
98 -105 362 0
-123 -270 364 0
1 113 121 0
-13 73 -279 0
71 -171 -375 0
22 -183 305 0
-162 -326 -375 0
-158 198 248 0
55 218 366 0
-5 126 323 0
-110 -152 -175 0
286 -294 -357 0
16 -43 -376 0
-105 152 -369 0
193 238 -373 0
-8 -138 -150 0
57 304 -387 0
111 199 -216 0
192 218 270 0
24 -299 -398 0
69 -155 -244 0
-297 -343 -346 0
112 -139 -394 0
-139 -320 -352 0
-34 -57 -228 0
-117 261 266 0
81 -131 363 0
204 220 346 0
-44 85 -240 0
138 -201 310 0
-62 -221 -380 0
32 284 340 0
222 250 -266 0
158 -163 -332 0
17 -146 -177 0
-87 147 262 0
-66 -68 -197 0
-14 86 150 0
216 -238 277 0
64 -292 295 0
110 -182 -256 0
97 164 -278 0
129 -222 -242 0
152 265 -283 0
79 180 -398 0
-57 186 304 0
82 -163 309 0
107 -151 -383 0
-198 -228 257 0
1 -73 348 0
77 328 334 0
-44 -71 -235 0
-313 -328 -383 0
65 -144 245 0
-72 141 313 0
200 -227 322 0
-80 -147 342 0
308 -326 372 0
1 16 38 0
32 -129 -281 0
-143 340 350 0
42 -182 -210 0
53 171 258 0
209 308 393 0
83 -234 -343 0
-79 159 338 0
82 -148 392 0
55 -76 -130 0
40 -99 256 0
81 121 -330 0
-2 56 -101 0
42 -49 -154 0
70 -155 280 0
52 -154 -268 0
51 -328 -386 0
-4 -151 -329 0
93 108 245 0
222 -358 -383 0
25 -117 126 0
-22 -109 -357 0
-227 -231 236 0
105 133 -349 0
53 103 168 0
-100 -197 -368 0
15 -120 -348 0
93 341 -359 0
-80 -356 -374 0
58 -352 400 0
43 -88 124 0
-194 206 383 0
-234 -281 -294 0
169 192 -381 0
-30 -140 155 0
-163 -252 361 0
-22 -88 262 0
104 162 -380 0
130 216 -290 0
123 -144 -360 0
9 75 -157 0
-19 240 -260 0
-55 -353 -376 0
-56 -273 336 0
-32 -135 -308 0
15 72 -260 0
-50 -84 380 0
41 -254 -269 0
-77 -236 -322 0
40 256 285 0
-106 -305 312 0
90 -360 394 0
-39 -183 -327 0
-159 -190 -209 0
-167 189 320 0
-129 -245 -359 0
-25 -151 -310 0
-68 75 229 0
-36 171 -400 0
-156 210 321 0
184 -246 -336 0
202 -236 -369 0
-77 250 272 0
63 -196 377 0
-241 267 -322 0
-32 -80 -97 0
-19 149 250 0
-14 -164 295 0
-154 -180 -222 0
62 -191 346 0
-56 301 -372 0
-57 -172 -205 0
74 191 -253 0
-4 161 228 0
-77 105 -161 0
113 177 -332 0
-142 -344 -347 0
187 217 -219 0
-29 -54 -167 0
-36 -73 -104 0
164 -239 -240 0
280 331 -373 0
-48 75 -381 0
112 286 376 0
-42 52 -331 0
203 -214 -350 0
-154 -381 -399 0
279 -312 -319 0
-55 171 -199 0
23 49 338 0
22 -168 -174 0
-9 221 -317 0
15 -30 -70 0
66 148 161 0
75 302 389 0
-109 -251 -287 0
220 -272 325 0
137 -195 364 0
-126 -263 398 0
-240 -267 291 0
378 -382 -384 0
-187 -216 -227 0
-15 -25 275 0
11 53 -180 0
-63 75 119 0
-143 -322 388 0
-23 -120 -150 0
-6 126 156 0
93 -101 157 0
-201 322 -397 0
-48 -204 349 0
2 -277 317 0
-77 -145 -198 0
-2 74 97 0
-19 -30 332 0
269 329 386 0
-16 92 104 0
-27 -165 -226 0
66 279 297 0
-118 232 -252 0
-78 -137 328 0
3 10 -190 0
18 -22 82 0
-16 -150 -372 0
46 -103 301 0
74 -185 -190 0
178 230 315 0
-46 -49 121 0
-63 301 -306 0
159 323 -397 0
70 109 -238 0
38 -79 -196 0
-262 -309 372 0
-56 -185 -338 0
109 -171 -301 0
101 -307 -327 0
56 165 -324 0
167 241 -324 0
69 -233 -256 0
80 -146 316 0
101 -161 175 0
69 -216 400 0
-72 -198 202 0
48 337 -375 0
-194 -243 396 0
-269 271 -387 0
202 268 -380 0
-51 -59 209 0
42 250 -289 0
-198 -313 -348 0
71 -124 210 0
97 -127 291 0
-56 107 -395 0
-275 -368 -388 0
-117 180 397 0
-66 183 -240 0
-194 215 -264 0
-77 240 -341 0
-122 -180 -217 0
6 267 386 0
116 140 -187 0
184 189 -358 0
-178 -181 -273 0
28 -43 -235 0
109 219 -286 0
-48 -201 -214 0
48 -115 212 0
184 264 292 0
126 166 227 0
-44 68 226 0
-65 -74 -254 0
-6 151 311 0
-274 287 321 0
277 287 -342 0
-22 68 -171 0
-106 -158 168 0
130 195 -390 0
-113 291 -375 0
39 301 336 0
-215 229 270 0
-249 253 319 0
106 -138 -278 0
-74 -76 -162 0
-235 -304 311 0
12 111 -282 0
222 286 392 0
-120 331 399 0
84 271 282 0
-129 -154 -327 0
106 -191 394 0
2 92 -196 0
-112 188 396 0
215 -301 -339 0
23 88 300 0
-30 -76 150 0
302 341 392 0
-46 256 -331 0
137 180 227 0
112 -138 -334 0
-121 -185 367 0
-235 263 347 0
-80 114 277 0
-214 -219 390 0
31 104 -201 0
-262 -270 382 0
-193 -326 -348 0
91 216 340 0
-44 117 -131 0
-18 -132 -329 0
105 -214 238 0
-74 -78 -173 0
-155 -192 346 0
-202 233 382 0
49 349 -398 0
-74 -257 -367 0
7 -162 214 0
-106 108 -198 0
-58 71 -109 0
265 -302 -395 0
42 -83 279 0
-70 -236 290 0
97 -309 373 0
144 -246 -382 0
25 -80 -99 0
37 -95 -356 0
76 147 -262 0
-120 -261 342 0
100 261 -360 0
-168 183 -338 0
46 -81 -253 0
-21 -93 -355 0
177 178 318 0
33 -213 -343 0
-172 238 -274 0
68 -250 -361 0
-96 147 -288 0
14 -358 -380 0
159 186 -228 0
-28 -70 81 0
313 330 364 0
-235 240 -245 0
-54 -91 125 0
-13 -55 -106 0
144 -157 387 0
-144 160 -161 0
101 131 -238 0
-34 -57 -234 0
-22 -72 -355 0
92 -205 -399 0
-84 118 -308 0
-57 204 -280 0
-84 223 302 0
-16 286 359 0
-23 -155 -276 0
-179 -283 292 0
-93 -114 -219 0
372 381 -388 0
150 -263 -396 0
84 247 362 0
-268 -293 298 0
116 285 -309 0
161 -314 324 0
1 104 392 0
186 199 224 0
17 -126 219 0
190 -192 283 0
163 -251 382 0
-41 -207 288 0
151 -177 -264 0
26 -190 -207 0
81 -301 354 0
-73 212 -252 0
186 -191 374 0
19 331 -367 0
21 136 171 0
108 -123 163 0
-68 191 -210 0
13 92 294 0
150 213 338 0
-269 -309 -398 0
226 -239 287 0
118 154 400 0
-92 -106 336 0
119 -288 290 0
322 -352 -380 0
-11 -184 344 0
128 -146 313 0
-45 -163 384 0
-31 279 327 0
67 257 359 0
-32 -36 387 0
269 -332 -352 0
-10 -291 -345 0
33 42 178 0
100 203 -296 0
-63 179 269 0
-50 159 257 0
-165 -276 -293 0
-148 -260 388 0
139 -156 299 0
203 -291 -367 0
-63 -135 342 0
125 -200 277 0
-22 130 -350 0
42 133 196 0
-166 237 -249 0
-19 -102 223 0
29 69 -194 0
-2 -178 264 0
-108 341 358 0
-170 -200 -397 0
83 154 -344 0
279 293 -304 0
62 231 -259 0
194 268 -366 0
58 -118 -392 0
155 -264 -296 0
-79 125 -221 0
132 210 -379 0
61 137 -194 0
-39 -201 346 0
-22 -134 -205 0
8 232 366 0
108 -207 256 0
-207 208 -326 0
-12 -23 398 0
91 -305 -398 0
-22 41 -281 0
-21 -82 153 0
-168 269 -315 0
-45 -84 -380 0
12 -216 230 0
103 176 178 0
21 -47 -49 0
-253 294 -304 0
195 279 296 0
198 214 -284 0
199 210 -286 0
57 -91 291 0
181 -242 255 0
-37 136 367 0
83 135 -397 0
67 -183 317 0
218 229 -253 0
-256 -342 -349 0
-82 184 -342 0
125 -187 359 0
-34 188 -366 0
7 198 266 0
92 237 -294 0
-35 71 -263 0
-49 -264 311 0
78 192 338 0
83 203 -328 0
26 55 309 0
7 -227 -326 0
-77 174 191 0
-5 174 217 0
-12 135 257 0
34 111 308 0
185 280 -367 0
-17 51 -90 0
118 -123 259 0
-84 281 -341 0
178 -385 392 0
-22 -53 280 0
-65 -212 379 0
274 331 -399 0
-26 105 -245 0
-208 324 -364 0
55 327 -348 0
135 310 -363 0
-10 -98 259 0
245 -287 394 0
-195 203 262 0
120 -149 -182 0
20 241 -393 0
154 220 -366 0
-137 302 -351 0
-218 232 260 0
-91 -265 305 0
-44 -53 206 0
-252 -336 349 0
-7 -122 -303 0
44 -137 315 0
27 109 -177 0
60 -120 -289 0
75 -81 297 0
-63 172 -337 0
21 320 -359 0
98 -260 337 0
-168 291 299 0
-327 -353 -386 0
-33 163 -207 0
138 -226 311 0
-48 197 241 0
-132 -159 211 0
183 333 359 0
111 135 221 0
-27 -173 379 0
30 310 -340 0
48 87 343 0
23 -313 -331 0
31 322 400 0
91 -167 -219 0
-16 -182 -236 0
182 -243 256 0
-269 -347 360 0
-16 79 -197 0
-279 313 373 0
31 -264 -315 0
299 330 384 0
204 -291 318 0
-73 -116 353 0
-53 200 336 0
104 -180 -181 0
151 223 334 0
7 -337 354 0
50 -114 225 0
-148 265 -282 0
-99 149 363 0
61 -248 -288 0
-29 -55 287 0
-168 297 -371 0
-25 65 235 0
-42 220 -332 0
183 -287 -301 0
-333 -361 -368 0
107 124 240 0
-8 -142 377 0
-107 149 280 0
47 95 -272 0
-87 -110 -390 0
79 -338 -397 0
6 382 -391 0
30 -58 116 0
18 -90 -266 0
-76 187 -323 0
-286 326 -368 0
13 -151 325 0
48 -183 -190 0
-18 -29 -364 0
-126 -144 394 0
-118 195 -210 0
-114 223 -235 0
97 103 195 0
180 -181 234 0
-10 -159 -164 0
136 175 -334 0
80 -218 -358 0
3 121 392 0
49 99 -374 0
74 -176 375 0
18 32 318 0
33 -181 -193 0
-88 -150 -305 0
117 186 -299 0
-73 -146 185 0
-30 -47 -269 0
-124 -157 -277 0
77 86 275 0
-155 -223 -358 0
159 -227 -230 0
-1 64 296 0
-58 -123 -186 0
77 143 -396 0
-119 170 281 0
-61 95 -255 0
32 294 -375 0
-6 305 323 0
-67 111 368 0
81 -182 345 0
-341 -350 378 0
-18 353 -361 0
137 332 393 0
-95 114 -315 0
19 -95 304 0
60 -131 390 0
-117 -119 173 0
-34 291 375 0
-280 -336 383 0
6 -252 -321 0
-283 -354 -392 0
51 177 210 0
20 -106 167 0
-314 -388 396 0
-27 -222 344 0
-53 -92 -169 0
-82 -90 374 0
14 257 384 0
42 306 342 0
-32 -132 -232 0
122 232 382 0
16 -107 -112 0
92 -170 226 0
-187 196 -356 0
272 286 -348 0
15 183 -184 0
-167 -189 345 0
283 376 -391 0
40 130 -221 0
49 -160 -289 0
43 -157 -265 0
84 123 294 0
108 -168 -306 0
-194 -261 -336 0
145 183 -264 0
-49 -278 -374 0
95 339 -368 0
31 202 351 0
-36 263 -380 0
-182 357 -393 0
-120 141 -304 0
-148 257 392 0
-20 239 391 0
27 -327 333 0
-237 250 316 0
-27 -87 213 0
80 258 335 0
-10 65 -110 0
-185 189 -314 0
-166 273 -353 0
233 392 393 0
14 250 -372 0
211 -270 -319 0
23 236 385 0
-151 359 -374 0
177 -206 300 0
-7 83 -105 0
56 283 -356 0
6 34 281 0
2 -17 273 0
171 191 250 0
43 -112 336 0
41 107 -356 0
-133 386 397 0
89 -300 393 0
191 271 274 0
-4 -143 286 0
-58 -181 304 0
-146 -297 -380 0
-259 314 331 0
-33 -34 -160 0
46 -169 -296 0
-116 -130 -284 0
22 -58 89 0
-244 -372 389 0
63 -161 196 0
176 -256 289 0
51 -283 396 0
23 173 249 0
-170 220 -351 0
75 352 399 0
-91 -390 -393 0
83 108 208 0
-74 -238 315 0
-164 278 347 0
17 86 145 0
-27 180 -224 0
-81 111 279 0
-135 191 -368 0
-80 351 -370 0
214 324 398 0
9 23 -394 0
23 105 -231 0
103 287 393 0
111 191 -273 0
-83 -280 322 0
35 -245 -278 0
-178 184 294 0
-56 237 337 0
-11 198 259 0
144 -152 -156 0
32 -77 -291 0
-19 60 -125 0
-4 -12 -124 0
-3 110 -372 0
26 -258 394 0
49 -50 -203 0
-58 -77 359 0
-31 56 273 0
173 -239 -385 0
-132 -353 391 0
155 268 339 0
54 200 -380 0
51 130 -359 0
-51 55 -231 0
45 -223 -299 0
-132 -196 -239 0
50 171 193 0
16 -221 -253 0
14 -21 391 0
-155 232 366 0
-163 -219 252 0
292 363 -371 0
80 -131 280 0
176 371 -373 0
10 -20 -160 0
-81 -211 -369 0
96 130 166 0
62 104 -130 0
285 329 378 0
214 216 -308 0
7 165 -354 0
127 -299 339 0
110 -168 -301 0
-139 300 329 0
34 -290 364 0
11 87 193 0
-29 -288 314 0
-135 -146 -253 0
-45 -61 160 0
79 -121 270 0
-52 180 392 0
82 180 184 0
121 156 -325 0
194 -309 375 0
-236 -240 -388 0
268 349 399 0
11 14 -85 0
95 -159 328 0
35 101 -314 0
-105 372 -397 0
-178 201 -368 0
103 -349 387 0
-107 -194 200 0
205 -240 -254 0
-247 325 -330 0
-201 -312 -347 0
31 237 -258 0
84 -231 332 0
-155 278 372 0
246 -290 -307 0
-40 133 284 0
101 -243 -357 0
-154 -250 320 0
203 207 -256 0
-39 229 307 0
98 181 354 0
28 -98 242 0
131 259 -343 0
34 -270 294 0
8 75 368 0
-72 89 168 0
171 260 298 0
-247 379 395 0
-10 -139 266 0
-51 -93 164 0
58 -266 290 0
111 -121 -389 0
205 -247 310 0
130 239 -244 0
6 245 355 0
50 -119 -203 0
-50 53 142 0
276 -311 381 0
211 226 -367 0
-153 223 -321 0
163 218 -323 0
35 -124 -186 0
-278 -300 -361 0
73 -250 316 0
42 54 386 0
43 233 -271 0
270 285 -324 0
39 -56 -237 0
-74 207 376 0
97 -168 -200 0
-106 297 -352 0
-28 84 101 0
-177 -205 323 0
100 321 400 0
254 -309 -368 0
64 202 -259 0
-87 -102 -351 0
132 -267 -396 0
18 -21 -384 0
-165 -210 -392 0
-66 -90 -357 0
-192 297 -394 0
64 172 -389 0
-92 -285 390 0
189 191 217 0
-184 -314 353 0
63 -165 336 0
-159 216 225 0
58 232 327 0
-17 -123 310 0
-15 -57 98 0
-69 -190 231 0
-43 156 261 0
290 -297 -301 0
144 -147 349 0
91 -270 -384 0
-86 119 -204 0
112 -125 399 0
39 325 -354 0
-6 -68 385 0
27 -64 -309 0
-82 123 150 0
-129 -269 -311 0
68 326 338 0
79 -273 325 0
-18 178 368 0
167 333 388 0
253 290 340 0
24 -172 -264 0
136 365 368 0
-19 45 147 0
-160 -309 323 0
98 -109 -132 0
-166 338 378 0
-89 110 202 0
-194 -204 -238 0
-5 308 309 0
-192 208 -209 0
101 -327 394 0
20 -218 235 0
-244 280 315 0
115 -335 351 0
135 -170 -323 0
9 -240 324 0
56 89 -340 0
79 228 311 0
-214 -289 390 0
101 113 -370 0
-178 -362 -384 0
182 212 -339 0
113 -142 323 0
-184 -294 347 0
-166 -180 339 0
-98 194 378 0
167 225 -246 0
65 -200 262 0
-165 166 -198 0
-113 127 -194 0
-238 259 358 0
244 256 -389 0
224 336 -355 0
-191 -221 -369 0
33 94 256 0
185 218 -375 0
-182 299 356 0
120 132 282 0
-104 224 -289 0
39 -113 220 0
121 -182 245 0
232 370 396 0
130 -157 274 0
116 -237 373 0
-175 232 -239 0
142 -195 -307 0
-52 -54 -187 0
106 245 250 0
8 -60 -377 0
46 129 -160 0
-50 -123 -365 0
183 -285 297 0
-107 161 329 0
145 203 368 0
-22 -188 -209 0
-205 -207 -279 0
-11 41 -77 0
-28 -32 327 0
-72 -120 220 0
-109 -116 -136 0
-208 -250 399 0
-230 233 -239 0
88 -224 -326 0
12 267 -319 0
-21 334 -373 0
-47 50 322 0
-67 125 -171 0
126 201 -261 0
-144 372 -391 0
144 211 -344 0
-189 250 -275 0
-87 196 -372 0
-145 241 -381 0
189 -197 -396 0
129 280 370 0
171 341 367 0
68 -103 287 0
-67 174 242 0
75 195 200 0
134 -152 261 0
44 227 -297 0
59 225 355 0
-54 285 -351 0
-89 282 335 0
12 97 289 0
-25 185 326 0
1 26 -111 0
73 -120 -293 0
-17 -76 -256 0
-174 -301 311 0
-192 -239 382 0
97 -99 -171 0
24 -355 392 0
222 230 368 0
-161 -262 -292 0
-143 257 271 0
-142 -158 -176 0
125 -307 315 0
191 391 -393 0
-187 245 352 0
114 -341 -355 0
263 265 277 0
105 -106 301 0
170 -211 236 0
-65 119 215 0
51 -64 299 0
43 46 -280 0
-98 -143 -177 0
-240 253 -308 0
-33 -175 -234 0
35 -155 170 0
-76 93 96 0
-88 -207 366 0
-59 -204 316 0
-7 53 109 0
-182 188 292 0
85 315 -385 0
-93 -113 -272 0
10 116 201 0
-26 120 -164 0
72 -242 -327 0
-108 -277 356 0
145 -149 -369 0
15 308 390 0
-280 287 -339 0
36 151 282 0
3 165 291 0
87 101 115 0
-128 -368 380 0
-77 290 369 0
197 198 258 0
99 -278 340 0
34 -166 241 0
-74 -229 259 0
16 -85 -100 0
-19 -22 143 0
222 -389 398 0
-1 10 318 0
-78 -105 368 0
-99 -257 -380 0
-9 318 -400 0
1 152 -154 0
64 184 333 0
193 198 329 0
-130 246 324 0
185 -229 384 0
-86 230 -331 0
-36 99 -328 0
25 27 -39 0
98 -201 -310 0
-297 -340 388 0
-17 -23 -216 0
-45 151 255 0
-30 -43 -94 0
22 -228 -377 0
-86 104 -194 0
199 -359 -389 0
168 335 369 0
30 -136 378 0
281 320 375 0
158 329 387 0
-75 347 386 0
24 328 335 0
16 -232 281 0
75 -188 -332 0
18 184 -383 0
-111 -207 293 0
150 189 -334 0
202 286 305 0
143 -185 326 0
197 -323 326 0
26 79 -350 0
77 -89 291 0
-64 186 312 0
28 62 -91 0
4 -73 280 0
7 63 221 0
-24 -173 -245 0
52 261 -285 0
-212 283 -391 0
-296 -367 398 0
202 342 371 0
-34 112 163 0
-16 176 379 0
-103 270 -316 0
-82 213 -389 0
-186 -192 397 0
60 182 -315 0
-90 270 271 0
-106 -239 -324 0
-88 162 189 0
-196 -272 -307 0
66 75 349 0
54 -93 391 0
-113 -190 -211 0
-7 -200 -335 0
37 -184 -298 0
-60 -145 -217 0
-74 97 -236 0
72 164 266 0
40 319 -325 0
161 -216 241 0
17 151 397 0
-3 345 -381 0
162 165 -310 0
136 -326 -397 0
165 -241 330 0
9 145 217 0
-275 -298 -372 0
-51 -54 -183 0
-19 198 317 0
-98 -121 -199 0
-185 -203 -349 0
-44 -152 -302 0
34 80 -345 0
-92 391 397 0
9 -220 268 0
47 235 -267 0
57 73 -169 0
85 -145 -252 0
-24 154 -233 0
-25 -228 -248 0
10 177 186 0
-40 -160 -209 0
-265 348 -351 0
-43 116 378 0
-264 278 -288 0
48 -387 -389 0
-111 227 -389 0
2 -133 -171 0
-105 -149 -153 0
-132 342 375 0
105 154 196 0
178 192 199 0
-118 -269 -325 0
153 -170 -280 0
-193 233 -336 0
20 -270 398 0
195 -349 -374 0
-143 196 386 0
-85 228 -266 0
17 -172 287 0
-97 214 -392 0
287 -335 -338 0
-87 302 -367 0
26 36 109 0
105 -169 -286 0
-6 160 -400 0
-240 -244 -281 0
-20 42 -369 0
-2 212 250 0
105 -128 -180 0
-270 377 378 0
24 -108 -392 0
-178 231 310 0
43 63 382 0
-6 -14 51 0
121 -269 -281 0
205 225 -318 0
105 -148 -354 0
-130 289 -300 0
103 -213 276 0
114 -200 -290 0
35 -223 353 0
34 -246 -387 0
161 -177 292 0
-117 -145 -357 0
99 143 285 0
121 159 -321 0
-108 119 298 0
-79 200 333 0
-100 108 -244 0
21 29 344 0
304 -337 389 0
162 234 300 0
47 -141 200 0
-158 -168 243 0
153 -185 237 0
149 -369 -387 0
57 -111 -291 0
-2 -5 180 0
121 191 365 0
18 158 -212 0
-94 171 -229 0
19 -267 359 0
217 -335 -352 0
-53 -75 221 0
-195 -232 -316 0
64 85 323 0
32 189 -245 0
-29 -304 -355 0
-291 297 370 0
-114 -255 312 0
64 92 395 0
224 264 -368 0
-40 -114 -208 0
-229 281 -349 0
-6 279 365 0
-29 -207 -348 0
-30 -303 -320 0
-220 337 352 0
66 -165 347 0
-26 128 -175 0
227 347 373 0
-57 -140 217 0
65 138 144 0
-24 351 398 0
-319 -342 -370 0
-33 -116 -306 0
-86 96 334 0
-73 -115 240 0
175 -203 296 0
161 -244 -392 0
34 40 -266 0
-47 191 357 0
-131 -265 -375 0
-92 -256 335 0
-142 205 303 0
110 185 312 0
-251 -309 310 0
-186 217 254 0
90 -265 387 0
64 -118 293 0
109 164 360 0
39 -200 -291 0
192 248 371 0
135 -181 282 0
75 254 267 0
-118 181 -378 0
-69 309 -370 0
-139 179 -394 0
-135 -261 381 0
-328 -343 389 0
25 378 -382 0
-54 107 185 0
-98 104 180 0
94 -122 313 0
-2 120 -303 0
-21 44 -89 0
-19 130 339 0
86 -263 -393 0
-96 -294 -399 0
44 -318 390 0
-49 -111 -180 0
97 -338 351 0
119 -183 -335 0
-17 -110 157 0
4 -153 248 0
-145 -190 -288 0
142 -270 351 0
19 322 374 0
19 -161 -373 0
-32 243 289 0
302 -315 -392 0
20 -349 389 0
-58 141 374 0
-101 -215 -289 0
-81 224 396 0
23 -25 -229 0
286 -318 355 0
-1 -88 361 0
31 292 -374 0
33 -276 336 0
14 -262 -265 0
-5 240 396 0
-6 -95 168 0
-1 127 365 0
116 258 395 0
107 -147 308 0
33 163 -251 0
6 91 -329 0
-74 -87 194 0
-68 -147 -166 0
-146 -271 330 0
3 -140 -181 0
209 244 249 0
31 -122 -225 0
-223 -283 332 0
-181 -220 -275 0
7 255 -295 0
-15 160 -363 0
197 268 -335 0
26 -39 -42 0
-34 350 368 0
-5 96 328 0
84 171 -288 0
-209 -213 305 0
85 255 313 0
116 258 289 0
226 -300 341 0
235 257 -287 0
97 -172 237 0
21 -305 345 0
-69 152 170 0
47 58 176 0
87 188 -334 0
-84 233 387 0
-54 -242 -269 0
-18 -168 -179 0
18 81 84 0
-155 322 351 0
-15 177 309 0
-43 -189 -292 0
180 -328 -399 0
-32 102 -197 0
114 -203 -338 0
154 -224 -228 0
4 -46 -76 0
43 157 162 0
104 -260 -263 0
-49 -134 -171 0
117 -327 394 0
-280 -297 385 0
-49 74 -282 0
27 -75 78 0
-48 -103 121 0
-91 -218 243 0
44 -140 194 0
-92 155 341 0
-4 -66 137 0
57 -389 -399 0
106 -322 339 0
-39 -47 -265 0
-285 314 -342 0
134 293 -369 0
-50 -192 322 0
3 110 -164 0
197 205 -349 0
-66 -181 219 0
-24 -353 -368 0
-95 294 -398 0
-126 -158 -374 0
67 99 -112 0
69 153 165 0
32 133 360 0
-172 264 391 0
63 -111 -148 0
277 -278 289 0
-101 339 -389 0
45 109 -209 0
157 286 -395 0
90 226 234 0
-156 245 -316 0
37 -101 127 0
-3 -30 275 0
2 114 -278 0
-103 143 -326 0
-74 274 -320 0
-107 -153 -303 0
70 -90 -95 0
87 -167 383 0
140 -207 274 0
23 -129 274 0
11 -34 -331 0
188 309 395 0
5 189 372 0
-12 75 80 0
-37 -177 -347 0
-98 197 -261 0
112 -123 195 0
-123 -207 347 0
-84 -107 165 0
-8 96 388 0
83 143 -398 0
159 222 -287 0
237 256 -258 0
167 -201 -295 0
87 -232 268 0
1 79 197 0
106 285 -327 0
-115 -204 277 0
115 189 -382 0
-143 149 -283 0
-165 -251 -353 0
107 -180 -214 0
158 -180 203 0
58 166 -383 0
-24 72 -308 0
205 272 -329 0
173 176 -264 0
4 -51 146 0
-22 -27 140 0
99 -106 -378 0
-116 -191 -263 0
18 303 323 0
121 336 366 0
-27 -98 387 0
-100 107 397 0
-14 164 -216 0
69 -334 -339 0
206 306 -375 0
-180 -302 -368 0
36 -157 247 0
-89 -94 168 0
89 -294 -355 0
45 -111 -316 0
