c F2 random 3-CNF cnfgen RandomKCNF(3,400,2000,seed=4) m/n=5.0
p cnf 400 2000
-53 -121 156 0
-11 -35 47 0
-114 -267 275 0
55 -110 -135 0
-85 -100 159 0
-173 311 344 0
127 -144 243 0
-150 294 -361 0
-148 -217 307 0
120 133 157 0
-144 -237 321 0
-35 101 -345 0
-95 -142 183 0
32 -52 166 0
-63 -91 170 0
22 -183 -358 0
-10 148 -166 0
-40 318 -349 0
-70 129 -150 0
5 -187 294 0
149 -186 187 0
59 107 218 0
87 305 -378 0
128 165 -299 0
210 -334 397 0
-124 211 225 0
-128 216 -228 0
-17 -19 97 0
107 -270 -396 0
-27 73 -167 0
335 -368 -382 0
48 -108 -221 0
-242 -329 337 0
-138 -336 -352 0
39 144 -322 0
-66 318 393 0
-238 -326 -353 0
2 109 -112 0
-60 203 395 0
-83 -104 -344 0
14 -18 -41 0
72 -312 397 0
-6 -268 394 0
-44 233 -279 0
-120 -199 389 0
-40 -59 -318 0
228 365 -398 0
61 -217 246 0
-77 -91 -362 0
3 133 -278 0
-57 -62 280 0
-126 -211 267 0
93 321 -393 0
-240 -279 -291 0
-73 -129 201 0
43 222 -311 0
-102 191 295 0
-92 -207 -331 0
12 90 -154 0
-51 82 94 0
89 -246 -334 0
122 -251 -307 0
-118 -168 -382 0
-146 161 -225 0
-95 -235 -277 0
15 -80 -320 0
-47 -160 310 0
245 310 328 0
36 68 -154 0
-298 318 349 0
50 81 -385 0
42 -63 139 0
-77 336 375 0
187 287 -356 0
-79 111 -153 0
-84 -87 -132 0
88 -169 199 0
-10 143 347 0
60 81 312 0
5 -245 -284 0
89 173 -272 0
-157 183 318 0
-131 -297 -339 0
43 121 -162 0
181 244 270 0
256 266 280 0
37 -173 347 0
1 260 -261 0
10 319 -376 0
-75 110 -358 0
-153 199 324 0
-33 -212 253 0
165 224 361 0
-142 -224 -246 0
165 -318 -385 0
-16 -45 -262 0
-68 329 346 0
48 -318 359 0
256 -329 392 0
105 234 292 0
-49 -59 266 0
39 339 383 0
106 -135 -347 0
-311 377 395 0
26 111 387 0
-135 345 361 0
-71 -201 -246 0
208 221 381 0
-79 113 -184 0
-100 -294 -320 0
58 275 -363 0
95 109 274 0
-98 -152 354 0
157 202 -369 0
-180 238 -317 0
70 -230 358 0
59 152 -170 0
83 270 346 0
171 307 -308 0
119 224 300 0
94 -147 -310 0
191 -277 -325 0
133 172 -306 0
-101 254 293 0
101 305 322 0
-27 276 306 0
77 -279 310 0
144 -152 -244 0
272 354 -386 0
-2 -24 214 0
103 -222 347 0
102 146 347 0
42 367 383 0
-150 266 267 0
174 268 328 0
32 -34 354 0
-54 -265 -391 0
69 300 301 0
-23 -81 -394 0
184 -304 -389 0
127 -232 320 0
286 -292 -298 0
83 -156 -171 0
-108 -162 -362 0
-85 189 340 0
100 -169 327 0
17 159 267 0
285 336 351 0
-191 202 -331 0
149 -222 375 0
-29 50 -95 0
84 223 -351 0
176 179 -261 0
-50 187 -389 0
181 -222 294 0
45 199 230 0
52 -65 -147 0
-179 -378 -389 0
159 -203 -343 0
-40 -261 -364 0
117 -295 -319 0
64 172 274 0
-119 -246 -397 0
214 -273 342 0
-221 -358 -391 0
-73 101 -171 0
-278 289 -368 0
-198 245 -380 0
131 304 319 0
-236 293 352 0
-2 120 -395 0
168 -231 295 0
-19 33 343 0
116 243 275 0
3 100 101 0
-168 -248 -257 0
-68 296 -363 0
-30 50 -136 0
36 106 -365 0
188 199 376 0
-229 -361 372 0
18 -74 -88 0
-188 226 -290 0
-4 -139 -293 0
147 359 361 0
-83 355 397 0
97 288 -314 0
-16 42 259 0
101 136 -143 0
-139 205 299 0
186 -205 -307 0
-98 363 384 0
87 171 392 0
-239 276 374 0
-187 -264 -297 0
168 -354 -390 0
79 -134 -140 0
-258 -305 335 0
138 -192 383 0
82 -197 -261 0
17 92 -164 0
-86 -98 -273 0
-140 171 199 0
294 345 378 0
-171 253 272 0
-27 -192 -362 0
-128 -179 225 0
66 -199 -378 0
-87 -129 -393 0
53 289 -393 0
264 320 -339 0
287 -344 363 0
-2 -221 -393 0
15 -56 -86 0
232 -285 -398 0
-278 367 377 0
-130 -131 -175 0
31 -293 -313 0
52 122 -289 0
142 -210 -308 0
-240 268 -399 0
-90 -147 264 0
226 -266 -352 0
-134 240 -273 0
-192 237 318 0
120 -189 -313 0
-148 230 -334 0
-114 145 -200 0
-104 110 -226 0
-33 81 304 0
-163 169 204 0
-32 -262 305 0
-178 369 -383 0
-56 -261 -286 0
-65 -96 383 0
154 238 280 0
-98 225 369 0
82 -159 279 0
-117 -259 340 0
-21 177 -262 0
50 148 374 0
-272 352 379 0
70 71 -316 0
-25 -88 -350 0
77 -240 -243 0
-130 305 337 0
-228 274 -342 0
34 -134 362 0
-213 -240 -248 0
23 266 -290 0
-147 -297 311 0
76 -140 -215 0
-54 -110 375 0
-297 300 381 0
60 -344 370 0
51 207 292 0
86 -87 384 0
136 -362 387 0
-45 -289 -365 0
147 202 -267 0
-228 -234 -322 0
-99 183 -383 0
114 -284 -375 0
-74 189 -222 0
13 121 244 0
-179 -319 322 0
159 320 366 0
97 102 219 0
150 242 399 0
-108 -262 -388 0
11 -170 -195 0
-70 81 219 0
-50 -122 -134 0
96 -100 162 0
-145 -234 326 0
-201 -370 -376 0
-35 173 224 0
-10 -253 274 0
216 -311 -312 0
108 -247 280 0
74 -103 179 0
-70 -138 311 0
6 53 333 0
43 217 -339 0
52 -223 354 0
-289 356 -365 0
148 -210 297 0
-200 307 353 0
-130 139 385 0
-29 34 366 0
219 -274 -387 0
-209 328 -346 0
-67 251 341 0
50 -112 -202 0
51 -141 -386 0
-2 -30 -327 0
220 292 -338 0
-80 -179 -351 0
-214 -261 392 0
52 -88 342 0
-180 298 -345 0
-5 -271 362 0
-316 -346 389 0
2 198 270 0
-170 301 -365 0
-32 -262 -329 0
223 228 285 0
90 122 -164 0
-33 -156 267 0
28 305 324 0
-21 125 356 0
-91 352 388 0
-171 195 -349 0
134 -234 -359 0
12 189 327 0
40 176 316 0
22 -331 -371 0
94 -181 361 0
-100 -222 -380 0
-29 65 346 0
85 163 273 0
-23 99 -296 0
-144 207 -212 0
193 -260 373 0
-66 -331 389 0
-224 -265 311 0
125 -222 270 0
-34 188 346 0
-52 187 -191 0
-136 -324 -337 0
11 292 345 0
127 -222 380 0
-34 92 216 0
-61 77 303 0
44 351 -394 0
-80 133 -168 0
-25 78 -361 0
-25 297 -360 0
91 134 -218 0
-197 241 389 0
-205 216 315 0
-218 -244 280 0
-79 89 -276 0
3 39 -400 0
-72 -159 250 0
188 -296 314 0
-110 -289 341 0
364 370 -379 0
-11 -35 289 0
-128 -168 -276 0
41 82 284 0
-172 306 -325 0
-74 183 -286 0
51 70 397 0
8 -170 393 0
90 -342 376 0
39 101 390 0
173 -242 -393 0
-277 286 352 0
132 -159 -272 0
-52 -174 232 0
-27 389 398 0
-103 -134 244 0
-167 174 224 0
-118 -272 319 0
-111 -152 -320 0
-228 -295 -360 0
157 -186 348 0
-26 -64 162 0
-260 -289 -389 0
156 269 374 0
-145 184 350 0
-2 33 59 0
142 202 309 0
124 157 -369 0
76 -274 -356 0
138 302 322 0
-164 -226 -313 0
39 -228 381 0
165 201 -289 0
-213 -215 -335 0
-20 47 -269 0
166 316 -370 0
155 183 298 0
-28 -306 371 0
46 92 170 0
219 -310 -361 0
23 224 384 0
-101 -299 328 0
45 -212 -344 0
20 76 322 0
-42 -317 -374 0
-30 -81 -114 0
5 -140 273 0
95 371 390 0
14 293 328 0
69 156 -168 0
-21 133 303 0
-89 -237 261 0
76 145 361 0
47 -176 329 0
-265 323 358 0
-113 139 -396 0
145 -204 -230 0
114 -199 289 0
121 264 284 0
14 294 362 0
29 -158 -396 0
-122 -126 -303 0
-192 -236 363 0
-1 20 136 0
-240 -288 -317 0
-140 196 319 0
133 -247 399 0
62 341 371 0
-126 -303 -366 0
91 270 -335 0
61 -116 -333 0
61 -109 191 0
-40 221 354 0
48 139 174 0
-48 76 240 0
-73 81 201 0
-18 -375 377 0
31 -46 164 0
-15 168 -360 0
-42 -268 379 0
2 15 171 0
-158 -320 -360 0
-192 225 -375 0
-71 -220 -353 0
-243 -317 357 0
93 -268 -319 0
-26 -120 399 0
-26 49 -74 0
116 -179 328 0
-115 324 356 0
134 172 -299 0
104 278 357 0
48 -111 -206 0
-106 -352 -359 0
-12 192 267 0
195 -224 -239 0
-2 316 359 0
129 -165 -204 0
-14 32 -47 0
-97 165 279 0
216 -223 270 0
57 259 270 0
56 -97 304 0
-202 -239 -399 0
-46 -149 -281 0
-46 -242 368 0
-249 -382 -400 0
161 280 339 0
-77 -80 -398 0
290 307 -392 0
3 194 -210 0
-104 273 287 0
-88 -97 -160 0
-33 -111 306 0
1 -128 146 0
-133 -253 388 0
-196 204 -378 0
-219 321 -387 0
4 161 -319 0
-133 -158 -162 0
-323 340 -356 0
193 -359 -391 0
153 332 341 0
-47 170 -379 0
13 69 -288 0
262 288 362 0
-92 208 283 0
-75 -148 -370 0
-92 154 -290 0
-137 -168 253 0
-103 -272 320 0
-124 222 363 0
-94 100 -183 0
-83 -198 308 0
138 263 279 0
28 66 -220 0
129 -247 -310 0
-17 214 221 0
-153 189 251 0
138 -276 316 0
-111 -361 -382 0
-189 256 346 0
-290 -305 -337 0
-38 -124 137 0
-237 250 288 0
-79 202 215 0
-199 273 384 0
2 -51 331 0
67 -242 354 0
-2 -36 -49 0
-134 252 -311 0
-70 -146 351 0
192 -253 354 0
-3 -275 -292 0
138 -141 -341 0
58 -107 -391 0
19 -105 284 0
-85 -110 -341 0
304 374 386 0
-24 248 -336 0
39 -265 -311 0
286 309 -334 0
-214 -309 -378 0
167 369 -378 0
33 43 -75 0
54 249 -371 0
-4 146 369 0
283 371 -377 0
84 135 -165 0
-237 -294 -295 0
9 -102 332 0
11 -211 -294 0
-61 -332 -384 0
-168 179 328 0
-120 -127 129 0
-81 125 335 0
173 283 -367 0
26 -29 77 0
129 287 -338 0
88 -176 285 0
100 -305 400 0
96 -220 -291 0
-51 -149 -252 0
-84 157 292 0
-118 121 -126 0
159 168 -233 0
-40 -48 380 0
-227 -341 -378 0
273 -294 400 0
-97 -124 -204 0
32 203 -262 0
-21 -64 377 0
-75 -155 160 0
146 -150 238 0
-27 128 370 0
114 119 160 0
-171 275 368 0
155 -279 -397 0
-60 -266 -299 0
114 -157 -375 0
4 -14 85 0
-29 110 125 0
68 117 201 0
41 -230 233 0
28 56 -300 0
-113 236 269 0
-218 -290 397 0
271 310 377 0
-58 76 -152 0
11 162 284 0
-81 -92 264 0
58 362 364 0
-43 169 373 0
32 -200 -333 0
-201 258 340 0
-235 -271 -360 0
55 217 292 0
-153 -163 258 0
-37 211 -239 0
-130 -247 368 0
-122 278 394 0
99 195 -316 0
-56 -85 104 0
-27 35 370 0
45 -220 395 0
50 -122 254 0
-163 259 269 0
38 198 314 0
-123 250 369 0
-181 189 231 0
291 311 319 0
119 -151 207 0
65 -355 395 0
18 235 -358 0
-53 -66 382 0
3 -284 -350 0
77 193 343 0
-45 -146 -208 0
108 167 -378 0
19 157 -354 0
-132 -286 -334 0
-127 218 271 0
163 296 -375 0
15 95 117 0
-11 216 354 0
33 242 309 0
-47 -347 386 0
-11 118 367 0
83 -239 -388 0
99 -248 321 0
57 240 304 0
-226 274 356 0
-76 157 225 0
-2 24 206 0
-26 239 279 0
105 122 -229 0
-27 -183 -194 0
75 -101 226 0
239 -257 -344 0
-147 -278 -382 0
-15 21 -329 0
-73 -286 362 0
-62 -94 351 0
153 -169 380 0
79 -178 -215 0
-261 -266 304 0
213 -282 396 0
-136 -310 339 0
134 -290 -307 0
17 319 -341 0
-66 -106 -159 0
61 77 84 0
88 -146 -379 0
232 336 -400 0
163 325 341 0
239 -322 -370 0
-286 299 -381 0
144 207 270 0
68 132 -237 0
-157 242 248 0
193 291 -330 0
15 -204 273 0
-21 86 -364 0
32 -96 370 0
30 241 -289 0
-20 -122 -222 0
53 -79 -241 0
-74 245 353 0
-11 -220 276 0
105 -257 -307 0
-90 172 252 0
-59 212 -328 0
349 354 -371 0
103 -156 -180 0
-83 90 125 0
-4 -54 170 0
-122 274 -379 0
-107 -129 -327 0
-189 -223 -366 0
17 -302 312 0
57 94 -161 0
-31 -95 352 0
202 -315 -331 0
29 -34 -334 0
18 -212 289 0
-88 120 -164 0
-22 -150 -379 0
-72 -207 -317 0
130 167 197 0
-20 -147 253 0
11 -130 -174 0
-15 -70 150 0
136 169 -209 0
-38 99 -185 0
10 -114 343 0
195 -209 364 0
347 -357 -363 0
-40 -232 -273 0
-10 -93 382 0
-25 -197 285 0
168 -277 343 0
-191 243 -384 0
-68 89 -231 0
-19 -51 -255 0
156 169 348 0
-279 298 -367 0
19 -39 111 0
-71 119 400 0
41 -44 127 0
38 92 -365 0
-298 328 365 0
-311 386 398 0
78 164 -315 0
58 67 -127 0
-50 201 -336 0
-96 -143 346 0
-111 -118 -180 0
20 71 -210 0
-160 282 -307 0
63 182 -232 0
-57 -103 -394 0
11 -149 283 0
-136 225 229 0
309 319 391 0
145 300 392 0
251 -273 380 0
181 186 296 0
-170 -351 380 0
52 -200 400 0
-53 95 166 0
-163 170 -245 0
246 269 -384 0
125 200 257 0
-77 -174 186 0
61 -156 -227 0
268 -278 -286 0
-251 -306 -395 0
-1 43 373 0
52 -200 245 0
-5 116 156 0
16 -220 -247 0
-20 187 -296 0
-54 -222 247 0
181 289 336 0
-145 -203 348 0
-88 -233 341 0
-141 289 -353 0
-98 -217 223 0
16 -198 -383 0
54 -248 -302 0
87 -238 278 0
8 -92 241 0
63 -261 -380 0
35 -72 -255 0
51 265 -267 0
88 141 -270 0
45 134 389 0
2 165 -312 0
-85 200 326 0
-33 122 -279 0
-215 235 255 0
-141 -220 -345 0
-34 -239 -313 0
302 -354 -392 0
-102 293 -345 0
-82 -140 174 0
-5 111 157 0
-4 -143 -204 0
-22 -195 379 0
-81 311 367 0
16 -110 -251 0
-75 -227 286 0
47 290 379 0
-251 -301 -334 0
-95 -138 -326 0
154 178 275 0
37 -99 166 0
38 -98 283 0
-97 -244 373 0
-36 -122 157 0
128 -267 323 0
-123 173 250 0
176 -272 -324 0
-278 359 384 0
-178 -199 -305 0
-136 -155 246 0
39 -227 -371 0
138 -163 -363 0
145 183 373 0
-304 -311 -345 0
-110 -199 -217 0
-101 249 327 0
-195 220 375 0
13 -282 -301 0
53 -57 -386 0
-153 218 400 0
-219 304 357 0
-5 6 -297 0
-142 -190 289 0
-91 -148 -297 0
122 244 -287 0
169 -257 -324 0
86 -216 -259 0
67 -297 -357 0
135 -272 -350 0
19 112 214 0
-266 -297 -349 0
78 -280 -298 0
-59 -104 314 0
-270 294 296 0
-171 282 387 0
177 215 314 0
23 247 300 0
-63 -163 252 0
118 -263 303 0
49 -64 -134 0
17 -140 -277 0
201 -237 -272 0
-224 264 340 0
11 23 -150 0
-10 -135 159 0
-150 220 361 0
-49 -195 -327 0
-120 331 -384 0
106 -137 -169 0
-142 312 362 0
-65 -183 279 0
-166 -258 -303 0
-21 37 -157 0
128 211 -324 0
49 82 -310 0
144 145 377 0
-198 -352 379 0
179 204 -278 0
188 245 269 0
248 292 332 0
2 -33 353 0
-113 -130 -391 0
-101 218 -383 0
49 79 -118 0
108 129 202 0
64 183 370 0
-143 179 277 0
-44 -84 228 0
127 303 -325 0
47 -174 -219 0
4 40 167 0
81 -172 -287 0
-134 -347 -385 0
29 -63 -126 0
85 -215 321 0
-244 294 363 0
-121 245 -292 0
-16 164 295 0
287 339 -389 0
-140 -286 288 0
61 71 -362 0
-15 -21 -63 0
-122 -276 -308 0
156 -211 -226 0
-68 -85 -380 0
-30 202 -261 0
27 51 -201 0
-30 51 392 0
-70 -155 -239 0
-35 -137 -336 0
-59 -94 130 0
94 -185 201 0
-13 -147 195 0
-123 244 396 0
-43 150 -331 0
79 -144 167 0
15 -98 340 0
67 -91 -383 0
-133 298 307 0
-58 89 395 0
76 178 351 0
-9 -361 367 0
-69 -71 -285 0
22 80 210 0
42 -53 -392 0
231 341 363 0
-263 313 -352 0
-131 200 -226 0
-22 -324 383 0
-35 -68 -242 0
19 155 303 0
113 -232 -363 0
104 -254 281 0
-159 -206 -302 0
-51 115 159 0
-40 -230 -364 0
124 163 -264 0
-24 73 -266 0
-40 -86 -311 0
339 352 378 0
-139 225 349 0
114 -260 372 0
74 225 -318 0
-84 -99 -268 0
-37 41 314 0
126 197 -386 0
-45 143 -264 0
-110 -300 373 0
-49 157 191 0
83 -198 333 0
-143 -190 390 0
-192 322 -342 0
-110 224 398 0
192 -236 -246 0
-85 -164 345 0
-127 199 358 0
-48 332 -375 0
-56 279 -378 0
83 105 -172 0
-3 -337 369 0
172 195 -214 0
158 -328 -364 0
-10 -293 389 0
3 73 -268 0
156 260 387 0
4 -107 -348 0
49 -75 -178 0
155 266 357 0
-169 176 206 0
-164 325 -383 0
-28 162 -365 0
374 -378 398 0
-62 -257 -378 0
-64 114 -296 0
-264 335 373 0
-127 -233 274 0
241 283 -350 0
-55 334 341 0
140 317 321 0
30 -44 -351 0
-83 -97 214 0
-24 51 -284 0
-95 -258 -340 0
57 -230 -393 0
7 -24 117 0
197 -273 -298 0
10 64 -137 0
-228 -354 370 0
-118 343 355 0
-186 201 -369 0
17 -231 289 0
-35 -58 -113 0
-61 -141 -257 0
-10 -11 -48 0
-5 -313 369 0
169 -279 290 0
-6 37 -325 0
45 -199 -266 0
-139 156 -226 0
-181 -259 379 0
10 -241 -304 0
-42 -63 -173 0
22 -117 -326 0
-60 -147 -346 0
110 -348 395 0
130 200 -316 0
-138 198 -360 0
37 -277 -373 0
-165 -381 397 0
-108 136 138 0
-159 -163 261 0
77 93 -364 0
186 -357 373 0
-277 387 -397 0
106 252 263 0
48 -74 -318 0
54 -214 -220 0
-123 206 -259 0
-163 -316 -387 0
-89 202 281 0
5 80 -378 0
32 267 348 0
-130 -324 -364 0
31 -95 -99 0
137 232 -265 0
7 -74 215 0
-80 314 -381 0
37 -140 -242 0
-6 -142 -252 0
63 313 396 0
149 -258 350 0
-252 302 369 0
88 -285 -335 0
209 -246 -316 0
-5 -67 247 0
-93 179 -252 0
-80 -254 338 0
-56 245 -334 0
95 -126 -147 0
-304 -399 400 0
-12 -155 194 0
-166 175 -322 0
-74 -79 -208 0
53 -195 379 0
126 177 345 0
-11 -215 -364 0
-74 -133 -307 0
66 286 370 0
-2 -83 -383 0
27 61 -398 0
96 -103 -291 0
13 78 -252 0
-15 -244 -399 0
-34 -160 345 0
-8 -181 352 0
66 -261 357 0
-111 -268 -378 0
-179 218 -277 0
-7 219 346 0
-79 -135 267 0
58 79 237 0
-102 -251 -352 0
-79 -127 136 0
-25 -146 -398 0
-268 298 371 0
-78 111 -305 0
78 217 361 0
41 -241 366 0
148 337 -339 0
-13 -125 -232 0
-45 -194 219 0
29 -159 -350 0
40 72 -345 0
162 194 -307 0
-89 -147 -231 0
-209 318 340 0
-3 57 274 0
-176 -233 -398 0
-93 142 -253 0
-189 240 -359 0
-136 -179 -376 0
45 -352 -391 0
-115 223 331 0
-27 271 -373 0
226 -282 -326 0
-121 181 243 0
-35 172 294 0
117 343 369 0
187 -204 -311 0
-53 -83 152 0
81 -264 -374 0
-107 -320 -387 0
118 -324 -399 0
61 396 -399 0
192 311 387 0
-99 239 275 0
-139 -231 -388 0
-14 -32 305 0
-24 199 329 0
-60 -233 300 0
17 389 398 0
35 -62 -325 0
51 -212 307 0
-108 210 299 0
66 -123 -238 0
-38 -109 -305 0
-49 70 100 0
78 -180 -276 0
167 280 -392 0
-59 202 -231 0
-143 -218 316 0
-71 124 -210 0
-48 307 380 0
81 -83 -97 0
-64 -166 264 0
189 -208 234 0
-94 -150 202 0
275 -280 331 0
58 -255 -286 0
-97 183 292 0
-7 49 212 0
-78 -111 -211 0
312 -351 -373 0
9 52 108 0
-90 292 310 0
-131 -172 -334 0
-54 -224 -321 0
57 -227 -327 0
-173 209 371 0
-74 -195 -210 0
120 -127 -354 0
240 301 -311 0
-61 -134 285 0
-61 -168 -281 0
74 -166 280 0
156 -195 389 0
60 -128 157 0
-51 187 400 0
65 -80 -239 0
201 213 -324 0
-157 314 -331 0
-57 -344 374 0
-12 -342 353 0
40 -276 317 0
-38 -165 -334 0
-15 274 327 0
49 179 -187 0
92 176 381 0
198 -257 -300 0
141 -145 194 0
248 -283 328 0
72 -317 335 0
16 167 -314 0
139 140 -322 0
-8 322 323 0
-100 204 355 0
98 220 259 0
144 165 -383 0
37 -326 342 0
-47 222 -374 0
-127 212 378 0
315 -355 -367 0
-73 -303 -390 0
-96 194 -285 0
69 203 -206 0
87 364 369 0
14 246 -345 0
-21 336 -366 0
-52 151 315 0
9 -257 -336 0
-40 -99 -314 0
154 269 -298 0
-114 193 -251 0
-8 65 -138 0
-75 120 367 0
-16 93 240 0
-28 -42 -172 0
180 296 -339 0
56 -361 -374 0
-1 -209 230 0
-177 253 266 0
-22 156 169 0
117 200 -352 0
-143 -308 356 0
-301 321 331 0
-7 94 134 0
126 183 369 0
-233 237 -367 0
-203 -237 -344 0
30 393 -396 0
-8 -17 317 0
14 -92 -268 0
-30 309 -361 0
-134 -241 -247 0
112 -185 -201 0
181 334 -343 0
156 -170 195 0
-231 -237 310 0
34 93 324 0
240 285 -322 0
208 258 -374 0
50 358 371 0
52 250 301 0
-21 204 327 0
-17 -246 367 0
97 -100 -307 0
81 -243 270 0
102 148 -199 0
-138 267 368 0
-14 -197 -291 0
167 293 -376 0
-193 -291 -299 0
63 -202 -238 0
25 319 -364 0
-7 -60 233 0
119 196 -302 0
-243 -295 359 0
-43 300 371 0
-31 108 -186 0
147 -182 -394 0
-64 334 -369 0
15 47 374 0
140 323 353 0
-154 -182 370 0
32 -112 -180 0
49 87 -343 0
146 154 -331 0
19 -26 -110 0
-62 65 255 0
339 -384 -398 0
-101 -191 241 0
-72 -76 -219 0
-143 -175 -226 0
43 86 -197 0
-40 286 -326 0
-264 348 -349 0
177 -224 225 0
36 253 -372 0
104 -171 -334 0
-122 -202 -312 0
51 209 -233 0
167 259 -389 0
37 -268 356 0
-128 150 327 0
32 -244 -349 0
39 89 147 0
79 184 298 0
267 356 357 0
124 154 -162 0
129 186 251 0
61 -76 -376 0
79 242 247 0
-92 -142 -304 0
-62 -241 -336 0
-269 -337 383 0
78 -314 340 0
-105 -177 306 0
-85 88 -240 0
-230 -261 -298 0
118 -178 393 0
-149 163 -209 0
171 233 317 0
57 -272 338 0
-67 -89 262 0
181 -259 -267 0
-173 -217 -295 0
130 -364 386 0
210 247 -283 0
-17 233 -255 0
-40 -312 -378 0
-2 -129 -161 0
-242 341 398 0
-102 -237 -257 0
-131 260 -277 0
100 306 -358 0
102 -232 369 0
38 -153 -196 0
76 -220 -314 0
-121 -358 369 0
34 202 218 0
98 110 239 0
69 74 -149 0
-75 -180 226 0
241 260 -282 0
168 349 365 0
-44 320 -359 0
-301 360 -366 0
-66 223 -320 0
11 12 -309 0
124 -174 -301 0
-67 -193 279 0
-10 -14 328 0
17 147 -302 0
254 -267 -361 0
147 207 -267 0
-218 -265 396 0
129 200 327 0
261 -266 279 0
-44 184 -308 0
-46 344 381 0
60 -73 132 0
240 -292 382 0
219 376 397 0
-28 -93 204 0
-32 -61 -365 0
-140 143 -257 0
207 -226 336 0
-47 151 334 0
50 124 179 0
-235 -340 -364 0
50 103 -136 0
-95 197 367 0
120 293 -334 0
-79 -230 -271 0
-160 -247 300 0
70 355 -358 0
8 -134 220 0
90 103 -341 0
-61 164 314 0
-20 -147 -151 0
45 315 -350 0
-55 213 231 0
-250 -319 -350 0
-182 214 -350 0
-31 170 -276 0
262 349 354 0
41 -114 203 0
307 -356 364 0
-289 -334 335 0
-147 -243 344 0
26 38 -364 0
-45 100 303 0
284 295 -357 0
39 68 -326 0
249 305 352 0
70 -254 -363 0
68 288 338 0
84 -165 285 0
74 -284 -314 0
-18 58 -231 0
311 -344 378 0
144 -186 227 0
234 -264 -374 0
-7 -163 343 0
-85 241 269 0
29 -73 -74 0
51 -380 393 0
42 -276 327 0
108 -122 -339 0
189 203 -368 0
114 195 287 0
-9 -82 294 0
-27 36 308 0
-2 -31 130 0
-151 246 259 0
79 -238 348 0
-82 275 -393 0
-86 -90 -296 0
13 228 240 0
86 -354 -386 0
-66 90 199 0
87 -88 256 0
145 203 324 0
145 -266 335 0
70 392 -394 0
-5 -300 334 0
-92 -167 -251 0
53 -64 -342 0
6 24 -384 0
57 152 396 0
54 142 207 0
57 -76 168 0
-1 -80 -289 0
-279 -293 -387 0
-195 -244 -345 0
-13 -227 303 0
134 -190 362 0
200 227 -298 0
-108 -161 -382 0
-109 295 320 0
103 -141 -280 0
-84 -283 -387 0
127 -214 333 0
-64 -104 276 0
56 277 334 0
19 25 112 0
69 131 173 0
-137 175 -327 0
-29 333 393 0
-16 82 -354 0
-120 121 313 0
-5 -170 -305 0
-92 124 -172 0
238 298 307 0
30 45 386 0
93 -325 -398 0
-25 -113 263 0
-80 103 242 0
18 69 280 0
24 -59 -116 0
115 255 399 0
-55 -156 -237 0
78 -169 -363 0
96 101 -284 0
79 -239 -327 0
-90 247 -384 0
-67 85 349 0
-63 314 343 0
127 325 391 0
-82 -119 313 0
104 211 250 0
-37 128 197 0
54 152 319 0
36 62 -178 0
108 -132 287 0
50 -243 387 0
204 -215 -230 0
-199 247 -385 0
118 353 386 0
-75 197 -225 0
117 -128 -241 0
129 335 -361 0
-24 -127 -359 0
240 -265 -301 0
-232 250 253 0
143 237 399 0
-89 240 -331 0
-51 91 313 0
-67 -290 381 0
30 176 -279 0
-86 266 -320 0
71 -252 349 0
-154 184 360 0
225 -241 -263 0
33 -140 361 0
27 199 -279 0
24 237 -272 0
-97 147 -288 0
-109 -139 271 0
-114 -188 -347 0
-41 -269 369 0
-150 -167 -343 0
-58 -325 391 0
-192 245 380 0
146 -242 312 0
55 -70 -293 0
16 74 -233 0
33 -79 285 0
-32 237 -371 0
30 -60 233 0
84 -91 138 0
-77 116 356 0
-2 176 308 0
-51 -122 -335 0
-37 -97 181 0
34 -117 -365 0
87 218 -348 0
107 -205 -263 0
20 297 362 0
38 -201 -277 0
187 253 -375 0
141 209 -289 0
-27 166 -373 0
-143 224 281 0
-208 324 -389 0
-70 -205 334 0
-138 151 -390 0
-140 -173 345 0
11 -121 133 0
278 330 -347 0
129 306 -340 0
84 90 230 0
-138 -188 -290 0
-116 -168 -244 0
-12 20 -128 0
-156 -282 397 0
-181 369 376 0
-11 92 -302 0
-52 -211 -280 0
-153 -291 320 0
-115 -213 283 0
-4 156 340 0
-4 133 330 0
42 -151 -195 0
-193 -239 247 0
105 -150 171 0
9 360 376 0
-169 -200 -294 0
-140 -184 314 0
109 340 395 0
-188 279 -383 0
100 -118 197 0
22 -207 -367 0
-166 304 -363 0
-82 173 -243 0
-19 272 -358 0
99 120 265 0
-7 157 -242 0
139 246 314 0
86 152 223 0
57 210 310 0
47 154 -252 0
-16 -266 -304 0
25 112 343 0
252 301 -390 0
-20 25 -205 0
34 109 -362 0
26 188 -243 0
-28 237 -299 0
9 -17 -157 0
-211 318 347 0
-275 355 -359 0
-75 207 -240 0
-69 162 -306 0
11 192 246 0
-109 158 -325 0
102 -124 -296 0
-79 138 -397 0
-28 -104 -106 0
-322 342 369 0
-271 291 306 0
-91 -340 -352 0
149 -207 -231 0
-190 196 390 0
26 -180 -368 0
-173 -239 358 0
-53 -186 372 0
-26 -191 229 0
-90 296 -310 0
-75 76 219 0
53 58 -142 0
-170 -182 198 0
268 283 298 0
113 -198 -337 0
9 -101 -159 0
122 211 356 0
-176 -242 368 0
-64 -208 -230 0
-99 -200 398 0
74 -318 -381 0
-19 -38 -344 0
-8 65 379 0
36 -340 375 0
-27 36 -51 0
125 -218 378 0
32 -293 396 0
126 200 -311 0
138 -229 364 0
-112 181 -354 0
-5 176 -316 0
-229 -329 356 0
52 298 -313 0
-102 -174 229 0
332 -365 -391 0
82 168 -315 0
29 174 -375 0
181 245 -275 0
-107 -312 -325 0
47 -136 368 0
-197 202 -239 0
65 -140 -270 0
18 87 -96 0
67 -357 -394 0
230 -298 -367 0
48 -201 -245 0
-97 352 377 0
78 -141 -214 0
214 323 -378 0
66 -188 -384 0
-37 41 -196 0
151 191 -205 0
177 247 399 0
-37 -49 360 0
174 -267 -281 0
-43 -132 219 0
-46 -158 -189 0
-214 245 261 0
-14 161 237 0
-11 -75 -129 0
-250 338 347 0
-51 -103 -259 0
182 -238 -342 0
-223 -354 376 0
-69 -186 -374 0
172 369 -392 0
163 -212 -263 0
22 94 -260 0
45 -126 -332 0
113 237 -261 0
337 349 -370 0
100 -229 246 0
108 184 -204 0
-155 -351 384 0
-173 174 -373 0
94 213 308 0
-108 -228 304 0
3 -189 355 0
39 87 -375 0
-2 39 -317 0
15 107 255 0
-176 -284 381 0
62 93 -214 0
-261 267 362 0
-24 -88 -144 0
-20 -340 355 0
-81 177 267 0
-112 220 -304 0
-138 191 -316 0
62 124 -349 0
152 -178 227 0
-197 237 239 0
294 -309 -348 0
-126 318 -397 0
-91 127 -152 0
11 -180 247 0
126 -226 287 0
8 -201 247 0
22 -141 -398 0
82 -161 -354 0
302 318 -373 0
-191 -256 -329 0
5 234 312 0
-16 142 -262 0
166 191 -241 0
-67 -111 -281 0
277 -354 -400 0
223 -334 398 0
157 361 -379 0
-161 269 378 0
53 149 -168 0
19 -92 -282 0
-156 185 253 0
296 -340 -398 0
-235 253 -274 0
86 -235 252 0
50 -327 359 0
-23 33 41 0
-44 139 -180 0
-16 280 -335 0
88 315 -332 0
-46 147 287 0
-83 -106 -385 0
-68 -80 317 0
97 -178 319 0
4 -62 322 0
-88 -366 400 0
-14 104 299 0
5 256 349 0
-69 -85 -106 0
-67 -232 243 0
15 -208 352 0
-73 -220 -284 0
-146 165 271 0
-64 141 326 0
-136 -357 379 0
-139 -337 -366 0
66 79 -168 0
-14 183 379 0
-152 -340 357 0
237 -317 346 0
1 -70 -206 0
-33 296 349 0
-7 -111 333 0
19 310 342 0
147 222 318 0
130 135 -398 0
205 -265 392 0
-5 64 -394 0
-76 -217 256 0
198 327 -352 0
-56 171 -230 0
169 262 343 0
145 249 313 0
151 168 255 0
54 -295 313 0
-149 363 365 0
-19 35 75 0
-230 239 356 0
-34 -185 255 0
-256 296 -297 0
-137 -288 -388 0
-86 -159 -350 0
23 -260 325 0
-21 145 -395 0
-172 -194 313 0
-311 -338 392 0
88 221 247 0
-287 -308 327 0
13 125 361 0
100 178 -210 0
161 -225 297 0
-49 -330 -377 0
105 -138 -183 0
26 134 324 0
246 295 302 0
94 -109 -202 0
-262 -278 -361 0
11 -76 272 0
-150 -291 -344 0
90 146 -217 0
191 -269 344 0
-7 232 327 0
-76 -190 -301 0
100 252 394 0
62 -316 -398 0
199 341 355 0
123 144 -390 0
75 -160 281 0
-143 271 333 0
127 -222 304 0
-114 -122 239 0
6 -111 220 0
41 322 -342 0
247 326 355 0
-97 -126 -237 0
48 176 207 0
2 -82 -210 0
-152 219 223 0
115 -127 331 0
-111 -269 -320 0
28 49 302 0
-14 66 -202 0
4 -56 -200 0
-18 -206 -399 0
-244 -338 -357 0
-105 -112 -298 0
69 -306 363 0
-46 -186 -279 0
-200 -249 -268 0
-1 -128 -140 0
-2 -103 -211 0
55 -181 387 0
-9 364 370 0
-61 122 -158 0
67 182 270 0
24 188 321 0
-22 57 -297 0
-1 134 -188 0
164 -238 -379 0
-195 248 -371 0
-44 209 341 0
-132 -179 -238 0
98 126 -288 0
-20 -195 207 0
-29 -148 -337 0
-131 218 285 0
-92 -219 -245 0
-59 -122 -152 0
-69 -104 189 0
45 -124 137 0
30 176 -378 0
-1 67 386 0
-109 -233 -368 0
89 -137 -229 0
-132 248 376 0
56 -95 -369 0
-167 -269 -315 0
-131 322 -387 0
153 -294 357 0
38 -232 331 0
48 -57 -385 0
-132 269 275 0
-101 232 379 0
230 266 313 0
60 -177 306 0
37 -54 287 0
-95 -154 -259 0
-59 -170 398 0
-152 203 -391 0
-60 -201 367 0
38 240 -385 0
-7 93 116 0
-11 130 -292 0
215 370 376 0
-148 -164 378 0
-222 -362 381 0
15 -46 -259 0
262 271 369 0
223 -323 -350 0
49 197 -265 0
97 293 -294 0
114 -115 -144 0
21 300 314 0
-213 327 387 0
103 -122 320 0
29 197 -198 0
-112 -291 -315 0
106 -109 356 0
88 -230 249 0
-82 143 319 0
-15 34 -340 0
46 131 300 0
-13 30 -325 0
2 -182 -333 0
59 -288 368 0
-129 246 299 0
13 111 -384 0
-123 -191 390 0
-162 237 -372 0
-11 229 269 0
-117 -284 350 0
63 -267 296 0
16 216 -376 0
-44 -346 -347 0
-9 -152 -341 0
93 -98 150 0
-121 178 270 0
-87 240 -241 0
22 -230 -289 0
236 338 -363 0
40 -122 -338 0
2 -27 358 0
-46 94 -285 0
40 -189 339 0
-107 -141 -299 0
21 -279 -308 0
-10 -56 103 0
-51 -82 -272 0
-114 235 -265 0
3 -279 -303 0
108 -132 -176 0
-131 -179 -264 0
-193 -241 333 0
-46 105 373 0
53 -232 -255 0
10 122 -273 0
-165 214 258 0
-60 -105 -282 0
-226 244 263 0
105 184 -317 0
-106 -154 -244 0
-29 -73 -378 0
-97 -361 384 0
44 147 -307 0
-170 317 -382 0
28 -194 -220 0
113 -124 -129 0
184 263 396 0
79 -229 301 0
-54 -157 -248 0
-143 -195 -301 0
-132 168 -400 0
-69 -247 336 0
-119 260 -302 0
-86 -134 251 0
-41 -128 -323 0
69 -141 -170 0
190 -208 -232 0
-38 91 154 0
66 -75 -377 0
-151 -211 347 0
314 363 -396 0
-48 72 292 0
-196 -384 398 0
149 -162 336 0
16 189 246 0
7 -230 -368 0
-16 149 182 0
-42 352 -367 0
-41 -134 157 0
119 207 223 0
-208 316 -380 0
9 -181 388 0
-52 247 -272 0
87 -196 255 0
-3 -78 263 0
-87 -205 270 0
-174 184 199 0
-174 -286 340 0
187 -277 342 0
149 -206 289 0
11 74 378 0
-128 131 336 0
-54 153 179 0
137 332 -370 0
-47 -199 -216 0
-140 210 295 0
94 -115 284 0
91 -183 284 0
-50 -185 201 0
73 88 -204 0
-160 201 -379 0
-95 -273 358 0
120 -210 -216 0
-65 108 190 0
-90 -129 243 0
-120 -150 -189 0
-249 -332 364 0
4 146 -242 0
74 274 -335 0
67 341 -373 0
-181 -191 -239 0
220 -324 395 0
-8 220 340 0
95 -225 -307 0
2 -19 247 0
189 -219 230 0
59 259 -281 0
228 332 381 0
-12 -249 -254 0
-182 304 -390 0
98 -313 378 0
-77 -241 391 0
19 -250 322 0
-23 -52 264 0
-74 175 189 0
-4 -154 244 0
-162 -177 283 0
-19 -21 -237 0
90 289 355 0
-42 51 190 0
-116 -226 354 0
147 198 -211 0
29 30 233 0
62 -249 253 0
28 196 -360 0
18 -223 -302 0
101 169 195 0
15 289 306 0
-306 -354 380 0
149 154 -167 0
-99 158 300 0
-218 232 265 0
-127 174 -260 0
-8 190 -388 0
193 284 288 0
-20 -47 364 0
-265 -385 395 0
-48 -64 -123 0
-111 135 234 0
-158 173 -232 0
60 255 -284 0
97 -206 -286 0
-54 196 -207 0
-178 193 314 0
-49 65 -122 0
-145 -219 -282 0
277 279 376 0
-99 175 -289 0
48 60 -355 0
168 212 321 0
188 -207 333 0
-10 82 -280 0
20 -225 379 0
-212 239 240 0
82 -148 264 0
59 -124 -280 0
58 -278 -320 0
112 269 289 0
95 -362 386 0
165 215 -370 0
82 -123 -273 0
159 197 212 0
232 363 381 0
-15 -86 303 0
-136 -153 -320 0
6 294 296 0
38 -94 397 0
-299 -327 -328 0
-22 326 -329 0
-6 118 -304 0
92 188 372 0
-100 -236 400 0
-107 -346 -379 0
-97 -213 304 0
69 173 212 0
-79 -183 387 0
269 297 -375 0
-54 69 331 0
-162 -329 390 0
65 -276 -328 0
159 221 276 0
-30 45 -121 0
5 44 -64 0
-20 123 -355 0
203 312 -383 0
98 253 -259 0
-104 172 259 0
-14 -70 253 0
160 230 278 0
289 -339 -394 0
-22 -40 72 0
-10 -106 -238 0
82 173 -365 0
-21 -162 286 0
-5 71 -114 0
-115 -261 -324 0
82 104 -244 0
-69 -90 -318 0
-154 -379 381 0
269 349 396 0
-59 136 -166 0
84 -125 -384 0
-288 -293 -341 0
3 -190 -246 0
-101 -218 246 0
257 -276 -369 0
-14 25 -214 0
-295 325 384 0
-9 -243 -382 0
-169 286 390 0
-103 -317 -323 0
5 179 -210 0
-92 136 254 0
-11 82 359 0
-193 245 -284 0
-107 240 -287 0
200 -240 -322 0
109 217 -261 0
42 -307 -339 0
-104 224 -293 0
-78 -87 -332 0
73 -80 -173 0
102 -377 -399 0
68 -157 -382 0
-59 -245 -268 0
-115 336 346 0
-20 -62 118 0
-1 -312 -360 0
31 221 345 0
-37 233 375 0
-78 -252 -384 0
-244 -253 279 0
196 -309 -391 0
-211 -250 -252 0
160 -258 -310 0
-51 172 319 0
-106 116 -140 0
-1 130 211 0
-48 171 -254 0
61 240 -247 0
-10 70 -166 0
97 -298 -323 0
26 -155 -387 0
-137 -190 -295 0
23 -114 360 0
-63 -222 276 0
-27 -80 -120 0
88 109 137 0
36 170 370 0
-20 -147 320 0
-16 -363 376 0
-291 293 -375 0
6 -117 -278 0
116 219 -331 0
276 -316 -371 0
273 -309 335 0
206 275 -300 0
74 -216 -384 0
79 -330 -333 0
-263 324 376 0
-226 232 -375 0
-225 -307 -317 0
-64 -211 222 0
105 255 -396 0
-351 -355 -376 0
-62 203 396 0
237 -243 -314 0
-17 68 149 0
35 122 227 0
17 33 100 0
18 86 -315 0
149 228 -314 0
51 156 -388 0
176 -180 -343 0
105 283 330 0
323 349 376 0
-183 367 -381 0
-273 278 -327 0
-29 -237 245 0
186 -188 294 0
168 -298 -399 0
-174 240 -364 0
191 -307 -368 0
133 148 268 0
194 -211 -361 0
-51 121 -158 0
