c F2 random 3-CNF cnfgen RandomKCNF(3,400,2000,seed=6) m/n=5.0
p cnf 400 2000
-42 249 294 0
-75 -301 -340 0
-12 140 -395 0
276 277 -350 0
313 -340 -352 0
-48 -186 210 0
-101 359 387 0
-103 -302 336 0
264 -295 331 0
-156 221 309 0
257 269 -348 0
-101 -160 369 0
71 108 306 0
-9 -171 -332 0
149 -200 271 0
-95 217 -305 0
-46 -126 -309 0
-40 -219 -265 0
-44 -99 -383 0
10 89 -370 0
-97 -185 -302 0
-131 -211 -265 0
-244 -309 337 0
-194 -255 -370 0
-84 -188 -338 0
204 -250 331 0
30 231 320 0
-190 -350 368 0
80 -99 -138 0
39 -119 -241 0
75 -321 349 0
20 322 343 0
237 245 331 0
-43 -83 -316 0
11 327 -356 0
-226 -246 -399 0
-33 -297 -365 0
-18 -43 -185 0
-221 228 243 0
128 310 327 0
17 173 -190 0
40 -81 176 0
238 254 381 0
16 180 267 0
-78 145 379 0
289 -357 367 0
124 -163 388 0
-167 196 -390 0
272 283 -339 0
95 140 342 0
32 39 -197 0
31 -59 389 0
-31 116 -278 0
40 48 -242 0
58 62 360 0
-347 -374 -385 0
104 -119 228 0
-131 270 375 0
186 188 354 0
-175 185 -355 0
-6 16 -72 0
2 -136 238 0
65 68 -215 0
-220 -289 -305 0
17 -71 154 0
56 91 295 0
-78 -202 -304 0
111 -199 330 0
-129 173 -214 0
-190 302 348 0
91 -157 400 0
-46 -100 329 0
76 -267 -386 0
-169 -303 365 0
22 68 134 0
353 392 399 0
111 174 180 0
95 -116 -322 0
57 -319 372 0
191 -293 -376 0
35 141 386 0
-234 246 323 0
-52 -141 370 0
73 -192 -378 0
10 208 -381 0
-7 -66 192 0
62 205 -245 0
-131 -170 -278 0
232 285 368 0
-254 270 286 0
-8 108 165 0
-30 -140 143 0
88 363 -373 0
95 -180 296 0
-197 244 281 0
28 -221 -300 0
-29 -113 -327 0
-154 -185 328 0
213 -280 392 0
163 259 333 0
32 221 -225 0
-1 -33 -181 0
199 207 -304 0
-229 -254 373 0
-8 27 393 0
151 329 -334 0
61 -70 -287 0
-36 109 251 0
13 -51 -79 0
-244 -314 -356 0
99 233 315 0
72 -201 -343 0
-289 332 395 0
14 -209 378 0
-18 -162 -330 0
-156 -193 224 0
211 -302 -328 0
242 302 -341 0
-83 -188 -295 0
-37 222 233 0
-34 247 311 0
-264 -270 375 0
92 -246 273 0
16 -178 -334 0
185 -198 -364 0
-90 154 253 0
4 105 -278 0
-53 -288 -331 0
-104 106 241 0
-26 -109 115 0
183 -190 -244 0
98 288 381 0
-24 206 271 0
42 61 -375 0
-96 170 343 0
-110 113 168 0
-15 54 150 0
-212 286 -374 0
88 277 -305 0
-154 216 -357 0
101 -111 -153 0
-25 -334 -387 0
-184 -208 221 0
-306 310 -335 0
89 257 323 0
-115 131 274 0
30 -157 -280 0
64 -166 180 0
139 -299 -400 0
-45 329 381 0
125 157 320 0
-14 -221 315 0
-209 296 387 0
96 287 -336 0
-87 -91 -132 0
115 289 400 0
232 286 295 0
-21 -184 -284 0
142 -266 -389 0
-168 229 327 0
-48 218 -375 0
171 297 314 0
-51 97 106 0
96 184 -327 0
4 145 -227 0
-2 -8 82 0
-75 194 -227 0
111 -327 -360 0
25 -350 -380 0
-55 276 -376 0
-188 -306 -396 0
-162 -222 327 0
-60 213 301 0
179 262 365 0
-8 81 -259 0
23 65 -99 0
88 109 114 0
-166 354 373 0
186 -282 372 0
-223 314 -395 0
154 -241 -306 0
-1 76 109 0
-2 -291 322 0
281 -366 -371 0
166 376 -393 0
-62 235 -298 0
124 -186 -343 0
63 89 361 0
-7 39 163 0
-141 142 377 0
-128 170 272 0
-46 124 -395 0
-197 250 276 0
76 126 -141 0
-13 179 -196 0
59 109 162 0
-43 80 -92 0
-7 -257 335 0
-62 342 -390 0
-242 282 363 0
-9 204 215 0
1 29 239 0
86 -104 111 0
-47 49 305 0
-12 241 319 0
-57 -359 396 0
168 305 -309 0
21 173 282 0
-53 64 -180 0
-68 150 275 0
6 92 -120 0
-224 299 -325 0
39 -144 -280 0
-111 -191 -363 0
-61 197 -384 0
-11 -90 -210 0
7 -147 218 0
1 -116 246 0
-122 -218 -229 0
102 107 275 0
-261 312 328 0
-189 253 -334 0
44 79 -125 0
160 208 -370 0
-50 -278 336 0
24 116 254 0
-142 218 219 0
-55 238 -316 0
232 -264 -286 0
99 -146 347 0
146 -155 159 0
-24 -130 -370 0
-70 -120 191 0
37 -46 -343 0
44 -247 359 0
123 -335 344 0
-4 -290 -362 0
-23 144 270 0
117 142 -315 0
96 -99 234 0
318 -335 -336 0
13 77 -113 0
59 82 -332 0
79 -284 289 0
30 144 -310 0
119 -135 353 0
154 256 383 0
-158 309 -365 0
-94 196 -253 0
-10 274 -353 0
24 -32 -190 0
173 231 248 0
-235 -240 355 0
-217 -258 290 0
-75 -130 -364 0
32 -60 111 0
-6 -80 -195 0
1 -194 -289 0
-37 180 -363 0
42 -74 362 0
28 97 -348 0
-99 -157 280 0
35 -86 -180 0
-31 81 -112 0
-47 107 117 0
-45 159 174 0
-57 91 272 0
87 231 385 0
-37 -105 212 0
181 -190 318 0
-39 -175 -192 0
-46 309 -386 0
185 -225 319 0
-62 104 394 0
200 301 -342 0
20 -47 -323 0
36 359 366 0
263 -331 335 0
2 -272 335 0
2 -47 -304 0
-26 369 380 0
-2 -233 333 0
40 178 -324 0
-103 -225 -376 0
-180 353 371 0
125 143 -349 0
137 -251 385 0
-14 130 -398 0
80 160 253 0
173 -263 -338 0
-75 -83 374 0
264 -287 -365 0
7 -362 -391 0
50 -153 -262 0
-40 -369 -390 0
80 -358 388 0
25 -189 -374 0
106 -235 366 0
140 273 -311 0
88 185 -393 0
7 325 -386 0
-199 277 326 0
52 214 398 0
209 -210 216 0
106 -201 400 0
-30 -140 173 0
-227 -327 361 0
227 -236 -363 0
-88 -100 -284 0
-38 -211 -224 0
-76 242 377 0
144 -155 235 0
-151 308 -345 0
54 -56 288 0
-195 228 -331 0
-118 176 -286 0
-7 -188 -208 0
65 -222 228 0
62 91 269 0
-70 -154 217 0
103 -137 374 0
3 269 -283 0
97 -336 357 0
-112 196 -242 0
-92 194 252 0
-29 -78 89 0
-42 -227 -323 0
145 259 302 0
-88 127 384 0
-65 -132 184 0
32 306 -353 0
-29 342 375 0
10 77 117 0
94 135 -288 0
-73 124 -228 0
179 -265 400 0
56 170 206 0
-126 153 -354 0
62 -308 -360 0
-79 -91 140 0
-26 157 326 0
-55 253 374 0
13 -302 -304 0
-62 67 -322 0
145 254 -258 0
29 45 202 0
144 -219 392 0
-22 171 -294 0
-66 178 -303 0
157 299 -382 0
-177 -211 -266 0
-218 268 -288 0
21 61 85 0
-116 150 359 0
-19 99 314 0
152 176 309 0
212 259 360 0
-20 30 143 0
252 -296 321 0
-56 -59 -337 0
-61 -156 317 0
-38 179 348 0
67 166 -349 0
-26 -130 -133 0
-155 -281 -309 0
42 193 206 0
-46 -157 -373 0
46 289 350 0
59 390 393 0
158 -165 352 0
-69 -280 -340 0
2 28 283 0
92 148 273 0
129 -213 280 0
-92 -219 -341 0
-198 365 385 0
4 53 -150 0
-79 -167 306 0
-93 183 -375 0
87 -100 289 0
108 -223 234 0
68 133 -170 0
194 -295 323 0
-23 162 343 0
46 89 344 0
-164 -237 -267 0
25 -45 381 0
-134 -342 -348 0
-158 175 -337 0
51 -70 398 0
39 -58 -266 0
59 -258 366 0
-157 299 -318 0
-205 207 363 0
-182 -238 -270 0
30 61 -221 0
108 -146 187 0
60 -148 229 0
58 -126 227 0
-225 264 -383 0
11 -214 280 0
-22 -110 -128 0
-126 -158 313 0
121 312 359 0
175 352 -385 0
87 118 362 0
-86 116 -357 0
75 167 -278 0
70 -271 -368 0
-32 -68 -219 0
-184 -200 347 0
-9 -191 -362 0
-16 98 110 0
55 251 -284 0
191 -236 337 0
125 218 287 0
-37 -115 -341 0
-50 366 -381 0
-94 -137 -336 0
-50 134 291 0
5 -109 -281 0
-91 -246 270 0
41 -233 323 0
63 -197 214 0
-79 -220 366 0
182 183 260 0
73 306 -352 0
-230 301 -382 0
-243 268 -270 0
-138 -202 236 0
-182 -187 230 0
-280 282 366 0
-276 -348 -383 0
-129 -168 -244 0
57 272 307 0
-183 -194 211 0
35 160 226 0
-111 137 335 0
-32 -221 -330 0
3 53 -175 0
-155 312 -327 0
-3 -100 251 0
277 -332 353 0
24 70 -149 0
-134 328 345 0
-76 178 -384 0
-132 -272 285 0
-31 -238 258 0
317 321 -379 0
42 -236 -264 0
-117 -275 291 0
104 204 -390 0
-36 82 -336 0
70 -138 -330 0
-30 -204 -208 0
43 230 275 0
97 -167 216 0
-225 -354 -362 0
-211 -222 -303 0
-72 215 254 0
-18 246 -360 0
15 -338 386 0
58 239 318 0
116 -355 388 0
41 -71 250 0
21 23 267 0
-20 -253 321 0
-39 -107 122 0
-67 361 386 0
-23 -75 -136 0
-61 -63 -292 0
57 345 383 0
25 118 146 0
-74 150 -354 0
-14 -206 229 0
13 38 -337 0
-151 -230 -340 0
-62 -270 334 0
-126 -297 -298 0
-52 127 -343 0
-48 170 -261 0
300 -343 394 0
30 -100 -264 0
95 210 -316 0
-47 305 -371 0
82 196 -226 0
-126 226 305 0
40 -52 -211 0
-49 -107 -175 0
117 149 247 0
-226 378 381 0
-11 -64 -86 0
123 -186 385 0
88 104 378 0
111 -137 -361 0
43 188 -274 0
1 -203 320 0
-109 329 -346 0
148 303 -391 0
-42 -229 -280 0
60 -113 -391 0
-24 -72 272 0
-74 -347 -362 0
122 206 277 0
78 -152 -307 0
83 -144 -255 0
-209 -294 -295 0
55 178 233 0
106 326 -338 0
-56 -192 -306 0
-103 -259 -281 0
-68 146 -205 0
24 152 -227 0
20 -310 347 0
-161 -200 -280 0
-286 -299 -382 0
19 -20 -335 0
26 63 366 0
208 226 -230 0
48 139 -266 0
-265 316 381 0
60 -197 243 0
124 191 -389 0
94 -207 -227 0
-141 -303 327 0
100 -177 198 0
-39 -195 -342 0
28 100 -289 0
135 268 337 0
175 206 325 0
-96 193 -277 0
-145 -184 335 0
-234 -341 -370 0
193 -219 -334 0
6 152 -180 0
141 264 -397 0
-140 333 -350 0
-23 345 -360 0
-145 -238 -371 0
-122 163 362 0
-109 -183 345 0
-247 351 391 0
-27 -87 265 0
7 -12 130 0
-55 176 -323 0
-19 233 344 0
62 -124 -314 0
1 -78 213 0
-162 166 369 0
-37 -248 386 0
58 -191 363 0
51 -245 -325 0
123 -157 372 0
39 101 358 0
162 -258 -358 0
75 281 330 0
12 103 -278 0
109 231 290 0
35 -90 -339 0
-110 -112 -353 0
-217 298 379 0
142 -159 231 0
-194 -388 397 0
-25 51 -200 0
-6 110 -238 0
71 79 400 0
167 348 -374 0
-34 162 -322 0
-40 100 120 0
44 -267 -369 0
154 -215 341 0
180 -239 251 0
-69 -176 -385 0
14 -122 -151 0
-79 244 348 0
7 139 -394 0
180 186 232 0
64 69 291 0
-164 284 -352 0
-13 -175 -333 0
9 -356 376 0
-120 137 191 0
82 99 116 0
-89 241 -341 0
87 -299 350 0
79 105 240 0
45 284 -346 0
157 -244 280 0
282 313 326 0
241 280 -347 0
42 -302 -311 0
-74 114 -252 0
74 -218 230 0
-40 -148 -223 0
-13 -247 -374 0
-32 98 252 0
54 94 -97 0
33 -65 -142 0
-36 -94 107 0
1 -308 357 0
-131 175 285 0
57 208 224 0
-5 220 275 0
-17 111 139 0
48 50 265 0
-16 67 -291 0
-46 -197 -308 0
-15 214 -335 0
10 272 -287 0
-81 -168 -351 0
-143 -222 -282 0
-119 251 -384 0
-9 67 231 0
-75 122 340 0
268 -287 -335 0
82 -188 -259 0
-23 255 329 0
32 166 398 0
-267 275 308 0
-52 61 -351 0
-16 -357 -397 0
26 -123 341 0
-146 252 334 0
182 -244 272 0
-104 266 303 0
-86 -274 -363 0
74 82 370 0
-202 -325 -395 0
6 -130 242 0
-13 71 283 0
74 -331 369 0
-4 -82 380 0
-128 180 269 0
-17 229 -381 0
140 -196 313 0
41 148 162 0
32 -155 -345 0
-44 51 235 0
132 -206 -346 0
-53 -204 232 0
84 -114 255 0
128 144 243 0
95 324 373 0
-63 -264 -367 0
-13 363 394 0
95 -140 290 0
6 -281 373 0
74 -97 121 0
-232 265 -291 0
-161 -279 353 0
-252 295 364 0
325 328 -384 0
-131 -225 334 0
44 117 -245 0
77 352 -376 0
-215 218 -368 0
-69 237 322 0
18 -190 -363 0
-76 -135 195 0
240 -353 -380 0
49 81 -235 0
-143 -387 -388 0
8 251 310 0
-262 376 381 0
-105 -145 -202 0
14 289 376 0
-100 234 259 0
54 107 388 0
-153 -370 383 0
174 -187 381 0
2 -300 -328 0
-192 -361 -391 0
-235 276 -354 0
84 218 -355 0
142 177 310 0
-37 -99 -387 0
15 -56 162 0
-2 357 365 0
-38 215 -340 0
119 -294 -398 0
118 -150 158 0
-12 -92 -198 0
-239 -289 -346 0
74 290 365 0
-130 -289 -298 0
-162 -172 348 0
-61 -218 -249 0
-96 -221 249 0
-50 -250 280 0
61 388 395 0
109 274 329 0
-210 297 -349 0
-110 375 379 0
-114 176 -291 0
-70 -85 -179 0
90 207 234 0
-45 323 -376 0
-310 -325 331 0
-13 -42 99 0
-56 -73 -292 0
11 55 229 0
196 -198 255 0
107 -309 385 0
-2 -147 -228 0
-21 -242 294 0
95 114 -300 0
93 -345 -358 0
28 -133 -254 0
4 -151 272 0
128 -172 -275 0
-201 208 -310 0
-164 223 225 0
5 40 391 0
-150 -271 -272 0
-74 -75 358 0
-20 -27 287 0
-89 -338 361 0
251 -326 389 0
-72 -260 -339 0
-67 -183 393 0
120 -171 -398 0
139 189 386 0
335 340 -345 0
-29 -272 -329 0
-152 -319 -350 0
-52 -87 123 0
-232 -252 -339 0
-138 -344 399 0
267 -319 -339 0
-153 247 -308 0
74 195 273 0
10 34 -98 0
-183 236 315 0
85 202 229 0
50 177 268 0
216 247 -380 0
7 -32 175 0
-29 307 328 0
-51 -219 240 0
162 -176 -252 0
5 154 216 0
-41 203 236 0
-4 328 -389 0
-7 163 -170 0
100 276 -395 0
199 200 222 0
37 88 163 0
-93 120 230 0
225 363 393 0
-35 -140 -197 0
1 64 -133 0
149 -249 -301 0
-159 217 278 0
20 81 285 0
25 304 -354 0
22 -157 -224 0
294 298 -308 0
-230 -288 397 0
-206 224 255 0
73 85 210 0
-76 -211 -293 0
135 242 376 0
147 197 336 0
258 282 297 0
-122 246 340 0
176 197 289 0
2 78 -374 0
-36 39 250 0
38 -218 -273 0
68 130 199 0
-135 -176 329 0
166 -346 362 0
38 -63 197 0
44 72 357 0
129 -199 347 0
18 312 349 0
135 -207 364 0
162 -333 -374 0
-43 113 336 0
-169 366 372 0
32 -184 376 0
-78 -247 -261 0
54 249 398 0
-45 126 -262 0
-186 -191 -337 0
102 -318 355 0
-52 -73 149 0
-188 200 -239 0
145 146 -267 0
-194 238 -297 0
-32 288 -315 0
157 240 -385 0
113 155 -386 0
-262 -302 -335 0
93 -99 330 0
-21 -53 -325 0
18 159 227 0
48 -93 193 0
34 -333 392 0
-80 -105 -366 0
-115 -181 357 0
-112 160 -296 0
-30 90 -167 0
26 191 241 0
1 -158 303 0
40 -79 150 0
92 311 359 0
149 -261 -307 0
6 181 -357 0
-82 105 -393 0
25 -200 210 0
-159 -199 -212 0
51 181 304 0
-11 -167 -263 0
-11 -249 -385 0
-88 -178 -314 0
-22 -49 -245 0
-2 -132 -185 0
24 -52 369 0
65 157 -302 0
172 206 279 0
96 -292 390 0
160 -311 314 0
47 125 212 0
-188 -218 304 0
-12 -34 -391 0
-117 -234 369 0
-52 289 -326 0
40 -293 367 0
1 26 -47 0
-184 -217 389 0
-80 166 -340 0
52 60 141 0
240 389 391 0
192 -234 -290 0
-74 -217 369 0
-226 247 -294 0
10 -279 295 0
-98 -243 255 0
18 -38 -176 0
-121 357 398 0
-213 336 400 0
77 181 370 0
109 245 -343 0
-25 186 301 0
-18 167 -280 0
10 -253 255 0
16 -216 -343 0
-163 -331 -333 0
-166 -226 337 0
93 122 152 0
169 -337 353 0
31 90 147 0
-26 37 -387 0
76 183 377 0
99 242 319 0
-18 -119 330 0
72 -147 -387 0
-11 95 292 0
71 168 -216 0
-8 103 121 0
220 -333 336 0
-159 346 395 0
25 281 -299 0
6 -46 198 0
-215 -288 318 0
63 106 283 0
26 -362 398 0
-228 240 -368 0
-175 -191 352 0
24 -166 204 0
192 284 316 0
-19 191 305 0
-138 -237 286 0
-46 90 179 0
-127 -228 287 0
90 -136 -346 0
-35 -36 -256 0
-17 203 -356 0
-160 331 -357 0
284 -302 -370 0
-120 215 375 0
-52 167 -173 0
341 357 -359 0
-30 183 213 0
-247 -311 -333 0
-98 -309 332 0
84 127 -364 0
202 310 393 0
54 265 278 0
-141 -197 -363 0
-36 -150 -378 0
-129 203 308 0
-53 114 -366 0
6 -105 -389 0
88 -189 -319 0
22 290 -383 0
290 313 385 0
-2 -233 -337 0
158 -283 369 0
353 -354 357 0
-177 230 -399 0
85 -294 -313 0
-76 -208 -229 0
-85 -188 -309 0
-17 48 -182 0
31 -104 -205 0
-14 159 -346 0
-124 -259 299 0
134 350 374 0
73 -330 395 0
43 215 244 0
-163 -314 -352 0
-15 -185 -285 0
98 -180 249 0
91 -159 -343 0
-348 -359 -381 0
215 357 394 0
-16 -32 -293 0
-30 90 262 0
-31 85 -174 0
260 -295 321 0
97 -154 -201 0
46 222 -352 0
-5 -150 -210 0
206 -276 -350 0
97 268 271 0
272 309 -365 0
55 58 -281 0
-81 -213 369 0
-71 72 -282 0
-111 -189 372 0
54 -95 109 0
49 132 -194 0
-183 -206 382 0
55 72 -311 0
-35 -168 -363 0
156 -216 372 0
-85 180 -379 0
25 -121 -304 0
-44 -132 -375 0
153 167 -217 0
45 283 -360 0
4 250 299 0
63 -85 -397 0
-67 226 -343 0
-102 -136 -246 0
-15 71 184 0
163 -165 348 0
146 -194 -337 0
99 -149 -181 0
-59 -157 -257 0
146 273 -388 0
-214 -239 380 0
-96 184 -254 0
107 -225 -366 0
96 160 377 0
-93 158 160 0
-13 235 -254 0
201 314 -383 0
-124 -203 -364 0
192 265 -365 0
189 289 380 0
11 -144 -254 0
-232 -277 389 0
250 -313 -381 0
211 -272 278 0
277 345 -348 0
75 -339 349 0
-98 149 -269 0
44 -131 260 0
-24 -122 -339 0
-54 237 -348 0
260 -263 -274 0
-13 27 280 0
36 127 374 0
-62 -251 -347 0
-234 -285 -389 0
2 373 -399 0
-109 -123 305 0
-80 -118 360 0
-33 271 -399 0
-121 -148 -388 0
30 221 224 0
-223 -229 399 0
105 281 -340 0
-30 -69 -163 0
-85 105 199 0
179 192 -395 0
-35 330 358 0
110 154 -259 0
94 207 222 0
-216 -229 -240 0
-12 300 -397 0
-114 -304 -369 0
53 313 -353 0
-10 75 -386 0
-3 -201 -327 0
-193 270 -384 0
-33 -134 274 0
111 -205 -353 0
23 79 84 0
-138 -160 -175 0
-66 240 -364 0
110 -168 391 0
-100 -180 -307 0
19 -299 313 0
-99 231 349 0
19 125 129 0
38 -195 -386 0
83 -103 -281 0
114 283 -295 0
59 -85 -171 0
-49 -158 275 0
-139 226 -389 0
-248 -265 -308 0
56 -165 -305 0
1 27 306 0
221 231 272 0
77 399 400 0
-201 316 -329 0
-90 -143 372 0
124 200 -234 0
172 237 -396 0
58 -296 338 0
99 -160 287 0
-24 197 304 0
-111 -153 -377 0
-357 381 385 0
-150 -217 -381 0
44 149 -188 0
17 -19 66 0
-7 29 347 0
-20 -244 -267 0
203 240 -393 0
88 149 281 0
279 323 -357 0
90 222 -266 0
108 109 178 0
162 219 339 0
-184 -243 -393 0
60 -214 -356 0
-150 174 319 0
-163 -183 219 0
-1 -54 -197 0
-7 218 -249 0
245 322 341 0
-108 184 -313 0
11 -139 -379 0
-248 -250 308 0
30 246 394 0
-99 -230 -380 0
-62 -283 -357 0
-208 293 -330 0
167 197 316 0
95 -156 -311 0
-28 209 327 0
163 218 -395 0
57 203 -229 0
-8 -293 -371 0
-91 -294 -334 0
-42 -53 74 0
41 252 -311 0
41 -115 340 0
77 119 125 0
-119 -210 -247 0
34 219 361 0
-212 -237 -308 0
79 164 183 0
147 225 -244 0
-117 240 -251 0
53 188 299 0
-102 210 -366 0
-240 328 -333 0
23 -63 334 0
-255 284 285 0
339 -386 -397 0
23 -109 -307 0
-5 67 165 0
-67 -104 -188 0
82 92 237 0
106 -114 389 0
-94 180 205 0
19 141 -283 0
-245 246 -262 0
-65 -110 -190 0
81 -207 -255 0
135 320 -389 0
108 -254 -348 0
24 225 -282 0
-191 -237 386 0
-32 -70 317 0
14 209 -276 0
-129 -177 -254 0
154 -196 361 0
-39 -170 254 0
42 205 -396 0
262 -310 -371 0
156 227 342 0
187 -385 392 0
139 151 201 0
62 301 -388 0
-187 314 -315 0
-77 228 -392 0
-189 216 257 0
-80 -242 351 0
85 -146 317 0
-212 -224 -342 0
201 -247 284 0
-60 317 363 0
8 -107 -162 0
14 -288 375 0
182 227 234 0
58 198 -317 0
-241 282 -331 0
-260 -272 344 0
-80 88 396 0
-150 177 299 0
-257 -321 351 0
84 -123 151 0
33 90 319 0
5 -47 -247 0
36 131 -320 0
-85 -226 -231 0
-69 89 -145 0
-8 -253 360 0
-62 -325 370 0
106 -250 308 0
-138 -267 357 0
-90 -123 268 0
64 109 385 0
-52 -197 -304 0
50 -144 -299 0
-4 -10 130 0
20 71 213 0
-30 205 -264 0
20 -299 -390 0
16 -105 292 0
-54 -63 278 0
-181 -211 -212 0
-124 -218 352 0
-69 125 -141 0
-57 -138 -383 0
99 -120 121 0
10 -20 -226 0
32 280 -287 0
38 311 -394 0
-4 -27 -64 0
142 -298 -370 0
-163 -238 -328 0
77 192 -353 0
67 -167 -305 0
-25 -161 326 0
81 99 328 0
-5 140 263 0
20 314 373 0
21 353 356 0
-100 -256 391 0
-226 -229 317 0
-34 -36 -77 0
103 -169 346 0
-166 195 229 0
34 -122 -398 0
14 -219 -307 0
225 228 346 0
-73 -239 -245 0
189 -275 -311 0
55 255 306 0
-37 225 -265 0
-226 -234 -338 0
-48 -228 -363 0
-19 -26 -196 0
-17 -239 -377 0
-102 -253 -388 0
-58 -252 -400 0
20 -223 -320 0
96 180 237 0
-176 -209 -387 0
-220 -282 352 0
-92 -255 -286 0
-52 112 -303 0
-34 -77 -264 0
-69 -186 -216 0
21 95 197 0
69 -220 -234 0
142 -245 -306 0
-141 -388 399 0
-47 290 -347 0
-83 225 267 0
116 -150 -324 0
-67 -266 -377 0
71 160 295 0
152 291 -362 0
-106 -218 321 0
121 -320 -332 0
77 -202 -368 0
12 -178 -179 0
-11 -99 108 0
296 -386 -398 0
148 -213 -373 0
267 -330 345 0
202 -249 251 0
84 -256 -321 0
-157 -206 301 0
207 252 -298 0
-61 174 232 0
-115 386 -394 0
-17 209 -281 0
7 -256 -326 0
-40 -72 -345 0
-103 175 366 0
58 -357 359 0
-237 -243 -351 0
-41 106 214 0
162 -359 375 0
-165 -171 -233 0
127 145 -296 0
-93 240 -378 0
-146 -219 -387 0
13 -83 337 0
129 167 -398 0
27 317 -337 0
-9 -272 277 0
-8 85 -282 0
-172 -216 -250 0
220 -267 -386 0
-8 -50 106 0
63 128 -167 0
-161 322 345 0
-105 -283 -336 0
-281 354 370 0
171 218 290 0
266 267 386 0
-72 -111 318 0
98 288 -302 0
35 -213 284 0
15 -57 -334 0
42 248 -331 0
-41 98 152 0
-49 -303 394 0
-71 -191 -342 0
-52 -145 330 0
74 -212 -336 0
-35 41 337 0
-151 261 376 0
-158 -223 301 0
-38 180 -355 0
3 -121 322 0
-74 -117 305 0
-20 78 -222 0
318 380 -395 0
32 -80 -233 0
-93 131 -362 0
168 279 -337 0
57 -281 -370 0
-247 291 -343 0
-198 -213 231 0
-112 -227 -241 0
-155 164 202 0
-139 246 -248 0
-255 327 340 0
115 -225 -291 0
-16 -187 -365 0
25 -207 -297 0
26 228 -239 0
-212 294 372 0
-190 195 223 0
133 255 -334 0
107 321 382 0
-180 -317 -335 0
165 -261 -353 0
-49 -315 -381 0
-87 -149 167 0
-42 49 73 0
192 235 -349 0
-75 -305 334 0
22 -24 93 0
82 -163 177 0
197 -273 -369 0
244 -266 -268 0
40 -145 -241 0
-63 160 332 0
-228 -252 -311 0
-195 -235 -375 0
-147 -159 -200 0
-98 -172 200 0
137 -155 208 0
-154 195 -205 0
-20 -134 370 0
90 -292 379 0
306 318 -396 0
-30 45 74 0
193 -326 384 0
55 192 355 0
-279 305 320 0
146 -233 355 0
97 -357 361 0
-82 169 -259 0
239 -269 310 0
109 248 376 0
121 123 285 0
-10 -111 -134 0
-282 352 -381 0
105 -355 -363 0
-159 -185 -214 0
126 -212 -313 0
154 -209 -227 0
-143 213 -245 0
170 -206 -366 0
-155 -326 -356 0
-2 33 61 0
167 -211 224 0
68 95 333 0
104 136 -199 0
126 -344 -398 0
-33 -60 238 0
27 206 -365 0
-120 -328 -398 0
-130 -306 -339 0
-248 -273 -291 0
122 124 -236 0
-54 300 -369 0
79 -201 -376 0
-227 248 -387 0
76 125 -144 0
-54 160 203 0
-21 -76 285 0
-82 -138 221 0
-7 156 -390 0
18 297 -347 0
68 186 -336 0
-117 189 -214 0
-89 203 -239 0
10 182 -231 0
170 172 182 0
-102 -125 221 0
35 -124 332 0
-168 -169 -292 0
17 -147 261 0
-38 -86 272 0
-139 166 382 0
-170 235 260 0
88 105 -302 0
129 -255 351 0
-99 246 325 0
-216 294 -377 0
-30 -78 226 0
-4 -33 111 0
216 233 -260 0
-22 -177 228 0
-79 135 -371 0
-137 143 364 0
-49 -216 261 0
-281 -285 363 0
259 -299 -323 0
65 -84 151 0
-16 318 -400 0
15 -211 386 0
-16 178 345 0
-146 -149 303 0
63 272 -347 0
-281 285 -315 0
-111 194 268 0
-25 -31 -336 0
132 -155 251 0
23 47 372 0
-111 131 163 0
-137 251 290 0
188 284 -285 0
35 166 -190 0
178 -377 383 0
19 121 186 0
73 -77 160 0
55 -252 375 0
86 -205 309 0
28 -211 -253 0
172 -280 -351 0
136 -214 -272 0
109 166 302 0
55 100 167 0
26 -43 111 0
21 287 -329 0
-79 155 -375 0
26 189 252 0
77 209 -318 0
-23 66 -343 0
-133 232 -374 0
232 319 339 0
14 -224 -342 0
164 -182 -247 0
-31 -117 -228 0
19 -201 211 0
202 -334 342 0
89 -234 -284 0
-42 -122 155 0
-65 84 -233 0
71 -313 399 0
-254 -263 297 0
-13 -185 290 0
-34 48 -159 0
-17 263 -364 0
13 -25 -88 0
2 10 -349 0
-17 -25 -119 0
2 170 242 0
-72 -121 153 0
-54 -216 -241 0
-209 -251 313 0
-46 177 178 0
-162 329 332 0
128 244 -336 0
-151 230 340 0
-16 -206 -320 0
179 -200 -389 0
-38 -219 -312 0
-211 272 -301 0
-87 142 355 0
-57 214 367 0
-174 -211 279 0
3 200 283 0
-89 268 386 0
-3 284 -328 0
106 -154 -202 0
-3 -77 397 0
-107 -140 223 0
147 159 -377 0
156 -185 389 0
-74 -187 381 0
210 -306 -323 0
116 -180 -400 0
-135 282 292 0
293 374 383 0
-7 163 -198 0
-6 364 369 0
1 -212 235 0
100 141 -288 0
228 -306 336 0
-13 -27 219 0
288 289 -297 0
26 -194 349 0
-81 179 -227 0
-24 -157 322 0
5 -348 -392 0
101 149 -176 0
10 286 360 0
71 -169 278 0
183 -216 -251 0
-72 -174 332 0
-107 -174 -364 0
-52 289 -363 0
-107 -209 314 0
223 -239 263 0
-150 -212 245 0
60 279 280 0
226 238 -353 0
172 298 -343 0
-41 -192 221 0
-43 -284 346 0
-74 97 -304 0
-155 263 278 0
-28 -127 280 0
-24 106 361 0
-51 124 369 0
-144 -175 386 0
-106 -303 369 0
97 251 279 0
53 263 397 0
14 -30 -142 0
-46 61 -307 0
56 -301 -307 0
-52 73 305 0
80 148 -185 0
-5 -48 -267 0
41 -350 -359 0
61 -146 380 0
12 -21 -236 0
-167 189 224 0
-81 144 -164 0
-218 381 -394 0
82 -207 -243 0
-198 286 315 0
219 -222 252 0
86 205 226 0
61 -315 384 0
-263 -270 -398 0
-84 95 -388 0
-22 215 394 0
90 163 213 0
-24 -61 -310 0
-38 -186 318 0
148 -227 241 0
-68 -85 -200 0
97 -129 372 0
-73 78 129 0
37 70 123 0
7 -41 -319 0
-138 -184 331 0
-3 132 225 0
-3 -61 156 0
86 139 276 0
-9 132 170 0
75 254 382 0
4 137 -310 0
-46 99 -258 0
268 282 370 0
21 107 -174 0
-171 -178 233 0
-66 320 325 0
120 -336 -379 0
192 -205 333 0
89 -106 -209 0
143 166 -229 0
-9 -106 -196 0
-24 106 133 0
-161 -276 333 0
80 93 144 0
-18 -83 -339 0
-20 130 -393 0
-179 -204 -252 0
-145 -221 -329 0
-7 122 -261 0
25 -156 370 0
95 -218 -295 0
152 271 -277 0
34 -175 358 0
64 -210 370 0
4 176 -231 0
-70 -204 341 0
125 -137 335 0
12 -124 301 0
-38 184 -229 0
-131 -145 284 0
-39 150 -313 0
-91 -220 -313 0
152 243 -299 0
21 253 -282 0
36 132 313 0
152 -206 -244 0
-234 299 341 0
54 -67 -241 0
-37 -109 -357 0
-26 -168 -332 0
-18 -88 120 0
162 -253 -273 0
196 -352 361 0
144 -201 331 0
209 301 -338 0
39 -56 171 0
-234 -299 -349 0
-277 -329 378 0
29 -63 -184 0
-54 -273 -295 0
-32 111 233 0
103 -290 -343 0
-6 -287 370 0
-9 -57 316 0
-146 -332 336 0
-104 300 393 0
10 -152 -289 0
-24 -41 -352 0
-25 -47 -346 0
5 298 339 0
21 272 -339 0
173 -189 -267 0
49 194 314 0
51 107 259 0
79 -165 182 0
-46 131 -358 0
67 324 -360 0
270 -339 -363 0
-110 206 262 0
163 -251 -322 0
-71 88 179 0
-69 176 -277 0
132 -218 257 0
-164 -350 -356 0
21 -148 381 0
137 296 329 0
-201 220 349 0
-89 167 -275 0
-53 -161 -389 0
-90 156 321 0
-73 96 -383 0
-152 284 -369 0
-10 127 140 0
-262 -307 -363 0
28 57 203 0
-129 -213 365 0
25 241 313 0
162 -238 381 0
90 -109 214 0
58 -188 -381 0
43 135 341 0
85 191 -282 0
130 -305 -306 0
98 -356 -394 0
-23 -248 361 0
81 -174 397 0
69 -276 394 0
31 190 -310 0
-8 -27 109 0
7 -121 -217 0
66 -236 348 0
36 -116 196 0
-73 -260 261 0
-58 315 -347 0
-44 -140 -398 0
-179 213 -236 0
-56 -192 -267 0
60 312 379 0
37 152 167 0
65 -88 362 0
-43 -294 385 0
-100 -141 -308 0
-16 -19 363 0
-10 -256 379 0
51 -346 363 0
56 284 383 0
122 126 -249 0
-166 -227 352 0
14 36 -319 0
101 -303 -346 0
-26 -220 -331 0
27 98 -204 0
5 146 264 0
-17 -153 -342 0
-107 303 347 0
-61 -168 189 0
-245 271 283 0
-82 128 386 0
8 53 -65 0
29 -353 -365 0
-33 354 364 0
-169 -200 -283 0
124 211 250 0
-10 -346 398 0
-32 -100 115 0
-15 -190 341 0
5 65 68 0
-119 263 -392 0
-31 -51 -74 0
61 -105 -298 0
-224 246 310 0
-119 307 347 0
-102 -167 377 0
22 254 -374 0
-82 -187 384 0
235 258 357 0
107 -212 -334 0
160 191 242 0
-161 -290 -323 0
110 179 361 0
-62 -186 381 0
53 -79 254 0
184 -267 -383 0
-113 -144 220 0
7 -56 319 0
-220 -222 -314 0
-44 55 -390 0
-94 105 229 0
174 293 -392 0
207 356 -382 0
177 267 -377 0
-113 -157 -393 0
213 -323 351 0
113 117 -326 0
13 280 374 0
-171 -236 390 0
73 -153 366 0
277 301 -325 0
-248 279 289 0
60 142 -321 0
-90 -242 295 0
22 -264 268 0
-41 116 -158 0
-86 379 -394 0
177 -263 342 0
205 -263 -270 0
29 -55 -82 0
-59 179 -399 0
-59 197 -320 0
-68 161 271 0
105 -192 -274 0
107 138 182 0
-187 -196 229 0
93 -314 372 0
-302 -323 355 0
-79 -188 -228 0
113 206 397 0
-57 165 -203 0
-360 367 -397 0
23 -76 -201 0
55 189 238 0
20 207 -306 0
166 255 344 0
258 259 345 0
-44 96 232 0
-286 322 -397 0
-70 -119 -201 0
52 -104 159 0
-91 -200 255 0
26 101 332 0
-65 -185 251 0
-45 254 327 0
240 -242 -390 0
-114 -304 -305 0
251 -351 -372 0
-133 249 279 0
-7 129 280 0
-7 -133 239 0
224 266 391 0
68 341 344 0
119 320 -378 0
64 -247 299 0
216 242 -339 0
99 -111 147 0
230 237 -382 0
1 95 -399 0
172 227 -270 0
24 53 -84 0
32 223 -229 0
-191 -221 -254 0
-10 -235 -386 0
-95 -123 -249 0
-50 -66 68 0
51 90 192 0
62 158 259 0
119 150 -216 0
-33 36 366 0
213 -362 373 0
-54 128 -368 0
-45 51 150 0
-44 216 -386 0
-276 -346 -398 0
-89 204 360 0
-192 251 339 0
81 -341 377 0
142 -164 -221 0
-163 -358 398 0
-70 -183 -275 0
151 -303 352 0
28 172 -229 0
43 68 -95 0
-143 -173 239 0
62 140 -164 0
263 -302 -386 0
-111 -270 -295 0
-115 155 -306 0
81 -187 -267 0
-4 -208 238 0
50 -267 -355 0
-209 -301 -400 0
76 181 198 0
244 -289 345 0
20 247 -333 0
50 77 302 0
-119 -309 -314 0
-32 -71 -120 0
-70 211 343 0
-26 153 316 0
27 253 298 0
225 229 354 0
-148 238 -343 0
-212 229 323 0
1 -53 -225 0
11 250 -363 0
-42 265 -388 0
-78 111 -269 0
-107 -259 355 0
123 249 392 0
-158 -376 379 0
17 35 -195 0
132 -286 354 0
-7 76 -299 0
67 -168 307 0
315 -342 386 0
15 262 -269 0
134 355 373 0
-179 -245 -250 0
28 -218 297 0
-19 -219 -243 0
-97 -161 292 0
-76 206 398 0
-139 -333 355 0
-64 260 -281 0
-283 -346 378 0
-87 236 394 0
-239 256 328 0
65 109 121 0
111 -331 342 0
-30 -217 381 0
-18 31 -329 0
177 -300 -310 0
34 -181 385 0
-49 -105 366 0
-5 85 -311 0
-15 -228 -312 0
-197 -322 -392 0
132 -332 -355 0
-107 244 270 0
28 -99 320 0
1 39 -333 0
285 326 -366 0
-16 164 328 0
217 257 -351 0
-124 -249 393 0
-146 258 -338 0
148 279 -356 0
-18 47 -140 0
104 224 -350 0
-82 -321 -378 0
46 -131 -137 0
1 266 336 0
351 -352 -355 0
-56 176 336 0
88 -159 397 0
25 -170 317 0
-97 275 374 0
-69 82 -339 0
-26 293 -320 0
179 259 296 0
248 359 -399 0
-1 32 -274 0
16 36 -185 0
-155 -175 -303 0
55 234 288 0
-18 150 330 0
-196 340 -400 0
59 -311 -365 0
323 336 -374 0
-86 223 318 0
-53 344 366 0
-185 247 373 0
125 -212 230 0
101 -122 351 0
-54 126 150 0
22 -144 -186 0
-49 125 -345 0
-143 168 -345 0
-131 -269 384 0
154 258 -308 0
-38 -157 -310 0
-346 -353 -398 0
136 156 318 0
-124 -175 -261 0
-60 76 -160 0
-135 -290 -315 0
-178 -183 -223 0
9 -160 -198 0
47 -152 -241 0
22 330 -393 0
83 228 258 0
-103 209 -291 0
83 123 -194 0
-39 -135 -148 0
146 194 351 0
-124 133 -202 0
-11 167 -183 0
77 -108 -379 0
124 338 -351 0
-102 -247 -262 0
334 -341 -372 0
158 181 358 0
-179 288 370 0
-16 -194 333 0
5 82 -182 0
90 -191 377 0
107 209 270 0
3 183 -353 0
113 237 276 0
-189 -233 -330 0
35 121 162 0
-174 305 -383 0
-6 -170 180 0
-10 -290 304 0
45 -174 292 0
-242 261 398 0
-126 141 -369 0
33 -100 156 0
-6 20 60 0
-1 202 -350 0
33 -338 392 0
86 199 341 0
87 -103 -356 0
-103 146 -260 0
-204 -294 -388 0
-4 53 -247 0
-50 -172 -271 0
51 -116 191 0
-120 166 -367 0
32 205 -351 0
70 -202 242 0
-80 206 354 0
-59 364 -389 0
-143 158 320 0
198 -266 -307 0
-189 321 -332 0
-16 -186 -258 0
227 -369 -399 0
95 197 -226 0
-38 -226 305 0
-46 -269 -318 0
90 134 263 0
108 135 189 0
183 -273 334 0
-159 305 370 0
18 -115 375 0
-144 -194 222 0
204 302 331 0
-53 -223 280 0
83 -114 233 0
72 124 -354 0
52 -240 -324 0
4 -306 -316 0
-25 76 -294 0
-66 168 -285 0
-19 -100 -272 0
296 -372 -386 0
-220 -312 -346 0
-168 -193 -400 0
60 311 335 0
-34 271 -331 0
154 -171 -341 0
-23 256 -346 0
-159 -271 351 0
-65 -138 -215 0
167 -337 -342 0
228 298 -305 0
-39 -64 350 0
57 -141 -241 0
-121 220 -306 0
79 114 -173 0
-95 -173 -356 0
10 -295 342 0
-30 -68 -219 0
-121 -254 264 0
222 226 -341 0
-77 111 -375 0
118 -194 347 0
-167 -174 -196 0
-67 149 -202 0
-220 231 -274 0
-184 -315 327 0
-58 216 224 0
-67 -164 362 0
-9 26 -126 0
-16 -101 344 0
-173 -193 -281 0
-66 120 -247 0
298 325 400 0
69 210 -272 0
-253 293 -353 0
-75 97 290 0
50 158 -258 0
12 -83 -391 0
105 -117 325 0
73 -190 -357 0
-11 -20 -50 0
-142 -313 -383 0
-59 137 -199 0
-1 15 149 0
-142 343 371 0
114 280 -307 0
-69 -94 211 0
89 -303 361 0
62 166 372 0
98 180 398 0
-74 -286 -316 0
40 64 -92 0
136 -157 -194 0
-113 239 265 0
103 134 338 0
-17 22 -331 0
7 -279 365 0
-189 -233 326 0
154 244 347 0
200 -217 257 0
102 206 248 0
-217 -251 358 0
82 -234 320 0
115 -342 378 0
177 233 317 0
106 -217 -364 0
-65 229 -383 0
-261 305 330 0
-26 -157 -317 0
-63 136 -230 0
-94 -199 340 0
124 -240 336 0
-114 -163 368 0
-54 -104 -155 0
97 -122 197 0
-178 -254 -386 0
39 -296 -375 0
44 150 -324 0
126 203 -300 0
-4 -149 -280 0
-116 223 -334 0
-237 274 335 0
-21 33 -89 0
