c F2 random 3-CNF cnfgen RandomKCNF(3,350,1750,seed=9) m/n=5.0
p cnf 350 1750
-192 238 314 0
-4 174 -347 0
-21 284 -316 0
81 87 217 0
68 -260 303 0
105 -150 346 0
-108 -137 204 0
3 -103 -211 0
-13 72 122 0
63 -102 297 0
43 69 -277 0
102 -216 276 0
48 297 328 0
28 -139 285 0
63 122 -207 0
268 -303 346 0
188 -232 300 0
-10 195 -295 0
-58 -110 -114 0
-46 158 323 0
-14 -196 -287 0
-34 128 290 0
-191 206 -262 0
16 88 -133 0
62 85 311 0
-32 -107 231 0
-73 -146 182 0
45 152 -285 0
-73 232 -288 0
-254 306 312 0
66 142 271 0
7 -104 -114 0
-280 287 303 0
-247 281 304 0
-224 298 -300 0
33 71 -115 0
31 233 -251 0
-119 -125 235 0
19 306 -319 0
36 209 302 0
44 93 -312 0
-241 281 320 0
44 -165 -171 0
-77 198 303 0
-119 179 344 0
56 57 114 0
43 191 -331 0
-103 268 321 0
3 132 -266 0
12 -130 313 0
129 162 -244 0
20 -68 -154 0
4 -49 -155 0
-127 -214 -310 0
107 -205 -221 0
-237 -239 -313 0
96 -169 206 0
88 163 279 0
71 -187 -338 0
-307 311 -344 0
-10 -39 343 0
166 -258 264 0
106 146 274 0
22 -47 162 0
-50 -207 261 0
-183 184 -261 0
94 198 291 0
-11 -143 157 0
-74 -140 146 0
-76 92 -170 0
14 177 -297 0
69 -108 175 0
-104 264 292 0
182 -191 -255 0
224 238 324 0
-44 182 -301 0
96 -270 272 0
15 -29 -89 0
-67 153 170 0
-126 208 -233 0
74 -89 295 0
17 -195 -204 0
93 -247 -341 0
-130 192 314 0
-31 -271 332 0
-8 102 -106 0
116 152 -159 0
-140 -190 327 0
15 284 349 0
-10 -25 -108 0
39 -181 -286 0
31 -91 -125 0
-99 -328 340 0
-83 -161 -280 0
-148 224 273 0
184 -338 -349 0
187 -192 232 0
-33 -61 -332 0
10 -159 -223 0
100 242 300 0
5 150 266 0
-53 -226 313 0
-38 269 -270 0
-94 -102 -157 0
-161 259 -330 0
-42 46 -209 0
84 -273 -301 0
60 -255 -275 0
-41 292 -299 0
-4 -169 -262 0
-83 -90 -163 0
42 -146 -167 0
-31 202 -312 0
-120 -212 -232 0
22 108 262 0
-41 48 -340 0
28 149 229 0
50 -62 -137 0
103 -115 134 0
-138 209 -341 0
46 131 137 0
196 -307 -311 0
-55 -63 -308 0
69 -114 173 0
-1 -44 -56 0
-113 331 -348 0
132 -175 299 0
106 -137 151 0
14 122 290 0
-37 313 -321 0
-144 302 -335 0
56 77 -144 0
-4 134 -272 0
1 -61 332 0
-181 268 338 0
173 341 347 0
5 -99 205 0
-27 -98 350 0
108 224 282 0
42 -111 164 0
-141 294 -340 0
30 -74 132 0
-9 74 169 0
-14 28 -297 0
38 -68 -100 0
-163 230 307 0
139 -227 241 0
-73 82 -230 0
-96 172 192 0
34 -70 -189 0
-62 -142 257 0
-112 -150 -204 0
36 79 -102 0
-35 -233 303 0
-94 172 227 0
120 -136 -234 0
27 -107 220 0
-57 208 -335 0
-10 127 -177 0
-26 -93 -187 0
-14 -151 -284 0
9 97 -161 0
182 -200 -305 0
248 -340 -347 0
126 -188 290 0
-159 -218 304 0
-106 -199 -260 0
94 175 280 0
103 174 229 0
-121 177 348 0
63 152 257 0
-108 119 257 0
52 -158 197 0
116 -230 -258 0
-1 -25 144 0
308 327 335 0
87 -113 -160 0
54 197 -234 0
8 278 345 0
-25 55 -318 0
24 27 -60 0
-112 301 310 0
28 -88 122 0
-14 -106 -283 0
13 43 146 0
-46 129 -162 0
10 -37 320 0
51 63 303 0
-25 103 320 0
5 -242 -302 0
-171 215 -254 0
55 -170 185 0
-80 -235 254 0
-40 78 135 0
51 -193 276 0
111 124 312 0
18 -212 -235 0
76 301 321 0
-254 -323 -347 0
-243 -273 350 0
238 256 -270 0
20 34 332 0
76 -116 237 0
90 -219 263 0
212 295 334 0
-53 -97 257 0
17 127 -346 0
-38 206 334 0
47 185 -195 0
98 -165 -332 0
-175 -178 222 0
-169 309 -346 0
-90 234 294 0
-88 -203 298 0
48 -141 294 0
-23 112 -224 0
68 -120 -239 0
115 237 -344 0
-208 -218 -324 0
203 -230 -345 0
-20 35 94 0
-224 259 -346 0
61 -97 202 0
24 173 -342 0
-237 -277 340 0
142 -179 331 0
58 -138 -237 0
107 114 -216 0
21 -164 -223 0
33 -170 336 0
19 -156 -210 0
-16 -99 123 0
-200 205 261 0
-323 342 -346 0
155 219 257 0
-149 -223 258 0
-54 -82 -123 0
228 242 -293 0
78 84 -145 0
16 212 243 0
123 140 160 0
-23 -157 324 0
-95 -317 346 0
25 146 -332 0
-27 -128 308 0
-62 -92 -192 0
-24 -61 -68 0
-46 -103 -329 0
-40 -51 -122 0
89 228 295 0
29 -242 -284 0
-142 245 -282 0
126 142 -300 0
8 -110 159 0
-190 295 330 0
-73 -238 297 0
137 -157 -244 0
-193 197 229 0
-186 204 222 0
139 233 -280 0
-6 25 64 0
-91 -101 321 0
52 263 -294 0
46 -166 347 0
53 -114 -272 0
165 -299 -330 0
150 -288 -305 0
-10 78 226 0
-19 73 137 0
19 113 175 0
109 119 -331 0
118 189 -202 0
-8 -187 266 0
-46 -308 -309 0
118 -245 331 0
-16 -138 -322 0
-44 -114 -297 0
-71 111 -254 0
-8 253 -273 0
141 -161 -288 0
3 243 258 0
37 -118 348 0
-96 -268 -335 0
-84 -97 287 0
239 246 330 0
17 -97 -260 0
138 174 -197 0
14 -56 -345 0
50 70 -279 0
136 219 -278 0
-144 174 -228 0
-18 -198 -204 0
-109 184 -251 0
15 105 -233 0
-18 157 215 0
-89 114 -262 0
-155 184 -302 0
-30 -203 226 0
-196 -250 -271 0
42 -164 -313 0
247 286 301 0
-117 119 -158 0
141 216 237 0
66 -159 282 0
21 -147 -272 0
85 -212 269 0
-82 -194 313 0
166 -240 -243 0
60 -91 155 0
200 306 329 0
-18 152 192 0
-195 -216 -289 0
113 -238 348 0
65 -273 -287 0
-65 -119 -305 0
-256 282 -294 0
180 183 -189 0
-7 -215 232 0
30 -98 324 0
86 -229 -318 0
261 -276 -324 0
6 259 -265 0
-16 -329 -349 0
216 230 299 0
121 174 -243 0
103 302 -335 0
138 -214 262 0
-68 -175 296 0
93 -163 -183 0
19 -21 -208 0
-29 202 -238 0
-156 -171 -287 0
133 -189 -235 0
-31 321 339 0
44 68 -310 0
-133 -182 -250 0
-109 -253 -272 0
44 61 219 0
160 170 -176 0
-32 -156 229 0
-48 -126 346 0
5 30 -340 0
12 -269 317 0
-91 187 345 0
131 197 263 0
45 -82 -200 0
195 -246 -323 0
-25 185 254 0
-243 -286 -287 0
-18 59 331 0
248 -315 -344 0
101 140 273 0
-12 205 -233 0
75 -292 -302 0
65 209 273 0
-52 314 -333 0
-268 -280 -337 0
133 -267 -292 0
4 -94 331 0
-223 -282 -349 0
-64 -286 -341 0
-24 30 203 0
14 -246 -273 0
-89 265 296 0
-126 129 305 0
23 136 -158 0
-11 72 -87 0
-8 84 151 0
-159 239 -243 0
-175 -299 -316 0
42 178 -202 0
47 -170 220 0
-203 -213 343 0
-61 318 337 0
40 107 327 0
43 -195 219 0
63 143 144 0
157 237 -251 0
-35 -155 -266 0
-133 -291 -311 0
105 225 -292 0
-86 149 -183 0
-21 -128 181 0
87 273 283 0
3 149 -311 0
14 -209 227 0
35 -215 -341 0
-135 211 248 0
237 257 -276 0
-35 167 -250 0
114 163 202 0
94 295 324 0
-62 -64 282 0
145 -158 -324 0
-31 -201 209 0
-264 290 -294 0
-120 146 -326 0
-71 -269 291 0
-51 -290 342 0
-75 150 -274 0
-12 36 -148 0
-83 -171 -218 0
-13 71 -265 0
-37 177 -198 0
67 -168 -282 0
-87 -275 -280 0
41 -112 183 0
96 -107 199 0
-51 295 -301 0
7 48 -258 0
-21 -62 165 0
129 -146 -173 0
65 -189 -300 0
-59 -154 321 0
6 225 -306 0
-120 -200 297 0
245 285 -311 0
-115 -164 179 0
79 -96 252 0
-268 -284 -342 0
-63 -264 -341 0
-38 -75 -341 0
-98 122 321 0
-64 -288 -298 0
18 -96 122 0
51 57 -88 0
150 292 349 0
56 -129 281 0
163 170 236 0
50 136 343 0
-36 102 -314 0
248 270 -288 0
-44 -120 186 0
65 -88 111 0
172 -217 317 0
-231 287 -347 0
2 200 -234 0
66 -157 278 0
121 -172 240 0
6 60 -80 0
-76 149 -257 0
-110 119 225 0
12 -33 -155 0
11 107 248 0
160 -248 -337 0
-200 -223 -262 0
-187 258 -293 0
-14 87 -166 0
84 -139 166 0
-92 295 -343 0
-147 186 226 0
51 305 -315 0
-140 -236 -286 0
110 -157 -193 0
97 217 314 0
-25 -81 341 0
157 -188 294 0
-160 -167 -168 0
52 77 292 0
110 223 232 0
-64 120 -121 0
-11 -71 176 0
-95 96 -230 0
137 -263 310 0
-204 282 -295 0
-80 96 -191 0
-71 162 310 0
-41 -88 331 0
23 -208 321 0
1 -184 278 0
-48 110 235 0
-70 115 -285 0
19 -147 279 0
28 64 -324 0
126 -160 166 0
18 -159 350 0
-197 213 247 0
6 57 94 0
79 124 -175 0
-23 130 -265 0
42 -234 -317 0
-98 -154 214 0
-235 -271 -293 0
-208 211 226 0
123 -124 261 0
47 -174 -207 0
256 282 -336 0
183 -232 -349 0
-65 -130 171 0
15 -44 304 0
27 -119 125 0
157 158 -277 0
212 308 313 0
56 -188 -259 0
24 327 333 0
-188 -200 211 0
-107 -263 -312 0
-197 272 -307 0
-172 -237 305 0
230 -248 263 0
85 260 293 0
120 -137 -305 0
-74 337 348 0
151 -326 341 0
-24 83 -301 0
-7 -19 346 0
-126 128 -309 0
-19 239 337 0
135 -244 -267 0
5 98 129 0
40 -282 -306 0
-212 275 348 0
-41 233 -238 0
-162 -174 -345 0
-22 204 224 0
20 -61 220 0
7 81 -157 0
56 -209 -334 0
100 -182 -224 0
-28 -88 -331 0
42 -283 286 0
-35 287 -325 0
5 71 322 0
4 67 325 0
-130 -283 302 0
-11 27 195 0
181 199 287 0
-138 -179 310 0
-80 -233 269 0
-117 130 -254 0
-215 233 344 0
-142 -242 -327 0
78 -92 -183 0
214 -226 314 0
49 155 320 0
-278 287 -321 0
80 -256 -342 0
256 309 343 0
193 243 -259 0
-99 -148 212 0
-192 313 317 0
68 -86 178 0
-91 -94 -169 0
-31 -96 323 0
149 -171 336 0
-39 -42 333 0
30 225 -231 0
-24 -237 285 0
-142 164 -196 0
-33 140 -142 0
-231 -310 344 0
-133 -330 -334 0
-54 -125 -272 0
111 240 -252 0
-66 90 -318 0
-24 -196 -314 0
-21 58 -248 0
-8 75 -321 0
36 225 -241 0
23 80 268 0
34 -169 -345 0
14 86 -158 0
97 -198 -215 0
-23 -85 108 0
-30 -67 267 0
-16 -50 275 0
88 149 347 0
27 -197 237 0
49 220 267 0
-98 161 164 0
-17 37 133 0
25 -33 219 0
129 271 -281 0
73 -168 185 0
-42 -268 -279 0
-5 89 -289 0
-198 -260 312 0
-205 293 -296 0
84 -105 -136 0
-132 -148 -284 0
229 -252 262 0
-64 119 220 0
-85 196 -291 0
-141 170 -179 0
-40 148 282 0
50 -259 345 0
46 -145 -331 0
36 124 -308 0
-150 245 -273 0
30 -132 -139 0
-56 98 273 0
121 -209 -223 0
-257 -263 295 0
-18 173 295 0
143 147 -183 0
24 -259 276 0
-16 234 -244 0
45 57 257 0
-92 -197 289 0
65 303 -347 0
165 -221 -239 0
97 -103 232 0
-15 -28 88 0
219 225 -229 0
75 -111 -135 0
51 99 -202 0
-42 134 -172 0
144 209 -268 0
42 46 -119 0
85 -125 -305 0
-2 155 -324 0
-7 -203 249 0
144 289 332 0
123 -232 -276 0
53 -59 -111 0
-164 -240 296 0
-92 134 -141 0
-37 -136 -341 0
-141 164 -213 0
25 208 -322 0
-58 64 -120 0
-63 -247 341 0
201 -222 -332 0
126 -250 298 0
96 145 296 0
231 -306 -338 0
155 -265 299 0
-29 271 -296 0
-20 99 142 0
-28 -62 240 0
173 178 312 0
-133 187 -292 0
253 -279 347 0
97 -140 -162 0
-143 -248 -250 0
83 101 -127 0
-107 172 -338 0
40 -116 -154 0
19 61 94 0
20 174 -316 0
2 12 -279 0
69 175 326 0
98 235 309 0
-25 -174 -251 0
79 247 -284 0
-75 -156 -185 0
-28 94 -138 0
-84 119 129 0
-7 -52 -75 0
190 -210 -215 0
189 -260 323 0
70 -253 -294 0
-109 -185 -309 0
-67 100 -319 0
-19 117 182 0
-47 -171 -197 0
-19 -185 286 0
-54 -163 167 0
-297 -316 342 0
192 -255 289 0
22 39 268 0
21 -90 -148 0
108 -231 -325 0
225 -266 341 0
4 161 -343 0
-71 78 301 0
47 -84 -92 0
157 219 -266 0
15 -113 -150 0
-38 -225 267 0
-27 -166 -213 0
100 196 218 0
131 205 -212 0
-9 -163 334 0
-37 241 -276 0
98 203 219 0
30 -254 -279 0
88 -143 330 0
-278 301 -337 0
-93 -131 -210 0
-16 -23 142 0
108 297 305 0
-71 112 235 0
-64 -115 162 0
-71 89 -338 0
63 208 249 0
-5 32 -226 0
-13 -62 -123 0
126 205 -226 0
-26 88 -171 0
132 -286 -304 0
-120 187 -275 0
14 -110 -215 0
88 174 199 0
47 -53 73 0
85 -173 -320 0
-9 235 342 0
92 -174 190 0
157 -213 278 0
-23 119 194 0
-76 -303 321 0
50 -164 -258 0
163 -233 -261 0
220 238 -239 0
-79 234 -329 0
-55 236 331 0
51 72 -313 0
-85 -169 -300 0
-228 -305 -327 0
-126 137 344 0
37 -93 -333 0
21 -110 -251 0
40 103 277 0
97 106 346 0
-122 176 226 0
186 212 256 0
205 -268 297 0
-72 137 -258 0
36 78 -129 0
-53 75 -276 0
-26 -262 -293 0
-24 81 -316 0
-62 70 81 0
-85 -120 -249 0
9 79 -97 0
-165 -183 -217 0
-31 -72 -309 0
210 313 349 0
103 -195 -350 0
15 261 307 0
-184 277 295 0
-6 -86 -125 0
-8 -153 308 0
71 -72 -132 0
152 170 -237 0
93 294 -311 0
-62 141 185 0
-143 -200 -329 0
161 -242 259 0
-134 -140 239 0
194 257 295 0
150 -283 321 0
11 -21 90 0
-82 157 -221 0
45 168 -179 0
-2 154 -283 0
-91 -188 -348 0
75 -194 318 0
20 -82 -333 0
-33 145 179 0
62 94 97 0
237 265 346 0
-85 113 -337 0
100 -137 229 0
199 -213 279 0
-88 166 -193 0
18 156 185 0
-59 -93 -292 0
-154 204 -256 0
105 184 -214 0
4 218 254 0
74 -231 -269 0
90 260 281 0
-140 249 -278 0
88 264 317 0
46 127 214 0
100 -120 171 0
100 -155 -233 0
43 -80 142 0
127 265 -285 0
63 -67 250 0
-13 -54 -126 0
131 -141 -267 0
-67 130 243 0
67 90 -267 0
-258 317 -343 0
-202 301 302 0
59 295 -343 0
-1 -37 -170 0
119 199 227 0
-27 -39 -342 0
109 218 -300 0
-22 -117 -152 0
-99 -242 -275 0
3 106 -201 0
-170 -227 247 0
-121 219 -223 0
-58 -95 -338 0
150 -241 263 0
250 256 314 0
5 48 -337 0
-60 234 -316 0
-203 263 -330 0
-137 289 -350 0
24 -67 -189 0
93 -190 258 0
-190 194 -305 0
100 202 208 0
168 220 -349 0
-166 -175 268 0
-13 87 250 0
131 -154 -164 0
143 -199 -341 0
40 -64 142 0
-127 168 340 0
-100 129 306 0
116 -224 238 0
-152 -203 336 0
-100 128 238 0
-92 212 242 0
6 55 175 0
-35 -160 -249 0
72 -258 315 0
194 -269 348 0
-98 -274 -284 0
18 -27 -184 0
60 69 201 0
208 229 -307 0
-16 91 -182 0
-119 243 288 0
-189 -210 -242 0
95 280 337 0
22 -129 -237 0
-25 70 -200 0
244 265 337 0
-18 70 344 0
247 -298 310 0
-211 296 345 0
129 256 -294 0
-200 252 -314 0
-41 133 188 0
62 -199 296 0
-185 214 303 0
-3 82 -160 0
-31 65 -326 0
10 53 -89 0
-58 -297 304 0
-27 -117 -276 0
50 -85 349 0
49 -56 -239 0
62 133 141 0
-165 -194 -343 0
105 -194 274 0
32 -89 -295 0
78 -98 -339 0
47 -216 308 0
-143 298 332 0
2 126 182 0
-40 -138 205 0
-14 -188 292 0
161 -181 -241 0
-45 71 233 0
202 -226 -317 0
102 -218 338 0
7 -51 -122 0
-71 88 160 0
-96 103 -279 0
-43 -80 -97 0
15 -28 54 0
47 -184 -200 0
60 -97 -336 0
81 -89 330 0
72 -123 -139 0
-178 -306 329 0
-72 141 227 0
154 167 -216 0
146 -149 -154 0
157 -291 312 0
-26 -48 274 0
-34 -66 -154 0
6 45 -249 0
-88 291 297 0
-38 323 332 0
-94 -165 -245 0
-5 135 -226 0
98 120 272 0
2 229 -317 0
100 277 288 0
-28 93 -338 0
-106 -197 -301 0
155 172 -317 0
33 252 -272 0
41 -164 -288 0
159 256 340 0
61 72 -327 0
-45 -72 74 0
-259 -282 -289 0
-45 -93 -330 0
21 -123 -302 0
3 235 -310 0
-84 -178 -189 0
269 -270 -281 0
173 -216 -295 0
247 -257 -284 0
-189 -269 -331 0
-19 -166 -265 0
-38 -249 337 0
-144 177 197 0
-139 198 209 0
121 -170 -176 0
166 -182 225 0
67 -214 -347 0
29 211 349 0
24 81 -214 0
90 -95 193 0
-1 194 -302 0
-44 81 336 0
-19 -121 151 0
2 108 166 0
-43 65 -341 0
-9 47 -53 0
64 -135 -259 0
49 -64 -214 0
62 206 341 0
-82 -88 -99 0
126 -210 278 0
-106 -230 -328 0
27 -143 -317 0
147 -289 -308 0
28 110 269 0
189 336 -342 0
35 51 278 0
37 145 -193 0
236 237 260 0
-61 -79 -177 0
-192 277 -281 0
-28 -160 -274 0
103 -275 319 0
-154 -249 -286 0
-36 -222 343 0
-88 -253 -278 0
-7 -140 291 0
-110 -301 -314 0
-93 169 -179 0
43 -64 -247 0
-101 -127 236 0
225 -280 288 0
25 57 -82 0
164 -200 -303 0
-204 214 283 0
271 306 -332 0
166 -286 326 0
-52 -92 -191 0
-65 -83 -166 0
70 135 -252 0
-135 -223 297 0
-71 -79 297 0
-188 189 -229 0
211 241 285 0
-71 -146 -287 0
119 -179 -207 0
239 -336 -350 0
-81 87 -123 0
-5 27 -59 0
12 -209 310 0
172 -189 306 0
87 -88 287 0
-133 -163 -170 0
3 137 198 0
83 87 297 0
16 24 348 0
-51 267 -295 0
62 77 108 0
-25 87 300 0
-83 -207 335 0
46 206 -315 0
-112 128 242 0
-67 195 -240 0
-118 -140 321 0
48 61 96 0
23 135 -241 0
-38 136 313 0
-118 -165 183 0
-26 -30 -346 0
-254 277 -330 0
80 107 -166 0
-124 175 311 0
40 199 331 0
91 225 257 0
-119 -140 -306 0
-162 -269 349 0
5 101 260 0
-68 -129 -235 0
-192 -233 -325 0
-8 -159 -320 0
-39 226 -293 0
-58 129 160 0
72 -122 -123 0
57 -73 -148 0
-116 197 -222 0
168 -271 -280 0
-10 19 -298 0
30 -118 -151 0
-179 -195 -256 0
174 278 -344 0
-16 284 302 0
-68 -134 -326 0
118 203 -226 0
12 -32 -323 0
-101 131 315 0
119 -180 -210 0
-45 236 -306 0
181 -253 -293 0
-54 -120 344 0
-43 -65 -347 0
-114 -185 -322 0
178 -198 -215 0
91 190 342 0
-37 322 329 0
26 35 -197 0
125 272 -278 0
50 143 -260 0
190 -276 -346 0
-22 -197 -211 0
-101 169 305 0
208 -233 266 0
60 100 152 0
72 -170 -290 0
24 97 192 0
118 218 231 0
151 -170 175 0
27 -165 199 0
249 314 350 0
19 -271 345 0
84 135 -237 0
-85 121 150 0
17 41 -42 0
52 -63 -167 0
-4 -70 -183 0
-60 -310 335 0
30 -43 105 0
-163 273 317 0
36 49 211 0
-76 -225 -265 0
207 252 -302 0
-279 301 -305 0
-149 -305 350 0
184 -327 345 0
-151 243 -306 0
-51 -216 252 0
43 161 184 0
24 107 -129 0
-143 -243 331 0
146 158 287 0
-26 -69 -113 0
30 -44 201 0
2 116 242 0
197 -289 -347 0
-16 -48 75 0
83 139 -173 0
46 -57 -209 0
35 43 -219 0
167 -210 338 0
287 -294 296 0
245 250 -279 0
-36 100 -129 0
180 -199 -341 0
-33 -317 -323 0
44 59 -199 0
2 242 -297 0
-119 -172 258 0
71 204 -260 0
-79 145 160 0
171 256 307 0
-135 -206 -293 0
-25 214 268 0
-39 253 327 0
104 271 -349 0
123 190 233 0
25 134 210 0
-145 -292 333 0
82 -188 -311 0
-199 256 328 0
55 219 -226 0
127 264 336 0
54 -172 -220 0
-193 250 -300 0
15 242 284 0
-26 43 -304 0
227 310 349 0
113 144 -317 0
59 -264 -314 0
19 -132 331 0
57 99 269 0
-205 -305 325 0
77 -111 346 0
-84 113 -156 0
-68 95 101 0
108 189 191 0
-51 -285 -333 0
-3 49 -166 0
-40 78 254 0
13 -30 250 0
15 -200 305 0
-66 -79 224 0
15 -113 -322 0
-1 25 178 0
195 -262 327 0
-86 169 -195 0
168 -180 -248 0
-50 -132 -281 0
-3 -98 195 0
-30 -182 270 0
-186 -248 -284 0
134 -213 268 0
-8 -230 -238 0
290 337 -338 0
-25 -52 -281 0
-122 130 283 0
49 111 302 0
174 -198 -311 0
-56 80 338 0
80 -144 -241 0
-15 102 -292 0
-24 -29 -30 0
22 123 -232 0
42 216 -219 0
-9 -12 227 0
-14 223 -225 0
-24 274 304 0
-62 268 303 0
57 215 -319 0
-6 138 148 0
105 -199 -310 0
-183 -240 -316 0
-91 137 -195 0
-72 257 296 0
29 -83 -281 0
51 -54 -187 0
-76 -91 -113 0
20 141 342 0
70 -201 242 0
-20 183 292 0
-92 141 -286 0
-19 29 -321 0
8 17 -338 0
-74 305 -312 0
-52 -96 -127 0
86 196 -234 0
64 252 -335 0
75 203 294 0
69 -231 -329 0
150 153 -171 0
95 -175 -258 0
-37 -83 343 0
-108 -125 -180 0
142 166 298 0
74 251 299 0
-240 242 298 0
-106 294 303 0
-27 106 314 0
88 -128 -236 0
98 190 250 0
-242 266 334 0
95 -178 -218 0
39 -184 346 0
87 245 331 0
160 222 -350 0
-87 118 -293 0
-39 150 193 0
-49 84 100 0
-294 300 -341 0
-139 157 -265 0
75 -118 -305 0
14 -222 -277 0
42 193 -220 0
-20 -40 -52 0
33 -52 -297 0
138 -257 297 0
-82 -213 -225 0
-31 -196 249 0
-39 283 -291 0
81 225 294 0
-4 -124 197 0
-77 185 -206 0
64 103 -238 0
11 73 91 0
29 -43 163 0
52 -196 219 0
-193 299 337 0
-84 113 329 0
-40 -121 -245 0
168 207 -288 0
20 82 332 0
128 142 -331 0
54 -204 285 0
36 -85 -294 0
-6 339 -341 0
46 247 292 0
-201 207 266 0
17 32 196 0
-246 -250 -303 0
-175 -204 252 0
-105 288 -305 0
-178 247 -297 0
125 -233 -328 0
-4 283 328 0
40 -312 -338 0
4 -236 -248 0
-152 237 -247 0
212 -252 279 0
-206 -298 -329 0
80 289 -338 0
-156 164 183 0
-19 -92 253 0
101 -192 297 0
129 -166 -241 0
35 332 -346 0
-276 -284 286 0
-239 267 280 0
-66 -101 -320 0
182 276 -305 0
3 -10 -165 0
-46 -201 320 0
-74 148 176 0
67 -147 -265 0
47 -97 282 0
11 -98 148 0
86 205 -257 0
131 174 -226 0
64 -273 286 0
-8 -16 334 0
32 239 -336 0
-57 253 -313 0
221 281 345 0
264 -284 -349 0
90 247 341 0
17 127 251 0
30 -43 60 0
-78 306 345 0
149 183 -293 0
39 93 -117 0
147 -199 296 0
4 -315 349 0
153 -294 344 0
127 -142 216 0
89 232 341 0
-57 203 278 0
-100 290 -339 0
-22 123 -291 0
1 -124 -290 0
119 189 -278 0
67 -73 -108 0
126 163 -186 0
-152 -207 326 0
93 150 191 0
-117 -250 330 0
53 -157 -293 0
7 -104 160 0
120 -167 197 0
-178 -202 253 0
89 125 -262 0
67 135 -154 0
-7 -43 88 0
6 -27 217 0
144 199 324 0
229 -259 -310 0
106 -134 276 0
-184 229 -293 0
74 -275 -311 0
-17 25 -146 0
40 189 342 0
22 -258 304 0
114 242 -264 0
-10 70 -106 0
65 95 205 0
-35 -296 342 0
139 290 -304 0
-65 113 -141 0
14 -128 -297 0
81 109 -270 0
-43 -228 -282 0
25 91 -200 0
42 -150 340 0
177 -183 -217 0
2 -162 -286 0
-46 257 -306 0
-32 49 -132 0
-51 -60 136 0
-95 -101 137 0
78 -167 273 0
-113 -277 -336 0
-222 -280 -333 0
-5 217 343 0
20 -32 244 0
113 151 170 0
-6 61 -150 0
-95 143 -313 0
-225 -326 -330 0
-183 264 -311 0
23 65 -211 0
194 -195 259 0
-120 -230 -312 0
-141 153 -222 0
-225 229 340 0
-103 126 -270 0
-117 -178 -281 0
21 91 161 0
-124 -136 293 0
-42 -82 85 0
14 -284 -329 0
-15 140 155 0
78 104 -257 0
-47 113 -221 0
71 -90 -228 0
-7 -260 -282 0
-95 -247 -264 0
56 174 222 0
-13 -211 -263 0
30 58 324 0
140 -241 -286 0
93 226 -350 0
62 -143 -290 0
38 107 -330 0
-38 112 133 0
-30 290 320 0
3 297 317 0
-125 255 -291 0
-13 -202 248 0
152 286 -297 0
171 192 214 0
196 260 -324 0
-247 273 -334 0
114 -302 338 0
-269 -299 -313 0
41 -123 236 0
260 -274 291 0
-75 255 309 0
138 162 293 0
40 -74 -249 0
54 -186 -251 0
-54 58 339 0
-19 71 -155 0
-31 -121 -328 0
-93 98 -257 0
32 79 249 0
113 -158 -314 0
-172 180 -267 0
13 31 42 0
94 -155 215 0
100 -202 263 0
-165 282 328 0
-18 -238 254 0
5 147 -303 0
-45 127 221 0
-34 -89 209 0
-140 -189 310 0
-99 242 323 0
79 231 273 0
160 186 -241 0
55 67 69 0
-107 -181 293 0
66 147 263 0
-145 156 327 0
-42 79 261 0
-214 -270 -276 0
167 177 -214 0
149 236 342 0
78 -253 286 0
47 67 -77 0
70 154 243 0
73 198 201 0
-56 -153 -266 0
10 160 -350 0
-29 -71 -324 0
-13 124 233 0
-268 282 318 0
59 165 310 0
164 226 -306 0
247 256 -262 0
23 -312 -338 0
-61 70 234 0
-39 -149 -180 0
11 -95 -290 0
-246 323 -347 0
96 -215 -235 0
-58 147 231 0
-22 48 101 0
126 197 -227 0
-218 287 325 0
-31 87 270 0
196 -215 -253 0
5 -53 -295 0
55 336 -341 0
183 236 -296 0
42 -122 -174 0
24 270 305 0
-89 -98 -211 0
-30 -97 211 0
283 311 -320 0
16 -147 -301 0
-5 116 165 0
34 243 -269 0
-97 109 251 0
32 175 -180 0
31 122 285 0
-200 234 -312 0
-103 214 -267 0
-139 -204 323 0
-109 -276 312 0
-99 121 -170 0
166 203 -225 0
23 -71 -207 0
-140 -205 308 0
-30 323 328 0
19 128 -348 0
47 -162 278 0
10 132 -294 0
100 141 299 0
211 270 272 0
-57 337 349 0
-57 71 333 0
-1 9 299 0
242 272 301 0
-4 -6 -84 0
-26 -68 -160 0
-136 223 303 0
56 -182 273 0
139 -209 -221 0
175 270 277 0
81 182 -209 0
89 -164 -195 0
4 -54 -238 0
-40 136 -147 0
-25 267 308 0
-158 -214 -306 0
116 169 307 0
251 -255 -329 0
182 -197 244 0
-100 166 -232 0
-81 -106 -158 0
1 -186 257 0
-47 -58 275 0
-49 -127 219 0
-10 -230 337 0
213 255 309 0
-46 149 172 0
-152 -182 325 0
121 -323 -338 0
-130 -214 -260 0
-30 112 -208 0
44 179 -189 0
20 29 338 0
-62 -135 252 0
17 233 323 0
6 -22 -163 0
-85 163 165 0
-129 199 -329 0
20 -54 337 0
86 125 266 0
-55 -314 318 0
80 167 265 0
42 -162 247 0
135 -260 296 0
119 -232 281 0
81 86 -171 0
24 -60 190 0
5 74 -122 0
-128 -215 -279 0
92 -246 -266 0
60 158 330 0
-145 -267 -332 0
-3 -85 -110 0
-152 174 -259 0
-16 141 153 0
-67 82 167 0
152 -200 -338 0
16 206 -273 0
-13 21 281 0
203 -274 343 0
14 -47 -270 0
-51 -99 -226 0
-101 187 -312 0
-1 -87 225 0
-244 -307 -332 0
-166 -196 -205 0
-69 -110 -314 0
183 -312 -338 0
98 266 -345 0
150 -245 303 0
30 -52 -191 0
13 -112 -310 0
-219 -224 -328 0
223 -245 -248 0
81 -207 -226 0
32 165 294 0
47 -109 -286 0
-60 -286 -300 0
186 -187 -222 0
-151 -177 178 0
-159 -164 -339 0
12 -32 -298 0
-29 -261 284 0
2 -121 -192 0
38 -163 316 0
-146 -227 322 0
-157 211 -297 0
-56 165 298 0
307 310 -345 0
96 -123 -226 0
-38 132 -345 0
68 -111 -343 0
-56 -174 300 0
55 304 316 0
-71 -148 -313 0
148 -169 175 0
-8 -23 -234 0
-135 -203 -299 0
-185 208 -334 0
10 -127 -262 0
-94 97 279 0
-138 214 -282 0
10 52 253 0
40 227 -274 0
-70 175 237 0
-38 -46 -244 0
25 29 135 0
5 83 -238 0
-42 57 122 0
-57 93 267 0
12 -220 341 0
-7 -75 155 0
131 -142 -193 0
53 227 -274 0
-82 88 -245 0
315 -318 -342 0
115 -194 260 0
214 -226 235 0
-39 -289 305 0
-93 146 -307 0
49 183 197 0
-36 124 212 0
3 103 120 0
-34 265 336 0
201 -269 -326 0
-16 137 182 0
38 117 -249 0
27 37 137 0
83 150 -177 0
-243 296 350 0
-37 86 200 0
49 -97 -137 0
87 -96 311 0
-31 -228 296 0
64 -124 -300 0
58 -129 -194 0
43 120 -148 0
-72 239 295 0
214 -215 -297 0
-15 -249 294 0
56 -191 280 0
232 256 -303 0
-100 -180 -208 0
-232 278 -284 0
43 251 -279 0
-7 185 273 0
-237 306 320 0
-18 -107 165 0
63 -271 287 0
5 -148 263 0
-61 -77 -141 0
96 -321 324 0
-58 -244 315 0
-7 36 230 0
-213 253 268 0
23 -193 243 0
11 -22 335 0
67 180 -209 0
-134 -155 339 0
-59 -96 -306 0
-190 -255 -264 0
-177 183 235 0
59 208 299 0
-121 188 -300 0
24 73 181 0
-33 -220 315 0
-47 212 233 0
200 332 -342 0
-298 319 -342 0
-60 272 302 0
-4 -31 -256 0
36 -87 -212 0
-109 -203 -293 0
32 -116 121 0
40 -236 284 0
52 147 -253 0
-4 127 -226 0
-12 139 159 0
73 329 -350 0
-33 -39 303 0
-87 -186 -276 0
47 53 285 0
165 -240 260 0
-92 -184 293 0
112 200 -248 0
2 171 -204 0
7 46 -244 0
157 -185 -188 0
-205 -316 -329 0
83 224 -226 0
15 -95 151 0
116 194 265 0
106 -164 190 0
-81 179 -298 0
129 -317 -344 0
118 148 180 0
47 -55 -216 0
171 -301 -336 0
-134 226 -254 0
217 264 294 0
-18 132 281 0
-61 -270 321 0
-56 181 201 0
29 -87 240 0
-47 -184 321 0
86 221 302 0
1 -11 -280 0
-31 175 -230 0
-43 56 -217 0
-261 -312 -321 0
-5 6 329 0
119 -193 263 0
-91 -221 -257 0
-77 -226 -312 0
47 124 239 0
42 96 207 0
184 -188 269 0
-94 172 -196 0
30 130 -200 0
-30 106 314 0
-243 262 337 0
65 148 -246 0
60 89 -305 0
153 155 234 0
25 133 254 0
136 189 -319 0
83 -216 309 0
-75 -298 346 0
129 -159 -280 0
16 -163 246 0
-23 170 293 0
-172 -175 -184 0
-56 -204 -222 0
-43 289 313 0
163 -267 -287 0
34 -40 -235 0
298 341 349 0
66 175 -276 0
87 -151 -321 0
105 -146 -309 0
-31 -44 -201 0
104 131 139 0
-92 -289 326 0
-15 230 -324 0
88 -214 289 0
-227 255 289 0
155 -156 227 0
-122 153 286 0
54 81 -229 0
-189 292 -298 0
239 280 337 0
-154 255 311 0
213 -244 321 0
191 202 -303 0
-35 67 -187 0
5 -287 326 0
-53 -55 232 0
18 -196 320 0
131 137 228 0
-57 -193 -254 0
80 -84 115 0
14 -60 -335 0
179 -224 265 0
-10 -213 -283 0
-153 218 303 0
85 -212 213 0
86 -91 -322 0
137 -156 -211 0
-32 -59 204 0
31 169 -197 0
199 -261 287 0
87 240 293 0
115 187 -295 0
130 -248 328 0
-78 158 -216 0
-24 -130 -228 0
128 -188 303 0
181 325 -345 0
-24 145 -178 0
32 -121 -258 0
-32 72 -335 0
18 -139 183 0
-129 -132 312 0
-71 85 275 0
-202 214 -215 0
-40 81 125 0
-5 -116 165 0
-160 -164 240 0
1 49 95 0
-100 -271 336 0
-168 -239 -307 0
-4 -52 109 0
32 178 289 0
102 117 -193 0
32 187 232 0
3 272 318 0
-170 265 315 0
-26 139 -263 0
-60 239 298 0
117 228 -231 0
-32 76 -209 0
66 -139 -288 0
-69 198 298 0
180 207 -322 0
71 222 -281 0
-112 128 300 0
-104 231 287 0
-44 169 212 0
-87 89 -208 0
72 113 262 0
-8 -19 296 0
92 174 319 0
296 325 -345 0
-82 87 -290 0
-14 -62 -233 0
6 -194 317 0
-273 301 -304 0
127 213 225 0
48 -197 -306 0
13 -136 -326 0
-136 284 -322 0
41 118 -347 0
15 53 -244 0
-188 -246 338 0
-217 306 316 0
-60 147 150 0
205 208 -291 0
91 102 205 0
-18 177 348 0
219 -273 321 0
26 -299 -341 0
-39 46 -193 0
-114 -144 -312 0
74 -91 120 0
29 286 312 0
-235 -311 -322 0
70 99 -249 0
-67 -111 297 0
99 193 284 0
-15 -118 160 0
