c F2 random 3-CNF cnfgen RandomKCNF(3,150,750,seed=3) m/n=5.0
p cnf 150 750
-34 -61 140 0
4 67 -121 0
-122 139 141 0
39 100 134 0
-8 -11 -78 0
-102 110 -148 0
-10 25 -35 0
-78 -108 -112 0
60 -87 150 0
84 139 -147 0
-17 -32 73 0
18 89 -106 0
31 107 -110 0
72 85 -142 0
2 20 -28 0
40 -68 -75 0
-36 -93 -97 0
-27 -130 144 0
-67 -78 112 0
81 -107 149 0
-16 -86 -120 0
6 -16 -126 0
77 -82 117 0
-68 -81 95 0
-7 34 -146 0
-48 62 84 0
-58 83 86 0
-56 -87 146 0
9 -31 136 0
-22 72 -88 0
-70 -75 -133 0
-75 108 -146 0
-2 -40 52 0
-9 -117 133 0
18 31 74 0
51 111 -132 0
-31 44 129 0
106 135 -138 0
-33 65 -139 0
32 51 57 0
-2 -33 71 0
-64 69 -70 0
1 15 83 0
13 18 -124 0
-19 -41 -81 0
68 -78 -93 0
32 -33 143 0
-11 -46 -146 0
-12 -14 -111 0
5 108 -118 0
-19 58 109 0
-84 96 -144 0
32 -97 136 0
2 -37 122 0
24 -135 145 0
7 32 -88 0
73 77 149 0
26 -28 142 0
20 -47 -62 0
-65 -95 102 0
-61 97 -129 0
-133 146 -149 0
-25 -39 -42 0
35 48 -69 0
-60 -76 138 0
-6 -69 79 0
45 -93 -146 0
37 -108 123 0
19 -103 124 0
-18 56 61 0
36 -48 67 0
-12 47 81 0
-24 31 -68 0
87 116 -149 0
-85 98 112 0
101 -126 150 0
20 -71 -111 0
-25 -96 -136 0
28 -68 -87 0
16 76 145 0
32 95 -117 0
77 -108 -143 0
18 46 -80 0
-26 -69 92 0
-11 35 -123 0
86 -104 -115 0
29 39 70 0
-48 -49 146 0
38 50 102 0
65 -76 -95 0
-81 -99 -142 0
8 49 124 0
-45 126 135 0
-10 55 -136 0
35 40 120 0
60 -93 130 0
-83 85 87 0
9 21 88 0
-57 112 125 0
20 -52 -105 0
-18 122 -138 0
-6 -78 -119 0
-10 -47 -117 0
-93 115 136 0
54 -67 95 0
6 -41 54 0
8 -29 -36 0
-6 -16 -48 0
9 -14 105 0
7 102 127 0
49 -100 122 0
-14 -32 -89 0
-64 77 -126 0
24 -82 89 0
1 8 27 0
10 124 -129 0
-52 -88 123 0
79 -98 101 0
-30 -106 -130 0
-45 99 -142 0
-59 -107 -113 0
-44 -69 130 0
-6 40 44 0
15 -61 -82 0
1 86 -95 0
-27 87 -146 0
21 54 62 0
3 -29 150 0
-57 -132 144 0
21 46 120 0
26 52 -66 0
-28 -58 -103 0
-29 -75 115 0
-2 -30 139 0
-50 88 -89 0
18 109 -133 0
-16 -61 86 0
56 65 83 0
-108 119 -138 0
105 -121 124 0
8 -25 48 0
11 -50 -121 0
-10 89 -111 0
-27 -37 -114 0
-20 -40 -53 0
-42 -96 -111 0
-57 -135 -139 0
-8 -96 119 0
3 4 134 0
1 -13 -43 0
-9 93 142 0
-4 71 111 0
68 -80 -116 0
12 -67 87 0
43 -64 -145 0
35 72 142 0
-5 -16 -125 0
-44 95 133 0
-27 -36 -141 0
-66 -72 117 0
36 -81 -148 0
-60 118 -150 0
-30 141 -148 0
27 -69 112 0
115 -125 -132 0
-47 99 -102 0
-10 -55 -82 0
-10 -34 107 0
52 59 127 0
-2 -18 -73 0
69 75 119 0
37 44 -125 0
-3 37 102 0
46 49 80 0
39 -135 137 0
47 -100 111 0
-30 34 -38 0
20 -50 91 0
-17 -63 123 0
-6 -81 -122 0
-79 119 -138 0
52 -76 99 0
52 69 82 0
30 46 105 0
-96 104 -146 0
-113 139 149 0
-83 -117 -130 0
-74 -88 89 0
-32 57 -129 0
69 -112 -116 0
-46 136 137 0
-107 109 141 0
55 -98 99 0
15 -127 -141 0
-4 -93 -144 0
96 -103 113 0
-1 57 83 0
-21 -36 -54 0
-8 -51 -138 0
55 -87 113 0
-36 79 122 0
22 -45 -111 0
-2 -48 126 0
-53 -100 -131 0
22 -25 -74 0
-3 -17 84 0
85 -108 150 0
14 23 101 0
-47 -60 -121 0
59 -117 -136 0
-35 -137 -149 0
-53 135 -150 0
50 80 127 0
-31 117 -129 0
-10 48 -84 0
-15 -61 103 0
-46 -65 73 0
29 -54 -88 0
44 -45 145 0
56 -60 -94 0
-46 78 114 0
118 126 -138 0
108 -127 -134 0
89 104 -124 0
-37 87 -150 0
-38 77 -136 0
-11 96 127 0
-78 -142 -150 0
-3 -75 -109 0
47 -95 146 0
-29 99 -145 0
-45 -125 139 0
-105 142 148 0
43 52 124 0
-31 -138 -142 0
-17 -71 123 0
31 -55 -67 0
-38 68 -112 0
52 131 -147 0
28 88 89 0
58 -86 118 0
-11 43 -126 0
-110 -113 -130 0
-70 76 140 0
9 44 111 0
-54 96 -130 0
31 41 -52 0
39 -74 110 0
23 36 67 0
-2 -22 -133 0
1 -46 -68 0
-2 -9 -44 0
-12 27 -55 0
-58 84 113 0
56 -59 -89 0
25 81 -102 0
7 -25 104 0
-51 -117 146 0
79 110 -134 0
-26 129 -136 0
33 79 -133 0
32 -76 135 0
64 107 123 0
-2 15 122 0
-76 -79 -89 0
34 -79 80 0
30 50 -61 0
36 131 -136 0
-2 131 -132 0
-22 -108 -128 0
-8 -88 -120 0
66 -67 122 0
-68 108 -123 0
15 -62 150 0
47 82 -99 0
-66 -108 -111 0
-11 -94 -101 0
36 57 135 0
-27 -103 -106 0
111 -129 -143 0
15 42 144 0
36 102 132 0
55 -76 -141 0
-38 -41 -56 0
-8 114 -132 0
82 99 -142 0
-22 51 53 0
-24 -59 86 0
-54 139 -144 0
38 -62 -72 0
-40 53 75 0
-30 -117 143 0
-68 102 -137 0
53 80 -90 0
-61 89 103 0
-7 45 82 0
-13 30 -84 0
75 -86 -143 0
44 113 124 0
-72 95 -123 0
-93 97 -122 0
-123 127 -145 0
19 48 79 0
45 -67 81 0
4 -57 86 0
-28 -116 129 0
112 118 141 0
-22 27 -52 0
-8 13 54 0
-55 -84 -131 0
4 50 -138 0
-33 -90 114 0
20 73 -78 0
-62 -100 -113 0
-44 76 89 0
-78 -99 117 0
-2 -26 90 0
-65 -118 136 0
-19 -23 -77 0
43 -52 68 0
-46 52 -61 0
50 95 -133 0
78 -113 -126 0
-46 -118 -150 0
17 62 -88 0
19 89 138 0
41 84 -122 0
62 122 149 0
-37 82 -147 0
90 -97 -149 0
-15 104 119 0
-69 79 108 0
25 -47 -105 0
20 -64 -112 0
-48 90 110 0
-60 -92 -131 0
-41 59 74 0
41 68 -125 0
-43 -114 -136 0
24 -101 147 0
-54 -93 -148 0
97 -112 144 0
72 74 -83 0
55 -56 -134 0
31 64 -115 0
-9 -140 -150 0
-33 34 -135 0
67 99 -135 0
22 -50 91 0
108 -111 -143 0
-78 91 -106 0
-19 50 -65 0
-18 -61 140 0
83 105 149 0
38 51 -58 0
23 -44 -137 0
6 -27 -83 0
12 28 -57 0
47 51 -114 0
19 125 129 0
-58 72 125 0
18 77 91 0
29 61 115 0
-55 81 -143 0
-23 64 113 0
42 -104 148 0
33 -105 120 0
61 108 140 0
8 -45 -122 0
75 118 -121 0
-6 -16 147 0
18 46 -67 0
-2 108 -121 0
-40 88 141 0
-77 83 -149 0
22 -66 150 0
-19 79 100 0
-57 -133 -149 0
37 40 145 0
-96 -117 -130 0
-78 -132 -144 0
21 -28 -81 0
67 77 -119 0
42 -124 -146 0
55 -77 -113 0
19 36 -49 0
-100 -106 134 0
-2 -40 97 0
46 -63 -96 0
7 -80 -93 0
-1 53 -85 0
-2 -22 64 0
-2 102 -123 0
-35 116 143 0
25 112 129 0
-5 -64 83 0
-20 58 -106 0
-45 63 -98 0
86 96 -143 0
-22 46 88 0
-34 -121 -142 0
26 102 129 0
-19 -62 145 0
44 45 147 0
61 83 -88 0
-3 63 -72 0
-86 -95 -117 0
26 -87 -146 0
-58 115 -146 0
-28 30 -122 0
13 -39 86 0
-61 78 -95 0
-33 39 -81 0
-21 83 109 0
28 66 -146 0
-67 83 -113 0
5 -20 103 0
-38 42 -136 0
-15 85 110 0
-97 -130 -143 0
5 41 91 0
-20 33 -56 0
105 122 -134 0
-67 130 132 0
-62 -144 150 0
88 -119 128 0
-7 -65 -90 0
-8 26 96 0
-75 -76 114 0
72 -76 -132 0
58 71 -88 0
53 96 143 0
-109 -126 -143 0
70 -95 117 0
47 -64 -150 0
-17 -50 -73 0
2 -56 83 0
79 81 111 0
29 45 89 0
78 -118 -125 0
91 -138 -148 0
33 -71 -74 0
26 118 -119 0
-113 -116 -135 0
-9 92 120 0
-13 -23 -73 0
1 -2 -82 0
78 -97 -145 0
52 92 127 0
-18 -34 68 0
-32 -121 -131 0
-12 61 -75 0
20 -62 97 0
-13 -29 -99 0
9 80 -86 0
64 -71 92 0
66 -122 -142 0
-1 -23 -80 0
-36 -78 104 0
29 -117 136 0
-22 96 -146 0
40 49 -136 0
15 -30 -139 0
-61 90 -94 0
-51 -56 97 0
1 95 -96 0
-28 54 -82 0
-83 -142 -150 0
104 -112 -132 0
-102 127 140 0
26 113 -140 0
66 70 -126 0
-124 -140 150 0
-3 -49 -62 0
-39 -81 149 0
-1 43 68 0
47 -84 100 0
11 -63 67 0
20 -73 87 0
70 121 131 0
-41 56 138 0
8 -99 -113 0
-38 -58 -93 0
-71 -95 132 0
103 -117 146 0
6 52 -69 0
-36 63 124 0
45 -73 -130 0
52 -101 140 0
-20 -67 -117 0
88 -126 136 0
22 23 -59 0
26 56 -62 0
-20 46 -73 0
11 -13 -95 0
-78 87 139 0
-1 90 103 0
-34 -37 43 0
27 -45 117 0
-11 -52 72 0
-63 70 -118 0
46 -142 146 0
-30 -110 130 0
57 59 121 0
-59 -72 -104 0
7 -60 -74 0
-109 -132 137 0
-50 103 -116 0
-13 -18 77 0
-29 37 56 0
8 72 -79 0
-12 -39 79 0
-96 113 130 0
-32 -45 -67 0
-98 -112 114 0
-10 -97 121 0
44 115 141 0
-37 57 -76 0
-48 73 -93 0
-43 81 -110 0
-108 118 143 0
-10 -42 -106 0
31 -32 57 0
66 101 107 0
75 -128 -137 0
15 57 -138 0
-9 -138 -149 0
6 36 82 0
112 127 -131 0
-23 118 -149 0
60 64 70 0
19 -43 -92 0
25 -39 46 0
73 97 145 0
16 28 -106 0
39 60 -116 0
7 12 112 0
8 67 -96 0
-30 63 113 0
23 103 -121 0
-61 -69 -74 0
115 -140 -145 0
-102 -116 130 0
34 95 -106 0
-68 -69 -145 0
2 7 -110 0
39 98 142 0
-31 50 59 0
63 126 133 0
-42 -45 61 0
24 -31 -80 0
-36 -67 -132 0
-30 57 114 0
19 34 124 0
114 -122 -139 0
11 -19 112 0
46 92 -106 0
-21 92 -103 0
-86 93 128 0
-42 -48 109 0
38 -92 -101 0
-8 -77 -115 0
69 -88 111 0
-3 -25 115 0
-2 66 -129 0
-7 82 117 0
66 74 -140 0
-8 40 95 0
8 50 -97 0
12 -29 -146 0
23 -115 -124 0
-48 78 115 0
102 -118 -134 0
27 -118 -119 0
-93 95 -117 0
-52 54 -55 0
-48 131 144 0
-3 -9 -24 0
-62 -73 77 0
44 71 -132 0
-8 -73 121 0
102 112 -146 0
-39 -123 137 0
49 -84 142 0
-6 64 109 0
68 93 105 0
5 63 102 0
-42 -61 111 0
-1 30 58 0
34 -129 145 0
60 92 108 0
-10 20 -62 0
32 -107 127 0
24 -122 143 0
29 83 -89 0
-54 -78 -108 0
64 121 -130 0
21 55 95 0
11 62 70 0
-32 -92 -107 0
-20 -75 -84 0
3 39 112 0
-66 86 99 0
6 -13 46 0
22 -109 -149 0
-113 128 -146 0
7 43 -78 0
-46 -47 -108 0
-41 -86 141 0
-37 126 -131 0
-55 75 -125 0
-25 44 74 0
-13 37 -100 0
-1 19 21 0
-77 -90 97 0
-11 -29 50 0
75 112 146 0
16 46 85 0
41 -66 -101 0
-32 91 146 0
-97 103 -124 0
83 103 -141 0
-6 -15 -76 0
-71 90 -143 0
64 -67 -71 0
33 77 -139 0
-16 133 -135 0
-71 -86 -97 0
-87 107 116 0
-48 99 136 0
-39 56 137 0
97 -126 148 0
-38 -110 122 0
-6 -37 66 0
-60 -74 83 0
-13 -49 100 0
-36 123 -149 0
62 101 -122 0
57 85 -96 0
41 47 -71 0
58 83 -88 0
-82 97 110 0
10 -94 -143 0
-3 -102 113 0
62 103 -105 0
-79 113 133 0
-4 -86 -150 0
60 -64 74 0
-52 87 122 0
58 -118 147 0
-95 99 -119 0
6 74 146 0
50 -62 87 0
-5 25 136 0
3 -10 -117 0
41 -91 -98 0
-49 -52 -53 0
17 -60 103 0
-39 101 123 0
31 -57 106 0
42 59 -86 0
-83 -125 -148 0
78 92 124 0
-36 -112 -146 0
-21 77 107 0
-44 -70 124 0
40 -57 140 0
16 -39 96 0
-11 79 130 0
-10 106 -124 0
29 -97 -145 0
57 86 87 0
-21 90 -120 0
75 124 140 0
-4 30 -83 0
63 -106 -107 0
9 39 -102 0
92 104 -135 0
22 63 117 0
43 -80 -86 0
96 -110 150 0
6 7 110 0
57 -76 148 0
5 -15 128 0
-40 59 87 0
-35 -72 149 0
-47 -50 70 0
-28 -34 -55 0
9 -109 136 0
-39 -78 -105 0
-88 -134 142 0
-18 36 -150 0
13 58 105 0
-59 -78 82 0
3 -51 -145 0
24 55 -112 0
45 -111 133 0
7 87 -139 0
15 -53 104 0
-12 119 124 0
-40 -100 111 0
-54 66 -89 0
-7 -46 -118 0
69 76 -80 0
-23 -105 121 0
99 102 -106 0
-18 -30 -101 0
-13 49 -150 0
8 -76 125 0
-51 117 136 0
96 -128 -129 0
2 -83 99 0
4 110 -117 0
-25 -26 134 0
-39 59 -103 0
-30 92 146 0
-50 62 111 0
-12 38 50 0
-79 93 -145 0
-16 -91 98 0
10 -42 -118 0
54 67 144 0
-74 -135 -140 0
-44 -60 -141 0
-1 34 40 0
13 18 141 0
-90 -126 130 0
-91 -104 -123 0
-26 90 132 0
-55 -104 -121 0
22 -82 130 0
-41 111 -144 0
60 -88 125 0
31 69 -87 0
-34 -53 113 0
-11 -13 -55 0
85 -94 138 0
-51 -120 149 0
-7 -25 -31 0
18 29 -118 0
-5 -68 127 0
-34 -121 -131 0
39 -88 -137 0
33 58 -143 0
-24 108 -109 0
58 -86 -147 0
23 35 76 0
3 58 64 0
-66 93 101 0
-91 -101 -105 0
