c F2 random 3-CNF cnfgen RandomKCNF(3,400,2000,seed=9) m/n=5.0
p cnf 400 2000
-192 238 314 0
-4 174 -347 0
284 -316 359 0
-232 361 372 0
27 57 -122 0
53 150 -383 0
45 -137 -396 0
23 -103 175 0
72 194 -252 0
58 306 377 0
5 104 170 0
-44 257 -294 0
36 99 204 0
22 -312 369 0
138 378 -382 0
83 -122 313 0
-57 -178 300 0
102 -206 -295 0
1 58 -222 0
-46 -139 167 0
-14 -29 -265 0
178 364 -399 0
-50 -119 -332 0
72 -149 342 0
26 89 135 0
-7 25 -32 0
-8 -151 314 0
143 247 -288 0
-34 -61 357 0
-288 361 -392 0
-306 -312 396 0
25 142 271 0
84 114 400 0
-234 243 303 0
-247 281 304 0
-224 298 -300 0
33 115 372 0
233 -252 359 0
-15 309 -348 0
-119 191 374 0
44 -306 -319 0
36 42 302 0
-16 -34 -44 0
14 -361 398 0
-5 165 -238 0
-55 71 -245 0
67 99 400 0
27 -39 62 0
13 -240 380 0
3 121 -132 0
12 -130 313 0
129 162 -244 0
20 -68 -154 0
4 -49 -155 0
-127 -214 -310 0
107 -205 -221 0
-237 -239 -313 0
96 -169 206 0
88 163 279 0
187 338 -365 0
-229 307 -311 0
-10 -39 343 0
166 -373 392 0
106 146 274 0
22 -47 162 0
-50 -261 -356 0
-70 -260 -301 0
104 165 198 0
5 -157 -351 0
-268 347 -387 0
-74 -146 265 0
-76 92 -170 0
14 177 -297 0
69 -108 175 0
-104 264 352 0
-182 -367 397 0
-191 205 238 0
-44 -86 301 0
241 270 -393 0
89 115 344 0
146 -174 -337 0
-19 40 -203 0
-22 238 356 0
-103 295 -365 0
-17 -72 -204 0
93 -341 -384 0
-130 192 314 0
-31 -332 379 0
-8 102 -106 0
116 152 -159 0
-140 -190 327 0
15 284 349 0
-10 -25 -108 0
181 286 -396 0
91 219 363 0
-216 261 -294 0
-264 265 371 0
-142 -161 -280 0
217 224 -273 0
338 -349 -373 0
187 -192 232 0
-33 -61 -332 0
10 -159 -223 0
100 242 300 0
5 150 364 0
-53 -226 313 0
-38 269 -270 0
-94 -102 -157 0
-259 -330 386 0
-273 303 325 0
-209 387 -399 0
84 -273 -301 0
60 -255 -275 0
-41 299 -360 0
-4 -169 -262 0
-83 -90 -396 0
-42 167 -245 0
-31 -154 312 0
-120 -157 -212 0
22 232 262 0
36 -41 294 0
149 -247 399 0
45 82 137 0
-129 191 323 0
346 -356 363 0
-209 -341 366 0
-46 -207 357 0
95 -373 380 0
63 -234 -256 0
69 -171 280 0
184 280 321 0
-1 -186 289 0
230 -279 -348 0
175 -299 351 0
106 -137 151 0
14 122 290 0
-37 313 -321 0
-354 -366 368 0
77 144 213 0
134 -245 272 0
-291 297 331 0
118 -246 -287 0
-85 102 347 0
-5 43 -99 0
11 350 -366 0
156 -279 330 0
105 263 345 0
-20 111 -164 0
-51 -184 304 0
21 30 -187 0
9 135 357 0
28 -219 297 0
-68 -73 -100 0
-230 307 374 0
139 -227 241 0
-73 82 -230 0
-96 -192 381 0
18 -70 344 0
132 -133 -263 0
110 -204 -212 0
162 181 264 0
23 -25 -171 0
186 -324 366 0
-227 374 390 0
136 234 -398 0
-27 107 -204 0
29 -208 335 0
151 177 -265 0
81 -93 -212 0
151 -183 -204 0
-9 248 335 0
-63 182 -196 0
216 -248 -340 0
126 -188 290 0
-159 -218 304 0
-106 -199 -260 0
94 175 280 0
103 174 229 0
-121 177 348 0
63 152 257 0
-108 119 257 0
52 -158 197 0
116 -230 -258 0
25 -144 -387 0
42 327 335 0
87 -113 -160 0
54 197 -234 0
8 278 345 0
-25 55 -318 0
24 27 -60 0
-112 310 380 0
28 -88 122 0
14 -283 -391 0
-13 43 224 0
-8 -46 129 0
37 197 -379 0
63 82 394 0
125 320 -337 0
39 99 -242 0
-156 -171 -361 0
47 -178 -355 0
95 -154 350 0
-233 254 263 0
-40 135 369 0
51 -193 276 0
124 312 385 0
-110 235 394 0
-151 291 396 0
-24 -33 -364 0
-190 -277 -300 0
285 -374 -398 0
-75 102 335 0
81 332 -362 0
76 -116 139 0
78 -219 368 0
5 26 -276 0
18 232 290 0
53 -153 -320 0
-5 38 -347 0
97 -126 193 0
-178 -230 -251 0
208 -370 -396 0
75 -216 -294 0
18 -49 -203 0
9 141 -294 0
-4 268 336 0
-126 -224 386 0
-68 -127 -352 0
37 -115 -344 0
-208 -256 -324 0
230 -328 -345 0
-20 35 94 0
-224 259 -346 0
61 -97 202 0
24 173 -342 0
-277 -340 -383 0
-105 -293 324 0
230 274 -329 0
-94 192 237 0
55 -216 -288 0
21 -164 -357 0
33 -170 336 0
19 -156 -210 0
-16 -99 123 0
-205 -261 399 0
-125 321 -342 0
-257 -361 383 0
46 -339 -346 0
200 202 258 0
-54 -155 -200 0
17 -293 300 0
78 145 -295 0
16 212 243 0
140 160 375 0
-5 279 -359 0
114 -218 -317 0
25 31 -146 0
-27 -128 308 0
-62 -92 -384 0
-263 277 381 0
-68 182 247 0
-185 -308 359 0
-40 -51 -122 0
89 228 295 0
29 -242 -284 0
-142 245 -400 0
126 142 -300 0
8 159 -356 0
-121 -330 393 0
-73 -91 -297 0
-82 -244 392 0
-216 -241 -387 0
115 -178 -390 0
-186 356 391 0
-233 280 373 0
139 315 336 0
46 200 393 0
101 169 170 0
193 -347 370 0
91 206 276 0
-139 181 -330 0
-255 288 -389 0
10 -209 -321 0
278 291 314 0
-19 137 267 0
-19 113 390 0
40 119 331 0
-118 131 202 0
-8 -158 -266 0
-46 -57 -326 0
118 -245 331 0
-16 -138 -369 0
-44 -114 -388 0
-71 -111 366 0
-8 159 -253 0
-161 288 -354 0
176 -264 360 0
49 98 268 0
159 276 -359 0
159 233 -264 0
-98 182 246 0
17 128 -260 0
-197 -225 294 0
119 143 353 0
129 246 375 0
-9 -269 -324 0
-69 -104 -335 0
144 -188 371 0
-173 -198 204 0
150 -184 251 0
87 -105 -233 0
18 157 215 0
89 -182 -356 0
184 -247 302 0
-203 -226 329 0
-196 -271 -359 0
-42 139 -313 0
245 247 286 0
-117 119 -158 0
141 216 237 0
66 -159 282 0
-21 272 -390 0
85 -212 236 0
-82 -194 313 0
166 -240 -243 0
60 -91 155 0
200 306 329 0
-18 152 192 0
-195 -216 -289 0
238 348 -392 0
65 273 -395 0
65 -206 -356 0
-239 256 -294 0
180 183 -189 0
232 -357 -379 0
39 166 369 0
134 338 -347 0
-38 -362 370 0
-213 296 386 0
-65 261 -361 0
-130 -327 -377 0
28 286 304 0
109 -174 243 0
-36 -45 -257 0
98 -113 -254 0
-70 -93 144 0
-230 237 377 0
-58 -298 -301 0
29 -134 -202 0
-156 -207 -210 0
189 -257 -352 0
-31 321 339 0
44 68 -310 0
-133 -182 -250 0
253 -366 -391 0
-289 -299 371 0
61 123 -323 0
160 170 -313 0
-32 -156 229 0
-48 -126 346 0
5 30 -340 0
12 -317 362 0
187 -373 376 0
-106 -263 323 0
-7 76 292 0
-35 -226 -377 0
-22 -154 188 0
118 -186 -269 0
18 -151 240 0
3 -248 -344 0
101 140 273 0
-12 205 -233 0
292 302 -399 0
65 154 209 0
-52 314 -333 0
-268 -280 -337 0
133 -267 -292 0
4 -94 331 0
-223 -349 -366 0
286 -341 -380 0
24 -240 -261 0
50 -96 381 0
211 -221 389 0
120 -129 305 0
-23 -50 365 0
-11 273 395 0
-11 84 156 0
151 194 -305 0
159 -177 -239 0
-273 -282 -305 0
42 178 -202 0
47 -170 220 0
-203 -213 343 0
-61 318 337 0
40 107 327 0
-43 219 -368 0
33 143 144 0
-77 157 251 0
130 -155 -266 0
-256 -291 -353 0
105 173 -225 0
149 -183 376 0
21 -161 -181 0
89 290 396 0
3 36 -149 0
14 -209 227 0
35 -215 -341 0
-135 -211 356 0
12 237 -257 0
-35 -250 398 0
-114 202 226 0
78 295 324 0
50 298 -361 0
-125 145 -255 0
-31 -201 -239 0
-82 264 -294 0
-120 146 -326 0
-71 -269 291 0
290 -342 -384 0
-12 -75 386 0
-12 -36 249 0
171 -240 -330 0
156 215 -363 0
-4 -37 -153 0
-67 90 -147 0
234 -275 -280 0
-41 112 -227 0
14 199 325 0
13 -154 387 0
193 292 302 0
-57 260 381 0
-165 180 -390 0
-101 -129 173 0
-15 -189 -300 0
-59 229 -321 0
6 306 -396 0
-120 -200 362 0
245 285 -311 0
-115 -164 179 0
96 252 -359 0
323 -325 -362 0
-63 -217 -341 0
75 -341 -355 0
122 -232 321 0
9 -284 -379 0
96 140 339 0
17 88 131 0
259 -286 -298 0
35 292 366 0
129 -280 379 0
-170 236 393 0
122 136 343 0
42 -102 380 0
248 250 -288 0
-44 -120 186 0
65 -88 111 0
-217 317 -395 0
-26 231 -398 0
2 200 -234 0
66 -157 278 0
172 -369 399 0
62 160 369 0
45 -309 348 0
-149 257 -305 0
-110 119 225 0
-12 33 -354 0
107 -231 265 0
-51 -71 337 0
-158 -223 -247 0
-135 -258 280 0
-296 312 369 0
156 -166 -314 0
-84 90 166 0
-52 -146 -343 0
147 164 340 0
81 -290 -305 0
-184 -236 286 0
157 -193 -393 0
97 217 314 0
25 -366 -370 0
271 -287 -327 0
-22 -24 -212 0
-216 -382 389 0
13 52 -292 0
110 223 359 0
-64 120 -121 0
11 -176 -368 0
-7 313 384 0
201 -269 -294 0
-34 263 -385 0
-79 141 284 0
-36 191 -230 0
64 120 -227 0
-23 100 -206 0
76 -278 385 0
-75 253 352 0
38 76 -164 0
82 -189 385 0
64 65 249 0
-263 -278 382 0
-12 160 368 0
-23 159 -369 0
-197 213 274 0
6 57 94 0
79 124 -175 0
-23 130 -265 0
234 317 -365 0
-198 214 -319 0
-16 -234 -303 0
-211 -221 226 0
17 123 -261 0
-34 174 -351 0
-74 -289 -349 0
58 -336 -384 0
232 -300 -349 0
-65 -130 171 0
15 -44 304 0
27 -119 125 0
157 158 -277 0
-308 313 382 0
50 188 -259 0
227 327 333 0
260 -267 -371 0
-187 211 346 0
-165 -254 -316 0
-98 -202 -312 0
-12 158 -248 0
63 260 293 0
118 137 -385 0
225 -348 379 0
-96 326 -390 0
24 -57 301 0
19 -193 -388 0
77 -126 384 0
150 -337 -385 0
-67 -107 267 0
-137 -339 383 0
47 83 98 0
-136 -276 -377 0
4 -290 367 0
-36 -163 -238 0
-146 164 -205 0
-32 110 143 0
20 254 -371 0
-81 117 -321 0
-107 -263 -334 0
100 -182 -397 0
-28 -88 -331 0
42 -286 369 0
-35 287 -325 0
71 322 365 0
20 296 396 0
-44 -54 -395 0
-91 290 327 0
-17 -51 248 0
-84 -113 -138 0
-57 -80 -269 0
99 -130 254 0
-146 -311 -371 0
-94 -97 -242 0
139 183 369 0
-138 -251 302 0
48 155 221 0
-23 287 -321 0
80 -256 -342 0
256 309 343 0
193 243 -259 0
-99 -148 212 0
-192 313 317 0
68 -86 178 0
-91 -94 -169 0
-31 -96 323 0
149 -171 382 0
-39 -42 333 0
30 225 -231 0
237 -285 -365 0
-75 -196 -353 0
-104 -265 352 0
140 -158 -295 0
-154 310 -344 0
-191 211 330 0
-160 -301 388 0
240 252 -331 0
-66 90 -318 0
-24 -314 -356 0
-21 -58 143 0
8 -161 321 0
174 -225 371 0
23 62 251 0
99 118 -169 0
86 -199 319 0
-23 155 215 0
129 168 324 0
122 144 -180 0
1 248 -264 0
137 280 -386 0
21 107 -389 0
89 237 -246 0
52 -97 299 0
112 161 -231 0
17 111 -131 0
2 -25 219 0
119 -175 185 0
128 -164 -279 0
89 -175 387 0
-141 -198 357 0
-205 293 -296 0
105 136 -388 0
-132 -171 -284 0
-146 229 -262 0
-109 286 355 0
101 -137 307 0
252 -326 -355 0
-170 179 -368 0
-40 148 282 0
50 -259 382 0
46 -145 -331 0
36 124 -308 0
-150 -273 397 0
132 139 -246 0
98 -194 273 0
42 209 -223 0
-205 -368 400 0
-18 173 295 0
143 147 -183 0
24 -276 352 0
-16 234 -244 0
45 57 257 0
-92 -197 289 0
65 303 -347 0
165 -221 -239 0
97 -103 232 0
-15 -28 88 0
-219 225 352 0
75 -132 362 0
-279 -322 362 0
51 202 -302 0
-42 -134 375 0
-144 150 338 0
46 119 235 0
85 164 -305 0
211 -267 -324 0
-43 -317 -344 0
-7 181 -344 0
94 289 332 0
-28 173 232 0
-53 -65 -214 0
189 -196 296 0
-114 -141 177 0
-141 -188 -341 0
-79 -143 164 0
21 50 160 0
207 -288 358 0
-130 247 -389 0
222 -332 -383 0
126 -250 298 0
-96 296 351 0
40 -231 -306 0
155 -299 352 0
-29 271 -352 0
99 -142 392 0
289 309 399 0
138 -240 -241 0
67 312 -380 0
-133 292 -357 0
253 -279 347 0
162 -358 365 0
-306 -325 -331 0
-143 -248 -386 0
83 101 -127 0
-107 172 -338 0
40 -116 -154 0
19 94 367 0
111 174 316 0
-309 319 321 0
-4 11 -301 0
263 276 307 0
98 235 309 0
-25 -174 -251 0
79 247 -284 0
-75 -156 -185 0
-28 -94 368 0
129 207 -384 0
27 109 324 0
-211 -269 -388 0
-1 -190 -215 0
68 160 -270 0
-32 198 -366 0
-243 -266 358 0
67 -207 398 0
19 182 234 0
-171 -197 -348 0
-19 -185 286 0
-54 -163 167 0
-297 -342 383 0
192 -255 289 0
22 268 376 0
21 22 -148 0
108 -183 -231 0
225 -266 364 0
4 161 -343 0
-71 78 301 0
47 -84 -92 0
157 219 -266 0
15 -113 -150 0
-38 -225 267 0
-27 -166 -213 0
100 196 218 0
-131 212 361 0
-9 -227 -334 0
119 -241 276 0
-98 156 203 0
103 254 -279 0
-88 161 -330 0
-66 306 -337 0
-93 -131 -210 0
-16 -23 142 0
108 305 391 0
-71 112 235 0
-64 -115 162 0
-71 89 -338 0
63 208 249 0
-5 32 -226 0
-13 -62 -123 0
205 226 396 0
88 -171 244 0
132 -144 -304 0
-120 187 -275 0
14 -110 -215 0
88 174 199 0
47 -53 73 0
85 -173 -320 0
-9 235 342 0
92 -174 190 0
157 -213 278 0
-23 119 194 0
-76 -303 321 0
-50 363 -398 0
-178 233 -261 0
-179 -238 290 0
-113 -339 358 0
-57 141 -240 0
97 261 383 0
-9 48 -178 0
-168 -189 -309 0
-126 -237 344 0
15 37 -333 0
21 -206 378 0
40 237 241 0
5 106 346 0
93 -226 -392 0
-31 -43 -285 0
103 315 -387 0
-120 268 297 0
137 -188 353 0
36 129 -360 0
-53 75 -276 0
-26 -262 -293 0
-24 81 -316 0
-62 70 81 0
-85 -120 -249 0
9 79 -97 0
-183 -217 -385 0
-31 -72 -230 0
210 313 349 0
-103 350 -397 0
244 307 372 0
-100 -277 295 0
6 56 -338 0
-8 -198 -209 0
18 132 367 0
-152 -207 215 0
85 164 294 0
-62 -185 250 0
-35 -143 -200 0
161 -242 259 0
-134 -140 239 0
194 295 368 0
150 -283 321 0
11 -21 90 0
-82 157 -221 0
45 168 -179 0
-2 154 -283 0
-91 -188 -348 0
75 -194 384 0
20 -82 -333 0
-33 145 179 0
62 94 97 0
237 265 346 0
-85 113 -337 0
100 -137 229 0
199 -213 279 0
-88 166 -193 0
-18 156 384 0
59 -72 -292 0
-201 -204 -297 0
-77 -136 395 0
-19 55 -357 0
254 328 358 0
74 -231 -269 0
90 281 397 0
-140 249 -278 0
317 351 369 0
91 -127 276 0
32 293 -384 0
88 100 -189 0
233 -367 -389 0
43 -80 142 0
127 265 -285 0
63 -67 250 0
-13 -54 -126 0
131 -141 -267 0
130 -243 393 0
67 96 267 0
-185 258 -317 0
-202 302 376 0
59 295 -343 0
-1 -37 -369 0
-119 203 227 0
-27 -28 -39 0
109 218 -300 0
-22 -117 -152 0
-99 -242 -275 0
-3 106 358 0
-152 -170 -247 0
-13 -121 -300 0
-41 263 320 0
-209 -326 -392 0
105 -150 -207 0
80 314 361 0
-37 48 -85 0
-57 -145 226 0
-137 226 -313 0
24 -67 -189 0
93 -190 258 0
-190 194 -305 0
100 202 208 0
168 220 -349 0
-166 -175 268 0
-13 -87 359 0
-86 131 -164 0
-143 220 -341 0
227 -360 375 0
-6 341 -383 0
127 239 -340 0
85 100 -139 0
121 -129 -238 0
202 253 302 0
-238 290 313 0
-92 212 242 0
6 175 371 0
-35 -54 -358 0
-259 -315 384 0
291 -315 349 0
194 -348 372 0
-98 -274 -284 0
18 184 -398 0
-314 389 -391 0
69 110 -282 0
208 271 -307 0
-16 91 -182 0
-119 243 354 0
-189 -210 -242 0
95 280 374 0
22 -129 -237 0
-25 70 -200 0
244 265 337 0
18 -344 400 0
-48 298 -373 0
-112 211 345 0
129 256 -294 0
-200 252 -393 0
-41 133 188 0
62 -199 296 0
-185 214 303 0
-3 82 -160 0
-31 65 -326 0
10 53 -89 0
-58 -297 304 0
27 -276 -360 0
50 246 -349 0
277 -328 358 0
-49 -79 -286 0
62 141 322 0
-165 -194 -343 0
105 -194 274 0
32 -89 -295 0
78 339 -362 0
47 -152 216 0
-143 332 394 0
2 126 182 0
370 -375 -396 0
131 171 -365 0
-157 292 -359 0
161 -181 -298 0
-45 71 233 0
202 -226 -317 0
102 -218 338 0
51 122 -355 0
71 -160 220 0
84 -96 279 0
80 -97 -246 0
28 54 -199 0
275 -306 352 0
184 -301 -353 0
97 336 -375 0
89 193 -330 0
72 77 -139 0
-194 -370 -390 0
-72 -116 141 0
-12 167 216 0
-149 -186 294 0
-205 237 -378 0
52 338 -350 0
245 325 -327 0
-66 -131 -359 0
45 373 393 0
-88 219 366 0
-38 323 332 0
165 -245 -386 0
-5 -224 226 0
120 229 272 0
30 -299 317 0
100 115 172 0
-28 93 -338 0
-106 -197 -301 0
155 172 -317 0
33 252 -272 0
41 -164 -288 0
159 256 340 0
61 72 -327 0
-45 -72 74 0
-259 -282 -289 0
-45 -93 -330 0
21 -123 -302 0
3 235 -310 0
-84 -189 -387 0
172 -270 -281 0
173 -216 -295 0
247 -257 -284 0
-189 -269 -331 0
-19 -166 -265 0
-38 -337 -355 0
-65 -144 177 0
-54 -139 -311 0
-82 -107 121 0
-225 -230 244 0
110 138 -214 0
-136 384 399 0
66 -118 313 0
-47 118 324 0
-22 193 366 0
-194 383 -390 0
-44 81 336 0
19 -354 -394 0
-297 352 -389 0
2 108 390 0
-43 65 -373 0
9 -53 362 0
-64 224 -259 0
183 214 393 0
-174 -259 286 0
128 264 292 0
-82 -99 -241 0
126 -278 372 0
-106 -230 -328 0
27 -143 -317 0
147 -289 -308 0
28 269 371 0
74 189 -370 0
35 51 278 0
37 145 -193 0
-237 260 400 0
-41 79 -385 0
-149 -217 294 0
-225 358 -370 0
-227 298 369 0
-19 -185 -249 0
196 -222 -343 0
-63 -88 -325 0
-7 -156 -291 0
70 -301 -314 0
169 -179 190 0
-43 64 -137 0
101 -183 -307 0
-66 156 -373 0
25 56 82 0
136 -164 -200 0
-204 214 283 0
271 306 -332 0
166 -286 326 0
-52 -92 -191 0
65 -166 -386 0
-70 135 230 0
-135 -149 -363 0
109 372 -373 0
181 -305 -364 0
-19 -210 -229 0
-25 36 -128 0
-119 -159 249 0
-207 214 -336 0
81 179 -368 0
278 -382 386 0
-5 59 -331 0
209 310 -380 0
-79 189 -329 0
78 342 373 0
250 -278 -304 0
-133 -292 -323 0
3 137 198 0
83 87 297 0
16 348 381 0
-49 51 -321 0
62 77 108 0
-25 87 394 0
-83 -207 335 0
46 206 -315 0
-112 128 242 0
-67 195 -240 0
140 -321 -393 0
48 61 93 0
-2 23 135 0
-191 313 -364 0
-5 -83 359 0
244 252 271 0
-145 -152 -328 0
69 -152 360 0
34 -329 -343 0
124 155 311 0
68 199 -331 0
75 91 -115 0
-148 -306 -384 0
139 154 269 0
48 337 -349 0
-68 -129 -184 0
-233 -325 -389 0
-8 -159 -320 0
-39 226 -293 0
-58 -160 400 0
53 122 -123 0
-133 261 370 0
270 -334 -365 0
-116 197 -222 0
168 -271 -280 0
-10 19 -298 0
30 -118 -151 0
-179 -195 -256 0
174 278 -344 0
-16 284 302 0
-68 -134 -326 0
118 203 -226 0
12 -32 -323 0
-101 131 378 0
119 -180 -210 0
-45 236 -306 0
181 -253 -293 0
54 -344 -378 0
93 270 -385 0
161 -176 -317 0
-143 -147 -366 0
-84 148 164 0
-8 37 83 0
-26 35 391 0
125 152 -382 0
50 143 -260 0
190 -276 -346 0
-22 -377 -391 0
-202 -270 299 0
241 305 -348 0
233 -313 371 0
60 100 152 0
72 -170 -290 0
24 97 192 0
-118 231 368 0
-37 170 -175 0
57 -274 -372 0
-8 76 151 0
19 -99 345 0
84 135 -237 0
-85 121 150 0
17 42 398 0
-52 63 -151 0
4 -183 -185 0
-60 -227 310 0
30 -43 105 0
-163 273 317 0
36 49 211 0
-76 -225 -265 0
207 252 -302 0
-279 301 -305 0
-149 -305 350 0
184 -327 345 0
-151 243 -306 0
216 -252 -354 0
96 161 184 0
24 -46 380 0
-67 -220 -340 0
170 -276 -396 0
104 287 354 0
-26 -69 -237 0
30 -44 371 0
2 116 242 0
197 -289 -347 0
48 374 -387 0
223 -282 -350 0
83 268 -313 0
46 -57 -209 0
35 43 -219 0
167 -210 338 0
287 -294 296 0
245 250 -279 0
-36 100 -129 0
180 -199 -341 0
-33 -323 -353 0
-44 59 351 0
-254 261 306 0
109 -158 -324 0
185 358 -372 0
27 -290 327 0
145 160 -242 0
171 318 387 0
-135 -206 -391 0
-25 214 268 0
-39 253 327 0
104 271 -349 0
123 190 233 0
25 134 210 0
-145 -292 333 0
82 -188 -311 0
-256 -328 394 0
-55 99 219 0
127 179 264 0
54 -172 -220 0
-193 250 -300 0
15 242 284 0
26 -304 384 0
227 254 349 0
113 144 -317 0
59 -264 -399 0
19 -132 331 0
99 269 353 0
-85 -305 -363 0
108 111 -346 0
355 -363 377 0
-81 113 133 0
95 253 400 0
17 189 191 0
-172 205 285 0
-101 162 166 0
251 254 326 0
30 -250 264 0
15 -200 305 0
-66 -79 224 0
15 322 -353 0
25 -178 254 0
-71 269 -347 0
-86 -96 195 0
-168 -188 268 0
130 -132 -253 0
154 195 -392 0
85 -198 -386 0
-57 -136 -284 0
-214 -234 328 0
-101 217 -373 0
-140 169 359 0
184 281 -375 0
-236 -300 328 0
92 178 389 0
43 -96 -332 0
-2 -279 355 0
56 238 338 0
144 -241 -371 0
102 -292 365 0
24 -29 -212 0
-22 123 249 0
-42 189 219 0
9 -152 -227 0
-14 -65 225 0
-335 377 -379 0
36 -78 268 0
-57 77 319 0
138 -189 -309 0
39 115 -199 0
-246 -316 -392 0
137 -149 -159 0
301 -302 332 0
105 146 296 0
-97 -159 270 0
-54 118 212 0
-91 -221 -336 0
20 87 -342 0
-47 70 201 0
85 -134 183 0
241 -274 286 0
-19 321 -365 0
8 17 -338 0
-74 305 -312 0
52 -96 -383 0
-86 234 245 0
149 252 335 0
160 203 294 0
69 -109 -231 0
150 153 -171 0
95 -175 -258 0
-37 -83 343 0
-108 -125 -180 0
-166 298 391 0
-68 74 299 0
-105 -242 298 0
-35 106 303 0
27 -314 386 0
76 128 -236 0
-98 135 190 0
-26 242 334 0
95 -178 -218 0
39 -184 346 0
87 245 331 0
-350 -365 400 0
85 -87 161 0
-234 -288 325 0
11 161 384 0
48 -100 236 0
-139 152 -157 0
75 -118 -305 0
14 -222 -277 0
42 193 -220 0
-20 -40 -52 0
33 -52 -297 0
138 -257 297 0
-82 -213 -225 0
-31 -196 249 0
-39 283 -291 0
81 225 294 0
-4 -124 197 0
185 -206 351 0
-219 308 359 0
42 88 179 0
64 362 -383 0
29 -43 390 0
52 -196 219 0
-193 299 337 0
-84 113 329 0
40 -245 -393 0
-207 242 288 0
136 295 332 0
-98 115 287 0
279 -369 380 0
204 -268 285 0
36 -85 -359 0
341 -353 386 0
46 195 247 0
-201 207 266 0
17 32 196 0
-250 -303 -361 0
-159 -204 -252 0
-105 117 -288 0
-178 247 -297 0
125 -233 -328 0
-4 283 328 0
40 -312 -338 0
4 -236 -248 0
-152 237 -247 0
212 -252 396 0
-206 -329 -385 0
289 338 398 0
-156 -164 246 0
19 -253 -392 0
324 -355 369 0
11 -188 -368 0
-22 -241 361 0
17 -332 -358 0
219 -292 -398 0
50 56 -391 0
-212 255 305 0
-3 10 -165 0
-181 293 -294 0
1 -212 -370 0
107 212 -296 0
-5 -265 283 0
47 -282 353 0
-98 366 370 0
-112 139 257 0
-2 -368 -372 0
-51 89 174 0
16 -74 -192 0
-110 307 336 0
-47 305 -325 0
-56 -249 357 0
14 -80 -334 0
90 247 395 0
17 127 251 0
30 -43 60 0
-78 306 345 0
149 183 -293 0
39 93 -117 0
-199 296 -361 0
4 -7 314 0
153 -294 344 0
142 216 -353 0
75 -341 397 0
302 346 -367 0
57 149 278 0
-47 148 290 0
-66 238 348 0
-19 -370 385 0
81 -189 278 0
67 -108 -336 0
-126 163 367 0
-152 -207 252 0
93 150 191 0
-117 -250 330 0
53 -157 -367 0
7 -104 160 0
120 -167 197 0
-178 -202 -383 0
82 262 266 0
5 -220 -359 0
40 -290 340 0
-43 -88 381 0
6 -27 217 0
144 199 324 0
229 -310 -398 0
106 -134 362 0
-184 229 -293 0
74 -275 -386 0
-17 25 -146 0
40 189 342 0
22 -258 304 0
242 264 394 0
10 -70 136 0
95 205 226 0
57 -296 -342 0
106 139 -367 0
65 -141 390 0
14 235 -297 0
81 109 -164 0
-43 -228 -282 0
25 200 391 0
-304 357 -392 0
-104 276 -340 0
-217 361 -400 0
2 -143 -162 0
-46 257 -306 0
-32 49 -132 0
-51 -60 136 0
-95 -101 137 0
78 -167 273 0
277 -336 -354 0
-151 -278 -323 0
-202 343 -371 0
-77 94 368 0
118 -158 -280 0
15 113 397 0
6 -131 -150 0
95 -176 -313 0
-181 -219 -330 0
-115 361 392 0
105 -211 -398 0
2 141 -194 0
-133 -140 -312 0
-112 -141 -255 0
49 243 340 0
229 -336 356 0
-178 -281 -356 0
21 91 161 0
136 -293 -386 0
42 -82 -84 0
24 284 -329 0
-243 299 -387 0
11 159 347 0
-51 88 211 0
-83 140 375 0
228 -289 -355 0
-7 -260 -282 0
-95 -247 -363 0
-56 222 355 0
-13 -93 -269 0
135 324 355 0
-12 -85 400 0
-234 -317 346 0
71 -321 350 0
143 -271 -290 0
107 330 382 0
-38 -112 140 0
-5 30 290 0
3 317 373 0
291 -377 -395 0
-27 -271 -322 0
-13 -279 315 0
152 286 -378 0
171 192 214 0
196 260 -324 0
-273 -334 391 0
233 302 -338 0
-90 -269 -313 0
41 -123 236 0
260 -291 378 0
-75 255 309 0
138 162 293 0
40 -74 -249 0
-54 -362 398 0
-304 -336 383 0
-54 339 351 0
-19 71 -155 0
121 -328 -361 0
-93 98 -160 0
79 249 382 0
-89 314 390 0
-141 -242 -400 0
32 223 296 0
15 -88 -115 0
-103 331 374 0
70 -181 -202 0
43 -95 -238 0
235 -302 315 0
93 -257 259 0
127 186 221 0
-34 -209 351 0
-140 -310 -387 0
-49 99 242 0
231 273 382 0
-84 -298 -319 0
75 121 194 0
283 307 333 0
-107 -355 -395 0
273 275 -347 0
263 368 400 0
-156 -327 382 0
79 -127 261 0
-36 -214 -385 0
-167 177 378 0
-236 247 342 0
-43 345 357 0
24 47 135 0
28 -204 -330 0
73 -122 288 0
21 -126 201 0
-137 205 256 0
93 205 -303 0
171 233 -371 0
-13 57 316 0
59 165 310 0
164 226 -306 0
247 256 -262 0
23 -312 -338 0
-61 70 234 0
149 -180 -367 0
95 229 -290 0
-233 -315 357 0
-96 166 -235 0
147 -208 231 0
22 -87 101 0
-106 126 227 0
-131 -287 366 0
87 -94 359 0
-40 196 -253 0
149 266 295 0
199 225 267 0
-147 183 296 0
205 -292 398 0
-67 249 259 0
4 -53 353 0
-131 159 208 0
-187 338 389 0
-13 173 334 0
133 165 -255 0
-34 82 98 0
-97 -109 151 0
-91 180 351 0
-1 281 387 0
123 285 -370 0
-234 312 -364 0
214 -267 385 0
-195 -323 -325 0
135 301 -331 0
27 -244 378 0
-35 -223 -338 0
-55 115 -225 0
-26 -71 -362 0
-201 205 297 0
-323 328 374 0
19 128 -348 0
162 278 -351 0
2 132 294 0
141 227 299 0
-110 270 272 0
45 -349 392 0
18 -57 318 0
126 257 -384 0
-94 125 272 0
6 -84 -122 0
-280 -364 365 0
-26 -298 -336 0
-136 223 303 0
56 -182 273 0
-139 209 -361 0
-222 277 399 0
-81 -85 294 0
-10 -89 153 0
-208 314 -327 0
-4 -5 341 0
-136 147 -326 0
-25 267 308 0
-158 -214 -306 0
169 307 399 0
-38 255 -329 0
-131 197 -244 0
6 -166 232 0
-106 231 -377 0
199 -218 257 0
3 205 -275 0
102 -127 -215 0
-55 140 -331 0
-44 -200 309 0
-8 -31 399 0
50 -242 -352 0
-174 325 333 0
-87 -323 -338 0
-214 -260 -396 0
-30 112 -208 0
179 189 386 0
188 258 296 0
308 319 352 0
-135 -252 373 0
17 233 323 0
6 -22 -163 0
-85 163 165 0
-129 -393 399 0
54 208 -337 0
34 86 372 0
-55 -57 318 0
80 167 265 0
42 -162 247 0
135 -260 296 0
119 -232 281 0
81 86 -171 0
24 190 -373 0
35 122 366 0
-77 -128 -146 0
139 -332 364 0
165 -205 400 0
-37 -121 -145 0
-3 -85 -110 0
-152 174 -259 0
-16 141 153 0
82 -384 -393 0
-1 82 -152 0
-160 273 356 0
-22 346 399 0
-6 8 -141 0
102 265 304 0
207 -227 389 0
150 -189 -236 0
63 146 -361 0
-49 -214 -233 0
-166 -205 -214 0
69 -182 -314 0
183 -185 -312 0
98 266 -345 0
-245 303 -361 0
30 83 -191 0
112 199 -310 0
-175 -219 -388 0
-235 -245 354 0
-81 -130 249 0
-146 163 297 0
49 125 366 0
175 -193 -368 0
-186 -233 287 0
-151 -212 -216 0
-35 -164 -192 0
32 185 -298 0
-29 -206 284 0
-2 121 -394 0
161 -272 380 0
-62 -213 -322 0
-43 -157 256 0
-56 -194 286 0
75 345 -370 0
96 -123 -226 0
-38 132 -345 0
68 -111 -343 0
-56 -300 -393 0
2 316 380 0
-31 303 -381 0
-167 -186 -337 0
-117 304 345 0
-8 -185 -234 0
-135 -208 -380 0
-33 208 251 0
-29 216 394 0
-267 336 341 0
-138 214 -282 0
10 52 253 0
-40 274 372 0
-70 -144 -400 0
279 292 311 0
-46 -129 244 0
25 96 135 0
5 -93 238 0
-57 122 386 0
-57 93 267 0
12 -220 341 0
-7 -75 155 0
-131 193 -391 0
-53 165 274 0
188 245 -378 0
77 -171 -318 0
115 -194 260 0
214 -226 235 0
-39 -289 305 0
-93 146 -354 0
49 183 197 0
124 -212 385 0
66 120 362 0
57 -94 337 0
99 -201 -269 0
-16 137 182 0
38 117 -249 0
27 37 137 0
83 150 -177 0
-243 296 350 0
-37 -86 365 0
-86 362 381 0
-68 233 336 0
73 156 -311 0
-192 282 388 0
-64 -109 -300 0
-58 -109 194 0
43 -103 -148 0
72 163 -295 0
-91 -215 225 0
196 -213 291 0
11 -182 -381 0
-18 -127 193 0
-183 -223 -285 0
-112 305 -345 0
-3 114 -279 0
50 -246 -313 0
41 -50 313 0
61 176 -213 0
110 148 -398 0
125 141 -391 0
148 237 -291 0
106 -275 -315 0
-7 101 -193 0
101 -269 -284 0
209 263 267 0
-35 193 243 0
11 -299 335 0
180 209 366 0
-134 -248 -339 0
-59 -96 -111 0
-264 -353 -358 0
-156 -234 -381 0
81 -87 140 0
40 -62 188 0
-24 73 188 0
-33 -116 -315 0
-47 -75 212 0
-101 332 366 0
-156 319 -342 0
272 -302 369 0
12 -358 368 0
-147 198 -360 0
-87 -114 -332 0
-109 -293 -335 0
32 -116 121 0
40 -236 284 0
-52 253 390 0
-4 157 -333 0
-92 -285 -306 0
12 173 304 0
329 350 -376 0
-33 -39 303 0
186 -276 -384 0
-320 350 358 0
40 -51 -285 0
49 -86 -140 0
88 -162 200 0
-81 -141 371 0
34 -283 -285 0
7 -42 -46 0
-90 -157 -185 0
-316 -329 -363 0
224 226 376 0
15 149 -151 0
288 -356 365 0
34 -105 -265 0
106 -262 272 0
-81 179 -298 0
129 -317 -344 0
118 148 180 0
47 -55 -216 0
171 -301 -336 0
-134 226 -254 0
217 264 396 0
-18 -281 359 0
69 -270 -321 0
4 -181 201 0
-29 87 -110 0
-47 -117 184 0
86 221 302 0
1 -11 -280 0
-31 175 -230 0
-43 56 -217 0
-261 -312 -321 0
-5 6 329 0
119 -193 263 0
-91 -221 -257 0
-77 -226 -312 0
47 124 239 0
42 96 207 0
184 -188 269 0
-94 172 -196 0
130 200 388 0
106 -231 314 0
-34 -261 393 0
-65 -112 354 0
-57 339 387 0
-50 -80 -351 0
155 297 360 0
25 133 254 0
136 189 -375 0
83 -216 309 0
-75 -298 346 0
-354 -371 386 0
-143 -218 333 0
36 185 -299 0
161 293 -329 0
-172 -175 -340 0
-56 -204 -222 0
-43 313 398 0
163 -267 -287 0
34 -40 -235 0
298 341 349 0
66 175 -276 0
-87 321 -356 0
105 -146 -235 0
-31 -44 -201 0
104 131 139 0
-92 -326 396 0
-15 230 -324 0
88 -214 289 0
-227 255 289 0
155 -156 227 0
-122 153 286 0
-54 81 370 0
-201 -326 386 0
-232 280 337 0
-102 154 255 0
213 -244 321 0
191 202 -303 0
-35 67 -187 0
287 326 -392 0
95 232 -391 0
-111 251 320 0
-107 -131 156 0
-86 120 -254 0
-191 324 354 0
70 84 212 0
-83 -133 -335 0
-127 265 -389 0
-10 -283 -375 0
-153 218 303 0
-85 212 -392 0
61 86 -322 0
-137 156 -241 0
-32 -59 -250 0
-31 64 197 0
-146 287 -372 0
-104 265 392 0
110 111 187 0
-177 248 -367 0
299 347 -400 0
-121 -158 240 0
-130 -172 329 0
-68 188 -303 0
15 -345 -364 0
-24 178 -371 0
32 -121 -258 0
32 -72 353 0
-18 183 -187 0
-86 -312 -388 0
172 269 286 0
168 275 -387 0
-214 215 -389 0
-40 81 125 0
-5 -116 165 0
-160 -164 240 0
1 49 389 0
116 -271 -336 0
-20 -239 -307 0
52 -109 -183 0
1 178 381 0
-48 102 117 0
191 -232 369 0
67 80 340 0
-76 170 265 0
139 -263 400 0
183 -239 298 0
-24 -117 299 0
291 -339 382 0
32 -209 -211 0
-8 -66 223 0
164 333 -344 0
-48 104 -207 0
12 118 -166 0
71 355 -372 0
-275 287 295 0
169 -212 374 0
-32 -87 89 0
72 206 262 0
8 -12 -296 0
55 -304 396 0
24 326 346 0
246 365 -396 0
-14 22 -199 0
-360 -366 -392 0
-6 62 -317 0
-71 -259 378 0
34 213 -379 0
-48 -52 -306 0
13 -326 -394 0
-284 -322 400 0
41 201 271 0
-53 185 340 0
-77 -136 -274 0
-23 -241 352 0
-61 -295 345 0
50 -143 -329 0
128 -291 -381 0
91 102 336 0
-18 -348 361 0
-124 385 -395 0
26 -83 -299 0
-39 46 -193 0
-114 -144 -312 0
74 -91 120 0
29 286 374 0
-235 -311 -322 0
70 99 -249 0
-67 -111 297 0
193 284 374 0
21 319 -347 0
209 221 -394 0
32 -183 -323 0
-75 172 299 0
-78 -168 202 0
60 170 -371 0
144 -213 -306 0
77 139 246 0
-93 376 -381 0
218 -227 352 0
-73 -86 -127 0
-51 66 343 0
-170 185 283 0
86 -144 -244 0
138 -236 -290 0
-165 -174 -346 0
-82 228 -336 0
147 198 322 0
-13 255 311 0
34 -36 -200 0
-212 385 387 0
-34 84 -384 0
-192 194 -206 0
-182 -273 350 0
-20 -47 -104 0
28 -92 -384 0
-263 289 -385 0
-257 319 351 0
-108 -148 170 0
94 -290 -366 0
86 286 393 0
-20 -67 115 0
252 -348 -374 0
-88 100 -342 0
-38 198 -260 0
200 351 381 0
268 -270 393 0
51 218 393 0
-301 -334 382 0
78 -310 348 0
6 -29 -299 0
140 157 -343 0
-89 -111 278 0
232 -291 296 0
216 -228 -312 0
-102 -208 341 0
100 -239 356 0
142 182 335 0
-287 -326 -385 0
-108 111 400 0
-274 279 280 0
-125 251 -313 0
131 -219 -323 0
137 -219 -266 0
231 296 -299 0
10 102 -249 0
83 304 -352 0
-92 347 390 0
101 105 269 0
-85 178 347 0
-14 -101 308 0
-107 333 -383 0
-63 -99 -105 0
-180 285 -354 0
30 -130 286 0
318 324 339 0
83 285 338 0
-271 332 344 0
-172 -224 375 0
1 -87 388 0
-80 -290 360 0
-192 -280 -355 0
-95 -223 -394 0
-65 159 -319 0
123 -321 330 0
-277 -286 400 0
200 -211 -271 0
59 -241 377 0
105 148 396 0
64 110 -300 0
250 304 375 0
34 211 361 0
-31 -63 74 0
-27 -162 -249 0
-126 -172 -367 0
103 256 311 0
-16 230 -264 0
10 -142 202 0
66 -96 -142 0
61 110 361 0
-342 -354 369 0
-1 -55 375 0
38 41 350 0
-325 -334 355 0
62 167 188 0
27 226 -371 0
-20 232 -400 0
-64 218 -224 0
-91 169 -383 0
-18 172 -196 0
81 -183 -266 0
-159 -210 -299 0
95 122 -138 0
-25 -78 -375 0
28 49 -362 0
182 -230 -308 0
-231 -376 -380 0
152 178 -231 0
-128 -312 -344 0
52 -235 -258 0
72 -74 -224 0
-77 -123 248 0
101 216 -308 0
-113 267 -328 0
-90 153 -282 0
-28 86 -178 0
-51 -248 298 0
-62 360 -393 0
-40 -175 -321 0
-296 -313 356 0
152 314 347 0
-13 317 -393 0
-105 -228 -341 0
-13 106 167 0
-17 -40 -315 0
191 311 334 0
-29 -261 -303 0
-80 -142 -240 0
152 272 340 0
200 -374 398 0
-154 192 371 0
121 -154 -204 0
-128 -145 -191 0
-40 353 357 0
-23 315 376 0
-87 110 313 0
63 169 -304 0
-124 -302 328 0
-22 -63 147 0
55 194 -216 0
-27 150 154 0
71 83 -385 0
65 -121 155 0
69 105 235 0
127 -351 -385 0
109 -372 385 0
31 177 361 0
-355 -374 394 0
-140 282 335 0
-92 125 -221 0
93 173 -386 0
27 -275 -300 0
-285 326 329 0
-255 287 -327 0
-43 -155 -188 0
-247 248 -355 0
