c F2 random 3-CNF cnfgen RandomKCNF(3,200,1000,seed=2) m/n=5.0
p cnf 200 1000
-15 22 -24 0
55 65 -156 0
-101 -164 -186 0
-8 -10 -94 0
43 109 135 0
7 46 -84 0
132 -144 -173 0
-135 -189 -196 0
-42 -115 194 0
-72 -126 -128 0
-90 -146 186 0
-43 -84 -180 0
-78 -130 181 0
94 -126 132 0
28 49 -191 0
59 152 -175 0
-16 54 63 0
45 64 93 0
7 -11 -18 0
33 41 -189 0
12 64 151 0
89 -158 -161 0
-8 79 -126 0
103 -160 194 0
-24 170 176 0
-33 -115 -133 0
-37 -67 88 0
36 -143 180 0
34 -42 44 0
9 131 -182 0
19 -21 -65 0
72 109 176 0
42 99 105 0
6 26 27 0
-7 -56 -134 0
98 138 -165 0
6 -109 131 0
-25 123 170 0
-75 -94 157 0
26 -106 176 0
-5 173 -199 0
119 125 164 0
-7 73 96 0
50 -126 -194 0
-36 -119 184 0
-21 -32 66 0
-7 27 -178 0
75 -92 -118 0
-123 -124 -135 0
-41 -60 -102 0
22 174 -179 0
-38 46 140 0
10 -166 -175 0
-60 -172 182 0
29 -74 135 0
-64 85 133 0
-61 -119 181 0
113 -120 185 0
-14 -101 -131 0
-65 -182 -188 0
85 141 183 0
98 -104 -171 0
120 135 183 0
-56 104 187 0
100 -143 197 0
36 -126 -157 0
65 -132 145 0
19 -90 195 0
-125 -152 -194 0
8 -118 129 0
-104 193 195 0
-42 -98 128 0
-3 73 -143 0
-9 98 -138 0
-35 -128 167 0
-67 -78 -81 0
24 -131 133 0
-23 130 161 0
-60 118 144 0
-29 98 -173 0
-20 -86 92 0
-75 114 -128 0
-56 70 164 0
-49 61 -121 0
-35 -36 -60 0
-72 -88 -192 0
137 -160 -164 0
-45 -102 -124 0
-23 -48 123 0
8 -27 90 0
-167 188 -195 0
-61 -100 153 0
-52 81 93 0
53 -65 -85 0
23 65 88 0
-12 -157 187 0
-17 -37 -46 0
34 -83 -134 0
-14 -59 -101 0
140 -153 -160 0
-44 -117 -178 0
12 28 116 0
-20 79 -101 0
28 90 172 0
38 -110 -172 0
13 -62 122 0
8 36 144 0
-2 134 140 0
1 96 126 0
28 55 -120 0
-87 160 166 0
39 -54 161 0
77 -88 111 0
77 81 -102 0
-70 -73 136 0
36 108 180 0
50 55 101 0
-68 180 191 0
37 81 154 0
36 163 -178 0
54 -75 -162 0
-18 -133 146 0
77 -117 169 0
-55 -86 108 0
33 -111 -198 0
-89 99 -122 0
-50 -114 -194 0
-19 44 95 0
-54 79 175 0
8 -51 -81 0
-88 171 -186 0
-5 121 183 0
-39 42 -156 0
-22 -72 166 0
39 77 -145 0
-152 -158 180 0
55 -144 165 0
-36 -160 188 0
-101 -102 -117 0
56 58 62 0
-14 -100 182 0
-26 -70 -132 0
-18 149 -181 0
7 8 123 0
53 62 -83 0
27 165 -196 0
-9 -36 -182 0
-13 91 -143 0
-28 -90 -156 0
73 131 154 0
88 -112 163 0
-20 -170 -177 0
42 47 -62 0
47 76 173 0
57 -104 145 0
18 63 153 0
2 -104 178 0
-14 -133 135 0
-34 -40 110 0
-47 -133 -147 0
42 -127 153 0
6 65 -181 0
-65 -146 -162 0
-49 109 -112 0
-9 162 -193 0
-7 -78 -141 0
-64 -120 -183 0
64 -143 -170 0
93 108 -194 0
-30 -111 154 0
-100 -116 190 0
38 -60 -171 0
128 -182 -185 0
-81 -104 -147 0
3 103 -171 0
-3 -26 -30 0
-46 104 -188 0
-61 103 159 0
-8 78 89 0
-3 85 -104 0
53 -148 164 0
-78 -86 -200 0
22 -72 196 0
47 93 96 0
-61 -120 151 0
-1 -42 -131 0
47 167 -174 0
2 158 188 0
-1 22 160 0
70 102 -158 0
-10 -30 -79 0
20 32 -119 0
17 -69 165 0
-75 135 182 0
20 -33 -107 0
-11 -51 179 0
-40 -59 159 0
40 -49 57 0
27 70 -96 0
34 -109 188 0
5 88 193 0
-36 -127 -189 0
76 77 170 0
-2 24 -37 0
146 174 199 0
147 -186 200 0
48 -112 171 0
-86 110 128 0
-11 33 -169 0
189 -196 197 0
23 132 147 0
34 81 -138 0
104 -117 173 0
-13 28 89 0
67 -91 -192 0
12 36 59 0
-27 -39 -101 0
2 29 109 0
1 -49 -112 0
-40 -45 69 0
-80 -133 -145 0
-76 99 -197 0
-76 -118 148 0
-3 -66 145 0
-121 129 139 0
28 95 -189 0
-33 49 131 0
37 -79 117 0
-11 57 -142 0
78 140 -196 0
52 -57 -147 0
41 -68 156 0
-15 -50 126 0
-48 86 120 0
-66 -95 -191 0
13 -83 185 0
-47 99 -177 0
19 76 -178 0
17 137 149 0
-55 -94 -175 0
2 20 27 0
-8 40 76 0
-6 -151 165 0
100 -171 172 0
-42 56 -61 0
27 62 150 0
61 172 175 0
32 -52 -150 0
22 166 177 0
28 93 126 0
1 73 -100 0
-75 96 -168 0
23 -122 -129 0
-109 153 160 0
60 155 -166 0
-21 37 156 0
-49 97 -123 0
-27 -52 -87 0
-36 -64 -151 0
1 12 187 0
15 76 114 0
7 -9 20 0
-107 145 152 0
32 45 -52 0
69 133 -138 0
51 156 189 0
-2 -27 172 0
1 -151 165 0
62 72 178 0
-22 71 -109 0
-38 -153 160 0
-51 -58 151 0
-101 125 -168 0
11 -110 118 0
-104 136 -169 0
-74 78 192 0
31 -63 177 0
100 111 150 0
-10 16 53 0
90 -128 173 0
27 74 107 0
15 69 -198 0
-126 135 192 0
80 -105 136 0
117 119 -135 0
38 158 184 0
-14 -86 -186 0
148 153 154 0
-37 88 150 0
-13 49 153 0
-125 176 198 0
107 -153 167 0
63 -133 -136 0
-88 -128 185 0
1 85 -141 0
-108 -110 -157 0
2 66 195 0
90 156 166 0
-76 91 142 0
-88 173 186 0
-66 -68 -126 0
-133 -151 -196 0
21 22 -102 0
101 -124 -197 0
-69 116 -159 0
-93 137 162 0
-3 45 -174 0
-9 -109 169 0
-111 -130 -171 0
1 -68 70 0
-6 -48 51 0
-174 -179 194 0
6 -13 27 0
-36 80 -98 0
-9 -108 173 0
-37 -54 -116 0
70 -159 -181 0
-61 128 -162 0
-8 -68 -97 0
-56 147 163 0
-25 -44 48 0
51 168 -195 0
87 116 136 0
-31 -78 -135 0
-162 -178 199 0
-8 -114 117 0
-60 -83 -153 0
-35 71 94 0
95 -178 -200 0
56 -70 139 0
20 -148 164 0
3 -52 140 0
-47 -102 -154 0
40 -150 162 0
43 98 190 0
55 88 -117 0
-14 25 69 0
52 -98 181 0
124 162 167 0
21 94 -144 0
-92 122 -177 0
-130 163 194 0
-38 135 140 0
-57 -63 -196 0
36 -80 -176 0
36 80 -85 0
-10 -96 -153 0
24 -191 -195 0
12 122 -179 0
-83 -101 -174 0
107 108 151 0
55 164 190 0
-13 -20 108 0
34 81 -97 0
39 -106 155 0
27 29 48 0
11 -30 88 0
130 -188 195 0
73 135 184 0
-62 177 -189 0
78 125 180 0
-8 21 -90 0
-31 -59 99 0
19 63 119 0
-81 -113 -123 0
-34 -80 -197 0
-6 18 -25 0
13 79 200 0
-92 161 165 0
32 69 158 0
2 74 -152 0
-23 -80 90 0
16 -150 -195 0
-178 195 -199 0
-21 74 88 0
-19 88 132 0
-75 93 165 0
91 -150 -172 0
38 -68 170 0
99 -103 -192 0
66 -82 -127 0
-18 19 73 0
-31 -105 170 0
113 161 190 0
-3 33 116 0
141 186 -188 0
-39 53 -152 0
20 -124 187 0
64 65 -70 0
-67 98 -134 0
89 -158 173 0
15 89 -104 0
-31 165 -198 0
-41 -86 -114 0
-40 -70 184 0
-70 -82 166 0
-21 -36 -175 0
-17 -127 -144 0
-31 -138 173 0
137 -156 187 0
-7 151 -193 0
-52 -117 -143 0
86 -96 104 0
-51 123 190 0
-39 -101 137 0
-101 152 -175 0
79 -107 162 0
-63 -143 190 0
12 -85 -188 0
-177 -183 194 0
39 -149 -195 0
-46 -50 196 0
-19 -25 -112 0
-50 70 137 0
-4 50 -169 0
48 -160 -171 0
-123 -140 158 0
-4 52 187 0
-102 -133 -150 0
-44 -52 -185 0
-16 -51 107 0
125 -134 137 0
12 96 151 0
69 113 -119 0
-1 -125 146 0
50 76 -115 0
66 -137 186 0
-79 -95 -107 0
70 -179 199 0
-76 114 -161 0
-36 -104 186 0
52 73 188 0
24 33 156 0
48 -131 -186 0
22 -122 -175 0
61 106 -159 0
-61 -78 111 0
-48 -102 193 0
100 102 187 0
106 125 138 0
48 64 -126 0
16 -89 163 0
46 -51 -74 0
-135 147 -153 0
24 41 -191 0
21 87 -113 0
70 104 -198 0
46 -91 -196 0
21 -41 -152 0
64 -150 -198 0
-47 -53 199 0
-77 126 -184 0
70 -73 -74 0
121 -145 199 0
-24 -154 183 0
67 -95 -134 0
24 -36 63 0
-39 -41 -196 0
-19 -138 170 0
19 -118 157 0
-87 -141 180 0
89 -125 171 0
-13 82 -179 0
13 -73 -113 0
154 168 184 0
55 135 -194 0
-78 140 175 0
-45 -84 -188 0
92 126 -156 0
-49 89 -110 0
120 -144 -174 0
-74 -155 198 0
-110 115 -175 0
3 53 -103 0
-47 -95 -180 0
5 144 -191 0
30 42 -55 0
26 137 184 0
-2 192 197 0
91 -93 158 0
-143 146 163 0
87 101 142 0
-58 -79 -164 0
60 -96 105 0
-20 -32 -42 0
-2 43 -113 0
22 -107 110 0
28 181 -198 0
-63 -70 -118 0
48 -56 112 0
75 -88 -104 0
38 -39 79 0
50 84 -105 0
-111 123 149 0
-13 58 -162 0
-93 122 -191 0
-117 -155 188 0
-116 167 188 0
78 -84 116 0
2 -133 -159 0
65 86 105 0
86 -153 -196 0
-98 -137 193 0
-27 -135 161 0
-23 -56 187 0
-66 118 162 0
6 -48 160 0
118 -164 -191 0
-129 153 -177 0
-39 -84 172 0
-74 121 -145 0
-7 -18 104 0
-6 9 -194 0
34 -91 124 0
-148 -176 -177 0
-79 101 109 0
19 -73 -172 0
-98 127 -166 0
89 -147 181 0
-36 -104 165 0
22 -74 141 0
13 33 162 0
-2 65 -137 0
-19 -26 67 0
30 109 200 0
-38 -121 -125 0
-27 -58 177 0
-89 -182 186 0
8 -26 -125 0
4 112 143 0
127 -163 -182 0
63 70 111 0
137 159 188 0
-10 136 -149 0
143 155 -185 0
19 -130 -154 0
-36 56 -126 0
-23 62 -159 0
38 76 181 0
-32 40 118 0
50 -152 154 0
-40 -58 -81 0
22 98 -190 0
-26 -84 -102 0
-19 23 -92 0
-127 -138 156 0
99 151 -159 0
-4 50 188 0
-82 94 -143 0
-24 34 42 0
107 -187 -188 0
-75 -105 -184 0
107 117 -122 0
19 130 -165 0
34 44 93 0
5 -26 54 0
-33 -131 132 0
-55 -100 138 0
16 -94 -140 0
5 -21 139 0
-93 -114 -143 0
20 36 166 0
-8 -50 -111 0
8 161 181 0
5 -31 -112 0
-27 -30 -86 0
48 -68 134 0
-57 80 -178 0
20 -27 -62 0
64 70 -115 0
-122 -137 -170 0
21 51 -128 0
2 -94 -177 0
5 56 -122 0
92 -118 -152 0
-94 -121 194 0
-2 122 -180 0
14 -53 -161 0
26 147 -186 0
13 23 97 0
-80 142 198 0
-7 -119 192 0
33 -139 176 0
-36 -79 -86 0
26 -66 -137 0
98 -163 -165 0
2 61 194 0
-28 -49 -164 0
23 25 49 0
-1 -58 80 0
-67 -80 -127 0
-31 -103 -146 0
18 123 181 0
-130 159 167 0
14 -65 -135 0
68 -110 118 0
99 111 122 0
-61 -106 109 0
-74 130 181 0
36 -187 -196 0
-85 -137 168 0
-87 -101 119 0
22 40 -158 0
36 -46 90 0
30 -56 -87 0
-13 -98 -132 0
-60 79 181 0
30 102 187 0
-41 -187 198 0
47 52 153 0
-95 -129 133 0
-134 -137 197 0
5 93 179 0
-62 -147 -182 0
-15 -24 -116 0
-20 -123 -145 0
46 141 173 0
66 -164 -181 0
-55 -86 -114 0
-55 -185 191 0
-25 42 -148 0
82 125 -190 0
127 131 -144 0
50 149 160 0
-10 -176 -196 0
-22 -79 147 0
-67 99 164 0
-13 26 -165 0
-93 -103 -157 0
-19 -98 159 0
-115 161 -197 0
58 137 -192 0
94 147 199 0
-8 29 -164 0
45 -108 -182 0
-51 -141 -177 0
-58 -180 -193 0
25 175 -177 0
-57 -60 187 0
-13 108 -113 0
85 154 163 0
9 13 -123 0
91 -161 -195 0
-16 51 -59 0
-12 -116 -180 0
-24 68 177 0
61 84 91 0
58 -105 -136 0
-5 -187 199 0
-10 41 143 0
-5 -47 -188 0
20 -74 180 0
-7 187 -192 0
-37 46 -63 0
22 -28 -184 0
80 -135 -187 0
110 -162 193 0
7 44 -139 0
-34 -92 120 0
36 81 86 0
78 80 -199 0
-16 79 194 0
-63 -71 182 0
6 94 -169 0
-52 104 -189 0
-61 -183 195 0
-114 -126 -149 0
-104 182 -191 0
5 10 -23 0
-3 94 145 0
-26 -78 128 0
-11 18 179 0
44 93 169 0
83 -88 144 0
36 -80 -93 0
12 -16 190 0
38 -166 -170 0
-50 68 -170 0
-17 -172 -196 0
-36 103 -169 0
71 -94 -173 0
-128 178 187 0
13 76 -167 0
7 115 118 0
3 -79 123 0
-75 -78 -133 0
-1 -29 -187 0
-31 -99 166 0
-1 31 -175 0
-17 123 172 0
-23 -135 184 0
-89 -154 -188 0
1 34 49 0
-107 -127 137 0
29 115 -148 0
-48 181 -182 0
-32 -125 180 0
-108 114 -196 0
-18 33 -104 0
-47 176 -200 0
-111 -123 -151 0
-77 164 -189 0
33 39 -167 0
60 79 -122 0
-4 72 -124 0
103 -159 182 0
-75 104 -154 0
-27 146 182 0
-107 137 185 0
-31 -110 -186 0
126 127 174 0
-62 124 -128 0
-31 -156 -194 0
-87 159 -175 0
-16 -38 -143 0
-18 63 185 0
51 115 -120 0
-8 -16 67 0
-27 91 -111 0
-3 132 183 0
23 -34 -39 0
40 -53 -179 0
-90 -103 134 0
34 -196 -197 0
-50 59 -175 0
32 -95 133 0
70 75 173 0
25 -66 188 0
18 -37 -86 0
20 36 -96 0
139 -190 -197 0
-73 140 -163 0
16 61 -165 0
80 -158 186 0
-121 -126 -127 0
-67 -162 -189 0
-52 160 191 0
13 -111 124 0
-57 102 192 0
155 180 -193 0
42 83 -159 0
59 151 -173 0
-103 105 109 0
-26 165 169 0
-38 98 -107 0
-120 -163 190 0
51 62 154 0
-35 100 174 0
63 108 196 0
-11 -44 -170 0
-3 -45 -73 0
-34 71 105 0
-52 -95 -137 0
136 -151 160 0
16 -130 166 0
-61 -158 -193 0
54 -77 -198 0
21 -67 147 0
14 -85 -195 0
38 -99 103 0
-27 -48 -173 0
-1 -137 -191 0
-45 71 -95 0
-1 -170 -183 0
-46 -69 160 0
-73 -148 -191 0
-31 -52 188 0
4 72 176 0
-44 127 179 0
40 144 -154 0
100 -140 156 0
42 -113 146 0
63 -163 165 0
-69 -88 -166 0
36 119 193 0
33 102 182 0
68 -110 157 0
-19 45 -87 0
63 -139 143 0
32 -51 -151 0
-142 158 163 0
56 -118 -182 0
65 -83 159 0
59 119 186 0
-78 -94 127 0
7 9 -50 0
-26 -172 -198 0
83 88 -145 0
87 93 -186 0
-74 -132 -142 0
-57 -137 182 0
-28 129 -150 0
-9 43 146 0
-49 -54 -184 0
61 92 180 0
23 78 -179 0
-35 -72 153 0
-25 -124 181 0
-48 -91 -116 0
-114 178 -187 0
-158 -187 -192 0
-110 120 -182 0
6 -16 -76 0
33 137 -165 0
33 -70 158 0
96 133 135 0
-106 -113 122 0
37 -52 -76 0
-77 134 -148 0
120 -142 157 0
-20 90 -124 0
96 137 -196 0
-34 73 189 0
101 -179 192 0
12 123 -127 0
50 189 -190 0
62 91 -172 0
13 52 -75 0
91 -112 -148 0
18 -89 -155 0
-44 -46 -77 0
-19 154 -155 0
-29 132 -192 0
-44 106 -195 0
-70 -76 194 0
167 168 -176 0
39 101 137 0
-10 26 -157 0
71 -83 189 0
-38 185 -199 0
31 56 137 0
-119 -153 -189 0
21 62 -81 0
66 100 -115 0
-74 -82 -92 0
-93 -158 -200 0
19 -43 184 0
25 117 -173 0
95 -115 121 0
30 -84 -191 0
8 65 68 0
-115 -134 -194 0
65 -90 151 0
-38 -109 -174 0
-18 37 -124 0
-12 -128 -153 0
-24 -105 195 0
64 -75 -89 0
-66 131 166 0
-3 -67 71 0
125 -140 -146 0
25 -101 162 0
-31 138 -181 0
-32 -129 186 0
-22 -120 182 0
74 -103 -127 0
-60 115 -188 0
10 -17 189 0
14 108 -131 0
41 -85 -131 0
6 27 166 0
83 129 139 0
11 73 -176 0
36 -107 162 0
-16 -51 71 0
-44 -79 -167 0
8 94 155 0
-153 -154 180 0
34 -40 144 0
-36 -122 139 0
35 99 -180 0
28 -46 -73 0
97 -117 -195 0
-8 37 76 0
6 -186 198 0
15 84 101 0
6 -111 176 0
-5 -63 -113 0
-10 -36 -168 0
96 -97 98 0
12 -54 85 0
75 92 123 0
172 -181 197 0
1 72 119 0
89 -156 170 0
-9 46 142 0
178 181 -193 0
29 -56 -119 0
-97 -98 -153 0
61 -94 161 0
-63 98 169 0
-100 141 167 0
-136 -147 149 0
11 -22 -83 0
58 -86 -191 0
76 103 118 0
40 62 137 0
-96 -139 143 0
-22 28 -35 0
-7 -9 162 0
-56 122 138 0
26 -113 -170 0
-55 162 -185 0
24 27 48 0
-101 108 117 0
-13 71 -124 0
-112 132 185 0
14 -81 -173 0
-93 100 173 0
26 46 -193 0
60 79 -108 0
-3 34 138 0
-34 40 -80 0
-4 -14 25 0
-78 -153 196 0
73 -141 173 0
55 81 -110 0
1 -12 -22 0
-43 52 70 0
21 102 -131 0
98 -169 -177 0
-10 83 85 0
67 -91 166 0
39 -127 -200 0
62 -153 161 0
-52 80 -142 0
86 137 183 0
36 -189 -200 0
16 -140 -184 0
19 130 -162 0
12 -127 160 0
80 142 -191 0
38 70 -150 0
34 53 -163 0
137 -156 167 0
-50 -98 180 0
11 16 200 0
-7 -110 -137 0
-21 26 -140 0
-65 139 -198 0
-86 -179 199 0
-48 -84 170 0
-13 25 -160 0
-11 -16 43 0
-8 46 59 0
-99 -106 -116 0
9 -12 -120 0
39 161 -169 0
70 -92 -176 0
-115 -118 133 0
-23 -117 -190 0
-84 101 -200 0
-64 -156 -164 0
71 107 141 0
-66 -108 135 0
-27 125 132 0
87 163 -196 0
31 -165 189 0
-80 144 -192 0
108 -120 -167 0
-67 -135 182 0
44 -66 118 0
-27 -28 186 0
-54 66 148 0
52 67 -68 0
-61 130 -169 0
84 -90 149 0
57 -147 -197 0
-1 79 150 0
-86 96 -136 0
-41 165 180 0
-41 92 126 0
74 -129 193 0
30 -100 -167 0
78 -101 199 0
51 -161 -193 0
71 -194 -199 0
87 143 159 0
56 112 188 0
-80 116 177 0
85 117 137 0
-29 -78 -165 0
-73 120 -196 0
3 47 116 0
35 -87 -111 0
-105 110 146 0
-130 161 -168 0
-42 60 144 0
47 -94 -115 0
43 -120 128 0
34 180 -197 0
-100 -151 178 0
120 -142 188 0
22 -108 -163 0
41 -68 186 0
-68 125 145 0
47 57 -162 0
25 96 -138 0
-4 -153 -188 0
20 -79 138 0
