c F2 random 3-CNF cnfgen RandomKCNF(3,100,500,seed=3) m/n=5.0
p cnf 100 500
31 -70 -76 0
9 -75 -81 0
-25 -30 -71 0
20 -30 82 0
9 86 -100 0
-4 -35 -100 0
-51 74 -94 0
-5 13 -18 0
-56 -87 -100 0
-45 69 -74 0
4 -36 88 0
-28 -84 92 0
-9 62 -82 0
9 -20 -53 0
16 54 -99 0
-43 76 92 0
1 10 40 0
-38 53 79 0
41 -44 -47 0
50 -59 -67 0
82 -92 -93 0
-34 39 -67 0
-3 41 75 0
-43 -81 -82 0
-36 78 91 0
-3 -48 -87 0
41 -76 77 0
-41 -48 -98 0
4 -14 99 0
-31 35 -84 0
13 -84 -90 0
29 57 -87 0
-28 -84 95 0
5 -16 68 0
36 -44 83 0
-38 -54 -67 0
-38 -54 82 0
20 -26 -53 0
29 -72 -92 0
30 -44 70 0
5 -6 32 0
2 62 -96 0
-3 31 85 0
-17 33 -44 0
16 26 29 0
-1 -17 36 0
-32 -35 97 0
42 61 100 0
6 -7 16 0
-12 -66 92 0
-10 -41 -45 0
-25 -34 47 0
-1 17 72 0
-6 48 -59 0
-7 -48 -81 0
54 59 89 0
35 -69 89 0
-4 -17 -55 0
16 -60 89 0
41 73 -94 0
-19 31 100 0
-13 73 85 0
4 -16 -44 0
12 39 75 0
13 -71 96 0
10 -24 -31 0
-33 -48 -77 0
11 -49 65 0
-54 73 -89 0
-13 -20 -21 0
24 -76 93 0
-19 66 -75 0
-53 86 -91 0
-3 35 62 0
-31 -47 73 0
54 -62 90 0
-10 62 -93 0
30 31 -83 0
-25 31 100 0
80 -87 91 0
-6 24 41 0
-12 16 -34 0
-58 75 94 0
-43 49 56 0
-75 -83 96 0
-16 41 -70 0
-15 57 -68 0
-48 -87 -99 0
14 -44 -97 0
8 38 92 0
48 59 84 0
-43 -83 93 0
40 59 62 0
-24 -92 97 0
7 35 -50 0
-32 -35 -65 0
58 -70 -99 0
15 20 35 0
-24 -25 90 0
-19 76 78 0
-23 -26 -73 0
-4 -53 -57 0
-64 -68 82 0
25 77 94 0
-23 63 68 0
-5 28 -68 0
-18 20 85 0
4 47 -80 0
-3 -44 -69 0
11 18 -89 0
-9 26 -27 0
-6 14 41 0
-21 -51 91 0
-27 -55 69 0
-59 -60 97 0
-5 -59 -93 0
-47 58 68 0
27 -34 48 0
3 -21 27 0
4 18 -82 0
8 -24 -63 0
5 41 -53 0
6 51 64 0
13 50 -61 0
15 45 -80 0
-36 39 -60 0
-4 -44 81 0
8 56 88 0
4 12 88 0
-7 25 -62 0
44 -45 -62 0
-78 81 -97 0
-15 -24 -53 0
-23 -94 95 0
47 -54 -57 0
-22 -35 45 0
20 -22 91 0
87 -89 98 0
8 -77 -83 0
-43 83 94 0
-14 -25 52 0
11 58 84 0
19 20 83 0
-27 -29 37 0
23 60 80 0
4 -13 77 0
14 52 -60 0
-86 -90 -98 0
-15 -38 100 0
-1 -15 70 0
-25 44 -45 0
9 55 -83 0
-8 -31 43 0
28 33 42 0
-60 -79 95 0
-53 -62 80 0
3 24 38 0
38 -65 67 0
-25 -27 -96 0
5 -45 60 0
-14 -39 57 0
-20 -27 -63 0
-21 -40 56 0
-4 -37 -47 0
32 39 96 0
20 68 81 0
-1 -27 -99 0
5 63 71 0
36 44 -56 0
-32 -34 -40 0
-4 6 44 0
32 -73 -98 0
18 36 71 0
3 -63 -83 0
-67 -86 97 0
10 24 -38 0
-46 -57 -100 0
37 -58 68 0
-5 53 -67 0
35 -75 79 0
-17 36 -63 0
10 -48 -86 0
25 -40 -45 0
7 35 -41 0
-41 51 79 0
33 -53 54 0
11 26 95 0
-9 -37 -89 0
35 38 60 0
19 22 -63 0
51 83 -87 0
7 -24 98 0
17 19 84 0
-14 -49 100 0
4 14 36 0
-17 38 50 0
-1 19 48 0
46 -63 -70 0
-3 -45 -95 0
40 -57 -69 0
-26 77 -97 0
22 35 41 0
8 53 78 0
-16 -21 52 0
-60 -70 75 0
-28 -76 -77 0
-41 -76 -82 0
35 37 39 0
44 -83 -94 0
-17 -35 58 0
-67 68 80 0
-54 55 71 0
28 -49 50 0
8 -64 -71 0
47 -72 -92 0
-48 -52 65 0
-19 64 75 0
9 48 79 0
-27 42 56 0
-4 -69 -94 0
-28 57 -93 0
-18 -29 61 0
16 -23 77 0
-1 45 -49 0
18 -36 -50 0
13 37 -56 0
42 96 -97 0
55 -62 -81 0
29 -42 75 0
7 67 83 0
-24 -30 -61 0
59 68 -85 0
-18 -44 -76 0
75 -93 99 0
40 -56 93 0
14 -24 59 0
24 -41 -97 0
32 50 -88 0
29 -47 -50 0
-7 34 45 0
29 39 57 0
27 -62 90 0
-23 -88 97 0
-39 57 81 0
59 63 -69 0
-54 67 -88 0
-45 -63 65 0
-15 54 -92 0
14 -45 -68 0
-20 -70 -81 0
6 45 -75 0
-37 -75 -87 0
-2 -55 -87 0
24 -48 73 0
50 -73 92 0
41 -63 -93 0
-26 53 71 0
62 78 90 0
13 -16 -71 0
-9 -36 -51 0
16 30 -34 0
-19 -48 56 0
34 74 100 0
-34 45 94 0
18 91 -97 0
15 42 43 0
35 -63 -86 0
-55 -65 -96 0
-35 38 70 0
5 22 56 0
-27 -65 94 0
-72 73 81 0
21 -28 -95 0
20 -37 95 0
12 18 34 0
-1 -11 -90 0
23 34 -90 0
54 88 90 0
-44 -67 93 0
6 -28 -50 0
-29 57 81 0
28 -30 -45 0
13 41 -51 0
4 -13 52 0
-26 -59 73 0
-55 67 76 0
58 -65 68 0
-17 57 67 0
38 47 -68 0
-9 32 62 0
3 61 -80 0
-2 -7 -45 0
-39 63 -100 0
-12 73 81 0
25 31 -88 0
68 96 99 0
39 -66 87 0
47 -64 -87 0
-51 -56 72 0
-40 -42 -62 0
-13 -27 -46 0
-26 62 97 0
-7 75 -79 0
13 -24 -41 0
-54 -56 -73 0
-6 -47 -94 0
29 35 68 0
-4 78 -99 0
-49 62 -65 0
8 51 83 0
73 88 -92 0
15 66 100 0
-17 -38 71 0
-21 -28 -89 0
57 -66 81 0
-41 44 76 0
11 -26 37 0
29 -30 -43 0
28 -70 100 0
39 65 -83 0
-10 33 -75 0
20 28 -45 0
-8 -33 -55 0
26 -58 -68 0
-12 -14 -86 0
76 -84 100 0
16 74 -78 0
22 -45 77 0
15 -41 -100 0
-3 -38 -72 0
22 62 99 0
-36 48 -62 0
-47 49 -61 0
-62 64 -73 0
10 40 92 0
-23 -85 95 0
1 -47 70 0
7 49 -79 0
45 -63 -96 0
71 84 95 0
11 -26 86 0
4 43 -85 0
5 -16 -66 0
-39 80 96 0
69 83 -90 0
-17 -45 -90 0
-18 -80 94 0
-22 -30 -98 0
-31 -67 -90 0
45 -97 -99 0
-10 -24 -50 0
28 -56 66 0
-47 77 -94 0
-68 -78 -85 0
-25 95 100 0
51 57 -63 0
-18 72 92 0
-26 31 -81 0
25 48 -85 0
39 -57 -63 0
-23 -59 -81 0
9 31 -44 0
10 45 69 0
21 42 -61 0
31 61 75 0
-19 41 -87 0
45 -49 -75 0
52 -86 -90 0
3 -83 -90 0
16 40 47 0
-6 -53 96 0
10 -56 -88 0
-24 -55 86 0
-30 77 -90 0
-46 48 89 0
1 47 -95 0
-18 -25 34 0
-33 -52 97 0
27 49 -84 0
-34 -39 46 0
45 -67 -83 0
36 78 -98 0
28 84 -93 0
34 58 76 0
-3 66 -74 0
40 46 -80 0
-23 -61 99 0
-21 76 87 0
-2 46 -73 0
-15 -56 -80 0
-39 46 -82 0
-10 -25 88 0
9 -34 -70 0
-32 -82 98 0
1 10 74 0
-14 26 84 0
-22 51 65 0
-27 42 49 0
6 -12 91 0
-12 24 -57 0
20 65 85 0
-36 63 83 0
-39 80 87 0
21 -80 81 0
14 31 -99 0
-28 72 -90 0
-12 32 57 0
52 74 -81 0
-13 17 -60 0
-15 31 70 0
4 10 -61 0
-43 -61 78 0
14 46 -76 0
5 -9 41 0
-4 37 -88 0
-7 -50 92 0
27 -46 -71 0
-70 81 -96 0
11 -33 89 0
-10 40 50 0
-29 -67 -93 0
19 20 89 0
-48 -59 -65 0
-39 -66 -72 0
-11 78 92 0
-50 -55 -79 0
-13 30 59 0
-49 75 -92 0
-3 -39 95 0
18 25 -76 0
-50 -53 67 0
-1 -20 -97 0
14 -23 32 0
-46 73 -87 0
-7 -47 -82 0
-1 27 -97 0
-1 -11 32 0
51 -62 81 0
39 -58 72 0
20 56 97 0
3 -15 -32 0
-6 58 71 0
15 -44 61 0
-22 -41 46 0
-11 23 -57 0
-12 -17 -29 0
10 -14 -25 0
23 26 83 0
-26 44 82 0
23 52 -86 0
-7 -40 -48 0
-39 44 -69 0
-25 -91 92 0
40 -58 73 0
-15 61 -66 0
-7 20 -85 0
-1 -31 39 0
57 78 -87 0
47 -67 -77 0
-11 55 91 0
33 73 100 0
-34 -57 63 0
37 52 95 0
12 55 -85 0
-31 35 -43 0
-2 -31 -49 0
3 21 46 0
17 -28 78 0
-53 57 89 0
-42 -65 99 0
-28 -31 75 0
-60 64 -96 0
12 -45 -97 0
-41 57 69 0
33 71 -74 0
-38 57 -58 0
-7 -38 46 0
20 -44 84 0
9 48 -72 0
-37 -55 -77 0
48 -59 91 0
24 -32 -75 0
-9 -25 -37 0
28 42 -91 0
-12 -41 76 0
17 -75 90 0
17 23 -79 0
39 -63 -84 0
46 -82 -88 0
-17 37 -81 0
-47 60 77 0
-2 -55 -86 0
-38 46 -60 0
7 16 -21 0
-48 -58 68 0
49 -73 -96 0
-26 46 100 0
17 -28 -65 0
-18 39 -85 0
-49 -84 90 0
