c F2 random 3-CNF cnfgen RandomKCNF(3,300,1500,seed=0) m/n=5.0
p cnf 300 1500
-21 -198 -216 0
156 184 -245 0
49 -72 129 0
38 -170 -242 0
-105 -162 -283 0
8 -32 281 0
-125 171 253 0
114 -123 291 0
-42 164 -261 0
-64 150 -283 0
-47 198 -228 0
95 -96 -97 0
36 46 67 0
-201 269 277 0
-141 -215 -297 0
-43 -60 167 0
9 125 -139 0
88 171 219 0
24 113 294 0
-62 97 -295 0
12 19 60 0
32 -108 246 0
36 -114 -134 0
-32 93 224 0
-103 -134 201 0
30 -82 -105 0
61 -90 -227 0
-160 -261 -292 0
-7 79 -288 0
24 144 -279 0
148 -181 -184 0
1 -42 213 0
-115 -123 230 0
206 215 -291 0
-33 -81 133 0
-20 -167 254 0
97 213 281 0
162 206 214 0
2 51 271 0
94 -144 -155 0
-12 42 -141 0
69 178 -267 0
10 -21 -22 0
-22 -188 -291 0
92 -191 -276 0
-5 -71 -78 0
48 174 -189 0
-77 -84 -299 0
67 -151 281 0
25 -92 -158 0
154 169 -213 0
173 -176 243 0
-20 -219 255 0
86 193 290 0
-32 102 114 0
-202 -266 -285 0
112 -217 300 0
-86 134 -300 0
-15 33 59 0
132 204 255 0
-54 -75 -102 0
-54 78 -280 0
-217 -254 -267 0
104 -113 -278 0
19 -165 269 0
-151 195 299 0
21 34 265 0
-8 154 230 0
-191 236 259 0
40 -219 -266 0
120 199 247 0
-155 -260 292 0
-135 -156 -253 0
32 -66 -84 0
-19 29 -247 0
-42 78 -181 0
25 -198 235 0
-11 17 -68 0
100 197 -252 0
64 -152 -173 0
63 -97 -266 0
-98 191 234 0
21 131 249 0
-48 -258 269 0
-75 219 290 0
-33 51 213 0
214 -221 -229 0
41 130 -181 0
16 177 179 0
37 74 188 0
-4 64 151 0
73 -96 -233 0
15 -67 -133 0
-150 152 243 0
-53 274 -298 0
-65 76 115 0
-95 150 191 0
11 40 -202 0
154 -214 -282 0
-44 -128 182 0
-5 -193 -210 0
-105 151 191 0
56 -58 -142 0
95 216 -222 0
-73 -175 268 0
105 -151 -248 0
4 -112 153 0
-48 218 -242 0
-12 62 144 0
-132 -204 270 0
130 146 182 0
-37 135 157 0
-35 -84 213 0
108 -268 -294 0
-143 150 227 0
-62 -64 196 0
-154 -182 287 0
-245 -251 257 0
-74 154 228 0
-14 182 242 0
-4 42 203 0
2 139 -150 0
-54 -98 -223 0
-87 170 -216 0
76 162 269 0
-179 -200 -228 0
101 113 -225 0
18 -44 120 0
89 -120 -153 0
-28 -211 -235 0
-111 -131 244 0
-23 27 -84 0
-4 33 -72 0
114 -233 286 0
-44 -164 -166 0
15 -23 268 0
108 178 -269 0
-155 -160 -265 0
-23 123 177 0
225 -236 -254 0
61 226 236 0
51 -79 212 0
202 219 287 0
-66 -113 -251 0
-55 223 -286 0
-227 -237 264 0
9 -51 61 0
-4 112 146 0
-61 140 -197 0
-34 -114 123 0
147 192 246 0
-168 259 284 0
80 91 203 0
110 255 292 0
-68 181 197 0
-184 -251 270 0
-84 -113 -285 0
-41 71 -133 0
31 150 -197 0
128 -176 -226 0
-9 84 157 0
12 181 252 0
-7 24 116 0
70 -177 -217 0
73 -160 -184 0
-5 -196 210 0
-63 210 290 0
71 257 -264 0
91 122 127 0
-41 54 219 0
130 175 -193 0
46 -150 184 0
-84 -183 -260 0
-8 -202 -253 0
-18 273 -293 0
-62 -203 207 0
-11 -18 140 0
-175 -265 271 0
60 -169 290 0
5 79 -170 0
-150 -151 -186 0
1 88 -221 0
-5 -65 175 0
-36 218 282 0
33 -81 -297 0
137 -146 -160 0
-133 -270 276 0
4 -73 -222 0
-19 238 288 0
82 -186 -271 0
10 -128 293 0
-40 216 -294 0
52 -97 261 0
-140 -203 -219 0
47 -158 168 0
-104 -129 -204 0
-20 239 -299 0
-13 168 204 0
-42 178 290 0
-57 98 -277 0
13 -162 -202 0
-73 76 207 0
65 69 -247 0
93 177 300 0
-104 -134 -136 0
-80 234 265 0
91 -263 300 0
-99 123 -234 0
70 244 -285 0
-2 -41 -54 0
-172 194 263 0
12 94 -163 0
23 -99 -212 0
27 -87 184 0
-131 -182 -226 0
-16 93 -233 0
33 50 -184 0
11 -91 -207 0
244 254 -284 0
15 135 -265 0
51 184 -242 0
-1 19 193 0
82 -83 90 0
23 204 -248 0
-88 122 169 0
187 -216 238 0
-3 84 299 0
10 13 166 0
58 -76 294 0
-215 224 291 0
-111 187 262 0
180 -209 -290 0
126 -196 242 0
204 -247 -298 0
191 -270 278 0
-21 142 165 0
-14 -74 -201 0
54 236 -237 0
-82 211 -243 0
-74 177 184 0
-91 -132 -299 0
-22 150 -283 0
-107 138 193 0
57 -85 -183 0
-39 40 238 0
79 85 107 0
-148 183 -253 0
-82 135 -176 0
-121 -157 -285 0
-157 -242 262 0
3 76 79 0
87 137 193 0
-60 186 -247 0
-130 189 300 0
40 283 288 0
-107 -210 -265 0
11 -69 199 0
-45 193 -208 0
-21 -53 -246 0
93 -136 243 0
74 155 -234 0
202 -210 -290 0
57 -118 152 0
30 71 287 0
208 -252 -286 0
3 50 -176 0
116 -141 -160 0
47 -175 -261 0
116 189 -196 0
-103 -184 247 0
-62 182 -206 0
-143 -184 -222 0
54 -150 246 0
-96 -125 177 0
-57 -197 200 0
-160 205 -258 0
-1 -48 -266 0
25 -117 221 0
103 135 168 0
15 120 -187 0
3 67 274 0
-1 102 239 0
-117 -120 213 0
108 -196 224 0
-178 -189 299 0
48 129 -265 0
-13 70 -73 0
104 216 -261 0
-64 230 -261 0
-66 -174 -281 0
-41 259 -290 0
-128 180 -247 0
-4 208 -283 0
-124 130 245 0
-146 185 226 0
97 154 266 0
19 -172 -176 0
97 211 -255 0
25 -174 267 0
-266 278 -299 0
110 226 -293 0
101 163 285 0
69 125 -227 0
147 174 -253 0
-183 -225 -286 0
35 76 240 0
202 -238 277 0
11 -107 -208 0
3 -108 -277 0
195 276 -279 0
-8 -105 215 0
-12 15 -123 0
-57 133 -229 0
174 -197 260 0
-23 80 -162 0
164 198 -223 0
16 -69 73 0
-17 136 -140 0
98 -150 192 0
-12 -83 254 0
-51 177 -288 0
54 267 -293 0
-18 115 267 0
91 -118 -205 0
81 138 -179 0
66 142 -161 0
18 158 -166 0
59 -86 -141 0
-46 213 258 0
-90 166 -238 0
12 -17 147 0
-161 163 281 0
72 -133 -265 0
-116 -144 -299 0
-63 217 230 0
119 197 245 0
51 -94 158 0
186 212 -270 0
-138 -145 207 0
85 183 269 0
75 -114 155 0
93 120 214 0
-87 127 -298 0
32 -103 -211 0
-109 198 274 0
6 45 273 0
-142 -203 -231 0
40 81 133 0
-28 35 -262 0
69 149 -261 0
-153 184 188 0
-103 -204 -246 0
-72 -226 -244 0
-195 -203 297 0
-97 111 221 0
-260 -265 -273 0
155 222 -234 0
10 36 -235 0
1 -95 -111 0
5 -9 11 0
-186 202 -256 0
13 -60 -89 0
-101 107 197 0
-78 255 259 0
17 28 -224 0
97 -159 170 0
-141 -162 -249 0
40 -82 -235 0
-82 216 230 0
-58 -96 300 0
135 -142 218 0
5 8 -21 0
-14 198 247 0
116 201 -297 0
15 -25 -205 0
-29 208 280 0
-46 -87 -107 0
109 130 207 0
6 80 146 0
4 -166 171 0
-45 -107 -191 0
241 249 -275 0
-197 -207 225 0
-74 113 205 0
-18 74 80 0
-138 -269 -290 0
-164 206 239 0
176 188 197 0
-57 189 244 0
58 -260 266 0
-93 -175 -188 0
-1 -121 215 0
23 -246 -270 0
110 -248 298 0
-162 -227 297 0
201 -220 -263 0
-109 124 -152 0
122 -173 234 0
74 132 -282 0
-93 105 246 0
-108 -255 -277 0
-104 -182 263 0
23 -99 101 0
-129 -148 -257 0
28 -59 198 0
-137 -225 -287 0
46 113 192 0
170 263 299 0
22 -49 160 0
-102 -272 295 0
71 95 -116 0
-75 156 254 0
70 94 -209 0
-65 246 -276 0
3 74 -113 0
66 -75 249 0
-90 163 -234 0
-52 -97 -180 0
-112 -145 276 0
59 90 -193 0
74 134 217 0
-136 168 -226 0
197 200 282 0
-157 228 -265 0
45 -105 201 0
86 239 260 0
-49 124 194 0
-102 112 270 0
52 -67 -263 0
-15 -135 242 0
18 102 226 0
-74 122 -233 0
-149 169 201 0
46 190 -255 0
-10 123 -249 0
-60 -75 261 0
-99 -103 -185 0
-19 74 -203 0
-80 -97 270 0
-77 -294 300 0
-60 -72 81 0
20 -154 241 0
52 126 254 0
-134 -239 300 0
63 -122 298 0
7 74 116 0
35 -55 -144 0
-133 296 297 0
-31 -73 -232 0
-12 200 209 0
46 -74 -127 0
6 -129 -216 0
-49 -103 153 0
-44 135 -157 0
14 -198 -230 0
240 265 292 0
-55 137 -198 0
-136 242 -264 0
8 -89 -138 0
-16 -56 224 0
66 170 -211 0
-89 -227 -242 0
187 210 -300 0
-8 -50 68 0
50 -202 216 0
143 -155 270 0
-1 -48 -74 0
-102 -125 192 0
8 205 231 0
107 -160 169 0
53 148 279 0
-85 228 -239 0
-14 288 293 0
-43 52 -159 0
-118 197 -238 0
-5 -120 -216 0
-130 -240 243 0
-96 114 -237 0
127 147 -243 0
-94 -102 265 0
-17 -212 -252 0
7 102 -291 0
-45 -68 266 0
-12 -41 220 0
-102 -152 215 0
-20 -45 -178 0
-119 145 -249 0
-79 -148 -249 0
-155 -241 -281 0
88 -178 -300 0
34 -159 226 0
13 174 -193 0
36 51 91 0
-6 224 -267 0
160 204 -226 0
-55 -60 -81 0
-17 -155 -201 0
31 -35 -151 0
106 -194 281 0
22 -47 -189 0
1 17 30 0
42 241 300 0
34 40 53 0
42 -222 -250 0
87 257 -277 0
67 217 262 0
-49 -191 -194 0
47 -124 -290 0
-146 181 259 0
1 74 132 0
60 -248 -251 0
-21 -72 89 0
49 -254 -257 0
-60 -98 125 0
-141 199 -286 0
-18 -119 202 0
24 -135 -138 0
4 -117 -137 0
-59 88 269 0
-22 147 209 0
-82 89 169 0
-17 -98 -279 0
60 -178 -187 0
-96 117 246 0
201 212 -254 0
-110 196 228 0
2 155 292 0
-91 -129 -204 0
-218 252 -276 0
-130 -132 162 0
256 -258 -264 0
-12 19 -209 0
-14 -16 -253 0
-228 269 285 0
-108 158 183 0
50 -85 -233 0
-80 -226 -251 0
-23 -115 -269 0
50 158 274 0
33 100 -175 0
40 242 -294 0
70 -133 -289 0
67 -190 240 0
-52 -57 157 0
-4 208 244 0
-137 -214 -249 0
-75 106 -220 0
-37 -71 -239 0
126 -176 231 0
113 175 -255 0
-45 90 -163 0
-58 -60 -183 0
1 -159 171 0
-82 87 286 0
55 -133 269 0
201 238 249 0
-58 62 -78 0
42 296 -298 0
-89 -207 -272 0
90 134 207 0
-109 184 -267 0
-155 218 265 0
90 179 256 0
65 -223 226 0
62 69 -166 0
-176 -247 255 0
93 -101 -140 0
-25 -57 -90 0
-117 -163 173 0
14 247 267 0
10 71 -288 0
33 100 160 0
-185 -197 272 0
21 -115 201 0
79 103 -213 0
-144 -151 -232 0
-137 -169 -265 0
-172 206 207 0
-153 207 240 0
88 98 -245 0
84 -258 260 0
128 223 247 0
20 47 265 0
-108 184 289 0
-65 193 251 0
147 228 -292 0
49 -67 -97 0
-87 167 229 0
6 -32 -203 0
128 -170 219 0
153 -247 253 0
87 -170 -177 0
-4 -73 82 0
-140 200 -240 0
13 -57 -234 0
-80 153 -251 0
-14 80 213 0
-41 216 -263 0
-68 174 288 0
48 -58 125 0
-15 -169 -193 0
-20 -227 -266 0
-8 -115 243 0
151 179 -289 0
-61 103 -181 0
86 131 208 0
41 200 211 0
111 166 232 0
25 134 -225 0
9 25 -38 0
103 149 -267 0
-1 172 -280 0
-7 212 -294 0
-52 144 -178 0
8 -20 206 0
-221 239 292 0
233 276 294 0
-47 66 202 0
16 -56 -281 0
88 -145 -195 0
-103 264 266 0
213 253 -263 0
95 235 291 0
-62 -103 -151 0
-74 -93 296 0
-57 196 -292 0
114 -199 -210 0
24 -117 -269 0
41 115 293 0
15 156 164 0
132 -214 280 0
-23 -111 -264 0
31 -128 137 0
-138 191 -252 0
56 -146 184 0
-97 103 -124 0
87 178 -201 0
-57 103 131 0
-217 257 284 0
63 -148 -151 0
127 276 -298 0
-99 -184 219 0
72 180 -238 0
-164 -206 247 0
24 -146 211 0
35 -58 202 0
152 218 -299 0
189 212 269 0
56 -60 -275 0
-127 249 262 0
-12 93 175 0
127 162 -263 0
-147 253 268 0
-22 133 -207 0
34 134 231 0
-144 -172 225 0
-125 -165 -176 0
-9 -104 -193 0
-12 61 -280 0
48 -65 74 0
125 186 -290 0
11 -147 -163 0
-83 110 196 0
2 86 -293 0
-28 -115 -116 0
-192 -275 290 0
67 110 125 0
22 -55 -287 0
-8 203 231 0
-151 154 -284 0
-127 -291 -293 0
-62 -161 -294 0
-53 160 -229 0
-4 56 175 0
3 -10 -293 0
-11 57 -265 0
136 -155 -264 0
158 -170 245 0
-47 -79 -175 0
114 -143 -179 0
49 133 244 0
-129 171 -185 0
-90 146 -175 0
-39 139 -164 0
-89 -151 184 0
-81 125 229 0
-25 195 -228 0
-7 14 236 0
53 -205 239 0
-6 -30 -71 0
-35 -171 -247 0
25 -119 267 0
22 164 196 0
16 161 -276 0
222 -253 -277 0
-20 -89 -185 0
3 118 201 0
85 170 289 0
41 80 297 0
-10 -200 -209 0
9 -122 -289 0
-45 -176 295 0
-97 185 210 0
70 -95 269 0
-85 -131 -184 0
-95 203 -215 0
-77 -92 133 0
138 -181 192 0
-81 -103 299 0
1 -70 -188 0
-27 -49 291 0
-2 -118 -221 0
207 -208 218 0
-63 86 -165 0
65 -117 -131 0
179 -246 261 0
71 -139 252 0
117 147 -221 0
69 130 -296 0
-185 246 290 0
-177 203 -217 0
134 -204 256 0
94 -234 255 0
150 -218 -270 0
-78 84 108 0
108 178 296 0
-65 -130 295 0
-32 143 -294 0
-134 172 288 0
-16 -175 218 0
62 -216 -218 0
5 -21 -77 0
-15 172 191 0
-99 -109 284 0
-17 22 -43 0
60 -211 292 0
53 71 140 0
102 197 -223 0
111 -215 -261 0
-120 129 261 0
-56 136 290 0
52 -168 170 0
124 156 -293 0
77 167 246 0
21 -71 -292 0
-121 281 283 0
-50 90 -171 0
-104 -231 244 0
-82 -110 -232 0
86 -135 200 0
-121 177 -290 0
109 -203 -229 0
-13 18 185 0
-25 -28 -209 0
14 -196 -285 0
-23 32 174 0
51 270 -294 0
52 56 144 0
-119 -123 -284 0
-27 105 268 0
67 202 235 0
-61 -80 -223 0
-19 99 -282 0
-25 -72 -294 0
171 216 -234 0
-122 -257 274 0
-140 -223 -262 0
-49 -107 164 0
53 -125 210 0
-126 -215 -238 0
-34 244 300 0
-62 137 -269 0
13 102 -202 0
-171 218 -219 0
8 243 294 0
-85 -122 287 0
150 250 -259 0
76 100 127 0
142 -155 -227 0
-5 -20 86 0
14 -161 -237 0
-31 222 231 0
57 265 -278 0
119 -142 -165 0
45 -95 300 0
-129 182 245 0
-83 91 -270 0
27 273 297 0
-132 -190 -294 0
170 192 -269 0
50 59 -275 0
-112 -213 -276 0
6 -131 260 0
216 236 -295 0
-76 95 -196 0
143 145 -218 0
97 161 -280 0
70 210 -260 0
106 -136 -285 0
19 -68 197 0
2 -151 -230 0
6 -86 -282 0
-119 138 206 0
-22 -111 -168 0
100 169 -259 0
106 127 -144 0
23 -41 -119 0
-15 -75 217 0
-105 -153 291 0
-46 179 235 0
52 -184 -237 0
-2 35 -51 0
-105 -251 286 0
-3 80 -269 0
-42 -92 164 0
27 -215 -251 0
151 -224 276 0
-150 -240 242 0
-108 -158 -215 0
75 -185 247 0
70 147 270 0
-276 -287 -300 0
-3 -93 -223 0
17 -24 25 0
24 193 -241 0
10 89 243 0
75 129 225 0
10 -113 -277 0
37 78 170 0
117 -136 -206 0
52 -77 -285 0
103 -268 274 0
81 95 -182 0
-213 217 261 0
62 191 -204 0
-16 -287 290 0
9 17 -29 0
-47 -58 146 0
-55 -120 217 0
-61 -70 -279 0
-28 -33 -188 0
-4 -71 144 0
-39 105 218 0
91 -120 -284 0
-30 111 -183 0
53 -227 -259 0
13 -175 -218 0
123 -192 -217 0
145 199 287 0
94 107 -193 0
33 -54 194 0
-85 -184 -237 0
149 -165 219 0
-72 -210 238 0
-16 75 183 0
25 -149 186 0
9 233 244 0
-102 -105 107 0
-5 144 -153 0
-41 85 -211 0
161 -244 275 0
43 239 249 0
-51 56 -194 0
-156 291 295 0
86 -112 294 0
6 -98 -232 0
-138 199 233 0
-21 -230 -295 0
24 -116 -218 0
12 -121 249 0
80 -151 274 0
112 -132 -197 0
-77 211 -275 0
-183 -188 -217 0
-4 -107 134 0
-7 -48 163 0
-128 215 218 0
39 -107 153 0
-82 -105 -121 0
-81 124 267 0
-2 -34 -249 0
102 -264 -279 0
-70 -95 -166 0
213 -231 247 0
-136 215 -224 0
-26 -176 -252 0
-35 -48 -225 0
-58 -175 -234 0
-17 204 -280 0
-12 241 259 0
157 264 275 0
61 -208 -259 0
27 174 -232 0
129 -140 247 0
103 127 -252 0
-97 177 293 0
100 -106 197 0
41 -155 249 0
15 -28 -179 0
-160 193 -253 0
-56 -167 272 0
-75 -244 -274 0
70 77 274 0
-23 -113 -132 0
-55 258 300 0
-11 -211 279 0
-42 -54 173 0
-89 -237 -253 0
-1 -51 175 0
27 -141 273 0
155 253 262 0
-83 124 257 0
-172 -181 265 0
58 -211 -249 0
-16 175 -276 0
22 -53 191 0
-115 -175 245 0
-174 191 -291 0
-214 -290 -295 0
-82 98 245 0
1 22 254 0
58 -109 266 0
-11 83 271 0
172 -216 263 0
57 102 269 0
-5 -41 93 0
151 -159 -293 0
-67 86 254 0
-65 202 243 0
10 -51 145 0
77 109 157 0
-194 -231 296 0
-39 -141 -181 0
-9 -17 59 0
-4 230 258 0
-117 162 -260 0
107 -125 188 0
26 -46 54 0
140 201 -275 0
113 232 235 0
95 -175 -300 0
69 106 156 0
25 130 -159 0
43 69 135 0
68 -114 -232 0
53 186 -218 0
-66 -68 293 0
-105 116 -184 0
-22 238 -277 0
-15 84 -167 0
158 276 294 0
-60 -106 -244 0
-4 149 180 0
13 25 240 0
38 132 160 0
-18 161 -171 0
14 -149 -207 0
88 -165 215 0
15 -138 279 0
7 132 206 0
77 -92 -232 0
-40 201 -257 0
-18 -136 188 0
-158 -171 -269 0
-40 58 249 0
-107 -141 -191 0
-108 228 278 0
54 159 245 0
-120 217 284 0
-152 248 -254 0
-243 -278 282 0
-26 116 277 0
18 -117 -146 0
-73 -177 214 0
81 -119 -213 0
-59 169 -233 0
-19 -101 269 0
-42 -59 235 0
54 157 258 0
-92 -186 276 0
100 -159 -264 0
138 149 199 0
68 117 -300 0
-83 89 -300 0
-123 160 284 0
-79 -80 -113 0
-99 152 229 0
84 -237 -245 0
-112 -142 179 0
-193 222 230 0
131 -268 292 0
15 -90 212 0
-17 36 -140 0
-53 -195 201 0
-85 -128 -228 0
76 -274 -292 0
60 -70 -156 0
-35 -172 294 0
-58 -70 76 0
-83 123 179 0
-24 -100 264 0
203 -241 -254 0
-62 -117 -155 0
45 50 -162 0
-31 93 -274 0
14 67 122 0
-175 -179 -247 0
-44 155 -166 0
163 180 221 0
-79 273 290 0
-41 -53 -287 0
149 165 -245 0
168 170 212 0
21 161 -292 0
-115 136 265 0
71 194 -230 0
-168 -169 -193 0
9 -100 217 0
68 -119 -271 0
-24 228 -300 0
-44 -122 235 0
-11 23 141 0
118 213 258 0
3 50 124 0
22 99 -127 0
209 -210 271 0
-63 162 199 0
25 151 153 0
146 -181 -192 0
48 -98 125 0
233 255 265 0
9 -79 247 0
-44 259 -268 0
-61 170 -218 0
-154 -213 -283 0
9 28 253 0
108 117 129 0
-152 -222 -259 0
110 215 294 0
86 158 -188 0
174 210 -277 0
-31 45 67 0
35 57 272 0
76 -157 194 0
98 261 288 0
-5 -225 294 0
162 202 262 0
75 243 282 0
-61 -112 -153 0
-114 -139 -249 0
-113 228 -279 0
-63 103 201 0
-11 -36 257 0
105 169 -224 0
-140 -157 -222 0
65 80 297 0
-22 -163 187 0
-32 -183 -206 0
57 -130 292 0
-277 -283 298 0
-42 -160 -295 0
-2 105 255 0
-50 -158 -264 0
-108 188 196 0
53 -214 -258 0
-113 -172 175 0
-44 -161 -174 0
-78 145 212 0
118 -138 230 0
5 -25 -142 0
-31 60 -232 0
111 117 -171 0
-157 -240 252 0
-47 -61 65 0
149 -268 -279 0
-126 -141 192 0
-51 -112 -133 0
49 174 239 0
-97 -235 298 0
-4 -70 -189 0
-8 92 169 0
-62 -226 228 0
19 -224 239 0
-45 -229 -245 0
-231 -243 255 0
39 -55 -59 0
12 35 -239 0
-86 170 288 0
87 -201 247 0
-50 78 234 0
141 154 -160 0
-11 -242 286 0
-153 -190 -277 0
-41 -116 230 0
10 -57 -123 0
21 74 -153 0
-72 -158 -240 0
-133 -215 -216 0
-92 122 233 0
-67 -94 -289 0
55 58 163 0
163 -272 -296 0
-62 88 219 0
20 93 161 0
26 -49 254 0
183 219 259 0
104 -197 -233 0
77 209 264 0
-83 -162 -211 0
-106 -149 208 0
-6 44 -236 0
-167 173 248 0
-35 95 152 0
49 -98 -293 0
44 132 262 0
44 -120 218 0
106 118 -243 0
81 192 235 0
157 -249 259 0
-65 222 233 0
-127 258 274 0
46 55 -269 0
-37 106 191 0
-120 -211 241 0
-142 153 204 0
-71 -102 212 0
-22 87 -163 0
70 97 250 0
190 217 236 0
74 247 -269 0
-32 68 -104 0
2 -207 -270 0
26 -162 248 0
-70 181 234 0
-1 -43 102 0
-60 -121 -173 0
-99 119 -281 0
9 225 249 0
117 159 -265 0
89 201 202 0
49 51 -254 0
-29 -141 165 0
-11 133 175 0
-3 -179 207 0
95 -126 -261 0
-71 111 236 0
-43 -72 -114 0
5 -74 177 0
10 23 -132 0
134 -184 -298 0
-166 -175 -206 0
-99 156 270 0
23 -143 -183 0
13 -126 197 0
136 -156 208 0
-176 188 289 0
10 -130 263 0
-126 -136 -177 0
-165 -170 224 0
55 -143 -275 0
76 -250 276 0
-61 84 -138 0
-1 -79 260 0
-119 125 199 0
-177 -276 291 0
-1 260 -296 0
-65 150 248 0
34 -117 217 0
68 173 220 0
53 -90 99 0
128 141 -270 0
41 109 -246 0
1 89 -157 0
-116 177 -270 0
83 254 -261 0
-186 214 242 0
21 136 -251 0
-224 248 287 0
-26 -190 -200 0
72 -77 169 0
139 -180 205 0
-145 -200 259 0
29 -57 289 0
-114 131 -161 0
-105 268 -284 0
-67 243 247 0
-34 -85 -161 0
-19 207 269 0
84 -135 299 0
-115 -180 276 0
228 -267 -298 0
-150 -171 -227 0
-55 -65 255 0
-58 89 110 0
227 286 -300 0
-23 -93 241 0
-11 142 -252 0
-22 -245 -280 0
-217 244 279 0
45 -97 -117 0
-90 276 279 0
-12 46 263 0
158 206 -244 0
-64 -75 -157 0
166 241 -291 0
-88 -163 -295 0
168 -209 278 0
101 -156 197 0
-5 6 157 0
-124 -170 264 0
144 264 298 0
36 -171 283 0
126 -177 -298 0
-197 204 220 0
-59 134 -227 0
-172 203 271 0
-92 208 211 0
-82 -92 -182 0
-52 153 -161 0
-19 -222 235 0
4 127 -191 0
-16 -88 -158 0
-92 209 -297 0
-161 177 -193 0
-19 -106 107 0
-128 252 286 0
-69 77 139 0
-257 292 -295 0
-21 -132 -238 0
200 -222 -268 0
-10 -128 -156 0
-198 -248 294 0
-158 177 296 0
44 -158 235 0
-85 185 263 0
103 -138 215 0
51 164 -169 0
-22 199 296 0
51 178 -286 0
-10 -83 224 0
-2 -152 232 0
17 22 215 0
-45 -104 -262 0
-52 56 124 0
-92 121 -273 0
-119 -263 -290 0
56 -228 290 0
151 177 -280 0
-51 94 -127 0
121 -281 294 0
-29 -42 -51 0
-176 207 255 0
-48 230 -279 0
-17 176 -228 0
123 182 239 0
-46 -92 127 0
-3 56 155 0
27 80 -246 0
21 76 105 0
35 79 -276 0
-5 -245 -283 0
-12 90 225 0
-16 -100 238 0
-94 -198 204 0
137 -212 283 0
-5 -180 -278 0
-227 -254 292 0
14 -118 -186 0
-143 221 224 0
70 -124 -255 0
29 242 283 0
40 117 -295 0
73 -156 -292 0
-76 144 -151 0
21 -106 -126 0
113 114 -136 0
112 -138 -277 0
-215 -226 -285 0
-144 -149 277 0
-2 -64 -188 0
188 246 285 0
55 126 -203 0
133 -141 239 0
-74 -118 266 0
-60 248 -255 0
23 -210 223 0
107 168 -238 0
216 236 259 0
38 114 252 0
2 -167 280 0
111 241 -281 0
-16 114 158 0
-28 -32 -177 0
23 24 265 0
124 250 284 0
6 65 -227 0
-49 -122 -243 0
123 -127 -292 0
-93 -201 -248 0
3 -109 116 0
46 -166 204 0
188 -231 -254 0
-89 -104 287 0
55 -194 -209 0
-136 -220 -229 0
53 -130 214 0
-94 163 -205 0
-7 16 127 0
22 -106 -111 0
53 -215 253 0
-91 184 245 0
108 -137 -270 0
104 -252 -289 0
-186 -221 -280 0
49 146 -251 0
200 202 -268 0
-12 -270 293 0
170 186 275 0
-210 -226 255 0
10 47 -131 0
-85 118 -252 0
25 48 -79 0
-90 -198 249 0
-99 159 273 0
-152 198 -258 0
-42 -177 268 0
48 -178 221 0
38 -125 -150 0
-27 55 -130 0
78 -108 235 0
93 -258 266 0
81 -90 -161 0
24 -99 213 0
118 -236 237 0
-110 135 300 0
52 -62 207 0
60 186 -271 0
20 54 -71 0
-85 111 -189 0
149 161 165 0
73 208 210 0
-148 150 223 0
144 -201 202 0
4 -58 289 0
10 -197 283 0
-26 47 294 0
1 38 121 0
-191 -226 276 0
-195 -200 -223 0
4 -78 -112 0
67 -137 -251 0
-9 97 213 0
-124 -163 203 0
100 -128 193 0
-5 -94 -154 0
-173 210 -261 0
-44 127 188 0
-49 -168 264 0
-44 -70 -142 0
38 40 275 0
29 -126 273 0
39 -72 296 0
-134 243 271 0
110 -151 -179 0
7 -131 168 0
72 -154 156 0
-45 -55 288 0
83 -120 151 0
-14 -41 -158 0
70 -215 -271 0
-155 184 -293 0
58 -219 -224 0
86 -136 201 0
71 83 265 0
-152 -153 188 0
-143 -151 176 0
10 145 219 0
116 -147 260 0
-43 115 -272 0
63 194 -229 0
84 184 -255 0
78 -99 181 0
-79 -95 253 0
-40 80 -134 0
123 -230 276 0
143 -219 -291 0
45 95 -97 0
64 166 -175 0
58 -154 -272 0
-22 -75 96 0
128 -147 225 0
-7 95 107 0
-208 -227 -232 0
46 -139 248 0
41 -43 -180 0
-97 176 -214 0
-69 157 258 0
-29 -86 -283 0
118 -129 -207 0
-16 91 -166 0
115 -208 -263 0
209 212 226 0
3 118 -159 0
88 103 218 0
-17 -69 -142 0
40 -43 102 0
-10 270 -276 0
-37 -118 -277 0
-284 -290 294 0
56 279 297 0
210 218 -246 0
-3 107 224 0
-66 143 209 0
93 -222 282 0
-74 204 -234 0
31 140 -154 0
89 165 -296 0
15 206 -212 0
84 251 -278 0
186 241 268 0
106 -225 -256 0
32 239 -259 0
37 68 -198 0
154 155 -253 0
98 -195 218 0
-10 117 134 0
113 -209 259 0
-35 38 218 0
-33 59 -99 0
-3 -163 -200 0
29 -129 -242 0
91 128 153 0
120 213 230 0
-50 88 -95 0
101 -120 245 0
-29 -141 -218 0
-131 -204 282 0
35 -50 -243 0
-36 142 -212 0
156 -263 300 0
99 223 -244 0
-37 142 -299 0
30 43 -165 0
6 172 -176 0
-13 181 -219 0
75 -176 236 0
-194 -229 247 0
-13 -162 217 0
110 151 161 0
-21 -212 -252 0
2 -55 -248 0
-119 216 297 0
-9 -51 -140 0
-95 185 -208 0
133 171 -172 0
-51 98 123 0
-29 95 183 0
-43 168 -276 0
16 21 -166 0
-195 -246 296 0
101 -124 139 0
3 15 -259 0
236 -254 284 0
-96 -237 282 0
-15 -34 237 0
27 237 299 0
81 226 291 0
176 -192 -222 0
31 53 255 0
-6 235 253 0
57 72 207 0
13 -43 59 0
59 -162 187 0
-26 269 279 0
79 -168 -245 0
-23 -70 -88 0
-126 -137 -300 0
9 -151 244 0
-9 158 251 0
127 -190 287 0
-50 91 -198 0
-69 -87 -287 0
119 213 -288 0
-158 -164 -256 0
204 207 242 0
145 -165 -269 0
40 168 251 0
-2 128 -202 0
-52 198 215 0
116 148 -285 0
79 -105 116 0
43 114 -238 0
-67 -182 -218 0
-4 70 101 0
-60 -143 -268 0
100 -128 195 0
-33 164 172 0
-15 47 124 0
-89 -224 294 0
-39 194 243 0
