c F2 random 3-CNF cnfgen RandomKCNF(3,100,500,seed=1) m/n=5.0
p cnf 100 500
18 -73 98 0
-58 -64 98 0
-4 -13 63 0
35 58 -90 0
3 -4 84 0
4 -55 -93 0
30 45 -71 0
3 38 -54 0
-16 43 -96 0
-37 64 -76 0
-32 52 -96 0
-71 90 -100 0
14 -66 -85 0
-4 63 -94 0
-76 79 91 0
2 30 -65 0
-45 -66 -74 0
71 -78 85 0
67 -72 100 0
47 -62 -73 0
45 -46 -54 0
4 30 77 0
5 33 71 0
-2 58 -97 0
-15 -24 80 0
21 -22 -33 0
-42 -59 90 0
-4 -40 50 0
14 -33 34 0
3 29 51 0
-58 65 -91 0
29 -68 -84 0
55 -81 85 0
7 28 -40 0
-21 -39 96 0
2 -5 72 0
80 -91 100 0
-13 27 -45 0
-14 -50 86 0
-42 52 79 0
26 -42 -73 0
28 -35 -87 0
63 69 88 0
11 18 -22 0
-43 -77 -98 0
15 -38 44 0
71 -75 99 0
10 49 -53 0
-15 76 79 0
-11 -35 73 0
14 -36 59 0
2 -79 86 0
-6 25 31 0
22 58 88 0
-49 -56 -70 0
-13 27 41 0
-2 -38 -93 0
9 -41 -52 0
-15 -28 -33 0
-24 27 70 0
11 -36 47 0
-74 83 -84 0
6 -40 -42 0
13 32 43 0
3 -32 52 0
3 -10 -94 0
20 -61 64 0
23 66 86 0
-14 40 41 0
19 -70 93 0
23 39 56 0
-9 -33 -100 0
-57 69 -70 0
-22 34 -44 0
-3 8 74 0
-18 -34 36 0
-12 30 79 0
-41 65 68 0
-41 64 -88 0
-44 72 79 0
-10 66 98 0
-39 -40 89 0
60 90 -95 0
-20 23 33 0
-51 -64 88 0
6 -70 94 0
11 35 -95 0
-31 49 -56 0
-17 57 80 0
-56 69 -77 0
32 36 -49 0
3 -4 75 0
19 -23 -37 0
-33 75 -97 0
16 -54 63 0
4 14 -37 0
87 93 -98 0
-40 -56 74 0
-16 -57 -92 0
-44 52 -70 0
27 -49 72 0
-60 -67 77 0
58 -80 86 0
-50 -75 -87 0
75 -80 94 0
38 -82 84 0
-51 82 100 0
-2 -78 -100 0
39 -70 -88 0
22 -60 63 0
55 -76 96 0
3 57 85 0
-52 -82 89 0
-27 -31 68 0
-10 -67 90 0
-22 -39 84 0
51 -52 -72 0
43 -79 92 0
-4 -80 -85 0
32 35 98 0
57 -75 -94 0
18 -21 -68 0
40 52 97 0
40 88 92 0
42 51 64 0
3 8 -77 0
-68 -91 -93 0
16 79 89 0
-30 -52 64 0
-30 -31 37 0
-34 -58 92 0
6 11 -28 0
-41 50 -75 0
21 83 98 0
19 -50 -86 0
-11 17 60 0
8 68 -69 0
16 56 100 0
-17 64 -82 0
-43 -50 81 0
8 -32 -76 0
72 -78 -90 0
-26 69 -92 0
79 -93 96 0
8 -13 20 0
-7 -12 82 0
6 -17 41 0
-51 91 -98 0
12 -33 42 0
-8 -50 94 0
-15 34 -49 0
32 -65 -72 0
-51 66 75 0
58 -68 84 0
-26 48 -50 0
17 45 -74 0
-41 -69 -84 0
35 42 46 0
-41 42 -94 0
-36 -59 62 0
8 -18 -75 0
-32 -74 -90 0
-40 52 60 0
19 33 88 0
24 53 -99 0
-14 27 92 0
10 -28 83 0
-48 63 76 0
-31 -64 -77 0
25 -62 -70 0
-2 -26 96 0
-52 66 -79 0
-1 25 59 0
-39 -66 -96 0
-53 -67 -70 0
17 57 -65 0
2 -55 -82 0
37 52 85 0
-1 -35 -50 0
-62 -82 -96 0
15 -46 62 0
-3 23 -34 0
-34 -53 -66 0
-43 56 -100 0
52 55 92 0
20 27 -30 0
20 -62 100 0
1 12 -55 0
7 -45 84 0
34 -36 88 0
28 -83 87 0
-38 -58 86 0
14 -62 78 0
-22 -33 -67 0
-28 -70 82 0
-2 -94 97 0
-57 70 81 0
35 -36 66 0
-17 25 33 0
-35 -36 -53 0
-28 -63 64 0
23 -44 78 0
8 42 -65 0
-62 64 80 0
18 33 90 0
23 73 88 0
-65 -73 -85 0
-1 3 100 0
-29 -36 -96 0
-3 16 43 0
19 -33 99 0
-12 -14 93 0
-7 35 68 0
18 48 -52 0
-2 36 -66 0
-17 -83 93 0
-74 -80 -87 0
-29 39 81 0
15 66 77 0
36 -56 -70 0
34 -61 68 0
-9 48 -96 0
17 58 88 0
-28 -62 -87 0
-20 -21 49 0
-19 35 77 0
17 -49 83 0
-56 -77 -100 0
-52 53 78 0
5 61 100 0
-18 -68 -76 0
32 61 -90 0
15 -21 -100 0
33 -45 -94 0
-38 -46 49 0
67 79 -82 0
15 -66 -87 0
16 -91 97 0
-23 50 81 0
32 -43 -85 0
48 -64 -84 0
-16 -52 70 0
-2 20 49 0
-10 -24 -84 0
-14 20 -68 0
51 -82 91 0
32 55 -70 0
10 31 -85 0
3 -66 75 0
6 67 93 0
51 60 -100 0
-12 13 72 0
-2 -3 -100 0
22 -54 -93 0
54 -65 -71 0
-26 36 -64 0
23 -36 -73 0
-19 -33 -34 0
36 60 73 0
26 29 -33 0
31 -74 -92 0
11 26 92 0
-4 -52 96 0
17 76 -77 0
-18 -26 37 0
29 -39 -91 0
-12 38 -69 0
3 -38 -80 0
8 -33 80 0
14 -17 81 0
-27 65 96 0
50 -67 85 0
-16 -26 92 0
5 35 -82 0
-36 -85 -99 0
13 64 86 0
-6 59 -97 0
44 69 94 0
-6 -87 96 0
23 -65 -77 0
26 -30 47 0
6 59 -79 0
6 -61 75 0
-52 -66 -74 0
-7 46 -61 0
-39 76 -96 0
-9 -78 -100 0
4 67 74 0
-13 43 -44 0
10 -63 -75 0
1 -65 -70 0
19 28 -75 0
-41 -54 -66 0
5 48 -78 0
-51 71 97 0
-22 35 91 0
-37 71 93 0
-13 36 -93 0
-10 -27 -70 0
-5 -18 67 0
4 41 -54 0
24 26 30 0
35 59 -93 0
-43 59 79 0
2 -5 63 0
2 30 98 0
-26 -27 68 0
-48 -63 65 0
24 -25 -77 0
47 -61 79 0
-14 -81 -85 0
10 -54 -83 0
-77 -88 95 0
-35 -68 -87 0
2 -33 -40 0
-30 46 -66 0
43 -81 -90 0
-7 15 -83 0
70 -95 -97 0
-2 42 44 0
11 43 92 0
-38 -89 100 0
4 -83 -90 0
-38 49 54 0
30 53 78 0
-32 51 92 0
-39 93 -96 0
22 57 -64 0
-44 -56 71 0
-38 -75 83 0
-12 40 97 0
-78 -83 -96 0
7 14 -30 0
7 9 -28 0
3 92 94 0
-5 44 69 0
28 -61 -72 0
-67 71 75 0
8 -27 51 0
42 43 53 0
12 65 82 0
13 -23 39 0
9 20 -57 0
8 -45 76 0
24 30 86 0
7 94 96 0
-33 37 92 0
33 -93 -98 0
-46 -59 98 0
-32 55 63 0
-10 -31 -99 0
-43 -48 -97 0
-41 46 -51 0
-17 22 39 0
22 59 83 0
11 -33 -79 0
-22 36 -61 0
-20 46 71 0
9 -41 88 0
-6 -25 -93 0
-65 -81 86 0
-5 24 49 0
-32 39 -42 0
-7 30 99 0
-13 -18 29 0
-10 -21 -30 0
61 -66 75 0
10 36 56 0
18 27 -99 0
-7 24 47 0
28 -87 90 0
22 44 -78 0
5 -62 -71 0
-18 45 -72 0
-73 -86 95 0
44 -54 62 0
42 83 -85 0
-29 -34 -41 0
2 -38 54 0
15 -56 -79 0
-84 -93 -99 0
23 -42 87 0
46 -51 -67 0
20 62 90 0
10 -11 -95 0
42 -67 -90 0
-2 50 -71 0
-7 -48 93 0
-83 85 -89 0
25 46 -98 0
-6 47 -73 0
2 62 -74 0
21 -66 -84 0
16 34 -41 0
-17 24 -95 0
-59 60 -66 0
27 37 -76 0
16 -49 -55 0
47 57 69 0
-13 14 -93 0
-24 51 61 0
-58 -63 -76 0
-23 97 100 0
8 72 -86 0
41 -43 57 0
-36 -60 -96 0
-13 -22 -65 0
20 -41 65 0
25 -29 79 0
14 -55 90 0
-42 -48 72 0
-50 -63 -92 0
-50 -75 83 0
-13 24 -63 0
-14 -16 -69 0
-72 -82 -87 0
-42 63 89 0
26 31 -69 0
-8 -80 98 0
-45 47 -77 0
-29 41 51 0
45 50 84 0
41 -50 79 0
1 -45 56 0
15 -69 94 0
-42 49 56 0
21 22 69 0
57 -67 75 0
-43 78 94 0
23 46 -100 0
5 63 -76 0
-19 27 -73 0
-9 -45 95 0
26 60 68 0
39 -90 93 0
10 -14 -99 0
-14 -58 92 0
-48 -56 -83 0
48 56 71 0
3 -19 -31 0
57 73 79 0
-1 -6 -68 0
-17 -31 -89 0
-7 75 -96 0
8 45 75 0
-3 20 56 0
4 -37 61 0
56 -76 97 0
-17 -69 87 0
-49 -62 67 0
-9 27 76 0
14 26 46 0
31 -56 -66 0
-8 -74 -79 0
6 -81 -86 0
-29 -35 -57 0
8 -35 -69 0
38 -75 -76 0
-86 -89 -98 0
-29 81 97 0
-15 -19 -64 0
18 39 -70 0
-5 -58 61 0
2 -69 92 0
-2 37 -60 0
-13 -15 88 0
-64 68 79 0
8 22 79 0
40 68 72 0
-12 -28 -30 0
18 37 -79 0
-3 -8 -56 0
9 24 -56 0
46 54 66 0
8 -30 -47 0
28 -29 33 0
62 -88 -94 0
-34 90 100 0
49 -82 -89 0
4 -17 69 0
-38 80 -90 0
13 32 -63 0
-46 -83 -91 0
-4 81 -97 0
-8 -17 38 0
-26 -35 -77 0
-14 66 -99 0
4 -72 -87 0
-13 34 97 0
49 -53 91 0
-72 -99 100 0
4 -49 66 0
-6 32 -87 0
6 45 79 0
-6 -40 75 0
-61 -69 80 0
46 -68 81 0
32 -82 -99 0
-42 69 -92 0
30 33 85 0
