c F2 random 3-CNF cnfgen RandomKCNF(3,200,1000,seed=5) m/n=5.0
p cnf 200 1000
-66 160 -190 0
64 167 199 0
-64 96 121 0
-4 -56 188 0
41 100 -197 0
1 33 34 0
43 75 81 0
-51 99 -177 0
-38 43 -107 0
78 -151 155 0
-79 -80 91 0
121 124 -181 0
-6 92 -192 0
94 -97 149 0
47 160 182 0
-89 -119 -132 0
-28 -151 192 0
-24 -54 111 0
71 -88 -180 0
21 -46 -79 0
13 -42 185 0
-61 -153 -190 0
38 108 -167 0
34 -54 86 0
44 96 -112 0
37 -76 -117 0
-82 -177 -187 0
38 -104 121 0
87 128 -161 0
-70 132 -141 0
151 -170 -178 0
-144 -172 -181 0
-177 -184 198 0
-3 -122 -149 0
-74 -119 -129 0
-89 -165 189 0
-94 116 177 0
-51 93 -123 0
-44 -158 -200 0
8 -51 185 0
57 176 -195 0
14 43 -58 0
47 -50 -124 0
90 98 170 0
-1 -96 -184 0
-30 105 -177 0
-25 -76 -140 0
-34 -105 108 0
-41 98 153 0
24 -90 156 0
84 -145 -158 0
-58 -110 -111 0
98 -99 -182 0
65 -107 -128 0
-37 74 126 0
114 -160 169 0
-4 -35 101 0
-10 -63 122 0
-74 -76 185 0
-5 -33 -195 0
76 -158 -188 0
93 175 191 0
65 117 142 0
-110 -153 -200 0
101 -175 -185 0
17 -78 -195 0
-121 166 200 0
-123 -141 178 0
109 139 150 0
17 -22 -69 0
-18 104 180 0
32 57 -158 0
39 113 -181 0
18 42 160 0
98 -170 191 0
-31 147 148 0
-24 -81 -111 0
15 -96 168 0
-146 162 -174 0
-17 -61 142 0
-61 96 117 0
-5 168 183 0
-24 32 -130 0
83 119 -123 0
14 39 110 0
55 -126 -171 0
-61 -75 -86 0
-35 -92 -186 0
10 133 -152 0
10 17 25 0
-11 -51 126 0
-77 -110 -121 0
26 50 119 0
96 -99 121 0
-42 72 193 0
-9 -89 124 0
-6 -173 177 0
-31 -84 172 0
9 42 187 0
-21 -159 -169 0
-48 93 -120 0
42 62 199 0
-111 156 -166 0
-16 116 200 0
-9 133 141 0
-24 61 126 0
-13 128 165 0
-66 105 115 0
-46 50 179 0
22 28 81 0
55 -160 -187 0
-109 125 147 0
-79 177 194 0
36 -80 -124 0
34 -81 138 0
22 -110 179 0
64 127 -180 0
-19 -26 -96 0
143 -193 197 0
8 114 148 0
69 -110 180 0
17 79 -83 0
-83 128 174 0
139 190 196 0
-13 -34 92 0
60 -110 136 0
4 85 92 0
69 136 -156 0
110 -112 -196 0
-59 115 -119 0
13 -172 -197 0
1 -27 153 0
1 -9 -54 0
56 -101 119 0
-78 133 -144 0
64 -91 -170 0
-37 -62 90 0
25 -44 102 0
-83 123 194 0
3 97 -177 0
6 -82 -174 0
-122 -129 140 0
-38 107 138 0
20 73 -74 0
-149 -157 195 0
61 71 184 0
77 -90 172 0
-31 -62 88 0
97 100 -172 0
-28 83 99 0
-55 76 79 0
20 106 162 0
-145 -146 161 0
109 -124 -136 0
-22 72 -155 0
-8 30 -39 0
49 -84 153 0
16 -36 125 0
99 -120 166 0
1 50 173 0
39 -86 -95 0
47 -183 198 0
-17 -51 53 0
118 175 -191 0
97 120 -140 0
-1 -34 -176 0
-19 126 191 0
91 -123 -193 0
37 75 -128 0
-17 87 105 0
61 70 -108 0
-25 123 -142 0
-24 63 116 0
-2 37 197 0
-65 118 144 0
50 -56 114 0
-72 154 176 0
-41 101 198 0
-7 -108 -198 0
-4 43 -194 0
49 -109 200 0
-49 101 -108 0
1 74 -94 0
-19 20 -176 0
39 -51 -166 0
-35 118 154 0
8 94 -159 0
-22 -34 69 0
39 -76 133 0
-28 -103 -165 0
-123 141 149 0
5 -68 140 0
61 124 171 0
55 108 -198 0
15 -62 -129 0
-6 -143 -199 0
-27 -32 -168 0
43 -78 97 0
-55 136 -189 0
96 -105 -142 0
1 -17 127 0
16 -23 190 0
-68 -88 96 0
-32 68 -190 0
43 -100 -161 0
36 -46 153 0
-3 12 117 0
-31 -106 151 0
29 138 179 0
-18 118 -184 0
-31 -104 -194 0
-1 -77 -195 0
40 -98 -168 0
53 118 -157 0
-21 -109 164 0
36 -51 -126 0
-5 -38 112 0
62 -143 -170 0
76 81 -158 0
-92 -109 133 0
30 -177 198 0
27 73 -162 0
-45 86 -163 0
25 -80 -85 0
17 -105 106 0
-11 25 -47 0
-19 58 -107 0
-28 -167 175 0
27 98 120 0
25 -138 -158 0
-30 -70 79 0
-35 54 132 0
84 136 -183 0
-14 -120 -165 0
-43 -73 -191 0
104 182 195 0
118 -178 187 0
35 -43 -64 0
119 -159 174 0
-65 77 149 0
-7 -53 -196 0
-73 134 -155 0
-35 -108 -135 0
33 75 198 0
-41 -80 -125 0
-119 -152 173 0
41 -127 -148 0
12 -59 96 0
44 52 -189 0
-27 99 -167 0
3 53 -169 0
79 112 -150 0
-142 143 -153 0
-1 38 -136 0
4 49 197 0
-113 -118 121 0
-7 179 197 0
114 129 -167 0
-26 52 137 0
1 -57 102 0
-49 -77 187 0
30 99 198 0
-38 104 -116 0
117 -135 197 0
-60 107 109 0
65 84 150 0
-25 -94 163 0
47 74 -161 0
-2 -27 191 0
39 95 -125 0
-68 -123 -194 0
-44 101 110 0
28 -76 123 0
-22 168 171 0
84 -105 -187 0
-11 197 200 0
165 175 -196 0
-56 -121 132 0
-72 109 158 0
-24 75 -152 0
25 -75 -106 0
-23 54 -88 0
-26 84 -128 0
15 -153 -180 0
-68 118 -129 0
-51 -106 169 0
-17 34 -113 0
94 108 155 0
-37 115 188 0
151 180 194 0
-75 -76 161 0
-9 111 -117 0
-131 -136 -178 0
-10 -46 94 0
-29 -70 113 0
-100 103 116 0
-139 -187 -192 0
45 -47 -106 0
50 -66 -159 0
31 74 97 0
-63 104 169 0
79 -142 -200 0
42 89 157 0
-9 70 128 0
58 -81 -85 0
5 9 179 0
31 80 178 0
-150 -190 -198 0
-44 -106 199 0
-45 62 -101 0
15 -60 121 0
-10 73 -125 0
31 38 -190 0
-62 95 158 0
-83 -134 -152 0
-56 -69 163 0
3 152 176 0
23 78 145 0
99 -166 171 0
44 -53 195 0
-79 113 162 0
120 -140 -151 0
4 78 134 0
-80 -98 -168 0
35 50 115 0
47 76 -128 0
-42 -71 184 0
80 91 164 0
-59 -72 -155 0
-18 102 -123 0
123 -171 185 0
-52 -130 198 0
95 -111 158 0
145 -158 159 0
107 -123 -126 0
114 126 -162 0
57 182 183 0
-115 167 199 0
4 125 179 0
-17 110 195 0
-6 -86 194 0
-42 -127 132 0
82 -151 198 0
-49 -53 -141 0
-59 62 -172 0
-60 -85 123 0
-1 94 112 0
61 -74 81 0
-27 -76 162 0
-135 137 162 0
-26 -27 171 0
-57 82 139 0
-109 111 167 0
-67 135 184 0
-2 79 81 0
-78 94 -142 0
-2 -110 -134 0
-26 122 190 0
27 -29 109 0
-122 134 173 0
7 -8 -182 0
-3 120 -173 0
54 -67 -127 0
18 -65 -69 0
12 120 172 0
60 109 -133 0
-17 61 176 0
115 -126 166 0
-30 -93 124 0
-83 119 172 0
-72 -132 169 0
-89 96 191 0
-98 -106 -133 0
57 106 -153 0
12 -25 -199 0
-30 172 -185 0
29 -57 -102 0
-41 -59 -90 0
80 84 127 0
84 118 -194 0
-23 77 -92 0
125 -129 179 0
70 101 113 0
41 -107 -194 0
-6 -7 198 0
57 -135 -180 0
-53 157 179 0
-74 -124 -155 0
-68 81 -184 0
102 -121 169 0
22 -28 150 0
-35 93 -128 0
-83 96 154 0
148 -151 182 0
-18 90 188 0
14 100 -196 0
-20 56 -195 0
1 26 -192 0
-128 130 149 0
-36 -125 141 0
-36 -161 167 0
9 -100 175 0
-92 -151 -176 0
-59 -84 -108 0
7 31 -185 0
-36 84 -85 0
20 70 100 0
19 132 173 0
-112 -128 194 0
49 95 -154 0
-9 -69 188 0
33 83 157 0
51 113 -162 0
-19 66 -127 0
45 135 149 0
25 -84 145 0
-61 138 156 0
30 90 97 0
70 -82 -121 0
54 61 151 0
-32 -152 187 0
-70 153 176 0
-5 57 140 0
-45 68 -99 0
-52 68 -93 0
43 -126 186 0
-43 -134 175 0
20 30 -113 0
-93 190 -198 0
59 -121 169 0
-42 67 -139 0
-8 -12 69 0
29 -95 -150 0
131 -176 -177 0
100 -127 -181 0
55 66 -110 0
-87 95 110 0
-33 65 199 0
-21 43 50 0
-143 -155 -167 0
-31 -73 -98 0
22 63 -162 0
-60 -64 129 0
-91 108 -118 0
-21 89 -178 0
-17 169 -176 0
-8 46 139 0
-17 -114 128 0
62 -113 162 0
-26 -105 121 0
67 144 171 0
38 -175 -180 0
116 126 -164 0
10 -37 135 0
1 -76 199 0
-34 114 163 0
86 117 184 0
-50 -113 -184 0
-20 38 150 0
-21 -23 -27 0
-58 -60 -196 0
-18 -102 120 0
3 -35 -121 0
-19 -151 156 0
-22 120 -141 0
55 -101 -112 0
-52 58 -148 0
-111 140 -164 0
-92 -179 -187 0
-14 49 -172 0
44 -77 -148 0
-33 36 -87 0
-63 -64 102 0
-54 135 168 0
-130 -155 183 0
-23 71 -172 0
54 -178 -193 0
-39 95 133 0
73 80 113 0
21 27 -149 0
-112 -153 -186 0
-11 102 105 0
-52 98 130 0
23 -38 146 0
-192 -196 -198 0
16 -47 114 0
63 -89 147 0
-62 -147 165 0
57 -58 151 0
84 109 138 0
-78 -153 161 0
-69 -158 -162 0
3 13 165 0
49 69 126 0
-48 -51 85 0
32 -46 -90 0
42 107 -169 0
64 69 105 0
154 175 -179 0
-54 101 112 0
-116 155 -165 0
-71 -180 191 0
-15 -137 -198 0
24 -30 -185 0
19 -56 75 0
-45 61 129 0
6 -21 -177 0
31 -77 -108 0
15 139 -160 0
96 -183 -187 0
81 92 -157 0
41 110 -171 0
-66 -84 -116 0
-67 -131 177 0
70 -172 196 0
-9 -125 -164 0
-95 -117 -163 0
-76 143 -181 0
95 127 169 0
-72 118 -163 0
29 -39 51 0
82 -83 -187 0
-54 61 176 0
-136 -142 -174 0
11 121 -147 0
-20 -163 192 0
25 122 -140 0
-13 164 -191 0
9 29 -51 0
-21 104 -197 0
62 -148 176 0
-50 61 -98 0
99 146 -194 0
130 -158 -175 0
-21 -49 -128 0
-65 81 133 0
-29 140 151 0
30 148 -159 0
-7 188 -198 0
-8 -68 -145 0
-67 136 183 0
-73 -74 142 0
36 -121 146 0
-72 -145 -181 0
-16 139 -195 0
18 120 -180 0
-23 -99 198 0
10 -165 -189 0
-93 131 135 0
50 74 -94 0
-18 -45 198 0
15 21 -94 0
-22 -35 43 0
-8 -14 54 0
126 142 187 0
18 -37 -184 0
54 127 -190 0
-40 -67 -111 0
51 158 187 0
-49 141 181 0
47 77 -139 0
10 31 -80 0
-19 106 192 0
105 -175 192 0
132 174 -191 0
-55 -119 -161 0
72 -146 183 0
-52 60 123 0
14 -68 -148 0
37 -85 -95 0
38 -146 160 0
-10 -45 -108 0
112 -115 151 0
39 47 -193 0
13 -73 80 0
5 38 -177 0
8 34 -90 0
6 66 184 0
2 -32 -68 0
-13 -64 85 0
-112 172 -183 0
44 49 -144 0
-76 -102 -151 0
-47 87 186 0
-53 -120 197 0
13 -157 189 0
-24 -74 155 0
-17 -21 83 0
23 -115 162 0
49 -56 -187 0
46 -87 -142 0
34 -157 170 0
-129 -146 -199 0
85 -123 -194 0
134 -159 186 0
-22 145 -185 0
-8 -32 36 0
3 127 -189 0
-29 -86 178 0
-138 142 172 0
-12 117 162 0
-46 67 120 0
-3 51 140 0
-28 50 -171 0
11 18 195 0
-122 164 173 0
-39 -131 162 0
-105 117 186 0
57 -85 180 0
53 -89 146 0
-57 90 -183 0
-4 -10 -157 0
68 114 -118 0
-23 96 -149 0
-3 -77 -187 0
6 68 -157 0
-81 -86 158 0
-42 -88 129 0
-19 34 76 0
92 -122 170 0
-52 128 -182 0
42 61 -91 0
-24 40 -180 0
-89 158 165 0
30 -51 177 0
-63 115 116 0
120 130 -156 0
49 63 -109 0
-64 152 -156 0
89 -155 173 0
114 115 -146 0
-16 40 -67 0
29 132 -144 0
-69 147 -152 0
26 72 184 0
29 -77 -160 0
137 -161 165 0
-53 64 -159 0
29 48 -177 0
-10 93 170 0
-55 -65 -72 0
-25 102 -168 0
37 71 136 0
-62 -76 113 0
-83 -102 151 0
28 100 -192 0
-31 -53 -154 0
35 -52 -114 0
-7 -109 159 0
-136 153 -189 0
69 104 -192 0
147 161 191 0
-54 -98 164 0
-42 -114 123 0
92 139 -151 0
25 65 -182 0
-5 -8 -34 0
150 -161 189 0
-41 -55 188 0
38 94 -192 0
32 35 193 0
-41 -160 165 0
81 -122 -134 0
1 -5 -166 0
-29 -46 -95 0
30 -103 -161 0
134 171 192 0
50 67 164 0
28 -53 151 0
42 73 -144 0
6 27 78 0
-8 -66 186 0
-95 -133 -173 0
63 191 194 0
36 54 145 0
-100 156 173 0
-28 -87 -185 0
11 -28 -67 0
121 137 -150 0
-61 88 164 0
-3 -15 -52 0
-13 85 130 0
-35 -137 -171 0
40 140 158 0
45 84 131 0
40 122 158 0
17 169 185 0
-62 -70 200 0
46 98 -139 0
-21 31 74 0
5 151 170 0
-86 -107 -165 0
-15 -35 74 0
27 -106 133 0
-21 150 -191 0
118 188 192 0
7 -109 -165 0
46 170 174 0
28 44 -199 0
112 -113 157 0
57 -65 132 0
44 74 192 0
-36 -86 138 0
18 19 179 0
-31 -106 108 0
59 102 200 0
7 -22 166 0
28 110 180 0
-29 100 -169 0
-137 146 -147 0
-22 156 -180 0
51 -98 -171 0
-22 -78 -166 0
33 -178 -198 0
8 -26 -159 0
128 -157 -175 0
57 -82 -106 0
86 -148 159 0
-7 44 113 0
55 -77 185 0
-6 -28 29 0
53 110 197 0
-57 -111 -142 0
9 81 126 0
-11 54 60 0
21 80 -81 0
-22 29 -134 0
-111 -141 -189 0
-5 163 174 0
36 -190 -194 0
41 -128 -195 0
-24 182 183 0
22 -144 199 0
22 -45 -148 0
19 32 136 0
67 117 160 0
-14 33 -70 0
-86 -94 145 0
-55 -108 -192 0
-88 -157 169 0
-1 65 -115 0
-130 165 187 0
-52 -117 -157 0
167 196 -197 0
-2 -157 -191 0
44 -62 -91 0
71 128 -152 0
161 168 -197 0
21 29 -198 0
19 61 -120 0
-42 84 -133 0
-36 -84 141 0
-41 -126 -190 0
-26 -38 -144 0
-86 181 187 0
-148 -162 -172 0
-27 -112 177 0
43 82 84 0
-44 -90 -100 0
-19 -41 110 0
1 -6 162 0
69 116 -192 0
87 187 188 0
-69 -88 198 0
-83 -144 186 0
55 115 -198 0
53 113 197 0
-23 24 -139 0
-56 -88 184 0
44 -160 175 0
-50 143 -162 0
-23 171 182 0
32 -80 -114 0
-57 -128 -149 0
-15 -42 183 0
19 -109 189 0
19 -55 -65 0
-100 -139 165 0
18 147 -168 0
-8 82 116 0
107 111 -160 0
44 -157 -198 0
4 74 152 0
-47 88 -181 0
-24 -32 143 0
-128 -137 -183 0
7 178 -190 0
-23 77 186 0
-42 -190 -198 0
-126 -153 -195 0
-111 163 200 0
52 -70 91 0
29 152 196 0
-64 -71 188 0
-28 -50 -190 0
61 98 -156 0
-95 156 -191 0
-74 -80 -169 0
-54 -97 186 0
19 121 154 0
20 -105 -153 0
43 -151 157 0
-63 130 183 0
-26 49 -126 0
-21 -65 -189 0
-18 67 -191 0
136 -142 -179 0
61 97 -158 0
-4 -81 -107 0
-7 40 52 0
-186 -195 -198 0
53 60 -75 0
105 132 -133 0
-27 -113 -120 0
-40 -105 139 0
35 129 191 0
30 99 -100 0
-101 -134 -194 0
-13 136 181 0
-16 124 -128 0
-3 -26 -93 0
38 -112 -180 0
3 10 56 0
43 173 174 0
17 -145 191 0
78 -95 122 0
9 43 -73 0
-21 -131 186 0
45 -117 141 0
-70 -126 -131 0
-40 -140 -193 0
73 94 111 0
18 -21 137 0
-5 -12 141 0
54 156 198 0
8 52 -81 0
41 -108 179 0
-156 175 199 0
-36 63 82 0
129 150 -167 0
11 62 172 0
6 -102 136 0
-77 -111 181 0
22 104 190 0
124 154 197 0
2 13 -142 0
-36 83 150 0
26 118 134 0
-113 -142 171 0
-6 40 -183 0
46 88 164 0
-44 -113 136 0
-57 123 -150 0
-118 197 199 0
-42 -99 -185 0
120 -121 195 0
-65 80 -134 0
36 -143 150 0
119 131 191 0
60 -187 200 0
-79 125 -179 0
27 35 -139 0
-55 68 146 0
-56 -136 -147 0
4 -63 105 0
-113 -130 172 0
-51 83 -168 0
-6 63 -154 0
-37 -38 -134 0
-69 110 -192 0
8 32 140 0
-90 -134 -183 0
-84 91 -194 0
129 -177 -199 0
119 145 -162 0
15 -57 -101 0
68 82 -158 0
-79 139 198 0
-30 67 112 0
-69 -97 163 0
11 14 -98 0
-28 80 99 0
35 -52 191 0
-90 160 -198 0
-43 123 -161 0
-5 -15 -101 0
30 -96 199 0
-8 -153 -155 0
-18 -57 83 0
-15 107 158 0
48 59 182 0
150 -158 180 0
4 -176 194 0
-95 137 186 0
-36 187 -198 0
-83 110 -172 0
31 -89 151 0
-16 76 -167 0
-87 -92 160 0
59 -123 -157 0
-81 -106 189 0
-94 -130 -135 0
8 144 200 0
122 -129 -192 0
50 -152 164 0
-112 -146 -184 0
-13 128 159 0
18 148 163 0
27 103 -155 0
-62 72 -98 0
-76 131 -164 0
7 19 -150 0
-7 128 -130 0
-3 45 196 0
80 -152 -177 0
-59 -71 78 0
-35 -54 160 0
-46 -101 172 0
-15 -93 -197 0
124 -142 196 0
44 -51 -183 0
-9 -101 157 0
-49 60 -169 0
-78 138 189 0
9 -131 154 0
78 -104 144 0
54 101 189 0
-55 58 -177 0
-30 150 152 0
-67 -93 -137 0
58 -69 -102 0
34 -103 -185 0
132 -143 168 0
-8 92 -140 0
-9 -153 173 0
-20 44 -113 0
78 102 113 0
83 95 -184 0
52 -100 -162 0
-7 96 113 0
-28 -104 191 0
-5 15 -187 0
-29 -39 -187 0
11 31 197 0
-59 -87 -169 0
-5 -107 -180 0
3 14 173 0
-5 -71 199 0
-84 -113 -125 0
-15 -60 157 0
-13 -33 -51 0
-52 141 176 0
-54 -89 -133 0
20 -28 -56 0
-57 98 164 0
-8 18 -82 0
30 -88 -139 0
9 -55 -167 0
140 189 195 0
-66 -79 117 0
-50 -93 -137 0
18 92 -165 0
-62 80 -130 0
-11 57 153 0
32 35 71 0
79 -122 178 0
107 -132 161 0
9 -156 176 0
72 -135 173 0
5 -72 -147 0
14 -64 -75 0
-47 -110 195 0
30 121 -124 0
34 50 95 0
135 -140 183 0
-12 73 -149 0
-14 -141 -157 0
-27 -96 99 0
-47 -59 169 0
-8 -63 -135 0
42 100 104 0
-73 91 157 0
32 -122 141 0
86 -92 128 0
36 -82 119 0
17 39 173 0
54 -155 188 0
-7 168 -193 0
13 -188 -191 0
2 -78 159 0
45 -178 192 0
64 127 198 0
-7 78 -157 0
-32 -107 -123 0
-13 -139 -198 0
-55 68 -84 0
-42 121 -182 0
-72 -121 175 0
4 138 200 0
95 -182 197 0
