c F2 random 3-CNF cnfgen RandomKCNF(3,350,1750,seed=8) m/n=5.0
p cnf 350 1750
117 190 193 0
44 -71 127 0
-233 -236 250 0
46 207 -249 0
-209 243 -267 0
-33 50 198 0
-45 121 174 0
33 -277 311 0
-76 -234 -297 0
70 -82 -219 0
254 -258 330 0
146 183 -271 0
-7 125 -152 0
-18 -131 -217 0
90 203 337 0
83 104 -154 0
-88 176 292 0
-210 -229 289 0
36 148 302 0
-55 267 -340 0
33 77 310 0
175 -198 -338 0
-2 167 188 0
17 297 -317 0
62 221 227 0
-80 243 255 0
232 -298 332 0
-202 -242 289 0
-26 27 102 0
3 -109 -308 0
48 271 -308 0
197 267 -270 0
-41 -152 314 0
-41 -152 -324 0
-155 -265 321 0
-101 -190 249 0
-149 -204 -314 0
-101 219 -345 0
-36 -84 256 0
-141 -150 -320 0
-126 211 324 0
128 235 -259 0
-55 58 255 0
24 219 291 0
-45 -49 -136 0
-48 65 -290 0
-20 43 71 0
19 -164 -308 0
34 -168 -267 0
-81 82 -131 0
34 52 -274 0
91 102 173 0
-88 -91 285 0
57 246 257 0
-112 116 168 0
-32 -70 -226 0
-191 -224 297 0
-137 159 -349 0
-256 260 -326 0
-70 251 -332 0
-17 -18 -202 0
15 193 319 0
95 -230 297 0
-21 -191 258 0
-53 164 333 0
-187 -245 -296 0
192 322 -344 0
-17 -32 -120 0
-89 244 -288 0
-12 -148 -226 0
-149 207 -255 0
175 225 -335 0
-234 -308 -342 0
105 268 280 0
-46 281 341 0
130 206 326 0
-19 -109 227 0
-3 -9 66 0
-23 110 -169 0
1 121 -349 0
58 216 218 0
-178 337 -341 0
102 -210 340 0
83 162 -250 0
-135 158 -159 0
97 -107 109 0
123 -162 -335 0
-256 -260 282 0
85 241 -316 0
83 285 -313 0
-103 306 -347 0
37 166 -228 0
-11 -162 205 0
-61 -198 348 0
174 250 281 0
-164 -257 311 0
59 -90 -314 0
15 42 281 0
-31 -172 -177 0
-82 252 -310 0
127 -240 -300 0
243 268 343 0
-151 169 -291 0
94 -153 -284 0
-29 -271 348 0
-127 -242 283 0
34 -245 281 0
52 93 203 0
166 249 -292 0
-16 -128 195 0
252 265 -270 0
131 169 189 0
-218 250 291 0
-15 -65 -181 0
218 -267 -344 0
214 325 347 0
-103 121 228 0
-1 171 268 0
-164 -259 288 0
7 113 193 0
34 -82 -330 0
-46 -199 279 0
-197 -227 -255 0
23 120 -159 0
-7 -218 333 0
91 -322 334 0
9 -27 258 0
-128 182 186 0
97 -261 329 0
16 215 322 0
-76 162 209 0
-168 183 -263 0
156 322 -325 0
-9 23 -271 0
107 279 308 0
-68 -266 -310 0
-134 178 -343 0
228 -235 315 0
133 -273 -293 0
60 140 -259 0
206 298 321 0
66 -287 -321 0
-113 287 -324 0
-152 -208 233 0
-166 -199 -272 0
32 309 342 0
163 -199 -213 0
6 -154 -257 0
-134 247 -275 0
118 -294 319 0
83 -98 119 0
-52 -65 290 0
-41 78 -248 0
59 298 334 0
-147 178 180 0
-82 326 329 0
-189 225 240 0
-185 -303 -346 0
-69 -211 281 0
39 -116 169 0
-121 -151 -229 0
1 -31 210 0
99 117 -334 0
305 315 -316 0
39 -253 -348 0
26 -180 -283 0
158 238 259 0
-37 117 226 0
-135 223 283 0
-161 -179 -215 0
249 -262 -348 0
-167 -195 -215 0
1 -127 230 0
274 296 323 0
5 -56 -312 0
-45 -106 -151 0
-80 -250 -317 0
-94 150 207 0
10 113 210 0
-51 -91 -315 0
-92 -127 -299 0
15 214 -315 0
-56 70 -182 0
19 -49 142 0
-32 -167 212 0
4 -257 295 0
-67 -231 -339 0
-138 -163 164 0
-84 109 201 0
22 -153 -160 0
-70 -299 319 0
-101 -288 -324 0
22 -144 264 0
41 239 314 0
60 65 -137 0
-80 -177 256 0
-14 -205 223 0
-118 -191 209 0
-22 63 -226 0
65 -112 -171 0
43 -83 -339 0
39 -271 319 0
78 -96 253 0
-65 -181 287 0
35 -173 -281 0
83 -170 -266 0
-115 285 -346 0
59 -78 184 0
21 110 -349 0
-62 89 152 0
68 146 -253 0
-90 -213 -311 0
-212 -319 329 0
-80 -244 -283 0
31 -71 -276 0
-120 205 334 0
72 -76 276 0
35 -190 309 0
26 188 327 0
-263 -312 329 0
-34 87 -194 0
50 -112 205 0
113 -137 348 0
42 -193 -223 0
255 320 -346 0
-3 83 -159 0
-57 -195 245 0
-91 269 -293 0
-78 80 117 0
-13 -254 -287 0
-83 232 -323 0
-187 243 346 0
-133 153 -316 0
50 149 274 0
-159 210 280 0
-96 -314 345 0
51 90 201 0
81 -213 271 0
-15 141 -175 0
-144 -241 285 0
-16 24 -287 0
38 -119 166 0
11 -257 338 0
-65 -110 -123 0
10 -46 237 0
61 -150 -209 0
160 -240 295 0
-56 114 287 0
-99 -132 -334 0
47 57 75 0
-7 -118 304 0
156 -286 -307 0
-170 -213 -273 0
34 58 350 0
16 84 88 0
-78 -101 271 0
186 -264 337 0
221 -279 -285 0
-69 -218 -261 0
31 -152 295 0
-56 127 246 0
45 203 235 0
45 -113 173 0
-73 -105 -159 0
-39 -46 190 0
73 135 203 0
11 -49 293 0
172 310 -328 0
92 131 291 0
-135 -174 -177 0
44 -138 258 0
-22 122 -218 0
-1 -19 36 0
-47 -66 326 0
13 -104 -344 0
43 103 -154 0
-1 -86 -202 0
81 -114 175 0
-232 -275 -295 0
-42 -49 -191 0
-42 -169 -332 0
117 145 250 0
-55 -188 277 0
115 214 -303 0
-277 290 303 0
98 257 -261 0
114 195 -229 0
50 259 296 0
153 190 -328 0
-107 -138 299 0
99 148 260 0
-195 -252 312 0
275 292 295 0
-122 -216 274 0
-61 191 349 0
204 279 311 0
22 -26 -291 0
31 -124 137 0
-149 -161 289 0
-72 93 272 0
-78 -283 339 0
69 -80 -152 0
-13 -73 260 0
-22 -228 -259 0
-142 -233 263 0
-10 82 -307 0
-2 323 -337 0
-64 199 -270 0
-1 55 -273 0
-36 113 -214 0
-210 265 337 0
-50 -91 229 0
-64 -277 298 0
-131 -134 136 0
-3 76 77 0
-11 129 -276 0
96 193 256 0
62 -143 -193 0
144 221 252 0
-83 -195 203 0
-107 -147 162 0
-36 -68 -184 0
-36 234 277 0
-31 282 309 0
-59 -266 -323 0
-97 -249 -334 0
-246 -270 315 0
-138 -312 -337 0
-14 33 -70 0
61 -147 -335 0
-113 209 303 0
-137 -209 241 0
-134 -308 -312 0
96 -251 263 0
48 181 185 0
-17 -85 133 0
141 -145 181 0
77 138 267 0
225 -233 -289 0
37 -251 -328 0
212 233 317 0
46 -185 328 0
-260 -290 307 0
-223 -289 -320 0
167 254 -302 0
-117 155 337 0
101 169 -223 0
-126 189 340 0
123 190 -236 0
-186 -228 -289 0
66 129 195 0
60 250 328 0
-121 -185 197 0
-42 57 -294 0
70 -176 329 0
-86 270 -274 0
-117 156 245 0
-113 -185 283 0
-48 -207 -289 0
-41 -66 344 0
80 131 276 0
139 143 -288 0
-37 -240 -252 0
186 -226 -320 0
60 -169 250 0
9 66 -260 0
-31 71 -156 0
56 222 -258 0
-94 -126 279 0
-58 122 -188 0
38 -279 288 0
88 -140 -231 0
27 85 152 0
-48 188 -334 0
156 -272 -282 0
-60 123 -206 0
-54 103 233 0
74 -154 -322 0
-40 210 266 0
57 -226 328 0
-35 -235 283 0
-204 -252 -280 0
-17 -78 218 0
146 -210 -289 0
21 177 -316 0
-96 192 -202 0
2 -155 -210 0
-4 -72 122 0
167 254 271 0
29 149 178 0
-98 -120 -223 0
-99 204 323 0
-130 -202 281 0
192 303 340 0
146 -158 161 0
-77 120 -178 0
120 156 -158 0
37 124 -245 0
-60 -198 -237 0
-39 -105 289 0
291 -293 307 0
296 323 332 0
72 -151 -304 0
-54 -65 184 0
86 190 193 0
37 150 206 0
240 299 315 0
-8 9 197 0
78 -122 -320 0
-45 134 334 0
108 279 307 0
-77 -180 -284 0
-91 266 289 0
-70 -106 124 0
42 95 169 0
-179 -236 238 0
223 305 -310 0
-105 139 -174 0
147 -282 334 0
-95 -173 -344 0
-32 177 234 0
-37 43 -180 0
41 101 -339 0
103 -288 334 0
67 -71 -230 0
257 274 -340 0
220 -281 330 0
-79 83 233 0
-82 -91 -234 0
48 -153 248 0
107 271 303 0
94 -167 -233 0
-121 167 -290 0
-9 150 179 0
-88 -102 -206 0
117 284 303 0
-193 -314 -318 0
12 93 -99 0
-66 -189 -198 0
-15 -31 -113 0
-234 -253 -307 0
4 -98 -327 0
174 253 -293 0
55 -93 244 0
130 178 -310 0
-77 -136 -327 0
-57 308 339 0
134 -199 233 0
-195 256 340 0
-24 -209 -349 0
47 169 316 0
-117 -194 345 0
-19 160 -266 0
117 165 -257 0
-11 95 330 0
-16 -103 -297 0
97 145 -330 0
1 -252 -330 0
-21 -48 -142 0
-21 -142 313 0
-56 -86 -114 0
40 146 -337 0
-91 95 -186 0
-60 106 109 0
-77 -99 -236 0
-157 -167 231 0
-30 -92 225 0
93 202 295 0
19 135 308 0
-118 181 -337 0
-27 99 -278 0
-36 -185 -303 0
-27 297 -343 0
114 -125 295 0
68 -176 -243 0
95 -308 349 0
255 274 -284 0
22 -253 -292 0
-13 69 -328 0
-58 240 -338 0
79 -274 -319 0
-18 -115 326 0
84 88 -135 0
-170 210 -318 0
-5 -186 234 0
-101 -120 -204 0
-46 188 204 0
52 132 -316 0
-97 111 331 0
30 -321 323 0
104 -120 212 0
102 264 286 0
67 -203 309 0
1 128 159 0
-6 328 350 0
154 241 -299 0
-145 -191 -321 0
62 128 -269 0
95 -229 331 0
-125 220 294 0
47 -348 349 0
40 47 -237 0
151 242 -329 0
-132 286 -308 0
-84 -147 -163 0
70 -102 341 0
19 -164 210 0
4 -204 316 0
147 -266 345 0
-14 130 293 0
11 -236 338 0
56 83 339 0
-70 -170 232 0
7 -90 -220 0
19 85 -283 0
1 119 224 0
-51 156 223 0
108 -229 283 0
1 36 350 0
-102 -173 -266 0
-8 220 -338 0
-58 105 190 0
-203 273 -338 0
-93 98 -144 0
62 -93 -133 0
-87 100 -148 0
-46 55 344 0
4 -273 320 0
23 87 -215 0
-67 -166 206 0
24 66 161 0
144 -227 327 0
81 -224 -244 0
145 -267 -289 0
260 282 -340 0
-105 -166 331 0
-1 -72 346 0
-99 202 -280 0
-178 -181 -275 0
-234 240 273 0
88 117 -122 0
-137 -195 -203 0
77 257 261 0
75 87 301 0
-148 149 349 0
-23 199 -204 0
79 121 192 0
61 225 -348 0
47 191 -216 0
-173 224 333 0
123 -208 279 0
45 -64 343 0
-21 196 333 0
-229 -292 299 0
4 -306 320 0
-93 103 -328 0
-30 40 -151 0
-5 226 -271 0
2 -137 349 0
10 -75 -126 0
-127 133 268 0
42 255 -282 0
-21 154 253 0
33 -74 -76 0
96 -112 241 0
-137 178 -245 0
64 207 -236 0
-163 -217 -310 0
6 -193 320 0
-143 188 319 0
100 190 278 0
-46 150 342 0
106 156 -250 0
-3 76 293 0
15 58 154 0
41 -150 154 0
-116 -260 -279 0
238 255 318 0
-31 -199 -225 0
30 64 -285 0
11 -57 212 0
-200 287 -296 0
-97 -266 316 0
40 -194 264 0
-110 -194 -230 0
112 289 -330 0
5 153 -318 0
177 215 234 0
-40 -169 -227 0
49 263 328 0
67 -230 327 0
31 92 -118 0
70 132 -190 0
-68 -171 -242 0
-78 -193 289 0
-62 -186 336 0
-27 -198 -290 0
26 -275 -342 0
6 192 -248 0
83 169 202 0
-7 123 -313 0
24 -214 322 0
-23 66 -105 0
3 77 284 0
-2 -84 -167 0
124 183 -230 0
128 224 306 0
-202 245 258 0
-8 91 131 0
290 -296 -318 0
-35 -266 278 0
149 158 311 0
-214 254 -320 0
48 170 350 0
113 200 248 0
-8 32 -335 0
-109 207 -246 0
-149 -204 -307 0
-34 93 -312 0
-119 227 -242 0
-175 220 -244 0
192 -263 337 0
-6 -175 217 0
2 -89 -166 0
-41 -184 339 0
-9 -111 294 0
60 202 -312 0
-83 -275 329 0
-20 200 -324 0
102 -124 -165 0
56 140 326 0
-41 68 -153 0
-5 -239 267 0
-80 99 255 0
103 -127 -267 0
-41 68 270 0
-206 -241 -276 0
68 -283 -311 0
-53 167 345 0
-21 42 -229 0
-218 233 -344 0
218 -262 -310 0
-131 172 189 0
-11 -41 -45 0
17 -105 252 0
59 -67 -321 0
217 227 335 0
-116 287 338 0
67 -278 -337 0
111 120 -319 0
72 -222 -287 0
44 -160 187 0
161 -191 -265 0
41 -219 312 0
76 286 321 0
-65 -111 -259 0
41 48 134 0
-179 -187 -300 0
103 167 -219 0
94 -202 244 0
-12 52 -63 0
-11 164 269 0
128 153 -348 0
6 -11 274 0
-278 286 348 0
-129 197 199 0
64 216 -236 0
-140 239 -262 0
2 -78 -248 0
-9 43 201 0
128 272 -312 0
185 -202 -349 0
67 -154 -166 0
-117 154 -199 0
41 232 324 0
-81 142 -237 0
40 197 260 0
37 125 141 0
-141 -163 272 0
-42 160 -288 0
-18 76 250 0
90 183 289 0
-65 -93 -334 0
40 50 133 0
89 207 287 0
25 140 -301 0
28 178 -214 0
-1 -170 349 0
-40 -48 -141 0
180 205 232 0
70 108 223 0
-3 -49 110 0
-39 -177 -271 0
-78 149 311 0
-73 -176 239 0
-242 331 -347 0
-78 -264 331 0
-22 304 -306 0
-54 -75 183 0
96 235 330 0
-173 -185 -284 0
86 -90 240 0
-101 -224 314 0
195 212 -297 0
9 -125 -226 0
-10 88 -159 0
-168 230 271 0
-128 -187 304 0
105 230 -345 0
268 -275 -284 0
120 193 344 0
202 221 320 0
-35 40 -124 0
36 210 -311 0
-59 -73 -239 0
-56 59 256 0
-191 -296 301 0
-57 315 -346 0
99 -311 -347 0
-76 -99 347 0
-76 116 -212 0
-24 240 -247 0
39 237 -292 0
20 169 -199 0
-67 -99 206 0
-146 -188 -247 0
42 -81 -253 0
-120 224 -306 0
33 -228 -350 0
106 146 168 0
-13 -168 203 0
-43 155 -309 0
-38 68 234 0
-104 -162 237 0
214 284 319 0
72 130 -336 0
16 223 260 0
91 -142 -270 0
-49 232 -263 0
206 -234 -304 0
-141 -158 345 0
-53 -190 -247 0
67 271 -272 0
28 -228 342 0
145 -173 258 0
-89 114 -170 0
-186 -250 -269 0
-19 156 -331 0
116 241 253 0
-107 217 245 0
-159 160 -261 0
-92 302 308 0
237 -269 -297 0
-80 130 284 0
102 -171 184 0
54 107 251 0
147 -202 289 0
-124 -252 -346 0
-113 181 -193 0
20 -176 274 0
252 269 277 0
-81 -243 255 0
17 90 319 0
-253 -257 -304 0
131 178 -313 0
92 126 -314 0
-12 16 181 0
157 243 -330 0
1 59 103 0
55 -73 -233 0
-99 -230 322 0
11 304 -318 0
-16 38 -113 0
26 -151 -177 0
59 -183 -334 0
37 80 312 0
-3 -46 65 0
261 -289 294 0
-98 -157 199 0
8 72 -256 0
55 -94 143 0
-26 -27 201 0
-242 267 303 0
-87 96 -205 0
-88 266 345 0
-45 -65 -246 0
-97 153 -288 0
119 167 271 0
33 78 -204 0
-83 147 301 0
-18 190 -274 0
-6 -173 -301 0
7 -181 240 0
20 -196 337 0
13 -236 -321 0
46 -101 -212 0
22 -67 -344 0
-239 305 -335 0
-84 -149 -294 0
254 -312 -316 0
293 307 -333 0
-135 -155 -216 0
138 236 243 0
72 78 193 0
-55 -103 136 0
224 -229 286 0
81 88 -97 0
-97 -118 215 0
-73 -111 -307 0
-29 -131 -280 0
53 92 -316 0
-111 147 -151 0
-194 248 -254 0
202 -206 212 0
63 213 -233 0
-5 -213 276 0
-25 -176 245 0
-20 -83 104 0
41 -238 -271 0
63 272 -310 0
8 -24 192 0
40 111 315 0
-25 -39 -153 0
-110 -279 319 0
24 94 -182 0
51 -124 216 0
75 178 335 0
-73 284 289 0
-75 -245 -262 0
-28 67 -115 0
33 175 -316 0
24 -277 293 0
104 -298 -344 0
-193 227 -229 0
149 242 -259 0
-188 -267 335 0
-12 87 -146 0
206 -213 346 0
41 -325 -346 0
-86 218 345 0
-31 45 -289 0
86 267 299 0
-62 96 275 0
-6 31 -138 0
-64 -83 90 0
-132 148 316 0
168 174 -219 0
-94 -270 -318 0
-56 106 -290 0
-2 -184 211 0
27 -165 331 0
-196 -294 300 0
38 178 -231 0
21 200 -207 0
2 -6 86 0
-164 -190 -341 0
-51 -96 168 0
200 -257 -289 0
141 -328 345 0
-110 174 244 0
-200 -229 -250 0
-99 -152 217 0
-35 63 -244 0
-63 -168 -306 0
112 142 -260 0
-49 51 -123 0
-129 153 334 0
178 230 334 0
-211 -218 -299 0
-116 -132 240 0
-117 -294 -324 0
-86 -132 146 0
-10 -192 220 0
88 197 -275 0
-23 -68 -332 0
103 -176 -347 0
38 -206 315 0
-42 -111 330 0
101 241 -256 0
-124 173 285 0
-51 172 234 0
24 -213 215 0
-65 101 340 0
-8 -21 248 0
85 -270 -320 0
-85 149 182 0
39 213 310 0
14 -138 148 0
105 163 -192 0
-91 286 296 0
92 -95 -257 0
-15 221 252 0
30 -108 -202 0
-62 182 -320 0
84 -114 314 0
-31 -90 -233 0
-66 -130 230 0
-117 161 301 0
-54 183 -269 0
-44 -124 309 0
170 230 -254 0
-237 322 -347 0
-229 -275 344 0
-49 -222 -224 0
34 80 -268 0
-84 188 -206 0
15 20 187 0
49 55 -142 0
-47 -50 -88 0
-46 -107 173 0
-18 -255 341 0
-150 -256 345 0
68 78 139 0
23 82 342 0
172 -220 -311 0
-86 176 -245 0
-141 -298 321 0
-87 170 302 0
-68 87 -164 0
-68 179 193 0
4 7 -118 0
18 -251 297 0
12 285 -350 0
201 -266 290 0
12 24 206 0
248 -285 -300 0
177 -199 275 0
70 267 337 0
-32 -121 -284 0
224 -272 307 0
137 -215 -279 0
2 -10 -31 0
64 -68 290 0
12 -181 208 0
-104 149 171 0
-39 200 -320 0
200 319 330 0
89 -97 159 0
21 -57 273 0
6 -26 -229 0
-6 231 326 0
133 236 -266 0
125 -235 319 0
106 -130 -334 0
148 301 -336 0
41 -70 -82 0
216 286 331 0
-32 187 -255 0
-236 256 298 0
-63 -187 197 0
151 297 -306 0
50 -142 -283 0
-55 -181 289 0
105 -122 -175 0
-75 116 126 0
-6 -78 -325 0
-170 188 -214 0
47 213 -235 0
-117 194 294 0
125 -129 -209 0
108 -167 -237 0
80 273 308 0
159 -250 309 0
-126 153 -303 0
6 -76 333 0
53 335 345 0
91 -194 -260 0
78 -135 -178 0
14 -82 160 0
89 275 -306 0
42 -124 -308 0
114 218 -344 0
135 -204 243 0
-24 48 240 0
-110 196 342 0
-65 -174 346 0
27 207 225 0
-2 -186 344 0
100 -108 -170 0
-124 -198 230 0
-167 190 254 0
-7 249 -321 0
-34 -134 192 0
38 -104 283 0
-18 147 160 0
59 265 304 0
-60 176 -335 0
78 94 215 0
-7 -119 292 0
19 -26 327 0
-29 -173 176 0
-60 -166 244 0
-2 -142 -216 0
198 268 299 0
50 -93 305 0
22 -77 -171 0
66 -153 -310 0
19 -78 -178 0
112 181 -194 0
130 -138 221 0
-110 201 312 0
-218 -246 279 0
-202 -270 286 0
135 269 271 0
-60 -96 188 0
16 -127 -136 0
101 281 -343 0
49 178 -284 0
7 -278 301 0
36 240 243 0
-170 254 348 0
-52 109 168 0
145 -157 232 0
192 194 284 0
-19 -82 -179 0
-115 186 -297 0
47 -86 -338 0
57 198 334 0
-67 -217 244 0
-31 91 -298 0
-50 75 305 0
-24 298 334 0
167 218 -339 0
-36 145 -153 0
135 259 -325 0
-4 -56 -263 0
-234 243 270 0
54 -122 -154 0
-68 216 -223 0
-175 -185 -222 0
75 -130 314 0
-1 7 67 0
195 243 -269 0
35 -44 214 0
-25 52 116 0
188 -270 284 0
-19 -35 -261 0
-185 -327 -336 0
-10 70 334 0
-161 -224 -312 0
197 -281 -334 0
-12 52 171 0
-19 243 -328 0
-247 296 315 0
-78 -82 -122 0
-71 -97 150 0
-53 226 318 0
-15 260 339 0
-31 -225 268 0
-132 286 -314 0
227 -279 -300 0
113 131 316 0
30 -59 -103 0
125 260 344 0
103 -203 332 0
89 249 294 0
19 -116 -250 0
-121 122 203 0
20 35 69 0
151 -200 -252 0
-65 -155 -159 0
57 -65 216 0
-92 -193 301 0
84 101 -163 0
-140 -283 303 0
-269 -299 338 0
-11 -121 -170 0
16 71 307 0
200 -268 -269 0
118 -147 241 0
-39 180 211 0
71 -228 -240 0
8 11 310 0
-7 -95 136 0
137 211 272 0
-154 -260 309 0
27 91 -171 0
-51 -64 -320 0
-242 290 349 0
-130 329 -338 0
-5 136 274 0
26 -67 237 0
-29 -212 300 0
-51 75 -127 0
-13 -16 -56 0
133 -166 291 0
-78 -180 336 0
-21 49 -184 0
114 -129 324 0
70 -155 231 0
87 100 -266 0
-22 -29 107 0
-207 226 311 0
51 201 -298 0
-10 -103 309 0
98 -125 -162 0
-193 194 -225 0
-27 -36 242 0
-21 -198 -320 0
98 133 135 0
-152 -272 -309 0
-30 -35 -47 0
135 248 293 0
21 -194 304 0
-150 -258 302 0
175 -254 324 0
19 -142 -168 0
-1 -64 -146 0
-4 -93 117 0
56 -255 -300 0
-92 172 -291 0
-115 -175 -222 0
-61 99 236 0
47 -78 139 0
-65 232 247 0
7 -80 -160 0
-34 53 222 0
-83 101 299 0
32 -149 -294 0
-272 -286 -323 0
158 188 331 0
35 83 -140 0
118 -189 -340 0
139 -170 -305 0
1 6 302 0
94 -129 133 0
63 204 330 0
-38 95 261 0
124 -135 247 0
5 -54 269 0
-220 262 -275 0
138 -168 220 0
13 -51 -304 0
8 220 -347 0
-48 226 -339 0
-123 -141 247 0
107 -152 344 0
-105 -256 -322 0
-105 261 -284 0
-21 -306 318 0
-76 127 -216 0
-74 190 302 0
-4 43 171 0
277 -316 342 0
-140 202 -253 0
-32 95 277 0
-46 -76 -334 0
15 -117 -231 0
13 175 -234 0
-115 204 324 0
-63 107 216 0
235 -305 -338 0
-70 130 316 0
-176 -251 295 0
40 220 281 0
-236 -316 341 0
72 -131 -218 0
-13 -176 308 0
-110 161 -215 0
-127 178 -259 0
47 53 -128 0
-28 -157 339 0
137 -256 312 0
126 -158 -228 0
-15 -66 -200 0
-90 -194 -333 0
-205 208 -243 0
-145 207 273 0
-8 44 -99 0
-223 -294 348 0
-83 191 277 0
-6 -25 148 0
320 328 333 0
84 -109 -309 0
24 116 -281 0
31 217 -321 0
115 -164 183 0
25 -162 246 0
223 -260 -350 0
-106 -117 -256 0
-20 59 -105 0
176 -236 336 0
16 -70 185 0
86 164 248 0
101 -126 266 0
-21 -135 -294 0
-10 -45 137 0
-72 332 345 0
98 -138 236 0
42 324 347 0
-13 170 -277 0
-19 47 150 0
79 -201 -328 0
81 -111 -324 0
-140 -238 244 0
135 -242 -342 0
245 279 304 0
-34 -106 -336 0
111 -145 -265 0
-131 234 286 0
-58 -65 -132 0
92 147 -155 0
-4 -75 -310 0
92 217 -337 0
-21 -97 -120 0
-157 -176 300 0
-74 -113 -231 0
82 -118 -163 0
-197 214 303 0
-115 124 251 0
47 133 -260 0
288 299 -313 0
-181 229 277 0
-15 19 -216 0
169 201 297 0
-191 196 -302 0
52 156 -292 0
-21 -42 -75 0
-12 51 305 0
-87 136 258 0
68 166 312 0
-149 207 -232 0
187 -189 282 0
-178 263 -297 0
-13 -122 179 0
-77 -82 -276 0
16 42 -239 0
35 181 -241 0
-42 -56 -89 0
110 121 -247 0
-10 191 328 0
-16 32 -98 0
-13 24 83 0
197 222 -299 0
-68 -297 -325 0
121 130 -271 0
-134 -177 -260 0
14 18 94 0
-141 -183 193 0
-82 242 -305 0
-99 107 240 0
-94 -272 331 0
150 170 -330 0
-30 84 -289 0
94 -171 -310 0
-78 134 298 0
5 273 -295 0
-37 -135 340 0
83 218 338 0
13 132 235 0
97 116 -330 0
190 222 320 0
-189 203 277 0
-113 121 156 0
-92 127 -184 0
-162 -247 260 0
-209 -277 -313 0
-138 -261 328 0
-209 221 293 0
21 49 232 0
-18 -72 326 0
-233 -281 -328 0
-122 -251 342 0
104 181 -288 0
-28 76 159 0
57 272 -318 0
-151 269 303 0
68 146 -234 0
-1 -65 -195 0
4 -136 -290 0
-24 -132 -327 0
116 -121 330 0
-118 256 329 0
110 -268 -320 0
168 188 -258 0
-25 78 -194 0
233 277 336 0
43 163 253 0
36 -103 110 0
8 195 -256 0
-218 286 295 0
-23 -88 90 0
169 222 -285 0
-41 -238 -256 0
153 -283 -341 0
-104 -258 -339 0
-63 -140 -231 0
41 -124 -183 0
-280 321 337 0
-157 -217 -306 0
-71 165 278 0
67 -192 221 0
16 119 -154 0
155 199 -319 0
-99 162 -323 0
-7 -107 -232 0
173 -256 -342 0
47 70 275 0
-235 263 295 0
-99 -120 231 0
127 -165 -338 0
-144 262 -296 0
32 44 -248 0
-91 -231 282 0
-149 223 -237 0
-31 206 207 0
14 -236 241 0
-73 -136 -195 0
-40 72 333 0
-130 -169 -308 0
-10 -246 255 0
4 -197 292 0
-45 150 227 0
-55 141 -307 0
150 -224 297 0
-170 -239 -312 0
-63 -106 -262 0
41 165 -306 0
204 -259 349 0
-21 93 -178 0
6 -163 -169 0
-166 201 294 0
-174 -296 -312 0
-244 280 302 0
101 -258 -309 0
-54 -128 274 0
80 -265 -280 0
8 204 -237 0
4 159 -248 0
177 -201 -215 0
-207 -265 320 0
-36 279 280 0
-228 279 -309 0
139 148 -235 0
-166 -211 -297 0
34 -285 -290 0
-164 -289 309 0
104 168 -171 0
-44 258 -340 0
84 185 255 0
27 158 348 0
177 -242 -271 0
-171 -212 -284 0
8 -245 320 0
49 50 -222 0
185 232 -307 0
-8 15 -245 0
-9 -144 243 0
-71 274 -320 0
73 114 124 0
-142 -328 333 0
-14 -32 -238 0
-176 190 204 0
-29 42 -252 0
-47 -64 282 0
-88 -89 312 0
-135 -215 -275 0
-115 329 -336 0
-268 -311 312 0
39 -142 -347 0
-85 -195 -234 0
19 63 101 0
-68 -224 -249 0
-21 -22 -269 0
-84 224 -328 0
242 314 335 0
221 -302 -330 0
-37 -151 248 0
-202 245 328 0
121 138 -346 0
112 -122 -304 0
-33 -72 278 0
11 -173 -196 0
212 -246 292 0
-81 98 -169 0
100 155 -285 0
81 -306 -327 0
20 178 -310 0
34 -216 269 0
-197 -276 325 0
-4 -117 152 0
54 63 -90 0
85 -96 315 0
-16 26 -347 0
-10 154 344 0
-126 -179 256 0
121 -206 -263 0
-50 -126 -189 0
13 -66 209 0
32 -83 -91 0
237 286 -333 0
18 -88 236 0
44 -76 135 0
-21 135 -278 0
-92 231 -268 0
-126 -185 254 0
30 -63 78 0
-95 -97 -102 0
53 139 179 0
73 182 -287 0
-25 -82 173 0
61 -76 -105 0
178 230 -277 0
150 180 336 0
6 -77 -88 0
-194 -208 -308 0
232 311 -349 0
-39 -54 -144 0
-32 -84 -195 0
5 200 -201 0
37 -267 295 0
65 -122 152 0
180 223 -330 0
51 222 -306 0
-64 110 -233 0
-103 154 -306 0
-61 -219 281 0
72 183 -196 0
144 173 191 0
118 244 321 0
177 220 252 0
-20 -57 -229 0
24 -182 303 0
97 -190 280 0
-80 -122 173 0
103 -117 -123 0
143 -153 -245 0
22 -162 212 0
-59 -77 260 0
198 222 321 0
-163 174 -189 0
132 -156 -241 0
-79 -98 250 0
106 -209 297 0
43 115 128 0
13 63 233 0
-13 100 291 0
11 -328 -348 0
-21 -209 -226 0
-9 201 203 0
-43 141 -323 0
152 -273 -285 0
147 236 -262 0
15 137 250 0
4 28 226 0
-160 266 275 0
-205 -232 260 0
-101 193 -301 0
99 -238 318 0
67 215 220 0
-75 -134 166 0
-118 287 322 0
65 -98 193 0
45 251 298 0
-8 -109 136 0
-26 -203 -281 0
84 235 -314 0
98 286 -349 0
-159 263 340 0
-116 -244 -344 0
66 79 194 0
40 124 -324 0
133 179 189 0
-149 298 340 0
40 -180 274 0
-141 232 276 0
255 286 289 0
-62 72 192 0
230 245 -303 0
-227 -232 -240 0
-76 -208 -237 0
281 323 -348 0
28 193 307 0
-234 250 327 0
94 176 329 0
80 101 -122 0
6 87 345 0
116 294 326 0
-82 87 -139 0
-214 222 267 0
-9 -246 -267 0
-198 -228 349 0
227 -240 -325 0
-162 177 341 0
-81 -184 330 0
131 -241 270 0
-150 295 346 0
-22 67 265 0
-158 182 254 0
121 193 -320 0
-180 -255 -268 0
87 -270 285 0
-9 -309 319 0
89 -114 134 0
70 -96 254 0
-46 278 347 0
170 268 309 0
45 -110 272 0
4 -31 -124 0
-165 213 246 0
111 -203 295 0
145 -201 349 0
-105 305 338 0
104 -323 328 0
-180 -331 346 0
202 -265 -266 0
149 320 345 0
54 -256 278 0
136 181 327 0
-20 -143 156 0
34 -102 134 0
67 166 174 0
-67 216 -323 0
137 167 180 0
38 -122 130 0
-4 163 -262 0
147 255 -267 0
8 35 47 0
136 -192 271 0
-71 146 317 0
7 98 -232 0
42 -49 181 0
-72 78 -144 0
-92 252 -284 0
154 284 292 0
-202 -296 -306 0
41 164 -349 0
-63 79 -142 0
-112 -160 -283 0
-89 297 -301 0
-38 -219 253 0
59 -99 -288 0
-23 94 -174 0
92 -141 -271 0
-208 -266 308 0
-171 237 304 0
-9 -122 -182 0
50 64 65 0
195 -292 313 0
-119 287 -349 0
-118 132 -208 0
-34 -177 222 0
-22 -253 -271 0
27 -105 -216 0
67 130 -323 0
-9 71 271 0
56 -63 203 0
164 254 345 0
126 139 -194 0
11 -35 260 0
-38 204 -323 0
115 188 322 0
25 74 -304 0
74 -88 -159 0
-111 136 -322 0
61 71 165 0
116 296 344 0
-135 199 249 0
3 99 216 0
3 -192 294 0
9 212 310 0
-232 -254 334 0
130 -144 339 0
-165 248 255 0
-96 148 -177 0
19 178 -309 0
36 -176 -285 0
-39 -177 -303 0
96 -156 206 0
-218 271 -318 0
-52 -192 244 0
127 230 -319 0
-61 104 294 0
78 146 -324 0
113 144 262 0
92 -277 -322 0
-121 -138 145 0
96 -125 -231 0
5 50 247 0
-92 129 300 0
-153 191 319 0
-120 -149 333 0
81 184 -279 0
230 259 320 0
57 -253 328 0
-237 -286 -299 0
-73 166 348 0
-241 277 337 0
-13 -84 243 0
2 151 321 0
-116 -200 230 0
-6 210 -239 0
-251 -261 333 0
-24 -97 -107 0
7 304 -312 0
153 -216 326 0
-180 -239 254 0
-247 -252 -301 0
-22 43 288 0
-75 265 330 0
63 68 149 0
5 168 -195 0
-25 44 334 0
-86 -174 234 0
40 -222 -279 0
150 267 -328 0
-94 170 -183 0
-234 296 -314 0
57 -111 -248 0
142 214 -293 0
196 203 -273 0
-155 182 291 0
-52 140 223 0
-57 132 -316 0
-165 -246 326 0
8 -99 -296 0
-157 -208 -228 0
133 141 -284 0
-75 267 -282 0
-97 -196 237 0
-128 160 -327 0
-277 -300 -328 0
1 43 -251 0
230 301 314 0
179 -205 -289 0
-139 -150 -233 0
154 206 246 0
121 319 330 0
13 -104 286 0
116 -155 309 0
-119 -232 -298 0
-80 -212 -218 0
-57 269 341 0
247 324 -343 0
173 192 -232 0
58 -171 -332 0
92 270 -325 0
-213 223 -275 0
3 33 -81 0
23 137 -172 0
60 -192 267 0
-15 -69 -243 0
11 -233 -290 0
-33 -159 -246 0
184 238 347 0
129 228 -242 0
-136 197 346 0
126 251 329 0
-95 -216 -231 0
49 149 328 0
86 243 258 0
-70 -186 -311 0
-113 288 341 0
235 -241 306 0
-89 152 -176 0
151 -242 -266 0
218 221 -271 0
49 -86 -267 0
8 84 220 0
37 -177 324 0
15 40 -270 0
-60 68 -261 0
-71 179 -241 0
42 73 -302 0
-118 -180 259 0
235 281 -300 0
-26 221 338 0
6 -12 -148 0
149 274 287 0
-80 -324 -346 0
105 160 -242 0
-125 -208 -242 0
-47 155 -286 0
-161 165 236 0
42 -165 301 0
25 28 101 0
45 158 -246 0
-124 207 -315 0
272 305 327 0
-73 -147 -336 0
-175 -178 -205 0
160 284 -343 0
-34 -61 194 0
85 -191 224 0
128 -186 219 0
-96 181 -338 0
23 -134 174 0
142 242 330 0
-182 222 -262 0
117 -334 -348 0
-101 -106 325 0
32 298 300 0
125 -289 292 0
-35 -117 126 0
-78 134 -157 0
-113 -230 271 0
30 153 239 0
-80 -96 -250 0
174 -205 -248 0
5 130 -230 0
34 163 236 0
-90 -264 -311 0
138 -183 271 0
42 -81 -270 0
90 91 -327 0
75 112 211 0
-204 -290 305 0
-47 92 -257 0
-123 262 -317 0
-96 98 -150 0
32 92 -219 0
63 -250 -321 0
-72 181 217 0
55 -138 -292 0
-40 -69 163 0
-4 -116 336 0
-60 -177 250 0
63 116 -301 0
21 -216 -249 0
83 108 -296 0
229 -263 -292 0
27 -108 332 0
-233 -238 334 0
-12 -65 -139 0
140 149 -194 0
89 -289 -344 0
-21 -194 210 0
-49 -123 -270 0
-88 200 257 0
-97 -112 -307 0
-60 111 287 0
168 -177 206 0
-38 -61 344 0
-87 -159 241 0
-21 -61 131 0
37 -60 142 0
-24 -72 114 0
17 274 336 0
-72 -76 -111 0
-3 76 -130 0
-12 -79 -316 0
-20 -29 125 0
-201 244 255 0
-60 -203 280 0
-8 -150 -224 0
134 -284 -324 0
14 -89 108 0
-164 244 312 0
70 82 303 0
-65 -96 -281 0
