c F2 random 3-CNF cnfgen RandomKCNF(3,400,2000,seed=7) m/n=5.0
p cnf 400 2000
78 166 203 0
30 188 299 0
36 215 -223 0
31 64 -290 0
24 -26 -114 0
-61 74 277 0
293 -298 328 0
33 281 -365 0
-219 -273 -349 0
128 154 186 0
-154 -269 -295 0
38 -148 312 0
-78 -176 388 0
-40 -343 -392 0
-255 297 305 0
139 243 -357 0
-296 -332 -349 0
-12 -178 343 0
60 253 -313 0
-67 -127 -379 0
-42 -86 230 0
-143 -221 -282 0
43 78 119 0
-7 120 -338 0
-3 -75 -145 0
65 -264 -354 0
202 -204 -205 0
32 -35 98 0
57 175 308 0
78 -275 291 0
-37 107 -315 0
-178 187 309 0
-239 -246 250 0
-53 -74 -384 0
83 265 -355 0
76 -279 354 0
-134 266 -357 0
-115 273 396 0
123 206 -379 0
15 -183 -375 0
-100 -133 -355 0
42 113 -187 0
-101 105 -173 0
177 330 -335 0
-103 365 -385 0
-45 -171 -326 0
44 372 381 0
-15 78 -303 0
80 180 337 0
53 -333 372 0
15 -109 129 0
-167 -301 392 0
-32 -182 379 0
78 -269 273 0
3 312 398 0
243 317 -372 0
-266 272 350 0
98 128 -142 0
15 -288 -390 0
259 -311 -314 0
245 -261 274 0
71 -214 -230 0
38 -162 344 0
109 156 -343 0
-71 74 130 0
84 204 -250 0
-174 207 -264 0
-48 164 -370 0
226 -235 -284 0
152 265 320 0
-44 54 136 0
-67 -139 -387 0
-77 -264 275 0
30 -143 353 0
9 -138 325 0
-35 114 -312 0
-6 -174 284 0
23 270 364 0
26 -93 -135 0
-106 -272 389 0
-10 139 178 0
10 -259 376 0
-55 -229 -338 0
158 260 -353 0
102 -362 -374 0
8 -28 -67 0
-29 -44 84 0
-24 151 355 0
-2 -138 -229 0
126 -166 281 0
-1 -94 183 0
143 244 258 0
46 -47 136 0
-12 154 202 0
271 -300 -385 0
-77 254 369 0
-263 322 367 0
300 352 365 0
-22 69 -327 0
26 232 -286 0
2 136 234 0
-243 378 -382 0
121 374 -388 0
-40 -196 253 0
316 324 330 0
-131 170 334 0
-32 247 249 0
-149 -251 -346 0
61 -239 393 0
-9 149 -243 0
108 138 199 0
-73 -269 383 0
-261 309 -324 0
-119 249 255 0
-2 -252 -349 0
-73 -214 -373 0
-1 -62 -170 0
62 -101 -366 0
-34 191 -202 0
141 -220 387 0
27 147 -339 0
162 -224 -262 0
-15 324 390 0
-26 211 -375 0
26 249 -282 0
-145 -176 -213 0
-123 -208 -336 0
62 86 330 0
255 -257 -282 0
219 231 389 0
47 -90 176 0
133 189 -292 0
197 -212 -382 0
-32 -174 -386 0
65 258 -352 0
-128 -197 -205 0
-12 -17 -66 0
-1 -38 201 0
56 80 -115 0
44 283 398 0
-20 120 -292 0
224 271 326 0
154 -269 -299 0
1 -115 -308 0
143 -162 331 0
-15 -127 281 0
-12 100 -256 0
-117 218 -342 0
-18 -174 -357 0
4 102 -150 0
103 160 -393 0
-114 136 -390 0
-96 -115 313 0
75 202 305 0
73 213 306 0
-202 231 365 0
85 -98 169 0
-160 -341 -372 0
56 87 -227 0
42 180 -216 0
-159 183 394 0
-101 -243 362 0
-166 187 -378 0
-127 321 -393 0
18 -33 238 0
-33 -311 -383 0
-23 -172 -316 0
2 153 370 0
-55 -244 -367 0
-68 221 253 0
156 355 -379 0
164 186 -236 0
-82 127 386 0
-247 279 -283 0
37 54 136 0
-216 256 364 0
69 214 -236 0
-144 -151 -291 0
-102 134 378 0
-79 121 -126 0
34 129 203 0
19 238 -335 0
119 -192 230 0
26 62 -98 0
-92 230 263 0
-306 327 364 0
73 175 -189 0
20 307 -375 0
191 -210 348 0
-17 105 -254 0
52 203 340 0
-139 -204 -357 0
-27 -160 -214 0
10 -187 -393 0
4 -105 223 0
-47 -208 296 0
8 -27 67 0
190 294 -319 0
83 146 267 0
197 -252 386 0
23 -162 248 0
318 353 -365 0
101 243 315 0
-81 -205 266 0
77 127 372 0
-61 -166 -342 0
158 -216 -333 0
-189 229 338 0
-2 251 -317 0
-317 391 -400 0
35 -55 -205 0
47 188 227 0
43 161 -376 0
14 70 335 0
68 148 252 0
-180 313 -388 0
141 -234 -315 0
107 -135 -304 0
-19 94 -102 0
168 -193 348 0
-25 -272 394 0
-130 -275 -323 0
189 -193 -296 0
42 227 392 0
-130 -152 265 0
18 -114 -383 0
187 214 -263 0
117 314 335 0
-2 182 -291 0
-115 212 274 0
188 244 320 0
-77 125 363 0
-75 -327 -341 0
-6 -29 -331 0
1 85 128 0
96 122 208 0
7 283 -314 0
-103 266 -312 0
33 -154 321 0
-193 224 -382 0
-54 90 116 0
-64 172 -384 0
-284 -326 -348 0
44 112 -329 0
104 -121 381 0
169 -200 -308 0
242 272 -358 0
-120 293 -372 0
40 300 319 0
14 -55 58 0
15 16 359 0
35 357 -378 0
103 -274 341 0
105 106 127 0
-45 -325 386 0
51 -68 -388 0
134 -173 -217 0
-25 -145 -367 0
148 -317 382 0
224 -266 -396 0
25 276 -361 0
1 -88 224 0
3 -179 252 0
-178 254 -304 0
-110 119 359 0
-42 326 -393 0
-49 183 -206 0
13 -191 -331 0
220 -257 280 0
65 -236 -273 0
-80 231 -268 0
-225 353 396 0
172 237 -330 0
155 361 387 0
-168 309 371 0
97 133 168 0
78 -101 -197 0
101 141 -223 0
106 199 -238 0
-114 -224 356 0
-73 132 310 0
-221 294 359 0
93 -329 -348 0
134 -161 322 0
205 -365 -366 0
-11 234 -248 0
-6 200 399 0
112 129 -279 0
52 -234 295 0
-190 -268 -328 0
-95 108 -351 0
-29 -130 -327 0
-7 -32 -39 0
56 -136 -298 0
-113 201 270 0
36 -67 398 0
-75 -181 -342 0
281 -333 -390 0
-118 -137 -361 0
96 -247 -348 0
-126 -155 -336 0
220 -320 327 0
30 -156 198 0
177 272 325 0
-37 151 336 0
-96 -120 398 0
107 207 -274 0
102 254 -355 0
60 -285 -344 0
-72 120 -243 0
-74 240 -359 0
85 277 -307 0
-240 -289 -357 0
192 215 -219 0
15 326 -332 0
-49 248 262 0
110 -213 368 0
-175 188 -338 0
-176 217 -223 0
-150 -182 -253 0
-105 177 -260 0
-99 163 366 0
-21 205 -371 0
4 56 -154 0
312 -337 393 0
321 345 357 0
235 325 342 0
19 216 -397 0
-72 -159 288 0
18 -164 216 0
255 268 -291 0
-208 295 357 0
199 -305 -349 0
-43 53 281 0
8 219 321 0
46 -63 112 0
142 -292 369 0
26 188 -397 0
-286 -322 -364 0
17 27 368 0
317 -334 -352 0
160 -308 374 0
-162 -189 295 0
60 -75 -186 0
-198 -232 -399 0
-32 144 319 0
-159 300 -308 0
193 -199 -351 0
-1 -165 -353 0
81 -301 391 0
-76 -141 293 0
-249 277 284 0
-30 -159 311 0
131 -301 -385 0
-45 275 277 0
-204 -267 -297 0
104 260 302 0
-48 -93 -359 0
207 265 400 0
-55 -192 253 0
80 -162 -306 0
11 266 311 0
249 -290 -301 0
50 -219 229 0
-93 103 174 0
-18 -27 -286 0
-33 307 328 0
132 164 -290 0
-82 94 230 0
-20 89 132 0
-25 133 263 0
75 163 -387 0
226 -302 -303 0
132 -191 -200 0
87 195 226 0
100 240 368 0
40 -192 317 0
12 -198 -322 0
120 -166 245 0
114 170 -377 0
75 -225 -284 0
80 -127 -211 0
-86 134 -172 0
59 234 248 0
147 -245 287 0
134 187 222 0
149 200 -213 0
-9 -74 328 0
-1 227 -270 0
21 -210 223 0
71 93 268 0
-41 -45 308 0
71 -106 314 0
-6 34 -355 0
-145 172 328 0
210 -245 391 0
96 188 -289 0
-3 -295 305 0
62 -183 -366 0
-32 296 -385 0
14 229 263 0
46 115 317 0
129 160 285 0
-100 358 -379 0
-123 268 -360 0
49 -92 368 0
-239 253 300 0
63 71 208 0
-237 294 343 0
-200 326 -356 0
-27 -186 398 0
-172 -224 367 0
-76 167 -265 0
-6 324 340 0
36 167 222 0
-72 204 216 0
-18 -318 329 0
52 129 -319 0
21 -122 -148 0
62 -86 332 0
239 -274 303 0
-68 -151 -262 0
-45 -125 377 0
-104 -198 -333 0
-241 245 314 0
-97 -114 171 0
-84 -123 -181 0
-111 139 146 0
-35 -82 283 0
-199 226 265 0
-80 -347 -379 0
-72 104 -346 0
138 -323 363 0
3 -211 -393 0
-77 214 -293 0
-232 -235 -355 0
-181 -201 270 0
-195 -256 382 0
-75 -156 275 0
46 -166 170 0
6 -14 -219 0
-154 -275 -397 0
184 -200 -238 0
6 35 -347 0
192 206 -257 0
-206 226 250 0
163 -186 188 0
-57 -151 336 0
149 262 -269 0
31 -94 323 0
6 -211 355 0
51 156 204 0
-90 255 394 0
63 211 309 0
15 -39 -52 0
32 -221 314 0
-122 182 367 0
51 -137 322 0
198 231 320 0
203 -299 392 0
123 128 318 0
89 -162 -301 0
-130 215 309 0
200 -346 -347 0
205 249 365 0
-88 89 184 0
-149 203 -288 0
-172 198 274 0
180 -217 284 0
146 -177 240 0
-13 143 341 0
48 -67 362 0
227 240 -285 0
-111 -181 370 0
153 244 -259 0
-68 -346 -362 0
127 207 274 0
-47 -263 348 0
291 -337 368 0
45 200 -364 0
56 -97 -340 0
-34 99 368 0
-65 -148 -367 0
207 -238 397 0
-16 -188 348 0
-338 359 -361 0
51 -181 322 0
139 312 -376 0
-21 83 -312 0
80 -195 379 0
-117 -290 -292 0
-295 344 351 0
-336 392 398 0
57 -126 349 0
177 -384 -398 0
-114 316 -383 0
-175 218 227 0
220 -263 345 0
-23 287 360 0
-121 327 400 0
-87 178 184 0
71 -160 -326 0
122 -124 362 0
-180 329 358 0
-124 289 -301 0
87 -347 -390 0
-59 106 -354 0
23 -106 -250 0
-57 -101 360 0
-83 -167 -228 0
37 87 -286 0
-43 -249 385 0
-223 251 -331 0
-5 -47 184 0
41 71 -383 0
75 152 189 0
-159 -369 381 0
164 -183 332 0
130 190 283 0
-55 291 322 0
217 -254 256 0
73 117 -353 0
46 -206 -327 0
-98 112 371 0
218 -262 313 0
-29 -264 339 0
5 225 -342 0
-3 152 -227 0
-44 -166 278 0
206 312 -318 0
-153 -312 -338 0
-71 -332 337 0
-97 114 348 0
-191 -297 339 0
-203 226 290 0
93 104 -281 0
-49 -97 333 0
116 235 -284 0
38 226 348 0
201 236 -352 0
-48 71 -397 0
25 122 191 0
62 -154 236 0
104 -289 319 0
175 -188 382 0
-123 -191 263 0
-52 -181 310 0
-18 -125 346 0
-11 229 356 0
-38 57 250 0
-149 284 -352 0
-276 -354 390 0
-13 -78 176 0
-19 -39 94 0
202 230 -355 0
-111 169 271 0
-87 -109 -185 0
161 -182 -199 0
11 -117 171 0
75 -324 -373 0
-33 -140 257 0
18 288 -358 0
-51 -293 325 0
-37 -73 -349 0
-126 -261 -326 0
-31 -173 -361 0
121 125 179 0
-4 -233 -344 0
155 292 396 0
-155 -158 369 0
41 -98 -299 0
-183 240 -397 0
-90 142 164 0
122 138 321 0
-103 205 230 0
30 124 376 0
38 175 295 0
139 -275 329 0
109 -165 -168 0
173 313 -348 0
-24 -45 -321 0
7 -132 -238 0
-29 213 315 0
10 80 -108 0
177 -186 217 0
-133 317 -380 0
-282 -334 -396 0
141 -268 272 0
-52 244 286 0
47 206 388 0
31 257 -279 0
188 311 378 0
15 -180 -271 0
-110 -177 326 0
14 56 -166 0
31 -180 -346 0
193 322 -337 0
-11 135 364 0
-105 -167 -182 0
111 -256 -292 0
-70 154 -385 0
3 -128 -249 0
27 -109 297 0
225 -397 400 0
13 153 351 0
-69 78 155 0
204 -238 -350 0
-329 -341 367 0
104 121 300 0
-119 259 305 0
25 34 -163 0
70 220 270 0
76 -277 -351 0
40 111 -179 0
-8 -91 361 0
23 -101 -261 0
6 -137 -167 0
-170 -281 -354 0
-163 -217 277 0
-198 199 390 0
-123 -257 312 0
60 102 340 0
-208 -286 -356 0
-1 -234 -296 0
195 -280 -304 0
-33 -202 365 0
279 -322 -341 0
-179 243 370 0
-34 271 388 0
123 188 -345 0
91 -328 -334 0
-63 186 -220 0
-53 -187 -193 0
-46 -141 -340 0
-58 231 356 0
-4 -67 349 0
-190 -268 -319 0
10 -103 285 0
-92 -157 -303 0
124 -136 225 0
-66 -104 217 0
-193 227 -368 0
-209 -221 332 0
67 -198 297 0
105 169 -341 0
-195 -202 270 0
-56 -289 -304 0
91 -213 -243 0
70 252 263 0
-21 -206 -278 0
61 236 395 0
-8 53 293 0
29 -233 -289 0
-29 282 -354 0
-26 -75 321 0
-4 -96 266 0
-131 -161 -197 0
-27 158 -349 0
-132 224 277 0
-27 -107 -275 0
-73 -299 364 0
234 -285 362 0
-35 210 -273 0
113 150 -225 0
208 228 373 0
93 223 328 0
37 255 306 0
-114 256 346 0
75 367 -399 0
47 -49 104 0
-132 -338 362 0
30 69 -357 0
-120 151 -389 0
133 167 281 0
-17 168 -201 0
115 280 -336 0
-77 -95 -373 0
20 59 181 0
149 -179 251 0
-103 144 249 0
72 -139 241 0
52 -298 307 0
78 154 -337 0
180 -231 -247 0
57 -92 153 0
58 -283 -383 0
18 -19 21 0
181 -213 296 0
87 -185 340 0
156 -246 331 0
55 -60 -123 0
-61 -275 278 0
84 -275 -292 0
102 146 207 0
257 274 373 0
28 55 251 0
-79 88 -385 0
202 -266 320 0
44 297 340 0
263 305 397 0
51 173 307 0
-44 156 176 0
163 209 211 0
76 262 -376 0
72 105 -395 0
-2 35 -363 0
169 270 399 0
-26 188 -321 0
-84 253 -299 0
-28 156 -356 0
-198 263 328 0
119 130 -385 0
122 -253 -288 0
-321 -350 -397 0
-45 -117 -335 0
3 154 -251 0
-211 -215 310 0
110 -172 -280 0
-17 -239 318 0
-96 -139 360 0
62 -111 350 0
139 -171 200 0
-115 -180 -313 0
164 260 -311 0
1 5 270 0
-233 -290 337 0
-283 377 -386 0
-39 -214 -342 0
-152 157 -186 0
187 253 355 0
-194 230 -286 0
18 167 -248 0
74 -97 301 0
-302 329 -383 0
-14 -279 396 0
-195 -328 -347 0
-83 166 -295 0
72 103 -265 0
-88 267 -379 0
185 -197 -398 0
-102 -244 -318 0
-56 -134 -349 0
137 198 -242 0
210 -257 327 0
-78 -143 388 0
-141 -186 201 0
133 231 -395 0
-182 185 309 0
-50 281 -386 0
85 -91 -331 0
-175 -205 -381 0
96 -180 -365 0
69 -110 174 0
2 -258 -294 0
-110 294 374 0
114 344 -387 0
-18 -333 381 0
-197 332 -361 0
-110 115 -312 0
-41 292 347 0
63 -112 167 0
141 -229 258 0
21 -240 276 0
-151 175 323 0
107 145 285 0
-15 -138 259 0
141 323 -371 0
-200 263 302 0
-169 191 -273 0
-69 -221 295 0
98 -175 316 0
100 145 -389 0
102 -361 399 0
-287 360 387 0
-33 106 -182 0
182 -286 -322 0
23 -54 -157 0
16 -233 366 0
-79 -187 399 0
164 173 -244 0
-108 -200 261 0
-99 -143 364 0
69 71 224 0
-273 300 373 0
45 238 400 0
-166 -174 320 0
-4 -105 125 0
51 -65 -303 0
-293 300 326 0
87 -205 -241 0
-61 -73 311 0
118 -123 359 0
325 379 380 0
-1 20 -103 0
113 -124 -397 0
22 -79 240 0
50 364 389 0
166 -263 316 0
16 37 285 0
-280 -315 -339 0
4 287 344 0
107 235 -260 0
-45 57 314 0
52 -123 -374 0
-155 159 -391 0
172 296 311 0
23 -39 -59 0
209 295 313 0
31 367 -374 0
-29 -93 -317 0
-69 -130 362 0
49 -167 196 0
-243 -335 336 0
7 -212 276 0
169 183 -279 0
41 83 -273 0
-173 218 322 0
83 109 -235 0
266 354 398 0
-7 -148 387 0
91 -225 -313 0
128 132 175 0
133 317 329 0
156 201 356 0
-8 38 275 0
-58 -286 -370 0
-52 -92 -131 0
-89 354 -357 0
106 -166 176 0
-55 -107 180 0
38 -46 -98 0
-24 74 93 0
131 197 334 0
-8 34 -152 0
187 278 -370 0
-129 190 378 0
-85 128 147 0
-100 -113 333 0
135 242 329 0
190 -194 340 0
225 242 -250 0
252 -285 365 0
89 -246 -249 0
32 -61 -98 0
-123 228 241 0
114 -248 261 0
31 222 269 0
109 162 -262 0
136 236 -240 0
51 -163 -324 0
-35 -62 -361 0
6 -93 261 0
-120 276 -332 0
75 -165 199 0
-9 117 -359 0
-19 112 147 0
156 161 -384 0
13 -85 -348 0
-34 -120 245 0
-99 111 -319 0
-116 139 -234 0
91 -176 212 0
-1 -80 -123 0
-281 288 -365 0
-62 -124 288 0
-70 71 268 0
86 -120 -217 0
130 292 -339 0
49 -209 365 0
-9 37 149 0
-38 -216 272 0
-125 229 -256 0
-39 130 -304 0
-122 -211 330 0
-30 359 -380 0
-5 228 -244 0
120 167 -221 0
69 -206 -383 0
-195 254 340 0
111 137 328 0
208 -216 -316 0
-171 -278 -296 0
90 162 -247 0
-60 190 323 0
304 -361 -394 0
84 -131 333 0
-8 -102 305 0
3 36 89 0
-89 90 118 0
13 43 59 0
-38 -172 -241 0
-214 -246 383 0
-43 84 136 0
-27 320 -357 0
175 252 257 0
-79 -355 -385 0
-9 118 -368 0
34 49 -301 0
119 -240 -319 0
7 71 -99 0
-124 -133 385 0
16 118 -371 0
-109 328 368 0
-105 160 340 0
-32 -116 -238 0
-162 268 -370 0
-26 46 151 0
-90 126 323 0
-62 -165 -260 0
39 -55 -398 0
35 -130 -248 0
-215 -245 -365 0
-27 54 -317 0
20 69 -286 0
-18 318 -351 0
44 -224 267 0
27 -367 377 0
55 -272 359 0
209 273 310 0
-199 -219 392 0
125 235 -283 0
-198 369 380 0
-148 -310 389 0
67 -376 384 0
127 -174 -263 0
-77 -316 357 0
175 -374 382 0
-1 119 -295 0
-20 21 -311 0
-137 -155 -188 0
57 146 -194 0
326 388 395 0
-78 -158 -387 0
69 -158 224 0
89 164 -177 0
174 -237 -241 0
33 -52 128 0
14 117 -190 0
-27 -102 -380 0
-159 -194 -245 0
-160 376 379 0
214 229 248 0
-107 186 278 0
-237 292 303 0
-48 -95 220 0
114 310 -382 0
-81 222 -378 0
-104 155 -168 0
257 280 -386 0
85 94 -288 0
28 29 -107 0
80 110 -287 0
-16 -70 218 0
-111 216 263 0
3 175 -397 0
90 119 265 0
-57 300 -370 0
-27 218 -262 0
-36 45 -287 0
88 -236 -328 0
126 370 393 0
-183 -210 -317 0
-83 112 326 0
99 -162 302 0
-214 -226 -246 0
-102 242 266 0
-38 120 -181 0
-52 -182 -376 0
201 -354 361 0
-22 -245 -373 0
81 153 -318 0
168 -205 348 0
207 -282 283 0
-14 -70 -316 0
141 -187 -254 0
-60 -245 -328 0
-290 312 -313 0
35 -186 -199 0
-83 148 254 0
31 99 -108 0
-30 -113 117 0
55 369 376 0
-21 -99 -223 0
48 323 -363 0
20 29 44 0
12 168 -363 0
55 -83 93 0
-62 -185 -223 0
-120 130 229 0
-78 85 -93 0
272 -319 349 0
-12 -225 232 0
25 -265 288 0
81 197 -353 0
213 -343 -362 0
171 -246 -297 0
98 -109 -138 0
-287 -329 388 0
-251 280 -294 0
-24 77 -388 0
-151 260 301 0
69 -302 -398 0
-59 -223 311 0
-230 333 374 0
154 253 -370 0
-106 -143 -190 0
-163 206 330 0
-75 348 384 0
181 -193 327 0
14 228 245 0
-111 238 -308 0
95 176 312 0
134 173 257 0
-115 129 243 0
83 -155 -314 0
-51 -109 214 0
-119 -197 382 0
83 -133 -267 0
-71 -86 -241 0
-51 -189 289 0
-49 176 189 0
-145 -256 299 0
-15 161 -395 0
-64 -146 -234 0
102 -279 325 0
-98 154 310 0
6 108 216 0
122 -343 386 0
99 -298 348 0
-45 144 -219 0
180 302 364 0
53 92 -115 0
-264 -300 -379 0
-14 35 -358 0
-76 220 264 0
-28 219 -320 0
188 -283 -372 0
73 131 279 0
57 77 -302 0
258 -291 -295 0
238 279 385 0
72 122 -217 0
-48 -124 -397 0
172 244 392 0
123 232 258 0
-36 43 -134 0
-41 217 -333 0
80 -126 -352 0
-55 167 362 0
63 255 -377 0
21 172 260 0
87 208 -262 0
133 233 -339 0
-2 115 360 0
-45 -209 -275 0
-128 137 339 0
-206 214 353 0
30 -37 44 0
-196 -258 349 0
-51 -254 343 0
65 243 -302 0
66 224 338 0
-39 58 367 0
-114 -299 371 0
-188 209 -357 0
2 92 -225 0
-80 121 327 0
48 195 344 0
-22 -44 -182 0
273 -290 330 0
173 -248 -373 0
262 -287 302 0
-12 215 258 0
142 -151 -273 0
-128 -244 -265 0
-17 -206 -363 0
-110 -350 -375 0
-45 185 233 0
-222 -336 377 0
-32 -140 -281 0
-17 224 -312 0
56 -173 242 0
-101 139 190 0
-174 -216 225 0
79 161 -329 0
32 -144 346 0
-28 89 219 0
192 261 -396 0
-204 226 -262 0
96 -195 200 0
165 171 390 0
11 -106 297 0
103 -124 -363 0
-19 63 -293 0
-63 -109 -122 0
8 -117 -186 0
124 -217 335 0
-20 -194 -325 0
-246 366 398 0
195 237 -340 0
82 -199 -281 0
47 160 237 0
-47 48 -95 0
-211 -234 -260 0
-52 87 -366 0
108 -149 -278 0
-172 -309 315 0
190 -317 -367 0
71 -169 346 0
12 -185 214 0
-83 -102 -340 0
-89 120 -133 0
-15 30 -376 0
206 -346 -350 0
89 102 278 0
133 257 -331 0
149 -274 282 0
-69 141 159 0
-227 344 -381 0
230 253 282 0
42 314 -320 0
36 91 267 0
-45 226 353 0
-104 161 325 0
34 173 191 0
-26 -82 -360 0
-45 -105 377 0
31 -147 375 0
248 -283 -339 0
101 -193 -234 0
127 -262 -382 0
24 -49 -115 0
-179 237 -262 0
-82 -108 -206 0
81 -269 392 0
108 242 -260 0
-49 -136 293 0
145 -193 -247 0
1 131 155 0
-49 -150 -345 0
224 345 366 0
89 -211 261 0
-199 223 330 0
94 296 -370 0
-99 -276 301 0
9 103 -228 0
112 157 -400 0
54 191 -246 0
79 130 282 0
102 -106 -128 0
45 -135 251 0
-115 154 -237 0
59 115 -387 0
-56 232 384 0
-19 -108 -180 0
201 -274 -334 0
-38 -263 -317 0
-92 141 209 0
111 237 287 0
189 221 -351 0
250 322 -324 0
68 154 -223 0
2 -152 -337 0
167 -267 369 0
25 -66 344 0
152 157 280 0
-35 329 -375 0
-92 -316 361 0
-61 -238 -268 0
55 -197 223 0
-165 -246 -331 0
-22 -57 301 0
-79 -200 226 0
-88 266 -309 0
63 -122 288 0
-18 -228 315 0
-53 56 -208 0
65 187 243 0
78 114 258 0
37 -266 -310 0
129 -226 301 0
-50 -289 381 0
52 58 -220 0
149 -255 347 0
-145 -234 -300 0
261 327 -329 0
118 -175 -189 0
158 -192 -369 0
-124 -305 -307 0
70 105 314 0
-90 -132 361 0
90 -205 237 0
-95 244 329 0
201 -218 -351 0
-207 -292 338 0
-73 -200 263 0
42 124 -350 0
-138 -236 -244 0
95 280 343 0
80 -272 -291 0
53 80 -269 0
-43 148 -155 0
-7 -113 223 0
193 226 324 0
124 130 -207 0
215 298 -364 0
-30 110 147 0
-11 303 -392 0
-80 -237 -277 0
-47 -83 98 0
-149 291 -350 0
-20 -53 -260 0
-141 -221 -340 0
-240 291 389 0
59 128 381 0
-108 253 -342 0
229 247 373 0
39 -90 229 0
-10 247 -381 0
71 -119 400 0
-157 -174 -323 0
30 -259 331 0
104 -221 311 0
-14 -29 -49 0
-51 -192 300 0
-134 197 -322 0
193 -270 278 0
-53 -208 338 0
-60 -307 375 0
-216 311 -341 0
-127 -180 296 0
152 -322 -390 0
-121 279 -291 0
236 -283 -325 0
-24 274 325 0
165 360 364 0
85 -135 332 0
-361 368 382 0
-127 -225 265 0
-90 -230 286 0
139 253 271 0
1 -204 -281 0
37 -80 195 0
63 -236 298 0
79 111 158 0
50 -133 -393 0
-67 95 -161 0
129 142 -310 0
78 125 356 0
157 -393 -399 0
-51 145 -380 0
-48 55 179 0
38 107 -386 0
-43 65 -127 0
60 -231 -321 0
-103 -124 -301 0
186 -273 359 0
-145 150 215 0
-167 224 -228 0
156 195 -319 0
-33 -228 -291 0
53 133 -203 0
-4 -98 -247 0
64 -286 329 0
158 -211 -264 0
-148 229 240 0
131 -257 328 0
-141 255 -275 0
-11 240 386 0
-46 -114 327 0
-191 -213 -296 0
56 -116 200 0
-229 -299 -384 0
-88 -123 -324 0
-162 198 -253 0
106 262 289 0
41 153 -178 0
-153 227 400 0
34 89 -375 0
-79 -271 383 0
-73 167 284 0
-23 41 -250 0
-143 -321 373 0
96 137 -240 0
178 -367 389 0
-98 156 186 0
172 -197 285 0
-5 -228 -354 0
119 -256 294 0
-180 -325 -371 0
6 -43 -295 0
107 -223 255 0
-112 -241 395 0
133 -150 356 0
146 252 -274 0
12 -176 -204 0
99 296 -374 0
-60 147 375 0
-129 -156 -390 0
-146 -384 392 0
-114 118 -170 0
-13 -135 176 0
71 -140 263 0
176 189 -327 0
-45 -129 -297 0
188 -265 -270 0
135 -288 -319 0
-69 126 169 0
18 101 -127 0
180 192 256 0
218 244 -266 0
-22 44 -141 0
77 263 271 0
65 -156 -193 0
-41 174 -246 0
11 251 252 0
236 353 -397 0
-53 -77 98 0
54 -211 -385 0
-139 -237 242 0
91 97 -251 0
218 298 347 0
271 361 373 0
-225 -250 270 0
139 -211 290 0
107 237 379 0
-15 326 -341 0
-2 -186 212 0
54 -256 260 0
252 253 -395 0
-68 -216 258 0
-60 123 236 0
71 111 -266 0
117 119 -161 0
-18 -48 93 0
155 209 -389 0
86 -241 398 0
61 -172 375 0
-61 371 383 0
138 -302 -336 0
-28 -67 -294 0
-35 -123 222 0
-134 191 -219 0
9 -166 -370 0
90 -230 304 0
8 123 -290 0
166 239 345 0
-131 -230 -358 0
-60 96 -120 0
-304 362 367 0
111 -218 -375 0
67 316 -392 0
128 210 -258 0
-112 176 -294 0
-94 314 -373 0
-10 -57 311 0
176 -257 327 0
106 -165 287 0
-131 -137 264 0
-135 151 360 0
99 228 -301 0
-89 -203 -389 0
-80 203 -397 0
-91 129 -331 0
-66 -70 140 0
-71 -91 330 0
-345 364 383 0
47 -109 -134 0
-128 -168 -307 0
28 347 357 0
85 -133 290 0
-124 -251 279 0
132 -157 -393 0
153 284 -364 0
140 141 145 0
-44 196 -314 0
127 -138 174 0
57 284 296 0
189 -244 -264 0
22 85 -191 0
14 74 309 0
151 156 -353 0
-80 -278 333 0
-69 -85 230 0
65 -156 198 0
-45 -190 207 0
275 -385 392 0
-78 165 169 0
-52 -93 -362 0
-29 75 -384 0
176 -178 -334 0
-23 -174 335 0
-29 -162 -382 0
-284 -285 -390 0
37 71 -157 0
21 -145 271 0
53 -69 128 0
27 116 122 0
194 273 -395 0
3 -143 -246 0
250 -287 -375 0
-65 320 -351 0
-4 334 365 0
-173 -245 366 0
24 -253 333 0
-46 205 -292 0
230 -332 -336 0
-158 -272 297 0
39 -212 221 0
217 278 342 0
114 -124 -175 0
-8 -29 -147 0
154 -306 -373 0
147 206 -238 0
96 -166 316 0
119 -139 190 0
-179 181 -298 0
-169 170 368 0
-12 -33 302 0
-2 54 -257 0
-133 170 274 0
-136 274 -357 0
132 -295 -388 0
13 -131 152 0
-31 122 -298 0
-37 -273 357 0
-40 -74 380 0
-92 -273 -367 0
-129 343 400 0
13 275 -278 0
-95 -176 -210 0
2 99 350 0
131 227 304 0
164 187 -307 0
122 -124 135 0
39 328 356 0
51 -115 -225 0
-84 -162 244 0
166 195 230 0
232 253 288 0
66 -190 -343 0
194 -242 -352 0
96 148 -238 0
115 191 -306 0
-201 -258 354 0
-105 117 177 0
61 -157 -244 0
1 -37 207 0
14 270 -324 0
-108 167 -212 0
3 -104 400 0
19 154 342 0
-200 -269 -399 0
-9 326 377 0
-81 -345 -366 0
240 -273 -393 0
10 -35 179 0
-58 214 269 0
7 138 -200 0
-62 114 -352 0
291 356 395 0
91 120 -385 0
-31 -175 201 0
-102 255 257 0
-106 173 -212 0
-22 174 -378 0
40 198 291 0
-64 160 278 0
316 356 375 0
65 -318 -370 0
123 -138 -177 0
-89 136 -230 0
-112 -117 -277 0
1 333 376 0
114 337 377 0
-4 -83 -254 0
-2 106 -248 0
-70 -135 -213 0
-10 -76 259 0
-42 -120 333 0
-63 70 248 0
95 -164 317 0
-9 101 337 0
88 178 -228 0
-102 134 -143 0
-120 130 -196 0
84 -95 272 0
327 328 -339 0
87 106 274 0
-40 -201 241 0
33 113 303 0
290 295 -308 0
-124 -216 -302 0
217 287 -290 0
105 -111 -390 0
119 221 -241 0
-212 -219 -362 0
-136 364 -378 0
184 -255 257 0
153 -158 -273 0
-37 -39 -88 0
-142 -245 257 0
10 -235 -321 0
-77 -181 -399 0
3 253 310 0
-116 -189 205 0
225 289 -300 0
19 354 -369 0
-192 -214 -330 0
-104 189 259 0
-92 139 249 0
-39 213 241 0
-52 183 -393 0
-41 189 -245 0
26 -65 84 0
-115 137 246 0
135 -204 370 0
-26 150 305 0
-71 316 -330 0
-5 -73 -108 0
27 163 -238 0
-80 131 231 0
-111 127 260 0
-161 166 234 0
79 -144 207 0
-34 43 385 0
54 117 -380 0
-39 -45 335 0
18 358 -367 0
-229 297 -383 0
-45 62 -354 0
27 -121 -135 0
-64 321 -391 0
61 110 111 0
320 354 394 0
-90 135 294 0
49 123 173 0
216 315 395 0
92 114 335 0
-129 -148 -375 0
17 244 -298 0
-30 -189 -348 0
217 309 -327 0
7 243 -299 0
-161 -274 307 0
59 132 148 0
198 -256 -392 0
-70 130 -155 0
37 301 -324 0
-173 -227 316 0
118 -187 194 0
-60 112 -265 0
-294 -328 -331 0
-10 -241 265 0
-28 238 -250 0
45 -102 -182 0
83 -128 391 0
192 196 359 0
197 232 267 0
64 177 348 0
-45 -331 -362 0
74 -175 346 0
-33 61 -286 0
94 -170 386 0
111 331 337 0
-194 -278 298 0
89 -165 -361 0
131 -154 -340 0
158 216 366 0
-152 187 -248 0
-31 137 245 0
-49 77 -249 0
107 247 -341 0
-66 159 -340 0
66 -197 -253 0
21 -132 261 0
-124 145 251 0
-310 -335 380 0
-6 -131 211 0
-293 -352 -392 0
231 262 -280 0
38 -75 -352 0
-32 115 -344 0
142 264 310 0
39 -149 184 0
27 142 187 0
-159 -200 -218 0
5 -109 399 0
-97 187 369 0
107 -296 326 0
67 -190 390 0
240 -281 323 0
167 -247 -381 0
27 -31 -276 0
40 -297 -374 0
36 -188 -273 0
-142 284 335 0
75 -260 -272 0
23 31 209 0
134 -216 -258 0
-168 -215 365 0
98 -263 361 0
-21 -178 370 0
-110 154 -222 0
-211 -252 343 0
-234 -286 -299 0
-44 58 -152 0
-94 95 314 0
94 -126 238 0
-38 -253 346 0
187 192 244 0
-33 -205 -397 0
11 130 263 0
-122 -261 352 0
13 -67 -222 0
-138 -316 318 0
-75 -218 298 0
-63 -144 220 0
39 -108 332 0
41 -80 250 0
100 157 263 0
17 -71 -325 0
-58 -243 264 0
216 -259 -355 0
-23 96 146 0
18 69 -277 0
12 -85 114 0
7 210 -251 0
-43 63 -111 0
-22 113 -360 0
247 -317 -354 0
-23 -240 350 0
32 134 -253 0
-8 -272 -348 0
150 222 336 0
124 238 310 0
19 116 -303 0
-347 386 -391 0
-57 -260 376 0
95 -211 354 0
-181 248 279 0
270 -277 -387 0
-75 104 246 0
172 -264 -313 0
155 -201 -255 0
-115 -223 -248 0
-7 -110 -395 0
33 85 -106 0
47 79 -265 0
-90 166 -262 0
120 287 306 0
-46 -307 332 0
271 -311 399 0
44 361 -381 0
20 -145 240 0
-136 193 317 0
83 -87 -245 0
20 67 287 0
29 357 -391 0
4 -64 -357 0
44 -242 -259 0
58 253 -379 0
34 121 290 0
64 -113 165 0
-35 -167 394 0
-147 185 -260 0
-300 304 370 0
9 -154 386 0
-4 169 245 0
-133 -302 359 0
-83 119 -239 0
137 284 -386 0
-241 -344 390 0
-67 -88 255 0
-11 37 205 0
-100 -277 -352 0
-86 -294 377 0
-82 -134 254 0
262 294 -327 0
-106 -152 224 0
-40 131 147 0
153 -211 -306 0
-191 231 272 0
-3 -45 372 0
40 -128 287 0
22 -44 372 0
-66 167 379 0
48 124 244 0
60 -231 342 0
-177 380 -384 0
-133 -262 -309 0
162 334 389 0
-148 189 307 0
-138 -245 -294 0
-68 -276 -302 0
95 141 326 0
65 -185 -361 0
35 156 256 0
130 243 -308 0
47 63 -71 0
-122 314 -334 0
24 -42 242 0
65 360 -387 0
-75 -331 385 0
-109 205 245 0
173 -318 -400 0
112 -143 265 0
201 267 340 0
-236 261 353 0
23 -220 -349 0
147 -161 -182 0
-126 -238 -376 0
-82 -323 395 0
-74 -164 -356 0
-180 -186 -238 0
72 91 190 0
-91 -163 175 0
-335 337 366 0
-4 -163 352 0
-108 -367 387 0
75 208 357 0
-27 42 146 0
117 383 395 0
21 38 124 0
-20 45 90 0
72 -82 -341 0
-1 -51 279 0
20 51 -282 0
109 143 353 0
-20 -372 397 0
276 368 -392 0
-22 -243 328 0
84 -185 -290 0
17 -251 -394 0
107 172 -202 0
-111 348 383 0
44 -111 -265 0
-86 312 -361 0
16 -58 -293 0
75 340 387 0
-47 -98 -136 0
-46 206 328 0
163 -274 -321 0
43 343 -371 0
75 107 -270 0
74 -180 -363 0
1 -337 377 0
12 60 -68 0
166 270 295 0
-99 100 347 0
-246 297 366 0
39 -41 302 0
-124 -264 277 0
-132 -240 -310 0
29 -202 289 0
-55 -205 260 0
30 196 365 0
9 -99 -291 0
11 61 -378 0
-35 310 315 0
-97 -334 400 0
-6 -7 43 0
-111 179 -291 0
-226 -345 386 0
-39 120 -292 0
-186 -248 282 0
3 160 -289 0
-135 174 -326 0
-75 215 -271 0
-172 -387 391 0
-68 109 282 0
93 -195 -366 0
31 132 311 0
7 -167 -327 0
-6 -171 -358 0
99 172 -175 0
186 -252 256 0
7 -252 -349 0
37 -254 285 0
22 -224 -315 0
-71 -91 -188 0
10 169 -307 0
53 168 348 0
216 248 390 0
125 215 -228 0
-34 69 370 0
-106 230 -357 0
239 305 -322 0
-3 26 343 0
-91 317 383 0
-100 -130 -343 0
53 141 175 0
-31 306 382 0
-41 -290 -381 0
5 -64 -287 0
-135 -175 -184 0
-118 -222 364 0
153 199 394 0
90 -142 -351 0
-33 363 -369 0
-67 141 -223 0
31 -53 -389 0
9 67 -73 0
-87 117 -268 0
19 -249 -312 0
119 -276 329 0
-61 -79 -164 0
29 -114 269 0
-176 -293 -368 0
-8 350 -353 0
-139 -196 -395 0
242 -316 334 0
49 -258 375 0
137 -198 326 0
163 236 301 0
173 333 353 0
-70 -139 249 0
142 -319 -385 0
-159 -276 389 0
118 -252 333 0
-229 -233 301 0
118 -237 355 0
-139 -151 -201 0
-24 37 -296 0
-67 116 -188 0
146 300 346 0
-58 159 224 0
-119 187 -222 0
-68 330 359 0
72 86 145 0
152 317 -379 0
-2 163 -165 0
169 -188 -301 0
-102 -114 -367 0
-78 160 372 0
-135 -206 217 0
199 273 -374 0
159 182 270 0
149 -158 235 0
174 250 -345 0
-83 -288 -387 0
-244 -249 292 0
-193 345 349 0
180 -196 222 0
-110 186 -293 0
61 216 317 0
-237 -256 -311 0
220 250 321 0
-22 -196 395 0
190 -253 300 0
3 11 -159 0
200 -229 -250 0
148 -176 188 0
32 -94 342 0
-113 196 -256 0
328 337 -375 0
144 295 361 0
-135 167 -370 0
17 -101 -300 0
-5 -215 270 0
90 210 -306 0
68 -246 294 0
20 -55 -129 0
163 -271 -352 0
-33 -39 191 0
-23 150 218 0
-25 164 -343 0
51 -80 -354 0
-29 45 -366 0
-162 -262 -300 0
-208 -289 -348 0
108 -206 222 0
-113 245 333 0
60 250 319 0
-119 -248 -287 0
202 -235 -370 0
47 -202 -400 0
-27 -97 -297 0
129 146 -254 0
40 186 284 0
-241 -352 385 0
106 -165 313 0
130 230 337 0
82 97 230 0
110 319 -379 0
-84 326 352 0
-52 -70 -90 0
-7 -238 260 0
-3 30 -78 0
-60 84 377 0
-72 333 388 0
-17 170 -224 0
26 -51 131 0
-72 87 -264 0
118 -337 354 0
-146 188 -381 0
139 -258 306 0
69 -305 -352 0
-61 -220 395 0
193 -285 354 0
204 353 391 0
35 -157 -204 0
-109 213 396 0
-219 -285 311 0
12 154 -341 0
65 -271 360 0
-47 -157 -329 0
234 -258 -305 0
104 153 292 0
60 -218 334 0
7 -199 205 0
41 312 -350 0
-101 386 387 0
-72 -337 -342 0
-43 -334 357 0
-40 86 -188 0
51 171 -279 0
55 76 -374 0
-95 -316 390 0
-28 -172 200 0
-55 -318 -400 0
-27 232 -253 0
-101 165 389 0
133 -163 178 0
-69 303 -360 0
28 -313 -387 0
-96 260 285 0
-38 -172 -189 0
-49 -93 356 0
75 -179 -316 0
-50 -63 -271 0
-297 -366 387 0
359 391 392 0
-77 -354 376 0
-329 -342 -377 0
-135 169 301 0
111 217 267 0
-7 -25 149 0
11 -169 243 0
-56 -76 -306 0
-42 -103 -290 0
-143 -194 391 0
130 306 -344 0
-196 -316 -346 0
51 295 -366 0
74 -100 155 0
-7 116 117 0
-6 78 -295 0
-89 207 -240 0
182 -225 -333 0
259 363 383 0
25 -179 -292 0
19 187 287 0
34 120 -137 0
-104 321 -382 0
-38 -103 -307 0
166 -290 354 0
-176 -205 344 0
-169 328 -377 0
-96 -216 -253 0
212 -219 349 0
-132 -344 -368 0
16 -117 -228 0
159 -259 -274 0
225 274 291 0
-54 -77 -298 0
-88 149 226 0
55 -115 217 0
-187 252 381 0
-48 -294 320 0
193 -228 -377 0
36 -108 -184 0
201 375 386 0
58 -352 -367 0
-22 -135 -272 0
177 -189 -201 0
-87 -239 258 0
-220 -229 278 0
175 194 291 0
115 203 291 0
328 -331 -332 0
-120 -270 391 0
-25 -357 397 0
-209 -344 347 0
-106 -178 189 0
-11 -205 -243 0
-152 -311 346 0
-7 -59 -66 0
150 227 322 0
-25 -246 -388 0
31 -265 294 0
48 -152 -221 0
-16 -110 -120 0
13 -86 -387 0
43 -55 -274 0
242 254 -396 0
6 -16 -335 0
-68 -237 -393 0
9 77 361 0
149 269 -371 0
