c F2 random 3-CNF cnfgen RandomKCNF(3,400,2000,seed=2) m/n=5.0
p cnf 400 2000
-29 44 -47 0
109 129 -311 0
-202 -327 -371 0
-15 -19 -187 0
85 217 270 0
13 91 -167 0
264 -287 -346 0
-269 -377 -391 0
-83 -229 387 0
-143 -251 -256 0
-180 -291 372 0
-86 -167 -359 0
-156 -259 362 0
188 -251 263 0
55 98 -382 0
117 303 -350 0
-31 108 126 0
89 185 186 0
13 35 -59 0
66 81 -131 0
23 127 302 0
177 -316 -322 0
-16 158 -251 0
206 -319 387 0
-48 339 352 0
-66 -230 -266 0
-74 -133 175 0
72 -286 359 0
68 -83 88 0
17 261 -363 0
38 -42 -129 0
143 217 351 0
83 197 210 0
11 52 53 0
-13 -112 -267 0
195 275 -329 0
11 -218 262 0
-49 246 340 0
-149 -188 313 0
52 -212 351 0
-9 345 -397 0
238 249 327 0
-13 146 191 0
99 -252 -387 0
-72 -238 367 0
-42 -63 131 0
-13 54 -355 0
149 -184 -235 0
-245 -248 -270 0
-81 -119 -203 0
348 357 358 0
91 -183 280 0
45 332 -349 0
-119 -200 363 0
58 -147 269 0
-128 169 265 0
-121 -237 361 0
226 -239 369 0
-28 -202 -262 0
-130 -364 -375 0
170 281 366 0
196 -207 -342 0
239 269 365 0
-111 207 374 0
200 -286 393 0
71 -251 -314 0
130 -263 290 0
38 -180 390 0
-249 -303 -387 0
15 -236 258 0
-208 385 389 0
-84 -196 256 0
-6 145 -286 0
-18 196 -276 0
-69 -256 333 0
-133 -156 -161 0
48 -261 266 0
-46 259 322 0
-119 235 288 0
-58 195 -346 0
-40 -172 183 0
-150 227 -255 0
-111 140 328 0
-98 122 -241 0
-70 -72 -120 0
-144 -176 -384 0
273 -319 -327 0
-90 -203 -248 0
-45 -96 245 0
15 -54 180 0
-334 375 -390 0
-122 -200 305 0
-104 162 185 0
105 -129 -170 0
46 129 176 0
-24 -313 373 0
-33 -74 -91 0
68 -165 -268 0
-28 -117 -201 0
279 -306 -319 0
-87 -233 -355 0
24 56 232 0
-40 157 -202 0
55 180 343 0
76 -219 -343 0
26 -124 244 0
16 71 287 0
-4 268 280 0
1 191 252 0
56 109 -239 0
-173 319 332 0
78 -108 322 0
153 -175 221 0
154 161 -204 0
-140 -146 271 0
71 216 360 0
100 109 201 0
-135 360 381 0
74 161 307 0
72 326 -356 0
107 -150 -323 0
-35 -266 292 0
153 -234 338 0
-110 -171 215 0
66 -221 -396 0
-178 197 -243 0
-99 -228 -387 0
-37 88 190 0
-107 158 350 0
15 -102 -161 0
-176 341 -371 0
-10 241 365 0
-78 84 -311 0
-43 -143 331 0
78 154 -290 0
-303 -316 360 0
110 -288 330 0
-71 -319 375 0
-201 -203 -234 0
111 115 124 0
-28 -199 363 0
-52 -140 -264 0
-36 298 -361 0
13 16 246 0
106 124 -165 0
53 329 -391 0
-18 -72 -363 0
-25 182 -285 0
-55 -179 -312 0
145 261 308 0
175 -223 325 0
-40 -340 -354 0
84 94 -123 0
93 151 345 0
113 -207 290 0
35 125 306 0
4 -208 355 0
-27 -265 270 0
-67 -80 219 0
-94 -265 -293 0
84 -254 305 0
12 129 -362 0
-129 -292 -323 0
-97 217 -223 0
-17 324 -385 0
-13 -155 -281 0
-127 -239 -365 0
127 -285 -340 0
186 215 -387 0
-60 -222 307 0
-200 -232 380 0
76 -120 -341 0
256 -363 -370 0
-161 -208 -293 0
6 206 -342 0
-6 -52 -59 0
-92 208 -376 0
-121 206 318 0
-16 156 177 0
-5 169 -208 0
105 -295 328 0
-156 -171 -400 0
44 -144 391 0
93 186 191 0
-122 -240 301 0
-1 -83 -262 0
93 333 -347 0
4 315 376 0
-1 43 319 0
140 203 -316 0
-19 -60 -157 0
39 63 -237 0
33 -137 329 0
-150 270 363 0
40 -65 -214 0
-21 -102 357 0
-79 -117 317 0
80 -98 114 0
54 140 -191 0
68 -217 376 0
9 175 386 0
-71 -253 -378 0
152 153 340 0
-4 47 -74 0
291 348 398 0
293 -372 399 0
96 -224 342 0
-172 220 255 0
-22 65 -337 0
378 -392 393 0
45 264 293 0
67 161 -276 0
208 -234 345 0
-25 55 177 0
133 -181 -383 0
23 72 117 0
-54 -78 -201 0
4 57 217 0
1 -98 -223 0
-80 -90 138 0
-159 -265 -289 0
-151 198 -393 0
-151 -236 296 0
-5 -131 289 0
-241 257 278 0
55 190 -377 0
-65 98 262 0
73 -158 234 0
-22 113 -284 0
155 280 -392 0
103 -114 -294 0
82 -135 311 0
-29 -100 252 0
-95 172 240 0
-132 -189 -381 0
25 -165 369 0
-94 197 -354 0
38 152 -356 0
34 273 298 0
-110 -188 -349 0
4 40 53 0
-15 80 152 0
-11 -301 330 0
199 -341 344 0
-84 112 -122 0
53 123 300 0
122 343 349 0
64 -103 -299 0
43 332 354 0
55 185 252 0
2 146 -199 0
-150 191 -335 0
46 -244 -257 0
-217 305 320 0
120 310 -331 0
-42 74 311 0
-98 193 -246 0
-54 -103 -174 0
-71 -127 -302 0
1 24 374 0
29 151 227 0
14 -17 40 0
-213 289 304 0
64 89 -103 0
138 266 -275 0
101 312 377 0
-4 -54 343 0
2 -301 330 0
124 143 356 0
-44 142 -217 0
-75 -306 319 0
-102 -115 301 0
-202 249 -336 0
22 -220 236 0
-207 271 -338 0
-148 156 384 0
61 -125 354 0
200 222 299 0
-20 31 106 0
179 -255 346 0
53 148 214 0
30 137 -395 0
-252 269 384 0
159 -209 271 0
233 237 -270 0
75 316 367 0
-28 -172 -372 0
296 305 307 0
-73 175 300 0
-26 98 305 0
-249 351 396 0
214 -305 333 0
126 -265 -272 0
-176 -255 370 0
2 170 -282 0
-216 -219 -314 0
3 131 389 0
179 312 331 0
-151 182 283 0
-176 346 371 0
-132 -135 -251 0
-266 -302 -392 0
41 43 -203 0
202 -248 -393 0
-137 232 -317 0
-185 273 324 0
-5 89 -347 0
-18 -218 337 0
-221 -260 -341 0
1 -136 139 0
-12 -95 102 0
-348 -357 388 0
12 -26 53 0
-71 159 -195 0
-17 -216 345 0
-74 -108 -232 0
139 -318 -362 0
-122 256 -323 0
-15 -136 -193 0
-112 294 325 0
-49 -88 95 0
101 336 -390 0
173 232 272 0
-61 -155 -269 0
-324 -356 397 0
-15 -228 234 0
-119 -165 -306 0
-69 142 188 0
190 -356 -399 0
112 -139 278 0
39 -296 327 0
6 -103 279 0
-93 -203 -307 0
80 -299 323 0
86 195 379 0
109 176 -233 0
-27 50 138 0
103 -195 362 0
247 324 334 0
42 188 -287 0
-184 244 -354 0
-259 326 387 0
-76 270 280 0
-114 -125 -392 0
71 -159 -352 0
72 159 -170 0
-19 -191 -305 0
47 -382 -390 0
24 243 -357 0
-166 -202 -348 0
213 216 301 0
109 327 380 0
-25 -39 215 0
67 161 -194 0
77 -212 309 0
53 58 96 0
21 -60 176 0
259 -375 389 0
146 269 367 0
-123 353 -378 0
156 250 360 0
-16 42 -180 0
-61 -117 197 0
37 125 238 0
-162 -225 -246 0
-68 -159 -394 0
-12 35 -49 0
25 157 400 0
-183 322 330 0
63 137 315 0
4 148 -303 0
-45 -159 180 0
31 -299 -389 0
-356 390 -397 0
-42 147 176 0
-38 176 263 0
-149 186 329 0
181 -300 -344 0
76 -136 340 0
198 -206 -384 0
131 -163 -254 0
-36 37 145 0
-62 -210 339 0
226 322 380 0
-6 66 231 0
281 372 -376 0
-77 106 -304 0
40 -248 374 0
128 129 -140 0
-134 195 -268 0
178 -316 346 0
29 177 -208 0
-62 330 -395 0
-81 -171 -227 0
-79 -139 368 0
-140 -163 332 0
-41 -71 -350 0
-34 -254 -287 0
-62 -276 346 0
274 -311 373 0
-14 301 -385 0
-104 -234 -285 0
171 -191 208 0
-101 246 380 0
-77 -201 274 0
-202 303 -349 0
158 -213 324 0
-125 -285 380 0
24 -169 -376 0
-354 -365 387 0
77 -298 -389 0
-92 -99 391 0
-37 -49 -223 0
-100 139 273 0
-8 100 -337 0
95 -319 -342 0
-245 -280 315 0
-8 104 374 0
-204 -265 -300 0
-88 -104 -369 0
-32 -101 214 0
250 -268 273 0
24 191 302 0
137 225 -238 0
-1 -249 291 0
100 152 -230 0
131 -273 372 0
-157 -190 -213 0
139 -358 397 0
-151 228 -321 0
-71 -208 371 0
103 146 375 0
48 66 311 0
96 -261 -371 0
43 -243 -349 0
121 212 -318 0
-121 -156 222 0
-95 -204 386 0
200 204 373 0
212 249 275 0
95 127 -251 0
31 -178 325 0
92 -102 -148 0
-270 294 -306 0
47 82 -382 0
42 173 -226 0
140 207 -395 0
92 -181 -392 0
41 -82 -304 0
127 -300 -396 0
-93 -105 397 0
-154 251 -367 0
140 -145 -147 0
242 -289 397 0
-47 -307 366 0
134 -190 -267 0
47 -71 126 0
-78 -81 -391 0
-38 -275 339 0
37 -235 314 0
-173 -281 360 0
178 -250 341 0
-25 164 -358 0
26 -146 -225 0
307 335 368 0
110 269 -387 0
-155 279 350 0
-90 -168 -376 0
183 252 -311 0
-97 177 -220 0
239 -287 -348 0
-148 -309 395 0
-219 230 -349 0
5 106 -206 0
-94 -189 -359 0
9 288 -382 0
59 83 -110 0
51 273 367 0
-4 384 394 0
181 -186 316 0
-285 292 325 0
173 201 283 0
-116 -157 -327 0
119 -192 209 0
-39 -64 -83 0
-3 86 -226 0
44 -214 219 0
56 361 -362 0
-126 -140 -236 0
96 -112 223 0
149 -175 -207 0
75 -77 158 0
99 167 -209 0
-222 245 297 0
-26 116 -323 0
-186 244 -382 0
-234 -310 376 0
-232 333 376 0
156 -168 232 0
4 -265 -318 0
129 171 210 0
171 -306 -391 0
-195 -273 386 0
-54 -270 321 0
-45 -111 373 0
-132 235 324 0
11 -95 320 0
236 -328 -381 0
-258 305 -354 0
-77 -167 344 0
-147 241 -289 0
-14 -36 207 0
-11 18 -387 0
68 -182 247 0
-295 -352 -353 0
-157 202 218 0
38 -146 -343 0
-195 254 -332 0
178 -293 361 0
-71 -207 329 0
43 -148 282 0
26 65 324 0
-4 130 -274 0
-38 -51 133 0
59 217 400 0
-76 -241 -250 0
-54 -116 353 0
-177 -364 372 0
16 -51 -249 0
8 223 286 0
253 -326 -363 0
125 140 222 0
273 317 376 0
-20 272 -297 0
285 310 -370 0
38 -259 -308 0
-72 112 -252 0
-46 124 -317 0
76 152 362 0
-63 80 235 0
99 -303 307 0
-79 -116 -161 0
44 196 -380 0
-51 -167 -203 0
38 -183 184 0
-185 -276 -312 0
-48 302 318 0
-7 99 132 0
-164 187 -285 0
-47 68 83 0
213 -373 -376 0
-150 -210 -368 0
214 234 -243 0
38 259 -330 0
67 88 185 0
10 -52 107 0
-65 -262 264 0
-110 -200 276 0
31 -187 -279 0
10 -41 277 0
-185 -228 -285 0
39 71 331 0
-15 -99 -222 0
15 322 361 0
10 -61 -224 0
-53 -60 -172 0
96 -135 268 0
-113 159 -355 0
40 -53 -124 0
127 139 -229 0
-243 -274 -340 0
42 102 -255 0
4 -188 -353 0
9 112 -243 0
183 -235 -303 0
-188 -241 388 0
-3 243 -360 0
27 -106 -322 0
51 293 -372 0
26 45 194 0
-160 283 396 0
-13 -237 384 0
65 -278 352 0
-71 -158 -172 0
52 -131 -274 0
195 -325 -330 0
3 122 387 0
-56 -97 -327 0
45 49 97 0
-1 -115 160 0
-134 -159 -253 0
-61 -205 -292 0
36 246 362 0
-259 318 334 0
28 -130 -270 0
135 -220 235 0
197 222 243 0
-122 -211 217 0
-148 259 362 0
71 -373 -392 0
-170 -274 335 0
-173 -201 237 0
44 79 -315 0
71 -91 179 0
59 -112 -173 0
-25 -196 -263 0
-119 158 361 0
60 203 373 0
-81 -373 395 0
93 104 305 0
-190 -258 265 0
-268 -273 394 0
10 186 357 0
-123 -294 -364 0
-30 -48 -231 0
-40 -245 -289 0
92 281 346 0
132 -328 -361 0
-109 -172 -227 0
-110 -370 382 0
-50 84 -296 0
163 249 -380 0
253 262 -288 0
100 298 319 0
-19 -351 -391 0
-43 -158 293 0
-134 198 327 0
-26 51 -329 0
-185 -205 -313 0
-38 -196 318 0
-229 321 -393 0
115 274 -384 0
188 293 398 0
-16 57 -328 0
90 -215 -363 0
-101 -281 -353 0
-116 -360 -386 0
49 350 -354 0
-113 -120 374 0
-26 216 -226 0
169 307 325 0
17 26 -246 0
181 -322 -390 0
-32 101 -118 0
-24 -232 -360 0
-48 136 354 0
121 167 181 0
116 -209 -272 0
-9 -373 398 0
-20 82 285 0
-9 -93 -375 0
39 -148 359 0
-13 373 -384 0
-73 91 -125 0
43 -56 -367 0
160 -270 -374 0
220 -323 385 0
13 87 -278 0
-67 -183 240 0
72 161 172 0
155 160 -397 0
-31 157 388 0
-126 -141 363 0
12 188 -338 0
-104 207 -377 0
-122 -366 389 0
-228 -251 -297 0
-207 363 -382 0
9 19 -45 0
-6 188 290 0
-52 -155 256 0
-22 35 358 0
88 185 338 0
166 -176 288 0
71 -159 -185 0
23 -31 380 0
76 -332 -339 0
-100 136 -339 0
-33 -344 -392 0
-71 205 -337 0
142 -187 -346 0
-256 355 374 0
25 151 -334 0
14 229 235 0
6 -158 246 0
-150 -155 -266 0
-1 -57 -374 0
-61 -198 331 0
-2 62 -350 0
-33 245 343 0
-46 -270 367 0
-177 -308 -375 0
1 67 97 0
-213 -253 274 0
57 230 -295 0
-96 361 -363 0
-63 -250 360 0
-215 228 -392 0
-35 65 -207 0
-94 352 -399 0
-222 -246 -302 0
-154 327 -378 0
65 78 -333 0
120 157 -243 0
-8 143 -247 0
206 -317 363 0
-150 208 -308 0
-54 292 363 0
-213 273 369 0
-62 -220 -372 0
252 254 347 0
-124 248 -256 0
-61 -312 -388 0
-173 317 -350 0
-32 -76 -286 0
-36 125 369 0
102 230 -239 0
-15 -31 133 0
-53 181 -222 0
-5 264 366 0
45 -67 -77 0
80 -105 -357 0
-180 -205 268 0
67 -391 -393 0
-100 117 -349 0
63 -189 266 0
140 150 346 0
49 -131 375 0
35 -74 -171 0
39 71 -191 0
277 -380 -394 0
-145 280 -326 0
31 122 -330 0
160 -315 372 0
-241 -251 -254 0
-133 -324 -378 0
-103 320 382 0
26 -221 247 0
-114 204 383 0
309 360 -386 0
83 165 -317 0
118 302 -345 0
-206 210 217 0
-51 330 338 0
-76 196 -213 0
-240 -325 380 0
102 124 307 0
-70 200 347 0
125 215 392 0
-22 -87 -339 0
-5 -90 -145 0
-68 142 210 0
-104 -190 -274 0
271 -302 319 0
31 -259 332 0
-122 -315 -385 0
107 -153 -396 0
42 -134 294 0
27 -170 -390 0
76 -197 205 0
-54 -95 -345 0
-1 -273 -382 0
-89 142 -190 0
-1 -339 -366 0
-91 -137 319 0
-146 -295 -382 0
-62 -104 375 0
8 143 352 0
-87 254 358 0
80 287 -307 0
199 -279 312 0
83 -225 292 0
125 -325 330 0
-138 -175 -331 0
72 238 386 0
66 204 364 0
135 -220 313 0
-38 89 -174 0
126 -278 286 0
63 -102 -301 0
-283 315 326 0
111 -235 -364 0
130 -166 318 0
117 238 372 0
-156 -187 253 0
14 17 -100 0
-52 -344 -396 0
166 176 -289 0
174 186 -371 0
-148 -263 -284 0
-114 -273 363 0
-56 258 -300 0
-17 86 291 0
-97 -107 -368 0
121 184 359 0
46 156 -357 0
-70 -143 305 0
-49 -248 361 0
-95 -181 -232 0
-228 356 -374 0
-315 -374 -383 0
-220 239 -364 0
11 -31 -152 0
65 274 -329 0
66 -139 315 0
191 266 270 0
-211 -225 244 0
73 -104 -152 0
-154 267 -296 0
239 -284 313 0
-40 179 -248 0
192 273 -391 0
-67 146 378 0
202 -358 383 0
24 245 -254 0
100 377 -380 0
124 182 -343 0
25 104 -150 0
181 -224 -295 0
35 -178 -309 0
-87 -91 -154 0
-38 308 -310 0
-58 264 -383 0
-87 211 -389 0
-139 -151 387 0
333 335 -351 0
77 202 274 0
-20 51 -313 0
142 -166 377 0
-75 369 -398 0
62 112 274 0
-237 -306 -378 0
41 123 -161 0
132 199 -230 0
-147 -164 -183 0
-186 -315 -399 0
37 -86 368 0
49 233 -345 0
189 -230 241 0
59 -167 -382 0
16 129 136 0
-229 -268 -388 0
130 -180 301 0
-76 -217 -348 0
-35 73 -247 0
-23 -256 -305 0
-48 -210 389 0
128 -149 -177 0
-131 262 332 0
-6 -134 142 0
249 -280 -292 0
49 -201 323 0
-61 275 -362 0
-63 -257 371 0
-44 -240 364 0
148 -205 -253 0
-119 229 -375 0
20 -33 378 0
27 216 -262 0
81 -170 -262 0
12 54 332 0
166 258 278 0
21 146 -351 0
72 -214 323 0
-31 -101 142 0
-88 -157 -334 0
15 187 309 0
-306 -308 360 0
67 -80 288 0
-71 -243 277 0
69 197 -360 0
56 -91 -146 0
194 -234 -389 0
-16 73 151 0
11 -372 396 0
30 168 201 0
12 -221 351 0
-10 -126 -225 0
-20 -71 -336 0
191 -193 196 0
24 -107 169 0
149 184 245 0
343 -361 393 0
2 144 237 0
178 -311 339 0
-17 91 284 0
355 361 -385 0
58 -112 -238 0
-194 -196 -306 0
122 -188 321 0
-126 195 338 0
-200 282 333 0
-271 -293 297 0
22 -43 -166 0
116 -172 -382 0
152 206 235 0
79 124 273 0
-192 -277 285 0
-43 55 -69 0
-13 -18 324 0
-111 244 275 0
51 -225 -339 0
-109 323 -370 0
48 53 95 0
-201 216 234 0
-26 142 -248 0
-224 264 369 0
28 -161 -345 0
-185 200 346 0
51 91 -386 0
120 157 -215 0
-5 68 275 0
-67 80 -160 0
-8 -27 50 0
-156 -305 391 0
146 -281 346 0
110 161 -220 0
2 -23 -44 0
-86 104 139 0
41 203 -261 0
195 -338 -353 0
-19 165 170 0
133 -182 332 0
77 -254 -399 0
124 -306 321 0
-103 159 -283 0
172 273 366 0
71 -377 -400 0
32 -279 -368 0
37 260 -324 0
24 -253 320 0
160 283 -382 0
75 140 -300 0
67 106 -325 0
274 -311 334 0
-100 -195 359 0
22 31 399 0
-13 -220 -273 0
-41 51 -280 0
-129 278 -396 0
-171 -358 397 0
-96 -167 339 0
-25 49 -319 0
-22 -32 86 0
-15 91 118 0
-198 -211 -231 0
17 -23 -239 0
78 321 -337 0
139 -184 -351 0
-230 -235 266 0
-45 -233 -380 0
-168 201 -399 0
-127 -311 -327 0
142 213 281 0
-132 -216 269 0
-54 250 263 0
173 325 -391 0
62 -329 377 0
-160 288 -384 0
216 -239 -334 0
-134 -269 364 0
87 -131 235 0
-54 -55 371 0
-108 131 296 0
103 133 -136 0
-122 260 -337 0
167 -179 297 0
114 -293 -393 0
-2 158 300 0
-171 191 -271 0
-81 329 360 0
-81 184 252 0
147 -258 386 0
60 -200 -334 0
156 -202 398 0
102 -322 -386 0
142 -388 -398 0
173 286 317 0
112 224 375 0
-159 232 354 0
170 233 274 0
-58 -156 -329 0
-146 240 -391 0
5 94 231 0
69 -173 -222 0
-210 220 292 0
-260 322 -335 0
-83 119 288 0
93 -188 -229 0
85 -240 256 0
67 360 -394 0
-200 -302 356 0
240 -283 375 0
44 -215 -325 0
82 -135 371 0
-135 250 289 0
93 113 -324 0
50 192 -276 0
-7 -306 -375 0
40 -157 276 0
146 231 339 0
-142 -191 -335 0
-12 -336 -368 0
37 -200 380 0
-82 -188 259 0
-31 157 301 0
-238 268 -328 0
41 77 184 0
-103 137 286 0
-27 182 375 0
159 192 339 0
85 -221 -355 0
362 -370 390 0
-103 253 302 0
-27 244 331 0
64 101 -389 0
-91 223 377 0
168 -251 359 0
-352 -374 -384 0
-81 105 354 0
131 191 219 0
127 -167 -264 0
-9 -104 200 0
-274 -317 -346 0
-34 -230 382 0
144 219 -376 0
61 -99 -202 0
13 237 -400 0
-60 -190 346 0
-95 -111 -213 0
64 120 291 0
-50 119 174 0
-138 253 259 0
286 -290 341 0
16 191 231 0
103 -179 -202 0
-26 -62 -117 0
-93 -211 219 0
-46 -170 -309 0
2 65 -218 0
14 271 334 0
-37 92 -117 0
28 150 154 0
39 -314 377 0
130 -240 -299 0
38 -235 270 0
98 283 -384 0
-305 306 -355 0
-7 -68 -339 0
-51 -99 -219 0
-36 -65 -153 0
-12 150 -357 0
-111 -178 -336 0
46 -248 364 0
-40 -61 -102 0
-152 326 -328 0
61 -183 309 0
312 -391 393 0
-8 123 212 0
84 -91 290 0
-42 189 -336 0
160 186 -339 0
71 -280 391 0
-47 -304 -324 0
56 275 -339 0
-86 -106 -376 0
74 151 199 0
-93 -128 268 0
297 356 383 0
-45 -124 264 0
-161 -364 386 0
23 -106 -162 0
25 328 -346 0
103 308 -335 0
-171 -350 353 0
-202 -225 320 0
1 -36 -196 0
93 180 -229 0
85 -238 -259 0
96 -336 367 0
-145 -207 -241 0
195 -200 300 0
-53 -129 276 0
-75 273 -289 0
-42 -195 -368 0
-37 78 206 0
-180 -214 219 0
-24 -258 -397 0
-114 -140 -374 0
-62 236 -253 0
134 160 356 0
-6 -80 -82 0
85 -165 -299 0
-217 291 365 0
198 -210 -316 0
-104 189 272 0
46 -84 -115 0
32 -206 256 0
-80 -177 -336 0
-24 -259 -352 0
55 -264 -382 0
166 176 357 0
147 188 -379 0
-107 145 275 0
-121 -293 -377 0
-271 306 321 0
50 -102 197 0
1 -82 281 0
9 -77 -94 0
-130 243 251 0
-122 219 -338 0
221 -249 265 0
-58 113 171 0
-125 -146 -204 0
-228 320 -370 0
-156 315 378 0
-120 166 -253 0
15 -111 148 0
115 116 -255 0
-81 128 194 0
-153 391 -399 0
213 -255 -387 0
44 -51 -298 0
-10 23 334 0
-36 218 -378 0
125 186 -377 0
-55 -196 292 0
-52 -196 391 0
297 -310 319 0
1 -172 -338 0
-4 -381 -382 0
-60 249 -344 0
59 -186 -193 0
83 -159 195 0
111 285 367 0
38 71 382 0
-72 106 374 0
-4 181 -342 0
-23 240 -277 0
6 127 363 0
29 -150 303 0
-188 295 328 0
-34 266 -357 0
137 -193 400 0
14 95 371 0
25 -189 300 0
-33 -137 290 0
72 189 353 0
82 -246 -295 0
8 76 -166 0
-223 282 -289 0
-80 -170 315 0
-14 130 -267 0
-38 -101 166 0
104 -144 -178 0
45 -382 -383 0
-4 -72 201 0
-124 -221 395 0
-47 164 -306 0
19 74 203 0
64 257 -400 0
73 244 -349 0
58 167 -222 0
-132 179 -285 0
-16 28 -235 0
32 245 -284 0
86 188 -343 0
-77 -138 -199 0
-34 -131 -365 0
-120 248 318 0
64 -124 364 0
173 278 296 0
-289 352 -374 0
-240 -266 -324 0
26 -276 -380 0
143 -202 -311 0
-46 78 -233 0
-90 -221 227 0
39 -86 160 0
-150 -241 272 0
-40 -242 340 0
9 209 -318 0
9 25 -369 0
-65 -188 -232 0
55 -60 279 0
39 -220 302 0
-198 199 317 0
-187 190 215 0
3 77 253 0
56 108 -348 0
82 -113 -180 0
-23 60 -345 0
113 132 -307 0
21 -54 -276 0
-179 295 -302 0
57 -286 -388 0
48 300 332 0
52 -256 286 0
120 -244 -260 0
124 194 -316 0
-96 236 265 0
235 -253 304 0
125 -142 -342 0
140 -160 -253 0
-124 -146 -234 0
-210 291 -395 0
-280 324 -383 0
-117 -271 324 0
-18 135 -212 0
-88 -190 -299 0
27 58 194 0
127 -128 -131 0
78 196 289 0
-2 -143 314 0
-191 193 -309 0
104 277 -332 0
59 -146 149 0
94 -292 -326 0
50 -112 160 0
-73 258 362 0
-184 -187 -322 0
2 138 222 0
308 -367 -388 0
-102 244 -250 0
107 -143 -184 0
-155 281 -374 0
42 109 -381 0
244 -295 384 0
-97 104 -134 0
-38 381 -400 0
226 -248 -357 0
-32 288 -324 0
-82 97 -252 0
6 -139 -156 0
16 56 294 0
-30 96 -305 0
-114 240 308 0
188 -256 -272 0
5 173 241 0
-52 -71 -190 0
179 -227 341 0
-17 223 392 0
-12 291 319 0
72 294 -341 0
30 -286 369 0
132 196 -349 0
176 217 297 0
-174 -206 -217 0
170 213 -252 0
-201 254 -374 0
-10 -216 272 0
-201 336 -399 0
119 -274 384 0
-51 101 201 0
110 116 -229 0
4 18 -153 0
195 215 239 0
30 -173 373 0
-162 -187 -239 0
-92 -157 183 0
7 107 313 0
-109 -205 -265 0
-97 -208 -250 0
-16 296 389 0
74 222 -329 0
-6 152 -328 0
329 -346 -390 0
71 -157 -291 0
22 32 104 0
43 -320 324 0
-130 210 -373 0
269 372 374 0
317 341 369 0
-80 -138 -194 0
-171 271 379 0
101 166 -284 0
-25 27 358 0
-251 283 369 0
-21 251 -304 0
8 -70 -83 0
179 265 327 0
-18 -56 -113 0
36 -190 195 0
-66 77 295 0
-69 -130 -330 0
-178 -218 -272 0
62 177 305 0
66 115 285 0
-32 170 279 0
51 -53 -225 0
19 -111 -168 0
-4 263 329 0
16 99 -324 0
62 105 -284 0
-53 275 -294 0
19 276 -379 0
-95 -105 -264 0
91 198 309 0
13 -364 -377 0
-74 155 -376 0
-113 -119 -129 0
-124 -290 380 0
-139 -163 396 0
-137 -138 -389 0
-78 182 306 0
34 -86 360 0
-62 81 -146 0
22 -152 -305 0
56 -203 208 0
1 287 -398 0
-32 125 366 0
-44 246 275 0
-175 176 -292 0
32 34 -113 0
62 109 -168 0
-35 -170 277 0
-55 -69 -174 0
-78 -229 -252 0
-187 -232 -335 0
-272 -318 -364 0
191 -251 -377 0
-6 -72 209 0
-145 201 276 0
50 113 211 0
227 345 351 0
243 -253 -280 0
188 -209 -245 0
-20 39 -335 0
66 -271 -392 0
-65 -138 -224 0
27 54 302 0
-31 305 -377 0
-187 -265 389 0
296 -307 -381 0
-8 -107 334 0
-60 183 218 0
-179 226 283 0
-178 -300 -354 0
-211 246 283 0
200 -223 398 0
-219 248 279 0
185 275 291 0
233 -296 334 0
115 -206 -359 0
-7 -132 133 0
171 221 -234 0
-51 -139 -330 0
55 -185 -228 0
-169 -186 400 0
225 -273 -277 0
60 -321 -396 0
-13 190 207 0
-60 137 -332 0
29 251 -298 0
28 -261 324 0
171 264 378 0
38 -172 -220 0
-74 329 372 0
-166 169 322 0
126 361 -371 0
22 -127 -263 0
175 176 -196 0
-134 140 -256 0
160 -282 -291 0
62 -106 169 0
72 -136 261 0
68 -129 -379 0
65 -361 -384 0
-55 90 -178 0
207 -328 382 0
31 -139 -150 0
6 -218 397 0
139 -289 -380 0
-13 193 -305 0
300 329 -334 0
-137 -179 199 0
-214 -228 343 0
141 -169 -391 0
-38 96 223 0
-208 -285 310 0
46 125 -163 0
57 -111 -315 0
177 192 -222 0
-137 -263 -336 0
-122 179 -226 0
3 50 -308 0
129 274 -336 0
54 -240 242 0
-47 201 -379 0
-286 353 384 0
220 -299 333 0
9 -163 400 0
134 220 256 0
-209 264 372 0
-61 150 273 0
131 287 -379 0
153 -223 241 0
-84 205 271 0
-177 317 -320 0
-175 243 -298 0
9 -57 75 0
131 354 -377 0
102 327 374 0
-59 -104 172 0
97 135 202 0
352 359 364 0
-63 -184 397 0
-26 -350 394 0
43 -95 219 0
259 309 381 0
88 304 328 0
-114 297 -366 0
-91 -96 153 0
-137 176 -181 0
-34 -71 83 0
-2 193 315 0
-210 260 278 0
-52 -209 -238 0
-67 241 -385 0
264 383 -386 0
-48 173 -275 0
184 196 225 0
-48 191 241 0
-67 78 -263 0
85 -89 140 0
-172 287 361 0
-145 -148 -264 0
1 -2 25 0
-40 110 -286 0
-10 16 306 0
-187 195 222 0
120 -256 337 0
-94 -106 -122 0
-33 -47 -67 0
-4 119 -279 0
-95 -158 228 0
222 -339 358 0
-185 -187 -203 0
57 -358 -400 0
12 169 -371 0
-236 366 -389 0
-192 214 381 0
136 -180 295 0
32 40 323 0
222 -255 314 0
-208 259 327 0
-2 -92 353 0
-27 48 114 0
-24 -173 -211 0
-89 -261 335 0
32 56 -132 0
-46 224 -387 0
-125 179 -328 0
9 361 -362 0
-101 211 -372 0
66 277 287 0
-278 341 354 0
48 -160 -226 0
-9 295 313 0
-61 243 -279 0
-5 106 -131 0
44 163 280 0
-55 118 185 0
62 -263 320 0
26 -39 260 0
69 -351 -389 0
90 168 335 0
-157 -232 -363 0
-37 -104 -210 0
-103 129 234 0
-9 -71 -398 0
95 246 373 0
-25 -80 -131 0
-40 -145 283 0
-24 205 -221 0
28 -230 -299 0
132 -328 -383 0
-105 -127 -202 0
161 187 263 0
-254 280 -370 0
188 248 252 0
-98 269 -380 0
129 218 -240 0
-43 105 385 0
-208 -279 309 0
-8 -30 114 0
-290 -323 -350 0
90 -379 382 0
-70 -253 351 0
-257 -370 381 0
209 267 -332 0
123 326 -348 0
-139 -304 311 0
119 260 -383 0
16 -78 -145 0
5 6 276 0
97 162 -359 0
-144 -245 -387 0
-10 -45 -108 0
-172 249 -289 0
-113 128 257 0
-108 -195 -197 0
10 98 197 0
-154 -181 -269 0
-5 -279 -313 0
24 -59 -397 0
23 -211 -239 0
-179 257 314 0
-47 -64 -251 0
11 -136 -197 0
-13 -61 182 0
-91 -242 -394 0
-131 -136 -151 0
-80 -108 120 0
-221 243 364 0
44 -110 196 0
181 235 -377 0
-154 -170 354 0
-50 125 303 0
181 -200 -365 0
216 274 346 0
-63 80 351 0
-32 -213 392 0
-31 222 -274 0
79 -239 -396 0
34 -113 -320 0
-207 -311 -399 0
-52 -94 -253 0
-12 242 398 0
178 230 -302 0
281 313 389 0
105 133 295 0
44 -357 359 0
-2 30 -35 0
23 281 282 0
-150 279 -370 0
204 -308 311 0
-152 221 262 0
71 105 -224 0
47 -331 -392 0
77 137 219 0
-171 -176 -296 0
-178 -200 234 0
-30 102 -131 0
16 -211 -237 0
3 -17 359 0
-31 161 -164 0
76 135 -139 0
-7 -259 -267 0
-230 343 -378 0
173 303 -363 0
-22 -362 -372 0
30 94 -277 0
117 238 -256 0
33 -126 -203 0
-332 350 -381 0
95 98 -102 0
-141 -286 307 0
39 87 99 0
-53 180 191 0
84 -224 -391 0
63 95 107 0
77 304 -348 0
4 -92 -207 0
8 -90 -326 0
38 -142 -341 0
46 211 -234 0
-98 -327 359 0
-23 -57 219 0
-97 159 369 0
-168 -206 -226 0
98 113 357 0
72 113 -167 0
44 85 -174 0
131 -361 -377 0
-52 61 109 0
-7 61 -309 0
-110 117 305 0
-13 -165 208 0
-30 -217 -367 0
57 125 147 0
140 252 -378 0
-112 150 -324 0
10 168 -348 0
19 42 -235 0
-15 -141 -310 0
-105 119 399 0
52 -78 372 0
69 171 393 0
71 -228 -296 0
110 219 381 0
-181 183 399 0
119 355 -378 0
-7 -197 -338 0
-35 44 394 0
-5 163 243 0
245 271 -383 0
64 -80 245 0
20 -23 309 0
-25 231 246 0
177 350 -366 0
-158 325 355 0
-29 165 -364 0
-130 -211 312 0
20 -196 260 0
162 -208 -264 0
199 -216 255 0
-78 163 243 0
-231 283 383 0
151 -272 368 0
-32 -233 -309 0
1 -294 -317 0
163 180 262 0
-87 195 -306 0
-27 -161 383 0
11 152 -280 0
73 140 -276 0
-182 -347 395 0
155 -217 -313 0
-49 212 263 0
-34 -168 295 0
-4 85 361 0
203 261 -300 0
204 -316 382 0
92 -130 385 0
249 -281 -365 0
323 -325 -389 0
119 122 -342 0
18 -286 -370 0
6 168 224 0
158 -324 352 0
-170 -365 -377 0
74 -152 -174 0
-73 -245 -256 0
-25 54 -397 0
-21 265 -297 0
180 -314 320 0
174 -268 400 0
75 197 -383 0
-17 -157 -359 0
-120 -241 -385 0
37 -219 -322 0
-37 -170 209 0
78 -99 -344 0
-17 257 326 0
-92 168 -206 0
-213 258 -296 0
-78 -207 357 0
-11 -92 394 0
48 -237 -335 0
-117 -327 -336 0
211 -238 -327 0
50 -289 320 0
139 349 -355 0
10 166 347 0
-15 104 -201 0
-72 170 186 0
-14 210 267 0
115 -128 236 0
-17 -232 340 0
-12 355 363 0
172 -195 280 0
188 -201 268 0
-49 153 -255 0
-151 220 -264 0
-74 113 -199 0
44 250 384 0
101 165 -206 0
-116 323 368 0
-127 -132 182 0
198 258 -276 0
110 170 -296 0
60 -150 252 0
115 212 347 0
-4 254 -389 0
169 -253 286 0
-167 -198 386 0
28 -36 116 0
-107 -125 -396 0
95 -132 343 0
-34 204 296 0
100 -275 -383 0
-29 -147 -177 0
-132 -247 306 0
21 -84 345 0
-162 -348 -392 0
-283 -386 397 0
136 298 358 0
155 247 -257 0
-52 259 298 0
244 -251 -372 0
63 197 -309 0
84 -139 -327 0
35 99 103 0
5 314 378 0
-171 283 372 0
164 -218 278 0
-35 -126 -164 0
130 -304 -328 0
-93 -200 -246 0
98 296 -396 0
107 -123 161 0
56 -259 359 0
144 215 -301 0
53 -146 367 0
-55 66 -200 0
-49 76 84 0
-100 106 -252 0
134 -173 377 0
15 22 -325 0
125 -187 212 0
166 -194 -240 0
-163 363 -367 0
-190 -272 385 0
7 151 329 0
-76 217 326 0
-132 166 -301 0
15 -165 394 0
131 -230 350 0
68 -122 384 0
16 197 268 0
61 220 -326 0
-52 139 287 0
95 281 -329 0
173 178 296 0
-55 136 388 0
83 249 285 0
113 -255 321 0
10 141 200 0
237 242 272 0
-196 -252 378 0
-93 -315 382 0
-21 -180 -331 0
98 -108 -265 0
-46 89 234 0
-76 115 240 0
153 -266 -347 0
-78 244 260 0
136 -297 -307 0
-314 -331 362 0
-74 278 -391 0
-38 -172 264 0
233 254 305 0
121 -214 -383 0
180 -224 269 0
-10 28 208 0
-10 149 291 0
-136 234 314 0
-43 246 -370 0
108 -130 275 0
-90 -123 -197 0
-131 161 -296 0
-154 -233 -333 0
105 -354 -356 0
61 69 197 0
127 303 367 0
165 -181 398 0
-77 -209 -258 0
215 290 377 0
-80 305 -341 0
270 -273 293 0
-113 -222 253 0
-266 313 336 0
127 223 -224 0
60 71 -129 0
-84 -344 -374 0
178 239 370 0
13 -71 -264 0
-135 -161 195 0
-28 176 -314 0
-57 -146 209 0
-39 185 -284 0
-161 -218 242 0
150 -271 -299 0
-11 -18 253 0
-302 -335 388 0
31 -238 -300 0
-183 300 387 0
-13 -309 -388 0
9 -238 254 0
-97 -102 -321 0
53 281 -341 0
317 -373 395 0
11 -285 -342 0
36 92 303 0
-137 -302 376 0
29 -234 298 0
32 52 62 0
27 181 -383 0
116 -271 -292 0
166 301 -368 0
150 -184 -290 0
-24 -47 334 0
178 -200 -328 0
55 279 -383 0
102 168 -275 0
-80 176 251 0
31 262 400 0
-19 -74 218 0
-176 -238 -353 0
-29 -59 216 0
135 -153 -292 0
65 -149 -234 0
51 227 -232 0
-80 122 395 0
-194 -328 -335 0
-73 80 239 0
-54 309 -314 0
65 286 312 0
-33 123 362 0
9 81 338 0
27 -43 283 0
133 139 190 0
2 -134 -235 0
46 -165 260 0
-17 -136 -279 0
17 138 314 0
174 281 -327 0
19 -199 -308 0
71 -95 249 0
134 146 -236 0
60 74 -322 0
19 -213 257 0
23 190 293 0
202 323 -378 0
113 -209 -349 0
-37 -70 127 0
-193 227 380 0
-49 -190 262 0
55 -70 -158 0
112 -259 318 0
18 -31 -124 0
-18 -141 288 0
-34 -277 -392 0
-46 95 264 0
82 315 339 0
-10 44 282 0
-69 82 -180 0
-51 -314 340 0
-13 -287 357 0
324 375 399 0
109 299 -346 0
-110 -171 183 0
-47 -120 271 0
-194 -251 -399 0
3 238 -283 0
220 285 -324 0
-43 -64 171 0
42 -374 387 0
4 167 204 0
-40 -45 110 0
-109 -179 211 0
-192 -237 248 0
-70 -142 386 0
-52 -98 -214 0
181 -272 354 0
142 319 346 0
-88 273 337 0
84 -103 134 0
374 -380 384 0
-29 -139 -158 0
-73 273 320 0
-59 -72 -265 0
139 295 340 0
63 -88 -309 0
30 105 142 0
-189 -193 203 0
-21 -279 -382 0
11 78 231 0
-185 -220 365 0
-54 -244 -246 0
-1 141 -288 0
-15 167 -235 0
-76 -308 371 0
-90 -268 -288 0
-172 298 338 0
-30 242 -250 0
14 306 324 0
-110 184 336 0
245 -315 -320 0
49 -57 279 0
278 -335 -351 0
115 -150 160 0
-44 190 229 0
-109 -134 -213 0
-118 -205 -314 0
14 153 -371 0
-121 250 -310 0
-254 282 -330 0
-48 -158 -254 0
-87 157 -351 0
-34 -58 -234 0
-78 -291 340 0
-52 154 -165 0
-49 187 -194 0
291 -359 395 0
178 -236 -373 0
-42 233 -306 0
-66 -68 178 0
18 113 -298 0
-341 352 -373 0
-71 -165 194 0
-124 -189 -329 0
4 -177 280 0
96 207 370 0
-6 -183 -283 0
-45 -133 -333 0
306 327 -362 0
32 127 362 0
-17 -133 290 0
-14 -190 352 0
73 -237 -341 0
149 -202 316 0
-100 -229 233 0
63 198 310 0
-8 258 323 0
41 225 228 0
-130 378 -384 0
102 142 228 0
-13 -269 -323 0
104 156 241 0
224 314 320 0
-77 -199 291 0
131 302 -388 0
-89 -301 333 0
96 173 -288 0
120 313 -329 0
-91 132 -189 0
97 -170 -219 0
151 266 -328 0
157 -277 395 0
252 301 399 0
-71 195 -326 0
-4 205 329 0
-122 -228 293 0
42 -46 259 0
-141 -150 -233 0
118 268 -272 0
-110 162 399 0
-167 194 -205 0
-59 108 154 0
55 -176 -222 0
-197 -277 285 0
91 147 240 0
-129 250 313 0
151 -217 -220 0
96 -246 -315 0
-20 37 141 0
12 -137 -329 0
143 214 386 0
34 71 -86 0
-127 -285 320 0
-121 169 291 0
312 337 366 0
-201 290 348 0
-85 -105 197 0
217 -237 295 0
133 -220 -234 0
-80 -144 235 0
-64 -156 265 0
2 -49 -117 0
-55 -261 -274 0
-150 225 -237 0
203 226 -277 0
157 240 -246 0
159 302 370 0
69 341 357 0
177 -284 -313 0
263 289 389 0
182 190 295 0
25 39 -149 0
135 176 252 0
-21 108 -234 0
-237 308 316 0
-84 107 324 0
-145 377 -391 0
22 84 321 0
-57 268 -343 0
-40 197 366 0
104 -247 -344 0
78 -116 293 0
-83 149 -347 0
152 200 336 0
-2 64 -70 0
224 226 302 0
83 -123 287 0
163 322 -361 0
-37 182 211 0
-62 232 235 0
218 341 -359 0
60 324 -354 0
-120 154 -290 0
45 -227 277 0
-77 207 -211 0
-27 182 188 0
-8 -206 267 0
89 -248 400 0
-53 249 340 0
-11 -87 312 0
-130 146 -178 0
