c F2 random 3-CNF cnfgen RandomKCNF(3,150,750,seed=6) m/n=5.0
p cnf 150 750
-21 125 147 0
-38 96 -121 0
51 106 -126 0
23 -86 -109 0
25 -65 114 0
-12 52 93 0
-63 -93 111 0
23 129 -135 0
-51 80 98 0
4 54 134 0
-79 -86 -143 0
33 75 -126 0
25 102 -113 0
-20 -98 -115 0
-22 -50 -105 0
5 -6 -45 0
-49 -66 -129 0
-106 -108 -125 0
-37 -97 -126 0
-42 -83 -94 0
-41 102 -125 0
8 -15 -47 0
16 -50 128 0
109 -126 135 0
26 93 -95 0
10 25 -37 0
8 18 119 0
68 116 128 0
-113 -115 123 0
-74 75 94 0
-71 -72 -129 0
9 96 114 0
-9 -45 138 0
-14 54 111 0
30 -103 -141 0
-19 20 33 0
-39 48 -135 0
57 -58 145 0
62 -82 144 0
-84 98 -135 0
35 -136 -142 0
39 -43 48 0
-4 11 16 0
26 95 139 0
-58 105 -145 0
16 -20 147 0
13 -29 -46 0
60 66 -114 0
-4 66 135 0
30 93 -94 0
-14 88 112 0
-3 18 -87 0
23 68 70 0
47 -108 -140 0
-123 -133 145 0
-9 50 77 0
1 28 148 0
-101 122 -125 0
-3 -40 -118 0
-35 -74 82 0
2 -46 79 0
-23 50 98 0
-13 -134 -135 0
-18 70 100 0
29 40 130 0
-32 56 90 0
45 -48 -58 0
29 -35 117 0
-18 68 86 0
-8 117 123 0
-26 71 -99 0
-37 -38 95 0
-27 -39 137 0
-33 123 -142 0
31 -51 -103 0
-66 -89 -139 0
12 129 -143 0
66 138 -143 0
-4 54 147 0
-15 -70 72 0
-1 24 -44 0
-47 -57 -123 0
23 32 -111 0
-15 -57 -69 0
-77 93 -110 0
-16 42 72 0
-16 29 113 0
1 -68 -91 0
89 100 -104 0
-66 115 127 0
-14 132 139 0
-4 28 76 0
-8 66 103 0
35 45 71 0
-56 -84 -108 0
50 83 117 0
-36 -58 -101 0
50 -58 146 0
31 -102 -148 0
-65 -112 -128 0
96 -135 150 0
75 79 -121 0
-42 -94 -148 0
-19 111 117 0
17 112 -124 0
-42 46 -93 0
8 -30 -89 0
-1 -93 -99 0
45 91 127 0
-2 8 -12 0
84 121 -124 0
29 37 -55 0
-57 -92 107 0
49 72 95 0
-12 103 136 0
21 -31 -50 0
48 54 -113 0
-55 139 146 0
-8 27 75 0
-106 140 -143 0
36 -44 -139 0
-9 77 103 0
-60 77 -111 0
-92 -93 -104 0
40 -66 74 0
2 39 -142 0
-4 55 119 0
-32 -100 126 0
-1 75 -139 0
-23 83 136 0
54 63 -79 0
7 -81 -91 0
14 16 145 0
44 -66 -75 0
58 74 145 0
116 143 148 0
-11 -92 -142 0
-62 -71 -133 0
98 115 144 0
101 -109 -131 0
26 45 149 0
53 -63 128 0
9 -12 -101 0
31 52 124 0
63 -91 -122 0
-61 107 144 0
13 -103 -119 0
-28 138 -146 0
-71 -79 -94 0
52 -90 -115 0
21 60 90 0
-4 41 -130 0
12 33 -50 0
44 55 57 0
19 -83 102 0
-38 112 -115 0
-1 -77 121 0
1 55 77 0
92 96 -146 0
29 -83 105 0
110 -118 -149 0
-4 62 107 0
4 -6 9 0
-14 -40 -113 0
-57 64 85 0
23 -62 -120 0
34 86 -99 0
-11 57 -63 0
-46 86 90 0
37 43 81 0
46 -124 150 0
114 117 -143 0
-3 -81 141 0
18 -102 108 0
5 15 120 0
18 43 -56 0
-24 25 64 0
6 86 121 0
66 -123 144 0
-11 55 111 0
31 -32 90 0
-34 -103 138 0
3 7 60 0
-78 112 -150 0
20 -72 -140 0
-56 -96 -142 0
31 -76 -99 0
-6 -45 85 0
-56 74 109 0
-1 8 -123 0
-61 -109 -143 0
51 54 138 0
55 -118 -131 0
60 71 121 0
-12 -51 75 0
-25 -47 78 0
12 58 127 0
-71 109 110 0
28 -114 -119 0
-12 111 -143 0
-42 -52 -124 0
131 -141 146 0
-12 -65 -86 0
-35 60 73 0
-17 -19 100 0
14 41 -73 0
-2 -14 -145 0
-12 72 135 0
6 -59 71 0
-34 48 117 0
39 124 128 0
31 41 108 0
40 -101 145 0
15 -23 72 0
-38 68 -138 0
50 -60 -128 0
1 -101 -127 0
-5 64 -112 0
12 -16 -95 0
87 116 124 0
-85 118 -120 0
-123 129 -145 0
-38 87 99 0
16 35 -122 0
-3 69 -78 0
-38 78 -90 0
21 53 -125 0
14 49 -54 0
-50 -79 140 0
18 -43 -90 0
-16 41 -56 0
-24 54 59 0
-23 80 87 0
-29 46 136 0
4 44 116 0
-19 106 -120 0
43 -91 118 0
-78 83 -88 0
-25 93 -125 0
-31 52 62 0
55 -100 147 0
-16 24 115 0
11 -35 132 0
-1 50 136 0
-1 42 -128 0
-1 -59 -64 0
-20 61 137 0
-52 -70 -113 0
88 90 147 0
61 -72 -136 0
-51 69 129 0
-58 -65 -66 0
17 40 -141 0
-41 -130 132 0
38 107 -120 0
4 -87 -131 0
25 -77 -131 0
-20 75 90 0
31 -87 145 0
-53 91 -97 0
63 70 -137 0
35 -44 93 0
-25 -59 85 0
26 49 107 0
-21 105 108 0
24 -86 101 0
-70 92 -131 0
74 -110 -146 0
19 70 -86 0
-79 -141 150 0
-112 120 -127 0
11 -66 -149 0
1 -78 -118 0
13 27 -93 0
-61 98 -114 0
-59 88 -143 0
-4 -94 -104 0
33 -111 114 0
31 46 135 0
-35 -77 109 0
52 -69 143 0
2 135 -142 0
-23 49 147 0
66 -98 121 0
97 98 126 0
-15 39 80 0
-78 -90 114 0
18 -41 44 0
-11 -33 -92 0
4 -16 40 0
30 62 123 0
-11 34 49 0
12 -37 -125 0
-38 67 -129 0
-28 37 103 0
-22 63 -77 0
-31 -35 86 0
46 -108 119 0
27 -125 139 0
5 62 -84 0
-31 34 -68 0
73 127 -129 0
15 23 101 0
-23 72 -110 0
11 -81 147 0
-61 -77 89 0
-6 -74 -133 0
-98 101 -109 0
11 31 43 0
58 75 83 0
3 -10 -66 0
57 -60 139 0
10 -25 -34 0
-15 47 -148 0
-12 -28 -30 0
-31 78 -82 0
19 -25 73 0
-34 59 -109 0
-71 -82 -120 0
-21 97 105 0
-23 -51 -79 0
9 23 145 0
-57 -58 61 0
63 -105 -140 0
1 117 142 0
-21 46 137 0
-64 107 -140 0
-28 -46 -110 0
63 78 -99 0
-27 52 -56 0
119 -125 136 0
21 50 -102 0
34 112 -117 0
-34 49 85 0
97 -120 148 0
-12 81 148 0
5 23 -45 0
-82 -115 134 0
18 -23 -125 0
-72 -88 103 0
26 -35 66 0
20 -29 -133 0
30 -129 135 0
79 -104 -150 0
12 -102 -103 0
-90 -124 148 0
1 -31 -150 0
-22 54 -73 0
30 -115 149 0
29 -63 114 0
113 -119 132 0
-49 107 140 0
-11 -64 92 0
79 114 128 0
-1 35 142 0
44 59 83 0
43 -58 73 0
-53 60 84 0
16 -75 -124 0
-86 -120 -137 0
26 -115 -150 0
49 103 -106 0
8 -50 142 0
-53 -120 141 0
-58 124 145 0
9 -30 -58 0
-25 116 -131 0
-47 -69 -112 0
25 117 146 0
-22 -55 -141 0
-46 -135 137 0
-21 24 -117 0
32 -107 147 0
-40 86 -110 0
6 40 91 0
-18 -129 -149 0
-34 -112 132 0
-101 -119 -138 0
-47 -91 -97 0
-62 109 142 0
-108 -111 -138 0
-84 -95 144 0
29 -64 -142 0
102 106 -112 0
12 -63 113 0
31 -81 139 0
76 77 -81 0
-29 -58 99 0
-2 -50 -127 0
-6 18 -139 0
12 35 -136 0
3 -67 95 0
-25 -124 -146 0
-15 95 -146 0
32 -51 -85 0
-21 -24 132 0
-80 138 -146 0
-21 48 52 0
-35 71 107 0
-67 91 -104 0
-77 -129 148 0
-51 -59 60 0
-17 -40 -95 0
-106 -111 -121 0
-36 108 127 0
9 -87 123 0
25 -95 143 0
35 52 148 0
30 70 125 0
11 48 127 0
-10 -44 127 0
-20 -54 61 0
34 106 140 0
-12 -68 122 0
-31 77 127 0
7 -10 147 0
-13 54 -63 0
7 -65 -144 0
93 114 139 0
-12 -54 -131 0
-73 126 -129 0
-23 -63 -73 0
26 -64 91 0
73 -85 131 0
10 124 147 0
92 93 105 0
119 -130 139 0
128 -134 -139 0
15 -61 -74 0
28 -38 129 0
45 88 -127 0
111 -124 127 0
-6 13 113 0
-6 -32 -43 0
62 -93 149 0
44 46 52 0
-29 -69 79 0
-5 23 80 0
-14 55 -118 0
30 -74 149 0
-95 -115 140 0
-54 57 97 0
59 -77 -125 0
-61 79 139 0
4 -39 -76 0
42 -72 -128 0
-105 -147 -148 0
28 89 117 0
-7 23 -53 0
-76 -136 140 0
-99 116 -135 0
73 -88 141 0
63 -76 114 0
25 -112 -131 0
-71 -73 -94 0
-10 -32 139 0
3 -13 -19 0
-13 55 -104 0
-23 56 120 0
30 -99 122 0
62 96 -149 0
47 -104 -114 0
66 -71 111 0
-28 89 -137 0
-20 71 81 0
-6 23 86 0
60 88 103 0
-48 97 -139 0
-73 91 -92 0
-121 -128 -147 0
-11 112 -121 0
-2 -20 134 0
-48 66 -70 0
12 -115 -130 0
-83 105 -119 0
7 -56 -84 0
-1 84 124 0
-14 -44 133 0
4 -6 65 0
28 -84 88 0
25 110 117 0
-44 -73 138 0
34 -39 -105 0
47 -80 150 0
80 119 -129 0
-23 58 80 0
79 106 -115 0
9 20 51 0
-27 -81 129 0
18 40 141 0
52 -138 -139 0
55 56 145 0
-18 55 94 0
-81 -101 -147 0
-3 -34 116 0
-63 -108 -136 0
8 -13 100 0
-3 -55 93 0
36 40 91 0
-45 63 -84 0
-62 123 139 0
20 35 119 0
-66 108 -123 0
-37 90 -126 0
-9 -35 -88 0
7 -61 -76 0
40 74 -122 0
-4 -27 -39 0
8 90 139 0
32 56 -146 0
-31 111 -142 0
99 116 -121 0
-19 -60 69 0
6 50 58 0
-19 45 -121 0
-44 55 150 0
53 120 150 0
3 -23 -142 0
-20 79 140 0
8 59 -121 0
-21 33 109 0
-15 -99 126 0
51 115 -122 0
-69 87 -112 0
-106 -133 134 0
16 85 126 0
3 -27 49 0
-17 -25 71 0
-18 54 65 0
-16 -61 -87 0
-24 29 104 0
29 -144 -145 0
-4 9 -63 0
16 24 51 0
34 -35 146 0
-23 -99 -117 0
8 -75 107 0
27 -31 -99 0
-74 -106 -141 0
-87 -145 146 0
-21 117 122 0
12 55 -90 0
5 -24 -144 0
41 -94 -130 0
12 92 128 0
4 -41 83 0
-2 26 -31 0
-8 -116 149 0
33 -62 -73 0
-11 -31 91 0
-15 52 97 0
-43 -87 137 0
1 -41 -43 0
79 -121 127 0
7 -36 67 0
21 144 -147 0
-2 -23 41 0
-64 90 135 0
-9 115 -137 0
-14 70 -98 0
21 52 -74 0
-14 -16 137 0
26 98 -118 0
-36 -102 -103 0
-27 76 135 0
-57 59 -128 0
20 64 122 0
16 131 148 0
-65 114 -132 0
52 56 -70 0
3 -31 141 0
37 -49 61 0
-116 133 -146 0
-67 81 -140 0
54 86 138 0
-66 -97 113 0
22 59 -123 0
-39 -50 -91 0
-40 -138 141 0
57 -108 148 0
3 -68 -114 0
66 -114 140 0
118 120 127 0
-38 -72 -95 0
4 25 -126 0
-7 -41 -53 0
72 118 145 0
58 -117 130 0
27 41 54 0
-77 105 -144 0
23 87 118 0
-70 -96 -127 0
74 -118 -138 0
-18 -33 -42 0
4 6 -32 0
-80 121 134 0
49 -58 88 0
-11 19 -108 0
-59 -60 -147 0
-52 59 75 0
-46 -99 -105 0
-96 115 149 0
-8 -38 -145 0
-81 -84 86 0
-31 -109 -125 0
-48 -111 125 0
-25 -125 140 0
29 31 53 0
-25 62 -105 0
54 -55 75 0
-61 126 -146 0
-35 -80 -144 0
26 45 104 0
-19 -99 -145 0
7 -21 -27 0
-28 -37 -146 0
6 28 115 0
98 -99 128 0
-8 -54 117 0
-11 -74 -78 0
42 48 150 0
-47 -49 -127 0
-14 -34 -67 0
-2 11 136 0
-39 -86 -138 0
-53 -69 -104 0
62 72 82 0
6 -35 -133 0
37 -81 -110 0
10 -15 -144 0
-45 56 -88 0
18 83 -132 0
92 -104 -128 0
32 -60 -86 0
26 70 95 0
38 -101 -136 0
-76 -79 122 0
-26 -62 142 0
-116 -126 -137 0
69 82 -127 0
-77 95 -124 0
37 98 137 0
5 17 -49 0
78 92 -118 0
41 43 -101 0
25 59 -134 0
21 -108 -140 0
-4 16 55 0
-5 55 -98 0
81 -112 -147 0
-38 -126 -147 0
3 53 -77 0
-21 118 129 0
2 -95 -150 0
4 -85 98 0
-21 -57 -85 0
1 17 -30 0
-13 47 58 0
-5 23 109 0
-18 -21 -99 0
-1 32 70 0
75 -122 -125 0
-80 109 139 0
10 41 143 0
-13 -26 34 0
-62 79 96 0
-78 -115 144 0
-103 112 128 0
37 43 105 0
-38 -106 -147 0
28 68 -121 0
12 17 99 0
-23 61 123 0
88 99 145 0
1 39 -134 0
-18 20 125 0
19 -109 -137 0
34 65 100 0
-68 88 -125 0
-3 27 120 0
3 92 148 0
5 -58 -131 0
5 21 80 0
16 -68 104 0
-11 81 111 0
-17 -41 113 0
16 -31 92 0
-39 -124 -131 0
23 27 125 0
63 -117 -131 0
-70 86 96 0
7 105 -130 0
-39 -103 -105 0
-38 -122 -134 0
-10 -40 -66 0
-16 22 -91 0
19 -79 -120 0
-2 -21 -57 0
47 -50 109 0
-11 -27 -72 0
7 9 80 0
-1 47 97 0
10 128 140 0
-75 89 -119 0
14 -72 -141 0
52 84 -118 0
-13 -29 100 0
25 48 -79 0
-8 20 -40 0
46 55 -56 0
-16 111 126 0
61 82 -133 0
-48 -124 148 0
-13 130 -135 0
-100 -106 -133 0
26 42 -91 0
-6 -113 132 0
-74 105 -125 0
-25 71 -101 0
66 -91 -122 0
-118 140 146 0
-44 135 137 0
35 -79 -136 0
36 103 140 0
-23 41 -83 0
33 -129 142 0
-25 -47 -49 0
2 127 -134 0
-59 -102 -117 0
-26 52 -145 0
20 -138 147 0
1 13 -24 0
-80 92 -109 0
40 -78 144 0
30 42 -71 0
-12 -13 54 0
-85 110 -132 0
-23 -69 -147 0
5 -43 100 0
-49 -122 128 0
9 -19 -88 0
14 -61 -120 0
-9 39 52 0
55 56 -123 0
13 93 106 0
75 -84 138 0
-35 127 128 0
-4 -100 -108 0
-83 -126 -127 0
11 61 76 0
