c F2 random 3-CNF cnfgen RandomKCNF(3,350,1750,seed=7) m/n=5.0
p cnf 350 1750
78 166 203 0
30 188 299 0
36 215 -223 0
31 64 -290 0
24 -26 -114 0
-61 74 277 0
293 -298 328 0
33 281 -289 0
-219 -273 -349 0
128 154 186 0
-154 -269 -295 0
38 -148 312 0
-78 176 251 0
-161 -286 -294 0
36 -234 -297 0
-32 -34 -341 0
178 -198 -343 0
-60 87 313 0
-67 -127 -148 0
-42 -86 230 0
-143 -221 -282 0
43 78 119 0
-7 120 -338 0
-3 -75 -145 0
65 -264 -317 0
202 -204 -205 0
32 -35 98 0
57 175 308 0
78 -275 291 0
-37 107 -315 0
-178 187 309 0
-239 -246 250 0
-53 -74 176 0
-12 106 265 0
153 -271 -330 0
-86 115 183 0
117 -123 -206 0
-15 144 -242 0
179 187 229 0
-101 117 -241 0
-1 -313 320 0
62 -199 339 0
171 -223 -326 0
44 82 206 0
78 -239 -303 0
68 80 281 0
72 223 270 0
109 -129 -150 0
68 -215 -279 0
-265 299 340 0
-10 262 269 0
-73 77 89 0
-167 266 350 0
98 128 -142 0
-15 -33 288 0
-142 232 -261 0
104 -230 287 0
162 201 -227 0
-38 109 343 0
188 -330 339 0
-49 -113 240 0
-83 -115 -342 0
-101 183 -216 0
-10 -174 284 0
-170 197 265 0
-44 -54 118 0
-67 -93 -139 0
-77 -264 275 0
-30 94 -143 0
-9 46 325 0
-35 63 -136 0
138 214 284 0
57 83 135 0
157 -160 -322 0
-92 -257 345 0
8 19 -129 0
-55 -126 -229 0
111 -158 260 0
-72 208 326 0
-8 -37 321 0
-29 -44 341 0
24 151 -236 0
-2 -135 -229 0
18 -126 159 0
1 -172 -196 0
103 258 336 0
-46 74 -136 0
12 154 156 0
-200 -306 337 0
146 317 -330 0
72 259 269 0
-16 22 -69 0
26 232 -286 0
2 136 234 0
-39 130 243 0
-119 -236 333 0
24 148 246 0
-131 170 334 0
-32 247 249 0
-149 -251 -346 0
61 -239 282 0
-9 149 -243 0
108 138 199 0
-73 135 -269 0
-58 -119 -187 0
-2 -13 -82 0
-73 -155 -214 0
-1 -62 -170 0
-7 -62 -101 0
34 -200 -202 0
25 141 -144 0
-77 -128 -326 0
98 -192 220 0
-26 42 -211 0
26 249 -282 0
-145 -176 -213 0
-123 -208 -336 0
62 86 330 0
255 -257 -282 0
72 219 231 0
90 -176 285 0
133 189 -292 0
197 -212 -269 0
-32 -174 256 0
258 271 -323 0
-128 -197 -205 0
-12 -17 -66 0
-1 -38 201 0
56 80 -115 0
21 44 283 0
-20 292 -331 0
224 271 326 0
154 -269 -299 0
1 -115 -308 0
143 -162 331 0
-15 -127 281 0
-12 100 -256 0
-117 218 -342 0
-18 -174 216 0
4 150 -259 0
100 -103 160 0
-56 136 152 0
214 249 -341 0
13 -28 110 0
-31 -95 202 0
41 85 -169 0
-17 -160 -341 0
56 87 -227 0
42 180 -216 0
159 183 -222 0
-101 191 -278 0
-16 187 -243 0
-18 21 193 0
-33 -100 -132 0
-23 -172 -316 0
2 153 305 0
-55 -239 -244 0
68 253 -255 0
-78 -121 -311 0
41 -186 306 0
34 -127 -209 0
54 -83 219 0
-50 -107 216 0
-69 120 214 0
-144 -151 -291 0
102 134 225 0
79 -121 145 0
126 129 -203 0
-3 19 -53 0
21 151 192 0
98 299 -308 0
-92 230 263 0
-306 318 327 0
73 175 -189 0
20 307 -334 0
191 -210 348 0
-17 105 -254 0
52 203 340 0
-139 -204 -210 0
-27 -160 -291 0
10 -187 -330 0
4 -105 223 0
-47 -208 296 0
8 -27 67 0
190 294 -319 0
83 146 267 0
-102 197 252 0
-28 162 248 0
-114 318 -328 0
94 -112 290 0
64 184 197 0
22 -288 345 0
-200 -234 -307 0
-128 -218 -299 0
92 225 -258 0
-121 229 -239 0
35 -55 -205 0
47 188 227 0
43 161 -262 0
14 70 335 0
68 148 252 0
130 -180 -313 0
-74 131 -234 0
-122 -260 316 0
94 -102 -207 0
87 136 -193 0
232 -267 -285 0
-136 191 -193 0
42 170 227 0
-130 -152 265 0
-18 -77 -114 0
25 -187 263 0
24 314 335 0
156 -182 291 0
155 212 -299 0
82 244 320 0
50 77 -231 0
6 -136 -206 0
253 266 309 0
23 -32 273 0
30 82 122 0
-73 103 -212 0
33 -154 321 0
193 -224 239 0
54 116 134 0
-27 -135 -172 0
112 152 329 0
104 -121 134 0
169 -200 -308 0
4 -242 272 0
-109 158 293 0
14 17 75 0
15 73 177 0
22 325 330 0
103 -187 303 0
105 106 127 0
-45 -324 325 0
51 -68 -331 0
134 -173 -217 0
-25 -145 -189 0
16 -212 317 0
25 178 -241 0
1 -88 224 0
3 -179 252 0
-178 254 -304 0
110 119 256 0
-54 -252 288 0
-45 203 -206 0
-106 135 -156 0
120 236 -323 0
168 -268 -298 0
-87 225 238 0
172 237 -330 0
80 155 -317 0
179 268 -309 0
53 97 133 0
-76 -78 -197 0
56 -101 141 0
18 -199 -238 0
-114 -257 324 0
-73 132 310 0
-221 294 301 0
93 -329 -348 0
134 -161 322 0
-81 -205 -323 0
-11 234 -319 0
6 200 -251 0
83 -112 279 0
234 -278 295 0
-190 -268 -328 0
95 -108 201 0
-130 141 196 0
-39 -215 216 0
115 -156 -206 0
67 85 -109 0
116 -288 -329 0
151 -240 -281 0
-118 -137 193 0
-2 144 -247 0
-165 246 -249 0
79 156 -198 0
72 177 272 0
-37 151 336 0
-96 120 232 0
86 -207 274 0
110 -254 272 0
-61 136 285 0
243 -253 -286 0
-74 127 252 0
-83 -165 -240 0
192 215 -219 0
15 326 -332 0
-49 248 262 0
110 -213 321 0
-175 188 -338 0
-176 217 -223 0
-150 -182 -253 0
-105 177 -260 0
99 154 163 0
205 -208 -284 0
4 -24 56 0
-257 279 314 0
-21 109 342 0
-19 93 340 0
-72 -159 189 0
18 -164 216 0
255 268 -291 0
208 229 -295 0
304 -305 -338 0
-43 53 281 0
8 219 321 0
46 -63 112 0
-125 142 292 0
-44 -75 -188 0
27 131 343 0
8 -317 -334 0
-85 160 -308 0
-189 225 295 0
60 -186 -331 0
-140 -198 -232 0
-32 319 334 0
-159 300 -308 0
193 -199 -309 0
-1 -135 165 0
22 148 -301 0
178 -256 -281 0
103 -120 -159 0
106 -131 -301 0
-45 275 277 0
-204 -267 -297 0
104 260 302 0
-48 -93 -149 0
77 -127 -265 0
-55 191 324 0
-16 -162 306 0
-18 49 -105 0
-50 144 -219 0
20 -103 174 0
-15 -18 -27 0
-33 307 328 0
132 164 -290 0
-82 94 230 0
-20 89 132 0
-25 133 263 0
3 -75 -163 0
-54 -242 -335 0
-64 -192 200 0
74 -123 226 0
19 -81 113 0
50 198 -229 0
-120 166 -174 0
74 114 -170 0
75 -225 -284 0
80 -127 -211 0
-86 134 -172 0
59 234 248 0
147 -245 287 0
134 187 222 0
149 200 -213 0
-9 -74 328 0
-1 227 -270 0
21 -210 223 0
71 93 268 0
-41 -45 308 0
71 -106 314 0
-6 34 -267 0
-145 172 328 0
-69 210 245 0
19 -188 289 0
183 229 -267 0
126 -165 196 0
229 254 263 0
46 115 125 0
129 160 285 0
-10 100 -134 0
49 53 -180 0
-64 239 253 0
63 71 208 0
-237 294 343 0
200 -216 326 0
174 -186 -206 0
165 -206 289 0
-128 181 -349 0
56 -96 -272 0
103 259 343 0
204 216 233 0
-137 318 329 0
63 -129 267 0
-21 -58 148 0
-31 62 -305 0
-76 274 303 0
-151 -209 296 0
-45 148 -280 0
-104 -188 -281 0
16 -159 241 0
-97 -263 280 0
-84 -123 -181 0
-111 139 146 0
-35 -82 283 0
-199 226 265 0
-80 -214 347 0
-104 316 -346 0
138 -323 324 0
3 -211 -282 0
-77 214 -293 0
-148 -232 -235 0
-201 -270 285 0
-195 228 -256 0
-75 224 295 0
166 -170 312 0
6 -14 -219 0
-154 -160 -275 0
-21 -184 238 0
35 269 -347 0
192 206 -257 0
-206 226 250 0
163 -186 188 0
-57 -151 336 0
149 262 -269 0
31 -94 323 0
-2 6 -211 0
51 204 301 0
-90 255 284 0
63 211 309 0
15 -39 -52 0
32 -221 314 0
122 142 -182 0
51 -299 322 0
198 231 320 0
-23 203 299 0
23 115 -128 0
-4 -156 -234 0
-35 125 -347 0
159 205 249 0
-88 89 184 0
-149 203 -288 0
-172 198 274 0
180 -217 284 0
146 -177 240 0
-13 143 341 0
-48 67 -101 0
-82 -123 240 0
193 -208 -323 0
-105 117 -259 0
-226 301 -306 0
109 262 312 0
139 198 -278 0
8 45 -200 0
56 -97 -340 0
34 99 -160 0
-65 -145 -205 0
68 142 -322 0
-180 340 -348 0
128 181 -206 0
59 139 -312 0
-21 83 -312 0
-21 80 195 0
-255 -267 -292 0
-1 58 336 0
57 -126 349 0
-45 177 -214 0
-47 -179 -270 0
-258 321 322 0
220 -263 345 0
23 134 287 0
128 134 -279 0
48 -178 211 0
-70 250 344 0
4 -228 -264 0
69 -73 301 0
87 -218 -281 0
59 -106 -149 0
-23 -31 106 0
57 159 -230 0
-228 -240 292 0
24 -37 -286 0
-43 170 -289 0
-98 223 -251 0
-47 147 330 0
-13 15 -71 0
96 189 -327 0
168 -195 -316 0
-70 -118 189 0
-22 30 55 0
217 -254 256 0
73 -84 -117 0
-21 46 226 0
-2 17 -191 0
-29 -37 339 0
5 225 -342 0
-3 152 -227 0
-44 -166 278 0
206 312 -318 0
-153 -312 -338 0
-71 -332 337 0
-97 114 348 0
-191 -297 339 0
-203 226 290 0
93 104 -281 0
-49 -97 333 0
116 235 -284 0
38 226 348 0
201 236 -279 0
48 -71 192 0
22 25 -191 0
-62 70 154 0
59 -182 -289 0
6 131 -349 0
-183 263 -269 0
-52 183 282 0
-125 131 -346 0
11 226 -298 0
38 57 -133 0
-74 -195 -343 0
8 -13 -176 0
17 -19 -39 0
82 202 -230 0
-111 169 271 0
-87 -109 -185 0
161 -182 -199 0
11 -117 171 0
75 -324 -344 0
-33 -140 257 0
18 -49 288 0
122 145 -186 0
175 -186 -261 0
-31 -172 -173 0
121 125 179 0
-4 -233 -344 0
87 155 -292 0
-130 158 293 0
41 -299 -300 0
183 -220 -240 0
90 132 -142 0
11 -112 -122 0
103 145 309 0
30 67 308 0
70 175 -295 0
-8 275 329 0
-14 -165 -168 0
30 90 -213 0
-205 -254 307 0
-14 163 -289 0
81 169 315 0
74 -108 -272 0
177 -217 276 0
133 -245 -317 0
-143 186 -287 0
5 -244 286 0
117 206 322 0
31 63 -279 0
77 188 311 0
-125 180 -227 0
-109 200 236 0
-8 -34 338 0
-117 -193 289 0
-11 -16 129 0
-105 -119 -182 0
111 -153 -256 0
70 -145 154 0
-83 -128 249 0
-27 108 -297 0
-72 94 223 0
-5 69 -78 0
-50 87 -238 0
-174 -329 341 0
104 121 300 0
-119 259 305 0
25 34 -163 0
70 220 270 0
76 -277 -325 0
40 111 -179 0
-8 91 136 0
-25 -101 -261 0
-6 -22 -167 0
-138 -205 -211 0
-78 -197 199 0
-3 -123 326 0
60 102 340 0
-167 -208 -286 0
-1 -243 -296 0
-121 194 -323 0
-137 270 314 0
-135 -136 -314 0
73 -114 293 0
87 188 271 0
91 -236 -339 0
-63 186 -220 0
-53 -187 -193 0
-46 -141 -340 0
-58 231 325 0
-4 -67 349 0
-190 -268 -319 0
10 -103 285 0
-92 -157 -303 0
124 -136 225 0
-66 -104 217 0
188 -193 -227 0
-221 -312 332 0
67 -198 297 0
105 169 -341 0
-195 -202 270 0
-56 -289 -304 0
91 -213 -243 0
70 252 263 0
-21 -206 -278 0
47 61 236 0
46 -53 255 0
-103 172 -349 0
72 209 -299 0
98 172 -266 0
-45 -135 -267 0
-153 -285 340 0
-128 -156 -158 0
68 104 -157 0
238 -251 -337 0
103 -234 285 0
-35 210 -273 0
113 150 -225 0
105 208 228 0
64 223 328 0
93 255 -306 0
114 151 346 0
-52 106 265 0
26 -47 -213 0
30 80 218 0
-120 151 -229 0
133 167 281 0
-17 168 -201 0
115 280 -336 0
-77 -95 221 0
20 63 -181 0
-10 179 251 0
144 156 249 0
-117 139 241 0
1 -100 177 0
-89 -171 180 0
92 -169 187 0
49 233 -287 0
18 19 -237 0
-68 213 -332 0
84 185 -340 0
-3 246 -331 0
49 55 -123 0
139 -275 -278 0
84 -126 -292 0
102 146 207 0
123 257 274 0
28 251 293 0
79 -88 -136 0
-57 266 320 0
112 297 340 0
-38 126 307 0
-90 -111 317 0
94 -237 -304 0
17 46 209 0
72 78 177 0
-2 35 -170 0
36 169 270 0
-48 188 -211 0
-70 -255 345 0
239 -303 -349 0
154 263 -328 0
-102 119 -123 0
-26 -201 -295 0
-45 -117 -208 0
3 154 -251 0
-211 -215 310 0
110 -172 -280 0
-17 -239 318 0
-96 139 227 0
111 -322 350 0
139 -171 200 0
-115 -180 -313 0
164 260 -311 0
1 5 270 0
-233 -290 337 0
-264 283 -342 0
-39 -214 -342 0
-152 157 -186 0
10 187 -253 0
160 -230 263 0
71 -167 248 0
97 -296 301 0
144 -302 329 0
209 -216 -281 0
143 -166 185 0
72 178 273 0
-88 158 -267 0
-96 -185 -197 0
-102 -165 318 0
-134 -186 -349 0
58 -137 -242 0
82 162 -327 0
-241 275 -339 0
-186 201 -203 0
-7 -22 -231 0
36 -125 136 0
85 158 -331 0
-175 -202 -205 0
-74 -96 180 0
110 -174 350 0
2 -258 -294 0
110 141 294 0
123 -257 344 0
148 -196 -333 0
-35 309 310 0
49 -159 185 0
-37 63 265 0
-72 -235 323 0
229 285 -303 0
-57 -115 -248 0
118 272 -292 0
16 275 296 0
-138 218 -259 0
-46 -58 -300 0
-29 -116 -342 0
37 -245 -329 0
233 -317 350 0
-58 85 207 0
9 225 -265 0
104 152 287 0
106 -182 -214 0
-84 -290 -322 0
-23 -54 90 0
53 176 -233 0
-43 -242 -249 0
-56 -66 271 0
129 182 -337 0
197 -224 266 0
7 -57 71 0
5 45 238 0
-166 -174 320 0
-4 -105 125 0
51 -65 -303 0
-293 300 326 0
87 -205 -241 0
-61 -73 311 0
-3 118 123 0
49 103 -125 0
25 124 -206 0
-22 79 -135 0
50 54 -96 0
55 196 262 0
44 285 -332 0
204 235 344 0
96 235 260 0
57 -220 344 0
45 -52 -123 0
152 -155 -159 0
4 41 99 0
-110 -307 -350 0
295 313 333 0
16 -31 344 0
-93 -151 317 0
130 -154 -179 0
49 -84 -227 0
-7 128 -141 0
-119 183 279 0
41 176 273 0
-161 -218 322 0
63 235 276 0
276 -333 340 0
-109 112 -332 0
-61 91 -221 0
-128 175 201 0
108 133 329 0
40 156 201 0
38 39 -186 0
-141 262 332 0
-131 156 -203 0
-49 176 236 0
55 -116 -199 0
6 143 320 0
-81 -338 339 0
24 74 -247 0
46 131 334 0
8 -138 -152 0
-71 -91 -278 0
86 188 268 0
16 147 195 0
-124 -188 197 0
-26 -51 340 0
-16 -145 242 0
-57 236 -285 0
61 246 -249 0
32 61 -226 0
185 -228 241 0
-37 114 -261 0
31 57 222 0
109 162 -262 0
136 236 -240 0
51 -163 -324 0
-35 -62 244 0
6 -261 322 0
-120 276 -332 0
75 -165 199 0
-9 117 -307 0
-19 112 147 0
156 161 -299 0
13 -85 -348 0
-34 -120 245 0
-99 111 -319 0
-116 139 -234 0
91 -176 212 0
-1 -80 -123 0
198 -281 288 0
-62 141 288 0
-70 268 298 0
86 -120 -217 0
130 292 -339 0
-27 49 209 0
37 148 -149 0
-38 193 -272 0
-125 256 -337 0
-39 130 -304 0
-122 -211 330 0
-30 320 -350 0
-5 228 -244 0
120 167 -221 0
-69 -120 -206 0
187 254 340 0
19 -58 -137 0
-40 -241 -331 0
162 -177 224 0
-83 202 -347 0
105 282 -329 0
131 155 -333 0
24 302 -341 0
15 140 288 0
3 44 128 0
10 122 136 0
-46 -77 102 0
-164 -179 -268 0
29 -133 171 0
33 -47 136 0
-169 175 257 0
27 -287 -310 0
-9 118 -152 0
34 49 -301 0
119 -240 -319 0
7 71 -99 0
-124 -133 257 0
13 -16 118 0
233 315 328 0
134 160 340 0
-116 -174 -238 0
-29 157 -268 0
26 167 264 0
126 237 -323 0
-62 -260 -267 0
39 -55 -338 0
35 -130 -248 0
-191 -215 245 0
-45 54 234 0
-33 67 -286 0
-36 -337 339 0
49 75 -202 0
70 272 -344 0
-84 273 310 0
-89 -199 219 0
125 235 -283 0
116 -198 -243 0
67 -104 202 0
127 -174 -263 0
-77 165 -316 0
-97 338 350 0
119 -177 295 0
-20 -117 -168 0
-155 -192 -317 0
57 -117 146 0
27 -88 -330 0
-167 -259 -336 0
-69 123 -277 0
72 -89 -164 0
-110 -237 241 0
-33 52 61 0
37 -117 190 0
-102 -237 -328 0
-159 -194 -327 0
160 181 -294 0
7 214 229 0
186 278 -338 0
222 292 -303 0
-48 -95 269 0
30 -114 -310 0
81 -195 327 0
155 -168 169 0
-74 310 343 0
9 -283 333 0
29 107 -259 0
80 110 -287 0
-16 -70 218 0
-111 216 263 0
3 -85 175 0
90 119 265 0
-111 -237 305 0
1 227 -251 0
73 164 -236 0
102 126 -210 0
-183 -224 317 0
112 229 326 0
-64 162 -302 0
-226 -246 -304 0
-102 242 266 0
-38 120 -181 0
-52 -182 -218 0
78 239 -331 0
-182 -261 -323 0
81 284 -335 0
168 -205 348 0
207 -282 283 0
-14 -70 -316 0
141 -187 -254 0
-60 -245 -328 0
-290 312 -313 0
35 -186 -199 0
-83 148 254 0
31 99 -108 0
-30 -113 117 0
55 74 -283 0
-21 -99 255 0
92 -306 323 0
29 44 83 0
87 -168 323 0
-55 93 -102 0
-62 -167 -223 0
120 229 248 0
78 -93 180 0
226 -281 -295 0
-12 -308 325 0
25 -265 288 0
81 197 -331 0
-97 -213 -343 0
246 -297 -315 0
98 -109 -138 0
-135 287 -329 0
43 141 -252 0
-43 -213 294 0
45 -69 -302 0
-59 -223 311 0
189 230 -333 0
-34 -110 -154 0
-106 -257 -261 0
-163 206 330 0
75 152 -348 0
-128 193 -327 0
14 45 245 0
238 -241 -308 0
70 95 -312 0
84 -85 173 0
32 129 -133 0
-33 197 323 0
161 -214 241 0
238 -247 335 0
-62 -267 284 0
-71 -241 253 0
-255 284 -302 0
49 189 -195 0
-145 170 -299 0
-15 105 -163 0
-190 -234 323 0
279 -341 343 0
-98 154 310 0
6 108 216 0
-57 122 343 0
298 -342 348 0
-45 144 -219 0
180 273 302 0
53 92 -115 0
-166 -264 300 0
35 -218 306 0
187 220 339 0
-219 273 -320 0
-69 -188 -283 0
73 84 279 0
57 -64 302 0
-212 255 287 0
72 121 217 0
-48 -124 -183 0
22 172 -244 0
20 123 258 0
43 -134 170 0
-38 158 217 0
-89 157 -222 0
-24 85 301 0
30 -146 321 0
-53 98 267 0
-108 -222 343 0
2 -123 240 0
-45 -102 -209 0
-128 137 339 0
206 214 221 0
30 -37 279 0
-196 -258 349 0
-51 -254 343 0
65 243 -302 0
66 224 338 0
39 58 165 0
138 -179 -299 0
-83 142 225 0
-47 68 279 0
60 -134 338 0
2 114 -344 0
-44 -157 303 0
-105 -160 266 0
182 -192 262 0
-12 215 258 0
142 -151 -273 0
-128 -244 -265 0
-17 -132 206 0
-157 -184 232 0
107 -185 -335 0
-9 188 -326 0
-17 -185 210 0
173 175 -242 0
-53 -101 190 0
-68 -174 -216 0
79 80 -161 0
32 -144 346 0
-28 89 219 0
62 -192 -261 0
-204 262 -305 0
96 -195 200 0
65 165 171 0
11 -297 346 0
-103 -120 124 0
19 -167 293 0
-109 -122 -226 0
-8 -60 117 0
-125 217 -335 0
-20 -267 -325 0
7 -240 -246 0
117 -307 -320 0
-54 82 -134 0
2 109 237 0
-3 -95 -189 0
-149 179 265 0
253 -262 -271 0
-108 -113 -278 0
-287 -309 315 0
-59 -190 317 0
-59 169 -346 0
-12 114 185 0
-102 -340 -341 0
-89 120 -133 0
15 -30 -193 0
-22 255 346 0
35 -90 331 0
-88 -314 338 0
57 -248 -316 0
103 -155 -348 0
-65 -187 291 0
31 55 335 0
36 91 137 0
45 226 233 0
161 174 -325 0
34 37 191 0
-82 -150 344 0
-105 226 309 0
117 -147 158 0
-196 -238 278 0
113 139 -144 0
24 115 -203 0
-189 -237 262 0
183 206 -320 0
208 255 -337 0
95 242 260 0
-49 -181 -293 0
-63 -247 326 0
-1 -162 224 0
283 289 -308 0
-49 -345 -348 0
97 224 -345 0
-77 89 -261 0
77 143 199 0
83 -244 -301 0
-9 51 103 0
-112 223 276 0
178 -191 332 0
81 -158 330 0
26 31 294 0
44 -130 -131 0
-1 -94 129 0
125 191 212 0
-56 -59 169 0
108 -116 -180 0
-211 274 -334 0
-38 -214 -317 0
-92 141 209 0
111 237 287 0
5 -189 -221 0
-81 99 -324 0
105 -223 326 0
-12 -152 -337 0
-119 267 306 0
-25 41 -344 0
84 157 280 0
13 -154 -189 0
-61 -63 -268 0
-55 197 -228 0
-103 -165 -246 0
-22 -57 301 0
-79 -200 226 0
-88 266 -309 0
63 -122 288 0
-18 -228 315 0
-53 56 -208 0
65 187 243 0
78 114 258 0
37 -266 -310 0
129 -226 301 0
-50 -279 289 0
52 58 -220 0
149 -255 347 0
-145 -234 -300 0
261 327 -329 0
118 -175 -189 0
-127 -158 192 0
132 223 239 0
-8 41 -286 0
-100 -133 316 0
50 154 -334 0
-271 329 333 0
-101 -201 -218 0
-205 292 -338 0
-73 173 263 0
39 -124 -350 0
-171 -236 244 0
91 280 343 0
-109 -272 291 0
74 -80 -269 0
43 -137 155 0
-113 195 -223 0
1 193 -324 0
13 -124 -130 0
259 298 -342 0
-30 110 147 0
-11 303 -322 0
-80 -237 -277 0
-47 -83 98 0
-149 291 -350 0
-20 -53 -260 0
-141 -221 -340 0
163 240 291 0
66 128 347 0
172 -253 -342 0
24 247 324 0
-35 39 229 0
211 -247 259 0
-26 71 -301 0
-157 -252 323 0
-5 259 -331 0
104 114 172 0
-29 -217 251 0
-194 298 -300 0
134 -210 -322 0
-51 54 -252 0
222 259 -307 0
-24 -156 311 0
-127 -180 243 0
152 -309 -322 0
-121 279 -291 0
236 -283 -325 0
-24 274 325 0
31 126 -165 0
-116 122 196 0
-127 -225 265 0
-90 -230 286 0
139 253 271 0
1 -204 -281 0
37 -80 195 0
63 -236 298 0
79 111 158 0
-50 -94 133 0
-95 161 -350 0
129 142 -310 0
11 78 -125 0
4 -157 -166 0
82 227 -277 0
83 93 206 0
47 206 342 0
-27 -233 340 0
16 175 -204 0
-178 233 -273 0
-35 -150 215 0
-110 -167 224 0
-156 247 327 0
-33 -231 -291 0
133 203 254 0
98 -222 -262 0
176 193 -329 0
-80 158 -338 0
-167 -229 240 0
89 -131 328 0
-141 255 -275 0
11 211 240 0
-114 159 -327 0
-191 -296 -339 0
56 -116 200 0
-212 -229 299 0
-123 -303 -321 0
-162 198 -253 0
106 262 289 0
41 153 -178 0
-153 227 276 0
34 89 -342 0
-79 155 271 0
-167 284 336 0
-23 41 -250 0
-143 191 -321 0
93 -96 -240 0
-69 306 335 0
-156 186 345 0
172 -197 285 0
-5 -221 -228 0
-113 119 -294 0
-245 -288 294 0
-6 -16 -295 0
107 -223 333 0
-112 168 -241 0
-71 150 -341 0
252 274 -307 0
12 -176 -204 0
76 -99 -296 0
60 192 -302 0
-129 -212 -264 0
-176 288 348 0
118 -165 -170 0
-13 -176 332 0
71 -140 263 0
176 189 -327 0
-45 -129 -297 0
188 -265 -270 0
135 -288 -319 0
-69 126 169 0
18 101 -127 0
180 192 256 0
218 244 -266 0
-22 44 -141 0
77 263 271 0
65 -156 -193 0
-41 174 -246 0
11 251 252 0
115 -236 308 0
-53 -98 287 0
54 -211 -277 0
-139 -237 242 0
91 97 -251 0
218 298 347 0
23 271 -311 0
-225 -305 339 0
139 -211 290 0
107 108 237 0
-326 341 -346 0
-2 -186 212 0
54 -256 260 0
90 -252 253 0
-143 216 258 0
-60 236 332 0
71 111 -266 0
117 119 -161 0
-18 -48 93 0
155 209 -325 0
-22 86 -241 0
61 108 -226 0
265 267 -332 0
-4 253 302 0
-169 219 -322 0
-123 -266 288 0
-134 191 -219 0
-9 -59 -166 0
-62 90 304 0
8 -78 -290 0
30 166 -345 0
-131 228 241 0
-59 -96 188 0
31 -111 -218 0
52 -67 -316 0
63 -128 -258 0
112 -167 294 0
-34 170 266 0
129 -211 320 0
64 165 -230 0
-77 -275 -317 0
-80 -151 229 0
85 -301 312 0
-89 -110 -171 0
-80 203 -244 0
-91 129 -331 0
-66 -70 140 0
-71 -91 330 0
96 -222 345 0
-56 -109 152 0
144 150 178 0
-12 85 -290 0
-99 -124 251 0
-61 -132 -157 0
-52 -102 -310 0
45 140 313 0
180 -196 -314 0
127 -138 321 0
57 284 296 0
189 -244 -264 0
22 85 -191 0
14 74 309 0
56 -151 156 0
-152 278 338 0
-85 229 230 0
-70 156 -198 0
-45 -190 271 0
275 -284 322 0
-78 165 169 0
-52 -93 216 0
-64 -75 -141 0
-79 234 -334 0
156 -165 263 0
-181 -207 -272 0
-37 71 141 0
21 -221 337 0
211 276 286 0
-53 72 349 0
6 27 -116 0
-77 -81 -273 0
-3 -119 -349 0
18 -187 224 0
-289 307 -339 0
77 -282 -283 0
191 -204 291 0
40 -64 -241 0
-120 134 -336 0
-228 -276 -287 0
-39 112 -221 0
65 217 278 0
114 -124 -175 0
-8 -29 -147 0
154 -294 -306 0
147 206 -238 0
96 -166 316 0
119 -139 190 0
-179 181 -298 0
157 169 170 0
-33 237 302 0
-2 -111 -192 0
14 -130 -274 0
-38 -285 296 0
-13 -178 214 0
26 189 -298 0
49 -174 -305 0
-40 -51 74 0
-92 -141 -273 0
210 287 318 0
275 278 -295 0
-95 -176 -210 0
2 99 350 0
131 227 304 0
164 187 -307 0
122 -124 135 0
39 118 328 0
51 -225 -300 0
-84 -162 244 0
166 195 230 0
232 253 288 0
66 -190 -343 0
-71 -194 242 0
148 238 -282 0
115 191 -306 0
-201 254 258 0
117 170 -177 0
-61 -93 244 0
37 -207 297 0
14 270 -324 0
-108 167 -212 0
-3 104 128 0
8 154 -342 0
-216 225 -269 0
19 -73 -301 0
-137 273 -293 0
10 175 -179 0
3 -214 269 0
-7 62 138 0
-62 114 -203 0
85 291 298 0
-90 -116 -120 0
31 -178 223 0
4 -156 -267 0
-106 119 -231 0
-118 -199 294 0
-47 50 -55 0
25 45 316 0
65 -271 -318 0
123 -138 -177 0
-89 136 -230 0
-112 -117 -277 0
1 278 333 0
114 328 337 0
-4 -83 -254 0
-2 106 -248 0
-70 -135 -213 0
-10 -76 259 0
-42 -120 333 0
-63 70 248 0
95 -164 317 0
-9 101 337 0
88 178 -228 0
-102 134 -143 0
-120 130 -196 0
84 -95 272 0
327 328 -339 0
87 106 274 0
-40 -201 241 0
33 113 303 0
290 295 -308 0
-124 -216 -302 0
217 287 -290 0
-85 -105 111 0
114 -221 -241 0
-138 -155 -212 0
-23 229 -255 0
-84 158 -273 0
37 -39 -248 0
-179 -245 -257 0
69 235 -317 0
-77 -145 -181 0
3 253 310 0
-116 -189 205 0
225 289 -300 0
19 -74 -274 0
-214 -251 -330 0
104 142 -265 0
92 139 -250 0
-39 213 259 0
52 -183 253 0
132 -189 245 0
-26 84 104 0
137 240 -246 0
-121 135 -261 0
26 129 305 0
-263 299 -316 0
-5 -73 -108 0
27 163 -238 0
-80 131 231 0
-111 127 260 0
-161 166 234 0
79 -144 207 0
34 43 217 0
-25 117 121 0
182 199 267 0
-51 -261 -277 0
45 -48 168 0
-27 121 -173 0
-64 181 -321 0
61 110 111 0
6 -40 -320 0
-49 58 108 0
-93 101 311 0
52 92 114 0
-129 -148 -194 0
17 -123 298 0
-189 -223 -348 0
-27 -93 299 0
-11 -77 -260 0
-48 240 -323 0
15 -67 -262 0
-123 169 -183 0
-127 191 348 0
-14 -154 -348 0
-83 -153 350 0
46 236 349 0
-17 -132 -265 0
216 -241 -284 0
-17 -28 238 0
102 165 -182 0
83 -128 184 0
192 196 306 0
197 232 267 0
64 177 348 0
-45 -138 -331 0
-74 94 346 0
-33 286 -317 0
-77 94 170 0
-39 -54 -73 0
42 -89 -165 0
131 -154 -340 0
158 216 277 0
-152 187 -248 0
-31 137 245 0
-49 77 -249 0
107 247 -341 0
-66 159 -340 0
66 -197 -253 0
21 -132 261 0
-124 145 251 0
-137 310 -335 0
-6 190 -211 0
-223 251 280 0
38 -75 -184 0
-32 115 -344 0
142 264 310 0
39 -149 184 0
27 142 187 0
-159 -200 -218 0
5 -109 286 0
-97 187 257 0
107 -296 326 0
-67 70 -190 0
286 -323 343 0
-103 -167 247 0
-27 32 238 0
184 188 -199 0
-236 -281 284 0
75 -106 -272 0
23 31 209 0
134 -216 -258 0
-168 207 215 0
68 -180 281 0
178 -187 -347 0
110 -163 -275 0
-170 211 -326 0
-182 -286 299 0
58 -152 247 0
-94 314 339 0
94 -126 238 0
-38 -253 346 0
187 192 244 0
-33 -192 -205 0
11 66 -108 0
86 222 234 0
-147 -192 -316 0
71 -218 -298 0
-63 -104 -144 0
22 -39 108 0
41 -80 250 0
100 157 263 0
17 -71 -325 0
-58 -243 264 0
216 -259 -283 0
-23 96 146 0
18 69 -277 0
12 -85 114 0
7 210 -251 0
-43 63 -111 0
22 -113 -234 0
-43 -219 317 0
189 -204 -257 0
-32 61 -75 0
-233 -299 -319 0
277 319 336 0
124 238 310 0
19 116 -303 0
211 -306 347 0
214 -237 277 0
58 -227 -322 0
50 191 -313 0
104 -240 246 0
106 -172 -313 0
155 -201 -255 0
-115 -223 -248 0
-7 -110 179 0
33 -48 106 0
47 -74 -265 0
90 -157 341 0
57 58 -306 0
159 282 -316 0
44 -78 95 0
145 -240 262 0
-136 193 317 0
83 -87 -245 0
20 67 287 0
-29 83 100 0
109 -161 184 0
-58 178 228 0
34 121 254 0
64 -113 165 0
-35 167 -189 0
147 -181 -260 0
72 116 -154 0
-4 -43 169 0
-80 -133 262 0
-83 119 -239 0
5 -137 -284 0
-149 261 344 0
-67 156 -255 0
11 37 131 0
166 -202 -239 0
261 -266 -276 0
82 142 174 0
152 -224 -228 0
-32 -40 147 0
-17 153 -306 0
-191 -223 264 0
-3 -45 57 0
40 -128 287 0
22 -44 298 0
66 167 225 0
41 124 244 0
-69 231 -342 0
162 -278 -295 0
-150 -159 337 0
94 -260 -302 0
33 -183 -345 0
-204 -294 312 0
-228 -276 -302 0
58 95 326 0
-9 -185 -275 0
35 128 -256 0
243 289 -350 0
47 63 -71 0
-122 314 -334 0
24 -42 242 0
24 -65 300 0
-152 342 -345 0
109 198 -245 0
-107 -264 -318 0
-110 112 -265 0
77 267 -340 0
4 235 -261 0
-62 -133 -211 0
-111 151 -252 0
-191 257 -275 0
-57 193 -268 0
-213 -225 -308 0
-201 213 -258 0
4 -29 -72 0
-91 244 -341 0
116 -127 -163 0
-13 108 -151 0
1 75 335 0
42 146 217 0
81 93 128 0
42 109 283 0
45 79 147 0
-45 196 319 0
147 173 279 0
65 -260 -282 0
59 80 -109 0
82 132 -276 0
-22 -243 328 0
84 -185 -290 0
-17 -97 251 0
16 -172 202 0
115 234 348 0
51 -199 232 0
16 -58 -178 0
75 283 340 0
-47 -98 -136 0
-46 206 328 0
163 -274 -321 0
40 -43 343 0
-75 91 -113 0
-93 196 286 0
12 32 215 0
-59 154 295 0
57 -99 267 0
-48 246 297 0
39 -41 302 0
-124 -264 277 0
-132 -240 -310 0
29 -202 289 0
-55 -205 260 0
30 103 196 0
-90 -99 291 0
-11 47 -51 0
-15 -18 97 0
-6 -7 43 0
-111 179 -291 0
-215 226 345 0
39 -144 -292 0
-248 -282 289 0
3 160 -289 0
-135 174 -326 0
-75 215 -271 0
-172 212 320 0
68 236 302 0
-70 195 -223 0
112 -117 303 0
-54 -280 -299 0
-6 -181 209 0
-93 -118 -175 0
61 215 -256 0
-60 -233 326 0
54 183 -266 0
-99 140 245 0
-137 162 173 0
-46 159 348 0
127 -293 -346 0
-63 93 -112 0
67 -295 299 0
13 -34 242 0
-98 131 156 0
3 -162 343 0
-72 91 317 0
-100 -130 -343 0
53 141 175 0
31 184 306 0
-149 232 290 0
-58 -136 -287 0
-184 -317 -345 0
-118 184 -222 0
111 153 343 0
-80 142 -169 0
72 -251 -333 0
194 -334 337 0
31 -286 -324 0
9 67 -73 0
-87 117 -268 0
19 -249 -312 0
119 -276 329 0
-61 -79 -164 0
29 -114 269 0
-176 -293 -311 0
8 -190 -350 0
-139 -147 202 0
118 176 -258 0
14 -137 198 0
163 236 301 0
76 173 -333 0
-70 -139 290 0
142 -319 -343 0
-159 198 276 0
252 -315 333 0
-229 -233 301 0
-110 118 -237 0
-139 -201 -318 0
-24 37 -296 0
-67 116 -188 0
146 300 346 0
-58 159 224 0
-119 187 -222 0
68 242 -330 0
72 78 -86 0
-12 -56 154 0
-48 -150 -318 0
114 187 -202 0
-227 241 -304 0
-49 -114 -206 0
-73 192 273 0
-159 176 270 0
-20 158 -235 0
-5 174 345 0
245 -288 -291 0
-161 -244 -292 0
-108 193 300 0
180 -196 222 0
-110 186 -293 0
61 216 317 0
-237 -256 -311 0
220 250 321 0
-22 -196 316 0
190 -253 300 0
