c F2 random 3-CNF cnfgen RandomKCNF(3,200,1000,seed=9) m/n=5.0
p cnf 200 1000
-96 119 157 0
-2 87 -174 0
142 -158 180 0
-116 181 186 0
14 29 -61 0
27 75 -192 0
23 -69 -198 0
12 -52 88 0
36 97 -126 0
29 153 189 0
3 52 85 0
-22 129 -147 0
18 50 102 0
11 -156 185 0
69 189 -191 0
42 -61 157 0
-29 -89 150 0
51 -103 -148 0
1 29 -111 0
-23 -70 84 0
-7 -15 -133 0
89 182 -200 0
-25 -60 -166 0
36 -75 171 0
13 45 68 0
-4 13 -16 0
-4 -76 157 0
72 124 -144 0
-17 -31 179 0
-144 181 -196 0
-153 -156 198 0
13 71 136 0
42 57 200 0
-117 122 152 0
-124 141 152 0
-112 149 -150 0
17 58 186 0
117 -126 180 0
-8 155 -174 0
-60 96 187 0
22 -153 -160 0
18 21 151 0
-8 -17 -22 0
7 -181 199 0
-3 83 -119 0
-28 36 -123 0
34 50 200 0
14 -20 31 0
7 -120 190 0
2 61 -66 0
6 -65 157 0
65 81 -122 0
10 -34 -77 0
2 -25 -78 0
-64 -107 -155 0
54 -103 -111 0
-119 -120 -157 0
48 -85 103 0
44 82 140 0
94 169 -183 0
-115 154 -156 0
-5 -20 172 0
83 -187 196 0
53 73 137 0
11 -24 81 0
-25 -131 -178 0
-35 -130 -151 0
52 83 99 0
3 -79 -176 0
-134 174 -194 0
-37 -73 133 0
-38 46 -85 0
7 89 -149 0
35 -54 88 0
-52 132 176 0
-91 -184 199 0
-96 103 119 0
-22 -43 151 0
121 135 -197 0
45 58 172 0
73 -87 -169 0
-10 20 -102 0
-11 119 178 0
-52 148 -183 0
-9 -36 -102 0
47 -171 -192 0
-65 96 157 0
-16 -166 190 0
-4 51 -53 0
58 76 -80 0
-70 -95 164 0
8 142 175 0
-5 -13 -54 0
91 143 -198 0
46 110 182 0
-108 131 -147 0
-132 133 186 0
-71 -81 -140 0
109 112 -137 0
169 -175 -187 0
94 -96 116 0
-17 -31 -166 0
5 -80 -112 0
50 121 150 0
3 75 182 0
-27 -113 157 0
-19 135 -170 0
-47 -51 -79 0
-130 -165 193 0
-137 152 163 0
-105 194 -200 0
42 -137 -151 0
30 -128 -138 0
-21 150 -180 0
-2 -85 -131 0
-42 -45 -198 0
-21 84 -123 0
-16 -77 156 0
-60 -79 -106 0
11 116 131 0
18 -21 147 0
75 -124 200 0
23 41 69 0
-65 96 162 0
173 -178 182 0
-105 -171 183 0
-23 -104 179 0
48 -187 190 0
32 -117 -128 0
35 -86 140 0
92 140 161 0
-1 -93 145 0
115 -140 -174 0
88 -150 176 0
53 -69 76 0
7 61 145 0
-19 157 -161 0
-177 -183 184 0
39 72 107 0
67 -123 136 0
-146 149 166 0
59 -123 -144 0
-43 51 174 0
-3 22 -50 0
6 175 -183 0
78 -140 165 0
53 132 173 0
-10 56 -82 0
-26 -92 152 0
11 15 -94 0
5 68 179 0
14 -110 149 0
-34 -37 -50 0
-115 154 187 0
70 -114 121 0
-37 41 -115 0
-48 -96 191 0
9 -35 172 0
66 -67 -132 0
55 -102 -106 0
81 91 132 0
12 -13 -86 0
93 -162 183 0
-114 187 195 0
68 117 -199 0
-14 54 -102 0
15 -104 168 0
76 89 -133 0
41 -47 -106 0
76 -92 -102 0
-5 124 168 0
-32 91 -98 0
108 -124 -170 0
63 -94 145 0
-80 -109 152 0
-53 -100 -130 0
47 88 140 0
52 87 115 0
-61 89 174 0
32 76 129 0
-54 60 129 0
26 -79 99 0
58 -115 -129 0
13 -72 -194 0
21 164 168 0
44 -57 -80 0
27 99 -117 0
4 139 173 0
-13 28 -159 0
12 14 -30 0
-56 155 190 0
14 -44 61 0
7 -142 -196 0
-7 22 112 0
-4 -23 65 0
19 99 -190 0
32 41 197 0
63 160 -169 0
20 50 -121 0
-78 -86 -181 0
24 -89 -178 0
48 -77 175 0
-117 127 132 0
-20 68 185 0
26 -97 138 0
62 156 193 0
-55 118 197 0
-76 146 198 0
-12 -17 -182 0
-95 -139 -150 0
143 -187 -199 0
-38 51 168 0
41 166 -181 0
38 -58 70 0
39 -110 184 0
3 13 -138 0
9 116 145 0
27 -77 -160 0
-3 19 -174 0
49 -63 97 0
-89 -115 -126 0
104 -185 -198 0
38 -108 -147 0
9 -25 -102 0
5 71 -147 0
-2 134 168 0
-63 -112 193 0
-34 -64 -176 0
19 -58 -172 0
-104 -128 -162 0
115 -164 -173 0
-10 18 47 0
-112 130 -173 0
31 -49 101 0
12 87 -171 0
-139 -170 -192 0
-53 -147 162 0
115 137 -165 0
-47 96 119 0
28 -108 -144 0
11 -82 -179 0
17 -85 168 0
10 -78 -105 0
-8 -50 62 0
-103 -131 200 0
-63 161 -171 0
-129 -181 192 0
23 -170 -173 0
100 101 129 0
-27 -78 -100 0
9 -147 150 0
39 73 -148 0
8 106 122 0
70 80 188 0
-3 140 -180 0
57 -109 -159 0
13 16 -73 0
-14 -64 154 0
-31 -46 -192 0
-132 139 191 0
-34 91 124 0
-93 -154 180 0
-20 -26 -61 0
45 114 148 0
15 -121 -142 0
-71 123 -200 0
63 71 -150 0
4 80 -178 0
-61 -165 197 0
-37 -46 -149 0
-41 -122 196 0
-108 -121 -194 0
58 -89 -195 0
-93 178 196 0
-117 140 187 0
70 158 168 0
23 100 197 0
51 85 132 0
97 -174 185 0
46 103 138 0
-70 91 -165 0
-128 144 -195 0
5 -105 -161 0
139 146 157 0
-10 69 134 0
-10 57 195 0
20 60 166 0
-59 66 101 0
-4 -79 -133 0
-23 -29 -163 0
59 -123 166 0
-8 -69 -185 0
-22 -57 -194 0
-36 -56 183 0
-4 80 -127 0
-81 144 -177 0
88 -132 180 0
25 49 134 0
80 138 -180 0
80 117 -132 0
-49 91 123 0
9 64 -130 0
-99 -113 147 0
60 72 177 0
65 123 188 0
-5 -135 -162 0
-35 -52 -168 0
72 -94 186 0
-87 -99 102 0
75 -92 126 0
44 -53 -117 0
9 79 108 0
45 -91 -178 0
92 -124 151 0
-102 -113 165 0
-98 -136 -180 0
-21 70 -157 0
123 124 143 0
-59 60 -79 0
71 108 119 0
33 -80 141 0
-11 136 -195 0
43 -106 118 0
-41 -97 157 0
83 -120 -122 0
30 -46 78 0
100 153 165 0
-9 76 96 0
-98 -108 -145 0
119 174 -196 0
33 137 -198 0
33 -103 -178 0
-120 128 -147 0
90 92 -95 0
116 -179 -190 0
20 83 185 0
67 169 -174 0
-19 -181 185 0
-107 148 193 0
-33 131 -181 0
-65 -164 -189 0
14 143 152 0
55 -87 122 0
-18 -23 -129 0
49 -57 -127 0
-35 -47 72 0
-115 119 189 0
-29 -149 -151 0
15 -67 -101 0
-78 -104 -105 0
95 -129 -176 0
-16 161 170 0
22 34 -155 0
-67 -91 -125 0
127 -183 -196 0
-145 -150 186 0
31 62 -162 0
80 85 -157 0
-16 -78 115 0
-24 -63 173 0
3 15 -170 0
6 -159 181 0
94 -187 188 0
-53 -132 162 0
-4 38 146 0
-18 -113 -189 0
-11 -77 94 0
59 -93 -135 0
9 -76 120 0
2 -124 -172 0
51 70 137 0
-6 103 -117 0
146 151 -200 0
33 77 105 0
-26 157 -167 0
-134 -140 -169 0
67 -134 -146 0
2 -47 166 0
-112 -175 -183 0
143 -171 -190 0
12 -120 -131 0
25 -48 191 0
106 -111 195 0
60 -65 153 0
-12 -25 183 0
-6 137 198 0
-6 42 78 0
76 97 -153 0
80 -89 -120 0
-137 -141 -153 0
21 89 -101 0
24 -85 110 0
-102 -107 172 0
-31 159 169 0
20 54 164 0
-22 110 -184 0
17 32 72 0
79 119 -126 0
-18 -78 -133 0
-146 -156 -177 0
53 87 -113 0
75 -92 188 0
11 -81 -91 0
45 145 198 0
2 18 -75 0
7 -105 114 0
18 -108 -171 0
-68 -106 178 0
6 119 -129 0
-18 -125 199 0
-57 101 113 0
39 148 162 0
25 149 -181 0
-63 73 -128 0
-16 -101 -120 0
-41 132 -147 0
-60 73 -163 0
-36 -135 146 0
145 -171 -192 0
-6 -38 193 0
-6 -18 125 0
86 -120 -165 0
78 108 -182 0
-2 -19 -77 0
-34 45 -74 0
117 -138 -140 0
-21 56 -114 0
7 100 163 0
7 -77 194 0
97 146 151 0
-29 130 191 0
-83 90 -195 0
-51 -65 87 0
-8 -95 -150 0
-30 115 -161 0
3 153 -198 0
-60 -100 181 0
123 143 -156 0
-58 -82 90 0
48 126 -180 0
162 -163 -181 0
-32 -109 -171 0
38 -171 -178 0
61 -116 161 0
5 -142 -190 0
48 70 170 0
9 44 66 0
130 -143 -149 0
18 146 183 0
65 -140 190 0
-85 118 197 0
61 68 172 0
21 -51 190 0
124 125 -144 0
-22 -60 93 0
33 -44 56 0
-109 159 -198 0
-13 116 -199 0
1 100 -117 0
33 -79 139 0
86 -185 200 0
31 80 185 0
23 -155 174 0
-75 129 -153 0
-55 60 113 0
-6 17 -177 0
54 -116 133 0
-26 -36 169 0
-79 -112 -124 0
-68 -129 140 0
-148 156 185 0
78 -83 -157 0
-42 45 83 0
-26 -73 -172 0
74 82 170 0
41 -145 -153 0
-92 -118 143 0
79 -97 -197 0
49 109 157 0
13 -183 -185 0
136 -144 -164 0
-11 -12 -106 0
-108 -191 195 0
7 26 -146 0
55 112 180 0
-32 60 -61 0
6 -88 -184 0
-4 157 192 0
101 -135 -147 0
-17 132 -193 0
-40 71 142 0
-18 96 -115 0
32 60 -114 0
-12 50 -103 0
38 -139 193 0
-38 127 176 0
19 38 -82 0
41 -95 193 0
32 33 125 0
-132 -139 191 0
-6 80 184 0
-12 80 -185 0
-99 107 137 0
3 29 47 0
40 62 -88 0
-12 65 -133 0
117 159 -183 0
-99 107 -160 0
-8 -117 -152 0
-106 -111 113 0
9 62 -131 0
-17 87 -176 0
-37 -145 -175 0
29 -168 -192 0
116 -150 -175 0
-33 -65 86 0
8 -22 152 0
14 -60 63 0
51 -79 -139 0
2 -45 149 0
63 94 114 0
130 -134 -186 0
-94 106 173 0
-83 -127 -158 0
-49 -101 -156 0
-6 79 -124 0
32 130 147 0
59 69 -193 0
113 -174 190 0
-48 163 -195 0
12 -29 151 0
10 -97 -194 0
39 -63 192 0
75 -169 -193 0
-34 -54 134 0
-69 -170 192 0
24 42 49 0
-68 -138 -189 0
2 -145 184 0
-18 -82 -119 0
-73 82 -103 0
-16 55 72 0
10 127 -186 0
-41 59 -161 0
-54 -132 -167 0
50 -91 -199 0
-14 -44 -166 0
21 -143 185 0
-18 144 -163 0
36 161 183 0
10 148 198 0
-22 -27 -198 0
-46 145 164 0
-9 -26 124 0
-42 -57 -69 0
-29 -40 -135 0
50 -65 127 0
-73 -156 -186 0
-47 -49 -121 0
70 92 185 0
-69 -126 151 0
24 78 111 0
-12 144 -161 0
40 -128 -171 0
128 155 172 0
97 122 -130 0
-50 -74 106 0
-96 157 159 0
34 -43 89 0
-46 -47 -85 0
-16 -48 162 0
75 -86 191 0
-20 -21 167 0
15 113 -116 0
119 -143 -183 0
-38 -98 -177 0
-52 -133 176 0
70 -79 -148 0
-77 155 -172 0
-96 106 165 0
-80 -151 194 0
120 126 -166 0
-33 45 -159 0
-12 -157 -178 0
-11 -29 72 0
4 -81 161 0
87 -113 186 0
12 31 126 0
50 59 -85 0
43 -100 160 0
-12 78 108 0
65 84 162 0
61 72 -90 0
1 124 -132 0
69 140 -193 0
11 54 -195 0
45 119 -123 0
26 -49 150 0
56 81 -116 0
9 56 -66 0
1 -13 110 0
60 -88 93 0
64 -82 -140 0
45 -88 194 0
-71 -99 179 0
-103 147 -148 0
53 68 -194 0
-66 -86 -142 0
-73 115 -131 0
-55 143 178 0
51 -69 154 0
126 -163 -178 0
-85 90 -184 0
-20 74 141 0
25 -130 191 0
23 -73 -166 0
18 62 -154 0
-75 -137 199 0
66 70 -123 0
49 -97 137 0
21 105 -112 0
-103 -184 200 0
-9 87 148 0
72 74 -92 0
12 -138 176 0
-8 117 -122 0
23 29 129 0
-46 -99 145 0
33 152 -174 0
83 -111 -120 0
49 -52 116 0
-8 -14 44 0
-110 113 176 0
38 -66 181 0
-140 -161 181 0
26 101 -151 0
-21 -67 188 0
-72 75 169 0
23 60 118 0
43 82 -153 0
106 -134 -162 0
-22 -159 -172 0
-4 91 -172 0
47 145 166 0
-14 87 116 0
-27 -33 -107 0
95 -98 148 0
-57 -71 89 0
-71 -94 -171 0
-40 -72 82 0
11 25 80 0
104 -144 179 0
-65 124 -195 0
111 -166 -192 0
63 -125 149 0
-48 148 176 0
20 -116 -153 0
78 -150 176 0
-15 136 -176 0
50 -71 196 0
145 155 200 0
69 -120 -121 0
34 156 -190 0
-67 146 -179 0
127 -140 174 0
81 -179 183 0
-153 -163 -166 0
-72 -124 -193 0
42 51 -64 0
-54 86 -169 0
20 -58 -77 0
10 47 184 0
56 87 158 0
-155 160 161 0
-2 6 -151 0
132 138 154 0
49 118 155 0
-13 -87 -126 0
40 124 -142 0
-38 -78 -93 0
-14 -47 184 0
65 104 -192 0
14 55 162 0
-106 -135 -194 0
-1 -95 -108 0
34 80 -135 0
-16 99 -183 0
-122 -133 179 0
34 -104 199 0
10 91 117 0
-86 -99 -174 0
-10 -93 143 0
-27 -82 84 0
-149 -171 192 0
96 -128 145 0
11 134 188 0
11 -45 -74 0
54 -116 -163 0
113 -133 182 0
2 81 -172 0
-36 39 151 0
24 -42 -46 0
79 110 -133 0
8 -57 -75 0
-19 -113 134 0
-14 -83 -107 0
50 98 109 0
-66 106 181 0
-5 -114 -167 0
60 -121 138 0
-49 78 102 0
52 127 -140 0
-44 81 -165 0
-33 153 -169 0
-47 -66 -105 0
-8 -12 71 0
54 153 196 0
-36 56 118 0
-32 -58 81 0
-36 45 -169 0
32 104 125 0
-3 16 -113 0
-7 -31 -62 0
103 113 198 0
44 -86 122 0
66 -72 -152 0
-60 94 -138 0
7 -55 -108 0
44 87 100 0
24 -27 37 0
43 -87 -160 0
-5 118 171 0
46 -87 95 0
79 -107 139 0
-12 60 97 0
-38 -152 161 0
-25 182 -199 0
-89 117 -131 0
-90 -119 145 0
-57 -170 179 0
-29 71 -120 0
49 131 192 0
-5 24 -89 0
-84 -95 -155 0
-63 -119 172 0
8 19 -167 0
11 -103 189 0
20 119 121 0
3 53 173 0
47 -113 -196 0
-16 -22 -143 0
52 158 -194 0
-60 134 149 0
69 -94 177 0
18 65 -180 0
-27 38 -138 0
-13 -131 -147 0
-12 41 -158 0
-31 35 41 0
-43 -60 -125 0
5 40 -49 0
-92 -109 -193 0
-16 -36 -115 0
105 157 175 0
-52 175 -199 0
122 154 186 0
-50 -139 148 0
3 28 -169 0
-4 -99 -105 0
9 66 184 0
-76 -104 108 0
43 82 147 0
-31 -93 125 0
-18 -72 -100 0
81 -121 130 0
-67 -70 120 0
97 148 184 0
75 -142 161 0
6 -11 45 0
-41 79 -111 0
23 84 -90 0
-1 77 -142 0
-46 -94 -174 0
38 -97 192 0
10 -41 -167 0
-17 73 90 0
31 47 49 0
119 133 173 0
-43 57 -169 0
50 -69 115 0
100 -107 140 0
-44 83 -97 0
-9 78 192 0
30 -36 -146 0
-101 -102 -149 0
-39 -68 198 0
-10 28 -179 0
127 164 179 0
37 -116 -135 0
45 141 199 0
-70 125 -139 0
159 176 185 0
46 -64 138 0
16 147 -192 0
44 50 -95 0
117 -184 -195 0
22 -40 71 0
64 133 -143 0
32 -34 125 0
-7 -27 -63 0
66 -71 -134 0
65 -122 197 0
34 48 134 0
-93 129 -159 0
-101 151 188 0
30 148 -172 0
-1 -19 -185 0
-60 102 114 0
-14 -20 -171 0
55 109 -150 0
-11 -59 -76 0
-50 -121 -138 0
-2 53 179 0
-76 -85 -124 0
-7 -61 -150 0
-21 132 160 0
-105 -163 -196 0
53 -75 -104 0
40 157 181 0
-19 24 -43 0
-29 -73 113 0
-69 113 -157 0
12 -34 -95 0
47 -95 129 0
-95 97 -153 0
50 101 104 0
84 110 -175 0
-83 -88 134 0
-7 -44 180 0
-43 66 -82 0
-72 110 -171 0
114 -180 188 0
-3 171 -192 0
64 120 -170 0
43 50 -70 0
61 -65 -119 0
101 127 151 0
-119 145 157 0
-46 106 121 0
3 88 186 0
-18 -27 -179 0
-130 -158 192 0
146 -158 175 0
97 -174 186 0
-49 -137 -142 0
9 92 -199 0
-157 195 -196 0
35 55 -141 0
104 136 -154 0
-8 46 -91 0
-60 122 177 0
-95 -105 -121 0
48 140 187 0
11 -65 -119 0
-13 35 -100 0
122 133 169 0
9 -172 200 0
-24 149 -187 0
-56 106 173 0
65 128 -147 0
-100 126 -197 0
-21 67 94 0
31 -100 148 0
-93 107 152 0
-2 41 -80 0
-16 33 -163 0
5 27 -45 0
-29 -149 152 0
14 -138 -180 0
25 123 -175 0
139 -164 179 0
-25 -40 -143 0
31 71 161 0
-83 -97 -172 0
53 -97 137 0
16 -45 -148 0
39 170 -181 0
24 -76 108 0
-72 166 197 0
1 63 91 0
185 -188 -198 0
66 86 -183 0
-79 146 -180 0
81 -91 -149 0
-23 36 117 0
101 -113 -159 0
51 -109 169 0
26 61 -178 0
36 -80 110 0
42 -48 140 0
40 -49 -123 0
14 27 -100 0
138 -153 176 0
92 -151 -177 0
49 168 -188 0
45 97 -165 0
36 39 -70 0
-97 -185 -195 0
-36 -58 71 0
-6 84 108 0
-75 -93 147 0
-103 119 -189 0
26 169 -175 0
123 163 -164 0
-33 -66 -180 0
23 187 197 0
-44 110 183 0
-19 162 166 0
83 -123 -193 0
-3 -112 113 0
60 115 136 0
15 -150 159 0
50 58 86 0
-14 47 -169 0
-53 -99 -151 0
78 86 -159 0
17 126 -136 0
21 -82 -144 0
80 128 170 0
31 36 -164 0
-23 -36 37 0
-130 -141 -145 0
-23 -47 -165 0
11 -62 -151 0
2 118 -155 0
-42 -95 -194 0
86 -135 -141 0
87 -108 -148 0
124 -129 -142 0
-95 -135 -166 0
-10 -83 -133 0
-19 -169 -178 0
-33 -72 89 0
-27 -70 -156 0
-41 -54 61 0
-113 -115 122 0
55 69 -107 0
-68 192 200 0
33 -59 157 0
-24 59 162 0
-11 97 183 0
-97 192 -195 0
-22 41 168 0
10 -177 -197 0
-149 176 -195 0
1 54 195 0
-22 33 -187 0
5 -27 181 0
-32 112 -130 0
92 107 197 0
-87 -130 143 0
64 132 146 0
-41 -50 -121 0
63 -139 186 0
-53 -115 -164 0
14 -72 -159 0
74 -145 -154 0
14 135 186 0
37 95 -185 0
18 26 139 0
19 73 -97 0
-119 130 200 0
-21 40 -193 0
-75 -109 147 0
-113 179 -185 0
-114 149 185 0
-10 -93 -125 0
98 -111 -172 0
-32 -44 -163 0
-4 -78 -146 0
35 -151 -157 0
85 -90 95 0
-22 32 -69 0
51 -92 -154 0
-33 78 -187 0
13 28 41 0
68 -82 -100 0
-102 107 142 0
136 153 -166 0
83 -143 163 0
-26 -46 -96 0
33 -83 -193 0
-35 68 115 0
-68 -75 -182 0
55 186 -187 0
91 -153 -182 0
-10 -105 -115 0
-13 18 -64 0
-60 -80 125 0
-104 107 -168 0
