c F2 random 3-CNF cnfgen RandomKCNF(3,200,1000,seed=0) m/n=5.0
p cnf 200 1000
99 -108 -195 0
-78 104 123 0
36 -73 194 0
26 -80 -187 0
-26 -91 144 0
-114 123 142 0
24 -103 -185 0
63 84 187 0
-37 62 140 0
82 -126 -131 0
-32 141 -181 0
-24 -114 153 0
48 49 -75 0
18 23 122 0
-21 -139 180 0
-56 -151 -174 0
-127 165 -170 0
-30 125 157 0
5 70 -188 0
44 86 110 0
12 57 179 0
49 -156 163 0
10 30 95 0
32 123 184 0
109 -140 159 0
-19 -57 -166 0
-16 47 129 0
-52 -101 -180 0
44 146 179 0
-42 88 -136 0
-4 -45 -171 0
-92 100 167 0
-21 118 -190 0
-35 -62 -196 0
92 -152 -173 0
107 167 192 0
41 86 -179 0
-97 173 -182 0
108 146 -180 0
17 -67 -180 0
144 155 -194 0
80 -84 120 0
22 141 -163 0
81 107 174 0
1 184 194 0
-51 -156 167 0
26 102 -122 0
30 -66 116 0
5 40 72 0
-67 -143 175 0
-156 -180 -192 0
46 -96 -138 0
-3 -36 -39 0
-24 95 184 0
-39 -42 -70 0
34 -76 141 0
13 -46 -79 0
77 85 -107 0
87 -88 122 0
110 -128 -180 0
40 -176 189 0
17 22 -51 0
-3 -26 -101 0
150 -174 183 0
57 -67 95 0
17 -30 92 0
-31 102 128 0
38 56 -160 0
93 97 -140 0
-38 -104 -145 0
128 163 172 0
-88 -181 192 0
38 -66 -135 0
121 181 184 0
17 -34 58 0
85 115 -195 0
96 98 130 0
110 -192 -194 0
100 124 156 0
-47 -78 190 0
-68 -78 -127 0
16 42 -165 0
15 -86 -187 0
37 126 -155 0
-10 -106 -157 0
13 26 121 0
-34 154 -159 0
-50 99 199 0
-120 157 -180 0
33 76 100 0
96 -101 -114 0
12 -20 -162 0
7 134 171 0
-161 -199 200 0
-38 110 145 0
-17 26 107 0
-111 115 -176 0
65 -84 185 0
32 -92 -178 0
-3 46 60 0
1 53 -54 0
7 95 177 0
-29 -117 123 0
-8 -54 -93 0
-76 142 163 0
-27 137 -149 0
-33 38 58 0
-48 -75 194 0
-6 34 154 0
-34 77 -108 0
77 91 -164 0
95 -162 -164 0
-3 -107 187 0
76 96 121 0
29 -71 -143 0
-48 108 197 0
88 -117 -134 0
-23 162 -164 0
-1 115 179 0
-30 77 -197 0
121 -181 193 0
-104 140 196 0
11 -70 -172 0
-135 -149 182 0
-65 91 192 0
-10 -19 68 0
64 136 -196 0
73 75 134 0
-106 -140 -163 0
96 114 146 0
-31 -98 179 0
-77 -144 -172 0
-56 -123 126 0
-37 77 114 0
-7 91 121 0
-21 176 -190 0
11 -30 -159 0
-37 59 187 0
-112 -118 184 0
-85 108 -166 0
-38 135 182 0
-48 -90 -114 0
57 -100 187 0
-13 151 182 0
-22 48 163 0
60 -77 -157 0
-14 -106 -118 0
66 -122 -181 0
11 -12 14 0
2 75 -168 0
-57 156 -175 0
50 87 -156 0
-83 -117 138 0
-12 49 134 0
49 -89 -135 0
-80 -99 -133 0
-12 62 183 0
-118 127 -186 0
113 118 127 0
26 -62 196 0
-20 -113 157 0
47 64 -126 0
82 -91 112 0
-76 -183 -200 0
5 60 70 0
64 -107 188 0
-132 138 190 0
70 -99 166 0
-173 181 184 0
-17 79 -133 0
74 123 161 0
-84 130 142 0
40 46 102 0
128 146 199 0
-60 99 -195 0
-7 -28 -158 0
4 -57 -80 0
81 -140 181 0
103 -155 -181 0
16 -54 99 0
88 -113 -172 0
42 -79 172 0
-39 162 -188 0
7 16 161 0
58 84 -168 0
35 -109 -170 0
37 -80 -92 0
-3 -98 105 0
-32 105 145 0
36 129 -160 0
46 61 64 0
21 -110 184 0
-11 -155 -158 0
-7 10 -161 0
-39 75 -172 0
-42 -189 -193 0
-4 -101 -127 0
-9 137 -198 0
-31 -102 -185 0
6 -14 -70 0
-54 -176 -196 0
-30 54 -145 0
40 42 85 0
-75 -89 -93 0
104 111 154 0
12 -114 146 0
-123 171 185 0
72 109 141 0
41 -164 -169 0
69 -73 -80 0
-67 -135 138 0
37 111 -181 0
-10 93 119 0
41 -93 -136 0
5 188 -189 0
48 -108 195 0
116 183 191 0
-17 -110 -113 0
-112 -194 199 0
8 -79 127 0
-99 -102 196 0
91 -120 -150 0
7 102 122 0
89 93 145 0
-29 172 -184 0
7 -81 -101 0
37 -153 -172 0
16 42 -131 0
165 181 -184 0
47 89 150 0
-52 -67 -68 0
-40 117 133 0
46 -150 162 0
50 -117 166 0
86 -168 182 0
-22 133 140 0
-27 -110 -156 0
93 97 -132 0
6 47 -188 0
-12 50 -156 0
14 -100 154 0
-14 -105 -113 0
106 117 -145 0
49 -68 100 0
7 32 -90 0
158 -168 -177 0
-142 -178 191 0
-14 103 138 0
21 -86 92 0
-40 133 161 0
41 87 97 0
41 -164 200 0
-124 161 174 0
-62 73 163 0
-42 -58 -91 0
36 99 145 0
100 176 184 0
7 83 131 0
29 147 -199 0
-7 108 112 0
-56 94 131 0
-105 145 -169 0
-63 112 -121 0
-62 124 -166 0
71 -96 135 0
-11 -71 157 0
-13 37 -137 0
101 -111 -188 0
-42 -44 88 0
73 -152 -196 0
-37 92 161 0
-46 -66 -186 0
-11 75 -163 0
69 -97 187 0
-29 34 157 0
-102 111 148 0
109 140 200 0
43 54 -59 0
-92 -160 189 0
68 -105 -198 0
-38 -137 178 0
-89 -97 -100 0
26 105 175 0
150 153 163 0
69 -177 188 0
-3 -10 -30 0
-28 -116 -174 0
41 59 199 0
-43 133 -165 0
-104 176 182 0
44 -100 113 0
-104 151 -165 0
11 -123 -159 0
-101 -142 166 0
59 -94 139 0
-18 -117 123 0
59 -68 124 0
25 36 93 0
-2 9 -104 0
-89 144 200 0
-59 -62 128 0
-3 91 127 0
79 -109 -147 0
-38 60 -195 0
-73 92 169 0
-91 103 -129 0
-92 -111 -162 0
73 -183 -197 0
-31 40 115 0
59 -87 -128 0
119 -132 -145 0
60 81 -125 0
-59 82 101 0
24 -68 105 0
-29 47 179 0
3 12 98 0
52 -155 156 0
-1 134 160 0
-59 -60 107 0
54 -98 112 0
-89 -150 -181 0
35 -153 165 0
27 70 183 0
-54 98 -147 0
31 -129 131 0
115 -121 -131 0
-33 66 -107 0
-60 -64 -117 0
7 -115 -186 0
-58 -62 -110 0
-37 -59 -113 0
39 134 -154 0
133 162 173 0
10 -86 -88 0
-49 106 174 0
-13 101 -198 0
-47 133 -139 0
-55 147 170 0
82 125 155 0
-16 35 63 0
-109 -133 -194 0
-42 -50 -176 0
-101 -113 170 0
38 57 -194 0
119 -139 182 0
6 -54 -104 0
54 139 -163 0
80 98 -140 0
-4 -53 -193 0
6 22 -191 0
40 -67 -120 0
-57 98 -99 0
-12 -23 40 0
-112 -123 135 0
30 112 156 0
31 111 -181 0
-30 -68 -99 0
49 -158 164 0
-6 -42 127 0
-26 89 -158 0
27 134 -147 0
-9 58 134 0
46 -170 178 0
-156 -179 191 0
69 90 -185 0
33 71 -81 0
79 83 181 0
-30 43 -75 0
-23 107 115 0
83 -119 152 0
-112 161 173 0
3 -69 -164 0
74 141 168 0
-15 -67 -153 0
-58 -65 -150 0
-32 109 182 0
-60 123 181 0
21 26 -79 0
-4 93 193 0
-69 -73 -128 0
-15 43 179 0
39 57 -78 0
7 -47 140 0
63 144 195 0
77 -135 199 0
-16 -43 106 0
-99 135 137 0
3 23 137 0
-102 -116 -191 0
67 102 170 0
12 54 -190 0
64 -116 182 0
-38 -90 -154 0
-129 165 177 0
-52 -123 -188 0
-36 -78 -113 0
-90 -155 -164 0
77 129 -179 0
56 68 -132 0
-67 -88 111 0
-50 66 187 0
-27 52 153 0
-45 -48 159 0
5 169 -173 0
-61 -101 128 0
30 111 150 0
-70 137 -153 0
48 -51 82 0
-130 152 157 0
14 112 155 0
80 85 -108 0
-36 -81 -169 0
70 -85 156 0
-28 -67 -132 0
-41 156 172 0
29 -150 -198 0
-26 -176 -187 0
29 92 163 0
4 156 -199 0
-7 99 124 0
101 165 180 0
-8 13 -106 0
104 -105 140 0
33 144 165 0
-74 -121 148 0
3 104 176 0
40 73 164 0
-2 86 -190 0
17 -149 193 0
-65 -85 116 0
-21 -81 -113 0
110 133 142 0
-103 131 165 0
-9 37 40 0
-69 -135 -145 0
-82 -103 152 0
-10 -129 -199 0
2 -64 132 0
95 112 197 0
11 -92 146 0
-69 -88 125 0
-61 -166 198 0
-12 190 -195 0
-74 176 179 0
117 -160 -182 0
84 -111 -149 0
-61 95 98 0
-62 -66 138 0
87 -154 160 0
37 66 -195 0
53 -123 178 0
-23 139 -182 0
70 -100 -132 0
6 81 188 0
-42 143 -155 0
-74 -129 -177 0
-173 180 191 0
-16 -41 -86 0
-107 124 141 0
21 161 -186 0
25 153 188 0
25 -80 187 0
148 -157 -198 0
41 48 152 0
-59 67 -127 0
-21 35 53 0
-5 90 -151 0
-21 180 185 0
37 -54 190 0
38 -125 138 0
-45 -117 172 0
-164 167 188 0
-70 -90 126 0
74 101 -142 0
30 152 -167 0
37 67 109 0
-68 84 -113 0
-100 185 189 0
-9 -79 168 0
53 101 -120 0
-32 130 173 0
52 -60 -62 0
18 55 -141 0
24 26 -50 0
-102 -154 165 0
89 90 197 0
56 113 133 0
61 -117 -121 0
-85 101 189 0
95 128 157 0
-5 -62 105 0
95 133 -163 0
82 -175 186 0
-52 -76 -134 0
10 -37 113 0
-49 -135 155 0
-39 -147 150 0
-30 -36 41 0
-10 77 -193 0
26 127 166 0
151 -175 -182 0
-66 150 189 0
32 -161 174 0
4 37 58 0
18 -28 -72 0
-67 148 200 0
-16 -37 -116 0
100 -105 164 0
23 55 199 0
-3 -82 116 0
-85 182 -184 0
-25 114 -167 0
-22 79 -199 0
-7 99 -165 0
-131 -160 198 0
2 -42 -69 0
-51 -121 125 0
69 128 156 0
67 87 -182 0
80 -83 -160 0
33 165 -200 0
-121 185 -195 0
-105 110 112 0
34 116 -143 0
-61 123 -168 0
15 -76 -173 0
-32 135 143 0
-1 -24 87 0
-63 -96 172 0
4 103 116 0
-54 85 -186 0
-24 27 140 0
-29 43 176 0
67 -120 178 0
5 97 -144 0
-22 162 -197 0
-59 -99 186 0
-3 109 -164 0
-81 -89 -132 0
70 89 199 0
83 -119 -165 0
74 160 180 0
118 133 -187 0
85 155 -180 0
-106 113 120 0
-18 53 146 0
-133 -178 185 0
-6 -21 110 0
-51 -76 -158 0
-10 -17 -23 0
98 -166 -179 0
-1 -103 -142 0
-40 -103 -173 0
-95 -121 141 0
-10 -89 -109 0
-17 59 -175 0
7 87 -160 0
18 26 199 0
-3 -46 167 0
-75 102 113 0
28 -41 -123 0
-78 79 -188 0
85 119 -195 0
-57 117 -163 0
11 18 -109 0
2 76 80 0
12 -40 160 0
6 36 150 0
17 156 182 0
21 -111 -125 0
44 129 -187 0
109 131 187 0
64 -142 -187 0
-83 -136 144 0
24 -145 -178 0
-73 91 189 0
1 37 66 0
-30 126 -189 0
11 -36 -67 0
-25 52 -162 0
49 83 -163 0
-27 -103 -197 0
9 -85 164 0
-108 138 -194 0
12 -69 -191 0
-2 174 199 0
65 95 -135 0
52 -146 -157 0
-11 174 178 0
41 -85 156 0
51 141 -150 0
-116 -140 -169 0
-5 -30 198 0
-59 123 185 0
-127 -158 192 0
-40 -110 174 0
17 65 -180 0
26 -48 192 0
-66 -102 -134 0
-31 -119 -126 0
-65 73 -185 0
129 -132 -166 0
-168 188 195 0
-22 107 143 0
-100 -127 -174 0
-143 188 191 0
-54 -92 156 0
-25 43 -57 0
81 -113 -178 0
88 126 -182 0
68 -101 131 0
36 -38 130 0
-7 12 126 0
36 -120 161 0
-34 -78 92 0
26 -27 -85 0
47 -94 -149 0
55 -104 -163 0
-111 -125 172 0
-53 110 -196 0
-19 -36 -120 0
63 -88 116 0
-57 88 181 0
-138 -151 155 0
23 -81 -170 0
30 -170 -183 0
-80 84 195 0
78 167 169 0
-21 62 122 0
-23 -97 -191 0
37 170 181 0
-31 39 -162 0
21 148 -149 0
-45 -104 -136 0
-45 -161 166 0
22 -42 -186 0
-24 -85 -169 0
15 -36 90 0
-17 -33 60 0
58 -93 193 0
-52 -61 -158 0
-124 -151 164 0
-47 160 176 0
45 80 -113 0
-136 -144 -157 0
-59 -87 156 0
134 -185 189 0
1 22 144 0
15 80 83 0
59 -188 -195 0
-136 -159 167 0
11 101 -185 0
3 107 189 0
-34 -149 -163 0
-88 -116 -199 0
-69 -78 -133 0
-86 104 172 0
-120 -183 -193 0
34 -175 190 0
44 -50 160 0
-48 151 -170 0
48 64 112 0
24 180 189 0
-54 -145 166 0
25 -97 126 0
-58 -156 196 0
25 36 108 0
-69 71 -177 0
87 140 -182 0
-3 -16 49 0
85 -110 151 0
-124 127 -156 0
-16 89 183 0
71 118 144 0
-143 -146 189 0
-70 100 -120 0
7 -29 -117 0
-40 -77 156 0
-40 84 -156 0
41 -46 -148 0
137 -165 -200 0
-34 144 178 0
24 -29 63 0
-8 -85 -97 0
114 -133 -192 0
-58 111 -194 0
-55 -87 183 0
-46 184 186 0
91 -97 -189 0
-43 160 182 0
48 100 106 0
-18 -56 138 0
41 -44 -198 0
-16 55 138 0
13 153 -167 0
-52 169 194 0
-1 -96 140 0
-4 -78 149 0
-72 85 -197 0
39 91 -145 0
-3 -60 -111 0
-2 45 177 0
12 -24 -172 0
45 154 188 0
-11 101 -104 0
-7 82 -172 0
63 -153 -174 0
13 -132 -162 0
48 146 187 0
-31 -52 -76 0
-37 -47 148 0
-29 98 -194 0
-57 105 -196 0
93 160 177 0
103 125 132 0
40 -43 78 0
34 -159 -164 0
4 94 196 0
-114 -171 184 0
-64 151 -193 0
-27 -171 -178 0
15 -68 -76 0
50 60 88 0
-32 97 -176 0
7 -101 137 0
-52 66 182 0
-109 129 173 0
-32 74 -188 0
64 76 -138 0
-50 -92 110 0
-36 119 161 0
-103 -118 -197 0
37 -73 124 0
46 119 -152 0
60 -75 -161 0
8 -139 -145 0
59 95 135 0
30 -138 -155 0
-64 125 131 0
47 -88 195 0
27 81 132 0
-123 -175 -189 0
24 -54 -158 0
88 -132 -182 0
180 -186 191 0
-10 -25 -172 0
-5 -66 114 0
-91 -93 188 0
-5 -101 161 0
31 -81 140 0
-13 24 -33 0
22 -63 -145 0
-163 165 179 0
-71 118 162 0
3 116 186 0
13 -147 175 0
-58 -128 -171 0
-138 -168 189 0
34 63 190 0
11 -28 -36 0
102 -116 167 0
-33 -77 157 0
118 -146 -147 0
79 -143 -170 0
-69 -132 179 0
80 -83 -151 0
-2 28 191 0
147 171 173 0
80 119 -192 0
-61 -71 190 0
-103 -155 -191 0
-4 85 -195 0
-24 -40 -178 0
72 90 -160 0
67 120 122 0
-14 -142 -199 0
-15 93 -99 0
-12 -122 -139 0
-159 161 -195 0
6 -115 -160 0
68 -126 178 0
60 63 -89 0
97 -114 166 0
-4 118 174 0
-27 120 -179 0
15 -27 -36 0
-135 170 -199 0
-87 -124 150 0
13 -134 190 0
82 98 174 0
-8 63 144 0
-127 -139 147 0
45 -68 -115 0
-88 161 -189 0
2 16 -197 0
5 43 145 0
21 -36 -39 0
-5 74 95 0
-3 -95 151 0
-148 -174 176 0
-49 93 105 0
48 135 -154 0
144 149 -150 0
-66 68 -120 0
-25 93 -108 0
46 -87 -115 0
69 -91 170 0
-41 -52 150 0
1 94 -196 0
25 -105 -146 0
-52 160 177 0
-104 -125 -158 0
16 80 -104 0
-32 130 -160 0
-33 59 -184 0
-81 123 -198 0
8 -126 146 0
-4 74 96 0
57 -100 156 0
-33 -100 -198 0
35 -157 -184 0
-37 -80 -89 0
102 -154 182 0
-47 128 -178 0
-52 75 -135 0
39 -42 70 0
42 54 89 0
-33 -65 148 0
-16 72 -147 0
-67 86 183 0
-8 -88 -187 0
59 -151 -172 0
-22 -152 171 0
-3 -11 33 0
-86 96 133 0
50 -142 -159 0
11 -22 37 0
106 -146 178 0
24 -27 87 0
44 -169 -189 0
-3 -51 53 0
-27 -131 -193 0
60 128 131 0
68 111 165 0
-30 84 85 0
17 -78 -147 0
39 58 84 0
11 -146 -183 0
-61 141 142 0
25 -86 160 0
-52 -115 -116 0
49 116 -172 0
-68 90 111 0
-139 153 186 0
-89 156 -175 0
55 -102 -115 0
-7 9 93 0
-13 -14 -192 0
-7 85 -165 0
-12 71 189 0
90 168 173 0
139 147 -194 0
26 28 72 0
-60 -62 -142 0
-14 53 134 0
-34 101 177 0
31 -59 -196 0
66 108 -156 0
40 127 -180 0
-99 -123 -150 0
137 164 -198 0
-61 -129 137 0
-70 -112 -131 0
54 -82 -191 0
-27 50 -63 0
55 -108 -119 0
-17 -101 150 0
-31 -43 164 0
51 100 101 0
-86 -107 109 0
69 122 170 0
39 144 -158 0
-36 -109 130 0
20 69 164 0
4 -35 -184 0
78 -135 -187 0
158 167 198 0
-3 -134 168 0
-7 81 -174 0
-16 -97 111 0
29 56 -162 0
60 -71 -83 0
23 154 -181 0
-6 -123 -199 0
10 45 -183 0
181 -183 192 0
-7 -14 -59 0
-73 -157 -186 0
-18 34 165 0
-40 43 -87 0
-91 -161 186 0
-17 134 -169 0
19 -118 192 0
-48 98 -189 0
72 73 -109 0
81 140 153 0
-114 186 189 0
51 -73 185 0
-94 -132 178 0
-10 50 -160 0
-1 -11 76 0
43 -174 -178 0
-60 -69 196 0
24 84 -186 0
-72 97 195 0
-10 146 151 0
-42 48 72 0
-21 -60 102 0
-38 74 158 0
77 -98 125 0
94 118 171 0
92 -119 -169 0
26 190 -198 0
-52 -53 -127 0
-2 40 -42 0
82 161 -179 0
-50 -117 159 0
-41 -65 75 0
-18 -127 -168 0
-94 142 -176 0
-54 -108 -193 0
-38 -166 200 0
66 145 -166 0
21 -46 -168 0
-2 -47 -72 0
13 112 180 0
109 167 -198 0
54 -121 153 0
45 122 156 0
38 65 113 0
57 139 -165 0
39 85 126 0
-15 -59 164 0
26 67 -127 0
82 162 -186 0
41 -64 135 0
-26 -74 107 0
29 96 102 0
-8 -105 144 0
5 15 193 0
29 -84 -162 0
15 -120 196 0
68 70 198 0
-69 93 95 0
-75 93 105 0
57 86 -126 0
89 137 170 0
60 -159 -164 0
15 -92 161 0
-27 120 -130 0
81 -88 156 0
-81 100 109 0
-96 97 100 0
18 54 97 0
87 97 167 0
-40 -43 -94 0
-77 -87 -197 0
44 -116 190 0
-105 -139 162 0
-8 -38 181 0
-32 75 183 0
113 163 -179 0
17 61 122 0
-51 -154 166 0
72 -77 178 0
43 -89 106 0
-117 122 -169 0
-6 22 120 0
15 -135 173 0
-33 -105 123 0
9 137 147 0
46 116 119 0
-121 -125 -131 0
87 157 158 0
-115 -123 125 0
-9 -12 -196 0
61 151 -156 0
-40 50 -178 0
-28 -160 180 0
-17 95 -158 0
-27 -126 -138 0
-94 -103 -197 0
-2 54 118 0
-4 82 -97 0
-64 -162 167 0
-5 54 163 0
22 53 -78 0
76 84 -164 0
-2 34 193 0
-79 114 186 0
