c F2 random 3-CNF cnfgen RandomKCNF(3,150,750,seed=0) m/n=5.0
p cnf 150 750
-11 -99 -108 0
78 92 -123 0
25 -36 65 0
19 -85 -121 0
-53 -81 -142 0
4 -16 141 0
-63 86 127 0
57 -62 146 0
-21 82 -131 0
-32 75 -142 0
-24 99 -114 0
-9 -48 49 0
23 34 -39 0
71 134 -135 0
-71 -116 149 0
-30 84 125 0
5 -30 70 0
16 86 110 0
12 137 147 0
-31 49 -148 0
6 10 30 0
16 -54 123 0
18 -57 -67 0
-16 47 112 0
-52 -67 101 0
15 -41 -53 0
31 -45 -114 0
-80 -131 -146 0
-4 40 -144 0
12 72 -140 0
74 -91 -92 0
1 -21 107 0
-58 -62 115 0
103 108 -146 0
-17 -41 67 0
-10 -84 127 0
49 107 141 0
81 103 107 0
1 26 136 0
47 -72 -78 0
-6 21 -71 0
35 89 -134 0
-5 -11 -53 0
-11 -127 -146 0
-46 -54 138 0
-36 -39 -70 0
10 -24 87 0
-39 -75 150 0
30 76 -123 0
-19 -46 -134 0
28 -77 -107 0
-32 87 -88 0
-10 78 110 0
23 97 145 0
16 57 -99 0
-75 -133 143 0
22 -95 109 0
50 92 111 0
52 -116 -135 0
11 54 66 0
-51 97 118 0
-38 -125 -145 0
52 83 -128 0
10 -82 83 0
-76 98 150 0
11 17 133 0
-4 77 115 0
-96 118 130 0
20 -110 -133 0
60 100 124 0
-78 -130 146 0
-68 -78 -127 0
16 -33 -42 0
-10 15 -124 0
-21 39 -91 0
13 -99 118 0
-6 9 -34 0
50 99 -126 0
32 -76 -87 0
32 -49 -133 0
-49 96 117 0
11 66 125 0
-24 -129 135 0
-38 110 145 0
-17 26 107 0
107 -111 -115 0
21 65 -91 0
8 89 90 0
19 37 94 0
-2 32 76 0
37 -48 -117 0
8 -34 -67 0
-75 76 122 0
-27 137 -149 0
-33 38 58 0
-48 75 96 0
6 20 -101 0
77 -107 -141 0
-22 -64 91 0
-3 -97 -105 0
-53 76 96 0
28 -29 -71 0
48 108 -111 0
-37 -88 134 0
53 -76 -124 0
2 -56 77 0
-24 109 -121 0
-6 31 72 0
-66 -102 135 0
65 73 91 0
-19 68 79 0
-18 -42 107 0
54 -134 -147 0
-72 75 114 0
-31 -32 98 0
-77 -91 144 0
-123 -126 129 0
-37 77 114 0
-7 91 121 0
-2 21 102 0
1 70 -75 0
-27 -49 -112 0
-44 85 -108 0
38 81 135 0
-90 -100 -114 0
51 57 -113 0
9 -22 60 0
45 -60 -77 0
-14 -106 -118 0
-56 -66 122 0
-12 14 -42 0
-2 17 -36 0
57 -117 143 0
-22 -82 -83 0
8 -12 134 0
54 89 -135 0
-78 -80 -133 0
-12 62 89 0
113 -118 -127 0
31 113 118 0
26 -40 106 0
101 110 144 0
-33 -57 -126 0
-28 112 -143 0
-114 -119 132 0
5 -26 31 0
-2 56 73 0
-31 70 -99 0
-17 -57 62 0
74 96 123 0
-84 130 142 0
40 46 102 0
55 128 146 0
-34 91 99 0
-92 -126 135 0
-42 -57 -143 0
-21 36 -67 0
16 75 -99 0
64 -88 -113 0
-5 42 79 0
6 91 126 0
-4 12 58 0
35 -89 -109 0
37 -80 -92 0
-3 -98 105 0
-32 105 145 0
36 129 -132 0
46 61 64 0
-21 27 110 0
65 88 -97 0
23 -75 92 0
-42 -92 -130 0
-4 -101 -127 0
-9 137 -147 0
-31 -102 104 0
-6 -9 70 0
-88 -133 136 0
30 -85 145 0
3 40 -85 0
-75 -76 -93 0
1 44 -111 0
-3 -33 88 0
-18 109 141 0
17 -41 -149 0
69 -73 -80 0
-67 -135 138 0
2 -37 -111 0
-10 119 144 0
41 -93 -136 0
5 -64 147 0
-20 108 -147 0
26 -49 131 0
-70 -102 -110 0
24 -79 84 0
-52 -65 -102 0
-10 120 -150 0
-7 84 102 0
-21 89 145 0
-29 49 -139 0
7 -81 -101 0
-37 38 104 0
33 35 -124 0
47 89 150 0
-52 -67 -68 0
-40 117 133 0
46 -132 150 0
-50 62 -117 0
35 122 -143 0
-1 -21 -27 0
-86 97 132 0
6 47 -82 0
12 -50 -106 0
14 -44 92 0
-66 -91 -113 0
-8 47 -117 0
17 25 -92 0
6 -46 -104 0
122 127 -142 0
8 68 -133 0
26 92 -121 0
-1 10 97 0
41 -42 45 0
12 102 -124 0
-44 61 85 0
94 -108 119 0
-2 42 150 0
5 7 83 0
29 -38 147 0
-108 112 146 0
-56 94 131 0
90 -105 -145 0
63 -98 121 0
102 -124 -149 0
96 -135 139 0
-11 71 83 0
-7 -37 -101 0
27 118 -119 0
-41 106 -122 0
-37 89 92 0
-46 -66 -150 0
-11 75 -142 0
-54 69 97 0
29 -43 -92 0
20 109 119 0
43 54 -59 0
74 -86 -92 0
-41 88 -129 0
-61 -79 -143 0
-79 -121 131 0
2 38 40 0
44 69 97 0
-30 93 -124 0
-65 95 150 0
20 142 144 0
-54 -105 -133 0
6 -35 100 0
-23 97 -104 0
-11 -27 -123 0
47 -68 122 0
37 78 -117 0
101 -105 -145 0
29 -59 76 0
15 36 144 0
104 -126 -143 0
2 25 -88 0
58 -71 -80 0
24 -88 -131 0
58 95 -98 0
-52 -92 124 0
-31 91 -103 0
-72 -92 -111 0
27 -75 123 0
-48 -63 89 0
-29 -99 100 0
-80 103 -129 0
-1 -24 -133 0
13 -59 111 0
52 68 84 0
8 60 -94 0
2 34 137 0
-1 51 120 0
-59 -60 107 0
54 -98 112 0
-89 -95 150 0
24 65 -133 0
-7 35 -37 0
52 108 -131 0
-32 115 -131 0
-33 -87 -141 0
-21 130 -145 0
-64 90 -124 0
-2 104 -142 0
-62 65 123 0
-73 93 113 0
49 77 133 0
10 -86 -88 0
49 106 -128 0
13 -87 134 0
-133 139 -150 0
55 113 -147 0
51 82 143 0
35 63 -114 0
74 87 -127 0
-92 -113 -143 0
18 38 120 0
101 -119 139 0
6 -54 -104 0
2 -54 -139 0
98 138 -140 0
-4 -53 108 0
-6 8 -62 0
-29 67 -115 0
87 -99 130 0
-12 40 -81 0
82 99 -112 0
8 -35 37 0
-9 68 -70 0
49 -75 96 0
-6 -42 127 0
-26 89 -144 0
27 134 -147 0
-9 58 134 0
46 -59 -103 0
41 69 -90 0
33 71 -81 0
9 79 -83 0
30 -43 -71 0
-23 107 129 0
-45 83 -119 0
6 -9 74 0
-81 82 141 0
36 -67 -133 0
-58 -72 -150 0
-32 109 115 0
60 99 123 0
26 -47 79 0
93 106 -135 0
-69 -73 104 0
43 92 135 0
38 -57 78 0
47 60 107 0
-44 64 -149 0
16 -52 -106 0
-55 99 137 0
3 23 137 0
-71 -102 -116 0
20 41 67 0
-14 18 -131 0
35 75 -131 0
-77 92 94 0
-52 -102 -123 0
-36 -113 -122 0
-98 -102 149 0
-49 56 111 0
-130 -133 -137 0
78 111 -117 0
5 18 -118 0
1 -48 -56 0
3 -5 6 0
-93 101 -128 0
7 -30 -45 0
-51 54 99 0
-39 128 130 0
9 14 -112 0
49 -80 85 0
-71 -81 -125 0
20 -41 -118 0
-41 108 115 0
-29 -48 150 0
68 -71 109 0
3 4 -11 0
-7 99 124 0
58 101 -149 0
8 -13 -103 0
-15 104 140 0
-23 -44 -54 0
55 65 104 0
3 40 73 0
2 -83 86 0
-23 -54 -96 0
121 125 -138 0
-99 -104 113 0
-37 57 103 0
-9 37 40 0
-69 -135 -145 0
-82 103 120 0
88 94 99 0
-29 95 122 0
29 -130 133 0
-47 -88 -94 0
-1 -61 108 0
12 -123 -135 0
55 -124 149 0
-81 -114 149 0
101 -110 -132 0
-55 62 -76 0
61 -87 117 0
37 66 -141 0
-47 53 123 0
-54 -128 -139 0
-52 -91 132 0
12 -50 51 0
-65 -74 -129 0
14 -30 99 0
-69 -113 -144 0
23 57 96 0
85 132 150 0
11 -25 80 0
-51 -136 148 0
36 48 -58 0
-38 78 127 0
35 47 -105 0
-33 123 -138 0
2 37 -57 0
33 -38 125 0
-45 82 -117 0
-26 -49 -90 0
-56 -73 138 0
30 45 -97 0
37 67 109 0
-68 84 -113 0
99 100 141 0
-79 114 -133 0
23 -53 101 0
43 120 130 0
-25 62 97 0
-51 56 135 0
26 -34 -132 0
-8 -68 121 0
9 51 113 0
-37 61 -117 0
-75 85 101 0
23 95 -128 0
-5 62 -125 0
-30 -38 131 0
-50 -52 -93 0
-10 37 -102 0
-40 -49 135 0
-39 -147 150 0
-30 -36 41 0
10 -77 121 0
26 63 127 0
-67 -120 150 0
32 -61 149 0
4 37 58 0
18 -28 -72 0
-67 148 149 0
-16 -37 -116 0
-6 100 105 0
23 -37 -64 0
3 -65 -108 0
-25 -52 77 0
-22 68 -79 0
7 -99 -115 0
120 133 146 0
-28 69 -99 0
-68 121 -132 0
4 -45 -69 0
-8 -28 112 0
33 85 -106 0
-45 -114 -121 0
94 105 -150 0
-4 -25 34 0
25 -101 108 0
72 -78 135 0
-1 -24 -37 0
-51 -63 96 0
4 103 116 0
54 -80 85 0
27 74 140 0
-43 114 -120 0
-7 144 147 0
-22 26 -80 0
-59 99 -119 0
-3 -60 -108 0
-65 -120 122 0
-48 57 -119 0
64 74 -122 0
-47 -51 133 0
-9 -106 -126 0
4 51 -146 0
-23 -34 133 0
-6 -21 110 0
-51 -76 108 0
-10 -23 -89 0
-60 73 -125 0
-40 -74 -125 0
-78 -121 -141 0
44 -89 -150 0
17 -80 113 0
7 87 -97 0
18 26 46 0
-3 112 -134 0
80 102 -113 0
-28 -30 -41 0
-9 -78 -101 0
16 -18 -76 0
53 -97 141 0
11 -24 -95 0
1 9 15 0
21 121 150 0
17 20 27 0
21 -111 -125 0
44 129 -139 0
34 109 131 0
-25 -96 -97 0
24 -62 -145 0
-73 91 130 0
1 37 66 0
30 -124 -126 0
-11 -36 45 0
25 -127 -129 0
-30 -49 63 0
-71 100 -143 0
-9 -60 101 0
12 -68 -69 0
2 -59 -69 0
-30 44 135 0
-11 74 105 0
-41 45 85 0
-9 -49 -140 0
30 -89 -94 0
-48 59 123 0
101 106 -127 0
-55 98 114 0
1 78 146 0
-46 -65 -102 0
-109 126 -138 0
-65 -66 81 0
128 -129 -132 0
-6 10 -105 0
-7 -8 -127 0
-114 135 143 0
-54 79 92 0
25 -43 -117 0
-40 -113 -126 0
-12 -58 -135 0
25 79 137 0
17 50 -88 0
20 121 -147 0
35 -67 -145 0
34 -95 120 0
-26 -29 79 0
-2 104 122 0
-69 -107 -125 0
-38 53 -110 0
-19 -36 -120 0
63 -88 116 0
57 88 -128 0
-23 45 -82 0
-29 -30 -92 0
1 -80 86 0
-41 44 143 0
28 -67 135 0
101 119 125 0
-29 31 -39 0
21 148 -149 0
-45 -104 -136 0
45 67 104 0
-55 92 -134 0
-78 109 133 0
45 90 128 0
33 -112 113 0
31 35 -83 0
-88 -124 128 0
47 -51 -70 0
-13 -29 -45 0
-59 -82 87 0
7 124 134 0
5 36 -144 0
17 50 80 0
-93 -99 136 0
11 -58 101 0
40 52 -107 0
-72 -76 -116 0
-69 -85 -133 0
-86 103 104 0
-77 104 120 0
44 49 -123 0
42 -129 130 0
64 112 124 0
10 24 133 0
-54 92 145 0
-33 97 126 0
74 114 -146 0
25 -34 -49 0
-44 84 115 0
3 -16 -102 0
64 -85 110 0
77 -124 127 0
44 -85 -89 0
-2 -37 41 0
-70 100 -120 0
7 -29 -117 0
-40 77 -126 0
-7 40 107 0
-21 108 -132 0
-34 87 144 0
24 -29 63 0
-8 -85 -97 0
-10 -114 -133 0
-4 -58 122 0
76 90 -145 0
-31 52 -91 0
43 66 104 0
21 100 106 0
56 83 116 0
13 67 -113 0
5 13 -19 0
52 75 -134 0
-1 86 -140 0
-4 106 -147 0
-26 72 -89 0
4 -10 103 0
-111 120 146 0
117 138 147 0
-24 33 101 0
8 -28 -141 0
44 -73 -98 0
-52 132 133 0
107 127 -132 0
48 118 146 0
-31 -52 -76 0
-37 -47 148 0
-29 98 -146 0
57 -100 -105 0
12 -59 -135 0
21 58 147 0
8 78 82 0
66 -107 140 0
-12 -56 -132 0
16 -64 69 0
-69 96 -126 0
28 -73 92 0
-49 52 -62 0
44 89 -101 0
-29 52 66 0
-109 129 142 0
32 -74 -76 0
64 138 -149 0
-50 -92 110 0
36 90 -119 0
-82 -103 124 0
12 -73 106 0
18 -29 101 0
76 109 -150 0
95 106 135 0
28 -30 -138 0
-64 125 131 0
-6 47 88 0
64 81 -132 0
-74 127 134 0
-11 67 -104 0
17 67 116 0
-72 -86 113 0
-63 -83 -88 0
-5 -52 -97 0
-6 31 -140 0
24 -33 37 0
63 93 -145 0
6 -74 -82 0
-42 55 98 0
1 43 -147 0
-14 -58 -128 0
81 128 138 0
26 55 60 0
-24 -112 -144 0
4 82 -135 0
76 -103 142 0
-68 101 -143 0
-66 -132 -147 0
27 -80 -83 0
2 28 85 0
5 80 -119 0
-61 -71 132 0
-103 -115 123 0
-28 76 148 0
-68 -99 117 0
-47 -117 -142 0
22 -25 -45 0
-15 -86 93 0
-12 -73 -122 0
20 -82 90 0
-68 76 -92 0
41 63 89 0
97 -98 114 0
4 65 -118 0
27 -103 144 0
-3 -15 -36 0
-18 -86 -124 0
13 -60 134 0
11 82 98 0
8 81 -138 0
111 -127 -139 0
-10 -45 -93 0
2 59 101 0
43 85 145 0
21 40 149 0
-5 -100 -105 0
5 -61 -145 0
-23 -88 148 0
-49 93 105 0
35 -48 135 0
-43 -66 -92 0
-48 102 -108 0
-39 -46 67 0
69 -91 96 0
-41 -52 150 0
1 -35 -94 0
-14 -25 146 0
-1 -59 -111 0
-16 104 109 0
-32 83 -130 0
33 -59 -66 0
90 -123 131 0
36 -70 126 0
59 74 -111 0
35 65 -148 0
-93 123 145 0
-89 102 -109 0
67 -102 128 0
47 -117 128 0
75 -109 -135 0
-39 42 54 0
54 89 148 0
-33 -65 148 0
-16 72 -147 0
-67 86 144 0
-8 -88 109 0
31 -108 -109 0
3 -11 -39 0
-8 86 96 0
-50 -55 142 0
-9 11 -22 0
30 -106 146 0
27 36 70 0
51 99 -112 0
56 -108 -131 0
-60 65 131 0
-28 68 145 0
26 -84 85 0
62 78 -147 0
39 84 123 0
11 -36 -146 0
-61 141 142 0
-25 45 -86 0
-52 -116 122 0
-41 -55 -116 0
43 -68 100 0
-61 89 -145 0
