c F2 random 3-CNF cnfgen RandomKCNF(3,350,1750,seed=0) m/n=5.0
p cnf 350 1750
-21 -198 -216 0
156 184 -245 0
-49 72 -317 0
-38 51 -170 0
162 -223 -313 0
32 134 -267 0
-1 -321 343 0
33 98 167 0
47 -230 -279 0
-56 155 -283 0
-105 -277 309 0
163 -198 306 0
-17 -96 97 0
46 67 348 0
-201 277 350 0
-215 -302 -348 0
183 -329 339 0
-250 301 323 0
9 -60 139 0
32 171 219 0
24 294 325 0
97 -311 326 0
19 60 190 0
64 108 -246 0
52 134 318 0
-155 180 332 0
21 -240 258 0
134 184 241 0
-82 -83 347 0
227 306 -341 0
-210 -292 -349 0
79 -129 337 0
-24 172 279 0
-181 -247 313 0
159 199 213 0
82 -123 -172 0
213 -291 -345 0
-24 85 -340 0
-81 229 271 0
-160 167 -254 0
97 281 325 0
-206 214 348 0
2 8 346 0
-102 -312 333 0
52 204 -244 0
60 -132 232 0
10 80 143 0
-133 -286 349 0
-254 -312 -336 0
-92 -107 276 0
-71 -78 -139 0
48 174 -318 0
-77 -84 -299 0
67 -151 281 0
25 -92 -158 0
154 169 -213 0
173 -176 243 0
-20 -219 255 0
-86 290 321 0
44 -102 114 0
-51 -202 -285 0
-112 300 -348 0
113 -134 300 0
33 -59 184 0
-61 204 255 0
75 111 -320 0
186 194 -280 0
-76 -208 -289 0
256 326 344 0
163 165 -175 0
-80 -195 309 0
21 44 265 0
-8 -21 154 0
-77 -236 336 0
47 -294 348 0
-149 -275 -307 0
120 301 312 0
-155 -260 292 0
-135 -156 -253 0
32 84 -329 0
-19 -29 172 0
42 -252 -309 0
-19 -239 314 0
52 78 242 0
-54 166 -323 0
-31 -57 252 0
152 -319 -350 0
63 266 -349 0
-98 -191 228 0
-21 23 249 0
-48 -118 322 0
-75 219 290 0
-33 51 213 0
214 -221 -229 0
41 130 -181 0
16 177 179 0
37 188 306 0
105 338 -345 0
13 189 310 0
-58 -233 245 0
-15 -107 -186 0
-152 284 326 0
-53 274 -298 0
-65 76 115 0
-95 150 191 0
11 202 308 0
-154 216 -282 0
153 182 -327 0
190 -324 -327 0
-5 165 -214 0
47 151 -242 0
58 -286 -311 0
95 216 -222 0
-73 -175 268 0
105 -151 -248 0
4 -112 153 0
-48 218 -242 0
12 -144 324 0
-1 -132 204 0
130 146 182 0
-37 135 157 0
-35 -84 213 0
268 294 -322 0
-207 -279 -325 0
191 291 322 0
-62 196 -206 0
-182 243 -324 0
-163 251 -257 0
74 154 254 0
182 201 242 0
-4 203 343 0
-2 139 318 0
98 -148 -294 0
-87 -170 -197 0
-76 230 269 0
-96 -179 -228 0
-101 113 200 0
18 120 -199 0
30 327 -347 0
-45 -263 -314 0
-28 -235 -324 0
-111 -131 244 0
-23 27 -84 0
4 -72 336 0
204 -286 312 0
53 -174 -312 0
-167 234 275 0
42 -98 189 0
-104 -129 -345 0
131 177 -247 0
-5 -38 -283 0
-25 -212 253 0
42 44 -124 0
110 -226 -314 0
-21 93 128 0
-143 164 -181 0
-104 -278 -313 0
-134 275 325 0
51 -61 315 0
112 -146 338 0
-63 197 -331 0
-118 280 346 0
-34 158 -266 0
147 246 322 0
-168 259 284 0
80 91 203 0
110 255 292 0
181 -197 312 0
-14 -270 -316 0
7 -113 -159 0
-41 161 -280 0
-98 150 163 0
-20 -128 162 0
134 -177 344 0
183 277 -294 0
12 252 322 0
-7 24 116 0
177 217 -340 0
-73 184 -223 0
-5 -196 -210 0
-22 -63 290 0
2 71 -257 0
91 122 127 0
41 -219 307 0
-21 -309 -315 0
-14 19 -321 0
-78 150 -344 0
-84 -173 -208 0
-8 -160 272 0
-273 283 -293 0
-62 -203 207 0
-11 -18 140 0
-175 -265 271 0
60 -169 290 0
5 79 -170 0
-150 -186 -321 0
207 221 308 0
23 -227 292 0
-246 340 341 0
143 218 282 0
81 -328 -338 0
137 -146 -160 0
-133 -270 276 0
4 -73 -222 0
-19 238 288 0
82 -186 -271 0
10 -128 293 0
-40 216 -294 0
52 -97 261 0
-203 -219 -325 0
168 -183 313 0
6 -129 -253 0
-224 321 -326 0
-65 -182 292 0
204 243 268 0
178 185 290 0
-57 277 -344 0
13 -162 -202 0
73 -305 -344 0
31 84 -262 0
24 -267 329 0
43 177 -300 0
-104 -134 -168 0
80 230 283 0
-18 263 329 0
234 -313 332 0
-70 171 336 0
2 176 -266 0
-181 -292 -312 0
186 263 -326 0
12 -65 94 0
23 -212 -331 0
-27 87 -308 0
-28 -182 -226 0
-16 -93 212 0
33 184 199 0
-11 91 -180 0
-234 254 284 0
135 206 275 0
-51 171 184 0
147 265 -321 0
81 173 281 0
82 -328 349 0
-248 321 348 0
-124 145 326 0
-84 -116 -181 0
71 198 290 0
77 89 -200 0
2 20 262 0
79 -195 -345 0
127 -171 291 0
38 -205 -274 0
50 -221 -224 0
-116 -123 203 0
-130 142 -270 0
-21 -122 142 0
-25 74 -274 0
-54 -202 222 0
-87 175 -243 0
-58 189 -258 0
243 266 -323 0
-91 -167 299 0
150 -221 -283 0
107 178 193 0
85 -183 -314 0
39 -238 329 0
79 87 107 0
-70 -253 -269 0
61 -135 -210 0
-75 193 -273 0
-178 -200 -242 0
51 79 350 0
105 -306 332 0
19 44 -193 0
-56 -163 -247 0
118 250 342 0
-14 86 -330 0
11 -136 208 0
-28 226 -290 0
-120 172 -260 0
-53 -138 -318 0
-93 118 -136 0
74 234 -312 0
202 -210 -290 0
57 -118 152 0
30 71 338 0
-17 208 -286 0
176 178 287 0
-117 160 255 0
-182 254 261 0
157 -217 -294 0
75 -119 -148 0
145 197 -314 0
182 -242 -257 0
-143 -184 222 0
-62 150 -246 0
-96 125 174 0
-197 -200 349 0
-205 -258 346 0
1 -162 -266 0
117 202 -221 0
-48 103 135 0
15 93 187 0
3 196 274 0
42 -102 239 0
91 -120 -275 0
1 -224 244 0
-15 -138 -316 0
233 329 -347 0
13 53 -140 0
-107 294 -338 0
62 -257 261 0
230 -241 -261 0
-66 131 -214 0
-120 -128 -233 0
-4 -13 229 0
-124 -130 220 0
-117 -146 226 0
-45 97 268 0
-19 80 -176 0
-97 -200 348 0
-25 86 -201 0
-94 266 -278 0
-110 293 340 0
163 250 310 0
-32 69 125 0
-218 -265 -331 0
-84 -99 -191 0
-163 225 340 0
-59 -80 113 0
-11 24 189 0
-212 292 300 0
-70 -272 -343 0
34 -276 279 0
-105 -215 316 0
12 -123 315 0
-57 -133 239 0
-196 197 -260 0
-23 -46 80 0
-223 -246 270 0
60 223 311 0
61 -127 -221 0
-60 -177 197 0
31 174 -278 0
-12 133 -327 0
-51 288 -315 0
54 267 -293 0
-18 115 267 0
-91 118 -340 0
-81 138 179 0
-66 161 239 0
-158 168 339 0
8 150 -314 0
-104 -263 284 0
-213 258 273 0
166 -238 304 0
-224 322 345 0
5 -138 -327 0
148 281 335 0
-29 -133 -306 0
-116 -130 -299 0
63 192 217 0
16 197 -245 0
-51 66 -94 0
64 -212 -270 0
-138 207 221 0
104 183 269 0
-75 96 155 0
81 120 214 0
127 -154 269 0
-32 -86 211 0
-198 270 274 0
6 45 273 0
-203 -231 -346 0
133 203 339 0
24 -28 108 0
-69 231 339 0
-180 -184 -342 0
12 -69 -246 0
155 -226 -243 0
-170 -179 -327 0
153 257 -346 0
111 136 -264 0
-133 -175 222 0
100 132 235 0
53 132 306 0
-89 -317 339 0
9 337 -346 0
-121 -202 256 0
60 222 299 0
-140 273 -305 0
95 -101 164 0
-259 303 314 0
28 224 310 0
159 170 -215 0
-71 -162 -337 0
139 -170 312 0
-56 -133 -263 0
-82 312 344 0
-58 -96 300 0
135 -142 218 0
5 21 312 0
198 -209 247 0
44 201 330 0
-15 25 -212 0
208 -209 280 0
66 288 330 0
-148 -241 296 0
5 207 326 0
80 146 328 0
4 -166 171 0
-45 -107 -191 0
241 249 -350 0
-197 -207 225 0
-74 -113 330 0
37 -74 80 0
-35 -269 -341 0
-206 -245 -341 0
-20 -119 -258 0
4 -128 263 0
189 223 317 0
21 -184 292 0
-138 -175 249 0
-121 -332 336 0
23 -246 -270 0
110 -248 298 0
-162 -227 314 0
201 -220 -263 0
-109 124 -152 0
-122 234 -307 0
74 125 -132 0
-93 105 246 0
-108 -255 -277 0
-104 -182 263 0
23 -99 101 0
-129 -148 -257 0
28 198 -345 0
-82 -137 -315 0
113 192 247 0
-9 260 338 0
-11 22 -49 0
66 -295 -313 0
82 95 303 0
-117 133 -254 0
-41 70 105 0
-9 180 -302 0
42 143 317 0
107 -296 346 0
75 -249 276 0
-90 -234 343 0
141 327 -333 0
-140 181 -251 0
34 -201 283 0
49 -303 334 0
134 217 275 0
-136 168 -226 0
197 200 282 0
-157 228 -316 0
45 -105 201 0
239 260 345 0
-49 -120 124 0
109 270 -281 0
47 52 -99 0
-203 -308 329 0
106 177 -180 0
111 266 350 0
122 -233 -242 0
-169 201 341 0
190 255 314 0
-10 -123 210 0
190 265 -325 0
-39 164 350 0
-152 -218 267 0
-40 74 226 0
180 251 -309 0
60 109 -136 0
92 -217 -275 0
-44 294 350 0
126 254 267 0
-134 -239 300 0
63 -122 321 0
7 74 116 0
35 -55 -144 0
-133 296 297 0
-31 -73 -232 0
200 -209 327 0
46 109 304 0
-6 -164 232 0
-170 292 -336 0
-49 228 -333 0
44 -157 189 0
198 -230 -330 0
240 292 313 0
-55 137 -198 0
-136 242 -264 0
8 -89 -138 0
-16 -56 -337 0
-99 170 319 0
-128 184 -242 0
-210 219 224 0
68 232 -286 0
-122 246 -336 0
30 -152 -346 0
-64 270 286 0
-1 -48 174 0
-125 -192 343 0
8 205 231 0
107 -160 169 0
-53 279 316 0
57 85 -228 0
86 -133 226 0
52 -63 159 0
-118 -132 197 0
-5 218 -328 0
-161 -178 -263 0
84 140 -177 0
-12 -166 -330 0
11 -127 346 0
-102 200 309 0
-212 -240 252 0
102 -105 291 0
-45 -266 338 0
-12 -41 220 0
-102 -152 -316 0
-20 -33 -45 0
196 -328 -331 0
-1 -206 -284 0
-79 -205 -346 0
-190 -241 281 0
-20 -178 -218 0
-34 117 -350 0
13 174 -320 0
36 51 91 0
-6 -267 335 0
-149 204 226 0
55 -81 -246 0
155 -157 -201 0
-31 35 -237 0
159 -281 325 0
21 -22 218 0
30 151 159 0
-80 87 305 0
11 70 288 0
60 312 -339 0
-42 -59 222 0
-53 -71 277 0
42 260 321 0
-191 -194 -271 0
47 -124 -290 0
-146 181 259 0
1 74 132 0
60 -248 -251 0
-21 -72 89 0
-49 257 -324 0
98 165 -326 0
-53 -141 205 0
-119 170 -327 0
-82 139 -275 0
-41 172 -333 0
-92 -117 336 0
88 -103 -255 0
22 133 348 0
89 169 208 0
-98 -279 -330 0
60 -178 -187 0
-96 117 246 0
-212 254 315 0
-196 220 -348 0
33 -82 292 0
51 -79 -129 0
-216 -268 -331 0
-62 -129 -238 0
146 -193 312 0
-140 217 336 0
-44 213 285 0
-200 -253 -348 0
244 285 -297 0
108 158 221 0
85 -233 -311 0
-80 -226 -251 0
-23 -115 -269 0
274 -305 333 0
72 -75 259 0
-14 23 251 0
72 -239 322 0
-67 -155 183 0
52 -53 -169 0
93 -188 -298 0
110 -208 -325 0
-222 -249 343 0
106 -218 220 0
-71 -165 -239 0
-84 126 -176 0
80 -113 -255 0
-45 90 -339 0
60 -183 -340 0
159 168 -171 0
87 -96 328 0
41 133 -269 0
-46 201 238 0
30 -58 78 0
42 145 -296 0
-89 -207 -272 0
-90 -321 332 0
-44 -83 109 0
-170 -218 265 0
-72 90 179 0
-34 65 -226 0
62 116 166 0
-162 -281 -316 0
-139 259 340 0
101 -140 -257 0
-25 -57 -90 0
163 -173 -312 0
-14 75 267 0
10 44 288 0
160 165 342 0
-91 -118 -185 0
21 108 -201 0
6 79 213 0
-144 -151 -163 0
-137 -169 -252 0
-172 -206 344 0
-110 -153 240 0
92 98 245 0
139 258 -260 0
-63 128 247 0
20 28 265 0
-76 -108 289 0
50 -193 251 0
-115 -306 311 0
49 72 215 0
-137 142 -347 0
52 -173 280 0
-32 97 -176 0
-64 219 -302 0
153 -253 312 0
87 -170 -177 0
4 318 -321 0
-35 -233 -349 0
15 -146 208 0
-68 154 -169 0
-4 228 -312 0
14 92 -153 0
232 -263 -274 0
68 185 288 0
-58 104 125 0
-136 -169 -193 0
-20 -160 266 0
-8 -243 268 0
151 179 -289 0
-61 103 -181 0
-86 131 319 0
96 200 211 0
-35 -111 275 0
82 -87 -311 0
-32 110 275 0
25 305 -333 0
-103 267 338 0
-1 -191 280 0
-7 -156 298 0
144 -169 178 0
-8 20 -181 0
-120 -221 292 0
90 233 294 0
-47 66 202 0
56 281 -334 0
-88 145 -208 0
216 -266 323 0
-17 213 347 0
95 174 235 0
-62 -103 -151 0
-74 -93 296 0
-57 196 -292 0
114 -199 -210 0
24 316 -330 0
115 249 293 0
-15 85 156 0
271 -318 -327 0
7 71 -188 0
-139 314 342 0
-99 137 -302 0
151 -191 252 0
-100 146 184 0
97 -103 194 0
14 -178 201 0
-103 131 262 0
-217 257 346 0
63 -148 -151 0
127 276 -298 0
-99 -184 219 0
-72 238 322 0
-206 -236 -247 0
-24 73 -146 0
35 -91 304 0
-55 -150 321 0
-26 -207 290 0
84 126 335 0
152 -184 249 0
96 175 -307 0
-53 77 263 0
-54 -288 -350 0
47 172 -316 0
133 -175 -263 0
34 66 -231 0
-131 144 -172 0
-125 -165 -327 0
-9 -104 -193 0
12 -280 309 0
48 74 -223 0
101 186 336 0
-163 222 342 0
-141 236 324 0
6 81 232 0
28 48 -190 0
-131 -160 -290 0
26 259 316 0
51 72 119 0
-223 -303 -315 0
-8 316 326 0
-154 -284 313 0
235 -291 -293 0
158 -286 -340 0
-137 232 -264 0
-40 166 224 0
54 169 302 0
10 159 -237 0
-122 -141 264 0
-206 -229 -309 0
-8 296 -309 0
-47 -79 -198 0
114 -143 -320 0
49 133 244 0
-129 171 -185 0
-90 -175 344 0
-156 -259 -277 0
-11 39 -179 0
-136 151 -316 0
81 125 178 0
194 -195 228 0
-7 236 348 0
53 -205 239 0
-6 -30 -71 0
-35 -171 -247 0
25 -119 267 0
164 196 348 0
-16 125 288 0
-253 -277 293 0
89 -135 -229 0
141 -175 321 0
31 -52 349 0
10 22 274 0
72 -78 -281 0
-10 148 190 0
-6 -189 302 0
-190 295 -347 0
-97 185 295 0
95 269 -308 0
287 298 -299 0
-131 135 -240 0
-50 185 -215 0
92 -173 -230 0
138 -181 340 0
-81 -103 299 0
1 -70 -188 0
-27 -49 291 0
2 -221 -315 0
-218 -253 308 0
-86 91 -159 0
82 200 -295 0
-10 -161 235 0
-15 160 -291 0
-8 -106 192 0
-4 113 -312 0
284 296 -326 0
-246 -290 339 0
-16 -203 -307 0
-73 -149 256 0
-94 -104 237 0
-104 -210 270 0
84 139 -159 0
67 84 178 0
-54 -65 130 0
-32 143 -294 0
-134 172 306 0
-16 -175 218 0
62 -216 -218 0
5 -21 -77 0
-15 172 191 0
99 -284 -317 0
22 -43 74 0
211 -292 331 0
47 -53 174 0
-88 -111 337 0
-6 -105 268 0
-53 -261 -316 0
120 256 261 0
136 222 329 0
-59 168 170 0
34 -156 -293 0
77 116 167 0
-21 -28 292 0
112 -127 218 0
-53 152 -230 0
-98 135 246 0
-180 -207 -292 0
-68 86 306 0
-177 312 -350 0
109 -203 -229 0
-13 18 185 0
-25 -28 -209 0
-14 285 -330 0
23 141 -174 0
335 340 346 0
18 -277 -294 0
52 56 93 0
-119 -248 310 0
-27 268 272 0
-67 202 338 0
-61 -80 -117 0
99 -132 312 0
72 -253 -294 0
-246 -299 -342 0
119 -273 328 0
-123 -156 -175 0
164 166 -195 0
53 -100 154 0
-109 162 -215 0
187 -201 -268 0
50 -86 -348 0
5 200 202 0
-31 -213 -218 0
21 137 243 0
78 287 -316 0
-72 -218 259 0
39 138 327 0
-7 -15 -69 0
-11 196 270 0
-5 -86 335 0
-14 161 -348 0
-31 -194 222 0
57 111 -324 0
119 -142 -165 0
45 300 -308 0
-12 -182 245 0
20 -91 270 0
154 273 310 0
-13 -294 -343 0
-143 -145 314 0
35 226 330 0
85 -174 -213 0
131 182 -321 0
-57 -295 339 0
52 -234 322 0
-18 -210 -288 0
-43 -73 145 0
287 341 -344 0
210 260 323 0
-106 146 -285 0
68 146 -197 0
106 151 -230 0
6 224 -282 0
-119 -138 215 0
47 -111 -168 0
100 143 -169 0
106 127 -144 0
23 -41 -119 0
15 -217 -323 0
23 -291 -336 0
-58 196 -314 0
115 187 -317 0
-98 -237 338 0
-2 35 -344 0
-105 -251 286 0
-3 80 -269 0
92 -164 -321 0
-99 251 318 0
-129 -150 276 0
-36 -253 -336 0
188 -246 284 0
-181 215 -238 0
33 132 -185 0
42 -91 -336 0
-3 -93 -143 0
17 25 -224 0
-24 -47 334 0
10 -60 137 0
10 -35 129 0
112 123 329 0
170 230 251 0
25 306 -338 0
-5 136 254 0
41 164 -190 0
81 -127 269 0
-52 -147 213 0
57 191 204 0
-16 -210 287 0
9 17 -29 0
58 -323 -333 0
-30 55 -239 0
139 303 308 0
-137 186 190 0
-150 186 210 0
113 172 -251 0
178 274 339 0
120 -317 -327 0
30 -183 321 0
-53 240 -259 0
161 -175 312 0
-162 200 217 0
-192 193 199 0
36 107 193 0
173 194 334 0
-79 -85 -187 0
-149 -154 174 0
-71 232 -347 0
-181 277 323 0
75 167 -183 0
25 -186 315 0
9 233 244 0
105 -107 -332 0
4 -144 153 0
85 -177 211 0
-234 244 -338 0
-12 43 239 0
30 -270 346 0
-66 -210 245 0
17 273 294 0
92 232 237 0
-241 -249 -261 0
174 313 315 0
-230 -246 249 0
-17 -24 168 0
12 -301 311 0
80 -151 274 0
112 -132 -197 0
-77 211 -347 0
-183 -188 -217 0
4 -134 -344 0
48 -110 -163 0
105 -218 -301 0
-9 60 107 0
44 105 -155 0
151 167 -327 0
4 68 -249 0
102 -138 -227 0
-70 -95 -166 0
213 -231 247 0
-136 -215 334 0
176 -252 -321 0
-187 324 329 0
-146 -274 -333 0
234 -332 -336 0
212 -280 -331 0
4 -182 -327 0
31 113 157 0
61 -208 -259 0
27 174 -232 0
129 -140 247 0
103 127 -252 0
-97 177 293 0
100 -106 197 0
155 249 -315 0
-15 28 -112 0
-149 -160 253 0
191 -287 -347 0
61 -190 -274 0
137 180 270 0
48 79 -132 0
179 -200 287 0
104 -211 -279 0
283 287 302 0
-173 213 -273 0
-89 -237 -324 0
-1 -51 175 0
27 -141 273 0
155 253 336 0
124 -257 347 0
-62 -181 -265 0
-58 117 -211 0
-16 156 -175 0
53 191 -315 0
-94 175 -340 0
173 -276 -321 0
-105 -229 -291 0
220 221 -245 0
-22 27 99 0
54 84 266 0
97 220 -271 0
-61 83 -216 0
31 57 102 0
5 -41 -317 0
-75 -269 298 0
-67 143 -165 0
103 -123 -342 0
31 195 -302 0
25 51 220 0
40 157 -341 0
-194 224 -341 0
-39 -181 -345 0
9 315 -337 0
101 -226 230 0
-22 117 -162 0
107 -125 188 0
26 54 -320 0
-55 -275 307 0
-96 225 232 0
94 -257 281 0
-38 133 222 0
56 -125 -328 0
-25 -55 76 0
43 58 103 0
-102 232 -255 0
91 -218 279 0
-68 200 304 0
-116 184 -317 0
238 -310 350 0
-15 -84 162 0
-207 286 313 0
9 244 -341 0
-149 156 -303 0
47 139 -341 0
25 -44 -77 0
33 38 -42 0
-171 310 -312 0
149 207 -314 0
-88 165 -180 0
15 -27 138 0
-7 206 306 0
-21 92 314 0
-153 169 -314 0
113 -136 -138 0
-120 -131 -290 0
141 194 -249 0
90 -101 -333 0
-227 -269 334 0
176 228 -278 0
54 159 301 0
-120 -284 348 0
-47 -152 248 0
-159 -278 -336 0
66 277 -341 0
124 128 -291 0
-57 -173 198 0
197 -234 303 0
-20 -119 192 0
133 -169 306 0
-101 150 269 0
-59 -235 273 0
54 157 258 0
-92 -186 276 0
100 -159 -328 0
138 149 199 0
68 117 -300 0
-83 89 -339 0
160 -284 306 0
79 -108 -113 0
152 -157 229 0
70 237 -245 0
-112 -142 -200 0
-68 -222 -348 0
-27 109 -315 0
25 212 296 0
91 130 -306 0
-12 154 -171 0
106 170 -209 0
161 197 -232 0
60 -232 318 0
-175 -257 335 0
8 186 253 0
132 142 341 0
175 179 350 0
-100 -264 342 0
203 -241 -254 0
-62 -117 -155 0
45 50 -162 0
-31 93 -274 0
14 67 122 0
-175 -179 -247 0
-44 155 -166 0
-163 -317 328 0
-9 62 79 0
-41 -53 -287 0
149 165 -245 0
168 170 212 0
21 161 -292 0
136 -303 308 0
-71 -106 316 0
-42 -136 -193 0
170 223 -326 0
38 75 162 0
160 -248 -300 0
-76 277 333 0
-214 235 326 0
-11 141 314 0
-118 318 329 0
26 124 342 0
33 59 300 0
-79 -112 173 0
-46 -190 302 0
27 167 -262 0
19 -87 -153 0
-88 146 233 0
48 -63 -213 0
92 269 277 0
-79 106 247 0
131 -259 -268 0
61 -201 -218 0
-163 -213 312 0
9 66 253 0
62 117 -129 0
-151 -222 237 0
3 -105 348 0
-18 -112 -158 0
67 110 151 0
26 67 170 0
-25 -61 76 0
53 98 226 0
-5 -225 294 0
-202 262 307 0
-62 75 282 0
18 153 -309 0
133 -231 -249 0
155 -228 234 0
103 -201 215 0
11 257 -338 0
-103 -105 183 0
-24 -222 -252 0
143 197 312 0
-22 -36 -89 0
104 -206 -224 0
-235 -291 337 0
89 -147 -326 0
72 -295 -336 0
156 -223 317 0
104 -146 269 0
-186 -196 209 0
5 -31 161 0
173 -213 -322 0
-76 -179 190 0
-131 -176 328 0
203 212 300 0
138 -230 321 0
5 -25 -142 0
-60 321 -338 0
79 -111 250 0
-55 -135 -252 0
187 279 297 0
65 -140 207 0
-126 -213 -243 0
90 133 -169 0
-174 198 205 0
-85 125 -287 0
19 -70 -137 0
-147 -290 339 0
-8 297 337 0
-62 -226 228 0
-19 239 -345 0
-66 245 -303 0
-159 -213 -277 0
159 161 291 0
-39 127 -218 0
12 278 -330 0
170 -288 350 0
125 201 -247 0
50 -82 234 0
-59 154 160 0
202 -242 -286 0
-58 -153 -292 0
41 -152 -230 0
10 11 -123 0
74 153 217 0
-72 -158 -240 0
-133 -215 -216 0
-92 -122 322 0
50 -94 -289 0
55 142 163 0
34 -163 -296 0
-62 88 219 0
93 161 307 0
-26 49 -101 0
-101 183 259 0
258 -285 -298 0
-28 -104 272 0
209 264 313 0
-83 -162 -319 0
149 -214 -340 0
214 -257 300 0
6 -244 -304 0
-167 248 325 0
-35 95 152 0
49 -98 -293 0
44 132 262 0
-44 120 -342 0
-40 106 118 0
-81 -238 261 0
-58 72 -157 0
112 -222 233 0
2 -258 287 0
46 68 269 0
106 -191 199 0
-74 -120 -241 0
-81 -142 153 0
102 -125 -212 0
-22 -87 106 0
97 149 250 0
-108 -190 288 0
-66 93 271 0
21 207 307 0
196 -292 347 0
207 -270 -277 0
26 -162 248 0
-70 -181 316 0
43 102 -302 0
-60 107 -140 0
201 245 -285 0
-9 37 249 0
101 117 -159 0
201 202 307 0
40 51 254 0
141 -165 -201 0
-51 -331 338 0
31 -139 -338 0
-3 242 290 0
95 -261 -306 0
-71 111 236 0
72 -114 -339 0
177 241 333 0
23 -127 180 0
-19 -225 295 0
-193 -322 -335 0
-175 181 -193 0
101 251 -339 0
-81 -183 -320 0
-13 77 -126 0
-156 314 -342 0
-56 -188 289 0
122 130 -260 0
-107 -267 319 0
-177 -201 -278 0
-208 224 341 0
-44 143 -175 0
43 132 280 0
138 -167 282 0
79 185 -247 0
119 136 -341 0
-276 -291 349 0
-1 260 -312 0
150 -248 344 0
112 117 -217 0
-37 68 173 0
53 90 -109 0
-41 128 270 0
-41 109 141 0
-1 178 303 0
-10 -274 333 0
-72 206 -305 0
-39 -107 -256 0
-2 -90 131 0
37 -308 -336 0
-224 293 326 0
-26 -190 -339 0
174 -271 306 0
-47 -63 -183 0
54 -161 -300 0
84 130 184 0
48 -161 -243 0
87 -220 321 0
-67 -243 249 0
-34 -85 -108 0
-204 269 -319 0
74 82 -135 0
52 -180 -305 0
-71 267 -298 0
-150 -171 -193 0
-55 -65 -234 0
89 -91 110 0
-94 265 295 0
209 241 -286 0
49 -150 -257 0
-21 129 -219 0
-247 -272 -297 0
142 279 319 0
-97 -111 117 0
117 208 279 0
-7 -93 -188 0
-31 75 -344 0
-75 -197 -343 0
87 -166 -291 0
-88 -295 -317 0
168 -209 278 0
156 197 -334 0
6 -114 157 0
-32 -124 -308 0
-44 264 298 0
-31 36 -283 0
75 177 -321 0
-175 -220 -280 0
60 -270 -347 0
59 -184 -348 0
194 203 271 0
-208 211 329 0
82 -182 -313 0
-248 -316 335 0
89 -187 -253 0
100 -138 190 0
60 -271 -313 0
-16 -88 215 0
152 -209 -297 0
-161 -311 327 0
19 -106 -194 0
117 -260 -286 0
57 -69 -128 0
-22 66 -292 0
-21 -132 -238 0
200 -222 -314 0
-10 -128 -156 0
-248 -294 -304 0
-66 -177 310 0
105 -158 266 0
-60 -85 129 0
-95 283 -308 0
-5 303 -324 0
51 169 -330 0
-22 199 296 0
51 178 -286 0
83 -224 -332 0
-2 -44 -232 0
17 21 215 0
-45 -75 -104 0
52 -56 329 0
92 -273 321 0
222 -263 -290 0
196 228 -264 0
42 151 -177 0
-51 94 -127 0
121 -281 294 0
29 -42 -346 0
-200 -207 -322 0
-24 68 -324 0
70 -176 -212 0
-89 -183 313 0
182 298 319 0
46 -127 -311 0
124 155 -346 0
9 30 -326 0
69 100 223 0
12 85 287 0
-3 -102 276 0
-205 237 -268 0
90 102 -249 0
16 -167 198 0
-198 -280 313 0
137 -212 283 0
-5 -180 -327 0
-227 -292 -325 0
-14 126 259 0
-130 -158 -221 0
13 -65 124 0
-284 -288 340 0
-283 314 337 0
52 117 317 0
-218 292 338 0
-133 -293 -315 0
-76 116 131 0
21 -261 -347 0
113 114 -136 0
112 -138 -277 0
-215 -226 -285 0
-144 -149 277 0
-2 -64 -188 0
188 246 285 0
126 203 303 0
-141 155 -239 0
32 -74 -266 0
-103 292 -338 0
-104 130 -202 0
-32 37 -195 0
-12 -73 227 0
-67 77 114 0
15 -36 276 0
-24 111 186 0
16 -158 159 0
122 177 -321 0
163 193 276 0
37 -95 283 0
31 113 227 0
-87 122 -232 0
-221 273 348 0
-35 -137 193 0
-148 150 310 0
116 119 -240 0
35 -166 -255 0
-26 -254 338 0
-89 -287 308 0
55 -194 -209 0
-136 -220 -229 0
53 -130 214 0
-94 163 -205 0
7 16 -348 0
39 104 106 0
-178 -278 282 0
78 -218 253 0
171 245 -301 0
108 -270 -295 0
104 -252 -289 0
-186 -280 -303 0
129 146 251 0
-138 200 268 0
193 -270 -293 0
-127 186 275 0
-114 -210 -226 0
-10 45 306 0
-122 273 296 0
-61 212 252 0
-56 -64 -79 0
90 164 -254 0
169 302 -350 0
-152 258 -303 0
177 -268 -334 0
-107 -304 350 0
2 245 321 0
150 -334 -345 0
-27 55 -130 0
78 -108 235 0
93 -258 266 0
81 -90 -161 0
24 -99 213 0
118 -236 237 0
-110 135 300 0
52 -62 207 0
60 186 -271 0
20 54 -71 0
111 -189 319 0
-165 -214 336 0
-98 123 208 0
-115 -123 -150 0
-26 -32 -322 0
14 53 207 0
-10 23 -147 0
47 -49 294 0
1 121 127 0
-108 -226 -336 0
-6 -313 -342 0
-214 248 304 0
-108 112 -206 0
137 -332 -340 0
-9 97 213 0
-124 -163 -335 0
94 -100 301 0
198 -288 303 0
-94 -155 -301 0
210 -227 303 0
-127 188 346 0
168 -264 -325 0
13 -291 323 0
142 151 226 0
34 62 301 0
50 173 288 0
-69 -134 180 0
2 -151 276 0
-168 196 253 0
-118 136 156 0
78 167 -288 0
44 -173 315 0
8 21 -142 0
-133 -163 340 0
313 -333 -341 0
-155 184 -293 0
58 -219 -224 0
86 -136 201 0
71 83 265 0
-152 -153 188 0
-143 -151 176 0
10 145 219 0
147 260 -331 0
44 272 -303 0
-51 -297 341 0
-8 45 -229 0
-109 -121 255 0
-76 78 -335 0
-79 95 168 0
-40 134 -324 0
123 -230 330 0
143 -219 -291 0
45 95 -97 0
-64 175 304 0
154 170 -272 0
96 212 -321 0
-103 -128 157 0
130 266 273 0
95 209 -293 0
-208 -227 -261 0
46 -139 248 0
-41 43 -332 0
-97 -202 214 0
-69 -162 258 0
-29 -67 -86 0
129 207 -309 0
166 247 -326 0
-76 115 -140 0
-209 226 236 0
3 109 159 0
-88 103 194 0
9 -17 -310 0
138 210 306 0
12 -112 154 0
118 -166 -273 0
-246 -284 294 0
56 279 297 0
-210 218 310 0
3 -166 224 0
-54 143 -293 0
-16 93 -98 0
29 -343 -346 0
-52 197 -202 0
73 -118 195 0
-32 -188 261 0
38 -122 191 0
-51 -247 279 0
-83 92 -270 0
68 -153 219 0
37 -97 249 0
-115 -210 253 0
-37 218 225 0
-10 39 -180 0
44 -75 343 0
-4 38 -145 0
270 281 285 0
33 -99 -213 0
200 -301 -337 0
-29 192 -242 0
-91 128 145 0
-98 -120 328 0
4 67 262 0
199 -281 -282 0
-34 101 120 0
-141 -150 -218 0
-131 173 282 0
-35 -66 243 0
142 -205 -212 0
-30 268 -300 0
99 223 -325 0
-37 142 -299 0
30 43 -165 0
6 172 -176 0
-13 181 -219 0
176 -305 334 0
-284 319 -350 0
-194 -247 286 0
-13 -162 217 0
151 161 311 0
66 -212 -302 0
-138 170 323 0
-16 -191 331 0
113 199 -296 0
-9 -203 -301 0
95 -185 -193 0
49 -133 172 0
51 98 230 0
29 157 183 0
168 -246 276 0
21 -59 -166 0
-179 195 296 0
101 -139 326 0
3 15 -259 0
236 -254 284 0
-96 -237 282 0
-15 -34 237 0
27 237 299 0
81 226 340 0
176 -192 -222 0
53 255 315 0
-6 -91 235 0
9 -306 322 0
64 260 274 0
43 -59 341 0
59 -162 187 0
-26 269 302 0
-168 302 339 0
178 250 329 0
143 -174 -178 0
148 -163 -332 0
78 133 -349 0
5 -158 244 0
287 -312 332 0
50 -198 336 0
87 -145 -287 0
119 197 -213 0
-158 -164 -256 0
204 207 242 0
145 -165 -269 0
40 168 251 0
-2 128 -202 0
-52 198 215 0
116 148 -285 0
79 -105 116 0
43 114 -238 0
-67 -182 -218 0
70 316 -330 0
-38 112 -335 0
198 -240 348 0
28 -53 -209 0
85 158 349 0
322 -331 337 0
-89 -118 224 0
-39 -243 306 0
-56 -87 243 0
88 160 -213 0
9 149 -325 0
-58 78 120 0
84 192 -250 0
-14 -138 209 0
107 -181 341 0
-128 257 331 0
-40 262 -317 0
-15 -262 296 0
-110 178 337 0
36 -97 -281 0
-95 118 -202 0
138 -213 -333 0
49 -51 314 0
227 303 -348 0
97 -104 -320 0
130 -279 -280 0
-71 316 319 0
-39 -170 330 0
-17 18 240 0
277 -320 331 0
124 -242 -330 0
43 -251 270 0
-61 103 -264 0
59 -300 341 0
71 -144 -333 0
-239 269 294 0
110 184 -243 0
-98 -265 -300 0
-137 175 -204 0
99 131 284 0
-188 -325 -333 0
-25 -130 -154 0
125 184 306 0
37 180 219 0
-167 -200 295 0
1 198 346 0
11 -117 -241 0
-182 -223 283 0
35 144 159 0
-146 175 345 0
64 261 -347 0
-22 -201 -209 0
-56 -92 105 0
-147 -192 -265 0
174 -290 336 0
-148 233 303 0
60 -126 -204 0
98 137 -159 0
-24 -121 -333 0
-152 -276 -282 0
-1 64 66 0
-112 138 -222 0
-8 -48 191 0
-171 204 -238 0
-64 -188 245 0
114 293 -310 0
-5 -113 -133 0
-69 173 268 0
-266 298 -327 0
-44 145 -167 0
84 120 130 0
-49 120 146 0
-146 210 315 0
39 204 -275 0
-95 -113 -316 0
-200 224 306 0
-35 -60 -146 0
-236 303 -324 0
-5 88 244 0
-11 -117 -255 0
-259 -300 -323 0
-22 114 273 0
-70 -162 227 0
65 242 -333 0
-26 -143 239 0
-145 262 292 0
-74 -130 -344 0
154 -255 308 0
60 68 -89 0
20 102 195 0
148 -264 274 0
-43 62 -334 0
-6 -51 -290 0
30 211 315 0
-24 -77 273 0
15 108 139 0
16 61 -182 0
-140 -224 293 0
53 192 315 0
-65 293 347 0
31 148 315 0
-135 196 330 0
-69 79 -102 0
48 -57 -219 0
-50 63 124 0
-221 234 -281 0
172 -208 -305 0
211 -243 -279 0
204 205 -308 0
-101 113 122 0
220 -240 283 0
148 318 327 0
46 141 334 0
71 -160 204 0
-24 89 -240 0
-16 -121 281 0
-31 59 -301 0
-131 -200 256 0
5 -254 -289 0
-154 270 -334 0
36 -264 -301 0
-54 113 150 0
84 -173 -179 0
39 98 -326 0
77 -253 332 0
111 -269 309 0
13 -284 -297 0
-150 281 282 0
-13 101 312 0
-269 293 -343 0
-164 -257 -337 0
189 -226 309 0
-172 188 339 0
-67 -247 -329 0
19 -90 -279 0
-42 70 234 0
35 -89 -263 0
107 -258 269 0
5 299 344 0
-66 79 96 0
21 -294 -312 0
212 -263 -303 0
-75 201 343 0
-81 -133 -327 0
-23 123 -230 0
97 260 -332 0
94 -120 135 0
299 304 330 0
36 -287 332 0
185 281 -342 0
-169 -278 306 0
