c F2 random 3-CNF cnfgen RandomKCNF(3,100,500,seed=5) m/n=5.0
p cnf 100 500
-33 80 -95 0
32 84 100 0
-32 48 61 0
-2 -28 94 0
21 50 -99 0
1 17 27 0
26 38 41 0
-3 -39 50 0
-9 -19 34 0
-77 87 -91 0
-40 46 -62 0
23 -61 91 0
46 -52 -96 0
-2 49 75 0
16 -26 -80 0
-46 -66 68 0
-76 -96 100 0
-12 -27 56 0
36 -44 -90 0
11 -23 -40 0
7 -21 93 0
-31 -77 -95 0
19 54 -84 0
17 -27 43 0
22 48 -56 0
19 -38 -59 0
-41 -89 -94 0
19 -52 61 0
44 64 -81 0
-35 66 -71 0
76 -85 -89 0
-72 -86 -91 0
-89 -92 99 0
-2 -61 -75 0
-37 -60 -65 0
-45 -83 95 0
-47 58 89 0
-26 47 -62 0
-22 -79 -100 0
4 -26 93 0
29 88 -98 0
7 22 -29 0
24 -25 -62 0
45 49 85 0
-1 -48 -92 0
-15 53 -89 0
-13 -38 -70 0
-17 -53 54 0
-21 49 77 0
12 -45 78 0
42 -73 -79 0
-29 -55 -56 0
49 -50 -91 0
33 -54 -64 0
-19 37 63 0
57 -80 85 0
-2 -18 51 0
-5 -32 61 0
-37 -38 93 0
-3 -17 -98 0
38 -79 -94 0
47 88 96 0
33 59 71 0
-55 -77 -100 0
51 -88 -93 0
9 -39 -98 0
-61 83 100 0
-62 -71 89 0
55 70 75 0
9 -11 -35 0
-9 52 90 0
16 29 -79 0
20 57 -91 0
9 21 80 0
49 -85 96 0
-16 74 96 0
-12 -41 -56 0
8 -48 84 0
-73 81 -87 0
-9 -31 71 0
-31 48 59 0
-3 84 92 0
-12 16 -65 0
42 60 -62 0
7 20 55 0
28 -63 -86 0
-31 -38 -43 0
-18 -46 -93 0
5 67 -76 0
5 9 13 0
-6 -26 63 0
-39 -55 -61 0
13 25 60 0
48 -50 61 0
-21 36 97 0
-5 -45 62 0
-3 -87 89 0
-16 -42 86 0
5 21 94 0
-11 -80 -85 0
-24 47 -60 0
21 31 100 0
-56 78 -83 0
-8 58 100 0
-5 67 71 0
-12 31 63 0
-7 64 83 0
-33 53 58 0
-23 25 90 0
11 14 41 0
28 -80 -94 0
-55 63 74 0
-40 89 97 0
18 -40 -62 0
17 -41 69 0
11 -55 90 0
32 64 -90 0
-10 -13 -48 0
72 -97 99 0
4 57 74 0
35 -55 90 0
9 40 -42 0
-42 64 87 0
70 95 98 0
-7 -17 46 0
30 -55 68 0
2 43 46 0
35 68 -78 0
55 -56 -98 0
-30 58 -60 0
7 -86 -99 0
1 -14 77 0
1 -5 -27 0
28 -51 60 0
-39 67 -72 0
32 -46 -85 0
-19 -31 45 0
13 -22 51 0
-42 62 97 0
2 49 -89 0
3 -41 -87 0
-61 -65 70 0
-19 54 69 0
4 -10 -37 0
2 36 40 0
-12 -86 97 0
12 62 -67 0
51 -55 -70 0
23 -84 -97 0
-14 42 89 0
-28 38 40 0
10 53 81 0
-73 -81 82 0
55 -62 -68 0
-11 36 -78 0
-4 15 -20 0
25 -42 77 0
8 -18 63 0
50 -60 83 0
1 25 87 0
20 -43 -48 0
24 -92 99 0
-9 -26 27 0
59 88 -96 0
49 60 -70 0
-1 -17 -88 0
-10 63 96 0
46 -62 -97 0
19 38 -64 0
-9 44 53 0
31 35 -54 0
-13 62 -71 0
-12 32 58 0
-1 19 99 0
-33 59 72 0
25 -28 57 0
-36 77 88 0
-21 51 99 0
-4 -54 -99 0
-2 22 -97 0
25 -55 100 0
-25 51 -54 0
1 37 -47 0
10 -49 88 0
-3 -26 -83 0
18 -31 60 0
2 -24 55 0
-48 84 97 0
38 -67 90 0
-14 -52 -83 0
-62 71 75 0
3 -34 70 0
31 62 86 0
28 54 -99 0
8 -31 -65 0
-3 -72 -100 0
-14 -16 -84 0
22 -39 49 0
-28 68 -95 0
48 -53 -71 0
1 -9 64 0
8 -12 95 0
-34 -44 48 0
-16 34 -95 0
22 -50 -81 0
18 -23 77 0
-2 6 59 0
-16 -53 76 0
15 69 90 0
-9 59 -92 0
-16 -52 -97 0
-1 -39 -98 0
20 -49 -84 0
27 59 -79 0
-11 -55 82 0
18 -26 -63 0
-3 -19 56 0
31 -72 -85 0
38 41 -79 0
-46 -55 67 0
15 -89 99 0
14 37 -81 0
-23 43 -82 0
13 -40 -43 0
9 39 53 0
-13 65 -95 0
-10 29 -54 0
-14 -84 88 0
14 49 60 0
13 -69 -79 0
-15 -35 40 0
-18 27 66 0
42 68 -92 0
-7 -60 -83 0
-22 -37 -96 0
52 91 98 0
59 -89 94 0
18 -22 -32 0
60 -80 87 0
-33 39 75 0
-4 -27 -98 0
-37 67 -78 0
-18 -54 -68 0
17 38 99 0
-21 -40 -63 0
-60 -76 87 0
21 -64 -74 0
6 -30 48 0
22 26 -95 0
-14 50 -84 0
2 27 -85 0
40 56 -75 0
-71 72 -77 0
-1 19 -68 0
2 25 99 0
-57 -59 61 0
-4 90 99 0
57 65 -84 0
-13 26 69 0
1 -29 51 0
-25 -39 94 0
15 50 99 0
-19 52 -58 0
59 -68 99 0
-30 54 55 0
33 42 75 0
-13 -47 82 0
24 37 -81 0
-1 -14 96 0
20 48 -63 0
-34 -62 -97 0
-22 51 55 0
14 -38 62 0
-11 84 86 0
42 -53 -94 0
-6 99 100 0
83 88 -98 0
-28 -61 66 0
-36 55 79 0
-12 38 -76 0
13 -38 -53 0
-12 27 -44 0
-13 42 -64 0
8 -77 -90 0
-34 59 -65 0
-26 -53 85 0
-9 17 -57 0
47 54 78 0
-19 58 94 0
76 90 97 0
-37 38 81 0
38 -56 -59 0
5 -60 -80 0
12 -41 -80 0
44 -48 -81 0
17 -34 -58 0
-23 24 -36 0
25 -33 -41 0
16 37 49 0
-32 52 85 0
40 -71 -100 0
21 45 79 0
-5 35 64 0
29 -41 -43 0
3 5 90 0
16 40 89 0
-75 -95 -99 0
-22 -53 100 0
-23 31 -51 0
8 -30 61 0
-5 37 -63 0
16 19 -95 0
-31 48 79 0
-42 -67 -76 0
-28 -35 82 0
2 76 88 0
12 39 73 0
50 -83 86 0
22 -27 98 0
-40 57 81 0
60 -70 -76 0
2 39 67 0
-40 -49 -84 0
18 25 58 0
24 38 -64 0
-21 -36 92 0
40 46 82 0
-30 -36 -78 0
-9 51 -62 0
62 -86 93 0
-26 -65 99 0
48 -56 79 0
73 -79 80 0
54 -62 -63 0
57 63 -81 0
29 91 92 0
-58 84 100 0
2 63 90 0
-9 55 98 0
-3 -43 97 0
-21 -64 66 0
41 -76 99 0
-25 -27 -71 0
-30 31 -86 0
-30 -43 62 0
-1 47 56 0
31 -37 41 0
-14 -38 81 0
-68 69 81 0
-13 -14 86 0
-29 41 70 0
-55 56 84 0
-34 68 92 0
-1 40 41 0
-39 47 -71 0
-1 -55 -67 0
-13 61 95 0
14 -15 55 0
-61 67 87 0
-4 -16 91 0
44 -60 -87 0
-27 -30 -34 0
-9 -11 35 0
7 60 86 0
55 67 -76 0
-9 31 88 0
58 -63 83 0
-15 -47 62 0
-42 60 86 0
-36 -66 85 0
-45 48 96 0
-49 -53 -67 0
29 53 -77 0
6 -13 -100 0
-15 86 -93 0
15 -29 -51 0
-21 -30 -45 0
40 42 64 0
42 59 -97 0
-12 39 -46 0
63 -65 90 0
35 51 57 0
21 -54 -97 0
-3 -4 99 0
29 -68 -90 0
-27 79 90 0
-37 -62 -78 0
-34 41 -92 0
51 -61 85 0
11 -14 75 0
-18 47 -64 0
-42 48 77 0
74 -76 91 0
-9 45 94 0
7 50 -98 0
-10 28 -98 0
1 13 -96 0
-64 65 75 0
-18 -63 71 0
-18 -81 84 0
5 -50 88 0
-46 -76 -88 0
-30 -42 -54 0
4 16 -93 0
-18 42 -43 0
10 35 50 0
10 66 87 0
-56 -64 97 0
25 48 -77 0
-5 -35 94 0
17 42 79 0
26 57 -81 0
-10 33 -64 0
23 68 75 0
13 -42 73 0
-31 69 78 0
15 45 49 0
35 -41 -61 0
27 31 76 0
-16 -76 94 0
-35 77 88 0
-3 29 70 0
-23 34 -50 0
-26 34 -47 0
22 -63 93 0
-22 -67 88 0
10 15 -57 0
-47 95 -99 0
30 -61 85 0
-21 34 -70 0
-4 -6 35 0
15 -48 -75 0
66 -88 -89 0
50 -64 -91 0
28 33 -55 0
-44 48 55 0
-17 33 100 0
-11 22 25 0
-72 -78 -84 0
-16 -37 -49 0
11 32 -81 0
-30 -32 65 0
-46 54 -59 0
-11 45 -89 0
-9 85 -88 0
-4 23 70 0
-9 -57 64 0
31 -57 81 0
-13 -53 61 0
34 72 86 0
19 -88 -90 0
58 63 -82 0
5 -19 68 0
1 -38 100 0
-17 57 82 0
43 59 92 0
-25 -57 -92 0
-10 19 75 0
-11 -12 -14 0
-29 -30 -98 0
-9 -51 60 0
2 -18 -61 0
-10 -76 78 0
-11 60 -71 0
28 -51 -56 0
-26 29 -74 0
-56 70 -82 0
-46 -90 -94 0
-7 25 -86 0
22 -39 -74 0
-17 18 -44 0
-32 -51 73 0
-27 68 84 0
-65 -78 92 0
-12 36 -86 0
27 -89 -97 0
-20 48 67 0
37 40 57 0
11 14 -75 0
-56 -77 -93 0
-6 51 53 0
-26 49 65 0
12 -19 73 0
-96 -98 -99 0
8 -24 57 0
32 -45 74 0
-31 -74 83 0
-19 29 -76 0
55 68 69 0
-39 -77 81 0
-35 -79 -81 0
2 7 83 0
25 35 63 0
-24 -26 43 0
16 -23 -45 0
21 54 -85 0
32 35 53 0
77 88 -90 0
-27 51 56 0
-58 78 -83 0
