c F2 random 3-CNF cnfgen RandomKCNF(3,350,1750,seed=1) m/n=5.0
p cnf 350 1750
-33 69 -292 0
-231 242 334 0
-15 200 -250 0
118 -137 303 0
12 -14 333 0
15 -217 -271 0
120 177 -284 0
12 149 -214 0
-62 171 -257 0
-146 256 -301 0
125 -207 -213 0
45 225 -340 0
-16 190 -251 0
-297 304 315 0
7 117 -258 0
-177 -264 -296 0
281 -312 338 0
-106 266 -288 0
187 -284 -292 0
178 -183 -213 0
15 118 308 0
17 131 283 0
8 -144 232 0
-95 177 320 0
82 -131 -271 0
-165 233 255 0
-160 176 -198 0
56 -130 262 0
10 116 204 0
-229 260 -348 0
115 -269 -333 0
219 -324 338 0
25 109 -157 0
-82 153 214 0
20 -288 303 0
-20 261 -319 0
-51 106 -294 0
-54 -200 341 0
-167 206 314 0
103 -168 -289 0
110 -137 -346 0
249 273 274 0
44 69 -87 0
-171 -260 -308 0
59 -150 175 0
-54 283 -297 0
38 -76 195 0
194 301 315 0
137 -152 -187 0
24 56 152 0
21 59 -212 0
60 83 231 0
-53 -194 -223 0
-52 107 162 0
-6 -152 -306 0
33 -161 -205 0
-58 -111 -129 0
-94 107 278 0
42 -144 185 0
-295 330 -334 0
22 -158 -168 0
52 126 172 0
11 -125 206 0
12 -39 -326 0
79 -241 253 0
89 261 341 0
-55 157 164 0
-17 73 280 0
154 222 276 0
-33 -130 -350 0
-225 276 -278 0
-88 133 -174 0
-10 32 293 0
-71 -133 142 0
-46 120 314 0
-163 257 271 0
161 -246 -254 0
-287 313 335 0
-37 262 331 0
-153 154 -160 0
-44 64 305 0
112 -129 -219 0
179 197 327 0
-52 131 322 0
-42 316 -338 0
-85 -204 222 0
109 -250 -319 0
-61 152 -339 0
-3 98 287 0
-125 311 322 0
76 -146 -278 0
-129 300 -350 0
63 -216 252 0
13 56 -146 0
70 -333 -346 0
-224 -258 347 0
-64 -227 -231 0
-174 293 -350 0
105 -196 286 0
-237 -265 308 0
231 -318 343 0
-200 -297 -348 0
-35 300 -319 0
11 -209 -323 0
38 -92 -310 0
156 -211 -279 0
87 -240 249 0
-36 217 -303 0
11 85 -260 0
-142 310 326 0
122 138 -171 0
240 262 -286 0
-139 285 -335 0
-89 -205 -288 0
114 133 -313 0
-128 163 222 0
-85 297 -321 0
84 236 -270 0
159 185 206 0
35 157 -349 0
52 165 253 0
12 -111 -306 0
141 176 340 0
-114 -120 -205 0
-87 -119 -121 0
-109 -133 232 0
24 41 -110 0
-164 197 -298 0
78 82 -331 0
75 -278 -341 0
-41 67 237 0
32 269 -275 0
47 61 -222 0
67 -143 -327 0
-138 169 324 0
31 -302 -303 0
287 -310 -327 0
-103 275 -276 0
38 129 313 0
31 105 220 0
-241 257 -263 0
21 -65 273 0
-13 203 -229 0
44 -155 167 0
-67 -134 161 0
-49 156 348 0
-170 -174 261 0
67 -230 335 0
-103 190 -200 0
65 177 -295 0
-161 -274 -334 0
140 167 181 0
163 -167 -168 0
-187 233 246 0
-25 -69 269 0
-174 -186 -294 0
175 238 307 0
114 129 289 0
26 -211 318 0
35 105 134 0
-89 262 -330 0
113 -146 250 0
-218 232 -346 0
38 132 -209 0
-40 -250 264 0
4 -181 235 0
-62 -155 -277 0
-210 -266 -278 0
68 228 -260 0
5 -218 -326 0
145 206 338 0
-3 -138 -197 0
-173 -247 326 0
-75 182 248 0
89 -134 -189 0
-133 -148 -264 0
-111 -172 -249 0
33 47 67 0
14 -53 130 0
96 205 -333 0
27 -282 -314 0
-25 53 -334 0
92 143 246 0
-64 -200 -343 0
-60 202 311 0
104 -198 -315 0
148 -253 -275 0
-5 -53 337 0
-226 277 321 0
139 -141 261 0
-67 100 132 0
-139 -144 -212 0
-110 -252 256 0
91 -174 311 0
30 167 -259 0
-246 253 319 0
72 116 132 0
60 -116 -289 0
-3 11 168 0
-115 -144 -349 0
-12 63 169 0
74 -129 349 0
-48 53 -154 0
26 186 272 0
191 205 -327 0
-5 141 -264 0
-65 -311 329 0
-296 -318 -348 0
-113 155 324 0
57 261 308 0
141 -223 -280 0
135 -243 272 0
-36 192 -336 0
68 229 350 0
-111 -248 -347 0
-80 -82 196 0
-75 139 308 0
68 -195 330 0
-222 -307 -348 0
-208 210 311 0
20 242 331 0
-72 -272 -301 0
126 243 -319 0
-21 -60 -82 0
130 -321 -337 0
-151 -184 193 0
266 313 -326 0
59 -263 -345 0
-12 63 -299 0
90 204 324 0
169 -172 -337 0
190 -253 -334 0
-62 -205 278 0
-7 77 193 0
-39 -94 -335 0
79 -80 269 0
204 -238 325 0
128 217 -279 0
39 123 -340 0
12 -263 300 0
21 98 -265 0
61 -239 291 0
-49 287 329 0
-7 -11 -160 0
-69 -86 -305 0
-86 203 -284 0
-78 -143 185 0
-43 185 -319 0
-130 -131 -179 0
-7 67 77 0
37 -276 297 0
-72 -284 296 0
40 43 321 0
196 208 214 0
-72 124 -196 0
-92 116 -183 0
150 -252 275 0
12 -149 -238 0
30 -131 317 0
53 -68 323 0
-107 259 260 0
197 -265 339 0
-62 -104 289 0
20 138 -327 0
-141 -216 -339 0
51 67 -343 0
-23 -110 251 0
40 -49 -348 0
89 -97 -305 0
101 -120 185 0
23 235 -313 0
23 -241 299 0
-205 -263 -294 0
-26 181 -241 0
156 -163 302 0
-185 213 311 0
19 272 -294 0
173 -189 283 0
-43 -249 325 0
83 167 185 0
-56 -207 -302 0
-134 175 312 0
-127 -136 323 0
-39 88 137 0
-145 283 329 0
51 -142 246 0
-39 -279 -282 0
-19 -69 265 0
15 162 -214 0
95 102 120 0
101 -137 -235 0
172 182 315 0
-17 85 251 0
44 118 269 0
108 -148 -227 0
167 201 335 0
-97 -153 -320 0
11 -12 -250 0
-38 174 -332 0
-289 -312 -339 0
-85 -138 -346 0
8 -131 -159 0
-119 183 -261 0
-75 -172 321 0
57 -183 329 0
-8 -157 -194 0
26 -107 302 0
34 -331 -344 0
120 175 -312 0
-151 -155 194 0
102 119 209 0
125 195 -203 0
-1 -158 185 0
-16 -75 -346 0
163 -251 -263 0
6 -160 220 0
-113 -257 -311 0
28 53 -119 0
25 35 -112 0
11 29 -34 0
10 171 -314 0
-103 137 152 0
31 -108 201 0
168 170 209 0
48 259 328 0
51 -91 156 0
33 77 -227 0
30 -177 302 0
95 117 341 0
28 -45 -60 0
128 -217 270 0
-167 -180 -183 0
-46 -126 219 0
59 310 -333 0
-142 -156 -273 0
-181 -187 -234 0
9 -190 262 0
65 155 -291 0
78 322 331 0
-121 -130 314 0
142 -159 243 0
181 231 -282 0
36 96 246 0
-183 -188 -333 0
-62 95 -335 0
32 -108 -315 0
-126 207 289 0
4 149 292 0
-115 189 260 0
-39 -117 -160 0
94 -183 263 0
106 118 142 0
-11 84 249 0
43 185 313 0
226 -330 336 0
10 -295 -344 0
-19 -27 -283 0
-35 -70 -250 0
-46 -247 294 0
-33 135 338 0
-116 -161 -168 0
-7 213 -250 0
-25 60 -221 0
-183 -290 -335 0
89 -166 346 0
183 -204 -268 0
77 125 247 0
-20 -37 -266 0
-88 -267 289 0
-198 283 -288 0
-27 181 -189 0
46 183 227 0
-24 187 -227 0
5 245 -295 0
84 -261 -336 0
64 135 -162 0
-68 93 -317 0
-235 240 -262 0
106 145 -304 0
61 -195 -218 0
187 227 274 0
-50 55 -276 0
-94 204 244 0
-231 -251 -303 0
89 140 307 0
34 -282 -344 0
-53 172 -227 0
-143 210 239 0
-206 219 -278 0
71 75 180 0
80 233 -333 0
-27 -78 -233 0
-8 -199 -204 0
-156 -298 -330 0
52 -90 251 0
55 -235 -276 0
-254 -287 -347 0
166 202 249 0
103 275 -305 0
-32 169 -318 0
-185 186 -308 0
-115 161 204 0
180 200 334 0
164 -197 314 0
3 -180 223 0
-58 92 -274 0
-167 224 278 0
82 85 276 0
227 -268 300 0
-171 311 349 0
90 -116 -184 0
18 -46 334 0
-71 -108 185 0
-16 197 244 0
3 -106 156 0
-37 -55 57 0
-229 -268 296 0
-191 -221 -332 0
189 224 282 0
75 122 -123 0
226 234 316 0
-4 -23 -270 0
-68 -121 -339 0
-25 260 -300 0
31 179 300 0
-10 77 224 0
13 -148 242 0
-48 221 302 0
-202 276 -346 0
163 225 245 0
190 304 -313 0
55 57 -101 0
-47 121 -158 0
153 201 -287 0
225 -245 -318 0
227 -245 274 0
152 -225 -234 0
-212 -287 342 0
9 -33 157 0
-133 159 185 0
71 -234 -257 0
-167 278 292 0
104 -138 -276 0
7 -137 332 0
-51 165 -310 0
176 272 302 0
29 60 -316 0
83 103 274 0
-46 -181 258 0
128 -147 296 0
-12 -222 -313 0
35 95 -224 0
182 213 262 0
31 -118 -188 0
112 -113 132 0
-1 -245 -314 0
-68 107 -150 0
13 235 -275 0
-51 152 -331 0
-51 125 128 0
-184 -255 -330 0
13 -205 321 0
-32 150 199 0
-139 -246 307 0
-79 167 288 0
136 -190 233 0
44 -195 209 0
201 252 -287 0
32 211 308 0
43 -151 233 0
-24 -35 -38 0
-47 -241 276 0
182 -270 322 0
-112 -128 -325 0
-3 -155 301 0
76 -83 -124 0
71 -85 -104 0
-20 82 -109 0
-58 -113 -160 0
36 37 -43 0
6 -235 -285 0
57 99 -277 0
-110 -266 -311 0
137 148 179 0
22 226 -321 0
156 232 339 0
16 99 -100 0
-15 117 287 0
33 71 -115 0
-44 265 -296 0
-5 -144 -279 0
-207 -271 272 0
-93 246 289 0
14 -265 270 0
113 -164 -204 0
18 -34 -258 0
140 279 304 0
154 -156 195 0
267 274 275 0
85 -108 -246 0
8 -51 -78 0
-90 112 -290 0
-33 -66 -115 0
-189 263 -339 0
-134 183 -207 0
-55 93 318 0
215 -253 301 0
-120 -321 332 0
-19 -172 347 0
-86 -221 293 0
-15 197 -251 0
13 -133 290 0
42 -113 -151 0
-205 232 -327 0
43 289 344 0
-19 138 -143 0
173 -317 -349 0
116 122 -178 0
102 202 263 0
21 -42 203 0
233 276 -318 0
-114 132 345 0
-194 -211 -310 0
173 227 -290 0
83 215 -221 0
-147 -212 -247 0
147 -193 283 0
11 -136 -337 0
-83 -136 302 0
57 82 248 0
30 89 -197 0
240 282 -336 0
27 -242 -271 0
-57 -164 -174 0
-43 -118 -226 0
137 224 301 0
170 -181 193 0
59 -75 321 0
184 271 -316 0
-71 -88 -332 0
18 180 -273 0
-80 -110 -128 0
-174 -219 306 0
29 -304 313 0
5 34 -47 0
-100 -206 -236 0
54 203 -238 0
-14 69 -310 0
-9 -177 337 0
162 -201 273 0
64 208 -217 0
90 179 -208 0
211 -265 -314 0
132 -299 -305 0
-75 -88 166 0
-41 -258 -329 0
-18 251 -321 0
-64 141 199 0
55 -240 344 0
22 116 122 0
20 297 -337 0
76 178 -213 0
115 -315 320 0
181 -204 310 0
-8 26 -323 0
1 -45 -340 0
-131 -303 319 0
115 157 -331 0
49 -221 229 0
-109 130 192 0
-4 -118 315 0
-176 -210 343 0
-28 -129 271 0
-107 -118 -124 0
1 -252 -260 0
47 142 265 0
73 -208 219 0
-83 -111 -140 0
77 129 -291 0
247 -275 306 0
90 103 -133 0
98 189 -190 0
-169 -174 -294 0
-142 207 -315 0
-115 -242 314 0
55 272 305 0
-151 -225 275 0
35 -79 -204 0
51 -210 253 0
159 -286 -336 0
-72 -129 332 0
-171 224 -267 0
-21 -160 -258 0
-82 -136 149 0
-133 -199 345 0
21 -48 197 0
-21 157 -268 0
6 -67 -177 0
43 -124 267 0
14 -228 335 0
149 220 323 0
200 -255 -278 0
-26 -118 -224 0
105 -297 -308 0
-92 121 -336 0
-112 203 -348 0
17 -44 -134 0
-52 157 -223 0
90 131 281 0
205 -283 345 0
-50 175 196 0
-38 90 349 0
10 -208 350 0
-28 203 335 0
-47 -114 -314 0
-99 -260 306 0
-150 318 -344 0
142 186 297 0
54 -112 142 0
84 331 -335 0
-109 -132 135 0
-17 -79 -255 0
183 -208 -317 0
136 -248 317 0
-32 37 -200 0
107 -158 -233 0
-3 -315 -348 0
-188 217 -312 0
50 149 -201 0
-188 220 -292 0
27 223 312 0
89 197 245 0
-166 178 -259 0
248 289 323 0
68 -128 349 0
3 147 -191 0
76 337 348 0
138 215 302 0
83 -214 -309 0
-33 89 309 0
38 78 350 0
-34 133 -281 0
-92 -143 271 0
65 -284 -302 0
-115 -189 228 0
-25 27 -189 0
181 -192 294 0
-245 275 280 0
113 145 312 0
-110 -218 263 0
105 -193 -326 0
108 -220 -319 0
125 215 332 0
-9 -84 -196 0
-15 -219 282 0
5 266 -287 0
19 -70 225 0
-74 129 259 0
-37 197 248 0
-113 210 272 0
-101 -122 -272 0
260 295 -314 0
6 -64 292 0
-92 271 -334 0
23 -72 -279 0
-98 205 -232 0
6 -146 -188 0
-4 -49 -321 0
89 -154 -334 0
21 27 -109 0
-19 137 167 0
-7 -67 -212 0
-20 -57 198 0
-118 -266 299 0
3 -78 244 0
127 286 -307 0
72 170 313 0
60 -66 -312 0
4 75 -181 0
159 -204 -222 0
-180 -185 230 0
5 138 -160 0
-4 31 41 0
-68 201 -316 0
83 -94 -112 0
45 63 -285 0
230 -275 -287 0
85 -93 317 0
-41 -253 313 0
-33 -35 -341 0
-168 189 298 0
-178 -211 270 0
5 -169 -230 0
72 -343 348 0
84 159 -297 0
58 -302 327 0
28 -221 -240 0
150 -193 258 0
-120 220 -261 0
95 267 273 0
10 -122 -178 0
1 85 121 0
13 -47 281 0
71 -171 -185 0
22 -183 305 0
-160 -162 -326 0
151 198 248 0
38 107 218 0
-37 109 -241 0
147 -239 -286 0
-16 -38 43 0
-95 -152 -213 0
114 -127 -253 0
181 243 253 0
-111 199 229 0
-198 218 350 0
24 -82 -263 0
69 -155 -244 0
-297 -343 -346 0
-105 -112 -139 0
-146 -213 320 0
-57 167 -230 0
-80 81 -128 0
-16 220 346 0
-37 -44 85 0
-150 201 -310 0
-62 -77 -221 0
32 284 340 0
222 250 -266 0
158 -163 -332 0
17 -146 -177 0
-87 147 262 0
-66 -68 -197 0
-14 86 150 0
216 -238 277 0
64 -292 295 0
110 -182 -256 0
97 164 -278 0
129 -222 -242 0
152 265 -283 0
79 -102 -180 0
-57 304 311 0
82 -163 309 0
107 -151 -286 0
-198 -228 257 0
1 -73 348 0
77 328 334 0
-44 -71 -235 0
-218 -313 -328 0
65 -245 344 0
-72 141 313 0
200 -227 322 0
-80 -147 342 0
-34 308 326 0
1 16 342 0
32 -129 -281 0
-143 340 350 0
42 -182 -210 0
53 171 258 0
109 209 308 0
-13 -234 -264 0
27 -79 232 0
13 162 -320 0
-55 -120 132 0
40 68 147 0
-90 125 348 0
101 -188 291 0
-42 -119 154 0
72 -153 155 0
107 205 -226 0
-4 -245 -329 0
-93 108 189 0
-71 -102 222 0
-25 59 126 0
-109 -170 -222 0
-236 -305 337 0
105 133 -349 0
53 103 168 0
-100 -156 197 0
-15 -128 348 0
-8 59 -341 0
58 -234 252 0
43 -88 124 0
-194 206 301 0
-234 -281 -294 0
6 -169 -192 0
-30 -140 343 0
-163 220 252 0
-22 206 -262 0
58 -104 -314 0
130 290 -311 0
123 -144 -293 0
9 75 -157 0
-19 240 -260 0
-55 151 -212 0
14 -135 -211 0
15 167 260 0
-50 -84 162 0
41 -254 -269 0
-77 -236 -322 0
40 256 285 0
-106 -305 312 0
68 90 -218 0
-129 -160 -327 0
-205 -209 -244 0
78 -212 -320 0
-130 219 -327 0
-177 253 -272 0
75 243 -332 0
-36 284 -350 0
-156 210 321 0
184 -246 -336 0
-24 -202 -236 0
77 165 -272 0
57 -63 -165 0
80 253 270 0
-172 -205 -330 0
19 42 -224 0
-127 -150 -208 0
-167 227 -349 0
18 -105 148 0
-57 -133 -172 0
144 -191 280 0
-54 194 -228 0
-70 121 323 0
-88 145 249 0
-32 -310 -315 0
-187 -237 241 0
-29 116 -177 0
170 256 280 0
-138 -250 -255 0
-42 253 279 0
-48 75 -214 0
76 112 286 0
42 -170 -331 0
-39 -203 -350 0
204 -224 -226 0
-55 171 -199 0
23 49 338 0
22 -168 -174 0
-9 221 -317 0
15 -30 -70 0
66 148 161 0
75 122 302 0
-235 -251 -287 0
1 -216 -272 0
-14 270 317 0
-67 -132 -220 0
-47 -63 -180 0
-216 -260 -347 0
-15 -25 275 0
11 53 -180 0
-63 75 119 0
-143 243 322 0
-23 -150 -333 0
-6 126 156 0
93 -101 157 0
-201 301 -322 0
-48 -204 349 0
2 -277 317 0
-77 -145 -198 0
-2 74 97 0
-19 -30 332 0
57 269 329 0
16 92 -224 0
-27 -165 229 0
268 279 316 0
-118 232 -252 0
-78 -137 328 0
3 10 -190 0
18 -22 82 0
-16 -150 247 0
90 -103 180 0
-100 -185 -237 0
41 301 315 0
-46 121 160 0
185 -301 -306 0
64 -86 209 0
41 -101 223 0
-125 -155 -293 0
-56 -61 -338 0
-109 203 -338 0
101 -167 -327 0
56 165 -324 0
167 241 -324 0
69 -233 -256 0
80 -146 316 0
101 -161 175 0
69 -216 263 0
-72 -198 202 0
48 268 -337 0
-163 194 -243 0
-13 196 268 0
-51 133 -313 0
28 207 250 0
-173 -198 -313 0
71 -124 210 0
97 -127 291 0
56 -107 -216 0
179 -224 -338 0
37 -116 -240 0
-48 -238 -264 0
38 -235 240 0
186 -217 -271 0
170 226 267 0
-51 116 140 0
184 189 -228 0
-178 -181 -273 0
28 -43 -235 0
109 219 -286 0
-48 -201 -214 0
48 -115 212 0
184 264 292 0
126 166 227 0
-44 68 226 0
-65 -74 -254 0
-6 151 311 0
-274 287 321 0
277 287 -342 0
-22 68 -171 0
-106 -158 168 0
3 -130 195 0
194 -291 296 0
47 301 -336 0
-229 270 284 0
-249 253 319 0
106 -138 -278 0
-74 -76 -162 0
-235 -304 311 0
12 111 -282 0
50 222 286 0
123 170 331 0
-32 -83 -262 0
179 191 -217 0
68 92 196 0
-112 136 188 0
215 -301 -339 0
23 88 300 0
-30 -76 150 0
87 302 -341 0
46 -230 -331 0
125 180 227 0
-123 138 -221 0
-104 -211 251 0
114 -120 277 0
-38 -214 -279 0
-31 49 104 0
-222 -262 270 0
-193 -326 -348 0
91 216 340 0
-44 117 -131 0
-18 -132 -329 0
105 -214 238 0
-74 -78 -173 0
-155 -192 346 0
169 202 233 0
70 -321 338 0
-205 229 -257 0
74 162 -164 0
108 -205 315 0
58 -71 195 0
240 248 279 0
-29 181 -290 0
97 -104 197 0
-92 -144 246 0
-6 -80 99 0
-13 -95 332 0
-71 88 -147 0
109 230 319 0
-168 -193 311 0
46 -203 345 0
93 -159 -181 0
177 178 183 0
33 -213 -343 0
-172 238 -274 0
-14 -68 250 0
147 -194 288 0
-125 -248 -330 0
-30 41 159 0
28 186 242 0
-8 -235 245 0
54 -91 -208 0
13 -55 -118 0
144 -157 254 0
-144 160 -161 0
101 131 -238 0
-34 -57 -234 0
-22 -72 -333 0
-27 -92 205 0
118 -246 -308 0
-47 57 -160 0
72 252 -328 0
276 293 308 0
-155 -212 -276 0
-171 265 283 0
-114 -219 255 0
-34 133 -316 0
84 245 247 0
-268 -293 298 0
116 285 -309 0
161 -314 324 0
1 26 -104 0
97 186 -224 0
-17 32 -126 0
192 -283 308 0
163 -251 324 0
-41 -207 288 0
151 -177 -264 0
26 -190 -207 0
-75 81 301 0
161 -212 -252 0
42 186 197 0
-26 136 159 0
-66 71 123 0
-102 210 -228 0
94 236 304 0
-17 73 213 0
-37 -269 -309 0
226 -239 287 0
23 118 154 0
-92 202 336 0
-106 288 329 0
184 -197 -228 0
-31 128 -313 0
-35 -45 163 0
-31 279 327 0
67 89 257 0
-36 185 277 0
233 -236 -291 0
42 178 230 0
-3 294 296 0
-63 -80 250 0
277 -319 349 0
46 -154 -318 0
-148 -295 -298 0
237 -273 -302 0
40 -147 342 0
-251 -299 335 0
149 224 -296 0
-38 277 -300 0
22 -130 350 0
54 133 -196 0
166 -209 237 0
-102 202 223 0
10 -29 194 0
-178 229 264 0
110 -226 -319 0
141 -143 227 0
281 -312 319 0
-49 62 256 0
-167 268 331 0
58 -118 -231 0
155 -264 -296 0
-79 125 -221 0
132 210 -277 0
61 137 -194 0
-39 -201 346 0
-22 -134 -205 0
8 232 347 0
108 -207 256 0
-207 208 -326 0
-12 23 250 0
-97 193 259 0
75 -212 240 0
-154 300 -333 0
17 151 -250 0
-136 253 -323 0
-18 26 -152 0
71 93 126 0
-80 -158 162 0
-198 279 296 0
-54 214 282 0
-288 -293 -306 0
286 323 -341 0
57 -91 291 0
181 -242 255 0
-37 136 261 0
83 135 -327 0
67 -183 317 0
218 229 -253 0
-256 -342 -349 0
-82 184 -342 0
-49 125 187 0
-188 274 -347 0
7 198 266 0
92 237 -294 0
-35 71 -263 0
-49 -264 311 0
78 192 338 0
83 203 -328 0
26 55 309 0
7 -227 -326 0
-77 174 191 0
-5 174 217 0
-12 135 257 0
34 111 308 0
185 267 -280 0
-17 51 -90 0
118 -123 259 0
-84 281 -341 0
178 -307 326 0
-22 -53 280 0
-65 163 212 0
15 163 -245 0
-51 -226 324 0
55 230 -348 0
4 -135 310 0
-98 171 -259 0
76 -232 -287 0
29 -206 -328 0
-101 -120 236 0
-61 -98 -281 0
-81 -128 142 0
-185 -218 -337 0
-51 -91 115 0
-44 -53 206 0
-252 -336 349 0
-7 -122 -303 0
44 -137 315 0
27 109 -177 0
60 -120 -289 0
75 -81 297 0
-63 172 -337 0
21 310 -320 0
98 -260 337 0
-168 291 299 0
-156 -258 -327 0
33 -163 -173 0
-82 226 -311 0
48 227 -241 0
-151 159 -211 0
67 333 -344 0
111 135 274 0
-27 173 229 0
-19 126 310 0
93 99 343 0
210 253 348 0
-56 167 339 0
-198 -264 317 0
-175 -198 -236 0
-84 182 -336 0
25 -133 292 0
-101 200 244 0
31 -264 -315 0
1 299 -330 0
38 206 270 0
107 -174 -205 0
17 -40 -307 0
-22 -219 -331 0
83 259 334 0
1 224 -292 0
4 -50 -224 0
-96 318 -342 0
59 163 -331 0
-27 197 285 0
-30 -137 238 0
25 -160 235 0
63 -304 -332 0
-44 217 -261 0
-256 -312 -333 0
107 124 240 0
-8 142 227 0
149 155 280 0
47 272 -338 0
-87 -110 216 0
-119 213 286 0
88 150 324 0
-16 320 347 0
-10 -90 308 0
-116 -187 206 0
-13 148 -258 0
-29 48 -190 0
-18 -29 -141 0
-126 144 251 0
195 -210 -241 0
114 -223 -234 0
97 103 318 0
180 -181 234 0
-10 -159 -164 0
136 175 -334 0
-80 -119 218 0
90 121 280 0
49 99 -323 0
74 -176 346 0
18 32 318 0
33 -181 -193 0
-88 -150 -305 0
117 186 -299 0
-73 -146 185 0
-30 -47 -269 0
-124 -157 -277 0
77 86 275 0
-155 -217 -223 0
-29 -227 230 0
64 153 296 0
-123 -186 230 0
53 -143 -344 0
119 181 281 0
95 -233 255 0
-38 77 -294 0
119 125 -315 0
68 -77 298 0
-16 -191 350 0
-18 -71 230 0
20 -95 269 0
95 157 -295 0
60 -77 131 0
-117 -119 173 0
34 140 -291 0
151 287 -305 0
-86 -186 -283 0
177 210 242 0
106 118 -167 0
-114 214 314 0
-143 222 302 0
-92 -169 179 0
90 215 242 0
102 329 342 0
-46 98 -232 0
-122 139 216 0
107 109 -112 0
-226 251 323 0
-48 -196 216 0
236 265 -349 0
15 183 -184 0
-167 -189 345 0
19 -283 327 0
130 221 -344 0
49 -160 -289 0
43 -157 -265 0
84 123 294 0
108 -168 -306 0
-194 -261 -336 0
145 183 -264 0
-49 -250 278 0
-17 44 -339 0
71 80 -298 0
-99 -267 -287 0
-90 209 -304 0
-5 -267 -314 0
75 -106 239 0
27 -45 346 0
-237 250 316 0
-27 -87 213 0
80 258 335 0
-10 65 -110 0
-185 189 -314 0
166 -174 -273 0
8 -48 84 0
-97 200 -319 0
-23 224 265 0
-2 151 -283 0
177 -206 300 0
-7 83 -105 0
17 -56 283 0
5 6 281 0
17 -262 273 0
171 191 250 0
43 -112 336 0
41 -67 -107 0
73 127 -185 0
39 191 271 0
-4 -143 286 0
-58 -181 304 0
-146 -152 -297 0
25 -34 -57 0
-191 198 329 0
-226 286 -291 0
-173 213 336 0
52 -58 -225 0
-62 142 161 0
230 -267 -274 0
64 165 289 0
-125 249 254 0
-8 -32 220 0
37 75 182 0
-184 224 349 0
108 208 270 0
-74 -238 315 0
-164 278 347 0
17 86 145 0
-27 180 -224 0
-81 111 279 0
135 -172 191 0
247 -308 -331 0
10 45 314 0
15 -111 190 0
26 114 153 0
102 191 294 0
-83 -161 280 0
35 -245 -278 0
-178 184 294 0
-56 237 337 0
-11 198 259 0
144 -152 -156 0
32 -77 -291 0
-19 60 -125 0
-4 -12 -124 0
-3 110 -316 0
-26 67 258 0
-25 -49 203 0
58 129 251 0
37 -238 -273 0
-81 -250 -274 0
-89 248 339 0
54 125 -200 0
51 130 -340 0
-51 55 -231 0
45 -223 -299 0
-132 -196 -239 0
50 171 193 0
16 -221 -253 0
14 -21 259 0
155 209 -232 0
88 -208 280 0
71 176 -254 0
10 -20 -160 0
-81 -129 -211 0
96 130 269 0
62 104 -130 0
59 285 -329 0
85 -216 308 0
-76 88 165 0
-81 215 336 0
-139 145 247 0
-34 128 -290 0
11 49 87 0
238 -256 -314 0
-142 146 196 0
-160 194 324 0
-36 79 270 0
71 -138 -180 0
-54 82 101 0
-22 171 -309 0
-40 -236 -313 0
171 268 349 0
11 14 -85 0
95 -159 328 0
35 101 -314 0
-105 -118 -163 0
26 163 -234 0
80 -194 -200 0
-122 240 -254 0
-181 -325 330 0
-201 -227 -347 0
31 237 -258 0
84 -231 332 0
155 201 -278 0
-8 -150 326 0
24 200 -292 0
-111 -166 -203 0
-83 -135 -309 0
-116 -121 286 0
1 -29 199 0
20 55 242 0
-22 162 343 0
34 -209 270 0
8 31 -75 0
72 89 -207 0
14 260 -332 0
-38 88 -238 0
150 287 -299 0
-51 150 295 0
7 107 144 0
-163 205 -256 0
-39 130 239 0
6 171 245 0
50 -119 -203 0
-50 53 142 0
-80 276 -311 0
-7 -16 -226 0
-27 -226 250 0
87 144 186 0
-164 -203 -314 0
73 -250 316 0
42 54 88 0
233 271 -292 0
270 285 -324 0
39 -56 -237 0
-74 207 299 0
97 -168 -200 0
106 -233 297 0
84 101 -252 0
-177 245 323 0
8 -42 321 0
138 202 255 0
-87 -102 -178 0
132 -267 -325 0
-18 -21 -99 0
-142 210 232 0
-179 -221 -348 0
-18 64 189 0
-92 -184 314 0
189 191 217 0
-184 241 314 0
-9 165 -336 0
142 159 -216 0
20 58 327 0
-17 256 310 0
-15 57 154 0
-190 217 -231 0
43 114 -238 0
-294 -302 -336 0
-51 283 334 0
-86 -270 -305 0
-86 119 -204 0
-77 112 125 0
-60 123 333 0
203 208 325 0
-68 203 239 0
120 -241 -327 0
-236 289 297 0
17 67 -325 0
90 -280 -281 0
96 -280 314 0
-89 109 346 0
-24 107 -264 0
94 136 235 0
19 147 -256 0
178 190 -309 0
-84 -98 -174 0
19 -40 -110 0
-7 -108 -318 0
179 -190 253 0
-30 -208 -340 0
95 156 -327 0
-16 20 -218 0
-104 -280 315 0
108 -115 307 0
135 -170 -323 0
9 -240 324 0
56 89 -340 0
79 228 311 0
-214 -289 295 0
49 -101 -113 0
-136 -168 218 0
-39 113 -233 0
-97 -184 294 0
-166 -180 339 0
98 194 -230 0
3 -225 246 0
-37 200 -262 0
165 -198 244 0
-127 194 -292 0
177 238 -259 0
-10 -17 256 0
-105 -191 -218 0
33 218 256 0
52 185 -218 0
-182 299 307 0
120 132 282 0
-104 224 -289 0
39 -113 220 0
121 -182 245 0
58 232 -349 0
-53 157 -274 0
15 -116 -213 0
232 -287 -328 0
-45 -195 307 0
-54 -181 -187 0
106 250 330 0
8 -60 -294 0
46 129 -160 0
-50 -123 -292 0
183 -285 297 0
-107 161 329 0
19 145 -203 0
-22 -188 -257 0
-205 -207 -279 0
-11 41 -77 0
-28 -32 327 0
-72 -120 220 0
-109 -116 -136 0
-208 -250 305 0
-230 233 -239 0
88 -224 -326 0
12 267 -319 0
21 -230 334 0
47 188 -266 0
67 -125 180 0
201 261 -298 0
-60 -144 -256 0
-32 -50 -177 0
103 -196 220 0
-145 -228 288 0
169 -189 -197 0
66 129 -280 0
2 64 341 0
-26 260 287 0
174 238 -242 0
45 75 -195 0
-78 152 -295 0
44 261 -334 0
59 97 225 0
157 -324 348 0
-277 306 307 0
12 97 289 0
-25 185 326 0
1 26 -111 0
73 -120 -293 0
-17 -76 -256 0
-174 -301 311 0
-192 239 246 0
-52 -99 171 0
96 -134 -349 0
66 -89 -303 0
-153 -283 -344 0
-115 -126 -268 0
-164 -293 296 0
-43 307 -315 0
282 295 -344 0
163 187 245 0
-75 182 341 0
99 301 326 0
213 -291 -326 0
-15 170 349 0
-119 215 284 0
51 -64 299 0
43 46 -280 0
-98 -143 -177 0
-240 253 -308 0
-33 -175 -234 0
35 -155 170 0
-76 93 96 0
-88 150 -207 0
-59 195 316 0
53 109 -196 0
60 182 198 0
108 -113 -239 0
116 201 248 0
-26 -89 120 0
72 -214 -242 0
-108 176 -277 0
-12 149 187 0
-26 119 -287 0
36 151 282 0
3 165 291 0
87 101 115 0
-128 147 293 0
194 301 -341 0
80 197 258 0
86 -248 340 0
31 -166 255 0
-204 259 275 0
85 -100 -314 0
-19 -22 143 0
68 222 223 0
12 122 -138 0
137 294 -330 0
191 -200 318 0
152 -223 279 0
-64 101 243 0
-5 -313 329 0
82 -277 -326 0
70 -202 -310 0
126 144 -314 0
-100 228 331 0
96 220 225 0
-74 79 -339 0
-51 -165 -270 0
23 -98 -216 0
151 -194 255 0
28 -30 -43 0
22 -217 -228 0
-86 104 -194 0
-51 -199 241 0
29 40 -136 0
110 281 320 0
35 158 329 0
26 81 231 0
-16 101 -281 0
-75 118 -332 0
18 184 -223 0
-111 -207 293 0
150 189 -334 0
202 286 305 0
143 -185 326 0
197 -323 326 0
26 79 -350 0
77 -89 291 0
-64 186 312 0
28 62 -91 0
4 -73 280 0
7 63 221 0
-24 -173 -245 0
52 261 -285 0
212 -246 -283 0
-104 225 342 0
34 -90 163 0
-16 51 176 0
-103 270 -316 0
82 -213 -227 0
136 -156 192 0
182 315 -338 0
-90 270 271 0
-106 -239 -324 0
-88 162 189 0
-196 -272 -307 0
66 75 349 0
-54 93 115 0
-190 -211 -213 0
-7 -273 -335 0
37 -184 -298 0
-60 -145 -217 0
-74 97 -236 0
72 164 266 0
40 319 -325 0
161 -216 241 0
17 44 151 0
-113 -229 -345 0
-50 68 -148 0
-163 241 -330 0
22 145 217 0
-50 -275 -340 0
-51 -54 -183 0
-19 198 317 0
-98 -121 -199 0
-185 -203 -349 0
-44 -152 -302 0
34 80 -345 0
92 -94 191 0
117 223 -291 0
-26 111 189 0
-6 120 -324 0
-104 -145 -292 0
24 -154 -168 0
-25 -187 -248 0
10 101 177 0
-160 -209 -211 0
64 -116 198 0
-92 264 -288 0
-48 -83 226 0
-25 149 -203 0
-95 -146 336 0
-153 -183 -252 0
109 -111 -334 0
2 -20 -286 0
116 178 344 0
-269 -325 -328 0
153 -170 -280 0
-193 233 -336 0
20 -270 350 0
-112 -195 -349 0
50 153 -196 0
9 -134 218 0
-28 -97 164 0
245 -287 -338 0
-87 278 -302 0
26 36 109 0
105 -169 -286 0
6 -160 -234 0
-240 -281 -321 0
-20 42 -286 0
-2 212 250 0
105 -128 -180 0
207 270 334 0
-108 -116 -304 0
189 231 310 0
36 43 304 0
-6 51 210 0
-102 -232 238 0
-28 105 -154 0
-130 164 -300 0
103 -213 276 0
114 -200 -290 0
35 -223 332 0
-34 -90 -246 0
-117 177 -350 0
-117 -132 206 0
91 106 -277 0
-34 39 321 0
102 188 -298 0
33 234 270 0
-73 236 244 0
107 260 344 0
-23 -235 311 0
-45 103 200 0
-83 -182 -266 0
-54 -133 -241 0
111 -213 271 0
57 144 -210 0
5 -180 -220 0
63 121 191 0
18 158 -212 0
-94 171 -229 0
19 -260 267 0
217 -264 -335 0
-53 -75 221 0
-195 -232 -316 0
64 85 323 0
32 189 -245 0
-29 -214 -304 0
-90 108 -312 0
64 109 176 0
49 224 -264 0
-40 -114 -208 0
-229 281 -349 0
-6 279 337 0
-29 -207 -348 0
-30 -303 -320 0
220 250 337 0
-42 165 347 0
-128 175 -316 0
98 227 347 0
-140 -217 321 0
65 138 144 0
24 172 -342 0
-165 298 305 0
-153 210 338 0
128 149 334 0
-240 245 -343 0
25 -190 -203 0
13 186 254 0
-28 -47 226 0
-80 -131 -265 0
-92 -256 335 0
-142 205 303 0
110 185 312 0
-251 -309 310 0
-186 217 254 0
90 -265 331 0
64 -118 293 0
68 109 -164 0
-39 -76 -227 0
128 277 -286 0
-65 135 -282 0
75 -121 125 0
169 -308 319 0
-74 -139 -267 0
-23 -206 -236 0
-18 -328 343 0
25 -265 330 0
54 185 250 0
98 180 208 0
-49 94 313 0
2 -178 303 0
44 -89 242 0
130 239 339 0
-72 212 -263 0
170 230 -318 0
27 -49 -180 0
97 -222 338 0
119 -183 -335 0
-17 -110 157 0
4 -153 248 0
-145 -190 -288 0
-24 142 270 0
51 -55 107 0
-160 209 -289 0
36 -59 -336 0
