c F2 random 3-CNF cnfgen RandomKCNF(3,200,1000,seed=6) m/n=5.0
p cnf 200 1000
-21 125 147 0
-38 -151 -170 0
-6 70 -198 0
138 139 -175 0
157 -170 -176 0
-24 -93 105 0
-51 180 194 0
-52 -151 168 0
132 -148 166 0
-78 111 155 0
129 135 -174 0
-51 -80 185 0
36 54 153 0
-5 -86 -166 0
75 -100 136 0
-48 109 -153 0
-23 -63 -155 0
-20 -110 -133 0
-22 -50 -192 0
5 45 -185 0
-49 -93 -151 0
-66 -106 -133 0
-122 -155 169 0
-97 -128 -185 0
-42 -94 -169 0
102 -125 166 0
15 116 160 0
-95 -175 184 0
40 -50 -69 0
20 -60 -121 0
38 -161 175 0
10 161 172 0
119 123 166 0
-22 -42 -158 0
6 164 -178 0
-113 -123 -200 0
-17 -149 -183 0
-9 -22 -93 0
-111 114 122 0
64 155 164 0
9 87 -95 0
20 -41 88 0
119 127 191 0
8 90 134 0
-39 73 190 0
145 -179 184 0
62 -82 194 0
-84 98 -195 0
136 142 -170 0
48 70 171 0
16 20 -99 0
16 -30 195 0
-16 58 -139 0
20 24 -121 0
29 31 180 0
-174 -187 -193 0
52 -60 114 0
-66 135 188 0
93 94 177 0
-88 93 -178 0
-3 8 -36 0
1 -68 119 0
33 34 -108 0
-110 -145 -153 0
9 -36 77 0
28 46 148 0
-39 -101 -152 0
56 -100 165 0
-65 87 -107 0
-95 151 174 0
46 -79 200 0
-23 -50 165 0
38 -134 -193 0
-85 -152 183 0
11 34 67 0
177 196 200 0
56 87 90 0
48 -58 -161 0
29 -160 186 0
96 -147 -188 0
18 71 193 0
-117 123 162 0
-26 -71 185 0
37 -96 -189 0
5 104 -191 0
-4 -33 96 0
31 103 -123 0
-66 -85 -139 0
116 143 184 0
-127 135 143 0
-4 54 83 0
-15 -70 72 0
44 182 -187 0
48 -90 148 0
-99 122 141 0
14 -111 -150 0
-15 -57 -164 0
-77 -93 164 0
107 -140 196 0
82 130 167 0
16 111 -113 0
-1 -17 -91 0
100 104 -152 0
-115 -127 187 0
-4 14 197 0
76 165 -167 0
31 -35 -144 0
-18 55 126 0
7 -26 -40 0
-122 -157 -178 0
50 117 158 0
36 -101 -172 0
-145 166 198 0
7 -105 189 0
-9 -81 -165 0
-78 -97 112 0
106 -151 -164 0
121 151 -171 0
-42 -94 -148 0
-19 111 117 0
-17 124 156 0
-132 -135 188 0
46 -123 137 0
8 -89 -167 0
93 -99 -182 0
-45 77 127 0
2 53 -139 0
-27 -144 -166 0
-52 53 121 0
-13 -55 58 0
92 -95 -122 0
49 144 191 0
-12 103 136 0
21 31 -188 0
-48 85 172 0
-55 57 84 0
-8 27 75 0
-106 143 -187 0
44 139 -153 0
-77 108 -179 0
51 -56 -77 0
-13 -167 -194 0
-92 -104 111 0
-153 155 -168 0
45 129 162 0
-58 66 137 0
15 -79 -140 0
32 -83 90 0
70 -150 -200 0
-23 165 191 0
63 79 160 0
-7 -111 158 0
-105 148 194 0
48 144 -168 0
-44 -46 -66 0
58 145 200 0
116 143 148 0
-11 -92 -142 0
71 -133 -195 0
-84 115 164 0
-24 109 -188 0
86 149 157 0
-26 49 53 0
48 92 -164 0
2 73 -114 0
-1 -4 41 0
-38 97 -114 0
56 -164 -180 0
13 -175 -190 0
-28 138 -188 0
-94 -153 -198 0
-81 -111 164 0
-30 107 151 0
90 131 183 0
-4 41 -130 0
12 33 -50 0
44 55 57 0
-83 177 187 0
93 -141 186 0
-112 157 -198 0
77 -121 -153 0
-1 38 55 0
-1 -146 161 0
141 -183 -186 0
83 188 -197 0
-31 118 -149 0
62 -93 -172 0
32 45 181 0
-4 20 82 0
71 77 189 0
-85 136 148 0
-23 62 -198 0
-99 125 138 0
38 63 -71 0
-7 90 -98 0
30 55 81 0
-22 40 -46 0
-4 -129 168 0
-31 171 -195 0
-121 141 182 0
-5 102 108 0
1 15 120 0
43 -52 56 0
-24 25 153 0
-6 121 160 0
-29 -180 198 0
84 153 -155 0
11 87 141 0
-27 32 -90 0
-34 75 138 0
3 46 -60 0
-112 150 -163 0
20 -72 -140 0
-56 -96 -182 0
-31 99 -192 0
-6 -45 -105 0
4 -74 109 0
1 -58 123 0
-61 -109 -115 0
51 54 138 0
-131 156 164 0
-95 127 -167 0
22 40 -63 0
80 104 -185 0
-25 -139 168 0
12 58 127 0
-71 109 110 0
-28 119 -158 0
116 -132 -143 0
50 -73 174 0
73 -78 80 0
-12 -65 -185 0
-35 -60 96 0
19 -23 -172 0
22 -124 180 0
62 -168 172 0
-2 -145 -181 0
-12 72 135 0
59 71 -158 0
48 -50 117 0
159 -163 -168 0
7 39 -57 0
30 41 -166 0
40 -142 145 0
15 72 -155 0
60 -68 177 0
77 128 192 0
-79 155 -183 0
-47 98 -127 0
-5 137 -177 0
12 -16 -95 0
87 116 124 0
-118 -120 178 0
-109 -129 145 0
-38 -65 -182 0
16 -30 56 0
-3 -40 -98 0
1 -97 -145 0
-19 90 -182 0
21 -37 181 0
14 49 -174 0
-50 -79 140 0
18 -43 -90 0
-16 41 -56 0
-24 54 59 0
-23 80 87 0
-29 46 136 0
44 116 193 0
-19 -53 106 0
91 -95 159 0
-20 -88 -96 0
-23 155 -193 0
93 -113 160 0
-31 52 197 0
100 151 -171 0
10 -24 -162 0
18 180 183 0
132 -166 168 0
1 -136 168 0
1 -24 -152 0
-13 185 190 0
-1 -117 167 0
20 89 -162 0
-52 -113 -188 0
-90 177 186 0
63 72 -175 0
69 -126 193 0
-7 65 -199 0
40 80 127 0
87 -132 -169 0
-38 -42 187 0
132 -144 -183 0
4 -181 -196 0
25 -77 -131 0
-20 -185 -195 0
40 -179 194 0
13 -95 -187 0
53 -118 183 0
70 137 -156 0
44 93 -197 0
4 163 -193 0
-100 139 163 0
26 107 199 0
-21 105 108 0
101 -162 200 0
-15 -70 87 0
-114 -164 181 0
114 -118 -182 0
-44 -50 -142 0
-19 -106 -112 0
-38 121 189 0
72 -78 118 0
-76 154 -173 0
27 -28 144 0
-98 114 -166 0
-59 88 -143 0
-4 -94 -104 0
33 -111 114 0
31 46 135 0
-35 -77 109 0
52 -69 187 0
2 135 -142 0
49 -168 179 0
-56 98 -121 0
-46 97 126 0
-15 -39 45 0
-21 -114 -162 0
73 130 151 0
-44 64 192 0
-33 -66 92 0
16 153 -177 0
-15 171 188 0
5 39 59 0
47 68 -144 0
-37 62 -114 0
90 -133 200 0
28 85 103 0
-63 77 -177 0
31 -154 -180 0
-40 -46 70 0
-13 79 163 0
-28 127 187 0
7 -151 -152 0
-31 34 -161 0
73 127 -129 0
15 23 101 0
72 -110 196 0
-11 86 -147 0
-33 89 -152 0
79 150 -191 0
-89 -106 -133 0
-109 134 -144 0
11 31 43 0
-58 75 180 0
-10 50 157 0
76 88 155 0
106 130 180 0
-10 15 72 0
126 -148 161 0
-28 -30 -169 0
-31 -78 159 0
-19 90 174 0
34 83 -175 0
-13 -65 -67 0
-78 -141 -155 0
21 97 103 0
-23 -79 -187 0
23 145 175 0
30 195 197 0
79 -83 176 0
-35 -140 -170 0
1 14 142 0
46 74 137 0
65 -107 140 0
-46 -110 -171 0
-99 183 193 0
2 27 -75 0
-40 -84 153 0
-47 92 -188 0
44 -50 145 0
54 -112 117 0
34 67 -85 0
97 -148 162 0
-12 81 172 0
23 45 172 0
-82 -119 -134 0
13 -23 191 0
-67 -171 -174 0
-79 88 -169 0
26 -35 199 0
20 -29 -133 0
30 -129 183 0
-79 150 -159 0
-103 104 182 0
-91 -119 -135 0
15 31 -111 0
54 -73 94 0
30 -74 115 0
29 -63 114 0
-113 132 -192 0
6 -107 140 0
-11 -55 -64 0
-63 -79 157 0
61 156 180 0
88 176 -193 0
44 59 181 0
-43 58 -179 0
38 84 -139 0
35 -136 -184 0
-16 -34 -110 0
-92 -100 174 0
-5 -96 -181 0
-8 49 55 0
28 126 -142 0
96 -118 169 0
63 109 144 0
-19 -58 -171 0
-25 183 -191 0
-47 -69 -168 0
-25 67 146 0
3 -55 -141 0
-46 -123 135 0
21 -117 162 0
32 -99 107 0
-40 -110 183 0
91 92 130 0
37 153 -176 0
-115 151 -191 0
-122 134 -135 0
-69 -101 118 0
-91 -94 115 0
-140 141 183 0
-138 -174 -192 0
-65 -84 -122 0
29 136 154 0
-92 -97 106 0
18 80 113 0
-56 69 168 0
-16 -111 -165 0
2 27 -88 0
-78 156 -164 0
-2 -50 126 0
139 -166 177 0
12 35 -75 0
-67 164 173 0
-38 89 -192 0
-66 -136 143 0
-16 -119 129 0
159 161 -190 0
21 -118 -132 0
-59 -138 146 0
52 102 -195 0
-18 41 -168 0
35 -69 -165 0
-15 -102 -104 0
22 115 138 0
49 -84 108 0
-113 -177 -181 0
-106 -111 -152 0
-36 108 127 0
-9 123 -180 0
8 -169 193 0
29 120 159 0
58 -178 194 0
21 -36 125 0
11 12 134 0
-10 -127 161 0
-20 -54 61 0
-34 181 193 0
-12 -38 -68 0
-31 -32 -146 0
29 173 192 0
13 59 73 0
-37 75 -177 0
-7 -103 115 0
7 19 -169 0
-76 -115 -170 0
-31 -135 167 0
-63 -95 149 0
64 -91 172 0
73 -85 131 0
10 124 147 0
-92 93 200 0
-8 139 -172 0
-25 134 -139 0
-15 61 -98 0
96 129 163 0
20 -106 -182 0
-25 -54 -88 0
59 75 124 0
-113 189 191 0
-6 -32 -43 0
62 -93 193 0
44 52 189 0
56 -69 -181 0
22 94 -137 0
1 -102 160 0
-55 165 -173 0
74 152 -196 0
-21 -115 -140 0
30 -57 -196 0
-12 -36 136 0
-37 -174 -181 0
61 103 139 0
39 -76 -154 0
42 -72 -128 0
-105 -147 -148 0
28 89 117 0
53 163 -169 0
-28 -96 -153 0
-52 -130 -141 0
-34 73 -103 0
12 76 -114 0
10 -155 174 0
-81 -100 -140 0
-143 -150 -191 0
10 -139 -168 0
13 32 183 0
104 113 -115 0
24 70 -133 0
-133 158 191 0
30 -99 122 0
62 96 -195 0
47 -104 -114 0
-71 -152 164 0
50 -89 99 0
-20 -98 -171 0
14 50 -145 0
68 134 169 0
88 103 163 0
-48 97 -139 0
-73 -92 168 0
-117 -171 -185 0
97 -110 -167 0
3 76 -90 0
71 132 -199 0
-70 167 -175 0
-12 173 -180 0
-73 -119 -186 0
-61 82 181 0
-55 -92 173 0
-124 176 196 0
-14 -44 133 0
4 -6 65 0
-28 88 -162 0
-10 117 172 0
31 -62 -157 0
1 -39 107 0
-81 83 185 0
-19 -124 193 0
29 -96 182 0
26 -123 -163 0
62 -79 186 0
20 51 179 0
81 -129 -179 0
38 141 165 0
6 52 -139 0
55 116 145 0
18 -45 -170 0
-55 -56 -177 0
-109 149 190 0
71 -80 116 0
-97 -194 199 0
-13 26 -100 0
-3 55 -119 0
36 40 200 0
84 174 -187 0
-17 81 -161 0
-20 50 60 0
22 -134 -185 0
77 -108 171 0
90 -120 126 0
-35 -88 -193 0
7 -61 -76 0
-40 122 174 0
4 70 -197 0
90 93 116 0
32 35 146 0
-82 142 -176 0
-7 -88 -167 0
5 -178 188 0
-60 69 96 0
41 50 58 0
-45 121 -171 0
44 -150 175 0
40 53 120 0
23 142 -173 0
79 -122 140 0
141 157 163 0
121 140 -174 0
21 -151 -156 0
-37 57 -126 0
37 -109 115 0
-20 -74 -112 0
-7 -124 -187 0
-16 49 126 0
27 47 -49 0
17 -33 -71 0
-18 -47 54 0
1 -154 179 0
-66 88 143 0
29 104 112 0
-3 110 138 0
-9 56 70 0
24 25 133 0
-8 34 -146 0
-23 -99 -154 0
-8 107 -168 0
5 136 -144 0
-41 -84 -176 0
-72 -111 -141 0
-60 126 -192 0
-5 34 116 0
-38 61 170 0
134 -144 -168 0
41 -94 -130 0
-12 128 165 0
16 83 199 0
-134 138 154 0
-26 31 -176 0
-8 -179 -199 0
13 -62 171 0
-73 126 167 0
91 -122 136 0
-52 133 152 0
-43 -137 -182 0
37 41 185 0
-101 -163 -198 0
3 -65 121 0
-7 36 142 0
37 -166 185 0
-2 -41 190 0
-64 90 135 0
-9 115 -191 0
70 -98 157 0
21 74 81 0
16 -78 -173 0
-22 26 118 0
66 -103 -173 0
-27 -102 116 0
42 -57 128 0
64 72 122 0
48 162 187 0
-32 -132 -184 0
-7 182 197 0
48 -70 145 0
3 -141 187 0
37 -49 61 0
-116 133 -146 0
-81 -140 177 0
-126 148 182 0
163 164 -192 0
-66 -113 167 0
22 59 -123 0
39 176 -188 0
-108 109 -184 0
-35 119 161 0
9 -95 -182 0
-38 -68 98 0
120 -177 -190 0
25 41 -118 0
-72 -164 -194 0
4 126 155 0
-131 188 191 0
-53 -73 -101 0
7 145 188 0
-50 117 130 0
27 54 194 0
-77 -185 192 0
87 -94 191 0
1 -150 -164 0
-96 -181 -196 0
-118 138 -177 0
42 109 -178 0
71 89 155 0
-19 -50 -194 0
8 -28 81 0
-1 179 183 0
-19 108 -170 0
60 -147 -199 0
59 -75 79 0
-6 -46 -99 0
-120 -145 -173 0
37 145 183 0
-65 -145 -149 0
-81 -86 174 0
-31 -109 -125 0
-48 -111 125 0
-25 -125 140 0
31 194 198 0
55 137 165 0
-105 149 -175 0
-55 188 190 0
-57 88 -146 0
-35 -43 -90 0
45 104 117 0
-23 162 -188 0
-155 -163 166 0
-7 -21 50 0
-28 -37 -146 0
6 28 115 0
98 -99 128 0
54 -155 193 0
-1 -74 -114 0
-11 -121 147 0
48 57 -150 0
47 -173 -179 0
14 -67 -127 0
2 -76 136 0
64 -86 -138 0
-101 104 -155 0
-82 112 113 0
3 20 196 0
-75 -101 136 0
-38 -150 173 0
-10 -14 144 0
-45 -169 181 0
126 -163 195 0
-36 -130 -170 0
-34 -92 197 0
60 -86 -199 0
70 95 193 0
168 170 -173 0
-15 -136 -165 0
-76 -160 -175 0
-26 -44 62 0
-116 -126 -170 0
-69 -172 200 0
134 -160 -170 0
-77 124 -154 0
37 98 137 0
5 17 -49 0
-92 118 158 0
43 101 115 0
25 89 134 0
108 124 -190 0
4 -16 88 0
-15 154 164 0
-26 -110 120 0
81 -88 -126 0
3 77 108 0
-21 102 118 0
-2 164 -195 0
-4 82 -85 0
50 138 -198 0
100 111 186 0
19 44 82 0
-47 60 115 0
113 182 197 0
-18 -70 -99 0
1 32 -67 0
75 -125 -151 0
-80 109 139 0
10 41 143 0
13 152 -177 0
11 -79 -112 0
147 149 -154 0
-115 -144 199 0
-103 112 128 0
37 43 105 0
-38 -106 -147 0
68 121 188 0
74 99 168 0
129 141 149 0
-61 123 170 0
88 99 145 0
1 39 -187 0
-18 20 125 0
19 -109 -137 0
34 65 100 0
-68 -88 165 0
83 -173 181 0
19 -32 99 0
22 36 179 0
65 -100 174 0
9 156 175 0
68 -104 182 0
81 -167 -187 0
-22 57 168 0
-85 183 186 0
16 -92 188 0
-39 -124 -131 0
27 125 199 0
-23 63 -131 0
-93 -96 -169 0
51 -159 178 0
-26 -37 75 0
-94 100 -120 0
10 -73 -134 0
-119 182 -186 0
-16 144 -158 0
79 120 -193 0
57 78 -193 0
-131 -151 -168 0
47 -50 165 0
-11 -27 -163 0
9 80 114 0
24 -47 97 0
17 -167 196 0
-40 -53 -183 0
-58 -91 179 0
-56 80 -148 0
-15 45 -84 0
13 96 121 0
1 -79 152 0
20 -40 75 0
46 156 180 0
75 -131 -154 0
3 91 -179 0
-41 53 -197 0
13 -100 105 0
-80 -100 -106 0
26 91 152 0
-6 -84 -132 0
-6 -125 -193 0
-44 -89 -157 0
-11 -25 -123 0
-1 -66 -93 0
12 -26 185 0
33 79 -151 0
86 103 140 0
48 -146 195 0
80 -156 157 0
24 63 106 0
-94 -109 152 0
-6 -17 -196 0
-59 -117 185 0
-26 145 -163 0
20 -147 184 0
1 13 -24 0
-92 -109 195 0
-40 83 -170 0
26 30 71 0
120 195 196 0
96 -117 -145 0
-37 -109 185 0
-113 124 -147 0
5 -140 148 0
-49 -122 128 0
9 -19 -88 0
-61 179 199 0
-107 168 200 0
39 91 185 0
55 123 -172 0
-13 93 151 0
-9 84 -140 0
5 -127 128 0
8 -108 -172 0
-82 -166 -167 0
-83 -113 169 0
47 61 76 0
85 -169 177 0
16 45 74 0
-13 19 -194 0
38 92 189 0
50 121 160 0
-9 -60 165 0
36 -74 -194 0
-6 48 146 0
36 84 -108 0
-4 52 61 0
110 -167 168 0
-80 173 198 0
13 141 -150 0
3 -23 99 0
-108 -144 159 0
32 53 142 0
13 -181 199 0
-114 120 -184 0
-88 -96 176 0
12 -83 102 0
96 142 158 0
-10 96 153 0
-69 -119 143 0
-23 45 90 0
-64 -114 144 0
45 -68 -173 0
-18 -71 -128 0
-9 178 -194 0
-80 166 -179 0
142 -151 -185 0
-60 108 188 0
-26 84 -87 0
171 179 -180 0
-15 92 107 0
-124 -156 -167 0
-49 -155 166 0
42 64 -182 0
101 155 197 0
27 133 139 0
-71 -99 -182 0
-18 -75 -189 0
-65 102 154 0
-27 57 -183 0
3 -53 -195 0
44 -95 -160 0
11 145 -192 0
145 157 193 0
-1 -117 -169 0
79 -142 185 0
-31 177 -179 0
89 -105 200 0
147 -148 -157 0
-38 -104 -115 0
-43 -94 -155 0
-9 24 -91 0
16 -52 -103 0
-7 80 -173 0
-62 -130 150 0
67 175 187 0
37 -165 198 0
22 108 122 0
-82 -157 -176 0
-8 -93 -143 0
49 -90 125 0
46 -80 -172 0
-174 -180 -191 0
108 179 197 0
-8 -16 -147 0
-15 45 131 0
-16 43 -87 0
130 -148 161 0
49 -77 -101 0
23 111 -176 0
-3 -75 -105 0
103 -138 -175 0
49 134 136 0
136 155 -183 0
28 29 -141 0
-41 -107 185 0
-36 141 -173 0
-56 -95 186 0
27 -48 55 0
25 66 -97 0
-92 -103 191 0
28 36 -156 0
-18 -84 -182 0
78 -108 186 0
-43 90 -190 0
13 -61 -152 0
-22 -66 -188 0
77 84 -109 0
23 142 -180 0
2 125 150 0
32 -43 -199 0
-34 113 -172 0
-51 -68 -123 0
-8 36 92 0
82 -83 174 0
73 -97 -169 0
50 -75 -91 0
-30 -79 -129 0
73 137 -194 0
-107 -120 190 0
-48 92 -127 0
54 -113 -183 0
48 80 189 0
-47 79 80 0
-7 118 -127 0
101 157 -192 0
-62 -102 -182 0
96 133 -183 0
95 145 190 0
6 -72 -127 0
-116 -139 195 0
125 -157 -191 0
106 -136 139 0
139 173 -174 0
38 -170 175 0
-49 75 -135 0
22 -66 130 0
-12 -61 -170 0
-27 119 -174 0
130 -132 -137 0
-7 14 140 0
18 64 187 0
-31 -126 -174 0
-117 -143 -195 0
1 187 -200 0
-55 -62 153 0
-40 -59 180 0
-17 136 -200 0
-61 -74 -194 0
15 111 112 0
-112 -115 200 0
53 141 -170 0
-15 -35 -82 0
-43 53 100 0
90 96 -198 0
-18 165 179 0
55 77 -130 0
47 104 111 0
-108 -115 -120 0
-6 150 -199 0
-57 -152 -185 0
27 157 -177 0
-5 38 -193 0
-2 -101 -164 0
-97 135 -192 0
-17 -67 137 0
