c F2 random 3-CNF cnfgen RandomKCNF(3,250,1250,seed=9) m/n=5.0
p cnf 250 1250
-96 119 157 0
-2 -174 222 0
86 -142 240 0
-116 181 243 0
14 29 -61 0
192 -203 228 0
-58 173 -186 0
-54 -102 234 0
52 -182 227 0
-97 217 230 0
61 109 189 0
51 -149 196 0
22 35 -229 0
-51 138 -236 0
50 164 196 0
156 185 -241 0
143 -156 175 0
-32 181 223 0
-12 130 -157 0
-29 -222 226 0
51 -103 -243 0
1 29 -111 0
70 -84 -209 0
27 133 -201 0
-144 -200 -207 0
64 -182 200 0
-25 -195 -247 0
36 -75 171 0
13 -241 250 0
31 38 156 0
-54 -116 202 0
-91 205 -248 0
36 -72 144 0
17 -108 116 0
-71 -170 184 0
13 71 237 0
42 200 203 0
-46 117 122 0
-124 141 152 0
-149 -150 228 0
-147 165 225 0
27 -36 -185 0
16 126 -228 0
63 -118 -225 0
10 63 -225 0
18 105 151 0
47 156 193 0
-91 121 160 0
-22 86 -201 0
115 -152 -245 0
-28 36 -214 0
34 50 200 0
14 -20 31 0
7 -120 190 0
2 61 -66 0
65 157 -242 0
-15 -65 231 0
-16 164 -175 0
-10 -48 205 0
78 225 -236 0
-64 -107 -113 0
-215 -226 229 0
-21 -71 -78 0
-48 -99 113 0
-24 44 84 0
55 94 -183 0
-115 247 -250 0
-5 -20 172 0
83 -187 222 0
73 137 235 0
3 81 236 0
42 -85 -178 0
100 -151 -228 0
-52 -70 243 0
157 199 205 0
79 -176 -228 0
-134 194 -222 0
-37 -73 133 0
-38 46 -85 0
7 89 -238 0
35 -54 88 0
-52 132 215 0
-184 -199 -240 0
-16 -96 -207 0
162 187 247 0
-22 -151 247 0
121 197 -249 0
58 172 250 0
151 -184 -219 0
-34 -85 182 0
20 -104 -211 0
-11 178 247 0
148 -183 227 0
-9 98 -213 0
107 124 -192 0
-65 -67 134 0
-16 -51 190 0
4 -53 221 0
66 76 80 0
-107 -163 -172 0
83 144 235 0
54 190 249 0
-5 -67 -216 0
143 181 -198 0
110 182 242 0
-40 -131 147 0
-90 164 230 0
-81 -140 -250 0
-74 112 205 0
92 -211 -226 0
94 -96 116 0
-17 -31 -166 0
5 -80 -112 0
-50 242 250 0
62 75 182 0
52 -113 -157 0
177 228 -249 0
-37 191 221 0
-73 -79 -122 0
-15 137 152 0
-105 194 -200 0
42 -151 -244 0
128 138 -241 0
113 -150 180 0
-2 -71 -217 0
45 -83 -198 0
-21 -85 123 0
-66 145 -246 0
-18 -122 207 0
-76 -116 209 0
43 54 213 0
-24 170 -198 0
75 -200 228 0
-23 41 214 0
195 -209 -220 0
52 -58 67 0
-105 -183 248 0
-23 -104 179 0
48 -187 190 0
32 -117 -128 0
-140 209 232 0
87 -207 208 0
-1 -22 -28 0
-57 166 -174 0
-66 150 -176 0
17 -76 204 0
104 210 216 0
39 145 207 0
104 -161 -233 0
123 -151 168 0
28 72 -166 0
-2 67 -136 0
1 -31 166 0
-134 -169 217 0
43 87 174 0
-3 50 -195 0
6 218 -221 0
-165 207 -220 0
54 141 206 0
21 -56 82 0
-147 -170 184 0
-141 -202 232 0
11 15 -94 0
-5 179 239 0
-7 14 -149 0
19 34 -180 0
-82 -119 137 0
-51 70 -121 0
-37 54 -147 0
29 -96 -109 0
25 160 172 0
-18 -95 211 0
-71 113 -129 0
-56 -75 -165 0
18 40 -51 0
152 -186 -229 0
93 -162 183 0
-187 -195 241 0
-13 -199 247 0
-7 69 234 0
27 -84 110 0
-21 -108 155 0
5 -122 181 0
-13 -94 -193 0
76 -142 -188 0
124 -168 245 0
-32 -61 -247 0
-17 -153 -162 0
170 -174 -248 0
-63 145 -215 0
-18 -109 -152 0
-49 146 -242 0
-95 111 151 0
-15 -20 193 0
26 201 -232 0
-61 147 174 0
32 76 129 0
218 244 -247 0
-16 57 -246 0
-14 186 -202 0
-47 -58 94 0
1 79 83 0
26 44 -80 0
-165 -167 191 0
99 218 -222 0
4 139 173 0
-13 28 -159 0
12 14 -30 0
-56 155 190 0
14 -44 61 0
7 -142 -196 0
-7 22 112 0
-4 -23 -241 0
63 99 190 0
97 197 233 0
187 194 237 0
52 -160 207 0
50 121 -246 0
-78 -86 -241 0
-24 178 -244 0
93 -176 217 0
-40 -118 127 0
39 -185 -234 0
6 -41 246 0
20 110 156 0
24 -192 -197 0
-4 -9 198 0
23 247 -249 0
-162 -174 -180 0
-175 -233 -239 0
143 -187 -199 0
-38 51 226 0
181 232 238 0
-187 227 229 0
38 -70 137 0
-39 184 -216 0
148 167 211 0
129 181 -225 0
9 116 145 0
160 -215 235 0
-103 167 224 0
-24 93 200 0
-49 97 -231 0
-89 -115 -211 0
104 -185 -198 0
-38 226 -239 0
-9 25 -71 0
-5 91 225 0
118 -134 168 0
12 -112 -217 0
34 -60 -250 0
58 119 -172 0
-104 -109 -220 0
102 -115 -173 0
-10 18 47 0
-112 130 -173 0
31 -49 101 0
12 87 -233 0
-170 -192 -236 0
147 -162 -232 0
-3 165 166 0
69 -119 -201 0
54 57 -108 0
112 -179 244 0
-125 -141 176 0
24 109 -240 0
78 -157 -221 0
-8 -50 62 0
-103 -225 228 0
161 -203 217 0
-95 -181 192 0
23 -170 -173 0
100 101 129 0
-27 -78 -100 0
9 -147 150 0
39 73 -148 0
-8 106 237 0
-13 -209 232 0
10 146 -148 0
-12 97 236 0
-102 173 -243 0
209 216 230 0
78 191 -228 0
61 72 -238 0
-113 127 162 0
-34 -124 217 0
-23 -154 -180 0
-20 -26 -61 0
-45 148 230 0
33 121 -200 0
-206 -218 -245 0
103 -133 141 0
71 150 -187 0
4 80 -178 0
-61 -165 197 0
46 -214 -225 0
-41 -99 -225 0
-20 -134 -232 0
89 97 -99 0
-111 -178 196 0
-4 117 140 0
70 158 168 0
23 100 197 0
51 85 201 0
97 -174 229 0
103 224 239 0
-61 70 -91 0
-128 144 -195 0
5 -105 -161 0
139 146 157 0
69 -211 222 0
39 166 -242 0
22 202 242 0
27 -55 157 0
30 -95 101 0
94 121 -163 0
-192 -194 -221 0
-24 59 -166 0
-8 -227 -245 0
-22 -57 -194 0
-36 -56 183 0
-4 -80 239 0
-93 -144 177 0
-104 180 -212 0
129 167 184 0
19 -59 203 0
-48 -134 -168 0
49 -144 -245 0
-49 123 165 0
64 130 236 0
-113 -125 -147 0
-38 60 177 0
-21 -173 188 0
16 -25 -186 0
68 139 -219 0
-211 -229 -233 0
94 -186 210 0
-87 -99 102 0
75 -92 126 0
-53 215 221 0
-145 -163 192 0
18 79 108 0
-30 -91 -147 0
124 -143 161 0
-102 -113 231 0
-98 -136 -180 0
-21 70 -157 0
123 124 143 0
-59 206 -228 0
-43 -182 -218 0
41 71 -158 0
33 49 -111 0
-59 126 -152 0
-41 135 -218 0
-41 84 -157 0
-6 -120 122 0
46 -78 235 0
100 153 165 0
-9 -96 229 0
-24 -145 -170 0
-73 97 179 0
33 82 -137 0
33 -103 -250 0
-120 128 -147 0
-90 92 233 0
-125 130 -179 0
83 120 185 0
10 67 -169 0
185 -215 -245 0
131 -138 -162 0
3 213 -216 0
-8 -165 -201 0
-115 150 201 0
14 -199 -237 0
-55 56 208 0
-18 -89 129 0
-34 -49 -127 0
-35 47 -82 0
104 115 189 0
-81 -141 -225 0
-15 -37 -67 0
-104 -105 -220 0
95 -129 -176 0
-16 161 170 0
22 34 -155 0
-67 -91 -208 0
-133 -225 239 0
-99 -116 136 0
31 62 -162 0
80 85 -157 0
-16 -78 115 0
-24 -63 173 0
3 170 204 0
91 181 -222 0
-64 181 -198 0
45 -133 -174 0
4 -18 244 0
-18 -41 -113 0
-11 -218 -247 0
13 93 -127 0
-199 -230 -236 0
-9 30 166 0
124 -158 -172 0
51 70 137 0
-6 -117 245 0
124 151 -200 0
33 77 105 0
-26 157 -218 0
-140 -169 -224 0
67 -146 -205 0
47 166 -207 0
-30 -134 -175 0
118 -171 -246 0
12 -120 -131 0
25 215 -228 0
9 -106 111 0
60 -65 233 0
25 -220 -235 0
-1 6 217 0
6 -78 228 0
-4 76 226 0
-120 -122 241 0
-76 -158 -180 0
74 -101 151 0
-26 -83 206 0
134 -196 207 0
-107 -172 -218 0
55 -159 169 0
20 29 226 0
29 -184 -223 0
-59 209 -213 0
32 72 225 0
-79 126 233 0
65 -78 -243 0
-128 -177 -250 0
-53 87 243 0
-114 -188 227 0
-64 67 -214 0
-64 72 155 0
18 -23 27 0
201 -216 -226 0
7 -114 240 0
18 -108 -171 0
-68 -106 178 0
6 119 -129 0
-18 -125 199 0
-57 -113 242 0
56 142 179 0
47 194 241 0
128 -177 -213 0
-18 122 -238 0
-105 199 -226 0
-23 185 -192 0
87 -133 153 0
96 99 -226 0
6 -100 -234 0
6 -10 -125 0
140 -210 -222 0
-42 -82 109 0
-2 36 -110 0
-45 77 -99 0
-34 -188 229 0
-98 114 204 0
92 -184 240 0
48 -54 100 0
148 -151 176 0
-151 214 232 0
43 -191 225 0
-31 -83 207 0
65 -73 -87 0
33 -95 -150 0
-30 -77 248 0
113 226 234 0
77 -155 -166 0
72 -149 210 0
-31 127 -219 0
63 -126 127 0
-44 201 -213 0
-140 -146 249 0
-132 -171 -247 0
38 -171 -178 0
61 -116 161 0
142 190 -217 0
-97 170 203 0
49 61 66 0
15 -29 -188 0
18 146 183 0
65 -190 239 0
-85 118 197 0
61 68 172 0
21 -51 190 0
-125 144 205 0
93 96 -248 0
72 138 147 0
16 -44 -70 0
48 -106 -247 0
-48 -152 184 0
40 -117 168 0
12 -79 85 0
-19 120 185 0
30 208 249 0
-234 241 -248 0
-33 115 -153 0
55 98 199 0
-6 -15 78 0
6 124 134 0
80 -124 -169 0
-100 -112 -226 0
-129 -186 242 0
-148 156 185 0
-83 157 -250 0
42 -70 83 0
148 -194 200 0
-84 -93 -225 0
2 146 156 0
-10 -138 -200 0
-75 92 -231 0
-3 -79 -197 0
22 49 206 0
-41 -171 185 0
-79 147 -192 0
-12 -84 -186 0
-195 -208 240 0
7 26 -146 0
-55 180 213 0
164 167 222 0
-60 136 -175 0
88 184 -205 0
69 -157 209 0
48 -101 -147 0
132 -193 213 0
-141 -182 227 0
-40 -48 118 0
78 -155 -169 0
21 -32 -60 0
12 -50 104 0
139 -203 210 0
127 -208 231 0
24 82 224 0
-35 143 -178 0
140 -193 210 0
33 125 205 0
-6 -191 207 0
-6 80 184 0
-12 80 -185 0
-99 107 137 0
3 29 47 0
62 -226 232 0
-29 127 -239 0
131 -227 -245 0
21 -159 -183 0
-49 -77 107 0
-118 -136 -147 0
-233 -239 -241 0
9 47 88 0
-17 -97 163 0
-37 -104 -232 0
168 192 -227 0
92 -116 -175 0
-33 -65 -238 0
36 215 237 0
94 224 243 0
-47 60 -230 0
51 -79 -139 0
45 149 -229 0
28 -194 -214 0
164 167 194 0
130 -134 -186 0
-94 106 173 0
-83 -127 -158 0
-49 -156 -217 0
-202 -204 229 0
115 -124 132 0
43 130 147 0
-203 219 226 0
66 -113 190 0
-48 163 -195 0
29 151 -238 0
40 97 -233 0
-146 162 242 0
155 -192 210 0
75 -169 -193 0
-34 -54 134 0
-170 -192 -221 0
3 42 49 0
-62 -68 -138 0
145 223 -237 0
-21 119 -217 0
-81 -87 -173 0
112 -229 -239 0
16 55 110 0
-4 55 127 0
59 -116 161 0
-76 -209 215 0
91 -199 -215 0
-14 -44 -166 0
21 -143 185 0
144 -163 204 0
36 124 183 0
10 148 198 0
27 -198 -205 0
97 -164 219 0
14 124 -249 0
100 144 239 0
-69 -155 -211 0
-29 -40 -135 0
50 -65 127 0
-156 -186 -207 0
81 214 -229 0
-71 -130 -164 0
39 92 -178 0
-69 -157 212 0
24 78 111 0
-12 144 -161 0
40 -128 -171 0
128 155 172 0
97 122 -130 0
-50 -74 106 0
-96 157 159 0
43 89 -224 0
60 187 -214 0
-84 89 211 0
-109 205 -241 0
75 -191 223 0
-20 -21 167 0
15 113 -116 0
-143 183 -248 0
-38 -70 -177 0
75 -163 -196 0
-17 70 -204 0
-116 -155 172 0
-67 -167 -197 0
63 -136 -244 0
97 -160 -210 0
166 211 -222 0
45 -159 212 0
78 -178 -248 0
69 72 -181 0
-62 110 248 0
-177 186 -217 0
-186 236 -244 0
215 229 -237 0
12 40 134 0
17 -85 -173 0
43 -210 223 0
-12 -78 238 0
-11 -162 208 0
54 -219 -231 0
61 228 -246 0
124 132 219 0
69 164 -193 0
54 195 243 0
99 -119 220 0
25 110 134 0
-49 81 82 0
-9 19 67 0
17 110 -194 0
-35 141 183 0
-37 88 -93 0
64 -134 -140 0
88 194 -246 0
167 -186 -237 0
-104 130 -156 0
122 -147 148 0
42 -68 -157 0
-142 -205 -218 0
-95 -208 -223 0
13 -79 182 0
60 69 -224 0
-43 146 -239 0
-71 -85 184 0
74 -127 150 0
25 -34 130 0
73 203 -220 0
-161 182 235 0
130 154 -226 0
-75 -199 244 0
-70 123 248 0
89 97 -137 0
-1 -21 209 0
134 -139 -165 0
-129 -184 200 0
-9 87 148 0
-72 -215 228 0
-54 203 250 0
104 -150 245 0
-117 170 -203 0
23 29 129 0
-46 -99 145 0
33 152 -174 0
83 -111 -120 0
49 -52 116 0
-8 -14 44 0
-110 113 237 0
38 -66 181 0
-140 -161 218 0
26 101 -216 0
-21 -67 188 0
-75 -169 233 0
53 118 133 0
1 -140 180 0
-6 63 -111 0
-22 -89 -172 0
-4 91 -172 0
47 145 166 0
-14 -116 214 0
27 -30 -230 0
-82 -120 148 0
-46 67 -71 0
-19 -68 -202 0
-71 -107 206 0
-112 169 178 0
-11 208 233 0
29 -104 179 0
-65 124 -195 0
111 -166 -192 0
63 -125 149 0
148 -176 225 0
138 155 -249 0
-19 -169 -187 0
133 -150 189 0
-15 136 -176 0
50 -71 211 0
145 155 200 0
69 -120 -121 0
156 190 218 0
-185 -202 -238 0
-62 109 -183 0
9 -81 179 0
-153 -163 -223 0
-124 -193 -234 0
42 86 214 0
21 -86 108 0
-20 58 -112 0
-142 183 189 0
31 187 245 0
87 158 245 0
-155 160 161 0
6 -201 212 0
88 212 250 0
49 118 231 0
-13 -87 -126 0
40 124 -142 0
78 -93 -221 0
83 184 -250 0
-52 -71 137 0
42 127 209 0
4 -210 -225 0
-67 -105 212 0
-88 89 -199 0
-35 54 -226 0
127 -185 -192 0
-133 -179 246 0
34 -104 199 0
10 91 117 0
-86 -99 -210 0
-10 -143 -201 0
1 -82 -84 0
-27 -149 192 0
-96 145 -201 0
11 19 134 0
11 -45 -74 0
-216 223 240 0
-80 110 -201 0
43 81 135 0
36 -106 151 0
171 212 228 0
-2 -42 -145 0
13 -79 166 0
-8 231 -232 0
-152 -167 194 0
-110 134 193 0
-83 -107 -233 0
-50 98 227 0
-37 -239 -243 0
-8 52 -243 0
65 -127 241 0
-17 78 -89 0
55 -58 206 0
-56 86 -249 0
146 -155 213 0
-139 151 -169 0
-47 -66 -105 0
-8 -12 71 0
54 153 196 0
36 -118 207 0
23 -32 -229 0
-144 185 230 0
-36 138 -169 0
32 104 125 0
-3 16 -113 0
-7 -31 -62 0
103 113 198 0
44 -86 122 0
66 -72 -152 0
-60 94 -138 0
55 108 -210 0
-139 -213 225 0
100 238 247 0
24 -27 37 0
43 -87 -160 0
118 -171 208 0
-46 -57 237 0
-4 107 -116 0
38 217 -239 0
16 123 -194 0
122 212 -231 0
-12 -168 -217 0
82 -131 -239 0
-110 119 200 0
-69 171 -179 0
-29 71 -166 0
49 192 219 0
-5 -24 237 0
-118 -150 -185 0
-110 -153 164 0
69 94 172 0
-25 -47 167 0
185 -189 241 0
20 119 121 0
3 53 173 0
47 -113 -196 0
16 -143 -205 0
106 177 183 0
103 -134 204 0
-36 69 -129 0
39 65 180 0
72 227 -250 0
-56 157 -192 0
-97 150 228 0
75 -158 209 0
31 35 81 0
-60 -103 125 0
40 -49 -63 0
-83 -109 -193 0
-16 -36 -155 0
105 157 175 0
-52 175 -199 0
122 238 248 0
-50 -139 212 0
169 208 220 0
-43 -189 -194 0
-4 -77 183 0
36 66 -184 0
-76 -108 210 0
43 82 232 0
93 -125 -232 0
-18 -47 -245 0
-85 -135 -235 0
197 -207 230 0
-67 -120 -224 0
-2 246 250 0
-21 142 -226 0
41 176 227 0
3 -62 -104 0
-64 -76 -149 0
-20 23 -63 0
80 -159 182 0
-94 -174 -175 0
38 -97 244 0
10 -41 -222 0
-17 -90 249 0
1 47 49 0
-35 187 221 0
41 147 -230 0
-30 -50 79 0
-12 -93 140 0
-63 69 -97 0
-52 141 -237 0
93 228 234 0
30 -213 -232 0
-101 -149 -210 0
-39 -121 -198 0
28 -53 223 0
-109 179 243 0
42 -222 241 0
-106 133 249 0
-11 -62 -209 0
138 -191 233 0
15 50 132 0
9 107 244 0
-44 50 86 0
-78 184 -195 0
40 71 -115 0
6 133 143 0
32 106 -125 0
3 186 207 0
-155 -198 -240 0
66 -71 -134 0
65 -122 226 0
48 224 244 0
-12 93 -159 0
-101 151 248 0
30 148 -172 0
-1 -19 -185 0
-60 -102 231 0
58 129 160 0
-215 -225 -230 0
55 109 -207 0
-11 226 -234 0
-87 121 -123 0
53 -79 113 0
-38 -76 -213 0
-145 -234 243 0
-61 110 -112 0
48 -169 -239 0
-73 121 -132 0
-55 -216 222 0
144 228 239 0
-19 24 -43 0
-29 -73 -233 0
-26 -167 -225 0
-62 135 157 0
-58 95 -98 0
-6 152 -169 0
-97 153 -236 0
-50 104 224 0
-63 -237 247 0
-21 -207 -230 0
-78 134 147 0
222 -226 -227 0
-43 -60 66 0
-67 -110 189 0
67 -114 180 0
-3 171 -192 0
-64 170 238 0
65 -153 177 0
234 237 -247 0
61 -65 -119 0
-127 151 229 0
-50 119 157 0
-46 -121 218 0
60 -202 208 0
7 36 -229 0
-80 -102 240 0
158 -228 238 0
97 -236 241 0
-49 -137 -142 0
92 199 204 0
-118 157 -195 0
35 55 -141 0
104 136 -154 0
46 -91 242 0
-60 -95 211 0
138 -166 -233 0
-80 95 118 0
-11 -22 49 0
-122 234 -241 0
13 -67 -149 0
169 209 250 0
9 -172 200 0
-24 149 -187 0
-56 106 212 0
65 128 -147 0
-126 -197 225 0
-21 -67 117 0
50 100 -249 0
151 -176 -226 0
89 208 -231 0
-2 41 -240 0
16 -235 238 0
110 132 144 0
143 176 -249 0
-29 -149 152 0
138 180 -212 0
-109 204 243 0
2 -84 179 0
25 -143 -231 0
-31 67 231 0
-16 -97 -190 0
-53 95 -133 0
46 204 236 0
-112 165 195 0
-52 -80 212 0
24 -96 -154 0
-9 14 155 0
38 43 -180 0
66 69 -86 0
-79 146 -180 0
81 -91 -215 0
36 -117 222 0
45 -101 -113 0
51 -109 169 0
26 61 -178 0
36 -80 110 0
42 -48 140 0
40 123 -209 0
100 115 241 0
4 -80 169 0
92 -177 -212 0
49 168 -188 0
45 97 -165 0
36 39 -70 0
-97 -185 -195 0
-36 -58 -236 0
-6 -27 -222 0
-1 -54 -247 0
-30 -77 -211 0
-11 143 146 0
-13 113 244 0
-33 -77 -180 0
125 184 197 0
63 -110 183 0
-19 42 162 0
83 -123 -193 0
-3 -112 113 0
115 229 250 0
15 -21 150 0
50 58 86 0
214 240 -250 0
-24 -129 152 0
-111 -113 -141 0
7 -142 147 0
126 192 -249 0
21 -82 -144 0
80 128 170 0
31 36 -164 0
-23 -36 37 0
-130 -141 -145 0
-23 -47 -165 0
62 151 -202 0
2 106 -118 0
-42 -95 -194 0
86 -135 -241 0
87 -108 -148 0
124 -205 -229 0
-95 -135 -166 0
-10 -83 -133 0
-19 -169 -178 0
-33 -72 89 0
-27 -70 -156 0
41 -54 -233 0
-31 -115 -122 0
27 -69 249 0
-21 -150 -236 0
15 18 157 0
41 -59 107 0
45 -97 232 0
151 -198 -232 0
152 -188 198 0
22 77 168 0
-61 -76 227 0
54 83 237 0
33 -41 187 0
75 214 243 0
97 -222 236 0
68 -130 -164 0
25 107 -180 0
-130 -143 225 0
64 132 146 0
-41 -50 -250 0
63 -105 139 0
-53 -220 -228 0
127 -231 249 0
-85 103 -236 0
14 90 214 0
-37 185 245 0
125 168 232 0
-44 53 -190 0
36 -147 -196 0
-130 215 234 0
-21 40 -193 0
-109 -228 -250 0
-41 113 -223 0
-114 149 243 0
-10 -93 -125 0
-98 215 -225 0
99 163 -205 0
-90 -139 204 0
-65 70 146 0
-101 -115 -134 0
-20 47 66 0
124 -216 -231 0
-51 -64 -180 0
-33 144 -187 0
28 210 249 0
-19 -29 -231 0
152 -189 -201 0
-102 107 142 0
136 153 -166 0
83 -143 163 0
-26 -46 -96 0
33 -83 -205 0
-35 68 115 0
-75 -182 -243 0
-155 160 190 0
-36 87 -153 0
-94 115 -190 0
-121 143 180 0
13 -73 -244 0
-60 -125 226 0
-104 107 -168 0
41 90 -184 0
139 -193 227 0
3 -242 243 0
-105 155 227 0
89 -165 -227 0
142 -153 163 0
44 -144 202 0
-82 -85 -240 0
-2 94 99 0
23 42 154 0
36 143 238 0
138 209 219 0
-134 148 -226 0
31 39 54 0
-13 44 197 0
-42 -104 212 0
23 103 -158 0
-56 64 121 0
-34 98 -120 0
70 -161 -197 0
24 31 47 0
-1 12 68 0
-218 -224 234 0
-3 -42 101 0
122 126 136 0
-73 -76 -164 0
35 -76 239 0
17 -172 -227 0
-62 156 229 0
20 100 166 0
46 113 129 0
-60 -70 -229 0
-81 -175 215 0
51 189 248 0
-26 -34 -118 0
-85 -96 -141 0
80 -90 -235 0
-75 131 -246 0
-50 70 -145 0
49 96 234 0
-10 -36 -131 0
29 -37 -167 0
-58 99 -111 0
84 -136 -140 0
10 -149 222 0
59 76 -115 0
-90 -98 -112 0
-100 172 207 0
-8 118 196 0
67 -163 -235 0
-105 -138 153 0
47 -132 168 0
6 -152 -162 0
-51 66 189 0
60 -90 -105 0
-23 118 -230 0
-127 147 -212 0
27 -105 -189 0
47 135 -193 0
81 -88 -159 0
-74 -183 -229 0
-42 -82 108 0
37 205 238 0
-161 165 213 0
-13 18 196 0
76 191 204 0
-25 79 130 0
-110 206 -243 0
112 -189 -196 0
-101 -122 135 0
121 153 -201 0
117 -157 186 0
76 203 235 0
191 229 242 0
-46 -85 145 0
-49 208 238 0
-24 59 116 0
-19 -85 216 0
29 -102 -137 0
-38 231 -245 0
2 25 216 0
-166 192 -219 0
42 68 -218 0
-43 215 -218 0
3 9 22 0
27 76 -240 0
170 -216 -222 0
2 -92 -242 0
-30 -114 155 0
22 53 -215 0
154 -173 -204 0
1 -153 174 0
18 152 171 0
-38 -113 -133 0
-126 151 214 0
-89 152 -237 0
-75 -153 175 0
-164 173 -240 0
189 -201 -226 0
-153 171 -232 0
108 -126 -177 0
-48 81 216 0
168 234 239 0
54 65 -175 0
-72 -122 166 0
73 79 247 0
13 -57 -227 0
22 101 -105 0
160 -214 248 0
1 -13 38 0
86 93 158 0
-111 201 -246 0
42 70 -134 0
23 105 -225 0
103 110 146 0
-43 -143 -206 0
-24 200 212 0
-135 179 -181 0
16 -123 193 0
18 -65 -85 0
90 -171 -233 0
-17 -162 -177 0
-22 30 176 0
-131 -153 237 0
140 149 -192 0
178 -187 -225 0
-179 186 217 0
102 130 -188 0
-40 73 80 0
86 128 154 0
-68 -196 -221 0
-107 172 -241 0
133 135 -165 0
-20 164 168 0
52 175 -228 0
62 95 117 0
-13 105 202 0
-43 -146 -156 0
30 94 -156 0
-128 -164 197 0
-28 -50 211 0
-57 211 230 0
-35 63 -151 0
-21 -81 -121 0
-26 172 -190 0
27 48 -56 0
-57 -148 167 0
16 145 -164 0
30 -150 159 0
132 -200 -229 0
-10 201 -226 0
11 50 135 0
-43 -153 -221 0
54 56 -173 0
178 -182 189 0
57 -67 250 0
51 -218 227 0
-31 -54 213 0
