c F2 random 3-CNF cnfgen RandomKCNF(3,350,1750,seed=4) m/n=5.0
p cnf 350 1750
-53 -121 156 0
-11 -35 47 0
-114 -267 275 0
55 -110 -135 0
-85 -100 159 0
-173 311 344 0
127 -144 243 0
150 -160 -294 0
-148 221 307 0
23 133 -157 0
-144 -266 321 0
-35 101 -345 0
-95 -142 183 0
32 -52 166 0
-63 -91 170 0
-22 -43 183 0
148 -165 166 0
-99 -151 317 0
129 -196 307 0
23 -187 -233 0
-50 149 -293 0
31 59 107 0
77 -305 347 0
-19 -63 165 0
-104 -124 -245 0
-19 113 -216 0
97 111 -256 0
125 130 -270 0
73 -134 167 0
207 -292 -335 0
48 -108 -221 0
-242 -329 337 0
-138 -174 336 0
144 322 -343 0
66 138 -318 0
-207 242 292 0
-7 81 -109 0
114 196 282 0
-170 -312 344 0
18 -41 -305 0
-22 72 312 0
39 -153 -178 0
106 -160 -199 0
-40 -49 -59 0
35 -228 -322 0
61 -217 286 0
-77 -91 -168 0
3 -87 278 0
-57 250 280 0
151 183 211 0
-28 -313 -347 0
-226 -260 314 0
-129 186 -306 0
43 -74 -311 0
102 180 -295 0
-92 -169 331 0
12 154 -310 0
-51 82 94 0
89 -246 -334 0
122 -251 -307 0
-118 -168 -276 0
-146 161 -225 0
-95 -235 -277 0
15 -80 -320 0
-47 -160 310 0
245 310 328 0
36 68 -154 0
-298 318 349 0
50 -81 106 0
-32 63 139 0
67 -213 336 0
-80 258 283 0
153 -248 260 0
-84 -132 -264 0
88 -169 199 0
-10 143 347 0
60 81 312 0
5 -245 -284 0
89 173 -272 0
-157 183 318 0
-131 -297 -339 0
43 121 -162 0
181 244 270 0
256 266 280 0
37 -173 347 0
1 260 -261 0
10 -18 319 0
-110 -128 -185 0
207 310 -324 0
-33 -253 262 0
90 165 -224 0
-142 -170 -224 0
-108 132 318 0
-135 207 -312 0
45 85 -318 0
-111 329 -343 0
5 234 292 0
49 -126 -266 0
291 298 339 0
14 -93 347 0
-167 -304 324 0
26 88 111 0
-135 343 345 0
-71 -201 -246 0
19 208 221 0
113 -152 184 0
-177 -320 347 0
98 115 179 0
-14 -61 -98 0
22 157 -202 0
-180 238 -317 0
-16 70 230 0
152 170 -306 0
83 270 346 0
171 307 -308 0
119 224 300 0
94 -147 -310 0
191 -277 -325 0
133 172 -306 0
-101 254 293 0
101 305 322 0
-27 276 306 0
77 -279 310 0
144 -152 -244 0
-32 -72 272 0
-2 178 272 0
-41 222 -347 0
101 102 347 0
-2 -6 48 0
-48 268 328 0
32 262 282 0
-54 -70 -224 0
69 300 301 0
-23 -81 -140 0
-79 186 -269 0
88 248 -334 0
-294 -301 307 0
-83 -156 162 0
-248 -274 -317 0
85 162 -340 0
-91 100 -327 0
3 17 267 0
-115 -126 191 0
-222 227 -324 0
23 -50 95 0
84 201 -223 0
176 179 -261 0
50 -187 -194 0
222 -284 294 0
45 199 230 0
52 -65 -147 0
-163 -179 -209 0
53 -175 -193 0
117 -189 -295 0
64 172 274 0
-119 -246 -266 0
214 -273 342 0
-184 221 241 0
-79 -171 185 0
-198 245 -251 0
131 304 319 0
157 236 293 0
-80 -120 -175 0
119 141 295 0
57 226 -327 0
33 275 279 0
3 100 263 0
-168 -248 -257 0
68 -174 -296 0
30 -50 173 0
-26 -106 -128 0
36 -44 -328 0
56 193 263 0
-87 -234 -323 0
-127 -222 290 0
-137 -204 289 0
81 -97 263 0
95 314 334 0
-16 42 157 0
101 136 -143 0
-139 205 299 0
186 -205 -307 0
98 126 -252 0
-17 -97 108 0
-88 -187 -313 0
-40 -168 -236 0
-58 -79 -337 0
-44 138 -235 0
-5 82 -313 0
-17 92 247 0
86 -205 -273 0
-140 -155 199 0
19 332 345 0
-171 253 272 0
-27 -192 206 0
-179 188 -225 0
-66 -71 242 0
-186 228 272 0
76 156 -320 0
-20 287 344 0
-139 209 221 0
-56 -70 209 0
-133 167 325 0
-130 -131 -175 0
31 -293 -313 0
52 122 -289 0
142 -210 -308 0
-240 268 -323 0
-90 -147 264 0
226 -266 -307 0
-134 240 -273 0
-192 237 318 0
120 -189 -313 0
-148 230 -334 0
-114 145 -200 0
-104 110 -226 0
-33 81 304 0
-163 169 204 0
-32 -262 305 0
-45 178 -187 0
-226 257 344 0
164 -210 -336 0
293 324 333 0
-98 225 325 0
82 -159 279 0
-117 -259 340 0
-21 177 -262 0
50 105 -148 0
16 48 70 0
88 -135 -295 0
-140 240 329 0
-149 -162 257 0
-3 -268 274 0
-34 185 -269 0
-35 -248 -344 0
166 252 285 0
-147 -203 297 0
76 -140 -215 0
-54 110 -216 0
60 -61 93 0
51 207 292 0
-35 86 -87 0
42 -110 -153 0
-147 233 267 0
-198 -228 -234 0
99 -140 183 0
-99 -250 284 0
-113 189 -253 0
13 78 -282 0
204 -240 339 0
-33 78 97 0
-60 87 242 0
-75 -108 -262 0
11 -170 -195 0
-70 81 219 0
-50 -122 -134 0
96 -100 162 0
-145 -234 326 0
-149 -201 -347 0
35 205 224 0
-181 253 -274 0
-113 149 186 0
-40 74 198 0
-49 -70 -137 0
53 96 333 0
49 217 260 0
52 -153 223 0
-15 -236 -289 0
-92 -113 251 0
-115 130 139 0
29 34 -176 0
-73 -274 -341 0
-52 152 -272 0
228 341 349 0
-50 -115 -202 0
-30 51 190 0
-173 244 254 0
-80 -179 -215 0
-201 214 261 0
52 -105 -230 0
26 -235 -263 0
-102 -316 346 0
2 198 270 0
150 -170 301 0
-151 -246 -262 0
13 62 -103 0
-66 109 -300 0
109 132 150 0
18 -21 257 0
-20 91 293 0
-171 195 -349 0
-96 -134 -234 0
12 108 -327 0
40 120 316 0
-78 -234 331 0
280 -303 326 0
-100 -222 -339 0
-29 65 346 0
85 163 273 0
-23 99 -296 0
-144 207 -212 0
-29 193 260 0
-66 194 -331 0
231 -237 311 0
-41 104 -141 0
96 265 -267 0
162 -191 -267 0
-129 132 299 0
109 -260 347 0
-74 298 -342 0
34 92 146 0
29 61 201 0
7 -168 -193 0
61 134 -289 0
-37 289 -317 0
-48 -246 310 0
-93 -124 -293 0
61 -248 -300 0
-19 -94 -205 0
93 177 -276 0
3 80 136 0
-160 250 -258 0
-81 166 -291 0
95 -259 -289 0
67 -84 291 0
-35 -289 308 0
-128 -168 -276 0
41 82 284 0
-172 306 -325 0
-74 183 -286 0
51 70 336 0
8 -170 282 0
-90 120 342 0
27 -28 -39 0
-109 -285 -347 0
-23 -92 272 0
-151 152 -287 0
167 237 -297 0
-7 112 -134 0
-121 -185 -348 0
56 -87 -141 0
-52 -111 -152 0
-210 -228 -295 0
10 -186 229 0
64 -176 -201 0
156 235 269 0
-145 184 350 0
-2 33 59 0
142 202 309 0
94 -124 157 0
-71 -190 274 0
-84 -118 -313 0
197 -207 262 0
-46 -159 262 0
-86 -254 -335 0
47 -193 253 0
157 166 -316 0
155 183 298 0
-28 142 306 0
92 170 282 0
219 -310 -317 0
14 23 224 0
-232 299 -311 0
-45 -83 344 0
56 76 322 0
-167 -257 317 0
-81 -114 241 0
140 -273 330 0
11 43 95 0
5 -99 156 0
-21 -52 217 0
85 -237 -261 0
-41 76 310 0
-44 278 324 0
195 -330 334 0
-15 113 -139 0
145 -204 -230 0
114 -199 289 0
121 264 284 0
14 21 294 0
-105 -158 283 0
-122 -135 -303 0
187 192 248 0
136 224 -296 0
-288 -317 -344 0
-140 196 319 0
-99 133 247 0
20 341 344 0
-255 -283 303 0
-26 96 333 0
-22 223 328 0
2 191 -222 0
-5 -16 141 0
65 -109 324 0
-76 282 338 0
-73 81 201 0
18 139 256 0
-23 164 -320 0
-15 84 -226 0
81 171 186 0
-1 -72 -292 0
-174 192 -225 0
-71 -220 -237 0
-158 267 317 0
-71 -258 300 0
120 158 211 0
74 -207 265 0
-51 179 328 0
-51 -113 222 0
51 246 281 0
48 -101 349 0
207 -220 -341 0
213 -265 -267 0
-33 -57 239 0
-178 290 -291 0
-65 -66 204 0
32 153 -238 0
19 -165 181 0
-118 223 -270 0
12 57 259 0
56 -97 304 0
-202 -239 -240 0
-46 -231 281 0
-242 -300 337 0
-166 -238 249 0
9 69 -343 0
182 247 -307 0
3 194 -210 0
-104 273 287 0
-88 -97 -160 0
-33 -111 306 0
1 -128 146 0
-133 203 -253 0
174 -204 -301 0
-63 231 -292 0
121 -331 -336 0
-158 -162 -182 0
118 -193 -210 0
153 332 341 0
-47 170 -294 0
13 69 -288 0
55 262 288 0
196 208 -283 0
-75 -153 192 0
219 -269 -317 0
-168 -253 344 0
-103 -272 320 0
124 130 222 0
94 -183 -231 0
-83 143 -308 0
102 263 279 0
28 -95 -220 0
-38 -129 -310 0
17 154 -221 0
-189 251 266 0
138 -276 316 0
-111 -140 -325 0
148 189 -346 0
124 -221 -233 0
-126 -255 -302 0
-10 -62 -79 0
49 -257 -339 0
66 271 288 0
73 -133 331 0
90 242 293 0
-49 -207 -256 0
-22 149 -174 0
226 -257 -317 0
101 218 -306 0
-141 144 -255 0
107 176 -310 0
105 210 -284 0
85 -120 -341 0
210 303 304 0
-24 248 -336 0
39 -265 -311 0
286 309 -334 0
-141 -214 -309 0
43 -260 308 0
33 75 -294 0
44 -54 249 0
146 172 312 0
-43 -84 168 0
-61 -153 -295 0
242 275 332 0
-90 189 284 0
131 -255 -273 0
-251 -257 -328 0
38 264 -267 0
-127 144 293 0
125 193 -335 0
29 -259 284 0
26 -77 266 0
129 287 -338 0
88 -176 285 0
-86 100 -305 0
-76 -96 -291 0
-51 -252 -326 0
-84 157 292 0
-118 121 -126 0
159 168 -233 0
-40 48 -134 0
-205 -337 341 0
13 -213 259 0
-144 -164 312 0
262 279 -299 0
-21 64 -188 0
-75 -160 258 0
146 -150 238 0
27 128 225 0
91 114 -160 0
70 -144 330 0
210 -234 -266 0
114 -157 -250 0
4 -14 85 0
-29 110 125 0
68 117 201 0
41 -230 233 0
28 56 -300 0
-113 236 269 0
-218 -290 303 0
271 310 331 0
-58 76 -152 0
11 162 284 0
-81 -92 264 0
58 75 -105 0
48 180 -302 0
-86 -183 189 0
-28 -235 -271 0
55 217 292 0
-153 -163 258 0
-37 211 -239 0
-130 -247 309 0
122 153 -278 0
68 -99 316 0
-56 104 246 0
27 -28 247 0
15 -254 259 0
-50 89 -303 0
98 -163 269 0
124 277 -314 0
58 -123 -243 0
84 216 231 0
-39 119 -151 0
34 -65 217 0
102 107 -211 0
160 288 349 0
-77 148 164 0
34 -146 -287 0
-199 258 -332 0
-89 -126 326 0
79 -273 -311 0
-158 236 -334 0
-19 120 167 0
15 117 158 0
-11 -121 338 0
-33 97 309 0
-47 -127 347 0
11 118 208 0
-111 -239 342 0
-98 248 -321 0
32 57 -284 0
114 -226 -292 0
76 93 177 0
54 -201 206 0
16 45 -167 0
33 -300 314 0
-183 -194 233 0
-37 75 -226 0
-54 -257 -344 0
-160 248 278 0
215 -329 343 0
-286 -329 348 0
-62 -94 304 0
-13 153 -169 0
-15 -79 -215 0
-48 253 -303 0
-22 -136 310 0
134 -290 -307 0
17 319 -341 0
-66 -106 -159 0
61 77 84 0
-74 -88 -146 0
-50 -108 276 0
63 -116 -239 0
162 -286 -299 0
58 207 -270 0
68 -105 -132 0
157 164 -248 0
-15 -21 291 0
22 45 -186 0
1 191 337 0
105 -129 320 0
42 164 -222 0
-53 169 173 0
-158 256 -335 0
42 -96 -312 0
58 239 -257 0
203 -252 -305 0
91 -95 -328 0
34 189 -349 0
103 -156 -180 0
-83 90 125 0
-4 -54 170 0
122 -241 -274 0
-107 -156 -327 0
-138 223 231 0
106 -173 350 0
-76 113 281 0
-168 265 -345 0
-55 -304 331 0
29 -264 -334 0
18 -212 289 0
-88 120 -164 0
-22 -148 150 0
-182 -207 -234 0
10 -114 130 0
-154 253 -285 0
-11 -51 174 0
-15 150 -205 0
169 209 -320 0
-38 99 -185 0
10 -114 343 0
195 -209 257 0
-46 -317 347 0
-184 232 251 0
-204 291 -301 0
-25 -285 331 0
168 -277 343 0
-191 243 -317 0
-68 89 -231 0
-19 -51 -255 0
156 169 348 0
217 -279 298 0
-19 102 111 0
119 192 331 0
41 -127 257 0
38 -92 -114 0
18 -278 344 0
-91 315 322 0
-88 286 304 0
58 -114 -271 0
50 -213 336 0
-143 208 -317 0
-111 -118 -191 0
-20 -71 -128 0
-111 -338 -339 0
63 -93 271 0
-103 -145 -322 0
-11 24 -283 0
139 225 229 0
-90 97 300 0
7 -251 273 0
181 186 296 0
134 -140 170 0
95 151 -264 0
95 212 -323 0
166 -170 -245 0
86 -315 328 0
1 200 -257 0
-77 142 -174 0
-49 -61 227 0
-151 -235 -251 0
1 43 -155 0
-38 52 -245 0
5 116 -249 0
16 -220 -270 0
-20 187 -296 0
-54 -222 247 0
181 289 336 0
-145 -203 348 0
-88 -233 341 0
141 -179 -289 0
-98 176 -217 0
-16 -32 193 0
-73 -190 290 0
112 233 -264 0
92 105 178 0
-192 288 325 0
-58 253 255 0
-81 88 168 0
45 134 203 0
2 165 -312 0
-85 200 326 0
-33 122 -279 0
-215 235 255 0
-141 -220 -345 0
-34 -239 -313 0
-49 -302 337 0
-281 293 -345 0
-82 -140 174 0
-5 111 157 0
-4 -143 -204 0
-22 195 244 0
54 145 311 0
47 -189 -251 0
42 47 143 0
-251 -301 -334 0
-95 -138 -326 0
154 178 275 0
37 -99 166 0
38 -98 283 0
-97 232 -244 0
-36 122 197 0
-71 267 323 0
-173 250 333 0
176 -272 -324 0
97 -199 -278 0
-179 -287 -305 0
-136 155 -182 0
-39 -89 -185 0
-127 -304 -315 0
50 -104 -145 0
176 -199 -217 0
243 -249 327 0
-110 195 220 0
13 -282 -301 0
-14 -53 -57 0
55 -153 -155 0
6 -11 72 0
-145 -289 -343 0
168 267 -329 0
-199 -292 -322 0
57 -122 -289 0
-116 -224 274 0
-51 183 264 0
135 -136 -208 0
19 112 214 0
-266 -297 -349 0
78 -280 -298 0
-59 -104 314 0
-270 294 296 0
129 171 -282 0
90 215 -314 0
23 -57 73 0
163 221 225 0
-52 64 196 0
-197 260 -313 0
-24 -238 -277 0
-58 -220 -272 0
-9 11 53 0
-10 -33 -206 0
-85 -150 161 0
14 -195 -327 0
-120 253 -331 0
106 -137 -169 0
142 182 312 0
-183 253 -279 0
-160 -258 303 0
-21 157 -299 0
128 211 -324 0
49 82 -310 0
89 144 -145 0
130 -200 -321 0
-12 -41 -278 0
28 309 -331 0
87 292 332 0
12 33 -241 0
-143 -175 269 0
103 165 225 0
128 -312 315 0
129 202 297 0
24 64 -183 0
179 185 277 0
-44 228 230 0
77 -103 -132 0
-78 223 272 0
53 75 -167 0
-113 -186 -293 0
126 211 235 0
-191 204 320 0
-2 -228 294 0
-60 -121 292 0
-16 -146 295 0
63 287 -339 0
-140 -286 288 0
61 -71 79 0
-21 -63 -321 0
-122 -276 -308 0
156 -211 -226 0
-68 -85 183 0
202 -247 -261 0
27 -28 51 0
51 234 -281 0
-70 -239 -259 0
-35 -137 -336 0
-59 -94 130 0
94 -185 201 0
-13 -147 195 0
123 230 -244 0
43 -237 -331 0
-79 108 144 0
-87 98 274 0
-67 -69 -216 0
123 332 333 0
203 286 332 0
88 178 282 0
144 246 265 0
-222 -290 -348 0
22 80 303 0
-42 -53 -75 0
116 287 -341 0
-52 -139 -226 0
30 -164 -287 0
-35 -68 -112 0
155 206 345 0
-122 275 303 0
-222 238 344 0
-86 -185 -206 0
51 -159 202 0
272 -282 318 0
156 -185 186 0
121 193 -266 0
72 234 -311 0
192 255 339 0
-139 225 349 0
114 -260 288 0
74 225 -318 0
-84 -99 -268 0
-37 41 314 0
124 -126 197 0
-1 143 -215 0
-10 157 -241 0
-27 116 336 0
-83 -143 -147 0
-69 192 -283 0
-110 224 314 0
192 -236 -246 0
-85 -164 345 0
127 149 199 0
-13 154 -332 0
35 169 172 0
-3 -53 248 0
172 195 -214 0
-74 -158 328 0
117 201 237 0
33 156 250 0
4 -107 -348 0
49 -75 -178 0
25 155 -266 0
169 206 -242 0
-46 -243 325 0
73 -142 232 0
-62 -216 257 0
114 -166 -296 0
-37 53 -297 0
-87 194 283 0
182 -334 341 0
125 140 321 0
30 -44 -343 0
-83 -97 214 0
-24 51 -284 0
-95 -258 -340 0
-22 -57 230 0
-7 69 -117 0
-109 155 204 0
-54 -72 -333 0
201 326 -331 0
319 333 -336 0
171 -201 267 0
-104 231 289 0
-58 -113 -198 0
-61 -211 257 0
-10 -11 235 0
227 -236 313 0
61 179 -282 0
114 -133 288 0
-280 -323 -332 0
-139 226 -306 0
-181 202 -259 0
-10 -51 304 0
-42 -173 197 0
22 -290 -293 0
-60 -147 -346 0
-76 110 -348 0
27 -200 -316 0
-98 133 198 0
-164 -197 -324 0
-46 -108 138 0
-81 -159 -261 0
26 77 -93 0
39 -159 186 0
-242 263 269 0
38 124 318 0
-54 -179 201 0
151 -157 -263 0
-24 -163 -209 0
-89 202 281 0
5 -67 80 0
68 -106 -348 0
167 210 324 0
-72 -213 -277 0
42 92 -141 0
5 -95 244 0
140 -154 347 0
-133 -336 -346 0
-6 183 241 0
-68 96 -257 0
-81 252 302 0
88 -285 -335 0
209 -246 -316 0
-5 -67 247 0
-93 179 -252 0
-80 -254 338 0
-56 245 -334 0
95 -126 -147 0
168 -247 -304 0
12 -156 -219 0
239 -319 339 0
-79 -172 -208 0
26 -53 229 0
35 -84 268 0
164 -228 -236 0
-255 284 300 0
84 306 346 0
-154 160 326 0
53 127 252 0
78 -135 233 0
-99 297 -328 0
-208 214 -255 0
151 311 -347 0
203 223 310 0
-79 -111 -224 0
-179 218 -277 0
-7 219 346 0
-79 -135 267 0
58 79 237 0
-102 -229 251 0
-127 136 226 0
-146 -193 -263 0
22 121 -326 0
44 197 217 0
-41 50 -326 0
-67 259 339 0
13 -171 -232 0
151 -219 -344 0
-87 223 305 0
187 229 348 0
-91 -203 281 0
-4 146 -231 0
-275 -294 -317 0
71 218 269 0
102 -200 -348 0
-231 -322 347 0
142 -195 -253 0
189 -202 -275 0
-136 -153 297 0
-87 200 -304 0
48 -85 229 0
-238 282 -326 0
181 -184 -260 0
53 -104 172 0
53 117 343 0
187 -204 -311 0
-53 -83 152 0
-81 -128 264 0
144 197 -251 0
51 -61 -159 0
1 100 -294 0
200 316 -321 0
-139 211 229 0
16 -153 -173 0
-34 -60 -84 0
17 22 34 0
-4 -62 -325 0
-43 51 338 0
204 210 299 0
-48 -123 238 0
-109 -151 305 0
49 70 -245 0
78 -180 -276 0
167 278 -280 0
-59 202 -231 0
-143 -218 316 0
-71 124 -210 0
48 195 307 0
-81 -97 114 0
166 -175 -185 0
-61 208 309 0
-150 -202 322 0
275 -280 331 0
58 -255 -286 0
-97 183 292 0
-7 49 212 0
-78 -111 -211 0
-55 164 312 0
2 52 -121 0
-84 -94 -131 0
-54 -239 -341 0
-57 232 -327 0
-173 209 243 0
-74 -195 -210 0
-46 -120 -127 0
-10 51 -190 0
64 -196 -281 0
130 166 -210 0
55 -156 195 0
60 -128 157 0
51 156 -187 0
65 -80 -278 0
201 213 -324 0
-157 314 -331 0
-57 190 344 0
74 194 -245 0
-38 -120 -165 0
-15 274 327 0
49 179 -187 0
92 125 -176 0
-38 -219 -323 0
86 -141 153 0
73 148 -317 0
6 167 295 0
139 140 -229 0
-8 322 323 0
100 204 -235 0
98 274 337 0
53 -144 165 0
305 -326 342 0
47 -200 -222 0
43 127 -247 0
-73 -204 -303 0
-96 194 -285 0
69 203 -206 0
3 18 -87 0
62 -265 345 0
131 -278 -335 0
-52 288 315 0
9 -257 -336 0
-40 -99 -314 0
154 269 -298 0
-114 193 -251 0
-8 65 -138 0
-75 120 277 0
-16 93 240 0
-28 -42 -172 0
180 296 -339 0
56 -286 -315 0
-1 -209 230 0
-177 253 266 0
-22 156 169 0
51 -117 -200 0
135 -170 308 0
-7 -74 94 0
80 126 183 0
233 -237 -239 0
-177 203 248 0
302 -321 344 0
17 146 222 0
-100 232 -276 0
-114 -219 -241 0
-245 -285 325 0
-109 -185 -267 0
-11 -57 -346 0
28 -177 -195 0
129 141 319 0
22 322 -324 0
102 -310 -322 0
24 -278 295 0
69 290 -306 0
52 94 301 0
157 204 -327 0
17 130 212 0
-86 209 -346 0
62 -188 -271 0
74 -102 -321 0
58 -250 267 0
-269 -296 -318 0
167 260 -293 0
-193 -291 -299 0
63 -202 -238 0
25 308 -319 0
-7 -60 233 0
119 196 -302 0
-153 243 295 0
25 213 -310 0
-48 -108 -221 0
265 -333 -336 0
64 -182 334 0
15 121 -316 0
72 -124 -323 0
10 240 -255 0
31 159 236 0
-91 -308 -336 0
60 116 214 0
-13 208 267 0
28 252 -255 0
-101 -188 -241 0
14 -265 284 0
-143 -189 -250 0
197 238 259 0
-95 276 -301 0
-7 137 -264 0
177 -224 225 0
36 -44 -253 0
-38 -104 -334 0
-122 -221 312 0
29 -209 -233 0
32 43 -155 0
-71 -128 327 0
107 244 -349 0
-39 89 171 0
35 -265 298 0
64 292 312 0
-16 124 154 0
-129 207 251 0
61 -76 -90 0
79 242 247 0
-92 -142 -304 0
-62 -241 -336 0
-269 -308 337 0
78 -314 340 0
-105 -177 306 0
-85 88 -240 0
-230 -261 -298 0
-38 118 -178 0
149 -163 -168 0
33 112 233 0
67 -89 -228 0
-106 259 -267 0
-140 -217 -295 0
130 -160 322 0
210 247 -283 0
-17 233 -255 0
-40 -167 -312 0
-2 -129 -239 0
-73 84 -247 0
-199 -254 297 0
100 129 -306 0
-73 102 232 0
-75 -153 -196 0
-76 142 -314 0
184 -321 341 0
32 -46 202 0
11 51 110 0
-42 66 -149 0
159 -180 240 0
-106 142 273 0
-44 115 -320 0
-82 -141 301 0
-27 180 320 0
57 -91 132 0
195 -246 -279 0
33 168 -328 0
-31 247 275 0
-119 224 -324 0
-147 193 320 0
-190 -218 265 0
129 200 327 0
261 -266 279 0
-44 184 -308 0
46 252 344 0
-73 114 -132 0
50 -251 292 0
72 78 -204 0
12 -32 -211 0
-143 -174 257 0
207 -226 255 0
-47 151 334 0
50 124 179 0
-235 -267 -340 0
50 103 -136 0
-95 197 326 0
120 293 -334 0
-79 -230 -271 0
-160 -247 300 0
12 -70 -306 0
8 -220 299 0
90 103 -341 0
-61 164 314 0
-20 -147 -151 0
45 315 -350 0
-55 213 231 0
-250 -319 -350 0
-182 214 -350 0
-31 170 -276 0
259 262 349 0
41 -114 203 0
73 -215 -307 0
-128 -147 243 0
26 38 -339 0
-45 100 303 0
45 -284 295 0
68 -74 -326 0
22 103 -342 0
-8 217 264 0
-84 110 -121 0
32 -74 -284 0
-18 58 -231 0
311 -344 345 0
144 -186 227 0
-121 -234 264 0
-131 163 -343 0
-85 269 278 0
29 -73 -74 0
-31 51 296 0
-96 276 327 0
-92 -108 -339 0
189 275 -323 0
114 195 287 0
-9 -82 294 0
-27 36 308 0
-2 -31 130 0
-151 246 259 0
79 -238 348 0
82 -179 275 0
-90 -165 296 0
99 228 240 0
-47 129 156 0
56 -78 236 0
16 -197 -294 0
16 -115 308 0
70 99 -132 0
-5 -300 334 0
-92 -167 -251 0
53 -64 -342 0
6 -24 81 0
48 -101 152 0
17 142 302 0
-76 92 168 0
-80 -205 -288 0
-136 -198 -325 0
179 -242 -303 0
-1 -253 307 0
-79 146 200 0
161 -206 -285 0
-109 179 320 0
103 -141 -280 0
-84 -255 -283 0
-102 127 333 0
104 162 163 0
57 83 112 0
-65 -69 87 0
81 -293 -329 0
-263 307 -327 0
29 196 333 0
16 -214 265 0
-121 280 313 0
-5 -170 -305 0
-92 124 -172 0
238 298 307 0
2 30 45 0
-65 134 274 0
163 211 298 0
127 227 242 0
12 108 280 0
-24 -122 187 0
28 -40 -42 0
-184 -302 347 0
-105 169 185 0
-14 126 176 0
-129 238 -292 0
52 160 -314 0
-61 63 66 0
126 127 325 0
-119 156 -318 0
41 104 250 0
-37 197 330 0
54 152 319 0
36 62 -178 0
108 -132 287 0
-50 122 -243 0
-118 -215 -230 0
142 -247 296 0
17 19 -284 0
-14 -225 251 0
-89 -128 213 0
62 133 -312 0
-264 -279 -327 0
-20 -172 -347 0
3 -131 -232 0
68 279 326 0
-240 310 -331 0
-51 91 313 0
-67 -290 337 0
30 176 -279 0
-86 266 -320 0
71 -252 349 0
154 184 -186 0
-86 -225 278 0
-87 140 -272 0
27 -103 -314 0
-24 -88 128 0
196 -302 350 0
-139 217 271 0
-188 -202 259 0
169 -173 -268 0
-184 -322 343 0
168 -210 -325 0
-7 -10 251 0
70 101 -226 0
16 233 247 0
146 279 341 0
-32 -62 241 0
30 140 -233 0
-23 84 -91 0
-77 89 116 0
-2 176 308 0
-51 -122 -335 0
-37 -97 181 0
-24 -34 117 0
-67 106 -218 0
-22 -263 270 0
61 121 -316 0
-37 -277 -346 0
39 -253 -329 0
81 -141 -289 0
27 -158 -319 0
104 -224 -227 0
-70 -125 -200 0
-11 138 -151 0
-140 -173 345 0
11 -121 133 0
278 330 -347 0
129 306 -340 0
84 90 230 0
-138 -188 -290 0
-116 -168 -244 0
-12 20 -128 0
-156 -282 289 0
107 181 198 0
220 -292 302 0
-209 -211 -335 0
-208 291 -320 0
-115 144 297 0
156 233 -340 0
-4 286 330 0
42 -151 -195 0
-193 -239 247 0
105 -150 171 0
9 -54 -123 0
-164 -255 -294 0
132 220 314 0
-11 50 -188 0
100 -118 197 0
-4 -22 -207 0
169 -304 340 0
130 -173 243 0
-114 181 272 0
106 265 -312 0
7 -157 -217 0
13 -19 139 0
79 152 304 0
4 210 -310 0
47 252 -330 0
-16 -266 -304 0
25 112 343 0
72 -252 -301 0
-20 25 -296 0
34 -75 109 0
126 -188 243 0
237 -238 299 0
-9 -112 -157 0
-71 75 -241 0
-75 207 -240 0
-69 162 -306 0
11 192 246 0
-109 158 -325 0
102 -124 -296 0
79 -138 236 0
-28 -106 -260 0
244 322 -342 0
39 -118 -324 0
-148 149 -207 0
-190 196 197 0
-26 -92 -180 0
-178 239 -334 0
53 -192 230 0
-191 254 323 0
149 -259 316 0
76 189 -219 0
53 -58 -72 0
-182 198 242 0
-68 113 -128 0
101 148 -159 0
122 160 211 0
-176 -242 273 0
-64 -208 -230 0
-99 200 249 0
-94 188 318 0
-253 292 344 0
29 124 -188 0
33 51 -300 0
-101 125 -202 0
86 293 -332 0
94 126 -200 0
-36 138 -229 0
-90 112 -225 0
-66 -147 -153 0
50 52 -313 0
-102 -174 229 0
-101 -304 332 0
54 -168 -315 0
29 257 -274 0
181 245 -275 0
-107 -312 -325 0
47 -136 337 0
-197 202 -239 0
65 -140 -270 0
18 87 -96 0
-67 -97 197 0
138 -201 256 0
-97 200 241 0
78 -141 -214 0
214 323 -336 0
66 -188 -343 0
-37 41 -196 0
151 191 -205 0
106 177 247 0
-49 193 -266 0
53 -188 -245 0
157 -231 -312 0
-46 -235 -236 0
98 174 -345 0
54 161 221 0
-129 -250 -266 0
6 34 -164 0
-231 -245 282 0
-159 -229 -273 0
-28 -69 -186 0
172 273 -282 0
163 -212 -263 0
22 94 -260 0
45 -126 -332 0
113 237 -261 0
119 -337 349 0
-106 229 246 0
26 -184 -204 0
207 -208 -301 0
-121 153 193 0
45 -74 -228 0
-3 88 -269 0
96 292 325 0
2 -97 173 0
237 255 274 0
-72 -116 -284 0
63 93 214 0
-199 261 267 0
-24 -88 -144 0
-20 -313 340 0
-81 177 267 0
-112 220 -304 0
-138 191 -316 0
62 124 -349 0
152 -178 227 0
-197 237 239 0
294 -309 -348 0
126 -244 -318 0
91 -127 -140 0
-11 26 180 0
-24 226 -287 0
8 -201 298 0
22 -141 -281 0
-14 -82 161 0
-106 -158 -191 0
5 131 234 0
-16 142 -262 0
166 191 -241 0
-67 -111 -281 0
257 -277 -298 0
-28 223 -334 0
-55 -114 162 0
-53 94 149 0
19 191 -282 0
-156 -157 -284 0
12 -48 -292 0
-235 253 -274 0
86 -235 252 0
-50 75 327 0
-23 33 298 0
-44 139 -180 0
-16 280 -335 0
88 315 -332 0
-46 147 287 0
-83 -106 222 0
68 136 -156 0
103 180 319 0
53 -111 -171 0
14 -83 299 0
5 78 256 0
-69 -85 -106 0
-67 -232 243 0
15 -208 344 0
-73 -220 -284 0
-146 165 271 0
-64 141 326 0
-136 197 -261 0
-188 220 223 0
66 -110 -239 0
15 -257 -310 0
-34 232 -295 0
-1 22 -70 0
-261 289 -294 0
4 -7 -118 0
19 71 310 0
147 222 318 0
130 135 -342 0
-46 205 265 0
-5 -99 -215 0
76 -164 189 0
-69 185 -230 0
-80 230 294 0
-89 145 313 0
-71 151 255 0
54 -119 313 0
149 235 340 0
19 35 -201 0
83 -225 239 0
137 -185 -247 0
-44 -215 -315 0
-86 -249 -350 0
23 -152 325 0
-21 145 -316 0
-172 -194 313 0
-213 311 338 0
221 247 348 0
-287 -308 327 0
13 25 -125 0
70 -100 -178 0
-101 161 297 0
-231 253 -290 0
-121 -160 183 0
92 -94 324 0
-66 120 348 0
-128 -152 -310 0
11 -76 168 0
-150 -291 -344 0
90 146 -217 0
191 -269 344 0
-7 232 327 0
-76 -190 -301 0
43 100 252 0
-14 -279 -314 0
108 323 -341 0
85 -123 342 0
-70 160 -281 0
-40 102 179 0
-297 329 340 0
-122 215 239 0
-6 115 220 0
-3 10 207 0
54 -97 -237 0
-48 207 253 0
92 210 263 0
-191 -203 -219 0
25 75 331 0
-81 -111 -254 0
28 49 302 0
-14 66 -202 0
4 -56 -200 0
-18 -206 -241 0
-154 167 304 0
-213 -259 298 0
15 -117 -185 0
-153 -174 -200 0
1 -140 -242 0
-2 -103 -144 0
55 -133 181 0
9 240 311 0
122 -150 -158 0
27 67 -270 0
24 321 328 0
-22 57 -297 0
-1 134 -188 0
-46 -164 -238 0
-13 195 -204 0
241 264 -341 0
-153 -179 238 0
88 -98 279 0
-195 205 207 0
-147 -148 -337 0
106 -208 -218 0
-92 236 242 0
-152 -318 -348 0
-69 -104 189 0
45 -124 137 0
30 176 -259 0
-1 67 263 0
-109 -211 233 0
137 -229 -327 0
132 160 248 0
-33 -95 -220 0
-131 151 -213 0
-60 153 294 0
91 232 251 0
-6 -146 215 0
2 -232 266 0
87 230 313 0
60 -177 306 0
37 -54 287 0
-95 -154 -259 0
-59 170 -243 0
-63 152 -227 0
-52 137 228 0
7 104 -248 0
-11 -107 114 0
51 130 -215 0
137 -148 -291 0
46 91 -187 0
191 262 271 0
223 -323 -350 0
49 197 -265 0
97 293 -294 0
114 -115 -144 0
21 300 314 0
213 242 327 0
-91 122 -320 0
29 -38 197 0
-186 232 315 0
-11 278 -299 0
-18 88 230 0
125 143 158 0
227 -291 340 0
22 131 300 0
-13 127 -205 0
-94 144 329 0
-109 -208 -330 0
75 101 111 0
-262 -312 319 0
-158 274 -348 0
-116 -143 162 0
34 247 -285 0
17 131 -296 0
-41 294 335 0
-17 310 -339 0
152 -166 -340 0
151 167 -314 0
-77 99 -206 0
-71 -72 283 0
48 -209 248 0
-225 239 300 0
152 338 348 0
150 190 340 0
47 133 -301 0
-70 -273 331 0
122 154 -339 0
-191 236 329 0
215 243 350 0
-103 196 284 0
-82 -216 327 0
-235 265 -267 0
3 -279 -303 0
108 -132 -176 0
-131 -179 -264 0
-193 -241 333 0
46 105 -166 0
-17 -53 255 0
122 273 -320 0
-165 214 258 0
-60 -105 -282 0
-226 244 263 0
105 184 -317 0
-106 -154 -244 0
-29 -73 201 0
129 -175 266 0
-92 -93 152 0
-28 193 -220 0
129 226 320 0
184 230 255 0
79 -229 301 0
-54 -157 -248 0
-143 -195 -301 0
-88 132 -168 0
96 -155 224 0
-86 -134 -161 0
69 -128 -323 0
-69 137 -170 0
-170 190 -232 0
38 -154 198 0
66 93 -309 0
-151 -336 -347 0
60 163 -303 0
-48 72 292 0
139 -196 -215 0
62 215 -336 0
23 101 -246 0
-56 -159 168 0
-257 309 343 0
-19 -42 -194 0
41 -157 232 0
95 223 -325 0
-24 -199 316 0
-77 125 -238 0
-12 -87 173 0
86 135 -263 0
-109 142 -312 0
-19 -184 -322 0
28 -179 -330 0
237 -262 283 0
-123 149 -255 0
1 11 74 0
-128 131 336 0
-54 153 179 0
3 -137 -332 0
-47 -199 -230 0
90 134 210 0
53 -105 223 0
252 -282 340 0
146 -185 221 0
-46 -55 -73 0
-110 153 -320 0
-77 216 220 0
190 195 -229 0
-51 -99 289 0
188 190 -333 0
-130 -150 -168 0
-56 -157 317 0
-56 128 266 0
60 239 298 0
-163 -181 -260 0
-195 204 -266 0
-8 -13 340 0
-95 105 -307 0
19 144 -247 0
-45 -230 331 0
17 151 309 0
199 228 332 0
-12 -249 -254 0
173 -182 304 0
-77 285 -313 0
77 -205 225 0
-11 262 291 0
-52 207 264 0
175 189 -219 0
-4 129 -244 0
-162 -257 283 0
-19 -21 -237 0
90 124 289 0
51 185 -190 0
116 -141 -234 0
-20 -100 147 0
29 89 -288 0
-62 114 249 0
-72 97 -196 0
-81 -193 -326 0
26 101 294 0
13 -31 -289 0
-82 149 154 0
158 -239 294 0
-56 -218 265 0
272 305 -326 0
-2 -198 260 0
-44 -224 338 0
57 88 -325 0
-116 -177 257 0
-48 -64 -123 0
-111 135 234 0
-158 173 -232 0
60 255 -284 0
97 -206 -286 0
-54 196 -207 0
